>compound LU85757729
>parentmass 429.1533
>ionization [M+H]+
>formula C22H19F3N4O2
>rt 1080.000000
>profile orbitrap
#smiles_iso CC1=CC2=C(C=C1C(F)(F)F)N(CC2)C(=O)NC3=CN=C(C=C3)OC4=C(N=CC=C4)C
#smiles_can CC1=CC2=C(C=C1C(F)(F)F)N(CC2)C(=O)NC3=CN=C(C=C3)OC4=C(N=CC=C4)C
#inchikey ZETBBVYSBABLHL-UHFFFAOYSA-N
#pubchem_id 443391
#mb_accession LU063001,LU063002,LU063003,LU063004,LU063005,LU063006

>ms2peaks
228.076600 1794144.400000
429.153200 23775464.000000

>ms2peaks
93.057400 49264.400000
110.059900 152072.600000
202.083700 99111.300000
228.076500 30957630.000000
429.153300 4241415.500000

>ms2peaks
65.038500 84248.800000
92.049400 295047.400000
93.057300 817721.000000
108.044400 57199.400000
110.060000 2905310.800000
121.039600 135056.900000
124.075700 54071.800000
126.054900 124467.800000
133.039500 251008.800000
134.047300 98043.500000
147.055300 100822.200000
151.050100 1207530.400000
157.075800 72564.800000
159.055200 28976.000000
161.034200 33771.300000
165.065800 65884.600000
172.086600 76014.500000
183.055100 97488.100000
185.070600 106088.800000
199.073700 31005.600000
200.081800 529619.600000
201.066400 35478.300000
202.083800 52537.600000
210.066200 422929.900000
211.050000 147453.900000
228.076500 28191760.000000

>ms2peaks
53.038500 28105.500000
65.038500 679005.400000
66.046400 43824.100000
67.041500 19634.100000
68.049400 13033.900000
78.033800 179067.500000
80.049400 341739.000000
82.028600 42274.400000
90.033800 20146.900000
92.049400 1567423.900000
93.057300 3485644.200000
94.028600 58011.500000
96.044300 23474.200000
105.044700 140226.100000
106.052500 29699.100000
108.044400 321358.200000
109.052100 68486.000000
110.060000 5853457.000000
112.064100 11855.900000
119.023900 13634.000000
119.060300 88429.900000
121.039600 517831.700000
124.075700 138561.400000
126.054900 493055.700000
130.065200 34284.000000
131.060500 29673.700000
132.068200 18839.400000
133.039600 1096075.000000
134.047400 587434.500000
135.055300 54849.500000
137.034500 164101.300000
140.049500 15506.900000
140.070400 36254.600000
143.060200 28881.200000
145.039600 23049.400000
145.075900 51595.300000
147.055200 672926.200000
151.050100 5041700.000000
155.060300 176521.300000
156.068100 148600.100000
157.076000 285509.800000
158.047500 63075.700000
158.083700 16857.100000
159.055300 125602.800000
160.050700 61960.300000
161.034600 77255.200000
163.049900 11737.400000
165.065800 328884.500000
167.060700 33373.500000
168.068100 161098.200000
169.052400 15233.900000
169.076000 21070.100000
171.055100 81602.000000
171.078700 27837.300000
172.050400 24305.000000
172.086800 417693.900000
173.058600 62123.100000
173.070800 132001.800000
181.063100 15898.100000
182.070900 86085.400000
183.055300 416113.200000
184.063100 54506.100000
184.086300 15922.600000
185.058400 75692.200000
185.070800 253540.900000
186.065900 76576.600000
186.078500 23513.800000
187.049900 24052.600000
187.060000 16896.300000
199.074000 94422.300000
200.081800 1026282.900000
201.065900 80591.200000
202.083800 19327.200000
209.058400 28693.600000
210.066100 1040824.400000
211.050100 357599.300000
211.073700 84734.800000
227.068500 43944.000000
228.076600 11182167.000000

>ms2peaks
51.023000 11592.700000
52.018100 8359.900000
53.002200 35666.400000
53.038600 87654.600000
53.997300 8637.600000
54.033800 21522.200000
55.017800 23488.900000
55.054300 8312.200000
56.013100 12021.800000
56.049300 15668.700000
64.018100 15709.200000
65.038500 2197892.500000
66.046300 204888.500000
67.017800 12248.000000
67.041600 100137.200000
68.049400 27610.600000
70.028600 8163.100000
74.096300 7402.100000
76.018100 26359.000000
78.033800 881609.800000
79.041600 18086.300000
80.049400 809043.400000
81.044800 11434.200000
81.057200 54163.100000
82.028700 181801.100000
83.049100 9427.300000
89.038300 9606.700000
91.028800 7476.400000
91.041500 8007.900000
92.049400 2862307.000000
93.057300 6151148.500000
94.028600 69431.000000
96.044300 131643.000000
104.049500 41659.800000
105.044700 690346.900000
106.028700 177730.200000
106.052500 200511.800000
107.060400 18831.200000
108.044300 643302.900000
109.052200 205782.300000
110.060000 4911816.000000
112.064200 11802.900000
117.057200 134362.800000
118.052500 36910.900000
119.023900 82862.300000
119.060300 239301.800000
120.044200 17743.800000
121.039500 593017.600000
122.059800 8046.600000
124.075700 142298.800000
126.054900 499866.200000
128.049200 38424.900000
129.044700 17910.700000
130.052700 21871.100000
130.065200 118685.300000
131.060400 93946.100000
131.072800 27952.800000
132.068100 47829.300000
133.039600 1541896.000000
134.047400 920556.500000
135.055300 85058.500000
137.034500 448259.200000
140.049500 44193.300000
140.070600 31722.000000
141.057100 104680.800000
142.052500 35376.500000
143.060300 67668.000000
143.073100 17893.000000
144.044700 7816.200000
144.055700 14286.500000
144.068200 14668.200000
145.039700 59066.200000
145.075900 154097.000000
146.047300 9333.300000
146.059900 24979.100000
147.055200 1016584.600000
151.050100 6002597.000000
153.054200 12511.600000
155.060200 571414.000000
156.068100 476210.200000
157.075900 358569.600000
158.047400 182552.000000
158.059300 47367.800000
158.071200 44061.900000
158.083500 69696.800000
159.055200 184315.000000
160.050500 139813.200000
160.062800 27858.500000
161.034500 47275.700000
162.071100 8695.900000
163.050200 7630.800000
165.065800 415450.900000
166.052400 13550.600000
167.060300 63221.100000
168.068100 433465.900000
169.052400 12553.500000
169.075800 58946.400000
170.071100 26887.400000
171.055200 140627.500000
171.078900 69684.000000
172.050200 43810.700000
172.063100 31130.200000
172.086800 465851.400000
173.058600 47539.200000
173.070800 219725.500000
175.050800 13710.600000
181.063000 55586.900000
182.047600 17867.900000
182.071100 153931.800000
183.055300 589035.900000
184.063200 97912.100000
184.087000 10371.400000
185.058400 133603.100000
185.070900 209665.700000
186.066100 66154.500000
186.078500 22431.700000
187.050200 28839.400000
187.059300 15656.000000
198.065800 66096.200000
199.050400 7355.000000
199.074000 104533.500000
200.081700 578401.900000
201.065700 42718.100000
209.058200 101664.500000
210.066100 1036138.800000
211.050000 268061.400000
211.073900 79268.100000
226.060700 21275.300000
227.069000 26863.200000
228.076600 2182032.200000

>ms2peaks
51.023000 11755.400000
52.018100 16709.700000
53.002200 59004.800000
53.038600 147530.700000
53.997500 9557.900000
54.033800 40768.200000
55.017800 34062.000000
55.054200 17825.700000
56.013100 42723.500000
56.049500 21305.900000
64.018100 41247.600000
65.038500 3226484.500000
66.046300 534549.800000
67.017700 13396.600000
67.041600 241951.500000
68.049300 20711.100000
70.028800 6730.800000
74.096300 7478.300000
76.018100 98047.100000
78.033800 1688577.500000
79.041600 42149.300000
80.049400 870183.200000
81.044600 23269.700000
81.057300 146073.000000
82.028700 337212.300000
83.049100 14516.400000
89.038500 21539.000000
90.033800 135765.200000
91.028900 20692.700000
91.041500 19017.800000
92.049500 2398089.200000
93.057300 5708851.000000
95.036400 19283.900000
96.044300 295431.600000
104.049400 112334.900000
105.044700 1117608.000000
106.028700 266000.300000
106.052500 343013.100000
107.060300 15892.700000
108.044300 527808.200000
109.052200 246977.400000
110.060000 2280833.000000
117.057200 190903.500000
118.052500 49086.100000
118.064900 56396.500000
119.023900 168179.800000
119.060400 387238.600000
120.044300 23774.100000
121.039600 372661.100000
122.059900 10649.300000
124.075700 66135.800000
126.054900 207240.000000
128.049400 95893.100000
129.044700 79316.900000
130.052600 71730.100000
130.065000 162160.600000
131.060400 142397.700000
131.072800 43411.100000
132.068100 86382.700000
133.039600 859645.500000
134.047400 623871.900000
135.055200 66265.900000
137.034500 542485.600000
140.070500 10260.100000
141.057200 169104.800000
142.052500 69345.000000
143.060300 82237.800000
143.073200 10070.900000
144.044300 12391.900000
144.055500 25391.300000
144.068100 24769.300000
145.039600 63979.100000
145.076000 205826.500000
146.046900 7306.900000
147.055200 638356.300000
151.050100 3162745.500000
155.060200 758466.400000
156.068100 515597.800000
157.075900 202110.500000
158.047400 246636.000000
158.058600 32597.700000
158.071300 31671.200000
158.083700 65552.900000
159.055200 103726.800000
160.050400 68489.800000
160.062300 10677.300000
161.034100 10082.600000
165.065800 200129.500000
166.052300 21776.600000
167.060400 53898.800000
168.068100 544819.200000
169.075800 47378.900000
170.071300 55869.100000
171.055200 154364.100000
171.079000 95680.200000
172.062900 25547.600000
172.086800 225606.900000
173.058200 19385.500000
173.070800 103212.500000
175.050300 14174.600000
181.063300 98686.900000
182.047700 45103.200000
182.071100 106353.400000
183.055200 345315.800000
184.063100 67513.100000
185.058200 95763.700000
185.070700 107400.300000
186.066300 31867.900000
187.049800 9290.900000
198.066000 50704.400000
199.074100 44184.600000
200.081500 109137.900000
201.065500 17635.500000
209.058300 104026.300000
210.066100 513289.200000
211.050100 106488.000000
211.073600 26709.300000
226.060900 17038.500000
227.068500 7521.300000
228.076600 228060.900000

