>compound LU85264420
>parentmass 164.04729999999998
>ionization [M+H]+
>formula C6H10ClNO2
>rt 502.730000
>profile orbitrap
#smiles_iso CC(=O)C(C(=O)N(C)C)Cl
#smiles_can CC(=O)C(C(=O)N(C)C)Cl
#inchikey QJACRCAPQIYMIH-UHFFFAOYSA-N
#pubchem_id 93011
#mb_accession LU096601,LU096602,LU096603,LU096604,LU096605,LU096606

>ms2peaks
72.044400 271993.900000
118.989200 1512.000000
122.036800 3671.500000
164.047900 27737.300000

>ms2peaks
72.044300 301205.700000
105.033800 2442.600000
122.036700 4200.600000
164.047800 34222.600000

>ms2peaks
72.044400 355671.700000
104.026200 5338.400000
105.033700 3735.100000
109.052600 3048.600000
118.989600 5642.600000
122.036900 6292.100000
164.047400 3102.800000

>ms2peaks
58.065200 2784.500000
72.044300 245310.600000
104.026200 3993.000000
105.033600 6764.200000
118.989500 2299.100000
122.036600 4106.300000
150.042600 3012.700000

>ms2peaks
56.013100 3277.300000
58.065200 2784.700000
72.044400 237889.500000
94.065100 4037.700000
95.049200 3308.700000
104.026200 5502.100000
105.033600 2922.000000
109.052300 3405.200000
122.036900 1743.500000
150.042500 4985.000000

>ms2peaks
56.013100 5827.600000
58.065200 4053.000000
72.044400 191436.000000
79.054200 4215.600000
94.065200 4546.000000
95.049300 5081.300000
104.026300 2762.500000
109.052400 2449.500000
122.037000 1629.500000
150.042600 4774.100000

