>compound LU85187830
>parentmass 400.1755
>ionization [M+H]+
>formula C22H25NO6
>rt 878.820000
>profile orbitrap
#smiles_iso CC(=O)N[C@H]1CCC2=CC(=C(C(=C2C3=CC=C(C(=O)C=C13)OC)OC)OC)OC
#smiles_can CC(=O)NC1CCC2=CC(=C(C(=C2C3=CC=C(C(=O)C=C13)OC)OC)OC)OC
#inchikey IAKHMKGGTNLKSZ-INIZCTEOSA-N
#pubchem_id 6167
#mb_accession LU032801,LU032802,LU032803,LU032804,LU032805,LU032806

>ms2peaks
310.120800 10862.800000
313.144200 14841.100000
326.137900 12397.800000
341.138800 37731.100000
358.164800 54993.500000
368.149300 17099.800000
382.165000 46690.900000
385.151700 12904.900000
400.175600 10072226.000000

>ms2peaks
56.049500 6196.900000
60.044400 32177.300000
70.028500 3687.100000
75.044100 6861.400000
84.044400 17364.800000
86.060000 6243.400000
136.076100 2983.700000
137.059700 26057.300000
138.055200 3464.000000
145.064700 3625.700000
151.075500 5989.900000
152.070700 11339.100000
155.070300 4590.900000
167.070200 5167.400000
173.059800 3839.300000
176.070800 7233.800000
181.086000 34655.700000
188.083500 4921.900000
190.086100 3634.300000
191.070200 3906.900000
193.073800 3511.800000
194.094100 3829.300000
203.094100 7524.000000
204.078200 4980.500000
205.085700 13459.300000
206.081500 3587.600000
207.101800 8879.800000
219.089000 8259.200000
219.101900 13120.000000
220.096800 6225.100000
222.112700 7275.100000
227.107400 3876.900000
231.102000 3676.000000
234.112500 92263.600000
235.075500 4237.800000
235.096300 9002.800000
238.098200 3595.200000
239.106900 8911.000000
242.094200 8151.300000
245.104800 11003.000000
246.111600 3116.200000
249.090900 14000.200000
250.099100 13227.900000
251.107000 7191.800000
252.114700 7662.600000
253.122300 4246.000000
254.093200 5526.900000
254.129400 2996.000000
255.101600 10140.500000
257.117500 9464.600000
258.088900 6488.800000
258.111900 4860.700000
261.099400 5107.800000
263.070400 4990.100000
263.093800 3197.600000
265.087100 3394.000000
266.093900 15992.900000
266.116800 6458.200000
267.101300 39324.300000
267.125300 5721.800000
268.109600 21884.400000
269.116700 5948.300000
270.088700 7202.700000
270.124900 22736.300000
271.096200 8523.700000
272.104000 5680.900000
273.112200 15142.500000
276.123200 11342.800000
277.086200 44672.400000
277.109700 8190.500000
278.094100 85821.900000
278.112000 5165.100000
279.065600 5602.500000
279.088000 3268.700000
279.102100 18917.700000
280.095500 5828.600000
280.110300 6753.100000
280.133300 3855.400000
281.117300 114889.400000
282.125100 369554.600000
283.081400 3881.300000
283.096500 28151.500000
284.104500 25999.100000
284.127900 9274.800000
285.112100 143868.400000
287.090900 5069.500000
287.127900 11224.800000
292.096200 8546.700000
293.081100 6328.600000
294.088800 56751.100000
294.112300 33122.400000
295.096600 50787.700000
295.120400 73444.100000
296.129200 7878.900000
297.113700 21246.500000
297.134900 15904.100000
298.084200 12322.200000
298.120100 120378.300000
298.143800 115900.800000
299.129100 53005.700000
300.098700 7667.900000
301.107100 13910.300000
301.128100 5538.800000
301.145600 5977.300000
302.115300 28276.200000
306.112600 4376.400000
307.120600 10493.100000
308.104400 15333.300000
308.128100 37633.400000
309.112500 241458.100000
309.135300 26826.000000
310.120300 605029.900000
311.091400 43268.500000
311.115100 55535.300000
312.123300 23596.100000
313.143400 244803.700000
314.136100 14745.000000
315.145800 9470.600000
316.154300 69559.700000
322.143600 9559.300000
323.127800 28959.200000
323.151700 11441.700000
324.121800 23449.700000
325.130700 57991.800000
326.115200 238218.100000
326.138700 454413.200000
327.146900 19853.900000
328.116900 33489.900000
330.133700 41533.800000
330.169100 23037.400000
335.115300 7072.800000
336.123400 11562.100000
338.102700 3714.200000
338.139200 8021.900000
339.146900 51600.100000
340.154500 221826.100000
341.138500 622399.200000
342.133400 36834.500000
343.141300 55315.900000
350.138200 36061.500000
351.146700 10414.200000
352.117100 17204.200000
354.133200 4745.300000
354.169900 41262.600000
357.120400 7619.100000
357.157300 22352.700000
358.165000 1229025.000000
366.134200 8130.400000
367.141400 113070.400000
368.149400 95005.400000
370.128100 5276.900000
382.165000 454016.300000
385.151600 6231.600000
400.175700 2954413.200000

>ms2peaks
56.049500 11865.800000
60.044400 33525.400000
68.049500 5467.100000
70.028800 7327.500000
71.049300 5091.000000
75.044000 8229.100000
79.054300 2588.400000
84.044400 15681.000000
85.028400 5325.100000
86.060000 9834.400000
91.054200 5062.100000
95.049200 5252.200000
100.039300 16052.300000
102.055000 3120.300000
108.044700 3483.500000
117.070200 4357.100000
119.049200 7954.900000
121.064800 3391.800000
123.044200 3445.200000
125.059700 4836.100000
130.065300 4761.800000
131.049300 4281.000000
133.065000 2582.400000
135.044100 3163.400000
136.076000 3278.800000
137.059800 58284.700000
138.054800 6179.900000
138.067800 6529.800000
145.064900 17517.800000
146.060200 4110.700000
146.072300 2644.400000
147.068200 3907.100000
148.051800 5435.800000
148.075900 3518.000000
149.060100 3079.400000
150.055100 10239.900000
150.067600 5765.400000
151.075400 22316.100000
152.070600 30337.100000
155.070500 5403.000000
158.060300 5458.100000
158.072700 3114.700000
160.051800 6993.700000
160.075900 18678.200000
161.059900 4897.000000
162.067200 2421.400000
163.075400 5624.100000
165.071100 5640.900000
165.078500 41042.800000
166.062900 7033.100000
166.086500 3359.900000
167.070500 11567.300000
173.059800 17833.500000
173.083700 2874.500000
174.067800 4500.700000
174.091500 3840.600000
175.063000 13198.600000
175.075600 10996.700000
176.070700 29547.700000
176.083600 10713.700000
177.054800 7807.400000
177.078900 2624.600000
177.090900 4465.400000
178.062700 3758.200000
179.070300 14087.500000
179.085000 4196.000000
180.078100 3607.200000
181.086000 95667.600000
183.080200 5313.100000
188.071200 10878.800000
188.082900 20361.900000
190.062600 5663.000000
190.085900 14671.700000
191.070500 16402.400000
192.066400 3536.800000
192.078400 4502.300000
193.073300 12594.700000
194.094100 6585.700000
195.080800 9326.900000
196.088600 3038.300000
197.060100 3883.200000
198.068700 2833.900000
199.075500 4319.700000
202.086300 9630.500000
203.094400 40510.300000
204.065700 11443.500000
204.078500 11192.800000
205.073600 7925.800000
205.086100 17656.500000
206.072300 5502.400000
206.081700 11405.600000
206.094100 17855.900000
207.080400 14508.000000
207.101600 47436.500000
208.088700 5334.300000
209.059300 3025.200000
209.096500 10961.100000
210.067900 8661.000000
211.075300 9033.500000
211.112200 4569.800000
212.083400 7605.900000
213.091400 5340.200000
216.078700 4778.000000
217.065100 3560.500000
218.082000 6106.300000
218.093600 4102.200000
219.078900 5477.100000
219.089300 24891.500000
219.101800 7979.000000
220.086800 4253.700000
220.098600 13289.400000
220.108600 3861.100000
221.095700 15228.800000
222.066400 2654.000000
222.113000 11652.900000
223.075500 25687.300000
223.111700 4444.100000
224.083300 20591.800000
225.054000 3539.100000
225.080000 4200.300000
225.090900 20825.700000
226.062500 4920.000000
226.098700 26462.600000
227.070100 19349.100000
227.106700 6218.500000
229.086000 5586.400000
231.101400 6102.300000
233.060000 3884.600000
234.067800 15053.500000
234.091300 8504.000000
234.112700 78905.000000
235.075400 58945.600000
235.097800 6178.300000
236.071700 4244.200000
236.083400 18455.700000
236.107200 10734.400000
237.091100 39750.700000
237.114800 10414.800000
238.061800 4186.000000
238.086200 2490.300000
238.098900 34630.900000
239.070300 12237.100000
239.106700 62077.600000
240.078200 22224.700000
240.102200 4584.200000
240.115000 11964.800000
241.086200 29285.900000
242.093900 51575.000000
243.065500 5365.900000
243.102000 5231.500000
245.104700 5626.200000
246.113700 5659.000000
247.075600 12097.900000
247.098700 4039.200000
248.083400 18469.600000
248.107400 4916.100000
249.091100 46211.500000
250.086300 14414.000000
250.099200 57618.000000
250.122500 3895.600000
251.070600 66729.100000
251.094100 8571.800000
251.106800 61699.400000
252.078600 43863.800000
252.101900 24205.800000
252.115100 33896.400000
253.086000 38720.100000
253.109700 7232.800000
253.122400 12256.900000
254.080900 5359.200000
254.094000 30405.500000
254.117600 6672.500000
254.130500 6210.500000
255.065500 31091.400000
255.101700 72248.800000
256.096700 4831.300000
256.109900 19246.000000
257.080600 13610.700000
257.117800 15130.200000
258.088800 24105.600000
258.112700 5251.700000
259.096100 2808.600000
260.108300 3132.700000
261.101400 3527.300000
262.062600 9480.200000
262.086600 8832.200000
263.070400 53597.000000
263.093900 11021.700000
264.064500 4748.500000
264.079100 13450.600000
264.101900 30306.100000
265.086100 68689.400000
265.109400 27294.300000
266.093900 82795.500000
266.117300 25832.400000
267.101700 295602.900000
267.124700 23639.100000
268.073300 17208.800000
268.096600 34725.300000
268.109900 53611.600000
269.080800 39736.000000
269.104100 6151.200000
269.117500 18565.300000
270.088800 90144.100000
270.111900 7374.800000
270.125700 28520.000000
271.096600 32992.800000
272.069100 3368.900000
272.105000 9911.600000
272.128600 11091.500000
273.112000 24940.500000
275.094100 3630.400000
276.078400 8748.100000
276.102300 9441.000000
276.120900 3969.200000
277.086300 49520.800000
277.109500 18526.500000
278.094600 137517.300000
278.117700 11636.300000
279.065400 79340.000000
279.088500 8439.600000
279.102400 82411.000000
279.125400 11467.900000
280.073700 19759.000000
280.095300 57848.100000
280.110500 20765.700000
280.133300 10337.700000
281.081000 11791.000000
281.117500 152524.000000
282.125800 436301.700000
283.096600 198168.200000
284.104800 62085.900000
284.128300 28061.100000
285.076000 18895.100000
285.112400 263369.900000
286.084200 9508.000000
286.107400 17258.400000
287.091400 57182.800000
287.128900 5226.700000
293.081100 52741.600000
293.104800 42662.900000
294.089000 94629.200000
294.112600 91909.300000
295.096900 453895.100000
295.120200 134616.200000
296.090900 82386.000000
296.127900 49021.400000
297.075000 5347.500000
297.112700 51087.400000
297.136100 23815.500000
298.084000 21914.100000
298.120400 144819.200000
298.143900 113979.400000
299.091900 14207.200000
299.114800 30857.900000
299.128500 34051.800000
300.100500 14120.900000
300.122600 112675.200000
301.107400 17498.400000
301.131100 54799.900000
301.147700 3848.700000
302.115300 36439.100000
304.096700 4566.100000
305.104600 4085.000000
306.112600 17113.300000
307.120800 20436.200000
308.104900 26734.500000
308.128500 69631.200000
309.112500 132633.700000
309.135800 32861.700000
310.121600 466601.000000
311.091700 322959.200000
311.115000 86439.900000
312.123000 80085.300000
313.143600 75690.100000
314.101400 36094.900000
314.138300 62334.900000
315.107000 12292.700000
315.147500 9854.100000
316.154400 43673.900000
320.091900 12575.500000
320.128600 6848.900000
321.099200 13768.400000
322.107200 4603.600000
322.143700 11252.500000
323.114800 9729.600000
323.130500 7546.300000
324.123100 143448.200000
325.107500 29783.300000
325.131400 53515.400000
326.115200 177751.800000
326.139000 186605.000000
327.145600 23768.600000
328.118000 192945.300000
330.134400 15473.300000
330.169700 12906.300000
334.107800 11450.000000
335.115400 9118.100000
336.123600 27113.000000
337.095000 5480.400000
338.104600 3910.800000
338.138900 25668.800000
339.146700 108592.400000
340.154500 96860.800000
341.138700 103452.000000
342.133700 131721.100000
343.141700 53018.200000
350.138100 12144.600000
351.109300 3673.100000
351.147000 5511.200000
352.118200 41069.700000
354.132700 3811.800000
354.169500 19044.200000
357.120500 5261.500000
357.157800 8743.900000
358.165000 170835.400000
366.134400 16514.000000
367.141600 49955.700000
368.149400 5167.500000
370.128600 6088.100000
382.164900 24153.200000
384.144500 7557.100000
400.176100 36269.800000

>ms2peaks
55.017800 6757.800000
56.049500 16203.700000
60.044400 30596.700000
65.038500 5634.000000
68.049300 5336.400000
70.028700 12233.800000
71.049100 2959.300000
75.043900 8991.900000
78.046400 3730.400000
79.054200 3624.600000
80.049500 5707.600000
84.044300 10299.900000
85.028400 4968.700000
86.060000 6320.500000
91.054200 19181.000000
94.041300 2713.200000
95.049100 6847.000000
100.039300 6479.100000
103.054300 7427.300000
104.049000 4131.700000
104.062000 5255.500000
105.069900 5873.400000
107.049100 9572.700000
109.064600 4152.700000
110.036200 9605.100000
110.059900 4607.900000
111.044000 8947.600000
115.054300 7785.900000
116.061900 3154.900000
117.069700 6160.900000
118.064900 5517.200000
119.049100 15481.000000
119.073000 3330.500000
121.064700 6113.000000
122.036100 8044.000000
123.043800 8381.700000
125.059700 11110.800000
128.062000 3759.400000
130.041400 3914.900000
130.065100 8703.100000
131.049100 11752.200000
132.057100 6454.000000
133.052200 47299.700000
133.064900 9288.000000
134.060400 2751.400000
135.044100 4522.100000
136.051800 3085.500000
136.075800 5065.900000
137.047100 7548.700000
137.059700 78064.500000
138.067500 8591.500000
139.054200 3198.100000
144.057100 4943.000000
145.064800 26786.800000
146.060000 9235.200000
146.072300 4810.400000
147.044000 12204.100000
147.067900 5940.800000
147.080500 4592.300000
148.051500 14586.900000
148.075600 20337.000000
149.046500 3031.200000
149.059500 8929.200000
150.055100 38926.300000
150.067500 5425.000000
151.039000 6874.000000
151.075400 20398.600000
152.063400 5373.200000
152.070600 24565.800000
153.069900 7287.800000
158.060000 8197.900000
158.072600 3333.900000
159.043800 6333.400000
159.068000 4058.200000
159.080300 3565.700000
160.051900 9415.700000
160.075700 20999.600000
161.047400 5893.600000
161.059600 15666.800000
162.055000 5305.300000
162.067400 5093.300000
163.075400 16166.600000
164.070300 13140.700000
165.070000 20502.500000
165.078500 29829.800000
166.062600 14309.700000
166.077700 7155.100000
167.070400 3650.400000
167.085600 22596.700000
168.078500 3855.100000
169.064900 5810.800000
170.072400 3408.100000
172.052400 2910.100000
172.075800 5779.600000
173.059700 16323.900000
173.083500 4081.400000
174.067600 9613.900000
174.091500 5867.700000
175.039300 6520.700000
175.062700 12495.900000
175.075200 14634.000000
176.070600 59690.300000
176.083200 30451.300000
177.054800 27521.500000
177.069700 5964.200000
177.078200 3654.300000
177.091200 5194.500000
178.062800 4371.200000
178.077800 15241.300000
178.085800 4608.200000
179.070600 20968.900000
179.085500 28762.200000
180.057300 5997.800000
180.080100 3654.900000
180.093600 2926.200000
181.064600 26817.800000
181.085900 70589.000000
181.100700 7176.000000
182.072800 20128.000000
183.080400 16512.400000
184.052100 5020.000000
184.075500 3440.500000
185.059900 9583.200000
185.096300 3643.100000
186.053800 3270.000000
186.066800 3370.900000
187.075000 6601.800000
188.046000 2536.100000
188.070700 28026.900000
188.082800 16115.800000
189.054600 4345.300000
189.070200 12941.600000
189.078600 3428.300000
190.051100 3463.200000
190.062500 10437.500000
190.077700 4907.300000
190.085600 14077.000000
191.070500 26979.600000
191.085300 21494.700000
192.057000 4153.900000
192.065600 19202.100000
192.078100 3510.500000
192.093700 5035.900000
193.065100 12764.600000
193.074200 3664.300000
193.101300 4428.600000
194.072700 19891.900000
194.096100 4299.100000
195.044300 5400.900000
195.080400 72740.200000
196.088200 29674.000000
197.059600 24100.900000
197.083900 3246.700000
197.096100 15879.600000
198.067500 15429.800000
198.091000 4528.700000
199.075300 34783.900000
201.054700 6127.500000
201.090500 3013.400000
202.077400 4852.800000
202.086600 5189.100000
203.070700 4371.500000
203.084700 4549.800000
203.094100 30716.200000
204.065500 27108.800000
204.079000 8270.800000
205.064600 33115.800000
205.074000 7212.400000
205.085100 13233.200000
206.072200 37345.500000
206.081800 7576.200000
206.095000 10686.600000
207.069000 5193.400000
207.080300 81838.100000
207.101600 27532.900000
208.052000 8838.000000
208.076700 5111.100000
208.088000 37632.300000
209.059900 25847.600000
209.084400 6207.300000
209.096000 39687.300000
210.067400 28068.700000
210.091500 5578.100000
210.103700 4915.800000
211.075300 63013.600000
211.100400 5030.100000
211.111500 20268.600000
212.071900 2769.200000
212.083100 36340.000000
212.105800 3277.600000
213.054900 4621.500000
213.090800 21427.300000
214.086300 3876.900000
215.070300 12398.800000
216.078900 5057.400000
217.064700 11737.600000
217.085800 4135.500000
218.071900 6725.800000
218.082700 14685.700000
218.093000 4207.300000
219.068500 5881.300000
219.078900 30063.200000
219.089300 9368.400000
220.051800 8036.900000
220.075500 9155.600000
220.088100 19649.800000
220.097200 11492.000000
221.059900 26166.100000
221.084000 5290.600000
221.095700 35498.600000
222.067400 26473.900000
222.091900 19443.300000
222.113200 4090.700000
223.075300 123671.300000
223.099100 7341.300000
223.111400 6512.500000
224.071500 9182.700000
224.083100 116036.800000
224.106600 10331.300000
225.054300 20778.100000
225.078600 9835.600000
225.090800 65739.800000
226.062900 17435.900000
226.086300 14714.000000
226.098900 25491.100000
227.070300 110265.100000
227.106500 31895.900000
228.066000 3695.000000
228.078100 10576.600000
228.101700 4384.500000
229.086000 8573.300000
231.102200 3658.000000
232.075900 4239.500000
233.060000 29033.800000
233.082800 6665.500000
233.095500 5001.400000
234.067600 40719.300000
234.091100 24127.400000
234.112700 10761.600000
235.075300 161868.200000
235.099000 12393.100000
236.047000 7857.600000
236.070700 14242.900000
236.083100 76442.400000
236.106300 34811.700000
237.054800 24057.700000
237.078400 12024.800000
237.090900 121201.900000
237.114500 10375.500000
238.063100 13339.700000
238.085800 10757.500000
238.098900 43360.600000
239.070200 44239.100000
239.094300 11929.800000
239.106500 173174.200000
240.065200 7387.800000
240.078000 92302.400000
240.101800 27822.900000
240.114900 11746.800000
241.085800 105025.200000
242.058400 4839.500000
242.081000 9351.700000
242.093700 50566.100000
243.065000 23533.900000
243.088900 5923.000000
243.102100 7176.100000
244.073300 5948.300000
246.091200 6734.000000
247.075700 33434.800000
247.098900 6318.600000
248.069900 8815.200000
248.083500 28501.400000
248.106700 15871.400000
249.054600 11902.400000
249.078100 16625.000000
249.091200 58614.200000
250.062800 27003.700000
250.086200 48146.100000
250.099200 49481.000000
250.122200 3954.400000
251.070200 191902.000000
251.093900 22921.200000
251.106800 79176.600000
252.078200 152851.200000
252.101900 60456.500000
252.115000 20197.600000
253.050600 15364.800000
253.073100 14187.800000
253.086100 67867.700000
253.122700 6579.200000
254.057500 6638.600000
254.081100 23613.900000
254.093900 32646.200000
254.117000 18334.600000
255.065200 107434.000000
255.089800 5439.400000
255.101400 94268.200000
256.059800 5607.600000
256.073000 19041.200000
256.095900 15140.700000
256.109400 13924.800000
257.080700 18283.900000
257.103800 4775.600000
257.117100 4621.100000
258.089000 10205.500000
258.112900 6785.200000
259.096200 14044.500000
261.053900 5771.600000
261.077600 3700.700000
262.062400 10807.600000
262.085300 12905.800000
263.070400 103647.300000
263.093400 22363.300000
264.042100 4268.900000
264.064900 10792.500000
264.078700 36525.300000
264.101800 68786.800000
265.049900 10469.500000
265.086100 140688.400000
265.109200 28622.600000
266.057700 3571.100000
266.080500 16931.800000
266.094000 69111.300000
266.117300 27732.000000
267.090300 23987.200000
267.101700 464870.500000
268.073100 74771.500000
268.096800 104422.300000
268.110000 22220.500000
269.080800 82059.600000
269.104300 6074.600000
269.117500 13093.500000
270.075900 5584.200000
270.088900 63279.900000
270.111400 18073.200000
270.125100 5792.100000
271.060400 10971.500000
271.083000 7593.800000
271.096800 35199.900000
272.067500 6946.600000
272.092100 9925.200000
272.128600 15895.800000
273.112300 7811.900000
274.085100 3277.100000
275.070800 4471.600000
275.094200 7438.400000
276.078200 6098.600000
276.102400 16865.400000
277.072500 6191.600000
277.086100 38498.200000
277.110000 11855.200000
278.057100 9557.100000
278.080800 38335.900000
278.094100 39802.700000
278.117200 18871.300000
279.065400 103119.600000
279.088100 20766.700000
279.102100 42524.200000
279.124600 5459.200000
280.056900 4633.000000
280.073300 71090.500000
280.096900 83220.800000
281.044600 4107.200000
281.067600 10339.200000
281.084100 17327.000000
281.104000 23765.600000
282.075200 9553.600000
282.112200 66653.100000
282.125600 73469.100000
283.096500 213043.100000
284.089100 27830.100000
284.105200 18554.300000
284.127100 17174.100000
285.076000 20972.500000
285.098900 13686.200000
286.087900 4526.400000
286.106900 47786.900000
287.091300 63044.400000
290.080900 3999.400000
291.088900 9811.700000
292.095800 45320.800000
292.134000 3546.100000
293.081000 53006.600000
293.104600 51018.900000
294.075400 11204.300000
294.089300 28601.900000
294.112700 73535.600000
295.096900 305046.300000
295.119600 32977.400000
296.068200 32517.400000
296.091800 83417.700000
296.127900 34980.300000
297.075400 8428.900000
297.113900 37430.900000
298.120200 21835.600000
299.091500 11833.400000
299.115100 14700.000000
300.122900 138841.800000
301.131200 28068.400000
302.115200 3866.000000
304.096300 4037.900000
305.104000 4573.100000
306.112100 21889.100000
307.119000 4787.800000
308.091000 32865.700000
308.127600 31964.700000
309.095900 28276.400000
309.136300 5357.200000
310.107300 57088.400000
310.121900 27732.300000
311.091600 185148.900000
311.114300 20904.500000
312.086300 5617.300000
312.122500 31128.000000
314.102200 33207.600000
314.137300 16189.400000
315.110900 3857.700000
320.092200 10251.500000
320.128800 3771.200000
321.099600 8931.000000
322.107800 7012.700000
322.143400 4371.100000
323.114400 13184.400000
323.151400 3120.900000
324.122900 77499.600000
325.108000 26627.500000
325.129000 4610.900000
326.114800 12488.400000
326.139000 16300.400000
327.110800 7957.900000
328.117700 49043.700000
334.107000 7014.700000
336.087000 7961.100000
336.122600 5707.200000
337.094700 5437.400000
338.139200 12304.100000
339.146200 13209.800000
340.154000 3493.700000
341.139200 3444.100000
342.133700 50973.400000
343.141700 5367.000000
351.109800 7410.700000
352.118400 7515.900000
366.134300 6368.900000
384.146200 3929.000000

>ms2peaks
53.038700 3390.700000
55.017900 16676.200000
56.049500 16330.500000
60.044400 19403.500000
65.038500 9151.300000
67.054200 2702.400000
68.049400 5633.400000
68.997100 4706.500000
70.028700 9091.900000
71.049000 3492.100000
75.044000 2590.500000
78.046400 9050.900000
79.054200 9276.200000
80.049400 8381.600000
81.033500 4581.600000
81.069900 3810.100000
84.044400 9088.900000
85.028300 7751.300000
91.054300 39438.000000
93.033300 5029.400000
94.041400 9510.100000
94.065200 3483.500000
95.049300 13656.900000
100.039200 3834.700000
102.046500 4410.100000
103.054300 20933.300000
104.049300 5356.500000
104.062000 10688.900000
105.069900 10259.600000
106.065000 5004.800000
107.049100 18320.600000
108.044200 5105.300000
109.052400 3258.600000
109.065000 4833.800000
110.036200 8952.800000
110.060000 3545.100000
111.044000 11478.300000
115.054100 23624.900000
116.061900 4618.600000
117.057300 3248.800000
117.069900 9400.900000
118.041300 4360.300000
118.065000 10787.900000
119.049200 27147.900000
119.073100 5219.400000
120.044300 3506.100000
120.080700 4880.000000
121.064800 11899.600000
122.036300 16909.800000
122.060200 4361.100000
123.044000 14432.900000
125.059600 10678.700000
128.062100 9810.200000
129.069800 9772.100000
130.041300 9025.600000
130.065200 17512.700000
131.049200 33731.700000
131.072800 4678.800000
132.044700 4780.700000
132.057100 8747.200000
132.080800 7827.400000
133.052200 127795.800000
133.064600 24461.300000
134.059900 6075.400000
135.031400 8888.900000
135.044200 9386.300000
136.051800 7618.900000
137.047200 10456.600000
137.059800 91043.900000
138.067600 10171.300000
139.054400 11493.200000
140.062000 3113.000000
141.069800 17716.900000
142.077300 2959.300000
143.049000 7455.600000
143.085600 4277.000000
144.057100 9754.900000
144.080500 4614.400000
145.051900 5757.300000
145.064900 32173.800000
146.036300 3110.200000
146.060300 15984.400000
146.072700 7639.800000
147.044100 22829.700000
147.067800 10877.500000
147.080700 3884.900000
148.051900 34782.300000
148.075500 14853.300000
149.059800 11886.900000
150.054900 50952.000000
150.067700 3689.800000
151.038900 12869.100000
151.075400 13129.400000
152.062100 46150.500000
152.070700 13358.000000
153.069900 58050.700000
154.077700 7914.400000
155.049500 7249.500000
155.085500 14984.400000
156.057000 7641.300000
156.081100 3152.900000
157.064900 10020.300000
158.060000 10766.700000
158.072500 7441.900000
159.044000 12060.000000
159.067700 8047.500000
160.051800 9055.600000
160.075700 24536.100000
161.047000 11032.700000
161.059600 34511.800000
162.030700 3134.500000
162.054900 10099.400000
163.054600 5746.100000
163.062800 4156.000000
163.075400 11717.400000
164.063200 2858.100000
164.070500 16267.900000
165.069900 102038.300000
165.078200 7450.500000
166.062400 6949.900000
166.077900 43542.100000
166.085700 3742.800000
167.048900 12927.100000
167.071100 4325.400000
167.085500 70652.200000
168.057200 25043.100000
168.080900 6129.800000
168.093300 5394.000000
169.064800 43371.700000
170.060000 4356.700000
170.072800 9203.000000
171.043700 6652.700000
171.067100 3064.000000
171.080300 22448.000000
172.052000 4815.400000
172.075500 8034.500000
173.059700 13933.300000
174.055000 4210.300000
174.067800 7161.800000
175.038700 9192.900000
175.062700 11634.900000
175.075600 11647.700000
176.062100 12380.900000
176.070600 36319.400000
176.083200 36857.300000
177.055000 25054.500000
177.069900 51927.100000
178.077800 72144.400000
178.086800 3870.100000
179.070800 11936.900000
179.085500 83837.100000
180.057000 25545.700000
180.080300 14620.500000
180.093400 6484.000000
181.064900 123037.200000
181.085700 24637.100000
181.100400 12857.900000
182.060300 3434.800000
182.061900 3698.500000
182.072700 61465.000000
182.096500 6324.100000
183.044100 11744.100000
183.068300 5515.300000
183.080600 46990.900000
184.051900 25446.100000
184.075700 6750.600000
184.088400 18112.000000
185.059600 22093.100000
185.095900 9258.200000
186.055100 4395.300000
186.067900 5244.200000
187.039200 3184.200000
187.075900 13305.100000
188.070800 33434.500000
188.083100 7443.300000
189.054500 7869.300000
189.069800 45913.500000
189.078900 2541.300000
190.049800 5871.300000
190.062900 6937.500000
190.077700 25872.500000
190.086300 8519.400000
191.049500 4584.100000
191.070800 18208.500000
191.085500 49889.200000
192.057400 15399.500000
192.065500 13803.700000
192.080500 12545.900000
192.093300 5727.100000
193.065000 38804.400000
193.088500 10215.600000
193.099800 4573.100000
194.072700 81363.000000
194.096000 14633.800000
195.080500 166707.000000
196.052100 15478.600000
196.076000 16347.100000
196.088300 78123.900000
197.059800 88394.700000
197.083800 23974.700000
197.095600 26107.100000
198.067400 51445.300000
198.091200 6417.400000
199.039200 4614.600000
199.064600 4870.900000
199.075400 84223.000000
200.046800 6316.300000
200.070600 5784.300000
200.083300 4121.000000
201.054700 11866.100000
201.091100 6730.900000
202.077500 6991.300000
202.087000 4565.900000
203.070700 5003.200000
203.085100 6544.400000
203.094500 8307.700000
204.056900 7410.400000
204.065700 14178.500000
204.080700 15125.300000
205.064900 104624.300000
205.087700 8435.800000
206.072600 60538.100000
206.082400 4627.200000
206.096400 11105.300000
207.068300 17163.300000
207.080400 146772.800000
207.101900 7816.300000
208.051900 36705.600000
208.075700 24597.500000
208.088300 74248.700000
208.111800 7275.000000
209.059900 101354.300000
209.083600 19612.100000
209.096000 68055.500000
210.067500 49630.000000
210.091300 23612.600000
210.103300 6948.200000
211.063700 8366.400000
211.075300 109067.000000
211.099000 13341.200000
211.111700 15339.500000
212.046800 32145.100000
212.071000 12311.000000
212.083000 78412.300000
212.106800 8383.700000
213.054600 23289.600000
213.078900 5884.500000
213.090700 35135.300000
214.051100 3556.300000
214.062300 15659.700000
214.086200 13197.400000
215.070600 21194.200000
216.078100 5742.900000
217.064700 12131.700000
217.087200 4909.100000
218.071900 20201.000000
218.079700 3103.200000
218.083000 4572.600000
218.096900 7373.000000
219.044000 4497.800000
219.067600 8655.900000
219.080000 59722.000000
219.090900 4394.500000
220.051900 38793.500000
220.075700 25131.100000
220.088300 18733.000000
220.098500 3332.400000
220.110700 3272.800000
221.059800 79394.800000
221.083500 27565.800000
221.096200 30788.200000
222.055500 6290.200000
222.067500 85294.600000
222.091500 46667.200000
223.075400 196699.200000
223.099000 14641.900000
224.071000 21105.300000
224.083100 221363.700000
224.106800 20210.500000
225.054700 83421.100000
225.078400 48687.200000
225.091000 68142.000000
226.062400 53485.000000
226.086300 26669.800000
226.098900 20419.600000
227.070200 132554.100000
227.106500 19503.100000
228.041700 4277.700000
228.065400 12696.600000
228.078400 20680.000000
228.101700 9820.100000
229.050100 14199.200000
229.075100 5411.000000
229.086100 11875.900000
231.079300 3980.200000
232.051500 6482.800000
232.076300 13257.500000
233.059800 36179.300000
233.083100 15429.900000
233.095400 5457.800000
234.067800 52280.100000
234.091500 39377.400000
235.063000 11949.800000
235.075300 173786.600000
235.096600 21873.900000
236.047400 32189.900000
236.070500 39562.000000
236.083300 81946.400000
236.106300 34806.900000
237.054600 90712.300000
237.078300 24288.100000
237.091000 113318.100000
238.062600 24027.100000
238.086200 37370.700000
238.098900 25257.000000
239.057400 5532.400000
239.070300 72649.600000
239.093900 26898.000000
239.106700 108809.000000
240.041500 7153.100000
240.065400 16800.000000
240.078100 129166.700000
240.101200 36076.100000
241.049800 15812.300000
241.073500 9291.000000
241.085900 92441.300000
242.058700 14426.800000
242.081100 35240.200000
242.094000 11329.600000
243.065300 24586.600000
243.088800 11633.800000
243.101600 5966.500000
244.072900 8307.400000
246.091500 10628.600000
247.062400 5168.500000
247.075500 26230.800000
247.099100 8287.200000
248.047000 7333.900000
248.071700 18534.300000
248.082700 20643.900000
248.106700 9009.200000
249.054800 27218.600000
249.078300 33634.900000
249.091300 42055.500000
250.062800 64230.000000
250.086000 69393.600000
250.099100 13179.900000
251.070400 178088.400000
251.093900 28026.300000
251.106800 34545.900000
252.065400 23942.800000
252.078300 184567.000000
252.100900 48153.900000
253.049700 61168.500000
253.072900 45218.000000
253.086000 45912.300000
253.108600 13071.300000
253.122000 3399.400000
254.058000 15490.400000
254.081000 25568.200000
254.094100 13055.700000
254.117900 6815.600000
255.065300 72098.400000
255.089300 6457.900000
255.101600 49371.400000
256.060200 16290.800000
256.073200 26109.700000
256.096200 24510.900000
256.110200 4324.200000
257.044000 10366.300000
257.081400 12739.700000
257.105100 13013.100000
258.089100 3351.300000
258.112500 4637.900000
259.096500 9356.700000
260.107400 4185.800000
261.054000 4041.600000
261.078600 7428.200000
262.062600 10254.900000
262.086000 21966.600000
263.056800 5020.800000
263.070600 48625.000000
263.093900 27343.300000
264.041900 4574.300000
264.065000 19277.800000
264.078700 29848.300000
264.101900 48245.900000
265.050000 29643.500000
265.072800 12005.900000
265.086400 74538.700000
265.108700 12776.900000
266.081000 51817.500000
266.094200 23397.000000
266.117800 17212.200000
267.066100 45884.300000
267.088800 23813.600000
267.101900 202158.500000
268.073100 78449.100000
268.096800 58650.700000
269.069000 3463.100000
269.081200 49141.000000
269.103500 3673.600000
269.117500 3627.700000
270.074600 19573.000000
270.089100 10228.100000
270.112500 6945.400000
271.059800 12062.700000
271.082800 16109.800000
271.097300 6205.700000
272.067900 3322.100000
272.091700 5159.300000
272.128600 7170.800000
274.086500 5275.100000
275.069900 3199.000000
275.093600 4340.100000
276.065000 5038.200000
276.102200 9512.000000
277.049500 6345.800000
277.073000 8290.600000
277.110100 5783.600000
278.057500 8261.100000
278.080800 42509.100000
278.094600 3991.600000
278.117400 7870.000000
279.065500 42931.400000
279.102300 9998.200000
280.073200 48482.100000
280.096800 51815.700000
281.044400 12669.100000
281.068000 12539.400000
281.084300 14100.700000
281.117800 9672.800000
282.075400 8673.100000
282.092000 18881.600000
282.112100 36907.000000
283.082100 4405.300000
283.096900 52050.200000
284.091100 29259.200000
284.128000 4459.200000
285.076300 6859.200000
285.099300 11863.300000
286.107400 15126.600000
287.091900 16065.500000
291.088800 7048.200000
292.096800 28958.900000
293.103900 22526.400000
294.074500 21066.800000
295.061000 17476.500000
295.097500 49755.200000
296.068200 19525.300000
296.090900 29369.900000
296.127900 7233.400000
297.112200 9140.100000
298.070500 9175.400000
299.115100 5346.800000
300.123200 29059.600000
304.097200 4344.700000
306.076100 3672.400000
306.112800 4678.400000
307.122700 3175.600000
308.092100 32061.700000
308.128600 3234.200000
309.097100 13186.000000
310.106100 13388.600000
311.091900 27253.500000
312.087500 3869.400000
314.101100 5088.500000
320.092000 3188.400000
322.107000 4991.100000
323.115300 6550.700000
324.123500 13072.800000
327.109100 4105.400000
336.086100 4465.500000

>ms2peaks
53.038600 11198.200000
55.017900 25442.200000
56.049400 14172.900000
60.044400 12103.300000
65.038600 20556.400000
67.054200 6070.200000
68.049400 2923.200000
68.997100 14583.300000
70.028700 10423.000000
71.049100 2723.400000
75.044100 4516.000000
78.046400 17415.800000
79.054200 20764.900000
80.049400 12006.200000
81.033500 7990.800000
81.069800 4279.500000
84.044500 4729.800000
85.028400 5125.900000
91.054300 85930.300000
93.033500 3674.700000
94.041300 26714.700000
94.065100 8408.100000
95.049200 31303.100000
102.046400 13089.100000
103.054200 39119.900000
104.049500 20856.600000
104.062100 12037.500000
105.069900 18375.500000
106.065100 7019.900000
107.049200 19071.700000
108.044300 3425.100000
109.052200 10328.100000
109.065000 5876.900000
110.036300 10216.000000
111.044200 7880.100000
115.054200 61813.000000
116.062000 11525.700000
117.057500 10077.100000
117.070000 17312.500000
118.041400 11096.900000
118.064900 14101.300000
119.049100 29351.000000
119.072700 2843.800000
120.044300 5489.200000
120.080900 4739.600000
121.064700 10662.800000
122.036200 31591.800000
122.059800 5375.100000
123.044200 20740.200000
125.059500 4974.300000
128.062100 45991.900000
129.069900 25439.900000
130.041500 10698.300000
130.065300 23303.300000
131.049200 41397.300000
131.073000 4855.000000
132.044800 6816.500000
132.057100 11471.200000
132.080700 5943.300000
133.052300 118150.900000
133.064600 26977.100000
134.060100 9467.200000
135.031500 21785.800000
135.044000 11005.800000
136.051700 6006.000000
137.047400 11447.200000
137.059700 70922.500000
138.067500 4763.300000
139.054200 34371.200000
140.062200 14537.000000
141.069900 91730.300000
142.077700 12382.100000
143.049000 9638.000000
143.085700 7097.000000
144.056900 19124.800000
144.080800 6412.400000
145.052300 16570.800000
145.064800 40568.100000
146.036300 5381.500000
146.060100 24312.000000
146.072500 4705.000000
147.044100 24630.900000
147.068100 6493.500000
148.052000 34151.600000
148.075700 9109.400000
149.047400 3672.600000
149.059600 17318.300000
150.055100 43794.900000
150.067500 7847.700000
151.039100 11072.800000
151.075600 5056.600000
152.062100 198440.500000
153.069900 180621.000000
154.077700 25197.200000
155.049300 38101.200000
155.085600 30904.500000
156.056900 39294.000000
156.080900 4379.800000
157.064800 25165.700000
158.060200 13054.900000
158.072900 7925.500000
159.044300 11296.800000
159.068000 7400.600000
159.080400 8372.700000
160.051800 12095.900000
160.075900 21952.600000
161.047700 14114.000000
161.059700 42280.200000
162.031700 4112.400000
162.055000 9739.400000
162.067400 2745.900000
163.054100 14710.900000
163.062300 2752.300000
163.075800 5272.100000
164.062200 12933.500000
164.070900 10826.700000
165.070000 355238.700000
166.077800 110389.800000
167.049100 39711.100000
167.085600 104927.400000
168.057100 84909.400000
168.080600 24415.100000
168.093300 4512.800000
169.064900 162427.300000
170.059800 7483.900000
170.072700 25629.600000
171.044100 16264.600000
171.067600 5741.300000
171.080600 40493.000000
172.052100 12855.600000
172.075600 8165.600000
173.059700 17763.000000
174.055200 6380.600000
174.067900 4806.300000
175.038900 5580.100000
175.062700 8086.100000
175.075700 7474.400000
176.062100 67873.400000
176.070800 18874.300000
176.083300 10948.500000
177.070000 108489.700000
178.077800 189767.000000
179.071500 11981.000000
179.085600 118065.000000
180.057000 71813.900000
180.080800 45576.400000
180.093600 6128.200000
181.064900 323009.300000
181.088400 17943.500000
182.059800 11074.000000
182.072800 89779.700000
182.096800 10044.600000
183.044200 36331.300000
183.068000 17291.800000
183.080500 70553.500000
184.052100 70236.700000
184.075800 17483.400000
184.088300 27726.100000
185.059900 42060.200000
185.095900 7285.100000
186.055200 7320.100000
186.067600 10725.700000
187.039500 3863.700000
187.075600 12519.900000
188.046600 4428.100000
188.070900 18912.700000
189.055400 5680.900000
189.070000 93553.500000
189.079500 5767.900000
190.049900 8338.400000
190.077800 40930.000000
191.049400 11440.700000
191.085600 56414.200000
192.057100 61811.100000
192.065500 5900.400000
192.080600 32182.800000
192.091100 5015.000000
193.065000 105751.900000
193.088800 22911.800000
193.101400 6035.400000
194.072800 144096.700000
194.096100 30793.700000
195.044800 15102.900000
195.080600 216030.400000
196.052100 38385.400000
196.075900 66476.800000
196.088400 93171.400000
197.059900 196184.600000
197.083600 55229.200000
197.096000 22211.000000
198.067600 82206.400000
198.090700 13547.000000
199.039200 15377.100000
199.064100 7121.300000
199.075400 79431.500000
200.047100 13305.700000
200.070800 17759.600000
200.081700 4258.500000
201.054700 22875.900000
201.090900 3927.400000
202.077900 10906.500000
203.085700 7139.100000
204.056600 18954.600000
204.066300 6969.100000
204.080900 30818.500000
205.065000 148516.900000
205.088000 17933.100000
206.072600 76249.600000
206.096600 14186.500000
207.068300 34100.700000
207.080600 136181.900000
208.052000 70949.100000
208.075900 43746.500000
208.088400 68623.600000
208.112000 4871.200000
209.059800 171905.000000
209.083800 33894.800000
209.096300 43428.900000
210.067500 58784.500000
210.091500 43943.000000
211.063400 16869.400000
211.075300 115649.400000
211.099200 15618.500000
212.046900 55175.300000
212.070900 36354.700000
212.083300 65519.300000
212.107700 8170.600000
213.054700 46472.600000
213.078500 14628.600000
213.091100 25013.300000
214.050800 4855.500000
214.062600 9837.200000
214.086400 18338.200000
215.070300 22084.100000
217.064900 8947.300000
218.072300 18600.000000
218.096200 13384.900000
219.044200 4014.200000
219.067800 13734.400000
219.080700 43510.200000
220.052000 58718.300000
220.075900 50811.800000
220.088400 13727.700000
221.059900 138896.200000
221.083700 43860.500000
221.096400 19006.900000
222.055300 7489.300000
222.067600 86344.200000
222.091600 52746.200000
223.075500 163415.400000
224.070800 40888.000000
224.083400 166635.300000
224.105700 12585.700000
225.054700 117128.500000
225.078500 53657.100000
225.091100 35457.300000
226.062300 47183.100000
226.086600 31542.900000
226.098600 5804.100000
227.070100 75981.400000
227.106800 6402.500000
228.041700 7876.400000
228.065500 23482.100000
228.078500 11633.700000
228.102200 15557.700000
229.049600 17286.700000
229.074100 7482.200000
229.086100 4351.100000
231.079600 3341.600000
232.052700 5765.600000
232.076000 9422.900000
233.060100 22293.600000
233.084200 14249.000000
233.095800 5587.100000
234.067500 36579.700000
234.090900 35726.000000
235.062700 14439.500000
235.075300 96834.100000
235.098900 9373.500000
236.047200 46921.000000
236.070700 45952.600000
236.083500 33419.400000
236.106600 19915.200000
237.054800 111933.600000
237.078300 32818.500000
237.091300 49009.400000
238.062400 25672.900000
238.086000 51703.700000
238.098700 5561.200000
239.057400 7701.500000
239.070200 69094.500000
239.093900 19372.800000
239.106900 33794.900000
240.042100 9900.800000
240.065600 21356.900000
240.078400 61873.400000
241.049900 18730.300000
241.073000 10346.000000
241.086300 30688.400000
242.057500 9549.900000
242.081200 41365.200000
243.065400 15018.000000
243.089000 4528.400000
244.073900 6327.500000
246.091600 9067.500000
247.063100 3779.600000
247.076000 10004.100000
247.098900 5091.400000
248.047100 6904.800000
248.070500 21467.200000
248.083700 6778.100000
248.107100 7846.800000
249.055000 32727.800000
249.078600 32065.200000
249.091500 12506.700000
250.063000 31932.800000
250.086100 53606.200000
250.100600 4601.100000
251.070400 105803.900000
251.107300 7682.300000
252.065200 24778.400000
252.078400 78154.100000
252.101200 20800.300000
253.049700 53408.100000
253.073000 22450.800000
253.086400 16419.900000
253.110000 4557.100000
254.058000 13122.500000
254.081400 17977.600000
254.094400 5805.300000
254.119100 3092.400000
255.065200 22804.400000
255.088400 5703.100000
255.101700 14081.900000
256.060200 16927.600000
256.073500 9862.500000
256.096900 11737.200000
257.044900 5807.600000
257.081900 3381.000000
257.103900 5186.400000
261.055100 3058.100000
261.078300 5696.800000
262.086900 18338.400000
263.057200 3066.900000
263.070800 16544.600000
263.094600 9647.900000
264.042100 6457.600000
264.064300 12543.100000
264.078700 11659.000000
264.102200 21722.000000
265.049900 22365.600000
265.073000 12312.500000
265.086500 25759.600000
266.058200 6147.700000
266.081000 43019.600000
267.065600 32740.000000
267.088900 9559.200000
267.102500 34865.700000
268.073400 27138.000000
268.096200 17172.100000
269.067300 6458.100000
269.082100 12760.600000
270.076100 18584.300000
271.060600 7692.800000
271.084200 6409.700000
275.094100 3501.900000
276.066100 7751.900000
276.103100 5401.500000
277.048600 3816.700000
277.073700 8421.700000
278.057600 5209.800000
278.080800 26651.500000
279.065400 11368.700000
279.089000 9438.400000
280.059800 7176.300000
280.097000 25623.000000
281.044700 5189.900000
281.067300 6992.100000
281.081300 9736.700000
281.104100 3774.400000
282.076100 8508.300000
282.091200 3829.700000
282.112600 5071.300000
284.091700 9906.700000
290.082300 4278.100000
291.089200 4167.900000
292.097100 20176.400000
293.105300 4418.500000
294.075300 14703.400000
294.113600 4054.000000
295.061200 7376.800000
296.093600 6202.200000
298.071500 3874.500000
306.076900 4317.400000
308.092200 15184.300000

