>compound LU86154006
>parentmass 456.0932000000001
>ionization [M+H]+
>formula C20H17ClF3N3O4
>rt 1102.440000
>profile orbitrap
#smiles_iso C1CN(CCC1C(=O)O)C2=C(C=C(C=C2)F)NC(=O)NC(=O)C3=CC(=C(C=C3Cl)F)F
#smiles_can C1CN(CCC1C(=O)O)C2=C(C=C(C=C2)F)NC(=O)NC(=O)C3=CC(=C(C=C3Cl)F)F
#inchikey KAJJGOCSAXKXBD-UHFFFAOYSA-N
#pubchem_id 12148754
#mb_accession LU063201,LU063202,LU063203,LU063204,LU063205,LU063206

>ms2
265.098300 2657798.500000

>ms2
67.054200 5725.200000
153.045900 5595.200000
165.045900 185785.500000
219.092700 59311.500000
247.087800 333151.900000
265.098300 4216551.000000

>ms2
55.054200 14561.500000
65.038600 5316.900000
67.054200 148031.000000
69.033500 17591.900000
69.069900 21515.700000
92.049400 3534.300000
95.049100 23593.100000
137.051000 27022.000000
151.030300 12314.500000
153.045900 57665.200000
165.045900 1573544.800000
177.045800 3767.800000
179.061400 5706.000000
190.053900 6279.200000
191.061600 61592.400000
191.098000 29435.800000
197.072100 18482.400000
200.074500 3723.800000
203.061600 8595.900000
203.097700 4892.100000
209.071400 3573.100000
212.050800 5756.800000
217.077100 6666.300000
219.092800 407492.000000
229.077200 79325.200000
247.087800 857325.500000
265.098300 1234188.500000

>ms2
53.002200 7364.300000
53.038600 2402.100000
55.054300 108360.700000
65.038600 32785.500000
67.054200 434257.000000
69.033500 32443.900000
69.069900 30682.000000
79.054200 3054.600000
92.049400 11989.900000
95.049200 31435.900000
105.033600 6067.500000
108.024300 2586.400000
110.040200 6583.100000
113.059700 5274.600000
125.051000 8357.600000
126.058800 3365.700000
135.035500 6420.300000
137.051000 389522.100000
148.055600 13057.800000
149.051200 18726.100000
149.063900 3705.400000
150.059000 9766.500000
151.030300 41116.100000
151.066900 6261.500000
152.037800 5948.300000
153.045900 105995.800000
163.030300 51410.100000
163.066700 22334.300000
165.046000 1929916.800000
174.975700 5504.500000
177.046000 17139.900000
177.082500 3272.400000
178.053900 7384.000000
179.061700 9988.500000
184.056000 5692.700000
187.067000 8596.400000
189.082300 3809.900000
190.053800 14289.100000
191.061600 160581.300000
191.098000 88609.000000
197.072000 16054.100000
200.074700 19386.600000
201.082400 28999.900000
203.061500 17124.800000
203.098000 3431.600000
204.069400 15204.000000
209.071400 7440.000000
211.066700 7597.600000
212.050700 22137.100000
217.077200 20385.000000
219.092900 330812.700000
228.069400 3312.100000
229.077300 146003.200000
247.087900 247325.300000
265.098400 102645.700000

>ms2
53.002200 15510.400000
53.038700 6746.800000
55.054300 158839.800000
57.033600 3213.600000
65.038600 77728.600000
67.054200 416931.000000
69.033500 24491.800000
69.069900 20199.600000
79.054200 5597.100000
80.049600 2610.100000
83.029100 7325.400000
92.049500 16234.900000
93.057400 3846.900000
95.049200 20745.600000
98.039900 3377.500000
105.033500 2605.700000
108.024300 14559.800000
110.040100 38061.700000
110.060100 14875.200000
124.019500 12306.900000
125.051000 24173.400000
126.058800 6313.500000
135.035300 31780.600000
136.055800 3305.100000
137.051000 1093872.100000
140.050800 2681.700000
145.051000 3424.300000
146.040300 2446.000000
147.048000 2858.600000
148.055600 32141.200000
149.051100 56001.800000
149.063500 13922.100000
150.058900 25869.700000
151.030200 37485.600000
151.066800 8761.800000
152.038000 16886.800000
153.045900 88370.800000
154.065400 2744.400000
161.063300 3006.300000
162.058900 3552.900000
163.030300 82708.400000
163.066600 47412.600000
165.046000 908256.400000
172.055900 2897.900000
174.071500 3748.500000
174.975800 4923.900000
175.066600 6703.000000
176.074500 6275.800000
177.082300 3092.900000
178.053500 10524.300000
179.061200 4537.800000
181.075700 2626.400000
185.051400 2438.900000
186.059200 3578.100000
187.066700 10653.800000
189.045900 21473.400000
189.082200 7806.700000
190.053700 11459.500000
191.061600 111118.900000
191.097900 53377.000000
197.071900 5469.400000
200.074600 26564.600000
201.082400 29019.800000
203.061600 16058.700000
204.069500 10150.400000
212.050800 5588.000000
215.061500 2825.500000
219.092900 61419.700000
228.068900 4004.400000
229.077300 66368.400000

>ms2
53.002200 22091.300000
53.038600 14570.700000
55.054300 158422.300000
57.033700 2174.000000
65.038600 106059.900000
67.054200 356879.400000
69.033500 12656.600000
69.069800 7053.000000
79.054200 7501.700000
80.049600 2754.000000
83.029100 41923.500000
92.049500 12487.500000
93.057300 4525.200000
95.049300 10688.100000
98.040000 12157.800000
108.024400 82643.900000
110.040100 170695.800000
110.060000 16359.600000
124.019400 29736.300000
125.051100 40031.000000
126.058700 7489.300000
135.035400 60900.700000
136.055600 6765.600000
137.051000 1617546.100000
140.050600 6680.900000
145.051000 16471.800000
146.040000 3523.700000
147.047900 3303.200000
148.055700 60001.300000
149.051100 112049.800000
149.063400 19794.200000
150.058900 35673.500000
151.030200 33561.200000
151.066700 5404.700000
152.038100 22314.400000
153.045900 62555.000000
154.065600 5219.900000
161.063300 5147.500000
162.059100 4168.300000
163.030300 69242.100000
163.066600 58379.800000
165.046000 328713.200000
172.055800 3493.600000
174.071400 4827.900000
174.975800 4894.300000
175.066700 10184.200000
176.074600 8732.800000
177.045900 7133.200000
178.053900 7421.500000
179.061600 2768.600000
181.075900 2728.200000
184.056000 14062.500000
185.050800 3912.700000
186.059000 9109.400000
187.066800 12477.500000
189.046000 31833.800000
189.082300 6706.800000
190.053800 5046.500000
191.061500 33102.100000
191.098300 15257.300000
201.082700 16334.000000
211.066800 5503.700000
215.061600 3033.800000
217.077300 4566.100000
228.069400 6201.300000

