>compound LU86797974
>parentmass 241.0963
>ionization [M+H]+
>formula C9H13ClN6
>rt 887.490000
>profile orbitrap
#smiles_iso CCNC1=NC(=NC(=N1)Cl)NC(C)(C)C#N
#smiles_can CCNC1=NC(=NC(=N1)Cl)NC(C)(C)C#N
#inchikey MZZBPDKVEFVLFF-UHFFFAOYSA-N
#pubchem_id 30773
#mb_accession LU004601,LU004602,LU004603,LU004604,LU004605,LU004606

>ms2
72.044300 12045.800000
163.097800 16307.200000
174.054100 30356.500000
205.119700 56973.600000
214.085300 1271100.000000
241.096200 4937484.500000

>ms2
68.024400 6405.100000
71.060500 9156.300000
79.005700 7569.100000
83.060500 3043.600000
90.010600 6399.300000
96.055600 72888.200000
104.000900 34921.100000
110.071300 13303.300000
119.037100 7534.400000
132.032300 18894.900000
136.086900 5629.400000
138.077600 3856.300000
146.022800 6758.000000
163.097700 84550.100000
171.043100 18239.300000
173.059000 6589.800000
174.054100 119058.500000
177.088400 8300.100000
178.108400 12622.100000
180.124300 4836.800000
186.054000 10165.900000
205.119600 237627.800000
213.064900 5950.900000
214.085300 2661763.000000
241.096100 2733165.000000

>ms2
58.065100 4426.600000
61.979100 15016.300000
68.024200 112553.400000
70.065100 4926.200000
71.060300 140314.100000
79.005700 101071.600000
83.060300 49653.400000
90.010500 37291.600000
96.055600 533189.900000
103.005600 2942.200000
104.000900 335006.300000
107.037000 4530.200000
108.055600 7698.900000
110.046200 11437.600000
110.071200 114029.700000
111.079000 15868.400000
111.091600 10673.100000
119.037000 134207.400000
132.032300 326447.000000
135.066600 7559.300000
136.074400 6129.600000
136.086900 117629.500000
138.077400 35685.200000
144.032300 18615.400000
145.027200 4750.500000
146.022800 87927.400000
150.077500 8818.700000
163.097700 99678.800000
171.043000 34717.800000
173.058800 85140.300000
174.054100 293477.700000
177.088300 56333.200000
178.108700 77824.500000
180.124500 12285.200000
186.054100 57179.400000
197.058900 15973.000000
205.119600 206152.700000
213.065100 3861.400000
214.085300 2651906.500000
241.096200 423098.600000

>ms2
58.065100 24820.300000
61.979200 46643.700000
67.029000 6520.100000
68.024300 523576.300000
69.044600 3415.100000
70.065200 7961.300000
71.060300 528245.100000
72.044400 11547.500000
78.010500 5427.100000
79.005700 222536.500000
83.060400 221479.600000
85.075900 23991.300000
90.010500 74463.600000
95.060300 9183.500000
96.055600 785324.100000
102.010500 3101.800000
103.005600 11173.700000
104.001000 838036.200000
107.037100 7210.200000
108.055600 40417.300000
110.046200 44302.800000
110.071300 126572.700000
111.079100 34486.200000
111.091700 12475.500000
119.037100 222994.600000
128.056700 2767.000000
129.048000 6623.800000
132.032300 597320.100000
135.066700 13730.400000
136.087000 235545.200000
138.077400 63094.600000
144.032300 47805.400000
145.027500 9615.500000
146.022800 136011.000000
150.077500 25220.700000
153.113500 4378.400000
157.027300 5323.200000
162.064900 2518.300000
163.098000 14334.600000
171.043000 7560.100000
172.038300 2970.400000
173.058900 85336.600000
174.054100 175810.800000
177.088400 33217.500000
178.108700 62866.500000
180.124500 5077.700000
186.054100 50827.300000
190.096200 4098.100000
197.058700 14295.400000
205.119600 31234.600000
214.085400 857422.400000
241.096500 21828.100000

>ms2
53.002200 2693.300000
55.029100 5802.400000
56.049600 5950.200000
58.065100 47057.900000
61.979200 131510.400000
67.029100 17559.000000
68.024300 998381.400000
69.044600 6248.600000
70.065100 9818.500000
71.060300 690702.800000
72.044300 8479.100000
78.010500 6965.500000
79.005700 268664.200000
83.060400 319615.200000
85.076100 16453.300000
90.010600 55712.000000
95.060300 13579.400000
96.055600 584380.700000
102.010700 3369.700000
103.005800 11723.000000
104.001000 1058011.600000
107.037100 4812.600000
108.055600 53996.800000
110.046100 48967.200000
110.071300 67144.500000
111.079200 20580.900000
111.091900 6061.800000
119.037100 101303.200000
121.028000 3107.300000
121.050800 3833.400000
128.056700 3302.000000
129.048100 4331.200000
132.032400 276700.100000
135.066500 7836.800000
136.074300 7211.600000
136.087000 103697.100000
138.077400 35166.500000
144.032200 22188.800000
145.027800 5922.000000
146.022800 81078.800000
150.077400 10187.900000
157.027300 2076.000000
162.064800 2999.900000
172.038600 3219.700000
173.058800 24385.700000
174.054200 58127.700000
177.088300 5623.700000
178.108800 15379.000000
186.054200 16029.600000
190.096600 2849.400000
197.059300 6084.700000
214.085400 91891.100000

>ms2
55.029100 11388.900000
56.049500 15308.200000
58.065200 62977.400000
61.979200 257361.200000
67.029000 25219.800000
68.024300 1362305.800000
69.044700 5459.300000
70.065100 4700.200000
71.060300 552154.400000
74.096400 3636.800000
78.010400 5626.000000
79.005700 269829.200000
83.060400 309350.200000
90.010500 29507.200000
93.019500 8289.500000
95.060400 5241.300000
96.055600 311119.200000
102.010500 4145.600000
103.005700 6241.200000
104.001000 883884.600000
108.055600 35386.300000
110.046200 30319.800000
110.071300 33496.600000
111.079100 13344.300000
119.037200 30256.600000
121.050900 2716.000000
132.032400 79864.700000
135.066500 5330.500000
136.074400 2562.700000
136.086800 23141.500000
138.077400 10545.600000
144.032100 4075.300000
145.027300 2696.500000
146.022800 38650.200000
150.077300 5261.100000
172.038100 2283.700000
173.059200 2916.900000
174.054100 8788.800000
186.054000 2535.000000
214.085300 6963.700000

