>compound LU86258014
>parentmass 279.09099999999995
>ionization [M+H]+
>formula C12H14N4O2S
>rt 1014.600000
>profile orbitrap
#smiles_iso CC1=CC(=NC(=N1)NS(=O)(=O)C2=CC=C(C=C2)N)C
#smiles_can CC1=CC(=NC(=N1)NS(=O)(=O)C2=CC=C(C=C2)N)C
#inchikey ASWVTGNCAZCNNR-UHFFFAOYSA-N
#pubchem_id 5327
#mb_accession LU130901,LU130902,LU130903,LU130904,LU130905,LU130906

>ms2peaks
201.046300 39987.200000
202.053700 68042.800000
219.056800 51824.900000
278.085400 54450.900000
279.093200 37965540.000000

>ms2peaks
201.046400 789281.700000
202.053900 59923.700000
219.056900 2072286.500000
233.072600 142175.800000
278.085400 48554.600000
279.093300 36633504.000000

>ms2peaks
77.038800 69688.700000
95.004600 19085.500000
95.049100 19373.600000
129.069700 23686.800000
141.009600 56210.500000
161.095700 18891.300000
171.035700 48032.100000
173.051400 435959.600000
183.035800 53652.900000
185.051500 29949.100000
199.031200 18123.800000
201.046300 6924308.000000
202.055300 26374.400000
219.056800 17094714.000000
221.061300 39162.700000
233.072500 1289780.500000
278.085600 28130.800000
279.093300 16095061.000000

>ms2peaks
53.038600 264969.200000
77.038700 193031.300000
81.033400 32881.800000
91.054200 65709.600000
94.041400 28356.800000
95.004500 464062.200000
95.049100 829597.200000
105.033600 59120.100000
105.044700 353388.600000
107.004600 28736.400000
115.054200 28046.300000
122.999500 124572.400000
125.015000 61224.600000
128.062000 420820.500000
129.069900 459281.400000
133.020100 150191.400000
141.010000 495962.400000
141.069700 55970.500000
147.035900 75463.200000
153.070000 44603.500000
154.077700 404302.200000
159.035700 22761.500000
171.035800 888723.900000
173.051500 4151437.200000
183.035800 564142.200000
185.051700 40302.400000
199.030500 93513.600000
201.046400 8127090.500000
219.056900 22665778.000000
221.060800 46134.100000
233.072600 1714447.400000
279.093400 1756592.600000

>ms2peaks
50.015100 14349.200000
51.022800 55073.900000
53.038600 1603102.000000
55.017800 79821.300000
67.054200 11876.700000
68.997000 17023.300000
77.038500 895984.900000
78.046400 11897.900000
79.054200 31144.200000
81.033500 155167.200000
81.069900 29759.700000
91.054200 110476.500000
94.041400 176651.000000
95.004600 2144689.500000
95.049100 4236659.000000
97.020200 12419.700000
97.053300 11170.300000
105.033800 125311.200000
105.044700 1701369.000000
106.041700 18299.000000
107.004400 97212.600000
108.012400 19748.400000
109.020200 20129.800000
109.064800 47841.700000
113.015000 132167.300000
115.054200 103923.500000
116.061900 11689.300000
122.999400 316438.300000
125.015100 195554.400000
127.030800 20966.000000
128.062000 1421047.600000
129.069800 1349716.500000
133.020100 659907.500000
141.010000 843592.000000
141.069800 299986.800000
142.077600 12769.600000
145.020100 69424.100000
147.035700 249097.500000
152.062100 65478.900000
153.069900 243159.200000
154.077700 1164918.000000
155.025700 120760.200000
155.085300 35629.200000
159.036000 51406.900000
165.046200 12186.000000
170.028200 60289.400000
171.035800 2802998.800000
172.044100 14487.800000
173.051500 5888162.500000
183.035800 1558463.200000
185.051300 18593.300000
186.023200 32642.300000
199.030700 160200.900000
201.046400 3458189.800000
208.088000 11742.400000
217.041400 33205.300000
219.056900 10037384.000000
221.061100 25215.000000
221.096100 11337.700000
233.072600 759076.100000
279.093600 67155.500000

>ms2peaks
50.015200 28421.500000
51.022900 78561.500000
53.038600 2540332.800000
55.017800 153169.200000
65.002200 19448.600000
67.054200 33276.300000
68.997000 16301.800000
77.038500 1873719.000000
78.046400 24664.000000
79.054200 45840.600000
81.033500 240459.900000
81.069900 32018.800000
91.054200 163601.200000
94.041300 296074.400000
95.004500 3255174.800000
95.049100 7233340.500000
97.020100 23255.000000
97.053600 10623.800000
98.036200 7599.100000
105.044700 2978428.800000
106.041700 24172.300000
107.004400 143831.400000
108.012200 46468.000000
109.020200 25370.900000
109.064800 79252.900000
113.015000 206318.200000
115.054200 195724.600000
116.062200 35610.800000
121.064800 10763.000000
122.999400 328303.000000
124.007500 7568.400000
125.015000 243646.700000
127.030900 39049.200000
128.062000 1772228.200000
129.069800 1338937.400000
133.020100 1184903.900000
141.010000 608738.200000
141.069800 453689.400000
142.077800 26927.700000
145.020100 113240.000000
145.065100 22037.400000
147.035700 324422.100000
152.062000 227793.000000
153.069800 664072.300000
154.077700 1192582.600000
155.025700 84563.600000
155.085400 38567.500000
157.020000 62885.300000
159.036000 46780.700000
165.046300 13644.300000
168.057200 15564.300000
170.028000 240612.000000
171.035800 2676932.000000
172.043900 24561.000000
173.051400 2560586.500000
183.035800 1744461.800000
186.023000 31142.900000
199.030600 93148.200000
201.046300 729421.300000
217.041600 30862.600000
219.056900 2235587.800000
221.096300 14357.300000
233.072500 174810.900000

