>compound LU86445089
>parentmass 294.2064
>ionization [M+H]+
>formula C17H27NO3
>rt 1075.680000
>profile orbitrap
#smiles_iso CCCCCCCCC(=O)NCC1=CC(=C(C=C1)O)OC
#smiles_can CCCCCCCCC(=O)NCC1=CC(=C(C=C1)O)OC
#inchikey RGOVYLWUIBMPGK-UHFFFAOYSA-N
#pubchem_id 2998
#mb_accession LU096401,LU096402,LU096403,LU096404,LU096405,LU096406

>ms2peaks
71.085400 3194.900000
137.059700 1195869.400000
141.127400 69623.700000
158.154000 18021.600000
170.153900 47375.800000

>ms2peaks
57.069900 11796.200000
67.054200 2685.500000
71.085500 15039.900000
81.069900 8000.900000
109.064700 3366.700000
122.036400 3579.900000
123.116900 6894.400000
137.059700 1390462.000000
141.127400 61724.900000
158.154000 33164.500000
170.153800 4116.900000

>ms2peaks
57.069900 24322.300000
67.054200 6392.800000
71.085500 25715.600000
79.054200 5669.300000
81.069900 15034.100000
88.075600 5248.400000
91.054200 4554.500000
94.041400 6591.800000
102.091300 2439.200000
107.049300 3885.800000
109.064900 13193.300000
122.036200 32812.800000
123.117000 3657.000000
137.059800 1416434.800000
141.127400 10507.200000
158.154100 31818.800000

>ms2peaks
53.038600 2429.400000
57.069900 28032.500000
65.038600 3088.200000
66.046300 6961.800000
67.054100 3710.900000
71.085500 21100.400000
79.054200 25655.500000
81.069900 30251.100000
88.075700 9788.300000
91.054300 23168.800000
94.041400 62677.000000
95.049100 4788.600000
102.091400 3013.300000
105.033500 3251.400000
107.049300 14440.600000
109.064800 26869.400000
122.036200 202249.700000
137.059700 1307613.200000
158.154100 11987.500000

>ms2peaks
51.023100 2237.700000
53.038700 5057.100000
55.017900 4345.300000
55.054400 1761.100000
57.069900 16344.100000
65.038600 10930.700000
66.046400 23520.200000
67.054100 3651.000000
71.085500 8255.800000
77.038500 3051.300000
79.054200 39654.800000
81.069900 25023.100000
88.075800 4668.300000
91.054200 31732.400000
94.041300 188574.000000
95.049100 12515.500000
105.033400 1851.700000
107.049100 16497.700000
109.064800 23674.200000
122.036200 351082.200000
135.044100 4849.800000
137.059700 564360.500000
158.153900 2960.200000

>ms2peaks
51.023000 4185.400000
53.038700 15407.200000
55.017900 5835.400000
55.054300 3084.000000
57.069900 11616.000000
65.038600 22707.600000
66.046400 105336.100000
67.054100 5701.100000
71.085500 2537.900000
77.038600 10598.100000
79.054200 45359.700000
81.069900 22335.700000
88.075800 2526.200000
91.054200 34436.600000
94.041400 426090.700000
95.049200 26118.600000
105.033500 5859.200000
107.049200 14652.500000
109.064800 12851.500000
122.036300 346639.200000
135.043900 3838.800000
137.059800 237246.800000

