>compound LU86752772
>parentmass 331.0999
>ionization [M+H]+
>formula C18H18O4S
>rt 1024.920000
>profile orbitrap
#smiles_iso C=CCC1=C(C=CC(=C1)S(=O)(=O)C2=CC(=C(C=C2)O)CC=C)O
#smiles_can C=CCC1=C(C=CC(=C1)S(=O)(=O)C2=CC(=C(C=C2)O)CC=C)O
#inchikey MTMKZABGIQJAEX-UHFFFAOYSA-N
#pubchem_id 833466
#mb_accession LU017201,LU017202,LU017203,LU017204,LU017205,LU017206

>ms2peaks
105.069900 5001.600000
133.064700 77587.400000
145.064900 13712.600000
149.059700 48615.000000
151.075400 7719.500000
156.995300 36248.600000
173.096200 9720.200000
197.026800 556385.600000
263.037000 6056.200000
303.068500 65358.900000
331.099900 4937568.500000

>ms2peaks
53.002200 2662.600000
53.038600 6375.900000
55.017900 48597.400000
65.038600 8377.300000
67.054200 12207.600000
68.997100 7713.300000
71.012700 8675.400000
77.038600 6330.300000
79.054200 127514.100000
81.033500 3507.900000
81.069900 9390.000000
83.012800 2720.300000
91.054200 20521.700000
93.033700 3829.200000
93.069700 2226.700000
94.041500 2331.700000
95.049400 11477.200000
103.054200 69769.200000
105.069900 213649.300000
107.049200 26937.900000
109.028400 29129.600000
110.036400 8368.200000
111.044100 14252.500000
115.054200 30880.400000
118.041200 4929.800000
119.049200 3723.700000
121.065000 5533.100000
123.043900 23221.100000
125.059700 4330.500000
131.049400 17570.000000
132.057000 21993.400000
133.064800 254881.300000
134.072600 20752.400000
145.064800 53242.600000
149.059800 910763.100000
150.067500 29469.500000
151.075400 271779.200000
156.995400 218131.000000
159.080400 5955.400000
162.067900 12751.000000
171.011100 32906.200000
173.096200 16803.900000
174.103800 25333.000000
181.031900 3060.700000
183.011400 5108.800000
197.026800 1650898.900000
198.067200 3549.100000
263.037300 27548.900000
275.036800 3461.700000
303.068600 108475.900000
331.099900 652014.000000

>ms2peaks
51.023000 3494.200000
53.002200 6643.900000
53.038600 30458.900000
55.017900 248518.000000
65.038500 29434.300000
67.054200 14370.900000
68.997100 8189.500000
71.012800 8615.200000
77.038400 16652.200000
79.054200 863299.800000
81.033500 6987.400000
81.069900 10092.100000
91.054300 64913.900000
93.033700 5486.100000
93.069900 17940.800000
94.041100 4788.100000
95.049100 86990.200000
103.054200 510746.500000
104.062200 4561.000000
105.069900 976239.100000
107.049100 81438.000000
109.028500 54866.200000
110.036300 17547.300000
111.044100 40881.700000
115.054300 195981.700000
116.062100 3276.800000
117.069900 8265.900000
118.041400 19484.500000
119.049100 25646.600000
121.064800 42936.200000
123.044000 22986.800000
123.080500 3148.600000
125.005500 2675.600000
125.059700 3568.000000
131.049300 49334.200000
132.057000 39234.500000
133.064800 194231.800000
134.072600 20532.800000
135.043900 11501.600000
141.000500 5343.100000
144.056600 2606.400000
145.064800 27938.600000
149.059800 721294.400000
150.067600 43945.700000
151.075400 355216.000000
153.069800 6777.100000
154.008400 9699.600000
156.995400 80303.200000
159.080600 14893.000000
162.068000 14202.300000
170.072800 5376.000000
171.011300 4562.100000
173.096300 5619.600000
174.104000 5803.900000
181.031900 7386.000000
181.065000 8909.300000
183.011900 3392.900000
197.026800 153226.500000
198.067500 16005.000000
263.037700 7430.400000
275.036700 3971.300000
303.068300 8312.700000
331.100600 6985.200000

>ms2peaks
50.015200 3019.100000
51.023000 5759.300000
53.002300 10893.500000
53.038700 97378.900000
55.017900 362495.800000
63.022700 2490.600000
65.038600 71993.000000
66.046400 3784.800000
67.054200 6215.700000
68.997100 3907.700000
71.012700 5060.100000
77.038500 32824.000000
78.046400 6974.300000
79.054200 1555694.800000
81.033600 13523.600000
81.069800 3765.000000
83.012600 3728.200000
89.038500 5074.600000
91.054300 140137.400000
93.033500 6291.700000
93.069900 43223.500000
94.041300 18179.700000
95.049200 362891.000000
97.010600 6053.300000
102.046400 3065.300000
103.054300 992936.400000
104.062100 13867.200000
105.069900 837577.900000
107.049200 114383.000000
109.028500 44356.700000
109.064800 6597.700000
110.036200 6899.000000
111.044100 46381.400000
115.054300 327992.000000
116.062200 7609.000000
117.069900 13907.400000
118.041300 20894.200000
119.049200 37802.600000
121.064800 70739.100000
122.036200 3114.200000
123.044200 6997.100000
123.080300 5454.600000
128.062300 4356.500000
131.049200 69066.700000
132.057000 47760.600000
133.064800 96383.500000
134.072900 11621.600000
135.043900 13207.100000
141.000600 8010.000000
141.069800 3240.500000
144.057500 3068.200000
145.064700 14071.000000
149.059800 230459.200000
150.067700 12006.600000
151.075400 119561.100000
152.061900 4484.300000
153.069800 9763.600000
154.008300 6591.500000
156.995600 9524.100000
159.080600 5811.900000
165.070000 3829.600000
169.064800 9709.100000
170.072700 14665.200000
173.095900 3785.300000
181.031800 4603.000000
181.064800 7481.900000
197.026600 4501.900000
197.060200 7370.600000
198.067500 10630.100000

>ms2peaks
50.015100 5226.500000
51.023000 7078.200000
53.002300 14536.000000
53.038600 195523.800000
55.017900 321869.300000
63.022900 2396.700000
65.038600 141960.800000
66.046400 7942.900000
67.054100 7367.200000
68.997000 6415.300000
77.038500 70233.100000
78.046400 18734.500000
79.054200 1565972.600000
81.033500 32228.800000
81.069700 3679.700000
83.012700 2891.600000
89.038600 16206.400000
90.046400 8445.000000
91.054300 196094.600000
93.033600 6527.400000
93.070000 39252.400000
94.041300 32355.500000
95.049200 657735.500000
97.010700 13781.500000
102.046200 11645.500000
103.054200 977296.400000
104.062000 18658.700000
105.069900 374217.900000
107.049100 100763.600000
109.028500 23533.000000
109.064800 4293.500000
110.036200 3181.200000
111.044100 30542.900000
115.054200 368472.500000
116.062100 9094.500000
117.070000 10362.100000
118.041300 31398.900000
119.049300 24687.300000
121.064800 59059.400000
125.005600 4011.900000
128.062000 4020.600000
131.049200 87290.600000
132.057000 37102.000000
133.064800 44942.800000
134.072700 3180.800000
135.043900 7413.200000
141.000500 4739.800000
141.069800 9159.100000
144.056800 3875.000000
145.064900 10397.300000
149.059800 54809.000000
150.067600 2758.800000
151.075300 23007.100000
152.062100 11014.100000
153.069700 8895.100000
154.008400 5254.900000
169.064900 23816.200000
170.072900 6955.700000
181.064800 6983.900000
197.059800 6823.400000

>ms2peaks
50.015100 10488.900000
51.023000 12778.500000
53.002200 18848.300000
53.038600 321407.900000
55.017900 257699.800000
63.022800 8401.800000
65.038500 213799.000000
66.046300 18478.400000
67.054100 15039.000000
68.997000 8044.700000
77.038500 150483.400000
78.046300 33940.000000
79.054200 1315606.800000
81.033500 48312.100000
81.069800 6022.000000
89.038500 61813.200000
90.046400 18084.300000
91.054200 254000.000000
93.069800 21584.100000
94.041300 51993.900000
95.049100 986114.200000
97.010600 17724.500000
102.046500 22902.500000
103.054200 786820.200000
104.062000 31895.400000
105.069800 157125.500000
107.049100 100264.200000
109.028400 12777.400000
109.064800 8863.900000
110.036300 4549.300000
111.044100 14972.700000
115.054200 395641.800000
116.062100 13535.000000
117.069900 14282.800000
118.041300 35929.800000
119.049300 16104.300000
121.064700 28156.200000
122.036500 2788.400000
128.061900 6658.400000
131.049100 90120.500000
132.056900 22813.000000
133.064800 24604.000000
135.044200 2813.200000
141.069700 15470.400000
144.056400 3241.900000
145.064700 4547.200000
149.059500 16536.600000
151.075300 3399.700000
152.061700 18894.200000
153.070100 10459.200000
165.069700 3423.700000
169.064500 14018.400000
170.072500 3836.500000
181.064800 5405.400000
197.059500 4849.300000

