>compound LU87140972
>parentmass 309.15979999999996
>ionization [M+H]+
>formula C19H20N2O2
>rt 878.610000
>profile orbitrap
#smiles_iso CC1=C(C2=CC=CC=C2N1CCCCC(=O)O)C3=CN=CC=C3
#smiles_can CC1=C(C2=CC=CC=C2N1CCCCC(=O)O)C3=CN=CC=C3
#inchikey MYDPDVXVDQMNLD-UHFFFAOYSA-N
#pubchem_id 9926621
#mb_accession LU083601,LU083602,LU083603,LU083604,LU083605,LU083606

>ms2peaks
309.159700 24385822.000000

>ms2peaks
101.059700 36566.500000
207.093300 26053.800000
208.099200 65998.400000
209.107400 260596.700000
221.108200 35070.000000
245.107600 49851.100000
247.123200 77917.400000
263.154200 62622.200000
273.138100 65721.300000
291.149100 152296.000000
309.159700 22341824.000000

>ms2peaks
55.054300 409621.100000
59.049100 92261.100000
80.049400 23005.100000
83.049100 196844.700000
101.059700 215254.200000
106.028700 19451.500000
106.065200 17293.700000
130.065000 33425.100000
168.080800 26993.300000
170.096500 21918.400000
180.081100 28903.900000
182.096700 43740.800000
184.112100 17109.600000
192.080900 56528.600000
194.083800 155959.900000
204.080700 15586.100000
206.084100 46059.100000
207.091700 232519.100000
208.099500 1889140.900000
209.107200 3460198.000000
219.092600 14862.600000
220.099800 47557.700000
221.107200 791704.100000
222.115100 197566.700000
223.123000 91745.500000
232.099100 61123.900000
235.122800 105013.300000
245.107300 311046.000000
246.127300 16497.000000
247.122900 968496.600000
248.130600 276305.000000
249.138300 53656.600000
258.113900 21195.600000
263.154100 497548.800000
273.138400 221715.700000
291.149000 536773.000000
294.136200 51362.500000
309.159500 14367217.000000

>ms2peaks
53.038600 15911.000000
55.054300 795354.200000
57.033500 14107.300000
59.049200 222733.400000
73.064700 12446.700000
79.041700 8706.700000
80.049500 94920.200000
83.049100 215821.900000
92.049500 25701.200000
93.057300 21643.500000
101.059700 115881.600000
105.044700 7590.400000
106.029000 9109.300000
106.065200 38493.700000
110.060200 10076.300000
115.054200 16849.600000
117.057200 28325.600000
118.065100 12463.000000
130.065200 245148.300000
131.060400 14652.600000
131.073100 13399.700000
139.054800 6732.800000
142.065000 30205.200000
143.073200 8911.400000
144.080800 48947.100000
154.065200 63299.200000
155.060200 6076.500000
155.072800 8643.200000
156.080800 17772.000000
165.069700 24944.300000
166.065400 13564.900000
167.072900 181699.200000
168.080900 160142.400000
169.088500 14200.300000
170.096400 44072.400000
179.073500 12263.900000
180.080800 200019.000000
181.075900 9986.200000
181.088600 67574.300000
182.096600 169367.600000
184.112300 19608.000000
185.120400 9288.600000
191.073200 60922.800000
192.080900 197993.300000
193.076200 90553.700000
193.088500 32399.000000
194.084000 905123.600000
194.095700 66851.700000
195.091400 17218.400000
195.105100 6478.000000
204.081000 46203.600000
205.076300 16230.400000
205.089300 9222.600000
206.084100 261295.500000
206.096100 19218.200000
207.091900 2142812.200000
208.099600 6007183.000000
209.107300 4017404.500000
217.088400 12472.500000
218.096200 24634.700000
219.092100 48891.200000
220.100000 150518.000000
220.112200 22910.600000
221.107300 3983681.000000
222.115100 516167.400000
223.123100 61800.600000
230.097000 21372.400000
231.091600 41053.300000
231.104600 12750.000000
232.099500 178565.300000
232.111800 9107.300000
233.107600 61552.600000
234.115200 32754.800000
235.123000 430974.500000
236.130600 13498.500000
245.107300 153231.500000
246.115100 12024.000000
246.127700 15662.800000
247.123000 677190.600000
248.130700 436421.500000
249.138700 118939.300000
254.117900 9707.700000
258.114700 27447.200000
261.138900 14162.900000
263.154300 258736.400000
265.170300 16666.900000
273.138600 75442.700000
280.133100 9396.800000
282.148100 7570.300000
291.149300 178624.500000
292.132600 6988.600000
293.128800 32773.000000
294.136300 51834.500000
307.144200 17589.100000
309.159800 2441171.000000

>ms2peaks
53.038500 19221.000000
55.054200 556533.400000
57.033400 8089.900000
59.049100 173199.200000
65.038500 6193.600000
78.033600 6127.800000
79.041700 34385.700000
80.049400 115900.800000
83.049100 71155.700000
91.054200 8208.900000
92.049400 36399.700000
93.057300 31846.900000
96.044300 6419.600000
101.059600 23335.200000
103.053700 5962.400000
104.049400 14774.100000
105.044800 7373.600000
106.065200 32650.500000
110.060000 20128.100000
111.031500 26155.800000
115.054200 56396.100000
116.049300 6802.400000
117.057300 62297.500000
118.065100 13161.100000
128.049400 9484.500000
129.057200 5805.500000
129.069700 14216.000000
130.065100 430833.100000
131.060200 18160.500000
131.072700 33417.200000
139.053700 6671.200000
140.049500 7895.700000
140.061900 9649.700000
141.069600 16400.500000
142.065100 55079.300000
143.072900 21354.000000
144.080600 73418.700000
146.059900 5985.900000
152.061900 8138.900000
153.057200 6149.000000
154.064900 85951.400000
155.073000 14465.300000
156.080700 32133.700000
160.075500 9823.500000
165.069700 52015.800000
166.065100 51808.000000
167.072800 507832.700000
168.068300 7692.500000
168.080700 143454.100000
169.075300 8463.000000
169.088500 11021.200000
170.059700 11484.900000
170.096200 35477.400000
178.065400 6564.300000
179.073100 30854.700000
180.080700 657449.600000
181.076200 25881.500000
181.088400 99213.800000
182.083100 20609.900000
182.096400 132823.200000
184.113500 7051.600000
191.073000 124890.900000
192.068300 19152.400000
192.080600 180808.700000
193.075900 281306.300000
193.088100 61209.900000
194.083900 1339580.000000
194.095600 132505.000000
195.091400 13779.100000
196.112300 6194.100000
204.080800 76834.100000
205.076200 63030.100000
205.088600 13350.700000
206.084000 1406833.000000
207.091600 5743835.000000
208.099300 4126675.000000
209.107100 1170298.200000
217.088700 8740.400000
218.095900 20211.000000
219.091700 104991.100000
220.099500 296323.900000
221.107200 5177784.500000
222.114900 236756.200000
223.122700 14886.400000
230.097000 7276.100000
231.091400 53683.000000
231.104200 6370.100000
232.099200 99765.500000
233.107500 54019.800000
234.114800 18852.100000
235.122800 440154.600000
245.107900 26353.700000
246.115100 6400.300000
247.122900 162549.000000
248.130400 94657.800000
249.138400 109033.900000
258.114400 6896.100000
261.139300 7948.700000
263.154200 32649.000000
291.149100 28360.500000
293.128200 16531.000000
294.134700 5984.000000
309.159900 107503.000000

>ms2peaks
53.002100 9959.300000
53.038600 28762.500000
55.054200 369800.000000
59.049100 105850.800000
65.038500 16130.000000
78.033700 12740.300000
79.041500 60399.500000
80.049400 119327.100000
83.049000 24278.000000
91.054100 16787.800000
92.049500 23477.000000
93.057100 24773.300000
96.044400 24098.000000
103.054100 32358.400000
104.049300 23380.900000
105.044700 8676.600000
105.070000 9407.000000
106.065100 28941.400000
110.060100 20683.100000
111.031400 48058.200000
115.054200 99900.400000
116.049400 11892.700000
117.057200 83450.300000
118.065000 12372.700000
128.049300 59031.300000
129.069700 19880.900000
130.065100 486933.500000
131.060300 24138.300000
131.072700 27906.600000
139.054000 27675.900000
140.049100 24011.700000
140.061900 35865.700000
141.069800 29514.400000
142.065000 63090.200000
143.072800 42028.800000
144.080600 78656.200000
146.060000 28997.200000
152.062000 57152.400000
153.057200 16903.300000
153.069700 33228.400000
154.065100 132062.000000
155.060200 9561.800000
155.072700 18084.200000
156.081000 27247.800000
160.075500 9134.100000
165.069800 75902.200000
166.065100 250513.600000
167.072900 826263.400000
168.067900 17225.700000
168.080600 140563.900000
169.075600 12747.700000
169.088500 7848.800000
170.060100 67419.300000
170.096100 35845.200000
178.065200 26264.900000
179.073000 90980.900000
180.080600 1870349.200000
181.075700 34284.800000
181.088500 94829.400000
182.083100 24098.000000
182.096500 65727.000000
184.112400 6643.700000
190.064900 43766.500000
191.072900 173598.800000
192.068100 87710.700000
192.080600 129526.600000
193.075900 462868.000000
193.088200 98340.000000
194.083800 1026218.200000
194.095900 352642.400000
195.090900 10005.200000
204.080800 196807.200000
205.076200 291910.000000
205.088300 32534.100000
206.083900 4412356.000000
207.091500 6441846.500000
208.099300 1395586.600000
209.107200 211497.700000
217.088800 16027.300000
218.096300 23437.300000
219.091600 273598.600000
220.099500 684321.900000
221.107200 3361259.800000
222.114800 43854.300000
230.096900 7644.500000
231.091400 49983.100000
232.099400 35682.400000
233.107200 48221.400000
234.115100 15522.600000
235.122900 244750.200000
245.108200 8187.200000
247.123100 69829.700000
248.130500 11092.800000
249.138400 51816.800000
291.148600 6573.200000

