>compound LU87375194
>parentmass 430.27410000000003
>ionization [M+H]+
>formula C29H35NO2
>rt 985.560000
>profile orbitrap
#smiles_iso CC#C[C@@]1(CC[C@@H]2[C@@]1(C[C@@H](C3=C4CCC(=O)C=C4CC[C@@H]23)C5=CC=C(C=C5)N(C)C)C)O
#smiles_can CC#CC1(CCC2C1(CC(C3=C4CCC(=O)C=C4CCC23)C5=CC=C(C=C5)N(C)C)C)O
#inchikey VKHAHZOOUSRJNA-GCNJZUOMSA-N
#pubchem_id 55245
#mb_accession LU099701,LU099702,LU099703,LU099704,LU099705,LU099706

>ms2
121.088600 21581.000000
122.096300 52013.900000
134.096400 109211.600000
147.080400 8331.500000
148.111900 25545.800000
149.096000 9273.900000
159.080600 8657.700000
160.112000 27376.300000
162.127700 20526.300000
163.111500 8189.800000
173.096200 9332.500000
174.127800 10492.800000
186.127800 16774.300000
188.143500 28859.200000
199.112100 8432.900000
213.127600 9972.100000
225.127200 10449.100000
242.153600 16497.600000
264.174900 11492.700000
265.158800 8649.500000
266.190100 14915.300000
268.169700 8846.800000
269.153300 38091.300000
280.169400 17574.900000
282.185300 32192.700000
291.173900 36713.700000
309.184800 83361.100000
372.232300 165794.200000
412.264300 54434.200000
415.251700 13982.300000
430.274000 8136516.500000

>ms2
55.017800 8280.000000
55.054200 4129.000000
57.033500 3492.300000
67.054100 7960.700000
69.033400 4675.000000
69.069800 9357.400000
79.054200 11253.200000
81.069800 22616.900000
83.049000 9046.600000
85.064800 3538.000000
91.054000 18636.500000
93.069900 48059.000000
95.049200 9895.300000
95.085500 29225.800000
97.064700 59100.900000
105.069900 28467.500000
107.049100 16522.500000
107.072900 11616.500000
107.085500 42097.600000
109.064700 39352.100000
109.101000 12668.700000
111.080300 8098.400000
117.069900 20412.100000
119.085500 92739.500000
120.080800 33578.600000
121.064600 15790.100000
121.088600 153664.800000
121.101100 50209.400000
122.096300 271337.400000
123.080400 40174.700000
125.096100 21357.200000
129.069800 31027.400000
131.085600 42018.700000
132.080800 9228.300000
133.064800 55633.600000
133.089100 2903.100000
133.101200 42141.500000
134.096300 935085.400000
135.080400 129685.300000
136.112000 3936.200000
137.096100 36229.400000
141.069700 10987.900000
143.085400 31684.800000
145.064900 14238.800000
145.101100 76907.900000
146.096500 21774.700000
147.080300 88634.000000
147.104300 14388.000000
147.116600 11040.100000
148.075600 61374.600000
148.112000 267868.700000
149.096000 86009.700000
150.091300 8268.500000
151.075000 3749.900000
155.085300 25902.900000
157.064900 31322.500000
157.088300 2978.800000
157.101200 26001.100000
158.096100 15070.700000
159.080400 133984.200000
159.104500 15883.300000
159.116700 17613.600000
160.112000 162276.300000
161.096000 145707.400000
161.120000 17880.700000
162.127700 109566.300000
163.111600 44517.200000
167.085800 15492.300000
169.101100 29870.500000
171.080500 14966.800000
171.104100 9807.100000
171.116500 18662.400000
172.112000 100395.100000
173.096100 150529.900000
173.119700 39051.400000
174.127700 100056.200000
175.111800 30756.400000
175.135400 44977.200000
176.143400 7659.700000
179.085500 7812.200000
181.101200 26697.400000
183.080300 13292.000000
183.116800 20477.400000
184.112100 17383.800000
185.096100 54380.100000
185.119800 20754.500000
185.132100 9334.200000
186.127600 120456.200000
187.111600 66170.700000
187.135600 39296.000000
188.143300 137469.300000
189.127600 8711.900000
190.122700 5870.200000
191.085300 4724.400000
193.101200 19556.000000
195.080300 7094.100000
195.117000 23852.400000
197.096100 42669.800000
197.132500 11590.800000
198.103900 5374.400000
198.127600 33655.000000
199.111700 64229.600000
199.135400 18261.400000
200.119600 4796.800000
200.143200 28427.400000
201.127300 15355.400000
202.122500 4018.800000
205.101100 7088.900000
207.116900 28370.100000
208.123800 2974.300000
209.095800 34866.700000
209.132200 26500.400000
210.104200 4189.700000
210.127700 9912.200000
211.111700 85465.600000
211.135400 8976.500000
212.119300 3573.100000
212.143300 40181.700000
213.127400 68061.100000
213.151100 28497.900000
214.122500 7540.800000
214.134800 3132.700000
214.158900 58514.700000
215.106600 39060.300000
215.143300 6014.300000
217.100900 5044.200000
219.117100 10629.400000
220.124000 4078.600000
221.096000 8486.900000
221.132400 20385.600000
222.127800 10059.900000
223.111700 53977.000000
223.136300 6767.900000
223.148000 17316.300000
224.143600 33649.100000
225.127300 79179.700000
225.151100 9414.600000
226.122500 6326.400000
226.159000 27523.900000
227.130800 4887.100000
227.142800 56092.300000
228.137800 14296.900000
228.174800 3733.400000
229.122200 4026.500000
231.117300 4990.600000
232.124700 3502.400000
233.132200 16596.500000
234.103700 3482.100000
234.127700 3201.800000
234.140200 4376.200000
235.111600 21501.700000
235.135400 5833.600000
235.148100 15857.200000
236.119900 7682.000000
236.143300 114577.200000
237.127400 39214.600000
237.151000 12542.700000
237.163100 5228.700000
238.123600 3402.400000
238.158900 55826.300000
239.106600 11295.200000
239.142800 21095.900000
239.166300 10647.600000
240.138400 17182.700000
240.174600 64797.500000
241.122100 8667.100000
241.145500 5745.300000
241.158600 10220.000000
242.153800 76022.200000
243.137900 24902.200000
243.161800 4559.300000
244.169700 8300.500000
245.132200 5354.400000
247.148600 7515.300000
248.120300 3578.000000
248.143200 4628.900000
249.127200 29562.100000
249.152000 14285.700000
249.163600 22862.500000
250.135600 6117.300000
250.159300 23452.900000
251.142900 85493.700000
251.165700 20499.600000
252.137900 6833.900000
252.174500 12175.800000
253.122700 7593.500000
253.145400 6727.700000
253.158800 12619.600000
254.129200 3471.800000
254.153600 10802.200000
254.190900 8273.000000
255.137800 11193.800000
256.169100 31403.200000
257.153900 6073.800000
262.135300 11175.800000
262.158800 14187.200000
263.143200 30289.200000
263.166700 10943.400000
263.179100 6394.600000
264.174600 80656.100000
265.144300 5831.600000
265.158700 58036.000000
265.182600 3494.100000
266.153700 8481.300000
266.167300 5001.300000
266.189900 56006.300000
267.161000 11032.600000
267.174400 31941.700000
268.169500 38865.600000
269.153400 219762.500000
273.164300 7888.200000
274.159100 12334.700000
275.166800 3946.700000
276.174800 12655.200000
277.145500 3549.500000
278.154100 10060.500000
278.190200 39320.100000
279.161500 10877.200000
280.169400 149370.500000
281.175900 36095.400000
281.190800 8177.400000
282.185200 85971.800000
283.169200 22207.200000
284.201000 12220.700000
286.158300 3855.900000
287.167600 3478.200000
288.174400 63886.200000
290.190400 15456.300000
291.174300 80572.000000
292.169700 10570.200000
294.185300 24391.000000
296.200500 35663.900000
301.182400 9734.100000
302.190100 19580.000000
304.168700 5513.200000
304.206900 5147.700000
305.176400 6023.500000
306.184500 36858.200000
307.193300 5658.100000
308.201100 29501.900000
309.184800 125219.300000
312.174900 4533.100000
314.190300 11228.200000
316.168900 4380.600000
317.176700 6964.200000
318.185500 9166.000000
319.193300 10262.200000
320.200700 18607.500000
328.205900 4741.400000
329.176900 3452.300000
329.212100 2781.800000
330.184700 5928.200000
331.193000 10732.400000
332.200600 73092.800000
333.208300 9005.200000
334.216900 14119.700000
339.198000 4073.700000
344.201600 6794.600000
345.209100 3907.500000
346.216500 35184.800000
348.232100 45245.200000
354.222000 18895.500000
357.208400 9699.400000
358.217200 10017.300000
359.225500 13151.500000
360.232100 65310.000000
372.232200 964421.800000
390.243000 31768.200000
397.239400 20484.700000
400.227400 5811.400000
412.263400 110948.100000
415.250500 271506.200000
430.274100 1130203.600000

>ms2
53.002100 2908.700000
53.038600 4399.600000
55.017900 20703.400000
55.054300 14560.000000
57.033400 3436.300000
65.038600 4066.700000
67.017700 3504.900000
67.054200 32191.800000
69.033500 13293.400000
69.069800 15390.700000
70.065100 3520.400000
71.049200 4517.100000
79.054200 50222.800000
81.069900 43458.500000
83.049100 34068.900000
84.080800 4552.100000
85.064800 4705.100000
91.054300 96060.700000
93.069900 95988.300000
95.049200 25142.600000
95.085600 36839.300000
97.064900 73367.000000
103.054300 7145.200000
105.069900 104043.900000
107.049200 46169.100000
107.073000 33454.600000
107.085500 58674.400000
109.064800 81288.600000
109.101100 10371.800000
111.080300 6928.900000
115.054300 11494.800000
116.062100 4246.400000
117.069900 72688.800000
118.065100 9847.800000
119.085600 131719.700000
120.080800 65288.200000
121.064700 30289.200000
121.088600 172274.300000
121.101200 32368.600000
122.096400 202378.000000
123.080300 29809.400000
125.096200 14351.200000
128.061900 20783.100000
129.069800 88327.700000
130.077500 7839.700000
131.049000 8955.100000
131.073200 6308.400000
131.085600 108883.900000
132.080700 27203.200000
132.093200 2939.100000
133.064800 110497.500000
133.088600 26521.300000
133.101200 61165.100000
134.096400 1028766.800000
135.080400 193477.600000
136.112300 6088.900000
137.096100 20007.000000
141.069900 39390.700000
142.077800 15158.500000
143.085500 81299.700000
144.056800 4835.500000
144.080800 21624.200000
145.064900 45695.100000
145.088700 19741.500000
145.101200 83992.500000
146.072600 9685.000000
146.096400 50262.600000
147.080400 77090.400000
147.104300 42298.800000
147.116700 8402.500000
148.075700 72604.600000
148.112000 233878.400000
149.059200 3010.500000
149.096100 54894.100000
150.091500 8009.600000
151.075200 6486.400000
153.069800 11429.200000
154.077700 10193.900000
155.085500 75263.500000
156.093600 9393.400000
157.064800 40019.900000
157.089400 13109.800000
157.101200 46218.600000
158.096500 103378.800000
159.080500 178419.200000
159.104300 53717.100000
159.116300 18306.100000
160.088300 16570.200000
160.112100 150192.000000
161.096100 142596.000000
161.120200 18869.300000
162.127700 63978.800000
163.111900 10626.400000
165.069500 15835.200000
166.077900 12062.300000
167.085600 46311.900000
168.093400 7232.100000
169.101100 56279.500000
170.096300 7176.900000
170.109200 3595.200000
171.080400 27586.500000
171.104300 59868.600000
171.116700 30448.500000
172.112100 246878.000000
173.096200 128536.300000
173.120000 66234.800000
174.091000 5600.600000
174.104000 50965.700000
174.127800 63784.300000
175.111700 16827.500000
175.135400 31678.400000
176.143600 5394.900000
178.077700 11276.600000
179.085500 39933.500000
180.093400 9469.100000
181.065400 6074.700000
181.101200 60781.700000
182.072900 5956.100000
182.109300 7107.200000
183.080600 17114.400000
183.104500 11287.100000
183.116900 38227.000000
184.088500 8474.200000
184.112200 48166.900000
185.096100 37761.400000
185.120100 48079.900000
185.131600 14299.000000
186.103800 5551.500000
186.127900 87710.700000
187.111800 41444.400000
187.135800 22337.900000
188.107300 4332.200000
188.143500 45670.400000
189.127300 3092.700000
190.122600 3625.400000
191.085400 13901.600000
192.093500 19893.900000
193.101100 41523.000000
194.073000 3177.700000
194.097000 7628.800000
194.108900 13330.400000
195.080500 12335.200000
195.104500 5758.700000
195.117000 34422.800000
196.088100 10806.200000
196.112100 9042.400000
196.123700 3585.700000
197.096000 42141.800000
197.120200 15181.500000
197.131900 15943.700000
198.104800 13390.900000
198.127800 55008.700000
199.112000 43123.400000
199.135700 44297.400000
200.107100 3120.100000
200.119700 4186.600000
200.143500 31179.600000
201.127200 20453.700000
202.123100 6168.600000
203.085800 4385.200000
204.093200 7766.800000
205.101600 19467.200000
206.109000 10264.900000
207.081100 4495.500000
207.104200 9504.300000
207.117000 38347.100000
208.088200 8283.700000
208.112300 22145.600000
208.124800 10401.100000
209.096400 36220.600000
209.120000 19606.200000
209.132600 31342.900000
210.104000 10894.900000
210.127800 46479.700000
211.111700 76834.200000
211.135800 26202.800000
212.119200 7665.300000
212.143600 39541.900000
213.127400 23741.700000
213.151000 29314.900000
214.122500 4637.800000
214.134900 2846.700000
214.159100 22304.100000
215.086200 2597.500000
215.106700 11399.400000
215.142400 3150.500000
216.093200 4375.500000
217.101500 6364.900000
218.109100 12040.600000
219.117000 17543.100000
220.088600 4538.500000
220.125000 9210.900000
221.096000 11649.100000
221.120100 21987.000000
221.132700 22002.300000
222.103900 10569.800000
222.127800 58625.800000
223.111700 44241.800000
223.135600 54855.700000
223.148200 19216.700000
224.143500 67938.900000
225.115300 5315.600000
225.127200 43830.400000
225.151100 22568.200000
226.122600 6829.600000
226.159000 20282.500000
227.130400 10841.400000
227.143200 35506.400000
228.138200 11776.800000
228.174200 3475.600000
229.101100 3973.300000
229.122000 5608.900000
230.108900 3804.600000
231.116700 5910.500000
232.124000 6135.600000
233.095700 6873.900000
233.120300 4208.200000
233.132200 13672.800000
234.103600 4972.500000
234.127800 13290.400000
234.139800 5209.300000
235.111800 17399.300000
235.135400 23341.500000
235.148400 10234.800000
236.119800 14073.100000
236.143400 235860.600000
237.115100 5791.300000
237.127600 27525.800000
237.151200 37388.300000
237.163600 5479.500000
238.122600 9403.300000
238.158900 70994.100000
239.106700 7413.200000
239.130700 6187.300000
239.143500 10154.900000
239.166400 11710.600000
240.138300 23572.300000
240.174800 26820.100000
241.123100 5088.500000
241.146200 6684.600000
241.159000 6143.500000
242.154200 18123.900000
243.117100 6156.400000
243.138200 6338.800000
243.162300 3755.300000
244.124700 6193.000000
244.173000 2916.700000
245.132700 3935.600000
246.127600 4622.000000
247.112600 6635.800000
247.135300 9554.400000
247.148100 4774.300000
248.120000 6353.800000
248.143500 33604.500000
249.128700 13582.800000
249.151200 37298.000000
249.164200 7640.700000
250.121900 5692.100000
250.158900 47500.700000
251.129800 4031.900000
251.143200 35291.200000
251.166100 18659.800000
252.138600 19930.200000
252.151600 5059.500000
252.174100 13049.500000
253.122300 3040.800000
253.146000 6101.600000
253.159000 7648.900000
254.130900 4303.000000
254.153600 13772.200000
254.188900 3402.200000
256.170100 12336.400000
258.127700 7496.000000
259.135300 8373.000000
260.143600 23434.900000
261.128300 3489.200000
261.150800 19016.300000
262.135600 6438.500000
262.159200 39458.600000
263.143300 7470.500000
263.165900 20310.800000
263.180200 3411.000000
264.138500 9777.700000
264.174800 30394.200000
265.145800 17124.100000
265.159300 9950.700000
265.182200 4418.700000
266.153900 43747.900000
266.168400 4934.600000
266.190500 12063.400000
267.161800 17913.600000
267.175600 5864.100000
268.170000 11257.600000
269.153800 79031.000000
271.135400 3625.200000
272.143100 11437.100000
273.150700 27091.600000
273.164400 2654.100000
274.159200 67733.600000
275.167100 14134.300000
276.175200 24036.200000
277.146300 9526.400000
277.182800 5021.500000
278.153800 14729.600000
278.189800 13652.600000
279.161700 18591.000000
280.169900 72336.500000
281.176400 22770.200000
282.185000 11403.200000
283.169000 4862.600000
285.151400 4550.200000
286.159600 19131.600000
287.166900 15473.000000
288.174700 233013.800000
289.182600 7602.700000
290.154200 8480.700000
290.191200 12666.300000
291.161600 8826.300000
291.176600 4749.600000
292.170000 8734.600000
294.184900 8400.700000
296.201300 7290.500000
298.158500 4593.300000
299.166800 13381.600000
300.175200 11590.100000
301.182800 6056.900000
302.190700 14605.700000
304.169700 8438.200000
304.204600 4062.900000
305.177200 8420.700000
306.185200 52481.000000
307.193100 6259.900000
308.201900 7270.500000
309.184900 4149.400000
311.166600 6843.400000
312.173600 5209.800000
313.182100 7767.500000
314.156600 3725.300000
314.190500 56032.400000
315.198400 6109.000000
316.170100 12418.900000
317.177200 28624.500000
318.185800 14518.400000
319.193100 19415.000000
320.201000 8419.800000
324.174200 7122.400000
326.190700 9250.100000
328.169200 5572.600000
328.206400 3691.600000
329.178000 4042.000000
329.213300 5347.300000
330.186200 17520.900000
331.193200 14360.300000
332.201100 125600.900000
333.209300 17226.700000
339.198100 11436.500000
340.205800 8707.500000
342.185600 4991.600000
344.201700 9067.600000
345.209000 7298.900000
346.217000 27401.800000
348.232400 19294.900000
354.222000 15579.400000
357.208600 7304.700000
358.216700 34399.500000
359.223800 18428.300000
360.232100 19020.500000
372.232400 176347.400000
390.244000 2915.200000
397.239700 7924.400000
400.228200 5329.800000
412.262800 5561.600000
415.251000 146452.000000
430.273900 29144.500000

>ms2
53.038600 10596.500000
55.017900 39542.700000
55.054300 28740.200000
56.049400 3198.900000
57.033400 3242.200000
58.065000 5586.100000
65.038500 13893.200000
67.017700 10805.800000
67.054100 61181.600000
69.033300 12728.100000
69.069700 14234.100000
70.064900 6613.000000
71.049000 5460.900000
79.054100 122354.900000
81.033400 4424.500000
81.069800 64297.400000
83.049100 49727.700000
84.080600 2991.100000
91.054200 258215.400000
92.061800 5200.900000
93.069900 110916.600000
95.049100 48633.700000
95.085500 28717.400000
97.064800 65021.700000
103.054100 27725.000000
105.069900 200767.000000
106.065300 9041.900000
107.049100 90974.700000
107.072900 65797.400000
107.085400 51194.600000
108.080600 5769.000000
109.064800 89834.200000
109.101100 7200.700000
111.080500 6147.500000
115.054200 52879.800000
116.062100 24925.600000
117.057100 8285.000000
117.069900 160645.400000
118.065000 36028.900000
119.085500 127798.500000
120.080700 136206.200000
121.064700 31595.400000
121.088600 158888.200000
121.101200 11588.200000
122.096400 134499.500000
123.080300 23120.000000
125.096000 4404.500000
128.062000 80643.200000
129.069800 162972.900000
130.065100 11462.400000
130.077700 30143.400000
131.049000 27449.800000
131.073400 20497.500000
131.085500 144282.000000
132.056800 9462.800000
132.080800 44371.400000
132.093300 7757.600000
133.064700 152785.600000
133.088600 72120.400000
133.101100 45499.900000
134.096400 1165654.600000
135.080300 176787.800000
136.112300 6053.100000
137.095800 4080.000000
141.069800 87083.100000
142.077800 37164.700000
143.072800 8195.300000
143.085500 100853.200000
144.057000 24522.300000
144.080700 59536.200000
144.093300 10355.300000
145.064700 84649.100000
145.088700 44103.000000
145.101000 60629.100000
146.072500 34353.600000
146.096400 89666.400000
147.080400 54038.700000
147.104100 69920.400000
147.116600 5523.100000
148.075500 49437.000000
148.112000 180217.800000
149.096000 23903.300000
150.091500 6921.700000
151.075000 6508.700000
152.062200 10309.100000
153.069900 36179.500000
154.077800 31089.900000
155.085400 113081.100000
156.081100 16307.800000
156.093300 18248.100000
157.064700 48681.900000
157.088700 59266.000000
157.100800 41124.300000
158.072600 15019.300000
158.096400 220407.000000
159.080400 138121.600000
159.104200 85749.000000
159.116900 11191.300000
160.088100 13924.100000
160.112000 109701.700000
161.096000 85786.900000
161.119900 15571.600000
162.127600 29591.100000
165.069900 59778.600000
166.077700 33609.700000
167.085500 72729.500000
168.093300 19772.000000
169.064600 9257.600000
169.088600 4632.000000
169.101100 68316.900000
170.072800 7003.500000
170.096300 36659.200000
170.109000 5666.200000
171.080600 29193.700000
171.104200 104471.900000
171.116400 13933.200000
172.112000 347342.900000
173.096100 61432.800000
173.119800 50734.400000
174.091100 6256.200000
174.103800 58481.400000
174.127800 31904.200000
175.111700 10902.700000
175.135500 14155.900000
177.069800 3079.400000
178.077700 34753.000000
179.085400 80906.000000
180.093100 27028.600000
181.065000 14351.500000
181.101100 61592.100000
182.072700 13205.300000
182.096700 13499.100000
182.109100 11941.100000
183.080600 27982.300000
183.104300 32234.700000
183.116800 35137.200000
184.088400 7784.900000
184.112000 88608.000000
185.096200 24880.400000
185.119900 61287.400000
185.131800 6961.600000
186.104000 4799.100000
186.127700 56850.000000
187.111400 11001.400000
187.135800 7918.400000
188.106800 4374.000000
188.143400 7715.500000
190.077600 6602.200000
190.122200 3080.900000
191.085300 39318.500000
192.093300 49740.600000
193.090400 5008.200000
193.101200 63186.400000
194.072600 9613.100000
194.096600 29337.200000
194.109100 14255.900000
195.080500 19192.700000
195.105700 19971.900000
195.116200 27647.000000
196.088400 14882.100000
196.112100 21791.300000
196.123500 4172.800000
197.096100 36092.700000
197.120000 40344.500000
197.132000 8777.800000
198.103900 9883.900000
198.127700 75426.700000
199.111800 18244.400000
199.135500 40269.800000
200.107800 3634.900000
200.119500 5292.200000
200.143300 18577.400000
201.127300 8029.100000
202.078200 9473.500000
203.085500 19647.300000
204.093500 13892.600000
205.101200 28557.400000
206.097100 4834.700000
206.109000 19229.900000
207.080500 10108.700000
207.104200 37728.600000
207.116700 31617.400000
208.088400 10968.200000
208.112200 84187.800000
208.124500 8605.500000
209.096100 23290.800000
209.119900 65883.200000
209.132400 17681.200000
210.103800 11993.900000
210.127600 75625.900000
211.101000 4707.700000
211.111600 36155.600000
211.135400 27336.800000
212.108000 5597.700000
212.119700 8079.300000
212.143300 33521.900000
213.114700 7540.600000
213.127400 10330.900000
213.151400 15609.100000
214.123200 7063.000000
214.135000 3269.700000
214.159200 4255.700000
215.085500 12509.200000
215.107400 3266.500000
216.093400 10583.400000
217.101200 26054.300000
218.109000 17338.400000
219.081000 5457.300000
219.104700 4439.400000
219.116900 24591.000000
220.087900 7038.000000
220.112000 22491.000000
220.123500 5793.700000
221.095600 20507.000000
221.120100 59464.700000
221.132400 11006.000000
222.103900 9592.200000
222.127700 123261.500000
223.111800 27290.900000
223.135600 85477.600000
223.147700 8312.000000
224.107600 4722.700000
224.143300 72228.300000
225.114700 11217.600000
225.127500 15482.900000
225.151200 20702.800000
226.122300 8804.100000
226.158500 12804.800000
227.130700 5748.900000
227.143200 8042.300000
228.093700 6181.300000
228.138100 3945.000000
229.101500 25793.700000
230.109200 7776.400000
231.105000 5149.400000
231.116000 13510.700000
232.112000 7283.800000
232.124500 5268.500000
233.096100 10462.100000
233.119600 13754.400000
233.133000 11974.600000
234.104600 5351.300000
234.127700 41743.900000
234.140300 5553.700000
235.112000 14831.600000
235.135500 44425.500000
235.147800 3730.000000
236.120200 9102.000000
236.143300 114289.800000
237.115600 3692.500000
237.128000 13152.200000
237.151100 34104.800000
238.122800 13987.700000
238.159000 39629.200000
239.107000 3435.600000
239.130400 9189.100000
239.143100 3637.900000
239.166200 5332.500000
240.138400 19041.000000
240.174600 3944.400000
241.146200 5572.000000
242.109300 4871.500000
242.153800 6795.700000
243.116900 18485.100000
244.111500 4332.400000
244.124600 6375.500000
245.119900 6175.800000
245.133200 7266.600000
246.104400 4523.400000
246.127200 22524.200000
247.111400 8938.800000
247.135500 31276.700000
248.143200 54735.900000
249.150900 36681.400000
249.164900 3538.400000
250.123000 6588.900000
250.136300 5167.200000
250.158800 34954.000000
251.130500 6850.300000
251.143400 8430.000000
251.167500 11222.800000
252.138400 21655.900000
252.151500 4845.500000
252.173400 5394.500000
253.146200 5365.400000
254.154300 3792.300000
255.117000 6544.500000
257.120000 6334.300000
258.127800 49833.300000
259.135400 21783.500000
260.143300 60195.500000
261.127900 4936.300000
261.151000 36590.500000
262.159000 41125.200000
263.129700 3795.900000
263.166100 12735.600000
264.138700 11314.800000
264.175000 10399.200000
265.145900 15377.000000
266.153700 28741.700000
267.161400 7527.300000
269.153800 6805.900000
271.135500 11342.000000
272.143400 47513.300000
273.151000 54954.500000
274.158900 103654.100000
275.166300 15700.700000
276.137600 5712.700000
276.174200 19636.400000
277.182500 4180.500000
278.154200 10906.000000
278.190300 4815.800000
279.161600 7074.200000
280.169800 21421.300000
281.176500 3832.100000
284.143200 15033.500000
285.151400 8276.600000
286.158800 47600.500000
287.166800 16405.700000
288.174500 160361.600000
289.183200 6044.900000
290.190100 8143.600000
291.162100 7093.700000
296.143800 5573.300000
297.151800 5483.800000
298.159000 24003.300000
299.167100 40432.200000
300.174200 17283.800000
301.182800 5214.600000
302.154200 4571.800000
302.190800 4321.400000
304.170700 4547.800000
305.176200 5023.300000
306.185200 12079.200000
310.159300 8679.600000
311.166400 7340.300000
312.176000 5364.400000
313.182000 5168.800000
314.190000 40368.100000
315.199300 3499.400000
316.169500 16087.400000
317.177100 29120.200000
318.185100 16250.200000
319.193700 5484.200000
320.201300 6235.200000
324.174600 10986.600000
326.190300 6242.100000
328.170700 3173.900000
328.206800 4080.200000
330.185400 11446.800000
332.201100 20066.900000
333.209100 4154.500000
338.190700 5703.800000
339.196700 4220.100000
340.206600 4587.200000
342.186800 4521.900000
344.201500 5509.900000
346.216900 5327.900000
354.222400 3741.200000
358.217000 11430.600000
372.232200 7533.200000
400.228600 3457.200000
415.251100 9114.000000

>ms2
51.023000 3263.800000
53.002300 7667.600000
53.038600 30570.800000
55.017900 53962.900000
55.054300 43727.200000
56.049500 4965.900000
57.033600 4060.700000
58.065100 9441.000000
65.038500 28077.700000
66.046400 3893.700000
67.017800 12429.400000
67.054200 64558.900000
69.033300 12770.800000
69.069900 11319.400000
70.065200 10333.800000
71.049100 4046.600000
77.038600 7724.600000
78.046300 3140.800000
79.054200 174802.300000
81.033500 6986.000000
81.069900 59052.000000
83.049100 50978.400000
91.054200 452461.500000
92.062100 9747.600000
93.069900 89528.400000
94.041400 4898.200000
94.065100 7690.900000
95.049100 78846.600000
95.085400 15173.600000
97.064800 37404.300000
103.054200 44685.200000
104.062100 10666.200000
105.069900 266814.800000
106.065100 19442.900000
107.049100 109857.300000
107.072900 109441.500000
107.085400 32158.900000
108.080800 9574.300000
109.064800 61919.900000
115.054200 121725.800000
116.062000 59851.900000
117.057300 17423.900000
117.069900 209760.900000
118.065100 70868.900000
119.048800 4571.400000
119.073000 32095.300000
119.085500 69791.100000
120.080800 207807.000000
121.064800 23549.800000
121.088600 104242.500000
122.096300 56288.700000
123.080500 8505.600000
127.054200 6500.300000
128.062000 194292.900000
129.069800 192791.400000
130.065200 29118.000000
130.077700 37202.000000
131.049100 30566.400000
131.073100 33460.600000
131.085500 102031.400000
132.056800 17245.700000
132.080800 54548.500000
132.093500 3353.200000
133.064900 125447.900000
133.088600 95534.600000
133.101000 17890.200000
134.096400 1023650.100000
135.080400 107602.100000
136.112200 5943.500000
141.069800 131624.900000
142.065200 8323.400000
142.077700 62432.100000
143.073000 43017.200000
143.085500 69274.400000
144.057000 44038.900000
144.080800 100317.500000
144.093400 6284.900000
145.064800 90462.800000
145.088700 46738.000000
145.101200 28538.500000
146.072600 38413.600000
146.096400 110423.700000
147.080300 24747.100000
147.104200 68161.200000
148.075500 27022.400000
148.112000 86454.400000
149.059600 3120.900000
149.095900 6946.400000
150.091200 3458.000000
151.075500 5435.500000
152.062000 21320.900000
153.069800 72824.200000
154.065900 3408.500000
154.077700 53566.100000
155.073400 7867.900000
155.085600 98629.200000
156.080900 70500.500000
156.092500 13702.900000
157.064800 37864.700000
157.088600 111920.100000
157.100400 25487.600000
158.072800 17192.800000
158.096400 236694.100000
159.080500 87886.600000
159.104300 57875.200000
159.116300 5745.600000
160.089100 2699.400000
160.112100 49985.800000
161.096200 28547.900000
161.120300 6076.700000
162.128000 5442.500000
165.069900 125229.300000
166.077900 46567.300000
167.073300 4503.900000
167.085500 78458.200000
168.081100 13148.200000
168.093300 27686.700000
169.065000 12762.700000
169.088900 13258.000000
169.101200 39750.700000
170.072600 5750.900000
170.096400 80825.800000
170.108900 4945.800000
171.080700 21044.900000
171.104200 96845.900000
171.116700 5844.100000
172.112000 233590.500000
173.096100 17029.500000
173.120200 23909.000000
174.104000 26940.300000
174.127400 13509.600000
177.070100 5639.100000
178.077700 85884.800000
179.085500 105998.600000
180.080700 9997.700000
180.093300 32022.200000
181.064800 25066.200000
181.088800 9355.100000
181.101100 49431.800000
182.072500 19588.900000
182.096600 38776.300000
182.109400 5903.500000
183.080400 28852.800000
183.104300 38845.400000
183.116800 16511.600000
184.112100 108317.400000
185.096200 9685.600000
185.120100 29890.000000
186.127700 23564.800000
187.112000 3362.600000
187.135400 5397.400000
189.069700 8355.200000
190.077700 21147.500000
191.085500 71630.200000
192.083000 5213.100000
192.093300 58167.000000
193.088800 19782.400000
193.101300 48711.300000
194.073300 12771.100000
194.096600 57914.700000
194.109100 11834.500000
195.080400 18666.200000
195.104400 40213.600000
195.116700 18391.100000
196.088600 13705.200000
196.112000 44702.400000
197.096000 30034.300000
197.119900 32893.700000
197.131100 5173.700000
198.104000 5683.500000
198.127700 60667.100000
199.111900 7926.200000
199.135000 15819.700000
200.143200 5510.400000
202.077900 18983.100000
203.085600 43303.500000
204.082800 4524.000000
204.093300 22912.800000
205.090600 5078.100000
205.101300 40637.400000
206.096700 20872.800000
206.109000 13846.800000
207.080200 10727.100000
207.104300 62548.400000
207.116800 19251.900000
208.088400 9222.000000
208.112100 107395.300000
209.096200 10960.400000
209.120000 74766.000000
209.131600 4709.700000
210.127700 67000.300000
211.100800 2854.300000
211.111400 15329.700000
211.135800 22996.900000
212.107500 4765.200000
212.119800 5078.000000
212.143000 12875.100000
213.114800 3288.900000
215.085600 35306.100000
216.093600 16383.700000
217.089500 4842.800000
217.101100 33954.700000
218.096500 10673.700000
218.109100 13371.200000
219.080600 9624.000000
219.104500 13443.700000
219.117000 19487.600000
220.112200 47788.800000
220.123200 2994.000000
221.096300 9973.900000
221.119900 67982.100000
221.131200 4170.900000
222.127700 110059.700000
223.099800 4851.700000
223.112000 5337.300000
223.135700 47926.600000
223.147800 3984.800000
224.107100 4460.600000
224.143400 40096.500000
225.114700 13946.800000
225.127400 6957.100000
225.150900 7161.300000
226.123000 7070.000000
226.159000 3260.700000
227.085800 6063.000000
228.093300 14169.400000
229.101200 41441.000000
230.096300 8981.300000
230.109100 21166.000000
231.104100 7925.100000
231.117100 17572.000000
232.112100 17978.300000
232.125100 7166.700000
233.096100 8218.400000
233.120000 26955.300000
233.132400 6374.600000
234.127700 58783.800000
235.112000 7947.900000
235.135600 38564.200000
236.143400 42936.900000
237.114700 8808.900000
237.127800 4802.100000
237.151300 9220.900000
238.122600 10429.200000
238.159300 9764.200000
239.085800 5506.900000
239.131000 4191.500000
240.138300 6818.100000
241.101100 10298.000000
242.109400 10116.000000
242.154200 3772.900000
243.104500 5896.200000
243.116900 22054.100000
244.111900 15037.900000
244.124900 3714.000000
245.120300 23497.700000
245.132600 5740.200000
246.104500 3894.000000
246.127600 36218.200000
247.112200 3592.500000
247.135500 32244.900000
247.148800 4298.200000
248.143500 41461.600000
249.151400 12060.500000
250.122700 9285.700000
250.159100 11976.000000
251.130600 3891.200000
251.166500 3192.900000
252.093200 4559.700000
252.138000 7322.200000
253.101200 5681.200000
254.110400 4871.400000
255.117000 12161.500000
256.111400 8446.600000
256.125300 7937.300000
257.119800 9737.600000
258.127800 87417.200000
259.135400 25614.300000
260.143400 55416.000000
261.151100 26644.400000
262.159300 21295.000000
263.166300 4163.300000
264.138400 7525.500000
265.100900 3632.700000
265.146100 3508.200000
266.153600 4392.300000
269.119100 5385.400000
270.127600 7058.300000
271.135600 20503.900000
272.143300 78308.000000
273.151400 35690.300000
274.158800 55090.200000
275.166300 4237.900000
276.138000 5435.100000
276.175100 5225.000000
278.153700 3611.700000
280.169300 4844.900000
282.128100 4292.400000
283.134300 5594.600000
284.143300 18322.800000
285.151400 10056.500000
286.159400 26412.100000
287.166300 7909.000000
288.174600 32210.900000
290.154400 3029.300000
296.143300 6027.700000
297.151100 6417.400000
298.159300 28659.200000
299.167100 11788.100000
300.175300 6923.500000
302.154500 5223.900000
310.158700 3748.800000
311.166600 3732.900000
312.174800 5531.000000
314.152600 2888.900000
314.191500 5936.400000
316.169400 9065.500000
317.177300 4684.500000
338.189200 3387.400000

>ms2
51.023000 5875.600000
53.002200 12288.700000
53.038600 56660.500000
55.017800 59092.300000
55.054300 38112.000000
56.049600 5166.700000
57.033600 4687.100000
58.065200 8574.400000
65.038500 62811.700000
66.046400 9908.700000
67.017700 17206.400000
67.054200 67419.700000
69.033500 10579.400000
69.069800 8155.800000
70.065000 9300.700000
77.038300 16142.900000
78.046400 11960.400000
79.054200 242841.800000
81.033500 11095.700000
81.069800 53602.900000
83.049000 43051.500000
91.054200 664175.600000
92.062000 17814.100000
93.069900 58332.200000
94.041400 11132.300000
94.065200 10246.400000
95.049100 141597.600000
95.085500 7186.400000
97.064700 21774.100000
103.054200 99433.500000
104.061900 24006.100000
105.069900 273957.000000
106.065000 44565.500000
107.049100 124463.600000
107.072900 104028.200000
107.085500 14168.700000
108.080800 5960.100000
109.064800 41471.500000
115.054200 266520.600000
116.062000 99070.400000
117.057300 25301.900000
117.069800 193875.600000
118.065000 162753.600000
119.049300 6581.600000
119.072900 70053.100000
119.085500 38328.800000
120.080800 272012.100000
121.064600 18201.200000
121.088600 75268.200000
122.096300 23570.000000
127.054200 19026.500000
128.062000 354937.200000
129.069800 206726.500000
130.065100 45127.100000
130.077600 35263.900000
131.049100 46847.800000
131.073000 43502.400000
131.085500 64270.600000
132.057000 25699.000000
132.080800 83110.800000
133.064800 84595.500000
133.088600 116297.700000
133.100700 6032.300000
134.096300 844575.600000
135.080300 37052.400000
136.111900 2805.700000
141.069800 193776.500000
142.065000 20930.000000
142.077700 72547.000000
143.072900 94583.400000
143.085400 47161.200000
144.057000 47660.600000
144.080700 139452.400000
145.064700 104272.700000
145.088600 50153.900000
145.101100 15555.000000
146.072600 32966.300000
146.096400 133577.500000
147.080600 12413.800000
147.104200 40659.300000
148.075700 10772.100000
148.111900 33444.200000
151.075300 2979.800000
152.062000 66519.400000
153.069900 130142.800000
154.065200 10555.300000
154.077700 64644.300000
155.073400 18890.700000
155.085500 88773.200000
156.080800 129130.400000
156.092100 17333.600000
157.064700 38092.300000
157.088600 133698.500000
158.096400 205022.300000
159.080400 47408.000000
159.104300 35995.500000
160.112000 26988.000000
161.096400 7907.300000
165.069800 227405.100000
166.077700 71272.600000
167.073000 10821.900000
167.085400 85278.600000
168.080800 28683.800000
168.093200 15002.500000
169.064700 17344.100000
169.088500 22762.300000
169.100700 22404.300000
170.072500 7121.600000
170.096300 139449.100000
171.080500 11581.000000
171.104200 81991.000000
172.112000 116122.600000
173.096000 6085.600000
173.120000 8180.000000
174.091500 3512.800000
174.104400 5929.400000
174.127400 6290.600000
177.069900 13099.000000
178.077700 149961.500000
179.085500 138563.600000
180.080500 23029.300000
180.093200 30453.700000
181.064800 30127.400000
181.088800 24757.700000
181.101000 27248.400000
182.072500 21081.100000
182.096400 50671.500000
182.106600 4434.100000
182.109200 4640.500000
183.080500 19171.000000
183.104300 40472.700000
183.116800 5284.300000
184.112000 95412.800000
185.096600 5108.300000
185.120100 14858.500000
186.128100 8885.700000
189.069800 23889.300000
190.077700 31320.300000
191.085300 93141.800000
192.081000 14888.800000
192.093300 48912.800000
193.088700 47806.500000
193.101100 38412.000000
194.073000 14017.700000
194.096400 96087.800000
194.107200 4936.200000
195.080400 18137.500000
195.104300 49274.700000
195.115700 5034.300000
196.088500 9454.000000
196.112000 53203.000000
197.096200 16019.200000
197.119900 21749.800000
198.127600 39563.900000
199.135400 5934.500000
202.077700 50365.300000
203.085400 70253.100000
204.081300 8980.900000
204.093200 29651.200000
205.088700 13695.300000
205.101100 36362.400000
206.096400 39294.500000
206.108900 9761.500000
207.080800 14928.400000
207.104300 75287.200000
207.116500 12254.000000
208.088600 8443.000000
208.112000 110884.000000
209.096100 6920.900000
209.119900 53403.300000
210.127700 48786.200000
211.099500 5703.600000
211.111100 3390.600000
211.135400 5924.400000
212.142900 4064.700000
215.085500 74410.200000
216.093300 37790.500000
217.088600 11316.900000
217.101100 45922.700000
218.096100 22877.600000
218.108800 14607.500000
219.080300 7553.100000
219.104200 19805.500000
219.116700 10610.300000
220.087900 4628.300000
220.111900 60595.000000
221.096300 7830.700000
221.119800 45817.000000
222.127600 66275.100000
223.100200 2964.700000
223.135100 14646.400000
224.107400 5565.700000
224.143300 15604.600000
225.114800 6402.400000
227.085500 13585.900000
228.093300 38240.700000
229.100700 61050.800000
230.096300 13443.200000
230.109100 23793.800000
231.104200 14844.900000
231.117000 14637.800000
232.111900 31322.600000
232.123600 4058.000000
233.095500 3914.800000
233.120100 23331.800000
234.127500 52327.000000
235.135700 16972.100000
236.143500 14157.400000
237.115300 2716.500000
238.122700 4309.800000
238.159000 3644.600000
239.085000 15084.700000
241.101000 18461.600000
242.108700 8931.800000
243.104000 12212.600000
243.117300 14474.100000
244.112000 32455.300000
244.124600 4029.900000
245.119900 26516.500000
245.132400 6173.000000
246.127600 39796.700000
247.135700 19454.200000
248.143300 23604.700000
250.122600 5243.800000
250.159100 2754.100000
252.093100 6123.900000
253.101000 12080.800000
254.108700 4861.500000
255.116700 11881.200000
256.111800 18883.000000
256.124800 6184.100000
257.119900 15392.800000
258.127600 71970.600000
259.135700 19087.000000
260.143300 34092.700000
261.151000 12877.500000
262.158500 5319.300000
263.129900 2991.400000
264.137800 2990.200000
265.101000 5696.800000
269.119100 6099.100000
270.127200 16416.300000
271.135500 12169.900000
272.143000 57873.300000
273.151000 10691.900000
274.158600 15827.400000
282.127300 7774.000000
283.135500 5943.500000
284.143600 14590.900000
285.151100 4594.600000
286.158500 8184.700000
296.143300 4475.900000
298.158900 20241.600000
310.157900 4116.600000

