>compound LU87343349
>parentmass 254.1149
>ionization [M+H]+
>formula C12H11N7
>rt 712.500000
>profile orbitrap
#smiles_iso C1=CC=C(C=C1)C2=NC3=C(N=C(N=C3N=C2N)N)N
#smiles_can C1=CC=C(C=C1)C2=NC3=C(N=C(N=C3N=C2N)N)N
#inchikey FNYLWPVRPXGIIP-UHFFFAOYSA-N
#pubchem_id 5546
#mb_accession LU063801,LU063802,LU063803,LU063804,LU063805,LU063806

>ms2peaks
254.114600 27703994.000000

>ms2peaks
237.087600 120809.200000
254.114700 28829642.000000

>ms2peaks
104.049200 64496.900000
168.055600 24811.200000
195.066300 112378.400000
210.077100 68654.300000
212.093000 353412.000000
213.077400 27588.000000
227.104000 179138.800000
237.088300 4668306.000000
252.098700 28030.600000
254.114700 23055466.000000

>ms2peaks
67.029000 19814.500000
82.039900 34917.700000
92.024300 117266.900000
104.049500 1661530.900000
107.035100 29369.500000
116.049400 92824.300000
131.060500 19557.400000
134.046100 81587.900000
141.044800 41307.400000
142.052600 39184.100000
143.060400 576859.000000
158.071300 34179.100000
161.071000 78549.200000
168.055600 725346.600000
170.071400 23714.000000
176.067900 12949.600000
183.066500 119921.200000
185.082300 203948.600000
186.066200 44647.600000
193.051400 32290.600000
195.066600 1682027.200000
210.077500 798699.500000
212.093100 1058032.400000
213.077200 237771.300000
220.061800 166954.700000
227.104000 454972.400000
237.088300 12083913.000000
239.090900 14160.800000
252.099800 48780.100000
254.114900 8049568.500000

>ms2peaks
51.023000 9703.600000
53.038700 27901.200000
55.029100 56268.900000
65.013400 6483.200000
67.029000 65642.000000
68.024300 22639.400000
77.038600 26270.000000
80.024300 52074.800000
82.039900 153288.900000
89.038400 35921.200000
92.024300 603042.200000
95.049100 76901.200000
97.050900 8947.500000
103.041800 24367.200000
104.049400 6167732.000000
105.044800 29019.800000
106.065100 12547.900000
107.035200 138576.500000
109.051000 15735.100000
116.049400 866167.400000
117.057200 21223.800000
118.065000 13221.200000
122.060000 23539.200000
124.061800 15162.900000
128.036800 19770.200000
129.044700 59614.500000
131.060300 168027.300000
132.044300 24751.300000
133.076000 15593.900000
134.046100 164477.000000
134.060000 116888.500000
136.075700 10949.000000
141.044700 694999.100000
142.052600 204317.200000
143.060300 2182680.500000
144.055500 10344.000000
148.075600 11078.300000
153.044800 37989.100000
156.055400 22086.600000
158.071200 82084.400000
159.055200 24111.300000
161.070800 145000.500000
166.040100 24361.500000
167.047600 7354.600000
168.055600 3080192.200000
169.039500 8643.800000
169.063300 33423.000000
170.071200 47292.500000
171.055300 23183.100000
176.067900 9618.500000
183.066500 557768.900000
184.050600 7626.200000
184.074600 14636.200000
185.082200 478696.100000
186.066100 161937.700000
193.050900 243582.500000
194.058700 8024.900000
195.066500 3199841.200000
196.050500 14884.700000
209.069800 9426.900000
210.077400 1377916.100000
211.061500 12385.900000
211.085400 7497.300000
212.093000 795629.400000
213.077000 272899.300000
220.061700 384941.100000
227.103900 252763.600000
235.072100 14219.700000
237.088200 6455263.000000
239.091700 9366.000000
252.099000 35658.500000
254.114700 1204631.100000

>ms2peaks
51.022900 13380.300000
53.038600 90271.100000
55.029000 141448.900000
65.013300 38920.600000
67.029000 105016.600000
68.024300 38218.500000
77.038300 73808.700000
79.054100 49402.600000
80.024300 194580.600000
82.039900 228226.300000
89.038500 252522.700000
92.024300 1080986.000000
95.049100 291098.800000
97.050800 10520.900000
103.041600 128403.100000
104.049400 8835279.000000
105.044600 108368.300000
106.065100 34103.800000
107.035200 224310.700000
109.051000 12416.700000
116.049400 2641779.000000
117.057200 86522.600000
118.065000 13212.200000
122.060100 30197.100000
128.036800 78232.300000
129.044700 187854.200000
131.060300 457462.200000
132.044300 72243.400000
133.076000 19363.000000
134.046100 98252.600000
134.059900 333344.000000
136.075300 21203.100000
141.044700 3120643.000000
142.052500 514983.700000
143.060300 2080329.800000
144.055500 42390.800000
147.055000 13989.600000
148.075600 35343.200000
153.044600 117664.000000
156.055500 46892.400000
158.071200 77820.800000
159.055300 83422.700000
161.070900 66798.600000
166.039900 96507.000000
167.047500 21656.800000
168.055600 3614188.000000
169.039600 10170.400000
169.063300 95686.600000
170.071300 44398.800000
171.055200 34841.000000
183.066500 680282.000000
184.050400 38086.100000
184.074200 32384.100000
185.082100 342995.100000
186.066000 148180.800000
193.050900 403309.700000
194.058300 13463.800000
195.066500 1827519.000000
196.050300 20188.300000
210.077300 831558.100000
211.060900 13526.600000
211.084700 11309.200000
212.093000 231415.500000
213.077100 67602.400000
220.061600 264120.800000
227.104000 53130.200000
235.072400 19608.000000
237.088200 1296343.600000
252.099000 16752.700000
254.114600 87156.200000

