>compound LU87783471
>parentmass 185.07089999999997
>ionization [M+H]+
>formula C11H8N2O
>rt 700.500000
>profile orbitrap
#smiles_iso C1=CC=C2C(=C1)NC(=N2)C3=CC=CO3
#smiles_can C1=CC=C2C(=C1)NC(=N2)C3=CC=CO3
#inchikey UYJUZNLFJAWNEZ-UHFFFAOYSA-N
#pubchem_id 19756
#mb_accession LU127501,LU127502,LU127503,LU127504,LU127505,LU127506

>ms2
157.076100 144827.700000
185.070900 11414332.000000

>ms2
156.067500 16790.600000
157.076100 243237.200000
185.070900 11141112.000000

>ms2
92.049300 20959.500000
130.065200 20858.300000
156.068100 199012.900000
157.076000 2474719.800000
184.063100 9952.300000
185.070900 9890368.000000

>ms2
65.038400 20674.100000
92.049400 125949.800000
103.054200 14428.500000
104.049500 7235.100000
117.057400 8301.800000
118.052300 13580.600000
119.060300 26356.400000
129.044900 11709.000000
129.057200 8288.500000
130.065100 197846.100000
131.060300 36507.800000
133.076000 7123.900000
140.049500 8165.500000
142.052600 36878.100000
143.060500 31992.600000
146.060100 10405.600000
147.055200 11904.900000
155.060700 16931.600000
156.068300 1178462.600000
157.076000 6119189.500000
184.063100 11983.100000
185.070900 4977805.500000

>ms2
53.038600 8827.100000
65.038500 137147.400000
67.017800 11883.700000
77.038600 6619.300000
92.049400 420467.800000
95.049100 24352.400000
97.007500 17885.700000
103.041500 11575.900000
103.054200 88521.200000
104.049400 28036.000000
105.044800 11765.500000
105.057400 12046.900000
111.023200 6148.500000
116.049500 7666.200000
117.057200 24077.700000
118.052400 75984.500000
119.060300 117992.300000
128.049300 29970.700000
129.044700 72016.500000
129.057200 40863.800000
130.065100 576812.600000
131.060300 135633.500000
133.076000 17301.200000
140.049400 30772.300000
142.052500 124721.100000
143.060400 74345.300000
144.044400 11902.800000
146.060000 24615.800000
147.055200 33861.600000
155.060400 94670.900000
156.068200 3122984.800000
157.075900 5958935.500000
184.062900 11695.500000
185.070800 1571748.400000

>ms2
53.002200 9743.300000
53.038600 33689.600000
54.033800 5547.000000
65.038500 560654.300000
67.017800 19002.300000
77.038400 15652.700000
78.033800 10080.500000
89.038400 13288.900000
90.033800 11264.100000
92.049400 786036.200000
95.049100 91082.900000
97.007500 23452.000000
103.041600 69552.700000
103.054200 212408.800000
104.049400 96915.500000
105.044700 37823.500000
105.057400 22686.600000
111.023300 6288.800000
115.054300 7623.900000
116.049300 22014.400000
117.044600 16383.000000
117.057200 44294.600000
118.052500 242693.900000
119.060300 256475.600000
128.049400 73759.900000
129.044700 127292.500000
129.057200 175538.800000
130.065100 774765.300000
131.060300 272657.600000
132.044300 7091.400000
132.068100 9147.400000
133.052100 7225.200000
133.076000 20955.000000
140.049400 46794.700000
142.052500 232292.100000
143.060200 88386.600000
144.044300 34170.600000
146.059900 36040.200000
147.055100 46203.300000
155.060400 305989.500000
156.068100 4088447.000000
157.075900 3162082.500000
161.071000 5020.600000
184.063100 8363.200000
185.070800 339127.000000

