>compound LU87836000
>parentmass 398.1612
>ionization [M+H]+
>formula C23H19N5O2
>rt 779.880000
>profile orbitrap
#smiles_iso C1CN2C(=O)[C@@H](N=C(C3=CC(=CC1=C32)N)C4=CC=CC=C4)NC(=O)C5=CN=CC=C5
#smiles_can C1CN2C(=O)C(N=C(C3=CC(=CC1=C32)N)C4=CC=CC=C4)NC(=O)C5=CN=CC=C5
#inchikey XGXOSJSGDNPEEF-NRFANRHFSA-N
#pubchem_id 9843744
#mb_accession LU130501,LU130502,LU130503,LU130504,LU130505,LU130506

>ms2peaks
248.117100 27579.600000
276.113100 2537425.500000
381.135400 16726.000000
398.161100 4198003.000000

>ms2peaks
106.028700 40369.200000
173.071100 38736.100000
248.118200 1455920.200000
275.105600 15915.800000
276.113100 7246628.000000
277.097200 7933.100000
292.128100 16568.000000
380.151700 13149.100000
381.136100 23125.700000
398.161300 88136.700000

>ms2peaks
78.033700 14423.500000
106.028700 70461.400000
145.076000 61803.500000
173.070900 158411.800000
183.055300 9311.600000
247.110300 9281.700000
248.118100 6319929.500000
258.102900 11549.000000
275.104800 23951.800000
276.113000 1573020.600000
292.129900 14237.500000

>ms2peaks
78.033900 40092.500000
91.054200 13209.200000
96.044500 15865.900000
104.049500 7496.700000
106.028800 57590.400000
116.049600 7569.000000
118.065100 18578.600000
128.049500 15535.000000
131.060400 18843.900000
132.068200 23800.500000
143.060300 8409.900000
145.076100 388953.000000
155.060300 11784.200000
170.071200 39968.700000
173.071000 75834.500000
204.081000 18860.400000
221.107200 33190.400000
231.091500 49494.700000
232.100000 16992.600000
233.094500 14410.600000
246.102300 20081.000000
247.110800 38169.500000
248.118200 7182251.500000
257.094600 7191.300000
258.102500 20597.200000
274.097500 13927.300000
275.105400 9790.100000
276.113200 102139.800000

>ms2peaks
78.033900 69597.100000
80.049500 6184.600000
91.054300 149217.900000
96.044400 30061.500000
104.049400 48072.800000
106.028800 33494.600000
110.060200 5918.000000
116.049500 44261.100000
117.057300 59618.000000
118.065100 176721.200000
123.055300 5456.900000
128.049500 189624.500000
129.044500 6685.200000
131.060400 33561.100000
132.068200 96884.100000
133.076400 7222.200000
134.060200 20103.300000
136.075700 19865.700000
143.060400 90227.500000
144.068400 34248.600000
145.076100 1139429.000000
146.060200 30830.800000
153.044800 43577.900000
155.060300 15967.700000
156.055600 5378.700000
161.071000 8859.400000
167.085600 5806.900000
170.071300 201064.700000
171.055200 5452.400000
171.079200 9340.700000
173.070900 16894.800000
177.069800 15130.300000
180.080700 29586.700000
193.088600 6849.300000
194.096600 23815.800000
203.072800 18550.500000
204.080900 125762.600000
205.076300 16709.600000
205.088600 10790.600000
206.083900 34280.100000
207.091400 23682.800000
214.064900 6913.300000
216.068300 10553.300000
219.091800 41704.000000
220.087200 9971.500000
220.099800 21466.300000
221.095200 5589.200000
221.107200 71825.400000
229.075700 10625.700000
230.083800 38350.700000
231.091700 189371.500000
232.087200 9969.200000
232.099400 51278.100000
233.094900 56015.000000
246.102600 93613.400000
247.110700 66486.500000
248.118200 5241911.500000
257.095000 8619.600000
258.102900 6035.500000
259.087000 9509.900000
274.097400 11565.200000
276.113500 6323.800000

>ms2peaks
65.038600 23710.100000
67.054300 7156.200000
78.033800 97003.600000
79.054200 5495.300000
80.049500 12879.700000
89.038600 32798.300000
91.054200 474437.900000
94.065100 5552.000000
95.049200 26346.900000
96.044400 39086.600000
104.049500 115332.000000
105.044700 16554.800000
105.057100 12297.300000
106.029000 17078.300000
110.060300 8045.200000
116.049500 163068.000000
117.057300 240630.900000
118.065100 421514.700000
119.060500 7261.500000
123.055300 4365.700000
128.049500 466543.600000
129.044800 25788.000000
129.057400 9952.700000
131.060400 43729.400000
132.068200 159046.900000
133.076000 6172.300000
134.060000 105406.300000
136.075600 30143.100000
142.052500 26564.600000
143.060400 227516.200000
144.068300 108659.500000
145.076000 1202727.100000
146.060100 70169.300000
152.061900 13950.600000
153.044700 115449.400000
153.070000 10218.100000
154.065100 8492.200000
155.060300 16227.500000
156.055800 9276.400000
159.055500 11077.800000
160.075700 4046.000000
161.070800 9964.300000
165.069800 13243.500000
167.085700 14712.100000
170.071300 312107.600000
171.055500 6641.000000
171.078900 16151.800000
176.062100 36677.600000
177.069800 46546.300000
180.080700 52978.100000
191.060400 18960.700000
191.072600 4885.200000
192.081200 7800.100000
193.076200 5848.600000
193.088800 19260.400000
194.096500 42674.800000
203.072900 81690.000000
204.080800 243073.300000
205.076100 49202.700000
205.088600 21051.500000
206.083900 62407.400000
207.091400 30486.100000
208.100000 4872.100000
214.065100 7914.000000
216.068300 13962.700000
218.083900 6871.000000
219.091600 98052.900000
220.076200 3826.100000
220.087100 20066.600000
220.099700 27832.600000
221.095200 6829.600000
221.107100 54419.400000
229.076000 44698.600000
230.084000 67226.300000
231.091700 250991.600000
232.086900 31409.100000
232.099700 52533.300000
233.094700 81005.200000
233.108100 4625.900000
234.079000 6241.000000
246.102600 214986.900000
247.110400 57637.400000
248.118200 2025738.200000
257.095000 4285.700000
258.102800 3260.500000
259.086300 3941.000000
262.073800 8357.500000
274.097600 5949.800000

