>compound LU87908810
>parentmass 315.1227
>ionization [M+H]+
>formula C18H18O5
>rt 1080.420000
>profile orbitrap
#smiles_iso C1=CC=C(C=C1)C(=O)OCCOCCOC(=O)C2=CC=CC=C2
#smiles_can C1=CC=C(C=C1)C(=O)OCCOCCOC(=O)C2=CC=CC=C2
#inchikey NXQMCAOPTPLPRL-UHFFFAOYSA-N
#pubchem_id 8437
#mb_accession LU078502,LU078503,LU078504,LU078505,LU078506

>ms2
105.034100 2041.800000
149.059800 7823.700000
162.066300 9376.100000

>ms2
105.033500 2870.200000
149.060000 3241.600000
162.066500 5100.900000

>ms2
83.049100 1710.500000
91.054400 2163.700000
105.033600 5555.400000
109.064900 3061.800000
149.059900 2368.700000
162.066400 1851.800000

>ms2
79.054200 5380.500000
81.069700 3675.000000
83.049100 3923.100000
91.054200 7434.100000
95.049200 2661.700000
105.033600 5300.300000
109.064800 3044.600000
165.069900 2706.600000

>ms2
79.054300 5634.100000
81.070200 1976.400000
91.054300 7911.300000
95.049300 5302.200000
105.033500 4567.200000
165.070200 2466.000000

