>compound LU88354255
>parentmass 262.1034
>ionization [M+H]+
>formula C9H15N3O6
>rt 288.540000
>profile orbitrap
#smiles_iso C(CO)N1C(=O)N(C(=O)N(C1=O)CCO)CCO
#smiles_can C(CO)N1C(=O)N(C(=O)N(C1=O)CCO)CCO
#inchikey BPXVHIRIPLPOPT-UHFFFAOYSA-N
#pubchem_id 13286
#mb_accession LU058201,LU058203,LU058204,LU058205,LU058206

>ms2peaks
70.028900 2493.800000
113.034500 19018.500000
182.056300 10231.800000
200.066600 45913.900000
226.082500 12745.400000
244.092800 988788.000000

>ms2peaks
69.992300 14515.500000
70.028700 70228.600000
88.039300 7262.300000
113.034600 698643.900000
156.040400 65945.600000
182.056200 291079.700000
200.066700 182447.100000
226.082500 11720.100000
244.093000 100511.200000

>ms2peaks
69.992300 65628.100000
70.028700 243800.300000
88.039400 10761.800000
113.034500 635092.900000
156.040300 62907.400000
182.056100 193252.200000
200.066500 21851.400000
226.082700 2974.200000
244.093100 3854.800000

>ms2peaks
69.992400 212820.800000
70.028700 396920.100000
87.019000 3582.700000
88.039400 7395.700000
113.034600 430931.800000
156.040500 32280.700000
182.056300 64395.500000
200.067100 2181.700000

>ms2peaks
69.992400 349681.200000
70.028700 427430.000000
87.018900 2459.200000
88.039400 6055.200000
113.034600 193270.700000
156.040500 8706.400000
182.056300 13630.300000

