>compound LU88474739
>parentmass 327.0781
>ionization [M+H]+
>formula C18H15O4P
>rt 1112.820000
>profile orbitrap
#smiles_iso C1=CC=C(C=C1)OP(=O)(OC2=CC=CC=C2)OC3=CC=CC=C3
#smiles_can C1=CC=C(C=C1)OP(=O)(OC2=CC=CC=C2)OC3=CC=CC=C3
#inchikey XZZNDPSIHUTMOC-UHFFFAOYSA-N
#pubchem_id 8289
#mb_accession LU049101,LU049102,LU049103,LU049104,LU049105,LU049106

>ms2
77.039300 37567.900000
91.054000 31499.800000
152.063100 31154.100000
327.077900 27743896.000000

>ms2
53.038600 63270.700000
77.039000 31155.500000
91.054200 205217.500000
95.049100 235413.000000
98.983900 23699.900000
152.061900 278835.600000
153.069800 1448434.800000
169.064600 41467.100000
171.080300 390159.800000
175.015300 112288.700000
181.075900 30040.700000
202.078200 28065.600000
215.025400 144738.100000
227.085900 33217.200000
228.093200 330605.200000
229.101000 573569.100000
233.036100 2296005.200000
247.051800 41204.800000
251.046600 932347.400000
291.056600 23985.300000
309.067500 205563.500000
327.077900 20892120.000000

>ms2
50.015000 9278.900000
51.022900 26684.700000
53.038600 775117.600000
55.017800 33742.900000
57.069900 115182.100000
65.038500 45737.100000
68.997000 9756.800000
71.085500 49981.000000
77.038500 353115.500000
81.033400 73964.400000
81.070000 9705.400000
85.101000 29528.800000
91.054200 635486.200000
93.033400 49603.800000
94.041300 93912.300000
95.049100 2269783.500000
98.984100 35782.900000
109.064600 28422.600000
111.044100 66381.000000
121.028300 55580.700000
122.086400 11148.200000
123.099800 13378.200000
125.059800 8260.500000
128.062000 14082.600000
129.010000 7716.500000
138.994300 44938.700000
140.002200 16966.800000
141.069700 31821.900000
143.085700 41800.400000
151.054100 43776.200000
152.062000 3361249.000000
153.069800 4472602.500000
154.077500 18596.200000
155.061300 6838.900000
157.004800 73115.800000
168.056900 483501.200000
169.064700 413343.800000
170.072400 54530.700000
171.080400 507388.300000
175.015400 280088.500000
179.060300 112855.000000
181.075800 53579.600000
187.030800 126699.200000
189.046200 19496.400000
202.077700 123749.600000
203.085200 38992.500000
205.041400 26973.300000
214.078200 7974.800000
215.025600 875749.200000
216.033100 47525.600000
226.077200 32668.700000
227.085400 226040.600000
228.093300 1337406.500000
229.101200 594583.400000
233.036100 5527320.500000
244.088300 28060.000000
247.051800 206960.800000
251.046600 3189645.200000
265.062900 18514.500000
291.056600 59712.400000
309.067600 163529.800000
327.078000 2322378.000000

>ms2
50.015100 24699.700000
51.022900 52002.400000
53.038600 1495010.600000
55.017800 73300.000000
55.054200 13465.300000
57.069900 208057.900000
65.038500 158318.500000
67.054200 18389.200000
68.997300 12435.600000
71.085500 42957.100000
77.038500 910735.600000
78.046400 7775.700000
79.054300 10498.700000
81.033500 143410.100000
81.069800 21721.400000
85.100900 29880.200000
91.054200 860506.400000
93.033500 56594.400000
94.041300 193902.900000
95.049100 4503355.500000
98.984100 26739.500000
101.015200 7482.000000
103.054000 8988.100000
109.064800 55042.600000
111.044000 90397.900000
115.054200 14964.900000
119.085400 8528.000000
121.028400 51269.100000
122.086700 14590.100000
122.091900 273341.200000
123.099800 15049.600000
125.059600 7524.900000
127.054200 13639.400000
128.062000 17553.700000
129.010000 13662.200000
131.085600 7098.600000
133.020600 7864.300000
134.092100 15345.300000
138.994300 132333.300000
139.054100 8293.000000
140.002000 33034.200000
141.069900 104204.900000
142.077700 17318.000000
143.085700 12512.000000
145.065000 42296.300000
150.045600 7544.100000
151.054200 79982.200000
152.062100 6502658.500000
153.069800 2600833.200000
154.077800 14371.700000
155.049200 13888.400000
155.060300 55706.100000
157.004800 77339.900000
159.035900 11946.200000
168.057000 2141464.500000
169.064800 681079.900000
170.072600 83611.000000
171.080400 101972.400000
175.015400 330089.800000
179.060400 201060.500000
181.075700 12782.200000
183.080000 16881.300000
187.030700 319057.900000
189.046400 10444.000000
202.077600 155857.600000
203.085400 19767.000000
205.041100 12462.800000
214.076700 10013.200000
215.025600 813155.900000
216.033200 36833.900000
226.077600 65456.400000
227.085600 283559.700000
228.093300 984852.600000
229.101000 55888.200000
233.036200 2307755.800000
244.088300 56297.700000
247.051800 163664.100000
251.046700 1284828.900000
273.045900 8690.600000
291.056600 26152.500000
309.067700 11269.600000
327.078000 37963.000000

>ms2
50.015000 38916.700000
51.022900 64465.500000
53.038600 1583175.900000
55.017800 80283.900000
55.054100 9982.400000
57.069800 121055.100000
65.002100 18450.600000
65.038500 317730.400000
66.010000 9485.600000
67.054100 46337.200000
68.997100 15016.800000
71.085500 7937.300000
74.015000 9685.500000
75.022900 7818.300000
77.038500 1382615.500000
79.054100 27709.200000
81.033400 173572.200000
81.069800 22890.200000
85.100900 6882.400000
91.054200 1074927.000000
92.025600 37160.900000
93.033400 26738.100000
94.041300 230583.500000
95.049100 4767671.000000
98.036100 7342.600000
98.984100 22163.200000
101.015000 13229.000000
103.054200 30207.200000
106.041600 19043.400000
109.064700 56763.000000
111.044000 41081.900000
115.054200 64675.600000
117.069900 9834.700000
119.085600 16009.200000
121.028300 26399.100000
122.091900 264926.800000
125.059700 11001.400000
127.054000 40194.700000
128.061900 28121.800000
129.009900 15637.100000
131.085600 15158.300000
133.020100 43352.500000
134.091800 35265.700000
138.994300 131862.600000
139.054300 16936.800000
140.002200 25984.700000
141.069800 116223.500000
142.077600 20770.900000
145.064800 78120.000000
150.046300 29624.900000
151.054100 101641.300000
152.062000 6774701.500000
153.069700 809883.500000
154.077700 7321.800000
155.048800 11646.400000
155.060300 98553.000000
157.004800 51311.600000
159.035600 42821.000000
168.056900 2638204.000000
169.064700 752451.200000
170.072100 42530.900000
171.080300 15980.900000
175.015400 287674.700000
179.060200 214290.700000
183.080200 24380.200000
186.023400 13942.500000
187.030600 292767.500000
200.061800 7216.700000
202.077600 164661.400000
213.069800 9440.900000
215.025500 380844.200000
226.077700 157533.900000
227.085400 314852.900000
228.093300 423014.200000
229.100400 8390.800000
233.036100 535033.300000
244.088000 34835.800000
247.051800 57074.900000
251.046500 137072.300000
273.046200 7244.800000

>ms2
50.015100 63551.500000
51.022900 133581.300000
53.038600 1609888.400000
55.017800 85251.300000
55.054200 10247.800000
57.069900 124218.900000
65.002100 39988.100000
65.038600 432208.100000
66.010000 8645.400000
67.054200 70478.300000
68.997000 16402.100000
74.015100 7764.800000
75.023000 17214.500000
77.038500 1905880.900000
78.046400 11111.300000
79.054200 77133.500000
81.033500 155117.800000
81.069900 26119.000000
91.054300 873866.100000
92.025700 86481.800000
93.033500 16064.700000
94.041300 257266.500000
95.049200 4812561.500000
98.984200 27925.000000
101.015100 21975.400000
103.054300 54102.100000
106.041800 11529.000000
109.064900 43394.900000
111.044000 25823.500000
115.054200 180772.200000
117.069900 9093.800000
121.028300 15944.500000
122.091900 107949.800000
127.054200 106800.300000
128.061800 35817.200000
129.009900 12294.700000
133.020200 128709.800000
134.092000 40539.300000
138.994300 121313.400000
139.054200 82619.700000
140.002100 18236.400000
141.069800 134477.800000
142.077800 17275.100000
145.064800 124845.800000
150.046500 144606.200000
151.054200 135662.100000
152.062100 7435049.500000
153.069800 233242.300000
155.048900 12928.700000
155.060400 163346.000000
157.004900 39655.400000
159.035800 64015.200000
168.057000 2609770.200000
169.064800 852159.000000
170.072400 27356.000000
175.015500 172176.400000
179.060300 200957.200000
183.080400 22865.200000
186.022900 23929.600000
187.030700 171412.300000
189.069700 9315.700000
200.062500 11506.600000
202.077700 193788.100000
213.069700 15740.900000
215.025600 120260.100000
226.077700 406312.700000
227.085500 236999.100000
228.093300 172668.000000
233.036100 98221.700000
244.088300 14193.300000
247.052100 21642.300000

