>compound LU88107765
>parentmass 181.09719999999996
>ionization [M+H]+
>formula C9H12N2O2
>rt 527.520000
>profile orbitrap
#smiles_iso CC(=O)NC1=CC(=C(C=C1)OC)N
#smiles_can CC(=O)NC1=CC(=C(C=C1)OC)N
#inchikey SJWQCBCAGCEWCV-UHFFFAOYSA-N
#pubchem_id 80779
#mb_accession LU075001,LU075002,LU075003,LU075004,LU075005,LU075006

>ms2peaks
108.044400 73805.200000
109.052300 17033.300000
110.060100 185488.600000
136.075800 824374.500000
137.083700 4159.700000
138.091400 1074836.900000
164.070600 184487.100000
181.097200 4089247.000000

>ms2peaks
92.049400 4780.700000
93.057300 8060.800000
108.044400 110279.200000
109.052100 22583.700000
110.060000 252733.100000
111.044100 3566.100000
136.075700 1003125.400000
137.083500 5097.800000
138.091300 1197467.600000
153.066200 4897.900000
164.070600 191516.500000
181.097100 3219507.200000

>ms2peaks
53.038600 3427.700000
80.049400 55897.300000
81.033500 6465.600000
92.049500 8233.900000
94.065200 73635.400000
95.049100 21685.200000
96.068400 5124.500000
98.060100 3929.800000
107.060400 1218210.800000
108.044400 710591.200000
108.068100 815152.200000
109.052200 70426.600000
109.076100 17271.500000
110.059900 7476.700000
111.031600 7505.200000
112.075700 35318.200000
122.060100 183172.100000
123.044000 45664.500000
123.055100 21384.600000
123.067800 9831.700000
124.063200 343268.800000
125.047200 18305.500000
136.075700 6440.000000
138.078800 38782.300000
139.086600 3110014.000000
140.070600 814223.900000
148.063200 10368.600000
149.071000 42543.000000
150.078800 95639.900000
163.086600 208266.500000
164.070600 7670.600000
166.073900 91202.200000
181.097200 554407.600000

>ms2peaks
53.038700 3659.200000
65.038500 174432.300000
67.041600 4951.300000
67.054200 11852.200000
80.049500 13133.000000
81.033500 40874.200000
81.057300 7262.500000
82.065100 76819.700000
90.033600 2636.900000
91.054200 4297.100000
92.049500 195501.200000
93.033500 112780.700000
93.057300 99144.500000
94.065100 12202.900000
95.049000 7270.800000
97.007600 2794.200000
108.044400 2331396.200000
109.052200 93484.900000
110.060000 1704830.500000
111.044000 294812.700000
121.028500 13136.800000
121.039700 11269.300000
124.075600 3506.100000
125.059800 19439.500000
135.044100 4398.000000
136.039400 42727.200000
136.075700 760268.400000
137.083400 17443.300000
138.091400 511880.600000
139.075700 2953.800000
139.087000 2691.200000
146.034900 6902.000000
149.071600 3344.400000
164.070500 19953.700000
181.097200 33962.300000

>ms2peaks
53.038600 30938.400000
54.033800 5794.900000
63.022900 7826.400000
65.038600 39775.100000
67.054200 23795.200000
68.013000 3133.900000
68.049400 2862.000000
77.038500 4110.600000
79.041600 8653.800000
79.054300 3499.800000
80.049500 625875.300000
81.033500 82638.200000
81.057300 31477.900000
82.064700 3017.500000
90.033800 6990.900000
92.049500 55801.900000
93.057400 22172.100000
94.065200 114924.500000
95.049200 154068.300000
95.060400 60847.900000
96.044400 7479.400000
96.068200 129072.400000
97.007600 4105.400000
97.052200 19321.200000
98.060100 4649.700000
104.049500 3081.300000
105.044900 22236.800000
107.060400 2081358.800000
108.044600 493376.300000
108.068100 2851499.000000
109.052200 129386.400000
109.076000 34449.100000
110.060000 17288.300000
111.031500 9471.600000
112.075600 19901.300000
121.028500 5828.000000
121.039900 3713.200000
122.060100 303735.800000
123.044100 36684.700000
123.055300 60856.500000
123.067900 26863.300000
124.063200 692602.700000
125.047100 31106.000000
135.044100 6146.600000
136.075700 3175.700000
138.078900 18392.800000
139.086600 452456.400000
140.070600 76673.400000
148.063100 6234.300000
150.078500 8861.500000
163.086400 10435.200000
166.073400 7373.200000

>ms2peaks
53.038600 54029.400000
54.033900 16460.500000
63.022900 14046.600000
65.038600 77233.900000
67.054200 30698.700000
68.013100 5336.800000
68.049500 6170.800000
77.038500 10767.200000
79.041500 25595.000000
80.049500 967153.800000
81.033500 105707.100000
81.057300 117284.500000
82.065200 3527.900000
90.034000 10791.900000
92.049500 57961.400000
93.057400 23529.900000
94.065100 74073.300000
95.049200 198386.900000
95.060400 178164.500000
96.044400 19118.100000
96.068200 196506.500000
97.007600 6677.300000
97.052200 39799.000000
98.060200 2847.900000
104.049700 2986.500000
105.044800 24812.800000
107.060400 1498165.400000
108.044500 253964.500000
108.068100 2794932.500000
109.052200 110996.100000
109.076000 21638.700000
110.060000 14758.600000
111.031400 4908.500000
112.075600 13754.100000
121.028300 7503.100000
121.039600 2837.500000
122.060100 175320.900000
123.044100 16019.100000
123.055200 67074.300000
123.067800 18021.200000
124.063100 480731.600000
125.047100 14774.900000
138.078800 4164.700000
139.086600 75793.900000
140.070400 15750.500000

