>compound LU89493474
>parentmass 268.0638
>ionization [M+H]+
>formula C12H13NO4S
>rt 817.740000
>profile orbitrap
#smiles_iso CC1=C(S(=O)(=O)CCO1)C(=O)NC2=CC=CC=C2
#smiles_can CC1=C(S(=O)(=O)CCO1)C(=O)NC2=CC=CC=C2
#inchikey AMEKQAFGQBKLKX-UHFFFAOYSA-N
#pubchem_id 21330
#mb_accession LU102701,LU102702,LU102703,LU102704

>ms2peaks
120.044400 34948.500000
175.006000 806255.700000
189.089800 13485.700000
193.016600 183574.000000
207.032300 32590.200000
207.960700 16424.300000
250.052600 3149.100000
268.063200 133219.000000

>ms2peaks
62.018400 10230.500000
83.012800 3347.900000
120.044400 19237.300000
146.974800 3416.600000
175.006000 1088058.000000
182.995500 1740.600000
189.089600 9157.000000
193.016600 254221.300000
207.032100 43615.000000
207.960600 14700.600000
250.053500 2875.400000
268.063400 8741.300000

>ms2peaks
61.010700 3092.700000
62.018500 20416.300000
67.017900 2367.500000
68.997000 8335.300000
83.012800 14110.900000
119.060300 4388.300000
120.044500 11295.400000
132.995400 7808.000000
146.974700 16913.500000
175.006100 579311.200000
179.000800 6204.600000
182.995800 5215.300000
189.089300 2590.700000
193.016700 151353.200000
207.032100 21708.000000

>ms2peaks
61.010600 2062.300000
62.018400 15989.400000
67.017900 4707.600000
68.997000 9149.800000
83.012800 15501.000000
119.060300 2797.300000
120.044500 6969.500000
132.995500 6652.500000
146.974700 12246.700000
175.006000 154487.400000
179.001100 2770.900000
182.996000 2479.800000
193.016700 36993.100000
207.032600 4596.800000

