>compound LU89107659
>parentmass 210.1277
>ionization [M+H]+
>formula C15H15N
>rt 1044.720000
>profile orbitrap
#smiles_iso CC1=NC2=C(C1(C)C)C3=CC=CC=C3C=C2
#smiles_can CC1=NC2=C(C1(C)C)C3=CC=CC=C3C=C2
#inchikey WJZSZXCWMATYFX-UHFFFAOYSA-N
#pubchem_id 170530
#mb_accession LU059801,LU059802,LU059803,LU059804,LU059805,LU059806

>ms2
194.096800 5803.000000
195.104300 144690.600000
210.127700 3067470.200000

>ms2
193.101400 3754.500000
194.095900 11386.400000
195.104300 564847.700000
210.127700 3174919.800000

>ms2
178.077800 2823.000000
180.080700 14799.000000
193.101200 12793.600000
194.096400 32244.900000
195.104400 1996830.600000
210.127800 1082229.600000

>ms2
152.062000 4011.300000
178.078000 9784.000000
180.080800 221773.900000
193.101400 15929.100000
194.096700 454124.900000
195.104400 2881127.500000
209.119600 2899.800000
210.127800 221127.300000

>ms2
153.070000 8182.200000
167.073200 2436.500000
178.077900 16072.000000
179.072600 2334.900000
180.080800 781695.900000
193.089000 2397.500000
193.101300 3082.800000
194.096600 1632083.900000
195.104300 1580679.600000
210.127900 25059.900000

>ms2
152.062100 20564.300000
153.070000 58889.200000
167.073300 3708.000000
178.078100 14342.400000
179.073000 14753.500000
180.080900 1139087.000000
193.088900 28799.000000
194.096600 2301218.800000
195.104400 444416.400000

