>compound LU89316434
>parentmass 221.0492
>ionization [M+H]+
>formula C9H8N4OS
>rt 933.660000
>profile orbitrap
#smiles_iso C1=CC=C(C=C1)NC(=O)NC2=CN=NS2
#smiles_can C1=CC=C(C=C1)NC(=O)NC2=CN=NS2
#inchikey HFCYZXMHUIHAQI-UHFFFAOYSA-N
#pubchem_id 40087
#mb_accession LU045801,LU045802,LU045803,LU045804,LU045805,LU045806

>ms2peaks
77.038800 4705.400000
91.054300 5787.300000
94.065100 233597.900000
102.012000 2456724.500000
120.044800 5617.900000
127.991300 230600.100000
144.997500 4348.900000
159.013100 12243.700000
161.016800 4622.400000
221.049100 2365914.500000

>ms2peaks
59.990200 4444.400000
74.005900 6300.000000
91.054300 5576.600000
94.065200 285444.700000
102.012000 3687673.800000
120.044400 17406.600000
127.991300 376539.900000
144.997200 8517.400000
159.013100 15859.100000
161.016900 5031.000000
221.049200 902302.000000

>ms2peaks
59.990300 5265.900000
71.990200 8260.700000
74.005800 12729.800000
91.054300 11223.300000
92.049500 18393.900000
94.065100 203783.200000
95.049200 6968.600000
102.012000 3719518.500000
120.044300 53493.900000
127.991300 381900.900000
130.981800 8849.100000
144.997600 10026.300000
159.013100 9710.400000
221.049100 62161.800000

>ms2peaks
53.038600 9444.500000
59.990200 11325.000000
61.010600 4128.000000
65.038700 2788.700000
71.990200 39345.400000
72.998000 5308.600000
74.005800 19051.900000
77.038600 2648.500000
91.054300 11227.700000
92.049500 56027.600000
94.065200 127234.800000
95.049200 24746.600000
102.012100 2135841.000000
105.044800 11208.100000
120.044400 51361.700000
127.991300 263863.200000
130.981900 15234.800000
144.997500 6158.300000
159.013200 5071.100000
161.002700 2640.900000
221.050300 2354.100000

>ms2peaks
50.015000 1654.700000
51.023000 4054.300000
53.038600 27775.300000
59.990300 37500.500000
61.010600 4306.800000
65.038600 10621.800000
71.990200 80708.400000
72.998000 16023.600000
74.005900 11361.500000
77.038500 8594.000000
91.054300 11114.200000
92.049500 101917.900000
94.065200 92052.500000
95.049200 73936.000000
102.012100 1242109.400000
105.044800 32505.800000
120.044400 34999.500000
124.075800 2677.200000
127.991300 180171.200000
130.981900 12827.800000
144.997400 3506.400000

>ms2peaks
50.015200 2071.900000
51.023000 9050.600000
53.038600 39470.800000
59.990300 81797.400000
61.010500 2802.700000
65.038600 24520.800000
71.990200 82844.800000
72.998100 37108.700000
74.005800 9458.100000
77.038600 15333.400000
91.054300 11393.900000
92.049500 108052.700000
94.065200 50132.600000
95.049200 117145.000000
102.012100 578774.800000
105.044800 46565.600000
120.044300 11657.400000
124.075800 3034.000000
127.991300 94161.900000
130.981900 15853.900000

