>compound LU90176928
>parentmass 223.07470000000004
>ionization [M+H]+
>formula C7H14N2O4S
>rt 989.280000
>profile orbitrap
#smiles_iso CC(/C(=N/OC(=O)NC)/C)S(=O)(=O)C
#smiles_can CC(C(=NOC(=O)NC)C)S(=O)(=O)C
#inchikey CTJBHIROCMPUKL-WEVVVXLNSA-N
#pubchem_id 9571009
#mb_accession LU078901,LU078902,LU078903,LU078904,LU078905,LU078906

>ms2
77.038900 24841.900000
223.075200 23618372.000000

>ms2
77.038900 24453.500000
223.075200 24196574.000000

>ms2
61.010700 9850.400000
62.990000 2220.000000
79.021100 2009.100000
130.981900 4483.900000
146.994500 3614.700000
167.085700 2643.100000

>ms2
53.002300 25896.200000
53.038600 298484.400000
55.017900 21626.700000
65.038500 210732.100000
68.997100 143035.600000
77.038400 124449.700000
81.033400 34190.600000
93.033600 366188.100000
94.041300 33264.200000
95.049200 1588816.100000
103.054200 1368011.200000
105.033600 232417.500000
105.044800 366530.000000
109.064900 34649.200000
111.044100 209630.100000
121.028400 2505238.200000
125.059700 24908.600000
129.033500 1090339.000000
139.039000 216044.400000
147.044000 23082.900000
152.062100 330912.800000
153.070000 55368.700000
165.069900 281265.800000
166.077800 128277.700000
167.085500 839299.400000
169.065000 16575.300000
176.062100 53098.300000
177.069900 168716.700000
178.077700 1246707.000000
179.085400 98682.100000
181.064800 64169.500000
194.072700 17691.700000
195.080400 72940.000000
205.065000 18402.200000
222.067600 15904.700000
223.075300 12564209.000000

>ms2
50.015100 11557.400000
51.023000 22451.300000
53.038600 871169.400000
55.017800 52104.000000
56.049500 6998.200000
65.038600 1432225.600000
67.054100 7793.200000
68.997100 340701.300000
75.022800 8346.000000
77.038500 464314.000000
79.054200 13815.800000
80.025400 6634.900000
81.033500 88643.600000
81.069800 11802.000000
89.038500 13170.100000
93.033600 1036230.100000
94.041400 100078.800000
95.049200 3383194.800000
97.053400 5292.900000
98.036300 10545.600000
101.038700 8254.000000
102.046400 39378.000000
103.054200 2708698.200000
105.033600 431441.800000
105.044700 1015065.400000
109.064800 68294.700000
111.044100 652238.600000
115.054400 9511.100000
118.041300 15697.000000
121.028400 2911194.800000
125.059800 64001.300000
128.062100 8223.500000
129.033500 2172651.200000
139.039000 281864.200000
141.069800 15924.200000
147.043900 33528.300000
151.054200 7269.800000
152.062100 758985.800000
153.069900 86262.000000
155.085200 13073.100000
165.069900 567369.400000
166.077800 214761.000000
167.085600 749788.400000
169.064800 55847.800000
176.062100 140891.400000
177.070000 196367.000000
178.077700 1367020.200000
179.060000 15614.200000
179.085600 49475.100000
181.064900 54521.300000
194.072600 20872.000000
195.080600 48058.600000
205.064800 14189.600000
223.075400 3965548.000000

>ms2
50.015200 14304.100000
51.022800 26118.700000
53.002200 63629.900000
53.038600 1197180.400000
55.017800 82015.400000
65.038500 3016427.500000
67.054100 20831.400000
68.997000 455632.100000
75.022800 41273.400000
77.038500 951873.200000
79.054100 17567.600000
80.025700 8097.900000
81.033400 120616.700000
81.069700 16681.800000
89.038600 8112.300000
91.054200 18260.500000
93.033500 974876.800000
94.041300 140552.500000
95.049100 3682711.000000
97.053500 6572.600000
98.036200 19731.800000
101.038600 27538.500000
102.046400 99750.100000
103.054200 2397991.800000
105.033600 321078.800000
105.044700 1291329.900000
109.064800 55384.800000
111.044000 712871.900000
115.054100 12238.100000
118.041100 12702.100000
121.028400 1656234.900000
125.059700 83442.500000
128.062000 27942.600000
129.033400 2203617.200000
139.038900 142031.700000
141.069600 37485.900000
147.044000 15619.800000
151.054200 15253.300000
152.062000 760877.800000
153.069800 38632.200000
165.069800 593194.100000
166.077600 149555.200000
167.085400 241569.500000
169.064600 95362.300000
176.062000 180595.300000
177.069700 98421.200000
178.077600 740640.600000
179.060200 22893.000000
179.085100 8418.100000
181.064600 15280.400000
194.072500 10024.200000
195.079800 6256.200000
223.075200 606787.800000

