>compound LU90171945
>parentmass 837.5317999999999
>ionization [M+H]+
>formula C41H76N2O15
>rt 974.220000
>profile orbitrap
#smiles_iso CC[C@@H]1[C@@]([C@@H]([C@H](C(=NOCOCCOC)[C@@H](C[C@@]([C@@H]([C@H]([C@@H]([C@H](C(=O)O1)C)O[C@H]2C[C@@]([C@H]([C@@H](O2)C)O)(C)OC)C)O[C@H]3[C@@H]([C@H](C[C@H](O3)C)N(C)C)O)(C)O)C)C)O)(C)O
#smiles_can CCC1C(C(C(C(=NOCOCCOC)C(CC(C(C(C(C(C(=O)O1)C)OC2CC(C(C(O2)C)O)(C)OC)C)OC3C(C(CC(O3)C)N(C)C)O)(C)O)C)C)O)(C)O
#inchikey RXZBMPWDPOLZGW-HITVVWEBSA-N
#pubchem_id 444037
#mb_accession LU040901,LU040902,LU040903,LU040904,LU040905,LU040906

>ms2peaks
72.080700 37231.300000
83.049200 343923.800000
87.043800 5746.600000
98.096400 34248.900000
99.080300 7794.400000
100.075500 6703.200000
113.059700 25814.800000
115.075300 63483.400000
116.070700 44129.800000
116.107000 772817.600000
127.075300 153468.900000
142.122600 8182.000000
158.117600 4004399.000000
159.101500 13523.900000
176.128300 15821.800000
246.170200 16071.100000
284.186000 12878.300000
365.232200 7766.300000
380.244200 12618.800000
398.253800 53783.300000
416.263600 22443.500000
446.275900 24485.500000
522.329000 351279.700000
540.353700 215411.100000
555.364600 65193.500000
603.386300 125096.200000
661.428000 124842.200000
679.438200 5239830.000000

>ms2peaks
58.065100 42231.900000
59.049100 80448.100000
69.069800 19653.600000
70.064900 25584.800000
71.072900 12819.500000
72.080700 907798.600000
73.052200 18625.000000
73.064800 15518.200000
81.069900 45944.000000
83.049100 3611318.200000
84.080800 39696.900000
85.028400 18320.900000
85.064800 15690.200000
87.044100 204503.500000
88.075700 165218.000000
89.059700 49675.000000
95.049200 37104.600000
97.064800 22457.300000
98.096400 1227128.100000
99.080400 54400.300000
99.104300 19026.300000
100.075700 177631.000000
109.064800 23460.300000
109.101100 20358.900000
113.059700 667438.600000
114.091400 131560.900000
115.075400 198090.000000
116.070700 1765695.600000
116.106900 3585031.800000
121.101200 13022.300000
123.080400 57741.000000
125.096100 36334.000000
127.075400 305267.000000
128.107000 24927.500000
140.106900 33318.600000
142.122700 84754.000000
143.106800 12221.200000
158.117500 10620866.000000
176.128000 72929.600000
180.138300 13869.600000
183.102000 12542.800000
193.122200 41965.000000
210.149100 14720.500000
211.132800 18073.900000
221.117600 32376.500000
246.170300 14025.300000
380.243600 63235.200000
398.254000 75592.300000
410.254500 32557.200000
416.265300 21540.900000
446.275100 35996.400000
555.365400 11557.900000
679.438200 49797.900000

>ms2peaks
58.065100 110852.500000
59.049200 407617.300000
61.028400 6953.500000
65.038500 5155.500000
67.054200 27155.900000
68.049500 14327.900000
69.033500 33745.800000
69.069900 44269.700000
70.065100 96558.400000
71.049100 24748.100000
71.072900 38813.400000
71.085600 16767.100000
72.080700 2767874.500000
73.052200 66213.300000
73.064700 34040.900000
74.060000 7121.200000
74.096500 5711.000000
79.054100 27216.200000
81.069900 106582.800000
82.065200 8064.400000
83.049100 4896126.500000
84.080800 150784.300000
85.028400 46041.500000
85.064700 34703.100000
86.060100 28659.300000
86.096500 15887.000000
87.044100 988326.900000
88.075700 532569.200000
89.059700 26906.700000
94.065100 5339.000000
95.049200 60477.000000
95.085500 9017.300000
96.080800 19558.800000
97.064800 48828.900000
97.101100 7654.100000
98.096400 2249783.200000
99.080400 37297.700000
99.104200 85539.800000
100.075700 225882.900000
101.083600 16104.600000
102.091300 5240.000000
107.085600 12075.000000
109.064900 55550.000000
109.101200 39812.700000
110.096600 15660.500000
112.075900 9156.200000
113.059700 498384.600000
114.091400 203291.300000
115.075400 53586.300000
116.070700 2294197.500000
116.106900 2045011.500000
119.085600 9486.100000
121.101100 22326.800000
122.096300 6288.100000
123.080400 46735.900000
124.112100 21160.000000
125.096300 30930.500000
127.075300 84681.800000
127.099000 7352.000000
128.107100 41799.200000
137.096200 27117.100000
138.091500 10903.900000
140.107100 37390.200000
142.122600 27911.200000
143.106500 5558.500000
147.117100 6339.100000
151.075500 18297.800000
154.122800 12056.200000
155.106600 8294.500000
158.117600 2355225.200000
164.107100 10899.400000
165.090700 8940.100000
165.127400 9583.300000
175.111800 12663.700000
176.128000 20140.100000
183.101700 5348.600000
192.138500 13464.500000
193.122100 25974.600000
210.149100 9021.300000
211.132700 11412.300000
221.117400 11136.400000

>ms2peaks
58.065100 116368.400000
59.049100 601141.600000
61.028400 6865.900000
65.038500 9253.000000
67.054200 59245.600000
68.049400 24275.100000
69.033400 34774.300000
69.069800 49953.700000
70.065100 163446.700000
71.049100 32158.000000
71.072900 50533.700000
71.085500 11037.400000
72.080700 3237471.800000
73.052200 117262.800000
73.064700 39725.300000
74.060100 4927.100000
79.054200 55327.000000
81.069900 157027.300000
82.065200 10220.700000
83.049100 4353397.500000
84.080800 301042.500000
85.028400 51543.700000
85.064700 30017.900000
86.060000 38937.200000
86.096300 15507.000000
87.044100 836114.300000
87.067800 48534.200000
88.075700 600312.200000
89.059600 6116.300000
91.054200 4529.400000
93.069900 6341.300000
94.065100 4365.500000
95.049000 46304.500000
95.085500 9978.400000
96.080800 29225.000000
97.064700 32139.700000
97.100900 4740.900000
98.096400 1718823.900000
99.080400 29840.600000
99.104100 51580.500000
100.075600 100021.800000
101.047000 5567.100000
101.083600 11487.500000
105.069700 7237.900000
107.085400 12068.300000
108.080700 6244.500000
109.064800 56952.200000
109.101200 43907.200000
110.096400 9890.400000
112.112100 5589.200000
113.059700 120047.000000
113.083400 6798.800000
114.091300 88106.800000
115.075200 7727.400000
116.070600 874311.200000
116.106900 790410.500000
119.085600 11808.900000
121.101100 15036.700000
122.096300 4862.800000
123.080400 33631.800000
124.112100 13153.900000
125.095900 17889.200000
127.075300 18811.600000
127.098700 5763.000000
128.106700 17155.800000
134.095200 4701.500000
137.095900 25937.200000
138.091300 7352.500000
140.106900 14151.500000
142.122500 6001.600000
147.116400 9622.200000
151.074900 8099.100000
151.112000 5373.300000
158.117500 246886.700000
165.127400 5406.600000
175.111100 5999.900000

>ms2peaks
58.065100 133218.400000
59.049200 512782.100000
61.028300 8760.400000
65.038600 16967.900000
67.054300 74404.100000
68.049400 46377.600000
69.033500 36314.700000
69.069800 40877.400000
70.065100 236364.300000
71.012700 5053.500000
71.049100 35589.200000
71.072900 54244.800000
71.085600 10980.900000
72.080800 3465600.800000
73.052200 167745.100000
73.064700 35597.100000
74.060100 8112.000000
74.096500 5189.400000
79.054200 86556.200000
81.069900 147839.900000
82.065200 10105.700000
83.049200 3689623.000000
84.080800 438031.700000
85.028400 52940.400000
85.064700 24487.500000
86.060100 44960.500000
86.096400 11305.000000
87.044100 389826.200000
87.067900 74601.100000
88.075700 449401.800000
89.059700 5575.500000
91.054300 13201.300000
93.070000 7784.300000
94.065200 5705.000000
95.049100 31886.500000
95.085700 11044.400000
96.080800 18121.100000
97.065000 16554.800000
98.096500 1253435.900000
99.080600 13240.700000
99.104200 30722.100000
100.075700 38538.800000
101.083600 4803.400000
105.070000 13652.400000
107.085700 12357.300000
109.064800 50855.600000
109.101200 23620.400000
112.112100 3926.000000
113.059800 17184.300000
113.083700 6956.300000
114.091500 26518.900000
116.070700 255956.100000
116.107000 220508.300000
119.085800 21457.900000
121.101400 5854.300000
122.096700 4267.500000
123.080300 26384.900000
125.096100 4052.800000
127.099100 7382.300000
128.107400 4600.100000
137.096300 10639.200000
138.091600 6955.800000
158.117600 29315.200000

>ms2peaks
58.065200 126494.800000
59.049200 248828.800000
61.028400 9429.100000
65.038600 34230.800000
67.054200 79269.600000
68.049500 67289.500000
69.033500 28670.900000
69.069900 26918.000000
70.065100 253176.700000
71.012500 4029.000000
71.049100 23419.500000
71.072900 43884.700000
71.085600 4609.900000
72.080800 2667631.000000
73.052200 165028.800000
73.064700 26730.000000
79.054200 99870.000000
81.069900 113250.800000
82.065200 19755.700000
83.049200 2286084.200000
84.080800 453713.100000
85.028500 36017.600000
85.064800 12776.900000
86.060100 26733.500000
86.096500 5071.200000
87.044100 99889.100000
87.067900 75068.500000
88.075700 226471.200000
91.054200 22274.500000
93.069900 7382.200000
94.065300 10595.100000
95.049300 22661.600000
95.085600 9497.200000
96.080900 12347.800000
97.065000 6454.300000
98.096500 765118.700000
99.080600 7059.300000
99.104300 7581.700000
100.075700 15043.300000
101.047100 4772.200000
105.070100 15573.900000
107.085900 3727.100000
108.080900 7754.900000
109.064900 42398.500000
109.101300 9638.100000
113.060000 4307.900000
114.091300 8808.200000
116.070700 54950.800000
116.107100 46935.300000
119.085600 13470.200000
122.096300 4773.900000
123.080600 8028.000000
134.096700 3980.100000

