>compound LU91878467
>parentmass 319.09650000000005
>ionization [M+H]+
>formula C20H14O4
>rt 920.760000
>profile orbitrap
#smiles_iso C1=CC=C(C=C1)OC(=O)C2=CC(=CC=C2)C(=O)OC3=CC=CC=C3
#smiles_can C1=CC=C(C=C1)OC(=O)C2=CC(=CC=C2)C(=O)OC3=CC=CC=C3
#inchikey FHESUNXRPBHDQM-UHFFFAOYSA-N
#pubchem_id 69779
#mb_accession LU118201,LU118202,LU118203,LU118204,LU118205,LU118206

>ms2
225.054600 1159039.400000
319.096600 7798833.000000

>ms2
105.033600 10373.700000
121.028100 24536.800000
197.059700 22883.300000
225.054600 7494706.500000
283.074900 11983.300000
301.086200 22265.100000
319.096700 1304570.400000

>ms2
53.038600 18663.700000
77.038800 9002.100000
95.049100 60944.300000
105.033500 320448.500000
119.012900 8792.100000
121.028300 48524.100000
141.069800 147676.200000
152.062000 40538.000000
153.069800 161102.400000
169.064800 246836.300000
179.049100 18514.900000
181.064900 32416.900000
183.044200 51139.800000
197.059700 812251.200000
207.044100 47514.300000
225.054500 7588825.000000
255.080400 38481.200000
273.090200 18117.900000
283.075000 25321.300000
284.083400 19061.300000
300.078200 8419.700000
301.086400 11822.600000
319.096300 18125.100000

>ms2
51.022900 3160.600000
53.038600 77431.000000
55.017800 15536.400000
65.038500 6224.800000
68.997100 3933.100000
77.038400 29049.100000
81.033600 6461.500000
94.041300 4865.100000
95.049100 218105.800000
103.054100 16342.100000
105.033500 1305232.100000
111.044000 7586.700000
115.054200 126450.900000
119.012800 57114.700000
121.028400 166182.700000
127.054200 75074.100000
129.033500 9982.100000
133.028600 3778.500000
141.069800 1514376.000000
143.049200 4717.800000
145.064800 58891.200000
149.023000 3002.100000
151.054200 41710.600000
152.062100 295201.600000
153.069800 403885.100000
155.049200 56559.300000
168.057100 41908.500000
169.064800 853322.800000
179.049100 109168.200000
181.064700 51224.500000
183.044000 97900.900000
196.052100 2906.000000
197.059700 1815677.900000
202.077400 9020.000000
207.044100 85094.400000
215.085600 3114.200000
218.072700 3232.200000
225.054600 2790096.200000
226.077600 19569.700000
227.085100 14762.200000
231.080300 10109.800000
232.088000 3231.100000
244.089000 3200.900000
245.095300 5656.600000
255.080500 63123.100000
256.088100 7604.800000
271.075400 5713.700000
273.090900 11402.200000
283.075400 16883.500000
284.082900 23934.600000
300.077900 7399.400000
301.086200 4435.300000

>ms2
51.023000 5934.700000
53.038600 121139.400000
55.017800 19439.700000
63.023000 5319.200000
65.038500 43270.100000
68.997100 6619.300000
77.038500 51364.100000
81.033600 11816.900000
91.054300 14917.400000
93.033600 3870.200000
94.041300 9454.900000
95.049100 348112.800000
103.054100 26330.800000
105.033500 1338517.600000
111.044100 36460.400000
115.054200 1022780.300000
117.069900 4944.600000
119.012800 79387.900000
121.028400 351336.900000
127.054200 138515.400000
129.033400 15596.900000
129.070100 3941.700000
139.054000 16345.400000
140.062100 7782.600000
141.069800 2975893.500000
143.049200 8873.000000
144.056600 2987.900000
145.064800 125336.300000
149.023700 3367.500000
150.046500 10406.700000
151.054200 79796.600000
152.062000 497633.900000
153.069900 205452.900000
155.049300 94849.000000
168.057000 145059.500000
169.064800 707529.800000
179.049200 90271.500000
181.064800 32533.400000
183.044100 62118.000000
196.052300 3418.900000
197.059700 951746.100000
202.077700 25610.900000
203.085600 3722.600000
207.044100 26218.000000
215.085200 14723.300000
218.072800 3510.400000
225.054600 395838.300000
226.077600 83250.200000
227.085400 24433.400000
228.093500 7733.600000
231.080400 10605.800000
237.070800 4856.100000
239.085200 4970.900000
243.080600 5206.100000
244.088400 6475.200000
245.096300 7281.000000
254.072500 5645.400000
255.080300 76790.100000
256.088200 3231.600000
271.075400 13581.800000
273.091500 10614.900000
283.075800 8223.700000
284.083600 13001.300000

>ms2
50.015100 5189.100000
51.022900 4207.700000
53.038600 154790.200000
55.017800 23394.300000
63.022900 10655.900000
65.038500 165257.000000
68.997100 7830.000000
77.038500 59532.500000
81.033400 15868.400000
91.054300 68986.900000
93.033500 11842.800000
94.041300 13743.300000
95.049100 458625.200000
103.054200 20853.800000
105.033500 784148.200000
111.044100 86602.700000
115.054200 2809352.800000
117.069900 5326.500000
119.012800 66287.200000
121.028400 445732.900000
127.054200 106173.600000
129.033500 17167.000000
139.054200 52555.000000
140.062000 38786.700000
141.069800 2551090.800000
143.049000 7810.300000
144.056700 2949.700000
145.064800 97681.800000
150.046400 74606.500000
151.054200 102163.300000
152.062000 552460.500000
153.069800 63665.200000
155.049200 73746.500000
168.057000 237412.400000
169.064700 561088.400000
179.049300 41267.800000
181.064600 16400.500000
183.044100 18487.500000
197.059700 272055.600000
202.077700 54134.200000
203.086000 3935.600000
207.044100 4070.900000
215.085500 36840.500000
218.072600 4386.400000
225.054700 32232.000000
226.077700 159975.500000
227.085800 21723.200000
228.093600 10313.600000
231.080500 16060.600000
237.070400 12039.500000
239.085200 12012.900000
243.080000 9299.900000
244.088600 6774.200000
254.072900 4325.600000
255.080300 62495.000000
271.075200 18441.400000
273.090900 5521.600000
283.075000 6416.600000

