>compound LU91544581
>parentmass 233.0921
>ionization [M+H]+
>formula C12H12N2O3
>rt 912.960000
>profile orbitrap
#smiles_iso CCOC(=O)C1=NN(C(=O)C1)C2=CC=CC=C2
#smiles_can CCOC(=O)C1=NN(C(=O)C1)C2=CC=CC=C2
#inchikey WBFXQKNQVZMOSQ-UHFFFAOYSA-N
#pubchem_id 66636
#mb_accession LU088401,LU088402,LU088403,LU088404,LU088405,LU088406

>ms2
187.050100 6771.500000
205.061200 9799.200000
215.081600 306021.400000
233.092200 4410105.000000

>ms2
72.044200 4450.400000
187.050100 31693.300000
205.060900 63461.000000
215.081500 348668.700000
233.092100 4113985.000000

>ms2
72.044300 14388.800000
131.060400 3040.800000
159.055300 31116.600000
173.022200 4224.800000
174.091000 3704.100000
187.050200 477254.600000
205.060900 990786.500000
215.081500 268683.100000
219.076500 51733.100000
233.092100 2888003.000000

>ms2
72.044300 16067.200000
80.049400 6274.900000
104.049400 32258.000000
110.060100 3794.800000
131.060400 81649.700000
143.060500 23348.900000
147.055200 3122.000000
149.070800 2698.600000
159.055300 491285.400000
187.050200 1061592.600000
205.060800 2335993.000000
215.081500 76962.500000
219.076500 118741.900000
233.092100 770084.200000

>ms2
53.038500 11840.200000
65.038500 5305.700000
72.044400 14975.200000
77.038500 3257.400000
80.049400 34035.500000
92.049400 18370.700000
95.049200 8431.200000
96.044400 7199.000000
104.049400 363014.800000
105.044700 15564.200000
107.060300 10095.700000
108.044400 9900.200000
110.059900 27930.000000
117.044700 4111.300000
122.060100 8542.500000
126.054800 8233.100000
131.060400 557936.600000
135.055100 9881.500000
138.055300 4403.900000
143.060300 74524.100000
147.055300 15160.300000
149.070800 6249.800000
159.055200 1418233.400000
161.034500 3381.600000
187.050200 719536.000000
205.060800 1705074.800000
215.081000 7629.000000
219.076400 84646.200000
233.092000 88240.300000

>ms2
53.038600 65873.500000
65.038500 26206.900000
72.044400 15236.600000
77.038500 19288.000000
80.049400 49434.100000
92.049400 37171.100000
95.049200 66029.100000
96.044400 46499.200000
104.049400 1262398.900000
105.044700 72187.200000
107.060400 11128.000000
108.044400 7136.600000
110.060000 47640.900000
117.044500 5295.000000
122.060100 23541.300000
126.054900 7738.800000
131.060400 1016567.900000
135.055300 9439.300000
138.055000 6047.400000
143.060400 92213.200000
147.055300 23674.500000
149.070900 11355.700000
159.055300 1304609.100000
161.034400 7558.400000
187.050200 256936.800000
205.060800 549847.800000
219.076300 26157.600000
233.092200 4548.100000

