>compound LU91060155
>parentmass 151.03240000000002
>ionization [M+H]+
>formula C7H6N2S
>rt 715.740000
>profile orbitrap
#smiles_iso C1=CC=C2C(=C1)NC(=S)N2
#smiles_can C1=CC=C2C(=C1)NC(=S)N2
#inchikey YHMYGUUIMTVXNW-UHFFFAOYSA-N
#pubchem_id 707035
#mb_accession LU072101,LU072102,LU072103,LU072104,LU072105,LU072106

>ms2
61.010700 15161.300000
93.057200 25622.700000
118.052600 11225.800000
119.060200 6642.100000
151.032400 2871953.800000

>ms2
61.010600 16333.400000
93.057300 24121.200000
118.052600 10814.900000
119.060300 5257.900000
151.032500 2766725.500000

>ms2
61.010600 13309.900000
92.049400 16998.100000
93.057300 197628.600000
118.052500 66500.000000
119.060400 30808.400000
151.032500 3213042.800000

>ms2
61.010600 8813.000000
65.038600 12026.200000
92.049500 69829.900000
93.057400 546866.900000
118.052600 226845.100000
119.060400 93045.600000
124.021500 9072.100000
134.006300 2113.000000
150.024900 5661.500000
151.032500 1888770.000000

>ms2
61.010700 5345.500000
65.038600 58512.500000
66.046300 6174.700000
80.049600 3319.900000
92.049500 168670.300000
93.057400 805076.800000
97.010900 2768.200000
118.052600 407549.600000
119.060400 120108.800000
124.021700 11410.200000
134.005800 4405.500000
150.024700 13319.400000
151.032500 864921.200000

>ms2
61.010600 5492.800000
65.038600 184649.800000
66.046400 21072.200000
67.054200 1831.600000
80.049500 9530.200000
92.049500 222344.300000
93.057400 905616.700000
97.010500 3903.600000
118.052600 566787.600000
119.060500 116505.000000
124.021700 12518.600000
134.006100 3984.700000
150.024900 14579.700000
151.032600 347219.000000

