>compound LU91304252
>parentmass 457.10389999999995
>ionization [M+H]+
>formula C26H20N2O2S2
>rt 919.020000
>profile orbitrap
#smiles_iso C1=CC=C(C=C1)C(=O)NC2=CC=CC=C2SSC3=CC=CC=C3NC(=O)C4=CC=CC=C4
#smiles_can C1=CC=C(C=C1)C(=O)NC2=CC=CC=C2SSC3=CC=CC=C3NC(=O)C4=CC=CC=C4
#inchikey ZHMIOPLMFZVSHY-UHFFFAOYSA-N
#pubchem_id 67271
#mb_accession LU068101,LU068102,LU068104,LU068105,LU068106

>ms2peaks
200.143200 61198.000000
457.105300 19725594.000000

>ms2peaks
55.054200 19082.300000
56.049500 410040.500000
67.054200 17830.300000
68.049400 32427.000000
69.069800 12134.300000
70.065100 111228.000000
79.054100 16270.800000
81.069800 32118.400000
82.065100 133863.300000
83.085400 15461.600000
84.080700 17845.700000
91.054200 393074.600000
95.085500 43610.200000
96.080700 61683.400000
105.069800 84316.300000
108.080700 34851.500000
109.088500 47309.300000
115.054200 14144.100000
117.069800 102698.800000
129.069800 116172.300000
131.085500 124874.700000
132.080600 35134.900000
141.069800 71456.300000
143.085600 25643.300000
145.101200 55544.600000
146.096300 27406.800000
155.085500 55620.500000
157.101100 365817.600000
158.096400 103538.300000
169.101200 33879.100000
172.112100 20054.800000
173.132200 27035.000000
183.116700 87686.000000
198.128000 14740.600000
200.143300 6715507.000000
240.942500 48447.700000
457.105600 11336955.000000

>ms2peaks
51.022900 8103.500000
53.002200 16520.400000
53.038600 41579.400000
54.033800 9468.700000
55.054200 494306.400000
56.049500 458660.500000
58.065100 34217.800000
63.022900 7903.100000
65.038500 135420.200000
67.041600 56152.700000
67.054200 240270.600000
68.049400 221389.100000
69.057300 12669.000000
69.069800 160413.100000
70.065100 661849.500000
77.038500 8379.200000
79.054200 249047.200000
80.049400 153145.700000
81.057300 58588.000000
81.069900 216954.100000
82.065100 1119494.600000
83.072900 42157.800000
83.085500 10951.900000
84.080800 194639.900000
91.054200 6283866.000000
93.057300 11895.600000
93.069900 110847.100000
94.065100 150776.500000
95.049100 33077.400000
95.072900 28944.900000
95.085500 145187.200000
96.080700 645862.600000
98.096500 36903.300000
103.054200 89846.600000
104.049500 8314.800000
104.062000 25683.300000
105.069900 821035.900000
106.065100 34024.500000
107.073000 6682.700000
108.080800 390269.600000
109.088600 551314.400000
115.054200 509940.700000
116.062000 35338.400000
117.069800 1029369.700000
118.065000 35817.200000
119.085300 7870.100000
120.080800 24828.000000
122.096300 39209.900000
128.062000 175677.500000
129.069800 1765353.200000
130.065100 207353.900000
130.077200 23571.500000
131.073600 43285.100000
131.085500 736692.400000
132.080700 319867.000000
141.069800 301742.900000
142.077700 112590.500000
143.073000 49772.500000
143.085500 313959.900000
144.080700 199728.300000
145.065000 7531.200000
145.088600 26330.100000
145.101100 55474.200000
146.096300 215220.800000
153.069800 18860.600000
154.077600 52393.400000
155.060600 17355.800000
155.085500 222716.400000
156.080900 44615.200000
156.093000 21791.800000
157.088900 18734.800000
157.101100 210937.100000
158.096400 418529.200000
159.104200 80008.500000
168.080800 18634.900000
168.093200 26684.800000
169.088600 29174.800000
169.101100 32682.900000
170.096400 130244.300000
171.104200 634102.000000
172.111900 92735.100000
173.132400 7349.000000
183.116700 19227.100000
184.112000 36167.300000
185.120000 28610.000000
198.127800 199945.300000
200.143300 1136057.800000
212.947900 96887.800000
240.942800 1247807.800000
257.969900 9124.900000

>ms2peaks
53.002200 29370.500000
53.038500 80179.400000
54.033800 14829.700000
55.054200 712711.900000
56.049400 317060.200000
58.065100 11107.400000
63.022900 10783.700000
65.038500 301438.000000
67.041600 100645.000000
67.054100 285739.600000
68.049400 190052.700000
69.057300 10283.000000
69.069800 106643.600000
70.065100 406112.200000
77.038500 12405.800000
79.054200 292023.300000
80.049400 224801.500000
81.057300 89969.900000
81.069800 146908.900000
82.065100 800106.200000
83.072900 28020.400000
84.080800 133699.400000
91.054200 6979017.500000
93.057200 30954.900000
93.069900 72467.300000
94.065100 190980.000000
95.049100 88379.900000
95.072800 29651.100000
95.085500 62109.500000
96.080700 319263.000000
98.096400 27117.000000
103.054200 316011.000000
104.049500 18357.800000
104.062000 57480.400000
105.069800 690769.700000
106.065100 22242.100000
107.072900 9471.500000
108.080700 343050.700000
109.088500 292623.000000
115.054200 881413.300000
116.062000 83072.600000
117.057300 95661.600000
117.069800 954251.400000
118.065200 30098.200000
119.085300 9516.800000
120.080700 21415.200000
122.096100 10326.100000
127.054100 12456.400000
128.062000 514430.400000
129.069800 1552311.500000
130.065100 350337.100000
130.077000 31340.700000
131.073100 47372.600000
131.085400 373053.600000
132.080700 129018.200000
141.069800 223374.300000
142.065000 7784.300000
142.077600 133229.500000
143.072900 110731.800000
143.085500 169862.100000
144.080700 183116.100000
145.064600 44592.300000
145.088500 20817.700000
145.101200 19090.400000
146.096300 91503.800000
153.069700 56126.900000
154.077600 52915.700000
155.060300 61216.800000
155.085400 103677.200000
156.080700 73062.700000
156.092700 25143.700000
157.088700 21085.200000
157.101000 32915.500000
158.096300 186707.300000
159.104000 24530.700000
167.085300 8243.200000
168.080700 53738.400000
168.093100 10059.300000
169.088700 32346.000000
170.096300 321843.900000
171.104100 443463.600000
172.111800 27560.800000
184.112000 38277.300000
185.119800 13230.700000
198.127600 82899.900000
200.143300 106191.500000
212.947800 677202.200000
240.942700 1051336.100000

>ms2peaks
53.002200 39515.100000
53.038600 124396.300000
53.997400 6764.800000
54.033900 16120.000000
55.054200 678300.900000
56.049500 229454.500000
58.065100 10966.500000
63.022800 23747.000000
65.038500 567624.200000
67.041600 139285.400000
67.054200 226673.300000
68.049400 176370.600000
69.057200 11089.700000
69.069800 58590.900000
70.065100 202839.800000
77.038400 30753.000000
79.054200 336996.900000
80.049400 240211.500000
81.057300 85806.900000
81.069900 92384.900000
82.065100 582844.800000
83.072800 18132.400000
84.080800 78870.000000
89.038500 14814.200000
91.054200 6682495.500000
93.057200 40720.900000
93.069900 31732.200000
94.065100 192322.900000
95.049100 154830.700000
95.072800 19749.200000
95.085400 26440.500000
96.080700 149683.100000
98.096500 22547.900000
103.054200 597801.200000
104.049300 21436.600000
104.062000 68104.400000
105.069900 469281.300000
106.065100 15210.100000
107.072800 9760.300000
108.080700 262642.700000
109.088500 103017.600000
115.054200 1271159.100000
116.062000 124304.000000
117.057300 103374.600000
117.069800 664276.700000
118.064900 24815.900000
122.096300 7848.900000
127.054100 35950.000000
128.062000 925721.200000
129.069800 947519.600000
130.065100 411924.200000
131.073000 46656.200000
131.085400 146361.900000
132.080800 36730.200000
141.069800 228353.700000
142.065000 10984.200000
142.077600 101814.400000
143.072900 116552.300000
143.085500 61004.000000
144.080700 136739.600000
145.064700 93327.600000
145.088500 9006.600000
146.096600 16802.000000
153.069700 65587.800000
154.077600 36677.100000
155.060300 113936.200000
155.072200 21025.500000
155.085300 38572.500000
156.080800 67171.600000
157.088600 18458.400000
158.096400 82151.300000
160.075400 8678.400000
167.085200 9319.500000
168.080700 93352.700000
169.088600 15658.100000
170.096300 346667.400000
171.104100 163463.800000
184.112000 35650.700000
198.127600 16959.800000
200.143900 8916.300000
209.969000 71422.300000
212.947900 1296368.000000
240.942800 394598.100000

