>compound LU92038886
>parentmass 242.1176
>ionization [M+H]+
>formula C15H15NO2
>rt 1168.080000
>profile orbitrap
#smiles_iso CC1=C(C(=CC=C1)NC2=CC=CC=C2C(=O)O)C
#smiles_can CC1=C(C(=CC=C1)NC2=CC=CC=C2C(=O)O)C
#inchikey HYYBABOKPJLUIN-UHFFFAOYSA-N
#pubchem_id 4044
#mb_accession LU032701,LU032702,LU032703,LU032704,LU032705,LU032706

>ms2
95.012400 2393.000000
224.107100 932054.400000
242.117700 217358.600000

>ms2
95.012700 3481.400000
224.107000 1115311.400000
242.117800 29714.900000

>ms2
60.080700 4043.800000
95.012800 2229.600000
180.081200 2519.300000
181.088700 2443.400000
196.075300 2015.100000
208.076300 2556.200000
209.083700 119331.800000
222.092000 4726.200000
223.099200 4078.200000
224.107100 1063012.200000

>ms2
60.080800 8737.700000
65.038600 2895.500000
180.080900 24870.600000
181.089100 14569.600000
183.067900 3849.900000
194.095900 2514.300000
196.075700 3297.200000
207.067700 1688.000000
208.075800 31382.400000
209.083600 442777.600000
222.091900 12869.200000
223.099300 8689.100000
224.107000 469938.100000

>ms2
55.054200 1952.200000
60.080700 5338.700000
65.038500 3363.300000
179.072800 3386.700000
180.080900 111490.100000
181.088800 39295.800000
183.067900 9140.700000
194.096500 6065.400000
196.075800 4557.000000
208.075900 108002.900000
209.083600 378113.500000
211.063100 2472.700000
222.091400 12732.400000
223.099900 7912.700000
224.107100 85287.100000

>ms2
55.054300 1943.600000
60.080800 3905.100000
65.038600 2839.600000
179.073200 13337.600000
180.080900 391047.800000
181.088800 56819.300000
183.068300 19015.900000
194.096500 12573.400000
196.075800 2978.200000
207.068100 7198.800000
208.075900 260313.100000
209.083700 263452.800000
211.063100 6642.200000
222.091600 16069.000000
223.099500 5971.800000
224.107100 21635.100000

