>compound LU92968683
>parentmass 269.0808
>ionization [M+H]+
>formula C16H12O4
>rt 1011.420000
>profile orbitrap
#smiles_iso COC1=CC=C(C=C1)C2=COC3=C(C2=O)C=CC(=C3)O
#smiles_can COC1=CC=C(C=C1)C2=COC3=C(C2=O)C=CC(=C3)O
#inchikey HKQYGTCOTHHOMP-UHFFFAOYSA-N
#pubchem_id 5280378
#mb_accession LU030101,LU030102,LU030103,LU030104,LU030105,LU030106

>ms2
254.055800 25252.600000
269.080600 15221511.000000

>ms2
107.049100 29915.100000
118.041100 19488.500000
213.091000 121867.100000
237.054600 64185.100000
241.086200 27654.200000
253.048900 24103.800000
254.057300 205448.500000
269.080700 14433438.000000

>ms2
68.997000 16633.900000
103.054200 12187.700000
105.069900 24217.800000
107.049100 450758.200000
108.020700 9720.000000
118.041300 631877.200000
123.044000 42045.300000
131.049100 12104.900000
133.028400 55213.400000
133.064700 87508.400000
135.043900 12160.900000
136.015500 54223.200000
137.023300 228916.800000
147.043900 32811.200000
151.039200 9039.200000
153.070000 11355.200000
154.026000 332534.300000
156.056900 15173.400000
157.065000 10451.400000
163.038900 106277.400000
165.069900 10769.100000
167.085700 9467.000000
168.041600 13743.400000
170.072500 35800.600000
171.080500 20543.700000
176.046600 9796.400000
181.064800 66749.200000
182.072700 57071.000000
183.080700 20885.600000
184.052200 14318.000000
185.096200 33337.800000
195.080600 37816.200000
197.059700 114237.200000
198.067400 112916.100000
199.075300 28462.000000
209.060200 10641.800000
210.067100 18678.600000
213.090900 1542153.800000
223.075400 11245.300000
225.054400 66803.000000
226.062400 572527.900000
237.054500 1160819.400000
239.070300 29304.500000
241.086000 80210.500000
251.070800 14159.700000
253.049500 764505.500000
254.057300 1964517.400000
269.080700 8913656.000000

>ms2
52.030700 3943.600000
53.038600 8884.100000
55.017800 34052.000000
65.038400 5117.000000
66.046400 7147.400000
68.997000 60625.200000
77.038500 4765.900000
79.054200 53711.300000
81.033400 15725.400000
89.038400 6923.500000
90.046300 25687.800000
91.054300 20421.800000
92.025300 3185.300000
95.049100 25302.400000
102.046100 3652.300000
103.054200 48584.300000
105.033400 27347.200000
105.069800 57792.000000
107.049100 441429.900000
108.020500 121017.500000
109.028400 5686.000000
111.044000 3846.500000
115.054300 11554.700000
118.041200 1119197.500000
119.049000 11390.500000
120.057100 3225.800000
121.028400 9674.800000
123.044000 36181.700000
127.039000 5085.700000
127.054000 2760.000000
128.061900 16442.200000
129.069800 20812.400000
130.077700 4817.800000
131.048900 15577.100000
132.020700 6769.500000
132.057000 7224.900000
133.028300 67000.100000
133.064700 214479.700000
134.036200 3360.800000
135.043900 16610.500000
136.015400 62465.900000
137.023200 431631.100000
140.062000 3873.000000
141.070000 15374.300000
142.077700 23579.800000
144.056900 9468.900000
145.028600 5502.400000
145.064900 17866.200000
147.043900 34430.300000
148.051900 23789.300000
149.023000 3648.400000
151.038800 11625.100000
152.061900 86471.000000
153.069800 107861.500000
154.025900 442605.700000
155.049000 7548.300000
155.085400 22799.500000
156.056800 215232.100000
157.064800 67696.000000
158.072500 85861.000000
159.043900 4047.300000
163.038800 83592.600000
165.069900 54687.500000
166.077500 4495.100000
167.085300 23577.600000
168.041500 18391.400000
168.057000 9771.600000
169.064700 81703.200000
170.072500 261972.100000
171.044000 3574.500000
171.080400 37954.700000
172.051700 9115.500000
176.046900 9090.300000
180.056900 53643.500000
181.064600 392588.200000
182.072500 237201.700000
183.043900 4566.000000
183.080500 34982.700000
184.051800 90420.400000
185.059500 10680.800000
185.096000 48891.400000
186.031100 8327.800000
186.067500 11531.000000
188.083400 6049.800000
194.073400 3671.400000
195.080400 94077.700000
196.051600 29816.300000
196.088200 10820.700000
197.059600 1052338.400000
198.067400 490737.800000
199.075100 29887.000000
200.046800 67970.000000
208.052100 17791.700000
209.059700 76006.500000
210.067500 43386.900000
211.039000 14089.500000
211.075000 23202.700000
212.046500 14913.600000
212.082900 20253.200000
213.090900 1363306.800000
223.075300 8905.700000
225.054500 476063.300000
226.062300 1495353.900000
227.070200 8014.400000
228.041800 20519.300000
236.047000 21601.900000
237.054400 1414728.500000
238.062900 6203.200000
239.070300 14483.100000
241.085800 29199.700000
251.070000 10238.700000
253.049300 1565563.100000
254.057100 974590.000000
269.080600 1201495.100000

>ms2
51.022900 3743.700000
52.030800 7931.500000
53.002300 3588.900000
53.038600 33003.400000
55.017900 55056.100000
65.038500 31575.300000
66.046400 48327.800000
67.054200 3745.500000
68.025600 4611.600000
68.997100 179411.700000
71.012700 4286.900000
77.038600 12950.900000
78.046600 3255.100000
79.054300 138120.000000
80.025600 12378.500000
81.033600 92746.500000
89.038600 53640.600000
90.046500 255368.100000
91.054200 42771.300000
92.025700 12775.000000
92.061900 4616.200000
93.033700 4926.600000
94.041300 12141.600000
95.049200 98855.300000
102.046400 10425.900000
103.054300 138225.200000
105.033600 52003.400000
105.070000 84601.400000
107.049200 261427.100000
108.020600 297665.000000
109.028400 10627.800000
110.036400 9272.200000
111.043900 5443.900000
115.054200 35687.100000
116.062000 5634.700000
117.033900 5479.000000
118.041300 1203575.200000
119.049300 17598.000000
120.057100 11950.900000
121.028400 24154.500000
123.044200 17586.200000
127.038900 14654.300000
127.054100 5935.600000
128.062100 155057.500000
129.069900 109848.600000
130.077700 17181.000000
131.049300 20532.700000
132.020400 7255.800000
132.057200 21124.800000
133.028400 36752.700000
133.064800 241140.900000
134.036300 6550.700000
135.044100 14942.400000
136.015600 33841.300000
137.023400 542848.800000
139.054500 8124.800000
140.062100 7021.600000
141.069900 126132.700000
142.041600 4563.900000
142.077800 61954.100000
143.049300 8040.300000
144.057100 31423.700000
145.028100 11319.200000
145.065000 25093.700000
147.044100 23023.000000
148.051900 26825.500000
151.054000 4685.600000
152.062200 365653.000000
153.069900 239919.000000
154.026100 228357.100000
154.077900 35629.700000
155.049200 48839.600000
155.085700 19739.200000
156.057000 426139.100000
157.064900 172991.800000
158.072700 150317.900000
163.038900 26317.600000
163.054800 4349.500000
165.070000 110849.300000
166.077900 6700.100000
167.085800 14548.000000
168.042000 8874.300000
168.057000 49806.000000
169.064900 569632.700000
170.072700 591772.400000
171.044000 9181.700000
171.080300 31570.400000
172.052100 21832.000000
179.050000 3468.300000
180.057100 95280.700000
181.064900 803750.600000
182.072800 228715.000000
183.044200 21870.300000
183.080500 23952.700000
184.052000 128293.000000
185.059700 26434.600000
185.096100 27984.400000
186.031200 14300.900000
186.067800 4374.800000
187.038900 14757.100000
188.083400 11498.400000
194.072600 4712.600000
195.044200 9062.600000
195.080700 71741.600000
196.052100 64374.500000
196.088500 10720.300000
197.059900 2742266.000000
198.067600 552056.100000
199.039600 4093.300000
199.075300 15792.700000
200.046800 198865.100000
208.051900 41960.400000
209.059900 127873.400000
210.067600 37811.300000
211.039100 45866.900000
211.075400 24750.300000
212.046800 18678.300000
212.083300 20363.500000
213.091100 412657.600000
224.047400 4266.100000
225.054700 1124563.900000
226.062500 849908.200000
228.041800 37956.800000
236.047300 20849.300000
237.054700 815831.800000
239.069500 4954.700000
241.085400 5829.100000
253.049600 1289002.400000
254.057400 135948.900000
269.080900 80631.500000

>ms2
51.022900 6125.200000
52.030700 17964.200000
53.002200 7018.800000
53.038600 72593.600000
55.017800 73987.300000
65.038500 63510.400000
66.046400 125271.400000
67.054200 4894.900000
68.025600 11260.900000
68.997100 216823.100000
71.012600 3339.900000
77.038500 26630.500000
78.046400 7679.700000
79.054200 177305.400000
80.025600 18650.000000
81.033500 220116.500000
89.038600 309292.600000
90.046400 686238.700000
91.054200 92626.200000
92.025700 45329.600000
92.062100 10479.400000
93.033600 5479.500000
94.041300 23237.400000
95.049100 167840.500000
102.046500 28909.900000
103.054200 155634.300000
105.033600 54282.600000
105.069900 41640.100000
107.049200 129745.400000
108.020600 300755.800000
109.028500 15443.600000
110.036100 18662.000000
111.044200 10393.900000
115.054200 119956.200000
116.062100 22253.100000
117.033400 12448.100000
118.041300 910871.000000
119.049000 23703.400000
120.057100 12037.500000
121.028400 33516.800000
123.043900 3751.300000
127.038900 16749.400000
127.054300 13720.200000
128.062000 323551.400000
129.069800 189822.100000
130.077800 15902.000000
131.049100 28058.900000
132.021500 4012.900000
132.057000 16600.300000
133.028500 21829.900000
133.064900 103003.300000
134.036200 9132.400000
135.044000 5171.000000
136.015600 13046.800000
137.023300 450418.400000
139.054100 22068.500000
140.062000 16862.000000
141.069900 590331.100000
142.041300 15715.600000
142.077800 73949.800000
143.049100 9488.300000
144.057000 91922.500000
145.028300 18106.800000
145.064800 29540.400000
147.044100 12776.000000
148.051900 11719.100000
151.054500 12225.100000
152.062100 649883.200000
153.069900 334988.800000
154.026100 78381.800000
154.077700 24170.600000
155.049100 101594.100000
155.085400 6710.800000
156.056900 218862.200000
157.064800 133701.500000
158.072600 73277.900000
159.044500 6420.200000
163.054400 7059.300000
165.069900 83966.400000
166.077700 4590.200000
168.057000 116054.700000
169.064800 1160432.600000
170.072600 385646.400000
171.044000 33497.200000
171.080300 9020.900000
172.051900 36643.500000
179.049100 36980.800000
180.056900 63211.100000
181.064800 790251.100000
182.072700 76091.200000
183.044200 39831.600000
183.081100 3679.300000
184.051800 56949.000000
185.059600 17751.800000
185.096200 4270.400000
186.031300 7261.500000
187.039200 20166.300000
188.083000 4682.700000
195.044100 17535.900000
195.080300 17264.400000
196.052200 51753.000000
197.059800 2894847.200000
198.067600 189895.000000
199.038900 10937.100000
200.046800 203916.500000
208.051700 30774.700000
209.059800 109680.400000
210.068000 9296.500000
211.039100 47760.400000
211.075100 7299.900000
212.046700 13055.600000
212.083200 10993.000000
213.091200 54844.700000
224.046500 23503.800000
225.054600 1063190.200000
226.062400 161157.500000
228.042000 39832.300000
236.046900 5456.300000
237.054600 353028.500000
253.049500 601899.800000
254.057900 9753.900000

