>compound LU92964564
>parentmass 401.9132
>ionization [M+H]+
>formula C12H8Cl5N3O2
>rt 1129.860000
>profile orbitrap
#smiles_iso CCOC(=O)C1=NN(C(=N1)C(Cl)(Cl)Cl)C2=C(C=C(C=C2)Cl)Cl
#smiles_can CCOC(=O)C1=NN(C(=N1)C(Cl)(Cl)Cl)C2=C(C=C(C=C2)Cl)Cl
#inchikey GMBRUAIJEFRHFQ-UHFFFAOYSA-N
#pubchem_id 3033865
#mb_accession LU065101,LU065102,LU065103,LU065104,LU065105,LU065106

>ms2peaks
158.965600 2876.300000
287.870100 15459.700000
355.869900 29997.200000
373.882000 1325401.500000
387.897900 5791.400000

>ms2peaks
116.906300 9170.100000
251.893500 10716.000000
257.939300 3355.300000
287.870400 18878.400000
301.928000 11436.400000
303.944300 7752.400000
338.913600 33591.500000
355.870200 26194.300000
373.882000 2827093.800000
387.898100 41548.600000

>ms2peaks
53.002200 2719.100000
55.054200 7150.200000
57.069900 58730.200000
67.054100 13116.000000
69.069900 15956.600000
73.028300 13147.800000
77.046800 3606.600000
81.069900 15610.100000
84.983700 3167.700000
116.905900 39272.400000
119.062100 4904.300000
128.002300 2262.100000
132.960500 11797.900000
133.078000 2959.900000
170.963700 14258.600000
172.966800 94815.100000
184.966800 135196.500000
209.926200 6542.500000
212.961600 7196.800000
230.928000 7015.100000
251.893800 10420.100000
257.938800 51212.100000
267.967700 2534.100000
268.975500 15533.800000
285.932600 15894.000000
291.900000 11342.100000
301.928900 22562.800000
302.936400 33347.600000
303.944200 590612.400000
317.959800 10200.000000
319.894800 16279.100000
338.913200 513476.900000
355.869500 14939.900000
373.882000 1410798.500000
387.897700 23641.100000

>ms2peaks
53.002200 5719.300000
55.054300 21909.400000
57.069900 137018.000000
58.065100 2365.800000
62.963300 5458.900000
62.999400 6904.500000
63.031300 12068.500000
67.054100 19927.600000
69.069800 24023.000000
73.028400 16367.800000
77.047000 44640.600000
81.069900 15204.000000
84.984000 29226.200000
86.963200 4406.700000
86.974500 7660.900000
90.054700 5743.400000
91.030800 8064.600000
91.062700 20719.500000
94.017800 3188.200000
95.025700 3794.000000
105.046200 2412.300000
108.033400 12732.300000
108.983800 5153.400000
116.906000 111321.300000
119.062100 34650.200000
120.960800 12382.400000
126.994600 32654.500000
128.002400 35384.500000
132.960700 360407.900000
133.077700 23034.000000
144.960600 14652.600000
145.005100 11708.600000
149.998100 5598.800000
155.000400 3580.800000
156.960700 3564.800000
159.021100 3367.800000
160.955600 4202.400000
162.971300 32377.200000
163.966000 4110.400000
164.001000 4139.200000
170.963800 212296.400000
172.966900 504386.500000
184.966900 550313.600000
194.964000 8760.200000
195.958800 18404.100000
196.966900 34244.500000
197.010900 6222.300000
197.961800 6497.000000
205.932700 29464.800000
209.926900 5405.500000
212.961500 7272.200000
214.977400 3287.400000
222.969700 12342.700000
230.927900 31983.300000
240.901800 6286.200000
251.893500 7951.400000
256.931000 14958.900000
257.938800 340698.700000
267.968000 4397.200000
268.975400 477731.500000
282.991300 7460.000000
285.933100 32459.500000
291.900300 16782.600000
301.928900 7215.900000
302.936800 35198.600000
303.944300 1209852.200000
317.959500 20406.900000
319.895000 5491.700000
338.913300 218756.700000
373.882100 145074.000000

>ms2peaks
53.002200 11958.700000
55.054200 26592.400000
57.069900 123617.700000
58.065100 4989.500000
62.023500 17890.500000
62.963200 13648.500000
62.999400 8118.100000
63.031300 42181.900000
64.978600 3719.600000
67.054200 14523.000000
69.069900 14005.500000
72.983900 6583.300000
73.028300 10718.200000
74.015000 3695.700000
77.046900 129632.600000
81.009500 3121.100000
81.069800 12239.600000
82.944900 7297.300000
84.983900 53292.200000
86.963200 36102.100000
86.974500 36021.100000
90.054900 15467.600000
91.030700 37511.400000
91.062700 61573.900000
94.017700 10880.300000
95.025600 7337.700000
98.999500 4650.600000
100.018000 2948.500000
105.046200 4337.600000
106.945000 4822.800000
108.033400 46159.000000
108.983900 70695.500000
112.978800 9868.000000
116.906000 153990.600000
118.028700 2847.300000
119.062000 42378.400000
120.960600 21328.200000
123.995000 6476.500000
126.994500 37294.900000
128.002300 56378.100000
130.005300 2594.800000
132.960600 1003816.900000
133.979100 3311.900000
135.994600 5994.000000
144.960600 59453.300000
145.004700 15259.900000
148.990000 4073.600000
149.998000 19437.800000
151.989700 3852.500000
154.005300 7843.100000
155.000500 4404.400000
156.961000 4027.300000
157.955800 3118.200000
158.963800 4694.400000
159.021100 3635.600000
160.955400 3218.900000
161.963500 3715.200000
161.997900 15949.100000
162.971100 72613.100000
163.966200 5390.400000
164.000900 44523.000000
169.956000 4316.000000
170.963700 354855.700000
172.966800 580768.800000
184.966800 247637.200000
188.001000 24291.700000
194.963700 32155.600000
195.958900 40704.600000
196.966800 180997.700000
197.011300 16224.200000
197.962300 12306.900000
205.932600 81118.600000
210.969300 5148.400000
214.977200 9615.200000
221.962200 12795.600000
222.969900 173446.200000
230.927800 18446.500000
240.901200 3110.800000
251.893100 5157.800000
254.995900 8835.800000
256.930500 14727.000000
257.938700 198630.000000
267.966900 3504.800000
268.975200 672447.600000
282.991200 12343.000000
285.933600 8314.600000
291.899900 2909.900000
302.936800 5739.900000
303.944100 196971.200000
338.912600 5143.400000

>ms2peaks
53.002300 12644.700000
55.054200 38257.300000
57.069900 82640.300000
58.065200 4844.300000
62.023600 36915.100000
62.963200 14604.200000
62.999400 10148.400000
63.031300 75145.100000
64.978600 4636.100000
67.054300 7690.600000
69.069900 17404.300000
72.983900 33007.400000
73.028300 7760.900000
74.015000 24977.100000
77.046900 162508.600000
81.010000 3675.500000
81.069800 6214.000000
82.945000 42390.500000
84.983900 46426.800000
86.963200 89973.800000
86.974500 45956.400000
90.054900 19924.400000
91.030700 52351.800000
91.062700 51907.900000
94.017800 16924.300000
95.025600 7061.400000
98.999600 8138.900000
100.018100 24072.200000
106.944900 14714.900000
108.033400 87932.500000
108.984000 233419.500000
112.978800 6605.900000
116.906000 155921.200000
118.028700 11303.100000
119.062000 22098.800000
120.960600 20455.600000
123.994700 13999.500000
126.994400 31533.800000
128.002300 41340.100000
130.005400 5082.200000
132.960600 1037764.800000
133.979100 7583.100000
135.994800 20518.400000
144.960600 81958.900000
145.005100 7647.900000
148.990100 2637.400000
149.997800 27241.200000
151.989700 9628.400000
154.005500 26450.200000
155.000900 5474.800000
156.960300 4697.900000
157.955700 6539.100000
159.020800 3842.900000
161.963600 5651.500000
161.998000 34183.800000
162.971200 61004.500000
164.000900 160752.300000
169.955800 5587.300000
170.963700 245327.100000
172.966800 396193.200000
184.966800 38174.900000
188.001000 136556.200000
194.963700 31182.600000
195.959000 34887.600000
196.966800 125254.500000
197.961900 13115.500000
205.932400 58665.300000
210.969200 4012.400000
221.961500 5879.000000
222.969800 221378.100000
230.927800 6003.600000
254.995500 18368.900000
256.930700 3531.900000
257.938600 38751.300000
268.975200 180698.600000
303.944000 5072.100000

