>compound LU92143297
>parentmass 210.16010000000003
>ionization [M+H]+
>formula C11H19N3O
>rt 795.960000
>profile orbitrap
#smiles_iso CCCCC1=C(N=C(NC1=O)NCC)C
#smiles_can CCCCC1=C(N=C(NC1=O)NCC)C
#inchikey BBXXLROWFHWFQY-UHFFFAOYSA-N
#pubchem_id 135424354
#mb_accession LU035601,LU035602,LU035603,LU035604,LU035605,LU035606

>ms2peaks
140.106900 63219.200000
182.128900 46836.300000
193.133900 30363.000000
210.159900 23868330.000000

>ms2peaks
140.107000 454582.000000
150.102900 42948.800000
165.102100 30723.600000
167.105300 38691.100000
182.128900 308757.500000
193.133800 218216.900000
210.160000 27025488.000000

>ms2peaks
55.054200 22512.400000
69.008200 56013.800000
70.065000 93127.500000
71.060300 314768.700000
81.069900 34928.700000
95.085600 45873.600000
97.039700 241837.200000
98.060000 792723.900000
107.072900 54178.100000
112.112000 18033.400000
114.066100 44660.600000
122.071300 35829.100000
122.096400 77040.000000
123.055300 20247.600000
138.066200 100318.100000
139.074000 64922.800000
140.107000 5284440.500000
150.102600 361896.500000
151.122900 25313.600000
152.082300 20687.700000
154.097600 32382.100000
165.102300 540836.000000
166.097400 116307.700000
167.105300 315878.300000
168.113000 41555.600000
182.128900 1849548.100000
193.133600 1546698.000000
208.144800 65315.700000
210.160000 17787338.000000

>ms2peaks
53.038600 23316.500000
54.033700 9655.100000
55.017900 12918.500000
55.054200 228713.200000
56.049500 18909.200000
58.065100 29926.400000
60.055600 18255.500000
67.054200 121909.500000
68.049400 20308.400000
69.008300 384926.000000
69.069800 42498.300000
70.065100 972034.600000
71.060300 1415395.900000
79.054200 36488.600000
80.049400 20218.100000
81.033500 19777.800000
81.057400 13478.700000
81.069800 248402.200000
82.065100 31260.100000
83.060300 13016.500000
83.072800 27353.400000
84.044400 25795.600000
84.080800 39366.200000
86.034900 25409.500000
88.086900 34049.000000
91.054500 11839.100000
93.069900 57221.900000
94.065100 29285.900000
95.060400 126493.700000
95.085600 261095.300000
96.044300 105259.800000
96.068300 9309.600000
96.080800 43308.500000
97.039700 848109.800000
98.060000 4678233.500000
103.054200 9275.100000
105.069800 45440.800000
107.072900 370413.000000
108.068200 13325.000000
109.076100 66279.700000
110.060100 39391.100000
110.096400 38509.000000
111.079200 21206.000000
112.075700 10786.600000
112.112100 88334.200000
114.066200 102858.800000
120.080700 62644.700000
121.076100 10161.200000
122.071200 157720.000000
122.083700 15065.200000
122.096400 244617.500000
123.055300 112963.800000
123.080500 33142.800000
123.091500 43005.700000
124.063200 27206.500000
124.075800 12388.100000
126.066100 55024.500000
136.099600 16218.100000
137.107200 35716.800000
138.066200 423424.200000
138.091500 45510.600000
139.074100 353948.400000
139.123100 22493.400000
140.107000 8755138.000000
150.102600 590489.900000
151.086700 30110.800000
151.122800 36016.100000
152.081700 86548.900000
153.089700 19096.200000
154.097500 39460.300000
165.102300 1230057.600000
166.097500 180241.900000
167.105300 544225.400000
168.113300 42470.000000
180.113200 18114.400000
182.128800 2090142.100000
193.133600 1538198.200000
208.144600 78064.500000
210.160000 4792488.500000

>ms2peaks
53.002300 5733.100000
53.038600 61396.300000
54.033800 16377.900000
55.017800 22847.300000
55.054200 351248.200000
56.049400 24745.800000
57.033500 5021.000000
57.057400 7379.700000
57.069800 12105.100000
58.065100 40669.900000
60.055600 10679.000000
65.038400 6987.600000
66.046400 5104.800000
67.054200 254421.400000
68.049500 40894.600000
69.008300 544452.000000
69.057200 33669.200000
69.069800 47068.100000
70.065100 1583060.400000
71.060300 1206873.400000
79.054200 66174.600000
80.049400 34547.000000
81.033400 27250.100000
81.044800 24849.600000
81.057500 18281.700000
81.069900 240396.000000
82.065100 44030.400000
83.060500 7610.600000
83.072900 96587.300000
84.044400 58362.700000
84.055500 4371.900000
84.080800 46842.800000
86.034900 18573.300000
86.059900 7633.000000
88.086800 15613.700000
91.054300 21271.400000
92.049500 14007.600000
93.069900 87275.100000
94.065200 42511.200000
95.049100 16291.500000
95.060400 223159.800000
95.085500 237703.200000
96.044400 163001.800000
96.055500 10451.100000
96.068200 17460.500000
96.080700 42943.300000
97.039700 363252.900000
98.060000 4081566.800000
103.054100 6900.400000
105.044900 5285.800000
105.069900 41152.500000
106.065100 8638.500000
107.072900 372050.900000
108.068100 24663.300000
108.080500 6204.200000
109.076100 65705.700000
110.059900 38414.600000
110.071300 26680.400000
110.096400 25056.400000
111.079100 52322.000000
112.075700 9266.000000
112.112000 53759.100000
114.066200 51782.600000
120.080800 69011.400000
121.076000 19581.200000
122.071300 128725.700000
122.083800 32208.600000
122.096400 135501.000000
123.055300 82005.400000
123.080300 15786.300000
123.091500 18948.900000
124.063200 38699.900000
124.075500 12199.600000
124.086500 5671.600000
125.058300 4966.100000
126.066200 23683.600000
135.091800 6258.100000
136.099700 9504.800000
137.071000 7974.000000
137.107300 13466.900000
138.066200 432447.600000
138.091100 22554.400000
139.074000 313145.700000
140.106900 2661285.500000
150.102600 205883.900000
151.086600 17450.100000
151.122900 7108.700000
152.081700 75100.200000
153.089500 6968.700000
154.097300 11170.100000
165.102200 427346.300000
166.097400 50523.900000
167.105300 168555.800000
168.113000 9601.000000
182.128800 398232.300000
193.133600 246327.700000
208.143700 19549.400000
210.160100 347100.500000

>ms2peaks
53.002200 22465.400000
53.038600 215502.800000
54.033800 53606.600000
55.017800 79194.100000
55.054300 608100.100000
56.049500 55514.500000
57.033400 9202.700000
57.057300 15520.200000
57.069900 23289.400000
58.065200 78565.600000
60.055600 15684.800000
65.038500 51382.900000
66.046500 34498.700000
67.054200 542375.200000
68.049400 125029.400000
69.008300 850999.600000
69.057300 110581.500000
69.069900 60070.700000
70.065100 3014532.000000
71.060300 1313884.800000
78.033900 15575.000000
79.054200 106761.500000
80.049500 58277.000000
81.033500 34376.900000
81.044800 66064.200000
81.057300 46287.800000
81.069900 201644.000000
82.065100 114013.900000
83.073000 283060.400000
84.044400 104847.400000
84.055500 7447.000000
84.080800 63538.200000
86.034900 27462.200000
86.059900 10363.900000
88.087000 11733.100000
91.054200 57661.900000
92.049500 27869.000000
93.069900 121436.000000
94.065200 60980.700000
95.049300 39940.000000
95.060400 366762.900000
95.085500 222910.500000
96.044400 445217.600000
96.055600 46406.500000
96.068200 31143.000000
96.080800 45958.900000
97.039700 181307.900000
98.060100 4226425.500000
103.054200 16912.900000
105.044800 13225.600000
105.070000 51464.500000
106.065200 24381.700000
107.073000 450423.400000
108.068100 38735.400000
108.080800 10819.900000
109.076000 61221.400000
110.060100 78334.800000
110.071300 117346.300000
110.096400 26908.800000
111.079100 121835.400000
112.075800 10443.400000
112.112100 28213.000000
114.066200 39804.600000
120.080800 60489.000000
121.076200 36200.300000
122.071200 115518.400000
122.083900 46997.700000
122.096400 72977.500000
123.055200 76159.500000
123.080500 8788.900000
123.091700 19972.500000
124.063100 35342.300000
124.086900 21426.700000
125.058300 6207.000000
126.066100 14759.100000
135.091900 8839.500000
136.099400 5946.800000
137.071100 4816.600000
137.107000 6044.600000
138.066200 566369.200000
139.074100 253979.500000
140.107000 894507.900000
150.102500 86459.800000
152.081900 89013.200000
153.089500 4688.600000
165.102300 151395.000000
166.097400 43247.300000
167.105500 51518.400000
182.128900 82944.000000
193.133900 32440.200000
208.144900 6071.100000
210.159900 28581.100000

