>compound LU92305286
>parentmass 342.0771
>ionization [M+H]+
>formula C15H17Cl2N3O2
>rt 1119.420000
>profile orbitrap
#smiles_iso CCCC1COC(O1)(CN2C=NC=N2)C3=C(C=C(C=C3)Cl)Cl
#smiles_can CCCC1COC(O1)(CN2C=NC=N2)C3=C(C=C(C=C3)Cl)Cl
#inchikey STJLVHWMYQXCPB-UHFFFAOYSA-N
#pubchem_id 43234
#mb_accession LU134601,LU134602,LU134603,LU134604,LU134605,LU134606

>ms2
69.069800 303757.200000
70.039900 36617.700000
87.080400 15528.800000
158.975900 168277.000000
172.957000 11756.700000
186.971300 9958.700000
204.981800 70231.100000
273.044200 69810.300000
342.076900 8198705.000000

>ms2
53.002200 60804.400000
53.997500 8804.100000
55.054400 3768.600000
67.054200 45748.600000
69.069900 3342649.500000
70.040000 286643.500000
84.055500 3941.100000
87.080500 66136.300000
158.976300 2935579.800000
169.005200 4935.100000
172.955400 22364.900000
172.992000 38658.300000
186.971200 305641.300000
190.966100 25065.500000
204.981800 459329.200000
220.027100 7260.800000
256.003900 22387.500000
259.028600 102476.600000
273.044200 58227.200000
342.077100 1625339.800000

>ms2
53.002200 113068.700000
53.997400 15488.200000
55.054200 6468.900000
67.054200 57131.600000
69.069800 2001261.200000
70.039900 196782.600000
84.055700 6982.300000
87.080500 7358.900000
122.999500 4795.500000
152.002300 4517.100000
158.976300 4384909.500000
169.005100 5235.500000
172.955500 136076.100000
172.992100 22072.400000
186.971200 238340.300000
190.966100 105475.200000
204.981800 49300.600000
220.027100 8184.500000
259.028700 34129.100000
342.077700 18947.800000

>ms2
53.002200 154971.700000
53.997500 23384.100000
67.054200 46759.200000
69.069900 895856.400000
70.039900 166430.200000
78.008600 5282.700000
84.055600 8728.700000
89.038600 6667.700000
98.999600 7954.500000
122.999600 46383.000000
124.007300 11483.500000
132.960800 5007.700000
139.005900 5541.400000
146.976100 11578.300000
152.002300 8292.400000
158.976300 4780600.000000
169.005000 6107.700000
172.955600 242985.700000
186.971100 58189.900000
190.966100 61076.100000

>ms2
53.002200 188372.900000
53.997400 27270.400000
67.054200 42853.500000
69.069900 376115.100000
70.040000 172664.400000
72.983900 7544.600000
84.055700 6982.500000
89.038600 41864.200000
98.999700 59424.000000
122.999600 350340.600000
124.007500 84829.300000
128.002400 7171.800000
129.010100 9535.600000
132.960700 47552.100000
139.005900 13649.700000
146.976500 10914.000000
151.018400 5346.700000
152.002300 15561.500000
158.976300 5208842.500000
162.971300 9199.300000
172.955600 306946.100000
172.966600 42371.400000
190.966200 17406.500000

>ms2
53.002200 169925.000000
53.997500 27256.300000
55.017900 3773.400000
55.054200 3782.200000
63.022900 10264.600000
65.038600 14760.200000
67.054300 23067.400000
67.989300 5308.500000
69.069900 122573.000000
70.040000 132589.000000
72.983900 38829.200000
84.055600 9383.600000
84.983900 13914.200000
89.038600 227193.100000
98.999600 196859.600000
100.007500 9051.800000
108.984100 20110.800000
122.999600 886177.500000
124.007500 269079.500000
126.994400 10818.500000
128.002300 15927.600000
129.010200 10465.600000
132.960700 120228.400000
139.005900 15788.500000
144.960500 12763.300000
151.018600 7417.100000
152.002200 17566.300000
158.976300 3525714.000000
162.971200 19455.400000
172.955700 201486.300000
172.966800 126529.500000

