>compound LU93394014
>parentmass 309.11209999999994
>ionization [M+H]+
>formula C19H16O4
>rt 1047.375000
>profile orbitrap
#smiles_iso CC(=O)CC(C1=CC=CC=C1)C2=C(C3=CC=CC=C3OC2=O)O
#smiles_can CC(=O)CC(C1=CC=CC=C1)C2=C(C3=CC=CC=C3OC2=O)O
#inchikey PJVWKTKQMONHTI-UHFFFAOYSA-N
#pubchem_id 54678486
#mb_accession LU037701,LU037702,LU037703,LU037704,LU037705,LU037706,LU128901,LU128902,LU128903,LU128904,LU128905,LU128906

>ms2peaks
121.028700 5167.500000
147.080400 841157.600000
163.038900 4305924.000000
189.054600 18778.500000
205.049600 22335.400000
251.070200 1314673.800000
291.101600 117919.500000
309.112100 3002582.500000

>ms2peaks
91.054200 14220.700000
105.069800 7856.300000
121.028200 14023.200000
129.069900 34032.400000
131.049200 5451.000000
147.080400 868106.700000
163.038900 3931751.200000
171.080500 28327.000000
175.039400 14440.400000
183.080200 13435.400000
189.054700 40386.600000
191.033800 37668.000000
205.048800 4226.900000
223.075200 4703.000000
233.059600 5242.800000
251.070200 3194777.500000
267.982700 16147.200000
291.101500 88348.500000
309.112300 66576.400000

>ms2peaks
68.997000 9456.800000
77.038700 5805.400000
83.012700 5765.500000
91.054200 48411.300000
95.049200 27279.200000
103.054400 5624.000000
105.033500 4259.000000
105.069900 12490.900000
107.049300 3413.300000
117.069500 4158.400000
119.048900 6441.500000
119.085400 3089.000000
121.028400 182361.000000
128.061900 5827.500000
129.069800 157237.500000
131.049200 111477.200000
139.039400 3578.800000
143.085600 5050.700000
147.080400 463517.200000
153.069600 3086.400000
155.085600 85543.200000
157.028300 6935.500000
163.038900 2928759.500000
164.026300 14989.300000
165.070000 9531.000000
167.085500 32726.700000
171.080400 49165.100000
173.023400 8908.800000
175.039100 46810.400000
178.077700 14593.100000
179.085600 31245.000000
181.064700 3438.100000
183.080500 376418.400000
189.054600 53293.500000
191.033900 668481.400000
195.080600 23463.100000
203.985000 19045.800000
205.049100 14027.600000
205.064800 42014.300000
206.000300 7079.300000
207.080400 11041.000000
223.075400 141759.900000
233.059700 56183.400000
249.055000 5210.100000
251.070200 2691227.800000
267.982500 15346.000000
291.101800 11892.300000

>ms2peaks
51.023000 2226.700000
53.038600 27211.700000
55.017900 8946.100000
65.038500 25918.500000
68.997000 45513.500000
69.033400 5452.600000
77.038800 14585.500000
79.054200 6056.600000
81.033500 2367.000000
83.012700 3255.600000
89.038500 8706.400000
90.046400 3711.700000
91.054200 123420.700000
93.033500 21397.500000
94.041400 5485.100000
95.049200 260350.700000
102.046200 4200.500000
103.054200 73338.900000
105.033600 24172.100000
105.069900 18230.800000
107.049100 14316.400000
109.065000 3759.300000
111.044100 21311.300000
115.053900 4583.900000
117.069900 3783.600000
119.049200 25481.700000
119.085500 6618.300000
121.028400 844219.300000
128.062000 30632.800000
129.033400 13908.000000
129.069900 223624.000000
130.041300 8644.300000
131.049200 243664.500000
139.038900 30617.000000
141.069800 8255.400000
143.085600 8770.900000
145.028200 17543.400000
147.080400 164370.300000
149.023300 3436.600000
152.062300 10502.100000
153.069800 27775.800000
154.078000 3085.500000
155.085500 591355.800000
157.027900 25673.600000
163.038900 2032107.800000
164.026000 7091.800000
165.069800 67605.500000
166.077600 6811.300000
167.085500 152992.100000
171.080600 21768.300000
173.023400 17783.700000
175.039100 60216.600000
176.062600 3965.400000
177.069900 17494.700000
178.077700 94135.000000
179.085500 59832.300000
179.984600 4891.700000
181.064700 18027.900000
183.080500 574104.800000
187.989600 9151.400000
189.054600 43631.400000
191.033900 1084519.100000
195.080400 54499.800000
203.984800 26248.900000
205.049700 23550.700000
205.064800 99095.900000
206.000400 8157.800000
206.072300 4797.000000
207.080400 14313.300000
223.075400 288876.500000
233.059700 108803.000000
234.067700 7138.700000
249.054400 18654.900000
251.070200 700404.100000

>ms2peaks
50.015100 2284.200000
51.023000 5734.000000
53.002300 8530.600000
53.038600 101367.300000
55.017900 17201.300000
63.023000 2723.900000
65.038600 201011.500000
68.997100 117380.500000
69.033500 9256.000000
77.038500 41013.200000
79.054200 23786.700000
81.033500 10357.300000
83.012800 4044.500000
89.038600 30822.000000
90.046500 2251.700000
91.054300 231678.400000
93.033600 110655.700000
94.041300 18417.100000
95.049200 598489.100000
98.036400 2812.900000
102.046400 17998.600000
103.054300 265233.900000
105.033600 34590.600000
105.070000 18246.600000
107.049200 14719.500000
109.064900 9973.000000
111.044100 116446.700000
115.054200 19585.000000
117.033500 5483.200000
117.070200 5148.700000
118.041300 3762.400000
119.049200 39701.200000
119.085700 4908.400000
121.028500 1745728.100000
123.995000 2619.300000
125.059600 11412.100000
128.062100 68524.500000
129.033500 47957.000000
129.069900 153201.900000
130.041600 18576.300000
131.049200 178007.500000
139.039000 63619.100000
141.069900 10855.800000
143.085800 6103.600000
145.028400 51177.800000
145.064800 8323.700000
147.080400 35338.000000
147.994900 19912.900000
149.023400 3869.700000
152.062100 60016.700000
153.069900 90269.400000
154.077800 28787.900000
155.085600 681692.600000
156.057200 2477.000000
157.028400 31435.300000
163.039000 897458.900000
163.990000 6279.200000
164.026500 3348.000000
165.070000 146756.500000
166.077900 20839.200000
167.085500 189442.400000
169.064800 7878.500000
171.080500 7688.200000
173.023100 14608.800000
175.039100 46973.600000
175.990000 9400.300000
176.062300 14103.400000
177.070100 28854.700000
178.077700 165989.500000
179.085600 25279.000000
179.984900 7971.600000
181.064900 16719.600000
183.080500 191324.700000
187.989600 13037.800000
189.054800 12108.700000
191.033900 561707.400000
194.072900 4112.600000
195.080500 28438.800000
203.984800 46045.500000
205.049700 7806.700000
205.064900 95360.900000
206.000300 6615.700000
206.072600 4427.300000
207.080200 4831.300000
221.059600 3676.500000
223.075400 153473.700000
233.059700 59565.300000
234.067600 7629.300000
249.054800 18700.100000
250.062800 4386.700000
251.070300 69836.500000

>ms2peaks
50.015200 8170.300000
51.022900 4585.500000
53.002200 22882.600000
53.038600 154833.400000
55.017900 18230.400000
63.023000 7164.600000
65.038500 705089.100000
68.997100 181168.300000
77.038500 76002.400000
79.054200 39554.500000
81.033400 17975.300000
89.038600 56695.000000
90.046500 3653.000000
91.054200 290977.700000
93.033500 218683.500000
94.041300 27753.600000
95.049200 726049.400000
98.036300 13146.300000
102.046400 43075.700000
103.054200 427419.400000
105.033700 30739.900000
107.049100 15358.400000
109.064800 6518.700000
111.044100 225564.200000
115.054200 43290.900000
117.033300 5676.900000
117.070000 6052.700000
118.041400 3838.800000
119.049200 27951.800000
121.028400 1921561.900000
123.995200 3517.100000
125.059600 15663.700000
128.062000 109759.900000
129.033400 65748.000000
129.069800 96614.900000
130.041300 13425.100000
131.049200 71894.400000
139.039000 39464.600000
141.069700 15496.400000
145.028400 39408.600000
145.064700 13459.900000
147.080300 3846.200000
147.994800 51267.200000
149.023200 2719.900000
152.062100 139523.800000
153.069900 130406.900000
154.077700 44752.700000
155.085500 302892.300000
156.056600 3337.100000
157.028500 16535.700000
163.039000 262529.800000
163.990200 3513.100000
165.069900 182201.600000
166.077600 40139.400000
167.085500 116760.700000
169.064800 20722.500000
175.039000 22090.700000
175.990000 9985.400000
176.062100 50233.400000
177.069900 37953.100000
178.077700 197325.200000
179.085400 8062.600000
179.984600 3573.700000
181.064600 14724.300000
183.080500 28184.300000
187.989700 5059.500000
191.033900 146607.200000
194.072500 8282.700000
195.080700 10376.000000
203.984800 31195.200000
205.064900 81555.900000
206.000100 3336.800000
206.072800 2812.700000
221.059800 4975.700000
223.075500 39512.000000
233.059600 15575.300000
234.067600 4939.700000
249.054700 10347.700000
251.070400 3299.700000

>ms2peaks
68.997100 5868.600000
121.028700 6959.500000
147.080500 929935.900000
163.039000 4764115.500000
189.055000 14818.600000
205.049900 27052.500000
251.070300 1492703.800000
291.101000 125583.300000
309.112200 3334007.000000

>ms2peaks
68.997100 5964.100000
77.038700 5470.700000
91.054100 18825.600000
105.069900 5814.400000
121.028200 19424.500000
129.069900 38642.700000
131.049100 8548.300000
147.080400 1038799.400000
163.038900 5061375.500000
171.080400 45836.400000
175.039500 15250.700000
183.080100 16330.200000
189.054700 55172.100000
191.033700 43496.500000
223.075700 6658.200000
249.055800 5142.800000
251.070200 3989525.000000
291.101400 122122.300000
309.112200 86822.600000

>ms2peaks
65.038600 4710.500000
68.997200 7439.800000
77.038900 8487.300000
91.054300 45249.600000
95.049200 25425.700000
103.054300 4067.800000
105.033500 8716.700000
105.069900 13814.100000
119.049000 4693.200000
121.028400 200101.100000
128.062200 5754.800000
129.069900 181751.000000
131.049200 135372.800000
143.085700 6485.800000
147.080400 513342.200000
155.085600 94847.900000
157.028200 13636.100000
163.039000 3311083.500000
165.069500 11778.200000
167.085600 40002.600000
171.080400 56245.700000
173.023300 13665.300000
175.039100 55007.200000
178.077500 19831.400000
179.085500 31274.300000
181.064800 6879.400000
183.080500 414311.000000
189.054600 56108.400000
191.033900 732288.200000
195.080400 34007.700000
205.049500 15626.800000
205.064900 41663.700000
207.080300 11602.200000
223.075500 136034.900000
233.059700 63479.700000
249.055000 8607.100000
251.070300 3067965.000000
291.101200 13905.700000

>ms2peaks
51.022900 5398.900000
53.038600 36998.100000
55.017800 12900.400000
65.038500 34620.400000
68.997100 53570.500000
69.033500 6355.000000
77.038700 20734.300000
79.054100 6044.900000
89.038600 7451.100000
91.054200 159590.500000
93.033600 29408.000000
94.041300 4487.500000
95.049100 300548.700000
102.046300 3349.700000
103.054200 84596.900000
105.033500 27517.600000
105.070000 18932.600000
107.049100 15504.400000
111.044000 32412.200000
115.054200 7344.800000
119.049100 34103.300000
119.085700 5904.400000
121.028400 1030707.900000
128.062100 37994.000000
129.033500 18561.300000
129.069800 268746.800000
130.041200 16454.000000
131.049100 293202.000000
139.039000 38724.800000
141.070000 12749.800000
143.085400 12371.800000
145.028500 22412.800000
145.064400 2876.500000
147.080400 183747.600000
149.023400 3817.100000
152.062200 17218.300000
153.069800 33055.400000
154.077700 4829.400000
155.085500 691795.900000
157.028400 41835.000000
163.038900 2452039.500000
165.069800 93659.300000
166.077500 4748.200000
167.085500 190116.700000
171.080200 27736.500000
173.023300 24143.900000
175.039000 78421.500000
177.069800 17362.500000
178.077700 116003.600000
179.085600 66374.800000
181.064800 16919.200000
183.080500 705892.100000
189.054700 51995.600000
191.033800 1323278.100000
194.072700 4055.400000
195.080300 62463.700000
205.049700 20092.800000
205.064800 110078.700000
206.073000 6121.400000
207.080600 16482.300000
209.059600 4559.600000
223.075300 377764.800000
233.059700 129403.400000
234.067300 9379.100000
249.054400 24595.500000
251.070200 887427.100000

>ms2peaks
50.015200 2313.900000
51.023000 4454.600000
53.002200 9543.400000
53.038600 115140.600000
55.017800 21663.700000
65.038600 243092.300000
68.997100 129004.600000
69.033500 7406.200000
77.038500 47000.600000
79.054200 23772.700000
81.033400 8550.900000
89.038600 31988.700000
91.054200 297289.900000
93.033500 149993.600000
94.041200 13507.800000
95.049100 725953.500000
98.036000 2959.200000
102.046400 19284.000000
103.054200 316732.100000
105.033600 41777.100000
105.069900 17384.700000
107.049100 23528.200000
109.064800 9974.500000
111.044000 127164.800000
115.054200 23762.300000
117.033400 7989.300000
117.070000 4514.300000
118.041600 4757.500000
119.049200 37688.400000
119.085300 5597.000000
121.028400 2050243.200000
125.060000 11484.000000
127.054100 3273.300000
128.062000 90399.900000
129.033500 54246.400000
129.069800 182220.600000
130.041400 19276.000000
131.049100 210225.700000
135.045000 2856.800000
139.039000 73186.700000
141.069900 16167.200000
143.085500 8580.900000
145.028400 58509.300000
145.065000 6748.700000
147.080300 39095.800000
149.023600 3054.700000
152.062000 75853.700000
153.069900 94791.800000
154.077800 32764.700000
155.085500 814490.400000
157.028300 31022.000000
163.038900 1056147.200000
165.069800 169577.200000
166.077700 31121.300000
167.085500 261509.600000
168.057100 6242.400000
169.064700 4747.200000
171.080200 8208.200000
173.023300 11749.700000
175.039000 54137.200000
176.062000 17317.800000
177.069800 41518.300000
178.077700 207752.500000
179.085500 27266.200000
181.064700 26245.200000
183.080500 205575.800000
184.051000 2373.000000
189.054500 16247.300000
191.033900 674999.200000
194.072500 9918.000000
195.080500 36371.800000
205.049800 10760.200000
205.064800 129033.200000
206.073000 3713.100000
207.080500 3837.500000
208.051600 3024.000000
209.059500 3087.500000
223.075300 182963.700000
233.059600 70777.200000
234.067600 7498.100000
249.054700 23281.700000
251.070200 81814.800000

>ms2peaks
50.015100 9754.200000
51.023000 7111.400000
53.002200 23693.600000
53.038600 212168.800000
55.017800 21035.000000
59.049000 3751.200000
65.038600 877786.600000
68.997100 192601.200000
77.038500 117882.100000
79.054200 46737.500000
81.033500 27382.200000
89.038600 69648.400000
90.046500 2908.200000
91.054200 363182.000000
93.033500 278821.800000
94.041300 19213.600000
95.049100 907148.100000
98.036200 10466.200000
101.038400 4736.700000
102.046400 55857.100000
103.054200 528363.900000
105.033700 27365.700000
105.069800 14108.500000
107.049200 19574.100000
109.064900 13231.500000
111.044100 257211.100000
115.054300 53379.500000
117.033500 6216.300000
118.041400 6114.200000
119.049200 39997.700000
121.028400 2421059.200000
125.059800 24309.500000
128.062000 124064.600000
129.033500 80312.600000
129.069800 118481.500000
130.041200 16518.600000
131.049100 94630.600000
139.039000 56713.000000
141.069900 17612.100000
145.028300 44262.600000
145.064800 19645.100000
147.080600 6754.200000
149.023000 5283.100000
152.062100 173427.200000
153.069900 146442.400000
154.077800 61820.500000
155.085500 389722.600000
157.028200 23139.400000
163.038900 322076.400000
165.069900 208592.300000
166.077600 35599.800000
167.085500 146858.100000
169.064900 21123.200000
175.039100 27505.700000
176.062100 60855.200000
177.069900 53452.400000
178.077700 249847.200000
179.084900 4278.000000
180.056800 3162.400000
181.064600 18480.900000
183.080400 27783.800000
189.054500 4411.400000
191.033900 182908.000000
194.072400 10035.600000
195.080300 11565.100000
205.064700 99789.800000
208.052000 5441.700000
223.075300 35895.000000
233.059600 19990.500000
234.066800 4374.900000
249.054800 12654.000000
251.070200 4329.800000

