>compound LU93025281
>parentmass 339.1955
>ionization [M+H]+
>formula C22H26O3
>rt 1235.460000
>profile orbitrap
#smiles_iso CC(=CC1C(C1(C)C)C(=O)OCC2=COC(=C2)CC3=CC=CC=C3)C
#smiles_can CC(=CC1C(C1(C)C)C(=O)OCC2=COC(=C2)CC3=CC=CC=C3)C
#inchikey VEMKTZHHVJILDY-UHFFFAOYSA-N
#pubchem_id 5053
#mb_accession LU015801,LU015802,LU015803,LU015804,LU015805,LU015806

>ms2peaks
91.054300 9966.200000
95.085500 2037.700000
117.070200 1906.800000
119.085800 2287.200000
121.101300 11737.700000
123.117000 1812.900000
135.117000 4059.000000
139.112000 4125.000000
141.091400 2342.800000
143.085500 2945.400000
149.096400 4465.700000
159.080500 2626.300000
159.117000 2603.900000
167.106600 20300.800000
171.080500 121106.400000
173.096000 2343.300000
175.148700 8262.200000
185.096100 3674.800000
187.111000 1728.600000
199.111900 6601.300000
203.143200 9099.400000
205.122300 3555.400000
225.127300 13758.200000
226.135000 3274.600000
237.127400 2727.800000
239.143400 8675.800000
251.143300 8070.800000
275.179300 3069.400000
283.131800 3129.700000
293.190100 39390.600000
321.184900 33087.100000
339.195700 307082.400000

>ms2peaks
55.054400 2415.400000
59.049200 4048.000000
69.069800 3794.100000
81.069900 6652.200000
83.049100 4960.100000
91.054300 93278.100000
93.070100 3670.500000
95.049300 4720.400000
95.085800 8218.500000
105.033600 7077.300000
105.070100 4746.500000
107.085700 9211.400000
109.064900 1958.900000
109.101100 2026.600000
117.070000 4893.100000
119.085700 8546.600000
121.065000 6209.300000
121.101300 46793.600000
123.116900 9614.400000
125.059800 3298.900000
128.062200 2686.900000
131.085600 2573.400000
133.101400 4793.300000
135.080600 2275.700000
135.116800 12711.600000
139.111900 10491.100000
141.091200 5688.900000
143.085700 54329.000000
145.101300 1850.000000
149.096300 28543.000000
155.085700 2412.600000
157.101400 3184.600000
159.080700 3537.200000
159.116800 12052.500000
161.096300 4389.100000
161.132600 3337.900000
167.106800 10622.600000
171.080600 141711.700000
173.096200 3705.500000
173.132800 7545.900000
175.148600 9812.300000
183.116600 1777.800000
185.096200 4665.700000
187.112200 2801.600000
197.132800 8143.300000
199.111800 12542.700000
201.127500 2308.400000
202.135600 2682.600000
203.143500 13273.000000
205.122500 4813.800000
219.117800 1941.200000
225.127600 17053.900000
226.135400 5341.000000
237.127300 5592.200000
239.143300 13117.900000
247.133200 5847.200000
251.143200 7783.300000
275.179400 3361.700000
283.131800 2799.800000
293.190300 37712.200000
321.184700 8420.000000
339.195800 19982.100000

>ms2peaks
55.054400 3250.400000
59.049400 3958.400000
65.038600 1993.800000
69.069900 8251.000000
79.054200 5743.000000
81.069900 10702.000000
83.049400 4057.200000
91.054300 111709.400000
93.070000 8644.000000
95.049200 4546.900000
95.085500 8946.800000
103.054700 1956.200000
105.033500 22392.600000
105.069800 8505.800000
107.085700 5980.900000
109.065000 5493.700000
109.101500 3594.000000
115.054400 7307.500000
117.070000 6740.300000
119.085700 10413.600000
121.064900 9984.600000
121.101300 27037.200000
123.116800 4009.800000
125.059800 1822.000000
128.062100 28024.300000
129.070100 6052.300000
131.085700 4083.200000
133.101300 5146.900000
135.080900 4820.600000
135.117100 7811.200000
139.112300 2700.500000
141.070000 3536.800000
143.085600 66921.900000
147.080800 5915.700000
149.096400 10302.900000
153.070000 2518.800000
155.085700 1946.100000
157.101200 2171.500000
159.080700 5856.100000
159.117200 6347.500000
161.096200 4751.700000
161.133200 2528.400000
171.080600 39461.900000
173.096100 2980.300000
173.133200 4631.800000
175.148500 3654.200000
178.078800 2114.900000
183.117100 2535.700000
187.112300 2180.800000
197.132300 3635.700000
199.112000 3790.600000
201.127800 2691.800000
202.135400 3357.000000
203.143100 2649.200000
205.122900 2662.500000
219.117600 1759.600000
225.128000 2310.100000
247.134300 3335.100000
251.143800 2727.600000
293.190300 2633.800000

>ms2peaks
53.038700 2234.800000
55.054300 3517.600000
59.049200 3974.100000
65.038500 3338.500000
67.054200 7842.200000
69.069900 8948.100000
79.054200 7796.000000
81.070000 11360.200000
85.065000 1638.800000
91.054300 125911.300000
93.069900 13430.500000
95.049200 3202.000000
95.085700 7340.400000
103.054400 3568.600000
105.033600 31055.500000
105.070100 14924.500000
107.049200 1837.900000
107.085600 7099.300000
109.065000 7636.700000
115.054300 15106.500000
117.069900 10531.300000
119.085500 13308.600000
121.065000 10637.800000
121.101300 13063.600000
128.062100 67222.000000
129.070000 4959.400000
131.085700 6025.800000
133.064900 3763.900000
133.101300 4887.300000
135.080500 4663.500000
135.116700 2743.800000
141.070000 6485.300000
143.085700 41939.300000
144.092800 2131.500000
145.065100 6282.600000
145.101300 4072.400000
147.080700 4413.700000
149.096100 3217.900000
152.062300 2262.500000
153.070300 4078.000000
155.085700 4014.700000
157.101600 1867.000000
159.080200 4773.500000
159.117100 3213.500000
167.085600 2551.100000
171.080800 5487.800000
187.112300 2590.900000
199.112600 2681.400000
201.127400 2424.800000

>ms2peaks
53.038700 3159.600000
55.054300 5973.400000
59.049200 2647.700000
65.038500 12470.800000
67.054200 8451.400000
69.069900 5322.900000
79.054200 14933.200000
81.069900 10022.300000
83.049300 2351.400000
85.064800 2180.100000
91.054300 174206.600000
93.069900 14588.000000
95.049200 9533.800000
95.085400 5049.700000
103.054100 6210.400000
105.033600 29506.400000
105.069900 25032.200000
107.049100 2043.500000
107.085600 6756.800000
109.064900 8467.700000
115.054200 18264.800000
117.069800 14345.500000
119.085600 13729.900000
121.064900 5986.100000
121.101300 9485.200000
127.054000 2217.900000
128.062100 100590.300000
129.070000 5765.600000
131.085700 7970.100000
133.064900 4029.100000
133.101200 3812.300000
141.070000 9448.100000
142.077900 4426.700000
143.085700 15412.300000
145.064800 8393.900000
145.100900 2416.700000
152.062000 3276.600000
153.070000 4209.000000
155.085600 4728.000000
159.080700 3473.500000
171.080200 1850.900000
179.084800 2919.700000

>ms2peaks
53.038600 7485.500000
55.054300 9842.700000
59.049200 3335.600000
65.038600 23992.100000
67.054200 14760.500000
69.069900 4188.400000
79.054200 25092.000000
81.069900 10497.300000
91.054300 206853.900000
93.070000 13196.000000
95.049200 20294.400000
95.085800 2146.900000
103.054300 10589.700000
105.033600 18932.500000
105.070000 24341.400000
107.048900 2170.000000
107.085600 3305.400000
109.064700 5429.000000
115.054300 27677.500000
117.070000 15142.100000
119.085500 12399.900000
121.064700 3800.900000
121.101200 3565.700000
127.054200 2900.500000
128.062100 116446.700000
129.070000 6778.700000
131.085600 6069.100000
133.100900 2085.900000
135.080800 1734.600000
141.070100 11825.700000
142.078000 3919.500000
143.085500 4311.100000
144.093500 2529.700000
145.064700 10818.500000
145.100900 3140.700000
152.062200 5616.900000
153.069900 3227.100000
167.085800 2342.400000
178.077600 2193.100000
179.085500 2287.800000

