>compound LU93756677
>parentmass 431.09369999999996
>ionization [M+H]+
>formula C18H12F6N4O2
>rt 1068.250000
>profile orbitrap
#smiles_iso C1=CC(=CC(=C1)C2=NNC(=N2)C(=O)N)C3=C(C=CC(=C3)F)OCC(C(F)(F)F)(F)F
#smiles_can C1=CC(=CC(=C1)C2=NNC(=N2)C(=O)N)C3=C(C=CC(=C3)F)OCC(C(F)(F)F)(F)F
#inchikey OWSLGPREZQMVQP-UHFFFAOYSA-N
#pubchem_id 11270356
#mb_accession LU034201,LU034202,LU034203,LU034204,LU034205,LU034206

>ms2
414.065300 64709.900000
431.093800 12723969.000000

>ms2
101.003100 10226.900000
224.052500 11808.500000
225.058500 4477.500000
253.052900 29335.100000
298.086100 167766.900000
299.070300 48204.100000
346.066400 9141.400000
358.066700 8203.500000
388.088500 11405.100000
413.083100 97167.900000
414.065500 88621.100000
431.094400 3049289.000000

>ms2
69.008300 117612.900000
69.992300 18573.800000
104.049500 4199.600000
146.052600 8710.800000
157.045000 4135.800000
158.052500 8549.500000
159.060400 35884.900000
170.052600 61931.600000
171.060300 3622.800000
172.055300 3451.100000
173.039800 3382.600000
174.047600 23170.100000
178.065500 5302.100000
183.060600 14500.900000
185.063600 5065.800000
186.047500 441359.600000
187.055400 100571.600000
190.065200 8926.600000
196.055800 43933.000000
197.063600 149117.600000
198.047600 102697.200000
201.058700 20848.900000
202.042500 34336.500000
205.052200 35208.100000
206.060200 9500.900000
207.047900 22676.900000
208.055700 181283.700000
209.051900 5926.100000
209.063600 96566.400000
211.042800 75279.400000
212.050600 688971.400000
213.034600 211071.300000
213.058300 131560.700000
214.042400 96258.000000
214.066300 32070.700000
215.050200 63089.100000
215.061500 31810.100000
215.073400 3785.300000
223.062800 9827.200000
224.050600 601511.400000
225.058400 634030.300000
226.053500 10598.900000
226.066400 15365.800000
228.045200 8285.800000
230.037700 26115.600000
230.061100 8867.900000
236.037900 16183.100000
236.061400 13234.800000
237.046000 13947.100000
238.053500 16863.700000
238.066300 8411.200000
238.078000 6394.000000
239.037800 35035.600000
239.061400 18714.300000
239.074200 7620.400000
243.069000 238945.100000
244.076800 26004.400000
253.052900 1267284.600000
254.073000 13662.900000
255.057100 4017.900000
257.085000 13483.300000
264.056700 42926.000000
269.073700 3578.800000
270.052700 6418.500000
280.052000 12488.900000
282.067300 230246.500000
286.047500 7104.200000
297.078400 61206.600000
298.062600 30906.000000
299.070100 488136.200000
319.055700 3970.800000
320.063400 5810.600000
326.056900 6467.000000
331.055300 127307.500000
345.058300 59985.500000
346.066100 368524.600000
358.066100 276778.500000
359.061500 13571.900000
364.077100 19160.200000
371.061200 45479.400000
378.092700 44285.800000
392.065200 18661.700000
413.082800 37924.000000
414.066200 42673.800000
431.096000 13585.300000

>ms2
69.008300 271582.300000
69.992200 9038.300000
114.033800 10628.200000
133.044800 6918.900000
149.039600 9870.300000
157.045000 12099.400000
159.060400 29900.400000
161.039700 10494.900000
165.057400 4773.500000
169.044700 5678.300000
170.052500 751570.100000
171.047800 8566.200000
178.065000 46008.700000
180.044500 3770.700000
181.044300 4067.500000
181.052400 7448.000000
183.060300 53371.800000
185.039200 8801.000000
185.063500 28604.900000
186.047500 691114.300000
187.055300 98953.700000
190.065000 20891.000000
193.052100 12469.600000
196.055700 456547.900000
197.063400 714999.300000
198.047500 448897.300000
199.055300 139983.800000
201.049700 3690.600000
201.058600 51026.200000
205.052200 138106.900000
206.060100 62498.500000
207.047800 183091.300000
209.051200 13685.200000
210.035000 4622.500000
210.058300 24550.200000
210.070600 6260.100000
212.050500 1547571.900000
213.034700 111927.400000
214.042500 32867.400000
214.066300 61998.200000
215.050000 59017.800000
216.058200 56094.800000
219.031100 4724.700000
223.043000 6814.900000
224.050400 3672777.500000
226.065900 19696.100000
228.045600 14219.200000
228.081500 4362.600000
230.037200 128068.300000
236.038200 26966.200000
236.061200 14450.900000
237.046200 80003.000000
237.069300 88645.900000
238.053300 35040.900000
238.066300 20989.100000
239.037500 164944.900000
239.059900 29327.900000
239.074000 9936.600000
240.045600 17740.300000
242.061100 19809.200000
244.076600 49209.400000
246.068500 6889.200000
250.046900 6394.200000
252.069400 30263.900000
253.053000 304400.700000
253.065000 101570.900000
254.072400 38308.800000
258.052500 8466.500000
264.056800 38774.400000
269.070700 8902.000000
270.051500 4381.500000
286.047100 23867.100000
296.082900 4237.800000
298.062400 60006.500000
299.070000 47878.900000
306.053500 14110.100000
320.063200 11643.200000
331.055000 87194.200000
345.058000 41407.600000
346.065900 295340.200000
358.066100 74787.500000
359.061100 15097.000000
371.061300 38592.000000
378.092700 33451.800000
386.058100 15985.000000
392.065000 4034.600000

>ms2
69.008300 362670.000000
114.033900 10098.800000
120.037000 9725.600000
133.044800 35147.700000
149.039700 48808.700000
153.057700 4629.900000
157.044800 116183.900000
158.040200 14202.000000
158.052600 30752.100000
159.060400 18353.800000
161.039700 12087.200000
164.049500 11162.100000
169.044700 25945.400000
169.064900 13450.500000
170.052600 1550081.200000
171.048100 31010.500000
171.060300 43267.200000
172.055900 5011.300000
173.039900 39928.800000
173.051000 42951.800000
174.047300 13820.000000
176.049400 12242.800000
177.057300 569415.100000
178.065100 83699.900000
179.060400 5197.300000
180.044800 5903.400000
182.052500 5960.500000
183.060500 79225.900000
184.055800 110178.100000
184.068300 6942.200000
185.039800 12716.000000
185.063600 104169.300000
186.047600 905207.900000
187.055400 132368.600000
188.049800 22280.400000
190.065200 31591.900000
191.036700 7111.900000
193.052200 16234.600000
194.060300 44540.900000
195.047800 62484.400000
196.055800 1211088.600000
197.051400 55073.800000
198.047600 294032.400000
199.055400 192456.500000
202.042400 65953.600000
203.037700 10261.800000
204.044400 34867.900000
205.052300 53465.400000
206.040300 41036.500000
206.060100 86836.400000
207.048000 113796.000000
208.055700 1117800.900000
209.063500 83741.300000
210.035300 9519.700000
210.057600 39980.100000
210.070900 5994.700000
211.042800 288471.900000
212.050600 2045122.400000
213.058400 285345.300000
214.066500 79165.600000
215.050100 12106.500000
223.043200 5509.700000
224.050500 4375547.500000
225.045700 33435.900000
225.058400 230666.200000
226.053800 61492.800000
227.061100 9786.300000
230.037300 121645.900000
236.038500 22799.800000
237.045800 105098.600000
237.068400 21464.200000
238.065900 20078.000000
238.077900 4656.800000
239.037700 182021.000000
239.060200 32526.800000
243.068900 8171.600000
244.076700 62926.400000
251.062300 4471.300000
252.044900 8472.700000
252.056800 42627.800000
254.072500 36777.200000
255.056800 14525.100000
256.076600 8216.000000
258.052200 11003.200000
270.052500 4484.500000
280.051700 7214.400000
282.067400 51272.000000
286.047600 10177.800000
298.061800 25790.300000
346.065500 18595.700000

>ms2
69.008300 365944.000000
76.030800 3484.300000
95.049200 8566.600000
114.033900 11976.600000
120.036900 34057.600000
133.044800 83593.200000
145.044800 48937.800000
146.052700 45022.800000
149.039600 76914.200000
150.046500 102021.200000
153.057600 5467.200000
157.044800 568030.600000
158.040200 57654.700000
158.052500 59382.700000
159.060300 28636.700000
162.047000 7541.000000
163.055100 72307.400000
164.049500 56574.300000
168.037400 11956.700000
169.044800 97289.900000
170.052600 1799949.800000
171.047800 63524.700000
173.039800 81449.000000
173.051000 119411.700000
174.047700 10521.100000
177.057300 505877.500000
180.055200 15261.300000
182.040200 97102.600000
183.060400 72806.700000
184.055800 322356.700000
185.039500 20421.000000
185.063800 97944.100000
186.047600 915497.800000
187.055400 571749.000000
190.065200 23042.500000
193.052600 8530.900000
194.060200 249290.200000
196.055700 1256326.600000
197.051100 268629.300000
197.063400 141761.000000
198.047400 115766.400000
199.055400 161455.200000
200.050500 11511.800000
201.049900 4762.800000
201.058800 9031.500000
203.038700 6744.500000
203.050400 23040.200000
204.044600 52283.000000
204.055800 141173.900000
205.052500 13524.200000
206.040100 186022.100000
207.047900 77477.800000
208.055700 1006661.900000
209.051100 29912.300000
209.063700 32653.400000
210.034900 6281.300000
210.056900 34018.300000
210.069900 5737.200000
211.042900 202991.600000
212.050600 1763453.200000
213.046100 154589.900000
213.058300 30303.000000
214.066400 58617.900000
215.049800 4500.300000
224.050600 2806931.800000
225.045800 30666.100000
225.058600 51349.300000
226.054200 32196.800000
227.061500 13695.800000
228.082000 9189.200000
230.037500 36219.600000
230.060800 32516.800000
234.066100 4263.000000
236.038100 10636.200000
236.061900 12499.400000
237.045900 72678.300000
237.069000 4604.800000
238.066300 17955.000000
239.037800 88630.100000
239.061300 10419.800000
240.046000 4480.100000
244.076800 57737.200000
250.046900 3445.700000
252.057100 12153.200000
254.072600 12515.000000
255.056900 3542.900000
259.036500 3636.900000
269.072100 4264.000000

