>compound LU93219654
>parentmass 429.2999
>ionization [M+H]+
>formula C27H40O4
>rt 1187.460000
>profile orbitrap
#smiles_iso CCCCCC(=O)O[C@@]1(CC[C@@H]2[C@@]1(CC[C@H]3[C@H]2CCC4=CC(=O)CC[C@]34C)C)C(=O)C
#smiles_can CCCCCC(=O)OC1(CCC2C1(CCC3C2CCC4=CC(=O)CCC34C)C)C(=O)C
#inchikey DOMWKUIIPQCAJU-LJHIYBGHSA-N
#pubchem_id 169870
#mb_accession LU065501,LU065502,LU065503,LU065504,LU065505,LU065506

>ms2
71.085500 16205.900000
83.049200 10843.000000
95.085400 4266.400000
97.064800 47821.300000
99.080400 54796.300000
109.064700 27207.100000
111.080300 17595.200000
119.085600 2487.100000
123.080400 5129.100000
135.116900 2592.500000
145.100900 7431.400000
147.117100 7941.600000
157.100800 2813.500000
159.116700 3581.000000
161.095700 3287.700000
161.132600 2495.400000
163.111900 4858.000000
169.101600 4690.100000
171.116600 10105.700000
173.132600 3625.600000
175.112500 3614.800000
175.148000 8026.200000
183.116800 3397.800000
185.132600 3797.400000
187.148300 7759.400000
189.127300 3054.200000
189.163500 2609.300000
191.143100 2949.000000
197.132200 4463.400000
199.148300 6323.100000
203.143200 7890.600000
205.158600 22580.400000
211.148300 6320.000000
213.127200 5491.900000
213.163700 12222.300000
217.158900 9957.800000
229.158500 4689.300000
231.174100 22396.100000
237.163800 6456.900000
239.142800 2392.600000
251.179900 3726.400000
253.195000 52379.200000
255.174100 6824.000000
269.189900 34029.800000
270.198000 3385.300000
271.205600 385737.100000
277.195400 14444.200000
295.205600 115728.300000
313.216100 2014650.600000
387.289400 7103.700000

>ms2
67.054200 2569.100000
69.069900 3739.000000
71.085500 147795.300000
79.054300 5634.000000
81.070000 17485.300000
83.049100 62144.500000
83.085500 4423.500000
85.064900 8093.800000
93.069900 13124.100000
95.085500 57518.200000
97.064800 426183.300000
99.080400 195323.500000
105.070000 12495.200000
107.085500 17636.900000
109.064800 317773.500000
111.080400 47334.200000
119.085500 24987.100000
121.064700 19932.600000
121.101200 20150.300000
123.080400 57536.300000
129.070100 3153.900000
131.085400 15630.300000
133.101100 23827.700000
135.080400 5376.300000
135.116800 18285.900000
137.096100 12757.100000
143.085700 20319.400000
145.101100 79421.800000
147.080500 6994.200000
147.116800 50396.600000
149.096000 13876.700000
149.132600 12396.900000
151.111800 6371.600000
155.085600 9594.200000
157.101100 22801.200000
159.116800 53783.900000
161.096100 16812.700000
161.132300 24350.700000
163.111600 39324.500000
163.147900 15882.800000
169.101200 22888.800000
171.116800 83321.400000
173.096000 11263.100000
173.132500 56300.400000
175.111600 25231.500000
175.148100 89350.400000
177.127300 34794.000000
181.101200 4278.500000
183.116800 23372.800000
185.132400 39324.400000
187.111600 15846.800000
187.148200 57903.400000
189.127200 22267.400000
189.163400 18468.100000
191.143200 10243.700000
195.116900 12860.000000
197.132600 36085.400000
199.111600 4897.000000
199.148000 36988.300000
201.127300 13997.700000
201.164200 6166.900000
203.142800 20251.000000
205.158700 66952.900000
207.116800 6669.000000
209.132300 11954.400000
211.148100 49683.700000
213.127700 17412.500000
213.163700 71395.900000
215.142900 12177.700000
217.158600 23473.000000
221.132600 9320.100000
223.148300 9094.400000
225.127400 6361.800000
225.163700 14707.900000
227.143200 8381.900000
227.179200 2820.400000
228.076500 12845.600000
229.158800 20088.800000
231.174400 36231.400000
235.148400 10087.400000
237.163600 35290.800000
239.143000 13266.200000
241.158500 6662.300000
243.175100 5523.700000
249.164200 4686.300000
251.179700 26622.400000
252.187500 21830.100000
253.195000 247468.600000
255.174200 34195.200000
269.189900 94286.600000
270.198200 31093.700000
271.205600 526617.200000
277.195100 38466.100000
295.205600 167151.600000
313.216200 328098.600000
387.289000 3825.300000

>ms2
53.002200 3317.600000
55.017800 5323.800000
55.054200 10020.500000
59.049000 3758.600000
67.054200 17020.700000
69.069800 11147.800000
71.085500 159369.200000
79.054200 37153.400000
81.069800 53305.600000
83.049100 76338.900000
83.085500 6475.600000
85.064800 5919.500000
91.054200 14177.800000
93.069900 40982.200000
95.049200 5996.000000
95.085500 71155.100000
97.064800 560325.300000
99.080500 71750.500000
105.069800 43416.800000
107.049100 6281.100000
107.085500 39458.900000
109.064800 487588.900000
111.080500 38481.100000
117.070000 12641.200000
119.085500 47458.400000
121.064800 30948.400000
121.101200 30455.500000
123.080400 98766.300000
129.070000 11012.800000
131.085500 42054.100000
133.064500 2906.400000
133.101200 46165.600000
135.080300 9779.200000
135.116800 18882.300000
137.096300 10732.100000
141.069800 4008.500000
143.085600 43271.700000
145.101200 116896.400000
147.080300 11152.200000
147.116800 80457.900000
149.096100 15202.300000
149.132700 10871.000000
151.111700 3144.400000
155.085600 16630.400000
156.092800 3888.700000
157.101200 52545.800000
159.116800 79556.100000
160.124500 7413.800000
161.095900 16578.500000
161.132500 40404.000000
163.111700 39899.700000
163.148200 15772.700000
167.085700 2550.500000
169.101200 35980.000000
170.108700 2852.000000
171.116800 82659.600000
173.095900 9228.400000
173.132600 76371.800000
175.111700 20720.400000
175.148200 104797.000000
177.127300 29026.500000
181.101000 8428.200000
182.108900 2415.900000
183.116800 38447.400000
184.124700 3766.800000
185.132600 33924.100000
187.111400 7875.700000
187.148100 42316.900000
189.127700 11316.500000
189.163700 9516.500000
195.117000 20049.500000
196.124200 4651.700000
197.132500 44967.700000
198.139800 2919.000000
199.111600 3502.500000
199.148000 29936.100000
201.127100 8488.800000
201.163800 5375.300000
203.142900 5356.300000
205.158700 10236.700000
207.116400 4570.900000
209.132600 11732.100000
211.148100 47285.800000
212.155400 5049.700000
213.127500 10318.500000
213.163800 53643.900000
215.143100 5172.400000
217.158800 3382.000000
221.132600 6761.800000
223.147800 7693.700000
225.127400 3628.200000
225.164300 10534.200000
227.143100 3181.100000
227.179400 6983.800000
228.077000 15651.700000
229.158300 7769.200000
235.147500 9506.400000
237.163800 24221.700000
239.142900 7571.200000
241.158200 6868.500000
243.174400 3332.600000
249.163900 2990.600000
251.179000 20061.900000
252.187100 20833.700000
253.195100 77038.100000
255.173900 17926.300000
269.189900 17143.100000
270.197800 13616.100000
271.205600 78228.600000
277.194800 8292.600000
295.205100 19705.000000
313.215400 9370.000000

>ms2
53.002300 7102.800000
53.038700 5455.100000
55.017900 8579.800000
55.054300 13022.200000
57.033400 1994.100000
59.049300 1868.600000
67.054200 32833.600000
69.033500 2380.200000
69.069900 20553.800000
71.085500 63998.000000
77.038700 1998.900000
79.054200 63192.900000
81.069900 81393.900000
83.049200 48324.300000
83.085700 4231.300000
85.064900 2290.600000
91.054300 41657.400000
93.070000 63347.200000
95.049200 13293.500000
95.085600 57829.300000
97.064900 379604.800000
99.080300 9711.100000
105.070000 75705.900000
107.049200 7226.800000
107.085600 36368.500000
109.064900 332797.600000
111.080400 19836.800000
117.069800 23539.900000
119.085600 67073.100000
121.064800 20827.800000
121.101200 17276.700000
123.080500 72277.400000
128.062100 7663.400000
129.069900 18907.200000
130.077700 6217.500000
131.085600 46361.600000
133.065000 4841.300000
133.101200 37403.900000
135.080600 3276.900000
135.116700 10757.900000
137.096200 4827.600000
141.069900 7385.700000
142.077900 8396.200000
143.085700 40713.400000
144.093400 4629.200000
145.101300 89676.400000
147.080800 7390.300000
147.116900 64956.900000
149.096300 7795.800000
149.132800 3798.400000
154.077600 2184.400000
155.085600 17156.700000
156.093400 11364.900000
157.101200 33650.500000
158.109300 4868.400000
159.080600 3485.400000
159.116900 41034.800000
160.125100 3324.000000
161.096000 7113.700000
161.132700 15777.200000
163.111800 17157.300000
163.148000 5363.100000
167.085900 6367.300000
168.093600 6742.900000
169.101200 31958.600000
170.109100 5076.900000
171.116900 31249.600000
173.096400 3545.800000
173.132500 23355.800000
175.112200 6228.300000
175.148300 28240.400000
177.128100 5136.000000
180.093600 2367.200000
181.101300 8231.300000
182.109200 5281.300000
183.116900 20104.000000
184.124600 8237.400000
185.132700 17307.800000
187.112200 2165.400000
187.148500 9335.600000
193.101200 3555.800000
194.109600 2174.800000
195.117000 11885.500000
196.124900 3886.500000
197.132700 22307.900000
198.140300 3041.500000
199.148200 9972.300000
205.102100 2366.500000
209.132700 6703.800000
211.148600 17577.200000
212.155800 2406.400000
213.163700 16744.600000
215.142700 3359.700000
223.148100 6868.500000
225.164100 4640.100000
228.076300 5483.700000
237.164000 14391.900000
251.179600 2820.500000
252.187400 6069.300000
253.195300 10646.200000
255.174500 6184.500000
271.206300 2382.200000

>ms2
53.002200 13823.100000
53.038500 12245.000000
55.017900 19066.100000
55.054200 31555.200000
57.033500 3785.600000
57.069800 3404.500000
65.038600 9089.600000
67.054200 66103.300000
69.033400 4893.100000
69.069800 30930.300000
71.085500 22058.400000
79.054200 138347.900000
81.069900 125728.100000
83.049200 51588.900000
83.085500 2927.900000
91.054300 105250.400000
93.069900 77897.400000
94.041600 2923.000000
95.049200 26499.500000
95.085600 61383.800000
97.064900 347469.300000
103.054300 5965.700000
105.069900 148259.800000
107.049100 8325.200000
107.085600 28111.900000
108.057100 2219.500000
109.064800 257353.500000
111.080400 11310.800000
115.054100 11974.100000
116.062100 2803.300000
117.069900 44335.300000
119.085600 82620.800000
121.064900 25101.300000
121.101300 9403.100000
123.080400 59031.100000
128.062100 20074.800000
129.069900 37000.900000
130.077800 13308.100000
131.085600 67892.500000
133.065200 3291.900000
133.101200 36647.200000
135.080700 2814.300000
135.116900 4478.900000
137.096200 3323.100000
141.070000 19413.700000
142.077900 26708.900000
143.085600 48515.400000
144.093400 11320.800000
145.101200 69140.500000
147.080700 4463.700000
147.116900 41816.500000
148.088400 4969.800000
149.096300 8341.900000
153.070000 6097.600000
154.077900 8031.000000
155.085700 25130.900000
156.093300 18137.700000
157.101300 25220.700000
158.108900 3833.100000
159.081000 2907.500000
159.117000 25315.900000
160.124800 2097.200000
161.096500 2828.800000
161.132600 6046.900000
163.111900 8675.500000
165.070000 7865.600000
166.078100 4304.100000
167.085500 17020.500000
168.093500 6240.800000
169.101200 34464.900000
170.109300 5852.900000
171.117000 22298.600000
173.132800 11977.300000
175.111800 3395.200000
175.148200 6927.100000
177.127100 3449.600000
179.085700 5187.900000
180.093600 5577.800000
181.101400 13637.600000
182.109400 8421.200000
183.117200 14457.400000
184.125200 4635.100000
185.132400 11608.500000
192.093600 2298.100000
193.101600 4788.900000
195.117100 8572.900000
196.124900 4290.600000
197.132700 9676.200000
199.148700 5136.600000
207.116700 3776.500000
209.133000 2520.000000
211.148400 5497.200000
213.127400 2288.300000
213.163900 5102.900000
223.148700 4111.200000
237.164200 9225.800000

>ms2
53.002200 19849.500000
53.038600 35600.200000
55.017900 32356.100000
55.054200 56007.800000
57.033500 5054.200000
57.070000 3421.100000
59.049100 5973.200000
65.038600 21788.300000
67.054200 98374.700000
69.033400 8909.000000
69.069900 36770.600000
71.085500 8577.900000
77.038500 5007.700000
79.054200 226858.500000
81.069900 150483.700000
83.049200 52695.300000
91.054300 201605.400000
93.069900 73489.200000
94.041300 6436.200000
95.049200 57037.600000
95.085600 53027.400000
97.064800 277069.200000
103.054100 15667.900000
105.069900 194512.300000
107.049200 14735.400000
107.085500 20171.100000
108.057200 5355.100000
109.064900 175702.900000
111.080500 6647.100000
115.054300 27584.700000
116.062100 14419.000000
117.069900 56689.600000
119.085600 76471.200000
121.064900 22571.600000
121.101200 4719.500000
123.080400 43277.700000
128.062100 54518.900000
129.069900 63201.500000
130.077800 25453.000000
131.085600 59591.300000
133.064900 4923.000000
133.101200 18361.300000
141.069800 35342.300000
142.077700 36950.800000
143.085600 46094.200000
144.093400 10075.400000
145.101200 44782.200000
147.080400 3701.000000
147.117000 19929.100000
148.088500 4857.000000
149.096100 3813.300000
153.069900 18133.400000
154.077800 14770.200000
155.085700 40058.400000
156.093500 15068.500000
157.101200 17728.600000
158.109200 2949.000000
159.117000 9908.600000
163.111700 2869.600000
165.069900 16387.100000
166.078000 8547.800000
167.085400 21497.600000
168.093500 7449.500000
169.101200 25334.500000
170.109500 3534.100000
171.117100 11594.000000
173.132800 2490.100000
179.085600 9728.900000
180.093700 4012.500000
181.101500 14654.200000
182.109100 5529.800000
183.117100 9783.600000
185.132700 7553.400000
192.092900 3102.000000
193.101700 4787.600000
194.109600 2589.200000
195.117100 7119.700000
196.124700 3483.500000
197.132800 5984.200000
205.102000 2574.000000
207.117100 3502.200000
223.147900 3336.500000
237.164100 5020.700000

