>compound LU93001190
>parentmass 271.1693
>ionization [M+H]+
>formula C18H22O2
>rt 1019.400000
>profile orbitrap
#smiles_iso CC[C@H](C1=CC=C(C=C1)O)[C@@H](CC)C2=CC=C(C=C2)O
#smiles_can CCC(C1=CC=C(C=C1)O)C(CC)C2=CC=C(C=C2)O
#inchikey PBBGSZCBWVPOOL-HDICACEKSA-N
#pubchem_id 192197
#mb_accession LU082601,LU082602,LU082603,LU082604,LU082605,LU082606

>ms2peaks
83.049500 7941.200000
95.012700 70687.400000
189.127600 13569.300000
197.096500 8334.300000
199.111800 39881.500000
253.158700 92683.300000
271.169200 6805455.000000

>ms2peaks
81.069900 7949.400000
83.049100 46359.100000
93.070000 9260.800000
95.012800 388881.900000
107.049200 13964.000000
107.085500 17303.200000
121.064700 11813.400000
133.064700 24909.800000
133.101100 7604.100000
135.080400 7957.700000
141.069800 6168.000000
143.085400 15285.100000
145.064900 5485.900000
145.101200 17913.200000
147.080400 15725.100000
149.096200 6936.000000
157.064900 24476.900000
159.080500 43976.700000
159.116900 7324.300000
161.095900 12673.400000
167.085700 6288.200000
169.101200 9353.500000
171.080400 11566.200000
171.116700 18534.200000
173.096400 11852.700000
179.085600 15468.000000
183.080400 18133.100000
183.116900 12373.600000
184.088100 5995.300000
185.096100 26931.700000
187.111600 17884.500000
189.127300 46017.000000
193.101100 15993.000000
195.116900 14215.300000
197.096200 72420.800000
197.132900 7220.000000
198.104100 13835.400000
199.111800 279058.900000
207.116800 10997.000000
209.132500 20116.200000
211.111700 57302.900000
211.148500 11856.400000
212.119600 6941.000000
213.127400 9886.000000
214.135500 13614.700000
215.143200 7005.300000
225.127400 49484.300000
225.163300 13000.300000
227.143000 69693.600000
235.148100 36400.100000
238.135000 10122.700000
243.174500 20661.200000
253.158700 549119.500000
271.169200 5410610.500000

>ms2peaks
55.017900 7951.200000
55.054300 19041.800000
57.033600 8579.500000
57.069800 3593.700000
67.054300 25642.200000
69.069800 15457.800000
71.049100 8427.600000
79.054300 26411.300000
81.069900 40616.200000
83.049200 145346.200000
85.064900 10974.300000
91.054300 29984.100000
93.069900 40735.200000
95.012800 687056.200000
97.064800 9196.800000
97.101300 2782.400000
105.069900 55328.200000
107.049200 100853.600000
107.085600 58402.100000
109.064800 24717.100000
109.101300 16586.800000
111.080500 6627.600000
115.054400 3894.400000
117.070000 20762.000000
119.085600 30026.800000
121.064800 54307.400000
121.101200 7775.400000
123.080700 11337.800000
125.095900 6054.500000
128.061800 4437.900000
129.069900 34127.100000
131.049200 7202.500000
131.085600 50461.200000
133.064800 127074.700000
133.101200 41588.500000
135.080500 34981.000000
141.069900 34759.800000
143.085600 60258.100000
144.057000 5239.900000
145.064800 31739.500000
145.101200 84142.500000
146.072100 2280.000000
146.109100 5588.400000
147.080500 48019.600000
147.116800 6552.900000
148.088300 22590.000000
149.096400 14917.600000
153.070100 5770.300000
154.077700 4345.200000
155.085600 46621.100000
157.064900 94693.100000
157.101300 29906.700000
158.072600 7055.000000
159.080600 173404.500000
159.116900 19317.800000
161.096100 32070.100000
162.104000 3517.700000
163.111600 3806.400000
165.069800 17599.400000
166.077800 14233.800000
167.085600 39734.800000
168.093300 5516.000000
169.101300 68033.300000
171.080500 39008.200000
171.116900 59733.100000
173.096300 33821.500000
175.111700 4110.400000
178.077700 9179.000000
179.085600 74885.600000
180.093400 9922.600000
181.101200 47490.000000
182.072500 2753.200000
182.108800 5003.200000
183.080500 41480.300000
183.117000 68032.000000
184.088400 30984.800000
185.096200 67449.500000
185.132300 9829.300000
186.104000 18285.800000
187.111800 49401.200000
189.127400 28414.500000
192.093300 8513.100000
193.101400 61387.400000
194.109000 9884.200000
195.117000 69836.000000
196.088400 8444.700000
196.124400 5477.400000
197.096200 166688.100000
197.132600 29334.000000
198.104000 80429.500000
199.111800 623996.800000
200.119600 46622.400000
201.127300 5173.200000
205.101600 14131.800000
206.108800 10915.400000
207.116900 42335.300000
209.096000 3848.100000
209.132600 62989.000000
210.104000 14593.100000
210.141400 3213.400000
211.111900 150011.800000
211.148300 45670.600000
212.119700 53873.300000
213.127400 33116.700000
214.135300 119057.400000
215.143400 23659.800000
218.109200 2490.700000
220.124800 29841.000000
223.111500 5046.800000
223.148100 11491.500000
224.119600 37452.100000
224.156300 4013.000000
225.127600 120368.700000
225.163700 25704.100000
227.143200 283301.000000
228.151200 16977.100000
229.158100 6305.500000
233.132800 6927.800000
235.148200 101776.100000
237.126700 4381.600000
238.135300 75546.800000
242.129600 14388.200000
243.174500 18227.500000
251.143400 6403.700000
253.158800 786937.100000
271.169300 1591570.000000

>ms2peaks
53.002300 3803.400000
53.038600 6057.700000
55.017800 23322.200000
55.054200 56516.300000
57.033500 14902.500000
65.038500 3512.700000
67.054200 46842.400000
69.033400 4523.900000
69.069900 18745.300000
71.049200 19661.600000
77.038500 3269.500000
79.054200 77756.300000
81.069900 69836.500000
83.049100 223062.800000
85.064700 10830.200000
91.054200 101408.600000
93.069900 64748.500000
95.012800 445848.000000
95.049100 25168.900000
97.064800 13189.800000
103.054200 15210.700000
105.069900 130528.400000
107.049100 250289.300000
107.085500 57500.800000
109.064900 39353.100000
109.101100 8264.600000
111.080500 6601.300000
115.054000 18954.400000
116.061900 3638.900000
117.069900 72173.300000
119.049400 2451.600000
119.085600 47090.700000
121.064800 65073.900000
121.101200 7938.900000
123.080400 9536.500000
127.054600 2380.600000
128.062000 27696.600000
129.069900 92163.900000
130.077700 13559.900000
131.049200 21554.600000
131.085500 111953.300000
132.056800 4243.100000
133.064800 180411.100000
133.101100 32247.900000
135.080400 70627.200000
141.069900 100631.500000
142.077600 26051.200000
143.085500 125098.300000
144.057000 29362.900000
144.093200 4789.900000
145.064800 68866.600000
145.101200 122610.200000
146.072600 10885.900000
146.109000 12174.900000
147.080400 54246.900000
147.116600 4830.800000
148.088300 29897.900000
149.096000 9509.300000
152.061900 7805.000000
153.069900 30998.500000
154.077600 21095.700000
155.085500 122527.500000
156.093400 21304.100000
157.064800 180920.000000
157.101200 55885.600000
158.072600 17953.400000
159.080400 183846.000000
159.116900 18883.800000
160.088200 3203.500000
161.096100 39038.800000
162.104100 4657.900000
165.069800 61268.400000
166.077800 58032.400000
167.085500 93110.800000
168.093200 33521.500000
169.064700 10189.900000
169.101200 112822.300000
170.073100 15263.400000
170.108900 9906.100000
171.080500 74168.200000
171.116800 50056.800000
172.088700 6140.700000
173.096200 34805.000000
174.103800 3379.900000
175.111600 4731.800000
178.077700 56846.300000
179.085500 122293.100000
180.093100 30180.900000
181.064700 7322.500000
181.101200 108261.300000
182.072500 12509.300000
182.109000 17478.600000
183.080400 68822.000000
183.116900 90235.100000
184.088200 56275.800000
185.096100 110787.100000
185.132300 12112.100000
186.103900 58907.900000
187.111800 39868.800000
188.119400 3678.200000
189.127400 6876.600000
191.085300 14124.200000
192.093400 29297.400000
193.101300 74648.300000
194.108800 19210.000000
195.080600 14250.000000
195.116900 72856.100000
196.088500 22434.600000
196.124400 13880.700000
197.096100 138847.500000
197.132500 25764.900000
198.104000 123342.800000
199.111700 528100.900000
200.119600 103535.500000
201.127300 5591.000000
205.101400 33649.100000
206.109400 18918.900000
207.116900 62569.200000
209.096000 18096.700000
209.132500 45947.300000
210.104100 27593.500000
210.139600 4818.700000
211.111700 97593.200000
211.148100 40511.600000
212.119600 65114.800000
213.127400 40708.200000
214.135200 151607.500000
215.143100 17965.000000
218.109300 6467.200000
219.116600 6247.400000
220.124700 39770.600000
221.132300 9214.900000
223.111900 19490.200000
223.147900 12554.700000
224.119400 41609.700000
224.155200 2992.600000
225.127400 92147.900000
225.163800 9227.800000
227.143000 204777.100000
228.150500 17882.700000
233.132500 5875.200000
235.148100 73608.800000
237.127200 18254.400000
238.135100 94533.200000
242.130200 5334.900000
243.173900 4156.900000
251.142700 5351.600000
253.158600 261363.100000
271.169200 174495.800000

>ms2peaks
53.002200 6845.800000
53.038600 20221.100000
55.017900 40381.000000
55.054300 83495.900000
57.033500 16550.900000
57.070100 3900.800000
65.038600 12119.700000
67.054200 66256.200000
69.033500 4041.300000
69.069800 12745.700000
71.049100 18360.400000
77.038700 6571.600000
79.054200 131063.500000
81.033500 4498.200000
81.069900 63124.900000
83.049100 228260.500000
85.064900 4447.200000
91.054300 211916.900000
92.062000 2681.400000
93.069900 67479.100000
94.041500 2579.000000
95.012800 552456.800000
95.049200 61810.400000
97.064900 8400.300000
103.054200 36166.600000
104.062200 6574.500000
105.069900 215851.300000
107.049200 311787.700000
107.085500 35516.000000
108.057300 3441.400000
109.064900 39781.100000
109.101300 3630.400000
115.054300 58569.200000
116.062100 20817.900000
117.069900 112022.900000
118.077600 5576.600000
119.049400 5106.100000
119.085600 49466.400000
121.064800 35256.000000
123.080400 6943.300000
128.062000 101932.200000
129.069900 165720.900000
130.077900 34625.400000
131.049200 39961.500000
131.085600 113420.700000
132.057200 13065.800000
133.064800 155406.000000
133.101300 17572.900000
135.080500 55106.700000
141.069900 199876.300000
142.077700 65840.300000
143.085600 130497.000000
144.057000 56470.600000
144.093400 9765.600000
145.064800 77722.000000
145.101200 79788.300000
146.072700 21281.200000
146.108900 6090.400000
147.080500 41301.800000
147.117000 3442.800000
148.088300 24082.800000
149.096200 4138.000000
152.062200 32894.700000
153.069900 79170.100000
154.077700 58725.700000
155.085600 174234.900000
156.093500 38566.000000
157.064900 198522.400000
157.101200 48285.500000
158.072700 33434.200000
159.080500 119042.300000
160.088300 4804.900000
161.096200 24191.000000
162.104400 3618.200000
165.069900 156747.800000
166.077800 114413.800000
167.085600 168890.800000
168.093400 53178.500000
169.064900 21230.600000
169.101200 108010.100000
170.072600 18922.500000
170.109100 10834.600000
171.080400 75271.100000
171.116900 29857.600000
172.088200 11367.300000
173.096100 20557.000000
174.104200 2725.700000
177.070100 3160.200000
178.077700 103337.700000
179.085500 139819.400000
180.093400 44509.600000
181.064800 19578.300000
181.101200 121212.400000
182.072800 23542.700000
182.109300 23943.900000
183.080500 85515.600000
183.116900 70133.900000
184.088400 57433.500000
185.096100 125926.300000
185.132800 7750.300000
186.103900 59658.100000
187.111600 14927.800000
188.119200 2688.600000
191.085400 32784.800000
192.093400 43765.200000
193.101200 52960.000000
194.072800 3708.000000
194.109200 23107.100000
195.080600 26322.400000
195.116900 57108.100000
196.088200 16522.000000
196.124700 10432.600000
197.096100 107651.000000
197.132700 10553.000000
198.104000 85102.500000
199.111800 357258.500000
200.119600 86747.300000
201.127800 3311.500000
203.085900 5051.200000
204.093200 5154.200000
205.101300 48220.800000
206.109100 14605.200000
207.116900 40309.400000
208.087900 4757.000000
209.096000 23410.200000
209.132600 21583.400000
210.103800 20611.700000
210.140600 3336.200000
211.111800 36889.000000
211.148600 10904.300000
212.119600 33432.400000
213.127500 33387.600000
214.135200 55400.700000
215.143300 7476.400000
218.109100 6153.300000
219.117000 16723.900000
220.124700 17088.300000
221.132800 6356.700000
223.111900 30228.600000
223.147600 3179.400000
224.119600 15329.300000
225.127200 23993.900000
227.143100 45490.200000
228.151000 6052.900000
233.132600 3075.900000
235.148100 20599.100000
237.127300 32479.700000
238.135200 37587.300000
239.142300 3414.100000
251.143600 2691.100000
253.158600 31442.500000
271.170100 10064.600000

>ms2peaks
53.002300 9251.800000
53.038600 44910.800000
55.017900 59893.000000
55.054300 90068.400000
57.033500 15866.900000
57.069900 2899.300000
65.038600 23668.600000
67.054200 64750.700000
69.033600 9860.600000
69.069800 9131.900000
71.049100 15630.600000
77.038600 9036.900000
79.054200 189653.400000
81.033500 10334.900000
81.069900 51572.900000
83.049200 211485.400000
91.054300 325360.600000
92.062000 4547.400000
93.070000 46534.400000
94.041400 8386.100000
95.012800 322101.000000
95.049200 109271.900000
97.064800 4534.500000
103.054300 58595.300000
104.062200 7839.300000
105.069900 244412.600000
107.049200 311109.400000
107.085500 17245.600000
108.057000 4339.400000
109.064800 37597.600000
115.054300 159041.900000
116.062000 42146.300000
117.069900 147902.100000
118.077700 7413.300000
119.085600 42170.000000
121.064700 25840.000000
123.080500 3233.200000
127.054300 8338.700000
128.062100 242936.400000
129.069900 263892.800000
130.077800 42402.800000
131.049200 50910.100000
131.085600 96361.300000
132.057100 20934.800000
133.064800 112526.800000
135.080500 29021.000000
141.069900 297418.000000
142.077800 98435.500000
143.085600 115823.400000
144.057100 76348.000000
144.093400 6406.500000
145.064800 79699.200000
145.101300 26856.700000
146.072700 16875.600000
147.080400 23569.200000
148.088200 10682.400000
152.062000 72314.500000
153.069900 165210.800000
154.077700 89606.100000
155.085600 209000.500000
156.093400 34565.000000
157.064900 178434.500000
157.101200 45390.800000
158.072600 30698.100000
159.080500 63329.500000
161.096300 10549.300000
165.070000 298727.400000
166.077800 160428.500000
167.085600 231736.200000
168.093400 45829.200000
169.064900 45577.400000
169.101200 89921.100000
170.072500 23687.700000
170.108800 11510.600000
171.080500 61364.900000
171.116900 16706.700000
172.088600 11439.300000
173.096300 11320.400000
177.070100 9302.200000
178.077700 169745.300000
179.085600 171259.300000
180.093400 52493.300000
181.064900 32870.800000
181.101200 125385.500000
182.072700 27516.900000
182.108700 11832.200000
183.080600 78211.900000
183.116700 25051.900000
184.088300 43941.200000
185.096100 97353.500000
186.103900 22413.000000
187.111900 4671.400000
191.085500 55200.400000
192.093500 49373.700000
193.101300 51701.000000
194.072700 10250.800000
194.109400 7925.700000
195.080600 34218.900000
195.116900 29337.500000
196.088600 17820.900000
196.124700 4852.600000
197.096200 74349.700000
197.132400 5152.500000
198.103900 31517.200000
199.111800 201895.200000
200.119700 33777.600000
203.085900 15530.400000
204.093500 9262.500000
205.101200 36698.200000
206.108900 6549.900000
207.116700 23316.700000
208.088400 8352.100000
209.096300 26993.200000
209.132200 11879.500000
210.103800 6814.400000
211.111600 14618.000000
212.119900 6924.900000
213.127400 17792.000000
214.135300 8861.200000
218.109200 3487.000000
219.116700 14052.400000
220.124100 4906.300000
223.111800 18702.900000
223.148400 2678.200000
224.119900 3832.100000
225.127700 6261.400000
227.142900 6900.300000
235.148000 2965.300000
237.127100 16099.100000
238.135300 11030.700000
239.143800 2672.600000

