>compound LU93677007
>parentmass 494.1511
>ionization [M+H]+
>formula C23H28ClN3O5S
>rt 1071.960000
>profile orbitrap
#smiles_iso COC1=C(C=C(C=C1)Cl)C(=O)NCCC2=CC=C(C=C2)S(=O)(=O)NC(=O)NC3CCCCC3
#smiles_can COC1=C(C=C(C=C1)Cl)C(=O)NCCC2=CC=C(C=C2)S(=O)(=O)NC(=O)NC3CCCCC3
#inchikey ZNNLBTZKUZBEKO-UHFFFAOYSA-N
#pubchem_id 3488
#mb_accession LU121101,LU121102,LU121103,LU121104,LU121105,LU121106

>ms2peaks
100.112100 110786.300000
169.005000 104566.000000
304.073600 12282.600000
352.040300 8347.300000
369.067400 2853460.500000
370.050900 20428.200000
395.046800 196690.000000

>ms2peaks
55.054200 3682.300000
83.085500 13250.700000
100.112100 73942.300000
105.070000 10732.400000
107.049100 10553.600000
125.987100 4568.000000
131.060400 4603.900000
134.096500 15471.900000
154.989700 3874.400000
167.016300 55276.500000
168.021300 18367.500000
169.005200 1993321.200000
198.031800 38391.300000
209.096900 5199.500000
210.031700 4849.200000
210.104000 11610.000000
245.998700 19870.400000
259.052200 85330.400000
262.062900 5982.400000
288.078700 94638.800000
304.073700 594399.500000
352.040800 39918.400000
369.067300 499430.700000
370.051500 41499.400000
395.046800 35624.400000

>ms2peaks
53.038600 3968.300000
55.054300 11681.900000
77.038600 3683.000000
83.085500 29464.200000
91.054200 6334.200000
95.049300 12938.700000
100.112100 36780.600000
103.054300 32150.500000
105.045000 5127.400000
105.069900 65046.200000
107.049200 37746.000000
113.015200 7852.800000
117.069600 3342.500000
119.049200 46586.300000
120.057000 6377.700000
120.080700 5665.800000
121.028400 5057.500000
121.064800 32864.300000
125.986800 8872.600000
131.060400 70203.000000
134.036300 5638.000000
134.096300 30136.000000
138.023000 6800.600000
139.005600 3934.900000
139.030700 6765.500000
141.010100 9266.900000
154.989300 7229.900000
166.026000 16977.700000
167.016200 69741.000000
168.021300 21744.600000
169.005100 2967712.500000
171.992400 4411.000000
194.072800 5180.200000
195.080500 9874.500000
196.088400 7290.400000
198.031700 65881.100000
209.096400 9366.900000
210.031600 4780.400000
210.103900 25993.200000
217.042100 4605.000000
223.075400 3564.100000
245.036200 6389.800000
245.998800 3524.900000
259.052000 142662.200000
262.062800 56716.400000
288.078700 33248.500000
304.073600 84594.600000

>ms2peaks
51.022900 4792.000000
53.038600 16785.900000
55.054200 33808.100000
75.022800 5118.900000
77.038500 10278.000000
79.054200 5983.800000
83.085500 31213.100000
86.999600 11760.600000
91.054200 64914.600000
94.041300 3508.500000
95.049100 70532.100000
100.112000 20503.400000
103.054200 143894.900000
104.062000 8356.500000
105.044800 23822.500000
105.069900 70010.900000
107.049100 50900.300000
110.999600 5903.000000
111.044000 6400.100000
113.015200 64674.200000
117.069800 2991.700000
118.065000 3833.300000
119.049100 103909.200000
120.057000 8042.700000
120.080700 10380.200000
121.028300 3200.000000
121.064800 49576.200000
123.007700 3577.000000
125.986600 79784.000000
129.010200 41087.100000
131.060400 89519.400000
134.036300 7523.200000
134.096500 6070.900000
138.022900 12125.200000
139.005700 82704.700000
139.031100 8873.400000
140.002500 3183.000000
141.010100 40200.600000
153.981700 4248.900000
154.989300 7894.000000
166.025800 27038.800000
167.016100 11747.300000
167.086000 11052.100000
167.997400 6192.300000
168.021100 9711.300000
168.093500 8850.200000
169.005000 2979923.000000
171.992100 47082.000000
179.085600 4028.600000
194.072700 4277.300000
195.080500 20663.600000
196.088300 8905.800000
198.032000 4431.500000
208.088100 10230.600000
217.041700 26034.700000
223.075500 7681.400000
245.036800 6679.000000
259.051700 29849.100000
262.062800 19316.100000

>ms2peaks
50.015100 5813.100000
51.023000 10430.200000
53.002200 2854.000000
53.038600 56030.000000
55.017900 5886.700000
55.054300 46803.100000
63.022800 5145.300000
65.038600 16402.700000
74.015200 3114.800000
75.022900 18548.700000
77.038600 13807.400000
78.046400 9149.400000
79.017700 5583.800000
79.054200 10331.400000
81.033400 9202.900000
83.085500 39325.800000
86.999700 45277.700000
91.054300 174576.900000
93.033400 4720.600000
94.041500 11230.700000
95.049200 175962.300000
98.036300 3512.300000
100.112100 4019.200000
102.046300 8184.900000
103.054300 241223.300000
104.062000 16392.000000
105.044800 67968.000000
105.070000 56503.900000
107.049100 44281.100000
110.999400 18847.400000
111.044100 13417.200000
113.015300 133202.800000
114.994700 4056.500000
118.065100 3504.800000
119.049200 89707.700000
119.073100 4555.200000
120.057100 6915.600000
120.080700 12660.100000
121.064800 24996.600000
123.007600 3571.800000
125.986700 387022.300000
128.002200 6438.500000
129.010200 149785.500000
131.060500 36105.800000
134.036300 8228.700000
138.023200 15855.800000
138.995500 35437.300000
139.005800 284949.000000
140.002500 2865.700000
141.010200 64986.700000
152.062200 6967.500000
153.070000 5424.200000
153.981600 9096.900000
154.989800 6125.600000
165.070000 27971.900000
166.026000 20799.300000
166.077700 16478.700000
166.990100 2940.100000
167.085800 19531.400000
167.997700 3424.100000
168.093400 4886.100000
169.005100 1929521.200000
171.992200 152530.600000
178.077500 4313.700000
179.085600 5093.700000
181.064600 14765.300000
186.007900 4830.400000
194.072500 3733.200000
208.087900 3911.300000
217.041800 16889.700000
259.052400 2756.000000

>ms2peaks
50.015200 6688.300000
51.022900 17490.000000
53.002200 8565.800000
53.038600 73745.700000
55.017800 4558.900000
55.054300 43033.900000
63.022900 16373.900000
65.038600 36890.000000
74.015000 4559.300000
75.022900 55345.300000
77.038500 25203.900000
78.046400 22585.200000
79.017800 13043.700000
79.054200 14756.300000
81.033500 19390.300000
83.085600 19201.500000
86.999700 61422.800000
91.054300 217951.600000
93.033600 6066.100000
94.041300 14859.700000
95.049200 239358.700000
98.036100 2903.300000
100.112000 2764.200000
102.046400 15358.300000
103.054300 176529.200000
104.062100 19871.600000
105.044800 89169.700000
105.070000 34467.000000
107.049200 26714.000000
110.999700 38864.100000
111.044100 28207.200000
113.015300 81371.400000
114.994600 6790.200000
118.065100 3350.500000
119.049300 25406.400000
119.073100 2621.700000
120.056900 5039.800000
120.080800 7898.800000
121.064700 9242.800000
125.986800 733654.600000
128.002500 6729.900000
129.010200 191944.800000
131.060400 7716.000000
138.023100 10273.400000
138.995500 47346.700000
139.005800 361632.700000
140.002700 2836.800000
141.010200 31437.000000
152.062100 10750.000000
153.069900 8119.300000
153.981700 5144.800000
154.989500 6656.300000
165.069900 35257.200000
166.026000 8997.900000
166.077800 9890.200000
169.005200 647760.700000
171.992300 164918.300000
181.064600 13486.900000
186.008000 4460.300000
194.072600 2727.700000
217.041600 4832.500000

