>compound LU93021087
>parentmass 437.2334
>ionization [M+H]+
>formula C24H33FO6
>rt 1029.900000
>profile orbitrap
#smiles_iso C[C@]12CCC(=O)C=C1[C@H](C[C@@H]3[C@@H]2[C@H](C[C@]4([C@H]3C[C@@H]5[C@]4(OC(O5)(C)C)C(=O)CO)C)O)F
#smiles_can CC1(OC2CC3C4CC(C5=CC(=O)CCC5(C4C(CC3(C2(O1)C(=O)CO)C)O)C)F)C
#inchikey POPFMWWJOGLOIF-XWCQMRHXSA-N
#pubchem_id 15209
#mb_accession LU026902,LU026903,LU026905

>ms2peaks
59.049200 12936.300000
69.033600 2525.100000
81.069900 3123.400000
83.049200 5739.400000
93.070000 3024.400000
95.085700 3438.000000
97.064800 7168.300000
99.044000 12947.000000
101.023300 6424.800000
105.070000 9413.100000
107.085600 3926.800000
109.064800 5120.200000
115.039100 6580.100000
119.085700 5914.900000
121.064900 23722.500000
123.080600 4263.900000
127.055400 3658.000000
131.085600 5856.200000
133.064900 4654.400000
133.101300 3466.700000
135.080400 9019.700000
137.059600 2665.500000
139.055600 10913.100000
139.075300 2696.300000
141.070800 3669.000000
143.085600 10114.700000
145.065000 3737.000000
145.101400 7766.600000
147.080300 9680.600000
147.116800 3786.400000
149.095800 2837.200000
151.091800 2636.300000
155.085800 6880.200000
157.101500 10540.700000
159.080500 8821.300000
159.117100 3809.800000
161.096300 9357.100000
163.075400 2473.600000
169.101300 11695.000000
171.080700 12809.300000
171.117100 4414.200000
173.096200 13963.300000
181.101900 19496.500000
183.080900 2814.200000
183.117000 6213.400000
185.096300 10393.500000
187.112200 6885.600000
189.091100 1941.900000
193.101400 4665.700000
195.116700 5976.700000
197.096100 6073.900000
197.132400 3318.500000
199.111800 6048.600000
207.117200 14950.000000
209.097100 9559.500000
209.132700 6498.800000
211.112200 7785.500000
213.127500 5335.300000
219.118000 4760.700000
221.096500 2420.900000
221.132300 6552.800000
223.111700 6772.000000
225.127400 28214.700000
227.143400 12518.000000
233.132600 2942.900000
235.148800 7853.400000
237.127600 11764.100000
239.143500 11756.000000
241.159100 5512.100000
245.133600 16618.300000
247.149500 19487.700000
249.163600 3317.900000
251.143500 4925.900000
253.159100 6965.200000
257.134200 5066.500000
261.165400 8432.900000
263.143500 15642.400000
265.158900 26750.900000
267.174200 5630.900000
271.150700 3420.700000
277.159000 27014.900000
281.154100 8929.700000
283.150200 5079.900000
287.143400 3861.900000
303.175800 29187.700000
315.176100 20601.100000
323.164400 34893.800000

>ms2peaks
55.017900 6516.200000
59.049200 15445.900000
67.054300 2547.800000
69.033500 4529.000000
71.049200 4562.700000
79.054300 5187.700000
81.069900 11144.100000
83.049200 9669.900000
91.054300 7450.500000
93.070000 15336.500000
95.049300 4334.300000
95.085600 5114.200000
97.065000 10481.300000
99.044100 8621.900000
101.023400 5571.200000
105.070000 24229.300000
107.049200 6271.900000
107.085500 7493.500000
109.064900 10648.500000
115.039200 2356.300000
117.069900 7251.600000
119.085700 11949.700000
121.064900 33086.100000
123.080600 7317.500000
127.055200 4454.800000
129.069700 3493.800000
131.085600 15110.000000
133.064800 9264.100000
133.101400 8525.100000
135.080600 10917.200000
137.060200 3958.700000
139.055600 21090.500000
139.075300 2347.800000
141.070900 13077.900000
142.077600 3384.800000
143.085500 26744.600000
145.065100 5646.100000
145.101300 16876.000000
147.080600 13771.900000
147.117000 8182.100000
149.095800 4777.700000
151.092100 3720.600000
154.078000 2249.400000
155.085500 13703.900000
157.064600 3516.300000
157.101400 16764.000000
159.080600 14381.400000
159.116900 3495.000000
161.096500 8881.100000
163.075700 3320.300000
163.091500 2403.500000
169.101300 14318.700000
171.080500 14582.200000
171.117000 8688.300000
173.096200 18581.300000
179.085800 4635.600000
181.102100 35197.400000
183.080800 3054.200000
183.117200 10962.100000
185.096000 10594.000000
187.112000 6522.800000
189.091500 3438.200000
192.093800 2567.500000
193.101600 7772.100000
195.080600 2368.300000
195.117100 15176.800000
197.096400 5404.000000
197.132700 8103.200000
199.112100 5790.900000
207.117300 19480.400000
209.096800 9331.900000
209.132700 8341.800000
211.111800 12269.200000
213.127900 4585.400000
221.096600 4424.800000
221.132900 7393.500000
223.112300 6388.300000
225.127600 14522.400000
227.142900 8136.900000
233.132600 4708.200000
235.148900 5918.600000
237.127800 7802.800000
239.143100 12975.400000
241.158800 2813.200000
245.133500 7842.400000
247.149200 10216.800000
249.164200 1961.900000
251.143600 3977.700000
253.158600 4139.400000
257.134200 2618.400000
261.165000 5776.600000
263.142900 5783.100000
265.158900 8116.100000
267.173800 2193.000000
271.149100 2375.000000
277.159200 5411.300000
281.153200 2248.900000
283.150300 2424.700000
287.141800 2977.800000
303.175900 4749.400000
315.175900 3355.300000
323.164500 3677.400000

>ms2peaks
55.017900 15038.400000
59.049100 11482.300000
67.054200 9738.300000
69.033600 7502.200000
71.049200 4072.300000
79.054300 25037.800000
81.069900 14000.500000
83.049100 9804.300000
91.054300 47547.600000
93.070000 20593.100000
95.049200 18155.100000
95.085600 2905.200000
97.064800 12242.900000
99.044300 3367.400000
105.070000 49596.900000
107.049400 7833.500000
107.085700 4126.700000
109.065000 7856.200000
117.070000 19137.800000
119.085700 17395.500000
121.064900 17772.800000
123.080700 3277.600000
127.055500 5131.100000
129.069900 22309.700000
131.085500 22752.100000
133.065000 4578.700000
133.101400 5564.800000
135.081000 2687.200000
139.055500 16150.200000
142.078000 15218.200000
143.085800 21449.000000
145.065200 8911.900000
145.101300 10149.100000
147.080800 5284.000000
154.078000 7468.800000
155.085500 17971.500000
157.064800 4148.700000
157.101000 9924.100000
159.080500 8144.100000
161.096300 4250.700000
163.092900 2202.100000
169.100900 9728.300000
171.080600 8457.500000
179.085800 14627.000000
183.117200 5757.900000
185.095900 1897.300000
192.093700 11679.300000
193.101400 10817.100000
195.080900 4407.500000
195.117300 2462.000000
197.096100 4092.700000
219.117400 2939.500000
221.096100 2734.200000

