>compound LU93943407
>parentmass 325.1911
>ionization [M+H]+
>formula C20H24N2O2
>rt 685.200000
>profile orbitrap
#smiles_iso COC1=CC2=C(C=CN=C2C=C1)[C@H]([C@@H]3C[C@@H]4CCN3C[C@@H]4C=C)O
#smiles_can COC1=CC2=C(C=CN=C2C=C1)C(C3CC4CCN3CC4C=C)O
#inchikey LOUPRKONTZGTKE-WZBLMQSHSA-N
#pubchem_id 3034034
#mb_accession LU027001,LU027002,LU027003,LU027004,LU027005,LU027006

>ms2peaks
307.179400 45779.600000
325.190900 28211310.000000

>ms2peaks
58.065200 25870.000000
67.054200 47402.000000
79.054200 55207.200000
81.069900 223957.600000
82.065200 66168.800000
93.069900 22025.600000
96.080700 40438.400000
107.085300 19388.200000
108.080800 41563.200000
110.096500 362427.600000
122.096400 54266.100000
124.112100 65120.300000
134.096400 90502.600000
135.104100 19584.200000
136.112100 35964.200000
160.075700 411892.000000
162.091200 30979.200000
166.122700 165577.700000
172.075600 118413.400000
173.083400 45238.400000
174.091500 71322.900000
184.075800 635436.900000
185.083600 25496.200000
186.091400 138523.500000
196.075900 24431.900000
198.091400 312967.500000
199.086500 29991.800000
202.086500 35709.400000
210.091800 40448.600000
213.102000 20282.300000
224.106900 34375.700000
226.122400 63564.600000
227.117600 41881.100000
239.118000 28540.600000
250.123500 24427.200000
251.118800 28086.900000
252.125100 22787.200000
252.138500 29017.500000
253.133600 507080.100000
264.138400 268366.800000
265.133600 21660.000000
266.154100 30432.000000
276.139500 26630.800000
278.153800 77270.200000
279.149200 265034.600000
282.148500 38533.100000
290.153800 19817.100000
297.196000 81305.600000
307.180600 1795792.600000
325.191000 19361576.000000

>ms2peaks
53.002200 11336.200000
53.038600 68312.200000
53.997300 5767.700000
55.054200 152480.700000
56.049500 63133.900000
57.057300 7545.100000
58.065100 65282.900000
65.038500 33079.700000
66.046400 8294.100000
67.054200 385766.800000
68.049400 86312.500000
69.057200 33325.100000
69.069900 18067.900000
70.065100 81028.800000
77.038700 8342.600000
79.054200 1034022.200000
80.049400 162086.900000
81.069900 2425897.800000
82.065100 340037.600000
84.080800 74400.300000
86.060200 8152.000000
91.054200 105833.400000
93.057500 18386.000000
93.069900 149650.300000
94.065100 87963.700000
95.049200 38063.600000
95.072900 40431.700000
95.085600 118043.200000
96.080700 177429.700000
105.044700 13385.700000
105.069900 115895.500000
106.065300 78696.600000
107.073000 37380.400000
107.085500 98238.000000
108.080800 216241.700000
109.064900 26385.600000
109.088600 20217.600000
109.101300 24095.900000
110.096400 542477.400000
117.069700 30321.100000
119.073200 9085.900000
119.085400 13544.700000
120.080800 80238.100000
121.064900 10075.700000
121.088600 28592.200000
122.096400 206423.700000
124.112100 204795.600000
131.073200 7625.600000
131.085300 6519.900000
132.081100 24624.700000
134.096400 401496.500000
135.104300 86676.200000
136.075700 17240.000000
136.112100 127021.800000
138.127700 50381.800000
143.073100 15028.000000
144.080800 12950.300000
145.052400 15873.900000
146.096500 19950.900000
148.076000 5487.400000
148.112000 40304.600000
152.107200 17538.900000
154.065300 23148.700000
155.073100 25283.300000
156.080900 13924.600000
158.060000 36811.400000
159.067900 33482.000000
160.075700 1356390.900000
162.091300 103485.700000
166.065300 20269.300000
166.122700 310267.700000
167.072500 38119.400000
168.080800 26842.400000
169.051800 32947.200000
169.088500 9128.500000
170.060400 24250.100000
171.067800 17889.000000
172.075700 1017346.000000
173.083500 438579.200000
174.091400 401904.700000
175.062300 6082.100000
176.070500 8517.000000
180.080700 24105.000000
181.088500 12673.300000
182.060200 35436.300000
182.084000 6836.800000
183.068100 59390.800000
183.103500 5686.700000
184.075700 1662825.100000
185.083500 98421.000000
186.091400 810309.100000
187.099200 27081.200000
188.070500 43477.900000
188.106900 17222.800000
189.078500 87296.400000
190.086700 9878.000000
192.081300 7550.200000
194.096800 12430.700000
195.068600 17990.400000
195.104000 7159.000000
196.075800 151994.200000
197.072500 10124.700000
197.083500 94937.000000
198.091400 785303.100000
199.086800 127886.600000
199.099100 43056.400000
200.070700 36064.100000
200.107000 90110.300000
201.078400 11093.600000
201.102200 17362.100000
202.086300 133891.600000
204.081300 10670.900000
205.088700 8687.700000
206.096700 20735.500000
207.104500 12097.500000
208.075300 5681.600000
209.083700 18670.000000
210.091300 235990.900000
211.086800 72336.400000
211.099200 32010.500000
212.094800 21311.400000
212.107100 95168.300000
213.102200 126560.000000
214.086200 79110.900000
214.122700 6455.600000
215.094100 17001.900000
216.102000 17723.500000
218.096600 16375.700000
219.092100 12353.000000
219.104600 15529.500000
220.075400 11847.500000
220.112700 6511.500000
221.083400 19562.800000
221.107000 17550.100000
221.119300 9738.400000
222.091500 41825.700000
223.098800 26434.600000
224.094600 15230.800000
224.106900 178461.600000
225.102300 74211.800000
225.114800 25844.900000
226.122500 207213.000000
227.117900 239942.500000
230.096200 7258.300000
232.112000 11551.300000
233.083500 6094.600000
233.108800 7438.400000
233.120000 31380.300000
234.091600 44456.800000
235.099600 23076.100000
236.106700 83449.900000
237.103900 27996.100000
237.113200 29106.300000
238.109800 12105.700000
238.122400 87883.200000
239.118000 89437.500000
239.130600 15094.300000
240.125500 17852.700000
240.138600 38456.600000
242.117200 10681.600000
246.092500 8754.100000
246.128100 7401.800000
247.099200 13892.200000
247.135600 14377.500000
248.106700 47694.300000
249.101300 10503.500000
249.115000 55209.500000
250.109500 7597.600000
250.122900 86731.500000
251.117900 352792.000000
252.125700 165741.200000
252.138800 76598.900000
253.133500 1065602.800000
254.154000 71021.800000
260.105500 7728.600000
261.114600 10602.000000
262.122800 55437.100000
263.117500 18446.200000
263.131200 21470.100000
264.138400 406574.200000
265.133300 134758.400000
266.140800 39848.800000
266.154200 90438.200000
268.133900 7796.100000
268.169500 21993.600000
274.123000 6396.700000
275.154500 22394.000000
276.138300 44220.000000
276.162500 19306.300000
277.132600 34809.300000
278.154300 183466.000000
279.149100 491004.800000
280.169800 22101.000000
282.148900 110181.200000
290.154500 20935.600000
291.149600 18572.700000
292.156600 32472.000000
296.164400 33907.800000
297.196100 94786.600000
305.165200 33929.800000
307.180500 2257633.800000
325.191000 3960067.000000

>ms2peaks
53.002200 33011.300000
53.038600 258766.000000
53.997500 7464.600000
54.033800 9609.300000
55.054200 300923.700000
56.049400 120100.800000
57.057300 19358.400000
58.065100 43959.900000
65.038500 149830.400000
66.046300 58084.300000
67.041600 42721.300000
67.054200 660702.600000
68.049400 146789.900000
69.057200 61263.700000
69.069800 15661.000000
70.065100 103935.800000
77.038500 21136.200000
78.046500 5496.900000
79.054200 2722789.500000
80.049400 393619.400000
81.069800 3206252.000000
82.065100 444492.200000
83.072900 15899.300000
84.080800 88172.900000
86.060100 11815.700000
91.054200 289509.500000
92.062100 12664.200000
93.057300 44402.300000
93.069900 192605.700000
94.065100 201659.300000
95.049100 139527.900000
95.073000 82226.600000
95.085500 122128.900000
96.080800 151251.600000
103.054200 16032.300000
105.044700 54411.100000
105.069900 167171.400000
106.065100 160793.000000
107.072900 70863.300000
107.085400 68143.800000
108.080700 282549.500000
109.064800 35934.100000
109.088600 22229.300000
109.101300 8552.400000
110.096400 222155.500000
115.054300 30432.800000
116.049500 6496.800000
117.057200 59529.200000
117.069800 48007.800000
118.065100 19519.900000
119.060400 10162.500000
119.073000 24818.700000
119.085400 11462.000000
120.080800 131177.300000
121.064700 11694.800000
121.088600 21736.000000
122.096400 134249.700000
124.075600 6548.500000
124.112100 120276.500000
129.057300 6596.800000
130.065000 23897.700000
131.072900 50521.900000
131.085500 5434.200000
132.080700 30299.700000
133.064800 10741.300000
134.096400 359532.200000
135.104200 45247.000000
136.075500 25958.900000
136.112100 119014.200000
138.127600 34596.300000
141.057200 14291.400000
142.065200 31089.600000
143.073000 103607.900000
144.080900 57719.300000
145.052200 117019.200000
145.064700 20117.900000
146.060000 15226.500000
146.096300 8137.400000
147.068100 12561.700000
148.039100 12003.300000
148.075300 9038.200000
148.112200 20523.400000
154.065100 143163.800000
155.072900 201687.500000
156.068400 7149.400000
156.080800 63008.500000
157.052000 30181.400000
157.088900 8125.300000
158.060000 161018.600000
159.067800 91630.700000
160.075600 1391983.500000
161.046700 7138.600000
162.091400 82461.700000
166.065300 48619.200000
166.122600 121276.900000
167.072900 174997.700000
168.068300 16363.200000
168.080600 51270.100000
169.052200 215811.800000
169.076000 11792.600000
169.088700 26700.100000
170.060000 143676.400000
170.083800 15886.300000
171.067800 92044.200000
172.075600 1881512.500000
173.083500 573449.400000
174.055100 45276.100000
174.091300 309766.800000
175.062700 30401.400000
176.034300 12017.000000
176.070400 17508.500000
179.073200 7865.000000
180.080700 61060.100000
181.076000 13222.500000
181.088500 55117.900000
182.060100 124234.100000
182.083800 32214.900000
182.096400 7752.100000
183.067900 233522.400000
183.104200 23553.400000
184.075700 1073554.400000
185.083500 96353.300000
186.054900 64672.700000
186.091300 908225.700000
187.099200 23287.500000
188.070600 60007.400000
188.107200 8337.000000
189.078300 105417.500000
190.086100 6954.700000
191.058400 6160.100000
191.073000 7403.700000
192.080800 25836.200000
193.088600 42872.100000
194.060000 11079.100000
194.086000 6755.500000
194.096400 36645.700000
195.067900 61238.400000
195.091600 7205.900000
195.104200 23674.100000
196.063600 15569.500000
196.075700 171656.300000
196.099200 10787.400000
197.071200 21052.800000
197.083500 147149.200000
198.080100 34186.300000
198.091300 609589.100000
199.062900 16464.300000
199.086600 121458.800000
199.098900 27209.900000
200.070600 92602.400000
200.106900 74516.600000
201.078300 12773.100000
201.102600 10912.300000
202.086300 163324.100000
204.080900 34540.400000
205.078000 6398.400000
205.088200 28346.500000
206.059500 6160.400000
206.085600 6035.800000
206.096000 35361.200000
207.067000 6223.600000
207.091700 18283.200000
207.104200 22288.000000
208.075700 32211.200000
208.099400 27039.800000
208.111200 9957.000000
209.072500 9703.200000
209.083500 58022.400000
209.108000 5440.900000
209.119500 8042.600000
210.079300 20909.900000
210.091200 322267.100000
211.086500 120289.400000
211.099100 59167.100000
212.094300 45497.600000
212.106900 98309.900000
213.102500 68571.400000
214.086200 117112.500000
214.122000 10845.200000
215.093500 6595.000000
216.101800 13365.800000
217.088600 10891.400000
218.085600 6770.100000
218.096200 30298.200000
219.091300 22736.300000
219.103900 21768.400000
220.075700 32626.200000
220.100500 11260.900000
220.112100 15135.100000
221.083800 37464.700000
221.107200 59698.000000
221.119900 34726.200000
222.091000 57593.800000
222.115400 15685.700000
223.086800 13034.000000
223.099200 51861.800000
224.094400 18320.400000
224.106600 189385.500000
225.102100 82582.900000
225.114600 18749.200000
226.122400 156723.000000
227.117900 110289.900000
231.103700 6731.500000
232.075800 9874.400000
232.111800 32585.000000
233.083300 10199.800000
233.107500 9307.000000
233.119300 26834.600000
234.091300 60250.700000
234.115200 10749.600000
234.127200 7771.000000
235.086300 20200.500000
235.099400 21881.900000
235.122800 12521.000000
235.135300 15250.000000
236.094400 21345.600000
236.106700 103322.500000
237.102400 102914.400000
237.114900 16364.400000
238.109700 26291.100000
238.122600 77787.700000
239.117800 44057.100000
239.129500 8662.100000
240.125700 9991.500000
240.137400 24304.500000
242.117300 12204.000000
246.090900 12194.700000
246.128100 8246.900000
247.099400 14723.200000
247.122400 12170.600000
247.136300 7226.000000
248.093300 9513.400000
248.106800 77198.700000
249.102800 28022.700000
249.114000 30310.800000
250.110000 13906.400000
250.122500 87682.800000
251.117800 447521.400000
252.125600 120591.100000
252.138600 39488.900000
253.133400 349516.300000
254.154200 28233.000000
260.107000 19774.100000
261.115100 14159.200000
262.122600 44582.500000
263.117600 52456.200000
263.131100 14178.800000
263.154600 7100.000000
264.138200 144557.800000
265.133400 151872.700000
266.140600 10776.300000
266.154100 43119.800000
268.133300 6152.100000
268.169900 12625.800000
275.154500 15759.300000
276.138000 18965.900000
276.162300 9463.100000
277.133200 45359.400000
278.154900 50524.400000
279.149000 122225.600000
280.170000 11947.300000
282.148800 25320.600000
291.149100 21666.800000
292.156700 8149.800000
296.164600 9683.600000
297.195400 9422.000000
305.164600 15966.100000
307.180400 310288.000000
325.190800 178972.000000

>ms2peaks
51.022900 7572.800000
53.002200 61001.300000
53.038600 554660.900000
53.997400 17918.600000
54.033900 16370.300000
55.054200 364797.100000
56.049500 127089.000000
57.057300 10621.900000
58.065100 26074.700000
65.038500 255958.400000
66.046400 94139.700000
67.041600 65078.100000
67.054200 664781.100000
68.049400 174828.000000
69.057300 59627.900000
69.069900 14362.900000
70.065100 76964.200000
77.038500 38960.900000
78.046500 5624.800000
79.054200 3242644.000000
80.049400 520024.800000
81.069900 2109802.800000
82.065100 448900.500000
83.072900 15307.900000
84.080800 63701.800000
86.060200 6598.800000
89.038600 11342.300000
91.054300 376426.300000
92.049400 14664.900000
92.062000 11750.600000
93.057300 79688.500000
93.069900 148225.800000
94.065100 233860.500000
95.049200 310175.700000
95.073000 92464.800000
95.085500 90203.500000
96.044400 9109.300000
96.080800 98619.700000
102.046500 6900.300000
103.054200 52780.000000
105.044800 109401.600000
105.069900 139368.800000
106.065100 192199.000000
107.073000 46498.300000
107.085600 36112.600000
108.080800 246575.100000
109.064800 27878.400000
109.088700 18102.100000
110.060000 13221.100000
110.096400 94663.400000
115.054200 167451.400000
116.049300 40700.800000
117.057300 299827.200000
117.069800 50348.600000
118.065100 37076.200000
119.060400 8104.700000
119.073000 22461.200000
119.085300 11193.000000
120.080800 131379.300000
121.064500 7025.400000
121.088600 10741.600000
122.096300 63246.400000
124.075900 6787.100000
124.112200 40195.200000
128.049600 11701.800000
129.057300 83469.900000
130.041100 6764.700000
130.065200 58542.400000
131.073000 137508.800000
132.044200 7850.500000
132.080600 35710.500000
133.052400 17199.000000
133.064800 54548.400000
134.096400 210124.700000
135.104300 10904.300000
136.075900 17567.200000
136.112100 82428.800000
138.127900 23154.000000
140.050100 10852.600000
141.057300 82707.800000
142.065200 120317.000000
143.036800 17980.400000
143.073000 343099.300000
144.080700 112077.500000
145.052200 285336.700000
145.064800 80490.200000
146.060200 45832.000000
146.096700 8964.300000
147.068000 17046.300000
148.039600 18015.700000
148.075900 11417.700000
153.057300 18037.300000
154.065100 380471.800000
155.060700 20693.400000
155.072900 388191.200000
156.068700 45966.700000
156.080800 101787.500000
157.052200 132820.900000
157.088600 23868.800000
158.060100 324453.500000
159.067900 154629.800000
160.075700 986639.300000
161.047300 16162.800000
162.091400 23594.700000
166.065100 102893.300000
166.122400 28388.700000
167.073000 350166.500000
168.068400 64036.000000
168.080700 75911.400000
169.052300 468886.700000
169.076100 27056.300000
169.088700 39452.600000
170.060100 258273.400000
170.083400 30632.500000
171.067800 134003.300000
172.075600 1794268.200000
173.083600 277696.300000
174.054900 92948.500000
174.091300 152786.300000
175.062900 72384.900000
176.034700 8292.500000
176.071200 9849.600000
179.072900 29211.200000
180.080800 108422.200000
181.052400 22738.800000
181.076400 15851.700000
181.088500 93567.600000
182.060200 234547.200000
182.083800 51310.200000
182.096600 19954.000000
183.068000 396698.800000
183.104000 39114.400000
184.075800 609762.400000
185.047200 16384.100000
185.070800 7094.300000
185.083600 46117.700000
186.054900 52065.000000
186.091400 569113.300000
187.099200 16285.400000
188.070300 48406.800000
189.078500 57239.300000
191.072800 22953.500000
192.080800 58802.300000
193.077300 10463.300000
193.088800 79533.500000
194.059500 31757.300000
194.084400 18526.200000
194.096500 49336.500000
195.068000 98764.000000
195.091900 20638.100000
195.104800 17010.700000
196.063500 23442.300000
196.075600 165207.300000
196.099400 21019.200000
197.071300 30501.300000
197.083700 138675.200000
197.107100 7871.200000
198.079400 26834.000000
198.091300 314787.500000
199.062900 18930.000000
199.086600 61279.300000
199.097700 10197.300000
200.070700 91461.800000
200.107100 32110.000000
201.103000 7093.000000
202.086200 74171.600000
204.080900 58627.100000
205.077300 10947.900000
205.088900 26321.900000
206.084100 21324.800000
206.096600 52086.100000
207.067500 9773.100000
207.091800 33707.700000
207.104200 38180.900000
208.075800 52789.600000
208.099500 46589.900000
208.110200 8447.700000
209.072300 12511.900000
209.083700 49550.100000
209.107700 13541.200000
209.120100 7029.500000
210.079600 18971.500000
210.091300 240130.300000
210.115200 17488.800000
211.086700 92434.100000
211.099200 29455.000000
212.094800 21613.600000
212.107200 53837.000000
213.101800 16226.400000
214.086100 71538.200000
216.081700 6952.900000
217.088400 31886.900000
218.084500 12733.000000
218.096500 46034.300000
219.067500 14433.200000
219.091900 30300.000000
219.104200 24294.900000
220.075700 68653.800000
220.099800 17001.900000
220.112200 26299.100000
221.072100 7096.900000
221.083500 21364.800000
221.107200 36748.700000
221.120000 37170.900000
222.079100 21872.100000
222.091600 46435.800000
222.115300 22623.900000
223.086600 16756.600000
223.099400 33149.000000
224.094600 19616.800000
224.106900 117021.800000
225.102700 50912.800000
225.114600 11847.600000
226.122600 40955.600000
227.117800 13766.400000
230.097200 13260.200000
231.104400 10643.900000
232.075500 10636.100000
232.101100 6661.300000
232.111500 32716.500000
233.084400 9528.800000
233.119700 12509.400000
234.091300 52108.900000
234.115400 20294.200000
234.127700 6320.800000
235.086600 40275.300000
235.099300 14535.000000
235.122800 10206.300000
235.135800 13267.700000
236.094400 31014.900000
236.107200 55943.000000
237.102300 116932.400000
237.114700 9078.200000
238.110800 9499.500000
238.122500 36862.900000
239.118200 17019.000000
246.091400 12214.100000
247.099300 8723.800000
247.122800 7330.100000
248.094500 12711.000000
248.107200 52274.100000
249.102400 41091.100000
249.114700 11787.800000
250.109400 19286.700000
250.122900 53700.100000
251.117800 228386.900000
252.125800 14026.100000
252.139500 12875.000000
253.133200 39620.700000
260.107200 12117.500000
262.123000 35732.100000
263.117700 31243.400000
263.154600 8287.300000
264.138000 35335.200000
265.133400 52337.200000
266.154900 10268.600000
274.123400 8690.200000
277.133800 22605.300000
279.149200 13123.200000
291.149200 9784.700000
307.179400 13724.000000

>ms2peaks
51.023100 7643.900000
53.002200 113401.500000
53.038600 752247.800000
53.997500 14729.100000
54.033800 26350.400000
55.054200 377269.800000
56.049500 122182.300000
57.057300 9218.600000
58.065000 12548.500000
65.038500 336206.200000
66.046300 156558.500000
67.041600 106696.600000
67.054200 593524.100000
68.049400 222335.100000
69.057300 67233.400000
69.069900 12017.000000
70.065100 60309.500000
77.038500 75761.900000
78.046400 18790.600000
79.054200 2746952.000000
80.049400 533608.900000
81.069800 1075384.500000
82.065100 408667.000000
83.072900 17982.600000
84.080700 33249.100000
89.038600 25871.600000
91.054200 429018.700000
92.049400 19532.900000
92.062000 7904.800000
93.057200 112425.300000
93.069800 87661.000000
94.065100 219699.000000
95.049100 475155.800000
95.072900 63975.000000
95.085600 36020.300000
96.044200 23378.100000
96.080800 53673.900000
102.046300 46459.000000
103.054200 93534.800000
105.044700 182087.600000
105.069900 94418.000000
106.065100 166219.400000
107.073000 46421.400000
107.085400 11495.200000
108.080700 173118.800000
109.064800 12932.600000
109.088400 11446.200000
110.060000 18372.600000
110.096400 35382.400000
115.054200 377283.900000
116.049300 71600.500000
117.057200 671470.600000
117.069800 44194.200000
118.065000 65982.800000
119.072900 32363.300000
120.080700 83260.200000
121.064600 12314.400000
121.088500 8339.800000
122.096300 31438.600000
124.075400 6618.300000
124.112200 17710.600000
128.049500 29734.900000
129.057200 269779.100000
130.041100 19290.300000
130.065100 144320.700000
131.072900 230588.300000
132.044400 34276.700000
132.080800 35935.900000
133.052100 26564.700000
133.064600 74620.500000
134.096300 123679.600000
136.112000 53886.000000
140.049200 36060.900000
141.057200 277034.600000
142.065100 266987.100000
143.036500 47657.300000
143.072900 542644.400000
144.080700 167701.100000
145.052200 331156.500000
145.064700 111540.300000
146.060000 118515.100000
147.067700 16838.300000
148.039300 29232.300000
153.057300 62120.400000
154.065000 713248.300000
155.060500 37087.700000
155.072900 453744.500000
156.068300 86562.700000
156.080600 100172.300000
157.052200 218308.500000
157.088500 22794.000000
158.060000 371320.300000
159.067700 150959.700000
160.075600 540845.000000
161.047100 21249.200000
162.090800 10120.100000
166.065100 138764.200000
166.122600 8771.600000
167.072900 473650.100000
168.068200 113123.400000
168.080600 105228.400000
169.052100 508619.300000
169.075700 53892.900000
169.088300 33099.100000
170.059900 287845.200000
170.083600 25286.600000
171.067800 86300.500000
172.075600 1125729.500000
173.083400 112616.100000
174.054900 101606.700000
174.091300 51104.300000
175.062700 80727.500000
176.070600 13591.600000
179.073000 39388.400000
180.080700 154707.700000
181.052200 31741.500000
181.075500 37350.000000
181.088500 107187.200000
182.060000 260969.100000
182.083800 62303.400000
182.096500 27327.700000
183.067800 343050.800000
183.104200 39937.400000
184.075600 215314.400000
185.047500 10432.100000
185.070400 6976.800000
185.083600 14338.100000
186.054900 40426.800000
186.091300 243394.000000
188.070500 45849.800000
189.078500 15284.800000
191.057600 6944.100000
191.072700 55227.200000
192.080700 80921.000000
193.076300 21198.400000
193.088600 78470.600000
194.060000 36963.800000
194.083800 31129.600000
194.096000 45795.300000
195.067900 68680.700000
195.091400 29934.100000
195.104000 19549.300000
196.063100 24097.700000
196.075600 99191.600000
196.099400 22028.000000
197.071100 39458.400000
197.083400 88587.100000
197.107000 6804.300000
198.079900 10111.300000
198.091300 102862.800000
199.062800 15115.200000
199.086400 24417.900000
200.070400 43864.200000
200.106700 6020.300000
202.086100 18461.200000
204.080700 78920.900000
205.075900 23089.700000
205.088400 60387.300000
206.060200 11562.900000
206.083700 38091.800000
206.096300 59663.700000
207.067200 11086.000000
207.091600 57952.200000
207.104100 25876.000000
208.075600 60698.300000
208.099500 61159.300000
208.110900 9260.200000
209.071000 15836.000000
209.083400 30403.500000
209.107000 17780.400000
210.079500 10388.700000
210.091000 127170.900000
210.114900 15778.500000
211.086300 57878.600000
211.098800 14987.100000
212.095100 6149.700000
212.107100 17791.900000
214.085900 20549.500000
216.080200 9607.400000
217.088100 42695.300000
218.084500 10405.300000
218.096400 54649.400000
219.067300 12087.500000
219.091600 38124.100000
219.104200 22234.300000
220.075600 51894.500000
220.099100 22623.600000
220.112000 27183.200000
221.071600 11496.000000
221.083900 14572.300000
221.107000 20185.600000
221.119800 20444.300000
222.078500 16264.300000
222.091100 37997.400000
222.115000 17469.100000
223.086400 17859.600000
223.099100 22282.900000
224.094800 9775.000000
224.106600 58489.700000
225.102200 18989.000000
226.122600 10007.200000
230.096200 12677.800000
231.104800 6586.900000
232.074500 13501.100000
232.100000 9028.700000
232.112000 19371.700000
233.083400 24046.500000
233.107600 11799.200000
233.120400 8394.600000
234.091300 32788.200000
234.114900 18835.200000
234.127200 8481.300000
235.086400 59611.100000
235.098700 6999.400000
236.094000 24611.900000
236.106800 38402.200000
237.102100 50719.900000
238.122200 15775.200000
246.090900 14021.700000
247.099100 15341.200000
248.094400 8484.500000
248.106800 40953.700000
249.101400 28495.100000
250.109500 11006.800000
250.122500 14429.200000
251.117400 46431.900000
260.107300 6712.400000
263.118000 9005.100000
264.138500 10995.200000
265.133200 11293.000000
277.133200 8309.600000

