>compound LU94404013
>parentmass 223.09650000000002
>ionization [M+H]+
>formula C12H14O4
>rt 998.220000
>profile orbitrap
#smiles_iso CC(C)(C)OC(=O)C1=CC=CC=C1C(=O)O
#smiles_can CC(C)(C)OC(=O)C1=CC=CC=C1C(=O)O
#inchikey PBUQZKXKYSAJDO-UHFFFAOYSA-N
#pubchem_id 134976
#mb_accession LU081801,LU081802,LU081803,LU081804,LU081805,LU081806

>ms2peaks
69.069900 1993.000000

>ms2peaks
126.010700 2258.600000

>ms2peaks
69.069900 2855.900000
92.026200 2989.900000
126.010500 5567.700000

>ms2peaks
69.070100 2721.800000
92.026200 4315.400000
103.054300 1955.900000
121.028500 5079.800000
126.010400 8396.500000
152.062400 1556.400000

>ms2peaks
53.038700 1384.300000
92.026300 2289.800000
95.049100 6201.300000
103.054500 3191.900000
121.028300 5100.500000
126.010600 5696.800000
152.061800 2414.500000

>ms2peaks
53.038500 2214.600000
95.049300 4948.200000
103.054300 2811.500000
126.010900 3093.900000
152.062400 2547.700000

