>compound LU94211806
>parentmass 240.115
>ionization [M+H]+
>formula C13H18ClNO
>rt 805.080000
>profile orbitrap
#smiles_iso CC(C(=O)C1=CC(=CC=C1)Cl)NC(C)(C)C
#smiles_can CC(C(=O)C1=CC(=CC=C1)Cl)NC(C)(C)C
#inchikey SNPPWIUOZRMYNY-UHFFFAOYSA-N
#pubchem_id 444
#mb_accession LU132101,LU132102,LU132103,LU132104,LU132105,LU132106

>ms2peaks
57.069900 190272.700000
131.072900 28531.200000
138.994600 8928.100000
139.031100 8165.500000
166.041900 518390.900000
167.025900 226538.200000
184.052400 7245892.500000
240.115100 1964914.200000

>ms2peaks
57.069900 512564.200000
130.065300 8694.800000
131.073000 249449.100000
138.994600 6918.700000
139.030900 105353.600000
166.041900 2263712.000000
167.025800 1055695.400000
178.966400 7173.800000
184.052400 6120741.500000
240.115000 231435.500000

>ms2peaks
57.069900 893545.200000
77.038600 4704.500000
103.054200 36751.200000
130.065100 43346.500000
131.073000 2340928.000000
132.056900 22714.000000
134.096400 63541.100000
139.030900 898936.200000
148.075500 6389.600000
151.018300 14092.000000
158.071600 7964.200000
166.041800 3290087.000000
167.025800 1599796.400000
184.052400 1318673.200000

>ms2peaks
53.002200 11553.500000
57.069900 946779.100000
72.044500 5070.900000
77.038500 8136.500000
95.049000 4625.100000
103.054200 331932.300000
104.062100 4589.600000
130.065200 284757.600000
131.073000 4471292.000000
132.056900 40832.300000
139.030900 1544934.000000
148.075700 18339.100000
151.018300 51336.100000
158.071700 7523.100000
166.041900 1144422.100000
167.025800 532648.700000
184.052400 80035.600000

>ms2peaks
53.002200 25021.500000
53.038600 14915.100000
55.017900 6886.400000
57.069900 778042.300000
72.044200 5085.500000
77.038600 9856.000000
89.038600 5335.000000
95.049100 36613.300000
102.046300 6172.400000
103.054200 1024285.400000
104.062100 25953.200000
129.010300 8990.800000
130.065200 1312275.600000
131.072900 4131400.800000
132.056900 53223.600000
138.994600 87391.400000
139.030900 1096290.800000
148.075800 14736.500000
151.018300 99753.900000
158.071200 9701.800000
166.041800 203585.900000
167.025800 72227.500000

>ms2peaks
53.002200 21958.000000
53.038600 49310.500000
53.997500 3901.400000
55.017800 10949.300000
57.069900 537141.900000
77.038500 21726.900000
89.038500 5859.300000
95.049200 135626.600000
102.046400 21815.600000
103.054200 1274831.800000
104.062100 84995.200000
129.010300 31070.800000
130.065200 2707348.000000
131.073000 2369139.500000
132.056900 35947.900000
134.096400 17933.200000
138.994700 70750.900000
139.030900 423440.200000
148.075600 7673.500000
151.018400 140231.800000
152.062000 5029.600000
166.042000 22202.600000
167.025800 10918.300000

