>compound LU94362050
>parentmass 228.1277
>ionization [M+H]+
>formula C9H17N5S
>rt 927.300000
>profile orbitrap
#smiles_iso CCNC1=NC(=NC(=N1)SC)NC(C)C
#smiles_can CCNC1=NC(=NC(=N1)SC)NC(C)C
#inchikey RQVYBGPQFYCBGX-UHFFFAOYSA-N
#pubchem_id 13263
#mb_accession LU023101,LU023102,LU023103,LU023104,LU023105,LU023106

>ms2
96.055300 64868.900000
138.102500 93891.800000
186.080800 3182737.800000
213.103500 71966.000000
228.127700 38758884.000000

>ms2
68.024400 40159.500000
71.060200 76197.200000
91.032400 152224.200000
96.055500 350992.700000
113.082100 31654.700000
116.027600 115350.200000
138.077500 117412.100000
138.102500 445188.600000
144.059000 107789.100000
158.049400 103761.900000
158.074500 52895.400000
180.124300 58698.700000
186.080800 11123146.000000
200.096100 35243.200000
213.103100 68638.600000
228.127600 26451368.000000

>ms2
68.024300 570555.500000
71.060300 1373237.100000
74.005800 190633.300000
85.050900 132318.300000
85.076000 179708.000000
91.032500 2517871.200000
96.055600 3727358.800000
102.037200 200243.100000
110.046200 59243.900000
110.071400 69951.700000
113.082200 383994.200000
116.027700 1417111.500000
138.077500 1503631.800000
138.102600 1035684.000000
144.059000 1179823.900000
158.049500 1213938.200000
158.074600 169532.700000
169.054400 26964.500000
171.057100 63910.200000
180.124300 197157.400000
184.065600 32720.900000
186.080800 25117542.000000
200.097100 58664.400000
228.127800 7894704.000000

>ms2
58.064900 10756.600000
68.024300 3103680.200000
71.060300 3967496.000000
74.005800 804046.100000
85.050900 658024.100000
85.076000 210274.900000
91.032400 5230934.500000
96.055600 7128375.500000
102.037200 281107.900000
110.046100 347781.500000
110.071100 74651.400000
113.082200 661719.900000
116.027700 3241193.500000
130.043000 10815.000000
138.077400 2339059.500000
138.102400 260745.500000
140.092700 38225.900000
143.025400 13560.500000
144.059000 1758924.800000
158.049500 1736002.500000
169.054200 41801.400000
171.057000 49847.000000
180.124200 72435.200000
184.064800 45840.700000
186.080800 10175218.000000
200.096500 22441.700000
228.127700 575301.900000

>ms2
57.044700 11707.500000
68.024300 8708060.000000
69.044700 14072.000000
70.040000 24712.200000
71.060300 5012371.500000
74.005900 2236886.500000
85.050900 1092093.200000
85.076100 106320.000000
91.032500 4410061.000000
96.055600 6774149.500000
99.001100 22182.200000
102.037200 166383.300000
110.046100 717441.200000
113.082200 518667.800000
116.027700 3720896.000000
138.077500 1426364.900000
140.093100 22022.500000
143.026100 16359.500000
144.059000 1100959.200000
158.049500 957915.800000
169.054200 19033.900000
170.049200 10977.300000
171.057300 26993.900000
180.124100 11369.000000
184.065100 24057.000000
186.080800 2196015.200000
228.128200 24964.400000

>ms2
57.044700 15400.600000
68.024300 12528078.000000
69.044800 14256.600000
70.039900 26952.000000
71.060300 3715324.200000
74.005800 3293203.500000
85.050900 893233.400000
91.032500 2036003.500000
96.055600 3405681.500000
99.001100 31826.000000
102.037300 50643.900000
110.046100 509934.000000
113.082100 190939.400000
116.027700 2125158.000000
138.077400 369408.500000
143.026200 15631.400000
144.059000 320020.300000
158.049500 250978.000000
170.049600 15067.700000
184.065100 14461.300000
186.080800 245778.600000

