>compound LU94336068
>parentmass 239.1489
>ionization [M+H]+
>formula C10H22O6
>rt 671.100000
>profile orbitrap
#smiles_iso C(COCCOCCOCCOCCO)O
#smiles_can C(COCCOCCOCCOCCO)O
#inchikey JLFNLZLINWHATN-UHFFFAOYSA-N
#pubchem_id 62551
#mb_accession LU086201,LU086202,LU086203,LU086204,LU086205,LU086206

>ms2peaks
166.097600 63402.100000
167.104400 39845.600000
195.160500 880843.800000
239.150200 17684880.000000

>ms2peaks
150.102700 39029.000000
166.097500 71534.500000
167.104700 35571.700000
168.113100 14019.700000
195.160400 781905.100000
239.150200 4537604.000000

>ms2peaks
73.064600 2364.200000
87.044100 7750.900000
89.059700 422365.800000
91.054300 1614.600000
107.070100 7691.800000
133.086000 23157.100000

>ms2peaks
150.102500 587092.000000
166.097400 27497.700000
167.105200 298937.300000
168.113100 17589.800000
195.160300 110578.300000

>ms2peaks
89.059800 42837.900000
107.070500 1608.300000

>ms2peaks
89.059700 11127.500000

