>compound LU94263861
>parentmass 212.08179999999996
>ionization [M+H]+
>formula C12H9N3O
>rt 184.980000
>profile orbitrap
#smiles_iso CC1=C(C=C(C(=O)N1)C#N)C2=CC=NC=C2
#smiles_can CC1=C(C=C(C(=O)N1)C#N)C2=CC=NC=C2
#inchikey PZRHRDRVRGEVNW-UHFFFAOYSA-N
#pubchem_id 4197
#mb_accession LU112201,LU112202,LU112203,LU112204,LU112205,LU112206

>ms2peaks
184.087400 14530.500000
212.081800 9382215.000000

>ms2peaks
184.086900 71588.200000
194.071200 38120.100000
212.081700 9413089.000000

>ms2peaks
104.049400 35270.900000
116.049400 19347.400000
117.057000 10963.300000
118.065000 8598.000000
130.065100 20454.800000
131.073000 43709.600000
132.080800 34256.500000
140.049500 46802.000000
142.051900 12617.200000
142.065300 10018.600000
143.060400 94467.900000
157.076100 59631.600000
167.060400 169081.700000
168.068200 10969.300000
169.063900 31507.400000
169.075900 63657.600000
171.055300 35918.600000
183.078800 13779.000000
184.086900 571782.200000
185.071100 53637.100000
193.063900 23615.000000
194.071300 433990.300000
195.055400 37481.600000
210.066400 8622.200000
212.081700 7951578.000000

>ms2peaks
54.033800 8956.200000
65.038500 4467.400000
78.033700 7904.500000
79.041700 6348.600000
80.049400 16392.000000
89.038500 4367.400000
92.049400 8246.100000
93.057300 19513.600000
94.065100 14010.100000
95.060300 5652.400000
96.044300 11745.300000
104.049400 225389.300000
105.044700 10414.000000
105.057100 4387.600000
107.060500 4221.000000
115.054200 42044.500000
116.049400 116968.000000
117.057200 65736.900000
118.065000 40033.600000
119.023800 5465.300000
119.060300 5670.300000
120.044300 7347.500000
128.049500 6301.900000
129.044600 4897.700000
129.057200 10611.600000
130.065100 109687.700000
131.060400 7979.200000
131.072900 85091.400000
132.044400 8245.800000
132.080700 51921.600000
133.076100 4382.400000
134.060000 49003.800000
140.049400 381836.200000
141.045100 3785.900000
141.057100 3920.300000
142.052500 132418.000000
142.065100 66532.500000
143.060300 515244.100000
144.044700 4283.300000
144.055400 11188.400000
144.068300 10826.800000
145.076000 47649.600000
146.083800 25262.400000
152.049600 4659.400000
153.044600 4025.100000
155.060400 16248.700000
156.068100 24741.400000
157.076000 187875.800000
158.060000 23062.800000
159.055300 12576.000000
160.075700 7154.900000
166.052400 19879.300000
167.060300 639888.700000
168.056000 15748.400000
168.068100 85146.900000
169.063400 127864.000000
169.075900 191253.300000
170.060100 9094.000000
170.071100 16921.600000
171.055200 106911.100000
177.044800 5923.200000
182.071600 11700.300000
183.055200 4334.700000
183.079000 51849.600000
184.086900 847117.000000
185.070900 151905.700000
192.055000 5234.400000
193.063500 143359.500000
194.071300 598537.400000
195.055400 103998.100000
197.058700 16004.700000
210.066200 36609.100000
211.074100 9694.000000
212.081700 3689191.800000

>ms2peaks
52.018300 3898.100000
53.038700 4067.000000
54.033800 15858.200000
63.022900 7688.200000
64.018100 4669.400000
65.038500 10203.900000
67.041600 3725.200000
68.012900 4185.300000
78.033800 18628.200000
79.041600 24114.000000
80.049300 33756.000000
89.038500 53763.400000
90.033900 7072.400000
91.054100 13143.200000
92.049400 32212.800000
93.057300 61779.400000
94.065200 24116.900000
95.049100 3878.900000
95.060400 15584.900000
96.044400 23201.800000
102.046400 4907.900000
103.054200 18489.600000
104.049400 529672.800000
105.044700 22581.500000
105.057200 13558.600000
106.064900 4066.900000
107.060300 7117.900000
110.060000 4028.100000
113.038500 10055.000000
114.033800 4918.500000
115.054200 134687.900000
116.049400 376338.900000
117.057200 164596.300000
118.028600 7394.500000
118.052600 11544.400000
118.065000 91054.400000
119.023900 11837.700000
119.060500 12771.800000
120.044400 11839.900000
120.080800 6084.800000
127.041800 5318.000000
128.049400 22978.600000
129.044600 12549.200000
129.057200 35476.200000
130.065100 248038.100000
131.060600 21141.100000
131.072900 60762.300000
132.044400 16306.800000
132.068300 8798.900000
132.080700 19935.900000
133.075700 4463.300000
134.060000 115916.600000
135.055100 2838.400000
139.041200 3373.000000
140.049400 999332.600000
141.044600 13788.500000
141.057200 22794.600000
142.052600 434132.900000
142.065000 110921.800000
143.060300 858555.800000
144.044500 12429.800000
144.055600 29517.100000
144.068100 13658.600000
145.075900 72549.400000
146.060100 9461.900000
146.083800 26389.500000
148.075100 2660.800000
152.049100 6236.300000
153.044500 6750.800000
154.052500 7607.200000
155.060300 44358.200000
156.068100 57508.900000
157.076000 216833.600000
158.060000 67328.800000
159.055200 39881.400000
160.075700 7303.200000
165.044800 12203.600000
166.052500 113219.400000
167.060300 751121.500000
168.055600 57229.300000
168.068100 208167.200000
169.063300 204820.400000
169.075900 173844.700000
170.047500 4957.700000
170.060000 10224.200000
170.071100 15390.800000
171.055200 102001.300000
177.044700 11602.300000
180.054800 3145.100000
182.071500 35839.700000
183.055300 7792.700000
183.079100 74133.300000
184.086900 531610.300000
185.070900 122603.000000
192.055900 6911.500000
193.063400 249904.900000
194.071200 296984.100000
195.055200 90942.500000
196.050300 4453.500000
197.058500 16141.200000
210.066100 54188.900000
211.073900 8637.400000
212.081700 1102793.800000

>ms2peaks
52.018200 6690.100000
53.038600 9951.100000
54.033800 18913.500000
63.022900 26681.900000
64.018200 10853.600000
65.038500 36271.900000
67.041600 4693.900000
68.013100 5140.400000
78.033800 27861.400000
79.041600 48537.300000
80.049400 36685.700000
89.038500 230048.000000
90.033800 14783.900000
91.054200 37679.300000
92.049500 58607.200000
93.057300 75250.400000
94.065200 19936.400000
95.049100 18184.400000
95.060300 24239.900000
96.044300 41760.800000
102.046400 27830.800000
103.054200 51147.800000
104.049400 845503.000000
105.044700 38645.300000
105.057200 18074.100000
106.065000 8463.500000
107.060200 5470.600000
110.060000 9822.400000
113.038600 86165.900000
114.033800 27956.900000
115.054200 195903.700000
116.049500 600779.200000
117.057300 313220.100000
118.028600 9776.500000
118.052600 24121.400000
118.065000 114132.300000
119.024100 11867.900000
119.060200 11256.200000
120.044500 17495.400000
120.080700 5667.300000
127.041700 10729.400000
128.049400 47880.200000
129.044700 25633.600000
129.057200 45372.600000
130.065100 326843.700000
131.060500 25461.400000
131.072900 28440.200000
132.044400 26255.600000
132.068100 9398.900000
132.080500 6120.300000
133.075700 2925.600000
134.060000 171258.000000
135.055200 4133.700000
139.041400 4206.100000
140.049500 1389034.200000
141.044600 30356.400000
141.057200 62526.000000
142.052600 841213.100000
142.064900 81196.300000
143.060300 661674.800000
144.044500 16766.200000
144.055600 47385.000000
144.068100 12059.900000
145.076000 84847.500000
146.059900 8934.500000
146.083900 13081.600000
148.075700 4723.200000
152.049300 9691.300000
153.045000 13180.100000
154.052300 11558.500000
155.060400 82722.500000
156.068100 62095.800000
157.076000 147011.800000
158.060000 76011.300000
159.055300 54524.200000
160.075700 3567.700000
165.044800 19607.100000
166.052600 284459.900000
167.060400 465331.800000
168.055600 106780.800000
168.068100 239476.400000
169.063400 159029.100000
169.075900 88873.100000
170.047000 5098.500000
170.059800 8087.700000
170.071600 12187.500000
171.055300 45681.800000
177.044600 10381.700000
180.054800 3642.800000
182.071300 62282.000000
183.055100 8964.900000
183.079100 54283.400000
184.086900 187446.200000
185.070900 51377.900000
192.055800 23534.800000
193.063500 242064.900000
194.071300 73549.400000
195.055200 37997.600000
196.050800 3740.000000
197.058400 10037.100000
210.066200 59212.800000
211.074900 2720.100000
212.081800 215186.800000

