>compound LU94530453
>parentmass 503.2817
>ionization [M+H]+
>formula C30H35FN4O2
>rt 914.460000
>profile orbitrap
#smiles_iso CC1=NC(=NO1)C2=CC3=C(CCN(CC3)CCC4CCC(CC4)NC(=O)/C=C/C5=CC=C(C=C5)F)C=C2
#smiles_can CC1=NC(=NO1)C2=CC3=C(CCN(CC3)CCC4CCC(CC4)NC(=O)C=CC5=CC=C(C=C5)F)C=C2
#inchikey IRGFNBRYIWLUOO-AWNIVKPZSA-N
#pubchem_id 18173272
#mb_accession LU014301,LU014302,LU014303,LU014304,LU014305,LU014306

>ms2
149.039800 19404.200000
338.222100 23554.100000
355.249500 16352.100000
503.282000 9674615.000000

>ms2
67.054200 27153.000000
101.038600 6452.700000
109.101200 39241.000000
121.044800 46654.600000
124.112000 35645.300000
126.127700 4850.700000
149.039700 4045136.000000
166.066300 169342.000000
188.118200 8699.400000
200.118400 28562.600000
201.101800 6304.400000
218.128900 27416.600000
230.128800 93989.600000
242.128800 445113.100000
256.144000 6756.300000
296.212200 107300.000000
297.196200 8475.600000
313.238600 61953.600000
314.222600 164242.600000
336.207400 6825.600000
338.222600 1411387.400000
355.249200 706354.000000
461.271500 504240.900000
503.282200 3434499.000000

>ms2
58.065100 8819.200000
65.038500 9161.500000
67.054200 591277.100000
75.023000 9153.600000
79.054200 21049.200000
81.069800 129522.600000
91.054200 12209.300000
101.038600 13433.100000
107.085500 14588.200000
109.101200 285455.800000
121.044800 823170.300000
123.060300 49335.300000
124.055500 11251.300000
124.112100 59363.600000
126.127700 21367.800000
129.044600 35071.400000
138.127800 10499.100000
148.055700 9995.400000
149.039700 7724086.000000
156.068200 9460.600000
159.091600 159578.100000
160.075600 16413.900000
166.066200 452249.500000
171.091500 122714.300000
172.075700 7983.500000
173.107100 9766.900000
185.107200 13478.400000
186.102600 13199.000000
188.118200 140426.600000
198.102400 12690.700000
200.118200 303085.800000
201.102000 98361.000000
213.101700 16437.700000
214.133600 18869.300000
218.129200 16994.700000
228.112900 11287.500000
230.128700 377245.300000
240.112700 8959.500000
242.128700 1386292.600000
256.144200 31127.800000
296.212100 204562.500000
297.195600 11081.600000
313.238600 28097.900000
314.222800 17854.800000
338.222600 692633.800000
355.249500 53508.800000
461.270900 23862.400000
503.280700 23149.700000

>ms2
53.002300 5843.600000
53.038700 10848.000000
55.054300 32057.900000
56.049500 13027.000000
58.065200 27124.600000
65.038600 44482.000000
67.054200 1267295.900000
79.054200 91618.100000
81.069900 385531.500000
91.054200 78230.200000
95.049200 15284.400000
98.096400 16399.300000
101.038500 24965.400000
103.054300 37505.600000
105.044800 4870.600000
105.070000 6593.900000
107.085500 30496.400000
109.101200 217105.500000
117.070100 11156.900000
118.064900 5799.900000
119.049100 57188.200000
121.044800 2784406.000000
123.060400 85749.400000
124.055900 21551.000000
124.112200 25953.000000
126.127600 11476.000000
128.049400 6405.700000
128.062000 12314.000000
129.044700 233771.500000
129.069600 18510.400000
130.065100 32487.300000
130.077400 21954.200000
131.072900 7828.700000
132.080800 22596.200000
138.127900 18156.800000
142.065200 108932.700000
144.080700 90983.800000
145.064800 9167.000000
145.076200 28405.100000
145.088700 4925.100000
146.060300 10297.100000
146.084100 5212.900000
146.096300 10205.100000
148.055800 17835.100000
149.039700 4681636.500000
154.065100 78772.400000
155.060200 11858.300000
156.068500 25528.300000
157.076000 63606.100000
158.084200 5847.300000
158.096500 8130.400000
159.091700 478041.400000
159.104100 43513.100000
160.075700 110402.100000
161.107100 5245.600000
166.066300 168793.000000
169.075700 23223.900000
170.083800 8306.300000
171.091600 445780.800000
172.075600 86565.000000
173.107100 12974.700000
174.091200 5193.800000
183.091700 22617.100000
184.086100 5263.300000
185.095000 24911.900000
185.107200 50654.400000
186.102800 14737.600000
187.086400 8166.900000
188.118200 117654.100000
189.102000 6465.900000
198.102800 20067.100000
200.118200 420510.800000
201.102200 151671.200000
213.102200 35672.000000
214.133700 33826.800000
227.105600 17697.200000
228.112500 6316.800000
230.128800 123182.200000
242.128700 719680.500000
256.144300 13424.600000
296.212300 37658.500000
338.222500 44108.600000

>ms2
51.023000 3882.400000
53.002300 23605.300000
53.038700 30245.100000
55.017900 5313.400000
55.054300 60788.800000
56.049500 19639.900000
58.065200 27305.600000
65.038600 90091.600000
66.046300 4256.300000
67.054200 1301791.500000
69.069800 13667.900000
75.022900 101893.000000
77.038500 65753.700000
79.054200 189948.300000
81.069900 414409.000000
91.054200 285689.100000
94.077600 5462.600000
95.029000 4476.600000
95.049200 42167.100000
95.085500 12753.900000
97.044700 4911.800000
98.096500 19944.600000
101.038500 82552.200000
103.054300 97017.500000
105.033500 7855.600000
105.044700 12443.500000
105.069900 19899.400000
107.085500 22594.400000
109.101200 65148.600000
113.039800 6912.500000
115.054200 141487.800000
116.062100 10808.800000
117.057300 18252.700000
117.070000 38999.300000
118.041300 5548.800000
118.077900 6115.400000
119.049200 231645.400000
120.037100 4390.800000
121.044800 3841515.800000
123.035300 9219.300000
123.060400 64800.400000
124.055800 21332.200000
124.112200 7980.000000
127.054200 11115.000000
128.049600 25283.400000
128.062100 79420.800000
129.044700 776518.400000
129.069600 67983.600000
130.041900 6638.100000
130.065200 69923.500000
131.060300 12935.100000
131.073200 22931.700000
132.068200 8155.200000
132.080800 45791.600000
135.080500 10424.500000
138.127700 11553.000000
142.065200 247288.100000
142.077700 14078.400000
143.060300 11220.600000
143.072700 17670.800000
144.068500 23646.900000
144.080800 186507.100000
145.065000 48179.700000
145.075900 46832.600000
145.088500 8159.200000
146.060100 18421.100000
146.083600 6565.900000
146.095900 7329.700000
147.080500 29913.200000
148.055600 15969.700000
149.039800 1880215.200000
154.065100 239540.600000
155.060400 55929.900000
155.072600 6478.900000
156.068300 48641.100000
156.080500 21478.200000
157.076000 107296.600000
158.083900 12896.100000
158.096400 20458.200000
159.091700 326587.600000
159.103100 43602.300000
160.075700 150102.000000
166.066400 38842.400000
168.068200 12877.600000
169.075900 28559.600000
170.071100 17293.500000
170.083900 8743.400000
171.091700 356246.400000
172.075600 148888.000000
173.107100 13713.000000
174.091100 9813.900000
183.091500 21856.700000
184.086900 6951.500000
185.094700 30814.800000
185.107200 48563.400000
186.078600 6933.700000
186.102500 10542.700000
187.086300 6605.000000
188.118000 22373.800000
189.102100 4551.000000
198.102800 15513.000000
200.118200 160665.800000
201.102300 84226.800000
212.082000 7823.000000
213.102100 11560.100000
214.133700 8076.800000
227.105200 11835.800000
230.128300 12539.200000
242.128800 120281.900000

>ms2
50.015100 4167.200000
51.023000 8463.000000
53.002200 34717.000000
53.038600 64293.800000
55.017900 7469.800000
55.054300 60157.500000
56.049500 25410.900000
58.065100 19937.100000
65.038500 134835.800000
66.046400 8929.900000
67.054200 1031438.500000
69.069800 13217.200000
70.065100 3243.600000
74.014900 18669.500000
75.022900 288248.300000
77.038500 134481.400000
79.054200 243709.700000
81.069900 275519.300000
82.065100 4963.100000
91.054200 496310.700000
94.077800 6542.100000
95.029000 7804.200000
95.049100 87455.500000
95.085600 10794.000000
97.044800 10824.200000
98.096400 9550.300000
101.038600 206334.600000
102.046400 3314.300000
103.054200 132260.000000
105.033600 14531.600000
105.044600 30664.100000
105.069900 28023.100000
107.085600 9016.900000
109.101200 15315.600000
113.039800 20624.300000
115.054200 307536.300000
116.062100 26091.700000
117.057300 32237.000000
117.069900 81413.000000
118.041400 12069.300000
118.064900 17347.300000
118.077700 5620.300000
119.049200 505764.800000
120.036800 4610.600000
121.044800 2847797.000000
123.035100 22790.400000
123.060300 26316.100000
124.055600 9616.800000
127.054200 45741.800000
128.049600 42219.900000
128.062000 184476.800000
129.044700 1423424.800000
129.069700 124137.700000
130.041800 11773.500000
130.065100 80836.800000
130.077600 72123.100000
131.060500 26899.100000
131.072900 18654.900000
132.044400 6398.900000
132.068200 13427.600000
132.080800 38828.600000
142.065200 233292.100000
142.077800 12228.500000
143.060300 17255.800000
144.068400 27530.800000
144.080800 162314.300000
145.064800 99168.800000
145.075700 29404.800000
146.060000 28833.800000
147.080400 33829.600000
148.055700 7812.100000
149.039700 501525.000000
154.065100 230434.000000
155.060300 126084.400000
155.072600 7793.900000
156.068300 44512.000000
156.080400 23821.100000
157.076000 75884.600000
158.084000 13321.700000
158.096600 10561.200000
159.091700 98680.600000
159.103100 15078.600000
160.075600 88374.700000
166.066100 5389.200000
168.068100 15102.600000
169.075800 22588.600000
170.071300 17103.600000
170.083700 7584.300000
171.091600 116299.500000
173.107000 3227.100000
174.091100 5915.300000
183.091800 5670.500000
184.087000 9865.500000
185.094500 18127.600000
185.107000 20877.500000
186.078500 4801.000000
198.103100 4797.800000
200.118100 27192.100000
201.102300 24876.300000
212.081700 5326.100000
242.128900 9780.900000

