>compound LU94632052
>parentmass 351.1955
>ionization [M+H]+
>formula C23H26O3
>rt 1258.440000
>profile orbitrap
#smiles_iso CC(=CC1C(C1(C)C)C(=O)OCC2=CC(=CC=C2)OC3=CC=CC=C3)C
#smiles_can CC(=CC1C(C1(C)C)C(=O)OCC2=CC(=CC=C2)OC3=CC=CC=C3)C
#inchikey SBNFWQZLDJGRLK-UHFFFAOYSA-N
#pubchem_id 4767
#mb_accession LU067203,LU067206

>ms2
59.049400 1565.100000
129.069800 3249.600000
142.077700 4839.400000
143.085800 12556.900000
155.085500 3425.300000
156.093500 22741.800000

>ms2
59.049200 3240.500000
129.069900 16935.900000
142.077900 7241.500000
143.085700 8281.500000
155.085600 13354.300000
156.093600 3533.800000

