>compound LU94274167
>parentmass 397.0424
>ionization [M+H]+
>formula C12H11F3N4O6S
>rt 886.800000
>profile orbitrap
#smiles_iso CN1C(=NN(C1=O)C(=O)NS(=O)(=O)C2=CC=CC=C2OC(F)(F)F)OC
#smiles_can CN1C(=NN(C1=O)C(=O)NS(=O)(=O)C2=CC=CC=C2OC(F)(F)F)OC
#inchikey GINFBXXYGUODAT-UHFFFAOYSA-N
#pubchem_id 3081367
#mb_accession LU014701,LU014702,LU014703,LU014704,LU014705,LU014706

>ms2peaks
75.021800 1901.800000
115.037700 5439.300000
130.061100 1371634.400000
354.036600 20180.500000

>ms2peaks
72.044300 8147.300000
73.039600 5290.300000
115.037600 26871.600000
129.053500 10838.300000
130.061200 1378176.600000
354.037200 3493.800000

>ms2peaks
58.028900 2470.800000
72.044500 13608.900000
73.039600 31688.900000
109.028300 2528.900000
113.039600 2807.200000
115.037700 123322.200000
123.035500 5369.600000
129.053300 13044.500000
130.061200 1071230.400000

>ms2peaks
55.029100 3844.900000
58.016300 9165.600000
58.028800 13820.500000
72.044400 13859.000000
73.039600 66110.300000
75.023000 3557.000000
109.028500 2133.800000
113.039700 6033.700000
115.037700 341690.300000
123.035300 8639.400000
129.053500 7336.100000
130.061200 693135.800000

>ms2peaks
55.029100 3600.400000
58.016200 23863.700000
58.028800 27371.600000
72.044300 13421.300000
73.039600 70674.500000
75.022900 4955.100000
83.029100 1923.600000
92.025700 2997.800000
98.034900 4724.500000
113.039700 5441.400000
115.037700 514076.400000
123.035300 8549.400000
130.061200 288505.300000
147.064000 3279.500000

>ms2peaks
55.029100 3360.300000
58.016200 61980.500000
58.028800 78979.900000
72.044300 14619.400000
73.039500 40059.300000
75.022900 14627.200000
83.029100 4207.300000
92.025700 4046.500000
98.034900 3456.500000
113.039800 5082.200000
115.037700 554071.600000
123.035300 4914.400000
130.061200 106641.600000
147.064100 2090.500000

