>compound LU94922766
>parentmass 284.1412
>ionization [M+H]+
>formula C15H22ClNO2
>rt 1090.380000
>profile orbitrap
#smiles_iso CCC1=CC=CC(=C1N([C@@H](C)COC)C(=O)CCl)C
#smiles_can CCC1=CC=CC(=C1N(C(C)COC)C(=O)CCl)C
#inchikey WVQBLGZPHOPPFO-LBPRGKRZSA-N
#pubchem_id 11140605
#mb_accession LU114301,LU114302,LU114303,LU114304,LU114305,LU114306

>ms2peaks
73.064700 150499.300000
176.143600 41679.300000
212.083700 118992.100000
252.114900 9503125.000000
284.141200 2876464.800000

>ms2peaks
73.064800 487659.200000
146.096700 17333.600000
158.096400 12722.800000
160.112500 16075.100000
174.128000 11970.100000
176.143500 796381.600000
212.083800 232032.300000
252.115000 10843166.000000
284.141400 96292.100000

>ms2peaks
53.002200 6777.700000
60.080800 15156.800000
73.064800 552689.100000
76.978800 118686.700000
91.054000 23371.800000
107.049000 6622.500000
107.085600 8223.500000
108.080800 18197.800000
109.064700 22410.900000
117.069900 19182.400000
118.065100 13637.600000
119.072700 6363.200000
119.085600 50032.700000
120.080800 36729.400000
130.065300 10994.000000
131.073000 16681.200000
131.085600 13226.600000
132.080800 33187.000000
133.088600 76617.200000
134.096400 350781.600000
135.080400 23274.800000
136.112200 16530.800000
137.096200 9499.100000
143.072900 23829.500000
144.080800 28918.900000
145.088600 57082.100000
146.096400 225473.900000
147.104200 32451.800000
148.075600 17637.100000
148.112000 74104.900000
158.096500 151960.500000
159.104400 50057.000000
159.116700 6701.600000
160.112000 192283.400000
161.119800 7942.600000
162.091300 36425.800000
166.041800 6453.900000
174.127900 58909.500000
175.135600 26801.900000
176.143400 4458715.500000
179.049700 4878.300000
182.073100 12114.900000
184.052400 216837.000000
188.107000 15773.200000
192.057400 8609.000000
194.073100 128779.300000
202.122700 13818.800000
210.068300 17891.200000
212.083600 223979.400000
224.120000 31036.800000
234.103900 5120.500000
252.114900 4814096.000000

>ms2peaks
53.002200 24944.400000
53.997500 4931.800000
56.049400 22354.900000
60.080800 21057.300000
69.069900 7545.100000
73.064800 427477.600000
76.978800 345278.100000
79.054300 13901.400000
91.054200 232333.100000
93.057600 6131.400000
93.069900 41463.200000
95.049100 7032.600000
103.054000 21493.100000
104.062200 12633.900000
105.070000 33710.500000
106.065200 15649.200000
107.049100 14700.800000
107.073000 11323.800000
107.085600 48826.800000
108.080800 141830.900000
109.064800 100641.800000
115.054100 26930.200000
117.057400 16478.600000
117.069900 180274.700000
118.065200 69961.600000
119.073000 106973.100000
119.085600 196349.900000
120.080900 223133.700000
121.065000 9090.800000
129.070000 12782.600000
130.065200 76022.600000
131.073000 120980.200000
131.085500 58847.000000
132.080900 176551.700000
133.088600 600443.900000
134.096400 1579567.600000
135.080400 50578.500000
135.104300 13983.200000
136.112100 41165.800000
137.096100 13233.500000
141.069800 4645.500000
142.077600 5010.500000
143.073000 126945.000000
143.085600 7006.500000
144.080900 151051.700000
145.088600 195329.500000
146.096400 560855.800000
147.067600 18599.900000
147.104200 131417.500000
148.075500 44786.400000
148.112000 197941.700000
156.080900 5223.600000
157.088700 7640.200000
158.096500 355528.000000
159.104300 183042.700000
159.117000 14441.300000
160.112100 552412.400000
161.120000 25847.700000
162.091300 104363.100000
162.127500 8214.200000
166.042000 24780.700000
170.095700 6454.800000
174.091500 11563.800000
174.127900 60907.400000
175.135500 12515.500000
176.143400 4118911.200000
178.041700 11265.200000
179.050000 6163.100000
182.036800 13833.000000
182.073300 13997.000000
184.052400 416551.600000
188.107000 33344.000000
192.057700 14475.800000
194.073200 115891.100000
196.052700 13151.300000
202.122700 36867.000000
210.068400 5262.600000
212.083600 130496.700000
224.084000 14287.600000
224.120100 17954.200000
234.105400 5714.800000
252.115000 807855.800000

>ms2peaks
53.002200 35658.900000
53.038700 7143.500000
53.997500 5399.600000
56.049500 19906.100000
58.065200 6153.800000
60.080700 14929.600000
65.038500 23108.700000
67.054200 3575.700000
69.069700 4188.600000
73.064800 211913.800000
75.994900 5364.200000
76.978900 220791.200000
78.046600 6016.800000
79.054200 51383.800000
81.070000 11397.900000
91.054300 546969.100000
92.062000 3943.500000
93.057300 46961.400000
93.069900 95766.900000
94.041400 4507.300000
94.065400 7071.200000
95.049300 20760.400000
103.054300 63437.000000
104.062100 37467.400000
105.069900 82991.400000
106.065200 47527.300000
106.077600 5843.400000
107.049200 25259.400000
107.073000 44198.000000
107.085600 60870.700000
108.080800 318478.400000
109.064800 140141.200000
115.054300 101472.500000
116.061900 16480.300000
117.057400 37641.000000
117.069900 307516.000000
118.065100 141835.100000
119.073000 378415.900000
119.085600 192724.600000
120.080800 300342.000000
121.065000 10728.100000
121.088900 4376.000000
128.062100 8483.700000
129.070100 26827.700000
130.065200 133099.200000
130.077800 10002.500000
131.073000 218481.400000
131.085400 55794.200000
132.080800 354727.800000
133.088600 915915.800000
134.096400 1278097.400000
135.080300 24262.200000
135.104200 11002.200000
136.112100 23909.300000
139.031100 9975.900000
141.069800 14964.700000
142.077500 6233.500000
143.073000 182010.800000
144.080800 290375.000000
145.088600 224063.700000
146.060300 36277.200000
146.096400 578288.100000
147.067900 24735.600000
147.104200 97795.500000
148.075800 31657.800000
148.112100 135674.100000
156.080900 6755.200000
157.088600 13132.700000
158.096500 233323.500000
159.104300 167062.600000
160.112100 447603.100000
161.120000 33403.500000
162.091400 70561.000000
162.127900 6876.000000
166.041900 26746.300000
170.096500 4373.000000
174.091500 7321.300000
174.127800 25027.700000
176.143400 900571.000000
178.042200 15470.300000
182.036700 8671.800000
182.073400 3709.100000
184.052400 201513.900000
188.107200 23042.600000
192.057300 6654.500000
194.073100 25814.900000
196.052700 4922.000000
202.122800 13431.900000
212.084000 20909.300000
224.083900 5423.900000
252.115000 47666.800000

>ms2peaks
53.002200 38033.800000
53.038600 23126.400000
53.997500 7709.400000
56.049500 13978.100000
58.065100 4076.700000
60.080700 8693.300000
65.038500 63715.200000
67.054200 6494.000000
73.064700 85012.500000
75.994900 6359.200000
76.978800 126427.300000
78.046400 18564.100000
79.054200 87738.900000
81.069900 14691.700000
91.054200 899584.600000
92.061900 8851.600000
93.057300 134478.600000
93.069900 99935.200000
94.041300 7614.100000
94.065100 8508.800000
95.049100 68797.500000
103.054200 111136.600000
104.062000 85682.900000
105.069900 90655.200000
106.065200 75041.100000
106.077700 8969.300000
107.049200 21836.000000
107.073000 79513.300000
107.085500 36030.400000
108.080800 320592.100000
109.064800 114115.200000
115.054300 217406.100000
116.062000 33905.200000
117.057300 77595.800000
117.069900 296142.900000
118.065100 227515.300000
119.073000 517838.200000
119.085500 107638.700000
120.080800 260697.500000
121.064900 7382.300000
121.088700 3498.700000
128.062200 12777.000000
129.070000 30958.200000
130.065200 209953.000000
131.073000 340882.300000
132.080800 528189.900000
133.088600 646982.900000
134.096400 487257.400000
135.080700 5907.600000
135.103900 5888.600000
136.112100 8376.900000
139.030800 4831.700000
141.069900 11739.300000
142.078100 4702.900000
143.073000 181507.000000
143.085900 9504.500000
144.080800 344772.500000
145.088600 239169.500000
146.060300 39656.100000
146.096400 387413.600000
147.068100 30228.900000
147.104200 28472.200000
148.075600 14540.200000
148.112100 52022.400000
156.080600 12006.700000
157.088700 23793.000000
158.096400 153540.700000
159.104300 82616.800000
160.112100 214710.000000
161.120000 19127.800000
162.091300 31876.600000
162.128000 4825.500000
166.041700 13757.000000
172.111700 3699.400000
174.091800 3005.500000
174.127900 8802.700000
176.143400 105204.700000
178.041900 13223.100000
184.052200 45232.500000
188.107400 6659.100000

