>compound LU94794801
>parentmass 325.1217
>ionization [M+H]+
>formula C15H20N2O4S
>rt 965.160000
>profile orbitrap
#smiles_iso CC(=O)C1=CC=C(C=C1)S(=O)(=O)NC(=O)NC2CCCCC2
#smiles_can CC(=O)C1=CC=C(C=C1)S(=O)(=O)NC(=O)NC2CCCCC2
#inchikey VGZSUPCWNCWDAN-UHFFFAOYSA-N
#pubchem_id 1989
#mb_accession LU089401,LU089402,LU089403,LU089405,LU089406

>ms2peaks
83.085500 18901.000000
100.112100 2471.500000
119.049700 2358.000000
125.059800 2199.400000
147.080400 15890.300000
163.075300 2027.900000
165.090800 2383.800000
171.080500 6366.800000
183.011200 7114.900000
185.096300 3141.500000
197.096600 2028.400000
200.037800 43030.500000
221.096000 1873.400000
223.111700 5769.400000
237.128100 4473.400000
243.043600 302306.300000
249.127600 4345.600000

>ms2peaks
55.054300 14773.400000
83.085600 45892.700000
91.054500 2179.000000
93.070000 3100.100000
97.064700 2120.500000
100.112100 4287.400000
107.085600 5264.500000
111.044100 2113.000000
119.049300 4023.900000
119.085900 3255.400000
121.064700 11701.100000
125.060100 2986.700000
131.085300 2417.400000
133.065300 1804.900000
133.101000 2449.700000
135.080700 6572.500000
137.060000 3010.100000
147.055300 14738.900000
147.080500 43404.500000
149.096400 2429.600000
151.075700 2040.000000
157.101500 2070.500000
159.080900 3664.700000
161.096100 5300.700000
163.075600 2840.300000
165.091500 4831.500000
171.080600 26749.000000
173.096400 15616.200000
183.011200 66715.600000
185.096300 3339.800000
187.112000 3581.800000
197.096500 8598.000000
199.112200 5633.700000
200.037700 46440.200000
209.096300 5526.500000
211.111900 6150.200000
221.096300 2689.000000
223.111900 28971.400000
225.127900 6782.500000
235.111600 3550.200000
237.127500 8619.000000
243.043600 26663.700000
247.111800 5015.700000
249.127500 11054.700000
261.127100 2897.400000
263.142900 10871.500000

>ms2peaks
55.054300 44854.000000
67.054300 5419.600000
79.054300 6139.700000
81.070000 7605.500000
83.085600 58334.500000
91.054300 51913.300000
93.069900 11014.900000
95.049300 3100.200000
95.085600 7360.300000
97.065000 4812.800000
100.112100 2660.400000
105.070000 12055.700000
107.085600 10406.700000
109.064900 2234.600000
109.101400 4700.000000
111.044400 1973.900000
117.070000 3301.300000
119.049300 30173.300000
119.085600 12997.300000
121.064900 40302.500000
125.059900 3898.500000
129.070000 4292.300000
130.079000 1820.500000
131.085800 6748.400000
133.065300 2879.300000
133.101400 6718.400000
135.080700 12516.100000
137.059900 22808.500000
143.085600 5064.300000
145.064700 9494.400000
145.101400 5194.100000
147.055400 111668.000000
147.080500 110881.800000
149.096300 3105.600000
151.075500 3905.100000
157.101400 7017.400000
158.072900 2227.600000
159.080600 17424.000000
161.096200 12276.800000
163.076000 5593.400000
165.091100 4558.600000
171.080600 67361.700000
173.096300 34216.300000
179.085700 2796.400000
183.011300 60734.900000
185.096600 9943.600000
187.112200 4720.600000
195.081000 4391.400000
195.117200 4830.900000
196.088400 3032.900000
197.096200 18058.600000
199.112300 8576.500000
200.038000 9549.300000
205.101700 7234.900000
208.088700 7598.800000
209.096300 13243.200000
210.104700 4855.900000
211.112000 15434.900000
219.116500 2280.000000
221.096100 10097.000000
222.104200 3619.100000
223.112000 45190.700000
224.120000 6448.100000
225.128200 11853.700000
233.096300 2509.700000
234.103900 5428.300000
235.112000 6347.400000
236.120300 3426.300000
237.127700 17990.900000
245.096500 5062.700000
247.111800 5736.700000
249.127600 12048.400000
259.112100 5328.200000
261.127800 6425.400000
263.142900 9196.500000

>ms2peaks
53.002200 2395.900000
53.038600 7965.700000
55.054300 64651.900000
65.038600 22787.300000
67.054200 7782.400000
69.033400 4899.600000
79.054200 16599.900000
81.033400 2062.400000
81.069900 7543.700000
83.085600 15611.300000
91.054300 322826.800000
93.069900 13646.900000
95.049300 18376.100000
95.085400 4006.800000
97.065100 2119.200000
103.054300 4860.900000
105.044600 5481.600000
105.069900 26244.700000
107.049200 5804.800000
107.085700 7350.100000
109.064800 2962.200000
115.054200 11738.700000
117.070000 12853.300000
119.049200 17112.300000
119.085600 27553.900000
121.064800 35046.600000
128.062000 19873.000000
129.070100 11916.600000
130.077600 3474.800000
131.049400 2617.900000
131.085800 5345.300000
132.056900 11225.700000
133.064900 4209.600000
135.080300 4194.100000
137.060000 6364.700000
141.069900 5676.800000
142.078000 4944.700000
143.085400 10132.200000
144.057200 4254.900000
145.064800 14985.600000
145.101400 4447.100000
147.055300 30436.500000
147.080500 46436.900000
152.062700 2186.600000
153.070100 4996.100000
155.060200 4516.600000
155.085700 4750.500000
157.064800 2183.100000
158.072800 18015.200000
159.080600 11718.900000
165.070100 11648.700000
166.077800 5135.200000
167.085600 3247.900000
169.065000 4977.700000
171.080500 35768.100000
173.096300 8433.400000
178.077800 6159.500000
179.085800 9174.500000
180.093600 4915.900000
181.064900 7181.400000
181.101400 6592.900000
182.072900 5214.700000
183.080400 3968.500000
189.070200 5063.000000
190.077800 9274.800000
191.085700 6511.600000
193.101200 5105.600000
194.073000 7175.200000
195.080600 12330.900000
196.088800 7886.700000
197.096100 10622.400000
202.077800 2810.200000
203.086000 5422.000000
204.093400 2015.300000
205.101700 6350.000000
207.080800 5433.100000
207.117200 2338.500000
208.088500 19049.900000
209.096100 12185.300000
210.104000 4062.700000
211.111700 3006.500000
215.085800 4847.500000
216.093900 3099.700000
217.101200 4165.900000
219.080700 5391.600000
220.088900 2314.600000
221.096400 8248.700000
222.104400 9873.700000
223.112100 13234.100000
228.093800 1990.300000
229.101500 2016.800000
232.087900 3826.500000
233.096800 5163.400000
234.104700 6467.900000
235.111800 5380.000000
236.120300 3635.100000
237.127600 4127.100000
245.096700 4335.400000
246.104400 2580.800000
247.112400 2803.500000
249.128400 4304.700000
259.111900 6699.400000

>ms2peaks
53.002200 4052.700000
53.038600 18194.100000
55.054300 66526.600000
65.038600 71715.500000
67.054200 17178.100000
69.033400 3195.500000
79.054200 28519.400000
81.033600 3086.700000
81.069900 10607.200000
83.085500 7711.900000
91.054200 386108.900000
93.069900 14092.700000
95.049100 37302.400000
95.085400 2409.600000
103.054200 14920.000000
105.044800 17600.600000
105.069900 37005.700000
107.049100 14566.600000
107.085400 4228.300000
109.064800 2478.600000
109.101200 1884.700000
115.054200 33589.400000
117.069900 22256.200000
119.049200 6295.200000
119.085600 32595.900000
121.064800 36231.300000
128.062000 55752.500000
129.069900 23862.200000
130.077800 8807.800000
131.049100 11466.200000
131.085700 9399.100000
132.056900 28828.400000
133.064700 3305.900000
133.100900 2261.800000
135.080800 2340.200000
141.069900 26718.600000
142.077700 12125.000000
143.085500 13568.100000
144.056900 10579.800000
145.064800 23977.300000
145.101300 5921.500000
147.055400 8597.100000
147.080500 30006.500000
152.061800 10378.300000
153.069700 15978.200000
155.060500 4826.700000
155.085500 11618.900000
157.064900 11184.600000
158.072600 24538.900000
159.080500 8647.400000
165.069900 37742.100000
166.077800 10702.500000
167.085200 12631.100000
169.064600 9254.100000
171.080400 29365.300000
173.096200 4330.000000
178.077700 18067.200000
179.085600 31544.600000
180.093400 7133.000000
181.064800 23250.500000
181.101500 6543.700000
182.072900 10351.700000
183.080300 4865.800000
189.069700 17992.800000
190.077800 14163.700000
191.085300 15677.400000
193.101100 8350.300000
194.072300 11043.500000
195.080600 28925.400000
195.117200 2747.200000
196.088400 10537.400000
197.096100 5586.600000
202.077800 12182.200000
203.085200 12392.700000
204.094000 5222.000000
205.101500 7771.300000
207.080300 20816.800000
207.116900 2428.100000
208.088500 17075.800000
209.096000 19489.900000
210.103900 5024.600000
215.085500 13930.700000
216.093600 6824.700000
217.101100 4105.200000
219.080400 8639.700000
219.117400 3286.700000
220.088300 3952.000000
221.096300 16251.300000
222.103700 8886.900000
223.112100 11831.200000
224.119700 1816.800000
228.093700 2451.100000
229.101500 6542.300000
232.087800 4755.000000
233.095600 3700.700000
234.103900 3838.100000
235.111700 4376.100000
236.119800 2610.500000
245.096000 5147.500000
246.104200 1890.300000
247.111900 3432.000000
259.111600 4103.700000
261.125100 2214.000000

