>compound LU94982404
>parentmass 279.1339
>ionization [M+H]+
>formula C14H18N2O4
>rt 868.200000
>profile orbitrap
#smiles_iso CC1=C(C(=CC=C1)C)N(C(=O)COC)N2CCOC2=O
#smiles_can CC1=C(C(=CC=C1)C)N(C(=O)COC)N2CCOC2=O
#inchikey UWVQIROCRJWDKL-UHFFFAOYSA-N
#pubchem_id 53735
#mb_accession LU052501,LU052502,LU052503,LU052504,LU052505,LU052506

>ms2peaks
102.054900 19301.000000
121.065000 1845.900000
132.081000 4153.900000
133.088200 1904.800000
149.023600 3765.700000
219.112900 104991.300000

>ms2peaks
88.039300 2227.000000
102.055000 6771.900000
119.085700 3932.000000
132.080800 10665.600000
133.088600 16311.600000
134.060100 3820.000000
149.023500 3802.000000
160.017900 5355.600000
219.113000 28782.100000

>ms2peaks
88.039500 3660.000000
102.054900 4694.800000
117.057200 3813.500000
118.065200 2204.100000
119.085500 6352.200000
120.081100 2066.800000
132.080900 19459.700000
133.088700 31712.300000
134.060100 3778.300000
134.096600 3185.700000
149.023500 4102.400000
160.017500 3332.500000
219.056700 6472.600000
219.113200 3751.100000

>ms2peaks
58.065200 26039.400000
86.096500 24822.700000
91.054300 2052.500000
102.055000 3246.800000
105.070000 4557.400000
117.057400 8828.900000
118.065300 5057.400000
119.085700 6727.600000
120.080900 4003.100000
121.064800 2465.600000
132.080800 41875.800000
133.088600 16728.500000
149.023400 3065.700000
219.057600 6303.300000

>ms2peaks
58.065200 6743.400000
79.054200 3172.500000
86.096400 2161.000000
91.054400 7710.100000
95.049000 3208.700000
102.055000 2405.000000
105.069800 7672.000000
117.057300 19027.000000
118.065000 13609.900000
119.085600 7633.400000
120.080900 8786.900000
132.080900 91306.900000
133.088700 10649.500000
134.096300 2003.300000
149.023800 1894.800000

>ms2peaks
79.054100 2317.000000
91.054200 6246.500000
95.049100 6159.400000
105.069900 5623.200000
117.057400 15240.400000
118.065100 7313.600000
120.080700 2440.800000
132.080900 35436.500000

