>compound LU95704371
>parentmass 308.00399999999996
>ionization [M+H]+
>formula C15H8Cl2FNO
>rt 1197.060000
>profile orbitrap
#smiles_iso C1=CC(=CC=C1OC2=C3C(=CC(=CC3=NC=C2)Cl)Cl)F
#smiles_can C1=CC(=CC=C1OC2=C3C(=CC(=CC3=NC=C2)Cl)Cl)F
#inchikey WRPIRSINYZBGPK-UHFFFAOYSA-N
#pubchem_id 3391107
#mb_accession LU052701,LU052702,LU052703,LU052704,LU052705,LU052706

>ms2peaks
308.003700 27740728.000000

>ms2peaks
196.979300 48697.900000
213.981500 30737.200000
228.968700 38788.100000
245.040500 27995.000000
272.027200 266647.200000
280.008800 38791.600000
308.003900 27386634.000000

>ms2peaks
91.041500 22580.700000
111.023900 25286.700000
113.039600 34334.400000
118.028600 19220.900000
126.010500 27715.900000
133.052200 23502.900000
150.010600 46371.400000
162.010500 21380.000000
166.005100 37536.500000
168.020900 100480.800000
178.006100 28431.200000
178.016500 46417.500000
183.971400 57609.200000
195.971400 22488.200000
196.979300 1398858.200000
209.063200 30309.700000
210.071200 21182.600000
212.974100 40757.000000
213.982000 956646.100000
217.021000 26393.800000
225.033800 31818.800000
228.969100 1347642.900000
237.058300 100116.400000
238.066500 20541.200000
244.032300 370280.800000
245.040100 531737.300000
253.029200 47139.500000
254.036700 69063.400000
260.002300 26308.400000
272.027100 2847713.200000
273.035300 78964.200000
280.009000 404465.400000
287.997600 227129.100000
308.003800 16115663.000000

>ms2peaks
51.022900 18548.900000
53.002200 17921.500000
71.029100 74224.900000
74.015000 23733.600000
75.022900 234997.400000
79.017900 28314.700000
83.029100 52284.700000
90.033700 15376.100000
91.041700 66694.000000
91.054200 4895.400000
93.033500 10809.300000
95.029100 98629.900000
98.999800 12286.900000
99.023900 15308.100000
104.049400 5298.400000
109.044900 28803.400000
111.024200 38624.600000
112.031900 12775.600000
113.039700 420104.100000
114.034000 10087.100000
115.041600 22613.600000
118.028700 66771.700000
119.036500 13943.300000
122.999600 141611.600000
126.010500 92981.400000
132.044300 62195.200000
133.052200 120156.000000
138.010500 64212.200000
150.010500 240352.400000
154.005300 47023.800000
156.960100 7349.300000
161.002500 21842.100000
162.010400 911953.300000
164.997500 16333.100000
166.005400 190347.700000
167.013600 11818.900000
168.021100 421922.200000
169.968100 10728.200000
172.979200 14061.600000
178.005400 70031.600000
178.016500 154873.800000
179.013200 20693.200000
180.020800 41094.100000
183.060500 43156.900000
183.971600 159635.100000
184.979400 253306.100000
188.026000 16599.900000
190.065200 16925.000000
194.000000 31678.100000
194.036500 7841.400000
195.971500 70672.600000
196.979400 4533995.000000
197.987300 6699.400000
199.966200 34421.600000
200.974100 16628.400000
201.034200 11399.600000
208.055900 32508.600000
209.063500 258394.900000
210.071300 165715.000000
211.966100 18027.800000
212.974300 146819.200000
213.982000 3948635.000000
217.021400 93448.100000
218.060000 7254.600000
219.024400 79311.700000
224.026100 21732.900000
225.033900 194597.000000
226.041800 46785.400000
228.969200 4580003.000000
230.973400 21084.100000
232.991800 12309.200000
236.050800 12435.300000
237.058300 530265.200000
238.066500 75770.100000
243.024500 32936.500000
244.032300 750543.700000
245.040200 1109282.000000
252.021200 10974.000000
253.029000 139918.700000
254.036900 127120.100000
255.023500 25953.500000
256.031900 27006.900000
258.995400 6780.500000
260.002800 65790.300000
265.993300 22462.400000
271.018700 12481.600000
272.027200 3083648.800000
273.035200 76510.600000
279.001600 27523.500000
280.009100 269683.900000
287.997800 229407.400000
289.993500 8243.200000
308.004000 3354168.800000

>ms2peaks
50.015200 6881.300000
51.023000 23281.500000
53.002200 71359.000000
55.017900 7099.800000
57.013500 5588.900000
63.023000 10286.000000
65.038500 19263.200000
69.013500 5429.700000
71.029100 149897.000000
72.983900 5733.300000
73.008400 12062.200000
74.015000 151376.600000
75.022900 1231448.200000
79.017800 46907.800000
83.029100 72754.300000
87.023000 7831.500000
88.030700 8872.200000
89.038600 26008.900000
90.033800 19154.800000
91.041600 54250.800000
91.054100 8585.500000
93.033500 19293.000000
95.029100 378384.200000
98.999500 23008.200000
99.023900 20190.800000
104.049400 6991.100000
108.044400 5459.900000
109.044800 68585.200000
111.024000 13720.900000
112.031600 30561.600000
113.039700 841700.100000
114.033800 66306.600000
115.041600 173159.300000
118.028800 61167.600000
119.036600 14396.900000
122.999600 571795.200000
123.994800 17461.700000
124.007400 10231.600000
124.032400 13002.500000
126.010400 77504.500000
127.041500 52146.700000
132.044300 98734.600000
133.052200 85058.700000
138.010400 99653.700000
142.028700 17166.700000
144.044300 7839.100000
149.002900 5671.500000
150.010500 416319.500000
151.018200 136008.200000
154.005200 26068.400000
154.040000 15863.000000
156.960700 31593.900000
158.975900 6503.500000
161.002800 75252.700000
162.010400 4987351.000000
163.005700 5708.500000
164.997500 18975.100000
166.005300 171139.200000
167.013200 14158.100000
168.021000 463098.800000
169.968400 127531.200000
171.971600 48119.600000
172.966700 5674.600000
172.979400 23137.300000
178.005400 60514.400000
178.016600 125323.600000
179.013200 246531.900000
180.021000 172781.600000
181.045300 6740.200000
182.052800 12368.600000
183.060400 158378.400000
183.971600 125026.700000
184.055800 9346.600000
184.979300 700807.400000
185.987300 8149.400000
186.047700 22234.300000
189.057600 9106.700000
190.064900 111712.700000
191.072700 11846.300000
194.000500 33625.200000
194.036600 42214.700000
195.971600 72715.600000
196.979300 3620090.200000
197.987500 13796.600000
199.966200 49270.900000
200.975000 24147.500000
201.033700 10524.800000
204.013700 15015.800000
208.055700 121383.700000
209.063500 414889.200000
210.071300 284668.600000
211.003100 7138.200000
211.966500 36611.900000
212.974200 70424.400000
213.982000 4479928.500000
217.021400 95856.700000
217.052000 9211.100000
218.059400 11461.200000
219.024400 78373.800000
221.987000 26501.700000
224.026300 31221.800000
225.033900 243913.400000
226.042100 28367.300000
228.969100 3158828.800000
230.974300 13419.400000
231.024500 9532.500000
232.991600 7057.600000
236.050400 19476.100000
237.058300 815521.500000
238.066200 79513.900000
243.024500 95879.500000
244.032300 397765.500000
245.040100 541806.400000
252.021300 12860.800000
253.028600 120636.900000
254.036800 63648.200000
255.024300 24091.000000
256.031900 19950.200000
258.995300 10110.600000
260.002300 21787.000000
265.992000 9094.800000
271.019300 22429.600000
272.027200 978520.500000
273.035300 16672.000000
279.001300 20120.000000
280.008800 39430.400000
287.998000 61170.300000
289.993400 7572.600000
308.003900 204095.400000

>ms2peaks
51.023000 11738.600000
53.002200 144457.700000
55.017900 8841.000000
57.013500 11098.700000
63.023000 18819.000000
65.038600 34361.700000
69.013500 22724.200000
71.029100 151503.800000
72.983900 19616.300000
74.015000 485425.200000
75.022900 2841860.800000
79.017800 36704.600000
83.029100 76670.400000
87.022900 14696.100000
88.030700 14758.400000
89.038600 96798.600000
90.033900 21495.200000
91.041600 47189.100000
91.054300 12185.200000
93.033500 16612.600000
95.029200 522802.900000
98.999700 39025.600000
104.049400 12551.000000
109.044800 66600.600000
112.031800 33731.500000
113.039700 792541.100000
114.033800 160540.900000
115.041700 463562.500000
118.028700 62445.700000
119.036500 9271.300000
122.999600 1075818.500000
123.994800 42588.900000
124.007500 32500.200000
126.010600 69844.600000
127.041700 342700.000000
132.044400 119705.900000
133.052300 92185.200000
138.010400 45152.700000
142.028700 21156.500000
144.044500 55525.400000
149.002600 21315.300000
150.010600 588433.400000
151.018300 592512.700000
154.005700 29641.100000
154.040100 109332.800000
156.960500 63148.400000
158.976200 11657.000000
161.002700 123183.200000
162.010500 8528972.000000
163.005700 85064.400000
164.997500 15437.900000
166.005400 78564.000000
167.013000 14994.900000
168.021000 407753.200000
169.968500 328159.800000
171.971600 117746.700000
172.966700 46550.500000
172.979500 13969.400000
178.005500 76904.800000
178.016600 137758.400000
179.013300 625475.400000
180.021100 251130.500000
181.044700 36420.400000
182.052700 31909.500000
183.060500 292203.600000
183.971500 59645.700000
184.055700 27981.700000
184.979400 814663.400000
185.987200 17240.400000
186.047600 40370.600000
189.057300 24382.100000
190.065100 238800.500000
191.072900 21158.800000
194.000300 14990.600000
194.036900 76597.100000
195.971600 77558.000000
196.979400 1359426.500000
197.987400 9007.200000
199.966300 24195.700000
200.974500 14970.700000
201.034000 13986.100000
204.013300 13444.200000
208.055700 331924.400000
209.063500 461300.300000
210.071400 200391.400000
211.002700 13374.200000
211.966900 31108.200000
212.974600 22927.100000
213.982100 2634460.200000
217.021500 85813.800000
217.052400 9195.800000
218.060300 18241.900000
219.024700 42474.200000
221.987200 14677.400000
224.026300 36259.500000
225.034000 136450.700000
226.041700 23341.900000
228.969200 1028350.800000
231.024200 9810.600000
232.991700 9993.400000
236.050400 25031.200000
237.058400 609173.100000
238.066100 37399.900000
243.024500 105690.600000
244.032600 154959.900000
245.040100 130285.900000
253.028900 47975.500000
254.036900 31255.000000
255.024800 11758.500000
271.019300 21119.200000
272.027300 218746.900000
278.999800 9174.900000

