>compound LU95760757
>parentmass 181.09719999999996
>ionization [M+H]+
>formula C9H12N2O2
>rt 790.910000
>profile orbitrap
#smiles_iso CCOC1=CC=C(C=C1)NC(=O)N
#smiles_can CCOC1=CC=C(C=C1)NC(=O)N
#inchikey GGLIEWRLXDLBBF-UHFFFAOYSA-N
#pubchem_id 9013
#mb_accession LU138001,LU138002,LU138003,LU138004,LU138005,LU138006

>ms2
108.044400 73805.200000
109.052300 17033.300000
110.060100 185488.600000
136.075800 824374.500000
137.083700 4159.700000
138.091400 1074836.900000
164.070600 184487.100000
181.097200 4089247.000000

>ms2
92.049700 6935.400000
93.057300 3585.900000
108.044400 109297.000000
109.052200 24679.800000
110.060100 252866.900000
111.044100 4545.900000
135.068300 38647.200000
136.075900 962474.600000
137.083600 8071.800000
138.091400 1157977.200000
153.066200 7034.600000
153.078900 7613.100000
164.070600 183771.900000
181.097200 3244498.000000

>ms2
65.038500 21764.100000
81.033400 4844.900000
82.065100 20439.200000
92.049500 54142.400000
93.033600 26218.200000
93.057300 42397.900000
94.065100 7221.200000
108.044400 991357.900000
109.052200 50175.000000
110.060000 1158789.000000
111.044000 70055.500000
121.028400 5433.800000
125.059800 3841.000000
135.044700 2407.500000
136.075700 1593778.000000
137.083500 17959.600000
138.091300 1257306.000000
139.075200 2592.700000
139.086400 2758.300000
153.065800 6505.400000
164.070500 65664.000000
181.097100 473331.900000

>ms2
53.038700 3659.200000
65.038500 174432.300000
67.041600 4951.300000
67.054200 11852.200000
80.049500 13133.000000
81.033500 40874.200000
81.057300 7262.500000
82.065100 76819.700000
90.033600 2636.900000
91.054200 4297.100000
92.049500 195501.200000
93.033500 112780.700000
93.057300 99144.500000
94.065100 12202.900000
95.049000 7270.800000
97.007600 2794.200000
108.044400 2331396.200000
109.052200 93484.900000
110.060000 1704830.500000
111.044000 294812.700000
121.028500 13136.800000
121.039700 11269.300000
124.075600 3506.100000
125.059800 19439.500000
135.044100 4398.000000
136.039400 42727.200000
136.075700 760268.400000
137.083400 17443.300000
138.091400 511880.600000
139.075700 2953.800000
139.087000 2691.200000
146.034900 6902.000000
149.071600 3344.400000
164.070500 19953.700000
181.097200 33962.300000

>ms2
53.038600 12401.700000
55.054300 5098.500000
65.038500 645032.900000
67.041600 22087.900000
67.054200 25089.800000
68.013000 11811.100000
69.033400 3296.600000
79.054200 4397.400000
80.049400 58979.700000
81.033500 203220.400000
81.057300 19180.500000
82.065100 142289.200000
83.049100 4983.200000
90.033900 10093.300000
91.054100 11167.100000
92.049500 314566.900000
93.033500 190941.600000
93.057300 157683.100000
94.065100 13727.000000
95.049100 19677.500000
105.044700 9368.000000
108.044400 2680857.800000
109.052200 135088.200000
110.060000 1295077.100000
111.044000 552631.200000
121.028400 11027.100000
121.039600 33396.100000
124.075600 3980.900000
125.059700 25473.400000
135.043900 3885.200000
136.039300 16748.600000
136.075700 178364.800000
137.083400 7979.000000
138.091300 123436.700000
139.075100 3534.700000
146.034500 4327.200000
164.070400 4674.200000

>ms2
53.002200 8584.000000
53.038600 32609.900000
55.017900 6738.300000
55.054300 13315.200000
65.038600 1282062.100000
67.041600 41438.300000
67.054200 24622.500000
68.013100 37371.100000
68.049400 3375.600000
69.033600 2460.800000
79.054000 2405.500000
80.049500 133772.700000
81.033500 604963.600000
81.057300 40506.700000
82.065100 145800.200000
83.049100 13589.200000
90.034000 14664.500000
91.054200 14997.300000
92.049500 343534.200000
93.033500 173143.700000
93.057300 203256.200000
94.065000 7846.400000
95.049100 26360.500000
97.007600 5131.500000
105.044800 11167.600000
108.044400 2209442.800000
109.052300 176738.100000
110.060100 681640.500000
111.044100 513439.200000
121.028800 5165.100000
121.039700 57775.200000
124.075600 5176.100000
125.059700 26387.200000
136.039200 5565.300000
136.075800 31540.300000
137.083500 4492.700000
138.091400 24133.000000
139.074400 2537.100000
146.035000 4461.600000

