>compound LU95352687
>parentmass 359.18530000000004
>ionization [M+H]+
>formula C21H26O5
>rt 926.220000
>profile orbitrap
#smiles_iso C[C@]12CC(=O)[C@H]3[C@H]([C@@H]1CC[C@@]2(C(=O)CO)O)CCC4=CC(=O)C=C[C@]34C
#smiles_can CC12CC(=O)C3C(C1CCC2(C(=O)CO)O)CCC4=CC(=O)C=CC34C
#inchikey XOFYZVNMUHMLCC-ZPOLXVRWSA-N
#pubchem_id 5865
#mb_accession LU057301,LU057302,LU057303,LU057304,LU057305,LU057306

>ms2
93.069900 20528.000000
95.049100 5261.800000
95.085700 3764.000000
97.064600 2981.600000
101.059700 11317.200000
107.085500 9621.900000
109.064700 9897.800000
111.080200 5899.900000
119.085500 5074.000000
121.064900 6839.300000
123.080400 6187.700000
125.096000 3017.800000
135.080400 21745.000000
137.059500 2804.200000
137.096200 25670.600000
139.075400 9741.400000
147.080400 121028.900000
153.091100 18232.300000
155.070200 3447.700000
159.080400 24208.200000
161.096100 28404.900000
163.075300 11045.300000
165.091400 10113.000000
171.080400 43872.000000
173.096100 20358.300000
177.091000 5182.100000
181.086000 26773.300000
183.101600 38364.700000
185.059900 2769.500000
185.096200 5453.100000
187.075400 19903.600000
187.111700 5165.300000
189.091200 3529.200000
197.096200 33218.000000
199.111900 11791.500000
203.106800 2736.500000
209.096600 13032.300000
211.111900 10054.900000
213.091100 4492.000000
213.127500 53722.000000
215.106800 5699.800000
221.096100 6806.900000
223.112400 13912.900000
225.091000 4254.400000
225.127500 12108.500000
227.106100 3874.500000
227.142500 2794.700000
235.111700 10981.700000
237.127500 105589.100000
239.106800 33887.700000
239.142800 11505.200000
241.122300 5083.000000
249.127500 5064.600000
251.143400 5968.600000
253.122400 48197.800000
253.158800 9204.700000
255.138200 29417.400000
255.173900 5715.000000
261.127400 39088.000000
263.143200 49827.700000
264.150700 4962.600000
265.122400 6955.200000
265.158800 98762.000000
267.138000 148925.400000
267.173200 13160.400000
275.143000 9787.600000
277.158900 55230.700000
279.137800 13614.200000
281.153700 34916.200000
283.169600 39483.200000
287.143400 32457.600000
293.154000 30891.800000
295.169400 220335.800000
297.148400 15889.700000
305.153700 146772.600000
311.164200 46406.600000
313.179900 292564.300000
323.164300 287104.900000
341.174900 697810.100000
359.185500 755149.500000

>ms2
55.054100 4498.500000
57.033400 2155.800000
69.033400 5361.500000
69.069800 4559.500000
71.049200 5148.400000
73.064700 6513.200000
79.054100 4900.900000
81.033300 3033.200000
81.069900 17588.600000
83.049000 5115.200000
85.064600 11990.800000
91.054300 3030.800000
93.069900 45475.900000
95.049100 23825.200000
95.085600 40888.800000
97.064800 14852.000000
99.044000 8454.700000
101.059800 18699.000000
105.069800 9520.100000
107.049100 2867.600000
107.085500 31809.100000
109.064800 46553.700000
109.101100 9444.400000
111.044000 3616.500000
111.080400 21529.000000
117.069900 6608.600000
119.085600 19096.600000
121.064700 43910.700000
123.080300 22845.800000
125.059900 2679.900000
125.095900 12114.000000
129.070300 2113.900000
131.085500 5302.000000
133.064600 6941.700000
133.101000 2660.400000
135.080400 75691.600000
137.059800 5429.700000
137.096200 17511.500000
139.075400 23661.000000
145.064700 5920.200000
147.080400 248468.800000
149.059800 3555.600000
149.096000 6193.500000
151.075200 6506.500000
153.091100 36794.400000
155.070600 3309.400000
158.072600 2567.200000
159.080400 78981.100000
160.088400 2917.800000
161.096000 52043.100000
163.075200 25908.000000
165.091000 7007.500000
169.100600 2449.100000
171.080400 123743.700000
173.096100 70895.400000
175.075100 4104.700000
175.111700 5098.900000
177.090900 7917.400000
179.085500 4000.700000
181.085800 15384.300000
181.100600 2381.000000
183.080400 7780.600000
183.101600 18148.700000
185.059600 7718.200000
185.096100 22193.900000
187.075400 50804.600000
187.111800 38884.700000
189.090900 14625.300000
195.080700 11200.800000
197.096100 98027.900000
199.111800 54876.400000
201.090800 4182.100000
201.127000 4331.300000
203.106700 4183.800000
208.088200 3244.800000
209.096000 29050.100000
209.132900 2738.300000
210.104500 2761.900000
211.111800 33654.900000
212.119600 3017.700000
213.090900 9760.300000
213.127500 43728.600000
215.106800 21155.600000
219.117100 2699.500000
221.096100 26942.800000
222.103900 8663.500000
223.111600 40845.100000
224.119700 3396.400000
225.091100 6402.900000
225.127500 44986.900000
227.106200 9955.800000
227.143200 30619.700000
234.104000 3365.800000
235.111600 38073.700000
237.127300 174249.100000
239.106400 27918.500000
239.143000 50496.400000
241.122200 11799.900000
246.104200 5467.800000
247.111900 9195.300000
248.119600 7664.800000
249.127200 39313.100000
250.136200 2520.300000
251.107300 2506.800000
251.143100 23240.300000
252.151400 2878.800000
253.122200 62235.800000
253.158500 24245.700000
255.137900 74715.400000
255.173900 3981.600000
258.103900 2444.400000
259.112000 2534.200000
259.148600 2803.700000
260.119200 3298.200000
261.127600 37089.600000
262.135300 19653.300000
263.143100 85336.400000
264.151000 33098.000000
265.122600 8753.000000
265.158700 120524.600000
267.138100 112643.500000
267.173900 23267.500000
272.119500 8579.100000
275.142500 22848.900000
277.122300 6098.000000
277.158700 97345.700000
279.138400 14946.300000
280.145600 5316.100000
281.153500 39102.700000
283.169100 14131.800000
287.143100 29280.900000
290.130200 3361.700000
292.145800 7672.000000
293.153500 40442.600000
295.169300 108862.400000
297.148200 17303.700000
305.153600 58840.600000
311.163800 16420.300000
313.179900 60813.400000
323.164300 67114.400000
341.174900 57113.600000
359.183100 3592.700000

>ms2
53.038600 2535.900000
55.017800 8013.800000
55.054200 10888.400000
57.033400 3821.300000
67.054200 16910.700000
69.033500 13335.300000
69.069800 10649.700000
71.049100 9521.600000
73.064700 6677.300000
75.043900 2463.100000
79.054200 27131.500000
81.033500 5772.200000
81.069800 44764.100000
83.049200 11618.100000
85.064800 6316.000000
91.054200 26489.000000
93.069900 70385.700000
95.049100 39616.000000
95.085500 62495.600000
97.064800 18314.700000
99.044100 10536.300000
101.059700 5477.600000
105.069800 34201.900000
107.049000 6475.000000
107.085500 59764.400000
109.064700 54470.900000
109.101200 12240.100000
111.044100 9620.800000
111.080400 18987.800000
115.054200 3899.900000
117.069800 18238.500000
119.085400 34455.900000
121.064800 99811.100000
123.080300 20317.000000
125.059800 5951.800000
125.096100 8003.900000
128.062100 2647.000000
129.069800 9017.200000
131.085500 18548.400000
133.064700 19538.100000
133.101000 6425.800000
135.080400 80280.500000
137.059700 6234.100000
137.096000 8939.900000
139.075100 11530.200000
141.069700 6504.200000
143.085700 7268.900000
145.064800 30616.500000
145.101100 6032.400000
146.072800 7514.400000
147.080400 304887.100000
149.059800 3076.300000
149.096200 7594.400000
151.075400 4653.000000
153.069900 4739.500000
153.090900 10860.800000
155.085700 7039.400000
157.065000 4833.200000
157.100900 3092.400000
158.072600 10249.200000
159.080400 132115.700000
160.088300 6292.800000
161.096100 50889.700000
163.075300 20547.300000
165.091000 3232.900000
167.085600 4501.700000
169.064800 4356.000000
169.101200 9160.600000
170.072900 3113.800000
171.080400 194428.200000
172.088600 2500.800000
173.096100 101572.700000
175.075600 4604.200000
175.111600 4501.200000
177.091100 5856.800000
179.085500 21341.500000
181.064700 6015.800000
181.101000 10257.800000
182.072700 6606.900000
183.080500 35401.900000
183.101600 2589.400000
184.088300 5028.700000
185.059800 5652.800000
185.096000 39590.000000
186.103700 6843.600000
187.075400 39716.800000
187.111700 41356.400000
189.090700 14032.800000
191.085600 3105.100000
192.093300 3062.300000
193.101100 6493.400000
194.072600 3726.900000
195.080400 20306.200000
195.116800 4894.200000
196.088200 12133.700000
197.096000 78020.200000
198.103600 4695.800000
199.111700 51287.500000
201.091200 2765.300000
201.126800 3418.500000
204.093400 4333.600000
205.100900 6261.000000
207.116800 7877.800000
208.088500 19805.200000
209.096100 51406.100000
209.132200 9854.600000
210.103700 15747.900000
211.111700 45518.600000
212.119300 19421.400000
213.091000 7910.900000
213.127300 23258.900000
215.106700 7972.100000
216.094000 2429.500000
219.081300 2412.000000
219.116900 12521.700000
220.088100 5674.800000
221.096000 34566.400000
221.132600 4109.100000
222.103900 61120.000000
223.111700 51481.900000
224.119100 13297.600000
225.091500 4332.200000
225.127500 42593.400000
227.106800 7949.200000
227.143100 36479.100000
228.094100 2302.400000
229.101900 2737.300000
230.109200 2546.600000
231.079300 2364.000000
231.116700 3578.800000
232.089000 3098.000000
233.096100 11582.500000
234.104000 19051.400000
235.111700 41657.700000
236.119700 9310.500000
237.127300 115889.700000
238.098800 7645.600000
238.135300 9538.200000
239.106500 16179.100000
239.142800 41138.100000
240.114400 4183.900000
241.121800 4222.900000
243.116800 3600.500000
245.096000 4447.500000
245.132200 3508.500000
246.103700 20650.000000
247.111500 12747.800000
247.148500 4920.200000
248.119500 28648.100000
249.127400 56896.100000
250.135600 5646.900000
251.106300 3260.400000
251.143200 20132.700000
252.151200 4969.800000
253.122300 32184.300000
253.158900 11204.600000
255.138000 21794.000000
257.096200 3073.700000
258.104100 3316.700000
259.111700 3985.900000
259.148300 2805.300000
260.119300 8304.400000
261.127500 14294.700000
262.135100 23860.900000
263.142800 45329.900000
264.150900 19472.200000
265.122200 3112.700000
265.158700 56403.300000
267.138200 18647.600000
267.174400 5244.900000
272.119500 14602.200000
275.143100 8718.900000
277.122400 5176.000000
277.158200 24750.300000
279.137700 4193.800000
280.145800 4022.000000
281.153600 6797.800000
287.143300 9226.500000
290.130700 4760.000000
292.146400 12352.700000
293.153400 11381.000000
295.169100 10008.400000
297.149300 4937.200000
305.153500 4803.600000
323.163100 4293.200000

>ms2
53.038600 11161.400000
55.017900 15297.800000
55.054300 28537.200000
57.033500 5396.600000
65.038600 5673.400000
67.054200 41851.700000
69.033500 23356.900000
69.069800 10603.000000
71.049200 9325.900000
73.064800 2576.100000
75.044100 5313.500000
79.054300 68890.000000
81.033400 6212.400000
81.069900 62235.400000
83.049300 12684.100000
85.065000 4715.700000
91.054300 96830.700000
93.069900 87433.200000
95.049200 61003.300000
95.085600 72538.100000
97.064900 16266.300000
99.044000 6238.300000
103.054200 6717.100000
105.069900 71982.300000
107.049100 14162.500000
107.085600 57510.200000
109.064900 50920.300000
109.101300 8093.500000
111.044100 7647.700000
111.080400 15451.600000
115.054100 15433.300000
117.070000 32035.800000
119.085600 68819.900000
121.064900 136401.400000
123.080400 14158.400000
125.060200 2557.800000
125.096200 3021.900000
128.062200 20328.300000
129.069800 21405.500000
130.077400 3067.200000
131.085700 49541.600000
132.057200 12891.100000
133.065000 16321.500000
133.101000 11975.900000
135.080400 52029.100000
137.059900 6392.200000
141.070000 30766.300000
142.077700 4853.900000
143.085700 14398.200000
144.057000 16265.000000
145.064900 67512.200000
145.101300 11536.600000
146.072700 34027.300000
147.080500 315985.900000
149.095900 5068.400000
152.062200 4333.800000
153.070000 18696.600000
154.078000 4627.800000
155.085400 16909.000000
156.093100 3256.600000
157.065100 12561.800000
157.101200 4887.200000
158.072700 53445.900000
159.080500 147764.700000
160.088300 10210.400000
161.096200 42016.100000
163.075500 10988.000000
165.069500 12222.400000
166.078000 10218.100000
167.085800 21261.700000
168.056800 2214.800000
168.093800 2326.100000
169.064800 18533.900000
169.101400 14193.600000
170.072600 9287.700000
171.080500 238690.000000
172.088400 10858.000000
173.096200 94791.500000
178.077600 12320.800000
179.085600 56717.300000
180.093400 7229.000000
181.065000 18773.800000
181.101200 20049.000000
182.072700 23523.600000
183.080700 50357.400000
184.088400 19677.200000
185.059900 6695.700000
185.096200 37758.700000
186.104000 8993.900000
187.075400 17804.600000
187.111700 17664.200000
189.090800 11463.500000
190.077900 6193.500000
191.085800 17639.400000
192.093300 6128.200000
193.101500 22754.800000
194.072500 12884.700000
194.109300 7587.800000
195.080700 49788.600000
195.117100 8750.200000
196.088500 35444.400000
197.096200 60363.900000
198.104100 7978.000000
199.111900 20356.900000
202.078000 4806.800000
203.085600 9519.900000
204.093600 14073.000000
205.065300 4467.900000
205.101500 9375.000000
206.073100 5285.800000
206.109100 5870.700000
207.080700 17912.000000
207.117400 13816.600000
208.088400 57189.900000
209.096200 53745.400000
209.132900 5381.100000
210.104100 26532.600000
211.111800 32949.000000
212.119700 18859.700000
213.127400 12679.400000
215.085500 6540.700000
215.107000 6026.000000
216.094100 3637.200000
217.101300 8296.000000
218.073000 2774.600000
219.080400 12912.700000
219.116900 11916.500000
220.088500 22249.400000
221.096200 48437.900000
221.132500 4624.800000
222.104000 104655.900000
223.111900 46467.400000
224.083600 5908.400000
224.119700 13399.200000
225.090800 5313.600000
225.127800 17708.300000
227.106800 6298.700000
227.143800 10760.200000
228.094200 3640.500000
229.101600 7401.200000
230.109400 5286.400000
231.081000 10602.400000
231.117000 6852.700000
232.088400 7950.500000
233.096200 23234.100000
234.103900 25681.200000
235.112100 30698.800000
236.119400 12027.300000
237.127500 48784.900000
238.099100 10709.000000
238.135200 10325.900000
239.107200 5291.900000
239.142700 12037.400000
240.115400 2618.400000
243.116800 5423.400000
245.096400 16510.600000
245.132400 2728.100000
246.104200 15496.300000
247.111700 27353.300000
247.148100 3389.000000
248.120000 30173.800000
249.127500 49097.700000
250.135100 4966.800000
251.107000 2719.400000
252.151900 4062.800000
253.123500 4134.400000
257.096300 7284.700000
259.111700 8534.200000
260.119700 7038.800000
261.127200 8174.400000
262.135200 14241.000000
263.142700 14054.400000
264.150400 3508.800000
265.158200 11150.200000
267.138500 2609.100000
272.119500 8774.100000
275.142900 2676.800000
292.146500 5786.500000

>ms2
53.002300 3075.300000
53.038600 21314.300000
55.017900 20091.000000
55.054200 27418.400000
57.033500 7277.500000
65.038500 18635.200000
67.054200 60182.300000
69.033500 25183.100000
69.069900 8558.500000
71.049100 7960.200000
77.038600 3528.700000
79.054200 91847.400000
81.033600 6539.900000
81.069900 51356.700000
83.049200 9473.400000
91.054300 198131.300000
93.069900 71495.600000
95.049100 73676.800000
95.085500 51760.900000
97.064800 8406.400000
99.044200 3687.100000
103.054200 14757.700000
104.061800 2630.400000
105.069900 79792.200000
107.049200 23906.900000
107.085600 31661.100000
109.064800 30705.600000
111.044300 3482.600000
111.080600 6660.100000
115.054300 43295.900000
116.062000 12365.300000
117.069900 41126.500000
119.085600 87781.300000
121.064800 116157.300000
123.080600 6980.300000
128.062000 42095.500000
129.069900 36875.200000
130.077800 10101.100000
131.049200 16605.200000
131.085600 44885.400000
132.057000 41326.000000
133.065100 6995.300000
133.101300 8753.300000
135.080400 25494.700000
141.069900 54551.100000
142.077600 13911.700000
143.085500 21632.300000
144.057100 41661.100000
145.064800 85491.800000
145.101100 12677.700000
146.072600 44762.900000
147.080500 170378.700000
152.061900 11181.200000
153.069900 25201.400000
154.077700 9605.200000
155.085500 22266.000000
157.064900 20881.500000
157.101600 4816.100000
158.072700 79909.800000
159.080500 84601.400000
160.088500 6887.700000
161.096200 14131.500000
163.075200 5191.100000
165.070000 32998.700000
166.077900 14759.900000
167.085600 19867.200000
168.057100 10154.500000
168.093600 4041.100000
169.064800 36263.200000
169.101200 8188.800000
170.072700 13780.400000
171.080400 168447.800000
172.088100 11275.600000
173.096200 41755.600000
177.070000 3659.700000
178.077800 31382.200000
179.085600 64234.400000
180.093600 6921.600000
181.064700 43277.500000
181.101000 10766.200000
182.072600 32912.500000
183.080600 28045.900000
184.088100 13007.000000
185.096200 13716.900000
187.075400 6017.000000
187.111900 5127.100000
189.069700 9989.900000
190.078100 12000.800000
191.085600 18660.500000
192.093700 12954.800000
193.101200 19525.800000
194.072800 26926.600000
194.109500 6803.400000
195.080500 56080.200000
195.116900 3021.300000
196.088300 30042.200000
197.096200 32585.500000
198.103500 3157.400000
199.111600 4609.700000
202.078000 8913.000000
203.085900 15616.300000
204.093400 10140.700000
205.065200 7081.900000
205.101300 18315.400000
206.072600 9771.700000
206.109200 3896.800000
207.080600 47733.400000
207.117000 6775.300000
208.088400 46498.000000
209.096200 38041.800000
210.104200 17686.900000
211.111400 16376.600000
212.119900 6147.700000
215.085300 17389.900000
215.107200 3079.900000
216.093700 7265.500000
217.101200 10701.200000
218.072700 5734.900000
219.080500 25301.100000
219.117200 6969.100000
220.088600 15956.600000
221.096100 45406.200000
221.133000 2335.100000
222.104000 60738.400000
223.111900 19942.200000
224.082800 3598.100000
224.120400 3470.000000
225.091400 4521.600000
225.128000 3832.600000
227.086000 3939.500000
228.093800 4549.600000
229.101300 9534.000000
230.109300 5379.800000
231.080700 15154.200000
231.116900 5035.600000
232.088200 16050.100000
233.095900 24519.700000
234.104000 23102.500000
235.111800 15373.000000
236.120300 4460.600000
237.127500 11633.500000
238.098900 5569.000000
238.135300 3823.400000
243.117400 3109.300000
244.088100 3126.800000
245.096100 17326.700000
246.104400 6101.400000
247.111400 21650.800000
248.119900 9500.800000
249.127400 16537.300000
250.135200 3878.300000
257.096300 3739.300000
259.112300 6251.900000
261.128100 3057.300000
263.143700 2906.900000

>ms2
53.002300 8072.100000
53.038600 37927.600000
55.017900 20005.500000
55.054300 34538.000000
57.033600 5653.700000
65.038600 34152.900000
67.054200 71109.600000
69.033500 16519.100000
69.069800 5505.000000
71.049100 3604.000000
77.038700 8517.800000
79.054300 100355.600000
81.033600 9064.900000
81.069900 45415.100000
83.049000 5296.700000
91.054300 270663.300000
93.070000 51674.900000
95.049200 92396.900000
95.085600 28402.300000
97.064900 4773.500000
103.054300 28049.900000
104.062100 6357.500000
105.069900 78699.900000
107.049200 33109.300000
107.085600 14524.100000
109.064900 15618.400000
115.054300 95232.100000
116.062100 30766.000000
117.070000 52273.000000
119.085600 73561.000000
121.064800 96178.000000
128.062100 97177.300000
129.069900 56683.300000
130.077700 20145.000000
131.049300 35499.300000
131.085700 28688.200000
132.057000 59838.100000
133.065100 4118.000000
133.101300 5280.500000
135.080500 10754.900000
141.069900 77154.800000
142.077800 14931.200000
143.085500 16709.700000
144.057100 65331.300000
145.064900 86577.400000
145.101300 6921.800000
146.072700 33647.100000
147.080500 69803.500000
152.062100 33012.700000
153.070000 41383.800000
154.077900 16324.900000
155.085600 18564.100000
156.094000 4321.700000
157.064900 29351.300000
157.101100 2562.900000
158.072800 66948.500000
159.080600 43034.700000
160.088900 2674.600000
161.095900 3951.900000
165.070000 75506.900000
166.077800 21160.700000
167.085700 22874.000000
168.057200 19396.200000
168.093200 3207.300000
169.064900 48082.400000
169.101500 3535.700000
170.072800 8272.600000
171.080500 88917.400000
172.088500 6196.200000
173.096200 10548.900000
177.069800 10920.200000
178.077800 52987.500000
179.085700 80381.900000
180.093300 10404.400000
181.064900 76828.700000
181.101300 12357.700000
182.072700 31260.000000
183.080600 25925.600000
184.088500 9901.900000
185.096500 8507.900000
189.070000 23558.800000
190.077900 20100.900000
191.085500 31168.600000
192.093400 12851.600000
193.101100 20966.700000
194.072800 31562.400000
194.109000 3569.600000
195.080600 52991.200000
196.088400 19291.300000
197.096300 15191.700000
202.077800 24080.700000
203.085700 23470.500000
204.093700 10790.700000
205.064900 15667.100000
205.101400 18484.300000
206.072600 11524.300000
206.109600 2484.300000
207.080600 57050.800000
207.117100 4132.400000
208.088400 32574.700000
209.096200 24425.000000
210.104500 6295.200000
211.112400 4073.000000
215.085600 26183.500000
216.092900 9941.900000
217.101300 10298.200000
218.072500 12630.800000
219.080500 29903.600000
219.117500 2242.700000
220.088600 12117.700000
221.096300 39436.000000
222.103900 23173.800000
223.112100 8699.600000
227.085600 3731.400000
228.093800 8024.000000
229.101300 12245.200000
231.080600 23207.300000
231.117100 2552.200000
232.088600 17800.800000
233.096400 20178.100000
234.104000 14422.700000
235.112200 4606.100000
238.099300 2559.800000
244.088800 5983.000000
245.096100 11484.700000
246.104200 3155.500000
247.112400 7790.300000
248.120000 3308.400000
249.127300 3193.200000
257.096800 3321.500000
259.111000 2843.200000

