>compound LU95825701
>parentmass 376.1474
>ionization [M+H]+
>formula C21H23ClFNO2
>rt 879.300000
>profile orbitrap
#smiles_iso C1CN(CCC1(C2=CC=C(C=C2)Cl)O)CCCC(=O)C3=CC=C(C=C3)F
#smiles_can C1CN(CCC1(C2=CC=C(C=C2)Cl)O)CCCC(=O)C3=CC=C(C=C3)F
#inchikey LNEPOXFFQSENCJ-UHFFFAOYSA-N
#pubchem_id 3559
#mb_accession LU058801,LU058802,LU058803,LU058804,LU058805,LU058806

>ms2
123.025200 43521.700000
165.071000 782364.400000
358.136800 508469.600000
376.147400 17984858.000000

>ms2
95.029300 26068.800000
109.044500 19639.300000
123.023900 1059060.500000
163.055400 24712.800000
165.070900 16436049.000000
194.073100 248261.400000
194.097400 224717.400000
206.097400 109014.900000
358.136700 1814057.200000
376.147300 3818216.500000

>ms2
56.049400 43895.800000
95.029100 56768.300000
109.044700 106765.600000
113.039600 28540.200000
123.023900 11453728.000000
135.060300 61742.300000
147.060300 66026.100000
163.055400 119762.000000
165.070900 16191757.000000
194.073000 87657.600000
194.097500 46161.600000
206.097400 235681.400000
358.136600 255343.200000
376.147000 38474.500000

>ms2
56.049500 28750.300000
71.029100 43529.200000
75.022800 48410.200000
95.028800 64784.100000
109.044900 162713.700000
113.039800 228165.600000
123.024100 20933736.000000
125.015100 27049.500000
135.060400 93606.700000
147.060500 45084.200000
163.055600 63288.500000
165.071100 4875667.500000
173.051200 36378.400000
206.097600 103202.600000

>ms2
56.049600 22400.100000
71.029100 215423.000000
74.015000 26004.200000
75.022800 175962.200000
79.017800 65779.600000
82.065100 22738.900000
93.033600 30007.700000
95.029000 147873.100000
99.024000 38585.700000
109.044800 150856.200000
111.043900 51306.000000
113.039700 1069486.600000
115.054100 36813.800000
123.024300 21718064.000000
123.033200 1092643.200000
125.014800 32769.800000
135.060400 51886.100000
137.015500 24047.500000
165.071100 892449.400000
173.051300 28724.400000

>ms2
51.022900 20424.200000
53.002100 38456.200000
55.017900 17961.700000
71.029100 511835.600000
73.008400 29867.400000
74.015000 67434.400000
75.022900 600323.000000
79.017800 156878.900000
93.033500 64662.800000
95.029100 355394.800000
97.044900 21401.100000
99.024000 99751.700000
109.044800 173190.600000
111.044000 140092.100000
113.039700 2830196.800000
115.054200 60376.800000
123.024700 15789199.000000
123.032800 3498462.000000
124.032500 34865.500000
125.015000 39531.000000
129.069500 25431.400000
135.060500 21150.200000
137.015300 20726.500000
146.052900 24765.100000
165.071000 130094.600000
173.051200 16642.300000

