>compound LU95582482
>parentmass 242.1176
>ionization [M+H]+
>formula C15H15NO2
>rt 1116.180000
>profile orbitrap
#smiles_iso C1=CC=C(C=C1)CCOC(=O)C2=CC=CC=C2N
#smiles_can C1=CC=C(C=C1)CCOC(=O)C2=CC=CC=C2N
#inchikey PXWNBAGCFUDYBE-UHFFFAOYSA-N
#pubchem_id 8615
#mb_accession LU061201,LU061202,LU061203,LU061204,LU061205,LU061206

>ms2peaks
105.069900 609241.500000
118.065200 6631.700000
120.044400 124043.600000
146.060000 3756.900000
196.112200 5108.200000
206.096500 22615.000000
224.107000 320174.200000

>ms2peaks
79.054200 3018.600000
91.054200 5777.900000
103.054500 2148.700000
105.069900 440163.200000
107.049200 3420.300000
118.065100 15078.200000
120.044400 67271.000000
146.060000 6282.700000
194.096200 3079.000000
196.112200 9225.800000
206.096400 44185.800000
224.106900 118509.600000

>ms2peaks
57.069900 9328.700000
79.054200 31822.300000
91.054200 49271.300000
92.049400 4816.000000
95.049100 4122.200000
100.112000 19565.400000
103.054200 18306.500000
105.069900 977562.900000
106.065100 4387.100000
107.049100 20823.600000
118.065100 44047.200000
120.044400 87008.900000
133.052300 4062.400000
146.059900 15613.000000
178.077500 4989.300000
179.085600 6224.100000
194.096600 7026.800000
196.112000 21644.600000
206.096400 147136.800000
224.107000 57261.400000

>ms2peaks
53.038600 3408.600000
57.069900 36363.800000
58.065200 24113.500000
65.038600 1849.800000
72.080800 3882.700000
74.096400 16281.400000
77.038400 2768.500000
79.054300 61343.100000
86.096500 5124.400000
91.054300 46567.100000
92.049500 12598.400000
95.049100 9708.000000
100.112200 186119.700000
103.054300 37382.400000
104.049700 2149.200000
105.070000 511972.400000
106.064700 2356.700000
107.049100 5426.700000
118.065200 20721.300000
120.044500 39592.600000
133.052200 6913.500000
146.060100 7447.000000
178.077700 4268.100000
179.085800 8371.300000
194.096700 4722.500000
196.112200 5787.400000
206.096600 69136.500000
224.107300 8986.000000

>ms2peaks
51.023000 3324.500000
53.002200 2311.400000
53.038600 25381.700000
57.069900 38625.900000
58.065100 124385.500000
65.038600 18009.000000
72.080700 9062.400000
74.096300 13965.500000
77.038400 11775.500000
79.054200 249485.000000
80.049400 8736.300000
81.033600 2597.700000
86.096400 5440.100000
91.054300 118656.100000
92.049500 55665.300000
94.041200 3235.100000
95.049100 73010.300000
100.112100 351532.200000
103.054200 172126.000000
104.049400 14892.500000
105.069900 804456.400000
106.065100 7542.900000
107.049100 3628.700000
118.065100 35661.600000
120.044400 48949.900000
128.049500 17398.900000
132.044300 5940.700000
133.052100 7669.000000
146.060100 15481.600000
178.077900 11955.600000
179.085500 7487.100000
180.080900 3532.600000
194.096800 4669.100000
204.080500 6596.500000
205.088200 2497.900000
206.096500 102041.500000

>ms2peaks
51.023000 8643.700000
53.002300 5181.000000
53.038600 43300.400000
57.069900 49081.800000
58.065200 225299.500000
65.038600 33904.900000
72.080700 7797.600000
74.096400 4359.100000
77.038600 17112.600000
79.054300 256720.300000
80.049500 2951.000000
81.033600 3686.400000
86.096500 3068.400000
91.054300 116354.500000
92.049500 47842.500000
94.041400 6732.300000
95.049200 124148.700000
100.112100 262209.000000
103.054300 167752.000000
104.049500 17727.800000
105.070000 368649.400000
106.065300 3472.600000
118.065200 19663.500000
120.044500 18027.300000
128.049500 24131.900000
132.044500 4164.400000
133.052700 3175.300000
146.060000 6912.500000
178.077800 22721.500000
180.080800 4110.900000
204.080600 8505.600000
205.088200 2637.800000
206.096700 42220.400000

