>compound LU95774460
>parentmass 362.1412
>ionization [M+H]+
>formula C20H16FN5O
>rt 1017.300000
>profile orbitrap
#smiles_iso CC1=CN(C2=C1C=C(C=C2)F)NC(=O)C3=CN=C(N=C3C)C4=CC=CC=N4
#smiles_can CC1=CN(C2=C1C=C(C=C2)F)NC(=O)C3=CN=C(N=C3C)C4=CC=CC=N4
#inchikey YNVKAENVJKEMOU-UHFFFAOYSA-N
#pubchem_id 25099474
#mb_accession LU135901,LU135902,LU135903,LU135904,LU135905,LU135906

>ms2peaks
186.089800 24124.200000
197.081700 20949.300000
198.066100 159185.900000
213.077100 43154.700000
214.084800 314142.800000
215.092300 36956.000000
319.134200 21469.400000
345.114000 78930.900000
362.141000 14260181.000000

>ms2peaks
68.049400 5547.400000
78.033900 9340.900000
79.042000 10204.800000
94.028700 17153.900000
106.052600 22558.300000
111.055300 6878.300000
133.063500 6150.600000
146.059900 10895.500000
147.079000 13819.800000
148.055700 125840.300000
149.063500 156006.100000
157.039700 30122.900000
157.063400 171129.400000
158.071400 14515.700000
163.066500 5941.000000
165.082300 75264.000000
166.066200 40671.600000
170.071300 98241.900000
171.079000 1024044.900000
172.086800 73099.800000
185.082300 37431.600000
186.066400 732005.100000
186.089900 2224605.800000
187.073400 6160.900000
197.082200 629330.400000
198.066200 2705746.200000
213.077100 761295.400000
214.084800 4818793.500000
215.092600 433451.900000
241.077000 139738.700000
258.103700 429892.800000
297.113300 12147.900000
302.108300 9825.900000
317.120100 11749.000000
319.136300 54910.800000
325.108400 12386.900000
330.091000 77762.500000
332.094600 10837.600000
342.134400 29581.900000
344.130400 19266.000000
345.114500 397708.700000
362.141100 2728260.200000

>ms2peaks
53.002200 45916.200000
54.033800 20511.600000
55.041600 14341.000000
56.049400 18304.000000
66.033700 3506.100000
67.017800 3594.600000
67.041600 7983.900000
68.025600 4926.000000
68.049400 15008.900000
70.028700 14353.400000
78.033900 15562.100000
79.041300 34317.800000
81.044700 11637.300000
82.028600 11061.500000
82.052500 25482.000000
83.060200 3619.900000
84.044300 10969.300000
94.028700 175099.800000
95.036500 81605.300000
96.044300 37748.600000
105.044700 493528.500000
106.052600 52345.900000
109.039600 8284.800000
110.060000 18087.400000
111.031300 11812.000000
111.055300 11665.800000
112.039200 35415.700000
118.052500 3770.600000
118.065000 3070.100000
119.060300 7857.500000
121.044600 3667.600000
131.060300 6078.400000
133.063400 21068.300000
138.071200 3341.500000
143.060300 52904.300000
144.055200 7888.400000
145.063500 8522.200000
145.075900 12605.900000
146.060000 10675.800000
147.078800 25135.600000
148.055600 158203.900000
149.063500 154407.800000
155.060400 31380.400000
157.039800 120627.000000
157.063400 1008915.300000
158.071200 58962.900000
159.079200 23405.500000
160.050400 8858.000000
161.058200 5799.200000
163.066500 5475.500000
165.082300 49482.400000
166.066100 24110.000000
170.071300 668463.300000
171.079000 2849111.800000
172.086800 63287.300000
174.066100 5520.500000
185.082300 350179.900000
186.066500 1844095.000000
186.089700 2626628.800000
187.073600 10429.900000
188.081600 14910.200000
191.059100 3315.400000
197.082200 1282207.900000
198.066100 1278993.200000
205.072800 5286.500000
213.076900 730027.900000
214.084800 670478.300000
215.092500 135203.100000
226.053300 13224.100000
241.077100 104404.600000
243.079800 11893.700000
258.103600 78244.600000
297.113400 5731.200000
302.109700 6170.800000
303.104000 6366.900000
304.098900 5519.300000
315.104200 3703.800000
317.119400 8020.300000
319.134600 8228.600000
325.108400 8251.400000
330.091300 54314.900000
332.094500 17673.100000
342.133500 3945.900000
344.130300 6235.400000
345.114500 58478.900000
362.141500 22543.600000

>ms2peaks
53.002200 138201.600000
54.033800 152367.700000
55.017800 6953.800000
55.041600 102689.200000
56.049500 87026.600000
66.033700 18416.100000
67.017700 13813.100000
67.041600 104925.000000
68.025600 39913.900000
68.049400 24567.700000
70.028700 15865.200000
78.033900 30785.500000
79.041500 171584.100000
80.049400 32616.000000
81.044800 60356.000000
82.028700 84790.400000
82.052500 159623.100000
83.036600 7368.200000
84.044400 12165.800000
92.049400 8563.300000
93.044700 30419.900000
94.028700 369250.100000
95.036500 613424.800000
96.044300 197040.000000
105.044700 1900749.500000
106.052500 39713.200000
109.039700 18334.000000
110.060000 70880.700000
111.031400 84878.200000
112.039300 31018.000000
117.057200 15014.600000
118.052500 33371.100000
118.065000 8936.900000
119.060400 79012.700000
121.044900 8193.100000
128.049500 6156.000000
129.044500 3847.400000
131.060300 32662.400000
132.068100 7671.100000
133.063300 13333.800000
138.071600 10012.900000
142.052500 4609.600000
143.060300 171799.800000
144.055600 49853.800000
144.068200 66532.300000
145.063400 50459.400000
145.075900 55029.300000
146.053300 4012.700000
146.060000 10509.400000
146.071200 6216.500000
147.078900 11285.200000
148.055600 262017.000000
149.063600 84463.600000
150.058900 8184.700000
155.060300 163011.500000
156.055400 25937.500000
157.063400 1169411.100000
158.071200 138572.600000
159.079100 103276.300000
160.050500 90459.100000
161.058300 6336.000000
163.066200 8847.000000
164.050200 4616.400000
165.082200 18253.800000
166.066000 11799.200000
169.063500 3886.400000
170.071200 1334469.000000
171.079000 3771154.800000
172.055400 6665.800000
172.086800 47028.500000
174.065600 19066.500000
185.082200 706319.800000
186.066200 1092893.600000
186.089800 1019882.300000
187.073400 5618.800000
188.081600 8102.200000
191.059100 4744.300000
197.082100 1438647.800000
198.066000 295649.100000
200.073900 7176.200000
213.076800 460649.900000
214.084400 30537.400000
215.092200 14643.000000
226.053600 34690.700000
241.077200 30603.400000
243.080100 12482.700000
258.103400 5997.100000
302.096300 6609.200000
303.103800 4523.200000
304.098900 4241.200000
315.103200 4658.100000
330.090900 18752.300000
332.094300 9240.900000
345.115100 4975.700000

>ms2peaks
52.018300 8752.000000
52.030700 17134.900000
53.002200 206805.500000
54.033900 427868.100000
55.017900 21067.600000
55.041700 241715.600000
56.025700 9067.400000
56.049500 142731.800000
58.028700 8998.600000
65.038500 14859.600000
66.033800 56109.200000
67.017800 32168.800000
67.041700 411779.000000
68.025600 106879.900000
68.049500 25799.100000
70.028800 21934.500000
74.096400 6511.700000
78.033800 97217.400000
79.041600 364169.200000
80.049500 71046.300000
81.044800 185591.000000
82.028800 209515.200000
82.052600 278983.700000
83.036500 20880.600000
83.060300 7212.000000
84.044300 9840.600000
91.028900 4195.300000
92.036900 9420.100000
92.049500 20868.200000
93.044800 127181.100000
93.057400 9413.200000
94.028800 324931.200000
95.036600 1412808.900000
96.044400 496817.900000
103.041600 5401.600000
104.049500 40830.000000
105.044700 4048550.500000
106.052600 26071.300000
107.060400 6252.600000
108.055600 8495.000000
109.039700 17026.800000
110.060000 143733.200000
111.031500 208049.500000
112.039500 8849.700000
117.044500 4839.900000
117.057200 42713.300000
118.052500 146947.100000
118.064800 21379.200000
119.060400 180893.600000
121.044800 13566.500000
128.049400 11012.400000
129.044500 16550.600000
130.052500 25671.500000
131.060300 79521.000000
133.063500 4797.600000
135.055100 20538.400000
136.050500 6487.500000
142.052500 17135.700000
143.060400 263880.900000
144.055700 106723.300000
144.068200 134020.800000
145.063500 147230.300000
145.076000 101695.200000
146.039900 8284.500000
146.053700 4784.600000
146.060200 5914.100000
146.071300 4248.900000
147.079400 5016.800000
148.055700 328422.600000
149.063500 19526.600000
150.059000 10990.900000
151.043100 4197.900000
155.060400 259072.200000
156.055600 108816.400000
157.063500 489200.500000
158.071300 297204.100000
159.079100 108182.800000
160.050500 228709.300000
161.070900 4106.500000
163.066600 11309.100000
165.082500 4966.600000
166.065900 11504.200000
168.055800 6613.800000
169.063600 8146.100000
170.071300 2318070.200000
171.079000 2436956.200000
172.056000 4735.100000
172.087000 27766.400000
173.050800 6147.800000
174.066300 14373.200000
183.066500 6558.800000
185.082200 738078.100000
186.066200 338970.200000
186.090000 282534.500000
188.081500 4369.500000
196.074700 8819.200000
197.082200 1417029.600000
198.057700 6275.100000
198.066300 37039.800000
200.074400 5124.800000
212.069700 12612.000000
213.076900 264554.000000
226.053500 29229.400000
315.103600 5132.000000
329.084900 4373.700000
330.090900 5704.100000
332.095000 4928.300000

>ms2peaks
51.022900 7042.100000
52.018100 19800.400000
52.030700 34003.900000
53.002200 225978.500000
54.033800 578109.100000
55.017900 24211.800000
55.041600 302760.800000
56.025700 10804.600000
56.049500 123429.700000
58.028800 10883.700000
65.038500 31434.700000
66.033800 114640.900000
67.017800 48975.800000
67.041600 599729.300000
68.025600 108304.900000
68.049400 23089.900000
70.028600 18711.200000
78.033800 176164.400000
79.041600 406423.300000
80.049400 89866.600000
81.044700 251309.800000
82.028700 240572.000000
82.052500 181487.000000
83.036500 25326.100000
84.044400 7076.000000
91.028900 6624.500000
92.036900 9321.700000
92.049500 33129.300000
93.044800 185842.200000
93.057300 15636.400000
94.028700 144832.000000
95.036500 1566983.900000
96.044300 790627.000000
103.041600 10669.700000
104.049500 83464.900000
105.044700 4731444.500000
106.052500 9630.100000
107.060400 7391.900000
108.055500 7724.800000
109.039600 10067.200000
110.060000 269978.600000
111.031400 213573.000000
117.044600 10186.400000
117.057200 72350.000000
118.052500 237249.500000
118.065000 27919.900000
119.060400 210326.400000
121.044600 12704.100000
128.049500 10354.000000
130.052600 10706.500000
131.060400 100454.000000
132.068000 15554.500000
135.055100 31718.600000
136.050600 9765.800000
143.060300 281668.300000
144.055500 96239.600000
144.068100 108674.200000
145.063400 144955.100000
145.075900 73649.100000
146.040000 6851.400000
146.053000 6733.000000
146.071400 5382.900000
148.055600 297405.800000
149.063400 5173.800000
150.059100 14215.600000
155.060300 186313.300000
156.055600 125584.900000
157.063400 110617.300000
158.071300 373552.300000
159.079000 34437.800000
160.050400 195881.000000
163.066600 7845.900000
164.050400 7658.400000
168.055800 7787.600000
169.063600 8320.800000
170.071200 2005712.500000
171.079000 664685.100000
172.055800 10636.900000
172.086600 8231.700000
173.050900 7410.300000
174.066100 10460.700000
183.066500 8861.500000
185.082200 314788.900000
186.065900 49596.500000
186.089900 34064.000000
196.074300 14404.600000
197.082100 807278.900000
213.076900 69922.300000
226.053300 11284.600000

