>compound LU96180033
>parentmass 157.076
>ionization [M+H]+
>formula C10H8N2
>rt 164.280000
>profile orbitrap
#smiles_iso C1=CN=CC=C1C2=CC=NC=C2
#smiles_can C1=CN=CC=C1C2=CC=NC=C2
#inchikey MWVTWFVJZLCBMC-UHFFFAOYSA-N
#pubchem_id 11107
#mb_accession LU052401,LU052402,LU052403,LU052404,LU052405,LU052406

>ms2
157.076000 11405730.000000

>ms2
157.076000 12620618.000000

>ms2
130.065200 33611.700000
157.076000 12231750.000000

>ms2
78.033800 28306.900000
80.049400 16198.300000
97.007700 16973.700000
103.054200 40684.900000
104.049300 15810.500000
117.057500 15981.100000
130.065100 325176.300000
142.052700 38515.100000
155.060400 24866.800000
156.068200 124803.700000
157.076000 11441998.000000

>ms2
51.023000 9300.000000
53.038600 37649.500000
54.033800 13212.100000
77.038500 10636.700000
78.033800 145430.000000
79.041500 10364.100000
80.049400 74757.500000
97.007500 33831.400000
102.046400 14763.400000
103.054200 307927.200000
104.049400 72224.700000
105.044700 40798.400000
117.057300 73191.000000
128.049600 46927.600000
129.057200 14084.000000
130.065100 1070641.600000
140.049700 13914.500000
142.052600 157818.900000
155.060400 107954.500000
156.068200 424279.300000
157.076000 8804119.000000

>ms2
51.022900 55808.900000
53.038600 152377.200000
54.033800 26695.800000
77.038500 61584.300000
78.033800 342672.300000
79.041500 40658.900000
80.049500 121063.200000
97.007600 35114.400000
102.046400 57036.100000
103.054200 772106.900000
104.049500 171099.300000
105.044800 143443.200000
117.057200 121704.200000
128.049500 170585.100000
129.057300 59975.800000
130.065200 1605001.600000
140.049600 26144.700000
142.052600 283648.300000
155.060500 271966.000000
156.068200 600161.100000
157.076100 5105993.000000

