>compound LU96765006
>parentmass 188.087
>ionization [M+H]+
>formula C12H10FN
>rt 884.520000
>profile orbitrap
#smiles_iso C1=CC(=CC=C1C2=CC=C(C=C2)F)N
#smiles_can C1=CC(=CC=C1C2=CC=C(C=C2)F)N
#inchikey HTRVALPKPVGOSZ-UHFFFAOYSA-N
#pubchem_id 9462
#mb_accession LU101201,LU101206

>ms2peaks
91.054300 8329.300000
168.080900 29031.700000
171.060400 3250.200000

>ms2peaks
91.054300 49267.900000
168.081100 15154.500000
171.060400 33498.200000

