>compound LU96663542
>parentmass 405.109
>ionization [M+H]+
>formula C17H19F3N2O4S
>rt 826.560000
>profile orbitrap
#smiles_iso CC(CC1=CC=C(C=C1)OCC(=O)O)NCC(C2=CSC(=N2)C(F)(F)F)O
#smiles_can CC(CC1=CC=C(C=C1)OCC(=O)O)NCC(C2=CSC(=N2)C(F)(F)F)O
#inchikey YVIXXPCJZAUQHJ-UHFFFAOYSA-N
#pubchem_id 18551400
#mb_accession LU026501,LU026502,LU026503,LU026504,LU026505,LU026506

>ms2peaks
147.080400 28476.600000
165.054300 24433.500000
193.085900 2704930.000000
387.098800 92380.600000
405.109000 16892548.000000

>ms2peaks
91.054200 267644.200000
107.048900 86889.200000
117.069700 32639.400000
119.085600 294162.400000
129.069900 23940.400000
134.072600 23809.100000
135.080400 72064.300000
145.075700 23742.100000
147.080400 3928622.200000
165.054600 2614202.200000
193.085900 18026378.000000
195.019600 226496.900000
213.030500 86420.900000
387.098800 71929.500000
405.109300 1045631.200000

>ms2peaks
53.038700 10089.100000
55.017900 32354.800000
65.038700 14858.000000
67.041600 12898.200000
69.033500 9885.200000
77.038600 16174.100000
78.046300 9004.700000
79.054100 49311.500000
90.046200 10126.500000
91.054200 2493794.500000
93.070000 24183.500000
95.049200 26290.300000
100.021500 41992.200000
103.054200 23227.100000
105.033500 79233.500000
105.044800 8820.900000
105.069900 133468.800000
107.049100 1341594.800000
115.054200 322559.900000
116.062100 16552.900000
117.069900 369000.500000
119.085500 2756244.000000
128.062000 17254.800000
129.069800 143581.500000
132.057000 96603.900000
133.064800 67904.000000
134.072600 183592.700000
135.080400 800106.100000
136.036500 23551.900000
137.059800 33269.100000
145.064900 54760.800000
145.076100 581792.100000
147.080400 8554122.000000
165.054600 6693529.500000
175.013700 9694.700000
179.106500 71866.800000
193.085900 3881018.200000
195.019800 330270.400000

>ms2peaks
51.023000 9044.200000
53.002200 12989.300000
53.038600 32257.600000
55.017800 63457.300000
55.054300 5208.100000
63.022800 8395.000000
65.038400 30057.300000
67.041500 54251.000000
69.033400 16157.500000
77.038500 38442.600000
78.046300 7949.500000
79.054200 179012.000000
81.033400 12576.100000
90.046300 5551.700000
91.054200 5005510.500000
93.044700 9786.300000
93.069900 68482.900000
95.049000 90098.300000
98.005700 9770.000000
100.021500 95862.700000
102.046400 10704.600000
103.054200 79048.400000
104.062000 37760.900000
105.033500 124926.200000
105.044500 25164.400000
105.069900 225780.700000
107.049100 4914167.000000
109.064800 11202.600000
115.054200 2162751.800000
116.030400 13047.200000
116.062000 121290.600000
117.069800 970074.400000
118.041100 9331.500000
119.085500 2777884.800000
121.064700 16899.000000
128.061800 36861.700000
129.069700 145576.600000
131.041400 17297.800000
131.049100 8357.100000
131.060200 6234.200000
132.057000 184589.100000
133.064700 205964.900000
134.072500 241013.100000
135.080300 1545142.100000
136.036600 37213.900000
137.059600 12280.200000
143.060200 8424.800000
145.075900 1412740.100000
146.072800 12535.600000
147.080300 2464869.800000
148.002500 17060.000000
149.096100 8388.800000
155.060300 10488.300000
157.076200 6122.000000
161.032000 53395.700000
165.054500 3392673.800000
168.008700 10263.300000
175.013400 19371.200000
179.106500 13516.800000
193.085900 241328.700000
195.019800 127173.100000

>ms2peaks
50.015100 9099.900000
51.023000 9863.100000
53.002100 23097.400000
53.038600 68582.600000
55.017800 55228.300000
56.049500 14532.600000
63.023000 13602.100000
65.038500 105364.600000
67.041600 150214.000000
69.033500 7423.100000
77.038500 45050.000000
78.046400 27016.800000
79.054200 332258.500000
81.033500 19020.300000
89.038500 18367.800000
91.054200 6659699.000000
93.044800 17405.700000
93.069900 92028.700000
95.049100 196118.300000
98.005800 12774.700000
100.021500 108664.100000
102.046500 49553.400000
103.054200 164405.400000
104.062000 103078.000000
105.033500 82122.500000
105.044700 75203.800000
105.069900 188518.000000
107.049100 7390370.000000
109.065000 13915.900000
115.054200 5182566.500000
116.030300 24257.200000
116.062000 330396.100000
117.069800 929828.100000
119.049200 81857.800000
119.085500 990329.200000
120.057100 11363.100000
121.064600 19037.300000
125.016900 9505.400000
128.061900 62576.600000
129.069700 59434.200000
131.041400 24390.900000
131.049200 21984.800000
131.060200 8426.300000
132.057000 143435.000000
133.064700 388884.000000
134.072600 143415.400000
135.080400 1002300.600000
136.036500 21879.100000
143.060500 12730.600000
145.076000 913728.000000
147.080400 319522.900000
148.002600 24255.100000
155.060100 13165.800000
161.032100 51953.000000
165.054600 900403.000000
168.008800 10491.600000
195.019700 23825.200000

>ms2peaks
50.015100 9625.300000
51.022900 9804.000000
53.002200 36032.200000
53.038600 157025.500000
55.017800 60722.700000
56.049500 26202.700000
63.023000 16646.500000
65.038600 315999.600000
67.041600 215746.800000
77.038500 77109.200000
78.046300 67435.500000
79.054200 612154.100000
81.033500 18759.900000
89.038400 45571.000000
90.046200 8980.000000
91.054200 8108339.500000
93.044800 20194.400000
93.069900 81253.000000
94.041400 16314.000000
95.049100 521730.400000
98.005700 23245.000000
100.021500 52240.900000
102.046400 97806.000000
103.054200 205352.800000
104.062000 152352.400000
105.033300 35528.900000
105.044700 159115.100000
105.069900 236244.600000
107.049100 7774622.500000
109.065000 11599.500000
115.054200 6551286.000000
116.030400 30313.900000
116.062000 505604.800000
117.069800 526110.600000
119.049100 79239.500000
119.085500 240031.300000
120.057400 24504.300000
121.064900 8590.300000
125.016900 11443.500000
128.062000 72341.700000
129.069600 25650.600000
131.041500 14666.300000
131.049300 54021.200000
132.057000 93249.000000
133.064700 494519.200000
134.072600 72498.500000
135.080400 328104.200000
143.060500 14958.700000
145.065000 24635.300000
145.076000 298384.000000
147.080400 24819.200000
148.002600 28812.200000
155.060400 15690.900000
161.032000 25857.800000
165.054500 137005.800000

