>compound LU96184593
>parentmass 315.1485
>ionization [M+H]+
>formula C13H22N4O3S
>rt 469.260000
>profile orbitrap
#smiles_iso CNC(=C[N+](=O)[O-])NCCSCC1=CC=C(O1)CN(C)C
#smiles_can CNC(=C[N+](=O)[O-])NCCSCC1=CC=C(O1)CN(C)C
#inchikey VMXUWOKSQNHOCA-UHFFFAOYSA-N
#pubchem_id 5039
#mb_accession LU041401,LU041402,LU041403,LU041405,LU041406

>ms2peaks
58.065100 2022.900000
88.021700 16023.900000
98.083900 24401.500000
117.048200 7016.900000
124.075700 168151.600000
125.006000 8095.400000
130.056200 8038.000000
138.091300 21167.100000
144.076800 96974.200000
147.022400 4713.100000
153.037300 9870.800000
165.102500 3938.900000
170.063500 19318.800000
176.048900 377603.800000
188.048900 10300.900000
191.118200 3774.100000
215.121600 18880.800000
224.097800 74429.100000
270.090800 320944.200000
315.148600 1407843.000000

>ms2peaks
61.010800 2617.200000
85.075900 3509.600000
88.021600 52385.600000
95.049200 14813.700000
97.076200 12405.900000
98.083900 286604.400000
99.091700 2418.700000
101.029600 5282.500000
102.037300 40047.200000
110.060100 4366.200000
110.096500 13874.500000
113.071000 8189.900000
114.078900 24552.400000
115.032700 4811.600000
117.048200 18930.200000
118.031900 6070.700000
124.075800 223936.700000
125.005700 200664.200000
130.056000 284419.100000
135.091900 3361.000000
138.091400 51814.800000
144.076900 183510.400000
145.043200 4562.300000
146.050900 6651.500000
147.022300 12764.200000
148.075400 3060.000000
152.028500 1915.500000
153.037000 56483.200000
154.056300 5327.900000
163.087100 3531.300000
164.094700 14836.100000
165.102400 50961.200000
167.063800 19372.100000
170.063500 84603.200000
176.049000 1290429.100000
177.102000 11334.900000
181.079500 30553.000000
188.048700 4190.200000
191.118000 76180.400000
192.047700 4945.900000
193.055700 32032.200000
195.071400 8318.400000
209.074100 2453.800000
215.121300 6877.500000
223.089800 4865.200000
224.097900 194448.200000
270.090800 63317.400000
315.148800 35997.100000

>ms2peaks
55.041700 3646.300000
56.049500 7706.400000
57.044700 2403.800000
58.065200 2941.600000
60.998100 2439.400000
61.010700 7329.300000
69.057100 2490.400000
71.060400 3257.800000
81.033500 21715.500000
83.060400 10925.800000
84.068100 14508.900000
85.076000 5973.300000
88.021600 30721.500000
94.041500 2471.600000
95.049200 33956.800000
97.076100 67953.500000
98.083900 334945.400000
99.091400 4186.800000
101.029500 12605.500000
102.037200 307877.800000
107.049200 12051.700000
110.060100 18791.900000
110.096400 40055.100000
113.070700 7375.000000
114.078700 10966.700000
115.032300 4877.400000
117.048100 10425.900000
118.032100 17856.500000
121.076100 11006.900000
124.075700 72929.500000
125.005600 476144.100000
129.048000 13013.300000
130.056000 747029.600000
133.052300 3040.400000
135.026300 7914.100000
135.091800 22785.900000
136.075700 3219.300000
138.091400 26370.400000
144.076600 12423.400000
145.042900 8802.800000
146.050700 5280.800000
147.068000 3155.100000
148.075700 31485.100000
149.070900 6048.600000
151.021100 2797.100000
152.029100 2399.300000
153.037000 21295.200000
154.055900 6202.300000
163.086500 15522.900000
164.094600 21686.500000
165.102300 66271.300000
167.063700 23788.900000
170.063200 28179.000000
176.048900 326007.000000
177.102300 41731.600000
178.032200 6876.100000
181.079500 51667.900000
191.117900 85898.900000
192.047600 24426.100000
193.055600 22956.700000
195.071000 2592.900000
209.074200 6700.800000
223.090000 6930.500000
224.098100 21450.700000

>ms2peaks
53.038600 10630.900000
54.033900 3432.500000
55.041700 25037.100000
56.049500 46278.000000
57.044800 11845.400000
57.057400 8075.000000
58.065200 13938.200000
58.995000 4055.700000
60.002900 12918.100000
60.998100 8455.200000
61.010700 47081.800000
65.038600 2406.100000
67.054200 3806.400000
68.049500 15015.000000
69.044700 2241.600000
69.057300 7337.200000
71.060400 25755.200000
78.046400 3832.400000
79.054300 6497.400000
80.049600 5719.800000
81.033500 329280.300000
82.065100 10027.400000
83.049100 2999.100000
83.060400 34695.800000
84.068200 30916.700000
85.039800 2726.600000
85.075900 4237.000000
86.005900 6191.500000
88.021600 15977.400000
91.054300 7315.100000
94.041400 6784.300000
94.065200 21846.600000
95.049200 24956.700000
95.060800 2288.900000
95.073000 10792.500000
96.044500 2167.700000
96.068200 5085.900000
97.076100 222346.100000
98.083900 91524.100000
101.016900 2809.700000
101.029300 11735.200000
102.037200 550106.600000
104.049600 7499.600000
106.065100 8023.800000
107.049200 78239.300000
108.057200 5805.800000
108.080900 12071.400000
109.064900 3692.500000
109.076100 4819.900000
110.060100 16940.000000
110.096600 19253.400000
113.071000 2993.300000
115.032500 6451.900000
117.048200 14130.900000
117.057300 2258.700000
118.032200 6186.700000
118.065200 10864.900000
120.068500 2320.000000
120.080900 7106.200000
121.076100 42321.400000
122.060100 6559.700000
123.026300 2314.900000
124.075800 14385.000000
125.005600 252048.900000
129.048100 18853.500000
130.056000 94500.200000
132.044500 27312.400000
133.052400 22734.900000
133.076200 5349.700000
134.060000 9558.900000
134.084000 4527.700000
135.026400 3979.600000
135.091700 46329.900000
136.075900 4737.100000
137.107200 3043.800000
139.032700 3487.500000
145.043300 2220.100000
145.076300 2631.100000
146.060200 4626.000000
147.067800 4571.500000
147.091800 7298.800000
148.075700 53757.200000
149.071100 11550.800000
150.037400 5285.200000
151.021500 9094.500000
154.056000 2136.700000
159.046400 2909.300000
163.086500 20066.200000
164.094100 2455.500000
165.102200 11740.400000
167.064100 14466.200000
177.102300 22127.800000
178.032100 19654.000000
191.118100 4024.300000
192.047800 7287.000000
223.089700 2761.800000

>ms2peaks
53.038600 37151.600000
54.033800 7604.800000
55.041700 38372.400000
56.049500 70097.000000
57.044800 20792.300000
57.057400 8556.400000
58.065100 19066.700000
58.995000 6628.000000
60.002800 19750.300000
60.998100 10095.000000
61.010700 82555.300000
65.038500 4746.400000
67.054100 8030.000000
68.049500 25080.000000
69.044600 2542.500000
69.057300 6956.200000
71.060400 19134.000000
78.046300 4435.500000
79.054300 21353.100000
80.049500 16161.700000
81.033500 477376.000000
82.065200 14910.700000
83.049200 6931.900000
83.060400 42886.500000
84.068300 16405.100000
85.039500 3394.800000
86.005800 4517.900000
88.021600 17278.500000
91.054300 19984.800000
94.041300 10065.800000
94.065200 41970.000000
95.049200 35127.900000
95.060300 5369.200000
95.073100 8511.700000
96.044600 2616.900000
96.068300 6371.500000
97.076100 233898.400000
98.083900 44425.100000
101.017000 4063.800000
101.029400 6896.700000
102.037300 466817.400000
104.049600 18739.600000
106.065300 15670.600000
107.049200 104414.100000
108.056900 6187.200000
108.080700 14707.100000
109.064700 3260.400000
109.076100 6963.800000
110.060000 10047.100000
110.096500 10062.800000
115.032400 8820.800000
117.048300 9374.400000
117.057400 7076.100000
118.032200 3516.000000
118.065100 21309.500000
120.068500 9157.800000
120.080900 7775.600000
121.076100 42799.600000
122.060100 9395.100000
123.026300 7035.100000
124.075800 4859.400000
125.005700 102580.200000
129.048200 24159.800000
130.056100 23494.200000
132.044500 42174.900000
133.052400 39940.000000
133.076000 8523.400000
134.060000 10242.800000
134.084000 4846.500000
135.026500 4098.200000
135.091800 39275.500000
137.107500 4749.700000
139.032600 6229.800000
145.075800 2783.700000
146.060200 7957.500000
147.067900 2482.700000
147.091600 7440.600000
148.075700 37901.800000
149.070900 8036.700000
150.037500 10149.500000
151.021200 6495.200000
159.045900 2397.900000
163.086500 10995.700000
167.063600 4792.500000
177.102500 6404.400000
178.032300 5454.700000
192.047700 6683.500000

