>compound LU96055815
>parentmass 331.1208
>ionization [M+H]+
>formula C18H19ClN2O2
>rt 1040.590000
>profile orbitrap
#smiles_iso CC(C)(C)N(C(=O)C1=CC=CC=C1)NC(=O)C2=CC=C(C=C2)Cl
#smiles_can CC(C)(C)N(C(=O)C1=CC=CC=C1)NC(=O)C2=CC=C(C=C2)Cl
#inchikey CNKHSLKYRMDDNQ-UHFFFAOYSA-N
#pubchem_id 114994
#mb_accession LU086301,LU086302,LU086303,LU086304,LU086305,LU086306

>ms2peaks
105.033700 3679.800000

>ms2peaks
72.080700 3306.200000
105.033600 8486.400000

>ms2peaks
105.033500 2103.400000
125.986600 2158.500000
139.050300 22765.500000
203.985800 2097.100000
205.982300 4107.600000
212.986700 5596.400000
271.976100 5209.900000

>ms2peaks
72.080900 2318.400000
95.049100 2140.400000
105.033500 6260.400000
239.154500 22740.600000

>ms2peaks
72.080600 1602.900000
95.049000 1886.100000
105.033600 3726.000000
194.096700 3133.300000
223.122800 2947.000000
239.154500 16812.500000

>ms2peaks
194.096900 2799.100000
223.123200 8571.200000
239.154800 5893.500000

