>compound LU97390202
>parentmass 364.9065
>ionization [M+H]+
>formula C10H9Cl4O4P
>rt 1101.060000
>profile orbitrap
#smiles_iso COP(=O)(OC)O/C(=C\Cl)/C1=CC(=C(C=C1Cl)Cl)Cl
#smiles_can COP(=O)(OC)OC(=CCl)C1=CC(=C(C=C1Cl)Cl)Cl
#inchikey UBCKGWBNUIFUST-YHYXMXQVSA-N
#pubchem_id 5284462
#mb_accession LU049701,LU049702,LU049703,LU049704,LU049705,LU049706

>ms2
127.015500 1995237.400000
145.026300 3256.000000
203.930200 3728.700000
238.898400 215087.800000

>ms2
112.999800 6772.500000
127.015500 2062053.200000
145.026100 2189.400000
203.929600 103958.600000
238.898400 622072.900000
270.923900 10910.200000

>ms2
78.994400 3249.100000
112.999800 28877.500000
127.015500 1809016.400000
202.921800 3894.000000
203.929500 692487.100000
238.898300 296124.000000
270.924400 3877.200000

>ms2
64.978800 2975.100000
78.994300 17224.000000
86.963400 2725.500000
112.999800 105131.700000
127.015500 1379559.000000
141.031000 7514.200000
145.026100 2872.700000
156.960800 4685.500000
166.945100 3032.500000
184.955500 2852.800000
202.921700 13945.100000
203.929600 1139759.900000
238.898400 45223.400000

>ms2
64.978700 3799.700000
78.994400 35174.300000
86.963200 3680.400000
110.963200 3594.600000
112.999900 156577.600000
127.015500 741971.400000
131.976200 12547.200000
132.983900 4155.400000
141.031100 6686.200000
144.960900 2449.500000
145.026200 3244.100000
166.945100 17543.400000
168.960600 10047.000000
184.955600 2548.500000
196.966700 2632.500000
202.922000 10539.200000
203.929600 999325.200000
238.898300 3494.900000

>ms2
64.978700 7823.800000
78.994400 55223.500000
86.963300 10133.800000
110.963400 22264.000000
112.999900 174395.900000
131.976200 68888.100000
132.984100 31379.500000
141.030900 4082.300000
144.960700 8730.800000
156.960800 25746.200000
166.945200 35543.400000
168.960800 51662.400000
184.955700 6769.100000
196.967000 18109.800000
202.921600 5877.800000
203.929700 825937.600000

