>compound LU97830548
>parentmass 212.20090000000002
>ionization [M+H]+
>formula C13H25NO
>rt 1079.160000
>profile orbitrap
#smiles_iso CCNC(=O)C1CC(CCC1C(C)C)C
#smiles_can CCNC(=O)C1CC(CCC1C(C)C)C
#inchikey VUNOFAIHSALQQH-UHFFFAOYSA-N
#pubchem_id 62907
#mb_accession LU130201,LU130202,LU130203,LU130204,LU130205,LU130206

>ms2peaks
69.069800 77263.800000
72.044200 92263.500000
83.085500 173073.200000
170.154000 305237.200000
212.200700 57005020.000000

>ms2peaks
57.069900 207136.800000
69.069800 367497.800000
72.044300 401076.400000
74.060100 78805.800000
81.069800 66806.300000
83.085500 816188.400000
95.085500 74973.200000
97.101200 281867.200000
125.132600 121459.600000
168.138400 82814.600000
170.153900 1402887.400000
194.191500 80046.900000
196.170000 159710.500000
212.200800 64294100.000000

>ms2peaks
55.054200 805313.800000
56.049500 50611.100000
57.069900 1083121.200000
58.065100 138842.600000
67.054200 97701.200000
69.069800 2979006.200000
71.085500 152708.200000
72.044300 3123885.200000
74.060000 641522.400000
79.054100 41131.200000
81.069900 568185.200000
83.085500 5148716.000000
85.101300 64433.500000
93.069900 264896.800000
95.085500 395605.500000
97.101200 2049784.100000
100.075400 168544.200000
107.085500 245587.000000
109.101200 86061.900000
121.101000 109568.800000
123.116800 516034.600000
125.132400 246764.200000
137.132500 39887.200000
139.148000 56497.700000
142.122600 61374.000000
149.132500 183000.900000
150.127800 40897.500000
152.143100 68692.900000
154.122600 55824.900000
168.138300 224897.800000
170.153900 6492908.500000
194.190400 233319.100000
196.169600 234635.000000
210.185000 99858.200000
212.200800 33841764.000000

>ms2peaks
53.002200 99791.300000
53.038500 92681.600000
53.997500 18782.200000
55.054200 3764798.000000
56.049500 128872.800000
57.069900 1437713.200000
58.065100 294082.500000
59.049000 16109.200000
67.054200 394170.800000
69.069800 5148949.500000
70.065100 33356.000000
71.085500 237384.400000
72.044300 6336226.500000
74.060000 1430313.400000
79.054200 208746.000000
81.069900 1586051.800000
82.065000 24582.900000
83.085500 7268640.000000
84.080700 90641.700000
85.101100 57776.100000
86.096500 29368.000000
87.067900 59678.900000
88.075700 42822.100000
91.054200 88164.300000
93.069900 582828.400000
94.065200 28117.700000
95.085500 901559.400000
96.080600 15019.300000
97.101200 3941579.200000
98.059900 39051.600000
98.096400 24496.200000
100.075700 602257.700000
100.111900 51966.100000
105.069900 100198.000000
107.085500 629888.800000
108.080800 16285.700000
109.064700 30655.200000
109.101100 160532.700000
110.096400 30520.500000
111.080400 27979.700000
112.075300 13229.100000
112.112200 14049.600000
114.091300 73109.300000
121.101100 187501.700000
122.096400 26538.800000
123.080300 55640.200000
123.104100 40085.700000
123.116800 689353.900000
124.112000 106553.300000
125.132500 97211.300000
126.091400 58255.700000
126.127700 15139.700000
127.099200 39312.100000
128.107100 76852.300000
136.112000 27525.000000
137.119800 13648.700000
137.132500 58078.500000
138.127600 40317.700000
139.148300 29350.600000
140.107000 49019.800000
140.143300 55724.300000
142.122600 191578.900000
147.116500 16337.300000
149.132500 146622.300000
150.127700 64276.500000
152.143300 230683.000000
154.122500 75879.000000
156.138500 42856.000000
166.159100 17664.300000
168.138100 137938.600000
170.153900 7054896.500000
184.169300 30556.500000
194.190300 142218.600000
196.169100 89816.600000
210.184800 37165.900000
212.200800 8751556.000000

>ms2peaks
53.002200 164955.900000
53.038600 158823.400000
53.997500 38401.300000
54.033900 27679.900000
55.017900 404823.600000
55.054200 6207758.500000
56.049500 135356.700000
57.069900 989430.100000
58.065100 263515.900000
59.049000 14209.300000
65.038500 28171.000000
67.054200 570007.300000
69.069800 3954450.200000
70.065000 14732.400000
71.085500 141067.000000
72.044300 4047661.200000
74.060000 1305426.400000
79.054200 487059.000000
81.069900 1789862.500000
82.065100 101778.700000
83.085500 3972176.800000
84.080700 207261.600000
86.096300 33051.100000
87.067800 73974.100000
88.075800 15546.900000
91.054300 210041.100000
93.069900 518629.000000
94.065100 47979.200000
95.049100 99110.700000
95.085500 822714.500000
96.080800 63883.100000
97.101200 2644287.500000
98.060000 129275.700000
98.096500 51648.100000
100.075700 867672.800000
105.070000 135090.700000
107.085500 634610.600000
108.080700 27627.400000
109.064700 69726.500000
109.101300 127764.000000
110.096300 57626.900000
111.080700 12283.200000
112.075700 46119.800000
112.112100 16610.000000
114.091400 39866.900000
121.101200 98298.300000
122.096400 56861.500000
123.080400 34876.100000
123.104300 43675.800000
123.116700 252858.400000
124.111900 94287.300000
126.091300 195974.400000
126.127900 21930.700000
127.099300 32979.500000
128.106800 41485.600000
136.111900 28494.300000
137.120000 15239.900000
137.132500 48226.900000
138.127700 21019.500000
140.106800 62755.100000
140.143200 29394.900000
142.122600 147069.800000
149.132100 22482.500000
150.127900 67160.600000
152.143300 145319.200000
154.122600 45438.800000
156.138400 17134.300000
168.138400 52011.900000
170.153900 2279231.000000
194.190300 35254.400000
196.169500 19231.500000
212.200800 847775.900000

>ms2peaks
53.002200 273382.400000
53.038600 275838.600000
53.997500 50373.400000
54.033800 55768.500000
55.017900 929124.600000
55.054200 7869850.500000
56.049500 155746.600000
57.069900 754960.100000
58.065100 246601.900000
65.038600 68680.500000
67.054200 765479.700000
69.069900 2613672.800000
70.065100 66299.200000
71.085500 38726.000000
72.044300 2246230.800000
74.060000 851065.700000
79.054200 815349.900000
81.069900 1775628.000000
82.065200 153768.000000
83.085500 1828873.800000
84.080800 171360.500000
86.096400 19550.900000
87.068000 72231.200000
91.054200 452491.700000
93.069900 371220.400000
94.065100 57200.000000
95.049100 176560.900000
95.085500 619398.600000
96.080700 44282.400000
97.101200 1145546.900000
98.060000 263963.400000
98.096400 49830.700000
100.075700 767744.900000
105.070000 206872.300000
107.085500 401081.100000
108.080600 72434.800000
109.064800 64079.000000
109.101200 57449.400000
110.096400 76949.200000
112.075700 69056.400000
114.091400 46056.100000
121.101100 26343.500000
122.096300 63555.700000
123.080400 14871.100000
123.104100 60962.100000
123.116900 74183.300000
124.112000 83871.100000
126.091300 175399.400000
126.127500 20318.900000
128.107000 22707.300000
136.112100 59212.100000
140.107000 49339.900000
142.123000 68461.100000
150.127600 39033.300000
152.143400 45792.700000
154.122400 27201.900000
168.138200 17582.500000
170.153800 427607.500000
212.201200 64009.700000

