>compound LU97023255
>parentmass 120.05560000000001
>ionization [M+H]+
>formula C6H5N3
>rt 720.180000
>profile orbitrap
#smiles_iso C1=CC2=NNN=C2C=C1
#smiles_can C1=CC2=NNN=C2C=C1
#inchikey QRUDEWIWKLJBPS-UHFFFAOYSA-N
#pubchem_id 7220
#mb_accession LU063401,LU063402,LU063403,LU063404,LU063405,LU063406

>ms2peaks
65.038500 360267.200000
92.049400 331631.200000
120.055600 8313017.500000

>ms2peaks
65.038500 358567.000000
92.049400 335681.300000
120.055500 8407472.000000

>ms2peaks
65.038500 541873.100000
92.049400 480068.600000
120.055500 8955471.000000

>ms2peaks
65.038500 1825726.900000
92.049400 1035146.200000
120.055600 6985118.500000

>ms2peaks
56.049500 9888.000000
65.038600 3562191.800000
66.033900 9630.800000
90.033900 7718.500000
92.049500 1223353.100000
120.055600 4313509.500000

>ms2peaks
56.049500 14837.400000
65.038600 4460614.000000
66.033800 14260.600000
90.033900 10459.600000
91.041600 8929.300000
92.049500 935689.900000
120.055700 2029305.800000

