>compound LU97520436
>parentmass 237.12339999999998
>ionization [M+H]+
>formula C12H16N2O3
>rt 891.120000
>profile orbitrap
#smiles_iso CCNC(=O)C(C)OC(=O)NC1=CC=CC=C1
#smiles_can CCNC(=O)C(C)OC(=O)NC1=CC=CC=C1
#inchikey AMRQXHFXNZFDCH-UHFFFAOYSA-N
#pubchem_id 27689
#mb_accession LU038301,LU038302,LU038303,LU038304,LU038305,LU038306

>ms2peaks
72.080800 3443.100000
100.075700 4011.400000
118.086300 38426.300000
120.044400 13307.300000
192.065700 19885.200000

>ms2peaks
72.080800 8345.100000
100.075700 3658.800000
118.086400 30209.000000
120.044500 19805.500000
150.102800 2222.700000
192.065600 4596.100000

>ms2peaks
72.044300 4064.100000
72.080800 16741.700000
100.075800 6263.900000
118.086300 17057.400000
120.044500 19840.800000
122.071400 1828.100000
126.127900 3818.400000
136.087200 1957.900000
150.102800 25678.400000
151.097600 1771.600000
151.110700 5306.700000
165.113900 2340.100000
165.126200 9581.000000
166.097500 5111.500000
179.129400 16893.300000

>ms2peaks
72.044400 3891.700000
72.080800 20039.000000
81.069900 1735.100000
82.065200 2497.600000
84.080900 8721.400000
92.049500 2544.400000
96.080700 2149.100000
100.075700 3192.000000
109.076000 3418.200000
118.086000 2224.900000
120.044400 13307.200000
122.071300 10951.400000
126.127800 13902.300000
136.087000 21272.800000
137.094900 5238.000000
138.066700 1915.700000
150.102700 97357.200000
151.097900 4309.700000
151.110500 29961.600000
151.122400 3832.500000
152.118300 2233.300000
165.113800 17515.100000
165.126100 28872.500000
166.097600 20106.000000
166.121400 3834.800000
179.129200 87008.600000

>ms2peaks
55.017900 3113.600000
67.054300 1595.800000
71.060500 2897.800000
72.044500 2774.300000
72.080800 20544.600000
79.054300 2548.100000
81.044800 5699.100000
81.069900 2692.200000
82.065200 1967.000000
84.080900 10023.800000
92.049700 6796.200000
95.049200 3679.000000
96.080900 3151.700000
109.076200 15480.000000
110.096600 2333.400000
120.044400 9363.200000
122.071400 24615.100000
123.079300 2129.700000
123.091900 3186.600000
124.087200 1890.300000
126.127900 8215.100000
136.087100 46964.000000
137.095100 8911.300000
138.067400 1783.600000
150.102800 66501.100000
151.098300 7129.600000
151.110500 20064.600000
151.123200 2399.300000
165.113900 9576.400000
165.126100 9676.500000
166.097900 8526.800000
166.121000 1936.500000
179.129300 68318.900000

>ms2peaks
55.017900 2606.900000
67.054200 1951.600000
71.060300 8373.600000
72.080700 8770.800000
79.054200 8502.000000
81.044800 50145.700000
81.070100 3801.100000
82.065200 13078.200000
84.080800 20349.300000
92.049600 5889.100000
95.049200 4618.300000
96.080900 9376.900000
109.076100 84983.800000
110.096500 7402.500000
120.044300 2192.400000
122.071300 61789.500000
123.079200 10219.800000
123.091700 13290.900000
124.087000 13170.800000
126.127900 7100.500000
136.087000 142111.400000
137.094800 10669.200000
150.102700 81493.200000
151.097800 27591.000000
151.110500 17921.200000
152.118300 3418.700000
165.113500 17173.700000
165.125900 9895.300000
166.097900 4764.500000
179.129300 90828.100000

