>compound LU97485370
>parentmass 334.1680999999999
>ionization [M+H]+
>formula C18H24ClN3O
>rt 1164.690000
>profile orbitrap
#smiles_iso CCC1=NN(C(=C1Cl)C(=O)NCC2=CC=C(C=C2)C(C)(C)C)C
#smiles_can CCC1=NN(C(=C1Cl)C(=O)NCC2=CC=C(C=C2)C(C)(C)C)C
#inchikey ZZYSLNWGKKDOML-UHFFFAOYSA-N
#pubchem_id 86354
#mb_accession LU121001,LU121002,LU121003,LU121004,LU121005,LU121006

>ms2
147.116500 88199.700000
171.031900 26459.000000
200.058500 76933.400000
334.167800 15448203.000000

>ms2
67.054100 13933.200000
69.069800 16169.100000
70.039900 13592118.000000
81.069900 20253.200000
83.085500 36797.800000
95.085500 57945.400000
109.101100 150950.800000
121.101200 20521.100000
125.015200 323368.000000
139.030800 30951.300000
151.030800 74597.900000
163.030700 36647.200000
165.046500 36294.000000
177.046500 87409.500000
191.062100 189898.800000
247.124500 58599.000000
334.168100 2249660.000000

>ms2
54.033800 14024.900000
55.054200 41812.300000
56.013200 6329.700000
56.049400 10287.100000
57.069900 159569.900000
62.999600 7501.500000
68.049500 21531.500000
69.069800 10136.400000
74.096100 6347.400000
75.994800 68846.900000
78.010500 7746.600000
81.044700 13944.100000
82.065300 15733.000000
90.010500 104173.200000
91.054200 393529.600000
93.069800 11543.100000
104.026100 33300.900000
105.069900 583331.800000
107.085500 81013.700000
109.076000 16492.100000
110.083700 6274.500000
115.005700 8331.600000
117.021400 2681226.200000
118.041600 9783.100000
119.085500 639037.600000
130.029200 23046.500000
131.085500 12691.200000
132.093400 345882.800000
145.052700 5904724.000000
147.116700 3806158.500000
162.127800 22582.700000
171.031900 664119.000000
188.058600 32306.900000
200.058500 139553.400000
278.105400 83766.400000
318.137600 8216.500000
319.144400 18889.800000
334.168000 1905461.800000

>ms2
55.054300 48593.300000
59.049100 39625.600000
67.054200 170750.000000
69.069800 55205.800000
70.039900 21115594.000000
79.054200 49112.100000
81.069900 90202.400000
89.038300 28268.400000
93.070000 41031.300000
95.085500 77628.900000
109.101100 130111.600000
115.054300 34320.100000
116.062000 36483.300000
125.015200 2414308.800000
128.062100 49823.700000
130.077500 26338.900000
139.030800 53971.500000
142.077600 44703.900000
149.015300 25043.400000
151.030900 116665.500000
155.060300 24677.700000
156.093300 47475.900000
163.030800 173473.700000
165.046800 28469.700000
177.046300 48209.000000
191.062200 41303.900000

>ms2
53.002200 13745.700000
53.038600 12842.700000
54.033800 182383.100000
55.041600 15075.200000
55.054200 103580.300000
56.013100 28866.400000
56.049500 86200.000000
57.069900 21963.000000
61.979100 17863.000000
62.999500 89869.700000
63.994900 12212.900000
65.038500 16750.100000
66.033800 8685.700000
67.041700 7907.200000
67.054200 14440.700000
68.049400 54002.400000
69.069700 22906.300000
70.065000 7084.700000
74.986900 9947.700000
75.994800 1321682.000000
77.015200 12534.500000
77.038400 7057.400000
78.010400 30663.300000
78.046300 5915.900000
79.054200 93377.700000
80.049400 12642.500000
81.044700 212850.000000
82.052500 78623.500000
82.065100 36695.800000
87.994800 15943.000000
90.010500 605714.900000
91.054200 521837.000000
93.069900 58853.500000
95.049100 21016.300000
95.060300 51119.500000
101.997900 4965.800000
102.010500 20643.700000
103.054100 56663.100000
104.026100 34619.200000
104.062000 113738.300000
105.069900 1146052.500000
107.085500 196421.300000
109.064800 12764.100000
109.075900 24177.200000
110.083800 7945.200000
115.005800 48185.200000
115.054200 45348.700000
116.062000 12033.600000
117.021400 4705461.500000
117.069700 1457289.500000
119.085500 1407352.200000
129.021400 32372.000000
129.069700 5745.700000
130.029200 134894.400000
130.077500 8631.400000
131.085500 132547.300000
132.093300 1883625.000000
133.016400 8616.900000
143.000400 5259.800000
143.037100 23181.700000
145.052600 1003396.100000
145.101100 62584.900000
147.116700 599731.800000
157.052600 9707.800000
158.059500 6744.300000
162.127300 8507.500000
171.031800 143721.300000
188.058700 26952.200000
189.042900 6300.300000
200.058400 8487.300000
275.130000 6599.400000

>ms2
53.038700 29327.600000
55.054200 101570.100000
59.049000 39010.400000
65.038600 27819.200000
67.054200 195554.100000
69.069800 39584.600000
70.039900 23045004.000000
79.054100 77043.900000
81.069900 78237.100000
89.038600 488529.300000
91.054300 45463.100000
93.070000 26721.300000
95.049000 32804.300000
95.085500 28841.400000
98.999600 200352.500000
103.054200 64105.100000
115.054200 149602.500000
116.062000 157061.500000
125.015300 3499989.500000
128.062000 178623.700000
129.069600 47499.200000
130.077700 54140.700000
141.069900 100195.000000
142.077700 72119.300000
145.064900 26362.900000
149.015500 42360.700000
151.030800 27054.400000
155.060500 34925.400000
163.030700 27286.100000

