>compound LU97565951
>parentmass 281.2012
>ionization [M+H]+
>formula C19H24N2
>rt 927.300000
>profile orbitrap
#smiles_iso CN(C)CCCN1C2=CC=CC=C2CCC3=CC=CC=C31
#smiles_can CN(C)CCCN1C2=CC=CC=C2CCC3=CC=CC=C31
#inchikey BCGWQEUPMDMJNV-UHFFFAOYSA-N
#pubchem_id 3696
#mb_accession LU067401,LU067402,LU067403,LU067404,LU067405,LU067406

>ms2peaks
58.065100 641212.000000
86.096400 10153355.000000
208.111900 58309.100000
236.143100 130757.400000
281.201100 9514591.000000

>ms2peaks
58.065100 3149162.500000
86.096300 16434688.000000
208.112000 380163.600000
236.143300 290216.400000
281.201000 941338.900000

>ms2peaks
56.049500 27555.200000
58.065100 6575331.500000
71.072900 36581.500000
86.096300 13283143.000000
105.069800 31228.900000
158.096400 15847.800000
193.088500 103377.300000
208.112000 945215.400000
220.111800 13464.600000
236.143200 151197.900000

>ms2peaks
56.049500 67198.500000
58.065100 9239424.000000
71.072900 75268.100000
79.054200 14841.600000
84.080700 11790.500000
86.096400 8821044.000000
91.054200 35279.900000
105.069900 97669.200000
158.096500 18238.700000
180.081000 10733.200000
193.088700 660962.900000
195.104600 11922.900000
206.096200 19710.500000
207.104200 9931.000000
208.112100 972025.200000
220.112000 33305.300000
236.143400 32239.700000

>ms2peaks
56.049500 79752.300000
58.065100 9691495.000000
71.072900 114748.900000
79.054100 27466.200000
84.080800 11382.100000
86.096400 4519553.500000
91.054300 54747.300000
103.054400 23478.800000
105.069900 148040.300000
106.065200 9790.200000
115.054200 12878.000000
130.065200 20406.000000
165.069700 11258.400000
167.072800 13307.800000
178.077300 10845.800000
180.080600 29729.600000
192.080900 29257.800000
193.088600 1170282.900000
194.096400 26720.500000
206.096600 35806.200000
207.104300 23804.200000
208.112100 453308.200000
220.111900 49131.200000

>ms2peaks
56.049500 126886.000000
57.057300 13529.600000
58.065100 10225356.000000
71.072900 179766.300000
79.054200 58742.100000
84.080800 14946.700000
86.096400 2311839.800000
91.054200 77404.500000
103.054300 42216.000000
105.069900 130348.600000
115.054200 33718.900000
130.065200 24385.300000
144.080300 10530.900000
165.069800 48818.600000
166.077800 34921.600000
167.073000 73244.300000
178.077600 19609.900000
180.080800 41363.000000
192.080800 217221.000000
193.088700 1493320.400000
194.096400 34573.000000
202.077800 14067.300000
206.096400 44568.300000
207.104500 44013.700000
208.112100 179372.500000
220.112200 47830.400000

