>compound LU98855833
>parentmass 368.1104
>ionization [M+H]+
>formula C18H16F3NO4
>rt 1090.300000
>profile orbitrap
#smiles_iso CO/C=C(\C1=CC=CC=C1COC2=CC=CC(=N2)C(F)(F)F)/C(=O)OC
#smiles_can COC=C(C1=CC=CC=C1COC2=CC=CC(=N2)C(F)(F)F)C(=O)OC
#inchikey IBSNKSODLGJUMQ-SDNWHVSQSA-N
#pubchem_id 11285653
#mb_accession LU095101,LU095102,LU095103,LU095104,LU095105,LU095106

>ms2peaks
145.064800 36724.300000
205.086100 68241.600000

>ms2peaks
145.064900 106855.400000
205.086300 4661.900000
341.086000 9022.100000

>ms2peaks
115.054400 4243.800000
117.070000 7420.500000
145.064900 97794.300000
341.086500 6337.200000

>ms2peaks
91.054300 4360.500000
103.054300 1944.100000
115.054300 19326.500000
117.070100 21469.400000
130.041300 4026.000000
131.049500 2378.800000
145.064900 48089.100000
146.072900 2962.100000

>ms2peaks
91.054400 10050.600000
102.046500 10547.700000
103.054300 4322.200000
115.054400 34753.400000
117.070000 19662.700000
130.041400 8407.800000
131.048800 2313.800000
145.064900 14077.600000
146.072500 2142.600000

>ms2peaks
91.054400 13542.500000
102.046500 29136.900000
103.054300 11785.700000
115.054400 31363.700000
117.070000 8185.500000
130.041500 7474.100000
131.049200 3402.500000
145.065100 3270.300000

