>compound LU98220341
>parentmass 412.0437
>ionization [M+H]+
>formula C15H14Cl2F3N3O3
>rt 1101.780000
>profile orbitrap
#smiles_iso CCOC(=O)C(CC1=CC(=C(C=C1Cl)F)N2C(=O)N(C(=N2)C)C(F)F)Cl
#smiles_can CCOC(=O)C(CC1=CC(=C(C=C1Cl)F)N2C(=O)N(C(=N2)C)C(F)F)Cl
#inchikey MLKCGVHIFJBRCD-UHFFFAOYSA-N
#pubchem_id 86222
#mb_accession LU058701,LU058702,LU058703,LU058704,LU058705,LU058706

>ms2
316.005200 151594.900000
320.041100 28868.800000
338.006900 8577.400000
345.995700 167236.700000
358.014300 3539.600000
362.048700 7569.100000
366.002100 1813903.100000
374.027700 4441.400000
384.012600 2800634.800000
392.038600 7283.000000
412.043900 3427676.800000

>ms2
74.003600 8525.400000
87.035300 5814.500000
203.977900 5928.400000
204.961400 13205.000000
228.997400 18140.300000
229.957100 5111.800000
231.972700 5928.700000
240.997300 40473.700000
242.005500 12227.300000
256.968000 8027.800000
257.952100 21127.400000
270.983800 4857.300000
276.974100 409494.600000
284.962700 9533.600000
290.030400 11572.900000
298.978600 4829.100000
302.030200 423013.500000
304.968800 7091.000000
316.005100 569276.400000
320.040700 93783.200000
330.025600 19180.200000
334.055700 13578.900000
338.006900 227197.800000
345.995600 4675569.000000
366.001900 2092946.000000
374.027800 14357.200000
384.012400 187621.800000
412.043000 31801.200000

>ms2
60.024300 7596.200000
73.019400 2762.800000
74.003600 184717.700000
87.035300 65830.700000
88.978800 3410.100000
92.030700 60952.700000
143.005800 3385.600000
153.998000 4967.900000
168.001100 29097.500000
168.985100 20876.800000
169.008800 34417.900000
176.966900 377371.800000
183.011900 32597.800000
183.996200 11097.500000
186.011600 9843.900000
194.988300 8560.900000
195.996200 31783.600000
203.977800 86519.500000
204.961900 315935.800000
207.036400 15773.200000
209.027800 52337.800000
209.999100 22907.700000
211.007000 49004.800000
213.002500 31073.700000
214.010200 5447.200000
220.991100 9769.300000
221.999300 26076.200000
222.972300 4786.300000
223.006900 12844.500000
223.990900 138848.100000
227.989600 7667.200000
228.997600 165984.000000
229.957100 45882.000000
230.965000 41089.300000
231.972600 47703.800000
232.980500 73626.700000
233.008500 19680.400000
235.007100 4196.500000
239.001600 12647.800000
240.997500 695430.200000
242.005300 193100.100000
246.983400 20359.600000
248.977500 15003.200000
252.033500 76750.500000
256.968000 87183.500000
257.951700 29923.700000
258.959800 141188.000000
261.003700 82826.700000
268.992300 16609.500000
270.000300 22583.200000
270.983600 67525.100000
274.978500 57279.500000
276.974200 1328006.200000
282.024000 61491.400000
284.963100 37036.400000
288.010200 285085.900000
288.994600 13387.400000
290.029800 36117.400000
298.978900 14472.300000
302.030300 741429.800000
303.038200 22621.000000
304.968700 8278.500000
310.019100 10273.600000
316.005300 123356.700000
320.040900 29054.100000
330.025800 7056.900000
334.056400 27398.100000
338.007100 143202.600000
345.995700 1360572.400000
362.046300 3561.300000
366.002100 35169.000000

>ms2
57.044900 2846.700000
60.024400 26984.200000
60.983900 6131.200000
62.963300 4638.300000
66.974500 6168.400000
73.019600 7497.700000
74.003700 296633.900000
85.039700 8041.500000
87.035300 89899.000000
88.978900 3313.200000
92.030700 87524.400000
107.029200 3717.300000
116.990200 16678.800000
120.037300 3011.600000
132.024500 11239.500000
133.032200 7489.200000
133.044700 5862.800000
134.040100 5553.200000
134.052600 7615.400000
135.048100 6988.300000
140.990200 155316.100000
141.984800 3170.300000
143.006000 8989.900000
144.984900 8916.900000
146.052600 10781.500000
150.035100 7114.600000
151.042700 13372.400000
152.050800 26179.900000
152.973700 20770.700000
153.998200 22661.100000
155.005900 5201.800000
156.001100 27359.400000
159.000800 14408.000000
161.027100 10032.800000
165.985500 3105.200000
166.005600 4308.200000
167.013400 6711.600000
168.001200 222237.800000
168.985200 170923.200000
169.008900 214323.900000
169.993000 108303.900000
171.011900 3680.000000
174.058800 10140.500000
175.030300 4751.400000
176.038200 67383.600000
176.966900 1233349.900000
178.034000 12558.200000
179.017500 5368.500000
179.041700 4189.700000
182.016600 3106.100000
183.012000 136881.700000
183.996100 40472.900000
189.045900 4497.000000
194.004300 20399.500000
194.988300 119699.800000
195.996200 175522.400000
196.980500 12616.000000
197.003700 29264.500000
198.011800 45941.600000
200.027100 8543.000000
200.037400 4815.100000
201.962200 92353.100000
203.977900 129635.900000
204.961900 489329.000000
206.028800 64109.500000
207.036600 89782.200000
209.027700 131202.700000
209.998900 28455.300000
211.007000 219198.400000
212.014800 53779.000000
213.002600 153230.400000
213.986600 23285.700000
214.010300 25746.200000
215.025200 29261.100000
216.056900 10143.100000
217.064600 11189.000000
218.988700 5409.800000
219.972500 4142.100000
220.991300 38699.800000
221.999000 65678.100000
222.972300 4800.800000
222.982900 8303.200000
223.007000 28362.700000
223.991000 509957.700000
225.022800 4218.300000
226.035000 40284.400000
226.977100 13794.800000
227.989600 15829.100000
228.002400 7434.600000
228.973700 38708.500000
228.997600 219698.600000
229.957100 62745.500000
230.965100 158883.700000
231.972700 54885.700000
232.027000 5963.400000
232.980700 201440.100000
233.008600 66126.800000
235.006800 8203.700000
236.014900 23839.300000
239.001800 37064.300000
240.997500 1035202.600000
242.005400 362224.000000
243.033000 4767.400000
246.983600 21294.500000
248.981200 9671.300000
248.984000 9400.700000
251.026000 12996.100000
252.033500 244626.500000
253.041400 7854.500000
256.967900 84817.600000
257.951800 9888.000000
258.959900 57527.700000
261.003700 75473.800000
267.061500 7476.900000
268.003300 29746.400000
268.992300 7970.500000
270.000200 14258.400000
270.983700 82423.100000
274.978400 56113.500000
276.974300 280967.300000
282.024100 56740.700000
288.010300 251157.000000
288.994500 5167.600000
290.030500 49414.300000
298.978600 8205.200000
302.030400 181260.900000
303.037900 21905.900000
316.004900 12285.900000
334.056300 9141.900000
338.006800 11338.300000
345.995700 47893.300000

>ms2
57.013500 2948.200000
57.044700 4025.400000
60.024400 27923.700000
60.983900 7470.100000
62.963100 8499.600000
66.974600 12169.700000
72.983800 4381.700000
73.019600 5924.400000
74.003600 203634.900000
76.018100 2992.800000
83.029100 8383.600000
85.039600 12259.500000
87.035300 51914.800000
88.978600 2423.900000
90.974600 5295.600000
92.030700 49498.600000
100.018200 9138.000000
107.029100 27618.500000
108.024400 5176.200000
109.032200 4107.200000
111.024100 4606.600000
114.034200 7794.800000
116.990200 41591.300000
117.998000 8026.100000
120.024600 4698.300000
120.036900 10725.800000
121.032000 14345.000000
122.039900 6077.700000
122.999700 14347.100000
123.024000 2992.300000
128.990100 4872.500000
132.024300 57240.700000
133.032300 42926.000000
133.044900 20660.200000
134.040000 39766.000000
134.052600 16883.300000
135.047900 11569.400000
135.994900 3891.800000
140.990200 742918.200000
141.985500 11294.200000
141.998000 29065.300000
143.005900 19103.500000
144.984900 15478.000000
146.052600 13381.200000
147.035200 16711.400000
147.994700 12677.600000
148.030500 37305.700000
148.043000 7707.000000
148.056100 3862.200000
149.002700 6166.200000
149.050900 6177.000000
150.034900 16180.900000
150.059000 3368.500000
150.951200 5166.700000
151.043000 46264.600000
152.050700 114776.700000
152.973700 22854.000000
153.998200 34718.800000
154.005300 6027.600000
155.006000 12400.700000
156.001100 129685.400000
156.960600 5660.000000
156.985000 9561.500000
156.996500 5643.400000
159.000700 13499.800000
159.035300 7313.800000
161.027200 50588.500000
162.035000 3480.800000
163.005600 9867.700000
163.042600 5258.600000
164.000800 17002.200000
165.985400 32286.200000
166.005400 10292.900000
167.013400 19571.700000
168.001200 440658.900000
168.985200 217686.900000
169.008900 328872.900000
169.992900 188648.900000
170.016800 10962.600000
171.012200 14565.600000
173.051000 10938.700000
174.058700 17863.400000
174.951400 17547.800000
175.030200 18553.600000
175.066600 6326.500000
176.038100 154285.000000
176.966900 1398550.200000
178.033600 38380.400000
179.017900 13394.900000
179.041700 19433.600000
180.001200 3581.100000
180.996700 6760.400000
181.955700 3455.400000
183.012000 188719.300000
183.996000 62499.800000
184.019700 9086.800000
185.991700 49801.300000
186.011600 51423.300000
189.046100 9415.300000
189.069500 7455.100000
191.000400 5881.100000
192.996500 49135.900000
194.004300 47333.600000
194.988300 205091.600000
195.996100 376329.700000
196.980400 5620.700000
197.003800 59636.700000
198.011700 176411.300000
199.966600 7445.600000
200.027300 11209.400000
200.037800 6981.000000
201.962100 111602.100000
203.977800 72668.700000
204.002100 9754.500000
204.032500 7403.500000
204.961900 139813.100000
205.997700 18544.700000
206.028800 70723.500000
207.036500 137702.400000
207.996300 8048.100000
208.991300 25848.300000
209.027700 48126.600000
209.999000 14680.600000
210.035500 16665.400000
211.006900 225583.700000
212.014800 59163.800000
213.002600 94771.000000
213.986500 10166.200000
214.010500 37542.200000
215.014200 21831.600000
215.025300 21559.900000
216.056700 22758.300000
217.064600 18330.100000
218.988700 3309.700000
219.972600 7418.700000
220.991500 21948.700000
221.999200 44153.500000
222.983100 7519.700000
223.007000 13779.500000
223.991000 394792.900000
225.023000 3834.900000
226.034700 18665.100000
226.977500 15748.100000
227.989800 6274.800000
228.002300 5788.800000
228.973500 20236.200000
228.997600 127240.600000
229.957100 17612.200000
230.965000 115818.200000
231.972500 10537.400000
232.027200 10497.000000
232.980600 98165.300000
233.008400 26723.400000
236.014800 23231.100000
239.002000 15748.100000
240.997500 287076.600000
242.005300 164614.000000
243.033300 7218.600000
248.985200 5881.100000
251.026100 6180.800000
252.033500 95735.600000
253.041400 5772.100000
256.968200 17861.500000
261.003700 5182.900000
267.061700 4169.800000
268.003400 14764.700000
268.992300 4082.700000
276.974300 8521.200000
288.010400 29806.800000
290.029700 12599.400000

>ms2
57.013500 8198.500000
57.044700 3845.600000
60.024400 18010.300000
60.983900 7914.700000
62.963300 4384.400000
66.974500 14285.800000
72.983900 5835.100000
74.003600 91220.300000
76.018100 3096.100000
83.029200 14460.700000
85.039700 6743.300000
87.035400 16765.300000
90.974500 17907.200000
92.030600 13333.900000
100.018200 26361.500000
107.029200 106378.700000
108.024300 9413.800000
109.032200 4127.800000
111.024200 4443.500000
114.033800 23335.000000
116.990200 57612.600000
117.998200 4795.600000
120.024500 10827.900000
120.037100 21582.200000
121.032200 22312.400000
122.039900 5282.700000
122.999500 18886.500000
123.024000 2401.900000
128.990100 6076.400000
132.024400 112654.800000
133.032200 69290.200000
134.040000 70326.400000
135.047900 17945.100000
135.994700 6148.300000
140.990200 768394.900000
141.985500 15456.100000
141.998100 57790.200000
143.005800 15504.100000
144.984800 3152.400000
147.035300 24771.400000
147.994900 19931.800000
148.030600 55264.800000
148.043000 17801.700000
148.055500 3127.100000
149.002500 7964.300000
149.051100 17987.900000
150.035000 24001.300000
150.058300 3113.200000
150.951200 6656.100000
151.042800 37122.300000
152.050600 117838.200000
153.997900 33664.000000
154.005400 8672.200000
156.001100 117811.400000
156.960500 10000.200000
156.985300 11895.600000
156.996400 8367.000000
159.035300 15173.200000
161.027200 106981.700000
162.034700 3382.700000
163.005700 16458.600000
163.042900 9603.200000
164.001200 25570.800000
165.985600 42980.100000
166.005500 5734.300000
167.013500 13034.500000
168.001200 330386.500000
168.985300 60846.500000
169.008900 191357.400000
169.993000 122683.000000
170.016500 20366.400000
171.012000 6959.400000
173.050900 10860.100000
174.058500 7236.900000
174.951200 24782.100000
175.030200 10193.900000
175.066900 5473.600000
176.038100 89723.300000
176.966900 646620.200000
178.033800 28250.000000
179.017700 6375.100000
179.041700 16166.500000
180.001100 6347.500000
180.996700 3286.800000
181.955600 3342.800000
182.016900 6661.400000
183.012100 98722.300000
183.996100 37603.600000
184.019800 8795.900000
185.991800 30672.500000
186.011600 25821.300000
189.069600 7304.900000
191.000100 3199.500000
192.996500 21218.500000
194.004100 42042.500000
194.988300 86321.700000
195.996100 211792.500000
197.003700 23737.700000
198.011700 126910.700000
199.966500 6837.500000
201.962200 47646.000000
203.977800 12899.700000
204.002300 6502.600000
204.032200 5466.900000
204.961500 15229.400000
205.997600 2908.600000
206.028700 21439.000000
207.036500 61434.100000
207.996300 5569.400000
208.991400 18221.300000
209.027600 9484.000000
210.035700 5236.900000
211.007100 53123.500000
212.014700 18193.400000
215.014400 8528.900000
215.025400 6462.400000
216.056600 7581.700000
217.064700 3389.300000
219.972700 4468.300000
220.991100 4364.500000
221.998800 12567.500000
223.006800 8670.200000
223.991000 111640.700000
228.997700 29409.700000
230.965000 19959.700000
232.980600 8326.500000
233.009300 2953.300000
240.997300 22333.900000
242.005500 16940.100000
243.033000 4312.500000
252.033200 7163.500000
270.983600 2694.800000

