>compound LU98077737
>parentmass 521.0505000000002
>ionization [M+H]+
>formula C23H23BrCl2N4O
>rt 1212.180000
>profile orbitrap
#smiles_iso CCC1=C(N(N=C1C(=O)NN2CCCCC2)C3=C(C=C(C=C3)Cl)Cl)C4=CC=C(C=C4)Br
#smiles_can CCC1=C(N(N=C1C(=O)NN2CCCCC2)C3=C(C=C(C=C3)Cl)Cl)C4=CC=C(C=C4)Br
#inchikey HMXDWDSNPRNUKI-UHFFFAOYSA-N
#pubchem_id 9849616
#mb_accession LU026801,LU026802,LU026803,LU026804,LU026805,LU026806

>ms2
84.080800 78591.600000
438.961200 354041.300000
521.050700 12718562.000000

>ms2
55.054200 28703.700000
56.049500 41239.400000
82.065200 20028.300000
84.080800 1371972.200000
99.091700 203510.500000
279.068100 24972.800000
313.029600 32369.300000
325.913200 22598.200000
342.032100 24687.500000
392.956700 18417.300000
394.971500 170403.100000
420.950500 586990.300000
438.961300 8329063.000000
440.965400 15163.300000
521.051000 997987.000000

>ms2
53.038700 8108.800000
54.033900 5568.100000
55.054200 79369.200000
56.049500 97390.200000
67.054200 12927.300000
82.065100 44936.800000
84.080800 949463.900000
85.088400 9049.100000
99.091700 178388.600000
100.099500 7675.100000
115.054100 4589.300000
116.062100 11784.200000
127.086400 4537.100000
128.062300 13810.000000
130.065300 4989.300000
143.073000 77365.200000
144.961200 3866.500000
149.015200 4102.500000
153.057400 28750.900000
154.065100 181987.900000
158.060300 12116.500000
159.971500 132812.800000
160.979300 104218.100000
168.068800 6732.400000
168.964800 8756.000000
169.064800 9452.800000
169.076200 33594.900000
171.067900 9998.900000
171.971400 28565.300000
172.966900 12709.000000
175.018400 4687.600000
177.034100 19784.000000
180.964600 6394.000000
181.052200 37370.900000
181.960100 9062.300000
182.060100 23470.000000
182.955100 10209.900000
185.987600 4959.800000
186.982800 9846.900000
188.003300 16340.800000
197.987200 25358.900000
202.029400 4627.800000
205.960300 4240.400000
206.980600 6044.400000
207.975400 10245.200000
217.088300 27461.300000
221.991000 15112.900000
227.998200 15956.400000
231.976000 22418.400000
236.998000 45808.400000
243.092200 8766.700000
244.099200 20105.100000
252.057500 181609.600000
259.970500 37765.100000
261.010700 13110.400000
263.037600 5864.300000
264.044500 5738.900000
264.058100 41043.300000
264.993900 7952.000000
265.065400 84634.400000
272.002700 9643.300000
274.018400 5661.200000
277.052700 38559.300000
278.060600 133559.900000
279.068400 1041060.600000
286.019900 18619.400000
287.026400 307770.500000
289.052700 12160.200000
291.953200 3717.000000
292.039600 23555.500000
298.020500 8854.400000
299.013700 434936.400000
304.960200 8320.900000
306.055500 4250.600000
307.063300 139467.200000
312.021600 28638.400000
313.029400 1460128.900000
314.037100 123457.300000
322.009500 7879.800000
324.022600 5556.200000
325.913400 903555.700000
327.008600 128398.500000
329.953400 4461.300000
330.976100 13957.000000
341.024500 114411.400000
342.032100 160238.800000
342.963400 173462.400000
346.027400 5337.300000
351.929600 18902.100000
356.978900 106976.400000
357.986500 20173.200000
365.944800 63798.700000
370.959100 7196.500000
375.929400 19316.000000
376.924300 163829.600000
377.932500 51141.400000
384.974700 7044.000000
390.941100 23035.300000
392.955800 343762.800000
394.971500 84739.000000
420.950600 807327.100000
438.961300 3629810.500000
440.965100 6450.100000

>ms2
52.030800 3602.400000
53.038600 16861.600000
54.033800 13252.300000
55.054300 129638.200000
56.049500 122863.400000
57.044700 3085.600000
66.033700 3198.500000
67.041700 4760.900000
67.054200 9052.700000
68.049600 4206.800000
69.057300 3143.400000
70.065100 9696.800000
75.022900 4713.700000
79.017900 3905.500000
80.025600 5411.000000
81.033200 3317.200000
82.065100 49842.400000
84.080800 620644.800000
84.983900 17460.100000
85.088500 14375.700000
86.096400 4973.200000
86.963300 4984.100000
86.999500 5094.400000
94.041300 33721.800000
98.999600 7129.200000
99.091700 133657.100000
100.099400 10436.300000
102.046400 11417.500000
103.054200 8497.900000
104.049400 4663.300000
104.062000 22841.300000
108.984200 9449.700000
115.054300 65541.100000
116.062100 137433.500000
117.057500 8414.900000
118.065300 3455.300000
120.960800 5938.400000
126.010500 6690.000000
126.046600 8880.900000
126.994400 8927.300000
127.041600 11342.200000
127.054400 5117.700000
128.002300 13714.600000
128.049900 3718.600000
128.062000 52398.600000
129.057500 8823.200000
129.069800 5883.000000
130.064900 17491.500000
130.949000 17147.300000
132.960700 46861.800000
140.049400 25749.300000
141.057200 20691.000000
141.069900 25476.200000
142.005400 3667.500000
142.065100 31466.200000
143.073000 279431.200000
144.056800 5587.300000
144.960300 17228.400000
145.064900 13883.600000
145.968500 5376.200000
146.060100 7309.100000
149.015300 26931.700000
150.022900 7414.900000
151.018200 8454.800000
152.014300 3484.100000
152.026300 3247.000000
153.033900 8952.300000
153.057300 167480.200000
154.065100 425940.400000
154.949100 13260.100000
155.060300 28007.900000
157.052300 4971.000000
158.059800 12422.500000
158.976200 7624.800000
159.971600 456173.600000
160.979400 172157.300000
162.971100 18779.800000
164.001300 5355.100000
164.026100 6087.700000
166.052400 4953.800000
167.060300 4433.600000
168.068300 19741.800000
168.964800 32642.100000
169.065000 25310.300000
169.075900 61673.600000
170.060100 9033.600000
171.067600 9094.500000
171.971500 94472.900000
172.959500 72352.300000
172.966900 176660.400000
174.010500 26630.700000
175.018400 30979.700000
176.026300 4403.300000
177.033900 76366.300000
180.965000 23097.300000
181.052300 51443.700000
181.960000 40452.000000
182.060200 38495.200000
182.955300 196859.900000
184.979600 6919.500000
185.047000 3788.700000
185.071200 5414.000000
185.987500 5010.600000
186.982400 24939.100000
188.002900 31401.900000
192.964600 9831.100000
193.960300 16286.300000
195.971700 20852.400000
197.987100 58835.100000
201.021600 7433.400000
202.029200 32410.200000
203.036900 12957.800000
204.021000 6542.100000
204.964900 6635.500000
205.960500 5513.100000
205.972300 5938.400000
206.980300 7382.900000
207.975800 28099.100000
209.987300 13256.000000
211.018600 2879.400000
213.042100 11650.800000
216.080600 22923.700000
217.088600 286671.900000
221.991000 20982.400000
225.046500 17957.300000
227.073100 5966.800000
227.997600 18708.300000
228.068600 6912.500000
229.076100 35016.600000
230.036500 5416.600000
231.975400 38489.700000
232.971600 4872.400000
236.998100 89224.400000
238.041800 21835.300000
241.076200 3253.900000
242.083700 53118.900000
243.091800 80674.400000
244.099600 119948.000000
248.003000 57342.600000
250.028200 4227.900000
251.037700 5304.300000
251.049700 93986.800000
252.057400 523184.800000
261.010600 26083.700000
261.033600 5488.100000
262.005900 4942.900000
262.042900 15902.900000
263.037100 67533.000000
264.044400 139712.700000
264.057900 24387.400000
264.992800 9789.600000
265.051900 9463.600000
265.065300 42985.900000
272.002800 32619.400000
274.018700 15218.500000
276.044800 7921.600000
277.052700 212417.000000
278.060600 610148.700000
279.068400 965713.800000
286.005000 15420.800000
286.020000 49330.600000
287.026600 309093.300000
289.053200 29887.300000
290.943800 4248.600000
291.031200 5522.400000
291.952600 23347.600000
292.039800 109350.900000
294.999100 4807.500000
298.020800 9752.000000
299.013800 879795.500000
304.960100 31531.700000
305.047800 6136.900000
306.055300 6404.900000
306.985800 5508.100000
307.063200 55376.600000
310.050100 5065.600000
311.014400 3068.600000
312.021400 47665.900000
313.029400 1508860.500000
314.037200 33872.400000
315.952400 7203.000000
321.001900 10239.000000
322.010200 20706.800000
323.016600 35493.500000
324.022000 7297.500000
325.913400 1985354.500000
327.008800 76355.600000
329.955200 21372.700000
330.976800 22807.200000
341.024300 87334.100000
342.032200 12213.600000
342.963400 285465.700000
346.026500 8972.100000
351.929200 31636.600000
355.971200 6821.000000
356.979000 198498.400000
357.987100 8712.800000
365.946100 18400.900000
366.962600 17193.500000
370.958700 20673.400000
375.929400 22551.500000
376.924300 121613.500000
377.932200 36249.100000
384.974600 8508.700000
390.940700 23922.100000
392.955800 68435.600000
420.950800 47962.100000
438.961300 135042.400000

>ms2
51.023000 4984.900000
52.030800 9715.400000
53.002200 6667.800000
53.038600 19138.300000
54.033800 6222.600000
55.017800 13594.600000
55.054200 135295.900000
56.049500 123976.000000
57.044800 5913.600000
57.070000 3700.900000
62.963200 8328.600000
65.038600 12923.200000
66.046400 4076.500000
67.041600 6870.500000
67.054100 15677.700000
68.049400 4036.000000
70.065100 12832.600000
74.015000 19117.600000
75.022900 37244.100000
76.030700 39876.100000
78.046400 7153.900000
79.017800 14169.600000
80.025700 8220.100000
80.049500 3191.200000
81.033500 9051.200000
82.065100 38072.600000
84.080800 444559.200000
84.984000 73333.300000
85.088500 6098.200000
86.096200 3461.300000
86.963200 80577.200000
86.999600 4927.900000
89.038500 5067.500000
90.033900 3422.100000
90.046500 10411.000000
91.054100 3948.600000
94.041300 115105.600000
95.049200 14796.800000
98.036300 9825.900000
98.999600 33518.700000
99.091700 71733.400000
100.099400 5709.400000
102.046400 31385.300000
103.054100 28685.400000
104.049400 8688.100000
104.062000 40525.900000
108.056900 5220.900000
108.984000 180288.600000
112.979000 13678.700000
114.046400 4277.300000
115.054200 276221.700000
116.062100 282364.600000
117.057200 20084.300000
117.070000 7243.000000
118.065300 10880.700000
120.960700 30779.700000
122.999700 3373.800000
123.994900 12158.100000
125.002700 11326.200000
126.010500 18617.800000
126.046400 36841.400000
126.994500 45441.400000
127.041700 34152.600000
127.054300 20793.000000
128.002300 73962.800000
128.049400 16162.800000
128.062000 74596.700000
129.010400 8137.000000
129.057500 10285.100000
129.069900 9266.600000
130.065200 13703.000000
130.949100 52766.600000
132.057100 7062.400000
132.960600 201310.800000
135.031900 5028.300000
136.007300 2829.800000
138.011000 3222.000000
139.005900 8604.000000
139.054300 5327.100000
140.049400 93064.200000
141.057300 45589.400000
141.069900 44744.000000
142.005300 5189.100000
142.065200 72432.800000
143.073000 301342.400000
144.057200 3654.000000
144.960600 119275.100000
145.005100 17239.300000
145.064800 68303.600000
145.968500 11805.300000
146.060100 5559.200000
149.015300 74942.000000
150.010700 4928.400000
150.023200 7000.800000
151.018300 18038.500000
152.013700 8065.200000
152.026200 10171.100000
152.049500 4368.600000
153.034300 16069.700000
153.057300 239705.100000
154.065100 276646.200000
154.949000 46425.700000
155.000800 9239.300000
155.060300 96855.200000
157.052400 9520.600000
158.060100 3740.000000
158.944000 4650.100000
158.976300 9094.400000
159.020800 8238.300000
159.971500 345150.400000
160.979300 126576.900000
161.963900 5160.400000
162.010700 5346.200000
162.971200 99627.900000
164.026200 4739.500000
166.052600 12225.500000
167.060200 14641.400000
168.057100 4010.200000
168.068000 32325.000000
168.964800 42098.700000
169.064900 10165.600000
169.076100 36680.100000
170.060100 11572.000000
171.055500 11443.800000
171.971500 119279.400000
172.959700 193332.100000
172.966900 624912.800000
173.964000 6380.500000
174.010600 42467.800000
175.018400 33027.600000
176.026000 7927.600000
177.034000 73202.300000
177.056800 22537.100000
177.981800 5428.200000
180.964800 13245.600000
181.052200 13312.800000
181.959900 68576.100000
182.955300 511265.200000
183.952200 4237.000000
183.971600 4250.500000
184.967100 6173.000000
184.979500 19314.200000
185.071200 16129.200000
186.982500 15974.000000
188.003000 16880.800000
189.021600 3281.000000
189.070100 14636.800000
190.065200 3654.100000
190.077400 4247.700000
191.073400 8251.600000
192.965000 10081.600000
193.960000 28121.600000
195.971600 41785.200000
197.987100 35023.500000
199.031200 14419.600000
201.021300 8003.700000
201.057700 5937.000000
202.029200 41116.400000
203.037000 10206.500000
203.073500 5737.300000
204.020900 10429.000000
204.080900 9314.200000
204.964800 5591.700000
205.960000 8484.100000
205.972000 4501.400000
207.976000 17189.200000
209.987300 4637.100000
212.026400 12796.000000
213.042800 4241.000000
214.065000 9270.400000
215.073100 7881.400000
216.068600 17439.500000
216.080600 110204.800000
217.088600 581370.700000
219.032500 9832.100000
221.991600 4520.100000
224.026100 19620.800000
225.034200 5138.900000
225.046500 43868.300000
226.030000 3117.000000
226.041900 9242.200000
227.060800 6784.600000
227.073300 24689.800000
228.068400 40876.900000
228.081100 5721.600000
229.076100 285039.800000
230.036800 18790.700000
231.975300 16407.800000
232.971000 3631.200000
237.034100 34077.700000
238.041900 41237.500000
239.037300 3841.500000
241.075200 14437.400000
242.083800 193086.600000
243.091700 239400.800000
244.099500 176742.400000
246.995200 63897.200000
248.002800 55944.800000
250.028400 4644.900000
250.041900 49608.200000
251.036900 18383.700000
251.049600 184649.600000
252.057400 257983.800000
259.970800 8650.900000
261.010700 9215.200000
261.033700 23582.600000
262.006100 7454.100000
263.036900 226997.400000
264.044700 344198.900000
264.056500 22190.700000
265.052400 9309.100000
272.002800 56427.600000
274.018600 9168.700000
277.052700 350493.200000
278.060500 572862.100000
278.984700 67161.400000
279.068400 236129.400000
285.010600 11396.300000
286.005300 15861.300000
286.020500 42682.200000
289.053100 27707.900000
290.944000 19108.000000
291.031900 31398.200000
291.952300 33722.100000
292.039700 58021.900000
294.999600 6094.300000
296.033800 7341.300000
296.997000 9193.700000
299.013800 415798.100000
305.047400 7100.700000
306.986800 18590.400000
307.064200 6258.700000
310.050400 9107.400000
311.014100 11272.500000
313.029400 412726.100000
315.952500 7580.600000
321.002300 17986.400000
322.010000 18851.300000
323.016000 16660.200000
325.913400 1051166.900000
327.009700 5395.600000
329.952300 19460.100000
330.976700 5212.500000
341.024400 12162.200000
342.963300 132911.100000
355.971200 5327.300000
356.979100 70831.600000
366.962900 8200.400000
376.924500 25825.600000
377.933700 3362.600000
390.940500 8578.800000

>ms2
51.023000 4805.700000
52.030700 8749.100000
53.002200 13815.200000
53.038600 28025.200000
54.033900 10823.400000
55.017900 20636.600000
55.054300 166511.500000
56.049500 164348.200000
57.044800 10790.000000
57.069900 3276.000000
62.963200 13605.100000
65.038500 27657.700000
66.033800 4682.900000
66.046400 10695.300000
67.041600 5383.100000
67.054200 14285.300000
68.049400 7491.100000
69.057200 3571.600000
70.065100 11174.400000
74.015100 130218.700000
75.022900 149844.000000
76.030700 179428.800000
78.046400 17098.200000
79.017800 13275.900000
80.025700 12052.900000
81.033500 29768.100000
82.065100 34946.000000
84.080800 407727.200000
84.984000 109191.800000
86.963200 349940.100000
89.038600 32567.500000
90.033800 8519.600000
90.046400 34426.100000
91.054300 11978.300000
94.041300 125656.400000
95.049100 35914.800000
98.036300 12682.400000
98.999600 64416.600000
99.091700 42844.600000
100.099500 3943.500000
102.046400 54607.400000
103.054200 58320.400000
104.049500 10462.600000
104.062100 40959.800000
108.056700 4154.500000
108.984000 906051.400000
112.979000 18360.000000
114.046300 6672.100000
115.054200 620934.400000
116.062100 316071.900000
117.057200 34921.200000
117.070000 6920.100000
118.065300 15448.400000
120.960600 47408.800000
122.999600 17270.000000
123.994900 28305.300000
125.002600 25657.700000
126.010400 23125.900000
126.046400 101336.900000
126.994500 70741.700000
127.041700 75403.700000
127.054200 57769.100000
128.002300 108697.000000
128.049500 26211.400000
128.062000 90913.800000
129.010200 16748.400000
129.057200 8668.000000
129.069800 4718.100000
130.065200 17568.300000
130.949100 45555.000000
132.056900 12734.300000
132.960700 370459.900000
135.031600 9632.900000
136.007300 4133.400000
138.010400 4075.000000
139.005800 30876.300000
139.054100 10822.000000
140.049500 178001.200000
141.057300 54177.700000
141.069800 38832.100000
142.005500 5749.600000
142.065200 106597.600000
143.073000 182716.900000
144.056800 4835.200000
144.960600 278683.000000
145.005100 27334.200000
145.064800 107962.200000
145.968300 14609.700000
146.060200 14586.800000
149.015300 93297.700000
150.010500 10689.700000
151.018500 28501.700000
152.013700 9281.900000
152.026100 19621.400000
152.049400 6130.200000
153.057300 244907.500000
154.065100 132385.000000
154.949100 93659.100000
155.000700 9059.700000
155.060400 157566.800000
157.052200 9196.200000
158.943600 4275.300000
158.976300 16795.100000
159.020800 7660.600000
159.971500 176122.000000
160.979300 81033.500000
161.963200 11678.800000
162.010400 13151.700000
162.971200 161267.100000
164.000800 22563.800000
164.026200 8063.500000
166.052700 21282.900000
167.060300 17138.000000
168.056600 10120.600000
168.068300 48242.900000
168.964800 40096.000000
169.064700 4057.700000
169.076100 22194.000000
170.060000 18200.200000
171.055500 6212.600000
171.971500 71893.500000
172.959700 203236.500000
172.966800 890720.400000
173.964200 4242.200000
174.010500 58621.400000
175.018400 15457.400000
176.026100 6265.000000
177.033900 35433.500000
177.057300 89122.700000
177.982300 4670.500000
180.964600 8981.300000
181.959900 75408.400000
182.955300 535141.800000
183.952700 5609.700000
183.971700 5275.400000
184.966700 7156.200000
184.979300 19862.800000
185.047200 3488.400000
185.070800 13912.100000
186.982700 6041.700000
189.021500 4901.900000
189.070000 49979.400000
190.065700 14609.600000
190.077600 16034.400000
191.072900 18389.700000
192.965100 7760.500000
193.959900 22980.100000
195.971600 31382.800000
197.987300 13801.900000
199.031000 30188.700000
201.057300 26915.900000
202.029300 23174.100000
203.037100 9916.800000
203.072900 25877.900000
204.020800 6600.100000
204.080800 18544.800000
205.960600 4406.800000
207.976100 6564.300000
211.018600 29212.500000
212.026200 29047.600000
214.065100 37966.700000
215.073000 38560.400000
216.068500 56251.900000
216.080500 297349.800000
217.088600 607525.100000
219.032300 6055.800000
224.026100 56047.100000
225.034100 7581.400000
225.046400 38681.100000
226.029900 4918.600000
226.041700 8779.100000
227.060400 21792.300000
227.073000 49191.300000
228.068300 126789.700000
228.080300 7741.100000
229.076000 585641.100000
230.036400 20161.300000
231.975000 5843.500000
232.970600 4042.600000
236.998000 6995.900000
237.033800 73294.900000
238.041800 43272.300000
239.037700 4244.600000
241.075900 49717.600000
242.083800 347515.300000
243.091700 310358.200000
244.099400 76280.800000
246.995100 43066.500000
248.003000 31970.200000
250.028800 8196.400000
250.041600 70202.100000
251.036900 19473.400000
251.049700 188228.000000
252.057600 49229.400000
261.033700 19504.400000
262.043100 19586.100000
263.037000 338978.500000
264.044700 216186.800000
264.056800 12576.200000
272.002800 44169.400000
276.044900 47387.900000
277.052700 351903.800000
278.060500 219567.400000
278.984900 63558.800000
279.068300 27655.400000
285.010700 21182.900000
286.019600 18148.600000
289.052700 13213.300000
290.944100 9395.800000
291.031700 44306.200000
291.952600 11091.000000
292.039100 16068.500000
294.999200 8908.300000
296.034400 7593.200000
296.997200 14830.700000
299.013800 88053.700000
306.986100 10305.700000
312.021500 15946.500000
313.029400 70625.100000
315.952200 3621.500000
321.002400 15060.400000
323.015300 6022.200000
325.913300 224115.200000
329.955300 6409.700000
342.963900 17322.200000
356.979300 9085.900000

