>compound LU98293464
>parentmass 406.07200000000006
>ionization [M+H]+
>formula C19H17Cl2N3O3
>rt 1139.580000
>profile orbitrap
#smiles_iso CC1COC(O1)(CN2C=NC=N2)C3=C(C=C(C=C3)OC4=CC=C(C=C4)Cl)Cl
#smiles_can CC1COC(O1)(CN2C=NC=N2)C3=C(C=C(C=C3)OC4=CC=C(C=C4)Cl)Cl
#inchikey BQYJATMQXGBDHF-UHFFFAOYSA-N
#pubchem_id 86173
#mb_accession LU058501,LU058502,LU058503,LU058504,LU058505,LU058506

>ms2peaks
251.002300 483177.900000
291.033800 31926.800000
323.023700 11516.300000
337.039300 956155.100000
406.072000 7424761.000000

>ms2peaks
70.039900 42347.100000
72.080600 11005.000000
111.000200 32211.400000
126.994300 16719.300000
139.030700 32086.700000
163.030800 22974.500000
164.038600 91998.900000
210.044000 13716.700000
251.002300 8220723.000000
256.064600 13257.200000
261.994400 12039.300000
263.002600 24473.300000
264.981600 45075.500000
279.033300 16030.400000
291.033700 393258.400000
323.023500 160729.100000
337.039200 829797.400000
406.071900 415949.600000

>ms2peaks
53.002200 9375.900000
70.039900 35173.500000
72.080700 9692.600000
111.000300 27424.500000
126.994500 19496.600000
129.069800 78931.700000
139.005700 9481.000000
139.030800 13117.700000
141.010100 21521.700000
152.062000 84909.500000
153.069800 35642.100000
163.030900 17995.600000
164.038600 130829.300000
181.064700 43183.800000
187.030800 168502.300000
188.038700 373370.800000
215.026000 41070.700000
216.033300 34788.200000
223.007500 275606.100000
251.002300 8417114.000000
256.065000 16757.400000
261.994500 34815.800000
263.002900 23188.100000
264.981600 391463.200000
273.032100 17386.100000
291.033800 105495.900000
323.023600 63361.100000

>ms2peaks
51.023000 5597.500000
53.002200 13261.400000
70.039900 42424.300000
72.080800 8095.500000
75.022900 31447.900000
77.038600 4755.800000
79.017900 9028.000000
84.055600 6026.400000
86.999600 56515.200000
88.978800 9791.600000
93.033500 8614.300000
98.999600 19733.500000
103.054100 9362.700000
105.033400 6648.900000
110.999200 32079.800000
111.044000 19991.800000
115.054300 11215.000000
116.062100 7085.300000
117.069900 11509.800000
125.015400 10898.000000
126.994700 20618.300000
128.061800 13378.000000
129.010200 172041.100000
129.069900 173547.100000
139.005800 313259.000000
140.002700 4770.200000
141.010200 359670.300000
149.015400 14192.200000
151.031300 5441.000000
152.062100 747761.200000
153.069900 445782.500000
163.030900 10534.100000
164.038600 34992.700000
169.064900 29308.900000
173.015400 7411.100000
179.025600 4623.700000
179.060700 21996.000000
180.056800 10754.200000
181.064800 422779.700000
182.976500 25836.900000
187.031000 564471.300000
188.038800 2055563.100000
202.018200 49573.600000
208.992100 27702.800000
215.026000 233011.000000
215.036800 17848.000000
216.033700 146524.200000
221.095700 4760.100000
223.007700 987991.900000
228.033600 9632.300000
232.992100 7379.500000
236.986800 7743.200000
251.002500 4409936.500000
261.995400 21683.000000
263.002600 12126.200000
264.981800 593131.200000
273.032000 13975.700000
291.034300 10839.900000

>ms2peaks
50.015200 6346.700000
51.023000 9522.800000
53.002200 34889.700000
53.038600 3325.400000
55.017900 11282.700000
60.983900 4172.100000
65.038500 12166.700000
70.039900 32396.600000
72.080800 2649.100000
72.983800 3934.200000
74.015000 20935.900000
75.022900 262941.800000
77.038500 14696.800000
79.017800 26153.400000
80.025800 4193.200000
84.055500 7561.000000
84.983900 9604.100000
86.999600 171718.800000
88.978900 16238.000000
89.038500 13640.500000
93.033400 21052.200000
94.041300 18353.400000
95.049200 15410.400000
98.036200 5375.400000
98.999600 35130.200000
103.054300 9091.100000
105.033500 8032.600000
105.044700 5135.300000
110.999600 133975.700000
111.044100 66479.800000
113.015400 3065.700000
114.994500 19420.700000
115.054200 20849.300000
116.062000 10305.000000
117.069900 12476.500000
121.039400 10851.000000
124.007300 5390.500000
125.015200 10282.100000
126.994700 10571.500000
128.002500 16801.500000
128.062000 35510.900000
129.010100 606611.900000
129.069800 130712.500000
134.957500 4343.100000
139.005800 989197.200000
141.010200 846290.800000
145.064800 4907.400000
149.015400 35800.900000
151.054100 13221.500000
152.062100 1130232.000000
153.069800 962006.400000
154.989600 16812.700000
155.997400 4527.700000
158.976800 3213.300000
162.023200 20967.100000
163.031100 7589.400000
164.039400 3517.200000
165.069800 3458.100000
168.056400 4289.500000
169.064900 60069.000000
169.976300 5360.300000
173.015100 38211.300000
174.023400 18078.400000
175.030600 3690.200000
179.060400 36638.300000
181.064800 573173.800000
182.976500 52378.800000
186.023300 6163.100000
187.031000 291744.300000
188.038700 2011684.600000
199.030600 4163.000000
202.018100 193489.100000
208.991900 86367.600000
215.025800 257459.800000
216.033700 88868.800000
223.007600 499440.200000
227.025900 5727.100000
228.033600 12808.800000
232.991500 4879.900000
236.986900 14963.300000
251.002500 694059.100000
261.994400 13475.300000
263.003200 4738.000000
264.981700 277776.500000
273.032100 5387.800000

>ms2peaks
50.015200 9472.200000
51.023000 9703.600000
53.002200 86932.200000
53.038700 13761.800000
55.017800 15843.500000
60.983900 5004.100000
65.038600 27485.300000
70.040000 33526.000000
72.080700 4935.400000
72.983900 10232.000000
74.015100 88587.800000
75.022900 968036.900000
77.038600 23483.300000
79.017800 28821.900000
80.025600 6268.400000
84.055700 4622.600000
84.983900 47051.000000
86.999700 236343.100000
88.978800 21192.100000
89.038600 38152.600000
93.033500 32112.900000
94.041400 20773.900000
95.049200 47434.700000
98.036400 4798.400000
98.999700 34667.700000
103.054100 6452.100000
105.033600 7226.400000
105.044700 18235.800000
110.999600 286226.600000
111.044100 73484.000000
113.015100 12788.800000
114.994500 20508.100000
115.054300 25110.500000
116.062200 9945.400000
117.069900 10774.800000
121.039500 15057.100000
124.007500 8108.700000
125.015200 10714.900000
126.046400 5870.700000
126.994700 2835.600000
128.002400 23029.300000
128.062100 63515.100000
129.010200 758024.100000
129.069800 75900.000000
134.957700 3498.500000
139.005800 1221798.100000
140.002700 7368.800000
141.010200 916477.300000
145.064700 8769.000000
149.015400 65945.300000
151.053900 14758.300000
152.062100 1267583.200000
153.069900 1163250.100000
154.989500 25778.300000
155.060300 8820.600000
155.997400 5545.600000
158.976700 4411.700000
162.023100 52464.900000
165.070100 5385.000000
168.056900 4931.300000
169.064800 83265.700000
169.976600 10223.800000
173.015300 96067.300000
174.023200 29659.200000
175.030900 3549.000000
179.060400 33077.600000
180.056800 10266.200000
181.064800 416303.200000
182.976400 56927.100000
186.023200 14743.100000
187.030900 94404.700000
188.038800 1009231.700000
191.085300 4301.400000
199.030900 4042.500000
202.018100 216803.900000
208.992000 73553.400000
215.025800 160135.900000
223.007600 104415.800000
227.025900 8340.700000
236.986500 9030.300000
251.002600 58216.800000
261.994900 3577.700000
264.981700 46297.900000

