>compound LU98662400
>parentmass 288.1495
>ionization [M+H]+
>formula C19H17N3
>rt 783.180000
>profile orbitrap
#smiles_iso C1=CC(=N)C=CC1=C(C2=CC=C(C=C2)N)C3=CC=C(C=C3)N
#smiles_can C1=CC(=N)C=CC1=C(C2=CC=C(C=C2)N)C3=CC=C(C=C3)N
#inchikey AFAIELJLZYUNPW-UHFFFAOYSA-N
#pubchem_id 11293
#mb_accession LU022901,LU022902,LU022903,LU022904,LU022905,LU022906

>ms2peaks
272.129400 47965.400000
287.142500 64932.700000
288.149300 40745580.000000

>ms2peaks
195.091600 107562.400000
272.129500 19460.000000
287.142900 20561.400000
288.149300 18105422.000000

>ms2peaks
168.080700 330919.900000
178.064900 41084.100000
195.091600 6983059.000000
221.107400 32117.600000
230.096200 36122.700000
244.111900 31357.800000
245.107200 56937.300000
246.115200 33673.200000
254.096700 59881.600000
255.103600 52614.000000
259.123000 37117.300000
270.115000 31956.700000
271.122700 407273.200000
272.130900 100889.200000
273.125900 483234.400000
286.133800 47979.800000
287.141800 87312.100000
288.149300 27664590.000000

>ms2peaks
80.049500 25462.500000
94.065000 15090.200000
106.065200 89136.100000
118.065000 24029.900000
119.060300 16180.300000
130.065100 63410.100000
141.069700 41286.900000
143.073000 43525.400000
144.080800 28898.400000
145.075900 19801.800000
153.069700 16249.000000
154.065100 58769.000000
155.060400 16324.300000
167.072900 84617.000000
168.080700 1128562.100000
169.064800 75794.200000
169.075900 43136.700000
171.091600 70406.400000
178.065200 359950.400000
179.060500 34207.000000
179.072300 30937.000000
180.080600 59095.300000
193.076600 16464.000000
194.084000 97254.900000
195.091600 14935139.000000
196.099200 61923.900000
217.088800 26880.500000
218.096400 64170.600000
221.107400 81878.500000
226.077500 15654.000000
227.085500 25112.000000
230.096400 124567.500000
231.104000 43464.700000
232.099500 26523.200000
234.115000 15220.100000
241.088500 22259.100000
242.096400 50894.300000
243.104000 50759.400000
244.111900 67325.600000
245.107300 254909.800000
246.115000 83670.700000
247.123000 51890.300000
254.096300 267826.200000
255.091400 15490.400000
255.104400 100726.400000
256.098900 81615.100000
256.112100 61944.600000
257.107100 39266.600000
258.115400 29365.100000
259.123000 52107.600000
269.107200 117295.900000
270.114800 116728.900000
271.122900 933676.800000
272.117500 143216.200000
272.130800 157064.400000
273.125900 921659.300000
286.133800 178451.400000
287.141800 69325.700000
288.149400 5328698.000000

>ms2peaks
54.033900 16843.100000
80.049600 28714.900000
91.054400 22931.300000
93.057400 10488.700000
94.065100 11701.600000
103.054300 8019.900000
106.065200 70665.300000
115.054300 54756.800000
118.065100 37232.400000
119.060600 12589.500000
127.054300 9306.200000
128.049400 7540.600000
128.062200 13454.100000
130.065200 55977.400000
131.072800 7589.900000
140.049800 13491.200000
141.070000 157432.300000
142.065400 18613.600000
143.060400 9468.300000
143.073100 111014.500000
144.080700 24317.100000
145.065000 16727.200000
145.076400 9259.100000
151.054400 36396.300000
152.062200 43304.700000
153.057300 27539.100000
153.069600 17221.600000
154.065200 127467.500000
155.049000 12294.100000
155.060500 37753.000000
155.072900 32581.200000
166.065400 22566.700000
167.073100 366496.800000
168.080900 1338963.000000
169.064900 368884.900000
169.075700 34631.000000
171.091700 33206.600000
177.057200 50555.100000
178.065300 795886.300000
179.060500 147348.900000
179.073100 54034.400000
180.068400 18843.700000
180.080800 85348.200000
181.076000 32180.200000
182.084100 15095.300000
193.076400 53546.700000
193.087700 7144.300000
194.084200 218250.900000
195.091800 7129103.500000
196.099800 25969.400000
202.078000 30460.100000
203.086000 12388.700000
204.081000 27420.400000
206.071300 7219.900000
208.099800 9114.200000
215.085700 21470.800000
217.089000 59247.900000
218.096600 36367.900000
219.081300 7717.600000
219.091800 13631.100000
219.104400 10264.200000
221.107500 83903.100000
226.077600 43281.800000
227.085600 25208.100000
228.081100 27938.300000
228.093200 10258.600000
229.089100 12897.000000
230.096600 144904.300000
231.104400 24793.600000
232.099600 37153.900000
233.107700 13468.100000
234.115400 10567.600000
239.085900 17323.700000
240.081300 7546.400000
241.089000 37916.700000
242.096600 38784.700000
243.092000 7192.000000
243.104500 57148.700000
244.099300 8406.300000
244.112400 30105.500000
245.107500 211080.800000
246.115100 50698.600000
247.123000 20005.800000
252.081300 12108.100000
253.088900 27195.100000
254.096500 337106.900000
255.091600 60514.900000
255.104900 47767.000000
256.099500 85007.400000
256.112600 69693.600000
257.107600 65469.500000
258.115600 25054.600000
259.123300 19478.800000
260.118200 8190.900000
269.107400 176399.000000
270.115400 61051.900000
271.123200 588035.600000
272.117900 253400.200000
272.130300 24534.700000
273.126100 269549.600000
286.134000 175888.200000
287.142200 12775.400000
288.149800 245820.200000

>ms2peaks
54.033800 48053.300000
65.038500 44476.600000
79.054200 34561.800000
80.049500 81790.400000
91.054300 66479.600000
92.049400 27279.100000
93.057300 49565.300000
94.065100 18241.400000
95.049100 20982.400000
103.054200 63246.100000
106.065200 148749.800000
115.054200 270702.100000
117.057400 34104.400000
117.069900 17424.200000
118.065100 58155.100000
119.060500 14136.900000
120.081000 10508.200000
127.053900 57501.400000
128.049500 33755.100000
128.062000 78418.000000
130.065100 148427.700000
131.073200 14695.500000
139.054200 26423.000000
140.049500 70821.700000
141.069800 728450.900000
142.065100 62105.100000
143.060400 24616.000000
143.072900 478164.200000
144.080700 42129.600000
145.064800 89666.000000
145.076200 9293.800000
151.054100 256765.700000
152.062000 244830.500000
153.057300 167224.100000
153.069700 54291.500000
154.065100 409946.600000
155.049400 52174.000000
155.060500 185450.400000
155.072500 60625.100000
156.080900 11582.000000
165.069600 12177.200000
166.065300 111837.100000
167.073000 2090862.000000
168.080700 2539136.800000
169.064800 1778250.200000
171.091600 25909.700000
177.057300 397733.500000
178.065100 2347667.200000
179.060400 618532.400000
179.072800 123709.200000
180.056100 24048.400000
180.068300 53072.300000
180.080700 259845.400000
181.076000 72620.000000
182.083900 18188.700000
183.080200 27890.900000
191.085900 12055.900000
192.068300 25936.500000
193.076200 337704.300000
193.088300 48113.300000
194.084000 773823.900000
195.091700 6387037.000000
196.099400 22262.400000
202.077600 130098.000000
203.073100 19352.300000
203.085600 29001.300000
204.080800 140340.400000
205.088600 18569.100000
206.071800 16501.100000
206.096600 17951.900000
208.099600 19765.900000
215.085300 81275.000000
216.081300 37325.600000
216.091400 9858.800000
217.088600 182332.400000
218.096300 84996.900000
219.080700 16498.100000
219.091600 62799.300000
219.104400 20952.200000
221.107500 104478.000000
226.077700 209123.400000
227.072900 32074.900000
227.085600 66086.500000
228.080800 146534.500000
228.093600 39571.900000
229.076100 23771.500000
229.088500 33215.900000
230.096300 382230.100000
231.091700 29731.100000
231.104300 27670.200000
232.099600 75664.900000
233.107400 28887.600000
234.115000 24354.600000
237.069600 44143.500000
239.085600 71261.400000
240.081000 43241.600000
241.088600 132954.300000
242.083900 21324.100000
242.096500 115994.800000
243.091400 18786.600000
243.104100 132137.300000
244.099500 17457.100000
244.112100 50766.000000
245.107300 483763.700000
246.114900 32760.400000
247.123600 16251.200000
252.080400 70342.000000
253.088500 104403.200000
254.096400 767418.900000
255.091500 196571.500000
255.104700 59510.900000
256.099200 207602.200000
256.112300 128156.300000
257.107400 94508.100000
258.102100 9787.700000
258.115400 53705.500000
259.123100 24169.400000
260.118100 10349.000000
269.107300 504439.300000
270.101700 22409.500000
270.115300 80525.400000
271.123200 727815.200000
272.118100 510051.700000
273.125900 91958.300000
286.133900 290321.200000

