>compound LU98719723
>parentmass 180.1019
>ionization [M+H]+
>formula C10H13NO2
>rt 852.960000
>profile orbitrap
#smiles_iso CCOC1=CC=C(C=C1)NC(=O)C
#smiles_can CCOC1=CC=C(C=C1)NC(=O)C
#inchikey CPJSUEIXXCENMM-UHFFFAOYSA-N
#pubchem_id 4754
#mb_accession LU080001,LU080002,LU080003,LU080004,LU080005,LU080006

>ms2
93.057500 12490.400000
109.052200 23629.800000
110.060000 661839.900000
111.044100 32994.900000
137.083600 14761.500000
138.091300 2181460.200000
139.075500 32003.300000
152.070600 331158.600000
162.091400 108340.900000
180.101800 11429531.000000

>ms2
93.057300 13493.200000
109.052200 31375.600000
110.060000 913997.200000
111.044000 35931.800000
134.060000 12825.100000
135.080300 9810.000000
137.083500 13954.700000
138.091300 2629332.200000
139.075500 31128.000000
152.070600 415977.200000
162.091400 124498.200000
180.101800 9745648.000000

>ms2
65.038500 44391.400000
67.054200 7774.900000
82.065100 35826.000000
92.049500 94826.400000
93.033500 52745.900000
93.057300 103264.100000
94.065200 43650.100000
108.044400 11334.900000
109.052300 115447.700000
110.060100 5450410.500000
111.044000 209027.900000
125.059900 8721.400000
134.060100 87734.000000
135.068400 8352.300000
135.080400 12559.000000
137.083600 27621.500000
138.091400 4852065.000000
139.075300 41764.600000
152.070600 722992.500000
162.091400 260597.900000
180.101900 3541241.800000

>ms2
65.038600 277321.300000
67.054200 30737.200000
80.049500 10874.000000
82.065100 186165.200000
91.054300 10479.500000
92.049500 463703.600000
93.033600 306969.500000
93.057300 273504.100000
94.065200 69618.000000
95.049000 12064.200000
108.044500 19665.800000
109.052400 195842.400000
110.060100 8470938.000000
111.044000 664012.900000
125.059700 45501.600000
134.060100 132201.500000
137.083500 20888.100000
138.091400 2171311.800000
139.075300 16123.600000
152.070600 291711.800000
162.091300 111966.700000
180.101900 480063.100000

>ms2
53.038700 8429.600000
55.017900 10497.600000
55.054300 9953.300000
65.038600 1247942.000000
67.041600 25764.600000
67.054200 69073.100000
68.049500 10559.300000
69.033500 9635.800000
80.049400 45672.700000
81.057300 33790.100000
82.065100 425314.000000
83.049200 11914.900000
91.054300 17915.200000
92.049500 947621.700000
93.033600 740043.500000
93.057300 433120.200000
94.065100 63152.700000
95.049000 18239.100000
107.049200 13692.300000
108.044500 27015.100000
109.052400 261321.500000
110.060100 7003801.500000
111.044000 1407441.900000
124.075800 16400.400000
125.059700 103950.200000
134.060100 102118.400000
137.083700 15202.200000
138.091400 544370.300000
152.070500 62053.300000
162.091300 35235.100000
180.101700 44441.100000

>ms2
53.002200 14767.000000
53.038700 12367.000000
55.017800 12508.300000
55.054200 28222.500000
65.038500 2694284.800000
67.041600 93416.400000
67.054200 71834.300000
68.049400 11069.500000
69.033400 6501.900000
70.028700 5196.000000
80.049400 87047.000000
81.057300 53688.600000
82.065100 461730.500000
83.049100 21528.700000
91.054300 22082.400000
92.049400 1026361.800000
93.033500 725781.000000
93.057300 501793.400000
94.041400 10127.700000
94.065100 40208.600000
95.049100 26121.000000
107.049200 4778.900000
108.044400 31532.600000
109.052300 336088.000000
110.060000 3449082.000000
111.044000 1465420.900000
124.075600 16107.700000
125.059600 101953.200000
134.060100 44145.700000
135.068200 3780.000000
138.091300 82035.500000
152.070700 6452.600000
162.090900 3655.300000

