>compound LU99444832
>parentmass 260.1644999999999
>ionization [M+H]+
>formula C16H21NO2
>rt 857.580000
>profile orbitrap
#smiles_iso CC(C)NCC(COC1=CC=CC2=CC=CC=C21)O
#smiles_can CC(C)NCC(COC1=CC=CC2=CC=CC=C21)O
#inchikey AQHHHDLHHXJYJD-UHFFFAOYSA-N
#pubchem_id 4946
#mb_accession LU124801,LU124802,LU124803,LU124804,LU124805,LU124806

>ms2peaks
56.049500 29377.000000
58.065100 81132.400000
72.080700 160192.300000
74.060000 101415.200000
86.096400 121347.700000
98.096500 246664.800000
116.107000 675779.400000
132.101900 47038.700000
141.070100 26438.000000
157.064800 130435.800000
183.080500 391224.100000
218.117400 123041.700000
242.153900 39606.400000
260.164500 15734120.000000

>ms2peaks
56.049500 451688.300000
58.065100 821432.600000
60.080800 93965.900000
72.080700 1138054.800000
74.060000 1040002.400000
84.080700 13756.400000
86.096400 491553.900000
90.054900 37297.300000
98.096400 1277401.400000
100.112000 42565.200000
102.091300 9990.500000
116.107000 3002550.200000
129.069800 68811.100000
132.101900 90095.000000
141.069800 118827.300000
143.048900 18605.600000
145.064700 57595.100000
153.069700 16883.600000
155.085500 194764.600000
157.064800 775880.800000
165.069900 65506.800000
168.056900 18094.900000
171.080600 24986.700000
183.080400 2015775.800000
185.095900 7997.100000
199.111600 7612.300000
200.106700 20256.900000
201.091000 11771.400000
218.117500 422765.600000
242.153800 62029.100000
260.164400 7471137.000000

>ms2peaks
53.002200 9555.500000
55.017800 19029.800000
56.049400 1600224.600000
57.033400 6564.700000
57.057300 6819.400000
58.065100 1516030.400000
60.044300 10415.100000
60.080700 88808.000000
70.065100 6434.200000
71.072800 8991.900000
72.080700 1924431.400000
74.059900 2119526.000000
81.069800 8029.700000
84.080800 58052.600000
86.096400 194892.800000
90.054800 20527.100000
91.054100 8141.000000
98.096400 1194916.100000
100.112000 216985.300000
102.091200 12682.600000
115.054000 23798.100000
116.106900 2463360.800000
117.069900 6891.100000
127.054100 5772.700000
128.061800 8619.200000
129.069700 201831.400000
132.101900 19782.500000
141.069700 185101.000000
143.049100 60905.900000
143.085200 7271.500000
144.056800 8320.000000
145.064700 170860.900000
153.069800 124522.200000
154.077500 9245.100000
155.085400 996093.300000
157.064700 1066076.900000
165.069800 322737.900000
168.056800 70044.200000
169.064700 9553.200000
171.080400 49593.900000
181.064500 16058.900000
182.072800 10846.700000
183.080400 1585900.200000
185.095500 4701.000000
199.110600 5288.500000
218.117300 96148.500000
242.153900 4996.900000
260.164300 458589.800000

>ms2peaks
53.002100 24837.700000
55.017800 38164.600000
56.049500 2391800.200000
57.033500 10505.000000
57.057200 6730.900000
58.065100 1467007.000000
60.044400 9775.100000
60.080800 40226.600000
70.065100 9563.500000
71.072800 11543.200000
72.080700 1401534.800000
74.060000 1800651.400000
81.069800 6082.400000
84.080700 109141.500000
86.096300 26979.600000
90.055000 5053.000000
91.054200 17749.300000
95.049100 6091.400000
98.096400 467119.000000
100.112000 353092.500000
102.091300 10051.600000
103.054500 7344.300000
115.054200 122869.000000
116.107000 842414.200000
117.069700 42403.000000
127.054300 8581.700000
128.062000 66434.900000
129.069800 631472.900000
141.069800 192166.800000
143.049200 61696.000000
143.085700 8176.100000
144.056900 15372.800000
145.064800 236956.500000
152.062100 7212.200000
153.069900 325766.600000
154.077700 82379.600000
155.085500 1364183.400000
157.064800 738487.300000
165.069900 436953.800000
168.056900 106592.900000
171.080500 31314.700000
181.064700 22622.600000
182.072300 19277.400000
183.080400 389852.800000
218.117300 5687.000000
260.165000 5421.500000

>ms2peaks
53.002200 42518.800000
53.038600 9940.700000
53.997400 7660.400000
55.017900 31448.600000
56.049500 2274648.200000
57.033500 16904.000000
57.057300 6741.700000
57.070000 4292.300000
58.065100 1307664.000000
60.044500 5287.700000
60.080800 28495.100000
70.065100 10140.900000
71.072800 4984.200000
72.080800 786671.700000
74.060000 1108667.200000
77.038400 5024.300000
84.080800 102003.500000
91.054300 27296.500000
95.049200 29806.600000
98.096500 133055.800000
100.112100 265638.500000
103.054300 41026.900000
115.054300 298382.800000
116.107000 233284.400000
117.069900 91687.000000
127.054200 38996.800000
128.062100 332861.300000
129.069900 906109.800000
141.069900 141545.400000
143.049200 23671.500000
143.085400 13272.700000
144.057200 31568.300000
145.064800 332639.400000
152.062100 29247.900000
153.069900 497024.100000
154.077800 174666.100000
155.085500 791291.100000
156.057100 3521.000000
157.064900 307839.800000
165.070000 396421.600000
168.057000 120645.500000
169.064700 5911.700000
171.080200 13993.800000
181.064800 21372.300000
182.072500 20039.500000
183.080600 52101.400000

>ms2peaks
53.002200 69192.400000
53.038700 19609.100000
53.997400 6246.100000
55.017800 18968.300000
56.049500 1859434.100000
57.033500 17715.800000
57.057300 7455.600000
57.070000 4166.900000
58.065100 1146709.800000
60.044300 4330.900000
60.080800 11250.700000
70.065100 9478.300000
71.072800 5773.700000
72.080700 350391.600000
74.060000 565750.600000
77.038500 9714.700000
84.080800 81193.100000
91.054200 42009.500000
95.049100 48582.800000
98.096500 32612.500000
100.112100 138492.900000
103.054200 72912.400000
115.054300 491487.600000
116.107100 39888.300000
117.069900 109915.000000
127.054300 130349.800000
128.062100 665976.700000
129.069800 698898.400000
141.069800 99514.600000
143.049200 7872.000000
143.085600 4934.600000
144.057000 29786.400000
145.064800 405114.400000
152.062100 90687.900000
153.069900 463153.700000
154.077700 195045.700000
155.085500 286455.400000
156.057100 10333.000000
157.064800 74779.100000
165.069900 327073.300000
168.057000 103970.700000
169.064800 7322.900000
171.079900 3158.600000
181.064600 19750.100000
182.072500 12702.400000
183.080200 5008.300000

