>compound LU99653519
>parentmass 395.1965
>ionization [M+H]+
>formula C23H26N2O4
>rt 670.620000
>profile orbitrap
#smiles_iso COC1=C(C=C2C(=C1)[C@]34CCN5[C@H]3C[C@@H]6[C@@H]7[C@@H]4N2C(=O)C[C@@H]7OCC=C6C5)OC
#smiles_can COC1=C(C=C2C(=C1)C34CCN5C3CC6C7C4N2C(=O)CC7OCC=C6C5)OC
#inchikey RRKTZKIUPZVBMF-IBTVXLQLSA-N
#pubchem_id 442021
#mb_accession LU097101,LU097102,LU097103,LU097104,LU097105,LU097106

>ms2peaks
380.172200 17316.600000
395.196600 9397711.000000

>ms2peaks
244.096800 31035.000000
282.112200 60757.100000
322.144900 11951.300000
324.122900 201102.100000
332.128500 11331.500000
350.138500 61557.500000
367.165300 223855.700000
380.171600 36115.900000
395.196400 8933580.000000

>ms2peaks
55.054300 3478.400000
56.049500 26396.800000
67.054400 5168.300000
68.049500 12317.100000
69.033300 9892.800000
70.065100 27897.900000
79.054200 8966.500000
80.049400 10584.400000
81.070000 11805.900000
82.065000 4338.800000
84.044300 4314.300000
86.060000 5729.600000
91.054300 6724.200000
93.057300 6677.900000
93.069800 16660.900000
94.065300 12424.200000
95.049200 22138.200000
95.085400 3327.700000
96.080800 15360.200000
98.060000 7971.500000
105.069900 5106.300000
106.065200 30030.400000
107.072800 6163.800000
108.080800 73389.700000
109.065000 5753.400000
110.060000 3590.800000
120.080600 6505.800000
121.064600 4026.500000
122.060100 47708.600000
122.096400 6022.300000
124.075700 54911.100000
136.075700 5645.400000
138.091500 5514.200000
144.080800 7696.000000
148.075900 14365.700000
162.091400 3373.700000
176.070300 3991.700000
177.078300 4353.400000
178.086300 30532.500000
184.075700 3506.200000
185.083800 3686.000000
190.086200 26314.100000
192.065200 12142.000000
192.101700 5177.000000
197.083900 5986.400000
204.066000 3608.900000
204.102000 18455.200000
211.098100 3885.800000
212.071200 4525.600000
213.078300 69828.000000
216.101900 30891.600000
218.081200 3485.900000
220.096700 6632.600000
226.085600 3397.100000
227.094300 26347.300000
228.101300 14581.900000
229.073500 111531.300000
230.081300 8901.400000
230.117800 6908.800000
231.113300 4871.600000
240.101700 7862.300000
242.081000 9222.800000
243.089200 17388.500000
244.096900 782237.500000
245.104800 7636.000000
246.112800 18178.600000
249.115500 4965.600000
251.094200 59185.800000
252.066400 3892.900000
252.102200 4194.900000
254.081000 5101.900000
254.117800 47809.500000
256.096800 65499.500000
257.105300 7471.300000
258.112600 41200.300000
260.092300 12456.600000
262.086300 15965.700000
263.094200 107566.100000
264.102000 9670.000000
265.073700 8982.200000
265.109000 5638.800000
266.118100 7882.400000
267.089000 143786.200000
268.096500 6026.500000
270.111900 11861.700000
272.091500 21122.600000
274.107500 4911.400000
277.110500 3320.800000
278.117600 10355.700000
279.089200 11771.800000
279.125400 3411.100000
280.097000 101573.100000
280.133000 13315.700000
281.104600 24518.000000
282.112600 425135.900000
283.083300 3375.900000
283.120400 5586.800000
284.091800 11039.200000
284.128700 6952.500000
286.107600 8863.900000
289.109900 9271.800000
290.117700 5011.000000
291.125900 26257.600000
292.096900 4558.100000
293.104100 7084.100000
294.112500 87516.100000
294.149400 5724.500000
295.120800 5736.600000
296.091700 7879.100000
296.127300 11794.200000
296.163600 3599.000000
297.099900 11808.500000
298.107400 28203.200000
301.109800 40916.800000
303.125400 10348.100000
304.097400 3614.200000
304.133700 5334.600000
305.103900 5281.400000
306.112400 35561.100000
307.120800 26103.700000
307.142300 3743.100000
308.128900 26189.200000
310.107300 7021.300000
310.143800 4725.000000
312.122600 11020.600000
316.098000 4831.500000
317.104900 23844.300000
318.136500 14662.100000
319.120700 32332.400000
319.142200 4544.300000
320.129200 18505.900000
321.136500 58055.400000
322.144100 162351.200000
323.138500 22047.300000
324.123200 1322762.900000
326.141100 20050.900000
331.121100 3375.600000
332.128100 103145.600000
334.127300 4839.000000
335.115500 22687.100000
336.144700 13427.500000
337.154300 5118.700000
338.139200 30022.300000
339.169100 12941.900000
340.154600 11162.400000
349.154500 73291.500000
350.138900 381014.900000
351.171100 17472.800000
352.141300 30640.000000
365.150400 3867.100000
366.170700 25130.000000
367.165500 622982.900000
379.165700 48465.800000
380.172500 68736.000000
395.196800 3303630.500000

>ms2peaks
53.038700 14042.800000
55.017800 14993.700000
55.054200 5919.600000
56.049500 42650.500000
65.038500 5527.400000
67.054200 20284.600000
68.049400 34703.700000
69.033500 17202.800000
70.065100 34043.300000
79.054200 42206.000000
80.049400 46445.700000
81.057300 7498.300000
81.069900 41021.900000
82.065200 15563.400000
83.049100 6596.600000
84.044300 4938.400000
86.060100 5082.100000
91.054200 36102.700000
92.049300 4358.700000
93.057300 63662.100000
93.069900 26833.300000
94.065200 44493.600000
95.049100 39786.000000
95.072900 3674.700000
95.085500 8511.900000
96.044400 3797.800000
96.080700 41948.300000
98.060100 9928.100000
105.069900 12060.800000
106.065100 118490.900000
107.049300 5099.700000
107.072900 11095.400000
107.085200 4436.500000
108.080800 137671.200000
109.064800 3664.900000
110.060200 6358.600000
110.096400 3259.800000
115.054400 2334.500000
117.069700 2821.500000
118.065200 7623.500000
119.072700 3318.600000
119.085500 4885.800000
120.044400 5253.600000
120.080700 14789.600000
121.064600 11936.000000
122.060000 109192.500000
122.096500 5792.600000
123.067900 4854.000000
124.075700 87280.500000
130.065000 7300.500000
131.085500 2678.700000
132.080700 5545.800000
134.059900 3069.100000
134.096400 4306.500000
136.075700 6760.300000
138.091300 4915.900000
144.080600 15259.500000
145.064600 2795.000000
146.059900 8545.200000
146.096500 3930.700000
147.067900 16648.600000
148.039200 3084.200000
148.075900 29851.800000
154.065500 3012.000000
156.080500 4346.400000
158.060400 5836.300000
159.068200 3657.100000
160.075700 10984.200000
161.083500 5871.900000
162.054700 6983.100000
162.091300 10686.400000
163.062500 14873.300000
164.070800 3051.600000
166.086200 3829.400000
170.060100 11422.700000
171.068100 2655.900000
172.075500 11141.300000
173.083600 8355.800000
175.062900 5165.700000
176.070700 18956.000000
177.078700 17599.600000
178.086300 81947.800000
182.060100 3566.300000
183.068300 7526.500000
184.075800 39675.300000
185.083500 89499.600000
186.054800 10822.100000
186.091300 9157.200000
187.062500 7060.100000
188.070500 8173.000000
189.078300 11221.900000
189.090800 5052.100000
190.086300 57363.600000
192.065400 45534.500000
192.101800 7151.000000
196.075900 8079.400000
197.083600 39844.000000
198.054900 38419.100000
198.091400 4813.700000
199.062600 6252.300000
199.099500 3193.600000
200.070800 23987.200000
201.078500 29237.700000
202.086300 12945.500000
203.093800 8610.900000
204.065600 10636.100000
204.102000 35359.300000
210.091300 13133.200000
211.062800 11322.100000
211.099600 7843.700000
212.070600 43030.300000
213.078400 547750.200000
214.049800 61572.100000
214.086000 26441.300000
215.083200 3109.300000
215.093900 14882.900000
216.101900 288204.200000
218.081500 14648.400000
220.076100 4848.900000
220.096800 8455.700000
221.083700 3598.300000
222.091500 10037.300000
223.099100 18766.500000
224.070800 7117.600000
224.107200 3070.100000
225.078600 6991.800000
226.086700 26899.000000
227.094000 69873.900000
228.065400 33111.500000
228.102000 48249.100000
229.073400 589883.900000
230.081200 26596.200000
230.117400 14867.400000
231.113100 4288.800000
232.096700 8032.500000
234.091100 18352.900000
235.099200 17481.000000
236.070800 35529.700000
236.106700 18353.500000
237.078600 4901.800000
237.115000 4128.300000
238.086200 23252.800000
239.093800 16298.200000
240.065100 7024.900000
240.102000 23102.100000
241.073200 14079.000000
241.110000 9777.200000
242.080900 20025.400000
242.117800 9560.300000
243.088900 40308.300000
244.096900 1077954.500000
245.105100 10178.300000
246.091100 3072.600000
246.112100 21058.800000
247.063000 9297.000000
247.099300 10156.000000
248.070800 19183.000000
248.107100 13373.400000
249.078400 22473.000000
249.114800 18863.200000
250.050400 4347.300000
250.086300 23299.300000
250.122700 8139.400000
251.094100 181782.900000
252.065700 67123.900000
252.101800 20686.000000
253.074300 3171.800000
253.109800 9916.900000
254.081400 20878.400000
254.117600 150969.500000
255.089300 5799.200000
255.112700 4983.700000
256.096800 79565.800000
257.104700 9938.100000
258.076700 13214.400000
258.090400 3491.100000
258.112500 39876.900000
260.091700 22728.300000
260.107300 8166.300000
261.114700 7503.500000
262.086400 39520.300000
262.122900 7986.700000
263.094100 322461.200000
264.065500 24528.900000
264.101800 43189.700000
265.073200 33339.800000
265.109900 20228.900000
266.081300 19191.800000
266.117500 30225.400000
267.089000 246506.400000
268.097100 18453.700000
268.133400 8838.100000
269.104700 8306.800000
270.112500 8283.100000
272.092200 17544.500000
272.107200 3886.900000
273.078100 2779.700000
273.115200 9316.900000
274.086400 13198.500000
274.107000 4410.100000
275.094200 7421.200000
276.102200 28497.000000
277.095500 3935.100000
277.110300 17596.300000
278.081300 8980.900000
278.117700 63126.600000
279.089000 30559.400000
279.125700 9626.000000
280.096900 139404.500000
280.133300 25801.400000
281.105000 28639.800000
282.112500 202619.100000
283.084100 10973.100000
283.120900 7407.800000
284.091400 8324.700000
284.128100 5703.500000
286.086400 12438.500000
286.105800 4410.900000
288.102900 16302.700000
289.110600 22794.700000
290.080700 5986.300000
290.117600 22942.700000
291.089300 6255.200000
291.125800 47066.300000
292.096900 28772.900000
292.120000 9289.300000
292.134100 8284.100000
293.105700 15136.500000
294.112600 102024.700000
294.149400 15960.100000
295.120500 11836.800000
296.091200 5691.400000
296.128800 23200.600000
296.163200 3399.200000
297.099700 12266.100000
297.122700 3878.900000
298.107300 15665.400000
300.102100 4698.300000
301.109900 54200.500000
302.081600 15851.600000
302.118000 7912.600000
303.126400 8295.600000
304.096700 14908.500000
304.133600 9961.600000
305.126700 3715.000000
306.112700 106657.200000
307.121000 42528.500000
307.141200 4588.200000
308.093000 4990.500000
309.123200 9877.300000
310.107500 7837.400000
310.144700 4316.000000
312.123500 6678.300000
316.097300 14557.300000
317.105000 25054.600000
318.112900 11437.100000
318.136400 13340.000000
319.142700 5466.300000
320.092600 7802.200000
320.128800 14258.900000
321.136500 96090.300000
322.143900 115603.000000
323.137600 15683.900000
324.123200 414506.300000
326.140800 6281.300000
331.121500 5459.300000
332.128200 45025.200000
333.122800 5398.200000
334.131600 14602.000000
335.115900 16543.500000
336.147300 18828.800000
337.118400 7275.600000
337.154900 9800.000000
338.139200 16751.500000
339.170900 3262.400000
340.153700 4585.500000
349.155100 27526.500000
350.138900 111051.000000
351.134100 8950.400000
351.170000 20917.900000
352.141000 39408.300000
365.149400 6248.100000
366.169900 8786.700000
367.165400 128700.400000
379.165700 65235.900000
380.171900 13392.200000
395.196800 231109.800000

>ms2peaks
53.038600 30431.600000
55.017900 34240.400000
55.054300 14014.400000
56.049500 42970.900000
65.038600 10768.400000
66.046300 4063.900000
67.041600 8073.700000
67.054200 35343.300000
68.049500 35983.900000
69.033300 15866.600000
70.065100 26143.000000
77.038600 2773.100000
78.034100 2918.600000
79.054200 76021.900000
80.049500 87082.300000
81.033500 10943.100000
81.057200 15071.500000
81.069900 43686.200000
82.065100 16576.100000
83.049000 5364.600000
84.044200 3852.200000
86.060100 2875.200000
91.054200 77252.500000
92.049300 5648.800000
93.057300 135657.800000
93.070000 28540.200000
94.065200 71183.100000
95.049200 57837.200000
95.073000 4716.800000
95.085600 5323.900000
96.044500 12060.400000
96.080800 46056.700000
98.060000 6335.900000
103.054200 10548.300000
104.049200 3626.800000
105.044800 8005.400000
105.069900 14632.900000
106.065200 175194.700000
107.049200 8748.800000
107.072900 11759.300000
107.085500 5357.500000
108.080800 96824.100000
109.064700 8612.500000
110.059900 7337.200000
110.096500 3313.100000
115.054300 7823.900000
117.057300 8214.400000
117.069800 9321.500000
118.065000 15292.000000
119.073100 6055.500000
119.085500 3612.700000
120.044500 8959.200000
120.080800 14025.000000
121.052300 4743.200000
121.064900 14325.700000
122.060100 85014.900000
122.096300 6787.300000
123.067800 2682.700000
124.075700 47881.300000
128.062000 4905.300000
129.070100 13549.200000
130.065100 16942.100000
131.049100 4479.400000
131.073300 4209.300000
132.044300 8952.600000
132.080900 12393.000000
133.052300 5880.100000
134.060200 9767.600000
134.096100 4887.300000
136.076100 4830.400000
142.065100 7888.700000
143.073500 5873.100000
144.056600 3713.300000
144.080900 16751.900000
145.052100 2934.000000
145.064700 10948.600000
146.060100 35127.000000
146.096900 3989.600000
147.067900 43420.200000
148.039100 11741.100000
148.075600 30054.600000
154.065000 23811.700000
155.072900 13525.800000
156.080900 34625.500000
158.060000 29811.200000
158.072300 5317.300000
159.067900 8064.000000
160.075800 36511.400000
161.047200 3822.800000
161.083600 10214.800000
162.054800 15132.700000
162.091400 5748.700000
163.062900 28746.600000
164.070700 3996.400000
166.086500 3184.600000
167.072800 7744.100000
168.080800 8307.600000
169.052200 14980.100000
170.060100 112379.200000
171.067400 12065.900000
172.075700 72226.300000
173.083700 24337.400000
174.055100 9784.800000
174.067600 19685.600000
174.091400 4527.800000
175.062700 10501.400000
176.070600 23195.400000
177.078500 18251.300000
178.086200 44593.400000
180.080900 6170.800000
182.060000 32429.200000
183.067900 45884.300000
184.075800 141467.700000
185.083600 351746.400000
186.055000 84036.700000
186.091400 27705.400000
187.062800 16853.200000
187.086400 3062.900000
188.070800 25441.600000
189.078700 12254.700000
189.091000 9787.100000
190.086200 52769.200000
191.073000 4390.300000
192.065400 45220.800000
192.080900 6736.000000
192.101400 3982.000000
193.088300 3787.000000
194.060500 6544.600000
194.096700 5148.800000
195.067900 5191.900000
196.075800 37532.800000
197.047400 4891.100000
197.083600 83296.000000
198.055000 257757.700000
198.091200 20839.700000
199.062800 25024.100000
199.099500 7315.100000
200.070700 103676.400000
201.078500 82113.600000
202.050000 5096.000000
202.086300 22630.500000
203.093600 5510.000000
204.065500 4259.400000
204.080300 5990.300000
204.101800 19219.300000
206.059700 5591.900000
206.096000 9372.400000
207.067900 6856.500000
208.075700 35419.200000
208.111900 3879.600000
209.083300 22141.600000
210.054700 10768.200000
210.091400 51504.900000
211.062800 32871.900000
211.099600 13430.200000
212.070800 101600.600000
213.078500 724989.000000
214.049900 227616.300000
214.086100 44588.800000
215.057800 5417.500000
215.082400 4870.900000
215.094100 14831.800000
216.102000 329397.300000
217.088500 7872.400000
218.080900 6297.300000
218.096200 6238.000000
219.067600 11696.100000
219.103800 3046.500000
220.075800 50912.200000
220.111800 4193.500000
221.083600 27463.800000
222.054600 8181.200000
222.091300 32557.700000
223.099300 48002.100000
224.070700 47736.500000
224.106900 11614.600000
225.078300 18248.600000
226.050800 3633.000000
226.086500 50197.200000
227.058000 3478.000000
227.094000 47780.800000
228.065800 76674.000000
228.102100 40329.600000
229.073400 471528.300000
230.080900 21411.200000
230.096600 7504.600000
230.117500 9103.800000
232.075200 13960.600000
232.096700 7314.700000
232.111900 5167.800000
233.083900 19797.000000
234.054900 11804.300000
234.091300 60966.400000
235.063000 6931.600000
235.099200 42699.600000
236.070700 127569.000000
236.107100 78560.200000
237.078800 16985.800000
237.114900 8548.300000
238.086400 57302.000000
239.093900 25030.200000
240.065600 16920.500000
240.101900 23931.000000
241.073500 12303.700000
241.109700 8413.900000
242.081700 17416.000000
242.117900 7103.400000
243.052200 4612.300000
243.088900 24767.100000
244.096900 298334.500000
245.105400 5393.300000
246.054700 11534.000000
246.091200 21690.800000
246.113200 4840.000000
247.062800 12891.800000
247.099100 26797.800000
248.070800 76152.200000
248.106900 49198.000000
249.078400 37204.500000
249.101800 3867.100000
249.114700 21122.900000
250.049600 7611.800000
250.086300 54557.100000
250.122800 26213.800000
251.094200 150583.700000
252.065600 99372.700000
252.101800 32899.100000
253.072300 3218.700000
253.109600 10456.700000
254.081600 19964.300000
254.117600 89865.200000
255.089400 4717.800000
255.112400 7491.100000
256.096200 25874.200000
257.104400 4561.700000
258.076100 8167.800000
258.091300 17736.800000
258.112600 15056.600000
259.098000 4942.500000
260.070800 6223.300000
260.091900 6678.300000
260.107100 21080.400000
261.078400 5653.200000
261.114400 7456.200000
262.086200 40415.500000
262.122500 16458.600000
263.094200 167171.000000
264.065700 43910.400000
264.101800 68087.700000
265.073400 34422.700000
265.096600 5782.900000
265.109900 16409.400000
266.081100 26861.700000
266.117900 27687.000000
267.089100 87338.500000
268.097000 12000.300000
268.133100 6363.600000
269.104200 4829.100000
272.091100 5151.800000
272.106600 6832.200000
273.078100 6678.600000
273.114700 5411.800000
274.086600 17544.700000
274.122300 7396.100000
275.094100 7115.000000
276.102000 35132.600000
277.095100 5636.800000
277.109700 18448.500000
278.081300 16789.900000
278.117800 70473.800000
279.088600 11375.800000
279.111500 6023.000000
279.126200 6391.900000
280.097000 63677.000000
280.134100 12044.300000
281.104700 8932.900000
282.112700 30785.600000
286.086700 18649.900000
288.101500 25084.100000
289.110800 15726.900000
290.081200 10166.800000
290.118000 23007.100000
291.089500 3174.200000
291.126400 18306.900000
292.096900 29673.600000
292.117800 5375.500000
292.133800 7340.600000
293.105600 5151.300000
294.112600 34102.200000
294.148500 5863.700000
296.128400 6032.800000
297.099600 3709.500000
300.101600 4845.000000
301.110300 15632.600000
302.080800 10374.000000
302.117200 7886.600000
304.096800 12410.800000
305.105200 5500.500000
305.126500 3850.700000
306.112600 77906.700000
307.120200 9441.600000
308.091700 3591.500000
308.128400 9879.100000
309.123200 13276.300000
316.097500 8808.100000
317.104800 8402.200000
318.112400 9068.200000
318.133900 3669.600000
319.121100 5873.900000
320.091200 4727.100000
320.129400 5707.700000
321.136900 21823.500000
322.144500 18975.200000
323.138500 3526.200000
324.123800 29203.500000
332.127600 8082.000000
333.123400 3083.600000
337.118800 3370.900000
337.154300 11128.600000
350.138700 6915.600000
351.133400 4802.200000
351.169800 8186.800000
352.140600 8256.900000
367.165300 4783.700000
379.165400 23563.800000
395.196000 6350.700000

>ms2peaks
53.038600 43377.600000
55.017900 46238.500000
55.054300 10347.800000
56.049500 36321.800000
65.038500 19868.000000
66.046400 3950.200000
67.041600 17635.900000
67.054200 42823.300000
68.049400 34026.100000
69.033400 9073.500000
70.065100 16765.700000
77.038500 7979.000000
78.033500 3581.400000
79.054200 90228.900000
80.049400 107736.900000
81.033500 10964.400000
81.057300 20651.400000
81.069900 32270.100000
82.065100 16800.300000
83.048900 3954.100000
84.044500 3486.200000
91.054200 95784.300000
92.049500 15357.900000
93.057300 159672.200000
93.069800 19059.400000
94.065200 61338.000000
95.049200 69333.200000
95.073000 5242.600000
95.085500 4025.900000
96.044400 17384.000000
96.080700 24334.400000
98.060000 4170.000000
103.054100 16355.200000
104.049400 6763.900000
105.044700 17859.500000
105.070000 17107.300000
106.065100 145753.100000
107.049300 6091.200000
107.072900 12722.500000
107.085300 3818.500000
108.080800 42759.300000
109.064800 2741.900000
110.059900 5502.900000
115.054100 25211.000000
117.057300 22070.500000
117.069800 21492.200000
118.065100 25849.000000
119.073100 4508.400000
119.085500 4179.900000
120.044300 14676.500000
120.080900 14818.400000
121.052200 3675.900000
121.064800 12124.700000
122.060000 46142.800000
122.096400 3005.400000
124.075700 15217.600000
128.062100 10836.400000
129.069900 28059.200000
130.065200 48092.800000
131.049100 8986.000000
131.073000 7969.800000
131.085200 4002.200000
132.044500 23544.400000
132.080800 15992.600000
133.052200 14786.800000
134.060000 18646.400000
134.096300 5291.400000
142.065200 56138.000000
143.073000 20599.200000
144.056800 10146.300000
144.080800 23752.900000
145.052500 5281.500000
145.064700 34596.900000
146.060000 70976.500000
147.067900 39936.300000
148.039400 31375.000000
148.075700 17422.700000
154.065100 88516.600000
155.072800 34891.800000
156.080800 55348.600000
158.060100 108539.700000
158.072600 10005.700000
159.067900 20747.500000
160.075700 50490.800000
161.047100 6187.400000
161.083400 6082.000000
162.054900 24077.800000
163.062800 23622.400000
164.070000 3561.800000
167.072900 22234.600000
168.080800 23132.900000
169.052200 32932.000000
170.060000 422091.700000
171.067800 37480.700000
172.075700 170980.100000
173.083800 32409.200000
174.055000 30593.900000
174.067600 18582.700000
174.091500 5316.400000
175.062800 12677.600000
176.070500 19911.700000
177.078400 10858.600000
178.086300 10164.600000
180.080900 38316.800000
182.060100 89295.100000
183.068000 99503.400000
184.075800 208969.500000
185.083600 369704.900000
186.055000 223981.700000
186.091400 28761.000000
187.062800 19712.100000
187.086800 5976.700000
188.070700 31822.500000
189.078400 7919.700000
189.091200 7410.000000
190.086200 24346.300000
191.073000 17095.700000
192.065800 14541.100000
192.080800 26879.500000
193.089000 14139.600000
194.060100 26082.900000
194.096300 15811.400000
195.067700 14251.000000
196.075800 81838.900000
197.047300 7353.200000
197.083500 66314.400000
198.055000 466493.500000
198.090900 27922.200000
199.063000 24798.800000
199.099400 6468.400000
200.070700 163806.600000
201.078400 84746.200000
202.050100 3473.200000
202.086100 18188.800000
204.064800 4759.800000
204.080800 39230.700000
204.102100 4352.200000
206.059900 23641.100000
206.081300 3061.700000
206.086500 3199.600000
206.096500 27497.700000
207.067900 17218.000000
208.075800 91478.000000
208.112200 9480.700000
209.083700 30458.400000
210.055000 22758.700000
210.091400 83332.300000
211.063000 22446.700000
211.099500 5871.200000
212.070600 127717.600000
213.078400 326259.600000
214.049900 259542.100000
214.085900 31357.500000
215.057700 6526.400000
215.081700 8207.000000
215.094400 9868.200000
216.102000 113425.800000
217.088600 29762.800000
218.096400 27427.700000
219.067800 20617.200000
219.104300 5561.000000
220.075600 107086.300000
220.112500 10858.500000
221.083500 46385.500000
222.054800 17755.800000
222.091400 56301.500000
223.099000 31724.600000
224.070700 61239.700000
224.106900 11367.200000
225.078800 23598.400000
226.050200 7915.500000
226.086300 39653.900000
227.058500 2669.000000
227.093900 18638.700000
228.065600 69245.900000
228.101600 15132.300000
229.073400 138262.200000
230.081400 7439.700000
230.096500 11470.400000
232.075600 28423.300000
232.112500 8787.700000
233.083500 30801.100000
234.055300 19145.800000
234.091400 93685.700000
235.063500 8188.200000
235.099200 42441.200000
236.070700 138921.300000
236.106900 70237.600000
237.078500 16548.200000
237.114600 5181.700000
238.086300 47497.300000
239.093800 8642.000000
240.065200 14521.000000
240.101600 15092.400000
241.074000 4478.200000
242.081500 9135.200000
243.052900 5641.700000
243.089200 4594.000000
244.097100 37783.800000
246.054900 15444.300000
246.091700 23702.700000
247.062800 6778.100000
247.099200 20674.300000
248.070400 61366.600000
248.107200 44646.600000
249.078200 29552.900000
249.102000 7752.800000
249.115200 11150.900000
250.050200 6041.400000
250.086300 46782.500000
250.122700 14012.900000
251.094100 41785.400000
252.065500 52288.100000
252.102200 13102.000000
254.081900 6214.400000
254.117600 11201.400000
256.096800 4121.800000
258.090900 19403.200000
259.097900 3291.600000
260.071200 6834.600000
260.107200 18523.900000
261.078100 7041.100000
261.115700 4352.800000
262.086100 35699.700000
262.122200 14390.800000
263.094200 38294.600000
264.065500 26886.300000
264.102100 42338.000000
265.073800 8664.400000
265.096400 4289.300000
265.110200 4931.300000
266.081300 7400.800000
266.117600 12121.500000
267.089300 17514.200000
268.097400 2828.400000
272.106900 4059.500000
273.078500 6409.700000
274.086700 19219.800000
274.123800 3730.800000
275.094500 5980.900000
276.101300 18553.100000
277.095100 3589.500000
277.110200 6326.500000
278.081100 8865.300000
278.117600 28343.200000
279.112200 3056.200000
280.097300 10550.300000
286.086100 5775.600000
288.101300 18254.100000
290.082200 3659.300000
290.118000 9215.400000
292.097100 9787.500000
294.112500 4784.300000
301.111700 3245.600000
304.096700 4680.100000
306.112600 18206.200000
316.096900 4200.400000
337.155100 7942.200000
379.167100 3163.100000

