>compound LU99444453
>parentmass 397.1004
>ionization [M+H]+
>formula C16H17F5N2O2S
>rt 1100.640000
>profile orbitrap
#smiles_iso CC(C)CC1=C(C(=NC(=C1C(=O)OC)C(F)F)C(F)(F)F)C2=NCCS2
#smiles_can CC(C)CC1=C(C(=NC(=C1C(=O)OC)C(F)F)C(F)(F)F)C2=NCCS2
#inchikey YIJZJEYQBAAWRJ-UHFFFAOYSA-N
#pubchem_id 91776
#mb_accession LU107001,LU107002,LU107003,LU107004,LU107005,LU107006

>ms2
377.093800 130786.600000
397.100300 21079378.000000

>ms2
61.010600 370764.100000
75.026200 174163.800000
76.021400 17788.000000
222.072600 67547.000000
249.083400 38886.000000
250.067300 152721.700000
265.058000 75568.500000
275.043500 12177.900000
276.033700 16841.100000
277.060500 12245.500000
277.078100 172348.200000
285.064500 268321.400000
297.066700 53400.600000
297.084300 399351.500000
300.017700 17506.900000
300.064300 143336.800000
303.021200 41718.900000
305.055600 15871.000000
306.007700 10431.000000
309.085800 11697.500000
311.099500 10510.500000
315.040800 62354.100000
315.094600 28371.700000
317.090800 718251.200000
320.070100 34509.400000
322.057800 29146.900000
325.061700 207021.100000
329.093000 16203.100000
334.039700 41162.200000
335.047100 644943.100000
337.081400 216609.900000
342.064200 11574.600000
345.068100 33383.100000
355.053600 13154.600000
357.087900 375438.500000
377.094100 4844182.500000
397.100300 10152946.000000

>ms2
53.002200 5879.100000
58.994900 35542.800000
60.002800 27953.100000
61.010600 2251830.200000
73.064700 35550.400000
75.026200 229321.300000
76.021500 80991.400000
78.037200 3944.100000
129.070100 9278.400000
155.073200 5532.600000
174.071200 28624.700000
177.050800 4373.100000
178.066000 4863.300000
188.050600 5577.200000
190.046300 4470.900000
190.066200 6026.400000
192.081800 39376.900000
194.078100 5623.500000
199.047800 5427.800000
201.082100 55761.400000
202.066300 23542.600000
202.090300 3766.400000
204.062000 10885.300000
204.082000 3808.400000
206.064800 22842.900000
208.057200 10472.800000
209.070900 15678.500000
213.082400 7962.400000
215.061100 4814.500000
217.045000 4904.200000
217.057300 27044.500000
219.038500 16314.500000
219.072900 10458.200000
220.056900 6189.400000
220.077200 10915.900000
221.088200 53319.300000
222.072300 582205.400000
223.067600 6701.900000
224.068000 62252.400000
226.037500 4793.300000
227.043700 6487.300000
229.024000 5610.600000
229.076900 111554.200000
231.068500 23909.800000
232.010500 4924.900000
232.023500 4030.500000
233.053700 18645.900000
234.059900 25293.700000
235.033300 10242.600000
235.046100 4575.800000
235.067700 34800.200000
237.048000 10956.900000
237.063600 57147.400000
238.047300 51253.600000
238.071300 13682.500000
239.079100 49309.400000
240.029200 4453.900000
243.093300 10815.600000
246.995600 4109.800000
247.033200 24516.400000
247.048600 17563.800000
247.068300 15261.500000
248.075200 9534.100000
249.083200 452159.600000
250.067100 523142.900000
251.048000 5863.300000
251.062600 33440.900000
251.079300 12149.200000
252.016300 23754.200000
252.063400 19970.700000
253.024200 12014.200000
253.058400 25983.700000
255.019900 19095.500000
255.038000 10287.800000
255.050100 10247.600000
256.004100 13048.900000
256.094800 6435.800000
257.035200 15321.100000
257.054500 11160.600000
257.071400 134432.200000
258.006700 14248.100000
263.008800 6089.100000
263.024500 6022.900000
263.062500 67087.000000
263.078700 6789.700000
265.058200 495742.600000
266.031700 10291.900000
267.040200 27140.800000
267.074100 14055.100000
269.089300 415936.400000
271.014900 29216.400000
271.069100 81080.800000
272.022300 37424.800000
272.069100 157042.600000
273.030100 13131.100000
273.047500 5313.500000
275.026200 269471.000000
275.043700 58174.100000
276.033600 404618.800000
277.060600 39035.000000
277.077800 292521.800000
279.039500 7541.500000
279.074100 23703.900000
280.011200 56480.700000
280.039900 5632.100000
280.058200 11779.600000
281.036100 4942.400000
281.054300 12107.200000
282.060900 17840.400000
283.014800 78132.400000
283.068600 30670.700000
285.064500 720098.100000
287.009500 4842.000000
287.045700 66386.100000
288.029800 118212.800000
289.025300 9236.700000
290.013100 5450.400000
290.984400 16474.200000
291.020700 95221.800000
293.054700 23608.000000
295.034400 35876.200000
295.051400 7652.000000
297.067200 84806.300000
297.084300 1014833.100000
298.074800 12057.200000
299.009500 103030.100000
300.017300 592256.400000
300.063900 162624.400000
302.013000 7771.600000
302.051600 11693.600000
303.020800 1172918.800000
304.011400 28565.400000
305.036400 19199.000000
305.055400 49085.500000
306.007900 117707.600000
307.015900 26174.800000
307.034600 8814.500000
307.051500 4791.900000
308.024200 31629.400000
309.086200 53611.200000
310.038300 14614.800000
311.099800 52799.100000
314.033000 98632.100000
315.040800 503023.800000
315.094600 41777.300000
317.090800 710310.100000
319.015700 480218.400000
320.070400 11653.400000
321.031400 15018.400000
322.057800 119204.300000
324.017600 27557.800000
325.061400 271279.700000
327.040600 12542.800000
327.057900 107444.700000
329.091900 19269.700000
331.035600 15927.200000
333.051800 14939.300000
334.038900 109070.100000
335.046900 2621264.200000
337.080700 202200.600000
342.064700 15785.100000
345.067300 37784.500000
355.054800 4341.700000
357.087600 223120.200000
377.094000 1272131.600000
397.100200 516869.900000

>ms2
53.002200 12819.300000
58.995000 65446.000000
60.002800 66715.600000
61.010600 2044463.400000
73.064800 30120.400000
75.026300 39055.300000
76.021500 52851.900000
128.062100 13951.500000
129.069900 51889.400000
133.045000 9626.300000
136.992900 12192.500000
146.006200 6554.800000
147.060600 17683.700000
148.021400 4175.100000
148.056100 5452.100000
153.051200 6452.300000
154.065200 36207.100000
155.060400 11512.900000
155.072900 26590.700000
156.080900 5592.400000
160.055600 8895.500000
161.016800 4433.400000
165.051100 7906.100000
166.012200 9535.500000
170.021200 4618.600000
172.021600 11548.500000
172.076100 4835.900000
173.051200 6680.000000
174.071500 126257.300000
175.066600 15310.900000
175.079000 13634.900000
176.031200 3819.100000
176.087000 7070.800000
177.051400 7643.100000
178.012100 4716.600000
178.066200 10926.100000
179.041700 4552.900000
180.062000 18008.000000
181.076000 21253.100000
183.055500 5720.300000
184.002400 8970.000000
184.022600 4973.800000
184.055900 9100.100000
185.071400 5659.100000
186.018300 17843.000000
186.058900 25911.500000
187.066700 19044.800000
188.050800 12549.100000
190.046400 20670.300000
190.066500 16261.800000
191.007500 5878.400000
191.041600 17633.400000
192.027700 13923.500000
192.061700 13400.500000
192.081900 168251.600000
193.077600 19847.800000
194.007200 5001.700000
194.077600 20021.400000
195.056300 4713.500000
196.056900 7864.600000
198.018400 16462.800000
199.032500 13518.200000
199.047900 16342.900000
201.082300 105992.700000
201.993400 3960.300000
202.066500 62505.600000
202.089900 8707.700000
203.001100 15496.500000
203.061800 17018.900000
204.061700 26383.800000
204.082100 8834.300000
205.023400 25049.500000
205.057200 12083.600000
206.065100 90214.200000
206.097500 10815.000000
207.073200 26142.300000
208.002500 16029.100000
208.056700 14273.800000
208.997800 12040.000000
209.070900 8412.000000
210.052600 41859.000000
211.013900 25087.300000
211.032700 13978.600000
211.048200 12059.200000
211.067800 6307.300000
212.020000 5805.700000
213.026800 13145.600000
213.047300 11490.300000
214.013200 15099.300000
214.054100 11276.500000
214.989000 4703.900000
215.007700 15590.200000
215.022600 6694.200000
215.042500 8516.100000
215.061500 20580.800000
215.097700 10883.500000
215.996800 10120.900000
217.022600 6336.700000
217.044300 5060.100000
217.057100 88521.400000
217.076100 5735.900000
218.031400 8903.000000
219.038400 77709.000000
220.022900 24007.400000
220.057200 6126.100000
220.077900 12793.200000
221.088600 85077.400000
222.072500 355541.700000
223.048500 9957.400000
223.067800 54625.700000
224.021300 20650.100000
224.055800 5167.200000
224.068200 82167.000000
225.005300 4615.300000
225.029200 59717.900000
226.036900 12329.600000
226.988300 5606.500000
227.008900 7792.300000
227.043900 16299.400000
228.008500 20107.800000
228.063500 18584.200000
229.023000 16137.700000
229.058200 5919.400000
229.077500 111139.100000
230.012100 50887.000000
230.045000 18030.000000
231.002300 4010.000000
231.038700 15938.300000
231.069700 10619.000000
232.010100 37331.300000
232.023300 8171.300000
232.979500 11236.700000
233.033600 25064.100000
233.053200 32621.300000
233.065300 4251.100000
233.070800 4232.300000
233.999700 16177.800000
234.060100 85476.800000
234.995600 4733.900000
235.013400 64787.600000
235.033700 27299.200000
235.046500 7318.400000
235.067700 71576.000000
236.992800 35529.800000
237.048200 28743.800000
237.063500 72842.400000
238.035600 6594.400000
238.047400 61022.400000
239.008700 7525.600000
239.043700 57201.200000
239.079100 19035.000000
240.014500 10608.100000
240.028900 20372.800000
240.042800 14062.500000
241.023800 36480.700000
241.038100 8638.900000
241.058200 8259.500000
242.078400 32878.500000
242.983200 23381.700000
243.037100 8049.500000
243.092200 14185.900000
243.991100 24337.300000
244.027200 32705.900000
244.999200 11266.000000
246.021300 8911.400000
246.995500 31702.100000
247.015300 6819.100000
247.033100 65716.000000
247.048800 39328.900000
247.068900 14560.500000
248.002700 30658.100000
248.016100 16809.000000
248.076100 9351.900000
249.083500 301224.000000
250.020300 16147.700000
250.067600 107909.600000
251.008600 26453.700000
251.046300 4992.100000
251.062600 55987.500000
251.079100 18288.400000
252.016400 106680.100000
252.063400 10326.200000
253.001000 30316.700000
253.024200 74725.000000
253.058200 36808.500000
254.026500 8734.400000
255.019800 181307.100000
255.049900 35827.900000
256.003700 101829.200000
256.045300 6436.500000
256.094900 6366.600000
256.999700 25498.400000
257.019400 8307.900000
257.054200 29505.200000
257.071200 42476.500000
258.007000 77460.600000
259.014800 40785.500000
259.049100 7841.000000
259.068200 10371.700000
260.004200 11797.300000
260.993700 11393.300000
262.036600 4981.000000
262.989700 33990.900000
263.008600 23148.900000
263.023800 4156.800000
263.062700 52156.000000
263.078500 9025.200000
264.988000 30909.400000
265.044100 18093.300000
265.058500 225310.000000
266.031800 17695.400000
267.039700 35592.300000
267.074500 9125.100000
268.023800 31893.700000
269.018900 38313.700000
269.089600 178289.000000
270.041600 15072.300000
270.979700 21160.200000
271.014800 373258.900000
271.068900 157688.200000
271.985200 27991.300000
272.000400 8152.500000
272.022300 119702.300000
272.069400 62376.200000
273.029900 26075.400000
273.048500 9133.500000
275.026200 1111683.900000
276.033900 655875.100000
277.060300 35388.700000
277.078400 32083.700000
279.003300 15208.000000
279.039600 11409.600000
279.073700 20820.800000
280.011200 99112.800000
281.053900 8168.500000
282.043400 17280.100000
282.061000 9564.100000
283.014900 135249.100000
283.068500 22321.200000
284.993900 7216.900000
285.049700 43582.200000
285.064900 120616.600000
287.009400 16573.400000
287.045700 66388.600000
288.030100 191970.300000
289.025500 28150.400000
290.013600 11664.000000
290.984600 87971.200000
291.020900 130596.500000
291.992400 10745.400000
295.034200 32638.000000
295.051300 6518.100000
297.066700 19594.300000
297.084400 107868.200000
299.009800 331641.300000
300.017600 712519.700000
302.013500 8508.200000
302.052100 7531.100000
303.021100 936017.500000
304.012600 50875.000000
305.036600 19188.400000
306.007900 61284.600000
307.016300 14482.900000
307.033900 7124.900000
307.051600 14243.900000
308.024100 36577.700000
309.086300 12660.800000
310.038700 11536.100000
311.100400 7672.400000
314.033000 30282.900000
315.040900 177078.200000
317.020300 12564.600000
317.091800 27199.100000
319.015900 865383.900000
321.031200 8885.500000
322.058200 17547.000000
324.018800 10541.000000
325.061500 24731.900000
327.040600 9943.200000
327.058700 50573.200000
331.036000 33582.000000
333.051600 13919.500000
335.047200 516162.700000
337.081400 4760.900000
357.089800 6712.500000
377.093900 19044.100000

>ms2
53.002300 17129.500000
57.987200 9224.500000
58.995000 110232.400000
60.002900 133977.400000
61.010700 1604733.900000
62.970000 12547.700000
68.979500 5092.500000
68.994800 6385.700000
73.064900 22127.000000
75.026300 14144.100000
76.021600 32621.700000
88.021700 5146.200000
96.005700 4403.700000
103.054300 7645.100000
107.029300 5509.300000
107.971300 4949.900000
114.034100 8548.800000
115.054300 21496.600000
116.049400 5053.300000
121.044900 4573.300000
122.040100 13642.800000
127.035600 4551.800000
127.054800 4763.000000
128.049600 13796.700000
128.062000 52791.400000
129.044700 11317.700000
129.069900 52457.800000
130.065300 7647.400000
131.060400 5459.400000
133.044800 32126.500000
134.040000 12481.000000
136.993000 37851.900000
139.001500 20859.100000
140.030700 4655.200000
140.049600 27911.600000
141.057700 4659.700000
142.065500 8780.600000
144.081000 8052.600000
145.064900 15487.700000
146.005900 36114.200000
146.040000 5156.400000
146.053200 6097.600000
146.060200 5504.100000
147.014000 3929.800000
147.035500 6945.700000
147.060500 46984.500000
148.021400 8149.300000
148.055800 18204.900000
149.051300 7409.000000
151.035200 7943.000000
151.996500 3967.500000
152.031000 12542.400000
152.049800 7995.700000
153.004500 10149.000000
153.038500 4994.600000
153.045000 5050.700000
154.065200 122142.700000
155.060500 57712.700000
156.068200 10913.900000
156.080900 17726.600000
156.992100 6932.300000
158.021200 17918.200000
158.040000 14109.000000
159.035400 4767.100000
159.048000 14874.100000
159.055500 10897.100000
160.009200 4171.100000
160.043300 11546.700000
160.055500 29820.200000
161.017000 15958.000000
161.051000 7998.800000
163.055400 5188.000000
163.996500 19904.400000
164.031200 4452.100000
164.043600 5007.800000
165.026000 11313.700000
165.051200 10012.200000
166.012400 35228.200000
166.053100 5259.700000
167.042000 5000.200000
169.075900 8957.000000
170.021400 15252.000000
170.060100 18153.900000
171.035700 9223.200000
171.047800 12248.500000
172.021600 30102.100000
172.055900 37741.100000
172.075700 6515.300000
173.016900 34082.400000
173.051300 24390.900000
173.070800 29930.100000
174.024700 11226.000000
174.071500 140910.400000
175.032200 4886.300000
175.066600 21979.400000
175.079200 20417.000000
176.031200 4445.000000
176.087000 5115.100000
177.004400 12877.100000
177.999200 6715.400000
178.012200 24848.700000
178.033500 4142.900000
178.046400 6015.400000
178.066600 19151.500000
179.007400 12898.600000
179.020100 5178.500000
179.041800 20350.400000
179.991500 5422.600000
180.062100 17043.400000
181.057100 10148.800000
181.076200 21926.600000
181.987300 11138.600000
182.041600 7812.600000
182.995000 10849.600000
183.042200 7994.800000
183.055400 7624.000000
184.002600 54534.500000
184.022900 23775.200000
184.037100 5299.300000
184.056000 19251.200000
185.031900 12524.500000
185.051300 12640.600000
185.071400 6181.200000
186.018300 39995.800000
186.038100 7729.600000
186.058900 52129.800000
186.071500 7434.600000
187.032100 5575.100000
187.066700 41996.100000
187.997000 10100.300000
188.041100 5288.300000
188.050900 33477.600000
189.038300 15559.200000
190.012300 7761.500000
190.046600 48042.000000
190.066100 7453.200000
191.007400 22555.600000
191.041600 70596.900000
191.061900 4822.100000
192.015200 10886.400000
192.027900 30729.200000
192.062100 22049.300000
192.082000 148210.000000
193.022100 72356.100000
193.077500 50301.300000
194.007200 12684.800000
194.021300 5743.200000
194.077800 17073.300000
194.994100 4494.900000
195.002500 4263.700000
195.016700 40041.800000
195.056200 9086.700000
195.990300 40226.000000
196.002900 10825.700000
196.023500 9910.500000
196.056800 7893.800000
196.997900 18445.700000
197.051600 50344.600000
198.005800 24361.000000
198.018200 22477.600000
198.990200 7238.500000
199.032500 15297.200000
199.047700 22068.100000
199.067400 25295.700000
199.086800 20468.400000
201.027000 5059.800000
201.046900 5505.300000
201.082400 74135.500000
201.993200 31806.000000
202.012800 5070.800000
202.046900 8830.800000
202.066200 32402.800000
203.000900 125567.200000
203.043200 18489.800000
203.061800 36386.900000
204.015400 43827.200000
204.028400 17282.300000
204.050300 10350.900000
204.062200 22973.400000
204.082200 6319.900000
205.023300 78980.200000
205.041500 6932.300000
205.057700 26588.200000
206.041200 7087.400000
206.065300 113141.700000
206.097500 14431.200000
207.002800 11295.800000
207.073100 24035.600000
208.002600 86458.100000
208.036200 4424.100000
208.056700 20360.500000
208.998400 70097.600000
209.053200 9313.900000
209.071400 8026.000000
210.016800 5284.400000
210.038700 23321.600000
210.052600 60918.400000
211.013600 39714.000000
211.047700 42328.100000
211.066800 7278.000000
211.997800 12176.200000
212.020100 6056.100000
212.994000 17611.400000
213.027300 108370.200000
213.082800 9228.900000
214.013000 25458.100000
214.054100 13896.400000
214.988900 82127.500000
215.007700 59146.600000
215.042400 10697.900000
215.061400 23740.700000
215.098300 6066.600000
215.996800 58141.700000
216.049800 5589.900000
217.022800 12177.500000
217.057200 83745.100000
218.030600 16663.000000
219.003000 5217.400000
219.037900 63639.600000
219.073000 20409.300000
219.983800 8758.300000
220.023200 24217.600000
220.078200 10461.800000
221.018100 63084.300000
221.032600 17691.500000
221.052000 8000.400000
221.088600 45847.500000
222.025200 29900.300000
222.040100 36965.700000
222.072500 89139.100000
223.013700 77541.500000
223.048400 15670.300000
223.997300 26643.400000
224.021700 66315.300000
224.068400 35189.100000
224.993100 17955.000000
225.005300 10142.000000
225.029300 166967.000000
225.981100 7060.200000
226.012400 18503.600000
226.036600 23372.200000
226.988700 26435.100000
227.008600 13868.200000
227.043600 39102.500000
227.996200 30570.400000
228.009200 73966.100000
228.063300 15581.400000
229.004600 71180.100000
229.023200 13801.300000
229.058800 8932.500000
229.077500 39142.700000
229.988700 14324.600000
230.012300 135388.100000
230.983800 6953.300000
231.002500 20262.900000
231.054800 26128.700000
231.072900 10075.500000
232.010200 37821.200000
232.024500 9745.600000
232.979600 31742.300000
232.999400 44052.900000
233.018100 14897.100000
233.033600 65242.800000
233.052200 33278.900000
234.000500 29218.500000
234.060200 61999.800000
235.048500 16872.800000
235.067600 53027.700000
236.006300 4994.000000
236.020800 16100.000000
236.054800 9908.000000
236.993100 65552.700000
237.029200 18416.100000
237.048600 31597.100000
237.063600 41550.900000
238.035500 8601.300000
238.047600 19207.600000
238.071200 10571.700000
239.008300 16343.700000
239.043600 47219.100000
240.014500 23592.400000
240.029400 12277.200000
240.042400 4808.600000
240.988400 8934.900000
241.004400 7218.700000
241.024000 45126.200000
241.038500 11306.900000
241.058800 6733.100000
242.011500 16048.300000
242.078500 12867.000000
242.983700 112777.300000
243.019900 205615.500000
243.037500 11251.400000
243.991300 47819.100000
244.004400 22630.500000
244.027300 57150.700000
244.999000 23808.200000
245.053100 28942.700000
245.987300 30262.500000
246.994900 64193.800000
247.014800 7732.500000
247.033300 33580.400000
247.049000 17805.200000
247.068500 8688.900000
248.002700 95680.200000
248.076000 6132.100000
249.011200 48477.200000
249.083700 85074.600000
250.020900 23679.700000
250.067300 9914.400000
251.008700 87345.800000
251.042900 4912.600000
251.062500 18090.300000
251.079100 10855.000000
252.016300 61462.400000
252.029200 6763.700000
253.001000 56800.600000
253.024200 61881.000000
254.011600 18286.900000
254.026700 5529.600000
255.020000 220512.700000
255.037500 28573.900000
256.003700 98802.100000
256.045300 9556.500000
256.058800 33570.100000
256.999400 33802.900000
257.014800 5912.900000
257.019500 5782.100000
257.035400 27214.900000
257.054800 19203.100000
258.007100 44707.400000
258.026500 20047.800000
258.040600 7835.500000
259.014900 37385.800000
259.049500 10437.700000
259.068200 8546.500000
260.003900 12139.400000
260.994200 34431.500000
261.010700 29775.400000
262.018300 38548.800000
262.035400 8189.300000
262.989800 57744.200000
263.007800 11259.900000
263.997900 12841.700000
264.987900 33321.400000
265.005600 10022.400000
265.044300 7146.900000
265.059000 68033.900000
267.039300 19114.100000
268.023900 21957.400000
269.019200 34476.900000
269.089900 17826.100000
270.041000 13152.100000
271.014900 609262.700000
271.069300 44765.400000
271.984900 40824.700000
272.001800 29539.500000
272.022300 71845.700000
272.069600 7422.200000
272.994000 34045.400000
273.010400 7033.600000
273.029900 15314.500000
273.047700 6226.000000
274.018600 31764.000000
275.026200 758608.300000
276.018000 22731.200000
276.033900 337934.200000
277.005600 33478.600000
279.003400 27156.900000
279.992400 16633.700000
280.011300 19262.300000
280.040000 17986.900000
281.036100 6304.000000
282.043500 10872.100000
283.015100 40133.800000
284.994000 4932.800000
285.049200 8463.300000
285.064800 16424.900000
287.046200 18694.700000
288.030600 45360.100000
289.025700 12646.200000
290.012700 7206.500000
290.984700 54861.400000
291.021100 132345.200000
291.992000 4500.300000
293.054600 11444.800000
294.008300 37069.400000
299.009800 274075.700000
300.017600 172416.400000
303.021200 134488.600000
304.011300 19125.400000
306.008600 5092.000000
308.024000 10479.300000
314.032700 4202.900000
315.041400 12755.700000
317.020700 30410.100000
319.016200 385762.600000
327.039500 5922.300000
327.058300 6602.100000
331.035500 18419.300000
335.048300 22571.000000

>ms2
53.002200 15446.700000
57.987200 13479.500000
58.995000 174087.100000
60.002800 156464.300000
61.010600 1186221.100000
62.969900 26609.200000
68.979300 23268.700000
68.994700 19893.900000
73.064700 12521.000000
76.021500 22611.800000
88.021400 5115.700000
96.005500 10261.600000
103.054200 14987.500000
107.029200 15377.400000
107.971400 15224.600000
114.033800 29397.100000
115.054200 41204.800000
116.049300 6569.900000
121.045000 4399.200000
122.040000 24120.500000
127.035400 14186.900000
127.054200 20852.000000
128.049600 41454.000000
128.062000 73640.900000
129.044700 44991.100000
129.070000 35490.200000
130.065100 15753.200000
131.060300 7883.600000
133.044800 80803.300000
134.039900 40701.700000
136.993200 18254.000000
139.001300 48360.200000
140.030700 12709.400000
140.049500 73988.200000
141.057400 12388.100000
142.065100 11976.000000
144.080800 10124.100000
145.064800 45098.900000
146.005900 110287.000000
146.040100 16834.200000
146.052700 34710.100000
146.060000 11253.200000
147.013700 5943.000000
147.035500 22076.900000
147.060400 54883.600000
148.055800 35812.300000
149.051100 24007.600000
151.035500 17182.000000
151.996700 18765.900000
152.030800 28085.100000
152.049900 13018.100000
153.004400 33040.100000
153.038300 11858.300000
153.045000 10874.100000
153.051200 8922.400000
154.065100 147625.200000
155.060400 98119.000000
156.068300 15784.700000
156.991900 16040.100000
158.021200 40949.400000
158.040100 52183.700000
159.035500 18646.400000
159.048000 27149.400000
159.055300 13240.100000
160.009200 5725.900000
160.043600 32543.700000
160.055700 34569.600000
161.016800 37879.200000
161.051000 15119.900000
163.055700 6262.700000
163.996400 66210.300000
164.030900 18899.800000
164.043300 10221.000000
165.025900 50474.900000
165.051600 9025.000000
166.012300 53537.000000
166.052900 11266.100000
167.041900 13929.600000
169.076500 9737.200000
170.021000 36929.200000
170.060000 30690.400000
171.035500 30685.800000
171.047900 12163.000000
172.021600 22786.300000
172.055700 53067.600000
173.016900 52779.300000
173.050900 44120.800000
173.070800 28494.200000
174.024700 22612.400000
174.071400 75823.700000
175.032200 10936.300000
175.066800 21385.400000
175.079700 10935.900000
177.004300 39654.100000
177.999600 38100.700000
178.012000 49116.500000
178.033500 16051.700000
178.046500 16831.800000
178.066400 23224.200000
179.007500 33527.500000
179.020300 5342.400000
179.041900 40742.000000
179.991300 9924.200000
180.062200 9242.200000
181.057300 10090.400000
181.076300 12473.600000
181.987100 62892.400000
182.041500 11457.800000
182.994600 24862.100000
183.043000 5280.400000
184.002500 121487.400000
184.023200 51311.800000
184.037000 13737.700000
184.055500 20664.500000
185.032000 33324.000000
185.051500 27586.900000
185.071300 9116.200000
186.017900 33656.300000
186.038100 7296.100000
186.059100 50281.900000
186.071200 5256.500000
187.031900 19669.300000
187.066700 39026.800000
187.996800 26144.600000
188.040900 7479.900000
188.050400 50754.900000
189.038300 29444.900000
190.012400 25399.300000
190.046300 60414.000000
191.007700 23428.300000
191.041700 130265.900000
191.061700 6878.300000
192.015500 21987.900000
192.027300 19472.400000
192.062000 14380.900000
192.082000 51273.400000
193.021600 121414.700000
193.077300 35353.100000
194.007300 16349.800000
194.021500 10039.700000
194.077400 12488.700000
194.993800 7261.200000
195.002500 16397.700000
195.016500 76884.000000
195.990400 114987.000000
196.002700 36722.400000
196.023500 16705.500000
196.998100 66717.700000
197.051800 53701.700000
198.005900 67435.500000
198.018200 17709.300000
198.990100 12696.200000
199.032800 20101.800000
199.048100 24258.300000
199.067300 25235.200000
199.086800 12635.300000
201.027400 19387.800000
201.047300 7100.300000
201.082200 35841.300000
201.993200 86129.100000
202.013200 9721.600000
202.046900 15022.400000
202.066500 13979.000000
203.043000 35841.500000
204.015300 51079.300000
204.028800 24739.200000
204.050400 8429.500000
204.062100 11663.900000
205.023100 107732.000000
205.041300 8556.600000
205.057100 39826.500000
206.041300 6188.000000
206.065100 73055.500000
207.001700 17747.300000
207.073100 11690.400000
208.002500 128628.400000
208.036000 6583.500000
208.056600 7646.700000
208.998100 160934.500000
209.052700 12255.900000
210.017300 5861.700000
210.038900 21257.300000
210.052700 35826.100000
211.013900 33485.900000
211.032900 35863.800000
211.047700 34198.100000
211.067600 5532.300000
211.997900 14139.900000
212.993600 43931.400000
213.027100 147437.800000
213.047300 11104.300000
214.013200 14123.600000
214.988700 293693.500000
215.007500 68332.600000
215.022600 25711.100000
215.061200 22410.500000
215.996500 65513.400000
216.049300 7802.800000
217.023400 25340.400000
217.057000 38568.600000
217.076600 7922.900000
218.030300 10617.500000
219.003000 6404.800000
219.037300 42276.600000
219.073000 13263.100000
219.983100 19977.500000
221.018200 66510.600000
221.032600 26584.500000
221.052200 11220.500000
221.088100 8499.600000
222.025700 28877.400000
222.040000 33635.400000
222.072800 13745.200000
223.013700 164769.400000
223.067900 19076.900000
223.997900 52360.300000
224.021400 69574.900000
224.055700 5055.500000
224.068400 8509.100000
224.993000 65922.300000
225.029100 149604.900000
225.981100 10226.000000
226.012100 7511.000000
226.988600 65633.000000
227.008600 32023.600000
227.996400 52401.800000
228.009300 52120.800000
228.062600 8925.300000
229.004400 96996.800000
229.017700 6513.600000
229.022500 12481.500000
229.058500 8657.700000
229.077400 10250.600000
229.988000 18119.800000
230.012000 89277.800000
230.044800 23902.100000
230.983900 9153.100000
231.002300 19304.000000
231.038400 38047.000000
231.054100 15140.100000
231.073300 6924.200000
232.010300 13470.800000
232.024200 6300.600000
232.979400 35892.100000
232.999200 94762.700000
233.018200 9394.300000
233.033300 38099.300000
233.052000 29436.700000
234.000700 11112.800000
234.005800 11474.200000
234.059800 13972.400000
234.995400 27679.500000
235.014000 87024.200000
235.033400 9079.600000
235.049000 13283.100000
235.067700 20695.200000
236.007200 6010.700000
236.020700 15847.500000
236.055200 6065.200000
236.993000 60574.000000
237.029100 14817.100000
237.063900 14692.900000
238.071600 4629.600000
239.008600 10490.500000
240.988000 12764.200000
241.004400 23009.700000
241.024100 35175.400000
242.012100 36319.600000
242.983500 154089.400000
243.019800 295431.800000
243.991000 28540.900000
244.004200 36989.100000
244.999200 40180.100000
245.053500 15317.000000
245.986800 29613.500000
246.021600 5157.100000
246.994800 46693.800000
247.014700 10531.500000
247.048600 6434.700000
248.002400 74610.100000
248.015800 12260.100000
249.011100 47561.600000
249.083400 7903.900000
250.020800 10048.800000
251.008600 80237.400000
251.043800 5387.500000
252.016100 20075.400000
252.028900 6545.500000
253.024400 17234.500000
254.012300 15879.300000
255.019900 130244.500000
255.037800 21680.400000
256.043900 4881.900000
256.059100 5719.700000
256.999400 26475.000000
257.013700 4248.900000
257.035900 13961.500000
258.007400 13161.000000
258.026400 16554.700000
258.040600 4102.500000
259.015000 13228.400000
260.994200 30283.500000
261.010600 29648.800000
262.018300 70689.500000
263.997300 9710.600000
264.988500 9780.500000
265.005300 7253.300000
265.059900 12531.400000
269.019100 22455.300000
270.979100 17128.800000
271.014700 310365.500000
271.984900 6699.200000
272.000000 29609.200000
272.022900 17174.700000
272.994200 26970.300000
273.010500 10112.700000
273.030200 8865.700000
274.018500 14706.400000
275.026000 247134.500000
276.018100 8478.600000
276.033700 49023.500000
277.005500 35341.000000
279.003700 15405.500000
279.992700 8745.300000
280.040000 5743.500000
283.015300 8274.000000
288.030300 4400.800000
289.025100 9533.800000
290.985000 13747.600000
291.020800 68123.900000
291.992600 5071.500000
294.008200 46898.000000
299.009800 79916.600000
300.017400 18132.800000
317.020700 12956.100000
319.016000 46539.600000

