>compound LU99032436
>parentmass 250.08629999999997
>ionization [M+H]+
>formula C16H11NO2
>rt 1022.350000
>profile orbitrap
#smiles_iso C1=CC=C(C=C1)C2=NC3=CC=CC=C3C(=C2)C(=O)O
#smiles_can C1=CC=C(C=C1)C2=NC3=CC=CC=C3C(=C2)C(=O)O
#inchikey YTRMTPPVNRALON-UHFFFAOYSA-N
#pubchem_id 8593
#mb_accession LU105101,LU105102,LU105103,LU105104,LU105105,LU105106

>ms2
249.078500 12740.800000
250.086100 10797955.000000

>ms2
205.088200 12667.000000
249.078300 15841.900000
250.086100 10898273.000000

>ms2
116.049300 14824.200000
128.049300 61005.200000
146.060000 43187.500000
162.054700 13253.100000
204.080700 91333.500000
205.088600 16600.300000
206.096400 322534.900000
222.091300 369236.000000
249.078800 11408.400000
250.086000 9601511.000000

>ms2
89.038500 23461.700000
91.054200 14030.200000
95.049100 12017.500000
103.054100 13950.600000
105.033500 50482.300000
116.049500 262056.200000
119.049100 6204.100000
120.044400 11314.700000
128.049400 999904.200000
130.028700 56988.800000
131.036600 5224.800000
132.044500 12852.800000
134.060000 80754.700000
144.044400 33566.600000
146.060000 460763.100000
148.075700 9456.100000
160.075700 18293.000000
162.054900 246527.200000
167.085400 8109.300000
172.039200 64203.200000
176.071000 6136.200000
177.070000 7943.800000
178.077500 6897.600000
180.081000 8254.100000
191.073100 5970.800000
193.088000 5154.000000
194.096700 14567.700000
203.073500 11689.700000
204.080900 504280.600000
205.088600 33240.400000
206.096400 1357185.500000
217.088700 13421.500000
222.091400 1773648.200000
232.075700 9802.500000
237.078500 16582.500000
249.079200 5284.500000
250.086200 5075261.500000

>ms2
50.015100 2921.900000
53.038600 35732.300000
55.018000 3744.500000
63.022700 2948.800000
65.038600 9099.600000
74.014900 4310.100000
75.022800 16412.700000
77.038400 31719.300000
89.038600 214519.200000
91.054300 111429.000000
92.049500 29648.300000
94.041300 3123.700000
95.049200 112076.700000
101.038600 18412.900000
102.046600 5510.400000
103.054200 63363.300000
104.049400 9423.500000
105.033500 73022.800000
116.049500 927229.800000
117.033300 8356.400000
117.057200 4266.000000
118.041500 3371.200000
119.049100 53339.600000
120.044400 43587.600000
127.041500 4595.900000
128.049500 2824137.500000
130.028800 149154.500000
130.039900 21583.900000
131.036700 21011.300000
132.044500 32305.300000
134.060000 226560.000000
144.044400 97494.300000
146.060000 916947.900000
148.075600 24052.000000
152.062000 7158.400000
153.069700 5662.400000
154.028600 8964.300000
160.075600 57006.200000
162.054900 755183.900000
165.069700 8458.700000
167.072800 4365.700000
167.085600 33969.600000
169.064700 5508.200000
172.039200 61438.900000
176.062000 28642.800000
176.070600 13755.600000
177.069900 55417.300000
178.065300 4939.200000
178.077700 22059.200000
180.080800 30463.700000
191.073000 14566.900000
193.088400 24260.300000
194.096300 41928.300000
196.075900 3910.300000
202.065000 6177.000000
203.073100 88787.500000
204.080900 760320.100000
205.088600 40050.400000
206.096400 1050937.200000
217.088300 10020.200000
220.075200 4848.600000
222.091400 1588027.600000
237.078400 34854.100000
250.086200 1087988.200000

>ms2
50.015100 4666.700000
53.038600 117782.300000
55.017800 8142.000000
63.022900 9595.500000
65.038500 43274.700000
75.022900 97351.700000
77.038500 100791.000000
81.033500 14190.300000
89.038600 754754.100000
91.054300 296817.000000
92.049500 59662.100000
94.041200 14556.000000
95.049200 328600.700000
101.038600 91061.000000
102.046400 9556.900000
103.054300 72751.100000
104.049300 7139.200000
105.033600 58263.100000
116.049500 1486849.900000
117.033400 15861.300000
117.057100 10279.600000
118.041400 6006.600000
119.049200 214838.200000
120.044400 58494.000000
127.041500 20660.300000
128.049500 3189226.800000
130.028800 146943.900000
130.039900 86651.900000
131.036600 18273.300000
132.044300 30452.500000
134.060000 316755.600000
144.044400 99302.000000
146.060000 716910.800000
148.075700 37607.700000
152.062200 27036.600000
153.069800 7374.600000
154.028900 14121.800000
160.075700 62370.400000
162.054900 708344.000000
165.069900 24223.000000
167.072900 10485.500000
167.085500 42138.300000
169.064900 22552.000000
172.039400 22737.800000
176.062200 119722.900000
176.070500 11524.900000
177.069900 83396.800000
178.065200 9572.300000
178.077700 48923.900000
180.080600 29417.800000
191.072500 14254.800000
193.088700 43444.600000
194.096500 30709.700000
196.075800 6119.700000
202.065200 7914.900000
203.073000 194419.000000
204.080900 648067.700000
205.088600 27776.800000
206.096400 321170.500000
217.088200 4566.000000
220.075600 10686.000000
222.091400 539946.000000
237.078700 18711.800000
250.086200 115890.400000

