>compound LU99199064
>parentmass 273.0969
>ionization [M+H]+
>formula C12H16O7
>rt 702.600000
>profile orbitrap
#smiles_iso C1=CC(=CC=C1O)O[C@H]2[C@@H]([C@H]([C@@H]([C@H](O2)CO)O)O)O
#smiles_can C1=CC(=CC=C1O)OC2C(C(C(C(O2)CO)O)O)O
#inchikey BJRNKVDFDLYUGJ-RMPHRYRLSA-N
#pubchem_id 440936
#mb_accession LU133505,LU133506

>ms2
53.038600 2949.000000
65.038600 36202.500000
66.046400 7683.000000
115.054800 2580.700000
157.010900 5748.800000

>ms2
53.038600 4991.800000
65.038500 86048.000000
66.046300 28740.600000
115.054600 2052.300000
157.010900 3861.800000

