>compound AU00703972
>parentmass 434.93140000000005
>ionization [M-H]-
>formula C12H4Cl2F6N4OS
>rt 626.952000
>profile qtof
#smiles_iso C1=C(C=C(C(=C1Cl)N2C(=C(C(=N2)C#N)S(=O)C(F)(F)F)N)Cl)C(F)(F)F
#smiles_can C1=C(C=C(C(=C1Cl)N2C(=C(C(=N2)C#N)S(=O)C(F)(F)F)N)Cl)C(F)(F)F
#inchikey ZOCSXAVNDGMNBV-UHFFFAOYSA-N
#pubchem_id 3352
#mb_accession AU241357,AU241358,AU241359,AU241360,AU241362,AU346451,AU346452,AU346453,AU346454,AU346455

>ms2
249.958100 2548.000000
317.967500 6588.000000
319.965900 3356.000000
329.959500 506180.000000
330.960900 34212.000000
331.955900 109848.000000
332.960200 15596.000000
334.957200 2632.000000
365.934800 24896.000000
366.937100 2556.000000
367.932100 14264.000000
398.954100 84192.000000
399.957700 8856.000000
400.950300 21688.000000
434.931200 134412.000000
435.932300 13464.000000
436.927600 88752.000000

>ms2
170.010100 6056.000000
217.985700 6696.000000
243.988500 6624.000000
249.958500 79732.000000
250.960500 4876.000000
251.954800 16280.000000
277.952900 38168.000000
278.956500 3392.000000
279.949800 8812.000000
280.955500 6216.000000
281.991200 7408.000000
287.961400 3372.000000
317.969000 112156.000000
318.971100 9616.000000
319.965600 54468.000000
329.959900 632064.000000
330.961500 46620.000000
331.956500 147112.000000
332.959100 12568.000000
364.925400 3860.000000
365.935400 26176.000000
366.934800 3448.000000
367.932600 16268.000000
398.953800 4372.000000

>ms2
150.003100 884.000000
163.012000 868.000000
170.009200 20504.000000
171.011600 1244.000000
182.009000 5200.000000
183.017200 28724.000000
184.018800 1616.000000
208.956500 896.000000
212.948500 832.000000
216.978200 900.000000
217.985700 21524.000000
218.989400 1256.000000
219.983000 4944.000000
233.980300 3568.000000
235.977600 804.000000
242.982400 2020.000000
243.988400 18516.000000
244.921100 944.000000
244.989800 1272.000000
245.984900 5064.000000
249.958500 153376.000000
250.960100 10020.000000
251.954700 37248.000000
252.958200 2036.000000
253.985100 5372.000000
255.982600 1264.000000
262.952100 1232.000000
267.988000 8596.000000
268.988900 1020.000000
269.986700 1764.000000
275.957900 776.000000
277.953300 134552.000000
278.955700 8408.000000
279.949300 30492.000000
280.954800 7252.000000
281.991600 37712.000000
282.950500 1412.000000
282.995400 3064.000000
283.987900 7844.000000
284.993400 1000.000000
287.960300 6444.000000
289.958300 2244.000000
303.953500 936.000000
303.961300 1112.000000
317.968700 93320.000000
318.970600 8592.000000
319.965500 51216.000000
320.968400 3264.000000
321.961500 2724.000000
329.959000 101360.000000
330.962500 8540.000000
331.955700 24444.000000
332.957800 3824.000000
334.951800 1012.000000
348.934100 1492.000000
350.932000 840.000000
350.985400 2820.000000
365.935500 924.000000

>ms2
143.004000 2660.000000
148.991500 1052.000000
150.002400 1296.000000
163.011100 9060.000000
164.014500 756.000000
170.009500 19548.000000
171.012800 1040.000000
182.009200 21612.000000
183.017700 132588.000000
184.019300 6432.000000
201.997900 1804.000000
208.957900 840.000000
212.948000 4624.000000
214.945100 2284.000000
216.976700 1820.000000
217.985700 22984.000000
218.988000 1864.000000
219.982400 5180.000000
233.979400 4528.000000
235.974700 1300.000000
242.982900 1824.000000
243.988700 27612.000000
244.921500 1076.000000
244.990300 2136.000000
245.986200 5700.000000
246.013800 1072.000000
249.958400 108712.000000
250.960800 7440.000000
251.954900 28024.000000
252.957000 1740.000000
253.985100 11244.000000
254.990200 1552.000000
255.985300 3412.000000
262.947900 1324.000000
264.946900 860.000000
267.988900 18128.000000
268.991400 1904.000000
269.984900 3424.000000
271.982600 1352.000000
277.952900 89140.000000
278.954900 6176.000000
279.949500 20856.000000
280.954700 4632.000000
281.992300 42748.000000
282.952300 700.000000
282.995100 4364.000000
283.988200 9844.000000
284.992200 936.000000
287.959700 5576.000000
288.962600 884.000000
289.956000 2024.000000
303.954400 2224.000000
317.968200 14096.000000
318.970300 1496.000000
319.966400 8232.000000
320.971800 804.000000
329.957800 5924.000000
330.961600 768.000000
331.954200 1832.000000
332.957100 1192.000000
334.954500 836.000000
348.931500 832.000000
350.927100 744.000000
350.990900 1052.000000

>ms2
50.002500 504.000000
76.005500 588.000000
81.974800 1040.000000
84.989200 1724.000000
88.005200 1548.000000
113.012700 892.000000
143.005800 1464.000000
148.989900 416.000000
150.000700 640.000000
163.011100 4176.000000
170.009700 19984.000000
171.012400 1284.000000
182.009900 8044.000000
183.017700 59024.000000
184.019900 3276.000000
201.996400 516.000000
208.958500 672.000000
212.949800 2104.000000
214.943300 672.000000
216.976400 1292.000000
217.985800 8908.000000
218.986100 952.000000
219.981700 1548.000000
233.980000 5992.000000
235.977800 732.000000
242.984200 1188.000000
243.988000 16144.000000
244.923100 496.000000
244.989500 1768.000000
245.984300 2780.000000
246.014500 480.000000
249.958200 82396.000000
250.960400 7636.000000
251.955000 18716.000000
252.956100 1104.000000
253.986500 5940.000000
254.985300 656.000000
255.986200 1452.000000
262.949300 760.000000
267.989100 10664.000000
268.989000 1156.000000
269.984900 1700.000000
271.983100 788.000000
277.952700 67268.000000
278.955700 4948.000000
279.949500 10260.000000
280.957100 3740.000000
281.991600 25204.000000
282.952500 752.000000
282.996600 3376.000000
283.988400 4424.000000
284.994000 496.000000
287.960400 4412.000000
288.961600 504.000000
288.968000 452.000000
289.959100 764.000000
303.954600 1188.000000
317.968400 46372.000000
318.971000 5484.000000
319.965600 20644.000000
320.972000 1032.000000
321.960700 560.000000
329.958400 51364.000000
330.960000 5596.000000
331.955800 8380.000000
332.953200 1524.000000
334.949200 416.000000
348.930100 880.000000
348.945800 472.000000
350.926700 472.000000
350.986600 1044.000000
364.919900 480.000000
365.935700 548.000000

>ms2
329.959100 2080.000000
331.959000 348.000000
398.954600 1052.000000
434.931100 3280.000000
435.934800 368.000000
436.927500 1356.000000

>ms2
249.957300 596.000000
277.953700 500.000000
317.969100 876.000000
329.960400 7508.000000
331.957800 1680.000000
365.936300 1096.000000
398.950300 328.000000

>ms2
170.009900 692.000000
183.018200 328.000000
243.988900 356.000000
249.958000 2252.000000
277.954100 1268.000000
281.993700 396.000000
317.968900 1488.000000
329.960400 2128.000000
331.954600 412.000000

>ms2
170.010000 656.000000
182.009700 348.000000
183.018600 1480.000000
217.987400 536.000000
243.988500 420.000000
249.959600 2008.000000
251.957200 456.000000
277.954000 1304.000000
279.951900 360.000000
281.992800 764.000000
317.972300 404.000000
329.957900 320.000000

>ms2
163.011700 552.000000
170.008700 436.000000
182.010900 672.000000
183.017700 2952.000000
184.021100 308.000000
217.987400 320.000000
243.988600 428.000000
249.958500 844.000000
251.955700 496.000000
267.988400 452.000000
277.954700 632.000000
281.989200 476.000000

