>compound AU01042941
>parentmass 555.2898
>ionization [M-H]-
>formula C31H44N2O5S
>rt 763.704000
>profile qtof
#smiles_iso CCCCC1=C(C2=C(O1)C=CC(=C2)NS(=O)(=O)C)C(=O)C3=CC=C(C=C3)OCCCN(CCCC)CCCC
#smiles_can CCCCC1=C(C2=C(O1)C=CC(=C2)NS(=O)(=O)C)C(=O)C3=CC=C(C=C3)OCCCN(CCCC)CCCC
#inchikey ZQTNQVWKHCQYLQ-UHFFFAOYSA-N
#pubchem_id 208898
#mb_accession AU218151,AU218152,AU218153,AU218154,AU218155

>ms2
555.284200 1788.000000
556.283700 724.000000

>ms2
555.284500 2236.000000
556.285100 624.000000

>ms2
555.282500 2276.000000
556.285200 932.000000

>ms2
555.280200 1320.000000
556.283300 520.000000

>ms2
306.110500 396.000000
307.118900 360.000000
308.124900 684.000000
356.057500 472.000000
555.286100 444.000000

