>compound AU01922591
>parentmass 423.2388
>ionization [M-H]-
>formula C23H36O7
>rt 427.530000
>profile qtof
#smiles_iso CCC(C)C(=O)OC1CC(C=C2C1C(C(C=C2)C)CCC(CC(CC(=O)O)O)O)O
#smiles_can CCC(C)C(=O)OC1CC(C=C2C1C(C(C=C2)C)CCC(CC(CC(=O)O)O)O)O
#inchikey TUZYXOIXSAXUGO-UHFFFAOYSA-N
#pubchem_id 4889
#mb_accession AU234257,AU234258

>ms2
321.168600 656.000000
423.238600 3932.000000
424.241200 1124.000000

>ms2
303.156700 1224.000000
321.174200 1456.000000
322.177100 484.000000
423.235600 908.000000

