>compound AU03631843
>parentmass 312.9708
>ionization [M-H]-
>formula C13H9Cl3N2O
>rt 710.076000
>profile qtof
#smiles_iso C1=CC(=CC=C1NC(=O)NC2=CC(=C(C=C2)Cl)Cl)Cl
#smiles_can C1=CC(=CC=C1NC(=O)NC2=CC(=C(C=C2)Cl)Cl)Cl
#inchikey ICUTUKXCWQYESQ-UHFFFAOYSA-N
#pubchem_id 7547
#mb_accession AU241757,AU241758,AU241759,AU241760,AU241762

>ms2
126.011600 3796.000000
128.009700 860.000000
159.973500 106864.000000
160.975500 8332.000000
161.970100 53224.000000
162.972700 2004.000000
163.966000 1976.000000
312.968300 3012.000000
314.967300 2520.000000

>ms2
123.996200 848.000000
126.011500 6724.000000
127.014500 524.000000
128.008300 1836.000000
159.972900 72216.000000
160.975200 4980.000000
161.969700 35592.000000
162.973600 1388.000000
163.965900 1608.000000

>ms2
123.997900 1148.000000
125.991600 440.000000
126.011800 5388.000000
127.014300 408.000000
128.008500 1680.000000
159.972500 24440.000000
160.975100 2004.000000
161.969400 14996.000000
162.971500 608.000000
163.967200 624.000000

>ms2
123.995700 804.000000
126.011300 2664.000000
128.008100 1052.000000
159.972300 9852.000000
160.974900 1048.000000
162.970300 300.000000
163.966600 348.000000

>ms2
123.994800 1284.000000
126.011600 9256.000000
127.014200 480.000000
128.008900 1620.000000
159.973200 44004.000000
160.975300 2476.000000
161.970500 14460.000000
162.973200 352.000000
203.965500 472.000000

