>compound AU04668131
>parentmass 182.0046
>ionization [M-H]-
>formula C4H10NO3PS
>rt 175.620000
>profile qtof
#smiles_iso CC(=O)NP(=O)(OC)SC
#smiles_can CC(=O)NP(=O)(OC)SC
#inchikey YASYVMFAVPKPKE-UHFFFAOYSA-N
#pubchem_id 1982
#mb_accession AU311151

>ms2peaks
140.975900 484.000000
182.002700 732.000000

