>compound AU04044189
>parentmass 247.0047
>ionization [M-H]-
>formula C9H10Cl2N2O2
>rt 555.570000
>profile qtof
#smiles_iso CN(C(=O)NC1=CC(=C(C=C1)Cl)Cl)OC
#smiles_can CN(C(=O)NC1=CC(=C(C=C1)Cl)Cl)OC
#inchikey XKJMBINCVNINCA-UHFFFAOYSA-N
#pubchem_id 9502
#mb_accession AU232357,AU232358,AU232359,AU232360

>ms2
123.995300 344.000000
159.972100 22548.000000
160.975300 2264.000000
161.968900 13284.000000
162.974600 720.000000
185.954800 856.000000
187.950700 372.000000
214.978200 2492.000000
216.975600 1204.000000
231.978800 2544.000000
232.985000 420.000000
233.977300 1728.000000
247.004200 2592.000000
248.999400 1384.000000

>ms2
123.996400 416.000000
158.963400 308.000000
159.972300 7044.000000
160.973700 784.000000
161.969100 4556.000000
185.953200 324.000000
187.946500 416.000000
199.954200 480.000000
214.977300 4136.000000
215.978700 624.000000
216.974300 1896.000000
231.980900 624.000000

>ms2
159.971600 2076.000000
161.969600 1220.000000
199.957700 840.000000
201.952000 756.000000
214.977200 2728.000000
215.982600 312.000000
216.974500 1624.000000

>ms2
159.973200 340.000000
199.954600 1540.000000
201.952700 904.000000
214.982700 756.000000
216.972800 444.000000

