>compound AU04578064
>parentmass 237.1245
>ionization [M-H]-
>formula C12H18N2O3
>rt 491.040000
>profile qtof
#smiles_iso CCCC(C)C1(C(=O)NC(=O)NC1=O)CC=C
#smiles_can CCCC(C)C1(C(=O)NC(=O)NC1=O)CC=C
#inchikey KQPKPCNLIDLUMF-UHFFFAOYSA-N
#pubchem_id 5193
#mb_accession AU230757

>ms2
194.120600 544.000000
237.123500 2348.000000

