>compound AU05518472
>parentmass 662.9505
>ionization [M-H]-
>formula C13HF25O2
>rt 750.840000
>profile qtof
#smiles_iso C(=O)(C(C(C(C(C(C(C(C(C(C(C(C(F)(F)F)(F)F)(F)F)(F)F)(F)F)(F)F)(F)F)(F)F)(F)F)(F)F)(F)F)(F)F)O
#smiles_can C(=O)(C(C(C(C(C(C(C(C(C(C(C(C(F)(F)F)(F)F)(F)F)(F)F)(F)F)(F)F)(F)F)(F)F)(F)F)(F)F)(F)F)(F)F)O
#inchikey LVDGGZAZAYHXEY-UHFFFAOYSA-N
#pubchem_id 3018355
#mb_accession AU595350,AU595351,AU595352,AU595353,AU595354

>ms2
618.960900 11228.000000
619.961900 704.000000
662.951200 4952.000000

>ms2
168.988700 868.000000
218.984800 1460.000000
268.981900 1660.000000
318.979900 1860.000000
368.976900 864.000000
418.972800 440.000000
618.960800 17748.000000
619.962800 696.000000

>ms2
168.989500 5088.000000
218.986500 2844.000000
268.982600 2204.000000
318.979000 1412.000000
368.974900 896.000000
418.976000 416.000000
618.959200 528.000000

>ms2
168.988700 4068.000000
218.984500 896.000000
268.980400 456.000000

>ms2
168.988700 2320.000000

