>compound AU06387364
>parentmass 494.3851
>ionization [M-H]-
>formula C29H53NO5
>rt 869.220000
>profile qtof
#smiles_iso CCCCCCCCCCC[C@@H](C[C@H]1[C@@H](C(=O)O1)CCCCCC)OC(=O)[C@H](CC(C)C)NC=O
#smiles_can CCCCCCCCCCCC(CC1C(C(=O)O1)CCCCCC)OC(=O)C(CC(C)C)NC=O
#inchikey AHLBNYSZXLDEJQ-FWEHEUNISA-N
#pubchem_id 3034010
#mb_accession AU236257,AU236258,AU236259,AU236260

>ms2peaks
140.071100 4948.000000
141.072400 480.000000
158.082300 10492.000000
159.085400 952.000000
266.176700 1088.000000
450.396500 400.000000
494.378400 496.000000

>ms2peaks
140.071100 4808.000000
141.073300 368.000000
158.082800 10164.000000
159.085000 1228.000000
266.174600 764.000000

>ms2peaks
140.071800 3456.000000
141.073500 356.000000
158.081700 8236.000000
159.085300 716.000000
238.180100 312.000000
266.173000 380.000000
266.182600 452.000000

>ms2peaks
140.071500 1460.000000
158.081600 3640.000000
159.088500 412.000000
238.179800 508.000000

