>compound AU07940697
>parentmass 492.1365
>ionization [M-H]-
>formula C23H28ClN3O5S
>rt 562.245000
>profile qtof
#smiles_iso COC1=C(C=C(C=C1)Cl)C(=O)NCCC2=CC=C(C=C2)S(=O)(=O)NC(=O)NC3CCCCC3
#smiles_can COC1=C(C=C(C=C1)Cl)C(=O)NCCC2=CC=C(C=C2)S(=O)(=O)NC(=O)NC3CCCCC3
#inchikey ZNNLBTZKUZBEKO-UHFFFAOYSA-N
#pubchem_id 3488
#mb_accession AU235457,AU235458,AU235459,AU235460

>ms2peaks
367.054700 1268.000000
368.059600 320.000000
369.054900 492.000000
492.135100 8820.000000
493.136100 1912.000000
494.131100 3316.000000

>ms2peaks
170.001000 5160.000000
171.004700 576.000000
171.999500 1496.000000
367.051500 5784.000000
368.055100 1244.000000
369.048800 2240.000000
378.026500 756.000000
378.038800 640.000000
460.108300 1260.000000
462.104700 344.000000
492.135800 4192.000000
493.142000 664.000000
494.130300 1588.000000

>ms2peaks
126.996000 852.000000
128.990500 392.000000
170.000800 17424.000000
171.004000 1244.000000
171.998500 4324.000000
172.998300 472.000000
184.043700 348.000000
196.043500 336.000000
224.052000 404.000000
367.047600 2456.000000
368.053700 496.000000
369.047200 680.000000
378.033900 968.000000
492.136000 376.000000

>ms2peaks
126.997800 1704.000000
128.991500 660.000000
151.989600 844.000000
170.000400 10880.000000
170.026700 600.000000
171.005600 1076.000000
171.997100 3232.000000
184.041300 620.000000
224.049900 512.000000
225.029900 420.000000
378.033900 316.000000

