>compound AU09705497
>parentmass 239.0673
>ionization [M-H]-
>formula C10H12N2O5
>rt 478.035000
>profile qtof
#smiles_iso CCC(C)C1=C(C(=CC(=C1)[N+](=O)[O-])[N+](=O)[O-])O
#smiles_can CCC(C)C1=C(C(=CC(=C1)[N+](=O)[O-])[N+](=O)[O-])O
#inchikey OWZPCEFYPSAJFR-UHFFFAOYSA-N
#pubchem_id 6950
#mb_accession AU233057,AU233058,AU233059,AU233060

>ms2
193.025200 9396.000000
194.046100 17864.000000
222.063800 4888.000000
239.067800 879744.000000
240.070500 96808.000000
241.071700 8912.000000

>ms2
134.024100 5880.000000
136.039800 2060.000000
151.075800 7248.000000
163.027200 5492.000000
164.033800 2132.000000
164.044400 2428.000000
176.034800 11252.000000
177.041500 5260.000000
178.049700 6180.000000
179.070700 9824.000000
180.029400 7020.000000
180.074200 1592.000000
191.058000 2316.000000
192.066700 29104.000000
193.025600 125236.000000
194.026800 9456.000000
194.045600 114264.000000
195.048500 13164.000000
207.040400 17492.000000
208.059700 5044.000000
209.019500 11100.000000
209.068700 8836.000000
210.027500 10664.000000
221.055700 8292.000000
222.063500 23056.000000
223.067700 3236.000000
239.067500 297676.000000
240.070000 40496.000000
241.071800 3108.000000

>ms2
121.029900 1992.000000
122.037900 1372.000000
134.025000 33216.000000
135.031900 7988.000000
136.039400 5464.000000
137.047800 1036.000000
138.019000 816.000000
146.024900 916.000000
146.035700 1168.000000
147.044500 1940.000000
148.040900 1492.000000
149.024700 1968.000000
149.047900 1012.000000
150.032400 1876.000000
150.056200 1580.000000
151.027900 952.000000
151.076100 8504.000000
152.034700 980.000000
152.079300 1180.000000
160.039200 1184.000000
162.019900 5428.000000
162.068400 1484.000000
163.027600 24208.000000
164.033700 4900.000000
164.045900 6220.000000
165.051700 1052.000000
174.054300 972.000000
176.034800 16020.000000
177.042100 13500.000000
178.050900 15472.000000
179.023100 1864.000000
179.052700 1752.000000
179.070100 3976.000000
180.030300 4456.000000
181.035200 936.000000
190.051400 1892.000000
191.058400 872.000000
192.066200 28708.000000
193.025700 136044.000000
194.027700 12632.000000
194.045400 59204.000000
195.029200 1328.000000
195.049200 7304.000000
196.050000 788.000000
207.040600 16052.000000
208.058000 3896.000000
209.019900 24564.000000
209.068000 1564.000000
210.024900 3416.000000
221.058000 1756.000000
222.063300 3844.000000
239.067000 10500.000000

>ms2
121.029400 3892.000000
122.036800 1620.000000
133.028700 736.000000
134.024900 127672.000000
135.030700 19468.000000
136.039300 6460.000000
138.020100 1512.000000
145.028600 1536.000000
146.035600 2216.000000
147.044100 2760.000000
148.040100 5880.000000
149.024400 3440.000000
149.048700 1596.000000
150.029700 1412.000000
150.054400 1940.000000
151.026400 1512.000000
151.076600 2688.000000
159.031700 680.000000
160.042400 1316.000000
162.018900 11984.000000
162.069100 640.000000
163.026800 21556.000000
164.033600 4424.000000
164.044200 4716.000000
176.034000 10420.000000
177.041600 7956.000000
178.049800 10060.000000
179.021500 2904.000000
179.055000 1684.000000
180.030300 1580.000000
190.049200 856.000000
192.066000 5388.000000
193.024800 26700.000000
194.044800 10224.000000
195.048100 1176.000000
207.041300 2780.000000
208.058500 732.000000
209.019200 14900.000000
210.024200 1616.000000

