>compound AU09708139
>parentmass 356.9428
>ionization [M-H]-
>formula C14H9Cl3N2OS
>rt 701.400000
>profile qtof
#smiles_iso CSC1=NC2=CC(=C(C=C2N1)Cl)OC3=C(C(=CC=C3)Cl)Cl
#smiles_can CSC1=NC2=CC(=C(C=C2N1)Cl)OC3=C(C(=CC=C3)Cl)Cl
#inchikey NQPDXQQQCQDHHW-UHFFFAOYSA-N
#pubchem_id 50248
#mb_accession AU106751,AU106752,AU106753,AU106754,AU106755

>ms2peaks
196.957300 5828.000000
197.961600 400.000000
211.980300 408.000000
341.923300 304.000000

>ms2peaks
165.994300 472.000000
196.957700 7612.000000
198.953800 1432.000000
211.980900 596.000000
341.918400 324.000000
343.915300 344.000000

>ms2peaks
165.993900 592.000000
196.958100 11824.000000
198.956200 1832.000000
211.981300 848.000000
341.920300 636.000000
343.914900 488.000000

>ms2peaks
165.994700 404.000000
196.957700 10884.000000
198.954800 2024.000000
211.981100 680.000000
341.917000 512.000000

>ms2peaks
165.992700 380.000000
196.957200 10464.000000
197.960900 632.000000
211.982000 768.000000
341.917900 484.000000

