>compound AU09364677
>parentmass 244.9082
>ionization [M-H]-
>formula C8HCl3N2O
>rt 448.590000
>profile qtof
#smiles_iso C(#N)C1=C(C(=C(C(=C1Cl)C#N)Cl)Cl)O
#smiles_can C(#N)C1=C(C(=C(C(=C1Cl)C#N)Cl)Cl)O
#inchikey MDQKYGOECVSPIW-UHFFFAOYSA-N
#pubchem_id 34217
#mb_accession AU232457,AU232458,AU232459,AU232460

>ms2peaks
244.908200 195668.000000
245.910300 22676.000000
246.905300 184960.000000

>ms2peaks
146.975000 912.000000
150.968400 1328.000000
174.970000 6740.000000
176.966300 1488.000000
181.944700 1548.000000
183.940700 792.000000
209.937700 3448.000000
211.936400 1652.000000
244.908400 128392.000000
245.910800 16528.000000
246.905300 121216.000000

>ms2peaks
134.975300 660.000000
146.976700 3640.000000
147.980100 356.000000
148.973000 676.000000
150.970000 1848.000000
152.965000 656.000000
174.970400 9336.000000
175.974100 1200.000000
176.967100 2276.000000
181.943200 3536.000000
183.942300 1656.000000
197.939100 1540.000000
199.934000 804.000000
209.938600 2172.000000
210.944300 332.000000
211.937600 1124.000000
216.908900 432.000000
244.907400 15848.000000
245.913100 1992.000000
246.904100 15232.000000

>ms2peaks
134.975100 400.000000
146.975400 5176.000000
147.978300 476.000000
148.972500 1172.000000
150.970200 688.000000
174.970100 4056.000000
175.973300 548.000000
176.966700 1172.000000
181.945500 1692.000000
183.940600 636.000000
197.938500 460.000000
199.938500 372.000000
209.938800 448.000000
244.907100 1484.000000
246.904400 920.000000

