>compound AU09306016
>parentmass 193.087
>ionization [M-H]-
>formula C11H14O3
>rt 564.990000
>profile qtof
#smiles_iso CCCCOC(=O)C1=CC=C(C=C1)O
#smiles_can CCCCOC(=O)C1=CC=C(C=C1)O
#inchikey QFOHBWFCKVYLES-UHFFFAOYSA-N
#pubchem_id 7184
#mb_accession AU236857,AU236858,AU236859,AU236862

>ms2
136.016100 11348.000000
137.024000 13280.000000
138.027400 1516.000000
193.086800 127148.000000
194.089600 16464.000000
195.090100 1180.000000

>ms2
136.016500 8412.000000
137.024200 7932.000000
138.027400 972.000000
193.085800 9192.000000
194.087900 1724.000000

>ms2
121.030600 468.000000
136.014700 588.000000
137.023900 644.000000
193.085500 364.000000

>ms2
70.005300 432.000000
71.049100 2184.000000
82.004100 792.000000
91.017900 1248.000000
92.025100 5124.000000
93.032800 13188.000000
94.035300 452.000000
95.011500 4788.000000
108.020300 3092.000000
121.028700 728.000000
123.008300 1080.000000
136.017000 8992.000000
137.024200 7444.000000
138.026900 444.000000
193.086800 7700.000000
194.090300 1148.000000

