>compound AU10952067
>parentmass 305.0968
>ionization [M-H]-
>formula C13H12F2N6O
>rt 305.190000
>profile qtof
#smiles_iso C1=CC(=C(C=C1F)F)C(CN2C=NC=N2)(CN3C=NC=N3)O
#smiles_can C1=CC(=C(C=C1F)F)C(CN2C=NC=N2)(CN3C=NC=N3)O
#inchikey RFHAOTPXVQNOHP-UHFFFAOYSA-N
#pubchem_id 3365
#mb_accession AU235257,AU235258,AU235259,AU235260

>ms2
149.056900 300.000000
191.068500 31244.000000
192.070400 3060.000000
193.075200 312.000000
222.043200 580.000000
305.093800 404.000000

>ms2
122.036600 488.000000
191.068700 15944.000000
192.070600 2336.000000
222.048700 540.000000

>ms2
122.040200 376.000000
191.068400 3788.000000
192.073600 564.000000
202.036500 396.000000
222.047600 324.000000

>ms2
191.066300 1068.000000

