>compound AU11666775
>parentmass 426.96790000000004
>ionization [M-H]-
>formula C8H5F13O3S
>rt 578.802857
>profile qtof
#smiles_iso C(CS(=O)(=O)O)C(C(C(C(C(C(F)(F)F)(F)F)(F)F)(F)F)(F)F)(F)F
#smiles_can C(CS(=O)(=O)O)C(C(C(C(C(C(F)(F)F)(F)F)(F)F)(F)F)(F)F)(F)F
#inchikey VIONGDJUYAYOPU-UHFFFAOYSA-N
#pubchem_id 119688
#mb_accession AU230457,AU230458,AU230459,AU230460,AU594250,AU594251,AU594252

>ms2
426.965900 9116.000000
427.977700 768.000000
428.959100 428.000000

>ms2
406.959200 1036.000000
406.971700 1040.000000
426.966600 8652.000000
427.975900 916.000000

>ms2
386.950400 412.000000
406.960400 4128.000000
407.960000 364.000000
426.970300 2228.000000

>ms2
386.962300 384.000000
406.961100 1352.000000

>ms2
426.967700 1364.000000

>ms2
426.966000 1372.000000

>ms2
406.960700 580.000000

