>compound AU11953060
>parentmass 220.0283
>ionization [M-H]-
>formula C10H8ClN3O
>rt 316.920000
>profile qtof
#smiles_iso C1=CC=C(C=C1)N2C(=O)C(=C(C=N2)N)Cl
#smiles_can C1=CC=C(C=C1)N2C(=O)C(=C(C=N2)N)Cl
#inchikey WYKYKTKDBLFHCY-UHFFFAOYSA-N
#pubchem_id 15546
#mb_accession AU231757,AU231758

>ms2
144.058100 400.000000
150.011200 768.000000
184.052000 524.000000
220.027800 27532.000000
221.032100 4296.000000
222.024900 7272.000000

>ms2
150.010500 896.000000
152.010500 324.000000
220.027700 1740.000000
221.027600 300.000000
222.021700 508.000000
222.029600 416.000000

