>compound AU11307243
>parentmass 359.1249
>ionization [M-H]-
>formula C18H20N2O6
>rt 585.744000
>profile qtof
#smiles_iso CCOC(=O)C1=C(NC(=C(C1C2=CC(=CC=C2)[N+](=O)[O-])C(=O)OC)C)C
#smiles_can CCOC(=O)C1=C(NC(=C(C1C2=CC(=CC=C2)[N+](=O)[O-])C(=O)OC)C)C
#inchikey PVHUJELLJLJGLN-UHFFFAOYSA-N
#pubchem_id 4507
#mb_accession AU230957,AU230958,AU230959,AU230960,AU230962

>ms2peaks
122.024400 4304.000000
208.060600 656.000000
208.098000 664.000000
224.070400 2456.000000
236.092200 16348.000000
237.095300 1716.000000
251.057700 644.000000
268.062100 2900.000000
295.070900 1384.000000
298.058600 832.000000
309.086700 1280.000000
312.075000 1208.000000
313.082600 5252.000000
314.089900 768.000000
327.098600 5628.000000
328.101200 1156.000000
359.124900 118348.000000
360.128100 23488.000000
361.128800 3388.000000

>ms2peaks
122.025100 4856.000000
123.030900 396.000000
150.054600 960.000000
164.070500 856.000000
166.015000 404.000000
178.087000 816.000000
192.102000 300.000000
207.053400 380.000000
208.058800 588.000000
208.097500 572.000000
221.074300 380.000000
224.070900 4500.000000
225.073800 1160.000000
236.092300 15416.000000
237.067300 300.000000
237.094300 2100.000000
239.048000 352.000000
251.059600 424.000000
254.065900 360.000000
254.076100 436.000000
265.071000 312.000000
268.062100 1196.000000
282.078300 728.000000
283.084700 372.000000
295.069200 1412.000000
296.077400 656.000000
298.059500 1632.000000
299.065600 300.000000
309.086800 968.000000
310.090300 424.000000
312.074700 1672.000000
313.081700 1792.000000
327.095900 1388.000000
328.100700 416.000000
359.122400 3812.000000
360.128000 1016.000000

>ms2peaks
122.024600 1196.000000
149.047000 892.000000
150.057300 732.000000
160.077400 376.000000
162.061900 308.000000
163.064100 528.000000
164.071400 1092.000000
166.089900 416.000000
178.086900 896.000000
190.050600 340.000000
207.054900 632.000000
221.065100 316.000000
224.071600 2736.000000
225.073000 552.000000
236.092100 3736.000000
237.067800 328.000000
237.093400 552.000000
239.046000 976.000000
253.058900 416.000000
268.058800 656.000000
282.076300 588.000000
298.068100 324.000000
312.070600 324.000000

>ms2peaks
148.039600 300.000000
149.047200 596.000000
150.055300 360.000000
162.054700 708.000000
164.070200 572.000000
178.083600 388.000000
178.093400 336.000000
190.050200 344.000000
206.063600 356.000000
207.063000 460.000000
208.052000 384.000000
223.071600 324.000000
224.071400 1580.000000
225.075500 504.000000
236.092400 520.000000
239.043500 952.000000
253.058400 332.000000

>ms2peaks
45.992500 12860.000000
82.004100 768.000000
92.026600 1548.000000
95.011200 1324.000000
108.019300 1204.000000
122.024500 2648.000000
140.036400 2000.000000
149.048300 544.000000
150.054500 732.000000
164.071100 968.000000
166.014600 4340.000000
178.086600 592.000000
181.037100 448.000000
207.053200 544.000000
208.068300 332.000000
224.071900 3040.000000
225.069200 600.000000
236.093200 3872.000000
237.096000 448.000000
239.045500 1000.000000
253.066800 472.000000
268.059000 676.000000
282.077800 440.000000
298.056300 556.000000
309.084400 324.000000
312.075600 340.000000

