>compound AU12275602
>parentmass 256.0649
>ionization [M-H]-
>formula C11H15NO4S
>rt 291.760000
>profile qtof
#smiles_iso CCC1=CC=CC(=C1NC(=O)CS(=O)(=O)O)C
#smiles_can CCC1=CC=CC(=C1NC(=O)CS(=O)(=O)O)C
#inchikey QPVPJECIHVSBLZ-UHFFFAOYSA-N
#pubchem_id 71312480
#mb_accession AU234057,AU234058,AU234059

>ms2peaks
120.961400 556.000000
256.063600 30828.000000
257.066700 4420.000000
258.063900 1544.000000

>ms2peaks
120.960500 1756.000000
134.098600 452.000000
192.100500 476.000000
256.062600 7060.000000
258.061400 488.000000

>ms2peaks
120.957900 448.000000
120.963000 372.000000
134.099900 324.000000
256.064800 556.000000

