>compound AU12538506
>parentmass 497.9461999999999
>ionization [M-H]-
>formula C8H2F17NO2S
>rt 688.328571
>profile qtof
#smiles_iso C(C(C(C(C(F)(F)S(=O)(=O)N)(F)F)(F)F)(F)F)(C(C(C(F)(F)F)(F)F)(F)F)(F)F
#smiles_can C(C(C(C(C(F)(F)S(=O)(=O)N)(F)F)(F)F)(F)F)(C(C(C(F)(F)F)(F)F)(F)F)(F)F
#inchikey RRRXPPIDPYTNJG-UHFFFAOYSA-N
#pubchem_id 69785
#mb_accession AU230357,AU230358,AU230359,AU230360,AU593850,AU593851,AU593852

>ms2
497.946200 62300.000000
498.946000 4744.000000
499.942900 2104.000000

>ms2
497.945500 52980.000000
498.946900 4088.000000
499.945600 1624.000000

>ms2
168.992000 992.000000
218.991900 408.000000
477.933700 408.000000
497.945700 22300.000000
498.942700 2156.000000
499.945300 1036.000000

>ms2
168.989500 888.000000
497.947100 1840.000000

>ms2
497.945900 46360.000000

>ms2
497.945400 48572.000000

>ms2
497.946600 10680.000000

