>compound AU12907468
>parentmass 275.0649
>ionization [M-H]-
>formula C11H11F3N2O3
>rt 566.055000
>profile qtof
#smiles_iso CC(C)C(=O)NC1=CC(=C(C=C1)[N+](=O)[O-])C(F)(F)F
#smiles_can CC(C)C(=O)NC1=CC(=C(C=C1)[N+](=O)[O-])C(F)(F)F
#inchikey MKXKFYHWDHIYRV-UHFFFAOYSA-N
#pubchem_id 3397
#mb_accession AU235057,AU235058,AU235059,AU235060

>ms2
202.011600 15920.000000
205.021900 12552.000000
275.065800 1354368.000000
276.068400 129628.000000
277.068600 11168.000000

>ms2
160.037900 11204.000000
175.024600 3856.000000
182.005800 12048.000000
186.017300 8104.000000
202.012800 293860.000000
203.015900 20780.000000
205.023200 132256.000000
206.006400 7924.000000
206.024200 9248.000000
229.071100 14120.000000
232.009600 18416.000000
275.065100 744152.000000
276.067700 84632.000000
277.068900 7164.000000

>ms2
126.016400 2288.000000
134.004500 3164.000000
154.010600 8248.000000
155.017600 2736.000000
159.030800 3100.000000
160.038100 61984.000000
161.041000 4932.000000
162.000000 4628.000000
171.012600 1528.000000
174.016800 2072.000000
175.024700 12408.000000
176.009800 2208.000000
182.006000 56336.000000
183.008900 4560.000000
186.017100 42664.000000
187.019600 3820.000000
190.012900 4100.000000
191.021300 2820.000000
202.012600 299032.000000
203.015100 22716.000000
204.016700 2260.000000
205.023000 87964.000000
206.006300 6872.000000
206.023700 6748.000000
229.070900 12804.000000
230.076800 1636.000000
232.009300 3968.000000
259.032500 3128.000000
275.064400 53068.000000
276.066800 6880.000000

>ms2
113.998300 692.000000
118.011000 752.000000
126.015400 4544.000000
127.018900 568.000000
134.004600 6260.000000
135.009400 964.000000
136.017100 320.000000
136.023800 460.000000
138.014800 864.000000
138.998700 440.000000
140.033200 784.000000
143.011100 3888.000000
144.012100 324.000000
146.005000 504.000000
146.020900 1064.000000
154.010300 9500.000000
155.016600 2324.000000
156.024100 304.000000
159.029100 4444.000000
160.037600 53760.000000
161.040500 3936.000000
161.998900 7400.000000
163.001700 772.000000
165.013000 496.000000
166.011200 2440.000000
171.010700 300.000000
174.020400 576.000000
175.023500 7348.000000
176.009100 1708.000000
177.013000 304.000000
182.005300 47504.000000
183.008400 5036.000000
185.059200 820.000000
186.016500 41624.000000
187.020200 3756.000000
188.017700 316.000000
190.012300 652.000000
191.018600 556.000000
202.012000 54908.000000
203.013600 5392.000000
204.021600 648.000000
205.022300 13164.000000
206.006800 1640.000000
206.021100 1552.000000
213.038900 520.000000
214.049200 508.000000
229.031100 608.000000
229.072000 1288.000000
230.004900 640.000000
244.020900 352.000000
259.035700 1808.000000
260.041300 360.000000
275.065900 1140.000000

