>compound AU12807886
>parentmass 375.0762
>ionization [M-H]-
>formula C19H12F4N2O2
>rt 738.090000
>profile qtof
#smiles_iso C1=CC(=CC(=C1)OC2=CC=CC(=N2)C(=O)NC3=CC=C(C=C3)F)C(F)(F)F
#smiles_can C1=CC(=CC(=C1)OC2=CC=CC(=N2)C(=O)NC3=CC=C(C=C3)F)C(F)(F)F
#inchikey CWKFPEBMTGKLKX-UHFFFAOYSA-N
#pubchem_id 3294375
#mb_accession AU231957,AU231958,AU231959,AU231960

>ms2
210.056700 332.000000
238.046300 1276.000000
375.075000 25360.000000
376.076000 5052.000000
377.078200 612.000000

>ms2
136.019900 700.000000
188.051200 684.000000
210.053600 6220.000000
211.054900 808.000000
218.039600 328.000000
231.058400 1568.000000
232.060100 504.000000
238.047600 7240.000000
239.050100 1340.000000
282.040600 700.000000
375.073600 7368.000000
376.076700 2116.000000

>ms2
136.019700 744.000000
160.055700 332.000000
161.020800 1344.000000
170.041700 396.000000
184.036400 604.000000
190.047700 1200.000000
210.052200 11352.000000
211.056100 1192.000000
218.038500 356.000000
218.051800 364.000000
231.058900 1792.000000
238.047400 5436.000000
239.053500 704.000000
282.038700 412.000000
375.074100 968.000000

>ms2
150.037700 408.000000
155.036800 512.000000
161.021500 3388.000000
170.039400 936.000000
184.037200 544.000000
189.037900 304.000000
190.047300 1540.000000
198.033400 416.000000
210.052500 4300.000000
211.054800 916.000000
218.041300 340.000000
231.060800 536.000000
238.047300 1744.000000

