>compound AU13813963
>parentmass 165.0557
>ionization [M-H]-
>formula C9H10O3
>rt 428.430000
>profile qtof
#smiles_iso CCOC(=O)C1=CC=C(C=C1)O
#smiles_can CCOC(=O)C1=CC=C(C=C1)O
#inchikey NUVBSKCKDOMJSU-UHFFFAOYSA-N
#pubchem_id 8434
#mb_accession AU236757,AU236758,AU236759,AU236762

>ms2
136.015700 9884.000000
137.024400 18556.000000
138.027500 2260.000000
165.055300 46988.000000
166.057800 7656.000000

>ms2
136.015800 2580.000000
137.023500 4324.000000
138.029100 472.000000
165.054500 1840.000000

>ms2
137.023000 412.000000

>ms2
136.016200 520.000000
137.025600 440.000000
165.055300 360.000000

