>compound AU13994007
>parentmass 427.2252
>ionization [M-H]-
>formula C25H28N6O
>rt 512.592000
>profile qtof
#smiles_iso CCCCC1=NC2(CCCC2)C(=O)N1CC3=CC=C(C=C3)C4=CC=CC=C4C5=NNN=N5
#smiles_can CCCCC1=NC2(CCCC2)C(=O)N1CC3=CC=C(C=C3)C4=CC=CC=C4C5=NNN=N5
#inchikey YOSHYTLCDANDAN-UHFFFAOYSA-N
#pubchem_id 3749
#mb_accession AU209451,AU209452,AU209453,AU209454,AU209455

>ms2peaks
427.219300 3940.000000
428.224100 1072.000000

>ms2peaks
193.133000 2752.000000
194.137300 404.000000
399.216400 576.000000
427.220500 2620.000000
428.219800 760.000000

>ms2peaks
193.132800 7108.000000
194.137300 796.000000

>ms2peaks
193.132500 7176.000000
194.137100 588.000000

>ms2peaks
164.094600 656.000000
193.133000 3220.000000

