>compound AU15244497
>parentmass 194.0611
>ionization [M-H]-
>formula C13H9NO
>rt 416.550000
>profile qtof
#smiles_iso C1=CC=C2C(=C1)C(=O)C3=CC=CC=C3N2
#smiles_can C1=CC=C2C(=C1)C(=O)C3=CC=CC=C3N2
#inchikey FZEYVTFCMJSGMP-UHFFFAOYSA-N
#pubchem_id 2015
#mb_accession AU231057,AU231058,AU231059,AU231060

>ms2peaks
194.061400 180380.000000
195.063900 30248.000000
196.065800 1708.000000

>ms2peaks
194.061400 205364.000000
195.064300 33920.000000
196.066600 1984.000000

>ms2peaks
164.048800 948.000000
166.064400 964.000000
168.044500 1292.000000
192.045300 824.000000
193.052400 1084.000000
194.061100 114924.000000
195.063600 20608.000000
196.065700 1408.000000

>ms2peaks
140.048700 848.000000
144.045600 632.000000
164.050500 1368.000000
165.057100 772.000000
166.065900 608.000000
168.044600 1552.000000
192.046700 1812.000000
193.050700 1444.000000
194.061100 24760.000000
195.064200 4816.000000

