>compound AU16082321
>parentmass 236.09279999999998
>ionization [M-H]-
>formula C12H15NO4
>rt 377.808000
>profile qtof
#smiles_iso CCOC1=C(C=CC(=C1)NC(=O)C)C(=O)OC
#smiles_can CCOC1=C(C=CC(=C1)NC(=O)C)C(=O)OC
#inchikey GOVWOKSKFSBNGD-UHFFFAOYSA-N
#pubchem_id 6034
#mb_accession AU108451,AU108452,AU108453,AU108454,AU108455

>ms2
120.044800 372.000000
132.008000 2872.000000
133.015700 748.000000
134.023800 2512.000000
135.030500 400.000000
160.002600 700.000000
162.018900 1108.000000
192.029600 2900.000000

>ms2
132.007100 1784.000000
134.024200 1200.000000
162.019100 636.000000
192.029500 1108.000000

>ms2
120.044900 340.000000
132.008800 2732.000000
133.015900 676.000000
134.024700 2636.000000
135.029700 380.000000
160.004000 628.000000
162.019600 1352.000000
192.030200 3184.000000
193.033400 524.000000

>ms2
120.044100 328.000000
132.008300 2624.000000
133.015600 552.000000
134.024100 2616.000000
135.031700 376.000000
160.002600 704.000000
162.018400 1308.000000
192.029100 2860.000000

>ms2
120.045100 484.000000
132.008300 3244.000000
133.014500 788.000000
134.024100 2572.000000
160.003100 616.000000
162.018500 1404.000000
192.029700 3532.000000
193.033200 356.000000

