>compound AU18975852
>parentmass 294.0554
>ionization [M-H]-
>formula C12H13N3O4S
>rt 220.635000
>profile qtof
#smiles_iso CC1=CC(=NO1)NS(=O)(=O)C2=CC=C(C=C2)NC(=O)C
#smiles_can CC1=CC(=NO1)NS(=O)(=O)C2=CC=C(C=C2)NC(=O)C
#inchikey GXPIUNZCALHVBA-UHFFFAOYSA-N
#pubchem_id 65280
#mb_accession AU201451,AU201452,AU201453,AU201454

>ms2
198.021900 1992.000000
294.053500 3528.000000
295.056200 492.000000

>ms2
134.060200 1424.000000
198.021900 4388.000000
199.025300 376.000000

>ms2
134.060800 1876.000000
198.022200 716.000000

>ms2
134.060000 1144.000000

