>compound AU18670950
>parentmass 217.0426
>ionization [M-H]-
>formula C13H11ClO
>rt 656.565000
>profile qtof
#smiles_iso C1=CC=C(C=C1)CC2=C(C=CC(=C2)Cl)O
#smiles_can C1=CC=C(C=C1)CC2=C(C=CC(=C2)Cl)O
#inchikey NCKMMSIFQUPKCK-UHFFFAOYSA-N
#pubchem_id 8425
#mb_accession AU236657,AU236658,AU236659,AU236662

>ms2
181.065400 476.000000
217.042100 86688.000000
218.045200 16612.000000
219.039000 22892.000000

>ms2
153.069400 1100.000000
180.058100 772.000000
181.064500 1684.000000
182.069100 320.000000
217.041800 25164.000000
219.038400 7776.000000

>ms2
152.064300 424.000000
153.068300 320.000000
180.057100 300.000000
217.040800 896.000000
219.038700 484.000000

>ms2
152.065600 408.000000
153.069500 632.000000
180.057100 580.000000
181.065100 952.000000
217.042400 16908.000000
218.045800 2064.000000
219.039100 3472.000000

