>compound AU18934572
>parentmass 357.149
>ionization [M-H]-
>formula C16H26N2O5S
>rt 249.180000
>profile qtof
#smiles_iso CC1(C[C@@H]1C(=O)N/C(=C\CCCCSC[C@@H](C(=O)O)N)/C(=O)O)C
#smiles_can CC1(CC1C(=O)NC(=CCCCCSCC(C(=O)O)N)C(=O)O)C
#inchikey DHSUYTOATWAVLW-WFVMDLQDSA-N
#pubchem_id 6435415
#mb_accession AU212951,AU212952

>ms2
357.144900 1324.000000
358.145800 312.000000

>ms2
226.124800 1392.000000
357.143400 404.000000

