>compound AU20884436
>parentmass 291.0906
>ionization [M-H]-
>formula C15H17ClN2O2
>rt 604.635000
>profile qtof
#smiles_iso CC(C)(C)C(=O)C(N1C=CN=C1)OC2=CC=C(C=C2)Cl
#smiles_can CC(C)(C)C(=O)C(N1C=CN=C1)OC2=CC=C(C=C2)Cl
#inchikey OWEGWHBOCFMBLP-UHFFFAOYSA-N
#pubchem_id 37907
#mb_accession AU236457,AU236458,AU236459,AU236460

>ms2peaks
141.981600 340.000000
151.087000 872.000000
221.013000 532.000000
223.008900 324.000000
233.012600 468.000000
234.019300 560.000000
249.004400 376.000000
291.090900 400.000000

>ms2peaks
126.995100 472.000000
151.087600 1232.000000

>ms2peaks
126.995100 584.000000
151.085100 784.000000

>ms2peaks
126.995300 696.000000
151.090200 640.000000

