>compound AU22021892
>parentmass 429.0538
>ionization [M-H]-
>formula C18H14F4N2O4S
>rt 514.245000
>profile qtof
#smiles_iso CC(CS(=O)(=O)C1=CC=C(C=C1)F)(C(=O)NC2=CC(=C(C=C2)C#N)C(F)(F)F)O
#smiles_can CC(CS(=O)(=O)C1=CC=C(C=C1)F)(C(=O)NC2=CC(=C(C=C2)C#N)C(F)(F)F)O
#inchikey LKJPYSCBVHEWIU-UHFFFAOYSA-N
#pubchem_id 2375
#mb_accession AU234957,AU234958,AU234959,AU234960

>ms2peaks
243.013900 2272.000000
255.039600 97488.000000
256.041600 10592.000000
257.044000 824.000000
411.041200 984.000000
429.053500 65996.000000
430.056300 9548.000000
431.052400 2912.000000

>ms2peaks
173.008200 6456.000000
184.037100 2944.000000
185.033200 4768.000000
243.014300 3488.000000
255.040200 190864.000000
256.042300 18304.000000
257.045000 1232.000000
411.043100 3096.000000
429.056500 1236.000000

>ms2peaks
158.992600 4580.000000
173.009300 13824.000000
174.013500 1072.000000
184.039700 19116.000000
185.035200 49120.000000
186.037400 4072.000000
227.045100 1676.000000
243.013500 2148.000000
255.039600 140448.000000
256.042500 12264.000000
257.048900 944.000000
411.037100 1264.000000
411.048300 1280.000000

>ms2peaks
158.992100 12928.000000
173.007600 23300.000000
184.038200 86692.000000
185.033900 790344.000000
186.036100 36740.000000
227.043700 6320.000000
255.038800 96472.000000
256.041000 9348.000000

