>compound AU23267067
>parentmass 439.15240000000006
>ionization [M-H]-
>formula C24H20N6O3
>rt 280.908000
>profile qtof
#smiles_iso CCOC1=NC2=CC=CC(=C2N1CC3=CC=C(C=C3)C4=CC=CC=C4C5=NNN=N5)C(=O)O
#smiles_can CCOC1=NC2=CC=CC(=C2N1CC3=CC=C(C=C3)C4=CC=CC=C4C5=NNN=N5)C(=O)O
#inchikey HTQMVQVXFRQIKW-UHFFFAOYSA-N
#pubchem_id 2541
#mb_accession AU213751,AU213752,AU213753,AU213754,AU213755

>ms2peaks
439.149000 3432.000000
440.153600 904.000000

>ms2peaks
132.031500 328.000000
133.039400 432.000000
205.061700 304.000000
309.101100 1224.000000
310.107900 420.000000
354.104400 364.000000
439.149000 1188.000000

>ms2peaks
132.032000 656.000000
133.040400 664.000000
161.071900 464.000000
205.060600 388.000000
309.102300 1008.000000
310.110500 348.000000

>ms2peaks
132.031900 1024.000000
133.040500 640.000000
161.069600 344.000000
309.100300 396.000000

>ms2peaks
132.032100 868.000000
133.039700 964.000000
309.105900 492.000000

