>compound AU24243433
>parentmass 161.0244
>ionization [M-H]-
>formula C9H6O3
>rt 234.120000
>profile qtof
#smiles_iso C1=CC=C2C(=C1)C(=CC(=O)O2)O
#smiles_can C1=CC=C2C(=C1)C(=CC(=O)O2)O
#inchikey VXIXUWQIVKSKSA-UHFFFAOYSA-N
#pubchem_id 54682930
#mb_accession AU231257,AU231258,AU231259,AU231260,AU231262

>ms2
117.034700 7192.000000
161.024400 42460.000000
162.027800 5676.000000

>ms2
117.034700 8500.000000
118.038400 1040.000000
161.024100 4164.000000
162.026700 516.000000

>ms2
117.034200 2072.000000

>ms2
117.035000 420.000000

>ms2
117.034800 18872.000000
118.038700 1400.000000
161.024300 4124.000000
162.025000 316.000000

