>compound AU24252051
>parentmass 152.0021
>ionization [M-H]-
>formula C6H4ClN3
>rt 378.600000
>profile qtof
#smiles_iso C1=CC=C2C(=C1)N=NN2Cl
#smiles_can C1=CC=C2C(=C1)N=NN2Cl
#inchikey INOGLHRUEYDAHX-UHFFFAOYSA-N
#pubchem_id 88761
#mb_accession AU405551,AU405552,AU405553

>ms2
152.000000 17964.000000
153.003700 1256.000000
153.996800 3848.000000

>ms2
152.000300 6208.000000
153.004200 508.000000
153.998100 1360.000000

>ms2
151.999400 576.000000

