>compound AU25727896
>parentmass 376.9689
>ionization [M-H]-
>formula C7H2F12O4
>rt 533.160000
>profile qtof
#smiles_iso C(C(C(=O)O)(F)F)(OC(C(C(OC(F)(F)F)(F)F)(F)F)(F)F)F
#smiles_can C(C(C(=O)O)(F)F)(OC(C(C(OC(F)(F)F)(F)F)(F)F)(F)F)F
#inchikey AFDRCEOKCOUICI-UHFFFAOYSA-N
#pubchem_id 52915299
#mb_accession AU593280,AU593281,AU593282,AU593283

>ms2peaks
250.976000 89060.000000
251.978100 908.000000
376.969000 2664.000000

>ms2peaks
250.975900 58220.000000
251.979300 764.000000

>ms2peaks
250.976000 15416.000000
251.976500 344.000000

>ms2peaks
250.974300 692.000000

