>compound AU25688149
>parentmass 216.9941
>ionization [M-H]-
>formula C8H8Cl2N2O
>rt 498.705000
>profile qtof
#smiles_iso CNC(=O)NC1=CC(=C(C=C1)Cl)Cl
#smiles_can CNC(=O)NC1=CC(=C(C=C1)Cl)Cl
#inchikey IDQHRQQSSQDLTR-UHFFFAOYSA-N
#pubchem_id 19113
#mb_accession AU400151,AU400152,AU400153,AU400154

>ms2
159.971300 58240.000000
160.973900 2260.000000
161.968100 22920.000000
162.972300 740.000000
216.993100 6688.000000
217.996600 336.000000
218.989700 2152.000000

>ms2
123.994000 756.000000
159.971100 37264.000000
160.973800 1432.000000
161.967700 13264.000000
162.971200 504.000000

>ms2
123.994100 540.000000
159.970700 5432.000000
160.973500 316.000000
161.967200 2344.000000

>ms2
159.970700 408.000000

