>compound AU25484481
>parentmass 137.0244
>ionization [M-H]-
>formula C7H6O3
>rt 218.220000
>profile qtof
#smiles_iso C1=CC=C(C(=C1)C(=O)O)O
#smiles_can C1=CC=C(C(=C1)C(=O)O)O
#inchikey YGSDEFSMJLZEOE-UHFFFAOYSA-N
#pubchem_id 338
#mb_accession AU238262

>ms2
65.038400 2456.000000
93.033100 15896.000000
94.035800 856.000000
137.023100 564.000000

