>compound AU25755667
>parentmass 360.1008
>ionization [M-H]-
>formula C19H20ClNO4
>rt 455.850000
>profile qtof
#smiles_iso CC(C)(C(=O)O)OC1=CC=C(C=C1)CCNC(=O)C2=CC=C(C=C2)Cl
#smiles_can CC(C)(C(=O)O)OC1=CC=C(C=C1)CCNC(=O)C2=CC=C(C=C2)Cl
#inchikey IIBYAHWJQTYFKB-UHFFFAOYSA-N
#pubchem_id 39042
#mb_accession AU234157,AU234158,AU234159,AU234160

>ms2
274.062500 1956.000000
275.067500 368.000000
276.062000 456.000000
360.100300 2660.000000
361.103800 452.000000
362.095500 764.000000

>ms2
274.066200 5112.000000
275.064300 588.000000
276.065700 1060.000000

>ms2
154.008100 2072.000000
155.011300 396.000000
156.006800 440.000000
274.064300 2720.000000
275.068700 616.000000
276.062200 688.000000

>ms2
154.005800 2224.000000
156.004700 884.000000
274.066200 440.000000

