>compound AU25719646
>parentmass 168.0891
>ionization [M-H]-
>formula C6H11N5O
>rt 208.980000
>profile qtof
#smiles_iso CC(C)NC1=NC(=O)NC(=N1)N
#smiles_can CC(C)NC1=NC(=O)NC(=N1)N
#inchikey GCKLGRUZDXSATG-UHFFFAOYSA-N
#pubchem_id 135510207
#mb_accession AU202351

>ms2
125.082400 320.000000
168.086600 1092.000000

