>compound AU26237030
>parentmass 512.96
>ionization [M-H]-
>formula C10HF19O2
>rt 665.340000
>profile qtof
#smiles_iso C(=O)(C(C(C(C(C(C(C(C(C(F)(F)F)(F)F)(F)F)(F)F)(F)F)(F)F)(F)F)(F)F)(F)F)O
#smiles_can C(=O)(C(C(C(C(C(C(C(C(C(F)(F)F)(F)F)(F)F)(F)F)(F)F)(F)F)(F)F)(F)F)(F)F)O
#inchikey PCIUEQPBYFRTEM-UHFFFAOYSA-N
#pubchem_id 9555
#mb_accession AU240357,AU240358,AU240359,AU240360,AU240362,AU595050,AU595051,AU595052,AU595053

>ms2peaks
168.989900 4516.000000
218.985600 15008.000000
268.982200 14536.000000
318.977200 2852.000000
468.970200 190824.000000
469.973300 12916.000000
512.958300 8832.000000

>ms2peaks
118.991400 772.000000
168.989000 22300.000000
169.993400 468.000000
196.983700 2276.000000
218.985500 45588.000000
219.989400 1612.000000
246.978000 636.000000
246.984800 656.000000
268.982300 39568.000000
269.984100 1640.000000
318.977900 6520.000000
319.986700 404.000000
468.968300 27200.000000
469.972100 2208.000000

>ms2peaks
118.993500 896.000000
168.989800 10780.000000
196.982400 924.000000
218.985100 6196.000000
268.983600 4928.000000
318.977800 644.000000
468.967200 576.000000

>ms2peaks
118.993200 704.000000
168.988500 3172.000000
218.986000 748.000000
268.978500 456.000000

>ms2peaks
118.993700 936.000000
168.988400 4232.000000
169.990400 340.000000
196.983500 476.000000
218.987000 1284.000000
268.981300 692.000000

>ms2peaks
468.970100 12892.000000
469.971500 440.000000
512.958600 1816.000000

>ms2peaks
168.987900 952.000000
218.985700 1240.000000
268.981700 1112.000000
468.971200 1480.000000

>ms2peaks
168.990500 584.000000
218.985200 356.000000

>ms2peaks
168.989200 404.000000

