>compound AU26134029
>parentmass 611.2246
>ionization [M-H]-
>formula C31H36N2O11
>rt 451.620000
>profile qtof
#smiles_iso CC1=C(C=CC2=C1OC(=O)C(=C2O)NC(=O)C3=CC(=C(C=C3)O)CC=C(C)C)O[C@H]4[C@@H]([C@@H]([C@H](C(O4)(C)C)OC)OC(=O)N)O
#smiles_can CC1=C(C=CC2=C1OC(=O)C(=C2O)NC(=O)C3=CC(=C(C=C3)O)CC=C(C)C)OC4C(C(C(C(O4)(C)C)OC)OC(=O)N)O
#inchikey YJQPYGGHQPGBLI-KGSXXDOSSA-N
#pubchem_id 54675769
#mb_accession AU116751,AU116752,AU116753,AU116754,AU116755

>ms2peaks
611.216700 1556.000000
612.219900 564.000000

>ms2peaks
423.134600 380.000000
568.210900 404.000000
611.215700 840.000000

>ms2peaks
380.132100 488.000000
423.136400 848.000000
611.221500 468.000000

>ms2peaks
205.035100 748.000000
206.043400 588.000000
380.130200 952.000000
423.133300 324.000000

>ms2peaks
205.036200 2000.000000
206.042200 772.000000
232.022100 348.000000
380.129800 388.000000

