>compound AU27181835
>parentmass 215.9988
>ionization [M-H]-
>formula C9H9Cl2NO
>rt 561.735000
>profile qtof
#smiles_iso CCC(=O)NC1=CC(=C(C=C1)Cl)Cl
#smiles_can CCC(=O)NC1=CC(=C(C=C1)Cl)Cl
#inchikey LFULEKSKNZEWOE-UHFFFAOYSA-N
#pubchem_id 4933
#mb_accession AU233157,AU233158,AU233159,AU233160

>ms2
159.972900 56468.000000
160.975400 3608.000000
161.969800 30384.000000
162.971200 1220.000000
215.999100 210200.000000
217.002000 29128.000000
217.996200 133156.000000

>ms2
123.995600 2128.000000
125.992500 384.000000
159.972700 66316.000000
160.958700 788.000000
160.976000 5328.000000
161.969500 35812.000000
162.953300 488.000000
162.971200 1980.000000
163.965300 676.000000
215.998100 18992.000000
217.001300 2836.000000
217.996000 13404.000000

>ms2
123.997300 1224.000000
125.993500 332.000000
159.973000 10404.000000
160.975300 1256.000000
162.974600 596.000000
199.967200 372.000000
215.998500 872.000000
217.996100 476.000000

>ms2
159.971300 768.000000
161.968400 484.000000

