>compound AU27703515
>parentmass 359.1864
>ionization [M-H]-
>formula C21H28O5
>rt 440.070000
>profile qtof
#smiles_iso C[C@]12CCC(=O)C=C1CC[C@@H]3[C@@H]2C(=O)C[C@]4([C@H]3CC[C@@]4(C(=O)CO)O)C
#smiles_can CC12CCC(=O)C=C1CCC3C2C(=O)CC4(C3CCC4(C(=O)CO)O)C
#inchikey MFYSYFVPBJMHGN-ZPOLXVRWSA-N
#pubchem_id 222786
#mb_accession AU239357,AU239358,AU239359,AU239360

>ms2peaks
301.176800 516.000000
301.184000 532.000000
327.160200 444.000000
329.173000 3044.000000
330.179300 868.000000

>ms2peaks
137.058900 468.000000
311.160900 376.000000
329.173500 2556.000000
330.176500 764.000000

>ms2peaks
137.061400 1216.000000
311.163200 336.000000
329.174900 1160.000000

>ms2peaks
137.061500 1044.000000
149.059300 448.000000

