>compound AU28024673
>parentmass 332.0904
>ionization [M-H]-
>formula C18H14F3NO2
>rt 548.490000
>profile qtof
#smiles_iso CNC1=C(C(=O)C(O1)C2=CC=CC=C2)C3=CC(=CC=C3)C(F)(F)F
#smiles_can CNC1=C(C(=O)C(O1)C2=CC=CC=C2)C3=CC(=CC=C3)C(F)(F)F
#inchikey NYRMIJKDBAQCHC-UHFFFAOYSA-N
#pubchem_id 91755
#mb_accession AU231857,AU231858,AU231859,AU231860

>ms2
332.090400 499432.000000
333.093500 84920.000000
334.094600 7148.000000

>ms2
145.027400 3408.000000
183.029800 2564.000000
185.020700 4328.000000
198.052600 8324.000000
247.073200 27540.000000
248.078100 3848.000000
275.066900 4568.000000
291.061900 2796.000000
304.094700 7232.000000
332.090600 411812.000000
333.093400 73388.000000
334.096300 5972.000000

>ms2
134.061100 3704.000000
135.063300 580.000000
145.026600 11576.000000
146.029500 1432.000000
156.018000 880.000000
159.042900 1564.000000
161.021700 2360.000000
169.026800 4748.000000
170.031000 708.000000
171.041300 2320.000000
178.046200 896.000000
182.021300 684.000000
183.029300 17328.000000
184.034600 2076.000000
185.021500 26044.000000
186.026300 2552.000000
186.056500 732.000000
189.017400 1752.000000
198.053300 18168.000000
199.055300 1944.000000
207.060700 1280.000000
210.053500 724.000000
214.022000 776.000000
226.045800 488.000000
227.020200 696.000000
227.067200 2224.000000
228.077500 708.000000
235.053600 556.000000
240.027400 2888.000000
241.030000 576.000000
242.041900 900.000000
245.053400 536.000000
247.074100 38076.000000
248.077200 5956.000000
254.044000 2060.000000
255.058500 1704.000000
259.072400 588.000000
263.076100 564.000000
273.073000 884.000000
274.058800 1380.000000
275.069000 3504.000000
276.068900 676.000000
276.075600 756.000000
277.083200 1424.000000
286.083900 2108.000000
288.062900 1512.000000
291.062700 4472.000000
292.063800 772.000000
303.062500 516.000000
304.093800 6360.000000
305.096300 1376.000000
314.078600 1808.000000
316.058000 3596.000000
317.062300 2980.000000
318.068300 608.000000
330.076700 744.000000
331.084500 560.000000
332.090100 96088.000000
333.092900 18516.000000
334.097000 1712.000000

>ms2
131.037700 344.000000
134.060300 1956.000000
137.025400 336.000000
143.019100 328.000000
145.009100 1460.000000
145.026800 12736.000000
146.028700 1324.000000
149.019500 436.000000
156.018800 2888.000000
158.040700 408.000000
159.044400 688.000000
160.011800 524.000000
161.021300 3288.000000
162.026800 748.000000
163.023300 744.000000
165.015300 2568.000000
166.020400 312.000000
169.026300 10600.000000
170.030400 1344.000000
171.041600 1216.000000
182.021700 2968.000000
183.030100 31548.000000
184.034700 3456.000000
185.021400 46644.000000
186.024800 4276.000000
186.057500 320.000000
187.030200 512.000000
189.016300 2792.000000
190.018900 552.000000
196.037000 360.000000
198.052600 6856.000000
199.056800 804.000000
207.060100 1192.000000
210.052500 720.000000
214.012200 1288.000000
215.030000 436.000000
215.041500 324.000000
226.046000 348.000000
227.019200 1268.000000
227.066200 2196.000000
228.077200 556.000000
235.056100 516.000000
239.021900 440.000000
240.027500 7516.000000
241.028400 1048.000000
242.042000 480.000000
242.055400 312.000000
245.053600 384.000000
247.073500 6916.000000
248.077900 1380.000000
254.042300 720.000000
255.047600 656.000000
255.062500 792.000000
259.075100 344.000000
263.063400 512.000000
263.072400 488.000000
274.061500 708.000000
275.068800 1008.000000
277.084200 612.000000
284.075300 324.000000
286.082700 1240.000000
287.090300 592.000000
288.063700 2072.000000
291.060000 1364.000000
292.067800 500.000000
302.045500 348.000000
304.096600 820.000000
314.076800 1320.000000
315.086600 312.000000
316.057100 5956.000000
317.066100 1852.000000
330.073900 308.000000
332.088900 6712.000000
333.091800 1604.000000

