>compound AU29019878
>parentmass 557.2457
>ionization [M-H]-
>formula C33H35FN2O5
>rt 555.384000
>profile qtof
#smiles_iso CC(C)C1=C(C(=C(N1CC[C@H](C[C@H](CC(=O)O)O)O)C2=CC=C(C=C2)F)C3=CC=CC=C3)C(=O)NC4=CC=CC=C4
#smiles_can CC(C)C1=C(C(=C(N1CCC(CC(CC(=O)O)O)O)C2=CC=C(C=C2)F)C3=CC=CC=C3)C(=O)NC4=CC=CC=C4
#inchikey XUKUURHRXDUEBC-KAYWLYCHSA-N
#pubchem_id 60823
#mb_accession AU112951,AU112952,AU112953,AU112954,AU112955

>ms2
557.240800 1304.000000
558.245400 572.000000

>ms2
453.188200 336.000000
557.239100 1240.000000
558.243700 344.000000

>ms2
397.168600 456.000000
453.193500 552.000000
557.241000 412.000000

>ms2
278.130100 392.000000
397.167200 684.000000

>ms2
278.133400 1048.000000
279.132100 308.000000
397.167400 576.000000

