>compound AU31368041
>parentmass 269.0455
>ionization [M-H]-
>formula C15H10O5
>rt 449.364000
>profile qtof
#smiles_iso C1=CC(=CC=C1C2=COC3=CC(=CC(=C3C2=O)O)O)O
#smiles_can C1=CC(=CC=C1C2=COC3=CC(=CC(=C3C2=O)O)O)O
#inchikey TZBJGXHYKVUXJN-UHFFFAOYSA-N
#pubchem_id 5280961
#mb_accession AU241957,AU241958,AU241959,AU241960,AU241962

>ms2
269.045400 75280.000000
270.048100 11392.000000
271.050700 1332.000000

>ms2
133.031400 1040.000000
135.045200 408.000000
157.030300 424.000000
159.045200 1024.000000
169.064100 504.000000
180.055900 584.000000
181.064800 1116.000000
183.045500 1012.000000
197.060900 820.000000
199.039700 364.000000
201.055500 1468.000000
224.046500 872.000000
225.052000 1448.000000
227.033800 380.000000
241.050800 648.000000
269.044900 68624.000000
270.048400 10760.000000
271.050600 1040.000000

>ms2
132.021300 1564.000000
133.029400 4904.000000
134.035200 780.000000
135.007000 628.000000
135.045400 1564.000000
151.003100 344.000000
154.043300 300.000000
155.049000 912.000000
156.057800 500.000000
157.029200 1196.000000
157.065000 352.000000
158.036000 440.000000
159.043700 3284.000000
160.047900 336.000000
169.064600 1044.000000
171.043700 628.000000
173.061200 492.000000
180.057000 1028.000000
181.066200 1484.000000
182.071800 332.000000
183.044100 1680.000000
184.049700 424.000000
195.047300 308.000000
196.051800 1016.000000
197.061200 800.000000
199.038200 756.000000
201.053800 1588.000000
211.037900 312.000000
213.055200 532.000000
223.039500 524.000000
224.046300 1420.000000
225.054100 1356.000000
227.033100 712.000000
240.041300 512.000000
241.048900 572.000000
268.039300 332.000000
269.044600 14992.000000
270.048700 2424.000000

>ms2
132.021000 2428.000000
133.028700 3296.000000
134.035700 1384.000000
135.044400 1852.000000
141.034100 300.000000
151.001200 312.000000
155.048300 404.000000
157.029200 892.000000
158.038300 320.000000
159.045200 1512.000000
169.066300 460.000000
171.044500 436.000000
180.058700 728.000000
181.064200 532.000000
182.035300 396.000000
183.043000 864.000000
195.042200 464.000000
196.050400 392.000000
201.053100 328.000000
211.038600 328.000000
223.039100 408.000000
224.048900 472.000000
269.044600 736.000000

>ms2
63.022700 1628.000000
65.001700 796.000000
107.015500 364.000000
132.021100 1060.000000
133.029700 4652.000000
134.037300 1012.000000
135.007700 320.000000
135.044100 1296.000000
151.002200 664.000000
153.019400 336.000000
155.053300 308.000000
157.029400 928.000000
159.044100 2300.000000
161.022500 336.000000
169.068200 604.000000
171.048000 532.000000
180.058200 1056.000000
181.065300 1536.000000
182.035600 320.000000
183.045400 1244.000000
196.053100 1036.000000
197.061000 644.000000
199.038700 564.000000
201.055400 1100.000000
213.052700 668.000000
223.039100 388.000000
224.048700 1224.000000
225.054600 1436.000000
227.033300 380.000000
239.031700 408.000000
240.042400 440.000000
241.048000 532.000000
268.034700 440.000000
269.044900 30224.000000
270.047500 5624.000000
271.045600 324.000000
271.057700 424.000000

