>compound AU31108964
>parentmass 134.036
>ionization [M-H]-
>formula C6H5N3O
>rt 235.260000
>profile qtof
#smiles_iso C1=CC2=NNN=C2C(=C1)O
#smiles_can C1=CC2=NNN=C2C(=C1)O
#inchikey JMTMSDXUXJISAY-UHFFFAOYSA-N
#pubchem_id 135399369
#mb_accession AU238057,AU238062

>ms2
134.035800 5996.000000
135.036600 668.000000

>ms2
78.033700 3072.000000
105.019800 452.000000
106.027300 308.000000
134.036300 848.000000

