>compound AU31363767
>parentmass 237.0265
>ionization [M-H]-
>formula C8H6N4O5
>rt 237.900000
>profile qtof
#smiles_iso C1C(=O)NC(=O)N1/N=C/C2=CC=C(O2)[N+](=O)[O-]
#smiles_can C1C(=O)NC(=O)N1N=CC2=CC=C(O2)[N+](=O)[O-]
#inchikey NXFQHRVNIOXGAQ-YCRREMRBSA-N
#pubchem_id 6604200
#mb_accession AU236157

>ms2peaks
152.008700 744.000000
237.026400 752.000000

