>compound AU31760388
>parentmass 273.0074
>ionization [M-H]-
>formula C10H10O7S
>rt 271.452000
>profile qtof
#smiles_iso COC(=O)C1=CC(=CC(=C1)S(=O)(=O)O)C(=O)OC
#smiles_can COC(=O)C1=CC(=CC(=C1)S(=O)(=O)O)C(=O)OC
#inchikey HTXMGVTWXZBZNC-UHFFFAOYSA-N
#pubchem_id 67310
#mb_accession AU231157,AU231158,AU231159,AU231160,AU231162

>ms2
209.042000 364.000000
273.008000 23524.000000
274.011400 3064.000000
275.004900 1560.000000

>ms2
135.010500 312.000000
150.032900 576.000000
166.025300 364.000000
209.045100 2676.000000
210.047800 444.000000
245.983600 344.000000
273.006300 15540.000000
274.008600 2268.000000
275.006300 816.000000

>ms2
135.010300 1768.000000
150.031900 1724.000000
153.018700 528.000000
166.028900 328.000000
209.044300 2984.000000
213.992400 1352.000000
245.981900 1032.000000
273.007000 4440.000000

>ms2
135.009000 1572.000000
150.032300 992.000000
209.047600 348.000000
213.995100 588.000000
245.989500 404.000000

>ms2
79.956500 896.000000
135.010500 868.000000
150.032200 612.000000
153.018000 384.000000
166.027700 396.000000
209.045000 2108.000000
210.051400 332.000000
213.994800 460.000000
245.982100 1028.000000
273.006600 6760.000000
274.010800 712.000000

