>compound AU32394684
>parentmass 498.9301999999999
>ionization [M-H]-
>formula C8HF17O3S
>rt 623.076000
>profile qtof
#smiles_iso C(C(C(C(C(F)(F)S(=O)(=O)O)(F)F)(F)F)(F)F)(C(C(C(F)(F)F)(F)F)(F)F)(F)F
#smiles_can C(C(C(C(C(F)(F)S(=O)(=O)O)(F)F)(F)F)(F)F)(C(C(C(F)(F)F)(F)F)(F)F)(F)F
#inchikey YFSUTJLHUFNCNZ-UHFFFAOYSA-N
#pubchem_id 74483
#mb_accession AU240557,AU240558,AU240559,AU240560,AU240562,AU595950,AU595951,AU595952,AU595953,AU595954

>ms2
498.931300 511752.000000
499.932200 28432.000000
500.926800 17012.000000

>ms2
498.930300 496512.000000
499.932100 30796.000000
500.926100 16520.000000

>ms2
168.989600 2844.000000
498.931100 462552.000000
499.932200 25524.000000
500.926800 15464.000000

>ms2
129.953900 1116.000000
168.988700 6232.000000
218.985100 1800.000000
229.946500 2784.000000
279.944100 1460.000000
498.930500 175376.000000
499.933000 9896.000000
500.927500 6196.000000

>ms2
79.956900 1360.000000
129.954400 1208.000000
168.991700 352.000000
179.950100 488.000000
218.986600 492.000000
229.947700 1288.000000
279.940400 1212.000000
498.930100 7596.000000
499.936600 896.000000
500.930100 360.000000

>ms2
498.929800 29876.000000

>ms2
498.929300 30500.000000

>ms2
498.929500 24020.000000

>ms2
498.927900 10320.000000

>ms2
498.928700 1012.000000

