>compound AU33755973
>parentmass 355.1122
>ionization [M-H]-
>formula C19H20N2O3S
>rt 557.715000
>profile qtof
#smiles_iso CCC1=CN=C(C=C1)CCOC2=CC=C(C=C2)CC3C(=O)NC(=O)S3
#smiles_can CCC1=CN=C(C=C1)CCOC2=CC=C(C=C2)CC3C(=O)NC(=O)S3
#inchikey HYAFETHFCAUJAY-UHFFFAOYSA-N
#pubchem_id 4829
#mb_accession AU235857,AU235858,AU235859,AU235860

>ms2peaks
312.099700 476.000000
355.110900 14660.000000
356.114300 4324.000000
357.109100 1100.000000

>ms2peaks
312.107800 528.000000
355.112900 1528.000000

>ms2peaks
150.011800 460.000000

>ms2peaks
150.015800 476.000000

