>compound AU34039829
>parentmass 562.9568
>ionization [M-H]-
>formula C11HF21O2
>rt 697.830000
>profile qtof
#smiles_iso C(=O)(C(C(C(C(C(C(C(C(C(C(F)(F)F)(F)F)(F)F)(F)F)(F)F)(F)F)(F)F)(F)F)(F)F)(F)F)O
#smiles_can C(=O)(C(C(C(C(C(C(C(C(C(C(F)(F)F)(F)F)(F)F)(F)F)(F)F)(F)F)(F)F)(F)F)(F)F)(F)F)O
#inchikey SIDINRCMMRKXGQ-UHFFFAOYSA-N
#pubchem_id 77222
#mb_accession AU595150,AU595151,AU595152,AU595153

>ms2peaks
518.967400 13788.000000
519.971400 464.000000
562.956000 3228.000000

>ms2peaks
168.988700 864.000000
218.984900 1884.000000
268.982500 2000.000000
318.980000 1592.000000
518.965100 4440.000000

>ms2peaks
168.990100 1436.000000
218.987000 928.000000
268.983400 760.000000
318.981400 364.000000

>ms2peaks
168.987900 1060.000000

