>compound AU34985397
>parentmass 248.0014
>ionization [M-H]-
>formula C6H8ClN5O2S
>rt 289.065000
>profile qtof
#smiles_iso CN=C(NCC1=CN=C(S1)Cl)N[N+](=O)[O-]
#smiles_can CN=C(NCC1=CN=C(S1)Cl)N[N+](=O)[O-]
#inchikey PGOOBECODWQEAB-UHFFFAOYSA-N
#pubchem_id 213027
#mb_accession AU232857,AU232858,AU232859,AU232860

>ms2
139.026700 1136.000000
149.999900 1100.000000
151.008800 564.000000
165.023500 5272.000000
166.031400 2008.000000
167.020400 324.000000
168.020800 800.000000
195.020800 1228.000000
212.025600 920.000000
248.001500 4220.000000
249.999700 1348.000000

>ms2
148.991200 300.000000
150.000000 3196.000000
151.005300 508.000000
165.023500 5240.000000
166.028900 696.000000

>ms2
148.990500 836.000000
149.999700 2944.000000
151.001500 452.000000
165.023900 1760.000000

>ms2
148.992800 780.000000
150.002000 1236.000000
165.026200 300.000000

