>compound AU35647003
>parentmass 168.9689
>ionization [M-H]-
>formula C3HF3N2OS
>rt 298.780000
>profile qtof
#smiles_iso C1(=NNC(=O)S1)C(F)(F)F
#smiles_can C1(=NNC(=O)S1)C(F)(F)F
#inchikey JFZSAWUKZISBJM-UHFFFAOYSA-N
#pubchem_id 12816283
#mb_accession AU233957,AU233958,AU233959

>ms2peaks
108.999300 348.000000
112.967600 3144.000000
168.968900 48616.000000
169.971100 2676.000000
170.964100 1692.000000

>ms2peaks
112.967300 1684.000000
168.968800 2864.000000

>ms2peaks
112.968800 500.000000

