>compound AU36787216
>parentmass 202.9784
>ionization [M-H]-
>formula C7H6Cl2N2O
>rt 470.580000
>profile qtof
#smiles_iso C1=CC(=C(C=C1NC(=O)N)Cl)Cl
#smiles_can C1=CC(=C(C=C1NC(=O)N)Cl)Cl
#inchikey CYESCLHCWJKRKM-UHFFFAOYSA-N
#pubchem_id 16854
#mb_accession AU241857,AU241858,AU241859,AU241862,AU400351,AU400352

>ms2
159.972600 15852.000000
161.969300 9144.000000
162.972200 396.000000
202.977000 1176.000000
204.974700 900.000000

>ms2
123.995600 356.000000
159.972900 5744.000000
160.976500 624.000000
161.969200 3556.000000

>ms2
159.970100 544.000000
161.970200 456.000000

>ms2
123.996200 632.000000
159.972900 5744.000000
160.976800 412.000000
161.969400 2200.000000

>ms2
159.971300 8340.000000
160.974900 524.000000
161.967900 3848.000000
202.977000 2824.000000
204.974500 1412.000000

>ms2
159.970900 7168.000000
160.974200 552.000000
161.968200 3792.000000

