>compound AU36818380
>parentmass 382.0679
>ionization [M-H]-
>formula C16H15F2N3O4S
>rt 442.570000
>profile qtof
#smiles_iso COC1=C(C(=NC=C1)CS(=O)C2=NC3=C(N2)C=C(C=C3)OC(F)F)OC
#smiles_can COC1=C(C(=NC=C1)CS(=O)C2=NC3=C(N2)C=C(C=C3)OC(F)F)OC
#inchikey IQPSEEYGBUAQFF-UHFFFAOYSA-N
#pubchem_id 4679
#mb_accession AU227410,AU227411,AU227412,AU227457,AU227458,AU227459

>ms2
115.031600 376.000000
141.010800 356.000000
147.016800 392.000000
161.016100 7084.000000
161.989000 1092.000000
162.022100 2172.000000
163.027100 312.000000
178.018600 908.000000
178.993300 1072.000000
209.990600 4116.000000
229.997400 15352.000000
230.999300 960.000000
231.993000 480.000000

>ms2
115.029100 644.000000
141.009800 1508.000000
147.020700 1136.000000
161.015900 16176.000000
161.989000 2356.000000
162.022400 2352.000000
162.992500 404.000000
178.018500 1108.000000
178.991800 1188.000000
209.991300 1796.000000
229.996300 4684.000000
231.001200 528.000000

>ms2
161.016000 852.000000
162.024300 764.000000
178.993000 340.000000
209.990200 1796.000000
229.997600 24500.000000
230.998700 1576.000000
231.993000 600.000000

>ms2
229.996900 19972.000000
230.999500 1524.000000
231.995000 660.000000
382.066800 3672.000000
383.065500 348.000000

>ms2
229.997700 25036.000000
230.998800 1944.000000
231.992100 716.000000

>ms2
161.016000 852.000000
162.024300 764.000000
178.993000 340.000000
209.990200 1796.000000
229.997600 24500.000000
230.998700 1576.000000
231.993000 600.000000

