>compound AU36110313
>parentmass 434.2198
>ionization [M-H]-
>formula C24H29N5O3
>rt 392.250000
>profile qtof
#smiles_iso CCCCC(=O)N(CC1=CC=C(C=C1)C2=CC=CC=C2C3=NNN=N3)[C@@H](C(C)C)C(=O)O
#smiles_can CCCCC(=O)N(CC1=CC=C(C=C1)C2=CC=CC=C2C3=NNN=N3)C(C(C)C)C(=O)O
#inchikey ACWBQPMHZXGDFX-QFIPXVFZSA-N
#pubchem_id 60846
#mb_accession AU111251,AU111252,AU111253,AU111254

>ms2peaks
434.213900 1664.000000
435.216500 456.000000

>ms2peaks
179.083200 728.000000
350.159800 700.000000
434.213500 1440.000000
435.220300 316.000000

>ms2peaks
179.084100 1096.000000

>ms2peaks
179.084400 852.000000

