>compound AU37543540
>parentmass 223.9999
>ionization [M-H]-
>formula C7H6F3NO2S
>rt 299.800000
>profile qtof
#smiles_iso C1=CC=C(C(=C1)C(F)(F)F)S(=O)(=O)N
#smiles_can C1=CC=C(C(=C1)C(F)(F)F)S(=O)(=O)N
#inchikey AFFPZJFLSDVZBV-UHFFFAOYSA-N
#pubchem_id 2778018
#mb_accession AU233757,AU233758,AU233759

>ms2
120.025500 448.000000
140.032400 692.000000
145.027500 404.000000
160.037600 8604.000000
161.042700 904.000000
223.999400 19036.000000
225.001800 2368.000000
225.993300 1224.000000

>ms2
120.029900 372.000000
140.032100 860.000000
145.026400 1036.000000
160.037400 3420.000000
224.002300 1516.000000

>ms2
145.028800 468.000000

