>compound AU37032622
>parentmass 358.142
>ionization [M-H]-
>formula C15H22FN3O6
>rt 448.290000
>profile qtof
#smiles_iso CCCCCOC(=O)NC1=NC(=O)N(C=C1F)[C@H]2[C@@H]([C@@H]([C@H](O2)C)O)O
#smiles_can CCCCCOC(=O)NC1=NC(=O)N(C=C1F)C2C(C(C(O2)C)O)O
#inchikey GAGWJHPBXLXJQN-UORFTKCHSA-N
#pubchem_id 60953
#mb_accession AU235357,AU235358,AU235359,AU235360

>ms2peaks
154.004600 1456.000000
358.140400 6076.000000
359.143700 1196.000000

>ms2peaks
153.010000 340.000000
154.006300 3308.000000
199.087400 388.000000
242.095200 392.000000
284.109000 420.000000
358.137100 976.000000

>ms2peaks
153.009300 572.000000
154.005800 1372.000000

>ms2peaks
153.008800 384.000000
153.012000 368.000000

