>compound AU37958795
>parentmass 462.9632
>ionization [M-H]-
>formula C9HF17O2
>rt 627.600000
>profile qtof
#smiles_iso C(=O)(C(C(C(C(C(C(C(C(F)(F)F)(F)F)(F)F)(F)F)(F)F)(F)F)(F)F)(F)F)O
#smiles_can C(=O)(C(C(C(C(C(C(C(C(F)(F)F)(F)F)(F)F)(F)F)(F)F)(F)F)(F)F)(F)F)O
#inchikey UZUFPBIDKMEQEQ-UHFFFAOYSA-N
#pubchem_id 67821
#mb_accession AU594950,AU594951,AU594952

>ms2peaks
418.971300 4372.000000
462.960200 388.000000

>ms2peaks
168.988800 1720.000000
196.983000 304.000000
218.986700 1472.000000
268.983200 400.000000
418.973700 1164.000000

>ms2peaks
168.988900 752.000000
218.984500 392.000000

