>compound AU38006510
>parentmass 183.0485
>ionization [M-H]-
>formula C9H12O2S
>rt 276.795000
>profile qtof
#smiles_iso CC1=CC(=CC(=C1S(=O)C)C)O
#smiles_can CC1=CC(=CC(=C1S(=O)C)C)O
#inchikey ZHBBDQFXEDCQFI-UHFFFAOYSA-N
#pubchem_id 3029900
#mb_accession AU233857,AU233858,AU233859,AU233860

>ms2
135.045800 632.000000
150.014900 512.000000
151.021100 592.000000
153.004600 544.000000
167.016800 408.000000
168.025500 52856.000000
169.028100 6192.000000
170.023300 2068.000000
183.048500 1380.000000

>ms2
123.028200 2036.000000
135.045500 1536.000000
136.051600 320.000000
137.006500 324.000000
139.021400 540.000000
149.006400 672.000000
150.014000 1628.000000
151.021900 5044.000000
152.024800 552.000000
152.033700 488.000000
153.000900 1220.000000
167.016500 1000.000000
168.024500 19544.000000
169.029000 2528.000000
170.021000 808.000000

>ms2
123.027800 3532.000000
135.045000 920.000000
138.014700 368.000000
149.008000 568.000000
150.013500 544.000000
151.022500 3460.000000
167.019100 520.000000
168.024000 1740.000000

>ms2
123.027400 2308.000000
147.997500 316.000000
149.003000 376.000000
151.022200 932.000000

