>compound AU38381371
>parentmass 169.0441
>ionization [M-H]-
>formula C7H10N2OS
>rt 266.400000
>profile qtof
#smiles_iso CCCC1=CC(=O)NC(=S)N1
#smiles_can CCCC1=CC(=O)NC(=S)N1
#inchikey KNAHARQHSZJURB-UHFFFAOYSA-N
#pubchem_id 657298
#mb_accession AU238562

>ms2peaks
57.974600 6776.000000
59.970600 336.000000

