>compound AU39536390
>parentmass 335.1976
>ionization [M-H]-
>formula C18H28N2O4
>rt 298.780000
>profile qtof
#smiles_iso CCCC(=O)NC1=CC(=C(C=C1)OCC(CNC(C)C)O)C(=O)C
#smiles_can CCCC(=O)NC1=CC(=C(C=C1)OCC(CNC(C)C)O)C(=O)C
#inchikey GOEMGAFJFRBGGG-UHFFFAOYSA-N
#pubchem_id 1978
#mb_accession AU228110,AU228111,AU228112,AU228157,AU228158,AU228159

>ms2
134.024100 672.000000
176.035200 3604.000000
177.039100 364.000000

>ms2
134.025100 960.000000
176.035900 2544.000000

>ms2
176.035500 3824.000000
177.037600 452.000000
219.091200 1044.000000

>ms2
335.195000 1672.000000
336.196500 344.000000

>ms2
176.036100 796.000000
219.090500 2692.000000
220.094800 456.000000
335.197400 536.000000

>ms2
176.035500 3824.000000
177.037600 452.000000
219.091200 1044.000000

