>compound AU39566979
>parentmass 362.96959999999996
>ionization [M-H]-
>formula C7HF13O2
>rt 528.847500
>profile qtof
#smiles_iso C(=O)(C(C(C(C(C(C(F)(F)F)(F)F)(F)F)(F)F)(F)F)(F)F)O
#smiles_can C(=O)(C(C(C(C(C(C(F)(F)F)(F)F)(F)F)(F)F)(F)F)(F)F)O
#inchikey ZWBAMYVPMDSJGQ-UHFFFAOYSA-N
#pubchem_id 67818
#mb_accession AU241057,AU241058,AU241059,AU241060,AU241062,AU594750,AU594751,AU594752

>ms2
118.990900 884.000000
168.989800 20824.000000
169.994100 920.000000
296.973400 704.000000
318.979700 103712.000000
319.982600 7240.000000
362.968300 1400.000000

>ms2
118.991500 1504.000000
168.989200 18844.000000
318.977700 4656.000000
319.978400 388.000000

>ms2
118.993400 532.000000
168.989200 3560.000000

>ms2
118.993700 420.000000
168.989400 616.000000

>ms2
118.993200 1632.000000
162.985400 592.000000
168.989300 5220.000000

>ms2
168.988700 700.000000
318.979100 18952.000000
362.969300 920.000000

>ms2
118.994100 304.000000
168.988400 3488.000000
318.978300 664.000000

>ms2
168.988600 552.000000

