>compound AU40157435
>parentmass 703.3825
>ionization [M-H]-
>formula C38H52N6O7
>rt 651.792000
>profile qtof
#smiles_iso CC(C)(C)[C@@H](C(=O)N[C@@H](CC1=CC=CC=C1)[C@H](CN(CC2=CC=C(C=C2)C3=CC=CC=N3)NC(=O)[C@H](C(C)(C)C)NC(=O)OC)O)NC(=O)OC
#smiles_can CC(C)(C)C(C(=O)NC(CC1=CC=CC=C1)C(CN(CC2=CC=C(C=C2)C3=CC=CC=N3)NC(=O)C(C(C)(C)C)NC(=O)OC)O)NC(=O)OC
#inchikey AXRYRYVKAWYZBR-GASGPIRDSA-N
#pubchem_id 148192
#mb_accession AU214851,AU214852,AU214853,AU214854,AU214855

>ms2peaks
703.373900 732.000000

>ms2peaks
155.080800 528.000000
639.319900 640.000000
671.348000 344.000000

>ms2peaks
155.080100 1564.000000
483.236400 332.000000
639.323100 612.000000

>ms2peaks
155.080900 3104.000000
156.084700 304.000000

>ms2peaks
155.081200 3608.000000
195.088900 420.000000

