>compound AU40562565
>parentmass 213.0557
>ionization [M-H]-
>formula C13H10O3
>rt 383.220000
>profile qtof
#smiles_iso C1=CC=C(C=C1)OC2=CC=CC(=C2)C(=O)O
#smiles_can C1=CC=C(C=C1)OC2=CC=CC(=C2)C(=O)O
#inchikey NXTDJHZGHOFSQG-UHFFFAOYSA-N
#pubchem_id 19539
#mb_accession AU200551

>ms2peaks
169.064400 2468.000000
213.054300 3924.000000
214.057600 640.000000

