>compound AU40669544
>parentmass 161.022
>ionization [M-H]-
>formula C7H5F3O
>rt 490.840000
>profile qtof
#smiles_iso C1=CC(=CC=C1C(F)(F)F)O
#smiles_can C1=CC(=CC=C1C(F)(F)F)O
#inchikey BAYGVMXZJBFEMB-UHFFFAOYSA-N
#pubchem_id 67874
#mb_accession AU200951,AU200952,AU200953

>ms2peaks
141.016700 616.000000
161.023800 38176.000000
162.027400 1780.000000

>ms2peaks
121.011300 1180.000000
141.018400 1384.000000
161.024600 6180.000000
162.028200 388.000000

>ms2peaks
121.011300 828.000000
141.017400 300.000000

