>compound AU40750962
>parentmass 249.0322
>ionization [M-H]-
>formula C12H11O4P
>rt 384.400000
>profile qtof
#smiles_iso C1=CC=C(C=C1)OP(=O)(O)OC2=CC=CC=C2
#smiles_can C1=CC=C(C=C1)OP(=O)(O)OC2=CC=CC=C2
#inchikey ASMQGLCHMVWBQR-UHFFFAOYSA-N
#pubchem_id 13282
#mb_accession AU230157,AU230158,AU230159

>ms2peaks
249.033000 7084.000000
250.034800 1196.000000

>ms2peaks
154.991600 424.000000
249.032400 4652.000000
250.037300 512.000000

>ms2peaks
154.989700 620.000000
249.033000 592.000000

