>compound AU46571952
>parentmass 265.1479
>ionization [M-H]-
>formula C12H26O4S
>rt 683.400000
>profile qtof
#smiles_iso CCCCCCCCCCCCOS(=O)(=O)O
#smiles_can CCCCCCCCCCCCOS(=O)(=O)O
#inchikey MOTZDAYCYVMXPC-UHFFFAOYSA-N
#pubchem_id 8778
#mb_accession AU240757,AU240758,AU240759,AU240762,AU406651,AU406652,AU406653,AU406656

>ms2
265.147300 48724.000000
266.149700 8096.000000
267.146400 2412.000000

>ms2
265.146700 27436.000000
266.149500 5248.000000
267.144300 1644.000000

>ms2
265.146400 1620.000000

>ms2
79.957200 776.000000
96.958900 9540.000000
98.955900 340.000000
265.148100 6232.000000
266.150500 1196.000000
267.146100 324.000000

>ms2
265.146600 54816.000000

>ms2
265.146400 30984.000000

>ms2
265.146700 3344.000000

>ms2
79.957500 5992.000000
95.952400 1316.000000
96.960200 185192.000000
265.147400 31540.000000

