>compound AU46594097
>parentmass 513.2296
>ionization [M-H]-
>formula C33H30N4O2
>rt 574.908000
>profile qtof
#smiles_iso CCCC1=NC2=C(N1CC3=CC=C(C=C3)C4=CC=CC=C4C(=O)O)C=C(C=C2C)C5=NC6=CC=CC=C6N5C
#smiles_can CCCC1=NC2=C(N1CC3=CC=C(C=C3)C4=CC=CC=C4C(=O)O)C=C(C=C2C)C5=NC6=CC=CC=C6N5C
#inchikey RMMXLENWKUUMAY-UHFFFAOYSA-N
#pubchem_id 65999
#mb_accession AU225151,AU225152,AU225153,AU225154,AU225155

>ms2peaks
513.224900 2000.000000
514.225800 828.000000

>ms2peaks
334.140200 392.000000
469.233300 764.000000
513.222900 1028.000000
514.224600 596.000000

>ms2peaks
287.126400 1180.000000
334.139500 720.000000
469.234300 756.000000

>ms2peaks
287.127700 1984.000000
288.130600 320.000000
303.158000 768.000000
469.234100 448.000000

>ms2peaks
287.126600 2868.000000
288.129400 504.000000
303.158500 1384.000000

