>compound AU46313095
>parentmass 199.0547
>ionization [M-H]-
>formula C8H12N2O2S
>rt 366.150000
>profile qtof
#smiles_iso CN(C)S(=O)(=O)NC1=CC=CC=C1
#smiles_can CN(C)S(=O)(=O)NC1=CC=CC=C1
#inchikey QCDQDISRALTLNQ-UHFFFAOYSA-N
#pubchem_id 78441
#mb_accession AU204251,AU204252

>ms2peaks
155.004600 884.000000
199.055000 5436.000000
200.061000 464.000000

>ms2peaks
155.004300 800.000000
199.053600 692.000000

