>compound AU47417514
>parentmass 201.0782
>ionization [M-H]-
>formula C10H10N4O
>rt 311.025000
>profile qtof
#smiles_iso CC1=NN=C(C(=O)N1N)C2=CC=CC=C2
#smiles_can CC1=NN=C(C(=O)N1N)C2=CC=CC=C2
#inchikey VHCNQEUWZYOAEV-UHFFFAOYSA-N
#pubchem_id 38854
#mb_accession AU231657,AU231658,AU231659,AU231660

>ms2
117.034200 3556.000000
158.070700 1104.000000
185.058000 3104.000000
201.077100 5796.000000

>ms2
117.034900 4564.000000
158.070800 468.000000
185.059700 360.000000

>ms2
117.034500 2768.000000
118.039500 580.000000

>ms2
117.034700 1608.000000

