>compound AU48300585
>parentmass 178.0543
>ionization [M-H]-
>formula C6H13NO3S
>rt 235.455000
>profile qtof
#smiles_iso C1CCC(CC1)NS(=O)(=O)O
#smiles_can C1CCC(CC1)NS(=O)(=O)O
#inchikey HCAJEUSONLESMK-UHFFFAOYSA-N
#pubchem_id 7533
#mb_accession AU237957,AU237958,AU237959,AU237962

>ms2
164.035100 724.000000
178.054100 8072.000000

>ms2
164.035800 1044.000000
178.053500 1932.000000

>ms2
164.035000 376.000000

>ms2
78.033700 308.000000
79.956400 1460.000000
178.054200 1816.000000

