>compound AU49798532
>parentmass 612.9537
>ionization [M-H]-
>formula C12HF23O2
>rt 726.516000
>profile qtof
#smiles_iso C(=O)(C(C(C(C(C(C(C(C(C(C(C(F)(F)F)(F)F)(F)F)(F)F)(F)F)(F)F)(F)F)(F)F)(F)F)(F)F)(F)F)O
#smiles_can C(=O)(C(C(C(C(C(C(C(C(C(C(C(F)(F)F)(F)F)(F)F)(F)F)(F)F)(F)F)(F)F)(F)F)(F)F)(F)F)(F)F)O
#inchikey CXGONMQFMIYUJR-UHFFFAOYSA-N
#pubchem_id 67545
#mb_accession AU595250,AU595251,AU595252,AU595253,AU595254

>ms2peaks
568.963000 16636.000000
612.952000 5876.000000

>ms2peaks
168.988100 1292.000000
218.985200 1668.000000
268.983200 2396.000000
318.980400 2668.000000
368.977000 724.000000
568.962900 11744.000000
569.966800 700.000000

>ms2peaks
168.989100 2744.000000
218.985600 1272.000000
268.983400 1584.000000
318.978300 844.000000
368.975300 320.000000

>ms2peaks
168.989000 2176.000000
218.985600 408.000000

>ms2peaks
168.989700 1008.000000

