>compound AU49777347
>parentmass 357.1707
>ionization [M-H]-
>formula C21H26O5
>rt 429.765000
>profile qtof
#smiles_iso C[C@]12CC(=O)[C@H]3[C@H]([C@@H]1CC[C@@]2(C(=O)CO)O)CCC4=CC(=O)C=C[C@]34C
#smiles_can CC12CC(=O)C3C(C1CCC2(C(=O)CO)O)CCC4=CC(=O)C=CC34C
#inchikey XOFYZVNMUHMLCC-ZPOLXVRWSA-N
#pubchem_id 5865
#mb_accession AU240157,AU240158,AU240159,AU240160

>ms2peaks
299.168400 508.000000
325.144200 412.000000
327.158400 2368.000000
328.163200 956.000000

>ms2peaks
123.045200 424.000000
327.158800 1156.000000
328.159000 368.000000

>ms2peaks
123.046200 360.000000
136.052400 324.000000
149.060100 580.000000
285.148000 408.000000
327.166400 548.000000

>ms2peaks
123.044100 328.000000
149.059900 808.000000

