>compound AU50081641
>parentmass 530.8956
>ionization [M-H]-
>formula C8HClF16O4S
>rt 646.368000
>profile qtof
#smiles_iso C(C(C(C(F)(F)Cl)(F)F)(F)F)(C(C(OC(C(F)(F)S(=O)(=O)O)(F)F)(F)F)(F)F)(F)F
#smiles_can C(C(C(C(F)(F)Cl)(F)F)(F)F)(C(C(OC(C(F)(F)S(=O)(=O)O)(F)F)(F)F)(F)F)(F)F
#inchikey GGOUUEMCWBTDMT-UHFFFAOYSA-N
#pubchem_id 22568738
#mb_accession AU593450,AU593451,AU593452,AU593453,AU593454

>ms2
530.895100 58516.000000

>ms2
350.944100 2788.000000
352.941300 456.000000
530.895300 56648.000000

>ms2
350.945200 38560.000000
351.948000 612.000000
352.942000 3724.000000
530.896000 10792.000000

>ms2
350.944000 17092.000000
352.940500 2100.000000

>ms2
350.944800 1372.000000
352.940900 316.000000

