>compound AU51625988
>parentmass 421.1549
>ionization [M-H]-
>formula C22H23ClN6O
>rt 479.400000
>profile qtof
#smiles_iso CCCCC1=NC(=C(N1CC2=CC=C(C=C2)C3=CC=CC=C3C4=NNN=N4)CO)Cl
#smiles_can CCCCC1=NC(=C(N1CC2=CC=C(C=C2)C3=CC=CC=C3C4=NNN=N4)CO)Cl
#inchikey PSIFNNKUMBGKDQ-UHFFFAOYSA-N
#pubchem_id 3961
#mb_accession AU228010,AU228011,AU228012,AU228057,AU228058,AU228059

>ms2
127.007300 1600.000000
129.002600 464.000000
157.055000 1052.000000
179.086000 1524.000000
187.064200 664.000000

>ms2
127.007200 2036.000000
129.003900 364.000000
157.054000 848.000000
179.085400 708.000000
187.063600 344.000000

>ms2
127.007100 2780.000000
129.004800 516.000000
157.054200 1360.000000
159.051800 380.000000
179.086600 2024.000000
180.088500 424.000000
187.063300 1360.000000
189.062600 328.000000
195.082200 600.000000
335.131600 396.000000

>ms2
421.153400 5568.000000
422.156100 1016.000000
423.150700 1352.000000

>ms2
127.007100 1000.000000
155.038700 376.000000
156.044400 572.000000
157.052400 792.000000
179.086700 1280.000000
187.063500 940.000000
188.034400 416.000000
195.082500 508.000000
335.128800 908.000000
363.135600 308.000000
421.153900 3044.000000
422.158600 836.000000
423.146800 1136.000000

>ms2
127.007100 2780.000000
129.004800 516.000000
157.054200 1360.000000
159.051800 380.000000
179.086600 2024.000000
180.088500 424.000000
187.063300 1360.000000
189.062600 328.000000
195.082200 600.000000
335.131600 396.000000

