>compound AU51943122
>parentmass 254.045
>ionization [M-H]-
>formula C9H10ClN5O2
>rt 281.060000
>profile qtof
#smiles_iso C1CN(C(=N1)N[N+](=O)[O-])CC2=CN=C(C=C2)Cl
#smiles_can C1CN(C(=N1)N[N+](=O)[O-])CC2=CN=C(C=C2)Cl
#inchikey YWTYJOPNNQFBPC-UHFFFAOYSA-N
#pubchem_id 86418
#mb_accession AU232257,AU232258,AU303651

>ms2
153.020700 880.000000
155.018500 348.000000
254.042800 4380.000000
256.040600 1620.000000

>ms2
254.047300 344.000000

>ms2
153.023400 344.000000
254.043900 1216.000000
256.043500 332.000000

