>compound AU51372592
>parentmass 347.9158
>ionization [M-H]-
>formula C13H7Cl4NO2
>rt 643.320000
>profile qtof
#smiles_iso C1=CC(=C(C=C1NC(=O)C2=C(C(=CC(=C2)Cl)Cl)O)Cl)Cl
#smiles_can C1=CC(=C(C=C1NC(=O)C2=C(C(=CC(=C2)Cl)Cl)O)Cl)Cl
#inchikey SJQBHPJLLIJASD-UHFFFAOYSA-N
#pubchem_id 14385
#mb_accession AU236957,AU236958,AU236960,AU236962

>ms2
160.957900 364.000000
347.914100 27072.000000

>ms2
124.979400 936.000000
126.974300 300.000000
159.971700 712.000000
160.955200 5192.000000
161.968200 488.000000
162.953600 1744.000000
347.912600 2532.000000

>ms2
124.979300 1576.000000
159.971200 1216.000000
160.956200 8576.000000
161.961100 780.000000
162.953700 2464.000000
185.951700 368.000000
347.914300 4612.000000

>ms2
124.982600 364.000000
160.956700 768.000000
162.953400 328.000000
347.914400 320.000000

