>compound AU52112881
>parentmass 293.1792
>ionization [M-H]-
>formula C14H30O4S
>rt 758.010000
>profile qtof
#smiles_iso CCCCCCCCCCCCCCOS(=O)(=O)O
#smiles_can CCCCCCCCCCCCCCOS(=O)(=O)O
#inchikey URLJMZWTXZTZRR-UHFFFAOYSA-N
#pubchem_id 5248
#mb_accession AU241157,AU241158,AU241159,AU241162

>ms2
293.178900 50576.000000
294.180800 7924.000000
295.174800 2908.000000

>ms2
293.178400 37476.000000
294.180900 6432.000000
295.177800 1700.000000

>ms2
293.178800 4540.000000
294.183800 832.000000

>ms2
79.957300 456.000000
96.959400 9132.000000
98.953700 348.000000
293.178700 10676.000000
294.184100 1732.000000
295.172700 332.000000

