>compound AU52780268
>parentmass 294.0094
>ionization [M-H]-
>formula C14H11Cl2NO2
>rt 521.025000
>profile qtof
#smiles_iso C1=CC=C(C(=C1)CC(=O)O)NC2=C(C=CC=C2Cl)Cl
#smiles_can C1=CC=C(C(=C1)CC(=O)O)NC2=C(C=CC=C2Cl)Cl
#inchikey DCOPUUMXTXDBNB-UHFFFAOYSA-N
#pubchem_id 3033
#mb_accession AU234657,AU234658,AU234659,AU234660

>ms2peaks
250.018300 2980.000000
251.019700 508.000000
252.019700 1344.000000
294.009600 364.000000

>ms2peaks
214.042300 476.000000
250.020800 1760.000000
251.023200 320.000000
252.016300 920.000000

>ms2peaks
214.044300 436.000000

>ms2peaks
148.050200 324.000000
178.068500 344.000000

