>compound AU53437056
>parentmass 309.0663
>ionization [M-H]-
>formula C12H14N4O4S
>rt 286.110000
>profile qtof
#smiles_iso COC1=NC(=NC(=C1)NS(=O)(=O)C2=CC=C(C=C2)N)OC
#smiles_can COC1=NC(=NC(=C1)NS(=O)(=O)C2=CC=C(C=C2)N)OC
#inchikey ZZORFUFYDOWNEF-UHFFFAOYSA-N
#pubchem_id 5323
#mb_accession AU236357,AU236358,AU236359,AU236360

>ms2peaks
309.064300 14228.000000
310.065900 2408.000000
311.063100 816.000000

>ms2peaks
154.063600 356.000000
195.021900 500.000000
230.078300 624.000000
309.063900 7968.000000
311.062900 476.000000

>ms2peaks
122.037400 312.000000
131.062900 752.000000
144.058200 448.000000
154.064100 584.000000
171.026200 436.000000
174.065900 560.000000
188.045300 356.000000
195.023400 416.000000
199.060600 356.000000
215.056500 652.000000
229.073300 732.000000
230.078700 468.000000
309.062700 1244.000000

>ms2peaks
122.034700 392.000000
131.058400 460.000000
139.039600 464.000000
154.059800 556.000000
171.023300 344.000000

