>compound AU54681026
>parentmass 231.0097
>ionization [M-H]-
>formula C9H10Cl2N2O
>rt 509.613333
>profile qtof
#smiles_iso CN(C)C(=O)NC1=CC(=C(C=C1)Cl)Cl
#smiles_can CN(C)C(=O)NC1=CC(=C(C=C1)Cl)Cl
#inchikey XMTQQYYKAHVGBJ-UHFFFAOYSA-N
#pubchem_id 3120
#mb_accession AU241257,AU241258,AU241259,AU241260,AU241262,AU341051,AU341052,AU341053,AU341054

>ms2peaks
149.974200 896.000000
159.972300 4184.000000
161.970100 2832.000000
185.951100 12208.000000
186.953400 656.000000
187.948500 5424.000000
231.009400 69844.000000
232.011800 8976.000000
233.006400 35540.000000

>ms2peaks
149.975300 5604.000000
150.980600 620.000000
151.972500 1140.000000
159.972800 3680.000000
161.969200 2304.000000
185.951500 16604.000000
186.953700 2068.000000
187.948800 8388.000000
231.008600 8076.000000
233.005600 4956.000000

>ms2peaks
149.974600 3336.000000
151.972100 1096.000000
159.973900 376.000000
185.951800 2692.000000
187.948500 1404.000000
231.008000 352.000000

>ms2peaks
149.974600 832.000000
185.951900 372.000000

>ms2peaks
149.975400 6832.000000
150.980300 580.000000
151.971700 956.000000
159.972400 4208.000000
161.970300 1308.000000
185.951800 11304.000000
186.954100 836.000000
187.948500 4324.000000
231.008800 4704.000000
232.011900 468.000000
233.006400 1776.000000

>ms2peaks
159.973700 844.000000
161.971100 404.000000
185.952900 1672.000000
187.949600 868.000000
231.010200 30800.000000
232.012900 2024.000000
233.007700 13532.000000

>ms2peaks
149.974700 1500.000000
159.973300 2952.000000
161.969800 1112.000000
185.952400 8768.000000
186.955400 392.000000
187.949500 4068.000000
231.010700 9280.000000
232.014400 660.000000
233.007300 3536.000000

>ms2peaks
149.974700 2244.000000
151.972000 404.000000
159.971200 416.000000
185.952100 1928.000000
187.949200 1008.000000

>ms2peaks
149.976400 596.000000

