>compound AU57439815
>parentmass 327.0099
>ionization [M-H]-
>formula C14H13ClO5S
>rt 226.188000
>profile qtof
#smiles_iso CS(=O)(=O)C1=CC(=C(C=C1)C(=O)C2C(=O)CCCC2=O)Cl
#smiles_can CS(=O)(=O)C1=CC(=C(C=C1)C(=O)C2C(=O)CCCC2=O)Cl
#inchikey PQTBTIFWAXVEPB-UHFFFAOYSA-N
#pubchem_id 91760
#mb_accession AU238657,AU238658,AU238659,AU238660,AU238662

>ms2peaks
291.033200 3916.000000
292.034300 652.000000
327.008600 304.000000

>ms2peaks
291.030800 2500.000000
292.033400 564.000000

>ms2peaks
212.044900 576.000000
215.033300 644.000000
216.041200 600.000000
249.025900 568.000000
291.033800 1016.000000

>ms2peaks
212.044500 684.000000
215.036200 412.000000
216.043100 416.000000
249.024200 332.000000

>ms2peaks
212.050800 312.000000
215.032800 504.000000
291.033400 884.000000

