>compound AU57871279
>parentmass 380.0686
>ionization [M-H]-
>formula C17H14F3N3O2S
>rt 615.195000
>profile qtof
#smiles_iso CC1=CC=C(C=C1)C2=CC(=NN2C3=CC=C(C=C3)S(=O)(=O)N)C(F)(F)F
#smiles_can CC1=CC=C(C=C1)C2=CC(=NN2C3=CC=C(C=C3)S(=O)(=O)N)C(F)(F)F
#inchikey RZEKVGVHFLEQIL-UHFFFAOYSA-N
#pubchem_id 2662
#mb_accession AU235657,AU235658,AU235659,AU235660

>ms2peaks
316.104900 1100.000000
380.068000 36012.000000
381.069700 6408.000000
382.064700 2048.000000

>ms2peaks
179.042500 480.000000
247.109900 568.000000
276.099400 712.000000
296.097000 1532.000000
297.100400 360.000000
316.105300 10060.000000
317.086900 404.000000
317.106100 1312.000000
380.066900 27996.000000
381.068900 5520.000000
382.063000 1712.000000

>ms2peaks
139.030300 436.000000
159.037700 908.000000
179.042500 1408.000000
221.093200 404.000000
225.060900 696.000000
246.098200 776.000000
246.107200 396.000000
247.109900 2252.000000
248.105600 384.000000
249.079300 484.000000
256.086700 412.000000
268.090700 616.000000
269.084500 396.000000
269.093700 368.000000
275.081200 320.000000
276.092800 3096.000000
277.094300 528.000000
296.096800 2232.000000
297.097900 500.000000
316.104500 6016.000000
317.103400 1400.000000
380.069000 4008.000000
381.067300 932.000000

>ms2peaks
130.054000 336.000000
139.032700 516.000000
159.036800 1316.000000
179.041700 1224.000000
198.039900 360.000000
221.095200 360.000000
225.061600 1760.000000
247.110600 1356.000000
249.084000 480.000000
256.087500 364.000000
275.087200 320.000000
276.094000 1752.000000
277.090400 396.000000
296.096000 572.000000
316.106000 712.000000

