>compound AU59623983
>parentmass 313.2173
>ionization [M-H]-
>formula C21H30O2
>rt 830.070000
>profile qtof
#smiles_iso CCCCCC1=CC(=C2C3C=C(CCC3C(OC2=C1)(C)C)C)O
#smiles_can CCCCCC1=CC(=C2C3C=C(CCC3C(OC2=C1)(C)C)C)O
#inchikey CYQFCXCEBYINGO-UHFFFAOYSA-N
#pubchem_id 2978
#mb_accession AU158351,AU158352,AU158353,AU158354

>ms2
313.213500 2768.000000
314.213600 456.000000

>ms2
313.213700 3300.000000
314.219100 640.000000

>ms2
191.105000 384.000000
245.151300 456.000000
313.214000 1104.000000

>ms2
191.104800 336.000000

