>compound AU61909721
>parentmass 418.93649999999997
>ionization [M-H]-
>formula C12H4Cl2F6N4S
>rt 637.824000
>profile qtof
#smiles_iso C1=C(C=C(C(=C1Cl)N2C(=C(C(=N2)C#N)SC(F)(F)F)N)Cl)C(F)(F)F
#smiles_can C1=C(C=C(C(=C1Cl)N2C(=C(C(=N2)C#N)SC(F)(F)F)N)Cl)C(F)(F)F
#inchikey FQXWEKADCSXYOC-UHFFFAOYSA-N
#pubchem_id 9953940
#mb_accession AU242057,AU242058,AU242059,AU242060,AU242062

>ms2
261.958400 3888.000000
313.964000 43560.000000
315.961500 8564.000000
382.960500 686272.000000
383.962200 56424.000000
384.957000 144060.000000
385.958000 7976.000000
418.936500 54608.000000
419.937700 5904.000000
420.933600 31724.000000

>ms2
150.003600 3228.000000
170.010000 64096.000000
171.012500 3532.000000
217.986000 42016.000000
218.988400 2752.000000
219.983200 7688.000000
233.981800 11780.000000
235.976900 3452.000000
245.979600 3564.000000
249.957600 5596.000000
251.954700 1488.000000
261.958600 147468.000000
262.960300 9220.000000
263.954700 33828.000000
264.956600 1880.000000
313.964600 289692.000000
314.966200 23836.000000
315.961300 68768.000000
316.962200 4632.000000
330.952100 5984.000000
332.951900 1688.000000
382.960200 269668.000000
383.961600 21672.000000
384.956500 62760.000000
385.956700 4652.000000

>ms2
150.003400 5544.000000
170.009900 174032.000000
171.012200 8424.000000
217.986500 87908.000000
218.989400 4636.000000
219.983500 15240.000000
233.981000 30964.000000
234.983600 2120.000000
235.977500 6920.000000
245.980400 6512.000000
247.978000 1972.000000
249.958700 10924.000000
251.956200 3136.000000
261.958700 351392.000000
262.960400 20980.000000
263.955600 80224.000000
264.957500 3972.000000
313.964100 56900.000000
314.965500 5088.000000
315.961100 14784.000000
330.951900 3924.000000
382.958400 11152.000000
384.957300 2564.000000

>ms2
150.003300 5324.000000
170.009600 153736.000000
171.012100 7340.000000
183.017700 1824.000000
192.962500 1936.000000
217.986200 61176.000000
218.988900 3352.000000
219.982700 12480.000000
226.989500 6224.000000
233.980700 27772.000000
234.947800 1504.000000
234.984100 1880.000000
235.977000 6376.000000
245.980300 4856.000000
247.978200 1476.000000
249.957400 9936.000000
251.953200 2320.000000
261.958300 289616.000000
262.960400 18752.000000
263.955100 63380.000000
264.955600 3028.000000
313.963500 2960.000000
330.949800 1732.000000

>ms2
57.974500 23528.000000
59.969900 920.000000
81.000000 1200.000000
88.005100 9644.000000
89.997200 616.000000
100.966200 14192.000000
150.002200 3072.000000
170.010100 123164.000000
171.012300 10144.000000
192.962100 832.000000
214.988000 1420.000000
217.986000 29952.000000
218.988500 1980.000000
219.981800 3828.000000
226.989900 2660.000000
233.981200 42488.000000
234.945000 904.000000
234.983800 3036.000000
235.977900 6792.000000
245.980500 2340.000000
249.957800 14300.000000
250.961300 892.000000
251.954600 2264.000000
252.954800 940.000000
261.957900 106820.000000
262.959900 10136.000000
263.954300 17756.000000
264.957100 628.000000
313.964100 36860.000000
314.965900 4600.000000
315.960700 6596.000000
330.951800 2796.000000
382.957500 7828.000000
383.961200 1220.000000
384.955500 1668.000000

