>compound AU62382022
>parentmass 249.0227
>ionization [M-H]-
>formula C12H10O4S
>rt 314.184000
>profile qtof
#smiles_iso C1=CC(=CC=C1O)S(=O)(=O)C2=CC=C(C=C2)O
#smiles_can C1=CC(=CC=C1O)S(=O)(=O)C2=CC=C(C=C2)O
#inchikey VPWNQTHUCYMVMZ-UHFFFAOYSA-N
#pubchem_id 6626
#mb_accession AU237057,AU237058,AU237059,AU237060,AU237062

>ms2
155.987800 704.000000
185.059100 400.000000
249.022300 73444.000000
250.024200 11152.000000
251.020600 3660.000000

>ms2
155.988000 5620.000000
156.994200 648.000000
157.063800 352.000000
184.052100 1516.000000
185.059900 1896.000000
249.022100 34084.000000
250.023900 6504.000000
251.019500 1144.000000

>ms2
108.021300 396.000000
155.988400 1396.000000
156.994700 636.000000
184.052800 1636.000000
185.058700 660.000000
249.021700 2996.000000

>ms2
184.050600 376.000000

>ms2
79.955800 2868.000000
92.025900 552.000000
108.020500 5312.000000
155.988700 2216.000000
156.993500 332.000000
184.052700 1708.000000
185.060000 908.000000
249.022200 15816.000000
250.024700 2136.000000

