>compound AU63333544
>parentmass 239.04960000000003
>ionization [M-H]-
>formula C10H12N2O3S
>rt 258.210000
>profile qtof
#smiles_iso CC(C)N1C(=O)C2=CC=CC=C2NS1(=O)=O
#smiles_can CC(C)N1C(=O)C2=CC=CC=C2NS1(=O)=O
#inchikey ZOMSMJKLGFBRBS-UHFFFAOYSA-N
#pubchem_id 2328
#mb_accession AU231357,AU231358,AU231359,AU231360,AU325851,AU325852,AU325853,AU325854

>ms2peaks
132.032300 3692.000000
133.040100 1684.000000
175.086800 8496.000000
197.001600 7488.000000
239.049800 175020.000000
240.051800 23148.000000
241.046000 7060.000000

>ms2peaks
117.046600 744.000000
132.032700 31276.000000
133.040100 16344.000000
134.042800 1720.000000
145.065700 364.000000
146.071600 316.000000
147.081600 1664.000000
148.085500 312.000000
175.086700 26996.000000
176.090600 4228.000000
194.985200 352.000000
195.994200 4976.000000
197.002000 25916.000000
198.004400 3644.000000
198.997100 1396.000000
239.049400 54620.000000
240.051500 7808.000000
241.045600 2232.000000

>ms2peaks
117.045600 2292.000000
118.049600 472.000000
132.033100 35740.000000
133.039900 16364.000000
134.043900 1296.000000
145.038700 448.000000
145.066100 348.000000
147.081500 692.000000
153.996500 336.000000
159.058400 304.000000
168.000700 604.000000
175.086700 4676.000000
194.987100 400.000000
195.994100 3844.000000
197.001400 11640.000000
198.003900 1436.000000
198.999800 668.000000
239.049600 2564.000000

>ms2peaks
117.046300 744.000000
118.044300 320.000000
132.032500 10872.000000
133.039500 4952.000000
134.042300 776.000000
145.039800 496.000000
168.009000 304.000000
194.984500 380.000000
195.992700 672.000000
197.002600 1504.000000

>ms2peaks
239.050200 4580.000000
240.052500 468.000000
241.047100 312.000000

>ms2peaks
132.033000 944.000000
133.040300 484.000000
175.087400 1264.000000
197.003300 924.000000
239.050300 3020.000000
240.054800 300.000000

>ms2peaks
132.032400 1544.000000
133.039200 912.000000
197.004400 640.000000
239.048400 404.000000

>ms2peaks
132.032100 908.000000
133.041000 344.000000

