>compound AU63626218
>parentmass 487.029
>ionization [M-H]-
>formula C21H11ClF6N2O3
>rt 767.490000
>profile qtof
#smiles_iso C1=CC(=C(C(=C1)F)C(=O)NC(=O)NC2=C(C=C(C=C2)OC3=C(C=C(C=C3)C(F)(F)F)Cl)F)F
#smiles_can C1=CC(=C(C(=C1)F)C(=O)NC(=O)NC2=C(C=C(C=C2)OC3=C(C=C(C=C3)C(F)(F)F)Cl)F)F
#inchikey RYLHNOVXKPXDIP-UHFFFAOYSA-N
#pubchem_id 91766
#mb_accession AU233457,AU233458,AU233459,AU233460

>ms2peaks
156.026500 7964.000000
157.029200 540.000000
194.983500 1128.000000
269.035300 692.000000
289.041400 2080.000000
290.053600 400.000000
304.014000 3164.000000
305.016900 360.000000
306.009800 708.000000
329.007100 1216.000000
331.001800 356.000000
411.038700 1824.000000
412.034200 316.000000
412.051700 372.000000
431.047600 436.000000
447.013100 996.000000
448.032900 316.000000
449.011100 476.000000
449.032700 344.000000
455.020000 380.000000
467.019300 4860.000000
468.019700 1140.000000
469.016700 1320.000000
487.026600 15132.000000
488.032000 2564.000000
489.023600 4100.000000

>ms2peaks
156.025700 3600.000000
178.988100 552.000000
194.984400 824.000000
284.003200 396.000000
284.017500 536.000000
289.043000 1104.000000
304.013700 9632.000000
305.022000 1132.000000
306.010900 1864.000000
307.014300 340.000000
329.010200 2076.000000
330.015800 360.000000
331.003100 792.000000
348.004400 680.000000
411.036500 1444.000000
447.014100 996.000000
448.026400 312.000000
449.011200 308.000000
449.025500 432.000000
455.027000 308.000000
467.022600 388.000000
467.034000 340.000000
487.033000 424.000000

>ms2peaks
124.018800 400.000000
156.027800 640.000000
178.987700 2276.000000
179.991800 300.000000
180.982800 768.000000
194.983600 1792.000000
196.982100 624.000000
222.980800 520.000000
248.030100 396.000000
269.032100 432.000000
283.000000 368.000000
284.005300 1456.000000
285.017600 356.000000
286.007800 424.000000
289.041600 800.000000
304.013300 4836.000000
305.018200 632.000000
306.011400 2584.000000
329.009800 2492.000000
330.014200 352.000000
331.004300 688.000000
348.004100 344.000000
411.037300 388.000000
447.017900 472.000000

>ms2peaks
150.024200 816.000000
178.987300 1736.000000
180.988200 416.000000
194.981800 2044.000000
196.979000 784.000000
222.976700 412.000000
248.029600 536.000000
256.009400 384.000000
269.035000 332.000000
283.000400 404.000000
284.009600 788.000000
289.042200 320.000000
304.020800 932.000000
306.012700 324.000000
329.010600 1244.000000
331.006300 432.000000

