>compound AU64145258
>parentmass 393.1719
>ionization [M-H]-
>formula C21H27FO6
>rt 380.685000
>profile qtof
#smiles_iso C[C@]12C[C@@H]([C@]3([C@H]([C@@H]1C[C@H]([C@@]2(C(=O)CO)O)O)CCC4=CC(=O)C=C[C@@]43C)F)O
#smiles_can CC12CC(C3(C(C1CC(C2(C(=O)CO)O)O)CCC4=CC(=O)C=CC43C)F)O
#inchikey GFNANZIMVAIWHM-OBYCQNJPSA-N
#pubchem_id 31307
#mb_accession AU240057,AU240058,AU240059,AU240060

>ms2
325.143400 380.000000
325.153000 312.000000
345.147900 1520.000000
346.157400 444.000000
363.158100 472.000000

>ms2
325.140000 612.000000
345.149700 1644.000000
346.150800 492.000000

>ms2
325.139700 912.000000
345.150000 1076.000000

>ms2
325.146500 388.000000

