>compound AU65776063
>parentmass 487.2133
>ionization [M-H]-
>formula C23H32N6O4S
>rt 591.840000
>profile qtof
#smiles_iso CCCC1=NC(=C2N1N=C(NC2=O)C3=C(C=CC(=C3)S(=O)(=O)N4CCN(CC4)CC)OCC)C
#smiles_can CCCC1=NC(=C2N1N=C(NC2=O)C3=C(C=CC(=C3)S(=O)(=O)N4CCN(CC4)CC)OCC)C
#inchikey SECKRCOLJRRGGV-UHFFFAOYSA-N
#pubchem_id 135400189
#mb_accession AU235957,AU235958,AU235959,AU235960

>ms2peaks
350.117900 400.000000
487.212900 9432.000000
488.215300 2372.000000

>ms2peaks
225.031000 388.000000
350.119500 440.000000
364.132000 544.000000
459.179800 2264.000000
460.180000 512.000000
460.193600 576.000000
487.212500 7976.000000
488.216300 1592.000000

>ms2peaks
225.031400 2800.000000
282.112100 1212.000000
285.096700 1404.000000
286.098800 348.000000
314.097900 368.000000
364.127000 1324.000000
365.130400 328.000000
459.179800 9272.000000
460.185400 2064.000000
461.184500 628.000000
487.214400 3044.000000
488.216400 656.000000

>ms2peaks
164.023700 680.000000
225.032900 5236.000000
226.033100 592.000000
229.075300 320.000000
244.093400 648.000000
271.082900 308.000000
282.109600 4976.000000
283.115200 888.000000
285.098100 5992.000000
286.103300 1220.000000
310.140900 476.000000
313.098200 320.000000
314.103200 1148.000000
318.097700 344.000000
342.137500 372.000000
459.179100 4884.000000
460.181300 1028.000000
461.189800 428.000000

