>compound AU65274828
>parentmass 271.1122
>ionization [M-H]-
>formula C12H20N2O3S
>rt 198.360000
>profile qtof
#smiles_iso CC(C)NCC(C1=CC=C(C=C1)NS(=O)(=O)C)O
#smiles_can CC(C)NCC(C1=CC=C(C=C1)NS(=O)(=O)C)O
#inchikey ZBMZVLHSJCTVON-UHFFFAOYSA-N
#pubchem_id 5253
#mb_accession AU238357,AU238358,AU238359

>ms2peaks
271.111700 2448.000000
272.112700 396.000000

>ms2peaks
174.120600 316.000000
210.044900 508.000000
253.101900 376.000000
271.109900 468.000000

>ms2peaks
174.113700 384.000000
210.051100 376.000000

