>compound AU68046093
>parentmass 207.0121
>ionization [M-H]-
>formula C10H8O3S
>rt 287.970000
>profile qtof
#smiles_iso C1=CC=C2C=C(C=CC2=C1)S(=O)(=O)O
#smiles_can C1=CC=C2C=C(C=CC2=C1)S(=O)(=O)O
#inchikey KVBGVZZKJNLNJU-UHFFFAOYSA-N
#pubchem_id 8420
#mb_accession AU230057,AU230058,AU230059,AU230060

>ms2peaks
207.013700 5584.000000
208.016200 952.000000
209.008500 300.000000

>ms2peaks
143.051900 1552.000000
207.014300 3268.000000
208.015300 432.000000

>ms2peaks
143.051500 2900.000000
144.053500 328.000000
207.012000 1048.000000

>ms2peaks
143.052800 884.000000

