>compound AU69371240
>parentmass 422.8195
>ionization [M-H]-
>formula C13H8Br2Cl2O2
>rt 726.840000
>profile qtof
#smiles_iso C1=C(C=C(C(=C1CC2=C(C(=CC(=C2)Cl)Br)O)O)Br)Cl
#smiles_can C1=C(C=C(C(=C1CC2=C(C(=CC(=C2)Cl)Br)O)O)Br)Cl
#inchikey TYBHZVUFOINFDV-UHFFFAOYSA-N
#pubchem_id 84907
#mb_accession AU237462

>ms2peaks
78.917700 308.000000
204.905300 1828.000000
206.902400 992.000000

