>compound AU69935837
>parentmass 194.9177
>ionization [M-H]-
>formula C6H3Cl3O
>rt 643.140000
>profile qtof
#smiles_iso C1=C(C=C(C(=C1Cl)Cl)Cl)O
#smiles_can C1=C(C=C(C(=C1Cl)Cl)Cl)O
#inchikey GBNHEBQXJVDXSW-UHFFFAOYSA-N
#pubchem_id 11859
#mb_accession AU237357,AU237358,AU237359,AU237360,AU237362

>ms2peaks
158.940800 14832.000000
159.943500 796.000000
160.937100 5916.000000
194.917200 59608.000000
195.920100 4768.000000
196.914400 48716.000000

>ms2peaks
122.963800 940.000000
158.940600 39136.000000
159.943600 3464.000000
160.937600 17648.000000
194.916900 14780.000000
195.919600 1536.000000
196.913800 15080.000000

>ms2peaks
122.962300 632.000000
158.940300 4744.000000
160.937500 2172.000000

>ms2peaks
158.941400 444.000000

>ms2peaks
122.966400 872.000000
158.941500 26164.000000
159.944300 1224.000000
160.937900 10888.000000
194.918000 9752.000000
195.918700 632.000000
196.914800 6496.000000

