>compound AU69947746
>parentmass 412.96640000000014
>ionization [M-H]-
>formula C8HF15O2
>rt 581.513333
>profile qtof
#smiles_iso C(=O)(C(C(C(C(C(C(C(F)(F)F)(F)F)(F)F)(F)F)(F)F)(F)F)(F)F)O
#smiles_can C(=O)(C(C(C(C(C(C(C(F)(F)F)(F)F)(F)F)(F)F)(F)F)(F)F)(F)F)O
#inchikey SNGREZUHAYWORS-UHFFFAOYSA-N
#pubchem_id 9554
#mb_accession AU240457,AU240458,AU240459,AU240460,AU240462,AU594850,AU594851,AU594852,AU594853

>ms2
168.989800 23508.000000
169.994400 1108.000000
196.984400 692.000000
218.986000 10264.000000
368.976700 113212.000000
369.979100 6428.000000
412.963700 2692.000000

>ms2
118.994200 880.000000
168.989500 42920.000000
169.992300 1340.000000
196.983500 1004.000000
218.985400 11956.000000
219.990200 524.000000
368.976000 11244.000000
369.974500 652.000000

>ms2
118.994500 416.000000
168.989300 8404.000000
169.991800 528.000000
218.982200 692.000000

>ms2
168.989000 1924.000000

>ms2
118.994300 940.000000
162.984100 432.000000
168.988400 9060.000000
169.990500 384.000000
196.983100 464.000000
218.987300 612.000000

>ms2
168.987700 692.000000
368.974900 10692.000000
369.976400 336.000000
412.964700 1132.000000

>ms2
168.988700 5756.000000
218.985500 1268.000000
368.976500 1724.000000

>ms2
168.989100 2052.000000

>ms2
168.989900 504.000000

