>compound AU70893787
>parentmass 256.2282
>ionization [M-H]-
>formula C15H31NO2
>rt 723.740000
>profile qtof
#smiles_iso CCCCCCCCCCCC(=O)NCC(C)O
#smiles_can CCCCCCCCCCCC(=O)NCC(C)O
#inchikey MMBILEWCGWTAOV-UHFFFAOYSA-N
#pubchem_id 9903249
#mb_accession AU240857,AU240858,AU240862

>ms2peaks
198.188000 388.000000
212.199200 664.000000
238.216600 656.000000
240.195300 624.000000
254.211500 980.000000
256.227000 8060.000000
257.231700 1740.000000

>ms2peaks
198.183600 592.000000
212.200000 1036.000000
238.215800 716.000000
239.221200 436.000000
240.196000 900.000000
241.200700 336.000000
254.211100 1468.000000
255.215400 420.000000
256.228700 580.000000

>ms2peaks
198.185700 352.000000
212.200400 388.000000
238.222400 436.000000
240.192800 324.000000
254.208300 304.000000

