>compound AU70483247
>parentmass 269.1547
>ionization [M-H]-
>formula C18H22O2
>rt 569.625000
>profile qtof
#smiles_iso C[C@]12CC[C@H]3[C@H]([C@@H]1CCC2=O)CCC4=C3C=CC(=C4)O
#smiles_can CC12CCC3C(C1CCC2=O)CCC4=C3C=CC(=C4)O
#inchikey DNXHEGUUPJUMQT-CBZIJGRNSA-N
#pubchem_id 5870
#mb_accession AU239157,AU239158,AU239159,AU239160

>ms2peaks
269.153100 2800.000000
270.157700 808.000000

>ms2peaks
269.154500 2468.000000
270.155200 664.000000

>ms2peaks
145.064500 952.000000
269.153300 2036.000000
270.155100 388.000000

>ms2peaks
143.049100 368.000000
145.065100 1836.000000
159.084400 416.000000
269.151500 488.000000

