>compound AU73323492
>parentmass 211.0644
>ionization [M-H]-
>formula C10H13ClN2O
>rt 479.790000
>profile qtof
#smiles_iso CC1=C(C=C(C=C1)NC(=O)N(C)C)Cl
#smiles_can CC1=C(C=C(C=C1)NC(=O)N(C)C)Cl
#inchikey JXCGFZXSOMJFOA-UHFFFAOYSA-N
#pubchem_id 27375
#mb_accession AU231457,AU231458

>ms2
140.025600 540.000000
166.006100 2508.000000
168.001900 1020.000000
211.063100 17432.000000
213.060900 5660.000000

>ms2
166.007300 1392.000000
211.063800 1408.000000
213.062700 456.000000

