>compound AU75552317
>parentmass 223.09890000000001
>ionization [M-H]-
>formula C13H12N4
>rt 435.048000
>profile qtof
#smiles_iso CN1C2=C(N=CC(=C2)C3=CC=CC=C3)N=C1N
#smiles_can CN1C2=C(N=CC(=C2)C3=CC=CC=C3)N=C1N
#inchikey UQVKZNNCIHJZLS-UHFFFAOYSA-N
#pubchem_id 1530
#mb_accession AU229357,AU229358,AU229359,AU229360,AU229362

>ms2
208.075100 512.000000
223.097700 3192.000000

>ms2
208.073400 2708.000000
223.097900 1088.000000

>ms2
167.061600 652.000000
181.066300 500.000000
208.076400 1576.000000
209.078800 468.000000

>ms2
167.061100 360.000000
208.075900 492.000000

>ms2
167.059800 480.000000
181.064700 312.000000
208.075300 2080.000000
209.073900 308.000000
223.098100 700.000000

