>compound AU76135608
>parentmass 386.9644
>ionization [M-H]-
>formula C12H4Cl2F6N4
>rt 613.740000
>profile qtof
#smiles_iso C1=C(C=C(C(=C1Cl)N2C(=C(C(=N2)C#N)C(F)(F)F)N)Cl)C(F)(F)F
#smiles_can C1=C(C=C(C(=C1Cl)N2C(=C(C(=N2)C#N)C(F)(F)F)N)Cl)C(F)(F)F
#inchikey JWKXVHLIRTVXLD-UHFFFAOYSA-N
#pubchem_id 22673275
#mb_accession AU242257,AU242258,AU242259,AU242260,AU242262

>ms2
350.987700 756168.000000
351.989300 59560.000000
352.984300 165128.000000
386.962900 14520.000000
388.959800 8324.000000

>ms2
281.991300 17092.000000
330.979800 7600.000000
350.988000 850484.000000
351.990200 65408.000000
352.985000 181196.000000

>ms2
135.010900 4932.000000
203.982600 22340.000000
205.980000 4272.000000
228.978400 6176.000000
230.976500 1976.000000
236.985000 3676.000000
261.980200 4792.000000
281.992400 107452.000000
282.994000 7960.000000
283.989200 19652.000000
295.003300 7360.000000
296.009300 3064.000000
305.985000 20596.000000
306.985500 2492.000000
307.982100 4468.000000
310.975400 4648.000000
316.017300 7276.000000
324.984000 22152.000000
325.987600 2144.000000
326.980600 4696.000000
330.980700 44680.000000
331.982900 4104.000000
332.978300 9012.000000
350.987700 340340.000000
351.989800 30652.000000
352.984400 77616.000000

>ms2
133.001100 1388.000000
135.010600 8308.000000
183.016100 1536.000000
185.006700 2760.000000
193.001900 2804.000000
193.991500 1024.000000
194.002900 776.000000
203.982900 17972.000000
204.986100 1092.000000
205.980700 4940.000000
207.009800 1724.000000
216.977400 2072.000000
226.009700 1012.000000
227.015600 3496.000000
228.019800 1440.000000
228.977900 4980.000000
229.980300 780.000000
230.974300 1116.000000
231.994200 1372.000000
236.984200 15748.000000
237.988100 1136.000000
238.981500 3804.000000
242.996400 1568.000000
243.987300 1208.000000
245.006400 788.000000
246.015700 3288.000000
247.024000 2228.000000
250.003000 740.000000
258.969200 788.000000
260.977300 960.000000
261.982300 10236.000000
262.989900 1968.000000
263.978700 2228.000000
266.021300 1976.000000
270.009200 1012.000000
274.985700 3376.000000
276.005700 2956.000000
277.011600 1368.000000
278.974100 2204.000000
280.980900 1852.000000
281.992200 147728.000000
282.994600 11980.000000
283.988500 33096.000000
284.991100 1916.000000
285.978100 1612.000000
290.016100 980.000000
295.003300 21516.000000
296.010300 7060.000000
297.016300 1912.000000
298.991800 1132.000000
305.985100 18448.000000
306.986700 1776.000000
307.981800 4232.000000
310.973500 10076.000000
311.980500 1920.000000
312.971000 2544.000000
315.007500 1448.000000
316.018400 6620.000000
324.983700 37760.000000
325.985400 4000.000000
326.979600 9568.000000
330.980500 33316.000000
331.982400 2996.000000
332.976200 6732.000000
349.976800 1388.000000
350.986500 49428.000000
351.990000 5524.000000
352.983700 10624.000000

>ms2
68.995200 2724.000000
90.008100 1668.000000
135.010900 4276.000000
203.983100 10712.000000
204.984100 952.000000
205.979700 1372.000000
216.977700 908.000000
227.014000 1352.000000
228.976900 3364.000000
236.984900 6696.000000
243.992700 892.000000
246.013400 1284.000000
247.021600 904.000000
247.973900 1332.000000
261.981800 4756.000000
262.995000 920.000000
266.022300 988.000000
274.987900 1312.000000
276.006100 1180.000000
278.973500 1000.000000
280.983400 844.000000
281.992200 74024.000000
282.994800 7644.000000
283.990100 10732.000000
284.991600 880.000000
295.004500 8196.000000
296.010000 2508.000000
298.978400 920.000000
305.985200 12640.000000
306.986300 1192.000000
307.981200 1912.000000
310.973200 4868.000000
311.981000 1076.000000
312.972000 848.000000
316.016800 4272.000000
324.984400 20708.000000
325.985200 1336.000000
326.982000 2180.000000
330.981000 25296.000000
331.983300 2536.000000
350.987300 165752.000000
351.990800 20312.000000
352.984500 29828.000000

