>compound AU77148092
>parentmass 201.9816
>ionization [M-H]-
>formula C6H5NO5S
>rt 179.400000
>profile qtof
#smiles_iso C1=CC(=CC(=C1)S(=O)(=O)O)[N+](=O)[O-]
#smiles_can C1=CC(=CC(=C1)S(=O)(=O)O)[N+](=O)[O-]
#inchikey ONMOULMPIIOVTQ-UHFFFAOYSA-N
#pubchem_id 7387
#mb_accession AU406751,AU406752,AU406753,AU406756

>ms2peaks
138.017100 308.000000
171.983100 336.000000
201.980000 11440.000000
202.981600 1120.000000

>ms2peaks
138.018200 1120.000000
143.986800 596.000000
155.987500 1072.000000
171.981600 1660.000000
201.980000 4984.000000

>ms2peaks
143.988200 744.000000
155.987600 1052.000000
171.982300 388.000000
201.980100 660.000000

>ms2peaks
63.962500 1088.000000
79.957700 3580.000000
80.026800 364.000000
108.021500 456.000000
138.018800 1740.000000
143.987700 1460.000000
155.988200 864.000000
158.978100 364.000000
171.982500 1548.000000
201.980800 3432.000000

