>compound AU77148993
>parentmass 345.0874
>ionization [M-H]-
>formula C12H18N4O6S
>rt 614.325000
>profile qtof
#smiles_iso CCCN(CCC)C1=C(C=C(C=C1[N+](=O)[O-])S(=O)(=O)N)[N+](=O)[O-]
#smiles_can CCCN(CCC)C1=C(C=C(C=C1[N+](=O)[O-])S(=O)(=O)N)[N+](=O)[O-]
#inchikey UNAHYJYOSSSJHH-UHFFFAOYSA-N
#pubchem_id 29393
#mb_accession AU233357,AU233358,AU233359,AU233360

>ms2peaks
281.124900 2756.000000
345.086200 126396.000000
346.088400 16188.000000
347.084500 5884.000000

>ms2peaks
134.033700 504.000000
135.020400 420.000000
135.043300 304.000000
136.049900 320.000000
146.035500 672.000000
147.043300 1664.000000
149.036800 344.000000
150.031900 772.000000
157.065800 352.000000
160.049800 548.000000
161.071900 980.000000
162.030400 312.000000
163.025300 332.000000
174.065400 2536.000000
175.055100 328.000000
175.072700 860.000000
176.035100 348.000000
176.085100 736.000000
180.028700 1356.000000
182.019700 892.000000
187.125500 308.000000
190.059500 340.000000
191.017900 736.000000
191.068600 624.000000
192.029500 396.000000
203.055800 1024.000000
204.066600 348.000000
212.013000 432.000000
221.072000 484.000000
222.035300 368.000000
224.047700 352.000000
226.994100 788.000000
228.006800 720.000000
234.125400 2168.000000
235.124100 468.000000
238.069100 400.000000
240.045400 1144.000000
241.003500 1488.000000
244.001700 556.000000
256.036800 804.000000
258.056500 560.000000
272.034900 396.000000
272.993800 320.000000
281.124300 14152.000000
282.127100 1944.000000
285.023400 320.000000
285.033700 328.000000
299.044400 1640.000000
345.086700 54940.000000
346.089300 7916.000000
347.087200 3772.000000

>ms2peaks
116.024500 364.000000
121.040600 420.000000
129.034700 336.000000
131.047700 516.000000
132.032300 488.000000
133.030100 460.000000
133.037900 480.000000
134.036300 528.000000
135.017600 632.000000
135.043600 376.000000
136.052900 400.000000
145.027600 332.000000
146.035200 500.000000
147.044300 2112.000000
148.027100 436.000000
149.035200 568.000000
150.030500 536.000000
152.023000 480.000000
156.056400 308.000000
157.062800 636.000000
158.070800 300.000000
159.057100 320.000000
160.059300 668.000000
161.073000 660.000000
162.033300 472.000000
163.024600 708.000000
173.058800 464.000000
174.066700 1936.000000
175.048500 416.000000
175.071600 592.000000
176.082700 476.000000
180.027400 436.000000
182.019500 936.000000
191.020700 644.000000
191.068700 416.000000
192.028500 712.000000
199.021700 364.000000
202.047700 336.000000
203.058100 884.000000
204.062900 444.000000
211.005600 612.000000
212.010500 768.000000
221.065100 532.000000
222.031600 420.000000
224.009900 460.000000
224.050400 340.000000
226.986800 796.000000
228.005100 1004.000000
234.124100 640.000000
238.026700 488.000000
240.047600 596.000000
241.004100 1572.000000
244.001800 896.000000
256.039600 324.000000
258.055100 316.000000
268.024200 524.000000
272.993400 524.000000
281.121800 1812.000000
285.035400 304.000000
299.042700 700.000000
345.085800 2468.000000
346.083800 444.000000

>ms2peaks
116.024500 304.000000
121.040500 488.000000
129.032800 464.000000
131.049000 320.000000
132.036800 308.000000
133.029800 304.000000
133.040000 720.000000
144.058400 316.000000
145.039500 304.000000
146.032100 440.000000
146.043500 408.000000
147.042800 1460.000000
148.028300 376.000000
149.031900 512.000000
157.061700 320.000000
159.057900 340.000000
160.061300 520.000000
161.069200 452.000000
162.030900 388.000000
174.068700 864.000000
175.046900 328.000000
182.020700 308.000000
186.009100 464.000000
187.060900 332.000000
192.028000 512.000000
197.002700 452.000000
203.054700 428.000000
212.011800 444.000000
222.034700 372.000000
223.038900 344.000000
226.985000 452.000000
226.997800 392.000000
228.007400 680.000000
241.003600 536.000000
244.000900 444.000000
267.018900 388.000000
268.028200 380.000000
272.991200 332.000000
273.003100 424.000000

