>compound AU77918925
>parentmass 712.9472999999999
>ionization [M-H]-
>formula C14HF27O2
>rt 771.978000
>profile qtof
#smiles_iso C(=O)(C(C(C(C(C(C(C(C(C(C(C(C(C(F)(F)F)(F)F)(F)F)(F)F)(F)F)(F)F)(F)F)(F)F)(F)F)(F)F)(F)F)(F)F)(F)F)O
#smiles_can C(=O)(C(C(C(C(C(C(C(C(C(C(C(C(C(F)(F)F)(F)F)(F)F)(F)F)(F)F)(F)F)(F)F)(F)F)(F)F)(F)F)(F)F)(F)F)(F)F)O
#inchikey RUDINRUXCKIXAJ-UHFFFAOYSA-N
#pubchem_id 67822
#mb_accession AU240957,AU240958,AU240959,AU240960,AU240962,AU595450,AU595451,AU595452,AU595453,AU595454

>ms2
168.988700 484.000000
218.985700 620.000000
268.981800 1032.000000
318.975900 1112.000000
368.972900 1044.000000
418.974600 684.000000
468.980800 360.000000
668.958500 45908.000000
669.959100 4680.000000
712.948700 8548.000000
713.941800 784.000000
713.964100 964.000000

>ms2
168.988700 10588.000000
169.990500 448.000000
196.985000 788.000000
218.985800 16296.000000
219.990600 728.000000
268.982200 18640.000000
269.986600 748.000000
318.978000 19492.000000
319.981900 1164.000000
368.975400 17388.000000
369.975700 1184.000000
418.971700 12484.000000
419.975200 1152.000000
468.970700 5300.000000
469.981000 452.000000
518.966200 692.000000
668.956600 51360.000000
669.957200 5064.000000
670.959700 352.000000
670.979300 440.000000

>ms2
118.992000 808.000000
168.989700 22940.000000
169.995000 656.000000
196.982700 1260.000000
218.985600 19560.000000
219.988600 856.000000
268.981600 11856.000000
269.987000 824.000000
318.978500 10684.000000
319.988300 600.000000
368.974900 8240.000000
369.975700 616.000000
418.974000 4400.000000
419.977000 400.000000
468.967400 1820.000000
518.967400 448.000000
668.959500 2108.000000
669.957800 360.000000
669.971200 312.000000

>ms2
118.993100 1120.000000
168.989700 26732.000000
169.991400 748.000000
196.985200 760.000000
218.985400 11184.000000
268.982700 4816.000000
318.976200 3176.000000
368.974900 1392.000000
418.972100 656.000000

>ms2
62.988100 348.000000
118.992400 1892.000000
168.989700 22864.000000
169.991600 648.000000
196.985900 1760.000000
218.985800 7124.000000
268.981500 4200.000000
269.983900 300.000000
318.981800 2080.000000
368.974900 1332.000000
418.969900 624.000000

>ms2
668.955400 9560.000000
669.956800 576.000000
712.944400 7820.000000

>ms2
168.988900 664.000000
218.985300 1036.000000
268.981600 940.000000
318.977900 1348.000000
368.975300 920.000000
418.970400 564.000000
468.971400 336.000000
668.957900 22396.000000
669.959100 968.000000

>ms2
168.989300 5728.000000
218.985900 5056.000000
268.983600 2948.000000
318.980800 2024.000000
368.977700 1200.000000
418.972900 1152.000000
468.969800 444.000000
668.958800 1220.000000

>ms2
168.988500 8428.000000
218.985500 2480.000000
268.982700 1088.000000
318.978000 492.000000

>ms2
118.991200 472.000000
168.989100 4864.000000
218.985100 820.000000

