>compound AU78003396
>parentmass 183.00470000000004
>ionization [M-H]-
>formula C6H4N2O5
>rt 265.380000
>profile qtof
#smiles_iso C1=CC(=C(C=C1[N+](=O)[O-])[N+](=O)[O-])O
#smiles_can C1=CC(=C(C=C1[N+](=O)[O-])[N+](=O)[O-])O
#inchikey UFBJCMHMOXMLKC-UHFFFAOYSA-N
#pubchem_id 1493
#mb_accession AU230257,AU230258,AU230259

>ms2peaks
123.011300 432.000000
153.008300 1392.000000
183.005800 45428.000000
184.008400 2640.000000

>ms2peaks
109.016100 328.000000
123.009600 4280.000000
124.012800 308.000000
137.012100 2408.000000
153.008400 5132.000000
183.006400 10840.000000
184.009400 964.000000

>ms2peaks
109.016900 516.000000
123.009600 840.000000
137.011300 700.000000
153.009100 588.000000
183.005400 468.000000

