>compound AU79537565
>parentmass 314.0201
>ionization [M-H]-
>formula C14H9ClF3NO2
>rt 638.265000
>profile qtof
#smiles_iso C1CC1C#CC2(C3=C(C=CC(=C3)Cl)NC(=O)O2)C(F)(F)F
#smiles_can C1CC1C#CC2(C3=C(C=CC(=C3)Cl)NC(=O)O2)C(F)(F)F
#inchikey XPOQHMRABVBWPR-UHFFFAOYSA-N
#pubchem_id 3203
#mb_accession AU235757,AU235758,AU235759,AU235760

>ms2
161.021200 844.000000
200.025900 1008.000000
210.008600 364.000000
214.049500 1076.000000
215.051500 464.000000
216.027900 1092.000000
230.015900 3096.000000
231.021100 564.000000
231.034700 304.000000
232.014600 896.000000
241.998700 3924.000000
243.001400 488.000000
243.996400 1296.000000
244.016400 8704.000000
245.017600 1312.000000
246.013300 3004.000000
247.016600 504.000000
250.025200 2820.000000
252.020100 652.000000
252.025300 676.000000
270.030300 1684.000000
272.024700 424.000000
274.003600 592.000000
274.014400 584.000000
294.009100 444.000000
296.007500 444.000000
298.004500 308.000000
314.019300 42748.000000
315.021600 7268.000000
316.016400 13248.000000

>ms2
151.989200 688.000000
161.021900 788.000000
200.025400 1252.000000
202.005000 392.000000
202.016200 540.000000
208.037600 724.000000
214.044200 484.000000
216.021800 1320.000000
217.023000 460.000000
218.016700 540.000000
221.990700 940.000000
226.006300 592.000000
228.001800 340.000000
230.019600 532.000000
241.997300 3896.000000
243.003800 560.000000
243.996300 1552.000000
244.016300 8544.000000
245.021000 1612.000000
246.013800 3356.000000
247.019100 376.000000
247.973900 684.000000
250.023800 2364.000000
251.026700 544.000000
252.020300 488.000000
253.996800 428.000000
270.027700 380.000000
274.002500 368.000000
296.014100 304.000000
314.020100 1520.000000
316.017000 672.000000

>ms2
151.992400 468.000000
200.028400 456.000000
202.003900 432.000000
202.020800 600.000000
206.019500 400.000000
208.042000 1080.000000
210.011500 336.000000
216.021700 896.000000
218.018900 444.000000
221.991300 976.000000
223.990400 408.000000
226.003800 548.000000
241.996300 1540.000000
243.992700 488.000000
244.016000 2172.000000
246.009800 1140.000000
247.975700 372.000000
250.023500 680.000000

>ms2
206.021000 420.000000
208.042300 684.000000
221.989600 584.000000
241.993800 308.000000

