>compound AU80889433
>parentmass 240.103
>ionization [M-H]-
>formula C15H15NO2
>rt 559.290000
>profile qtof
#smiles_iso CC1=C(C(=CC=C1)NC2=CC=CC=C2C(=O)O)C
#smiles_can CC1=C(C(=CC=C1)NC2=CC=CC=C2C(=O)O)C
#inchikey HYYBABOKPJLUIN-UHFFFAOYSA-N
#pubchem_id 4044
#mb_accession AU235157,AU235158,AU235159,AU235160

>ms2peaks
180.081000 548.000000
192.080100 464.000000
194.094800 376.000000
196.113100 70376.000000
197.115400 10832.000000
198.118100 844.000000
240.102300 51324.000000
241.105700 11760.000000
242.109300 676.000000

>ms2peaks
179.086900 1216.000000
180.082600 3160.000000
181.087600 528.000000
192.081800 2584.000000
194.098600 1944.000000
195.099400 448.000000
196.113500 79996.000000
197.115800 15316.000000
198.121500 800.000000
240.101000 2560.000000
241.104200 580.000000

>ms2peaks
144.083200 316.000000
179.085800 2488.000000
180.082000 5092.000000
181.085100 856.000000
192.081400 4656.000000
193.085600 1076.000000
194.097100 3416.000000
196.112700 19104.000000
197.115700 4612.000000
240.103600 308.000000

>ms2peaks
179.083200 856.000000
180.080600 2632.000000
181.085100 324.000000
192.081900 1352.000000
193.085000 332.000000
194.097100 1528.000000
196.113000 1856.000000

