>compound AU81063837
>parentmass 450.92629999999997
>ionization [M-H]-
>formula C12H4Cl2F6N4O2S
>rt 652.884000
>profile qtof
#smiles_iso C1=C(C=C(C(=C1Cl)N2C(=C(C(=N2)C#N)S(=O)(=O)C(F)(F)F)N)Cl)C(F)(F)F
#smiles_can C1=C(C=C(C(=C1Cl)N2C(=C(C(=N2)C#N)S(=O)(=O)C(F)(F)F)N)Cl)C(F)(F)F
#inchikey LGHZJDKSVUTELU-UHFFFAOYSA-N
#pubchem_id 3078139
#mb_accession AU242157,AU242158,AU242159,AU242160,AU242162

>ms2
281.992800 2492.000000
414.950000 439924.000000
415.952200 38392.000000
416.946800 98240.000000
417.948500 6180.000000
450.926700 270008.000000
451.929300 27052.000000
452.923600 167160.000000

>ms2
132.957700 5456.000000
170.009700 8288.000000
182.008900 3752.000000
183.017400 21500.000000
217.986300 9312.000000
233.980900 11924.000000
243.988700 8132.000000
281.992700 152412.000000
282.995100 12980.000000
283.989200 30540.000000
297.986400 7600.000000
345.953100 15160.000000
347.950300 3628.000000
414.950200 708844.000000
415.951900 63496.000000
416.946900 175660.000000
417.947800 12200.000000
450.925000 9640.000000
452.922800 6132.000000

>ms2
132.956900 8356.000000
170.009300 29140.000000
182.009000 8972.000000
183.017300 54216.000000
184.019700 3376.000000
217.986000 26492.000000
219.984000 5920.000000
233.980500 32152.000000
235.977800 6756.000000
243.988900 37132.000000
244.991500 2648.000000
245.986000 9440.000000
246.015200 15472.000000
257.990200 2976.000000
259.983400 4976.000000
261.984800 12188.000000
263.982900 2632.000000
271.984000 3176.000000
281.992500 474300.000000
282.995700 39128.000000
283.989600 97384.000000
284.990700 8036.000000
297.986200 19900.000000
299.982800 4548.000000
300.990300 2936.000000
345.953400 5756.000000
414.948900 102044.000000
415.949700 9168.000000
416.945600 26012.000000

>ms2
132.957200 6400.000000
170.009200 14432.000000
182.009500 4816.000000
183.017100 32108.000000
184.019300 2392.000000
198.001400 1744.000000
217.984900 12784.000000
218.009000 48924.000000
219.011300 4228.000000
219.981600 3432.000000
227.016300 3804.000000
233.980100 17676.000000
235.978100 4272.000000
241.977800 2532.000000
243.989200 153952.000000
244.992300 9812.000000
245.985300 29024.000000
246.015300 71732.000000
246.987200 2108.000000
247.018200 7588.000000
253.986200 3016.000000
257.988000 1464.000000
259.983100 3228.000000
261.985300 38308.000000
262.987000 3028.000000
263.982200 8408.000000
271.984400 1448.000000
281.992200 287348.000000
282.994000 25156.000000
283.988800 61804.000000
284.991400 4540.000000
297.985900 9072.000000
299.984400 2444.000000
300.990200 2036.000000
313.980300 3972.000000
414.948300 3680.000000

>ms2
65.998000 908.000000
68.994500 7372.000000
82.959900 17032.000000
88.005300 2788.000000
90.007600 852.000000
132.957900 6508.000000
170.010400 24456.000000
171.013400 1292.000000
182.009900 4384.000000
183.018300 33884.000000
184.021000 2252.000000
198.004500 976.000000
201.997700 844.000000
207.012100 1096.000000
211.004200 652.000000
216.988300 1364.000000
217.986600 11428.000000
218.009500 29204.000000
218.987800 1112.000000
219.011400 3012.000000
219.983300 2036.000000
226.008400 980.000000
227.017000 2528.000000
233.981500 28204.000000
234.984800 1676.000000
235.022800 744.000000
235.979600 4768.000000
241.980000 972.000000
243.989200 95040.000000
244.992300 7992.000000
245.986800 17036.000000
246.015800 38232.000000
246.990200 1112.000000
247.019500 3828.000000
251.018400 2444.000000
253.985700 1472.000000
257.991100 2028.000000
259.984100 3380.000000
261.986100 18084.000000
262.989700 1760.000000
263.983300 2640.000000
271.983900 2352.000000
273.978100 704.000000
281.992500 130196.000000
282.995300 14120.000000
283.988900 22552.000000
284.987400 1432.000000
297.987300 18548.000000
298.992300 1728.000000
299.985000 2768.000000
300.992500 1796.000000
313.982700 2612.000000
345.953700 1796.000000
414.950000 39124.000000
415.952300 5504.000000
416.946400 7952.000000

