>compound AU81630122
>parentmass 583.983
>ionization [M-H]-
>formula C12H8F17NO4S
>rt 699.984000
>profile qtof
#smiles_iso CCN(CC(=O)O)S(=O)(=O)C(C(C(C(C(C(C(C(F)(F)F)(F)F)(F)F)(F)F)(F)F)(F)F)(F)F)(F)F
#smiles_can CCN(CC(=O)O)S(=O)(=O)C(C(C(C(C(C(C(C(F)(F)F)(F)F)(F)F)(F)F)(F)F)(F)F)(F)F)(F)F
#inchikey CKRXVVGETMYFIO-UHFFFAOYSA-N
#pubchem_id 18134
#mb_accession AU594050,AU594051,AU594052,AU594053,AU594054

>ms2peaks
583.982000 1048.000000

>ms2peaks
418.975500 932.000000
525.977000 312.000000
583.981000 356.000000

>ms2peaks
168.990300 320.000000
218.985700 336.000000
418.972200 356.000000

>ms2peaks
168.989400 440.000000
218.983700 468.000000

>ms2peaks
168.988400 344.000000

