>compound AU83706659
>parentmass 339.1966
>ionization [M-H]-
>formula C22H28O3
>rt 782.160000
>profile qtof
#smiles_iso CC12CCC(=O)C=C1C=CC3[C@@H]2CCC4([C@H]3CCC45CCC(=O)O5)C
#smiles_can CC12CCC(=O)C=C1C=CC3C2CCC4(C3CCC45CCC(=O)O5)C
#inchikey UJVLDDZCTMKXJK-AFDHUMPMSA-N
#pubchem_id 24728626
#mb_accession AU239457,AU239458,AU239459,AU239460

>ms2peaks
339.198100 9216.000000
340.200000 2144.000000

>ms2peaks
183.010800 624.000000
339.200000 10348.000000
340.200700 2488.000000

>ms2peaks
170.015000 340.000000
183.011300 6420.000000
184.014900 788.000000
185.005400 412.000000
339.197100 7100.000000
340.199600 1860.000000

>ms2peaks
119.050300 592.000000
183.012500 10704.000000
184.015600 1544.000000
185.007600 612.000000
197.028300 440.000000
225.057100 324.000000
239.074900 508.000000
339.198400 1328.000000
340.205100 372.000000

