>compound AU83846770
>parentmass 341.0254
>ionization [M-H]-
>formula C18H12Cl2N2O
>rt 566.010000
>profile qtof
#smiles_iso C1=CC=C(C(=C1)C2=CC=C(C=C2)Cl)NC(=O)C3=C(N=CC=C3)Cl
#smiles_can C1=CC=C(C(=C1)C2=CC=C(C=C2)Cl)NC(=O)C3=C(N=CC=C3)Cl
#inchikey WYEMLYFITZORAB-UHFFFAOYSA-N
#pubchem_id 213013
#mb_accession AU232657,AU232658

>ms2
228.018900 868.000000
341.024100 15204.000000
342.026300 2808.000000
343.021700 9040.000000

>ms2
228.022500 976.000000
341.022900 1244.000000
343.024400 784.000000

