>compound AU84714619
>parentmass 347.1183
>ionization [M-H]-
>formula C16H20N4O3S
>rt 430.575000
>profile qtof
#smiles_iso CC1=CC(=CC=C1)NC2=C(C=NC=C2)S(=O)(=O)NC(=O)NC(C)C
#smiles_can CC1=CC(=CC=C1)NC2=C(C=NC=C2)S(=O)(=O)NC(=O)NC(C)C
#inchikey NGBFQHCMQULJNZ-UHFFFAOYSA-N
#pubchem_id 41781
#mb_accession AU236557,AU236558,AU236559,AU236560

>ms2
262.065300 51496.000000
263.067800 7492.000000
264.063100 2560.000000
288.046000 316.000000
347.117500 1428.000000

>ms2
195.076500 1080.000000
196.087400 684.000000
244.050900 504.000000
262.065000 43436.000000
263.066800 6704.000000
264.067500 2148.000000
265.064100 300.000000

>ms2
150.995900 544.000000
155.999100 980.000000
181.075200 700.000000
183.092100 448.000000
194.069700 504.000000
195.079700 3588.000000
196.086000 3360.000000
197.094200 412.000000
198.102100 1308.000000
210.068400 860.000000
226.044700 612.000000
228.074100 536.000000
228.084100 320.000000
244.056000 1352.000000
262.064100 31092.000000
263.066800 4756.000000
264.061900 1848.000000

>ms2
150.996400 416.000000
155.999000 596.000000
181.074300 1660.000000
182.072500 584.000000
183.091300 1016.000000
194.072800 736.000000
195.078500 3448.000000
196.086500 2624.000000
197.090100 344.000000
198.103000 2004.000000
199.102700 356.000000
210.067000 688.000000
226.044500 572.000000
228.073100 364.000000
243.047000 400.000000
244.052800 588.000000
262.065000 5084.000000
263.067300 1336.000000
264.066800 368.000000

