>compound AU85876431
>parentmass 393.0668
>ionization [M-H]-
>formula C19H11F5N2O2
>rt 703.485000
>profile qtof
#smiles_iso C1=CC(=CC(=C1)OC2=C(C=CC=N2)C(=O)NC3=C(C=C(C=C3)F)F)C(F)(F)F
#smiles_can C1=CC(=CC(=C1)OC2=C(C=CC=N2)C(=O)NC3=C(C=C(C=C3)F)F)C(F)(F)F
#inchikey WYEHFWKAOXOVJD-UHFFFAOYSA-N
#pubchem_id 91735
#mb_accession AU231557,AU231558,AU231559,AU231560

>ms2
161.020200 992.000000
185.054100 468.000000
252.043700 1180.000000
272.050500 18728.000000
273.054500 1852.000000
309.066000 1700.000000
310.072700 324.000000
325.057700 436.000000
329.068900 9788.000000
330.074000 1976.000000
331.079200 320.000000
353.056900 1776.000000
373.062200 7016.000000
374.058500 1044.000000
393.065800 15104.000000
394.070100 2816.000000
395.068700 460.000000

>ms2
161.021400 5716.000000
162.027600 540.000000
185.050600 1668.000000
218.045300 512.000000
229.039100 776.000000
238.050700 1580.000000
252.044000 1964.000000
272.050600 48288.000000
273.052800 5568.000000
274.056000 620.000000
302.068600 336.000000
309.064500 1468.000000
310.066600 400.000000
325.057400 568.000000
329.068800 7336.000000
330.072700 1344.000000
345.067600 420.000000
353.049200 2068.000000
354.055900 360.000000
355.052900 300.000000
373.059700 2572.000000
374.065800 700.000000
393.060900 732.000000

>ms2
161.022100 7020.000000
162.022800 628.000000
185.050100 2536.000000
186.036400 736.000000
186.056200 420.000000
210.053100 328.000000
212.034100 584.000000
218.041800 760.000000
229.042900 1136.000000
232.037300 664.000000
238.047800 4156.000000
239.049900 348.000000
239.054800 396.000000
252.043400 11432.000000
253.046300 1156.000000
270.031000 416.000000
270.044000 424.000000
272.050100 34660.000000
273.054000 4336.000000
274.055300 396.000000
289.063000 396.000000
302.057000 320.000000
309.063100 924.000000
325.057300 804.000000
328.063000 444.000000
329.069900 1232.000000
345.068000 416.000000
353.053600 1240.000000
373.055200 488.000000
373.063600 324.000000

>ms2
136.020900 392.000000
150.034300 388.000000
161.021200 6908.000000
162.022500 552.000000
165.044500 308.000000
170.038500 304.000000
178.028800 548.000000
185.052000 1856.000000
186.033500 676.000000
186.048400 348.000000
192.024100 556.000000
198.037300 776.000000
210.048900 416.000000
211.037800 324.000000
212.030700 4092.000000
213.036400 392.000000
218.041500 576.000000
229.039900 1428.000000
232.038300 2800.000000
233.041500 404.000000
238.047800 4572.000000
239.053400 444.000000
251.037800 428.000000
252.043400 22892.000000
253.046900 2744.000000
263.019400 320.000000
269.058200 308.000000
270.032800 1792.000000
271.032200 312.000000
272.049200 13148.000000
273.053000 1980.000000
289.058400 348.000000
309.062000 356.000000
325.055400 480.000000
353.049100 348.000000

