>compound AU86259314
>parentmass 118.04109999999999
>ionization [M-H]-
>formula C6H5N3
>rt 281.720000
>profile qtof
#smiles_iso C1=CC2=NNN=C2C=C1
#smiles_can C1=CC2=NNN=C2C=C1
#inchikey QRUDEWIWKLJBPS-UHFFFAOYSA-N
#pubchem_id 7220
#mb_accession AU241457,AU241458,AU241462

>ms2
118.041100 9908.000000

>ms2
118.042300 1012.000000

>ms2
50.002500 4140.000000
90.033300 4228.000000
91.037400 404.000000
118.041300 6700.000000
119.044300 308.000000

