>compound AU86618316
>parentmass 307.0976
>ionization [M-H]-
>formula C19H16O4
>rt 398.952000
>profile qtof
#smiles_iso CC(=O)CC(C1=CC=CC=C1)C2=C(C3=CC=CC=C3OC2=O)O
#smiles_can CC(=O)CC(C1=CC=CC=C1)C2=C(C3=CC=CC=C3OC2=O)O
#inchikey PJVWKTKQMONHTI-UHFFFAOYSA-N
#pubchem_id 54678486
#mb_accession AU241557,AU241558,AU241559,AU241560,AU241562

>ms2
161.024700 23896.000000
162.028400 2116.000000
250.063100 7876.000000
307.097300 389776.000000
308.100100 75308.000000
309.102400 6864.000000

>ms2
117.034800 3560.000000
133.065100 1080.000000
157.065000 1040.000000
161.024600 119672.000000
162.027600 12520.000000
163.029600 1036.000000
206.073000 1156.000000
221.096500 1228.000000
223.075500 5492.000000
224.080700 1028.000000
250.063200 126132.000000
251.066000 19784.000000
252.068500 2072.000000
261.089400 672.000000
263.104900 1536.000000
289.085600 908.000000
307.096500 98672.000000
308.099000 20700.000000
309.101500 1652.000000

>ms2
117.034500 7560.000000
118.035800 632.000000
130.041700 936.000000
133.065500 796.000000
135.044700 364.000000
145.067200 376.000000
157.063800 1004.000000
161.024100 43520.000000
162.027200 5320.000000
195.079700 660.000000
205.066200 432.000000
206.073300 4408.000000
207.079100 712.000000
219.077900 444.000000
221.058600 860.000000
221.097000 684.000000
222.068600 1864.000000
223.074300 3460.000000
224.076000 404.000000
248.090200 380.000000
250.063300 71688.000000
251.066400 13528.000000
252.069400 1148.000000
261.088700 804.000000
307.094800 2756.000000
308.104200 672.000000

>ms2
117.034100 5864.000000
118.038700 764.000000
130.042400 792.000000
145.065700 336.000000
157.065700 396.000000
161.023900 8916.000000
162.027900 944.000000
193.063500 520.000000
195.081600 1052.000000
205.065300 656.000000
206.072500 2532.000000
207.075300 600.000000
219.081900 596.000000
221.059100 656.000000
222.066400 704.000000
223.074800 800.000000
249.050800 336.000000
250.061900 7716.000000
251.065400 1680.000000
252.063900 340.000000

>ms2
57.033700 22616.000000
58.036500 960.000000
83.012000 1224.000000
117.034500 9236.000000
118.037600 676.000000
130.044200 688.000000
133.066300 772.000000
157.066600 808.000000
161.025200 62368.000000
162.028000 5816.000000
187.075000 440.000000
195.081500 516.000000
206.073000 3336.000000
207.074200 564.000000
219.080000 580.000000
221.058100 544.000000
221.096500 732.000000
222.069700 828.000000
223.075500 2872.000000
224.077500 520.000000
248.082700 400.000000
249.051700 420.000000
250.063400 79720.000000
251.065800 13552.000000
252.070500 840.000000
263.110300 556.000000
289.085100 444.000000
307.095200 14156.000000
308.099700 3300.000000

