>compound AU91782908
>parentmass 312.9728
>ionization [M-H]-
>formula C6HF11O2
>rt 465.188571
>profile qtof
#smiles_iso C(=O)(C(C(C(C(C(F)(F)F)(F)F)(F)F)(F)F)(F)F)O
#smiles_can C(=O)(C(C(C(C(C(F)(F)F)(F)F)(F)F)(F)F)(F)F)O
#inchikey PXUULQAPEKKVAH-UHFFFAOYSA-N
#pubchem_id 67542
#mb_accession AU240657,AU240658,AU240659,AU240662,AU594650,AU594651,AU594652

>ms2peaks
118.993600 1436.000000
246.980800 1360.000000
268.982800 90512.000000
269.986300 5840.000000
312.971000 1860.000000

>ms2peaks
118.992000 1716.000000
268.981900 2548.000000

>ms2peaks
118.991900 776.000000

>ms2peaks
118.992400 1368.000000
162.982500 468.000000
268.985200 364.000000

>ms2peaks
268.983000 84460.000000
312.971700 2156.000000

>ms2peaks
118.990900 500.000000
268.983000 2636.000000

>ms2peaks
118.991000 332.000000

