>compound AU92738217
>parentmass 489.2177
>ionization [M-H]-
>formula C24H34N4O5S
>rt 585.075000
>profile qtof
#smiles_iso CCC1=C(CN(C1=O)C(=O)NCCC2=CC=C(C=C2)S(=O)(=O)NC(=O)NC3CCC(CC3)C)C
#smiles_can CCC1=C(CN(C1=O)C(=O)NCCC2=CC=C(C=C2)S(=O)(=O)NC(=O)NC3CCC(CC3)C)C
#inchikey WIGIZIANZCJQQY-UHFFFAOYSA-N
#pubchem_id 3476
#mb_accession AU235557,AU235558,AU235559,AU235560

>ms2peaks
350.117100 776.000000
489.217300 7560.000000
490.213800 1912.000000

>ms2peaks
225.033500 4144.000000
226.034700 588.000000
350.115700 2464.000000
351.115300 688.000000
351.132800 360.000000
364.132400 4052.000000
365.131900 896.000000
366.128600 320.000000
366.138100 412.000000
376.091100 1096.000000
376.101800 1024.000000
489.213000 3440.000000
490.217100 872.000000

>ms2peaks
225.033300 14024.000000
226.035400 1184.000000
227.031700 528.000000
350.119600 608.000000
364.134700 4412.000000
365.132100 1036.000000
366.132700 432.000000
366.149300 352.000000
376.095400 376.000000

>ms2peaks
124.076000 380.000000
225.033100 19164.000000
226.035600 2328.000000
227.030600 720.000000
364.132100 952.000000

