>compound AU93131844
>parentmass 251.0826
>ionization [M-H]-
>formula C15H12N2O2
>rt 359.745000
>profile qtof
#smiles_iso C1=CC=C2C(=C1)C=CC3=C(N2C(=O)N)C=CC(=C3)O
#smiles_can C1=CC=C2C(=C1)C=CC3=C(N2C(=O)N)C=CC(=C3)O
#inchikey VPZIYMMSJFWLSP-UHFFFAOYSA-N
#pubchem_id 129274
#mb_accession AU234757,AU234758,AU234759,AU234760

>ms2
208.077700 1168.000000
209.079700 352.000000
251.083400 10180.000000
252.085300 1220.000000

>ms2
166.065100 1316.000000
207.069500 1176.000000
208.077700 8192.000000
209.078000 1152.000000
251.084200 2012.000000

>ms2
165.069500 352.000000
166.066600 1876.000000
180.084300 540.000000
207.068200 1792.000000
208.078400 3440.000000
209.077900 580.000000

>ms2
165.070400 640.000000
166.065300 2252.000000
167.069200 404.000000
180.079000 988.000000
181.054100 348.000000
207.068000 1572.000000
208.075100 936.000000

