>compound AU93733999
>parentmass 212.0751
>ionization [M-H]-
>formula C10H15NO2S
>rt 462.720000
>profile qtof
#smiles_iso CCCCNS(=O)(=O)C1=CC=CC=C1
#smiles_can CCCCNS(=O)(=O)C1=CC=CC=C1
#inchikey IPRJXAGUEGOFGG-UHFFFAOYSA-N
#pubchem_id 19241
#mb_accession AU229957,AU229958,AU229959

>ms2peaks
212.077000 8936.000000
213.076300 824.000000

>ms2peaks
136.043300 364.000000
141.001400 856.000000
146.100600 628.000000
148.115300 628.000000
156.011600 404.000000
212.075000 2384.000000

>ms2peaks
141.003500 924.000000

