>compound AU93896729
>parentmass 340.1321
>ionization [M-H]-
>formula C17H24ClNO4
>rt 315.360000
>profile qtof
#smiles_iso CCC(=NOC/C=C/Cl)C1=C(CC(CC1=O)C2CCOCC2)O
#smiles_can CCC(=NOCC=CCl)C1=C(CC(CC1=O)C2CCOCC2)O
#inchikey IOYNQIMAUDJVEI-ZFNPBRLTSA-N
#pubchem_id 136055781
#mb_accession AU233557,AU233558,AU233559,AU233560

>ms2peaks
153.042800 912.000000
180.066300 1528.000000
220.097000 4560.000000
221.098000 392.000000
250.143300 6376.000000
251.147100 1036.000000
265.129900 680.000000
340.131100 77044.000000
341.134800 13660.000000
342.128400 21748.000000

>ms2peaks
126.019300 1292.000000
134.025400 844.000000
139.028100 664.000000
152.036700 720.000000
153.042700 4948.000000
153.091200 388.000000
154.049200 640.000000
180.066100 10076.000000
181.069600 1164.000000
185.031400 4344.000000
186.033000 444.000000
195.101800 5216.000000
196.106000 608.000000
208.098400 392.000000
213.064900 596.000000
214.065400 388.000000
220.097300 48580.000000
221.099400 4460.000000
222.104100 944.000000
233.122000 396.000000
248.129800 1852.000000
249.129300 328.000000
249.136700 320.000000
250.144100 34508.000000
251.149200 4492.000000
252.146700 556.000000
265.130700 652.000000
340.130000 15740.000000
341.134800 2988.000000
342.127600 5412.000000

>ms2peaks
123.079900 380.000000
126.018400 1248.000000
134.024600 1524.000000
137.057300 336.000000
152.035300 780.000000
153.043800 1340.000000
153.092300 1884.000000
164.070700 368.000000
180.066800 7228.000000
181.069900 484.000000
185.033400 1336.000000
195.102200 9524.000000
196.105500 1544.000000
208.098800 596.000000
220.097300 67052.000000
221.100100 7368.000000
222.104600 700.000000
236.091000 560.000000
248.126700 2592.000000
249.129500 368.000000
250.143700 12612.000000
251.146500 2232.000000
340.136000 372.000000

>ms2peaks
120.008500 712.000000
126.018900 480.000000
134.024200 4604.000000
135.029400 816.000000
136.042500 568.000000
152.033300 456.000000
153.091000 1668.000000
178.086900 1568.000000
180.065700 2612.000000
181.068100 432.000000
195.101700 4432.000000
196.105300 864.000000
220.097200 63120.000000
221.100900 6944.000000
222.106500 828.000000
248.131300 1404.000000
250.142000 1608.000000

