>compound AU93432075
>parentmass 266.9985
>ionization [M-H]-
>formula C13H10Cl2O2
>rt 629.892000
>profile qtof
#smiles_iso C1=CC(=C(C=C1Cl)CC2=C(C=CC(=C2)Cl)O)O
#smiles_can C1=CC(=C(C=C1Cl)CC2=C(C=CC(=C2)Cl)O)O
#inchikey MDNWOSOZYLHTCG-UHFFFAOYSA-N
#pubchem_id 3037
#mb_accession AU237557,AU237558,AU237559,AU237560,AU237562

>ms2
126.995400 26740.000000
127.998100 1772.000000
128.992200 5948.000000
266.997900 94688.000000
268.000500 14384.000000
268.994900 57840.000000

>ms2
126.995700 107332.000000
127.999000 6128.000000
128.992200 24496.000000
129.996400 992.000000
231.021300 912.000000
266.998100 10864.000000
268.000400 1792.000000
268.994000 8128.000000

>ms2
126.996000 59952.000000
127.998600 4540.000000
128.992600 13884.000000
129.996400 856.000000

>ms2
126.995700 23380.000000
127.999100 1772.000000
128.992300 4996.000000
129.996800 416.000000

>ms2
126.996300 65772.000000
127.999600 4304.000000
128.992600 9656.000000
266.996600 1644.000000
268.995100 740.000000

