>compound AU94806105
>parentmass 287.0393
>ionization [M-H]-
>formula C15H10ClFN2O
>rt 511.104000
>profile qtof
#smiles_iso C1C(=O)NC2=C(C=C(C=C2)Cl)C(=N1)C3=CC=CC=C3F
#smiles_can C1C(=O)NC2=C(C=C(C=C2)Cl)C(=N1)C3=CC=CC=C3F
#inchikey UVCOILFBWYKHHB-UHFFFAOYSA-N
#pubchem_id 4540
#mb_accession AU228610,AU228612,AU228657,AU228658,AU228659

>ms2
239.014200 740.000000
241.999100 312.000000
243.007600 316.000000
267.031300 400.000000

>ms2
239.013900 1252.000000
241.013900 380.000000
243.007600 372.000000
259.018900 496.000000
267.033600 2096.000000
269.030400 432.000000

>ms2
267.032200 1768.000000
269.028100 412.000000
287.038500 3624.000000
288.042900 524.000000
289.037000 704.000000

>ms2
259.019800 1592.000000
260.026600 440.000000
261.020900 420.000000
267.032600 4836.000000
268.038300 900.000000
269.029600 1240.000000
287.041100 344.000000

>ms2
239.013900 1252.000000
241.013900 380.000000
243.007600 372.000000
259.018900 496.000000
267.033600 2096.000000
269.030400 432.000000

