>compound AU95340482
>parentmass 254.0145
>ionization [M-H]-
>formula C12H11Cl2NO
>rt 582.220000
>profile qtof
#smiles_iso CC(C)(C#C)NC(=O)C1=CC(=CC(=C1)Cl)Cl
#smiles_can CC(C)(C#C)NC(=O)C1=CC(=CC(=C1)Cl)Cl
#inchikey PHNUZKMIPFFYSO-UHFFFAOYSA-N
#pubchem_id 32154
#mb_accession AU232157,AU232158,AU232159

>ms2peaks
144.961400 4480.000000
146.957500 2376.000000
186.974700 884.000000
188.969400 612.000000
212.971400 696.000000
212.978500 568.000000
214.975500 548.000000
227.997900 41528.000000
229.000800 5240.000000
229.995300 22620.000000
254.013500 24460.000000
255.017100 4640.000000
256.010300 16384.000000

>ms2peaks
144.961600 9292.000000
145.964500 848.000000
146.957900 5704.000000
148.953300 324.000000
186.971800 1724.000000
188.965000 1208.000000
190.950800 756.000000
212.973200 1516.000000
214.969900 800.000000
227.998000 11876.000000
228.999600 2020.000000
229.995500 6588.000000
254.012700 388.000000
256.013400 332.000000

>ms2peaks
144.961700 1980.000000
146.958500 1272.000000
186.970500 336.000000
227.999700 472.000000
229.992800 416.000000

