>compound AU95963148
>parentmass 179.0714
>ionization [M-H]-
>formula C10H12O3
>rt 497.985000
>profile qtof
#smiles_iso CCCOC(=O)C1=CC=C(C=C1)O
#smiles_can CCCOC(=O)C1=CC=C(C=C1)O
#inchikey QELSKZZBTMNZEB-UHFFFAOYSA-N
#pubchem_id 7175
#mb_accession AU237257,AU237258,AU237259,AU237262

>ms2peaks
136.016600 14300.000000
137.024400 14464.000000
138.026300 1132.000000
179.071000 90644.000000
180.073800 12992.000000

>ms2peaks
121.029200 700.000000
136.015400 5488.000000
137.024000 4900.000000
138.027300 376.000000
179.071000 4860.000000
180.075200 536.000000

>ms2peaks
121.029700 308.000000
137.021900 456.000000

>ms2peaks
57.033900 1040.000000
70.006800 400.000000
82.004700 340.000000
91.017100 1168.000000
92.024800 3236.000000
93.033300 6796.000000
95.012700 2764.000000
108.020600 1952.000000
121.029000 588.000000
123.008200 504.000000
136.017000 5820.000000
137.024700 3844.000000
138.031300 396.000000
179.070800 4452.000000
180.075600 484.000000

