>compound AU96550124
>parentmass 309.0248
>ionization [M-H]-
>formula C14H9ClF2N2O2
>rt 634.155000
>profile qtof
#smiles_iso C1=CC(=C(C(=C1)F)C(=O)NC(=O)NC2=CC=C(C=C2)Cl)F
#smiles_can C1=CC(=C(C(=C1)F)C(=O)NC(=O)NC2=CC=C(C=C2)Cl)F
#inchikey QQQYTWIFVNKMRW-UHFFFAOYSA-N
#pubchem_id 37123
#mb_accession AU233257,AU233258,AU233259,AU233260

>ms2peaks
151.007500 2200.000000
153.004100 700.000000
156.026600 6076.000000
157.027600 700.000000
289.017600 5260.000000
290.018100 1076.000000
291.014000 1616.000000
309.023500 2484.000000
310.028300 608.000000
311.019000 888.000000

>ms2peaks
126.010800 452.000000
151.006200 1780.000000
153.003500 560.000000
156.030400 320.000000

>ms2peaks
126.010800 976.000000
151.007100 760.000000
153.003600 532.000000

>ms2peaks
126.011400 384.000000
151.006700 768.000000

