>compound AU97815818
>parentmass 343.2279
>ionization [M-H]-
>formula C22H32O3
>rt 641.775000
>profile qtof
#smiles_iso C[C@H]1C[C@@H]2[C@H](CC[C@]3([C@H]2CC[C@@]3(C(=O)C)O)C)[C@@]4(C1=CC(=O)CC4)C
#smiles_can CC1CC2C(CCC3(C2CCC3(C(=O)C)O)C)C4(C1=CC(=O)CC4)C
#inchikey FRQMUZJSZHZSGN-HBNHAYAOSA-N
#pubchem_id 10631
#mb_accession AU239557,AU239558,AU239559,AU239560

>ms2
299.199700 372.000000
343.226600 1404.000000
344.226400 396.000000

>ms2
299.201000 1288.000000
300.206500 360.000000
315.232200 408.000000
343.224800 332.000000

>ms2
299.197700 1132.000000
300.201400 312.000000
300.207100 404.000000
315.231000 412.000000

>ms2
299.197800 312.000000

