>compound AU97455804
>parentmass 151.0401
>ionization [M-H]-
>formula C8H8O3
>rt 358.800000
>profile qtof
#smiles_iso COC(=O)C1=CC=C(C=C1)O
#smiles_can COC(=O)C1=CC=C(C=C1)O
#inchikey LXCFILQKKLGQFO-UHFFFAOYSA-N
#pubchem_id 7456
#mb_accession AU237157,AU237158,AU237162

>ms2
136.016500 11700.000000
151.039900 33100.000000
152.042200 4260.000000

>ms2
136.016100 2696.000000
151.039100 1860.000000

>ms2
91.017500 356.000000
92.024500 1728.000000
95.012000 1536.000000
108.019600 1000.000000
121.029100 312.000000
123.008400 340.000000
136.016800 3976.000000
137.019400 444.000000
151.040100 2600.000000

