>compound AU98829936
>parentmass 326.8806
>ionization [M-H]-
>formula C8H3Cl3N2O4S
>rt 257.940000
>profile qtof
#smiles_iso C(#N)C1=C(C(=C(C(=C1Cl)Cl)S(=O)(=O)O)C(=O)N)Cl
#smiles_can C(#N)C1=C(C(=C(C(=C1Cl)Cl)S(=O)(=O)O)C(=O)N)Cl
#inchikey JNMMKKYUIIQPDG-UHFFFAOYSA-N
#pubchem_id 138402812
#mb_accession AU232957,AU232958,AU232959,AU232960

>ms2peaks
219.915900 420.000000
283.872500 740.000000
285.869200 648.000000
326.879300 5544.000000
328.875200 5732.000000

>ms2peaks
203.917100 300.000000
219.915200 940.000000
221.907900 796.000000
221.915800 808.000000
283.869500 692.000000
285.872500 1096.000000
326.878400 572.000000
328.874000 608.000000
328.883700 692.000000

>ms2peaks
183.938500 968.000000
185.932000 396.000000
203.918000 508.000000
205.913400 540.000000
219.911300 3420.000000
220.914100 352.000000
221.908400 3484.000000
223.909500 444.000000
283.874600 624.000000
285.866400 608.000000
285.879000 576.000000

>ms2peaks
183.935900 824.000000
185.933000 540.000000
203.918300 316.000000
219.912300 1036.000000
221.909100 1232.000000

