>compound AU99320423
>parentmass 359.1864
>ionization [M-H]-
>formula C21H28O5
>rt 417.180000
>profile qtof
#smiles_iso C[C@]12C[C@@H]([C@H]3[C@H]([C@@H]1CC[C@@]2(C(=O)CO)O)CCC4=CC(=O)C=C[C@]34C)O
#smiles_can CC12CC(C3C(C1CCC2(C(=O)CO)O)CCC4=CC(=O)C=CC34C)O
#inchikey OIGNJSKKLXVSLS-VWUMJDOOSA-N
#pubchem_id 5755
#mb_accession AU239857,AU239858,AU239859

>ms2peaks
331.188200 816.000000
359.186900 1692.000000
360.186900 632.000000

>ms2peaks
189.089500 736.000000
271.167100 316.000000
287.165000 444.000000
331.189800 940.000000

>ms2peaks
271.166900 424.000000

