>compound PR00389595
>parentmass 554.1671
>ionization [M-H]-
>formula C20H33N3O13S
>rt 144.000000
>profile qtof
#smiles_iso CC(CSCC(C(=O)NCC(=O)O)NC(=O)CCC(C(=O)O)NCC1(C(C(C(CO1)O)O)O)O)C(=O)O
#smiles_can CC(CSCC(C(=O)NCC(=O)O)NC(=O)CCC(C(=O)O)NCC1(C(C(C(CO1)O)O)O)O)C(=O)O
#inchikey XNLDDWIYGNQHQN-UHFFFAOYSA-N
#pubchem_id 139292148
#mb_accession PR309143

>ms2
120.019230 18.000000
128.037080 78.000000
135.055660 16.000000
143.043950 60.000000
143.069840 16.000000
144.048680 23.000000
153.068500 16.000000
167.078310 21.000000
170.032910 16.000000
171.035980 19.000000
179.044190 59.000000
182.093730 16.000000
183.092930 24.000000
185.059950 18.000000
222.087510 26.000000
232.044430 20.000000
253.098310 36.000000
254.082280 44.000000
255.082630 20.000000
272.075960 16.000000
272.091160 174.000000
273.083950 17.000000
282.103580 20.000000
287.018280 21.000000
306.080780 52.000000
307.077850 26.000000
308.080140 21.000000
318.104430 18.000000
344.107910 35.000000
347.958340 22.000000
374.100040 46.000000
392.117580 242.000000
393.103970 16.000000
394.115020 18.000000
395.112090 34.000000
398.123780 17.000000
422.156920 16.000000
434.120090 39.000000
446.145360 17.000000
464.122990 32.000000
464.143950 78.000000
469.138030 20.000000
474.154140 16.000000
500.742490 20.000000
554.166440 685.000000

