>compound PR00619661
>parentmass 407.1858
>ionization [M-H]-
>formula C25H28O5
>rt 612.600000
>profile qtof
#smiles_iso CC(=CCC1=C(C=CC(=C1)C2C(C(=O)C3=C(O2)C(=C(C=C3)O)CC=C(C)C)O)O)C
#smiles_can CC(=CCC1=C(C=CC(=C1)C2C(C(=O)C3=C(O2)C(=C(C=C3)O)CC=C(C)C)O)O)C
#inchikey LAQLCZKPJGMFRM-UHFFFAOYSA-N
#pubchem_id 78190875
#mb_accession PR309042

>ms2peaks
134.039520 19.000000
148.051650 74.000000
149.054120 29.000000
159.081990 20.000000
203.070470 233.000000
203.105650 800.000000
204.066740 18.000000
204.081970 21.000000
204.113140 131.000000
405.166900 34.000000
407.178070 260.000000
407.191500 325.000000

