>compound PR00690647
>parentmass 600.2084
>ionization [M+HCOO]-
>formula C29H33NO10
>rt 280.800000
>profile qtof
#smiles_iso COC1=CC=C(C=C1)C2=COC3=C(C2=O)C=CC(=C3)OC4C(C(C(C(O4)COC(=O)CC5CCNCC5)O)O)O
#smiles_can COC1=CC=C(C=C1)C2=COC3=C(C2=O)C=CC(=C3)OC4C(C(C(C(O4)COC(=O)CC5CCNCC5)O)O)O
#inchikey PNOLBYVRLYUCIC-UHFFFAOYSA-N
#pubchem_id 139292014
#mb_accession PR309189

>ms2
252.040560 18.000000
266.983860 25.000000
267.066960 316.000000
268.067990 21.000000
268.078030 19.000000
600.187500 39.000000
600.211490 46.000000

