>compound PR01317112
>parentmass 303.0498
>ionization [M-H]-
>formula C15H12O7
>rt 256.200000
>profile qtof
#smiles_iso C1=CC(=C(C=C1C2C(C(=O)C3=C(C=C(C=C3O2)O)O)O)O)O
#smiles_can C1=CC(=C(C=C1C2C(C(=O)C3=C(C=C(C=C3O2)O)O)O)O)O
#inchikey CXQWRCVTCMQVQX-UHFFFAOYSA-N
#pubchem_id 471
#mb_accession PR309311

>ms2
123.043460 28.000000
124.011440 25.000000
125.023030 247.000000
137.025220 19.000000
149.021680 18.000000
152.012040 18.000000
153.021480 36.000000
161.030320 18.000000
173.060130 20.000000
175.036850 19.000000
175.043550 26.000000
177.006900 24.000000
177.015210 83.000000
177.023540 20.000000
179.019810 20.000000
181.010770 39.000000
189.051420 22.000000
193.055130 21.000000
201.013890 18.000000
217.050490 25.000000
226.024340 19.000000
241.055480 20.000000
242.055860 34.000000
275.059540 18.000000
276.058380 23.000000
284.962950 18.000000
285.035310 88.000000
285.044800 54.000000
286.038910 58.000000
303.049100 20.000000

