>compound PR01224978
>parentmass 292.1391
>ionization [M-H]-
>formula C12H23NO7
>rt 118.800000
>profile qtof
#smiles_iso CCC(C)C(C(=O)O)NCC1(C(C(C(O1)CO)O)O)O
#smiles_can CCC(C)C(C(=O)O)NCC1(C(C(C(O1)CO)O)O)O
#inchikey VYGRYVGDPYFVCA-UHFFFAOYSA-N
#pubchem_id 139292115
#mb_accession PR309145

>ms2
101.019250 16.000000
130.086180 775.000000
131.083910 22.000000
172.101530 16.000000
202.108260 99.000000
203.111950 49.000000
232.115570 20.000000

