>compound PR01978353
>parentmass 329.0883
>ionization [M-H]-
>formula C14H18O9
>rt 166.800000
>profile qtof
#smiles_iso C1=CC(=C(C=C1O)CC(=O)O)OC2C(C(C(C(O2)CO)O)O)O
#smiles_can C1=CC(=C(C=C1O)CC(=O)O)OC2C(C(C(C(O2)CO)O)O)O
#inchikey MVFYXXNAFZRZAM-UHFFFAOYSA-N
#pubchem_id 14104236
#mb_accession PR309060

>ms2peaks
59.013200 25.000000
71.016360 16.000000
73.020630 17.000000
101.021480 47.000000
101.025090 16.000000
108.020770 20.000000
123.041800 36.000000
165.062030 16.000000
167.034840 50.000000
168.040680 21.000000
181.045360 17.000000
181.053820 30.000000
181.060550 26.000000
209.045380 53.000000
269.058650 17.000000
269.071660 50.000000
322.808140 25.000000
329.089540 337.000000

