>compound PR02761945
>parentmass 311.2221
>ionization [M-H]-
>formula C18H32O4
>rt 573.600000
>profile qtof
#smiles_iso CCC=CCC(C(CC=CCCCCCCCC(=O)O)O)O
#smiles_can CCC=CCC(C(CC=CCCCCCCCC(=O)O)O)O
#inchikey RGRKFKRAFZJQMS-UHFFFAOYSA-N
#pubchem_id 73229371
#mb_accession PR309097

>ms2peaks
162.933320 22.000000
183.007920 21.000000
249.220340 110.000000
250.229320 26.000000
250.658620 18.000000
265.196990 20.000000
293.205440 20.000000
294.241420 29.000000
311.227870 214.000000

