>compound PR02790588
>parentmass 255.065
>ionization [M-H]-
>formula C15H12O4
>rt 448.200000
>profile qtof
#smiles_iso C1C(OC2=CC(=CC(=C2C1=O)O)O)C3=CC=CC=C3
#smiles_can C1C(OC2=CC(=CC(=C2C1=O)O)O)C3=CC=CC=C3
#inchikey URFCJEUYXNAHFI-UHFFFAOYSA-N
#pubchem_id 238782
#mb_accession PR309307

>ms2
51.020460 18.000000
57.038460 41.000000
64.998360 22.000000
65.003720 58.000000
65.999970 19.000000
68.999150 57.000000
77.038540 26.000000
77.043430 23.000000
81.029760 41.000000
81.035130 37.000000
82.465470 18.000000
83.013150 203.000000
84.018620 30.000000
93.037040 21.000000
95.013740 38.000000
101.039110 39.000000
103.049100 47.000000
103.055560 22.000000
107.012540 996.000000
107.050890 29.000000
108.019020 220.000000
109.027360 50.000000
111.556220 20.000000
115.048130 46.000000
115.060640 18.000000
117.029370 22.000000
117.070890 37.000000
118.039660 23.000000
120.021170 38.000000
121.996490 18.000000
122.036630 203.000000
123.032520 36.000000
125.023060 236.000000
126.023960 21.000000
127.054810 39.000000
128.055760 20.000000
129.665740 24.000000
130.042130 21.000000
131.046920 47.000000
133.030200 18.000000
135.041580 38.000000
136.007060 23.000000
136.018450 107.000000
141.063490 86.000000
141.069750 40.000000
142.037280 29.000000
142.076250 18.000000
143.043000 19.000000
143.048900 40.000000
143.084670 25.000000
145.065380 1029.000000
146.066670 81.000000
146.074710 19.000000
147.081130 43.000000
151.002370 2094.000000
151.053420 18.000000
152.005340 155.000000
153.001510 26.000000
153.008320 18.000000
153.018400 21.000000
153.068940 45.000000
155.052780 24.000000
156.055450 91.000000
157.062710 19.000000
163.010570 20.000000
164.010150 229.000000
165.067410 20.000000
166.027330 18.000000
167.048220 19.000000
167.083540 48.000000
169.064700 539.000000
170.071580 109.000000
171.044430 890.000000
171.074070 68.000000
171.085300 18.000000
172.047970 171.000000
173.057650 277.000000
174.062970 46.000000
177.020840 36.000000
178.020390 20.000000
180.054890 23.000000
181.066250 18.000000
183.079270 119.000000
184.051150 39.000000
184.084820 23.000000
185.059050 339.000000
185.099440 20.000000
186.064730 40.000000
186.109620 20.000000
187.073240 305.000000
188.072200 25.000000
188.081710 43.000000
189.770570 21.000000
193.062790 24.000000
193.071500 20.000000
194.068680 19.000000
195.080760 220.000000
196.048580 19.000000
196.083080 20.000000
198.054570 18.000000
208.049290 21.000000
209.364700 23.000000
211.028850 23.000000
211.070500 313.000000
211.078220 261.000000
212.072910 71.000000
213.053670 1594.000000
213.089950 1151.000000
213.960310 31.000000
214.053510 204.000000
214.064010 46.000000
214.094860 286.000000
214.115050 24.000000
215.072020 48.000000
227.066510 18.000000
227.077030 39.000000
229.075530 18.000000
237.056550 20.000000
238.683820 22.000000
239.068300 171.000000
239.082340 20.000000
240.076780 56.000000
255.064800 22836.000000
255.109130 170.000000

