>compound PR02564251
>parentmass 372.0929
>ionization [M-H]-
>formula C15H19NO10
>rt 210.600000
>profile qtof
#smiles_iso COC1=CC2=C(C=C1)N(C(=O)C(O2)OC3C(C(C(C(O3)CO)O)O)O)O
#smiles_can COC1=CC2=C(C=C1)N(C(=O)C(O2)OC3C(C(C(C(O3)CO)O)O)O)O
#inchikey WTGXAWKVZMQEDA-UHFFFAOYSA-N
#pubchem_id 4480305
#mb_accession PR309385

>ms2peaks
59.015550 36.000000
59.018020 16.000000
85.260650 18.000000
95.012560 17.000000
101.021620 42.000000
101.025150 16.000000
119.042150 16.000000
120.014160 16.000000
121.013730 66.000000
123.028870 77.000000
130.013470 18.000000
132.276080 18.000000
134.026960 16.000000
137.053420 29.000000
138.052890 19.000000
148.037490 20.000000
148.044800 18.000000
149.010970 2366.000000
149.028490 16.000000
149.041030 17.000000
149.066020 17.000000
150.014100 139.000000
151.019070 36.000000
152.039170 17.000000
154.046390 16.000000
164.034610 1608.000000
165.038090 183.000000
165.050000 25.000000
169.022770 17.000000
177.011290 17.000000
179.044560 58.000000
179.050060 24.000000
182.050420 23.000000
192.020160 38.000000
192.030790 112.000000
193.027160 25.000000
210.039470 261.000000
211.038640 16.000000
372.074650 19.000000
372.098420 127.000000

