>compound PR02585080
>parentmass 299.1115
>ionization [M-H]-
>formula C14H20O7
>rt 168.000000
>profile qtof
#smiles_iso C1=CC(=CC=C1CCOC2C(C(C(C(O2)CO)O)O)O)O
#smiles_can C1=CC(=CC=C1CCOC2C(C(C(C(O2)CO)O)O)O)O
#inchikey ILRCGYURZSFMEG-UHFFFAOYSA-N
#pubchem_id 4961358
#mb_accession PR309416

>ms2
59.010650 43.000000
71.013020 50.000000
89.023120 120.000000
113.024420 26.000000
119.030040 56.000000
119.035510 46.000000
119.047740 38.000000
119.054370 20.000000
143.043780 18.000000
179.053050 46.000000
299.117830 25.000000

