>compound PR03426190
>parentmass 623.2386
>ionization [M-H]-
>formula C36H36N2O8
>rt 384.000000
>profile qtof
#smiles_iso COC1=CC(=CC2=C1OC(C2C(=O)NCCC3=CC=C(C=C3)O)C4=CC(=C(C=C4)O)OC)C=CC(=O)NCCC5=CC=C(C=C5)O
#smiles_can COC1=CC(=CC2=C1OC(C2C(=O)NCCC3=CC=C(C=C3)O)C4=CC(=C(C=C4)O)OC)C=CC(=O)NCCC5=CC=C(C=C5)O
#inchikey DROXVBRNXCRUHP-UHFFFAOYSA-N
#pubchem_id 338256
#mb_accession PR309392

>ms2peaks
189.041840 21.000000
192.023820 19.000000
204.055500 18.000000
237.657530 20.000000
265.048860 20.000000
266.089840 19.000000
267.065310 110.000000
268.081940 20.000000
270.102020 18.000000
270.112610 27.000000
271.131350 18.000000
282.083190 132.000000
282.092040 144.000000
283.077790 44.000000
283.093690 91.000000
283.107390 23.000000
284.107970 35.000000
285.545930 20.000000
296.095090 90.000000
296.115480 58.000000
297.112120 745.000000
297.128390 30.000000
298.122500 45.000000
308.074400 22.000000
308.090030 25.000000
309.077300 18.000000
323.083680 20.000000
326.087590 19.000000
326.101990 20.000000
349.094020 18.000000
352.101620 22.000000
352.123960 75.000000
353.132540 31.000000
383.130310 26.000000
403.138120 28.000000
412.118070 22.000000
413.102810 20.000000
413.120450 61.000000
414.131960 21.000000
417.172030 19.000000
428.158940 20.000000
430.102110 25.000000
430.123780 70.000000
430.153230 18.000000
431.151890 36.000000
432.179320 107.000000
442.169460 20.000000
444.145970 18.000000
445.158360 200.000000
445.204280 33.000000
460.178590 1041.000000
460.296840 18.000000
461.168520 125.000000
461.188170 139.000000
462.178560 21.000000
462.196840 57.000000
462.217830 26.000000
471.144130 82.000000
472.159910 24.000000
475.169830 25.000000
486.155790 19.000000
487.173890 21.000000
488.154080 22.000000
539.198300 18.000000
591.201900 19.000000
591.222230 20.000000
592.216800 18.000000
608.211730 23.000000
608.235600 18.000000
623.240300 3071.000000
623.341920 18.000000

