>compound PR04065615
>parentmass 443.1347
>ionization [M-H]-
>formula C23H24O9
>rt 380.400000
>profile qtof
#smiles_iso COC1=C(C=CC(=C1)C=CC(=O)OCC(COC(=O)C=CC2=CC(=C(C=C2)O)OC)O)O
#smiles_can COC1=C(C=CC(=C1)C=CC(=O)OCC(COC(=O)C=CC2=CC(=C(C=C2)O)OC)O)O
#inchikey PATJZXBBUQEFOY-UHFFFAOYSA-N
#pubchem_id 67283061
#mb_accession PR309329

>ms2
89.035970 16.000000
117.036900 16.000000
134.036580 233.000000
135.036670 16.000000
136.016080 18.000000
147.043520 18.000000
148.054260 22.000000
149.061280 48.000000
150.062390 18.000000
159.043440 17.000000
160.006090 20.000000
160.023960 32.000000
160.052350 24.000000
161.016370 71.000000
162.845140 20.000000
169.581100 18.000000
173.045650 39.000000
175.037410 34.000000
177.021360 16.000000
179.020680 20.000000
192.038910 16.000000
193.050990 471.000000
193.067640 16.000000
194.052370 39.000000
204.044920 64.000000
207.062360 53.000000
207.071780 16.000000
208.065810 37.000000
211.138400 19.000000
234.052900 67.000000
249.078220 18.000000
443.133940 1070.000000
443.238400 16.000000

