>compound PR04744731
>parentmass 403.1611
>ionization [M-H]-
>formula C18H28O10
>rt 165.600000
>profile qtof
#smiles_iso CC(CC=CC=C(C)C(=O)OC1C(C(C(C(O1)CO)O)O)O)C(CC(=O)O)O
#smiles_can CC(CC=CC=C(C)C(=O)OC1C(C(C(C(O1)CO)O)O)O)C(CC(=O)O)O
#inchikey JWAGJGCOOSEMAU-UHFFFAOYSA-N
#pubchem_id 145994459
#mb_accession PR309338

>ms2
71.751640 29.000000
89.027050 43.000000
101.021130 38.000000
113.020650 18.000000
125.086140 29.000000
131.028630 17.000000
143.088000 42.000000
149.089610 20.000000
161.096340 152.000000
162.099560 23.000000
163.162960 20.000000
179.104890 112.000000
182.723480 17.000000
385.143680 19.000000
403.133480 22.000000
403.158080 622.000000

