>compound PR04398397
>parentmass 351.071
>ionization [M-H]-
>formula C16H16O9
>rt 187.200000
>profile qtof
#smiles_iso C1C(C(C(CC1(C(=O)O)O)OC(=O)C=CC2=CC(=O)C(=O)C=C2)O)O
#smiles_can C1C(C(C(CC1(C(=O)O)O)OC(=O)C=CC2=CC(=O)C(=O)C=C2)O)O
#inchikey ITENTBHADJNDDH-UHFFFAOYSA-N
#pubchem_id 92002858
#mb_accession PR309012

>ms2
71.013070 36.000000
85.033520 17.000000
91.079320 18.000000
93.033970 114.000000
93.041240 18.000000
107.046030 20.000000
109.029850 34.000000
110.030000 37.000000
111.049150 16.000000
118.035350 20.000000
122.032140 20.000000
127.042590 41.000000
133.027330 244.000000
134.025620 16.000000
134.032680 30.000000
135.040700 26.000000
135.046220 31.000000
136.050290 20.000000
149.973790 17.000000
150.033800 16.000000
161.022170 22.000000
161.029140 18.000000
171.027600 18.000000
173.044660 16.000000
173.055330 16.000000
174.180330 18.000000
175.077510 22.000000
177.019710 197.000000
178.019010 36.000000
178.040940 20.000000
179.038940 44.000000
183.355220 25.000000
191.055480 2171.000000
191.076550 17.000000
192.057680 108.000000
192.067610 43.000000
193.049560 17.000000
193.061160 19.000000
194.056150 28.000000
195.044190 16.000000
215.056230 86.000000
216.053180 16.000000
307.077060 17.000000
307.088070 25.000000
351.073360 318.000000

