>compound PR05815953
>parentmass 309.2075
>ionization [M-H]-
>formula C18H30O4
>rt 539.400000
>profile qtof
#smiles_iso CCC=CC=CC(CC=CCCCCCCCC(=O)O)OO
#smiles_can CCC=CC=CC(CC=CCCCCCCCC(=O)O)OO
#inchikey FLJRXICXLUZYBE-UHFFFAOYSA-N
#pubchem_id 78382137
#mb_accession PR309086

>ms2
194.172650 22.000000
247.210920 21.000000
273.179900 18.000000
291.195310 38.000000
292.164520 27.000000
309.213590 152.000000

