>compound PR05277716
>parentmass 367.10425
>ionization [M-H]-
>formula C17H20O9
>rt 217.200000
>profile qtof
#smiles_iso COC1=C(C=CC(=C1)C=CC(=O)OC2CC(CC(C2O)O)(C(=O)O)O)O
#smiles_can COC1=C(C=CC(=C1)C=CC(=O)OC2CC(CC(C2O)O)(C(=O)O)O)O
#inchikey RAGZUCNPTLULOL-UHFFFAOYSA-N
#pubchem_id 73210496
#mb_accession PR309019,PR309021

>ms2
83.049710 16.000000
89.026520 18.000000
117.033440 187.000000
119.047100 17.000000
124.576760 43.000000
127.039820 16.000000
134.036240 1410.000000
135.035630 114.000000
135.046510 79.000000
137.017990 16.000000
149.025360 20.000000
149.057940 169.000000
149.069180 16.000000
153.965680 16.000000
155.026460 25.000000
155.037780 33.000000
165.307660 21.000000
173.044460 174.000000
175.030910 17.000000
178.029860 16.000000
189.005080 36.000000
191.054370 182.000000
193.050900 4484.000000
194.053340 420.000000
195.052870 16.000000
195.059680 25.000000
222.016300 16.000000
243.612350 31.000000
367.104190 1134.000000

>ms2
113.025060 20.000000
149.022670 16.000000
173.040160 19.000000
191.052540 37.000000
191.061450 130.000000
192.061810 26.000000
193.051280 18.000000
194.055860 29.000000
367.098240 35.000000

