>compound PR06322747
>parentmass 476.27684999999997
>ionization [M-H]-
>formula C23H44NO7P
>rt 564.000000
>profile qtof
#smiles_iso CCCCCC=CCC=CCCCCCCCC(=O)OCC(COP(=O)(O)OCCN)O
#smiles_can CCCCCC=CCC=CCCCCCCCC(=O)OCC(COP(=O)(O)OCCN)O
#inchikey DBHKHNGBVGWQJE-UHFFFAOYSA-N
#pubchem_id 75958059
#mb_accession PR309149,PR309150

>ms2
214.046220 21.000000
279.228090 237.000000
280.234590 20.000000
281.238490 23.000000
476.278500 461.000000

>ms2
196.039920 56.000000
214.049620 16.000000
216.056340 16.000000
279.231350 350.000000
280.223850 21.000000
280.236910 65.000000
281.237180 19.000000
476.264190 45.000000
476.277440 111.000000
476.307650 33.000000

