>compound PR06849386
>parentmass 431.1188
>ionization [M-H]-
>formula C18H24O12
>rt 191.400000
>profile qtof
#smiles_iso CC1=C(C(=O)C=CO1)OC2C(C(C(C(O2)COC(=O)CC(C)(CC(=O)O)O)O)O)O
#smiles_can CC1=C(C(=O)C=CO1)OC2C(C(C(C(O2)COC(=O)CC(C)(CC(=O)O)O)O)O)O
#inchikey WCVUIHQUPRXYKT-UHFFFAOYSA-N
#pubchem_id 73880679
#mb_accession PR309006

>ms2
59.011590 22.000000
86.494130 27.000000
97.027530 47.000000
97.034000 19.000000
99.043410 396.000000
100.048800 18.000000
113.023990 19.000000
123.041300 18.000000
125.024420 732.000000
126.026120 19.000000
143.033630 126.000000
159.026350 28.000000
161.039440 39.000000
161.047260 70.000000
162.049470 22.000000
203.060940 50.000000
217.121140 20.000000
242.315610 21.000000
315.078980 20.000000
329.079160 20.000000
329.091640 20.000000
369.133390 18.000000
431.117310 290.000000

