>compound PR06016926
>parentmass 711.217
>ionization [M+HCOO]-
>formula C24H42O21
>rt 101.400000
>profile qtof
#smiles_iso C(C1C(C(C(C(O1)OCC2C(C(C(C(O2)OCC3C(C(C(C(O3)OC4(C(C(C(O4)CO)O)O)CO)O)O)O)O)O)O)O)O)O)O
#smiles_can C(C1C(C(C(C(O1)OCC2C(C(C(C(O2)OCC3C(C(C(C(O3)OC4(C(C(C(O4)CO)O)O)CO)O)O)O)O)O)O)O)O)O)O
#inchikey UQZIYBXSHAGNOE-UHFFFAOYSA-N
#pubchem_id 4287569
#mb_accession PR308963

>ms2
101.021650 81.000000
119.035560 17.000000
179.052060 77.000000
180.073210 23.000000
181.056180 16.000000
182.063310 17.000000
256.279110 18.000000
383.101170 19.000000
383.118500 34.000000
458.522400 16.000000
485.145510 17.000000
552.189510 17.000000
665.210210 652.000000
665.241520 78.000000
666.198550 81.000000
666.224430 153.000000
667.193850 32.000000
667.225520 16.000000
711.192260 32.000000
711.222840 63.000000
711.246090 18.000000

