>compound PR06316273
>parentmass 283.0601
>ionization [M-H]-
>formula C16H12O5
>rt 318.600000
>profile qtof
#smiles_iso COC1=C(C=C2C(=C1)C(=O)C(=CO2)C3=CC=C(C=C3)O)O
#smiles_can COC1=C(C=C2C(=C1)C(=O)C(=CO2)C3=CC=C(C=C3)O)O
#inchikey DXYUAIFZCFRPTH-UHFFFAOYSA-N
#pubchem_id 5317750
#mb_accession PR309183

>ms2peaks
120.017910 18.000000
135.007600 31.000000
158.035080 18.000000
160.014450 22.000000
195.035520 23.000000
211.033810 18.000000
212.044630 45.000000
212.063060 18.000000
239.042070 18.000000
240.041430 18.000000
256.040860 22.000000
268.038300 165.000000
269.033600 18.000000
269.046230 41.000000
270.041720 19.000000
283.025050 19.000000
283.061610 315.000000

