>compound PR07732263
>parentmass 987.5139
>ionization [M+HCOO]-
>formula C48H78O18
>rt 414.000000
>profile qtof
#smiles_iso CC1C(C(C(C(O1)OC2CCC3(C(C2(C)CO)CCC4(C3CC=C5C4(CCC6(C5CC(CC6)(C)C)C(=O)O)C)C)C)O)OC7C(C(C(C(O7)CO)OC8C(C(C(C(O8)CO)O)O)O)O)O)O
#smiles_can CC1C(C(C(C(O1)OC2CCC3(C(C2(C)CO)CCC4(C3CC=C5C4(CCC6(C5CC(CC6)(C)C)C(=O)O)C)C)C)O)OC7C(C(C(C(O7)CO)OC8C(C(C(C(O8)CO)O)O)O)O)O)O
#inchikey GNMXZMIENAWWKB-UHFFFAOYSA-N
#pubchem_id 139291864
#mb_accession PR308926

>ms2
62.654900 23.000000
83.016980 21.000000
113.023510 27.000000
118.452170 27.000000
143.034610 58.000000
307.088960 18.000000
326.122010 23.000000
361.987760 18.000000
384.990080 30.000000
448.033110 18.000000
448.445250 55.000000
471.333890 23.000000
471.349640 21.000000
472.357880 24.000000
473.361420 18.000000
485.860570 19.000000
486.716250 44.000000
586.474730 49.000000
598.256290 24.000000
615.386050 18.000000
616.401000 28.000000
618.666320 20.000000
633.396670 152.000000
633.422420 132.000000
633.854740 21.000000
634.411990 60.000000
635.405460 42.000000
635.423460 23.000000
680.502200 33.000000
688.440860 20.000000
741.439210 26.000000
777.413570 49.000000
777.438900 37.000000
778.333010 20.000000
778.446040 18.000000
779.417910 18.000000
781.110530 20.000000
784.344850 20.000000
795.257260 20.000000
795.327760 18.000000
795.401120 19.000000
795.456670 769.000000
796.452030 349.000000
796.481020 58.000000
797.426510 20.000000
797.465210 132.000000
797.488160 45.000000
798.479800 43.000000
799.601440 27.000000
866.374940 24.000000
900.744930 23.000000
941.510380 3773.000000
941.581540 44.000000
942.511410 1580.000000
942.612370 20.000000
943.506840 198.000000
943.527890 512.000000
944.534300 113.000000
945.521000 19.000000
968.472780 20.000000
969.017270 20.000000
969.466670 31.000000
987.293330 18.000000
987.511050 2106.000000

