>compound PR07179110
>parentmass 395.2095
>ionization [M-H]-
>formula C18H36O7S
>rt 326.400000
>profile qtof
#smiles_iso CCCCCCCCC(C(CCCCCCCC(=O)OS(=O)(=O)O)O)O
#smiles_can CCCCCCCCC(C(CCCCCCCC(=O)OS(=O)(=O)O)O)O
#inchikey SODLPGVKTPLRNA-UHFFFAOYSA-N
#pubchem_id 139292071
#mb_accession PR309114

>ms2
86.022900 25.000000
96.959990 1673.000000
97.961160 37.000000
98.951020 21.000000
98.955540 60.000000
98.960800 25.000000
200.940190 21.000000
227.357760 47.000000
376.503780 21.000000
395.211270 6181.000000

