>compound PR07087679
>parentmass 359.1248
>ionization [M-H]-
>formula C18H20N2O6
>rt 238.200000
>profile qtof
#smiles_iso C1=CC(=CC=C1CC(C(=O)O)N)OC2=C(C=CC(=C2)CC(C(=O)O)N)O
#smiles_can C1=CC(=CC=C1CC(C(=O)O)N)OC2=C(C=CC(=C2)CC(C(=O)O)N)O
#inchikey FWZXNPNHUWFOCM-UHFFFAOYSA-N
#pubchem_id 14309606
#mb_accession PR309409

>ms2
118.065130 22.000000
122.056470 46.000000
132.044740 101.000000
133.013820 27.000000
133.048630 37.000000
150.056610 109.000000
151.057540 35.000000
152.061550 15.000000
152.072250 206.000000
152.127060 25.000000
153.070630 16.000000
164.067900 16.000000
180.034390 17.000000
267.108950 16.000000
273.117770 32.000000
297.126250 388.000000
298.117310 16.000000
314.107360 16.000000
315.136080 155.000000
315.153660 17.000000
316.125210 33.000000
316.142580 36.000000
317.133540 35.000000
359.121340 69.000000
359.147920 17.000000

