>compound PR07358784
>parentmass 563.1399
>ionization [M-H]-
>formula C26H28O14
>rt 282.600000
>profile qtof
#smiles_iso C1C(C(C(O1)OC2C(C(C(OC2OC3=CC(=C4C(=C3)OC(=CC4=O)C5=CC=C(C=C5)O)O)CO)O)O)O)(CO)O
#smiles_can C1C(C(C(O1)OC2C(C(C(OC2OC3=CC(=C4C(=C3)OC(=CC4=O)C5=CC=C(C=C5)O)O)CO)O)O)O)(CO)O
#inchikey NTDLXWMIWOECHG-UHFFFAOYSA-N
#pubchem_id 5840046
#mb_accession PR309280

>ms2
61.310140 17.000000
77.681300 16.000000
83.635380 20.000000
101.021080 17.000000
108.018840 16.000000
111.717820 31.000000
127.217220 18.000000
131.033860 19.000000
140.920060 20.000000
141.641710 20.000000
151.115510 31.000000
165.200040 21.000000
180.242550 16.000000
181.068620 16.000000
191.057590 29.000000
209.065020 44.000000
210.084640 16.000000
211.038930 17.000000
223.036040 33.000000
236.050250 73.000000
237.053050 325.000000
239.034120 38.000000
240.071780 18.000000
249.054750 49.000000
249.063840 36.000000
250.999300 17.000000
251.034010 2103.000000
252.035280 428.000000
252.045270 166.000000
252.172130 17.000000
253.028410 17.000000
253.043380 109.000000
253.181370 22.000000
253.272920 17.000000
254.061100 36.000000
254.072430 17.000000
255.059070 16.000000
263.791900 53.000000
264.038480 34.000000
264.051790 19.000000
265.050140 528.000000
266.019040 22.000000
266.052520 38.000000
267.027280 50.000000
267.059970 40.000000
268.032930 60.000000
269.008610 18.000000
269.044590 7731.000000
269.555660 16.000000
270.028750 60.000000
270.047330 1320.000000
271.047730 196.000000
278.476590 19.000000
282.046330 32.000000
282.056430 17.000000
283.055050 19.000000
283.081600 18.000000
284.065830 16.000000
293.043520 38.000000
295.054810 26.000000
300.071350 22.000000
311.055420 411.000000
311.075960 16.000000
312.054200 35.000000
313.059840 21.000000
323.046020 16.000000
323.060120 37.000000
334.043060 16.000000
335.055360 37.000000
336.078310 18.000000
336.977110 16.000000
341.057890 16.000000
461.992490 23.000000
509.120150 17.000000
546.120060 19.000000
546.141170 25.000000
546.163390 20.000000
562.114750 48.000000
562.138180 17.000000
562.162350 16.000000
563.139710 994.000000

