>compound PR08538051
>parentmass 917.4744
>ionization [M-H]-
>formula C45H74O19
>rt 259.800000
>profile qtof
#smiles_iso CC1=C(OC2C1C3(CCC4C(C3C2)CCC5C4(CC(C(C5)OC6C(C(C(C(O6)CO)O)O)OC7C(C(C(C(O7)CO)O)O)O)O)C)C)CCC(C)COC8C(C(C(C(O8)CO)O)O)O
#smiles_can CC1=C(OC2C1C3(CCC4C(C3C2)CCC5C4(CC(C(C5)OC6C(C(C(C(O6)CO)O)O)OC7C(C(C(C(O7)CO)O)O)O)O)C)C)CCC(C)COC8C(C(C(C(O8)CO)O)O)O
#inchikey QEJIXVVELVKWFA-UHFFFAOYSA-N
#pubchem_id 74029754
#mb_accession PR308984

>ms2peaks
101.025590 19.000000
107.031430 16.000000
143.026170 17.000000
448.337650 18.000000
592.381410 16.000000
599.284910 18.000000
607.882080 17.000000
609.393130 16.000000
611.376830 16.000000
755.404300 17.000000
771.204830 16.000000
771.401730 63.000000
772.426390 42.000000
917.464230 1200.000000

