>compound PR08930172
>parentmass 265.147
>ionization [M-H]-
>formula C12H26O4S
>rt 494.100000
>profile qtof
#smiles_iso CCCCCCCCCCCCOS(=O)(=O)O
#smiles_can CCCCCCCCCCCCOS(=O)(=O)O
#inchikey MOTZDAYCYVMXPC-UHFFFAOYSA-N
#pubchem_id 8778
#mb_accession PR308958,PR309118

>ms2peaks
96.270640 20.000000
96.959480 192.000000
96.967170 16.000000
98.959020 38.000000
265.150090 1188.000000
265.185940 16.000000

>ms2peaks
96.955270 20.000000
98.956790 27.000000
265.149810 255.000000

