>compound PR08698350
>parentmass 785.1934
>ionization [M-H]-
>formula C37H38O19
>rt 230.400000
>profile qtof
#smiles_iso COC1=C(C=CC(=C1)C=CC(=O)OCC2C(C(C(C(O2)OC3C(C(C(OC3C4=C(C5=C(C=C4O)OC(=CC5=O)C6=CC(=C(C=C6)O)O)O)CO)O)O)O)O)O)O
#smiles_can COC1=C(C=CC(=C1)C=CC(=O)OCC2C(C(C(C(O2)OC3C(C(C(OC3C4=C(C5=C(C=C4O)OC(=CC5=O)C6=CC(=C(C=C6)O)O)O)CO)O)O)O)O)O)O
#inchikey BKAKNBQTKDWIDR-UHFFFAOYSA-N
#pubchem_id 145994458
#mb_accession PR309332

>ms2peaks
88.985530 16.000000
89.020340 16.000000
193.050200 17.000000
218.025380 29.000000
235.052340 17.000000
235.061230 36.000000
239.672470 16.000000
295.078340 17.000000
309.038480 185.000000
311.052760 16.000000
323.057530 20.000000
326.018830 16.000000
327.036960 19.000000
339.051820 44.000000
351.047700 16.000000
357.046810 20.000000
429.074770 79.000000
429.105320 34.000000
430.077300 35.000000
441.104310 18.000000
443.116610 17.000000
472.303800 17.000000
487.076930 16.000000
490.128540 16.000000
507.634920 20.000000
609.131840 49.000000
609.162660 27.000000
623.127380 33.000000
624.188170 19.000000
665.155580 94.000000
784.190670 33.000000
785.101380 18.000000
785.120360 16.000000
785.163090 175.000000
785.194950 972.000000

