>compound PR08658853
>parentmass 210.0766
>ionization [M-H]-
>formula C10H13NO4
>rt 211.200000
>profile qtof
#smiles_iso COC1=C(C=CC(=C1)CC(C(=O)O)N)O
#smiles_can COC1=C(C=CC(=C1)CC(C(=O)O)N)O
#inchikey PFDUUKDQEHURQC-UHFFFAOYSA-N
#pubchem_id 1670
#mb_accession PR309402

>ms2
94.026610 57.000000
94.032280 40.000000
124.036050 118.000000
124.042650 259.000000
125.044310 34.000000
127.047180 16.000000
210.079160 90.000000

