>compound PR09615987
>parentmass 219.1049
>ionization [M-H]-
>formula C10H20O3S
>rt 265.200000
>profile qtof
#smiles_iso CS(=O)CCCCCCCCC(=O)O
#smiles_can CS(=O)CCCCCCCCC(=O)O
#inchikey XZYIQKMSOAQJCG-UHFFFAOYSA-N
#pubchem_id 121232646
#mb_accession PR309218

>ms2
155.101590 87.000000
155.109330 119.000000
219.097470 20.000000
219.109310 32.000000

