>compound PR09579923
>parentmass 290.0872
>ionization [M-H]-
>formula C11H17NO8
>rt 106.800000
>profile qtof
#smiles_iso C1CC(=O)N(C1C(=O)O)CC2(C(C(C(O2)CO)O)O)O
#smiles_can C1CC(=O)N(C1C(=O)O)CC2(C(C(C(O2)CO)O)O)O
#inchikey VMOJEEZNLOLYBG-UHFFFAOYSA-N
#pubchem_id 139292107
#mb_accession PR309144

>ms2peaks
84.041290 17.000000
128.035540 1642.000000
128.804020 18.000000
154.047960 25.000000
168.058940 16.000000
168.069440 16.000000
170.045780 46.000000
182.040890 16.000000
200.057170 444.000000
201.058500 159.000000
202.064500 16.000000
212.059720 64.000000
214.065440 17.000000
224.056790 23.000000
230.068740 20.000000
230.086040 20.000000
254.061480 16.000000
254.070970 19.000000
272.084230 55.000000
274.076420 16.000000
289.981630 16.000000
290.070830 34.000000
290.087920 303.000000

