>compound PR09602823
>parentmass 285.06034999999997
>ionization [M-H]-
>formula C12H14O8
>rt 187.800000
>profile qtof
#smiles_iso C1C(C(C(C(O1)OC(=O)C2=CC(=C(C=C2)O)O)O)O)O
#smiles_can C1C(C(C(C(O1)OC(=O)C2=CC(=C(C=C2)O)O)O)O)O
#inchikey VWQASRWQZBVNEI-UHFFFAOYSA-N
#pubchem_id 53462251
#mb_accession PR309051,PR309052

>ms2peaks
108.014960 22.000000
109.027910 277.000000
110.037540 35.000000
152.006680 36.000000
153.019390 430.000000
154.016220 20.000000
155.021840 18.000000
285.060520 592.000000

>ms2peaks
108.025380 25.000000
152.009080 18.000000
153.017550 108.000000
267.044680 20.000000
285.065860 169.000000

