>compound PR09363515
>parentmass 339.1226
>ionization [M-H]-
>formula C20H20O5
>rt 487.200000
>profile qtof
#smiles_iso CC(=CCC1=C(C=CC(=C1)C2CC(=O)C3=C(C=C(C=C3O2)O)O)O)C
#smiles_can CC(=CCC1=C(C=CC(=C1)C2CC(=O)C3=C(C=C(C=C3O2)O)O)O)C
#inchikey CGKWSLSAYABZTL-UHFFFAOYSA-N
#pubchem_id 14218027
#mb_accession PR309037

>ms2
63.025250 18.000000
64.998350 18.000000
83.012020 20.000000
106.039380 46.000000
107.011510 293.000000
119.048770 30.000000
120.049670 18.000000
132.057650 428.000000
133.059540 52.000000
133.071320 30.000000
151.002810 1516.000000
152.006730 18.000000
161.097470 100.000000
162.104320 34.000000
165.027190 20.000000
167.019010 23.000000
177.014920 29.000000
177.022220 49.000000
178.030240 25.000000
187.111250 1088.000000
188.110550 61.000000
188.117540 62.000000
189.091810 22.000000
207.444900 25.000000
209.096340 20.000000
213.094380 20.000000
219.062580 18.000000
240.830920 19.000000
253.116780 23.000000
296.152190 21.000000
339.122560 3286.000000

