>compound PR10076447
>parentmass 540.3307
>ionization [M+HCOO]-
>formula C24H50NO7P
>rt 594.600000
>profile qtof
#smiles_iso CCCCCCCCCCCCCCCC(=O)OCC(COP(=O)([O-])OCC[N+](C)(C)C)O
#smiles_can CCCCCCCCCCCCCCCC(=O)OCC(COP(=O)([O-])OCC[N+](C)(C)C)O
#inchikey ASWBNKHCZGQVJV-UHFFFAOYSA-N
#pubchem_id 86554
#mb_accession PR309152

>ms2peaks
191.672760 18.000000
255.233310 270.000000
257.261410 19.000000
480.298890 169.000000
480.315730 156.000000
481.326420 20.000000
540.272340 18.000000
540.309450 19.000000
540.342530 38.000000

