>compound PR10673469
>parentmass 737.4122
>ionization [M+HCOO]-
>formula C38H60O11
>rt 459.000000
>profile qtof
#smiles_iso CC(=O)OCC1C(C(C(C(O1)OC2C(CC3(C(C2(C)CO)CCC4(C3CC=C5C4(CCC6(C5CC(CC6)(C)C)C(=O)O)C)C)C)O)O)O)O
#smiles_can CC(=O)OCC1C(C(C(C(O1)OC2C(CC3(C(C2(C)CO)CCC4(C3CC=C5C4(CCC6(C5CC(CC6)(C)C)C(=O)O)C)C)C)O)O)O)O
#inchikey GMMCESHTNIUAQD-UHFFFAOYSA-N
#pubchem_id 139291862
#mb_accession PR308905

>ms2peaks
275.795100 21.000000
283.496220 18.000000
353.687500 25.000000
358.863310 20.000000
487.339600 50.000000
487.856110 28.000000
534.557130 18.000000
564.379390 27.000000
599.301570 22.000000
630.939150 20.000000
631.372990 143.000000
632.365660 55.000000
632.390080 131.000000
633.409610 20.000000
649.389830 24.000000
649.412290 18.000000
691.406920 1449.000000
691.534910 19.000000
692.395570 434.000000
692.417180 329.000000
692.467100 19.000000
693.368290 24.000000
693.423830 83.000000
723.334170 21.000000
737.402590 650.000000

