>compound PR11235631
>parentmass 337.0922
>ionization [M-H]-
>formula C16H18O8
>rt 231.000000
>profile qtof
#smiles_iso C1C(C(C(CC1(C(=O)O)O)O)OC(=O)C=CC2=CC=C(C=C2)O)O
#smiles_can C1C(C(C(CC1(C(=O)O)O)O)OC(=O)C=CC2=CC=C(C=C2)O)O
#inchikey XWRHBGVVCOSNKO-UHFFFAOYSA-N
#pubchem_id 179719
#mb_accession PR309014

>ms2peaks
163.048320 19.000000
191.056210 117.000000

