>compound PR11623363
>parentmass 315.07045
>ionization [M-H]-
>formula C13H16O9
>rt 150.900000
>profile qtof
#smiles_iso C1=CC(=C(C=C1OC2C(C(C(C(O2)CO)O)O)O)C(=O)O)O
#smiles_can C1=CC(=C(C=C1OC2C(C(C(C(O2)CO)O)O)O)C(=O)O)O
#inchikey CBTFERBMQQAROP-UHFFFAOYSA-N
#pubchem_id 76211590
#mb_accession PR309056,PR309057

>ms2
90.998570 23.000000
108.018150 78.000000
108.024540 23.000000
109.023600 16.000000
109.031970 23.000000
152.007740 105.000000
152.016250 46.000000
153.009960 19.000000
153.022580 16.000000
163.036360 18.000000
315.057190 37.000000
315.074280 239.000000

>ms2
108.027100 19.000000
109.025730 75.000000
152.007750 62.000000
153.017530 124.000000
315.075380 217.000000

