>compound PR11260056
>parentmass 173.1182
>ionization [M-H]-
>formula C9H18O3
>rt 294.000000
>profile qtof
#smiles_iso CCCCCCC(CC(=O)O)O
#smiles_can CCCCCCC(CC(=O)O)O
#inchikey XBUXARJOYUQNTC-UHFFFAOYSA-N
#pubchem_id 36599
#mb_accession PR309117

>ms2peaks
127.110470 20.000000
128.115910 17.000000
173.115910 336.000000

