>compound PR11415283
>parentmass 367.102
>ionization [M-H]-
>formula C17H20O9
>rt 224.400000
>profile qtof
#smiles_iso COC1=C(C=CC(=C1)C=CC(=O)OC2C(CC(CC2O)(C(=O)O)O)O)O
#smiles_can COC1=C(C=CC(=C1)C=CC(=O)OC2C(CC(CC2O)(C(=O)O)O)O)O
#inchikey VTMFDSJJVNQXLT-UHFFFAOYSA-N
#pubchem_id 4635494
#mb_accession PR309020

>ms2
67.020100 17.000000
93.032250 109.000000
109.032810 18.000000
109.364090 16.000000
134.033420 20.000000
149.022170 17.000000
149.062070 16.000000
173.037550 77.000000
173.044070 161.000000
174.042880 16.000000
190.959950 17.000000
191.053790 1222.000000
192.055370 34.000000
192.064150 35.000000
193.047470 68.000000
193.057790 32.000000

