>compound PR12451758
>parentmass 305.1746
>ionization [M-H]-
>formula C18H26O4
>rt 457.800000
>profile qtof
#smiles_iso CCC(=O)C=CC=CC=CC(=O)CCCCCCCC(=O)O
#smiles_can CCC(=O)C=CC=CC=CC(=O)CCCCCCCC(=O)O
#inchikey PQPRTPXWQQQKJC-UHFFFAOYSA-N
#pubchem_id 73450242
#mb_accession PR309074

>ms2
108.500270 20.000000
117.070400 25.000000
119.052150 20.000000
123.079490 16.000000
125.093920 19.000000
125.100720 60.000000
135.079860 183.000000
136.076030 35.000000
136.090100 18.000000
165.125270 18.000000
169.088550 20.000000
191.146960 19.000000
201.114240 25.000000
207.102750 20.000000
249.145170 70.000000
250.148090 18.000000
259.172270 24.000000
263.161220 17.000000
289.168980 18.000000
305.174680 308.000000

