>compound PR12763727
>parentmass 343.2122
>ionization [M-H]-
>formula C18H32O6
>rt 289.200000
>profile qtof
#smiles_iso CCC(C1CC(C(O1)C=CC(CCCCCCCC(=O)O)O)O)O
#smiles_can CCC(C1CC(C(O1)C=CC(CCCCCCCC(=O)O)O)O)O
#inchikey BHWUKOCNOLCGLB-UHFFFAOYSA-N
#pubchem_id 145994450
#mb_accession PR309102

>ms2
123.081800 24.000000
127.111600 16.000000
135.079610 55.000000
135.094560 17.000000
154.090180 16.000000
171.096120 20.000000
171.101900 76.000000
171.113070 18.000000
173.044300 16.000000
201.112370 17.000000
201.126620 16.000000
205.114490 17.000000
343.173980 18.000000
343.215150 253.000000

