>compound PR12642570
>parentmass 452.27695
>ionization [M-H]-
>formula C21H44NO7P
>rt 594.900000
>profile qtof
#smiles_iso CCCCCCCCCCCCCCCC(=O)OCC(COP(=O)(O)OCCN)O
#smiles_can CCCCCCCCCCCCCCCC(=O)OCC(COP(=O)(O)OCCN)O
#inchikey YVYMBNSKXOXSKW-UHFFFAOYSA-N
#pubchem_id 89229
#mb_accession PR309147,PR309148

>ms2
78.953900 18.000000
156.009950 57.000000
197.036120 18.000000
214.048450 40.000000
254.418350 21.000000
255.229350 418.000000
255.248150 19.000000
256.237430 56.000000
256.251250 18.000000
342.098690 20.000000
391.226780 18.000000
452.274480 90.000000
452.291080 44.000000

>ms2
140.016820 17.000000
152.991120 16.000000
196.037810 17.000000
214.040590 19.000000
237.524830 42.000000
255.233810 482.000000
256.235380 107.000000
355.129090 16.000000
452.278260 118.000000

