>compound PR12495124
>parentmass 513.3047
>ionization [M-H]-
>formula C27H46O9
>rt 575.400000
>profile qtof
#smiles_iso CCC=CCC=CCC=CCCCCCCCC(=O)OCC(COC1C(C(C(C(O1)CO)O)O)O)O
#smiles_can CCC=CCC=CCC=CCCCCCCCC(=O)OCC(COC1C(C(C(C(O1)CO)O)O)O)O
#inchikey HUSISCNTLUEZCN-UHFFFAOYSA-N
#pubchem_id 72984398
#mb_accession PR309164

>ms2peaks
133.036030 29.000000
231.172350 18.000000
253.086650 67.000000
253.097640 45.000000
254.103870 21.000000
255.099840 20.000000
277.216460 720.000000
277.241880 32.000000
278.215790 147.000000
278.230990 44.000000
279.230190 42.000000
279.245700 31.000000
280.233400 20.000000
513.307370 83.000000
513.337280 18.000000

