>compound PR13702913
>parentmass 323.1276
>ionization [M-H]-
>formula C20H20O4
>rt 514.200000
>profile qtof
#smiles_iso CC(=CCC1=C(C=CC(=C1)C=CC(=O)C2=C(C=C(C=C2)O)O)O)C
#smiles_can CC(=CCC1=C(C=CC(=C1)C=CC(=O)C2=C(C=C(C=C2)O)O)O)C
#inchikey TVUGLERLRIQATC-UHFFFAOYSA-N
#pubchem_id 66751582
#mb_accession PR309045

>ms2peaks
91.020550 20.000000
107.047900 18.000000
132.049670 25.000000
132.056640 24.000000
132.064450 21.000000
133.024480 25.000000
134.034450 18.000000
135.003880 63.000000
135.011260 76.000000
135.043010 68.000000
136.015230 22.000000
145.065370 25.000000
147.038100 18.000000
158.038160 30.000000
172.051740 18.000000
175.093890 21.000000
187.107590 48.000000
187.115330 88.000000
188.111420 18.000000
188.123120 20.000000
201.089690 64.000000
201.098480 27.000000
202.112290 19.000000
214.093280 22.000000
219.104280 20.000000
253.075880 18.000000
281.111080 19.000000
323.125430 749.000000
323.178010 18.000000

