>compound PR13965201
>parentmass 115.0023
>ionization [M-H]-
>formula C4H4O4
>rt 99.600000
>profile qtof
#smiles_iso C(=CC(=O)O)C(=O)O
#smiles_can C(=CC(=O)O)C(=O)O
#inchikey VZCYOOQTPOCHFL-UHFFFAOYSA-N
#pubchem_id 723
#mb_accession PR309121

>ms2peaks
71.012020 86.000000
73.024690 18.000000
114.996530 20.000000
115.008880 18.000000

