>compound PR13130620
>parentmass 305.08
>ionization [M-H]-
>formula C11H18N2O6S
>rt 108.000000
>profile qtof
#smiles_iso CC=CS(=O)CC(C(=O)O)NC(=O)CCC(C(=O)O)N
#smiles_can CC=CS(=O)CC(C(=O)O)NC(=O)CCC(C(=O)O)N
#inchikey LMNDKWXDMBGGAL-UHFFFAOYSA-N
#pubchem_id 59915712
#mb_accession PR309065

>ms2
171.076480 49.000000
178.035020 18.000000

