>compound PR13484107
>parentmass 927.4967
>ionization [M-H]-
>formula C47H76O18
>rt 343.800000
>profile qtof
#smiles_iso CC1(CC2C3=CCC4C5(CCC(C(C5CCC4(C3(CCC2(C(C1)O)C)C)C)(C)CO)OC6C(C(C(C(O6)C(=O)O)O)O)OC7C(C(C(C(O7)CO)O)O)OC8C(C(C(CO8)O)O)O)C)C
#smiles_can CC1(CC2C3=CCC4C5(CCC(C(C5CCC4(C3(CCC2(C(C1)O)C)C)C)(C)CO)OC6C(C(C(C(O6)C(=O)O)O)O)OC7C(C(C(C(O7)CO)O)O)OC8C(C(C(CO8)O)O)O)C)C
#inchikey MADZMXIFUWFDJK-UHFFFAOYSA-N
#pubchem_id 139291954
#mb_accession PR308920

>ms2peaks
356.583590 27.000000
842.526310 20.000000
883.424740 18.000000
927.455630 55.000000
927.492190 212.000000

