>compound PR13292095
>parentmass 399.1657
>ionization [M-H]-
>formula C19H28O9
>rt 243.600000
>profile qtof
#smiles_iso CC1=CC(=O)CC(C1(C=CC(=O)COC2C(C(C(C(O2)CO)O)O)O)O)(C)C
#smiles_can CC1=CC(=O)CC(C1(C=CC(=O)COC2C(C(C(C(O2)CO)O)O)O)O)(C)C
#inchikey FUXBESIRIBMOMU-UHFFFAOYSA-N
#pubchem_id 85081135
#mb_accession PR308945

>ms2
59.012020 16.000000
71.011570 21.000000
72.017460 33.000000
85.030360 36.000000
89.024070 18.000000
91.053880 20.000000
93.076260 16.000000
101.023480 32.000000
113.019480 16.000000
119.036060 58.000000
126.998420 16.000000
157.099500 18.000000
159.078350 20.000000
160.088960 276.000000
173.095580 32.000000
173.106310 16.000000
174.103760 35.000000
175.111850 1049.000000
176.108090 52.000000
176.121120 35.000000
218.138760 16.000000
219.102100 1804.000000
220.101810 133.000000
221.107860 17.000000
246.962100 20.000000
357.146820 16.000000
398.566530 27.000000
399.163700 1754.000000
399.220980 16.000000

