>compound PR14934935
>parentmass 293.2123
>ionization [M-H]-
>formula C18H30O3
>rt 624.000000
>profile qtof
#smiles_iso CCC1C(O1)CC=CCC=CCCCCCCCC(=O)O
#smiles_can CCC1C(O1)CC=CCC=CCCCCCCCC(=O)O
#inchikey HKSDVVJONLXYKL-UHFFFAOYSA-N
#pubchem_id 53882399
#mb_accession PR309082

>ms2
198.152280 21.000000
293.217160 166.000000

