>compound PR14858770
>parentmass 639.373
>ionization [M+HCOO]-
>formula C33H54O9
>rt 393.600000
>profile qtof
#smiles_iso CC1C2C(CC3C2(CCC4C3CC=C5C4(CCC(C5)O)C)C)OC1(CCC(C)COC6C(C(C(C(O6)CO)O)O)O)O
#smiles_can CC1C2C(CC3C2(CCC4C3CC=C5C4(CCC(C5)O)C)C)OC1(CCC(C)COC6C(C(C(C(O6)CO)O)O)O)O
#inchikey DFVRTHJUFCVHTR-UHFFFAOYSA-N
#pubchem_id 85039906
#mb_accession PR308968

>ms2
385.258030 18.000000
593.375060 246.000000
594.363460 57.000000
594.385130 78.000000
639.328610 17.000000
639.377260 200.000000

