>compound PR15924688
>parentmass 117.0182
>ionization [M-H]-
>formula C4H6O4
>rt 108.000000
>profile qtof
#smiles_iso C(CC(=O)O)C(=O)O
#smiles_can C(CC(=O)O)C(=O)O
#inchikey KDYFGRWQOYBRFD-UHFFFAOYSA-N
#pubchem_id 1110
#mb_accession PR309122

>ms2peaks
73.029270 209.000000
117.017780 183.000000

