>compound PR15513328
>parentmass 543.1973
>ionization [M+HCOO]-
>formula C26H30N2O8
>rt 334.800000
>profile qtof
#smiles_iso C=CC1C2CC3C4=C(CCN3C(=O)C2=COC1OC5C(C(C(C(O5)CO)O)O)O)C6=CC=CC=C6N4
#smiles_can C=CC1C2CC3C4=C(CCN3C(=O)C2=COC1OC5C(C(C(C(O5)CO)O)O)O)C6=CC=CC=C6N4
#inchikey LBRPLJCNRZUXLS-UHFFFAOYSA-N
#pubchem_id 5015264
#mb_accession PR309372

>ms2peaks
59.012650 18.000000
59.016890 18.000000
60.620680 20.000000
70.041730 20.000000
71.011020 33.000000
89.021950 93.000000
89.209840 17.000000
110.315480 18.000000
113.018320 16.000000
119.031640 95.000000
121.036130 18.000000
122.027960 21.000000
131.040450 16.000000
139.994510 20.000000
143.032000 45.000000
161.041720 45.000000
162.052340 30.000000
169.074040 150.000000
170.074860 18.000000
171.077270 17.000000
174.053270 32.000000
174.064250 18.000000
175.060330 17.000000
179.057300 95.000000
181.059190 23.000000
183.088490 25.000000
202.391450 33.000000
225.056440 36.000000
226.712230 17.000000
238.058700 17.000000
249.219830 19.000000
250.904220 20.000000
251.034070 19.000000
253.048920 6384.000000
254.035540 25.000000
254.048450 80.000000
261.102330 18.000000
265.095250 2573.000000
265.656650 18.000000
266.054440 35.000000
266.065160 17.000000
266.101100 390.000000
266.134980 16.000000
267.058290 16.000000
275.074650 20.000000
275.113430 20.000000
276.125270 17.000000
289.106690 18.000000
289.134520 41.000000
291.071690 18.000000
291.137050 16.000000
293.069460 16.000000
295.050810 21.000000
295.064880 16.000000
296.413120 18.000000
308.401280 20.000000
313.818660 23.000000
315.112460 41.000000
317.127170 1359.000000
318.130400 273.000000
319.063840 18.000000
319.121430 23.000000
335.139770 143.000000
335.158810 39.000000
336.142120 16.000000
353.901340 16.000000
369.545870 16.000000
377.128420 36.000000
377.166380 49.000000
404.276670 16.000000
414.372040 16.000000
423.245090 18.000000
497.192170 3422.000000
498.191220 845.000000
499.193940 85.000000
499.215520 20.000000
500.221130 36.000000
528.133970 20.000000
542.257320 19.000000

