>compound PR15146341
>parentmass 637.1781
>ionization [M+HCOO]-
>formula C28H32O14
>rt 291.000000
>profile qtof
#smiles_iso COC1=CC=C(C=C1)C2=COC3=C(C2=O)C=CC(=C3)OC4C(C(C(C(O4)CO)O)OC5C(C(C(C(O5)CO)O)O)O)O
#smiles_can COC1=CC=C(C=C1)C2=COC3=C(C2=O)C=CC(=C3)OC4C(C(C(C(O4)CO)O)OC5C(C(C(C(O5)CO)O)O)O)O
#inchikey FIIYLNUSFHWRAF-UHFFFAOYSA-N
#pubchem_id 139291845
#mb_accession PR309188

>ms2peaks
87.005940 26.000000
205.635670 32.000000
223.045100 23.000000
237.052670 17.000000
252.040410 98.000000
253.048190 49.000000
267.065120 1308.000000
268.054320 43.000000
268.064610 110.000000
268.077760 76.000000
269.064940 16.000000
270.077030 17.000000
279.059600 24.000000
279.072720 22.000000
282.920590 16.000000
333.070470 17.000000
413.089600 20.000000
559.144040 37.000000
560.153260 17.000000
561.133000 16.000000
561.147890 22.000000
577.151490 16.000000
591.151980 42.000000
591.173340 102.000000
591.197750 18.000000
592.163210 20.000000
592.185060 18.000000
593.139530 18.000000
593.175600 16.000000

