>compound PR15254511
>parentmass 243.1716
>ionization [M-H]-
>formula C12H24N2O3
>rt 206.400000
>profile qtof
#smiles_iso CCC(C)C(C(=O)NC(C(C)CC)C(=O)O)N
#smiles_can CCC(C)C(C(=O)NC(C(C)CC)C(=O)O)N
#inchikey BCVIOZZGJNOEQS-UHFFFAOYSA-N
#pubchem_id 13879965
#mb_accession PR309066

>ms2
129.103350 38.000000
130.085050 16.000000
130.094350 16.000000
131.085910 33.000000
195.161250 17.000000
199.180950 20.000000
200.186710 16.000000
243.171550 240.000000

