>compound PR16175636
>parentmass 171.1018
>ionization [M-H]-
>formula C9H16O3
>rt 345.000000
>profile qtof
#smiles_iso C(CCCC=O)CCCC(=O)O
#smiles_can C(CCCC=O)CCCC(=O)O
#inchikey WLGDDELKYAWBBL-UHFFFAOYSA-N
#pubchem_id 75704
#mb_accession PR309116

>ms2
71.046230 16.000000
99.079200 58.000000
100.083640 25.000000
100.931630 20.000000
125.098560 18.000000
126.101590 23.000000
127.113460 198.000000
153.091460 41.000000
171.100080 110.000000

