>compound PR16221905
>parentmass 493.0986
>ionization [M-H]-
>formula C22H22O13
>rt 276.600000
>profile qtof
#smiles_iso COC1=C(C=C2C(=C1O)C(=O)C(=C(O2)C3=CC(=C(C=C3)O)O)O)OC4C(C(C(C(O4)CO)O)O)O
#smiles_can COC1=C(C=C2C(=C1O)C(=O)C(=C(O2)C3=CC(=C(C=C3)O)O)O)OC4C(C(C(C(O4)CO)O)O)O
#inchikey AFCDXKGLUDDXCK-UHFFFAOYSA-N
#pubchem_id 14157911
#mb_accession PR309236

>ms2peaks
57.065210 36.000000
81.138650 22.000000
124.010290 19.000000
136.017110 23.000000
150.990360 27.000000
151.002490 329.000000
151.050540 19.000000
153.006180 21.000000
164.008150 20.000000
178.975600 20.000000
178.996000 418.000000
180.004560 113.000000
193.018400 18.000000
193.046040 28.000000
210.947020 18.000000
213.585980 25.000000
228.921600 23.000000
231.038360 20.000000
232.027920 24.000000
244.612960 26.000000
246.018390 23.000000
256.035550 29.000000
257.006500 64.000000
257.028780 20.000000
257.048100 22.000000
258.010560 28.000000
259.018710 56.000000
261.067630 26.000000
272.032200 53.000000
286.010800 21.000000
286.041840 21.000000
287.007140 42.000000
287.044890 18.000000
298.660340 30.000000
300.036410 39.000000
300.273530 22.000000
301.034390 20.000000
311.018590 21.000000
315.017430 89.000000
316.021610 878.000000
316.837310 31.000000
317.006870 20.000000
317.031430 45.000000
318.030880 20.000000
319.371030 24.000000
328.029420 23.000000
329.025050 38.000000
330.036900 42.000000
330.920410 24.000000
331.015440 19.000000
331.045620 2751.000000
331.266110 18.000000
332.053590 474.000000
333.056340 48.000000
343.636540 23.000000
416.078890 18.000000
464.102230 30.000000
491.087980 21.000000
492.087100 106.000000
492.109860 24.000000
493.097380 3473.000000
493.132320 41.000000

