>compound PR16319304
>parentmass 243.0616
>ionization [M-H]-
>formula C9H12N2O6
>rt 108.600000
>profile qtof
#smiles_iso C1=CN(C(=O)NC1=O)C2C(C(C(O2)CO)O)O
#smiles_can C1=CN(C(=O)NC1=O)C2C(C(C(O2)CO)O)O
#inchikey DRTQHJPVMGBUCF-UHFFFAOYSA-N
#pubchem_id 1177
#mb_accession PR309135

>ms2peaks
82.030870 23.000000
96.039210 23.000000
99.995220 19.000000
110.023750 382.000000
111.017650 20.000000
111.030190 18.000000
117.018570 18.000000
122.025310 20.000000
141.036740 20.000000
151.996930 19.000000
152.036480 41.000000
152.044600 28.000000
153.029400 77.000000
156.061800 23.000000
170.065930 22.000000
182.041950 39.000000
184.025470 18.000000
200.056750 215.000000
201.059450 20.000000
243.062380 255.000000

