>compound PR17465900
>parentmass 339.1228
>ionization [M-H]-
>formula C20H20O5
>rt 501.000000
>profile qtof
#smiles_iso CC(=CCC1=C(C2=C(C=C1O)OC(=C2)C3=C(C=C(C=C3)O)O)OC)C
#smiles_can CC(=CCC1=C(C2=C(C=C1O)OC(=C2)C3=C(C=C(C=C3)O)O)OC)C
#inchikey CNPMAFLUEHEXRE-UHFFFAOYSA-N
#pubchem_id 503731
#mb_accession PR309050

>ms2peaks
93.032830 19.000000
119.023880 20.000000
134.034620 74.000000
135.043400 1633.000000
136.046880 38.000000
143.046130 20.000000
157.063280 27.000000
159.077770 73.000000
161.024510 20.000000
162.025650 20.000000
201.053860 22.000000
203.071430 966.000000
204.077010 45.000000
204.406910 18.000000
218.578220 18.000000
245.069600 20.000000
270.052980 18.000000
339.120970 1783.000000

