>compound PR17446958
>parentmass 953.4727
>ionization [M-H]-
>formula C48H74O19
>rt 454.200000
>profile qtof
#smiles_iso CC1C(C(C(C(O1)OC2C(C(C(OC2OC3C(C(C(OC3OC4CCC5(C(C4(C)CO)CCC6(C5C=CC7=C8CC(CC(C8(CCC76C)C)O)(C)C)C)C)C(=O)O)O)O)C(=O)O)O)O)O)O)O
#smiles_can CC1C(C(C(C(O1)OC2C(C(C(OC2OC3C(C(C(OC3OC4CCC5(C(C4(C)CO)CCC6(C5C=CC7=C8CC(CC(C8(CCC76C)C)O)(C)C)C)C)C(=O)O)O)O)C(=O)O)O)O)O)O)O
#inchikey NWEOPKVXZATAQT-UHFFFAOYSA-N
#pubchem_id 139291987
#mb_accession PR308922

>ms2peaks
113.024820 33.000000
253.054120 18.000000
321.084010 23.000000
333.531370 19.000000
339.094940 50.000000
340.109990 23.000000
435.103240 20.000000
497.116700 65.000000
498.128570 23.000000
541.975830 22.000000
575.122620 19.000000
577.170410 20.000000
921.276610 20.000000
951.529660 18.000000
953.468140 900.000000
953.544190 42.000000

