>compound PR18183537
>parentmass 515.1432
>ionization [M-H]-
>formula C22H28O14
>rt 170.400000
>profile qtof
#smiles_iso COC1=C(C=C2C(=C1)C=CC(=O)O2)OC3C(C(C(C(O3)CO)O)O)OC4C(C(C(C(O4)CO)O)O)O
#smiles_can COC1=C(C=C2C(=C1)C=CC(=O)O2)OC3C(C(C(C(O3)CO)O)O)OC4C(C(C(C(O4)CO)O)O)O
#inchikey QJGJAMWLRCWSIH-UHFFFAOYSA-N
#pubchem_id 73797138
#mb_accession PR309352

>ms2peaks
191.048930 16.000000
191.059190 62.000000
323.075530 37.000000
336.079620 17.000000
353.101200 38.000000
455.113530 33.000000
515.126710 137.000000
515.156010 52.000000

