>compound PR19918793
>parentmass 173.0795
>ionization [M-H]-
>formula C8H14O4
>rt 246.000000
>profile qtof
#smiles_iso C(CCCC(=O)O)CCC(=O)O
#smiles_can C(CCCC(=O)O)CCC(=O)O
#inchikey TYFQFVWCELRYAO-UHFFFAOYSA-N
#pubchem_id 10457
#mb_accession PR309130

>ms2peaks
83.052280 16.000000
111.081010 161.000000
130.085140 16.000000
173.075270 71.000000
173.087570 47.000000

