>compound PR20614128
>parentmass 636.3157
>ionization [M-H]-
>formula C29H52NO12P
>rt 515.400000
>profile qtof
#smiles_iso CC/C=C/C/C=C/C/C=C/CCCCCCCC(=O)OC(CO)COP(=O)(O)OCCNC1C(C(C(C(O1)CO)O)O)O
#smiles_can CCC=CCC=CCC=CCCCCCCCC(=O)OC(CO)COP(=O)(O)OCCNC1C(C(C(C(O1)CO)O)O)O
#inchikey QFDVZERXJLVROF-IUQGRGSQSA-N
#pubchem_id 139292025
#mb_accession PR309168

>ms2
169.948180 27.000000
196.031300 35.000000
214.037930 18.000000
277.216520 132.000000
278.227630 55.000000
474.273130 84.000000
475.268160 16.000000
516.275090 18.000000
516.290280 16.000000
636.312810 350.000000
636.341060 37.000000

