>compound PR21814397
>parentmass 563.1407
>ionization [M-H]-
>formula C26H28O14
>rt 252.000000
>profile qtof
#smiles_iso C1C(C(C(C(O1)C2=C(C3=C(C=C2O)OC(=CC3=O)C4=CC=C(C=C4)O)O)OC5C(C(C(C(O5)CO)O)O)O)O)O
#smiles_can C1C(C(C(C(O1)C2=C(C3=C(C=C2O)OC(=CC3=O)C4=CC=C(C=C4)O)O)OC5C(C(C(C(O5)CO)O)O)O)O)O
#inchikey LOCBOCXGFMHGIJ-UHFFFAOYSA-N
#pubchem_id 74977452
#mb_accession PR309290

>ms2peaks
59.010590 17.000000
89.024330 17.000000
113.024600 20.000000
119.032460 44.000000
179.054780 17.000000
268.036530 29.000000
269.039030 18.000000
269.052520 42.000000
270.045560 16.000000
282.053190 34.000000
293.048830 154.000000
294.056150 95.000000
309.037320 32.000000
311.057310 33.000000
315.072450 17.000000
323.048610 17.000000
323.069340 35.000000
341.015470 19.000000
341.062440 69.000000
341.090850 20.000000
343.069520 20.000000
383.077640 214.000000
384.076290 41.000000
385.076320 54.000000
503.129790 16.000000
563.140870 1490.000000

