>compound PR21393117
>parentmass 431.09837
>ionization [M-H]-
>formula C21H20O10
>rt 316.200000
>profile qtof
#smiles_iso C1=CC2=C(C(=C1)O)C(=O)C3=C(C2=O)C=C(C=C3O)COC4C(C(C(C(O4)CO)O)O)O
#smiles_can C1=CC2=C(C(=C1)O)C(=O)C3=C(C2=O)C=C(C=C3O)COC4C(C(C(C(O4)CO)O)O)O
#inchikey ASQHVCDULHERIH-UHFFFAOYSA-N
#pubchem_id 53462441
#mb_accession PR309395

>ms2peaks
59.012880 30.000000
59.015700 16.000000
67.068700 24.000000
71.013470 50.000000
89.017430 26.000000
101.019650 44.000000
101.024890 17.000000
113.022460 60.000000
119.031780 25.000000
131.033370 17.000000
150.043810 16.000000
185.714080 22.000000
224.051280 18.000000
225.052800 19.000000
237.414600 16.000000
251.033980 1340.000000
252.036040 140.000000
252.046830 71.000000
253.051320 81.000000
268.036590 16.000000
431.065160 27.000000

