>compound PR21505023
>parentmass 869.4537
>ionization [M-H]-
>formula C44H70O17
>rt 335.400000
>profile qtof
#smiles_iso CC1C(C(C(C(O1)OC2C(C(COC2OC3CC(CC4=CCC5C(C34C)CCC6(C5CC7C6C(=C(O7)CCC(C)COC8C(C(C(C(O8)CO)O)O)O)C)C)O)O)O)O)O)O
#smiles_can CC1C(C(C(C(O1)OC2C(C(COC2OC3CC(CC4=CCC5C(C34C)CCC6(C5CC7C6C(=C(O7)CCC(C)COC8C(C(C(C(O8)CO)O)O)O)C)C)O)O)O)O)O)O
#inchikey IUJLIWQDGYFELW-UHFFFAOYSA-N
#pubchem_id 139291897
#mb_accession PR308971

>ms2peaks
159.036130 23.000000
161.041950 16.000000
426.301360 31.000000
476.188660 18.000000
574.348450 19.000000
591.348940 18.000000
723.382140 37.000000
723.412720 72.000000
724.396360 40.000000
832.156430 17.000000
866.679260 17.000000
869.420900 54.000000
869.460020 382.000000

