>compound PR22066587
>parentmass 217.1079
>ionization [M-H]-
>formula C10H18O5
>rt 258.000000
>profile qtof
#smiles_iso C(CCCC(=O)O)CCC(CC(=O)O)O
#smiles_can C(CCCC(=O)O)CCC(CC(=O)O)O
#inchikey OQYZCCKCJQWHIE-UHFFFAOYSA-N
#pubchem_id 3017884
#mb_accession PR309119

>ms2peaks
171.099790 128.000000
172.102800 17.000000
199.095210 21.000000
217.107590 251.000000

