>compound PR22295204
>parentmass 355.10283
>ionization [M-H]-
>formula C16H20O9
>rt 189.900000
>profile qtof
#smiles_iso COC1=C(C=CC(=C1)C=CC(=O)OC2C(C(C(C(O2)CO)O)O)O)O
#smiles_can COC1=C(C=CC(=C1)C=CC(=O)OC2C(C(C(C(O2)CO)O)O)O)O
#inchikey JWRQVQWBNRGGPK-UHFFFAOYSA-N
#pubchem_id 72983454
#mb_accession PR309327,PR309328

>ms2
85.027370 27.000000
129.019910 28.000000
134.031560 208.000000
134.039730 145.000000
135.037810 18.000000
147.037660 18.000000
149.016240 18.000000
149.052520 59.000000
149.062700 109.000000
150.070050 36.000000
151.032490 20.000000
163.039520 20.000000
178.026630 230.000000
179.028180 36.000000
191.016140 22.000000
191.024840 36.000000
192.019640 19.000000
193.049100 1624.000000
194.053310 157.000000
195.051860 37.000000
203.027040 19.000000
209.030610 49.000000
244.034090 26.000000
355.066860 37.000000
355.096280 20.000000
355.108700 21.000000

>ms2
101.022130 34.000000
149.059830 73.000000
355.109560 41.000000

