>compound PR22143269
>parentmass 917.2343
>ionization [M-H]-
>formula C42H46O23
>rt 268.200000
>profile qtof
#smiles_iso CC1C(C(C(C(O1)OC2=C(OC3=CC(=CC(=C3C2=O)O)OC4C(C(C(C(O4)CO)O)O)O)C5=CC(=C(C=C5)O)O)OC6C(C(C(C(O6)COC(=O)C=CC7=CC=C(C=C7)O)O)O)O)O)O
#smiles_can CC1C(C(C(C(O1)OC2=C(OC3=CC(=CC(=C3C2=O)O)OC4C(C(C(C(O4)CO)O)O)O)C5=CC(=C(C=C5)O)O)OC6C(C(C(C(O6)COC(=O)C=CC7=CC=C(C=C7)O)O)O)O)O)O
#inchikey SHRUKDVTMUBNTL-UHFFFAOYSA-N
#pubchem_id 74978215
#mb_accession PR309267

>ms2peaks
223.059270 17.000000
272.025300 18.000000
300.022640 61.000000
300.036070 49.000000
301.030980 17.000000
609.173340 18.000000
723.191100 46.000000
741.166690 51.000000
741.195680 22.000000
742.155090 20.000000
742.200260 19.000000
756.211610 16.000000
917.226750 374.000000

