>compound PR22737843
>parentmass 735.3943
>ionization [M+HCOO]-
>formula C38H58O11
>rt 489.000000
>profile qtof
#smiles_iso CC(=O)OCC1C(C(C(C(O1)OC2CCC3(C(C2(C)CO)CCC4(C3C(=O)C=C5C4(CCC6(C5CC(CC6)(C)C(=O)O)C)C)C)C)O)O)O
#smiles_can CC(=O)OCC1C(C(C(C(O1)OC2CCC3(C(C2(C)CO)CCC4(C3C(=O)C=C5C4(CCC6(C5CC(CC6)(C)C(=O)O)C)C)C)C)O)O)O
#inchikey XLTWUPQILPHRFU-UHFFFAOYSA-N
#pubchem_id 139292147
#mb_accession PR308902

>ms2peaks
61.352870 29.000000
333.538730 20.000000
357.513310 20.000000
629.351500 22.000000
629.377380 18.000000
630.378600 31.000000
631.376590 20.000000
689.388730 2581.000000
689.484190 20.000000
690.390870 1039.000000
691.398070 96.000000
691.423520 114.000000
692.369570 23.000000
692.406740 47.000000
735.348880 21.000000
735.381960 107.000000
735.408080 221.000000

