>compound PR22945824
>parentmass 485.27395
>ionization [M-H]-
>formula C25H42O9
>rt 509.400000
>profile qtof
#smiles_iso CCC=CCC=CCC=CCCCCCC(=O)OC(CO)COC1C(C(C(C(O1)CO)O)O)O
#smiles_can CCC=CCC=CCC=CCCCCCC(=O)OC(CO)COC1C(C(C(C(O1)CO)O)O)O
#inchikey LJVATEUJGAWSPM-UHFFFAOYSA-N
#pubchem_id 145994451
#mb_accession PR309154,PR309155

>ms2peaks
249.184890 182.000000
249.193540 94.000000
250.194290 42.000000
253.082380 23.000000
485.261440 17.000000
485.272610 42.000000

>ms2peaks
149.046110 24.000000
161.044070 20.000000
237.089050 19.000000
249.185710 979.000000
250.187000 294.000000
250.198810 70.000000
251.192860 42.000000
253.084140 40.000000
253.095550 69.000000
253.103790 43.000000
254.088420 20.000000
254.099790 21.000000
485.265200 62.000000
485.286870 21.000000

