>compound PR23492753
>parentmass 387.1653
>ionization [M-H]-
>formula C18H28O9
>rt 200.400000
>profile qtof
#smiles_iso C1CC(=O)C(C1CC(=O)O)CC=CCCOC2C(C(C(C(O2)CO)O)O)O
#smiles_can C1CC(=O)C(C1CC(=O)O)CC=CCCOC2C(C(C(C(O2)CO)O)O)O
#inchikey JFDNMLUPLXZXGV-UHFFFAOYSA-N
#pubchem_id 4480898
#mb_accession PR309339,PR309340

>ms2
59.014320 24.000000
85.027900 16.000000
89.025380 33.000000
95.013740 16.000000
101.019980 38.000000
113.024590 25.000000
119.034920 76.000000
148.120010 21.000000
161.051130 21.000000
163.101940 65.000000
163.110180 259.000000
163.124310 17.000000
179.051320 16.000000
229.120420 27.000000
369.156710 25.000000
380.786960 37.000000
387.164520 1846.000000

>ms2
59.013580 47.000000
83.015980 33.000000
89.021500 28.000000
101.025730 113.000000
109.059540 21.000000
113.022060 22.000000
119.029280 24.000000
119.038500 81.000000
163.109680 21.000000
178.975810 20.000000
207.098370 129.000000
207.114460 30.000000
224.037630 20.000000
342.138980 19.000000
369.163120 20.000000
387.164120 1653.000000

