>compound PR23572285
>parentmass 651.1224
>ionization [M-H]-
>formula C28H28O18
>rt 243.000000
>profile qtof
#smiles_iso COC1=C(C=CC(=C1)C2=CC(=O)C3=C(C=C(C=C3O2)OC4C(C(C(C(O4)C(=O)O)O)O)OC5C(C(C(C(O5)C(=O)O)O)O)O)O)O
#smiles_can COC1=C(C=CC(=C1)C2=CC(=O)C3=C(C=C(C=C3O2)OC4C(C(C(C(O4)C(=O)O)O)O)OC5C(C(C(C(O5)C(=O)O)O)O)O)O)O
#inchikey MEUYKMSNZLTEBE-UHFFFAOYSA-N
#pubchem_id 74977705
#mb_accession PR309282

>ms2peaks
72.987830 20.000000
113.018530 54.000000
113.027650 20.000000
117.014640 30.000000
157.014420 18.000000
193.032900 53.000000
193.040250 17.000000
198.971250 32.000000
299.055510 20.000000
351.046200 87.000000
351.062650 41.000000
352.070100 19.000000
651.113770 178.000000

