>compound PR23640158
>parentmass 655.1488
>ionization [M-H]-
>formula C28H32O18
>rt 217.200000
>profile qtof
#smiles_iso COC1=C(C2=C(C=C1O)OC(=C(C2=O)OC3C(C(C(C(O3)COC4C(C(C(C(O4)CO)O)O)O)O)O)O)C5=CC(=C(C=C5)O)O)O
#smiles_can COC1=C(C2=C(C=C1O)OC(=C(C2=O)OC3C(C(C(C(O3)COC4C(C(C(C(O4)CO)O)O)O)O)O)O)C5=CC(=C(C=C5)O)O)O
#inchikey WRDDFOFFQDOVRV-UHFFFAOYSA-N
#pubchem_id 73822533
#mb_accession PR309256

>ms2peaks
105.348920 20.000000
136.549590 32.000000
137.252180 21.000000
151.000470 46.000000
178.995570 53.000000
179.007930 20.000000
204.039470 24.000000
219.022520 23.000000
254.718770 21.000000
257.046020 37.000000
259.011600 20.000000
265.065730 36.000000
271.038760 21.000000
285.044530 22.000000
294.633030 24.000000
299.010560 21.000000
301.021300 23.000000
302.042110 21.000000
309.026980 23.000000
315.015780 261.000000
316.020970 253.000000
318.183960 26.000000
319.419310 22.000000
322.743680 18.000000
329.010860 20.000000
329.033360 177.000000
329.304780 18.000000
329.893860 22.000000
330.034760 1473.000000
331.002140 18.000000
331.044430 3023.000000
331.346040 20.000000
331.840300 28.000000
332.011290 18.000000
332.049530 657.000000
333.041230 89.000000
333.053470 84.000000
334.036960 18.000000
340.022670 20.000000
364.509700 27.000000
369.034880 18.000000
382.031370 19.000000
391.217160 23.000000
408.605530 20.000000
420.340700 19.000000
421.064820 18.000000
461.075440 44.000000
463.086270 19.000000
464.462400 19.000000
471.562770 18.000000
475.083440 18.000000
477.048340 21.000000
477.872220 34.000000
479.064090 20.000000
491.097960 20.000000
492.074770 43.000000
492.094600 95.000000
492.124510 26.000000
493.097560 4141.000000
493.244870 22.000000
493.973140 19.000000
494.099270 981.000000
494.139070 32.000000
495.065520 18.000000
495.101650 143.000000
495.114010 58.000000
496.117340 41.000000
537.970030 22.000000
545.783020 20.000000
550.962040 18.000000
585.073430 18.000000
620.493960 18.000000
655.149410 8346.000000
655.225830 28.000000
655.296140 26.000000

