>compound PR23941473
>parentmass 809.4348
>ionization [M-H]-
>formula C42H66O15
>rt 438.600000
>profile qtof
#smiles_iso CC1(CC2C3=CCC4C5(CCC(C(C5CCC4(C3(CCC2(C(C1)O)C)C)C)(C)CO)OC6C(C(C(C(O6)C(=O)O)O)O)OC7C(C(C(C(O7)C(=O)O)O)O)O)C)C
#smiles_can CC1(CC2C3=CCC4C5(CCC(C(C5CCC4(C3(CCC2(C(C1)O)C)C)C)(C)CO)OC6C(C(C(C(O6)C(=O)O)O)O)OC7C(C(C(C(O7)C(=O)O)O)O)O)C)C
#inchikey GGWWAFAYNMIPPN-UHFFFAOYSA-N
#pubchem_id 139291852
#mb_accession PR308913

>ms2peaks
101.016810 20.000000
131.039580 18.000000
134.153590 19.000000
175.018400 21.000000
175.030530 18.000000
193.033520 87.000000
291.046750 19.000000
351.062810 79.000000
351.300350 18.000000
352.058200 24.000000
353.059940 21.000000
380.321810 25.000000
633.397640 20.000000
783.971130 20.000000
809.435550 926.000000

