>compound PR24174048
>parentmass 887.4641
>ionization [M-H]-
>formula C44H72O18
>rt 268.200000
>profile qtof
#smiles_iso CC1C2C(CC3C2(CCC4C3CC=C5C4(C(CC(C5)O)OC6C(C(C(CO6)O)O)OC7C(C(C(C(O7)C)O)O)O)C)C)OC1(CCC(C)COC8C(C(C(C(O8)CO)O)O)O)O
#smiles_can CC1C2C(CC3C2(CCC4C3CC=C5C4(C(CC(C5)O)OC6C(C(C(CO6)O)O)OC7C(C(C(C(O7)C)O)O)O)C)C)OC1(CCC(C)COC8C(C(C(C(O8)CO)O)O)O)O
#inchikey HWYCRLFVQVFKPD-UHFFFAOYSA-N
#pubchem_id 4979367
#mb_accession PR308973

>ms2peaks
99.005710 30.000000
101.023130 44.000000
101.029510 20.000000
119.030930 23.000000
127.038410 20.000000
129.018260 21.000000
151.055770 20.000000
161.042010 17.000000
205.066910 16.000000
205.078630 16.000000
277.090000 20.000000
326.833560 20.000000
341.312470 21.000000
428.842830 18.000000
429.313390 24.000000
430.800660 19.000000
435.655180 30.000000
447.298400 20.000000
467.976260 21.000000
537.675420 18.000000
564.820740 16.000000
579.361940 39.000000
606.350460 26.000000
609.359560 54.000000
610.371220 97.000000
611.381590 36.000000
640.170100 33.000000
660.730770 18.000000
690.722290 16.000000
724.420720 17.000000
725.401550 58.000000
726.445560 16.000000
741.385500 171.000000
741.445070 20.000000
742.366030 16.000000
742.403500 117.000000
742.444150 16.000000
743.404480 16.000000
743.422850 18.000000
812.300840 20.000000
886.785030 20.000000
887.243040 16.000000
887.463680 4956.000000

