>compound PR24260999
>parentmass 663.3735
>ionization [M-H]-
>formula C36H56O11
>rt 436.200000
>profile qtof
#smiles_iso CC1(CCC2(CCC3(C(=CCC4C3(CCC5C4(CC(C(C5(C)C(=O)O)OC6C(C(C(C(O6)CO)O)O)O)O)C)C)C2C1)C)C(=O)O)C
#smiles_can CC1(CCC2(CCC3(C(=CCC4C3(CCC5C4(CC(C(C5(C)C(=O)O)OC6C(C(C(C(O6)CO)O)O)O)O)C)C)C2C1)C)C(=O)O)C
#inchikey XCHARIIIZLLEBL-UHFFFAOYSA-N
#pubchem_id 13732714
#mb_accession PR308899

>ms2peaks
59.008350 24.000000
59.014550 21.000000
85.027810 25.000000
89.023520 119.000000
101.017950 21.000000
101.028110 26.000000
102.025510 26.000000
113.019730 20.000000
113.024670 29.000000
119.029880 20.000000
131.033520 18.000000
158.022310 18.000000
161.048190 40.000000
175.019150 42.000000
179.054840 99.000000
432.713130 19.000000
439.318020 339.000000
439.332280 105.000000
440.322330 83.000000
440.356320 20.000000
441.336460 18.000000
487.340210 45.000000
558.944210 20.000000
651.377200 20.000000
663.374270 2972.000000

