>compound PR24958818
>parentmass 861.2469
>ionization [M-H]-
>formula C40H46O21
>rt 406.800000
>profile qtof
#smiles_iso CC(=O)OCC1C(C(C(C(O1)OC2(C(C(C(O2)COC(=O)C=CC3=CC(=C(C=C3)O)OC)O)OC(=O)C=CC4=CC(=C(C=C4)O)OC)COC(=O)C)OC(=O)C)O)OC(=O)C
#smiles_can CC(=O)OCC1C(C(C(C(O1)OC2(C(C(C(O2)COC(=O)C=CC3=CC(=C(C=C3)O)OC)O)OC(=O)C=CC4=CC(=C(C=C4)O)OC)COC(=O)C)OC(=O)C)O)OC(=O)C
#inchikey OGAPXYQOTIOKDV-UHFFFAOYSA-N
#pubchem_id 85246529
#mb_accession PR309335

>ms2peaks
111.391650 16.000000
134.037080 27.000000
149.046020 25.000000
160.014210 32.000000
161.011780 18.000000
161.020980 51.000000
161.028760 16.000000
175.038890 836.000000
176.043050 131.000000
191.070180 24.000000
193.047210 68.000000
193.057270 20.000000
209.084870 17.000000
217.053850 18.000000
218.051530 20.000000
235.352680 33.000000
307.442870 16.000000
319.071110 33.000000
361.076420 18.000000
370.108490 18.000000
403.825160 22.000000
410.487550 16.000000
433.887300 28.000000
440.405090 19.000000
501.019590 16.000000
541.141050 16.000000
578.322570 27.000000
583.174930 54.000000
601.147890 16.000000
601.168030 17.000000
626.178650 17.000000
644.162900 42.000000
644.221620 16.000000
685.199040 41.000000
741.189270 19.000000
760.243410 17.000000
777.236210 16.000000
779.213440 17.000000
801.168400 20.000000
801.200740 20.000000
801.232670 16.000000
802.190060 42.000000
808.450320 16.000000
819.220460 73.000000
819.251160 50.000000
820.240660 17.000000
846.203430 33.000000
846.232360 23.000000
861.242980 3616.000000
861.307130 68.000000
861.370420 17.000000

