>compound PR24271865
>parentmass 337.143
>ionization [M-H]-
>formula C21H22O4
>rt 481.800000
>profile qtof
#smiles_iso CC(=CCC1=C(C=CC(=C1OC)C=CC(=O)C2=CC=C(C=C2)O)O)C
#smiles_can CC(=CCC1=C(C=CC(=C1OC)C=CC(=O)C2=CC=C(C=C2)O)O)C
#inchikey WBDNTJSRHDSPSR-UHFFFAOYSA-N
#pubchem_id 54421517
#mb_accession PR309047

>ms2
79.435610 20.000000
92.027380 18.000000
93.031470 72.000000
94.036170 20.000000
107.047230 21.000000
117.031300 59.000000
120.013380 21.000000
120.018360 46.000000
122.039230 21.000000
135.042850 21.000000
145.022480 20.000000
146.034730 18.000000
147.046650 64.000000
148.051130 20.000000
159.041150 118.000000
161.027560 37.000000
163.028760 18.000000
164.049580 19.000000
172.063160 24.000000
173.020580 67.000000
173.028790 25.000000
175.033540 23.000000
176.117130 28.000000
177.081150 18.000000
185.023090 20.000000
187.073610 43.000000
189.091640 18.000000
200.090740 20.000000
201.091310 98.000000
202.091670 23.000000
203.103330 19.000000
212.090990 24.000000
213.057970 21.000000
219.098590 20.000000
222.874820 18.000000
244.120770 25.000000
245.080950 210.000000
250.047150 20.000000
251.077560 20.000000
261.087190 18.000000
267.064360 78.000000
269.072540 18.000000
279.067780 184.000000
280.037020 62.000000
282.037660 25.000000
305.112580 18.000000
306.104370 27.000000
322.113860 27.000000
335.089970 21.000000
335.105070 19.000000
336.085910 40.000000
337.103270 44.000000
337.144200 1573.000000

