>compound PR25566983
>parentmass 385.1198
>ionization [M+HCOO]-
>formula C16H20O8
>rt 199.200000
>profile qtof
#smiles_iso COC1=C(C=CC(=C1)C=CC=O)OC2C(C(C(C(O2)CO)O)O)O
#smiles_can COC1=C(C=CC(=C1)C=CC=O)OC2C(C(C(C(O2)CO)O)O)O
#inchikey PJFKUPRDDXTASO-UHFFFAOYSA-N
#pubchem_id 74413951
#mb_accession PR309062

>ms2
162.031200 109.000000
177.052510 59.000000
177.060170 100.000000
178.057210 86.000000
282.096470 22.000000
341.096830 20.000000

