>compound PR25208960
>parentmass 339.0716
>ionization [M-H]-
>formula C15H16O9
>rt 253.800000
>profile qtof
#smiles_iso COC1=CC(=CC(=C1O)OC)C=CC(=O)OC(CC(=O)O)C(=O)O
#smiles_can COC1=CC(=CC(=C1O)OC)C=CC(=O)OC(CC(=O)O)C(=O)O
#inchikey DUDGAPSRYCQPBG-UHFFFAOYSA-N
#pubchem_id 53779314
#mb_accession PR309002

>ms2
71.013430 21.000000
89.032250 18.000000
93.039090 22.000000
114.996720 62.000000
115.004510 112.000000
121.023820 23.000000
121.031670 175.000000
122.028920 40.000000
123.044240 25.000000
133.012760 86.000000
147.042370 39.000000
149.024250 890.000000
150.024810 44.000000
150.031940 39.000000
151.040650 20.000000
163.042660 23.000000
164.047760 727.000000
165.049440 143.000000
165.058200 49.000000
179.063350 18.000000
179.076220 42.000000
180.071300 19.000000
190.064640 24.000000
191.045140 18.000000
193.016880 48.000000
193.079900 23.000000
208.037550 170.000000
209.036880 19.000000
223.060070 3420.000000
224.065220 524.000000
225.041820 20.000000
225.050690 20.000000
225.064300 82.000000
237.113950 22.000000

