>compound PR25908353
>parentmass 461.1654
>ionization [M+HCOO]-
>formula C19H28O10
>rt 210.000000
>profile qtof
#smiles_iso C1C(C(C(O1)OCC2C(C(C(C(O2)OCCC3=CC=CC=C3)O)O)O)O)(CO)O
#smiles_can C1C(C(C(O1)OCC2C(C(C(C(O2)OCCC3=CC=CC=C3)O)O)O)O)(CO)O
#inchikey GZSQKOFXMZDKPV-UHFFFAOYSA-N
#pubchem_id 13893574
#mb_accession PR309419

>ms2
101.025380 22.000000
109.030620 19.000000
113.023380 22.000000
113.031660 21.000000
116.075110 23.000000
183.115370 18.000000
230.075850 20.000000
269.096950 40.000000
269.105990 20.000000
415.161290 478.000000
416.144320 18.000000
416.167660 55.000000
416.185030 19.000000
417.154300 18.000000
435.073790 21.000000
461.171570 187.000000

