>compound PR25896685
>parentmass 511.171
>ionization [M-H]-
>formula C26H28N2O9
>rt 244.800000
>profile qtof
#smiles_iso C=CC1C2CC3C4=C(CN3C(=O)C2=COC1OC5C(C(C(C(O5)CO)O)O)O)C(=O)C6=CC=CC=C6N4
#smiles_can C=CC1C2CC3C4=C(CN3C(=O)C2=COC1OC5C(C(C(C(O5)CO)O)O)O)C(=O)C6=CC=CC=C6N4
#inchikey ODQBQUXGRYBRTP-UHFFFAOYSA-N
#pubchem_id 14440700
#mb_accession PR309370

>ms2
71.010090 16.000000
89.022230 56.000000
101.020590 16.000000
119.030720 59.000000
133.036290 16.000000
134.419530 17.000000
149.043560 18.000000
158.782320 20.000000
159.026340 16.000000
160.040590 32.000000
183.054790 1247.000000
183.070340 24.000000
184.056520 91.000000
217.067640 38.000000
220.060230 18.000000
230.900970 16.000000
235.087300 63.000000
236.077740 18.000000
237.073780 18.000000
250.064390 16.000000
251.078450 36.000000
252.093120 22.000000
261.059840 84.000000
261.066560 33.000000
267.185120 21.000000
270.697630 20.000000
274.176210 20.000000
277.054720 24.000000
278.073550 20.000000
279.075260 1923.000000
279.114840 16.000000
280.076480 317.000000
281.078800 44.000000
281.086850 18.000000
282.560940 20.000000
284.858760 16.000000
300.048370 20.000000
303.109280 19.000000
303.132480 20.000000
310.446560 35.000000
311.338260 17.000000
313.079070 17.000000
316.987340 17.000000
331.104160 170.000000
331.120390 16.000000
332.105350 68.000000
332.120180 16.000000
333.110170 17.000000
333.199980 23.000000
349.127170 17.000000
361.216340 18.000000
378.111790 21.000000
381.599850 21.000000
463.203860 18.000000
463.216860 21.000000
465.219510 16.000000
466.222990 22.000000
473.963960 16.000000
509.213560 21.000000
510.838680 16.000000
511.064850 20.000000
511.169860 3946.000000

