>compound PR26687541
>parentmass 679.4086
>ionization [M+HCOO]-
>formula C36H58O9
>rt 505.800000
>profile qtof
#smiles_iso CC1(CCC2(CCC3(C(=CCC4C3(CCC5C4(CCC(C5(C)CO)OC6C(C(C(C(O6)CO)O)O)O)C)C)C2C1)C)C(=O)O)C
#smiles_can CC1(CCC2(CCC3(C(=CCC4C3(CCC5C4(CCC(C5(C)CO)OC6C(C(C(C(O6)CO)O)O)O)C)C)C2C1)C)C(=O)O)C
#inchikey CCDRPBGPIXPGRW-UHFFFAOYSA-N
#pubchem_id 13518138
#mb_accession PR308901

>ms2peaks
235.170930 28.000000
310.188870 28.000000
336.844240 19.000000
340.803340 20.000000
505.238980 19.000000
633.400210 1190.000000
634.400700 442.000000
634.424010 98.000000
635.411250 92.000000
636.401670 25.000000
637.404790 20.000000
647.370300 19.000000
679.408330 303.000000
679.448060 25.000000

