>compound PR26837971
>parentmass 753.1854
>ionization [M-H]-
>formula C33H38O20
>rt 201.000000
>profile qtof
#smiles_iso CC(CC(=O)O)(CC(=O)OCC1C(C(C(C(O1)OC2=C(OC3=CC(=CC(=C3C2=O)O)OC4C(C(C(C(O4)CO)O)O)O)C5=CC=C(C=C5)O)O)O)O)O
#smiles_can CC(CC(=O)O)(CC(=O)OCC1C(C(C(C(O1)OC2=C(OC3=CC(=CC(=C3C2=O)O)OC4C(C(C(C(O4)CO)O)O)O)C5=CC=C(C=C5)O)O)O)O)O
#inchikey KNBPTHQAIKQFMM-UHFFFAOYSA-N
#pubchem_id 74978041
#mb_accession PR309260

>ms2
283.024510 21.000000
284.035580 23.000000
285.020200 22.000000
285.034760 58.000000
389.224370 29.000000
404.006990 20.000000
446.082090 18.000000
447.081210 70.000000
447.097230 64.000000
447.112060 21.000000
449.089900 18.000000
489.101070 42.000000
490.125400 27.000000
529.115110 21.000000
531.109250 33.000000
533.118290 29.000000
571.146550 20.000000
591.146610 74.000000
592.147830 18.000000
604.678470 26.000000
609.177430 19.000000
709.033020 37.000000
738.181760 18.000000
753.186650 328.000000
753.208500 97.000000

