>compound PR26162610
>parentmass 305.0649
>ionization [M-H]-
>formula C15H14O7
>rt 149.400000
>profile qtof
#smiles_iso C1C(C(OC2=CC(=CC(=C21)O)O)C3=CC(=C(C(=C3)O)O)O)O
#smiles_can C1C(C(OC2=CC(=CC(=C21)O)O)C3=CC(=C(C(=C3)O)O)O)O
#inchikey XMOCLSLCDHWDHP-UHFFFAOYSA-N
#pubchem_id 1249
#mb_accession PR309324

>ms2peaks
109.025950 21.000000
111.043170 90.000000
123.007360 39.000000
123.043830 22.000000
125.023370 225.000000
126.022990 25.000000
135.042980 18.000000
137.018370 106.000000
137.024800 79.000000
139.031630 18.000000
153.008870 18.000000
154.020650 20.000000
160.607480 27.000000
161.028470 43.000000
164.033890 20.000000
165.015030 61.000000
165.024730 19.000000
166.020650 20.000000
167.033520 70.000000
173.054900 46.000000
177.047450 23.000000
179.030910 41.000000
181.050230 21.000000
192.290190 23.000000
199.059810 18.000000
202.056340 21.000000
219.066070 21.000000
221.050840 40.000000
261.075100 19.000000
305.042300 21.000000
305.067660 560.000000

