>compound PR27653829
>parentmass 327.21663333333333
>ionization [M-H]-
>formula C18H32O5
>rt 391.800000
>profile qtof
#smiles_iso CCC=CCC(C(C=CC(CCCCCCCC(=O)O)O)O)O
#smiles_can CCC=CCC(C(C=CC(CCCCCCCC(=O)O)O)O)O
#inchikey MKYUCBXUUSZMQB-UHFFFAOYSA-N
#pubchem_id 72732143
#mb_accession PR309098,PR309099,PR309100

>ms2
57.615240 16.000000
83.045660 20.000000
83.052210 29.000000
84.047520 16.000000
85.027340 53.000000
95.048680 16.000000
97.019950 16.000000
97.065010 70.000000
100.636280 17.000000
106.206170 16.000000
106.335110 17.000000
120.107680 18.000000
124.048740 34.000000
125.063480 37.000000
125.096860 37.000000
125.104800 18.000000
127.111160 54.000000
127.118560 37.000000
137.103440 21.000000
138.227040 26.000000
141.129590 46.000000
151.115810 24.000000
156.112660 18.000000
160.117630 29.000000
165.125200 36.000000
168.147130 30.000000
171.100480 255.000000
172.104230 117.000000
177.130360 27.000000
178.118520 16.000000
181.110860 16.000000
183.134520 184.000000
184.144850 61.000000
185.091280 17.000000
185.117260 25.000000
193.125120 50.000000
194.627720 19.000000
195.130920 17.000000
195.148610 29.000000
199.134230 19.000000
201.156050 25.000000
203.109920 37.000000
204.547260 19.000000
208.097060 20.000000
209.110180 16.000000
209.125930 67.000000
210.124600 16.000000
211.132930 1183.000000
211.153140 26.000000
212.127210 23.000000
212.139720 50.000000
213.128160 16.000000
221.119600 128.000000
222.117650 17.000000
225.116470 17.000000
225.534700 16.000000
227.131090 17.000000
229.134770 72.000000
229.146790 414.000000
230.144240 45.000000
230.154340 16.000000
231.155720 32.000000
239.118500 41.000000
239.133990 16.000000
240.136750 28.000000
241.143620 19.000000
247.202730 104.000000
248.217150 18.000000
263.687470 16.000000
273.176510 48.000000
273.186520 25.000000
274.192540 21.000000
291.195620 36.000000
291.213840 18.000000
292.207640 16.000000
309.204190 57.000000
309.227810 16.000000
310.201230 16.000000
327.216220 7900.000000

>ms2
111.081380 56.000000
151.113950 20.000000
153.092580 18.000000
153.124910 19.000000
169.124980 44.000000
181.118960 18.000000
195.142030 21.000000
197.115920 284.000000
197.134570 18.000000
198.114120 58.000000
198.130860 21.000000
199.126540 38.000000
199.138890 50.000000
211.132970 22.000000
227.126570 20.000000
263.202000 25.000000
264.209840 19.000000
273.182460 18.000000
291.189300 21.000000
309.202730 105.000000
309.213380 31.000000
318.793610 24.000000
327.217220 1302.000000

>ms2
99.042770 19.000000
127.111870 29.000000
129.088810 18.000000
135.080660 27.000000
137.092820 58.000000
139.114580 16.000000
153.100390 16.000000
155.107030 93.000000
155.139950 16.000000
171.099290 222.000000
171.108630 132.000000
172.105130 20.000000
185.115890 45.000000
193.117050 39.000000
198.119810 24.000000
198.128720 16.000000
199.130260 32.000000
200.134460 30.000000
201.110400 134.000000
201.117400 80.000000
202.112150 59.000000
209.112260 41.000000
209.120100 41.000000
209.135830 32.000000
209.193040 18.000000
214.118180 17.000000
217.543150 16.000000
238.117360 26.000000
247.220610 28.000000
275.202580 18.000000
291.193050 18.000000
291.202550 16.000000
293.198610 17.000000
301.465360 20.000000
309.206420 18.000000
311.217320 25.000000
324.711180 20.000000
327.215700 459.000000

