>compound PR27608946
>parentmass 325.2007
>ionization [M-H]-
>formula C18H30O5
>rt 394.800000
>profile qtof
#smiles_iso CCC=CCC(C(C=CC(=O)CCCCCCCC(=O)O)O)O
#smiles_can CCC=CCC(C(C=CC(=O)CCCCCCCC(=O)O)O)O
#inchikey PLHUEKVESBJIRC-UHFFFAOYSA-N
#pubchem_id 75955192
#mb_accession PR309088

>ms2
125.062870 20.000000
137.090580 17.000000
137.100160 32.000000
139.112410 17.000000
165.086930 16.000000
171.091350 17.000000
171.097240 51.000000
171.108310 18.000000
209.118070 424.000000
209.145230 21.000000
211.129590 18.000000
218.965640 16.000000
221.150850 20.000000
240.122630 17.000000
281.046940 18.000000
281.171420 22.000000
291.199620 17.000000
307.167140 17.000000
307.181430 32.000000
307.194090 34.000000
308.192870 33.000000
309.206970 18.000000
309.220490 17.000000
310.207370 18.000000
325.199890 166.000000

