>compound PR28449801
>parentmass 447.2239
>ionization [M-H]-
>formula C21H36O10
>rt 321.600000
>profile qtof
#smiles_iso CC(=CCCC(=CCOC1C(C(C(C(O1)COC2C(C(C(CO2)O)O)O)O)O)O)C)C
#smiles_can CC(=CCCC(=CCOC1C(C(C(C(O1)COC2C(C(C(CO2)O)O)O)O)O)O)C)C
#inchikey IEGFOTASSBZIBZ-UHFFFAOYSA-N
#pubchem_id 73717656
#mb_accession PR308950

>ms2peaks
71.011500 18.000000
85.027170 37.000000
89.023570 62.000000
101.024790 16.000000
131.038860 19.000000
149.035230 20.000000
161.048540 41.000000
269.475490 21.000000
315.176090 17.000000
389.261080 23.000000
447.226840 274.000000

