>compound PR28649477
>parentmass 515.1191
>ionization [M-H]-
>formula C25H24O12
>rt 264.000000
>profile qtof
#smiles_iso C1C(C(C(CC1(C(=O)O)O)OC(=O)C=CC2=CC(=C(C=C2)O)O)O)OC(=O)C=CC3=CC(=C(C=C3)O)O
#smiles_can C1C(C(C(CC1(C(=O)O)O)OC(=O)C=CC2=CC(=C(C=C2)O)O)O)OC(=O)C=CC3=CC(=C(C=C3)O)O
#inchikey KRZBCHWVBQOTNZ-UHFFFAOYSA-N
#pubchem_id 60150332
#mb_accession PR309022

>ms2peaks
133.012830 16.000000
133.028580 53.000000
135.047650 32.000000
173.042790 56.000000
178.033000 17.000000
179.035770 124.000000
191.048480 17.000000
191.057270 61.000000
192.052120 18.000000
215.054900 16.000000
353.086910 297.000000
353.120210 16.000000
355.093660 16.000000
514.099670 39.000000
515.110780 69.000000

