>compound PR28908808
>parentmass 353.0717
>ionization [M-H]-
>formula C12H18O12
>rt 106.800000
>profile qtof
#smiles_iso C(C1C(C(C(C(O1)OC2=C(C(OC2=O)C(C(O)O)O)O)O)O)O)O
#smiles_can C(C1C(C(C(C(O1)OC2=C(C(OC2=O)C(C(O)O)O)O)O)O)O)O
#inchikey DVMKRMXSGLOXJZ-UHFFFAOYSA-N
#pubchem_id 139291837
#mb_accession PR309336

>ms2peaks
71.010350 21.000000
101.020710 28.000000
111.007260 1485.000000
111.020960 18.000000
112.012250 207.000000
171.185520 16.000000
173.007830 424.000000
173.015260 106.000000
174.011340 16.000000
175.010040 20.000000
191.020520 16.000000
293.054470 36.000000
353.075350 325.000000

