>compound PR28580847
>parentmass 477.1397
>ionization [M-H]-
>formula C23H26O11
>rt 244.200000
>profile qtof
#smiles_iso COC1=C(C=CC(=C1)/C=C/C(=O)OC2C(OC(C(C2O)O)OC3=CC(=C(C=C3)O)OC)CO)O
#smiles_can COC1=C(C=CC(=C1)C=CC(=O)OC2C(OC(C(C2O)O)OC3=CC(=C(C=C3)O)OC)CO)O
#inchikey HULDVRYZOFHPLX-XBXARRHUSA-N
#pubchem_id 139291883
#mb_accession PR309330

>ms2
95.950440 21.000000
95.955930 33.000000
96.961870 148.000000
134.039580 70.000000
134.050370 19.000000
149.061290 20.000000
150.029590 55.000000
150.040860 20.000000
150.062300 23.000000
151.033620 20.000000
164.048400 21.000000
165.048020 61.000000
166.062700 23.000000
171.061920 30.000000
178.024990 46.000000
178.030730 18.000000
178.040940 19.000000
179.026120 20.000000
193.051770 224.000000
194.049270 69.000000
194.060680 30.000000
195.063480 20.000000
195.072650 61.000000
196.062900 44.000000
196.085560 27.000000
250.064380 26.000000
253.089280 21.000000
353.094850 20.000000
389.118770 36.000000
389.136290 18.000000
390.129580 19.000000
446.052860 18.000000
448.063810 19.000000
477.060670 55.000000
477.070280 24.000000
477.124020 37.000000
477.145570 73.000000

