>compound PR29250280
>parentmass 391.1896
>ionization [M-H]-
>formula C25H28O4
>rt 543.000000
>profile qtof
#smiles_iso CC(=CCC1=C(C=CC(=C1)C2CC(=O)C3=C(O2)C(=C(C=C3)O)CC=C(C)C)O)C
#smiles_can CC(=CCC1=C(C=CC(=C1)C2CC(=O)C3=C(O2)C(=C(C=C3)O)CC=C(C)C)O)C
#inchikey CUFAXDWQDQQKFF-UHFFFAOYSA-N
#pubchem_id 480768
#mb_accession PR309041

>ms2
130.042140 24.000000
132.055760 228.000000
133.059250 18.000000
157.058240 19.000000
157.064100 18.000000
159.073270 48.000000
160.075410 27.000000
175.066310 30.000000
185.107190 19.000000
187.110570 1148.000000
187.132080 20.000000
187.763260 18.000000
188.108080 171.000000
188.123860 140.000000
197.255580 21.000000
199.569460 22.000000
202.589660 18.000000
203.068470 734.000000
203.108180 20.000000
204.076190 113.000000
273.322110 21.000000
306.209720 20.000000
328.276700 25.000000
389.154790 19.000000
391.190060 2019.000000

