>compound PR30123364
>parentmass 769.1985
>ionization [M-H]-
>formula C37H38O18
>rt 253.200000
>profile qtof
#smiles_iso COC1=C(C=CC(=C1)C=CC(=O)OCC2C(C(C(C(O2)OC3C(C(C(OC3C4=C(C5=C(C=C4O)OC(=CC5=O)C6=CC=C(C=C6)O)O)CO)O)O)O)O)O)O
#smiles_can COC1=C(C=CC(=C1)C=CC(=O)OCC2C(C(C(C(O2)OC3C(C(C(OC3C4=C(C5=C(C=C4O)OC(=CC5=O)C6=CC=C(C=C6)O)O)CO)O)O)O)O)O)O
#inchikey VJSPPRJRRDZQLT-UHFFFAOYSA-N
#pubchem_id 74977470
#mb_accession PR309296

>ms2peaks
163.034260 25.000000
235.057450 24.000000
236.067310 18.000000
293.047210 61.000000
294.048770 19.000000
323.069430 60.000000
355.082000 16.000000
395.064330 27.000000
413.088380 54.000000
414.077000 19.000000
443.100100 149.000000
474.104710 19.000000
545.356990 18.000000
593.147640 70.000000
623.168520 35.000000
625.177250 24.000000
769.200380 686.000000

