>compound PR30989117
>parentmass 347.0979
>ionization [M+HCOO]-
>formula C13H18O8
>rt 159.000000
>profile qtof
#smiles_iso COC1=C(C=CC(=C1)O)OC2C(C(C(C(O2)CO)O)O)O
#smiles_can COC1=C(C=CC(=C1)O)OC2C(C(C(C(O2)CO)O)O)O
#inchikey LWEHRPZXRYZMDC-UHFFFAOYSA-N
#pubchem_id 72744980
#mb_accession PR309058

>ms2
124.013370 61.000000
139.038890 436.000000
139.048780 54.000000
140.038700 41.000000
140.046340 19.000000
161.046920 20.000000
162.051010 18.000000
163.048570 18.000000
301.089810 145.000000
302.092800 24.000000

