>compound PR30801726
>parentmass 765.444
>ionization [M-H]-
>formula C41H66O13
>rt 445.200000
>profile qtof
#smiles_iso CC1(CC2C3=CCC4C5(CCC(C(C5CCC4(C3(CCC2(C(C1)O)C)C)C)(C)CO)OC6C(C(C(C(O6)C(=O)O)O)O)OC7C(C(C(CO7)O)O)O)C)C
#smiles_can CC1(CC2C3=CCC4C5(CCC(C(C5CCC4(C3(CCC2(C(C1)O)C)C)C)(C)CO)OC6C(C(C(C(O6)C(=O)O)O)O)OC7C(C(C(CO7)O)O)O)C)C
#inchikey LASVNNIDKPXXMG-UHFFFAOYSA-N
#pubchem_id 71264311
#mb_accession PR308907

>ms2peaks
85.027540 23.000000
119.032640 20.000000
144.917590 20.000000
149.043430 23.000000
157.013120 48.000000
555.312680 18.000000
605.115050 19.000000
703.453000 18.000000
765.443910 1184.000000

