>compound PR31577699
>parentmass 152.9676
>ionization [M-H]-
>formula C3H6O3S2
>rt 169.800000
>profile qtof
#smiles_iso CC=CSS(=O)(=O)O
#smiles_can CC=CSS(=O)(=O)O
#inchikey RUVGQUCSWPRGRF-UHFFFAOYSA-N
#pubchem_id 145994448
#mb_accession PR308953,PR308954

>ms2peaks
73.008530 147.000000
73.017370 23.000000
79.956530 126.000000
90.009220 16.000000
152.969240 260.000000

>ms2peaks
73.010910 17.000000
79.959930 16.000000
80.961450 27.000000
80.966840 16.000000
89.007450 38.000000
152.966840 119.000000

