>compound PR32816564
>parentmass 577.1566
>ionization [M-H]-
>formula C27H30O14
>rt 314.400000
>profile qtof
#smiles_iso COC1=C2C(=CC(=C1CO)OC3C(C(C(C(O3)COC4C(C(C(CO4)O)O)O)O)O)O)C(=O)C5=CC=CC=C5C2=O
#smiles_can COC1=C2C(=CC(=C1CO)OC3C(C(C(C(O3)COC4C(C(C(CO4)O)O)O)O)O)O)C(=O)C5=CC=CC=C5C2=O
#inchikey XXKWBXGHSBIVHQ-UHFFFAOYSA-N
#pubchem_id 75130901
#mb_accession PR309400

>ms2peaks
59.012590 158.000000
71.011820 131.000000
71.017410 37.000000
73.257670 16.000000
77.021640 17.000000
85.030650 19.000000
85.634340 16.000000
86.321800 26.000000
89.023480 959.000000
90.026300 16.000000
96.330920 17.000000
97.029680 24.000000
101.022580 431.000000
101.028080 109.000000
102.023650 87.000000
113.019690 63.000000
113.025730 104.000000
113.232940 20.000000
119.035000 113.000000
120.035950 17.000000
125.023250 57.000000
129.024570 20.000000
131.033480 844.000000
131.486470 16.000000
143.028290 20.000000
144.725510 18.000000
149.044660 2622.000000
150.046420 129.000000
151.049220 16.000000
151.056880 20.000000
157.392210 20.000000
179.050490 17.000000
191.054730 709.000000
191.077800 18.000000
192.055160 49.000000
193.057450 16.000000
221.065430 187.000000
222.069410 20.000000
223.108580 17.000000
224.051280 18.000000
225.117370 17.000000
236.065670 16.000000
237.054630 1094.000000
238.059680 184.000000
251.030620 114.000000
251.070790 42.000000
251.089110 16.000000
252.015050 17.000000
252.040070 138.000000
252.077190 17.000000
253.033330 23.000000
253.048600 233.000000
254.046840 20.000000
254.055860 46.000000
255.055370 20.000000
266.049100 58.000000
267.065700 126.000000
268.056920 32.000000
268.076870 16.000000
269.046230 66.000000
269.073820 17.000000
270.038850 43.000000
273.241210 20.000000
275.404020 32.000000
281.089390 17.000000
283.058010 38.000000
283.067930 25.000000
284.099180 16.000000
285.077150 24.000000
295.055600 32.000000
303.077420 17.000000
309.476380 17.000000
311.094940 36.000000
311.108460 18.000000
321.081330 23.000000
323.052950 73.000000
324.053620 21.000000
335.301610 25.000000
337.070250 22.000000
339.081480 20.000000
348.626310 16.000000
366.049590 17.000000
374.282350 19.000000
377.296080 16.000000
387.082980 17.000000
399.079130 16.000000
459.102330 18.000000
485.955080 16.000000
510.080140 16.000000
518.138550 32.000000
545.132140 102.000000
545.149780 35.000000
546.106750 40.000000
546.123900 45.000000
546.146850 17.000000
547.130000 59.000000
575.895200 21.000000
577.157410 8046.000000

