>compound PR32267665
>parentmass 313.0702
>ionization [M-H]-
>formula C17H14O6
>rt 343.200000
>profile qtof
#smiles_iso COC1=C(C=C(C2=C1OC(=C(C2=O)OC)C3=CC=CC=C3)O)O
#smiles_can COC1=C(C=C(C2=C1OC(=C(C2=O)OC)C3=CC=CC=C3)O)O
#inchikey OWQLBLNRUZULFV-UHFFFAOYSA-N
#pubchem_id 9972910
#mb_accession PR309271

>ms2peaks
141.029530 19.000000
227.034190 20.000000
298.028590 20.000000
298.046660 52.000000
299.053860 18.000000
313.065370 59.000000

