>compound PR33051528
>parentmass 161.0451
>ionization [M-H]-
>formula C6H10O5
>rt 118.800000
>profile qtof
#smiles_iso CC(CC(=O)O)(CC(=O)O)O
#smiles_can CC(CC(=O)O)(CC(=O)O)O
#inchikey NPOAOTPXWNWTSH-UHFFFAOYSA-N
#pubchem_id 1662
#mb_accession PR309125

>ms2peaks
99.041460 38.000000
101.021680 40.000000
161.042050 112.000000

