>compound PR33923940
>parentmass 319.0459
>ionization [M-H]-
>formula C15H12O8
>rt 218.400000
>profile qtof
#smiles_iso C1=C(C=C(C(=C1O)O)O)C2C(C(=O)C3=C(C=C(C=C3O2)O)O)O
#smiles_can C1=C(C=C(C(=C1O)O)O)C2C(C(=O)C3=C(C=C(C=C3O2)O)O)O
#inchikey KJXSIXMJHKAJOD-UHFFFAOYSA-N
#pubchem_id 5153580
#mb_accession PR309312

>ms2peaks
65.001130 21.000000
109.027900 38.000000
125.023130 84.000000
147.007720 19.000000
149.015430 18.000000
153.015290 21.000000
157.022920 18.000000
163.050130 18.000000
165.024900 23.000000
175.005510 42.000000
177.048830 18.000000
178.999650 61.000000
179.998370 21.000000
181.013050 27.000000
193.012470 332.000000
194.021160 25.000000
233.037890 22.000000
257.054840 20.000000
283.025020 18.000000
301.026820 43.000000
301.045470 40.000000

