>compound PR33450354
>parentmass 721.3643333333333
>ionization [M+HCOO]-
>formula C33H56O14
>rt 517.800000
>profile qtof
#smiles_iso CCC=CCC=CCC=CCCCCCCCC(=O)OCC(COC1C(C(C(C(O1)COC2C(C(C(C(O2)CO)O)O)O)O)O)O)O
#smiles_can CCC=CCC=CCC=CCCCCCCCC(=O)OCC(COC1C(C(C(C(O1)COC2C(C(C(C(O2)CO)O)O)O)O)O)O)O
#inchikey MPSGDHOYFIUPSO-UHFFFAOYSA-N
#pubchem_id 73034882
#mb_accession PR309170,PR309171,PR309172

>ms2
135.915820 17.000000
161.041020 24.000000
167.065350 27.000000
182.060150 22.000000
277.221740 52.000000
397.134770 75.000000
398.145170 17.000000
481.192350 18.000000
675.355590 42.000000
675.376530 59.000000
676.363710 86.000000
721.255860 23.000000

>ms2
59.013870 18.000000
75.003110 24.000000
85.028370 48.000000
89.024250 22.000000
101.021030 38.000000
101.026720 19.000000
103.005160 18.000000
113.022760 65.000000
115.025870 30.000000
119.029980 44.000000
121.036030 20.000000
125.020490 18.000000
125.029420 43.000000
143.039520 24.000000
148.039920 20.000000
151.041060 18.000000
161.046510 38.000000
162.048110 18.000000
167.104250 22.000000
179.045850 19.000000
185.042180 18.000000
235.071180 20.000000
235.079420 45.000000
235.088960 36.000000
253.085300 39.000000
262.683440 19.000000
277.212590 188.000000
277.229160 57.000000
278.216000 96.000000
287.078920 44.000000
305.075500 19.000000
361.108610 20.000000
379.108310 20.000000
397.132140 772.000000
398.127140 66.000000
398.146030 54.000000
398.154910 21.000000
399.132080 18.000000
399.147920 43.000000
415.137730 352.000000
415.175750 20.000000
416.135530 19.000000
428.964810 20.000000
524.584230 21.000000
675.356990 1157.000000
676.347050 66.000000
676.368410 203.000000
677.349730 33.000000
677.391910 22.000000
721.363100 358.000000
721.400150 26.000000

>ms2
89.020680 20.000000
89.028600 51.000000
101.020290 16.000000
101.028600 16.000000
125.019350 16.000000
126.029110 16.000000
131.033080 18.000000
143.035520 24.000000
235.076230 20.000000
277.208800 21.000000
277.229800 39.000000
278.222380 16.000000
362.123230 16.000000
397.117490 30.000000
397.131590 63.000000
397.146550 110.000000
398.123470 18.000000
398.144810 16.000000
399.148900 20.000000
415.150150 22.000000
415.162570 16.000000
519.335210 24.000000
675.360170 275.000000
676.332030 78.000000
676.365910 65.000000
677.368530 76.000000
721.346010 20.000000
721.370730 16.000000

