>compound PR34667254
>parentmass 943.4551
>ionization [M+HCOO]-
>formula C45H70O18
>rt 434.400000
>profile qtof
#smiles_iso CC1C2C(CC3C2(CCC4C3CC=C5C4(CCC(C5)OC6C(C(C(C(O6)CO)O)O)OC7C(C(C(C(O7)CO)O)O)O)C)C)OC18CCC(CO8)COC(=O)CC(C)(CC(=O)O)O
#smiles_can CC1C2C(CC3C2(CCC4C3CC=C5C4(CCC(C5)OC6C(C(C(C(O6)CO)O)O)OC7C(C(C(C(O7)CO)O)O)O)C)C)OC18CCC(CO8)COC(=O)CC(C)(CC(=O)O)O
#inchikey IRPDBBPUEOOEPP-UHFFFAOYSA-N
#pubchem_id 139291896
#mb_accession PR308977

>ms2peaks
71.012890 26.000000
161.038390 18.000000
161.050190 27.000000
163.058650 24.000000
164.058580 18.000000
269.064760 20.000000
270.064640 26.000000
289.091610 22.000000
436.174840 22.000000
470.121670 19.000000
735.399600 143.000000
736.380740 55.000000
737.374330 18.000000
737.407590 18.000000
897.387630 25.000000
897.451050 359.000000
897.528870 21.000000
898.424740 59.000000
898.459410 87.000000
899.467530 21.000000
943.438600 41.000000
943.482730 30.000000

