>compound PR34113798
>parentmass 755.1837
>ionization [M-H]-
>formula C36H36O18
>rt 229.800000
>profile qtof
#smiles_iso C1=CC(=CC=C1C=CC(=O)OCC2C(C(C(C(O2)OC3C(C(C(OC3C4=C(C5=C(C=C4O)OC(=CC5=O)C6=CC(=C(C=C6)O)O)O)CO)O)O)O)O)O)O
#smiles_can C1=CC(=CC=C1C=CC(=O)OCC2C(C(C(C(O2)OC3C(C(C(OC3C4=C(C5=C(C=C4O)OC(=CC5=O)C6=CC(=C(C=C6)O)O)O)CO)O)O)O)O)O)O
#inchikey MWRFISCXYNYBKS-UHFFFAOYSA-N
#pubchem_id 145994457
#mb_accession PR309295

>ms2
205.056990 33.000000
235.061660 19.000000
284.043030 18.000000
285.033940 18.000000
298.057500 42.000000
309.026250 36.000000
309.047210 18.000000
309.057070 18.000000
310.037960 20.000000
325.032410 34.000000
327.035680 18.000000
328.048920 17.000000
329.058620 16.000000
339.042390 38.000000
339.054870 28.000000
340.059810 33.000000
351.052760 18.000000
352.053990 17.000000
353.204500 20.000000
357.072050 17.000000
358.054020 22.000000
369.074430 76.000000
370.093780 19.000000
394.103120 16.000000
398.887510 17.000000
411.065800 24.000000
429.048030 19.000000
429.080380 144.000000
430.092800 20.000000
489.081510 17.000000
489.111450 20.000000
490.110470 16.000000
604.357670 18.000000
609.162660 22.000000
610.168700 16.000000
627.359130 30.000000
635.120850 16.000000
635.131840 38.000000
635.156980 17.000000
637.145870 30.000000
690.680600 19.000000
708.125370 18.000000
754.140560 28.000000
755.117860 23.000000
755.187190 1554.000000
755.248110 19.000000

