>compound PR34767692
>parentmass 533.1287
>ionization [M-H]-
>formula C25H26O13
>rt 231.600000
>profile qtof
#smiles_iso C1C(C(C(C(O1)C2=C(C(=C3C(=C2O)C(=O)C=C(O3)C4=CC=C(C=C4)O)C5C(C(C(CO5)O)O)O)O)O)O)O
#smiles_can C1C(C(C(C(O1)C2=C(C(=C3C(=C2O)C(=O)C=C(O3)C4=CC=C(C=C4)O)C5C(C(C(CO5)O)O)O)O)O)O)O
#inchikey LDVNKZYMYPZDAI-UHFFFAOYSA-N
#pubchem_id 14427338
#mb_accession PR309298

>ms2peaks
152.043490 17.000000
205.054490 22.000000
215.058210 16.000000
231.016200 18.000000
233.051280 20.000000
246.047070 17.000000
249.076740 22.000000
256.026760 17.000000
260.378230 16.000000
264.059840 16.000000
281.084500 18.000000
282.044590 16.000000
283.052250 45.000000
283.070500 16.000000
284.077820 16.000000
295.979680 16.000000
295.993770 16.000000
297.066500 16.000000
297.079440 74.000000
297.088010 30.000000
299.090700 25.000000
304.454770 25.000000
308.015620 18.000000
321.074100 17.000000
323.046390 55.000000
324.065120 24.000000
324.759090 17.000000
325.065310 16.000000
325.096860 26.000000
326.074310 22.000000
333.080570 19.000000
337.078190 41.000000
341.047700 20.000000
341.077940 36.000000
348.286040 17.000000
350.079160 20.000000
353.061740 251.000000
353.082760 53.000000
353.108030 16.000000
354.050450 41.000000
354.066710 35.000000
355.081910 37.000000
365.068880 41.000000
366.057710 16.000000
367.085020 17.000000
383.068970 51.000000
383.081180 103.000000
384.068940 52.000000
384.084750 37.000000
385.091060 33.000000
395.087460 39.000000
405.877080 30.000000
407.068730 52.000000
413.084410 108.000000
414.230380 16.000000
425.086000 23.000000
425.107120 17.000000
427.085170 32.000000
436.920720 16.000000
441.070680 23.000000
443.073940 38.000000
443.089750 83.000000
443.104550 169.000000
444.095830 36.000000
444.113130 21.000000
445.110900 16.000000
455.106320 16.000000
473.112850 225.000000
474.108610 16.000000
498.115080 17.000000
515.124570 18.000000
516.129150 18.000000
524.325810 49.000000
532.988160 17.000000
533.130190 1980.000000

