>compound PR34516487
>parentmass 741.1867
>ionization [M-H]-
>formula C32H38O20
>rt 219.000000
>profile qtof
#smiles_iso CC1C(C(C(C(O1)OCC2C(C(C(C(O2)OC3=C(OC4=CC(=CC(=C4C3=O)O)O)C5=CC(=C(C=C5)O)O)OC6C(C(C(CO6)O)O)O)O)O)O)O)O
#smiles_can CC1C(C(C(C(O1)OCC2C(C(C(C(O2)OC3=C(OC4=CC(=CC(=C4C3=O)O)O)C5=CC(=C(C=C5)O)O)OC6C(C(C(CO6)O)O)O)O)O)O)O)O
#inchikey RLTNQOUWXZXZCS-UHFFFAOYSA-N
#pubchem_id 5859848
#mb_accession PR309259

>ms2peaks
178.991240 16.000000
178.999330 23.000000
271.015720 19.000000
284.026790 17.000000
299.025120 18.000000
300.017400 129.000000
300.028810 443.000000
300.058290 30.000000
301.028690 116.000000
301.043180 42.000000
401.921940 27.000000
416.519650 17.000000
591.125920 17.000000
740.175420 40.000000
740.202580 19.000000
741.186950 1916.000000

