>compound PR34109114
>parentmass 385.1337
>ionization [M+HCOO]-
>formula C13H24O10
>rt 122.400000
>profile qtof
#smiles_iso COCC1C(C(C(C(O1)OC2C(C(C(CO2)O)O)O)OC)O)O
#smiles_can COCC1C(C(C(C(O1)OC2C(C(C(CO2)O)O)O)OC)O)O
#inchikey HTULNBQKFKMRAH-UHFFFAOYSA-N
#pubchem_id 139291882
#mb_accession PR308961

>ms2peaks
73.026720 36.000000
85.028280 27.000000
89.022290 19.000000
101.023780 36.000000
113.016250 19.000000
113.028690 18.000000
143.032070 16.000000
149.051930 16.000000
159.029190 19.000000
161.943330 16.000000
207.087810 313.000000
207.101990 22.000000
208.085490 79.000000
208.099430 16.000000
339.125030 664.000000
340.134980 68.000000
342.113280 21.000000
385.132510 69.000000

