>compound PR35860119
>parentmass 916.49
>ionization [M-H]-
>formula C45H75NO18
>rt 254.400000
>profile qtof
#smiles_iso CC1CC(C2(C(C3C(O2)CC4C3(CCC5C4CCC6C5(CCC(C6)OC7C(C(C(C(O7)CO)OC8C(C(C(C(O8)CO)O)O)OC9C(C(C(C(O9)CO)O)O)O)O)O)C)C)C)NC1)O
#smiles_can CC1CC(C2(C(C3C(O2)CC4C3(CCC5C4CCC6C5(CCC(C6)OC7C(C(C(C(O7)CO)OC8C(C(C(C(O8)CO)O)O)OC9C(C(C(C(O9)CO)O)O)O)O)O)C)C)C)NC1)O
#inchikey BEHAFIHZKYCTOR-UHFFFAOYSA-N
#pubchem_id 139291793
#mb_accession PR308986

>ms2
143.040120 18.000000
754.419370 16.000000
754.455930 34.000000
916.462460 50.000000
916.482730 126.000000
916.513490 51.000000

