>compound PR35742309
>parentmass 933.4686
>ionization [M+HCOO]-
>formula C44H72O18
>rt 268.200000
>profile qtof
#smiles_iso CC1C2C(CC3C2(CCC4C3CC=C5C4(C(CC(C5)O)OC6C(C(C(CO6)O)O)OC7C(C(C(C(O7)C)O)O)O)C)C)OC1(CCC(C)COC8C(C(C(C(O8)CO)O)O)O)O
#smiles_can CC1C2C(CC3C2(CCC4C3CC=C5C4(C(CC(C5)O)OC6C(C(C(CO6)O)O)OC7C(C(C(C(O7)C)O)O)O)C)C)OC1(CCC(C)COC8C(C(C(C(O8)CO)O)O)O)O
#inchikey HWYCRLFVQVFKPD-UHFFFAOYSA-N
#pubchem_id 4979367
#mb_accession PR308974

>ms2
188.532790 17.000000
204.886540 20.000000
205.071810 37.000000
386.055390 21.000000
409.676330 16.000000
432.356990 18.000000
433.037990 26.000000
441.349880 18.000000
448.313110 17.000000
496.267270 21.000000
546.999940 20.000000
579.369510 24.000000
581.375430 16.000000
584.437680 21.000000
594.088010 21.000000
609.349550 37.000000
609.372250 122.000000
611.382510 45.000000
611.427610 16.000000
613.770020 16.000000
615.021790 22.000000
651.381710 18.000000
674.999760 18.000000
683.737240 18.000000
724.397030 18.000000
725.397580 35.000000
726.428960 17.000000
727.417540 16.000000
741.395750 281.000000
741.433110 41.000000
742.405580 79.000000
742.441160 52.000000
743.426880 16.000000
743.512210 18.000000
786.250120 16.000000
874.585450 19.000000
887.465820 8083.000000
887.573000 17.000000
887.728880 29.000000
887.840330 39.000000
888.140260 17.000000
888.384280 22.000000
888.469910 3748.000000
888.537350 19.000000
889.466670 1028.000000
889.491700 325.000000
889.565980 87.000000
890.276730 29.000000
890.424440 35.000000
890.465760 217.000000
890.517580 46.000000
891.465210 20.000000
891.501100 60.000000
895.677370 17.000000
931.873780 20.000000
933.466430 565.000000

