>compound PR36380899
>parentmass 329.067
>ionization [M-H]-
>formula C17H14O7
>rt 294.600000
>profile qtof
#smiles_iso COC1=C(C=C(C=C1)C2=C(C(=O)C3=C(C=C(C=C3O2)O)O)OC)O
#smiles_can COC1=C(C=C(C=C1)C2=C(C(=O)C3=C(C=C(C=C3O2)O)O)OC)O
#inchikey ZSPZNFOLWQEVQJ-UHFFFAOYSA-N
#pubchem_id 5380905
#mb_accession PR309272

>ms2
152.010910 16.000000
268.042910 16.000000
271.013890 49.000000
271.028990 60.000000
272.028590 87.000000
281.981630 24.000000
285.040890 36.000000
299.016240 52.000000
299.033110 16.000000
300.020810 37.000000
314.031100 35.000000
329.067170 445.000000

