>compound PR36613899
>parentmass 551.0971
>ionization [M-H]-
>formula C31H20O10
>rt 364.800000
>profile qtof
#smiles_iso COC1=C(C=C(C=C1)C2=CC(=O)C3=C(C=C(C=C3O2)O)O)C4=C(C=C(C5=C4OC(=CC5=O)C6=CC=C(C=C6)O)O)O
#smiles_can COC1=C(C=C(C=C1)C2=CC(=O)C3=C(C=C(C=C3O2)O)O)C4=C(C=C(C5=C4OC(=CC5=O)C6=CC=C(C=C6)O)O)O
#inchikey IWEIJEPIYMAGTH-UHFFFAOYSA-N
#pubchem_id 5315459
#mb_accession PR309380

>ms2
123.045980 30.000000
255.033520 19.000000
279.054260 20.000000
283.041810 37.000000
283.057190 18.000000
343.055660 20.000000
370.055390 19.000000
371.063660 21.000000
386.077330 27.000000
403.081390 20.000000
403.095370 20.000000
413.052000 95.000000
413.068630 42.000000
414.068180 80.000000
415.067500 18.000000
415.081090 20.000000
416.084290 27.000000
431.061370 25.000000
431.074430 86.000000
431.102780 20.000000
432.088230 24.000000
551.093260 109.000000
551.143310 18.000000

