>compound PR36314455
>parentmass 313.2381
>ionization [M-H]-
>formula C18H34O4
>rt 512.400000
>profile qtof
#smiles_iso CCCCCC=CCC(C(CCCCCCCC(=O)O)O)O
#smiles_can CCCCCC=CCC(C(CCCCCCCC(=O)O)O)O
#inchikey XEBKSQSGNGRGDW-UHFFFAOYSA-N
#pubchem_id 53394288
#mb_accession PR309106

>ms2
125.090260 20.000000
155.102710 16.000000
163.077870 20.000000
171.097730 34.000000
171.110520 21.000000
201.112180 36.000000
202.109830 29.000000
202.119490 23.000000
277.224880 18.000000
293.213230 33.000000
295.220120 32.000000
296.244020 18.000000
312.225490 16.000000
313.238980 536.000000
313.268490 16.000000

