>compound PR36084192
>parentmass 561.329
>ionization [M+HCOO]-
>formula C27H48O9
>rt 606.000000
>profile qtof
#smiles_iso CCCCCC=CCC=CCCCCCCCC(=O)OCC(COC1C(C(C(C(O1)CO)O)O)O)O
#smiles_can CCCCCC=CCC=CCCCCCCCC(=O)OCC(COC1C(C(C(C(O1)CO)O)O)O)O
#inchikey LBHUIJRTHBBWHP-UHFFFAOYSA-N
#pubchem_id 75059739
#mb_accession PR309166

>ms2peaks
279.208070 20.000000
279.228670 208.000000
279.243900 19.000000
280.229550 46.000000
280.243620 18.000000
474.136440 19.000000
515.305480 25.000000
515.335750 43.000000
561.319400 48.000000

