>compound PR36644237
>parentmass 444.1408
>ionization [M-H]-
>formula C16H31NO9S2
>rt 358.800000
>profile qtof
#smiles_iso CCCCCCCCCC(=NOS(=O)(=O)O)SC1C(C(C(C(O1)CO)O)O)O
#smiles_can CCCCCCCCCC(=NOS(=O)(=O)O)SC1C(C(C(C(O1)CO)O)O)O
#inchikey XDRONYWVTYLXRW-UHFFFAOYSA-N
#pubchem_id 145994456
#mb_accession PR309214

>ms2
96.962010 69.000000
444.140660 113.000000

