>compound PR36983904
>parentmass 505.09876
>ionization [M-H]-
>formula C23H22O13
>rt 267.000000
>profile qtof
#smiles_iso COC1=CC(=CC(=C1O)OC)C2=CC(=O)C3=C(C=C(C=C3O2)OC4C(C(C(C(O4)C(=O)O)O)O)O)O
#smiles_can COC1=CC(=CC(=C1O)OC)C2=CC(=O)C3=C(C=C(C=C3O2)OC4C(C(C(C(O4)C(=O)O)O)O)O)O
#inchikey HJWFFBNADKDQPV-UHFFFAOYSA-N
#pubchem_id 74977751
#mb_accession PR309277

>ms2peaks
57.034860 28.000000
71.013480 20.000000
85.029050 119.000000
89.022910 38.000000
99.008480 26.000000
113.023260 388.000000
139.005050 21.000000
154.554890 18.000000
175.022890 66.000000
175.029420 96.000000
258.011750 25.000000
271.019320 49.000000
285.039950 19.000000
297.998290 20.000000
299.016360 157.000000
299.029420 65.000000
299.730590 24.000000
300.026150 20.000000
301.017550 23.000000
301.028020 19.000000
313.022460 25.000000
313.038760 33.000000
313.073270 20.000000
314.040470 323.000000
315.037050 20.000000
315.050050 50.000000
316.029140 28.000000
319.179870 27.000000
328.053340 38.000000
329.067780 1390.000000
330.056240 28.000000
330.072910 307.000000
331.064300 75.000000
401.120880 22.000000
402.072540 20.000000
425.086150 50.000000
443.077640 21.000000
461.106260 20.000000
478.421200 23.000000
504.092770 61.000000
505.068080 68.000000
505.094600 1250.000000

