>compound PR37336439
>parentmass 305.0686
>ionization [M-H]-
>formula C12H18O7S
>rt 211.800000
>profile qtof
#smiles_iso C1CC(=O)C(C1CC(=O)O)CC=CCCOS(=O)(=O)O
#smiles_can C1CC(=O)C(C1CC(=O)O)CC=CCCOS(=O)(=O)O
#inchikey MLUJBNROAVANKK-UHFFFAOYSA-N
#pubchem_id 75075824
#mb_accession PR308957

>ms2
59.010690 22.000000
96.954310 22.000000
96.960560 51.000000
167.095140 19.000000
225.109150 59.000000
226.106030 39.000000
305.071930 342.000000

