>compound PR37387643
>parentmass 269.0813
>ionization [M-H]-
>formula C16H14O4
>rt 355.800000
>profile qtof
#smiles_iso COC1=CC2=C(C=C1)C3COC4=C(C3O2)C=CC(=C4)O
#smiles_can COC1=CC2=C(C=C1)C3COC4=C(C3O2)C=CC(=C4)O
#inchikey NSRJSISNDPOJOP-UHFFFAOYSA-N
#pubchem_id 623060
#mb_accession PR309025

>ms2peaks
92.024960 26.000000
94.026730 18.000000
120.020900 247.000000
120.031370 23.000000
121.021510 40.000000
133.021700 21.000000
133.029530 86.000000
133.036130 20.000000
145.028090 25.000000
149.059360 50.000000
153.074480 18.000000
161.026960 20.000000
175.028380 20.000000
175.038010 177.000000
181.067920 21.000000
197.061190 24.000000
208.043660 23.000000
209.064970 25.000000
237.054760 116.000000
238.048340 20.000000
238.072650 18.000000
239.062580 20.000000
253.041900 20.000000
253.049030 41.000000
269.080510 1502.000000

