>compound PR37531286
>parentmass 263.07
>ionization [M-H]-
>formula C9H16N2O5S
>rt 120.600000
>profile qtof
#smiles_iso CSCC(C(=O)O)NC(=O)CCC(C(=O)O)N
#smiles_can CSCC(C(=O)O)NC(=O)CCC(C(=O)O)N
#inchikey UPCDLBPYWXOCOK-UHFFFAOYSA-N
#pubchem_id 13894650
#mb_accession PR309069

>ms2peaks
58.028170 25.000000
119.013400 16.000000
119.020160 19.000000
134.045640 23.000000
143.045290 131.000000
143.055450 17.000000
177.026980 56.000000
178.036760 38.000000
263.066680 19.000000

