>compound PR38614546
>parentmass 821.4156
>ionization [M+HCOO]-
>formula C38H64O16
>rt 387.000000
>profile qtof
#smiles_iso CC1C(C(C(C(O1)OC2C(OC(C(C2O)O)OC(C)(CCC=C(C)CCC=C(C)CCC=C(C)COC3C(C(C(C(O3)CO)O)O)O)C=C)CO)O)O)O
#smiles_can CC1C(C(C(C(O1)OC2C(OC(C(C2O)O)OC(C)(CCC=C(C)CCC=C(C)CCC=C(C)COC3C(C(C(C(O3)CO)O)O)O)C=C)CO)O)O)O
#inchikey OEOWMDSFDQHCFJ-UHFFFAOYSA-N
#pubchem_id 78052369
#mb_accession PR309137

>ms2peaks
85.029980 19.000000
87.007570 17.000000
97.031780 18.000000
103.035490 17.000000
119.033780 36.000000
129.020360 20.000000
133.008500 27.000000
141.020890 16.000000
143.035550 21.000000
160.031200 20.000000
161.046110 24.000000
163.065190 18.000000
179.058580 20.000000
189.731810 18.000000
247.080670 31.000000
449.567320 19.000000
500.856260 20.000000
509.520600 25.000000
524.410100 16.000000
595.355960 25.000000
611.323670 61.000000
611.362550 17.000000
613.333440 18.000000
613.359800 16.000000
613.380130 17.000000
629.351320 171.000000
629.389160 36.000000
630.323300 17.000000
630.361880 40.000000
775.411250 1456.000000
775.470460 33.000000
775.514950 21.000000
776.395390 174.000000
776.416630 475.000000
777.361270 56.000000
777.417970 140.000000
778.419740 16.000000
778.436280 52.000000
821.411440 39.000000

