>compound PR38199862
>parentmass 133.0497
>ionization [M-H]-
>formula C5H10O4
>rt 115.200000
>profile qtof
#smiles_iso CC(C)(C(C(=O)O)O)O
#smiles_can CC(C)(C(C(=O)O)O)O
#inchikey JTEYKUFKXGDTEU-UHFFFAOYSA-N
#pubchem_id 677
#mb_accession PR309342

>ms2
71.003990 26.000000
71.012080 41.000000
115.000190 23.000000
133.015440 18.000000
133.048610 270.000000

