>compound PR38078298
>parentmass 771.1966
>ionization [M-H]-
>formula C33H40O21
>rt 205.200000
>profile qtof
#smiles_iso CC1C(C(C(C(O1)OCC2C(C(C(C(O2)OC3=C(OC4=CC(=CC(=C4C3=O)O)OC5C(C(C(C(O5)CO)O)O)O)C6=CC(=C(C=C6)O)O)O)O)O)O)O)O
#smiles_can CC1C(C(C(C(O1)OCC2C(C(C(C(O2)OC3=C(OC4=CC(=CC(=C4C3=O)O)OC5C(C(C(C(O5)CO)O)O)O)C6=CC(=C(C=C6)O)O)O)O)O)O)O)O
#inchikey SPUFXPFDJYNCFD-UHFFFAOYSA-N
#pubchem_id 13942388
#mb_accession PR309265

>ms2peaks
64.855110 18.000000
122.050730 30.000000
125.020650 18.000000
151.007190 40.000000
152.005970 23.000000
178.999690 212.000000
179.995680 19.000000
192.244870 22.000000
221.316470 36.000000
252.870850 20.000000
255.028630 64.000000
264.321840 21.000000
271.020230 64.000000
273.038120 42.000000
274.039610 20.000000
299.013760 134.000000
299.024350 125.000000
300.024320 2602.000000
300.059420 20.000000
301.031040 893.000000
301.157320 22.000000
301.410060 18.000000
302.030400 88.000000
325.033480 23.000000
343.040950 28.000000
367.058840 18.000000
370.462830 18.000000
386.120060 28.000000
387.329590 18.000000
390.227170 18.000000
395.086670 20.000000
408.878390 25.000000
431.327240 27.000000
470.990230 33.000000
499.486690 20.000000
505.109740 65.000000
580.695860 18.000000
582.062620 26.000000
591.124020 19.000000
591.147520 21.000000
635.163330 22.000000
645.154050 19.000000
661.217470 24.000000
738.048650 18.000000
770.191710 63.000000
771.196590 10476.000000
771.269290 64.000000

