>compound PR39187576
>parentmass 439.1869
>ionization [M-H]-
>formula C24H28N2O6
>rt 312.000000
>profile qtof
#smiles_iso COC1=C(C=CC(=C1)C=CC(=O)NCCCCNC(=O)C=CC2=CC(=C(C=C2)O)OC)O
#smiles_can COC1=C(C=CC(=C1)C=CC(=O)NCCCCNC(=O)C=CC2=CC(=C(C=C2)O)OC)O
#inchikey CHEMZHJQHCVLFI-UHFFFAOYSA-N
#pubchem_id 181734
#mb_accession PR309331

>ms2
134.031230 48.000000
134.039570 73.000000
135.046080 71.000000
148.055680 17.000000
149.061610 153.000000
161.064450 18.000000
175.041750 37.000000
177.029300 24.000000
190.050550 17.000000
204.057920 16.000000
246.121490 16.000000
247.105990 39.000000
248.124480 17.000000
249.106410 17.000000
259.098020 16.000000
273.077210 16.000000
274.093230 57.000000
275.095430 67.000000
289.113590 149.000000
289.133000 34.000000
290.114590 23.000000
290.129460 63.000000
424.156340 16.000000
439.187870 496.000000

