>compound PR39367068
>parentmass 769.1842
>ionization [M-H]-
>formula C33H38O21
>rt 280.200000
>profile qtof
#smiles_iso C1=CC(=CC=C1C2=C(C(=O)C3=C(O2)C=C(C(=C3O)C4C(C(C(C(O4)CO)O)O)O)O)C5C(C(C(C(O5)CO)O)O)O)OC6C(C(C(C(O6)C(=O)O)O)O)O
#smiles_can C1=CC(=CC=C1C2=C(C(=O)C3=C(O2)C=C(C(=C3O)C4C(C(C(C(O4)CO)O)O)O)O)C5C(C(C(C(O5)CO)O)O)O)OC6C(C(C(C(O6)C(=O)O)O)O)O
#inchikey MKNZYNHECYGLOH-UHFFFAOYSA-N
#pubchem_id 131833385
#mb_accession PR309305

>ms2
162.192730 18.000000
167.027770 20.000000
167.035460 21.000000
181.087630 24.000000
189.051500 20.000000
197.046840 51.000000
205.084550 19.000000
209.043580 18.000000
239.049820 41.000000
248.606660 21.000000
251.053620 44.000000
274.074680 18.000000
281.069400 22.000000
282.058650 26.000000
285.076450 39.000000
299.090640 18.000000
303.095890 22.000000
314.106450 27.000000
315.080600 42.000000
315.103450 18.000000
316.086060 18.000000
316.936950 27.000000
329.091310 21.000000
337.102720 20.000000
345.083560 18.000000
345.106960 26.000000
357.073550 19.000000
357.097720 1238.000000
358.102750 298.000000
359.073580 20.000000
359.096950 69.000000
369.110900 37.000000
370.094820 22.000000
382.092830 20.000000
382.106810 20.000000
387.108180 884.000000
388.112580 179.000000
389.109410 19.000000
391.129030 18.000000
394.094760 24.000000
402.116940 20.000000
417.120910 357.000000
417.149140 21.000000
418.153500 21.000000
429.131380 19.000000
431.138790 30.000000
441.103490 36.000000
441.120420 25.000000
447.137760 20.000000
458.386870 19.000000
471.116850 20.000000
477.143040 57.000000
501.141780 38.000000
519.153080 265.000000
520.162170 71.000000
531.128720 18.000000
533.194700 24.000000
549.167790 60.000000
550.145140 23.000000
550.171630 18.000000
562.985470 19.000000
563.124690 36.000000
563.142820 48.000000
565.151060 38.000000
579.197270 30.000000
587.371030 18.000000
593.160580 18.000000
639.204530 20.000000
663.190310 21.000000
665.194700 18.000000
681.202450 107.000000
681.224850 24.000000
682.199580 27.000000
683.156130 21.000000
683.204830 20.000000
683.228580 20.000000
725.163330 18.000000
725.198060 147.000000
726.213560 66.000000
726.440430 18.000000
747.116030 24.000000
755.957090 20.000000
769.184450 1348.000000
769.377140 25.000000

