>compound PR39899765
>parentmass 387.1291
>ionization [M+HCOO]-
>formula C16H22O8
>rt 172.800000
>profile qtof
#smiles_iso COC1=C(C=CC(=C1)C=CCO)OC2C(C(C(C(O2)CO)O)O)O
#smiles_can COC1=C(C=CC(=C1)C=CCO)OC2C(C(C(C(O2)CO)O)O)O
#inchikey SFLMUHDGSQZDOW-UHFFFAOYSA-N
#pubchem_id 3496897
#mb_accession PR309063

>ms2
161.067000 23.000000
179.071610 123.000000
179.087100 20.000000
180.072540 39.000000
341.127140 18.000000
387.122010 36.000000

