>compound PR40760124
>parentmass 401.1085
>ionization [M-H]-
>formula C17H22O11
>rt 213.600000
>profile qtof
#smiles_iso COC(=O)C1=COC(C2C1C=CC2C(=O)O)OC3C(C(C(C(O3)CO)O)O)O
#smiles_can COC(=O)C1=COC(C2C1C=CC2C(=O)O)OC3C(C(C(C(O3)CO)O)O)O
#inchikey QXLZMFXGMGPPHW-UHFFFAOYSA-N
#pubchem_id 139292033
#mb_accession PR309194

>ms2
68.995160 28.000000
94.036400 18.000000
101.021880 316.000000
102.025480 21.000000
105.069730 18.000000
107.050060 17.000000
113.016450 17.000000
113.022870 21.000000
117.029980 25.000000
119.032900 36.000000
119.046970 25.000000
133.029340 23.000000
135.012130 17.000000
135.040390 48.000000
136.052000 47.000000
137.022020 377.000000
138.023440 23.000000
149.053440 20.000000
150.066800 35.000000
151.034550 17.000000
162.024340 23.000000
163.035030 16.000000
163.042790 44.000000
177.053090 137.000000
191.053440 16.000000
193.050930 34.000000
194.057830 20.000000
195.064320 238.000000
195.564530 20.000000
196.069430 44.000000
197.074360 17.000000
207.028720 33.000000
209.071040 21.000000
220.298690 20.000000
221.042020 41.000000
221.048660 16.000000
225.668470 17.000000
239.043490 17.000000
239.058330 170.000000
269.100430 18.000000
299.072360 47.000000
349.900760 18.000000

