>compound PR40733423
>parentmass 477.064
>ionization [M-H]-
>formula C17H22N2O10S2
>rt 241.200000
>profile qtof
#smiles_iso CON1C=C(C2=CC=CC=C21)CC(=NOS(=O)(=O)O)SC3C(C(C(C(O3)CO)O)O)O
#smiles_can CON1C=C(C2=CC=CC=C21)CC(=NOS(=O)(=O)O)SC3C(C(C(C(O3)CO)O)O)O
#inchikey PKKMITFKYRCCOL-UHFFFAOYSA-N
#pubchem_id 4480094
#mb_accession PR309217

>ms2peaks
64.971370 22.000000
74.989000 22.000000
74.993260 45.000000
75.992810 22.000000
79.957290 24.000000
91.099460 25.000000
95.951720 1780.000000
96.959610 8330.000000
97.181870 18.000000
97.943820 61.000000
97.958070 46.000000
98.955890 314.000000
98.967440 21.000000
98.975720 19.000000
99.422550 27.000000
108.961010 21.000000
111.928150 20.000000
113.924840 20.000000
130.037520 22.000000
141.041320 46.000000
141.050580 18.000000
143.049770 39.000000
144.046940 24.000000
154.055270 130.000000
164.257020 22.000000
169.039840 19.000000
170.042540 20.000000
180.058500 22.000000
187.034470 20.000000
188.041900 33.000000
193.021550 18.000000
203.039890 25.000000
204.034230 25.000000
205.035200 21.000000
206.049640 20.000000
221.334060 21.000000
221.899830 18.000000
223.991780 18.000000
231.845400 19.000000
237.724210 27.000000
242.003980 83.000000
243.976610 20.000000
259.007810 36.000000
259.017970 60.000000
260.011750 21.000000
261.021910 20.000000
272.954680 18.000000
275.001530 37.000000
275.999790 18.000000
282.977600 19.000000
283.994750 41.000000
285.007570 20.000000
285.986080 23.000000
286.995790 24.000000
297.953090 20.000000
300.993350 18.000000
309.351500 22.000000
314.090910 28.000000
315.014830 22.000000
315.981200 21.000000
316.954860 22.000000
332.997190 19.000000
341.050020 24.000000
352.148470 22.000000
366.087190 21.000000
371.014400 22.000000
383.060640 42.000000
384.068540 37.000000
385.052980 27.000000
416.027470 18.000000
417.047790 18.000000
430.047790 18.000000
437.516480 25.000000
446.045410 1804.000000
447.049010 912.000000
447.070770 217.000000
448.021850 30.000000
448.049350 457.000000
448.069640 66.000000
449.038910 233.000000
449.075100 38.000000
450.043270 28.000000
450.056340 19.000000
467.717770 18.000000
476.493040 19.000000
477.064330 2855.000000
477.101810 19.000000

