>compound PR40339383
>parentmass 955.4913
>ionization [M-H]-
>formula C48H76O19
>rt 449.400000
>profile qtof
#smiles_iso CC1(CC2C3=CCC4C5(CCC(C(C5CCC4(C3(CCC2(C(=O)C1)C)C)C)(C)CO)OC6C(C(C(C(O6)C(=O)O)O)O)OC7C(C(C(C(O7)CO)O)O)OC8C(C(C(C(O8)CO)O)O)O)C)C
#smiles_can CC1(CC2C3=CCC4C5(CCC(C(C5CCC4(C3(CCC2(C(=O)C1)C)C)C)(C)CO)OC6C(C(C(C(O6)C(=O)O)O)O)OC7C(C(C(C(O7)CO)O)O)OC8C(C(C(C(O8)CO)O)O)O)C)C
#inchikey JTXVTHCLTOUSSL-UHFFFAOYSA-N
#pubchem_id 178247
#mb_accession PR308925

>ms2
137.011310 21.000000
398.802580 24.000000
897.472900 23.000000
927.487300 19.000000
942.522340 20.000000
955.443730 18.000000
955.489870 289.000000

