>compound PR40421092
>parentmass 309.2059
>ionization [M-H]-
>formula C18H30O4
>rt 464.400000
>profile qtof
#smiles_iso CCCCCC(=O)C=CC1C(O1)CCCCCCCC(=O)O
#smiles_can CCCCCC(=O)C=CC1C(O1)CCCCCCCC(=O)O
#inchikey BJIKXWWZEPAKQC-UHFFFAOYSA-N
#pubchem_id 74218382
#mb_accession PR309085

>ms2
99.079030 122.000000
99.085170 45.000000
100.083120 17.000000
135.086930 18.000000
137.095110 37.000000
141.090870 20.000000
165.127200 26.000000
171.098130 59.000000
171.109950 17.000000
185.112200 60.000000
185.119580 265.000000
186.122500 25.000000
187.115890 16.000000
201.103700 16.000000
209.115230 625.000000
210.118480 44.000000
211.119230 16.000000
273.178250 18.000000
290.176330 22.000000
291.194890 137.000000
309.206700 344.000000
309.227020 17.000000

