>compound PR40954391
>parentmass 353.1387
>ionization [M-H]-
>formula C21H22O5
>rt 449.400000
>profile qtof
#smiles_iso CC(=CCC1=C(C=CC(=C1OC)C=CC(=O)C2=CC(=C(C=C2)O)O)O)C
#smiles_can CC(=CCC1=C(C=CC(=C1OC)C=CC(=O)C2=CC(=C(C=C2)O)O)O)C
#inchikey RDYZHQQZLIBKBP-UHFFFAOYSA-N
#pubchem_id 66751828
#mb_accession PR309049

>ms2
108.020770 308.000000
109.027430 37.000000
136.015380 125.000000
147.047880 18.000000
150.030490 25.000000
159.042540 175.000000
159.056530 20.000000
160.010470 23.000000
160.045820 30.000000
160.055180 20.000000
161.017260 23.000000
161.051060 18.000000
163.029340 20.000000
170.155150 19.000000
173.016140 18.000000
174.030670 21.000000
175.034100 35.000000
177.091220 58.000000
185.023800 61.000000
186.031800 24.000000
187.072330 41.000000
193.083390 22.000000
199.041490 20.000000
200.087300 73.000000
201.023850 18.000000
201.094150 20.000000
203.069950 55.000000
203.096920 18.000000
209.061080 20.000000
219.094800 18.000000
225.046330 20.000000
226.017270 18.000000
226.054790 20.000000
229.092040 39.000000
238.065610 20.000000
243.103450 166.000000
246.068480 23.000000
252.071810 20.000000
254.050220 27.000000
266.062900 57.000000
267.056150 41.000000
269.037540 31.000000
269.076570 20.000000
270.061280 27.000000
277.039860 18.000000
277.050690 30.000000
278.096040 27.000000
284.065030 19.000000
295.061430 41.000000
296.067380 52.000000
321.098630 44.000000
321.110990 75.000000
321.772860 18.000000
322.116790 20.000000
322.131870 21.000000
323.128780 58.000000
353.138240 2420.000000

