>compound PR41911992
>parentmass 218.1032
>ionization [M-H]-
>formula C9H17NO5
>rt 148.800000
>profile qtof
#smiles_iso CC(C)(CO)C(C(=O)NCCC(=O)O)O
#smiles_can CC(C)(CO)C(C(=O)NCCC(=O)O)O
#inchikey GHOKWGTUZJEAQD-UHFFFAOYSA-N
#pubchem_id 988
#mb_accession PR309343

>ms2peaks
71.052440 18.000000
88.040250 97.000000
146.081790 56.000000
174.107970 16.000000
187.116170 16.000000
218.105190 40.000000

