>compound PR41128809
>parentmass 661.3578
>ionization [M-H]-
>formula C36H54O11
>rt 465.600000
>profile qtof
#smiles_iso CC1(CCC2(CCC3(C(=CCC4C3(CCC5C4(CC(C(C5(C)C=O)OC6C(C(C(C(O6)C(=O)O)O)O)O)O)C)C)C2C1)C)C(=O)O)C
#smiles_can CC1(CCC2(CCC3(C(=CCC4C3(CCC5C4(CC(C(C5(C)C=O)OC6C(C(C(C(O6)C(=O)O)O)O)O)O)C)C)C2C1)C)C(=O)O)C
#inchikey WFAOGVATCATFDU-UHFFFAOYSA-N
#pubchem_id 75984376
#mb_accession PR308897

>ms2
71.013750 27.000000
112.012770 24.000000
113.024020 50.000000
113.028500 21.000000
175.018040 25.000000
315.007140 25.000000
431.523160 20.000000
439.308590 22.000000
440.330780 25.000000
449.291660 18.000000
450.325780 18.000000
454.338680 25.000000
455.320830 18.000000
457.318150 33.000000
458.343930 26.000000
463.309660 19.000000
467.328340 161.000000
468.319340 43.000000
468.336940 22.000000
470.324460 18.000000
471.088810 36.000000
485.321960 77.000000
487.722810 52.000000
513.825740 20.000000
525.335450 20.000000
619.360470 40.000000
619.382870 110.000000
619.730900 27.000000
661.357360 3381.000000

