>compound PR41162923
>parentmass 749.3729
>ionization [M-H]-
>formula C39H58O14
>rt 445.800000
>profile qtof
#smiles_iso CC1(CCC2(CCC3(C(=CCC4C3(CCC5C4(CC(C(C5(C)C(=O)OC6C(C(C(C(O6)COC(=O)CC(=O)O)O)O)O)O)O)C)C)C2C1)C)C(=O)O)C
#smiles_can CC1(CCC2(CCC3(C(=CCC4C3(CCC5C4(CC(C(C5(C)C(=O)OC6C(C(C(C(O6)COC(=O)CC(=O)O)O)O)O)O)O)C)C)C2C1)C)C(=O)O)C
#inchikey JTKJAIJNMZCGNN-UHFFFAOYSA-N
#pubchem_id 139291916
#mb_accession PR308906

>ms2
59.013340 88.000000
71.010260 21.000000
73.030830 41.000000
101.023780 194.000000
113.023260 26.000000
121.393940 21.000000
126.032800 23.000000
131.029110 30.000000
131.037510 21.000000
143.031860 31.000000
144.040740 18.000000
149.036320 21.000000
149.043350 110.000000
155.035710 35.000000
161.045210 266.000000
179.053130 20.000000
204.059010 30.000000
221.067610 35.000000
223.774840 26.000000
239.720210 18.000000
419.330170 20.000000
439.321660 1791.000000
439.353450 58.000000
439.369050 20.000000
440.326200 565.000000
440.389370 20.000000
441.307430 36.000000
441.329740 112.000000
442.327940 24.000000
493.013210 18.000000
529.271000 21.000000
645.373600 25.000000
661.400270 18.000000
661.636780 22.000000
664.399480 20.000000
665.355830 20.000000
705.380740 2425.000000
706.385500 976.000000
706.438720 19.000000
707.369020 110.000000
707.393740 166.000000
708.361450 22.000000
708.415160 41.000000
710.807740 18.000000
748.362000 18.000000
749.366940 696.000000
749.389040 531.000000
749.442260 24.000000

