>compound PR41849961
>parentmass 638.3293
>ionization [M-H]-
>formula C29H54NO12P
>rt 550.800000
>profile qtof
#smiles_iso CCCCC/C=C/C/C=C/CCCCCCCC(=O)OC(CO)COP(=O)(O)OCCNC1C(C(C(C(O1)CO)O)O)O
#smiles_can CCCCCC=CCC=CCCCCCCCC(=O)OC(CO)COP(=O)(O)OCCNC1C(C(C(C(O1)CO)O)O)O
#inchikey HQYLDWZNTJHJNQ-AVQMFFATSA-N
#pubchem_id 139291879
#mb_accession PR309169

>ms2peaks
116.931660 16.000000
214.055370 22.000000
268.063110 18.000000
279.237760 220.000000
280.241090 16.000000
472.135470 16.000000
476.283780 40.000000
476.302220 22.000000
638.325260 239.000000
638.350830 55.000000

