>compound PR41429481
>parentmass 491.1197
>ionization [M-H]-
>formula C23H24O12
>rt 250.200000
>profile qtof
#smiles_iso COC1=CC(=CC(=C1O)OC)C2=CC(=O)C3=C(C=C(C=C3O2)OC4C(C(C(C(O4)CO)O)O)O)O
#smiles_can COC1=CC(=CC(=C1O)OC)C2=CC(=O)C3=C(C=C(C=C3O2)OC4C(C(C(C(O4)CO)O)O)O)O
#inchikey JGXFMIJHKASCIZ-UHFFFAOYSA-N
#pubchem_id 13984469
#mb_accession PR309278

>ms2peaks
117.277420 20.000000
149.023250 17.000000
149.029980 21.000000
151.003250 25.000000
161.552610 18.000000
195.074720 26.000000
196.345980 18.000000
215.036420 23.000000
240.079700 18.000000
243.019270 21.000000
243.071730 24.000000
255.012890 29.000000
255.023350 30.000000
255.031450 60.000000
271.020080 23.000000
271.040440 38.000000
273.352200 35.000000
282.019040 20.000000
285.041140 44.000000
299.022430 271.000000
300.055050 19.000000
301.085330 20.000000
310.043820 22.000000
311.899750 20.000000
313.035370 20.000000
314.041930 289.000000
314.052550 140.000000
315.025300 18.000000
315.049620 132.000000
315.067050 22.000000
316.047970 65.000000
318.806430 25.000000
322.442350 22.000000
329.064240 1368.000000
329.075590 364.000000
330.068540 302.000000
330.089320 20.000000
371.067170 43.000000
372.086000 27.000000
376.485900 20.000000
463.314700 19.000000
469.632200 21.000000
475.075870 29.000000
490.105560 25.000000
490.121090 22.000000
491.067690 19.000000
491.114650 2598.000000

