>compound PR42276528
>parentmass 534.1451
>ionization [M-H]-
>formula C21H29NO15
>rt 187.800000
>profile qtof
#smiles_iso COC1=CC2=C(C=C1)N(C(=O)C(O2)OC3C(C(C(C(O3)CO)O)O)OC4C(C(C(C(O4)CO)O)O)O)O
#smiles_can COC1=CC2=C(C=C1)N(C(=O)C(O2)OC3C(C(C(C(O3)CO)O)O)OC4C(C(C(C(O4)CO)O)O)O)O
#inchikey MQFCGITYMKIYRP-UHFFFAOYSA-N
#pubchem_id 139291967
#mb_accession PR309389

>ms2
71.020090 16.000000
83.012400 16.000000
89.024600 39.000000
101.025480 16.000000
113.025900 56.000000
119.039740 21.000000
125.025130 17.000000
143.031420 17.000000
148.998840 16.000000
149.010850 222.000000
149.034000 24.000000
152.034590 17.000000
161.039840 25.000000
164.035750 340.000000
165.036180 36.000000
168.020920 20.000000
175.991380 16.000000
179.017090 18.000000
179.047790 17.000000
179.058960 17.000000
180.060810 22.000000
192.027420 277.000000
193.029560 23.000000
206.051800 16.000000
221.063390 34.000000
221.075640 24.000000
222.071210 16.000000
472.653080 18.000000
516.108830 22.000000
520.132750 18.000000
534.150880 230.000000

