>compound PR42858974
>parentmass 478.2942
>ionization [M-H]-
>formula C23H46NO7P
>rt 613.200000
>profile qtof
#smiles_iso CCCCCCCCC=CCCCCCCCC(=O)OCC(COP(=O)([O-])OCC[NH3+])O
#smiles_can CCCCCCCCC=CCCCCCCCC(=O)OCC(COP(=O)([O-])OCC[NH3+])O
#inchikey PYVRVRFVLRNJLY-UHFFFAOYSA-N
#pubchem_id 25200684
#mb_accession PR309151

>ms2
140.009230 25.000000
196.039660 18.000000
255.232940 36.000000
281.246730 136.000000
282.261260 20.000000
478.285550 16.000000
478.306850 38.000000

