>compound PR42916777
>parentmass 939.4939
>ionization [M-H]-
>formula C48H76O18
>rt 457.200000
>profile qtof
#smiles_iso CC1C(C(C(C(O1)OC2C(C(C(OC2OC3C(C(C(OC3OC4CCC5(C(C4(C)CO)CCC6(C5CC=C7C6(CCC8(C7CC(CC8=O)(C)C)C)C)C)C)C(=O)O)O)O)CO)O)O)O)O)O
#smiles_can CC1C(C(C(C(O1)OC2C(C(C(OC2OC3C(C(C(OC3OC4CCC5(C(C4(C)CO)CCC6(C5CC=C7C6(CCC8(C7CC(CC8=O)(C)C)C)C)C)C)C(=O)O)O)O)CO)O)O)O)O)O
#inchikey CROUPKILZUPLQA-UHFFFAOYSA-N
#pubchem_id 15608214
#mb_accession PR308923

>ms2peaks
59.013230 18.000000
85.027550 23.000000
103.037000 20.000000
157.016390 20.000000
205.070830 19.000000
247.080630 41.000000
291.202940 18.000000
457.369170 18.000000
502.231720 21.000000
668.731510 22.000000
731.430540 21.000000
776.472110 20.000000
878.482180 24.000000
907.526920 21.000000
921.486150 18.000000
922.488650 38.000000
939.494020 1916.000000

