>compound PR42462540
>parentmass 325.0911
>ionization [M-H]-
>formula C15H18O8
>rt 175.800000
>profile qtof
#smiles_iso C1=CC(=CC=C1C=CC(=O)OC2C(C(C(C(O2)CO)O)O)O)O
#smiles_can C1=CC(=CC=C1C=CC(=O)OC2C(C(C(C(O2)CO)O)O)O)O
#inchikey DSNCQKUYZOSARM-UHFFFAOYSA-N
#pubchem_id 72727649
#mb_accession PR309357,PR309358

>ms2
119.048370 317.000000
120.044550 29.000000
135.596250 20.000000
163.038740 1046.000000
164.041340 162.000000
165.042910 20.000000
325.072110 20.000000

>ms2
119.047860 237.000000
119.857250 19.000000
120.049960 20.000000
125.025760 56.000000
133.062060 20.000000
145.021360 58.000000
145.033020 68.000000
163.038380 575.000000
205.044830 23.000000
205.051770 32.000000
325.088470 18.000000
325.101620 42.000000

