>compound PR43949092
>parentmass 675.4115
>ionization [M-H]-
>formula C38H60O10
>rt 533.400000
>profile qtof
#smiles_iso CC(=O)OCC1C(C(C(C(O1)OC2CCC3(C(C2(C)CO)CCC4(C3CC=C5C4(CCC6(C5CC(CC6)(C)C)C(=O)O)C)C)C)O)O)O
#smiles_can CC(=O)OCC1C(C(C(C(O1)OC2CCC3(C(C2(C)CO)CCC4(C3CC=C5C4(CCC6(C5CC(CC6)(C)C)C(=O)O)C)C)C)O)O)O
#inchikey VBPRYVPCTXJOKZ-UHFFFAOYSA-N
#pubchem_id 15625524
#mb_accession PR308903

>ms2
317.761410 19.000000
614.365540 20.000000
615.372500 95.000000
615.392520 389.000000
616.376890 104.000000
616.391910 208.000000
616.916810 25.000000
617.377500 23.000000
618.403200 20.000000
633.385250 47.000000
633.400510 134.000000
634.419070 36.000000
673.410710 18.000000
674.401180 20.000000
675.411870 1240.000000

