>compound PR43932086
>parentmass 477.1596
>ionization [M+HCOO]-
>formula C19H28O11
>rt 184.800000
>profile qtof
#smiles_iso C1=CC=C(C=C1)COC2C(C(C(C(O2)CO)O)O)OC3C(C(C(C(O3)CO)O)O)O
#smiles_can C1=CC=C(C=C1)COC2C(C(C(C(O2)CO)O)O)OC3C(C(C(C(O3)CO)O)O)O
#inchikey WKXRKKUZTXIFJY-UHFFFAOYSA-N
#pubchem_id 73157713
#mb_accession PR309421

>ms2
101.021900 27.000000
101.027630 21.000000
102.024390 20.000000
149.046630 19.000000
153.021480 17.000000
159.028900 16.000000
161.042570 17.000000
390.016480 17.000000
431.154970 241.000000
431.175750 62.000000
432.140750 16.000000
432.163180 62.000000
433.443760 23.000000
459.960630 18.000000
477.173100 29.000000

