>compound PR43168889
>parentmass 909.4841
>ionization [M-H]-
>formula C47H74O17
>rt 470.400000
>profile qtof
#smiles_iso CC1C(C(C(C(O1)OC2C(C(COC2OC3C(C(C(OC3OC4CCC5(C(C4(C)CO)CCC6(C5CC=C7C6(CCC8(C7CC(CC8=O)(C)C)C)C)C)C)C(=O)O)O)O)O)O)O)O)O
#smiles_can CC1C(C(C(C(O1)OC2C(C(COC2OC3C(C(C(OC3OC4CCC5(C(C4(C)CO)CCC6(C5CC=C7C6(CCC8(C7CC(CC8=O)(C)C)C)C)C)C)C(=O)O)O)O)O)O)O)O)O
#inchikey ZNWGBWWXJAYIOM-UHFFFAOYSA-N
#pubchem_id 78178264
#mb_accession PR308917

>ms2
58.815110 20.000000
61.232040 19.000000
67.420410 20.000000
103.040870 18.000000
131.031110 42.000000
158.016330 23.000000
205.070160 38.000000
206.073650 23.000000
418.907930 19.000000
455.374730 28.000000
456.360990 20.000000
671.644780 18.000000
891.482730 20.000000
892.472780 18.000000
894.885250 18.000000
909.485720 1974.000000
909.535400 108.000000

