>compound PR43908888
>parentmass 461.10855000000004
>ionization [M+HCOO]-
>formula C21H20O9
>rt 287.400000
>profile qtof
#smiles_iso C1=CC(=CC=C1C2=COC3=C(C2=O)C=CC(=C3)OC4C(C(C(C(O4)CO)O)O)O)O
#smiles_can C1=CC(=CC=C1C2=COC3=C(C2=O)C=CC(=C3)OC4C(C(C(C(O4)CO)O)O)O)O
#inchikey KYQZWONCHDNPDP-UHFFFAOYSA-N
#pubchem_id 4183640
#mb_accession PR309184,PR309185

>ms2peaks
132.018510 19.000000
252.043000 69.000000
253.050660 434.000000
254.045700 43.000000
254.061750 20.000000
255.061660 20.000000
265.044490 18.000000
296.102750 20.000000
311.039830 21.000000
415.104520 64.000000
416.099210 19.000000
461.114470 37.000000

>ms2peaks
225.060260 18.000000
238.056400 20.000000
253.049650 1379.000000
253.149440 18.000000
253.180920 17.000000
254.049130 193.000000
255.057010 45.000000
266.055330 77.000000
266.071990 17.000000
267.055210 17.000000
293.077300 16.000000
295.049560 28.000000
295.059270 78.000000
308.049350 29.000000
325.073390 16.000000
326.081600 18.000000
337.066860 17.000000
357.084320 16.000000
415.095550 81.000000
416.102290 62.000000
417.101930 20.000000
461.106290 41.000000

