>compound PR44729098
>parentmass 476.1067
>ionization [M-H]-
>formula C16H31NO9S3
>rt 318.600000
>profile qtof
#smiles_iso CSCCCCCCCCC(=NOS(=O)(=O)O)SC1C(C(C(C(O1)CO)O)O)O
#smiles_can CSCCCCCCCCC(=NOS(=O)(=O)O)SC1C(C(C(C(O1)CO)O)O)O
#inchikey CWOJBEDMJKZKAB-UHFFFAOYSA-N
#pubchem_id 74960825
#mb_accession PR309215

>ms2
57.034020 19.000000
59.010750 30.000000
71.010940 69.000000
71.016610 24.000000
72.306200 18.000000
74.990200 648.000000
75.992930 54.000000
76.986850 44.000000
79.954970 150.000000
79.960690 50.000000
80.965160 20.000000
82.959640 20.000000
84.139460 18.000000
85.024050 54.000000
85.028400 139.000000
89.021620 36.000000
89.027520 32.000000
90.025540 24.000000
91.029240 39.000000
95.951390 2285.000000
96.959080 7252.000000
97.947270 19.000000
97.954150 19.000000
97.962230 38.000000
98.952900 240.000000
98.960560 86.000000
101.225370 18.000000
102.027020 21.000000
111.924560 37.000000
117.015470 20.000000
117.998890 19.000000
119.027090 30.000000
120.040790 23.000000
124.012540 20.000000
125.604460 21.000000
127.914990 23.000000
127.922620 33.000000
128.923280 19.000000
128.929290 39.000000
129.915310 18.000000
138.965100 68.000000
138.978550 39.000000
139.967590 22.000000
145.049450 74.000000
145.054110 41.000000
154.944290 20.000000
161.019780 20.000000
161.977680 20.000000
162.041640 24.000000
163.062810 28.000000
187.640460 19.000000
188.247540 18.000000
189.955920 29.000000
192.986650 23.000000
195.022320 63.000000
195.032440 348.000000
196.034620 50.000000
197.031420 32.000000
197.041490 22.000000
198.985280 30.000000
198.994200 21.000000
199.922030 18.000000
207.990310 20.000000
219.086200 66.000000
219.100920 21.000000
221.605760 23.000000
225.742100 20.000000
227.008960 56.000000
227.020050 59.000000
229.512970 18.000000
234.096620 440.000000
234.585780 19.000000
235.090300 39.000000
235.106810 40.000000
235.726380 23.000000
236.086900 18.000000
239.639450 18.000000
241.002550 251.000000
242.003710 19.000000
242.641080 23.000000
245.305770 23.000000
248.560590 22.000000
253.070010 19.000000
255.043440 20.000000
256.065060 20.000000
258.999300 87.000000
259.013700 521.000000
259.032680 21.000000
260.012760 96.000000
260.025270 19.000000
271.244870 27.000000
272.968480 21.000000
274.993590 318.000000
275.988250 23.000000
275.998900 43.000000
276.990940 95.000000
280.070010 41.000000
282.069310 28.000000
283.043150 43.000000
283.057400 109.000000
285.048100 18.000000
290.989870 20.000000
291.992490 18.000000
298.092620 20.000000
310.204960 36.000000
314.236850 27.000000
314.699980 18.000000
316.059050 20.000000
322.641780 18.000000
323.002140 28.000000
344.312350 20.000000
371.158660 20.000000
372.592440 26.000000
382.527680 18.000000
394.019410 27.000000
397.152100 21.000000
404.212830 19.000000
417.499730 18.000000
444.343020 19.000000
445.363430 39.000000
447.747410 22.000000
467.743070 30.000000
467.822910 19.000000
475.910800 18.000000
475.974760 19.000000
476.106200 20570.000000
476.167910 159.000000
476.215090 18.000000

