>compound PR44987258
>parentmass 497.1917
>ionization [M-H]-
>formula C26H30N2O8
>rt 334.800000
>profile qtof
#smiles_iso C=CC1C2CC3C4=C(CCN3C(=O)C2=COC1OC5C(C(C(C(O5)CO)O)O)O)C6=CC=CC=C6N4
#smiles_can C=CC1C2CC3C4=C(CCN3C(=O)C2=COC1OC5C(C(C(C(O5)CO)O)O)O)C6=CC=CC=C6N4
#inchikey LBRPLJCNRZUXLS-UHFFFAOYSA-N
#pubchem_id 5015264
#mb_accession PR309371

>ms2
71.013000 37.000000
74.133450 16.000000
89.024170 152.000000
94.030280 44.000000
101.023620 187.000000
113.022610 16.000000
113.027400 22.000000
118.992720 22.000000
119.033520 102.000000
120.038000 20.000000
122.009790 16.000000
122.023410 17.000000
143.033310 71.000000
161.042510 16.000000
165.590670 33.000000
169.075710 493.000000
170.077800 25.000000
174.051790 96.000000
174.060230 23.000000
175.062240 18.000000
179.052030 130.000000
183.089200 36.000000
183.100330 18.000000
206.074250 17.000000
221.100220 17.000000
222.094390 20.000000
231.524220 16.000000
235.075910 16.000000
235.083880 44.000000
235.094330 20.000000
237.098980 16.000000
248.057270 17.000000
248.512300 32.000000
263.077240 38.000000
263.126040 20.000000
265.095760 2548.000000
266.094600 395.000000
266.106720 190.000000
267.099430 50.000000
267.114260 18.000000
275.118560 17.000000
276.118230 16.000000
285.091060 22.000000
289.129760 25.000000
289.141450 16.000000
299.115420 21.000000
307.087400 18.000000
307.110960 18.000000
315.141600 16.000000
317.128660 1228.000000
318.122560 166.000000
318.133610 191.000000
319.132290 16.000000
320.150670 16.000000
331.150600 17.000000
335.131230 89.000000
335.144290 108.000000
336.130890 28.000000
336.149110 53.000000
337.131230 24.000000
347.100190 20.000000
377.142330 18.000000
383.504390 16.000000
407.156710 21.000000
427.140530 19.000000
438.140960 22.000000
496.871190 16.000000
497.191070 2457.000000

