>compound PR44351990
>parentmass 136.9729
>ionization [M-H]-
>formula C3H6O2S2
>rt 117.000000
>profile qtof
#smiles_iso C1C(CS(=O)S1)O
#smiles_can C1C(CS(=O)S1)O
#inchikey MVXFWIGJTYCCIF-UHFFFAOYSA-N
#pubchem_id 12302099
#mb_accession PR308952

>ms2peaks
95.931940 20.000000
136.038710 17.000000
136.972150 156.000000

