>compound PR44526793
>parentmass 265.1801
>ionization [M-H]-
>formula C16H26O3
>rt 483.000000
>profile qtof
#smiles_iso CCC=CCC1C(CCC1=O)CCCCCC(=O)O
#smiles_can CCC=CCC1C(CCC1=O)CCCCCC(=O)O
#inchikey WIJWBOWLVOOYFR-UHFFFAOYSA-N
#pubchem_id 54432406
#mb_accession PR309072

>ms2
96.957890 28.000000
123.078980 18.000000
155.106030 48.000000
183.107640 21.000000
190.127400 18.000000
209.062850 30.000000
225.049640 22.000000
247.172970 42.000000
248.177860 18.000000
265.177890 99.000000

