>compound PR45924599
>parentmass 819.235
>ionization [M-H]-
>formula C38H44O20
>rt 363.000000
>profile qtof
#smiles_iso CC(=O)OCC1C(C(C(C(O1)OC2(C(C(C(O2)COC(=O)C=CC3=CC(=C(C=C3)O)OC)O)OC(=O)C=CC4=CC(=C(C=C4)O)OC)CO)OC(=O)C)O)OC(=O)C
#smiles_can CC(=O)OCC1C(C(C(C(O1)OC2(C(C(C(O2)COC(=O)C=CC3=CC(=C(C=C3)O)OC)O)OC(=O)C=CC4=CC(=C(C=C4)O)OC)CO)OC(=O)C)O)OC(=O)C
#inchikey VIYLZUDAAGEJSD-UHFFFAOYSA-N
#pubchem_id 73157807
#mb_accession PR309334

>ms2peaks
149.051860 16.000000
149.058850 57.000000
160.027160 21.000000
161.021160 47.000000
175.039470 334.000000
189.061610 23.000000
193.051590 17.000000
217.050220 17.000000
245.050250 18.000000
247.057770 20.000000
272.050930 17.000000
320.101290 18.000000
339.106020 29.000000
420.344210 20.000000
460.722600 19.000000
463.118440 23.000000
513.123410 16.000000
520.527590 18.000000
523.151180 18.000000
541.155640 34.000000
559.138850 16.000000
559.153690 20.000000
583.174010 16.000000
601.173520 32.000000
602.309140 23.000000
622.994870 19.000000
718.215880 17.000000
759.165590 23.000000
759.212280 55.000000
777.214230 34.000000
777.248170 16.000000
778.213620 17.000000
780.232120 17.000000
819.233640 887.000000
819.317570 20.000000

