>compound PR46997445
>parentmass 331.0448
>ionization [M-H]-
>formula C16H12O8
>rt 322.200000
>profile qtof
#smiles_iso COC1=CC(=CC(=C1O)O)C2=C(C(=O)C3=C(C=C(C=C3O2)O)O)O
#smiles_can COC1=CC(=CC(=C1O)O)C2=C(C(=O)C3=C(C=C(C=C3O2)O)O)O
#inchikey CFYMYCCYMJIYAB-UHFFFAOYSA-N
#pubchem_id 5282154
#mb_accession PR309224

>ms2
100.113250 20.000000
107.010250 27.000000
107.013790 80.000000
119.050640 35.000000
125.021510 20.000000
131.027310 19.000000
133.026920 24.000000
141.016540 21.000000
149.994140 21.000000
151.002640 333.000000
151.037520 34.000000
152.008190 66.000000
173.023210 18.000000
178.990810 27.000000
178.996490 66.000000
179.004940 42.000000
179.038180 31.000000
179.997130 18.000000
180.003270 30.000000
188.038820 20.000000
188.050890 25.000000
189.016480 18.000000
200.056880 38.000000
203.023470 25.000000
203.040270 62.000000
216.042400 39.000000
226.035860 19.000000
231.033620 33.000000
244.038470 18.000000
245.007840 25.000000
246.021010 21.000000
252.098600 20.000000
258.015320 47.000000
259.029050 48.000000
270.017430 40.000000
271.022830 46.000000
271.034940 25.000000
287.011780 60.000000
300.030940 18.000000
315.013700 18.000000
316.001860 70.000000
316.020630 216.000000
316.038510 27.000000
316.781950 21.000000
317.018130 44.000000
318.037410 22.000000
329.027680 85.000000
330.031830 157.000000
331.044890 1208.000000

