>compound PR46084541
>parentmass 432.1137
>ionization [M+HCOO]-
>formula C16H21NO10
>rt 245.400000
>profile qtof
#smiles_iso COC1=CC2=C(C=C1)N(C(=O)C(O2)OC3C(C(C(C(O3)CO)O)O)O)OC
#smiles_can COC1=CC2=C(C=C1)N(C(=O)C(O2)OC3C(C(C(C(O3)CO)O)O)O)OC
#inchikey UOASSFRPBORTCT-UHFFFAOYSA-N
#pubchem_id 25201130
#mb_accession PR309387

>ms2
72.996190 22.000000
103.570640 18.000000
138.051910 25.000000
139.055740 19.000000
143.035100 21.000000
148.034230 23.000000
149.010940 158.000000
149.095870 19.000000
164.035610 114.000000
176.034180 16.000000
192.027330 21.000000
192.035480 37.000000
192.071030 25.000000
193.031680 16.000000
194.034790 16.000000
194.041900 26.000000
194.051560 17.000000
224.054180 34.000000
234.043730 19.000000
301.896670 20.000000
322.039730 22.000000
322.062230 33.000000
356.089780 80.000000
356.108670 38.000000
401.098970 21.000000
403.116880 16.000000
417.648410 16.000000
424.651860 16.000000
432.113560 1156.000000
432.147190 16.000000

