>compound PR46479801
>parentmass 861.4139
>ionization [M-H]-
>formula C41H66O19
>rt 396.600000
>profile qtof
#smiles_iso CC1C(C(C(C(O1)OC2C(OC(C(C2O)O)OC(C)(CCC=C(C)CCC=C(C)CCC=C(C)COC3C(C(C(C(O3)COC(=O)CC(=O)O)O)O)O)C=C)CO)O)O)O
#smiles_can CC1C(C(C(C(O1)OC2C(OC(C(C2O)O)OC(C)(CCC=C(C)CCC=C(C)CCC=C(C)COC3C(C(C(C(O3)COC(=O)CC(=O)O)O)O)O)C=C)CO)O)O)O
#inchikey KRFDPNKVOGWOGC-UHFFFAOYSA-N
#pubchem_id 78052371
#mb_accession PR309138

>ms2peaks
89.020250 18.000000
113.021550 20.000000
145.050630 21.000000
146.316510 20.000000
161.034500 22.000000
315.156650 22.000000
371.239200 16.000000
509.312770 16.000000
611.327030 19.000000
611.361210 42.000000
612.338810 18.000000
629.336670 37.000000
629.395140 20.000000
674.060730 17.000000
698.362120 16.000000
757.405700 55.000000
757.442810 22.000000
758.421080 16.000000
775.400940 129.000000
776.429080 48.000000
817.423030 408.000000
817.443970 105.000000
818.412780 123.000000
818.440310 212.000000
819.420290 34.000000
820.429810 25.000000
861.409360 511.000000

