>compound PR46561223
>parentmass 337.1078
>ionization [M-H]-
>formula C20H18O5
>rt 408.000000
>profile qtof
#smiles_iso CC(=CCC1=C(C2=C(C=C1O)OC=C(C2=O)C3=CC=C(C=C3)O)O)C
#smiles_can CC(=CCC1=C(C2=C(C=C1O)OC=C(C2=O)C3=CC=C(C=C3)O)O)C
#inchikey KIMDVVKVNNSHGZ-UHFFFAOYSA-N
#pubchem_id 5281814
#mb_accession PR309032

>ms2peaks
115.856690 21.000000
133.025050 58.000000
133.031280 77.000000
134.033860 20.000000
148.022570 22.000000
157.067440 37.000000
159.077850 25.000000
177.093960 25.000000
219.067810 25.000000
220.059080 19.000000
249.055240 20.000000
249.101230 21.000000
266.056180 22.000000
281.037350 24.000000
282.052890 22.000000
282.156160 20.000000
307.098180 18.000000
309.126400 20.000000
312.130520 22.000000
316.531310 35.000000
322.087460 20.000000
337.108640 840.000000
337.149780 30.000000

