>compound PR46483829
>parentmass 493.2293
>ionization [M+HCOO]-
>formula C21H36O10
>rt 321.600000
>profile qtof
#smiles_iso CC(=CCCC(=CCOC1C(C(C(C(O1)COC2C(C(C(CO2)O)O)O)O)O)O)C)C
#smiles_can CC(=CCCC(=CCOC1C(C(C(C(O1)COC2C(C(C(CO2)O)O)O)O)O)O)C)C
#inchikey IEGFOTASSBZIBZ-UHFFFAOYSA-N
#pubchem_id 73717656
#mb_accession PR308951

>ms2peaks
89.023510 21.000000
121.029750 17.000000
125.023700 17.000000
447.218140 180.000000
448.225620 33.000000
449.232090 16.000000
493.233030 17.000000
493.284610 33.000000

