>compound PR46977304
>parentmass 299.0558
>ionization [M-H]-
>formula C16H12O6
>rt 406.800000
>profile qtof
#smiles_iso COC1=C(C=C(C=C1)C2=CC(=O)C3=C(C=C(C=C3O2)O)O)O
#smiles_can COC1=C(C=C(C=C1)C2=CC(=O)C3=C(C=C(C=C3O2)O)O)O
#inchikey MBNGWHIJMBWFHU-UHFFFAOYSA-N
#pubchem_id 5281612
#mb_accession PR309270

>ms2
120.017820 19.000000
151.004760 23.000000
158.041170 45.000000
172.050550 31.000000
182.042760 20.000000
189.014720 20.000000
193.043260 33.000000
199.039720 34.000000
211.034770 19.000000
239.032380 50.000000
255.027150 19.000000
256.023350 18.000000
256.038700 20.000000
283.029020 38.000000
284.032900 266.000000
285.028290 42.000000
286.029480 19.000000
286.046970 39.000000
299.054440 868.000000

