>compound PR47965135
>parentmass 249.12325
>ionization [M-H]-
>formula C13H18N2O3
>rt 139.500000
>profile qtof
#smiles_iso C1=CC(=C(C=C1C=CC(=O)NCCCCN)O)O
#smiles_can C1=CC(=C(C=C1C=CC(=O)NCCCCN)O)O
#inchikey KTZNZCYTXQYEHT-UHFFFAOYSA-N
#pubchem_id 439877
#mb_accession PR309373,PR309374

>ms2
134.035640 16.000000
135.040920 17.000000
207.115680 16.000000
249.122960 163.000000

>ms2
135.044170 240.000000
135.084760 20.000000
136.044940 35.000000
136.051380 35.000000
161.063570 30.000000
175.031020 21.000000
207.104020 16.000000
249.123630 638.000000

