>compound PR47226684
>parentmass 593.15119
>ionization [M-H]-
>formula C27H30O15
>rt 220.200000
>profile qtof
#smiles_iso CC1C(C(C(C(O1)OC2=CC(=C3C(=C2)OC(=C(C3=O)OC4C(C(C(C(O4)C)O)O)O)C5=CC(=C(C=C5)O)O)O)O)O)O
#smiles_can CC1C(C(C(C(O1)OC2=CC(=C3C(=C2)OC(=C(C3=O)OC4C(C(C(C(O4)C)O)O)O)C5=CC(=C(C=C5)O)O)O)O)O)O
#inchikey GXLQUHPXGLZNGE-UHFFFAOYSA-N
#pubchem_id 14351556
#mb_accession PR309244

>ms2peaks
147.008450 24.000000
150.999440 33.000000
151.570970 35.000000
154.464660 19.000000
156.213410 21.000000
167.052200 25.000000
169.071410 23.000000
171.209520 18.000000
174.029820 18.000000
178.994930 27.000000
180.008290 19.000000
192.997960 18.000000
211.837540 29.000000
211.952030 30.000000
215.033520 24.000000
224.051680 19.000000
240.037660 22.000000
254.016540 24.000000
255.030010 47.000000
256.030060 20.000000
269.042140 20.000000
271.021450 56.000000
272.028470 36.000000
273.040470 41.000000
282.126400 24.000000
283.026920 577.000000
284.013180 40.000000
284.033750 219.000000
285.036530 822.000000
286.037870 58.000000
286.058720 22.000000
287.056400 18.000000
288.049650 18.000000
289.057980 20.000000
290.789460 20.000000
299.018650 718.000000
299.045680 21.000000
299.070250 22.000000
300.019960 214.000000
300.030880 118.000000
300.990230 22.000000
301.035130 1175.000000
302.034090 312.000000
302.055180 69.000000
303.030820 22.000000
303.046660 47.000000
304.050170 21.000000
308.478970 20.000000
308.603060 19.000000
311.874450 23.000000
318.222410 21.000000
327.060550 28.000000
342.757050 32.000000
343.461910 18.000000
344.286250 21.000000
393.298860 21.000000
397.260800 19.000000
420.800230 28.000000
421.095920 19.000000
430.071900 56.000000
430.091370 256.000000
431.095430 340.000000
432.105710 194.000000
433.106900 20.000000
445.086150 20.000000
446.061000 37.000000
446.092100 444.000000
446.836210 18.000000
447.091310 1376.000000
448.096620 469.000000
448.171880 21.000000
449.102630 77.000000
491.305020 18.000000
510.278840 25.000000
528.560000 22.000000
592.124630 57.000000

