>compound PR47296543
>parentmass 295.2274
>ionization [M-H]-
>formula C18H32O3
>rt 587.400000
>profile qtof
#smiles_iso CCCCCC=CC=CC(CCCCCCCC(=O)O)O
#smiles_can CCCCCC=CC=CC(CCCCCCCC(=O)O)O
#inchikey NPDSHTNEKLQQIJ-UHFFFAOYSA-N
#pubchem_id 1927
#mb_accession PR309090

>ms2
81.031760 22.000000
121.092570 16.000000
123.120570 16.000000
127.111800 17.000000
132.891140 33.000000
151.121600 18.000000
171.101810 583.000000
172.102650 17.000000
173.109250 19.000000
185.123430 20.000000
186.122600 17.000000
189.897770 20.000000
195.142900 32.000000
215.192580 16.000000
233.227520 25.000000
246.284390 16.000000
277.217160 975.000000
278.204590 24.000000
278.212190 42.000000
278.223880 71.000000
279.220150 16.000000
283.640930 20.000000
293.195040 17.000000
295.228060 3161.000000

