>compound PR47888277
>parentmass 531.28105
>ionization [M+HCOO]-
>formula C25H42O9
>rt 503.400000
>profile qtof
#smiles_iso CCC=CCC=CCC=CCCCCCC(=O)OC(CO)COC1C(C(C(C(O1)CO)O)O)O
#smiles_can CCC=CCC=CCC=CCCCCCC(=O)OC(CO)COC1C(C(C(C(O1)CO)O)O)O
#inchikey LJVATEUJGAWSPM-UHFFFAOYSA-N
#pubchem_id 145994451
#mb_accession PR309153,PR309156

>ms2peaks
89.022320 25.000000
143.034260 18.000000
179.055970 44.000000
235.090010 18.000000
237.090520 20.000000
249.185440 580.000000
250.176360 52.000000
250.190670 78.000000
250.200040 22.000000
251.180570 18.000000
253.085250 20.000000
253.099060 20.000000
384.479680 19.000000
485.252620 22.000000
485.276250 154.000000
486.282530 42.000000
531.278020 147.000000
531.294800 47.000000

>ms2peaks
59.013000 20.000000
89.025290 21.000000
101.027210 18.000000
103.031160 18.000000
115.040740 21.000000
157.050570 20.000000
207.205570 18.000000
235.084960 70.000000
247.176470 20.000000
249.136730 20.000000
249.154330 20.000000
249.184950 1508.000000
250.185230 483.000000
250.213900 40.000000
251.193600 20.000000
251.203830 24.000000
253.094470 254.000000
253.213360 18.000000
254.091000 39.000000
255.103450 28.000000
410.885860 22.000000
485.276820 153.000000
485.305330 44.000000
486.262270 77.000000
486.283750 70.000000
487.288090 25.000000
487.307370 48.000000
488.270660 18.000000
531.275510 89.000000
531.308470 19.000000

