>compound PR47529925
>parentmass 433.1115
>ionization [M-H]-
>formula C21H22O10
>rt 213.600000
>profile qtof
#smiles_iso C1C(C(=O)C2=C(O1)C=C(C=C2)O)C3=CC(=C(C=C3)O)OC4C(C(C(C(O4)CO)O)O)O
#smiles_can C1C(C(=O)C2=C(O1)C=C(C=C2)O)C3=CC(=C(C=C3)O)OC4C(C(C(C(O4)CO)O)O)O
#inchikey SHXLURBSILXFRW-UHFFFAOYSA-N
#pubchem_id 139292064
#mb_accession PR309191

>ms2
89.032780 20.000000
109.026890 19.000000
109.033740 32.000000
116.161840 25.000000
117.031920 65.000000
117.039860 23.000000
119.049980 29.000000
121.025480 20.000000
131.027710 22.000000
133.029820 24.000000
135.006680 226.000000
136.011220 53.000000
136.020830 46.000000
137.024440 151.000000
147.040390 18.000000
149.023410 26.000000
149.998290 22.000000
161.017940 26.000000
164.010850 22.000000
165.019420 172.000000
166.005450 22.000000
166.017520 43.000000
166.026580 23.000000
167.027050 24.000000
167.036220 22.000000
169.067550 35.000000
179.049360 25.000000
183.043170 20.000000
191.032550 19.000000
191.040040 30.000000
197.057620 35.000000
199.065340 19.000000
207.037280 20.000000
208.047640 18.000000
208.055730 26.000000
211.037480 19.000000
211.058260 24.000000
219.033260 20.000000
221.038570 19.000000
225.050770 47.000000
226.024370 43.000000
226.060790 20.000000
238.032620 27.000000
243.050140 19.000000
243.065800 226.000000
244.069550 64.000000
246.066880 36.000000
251.063160 22.000000
253.049390 2260.000000
254.054000 409.000000
255.054410 61.000000
271.062410 171.000000
272.067630 51.000000
288.157500 20.000000
327.063390 144.000000
327.079590 59.000000
368.270450 19.000000
385.841430 25.000000
406.486570 24.000000
430.192960 19.000000
433.111600 5077.000000

