>compound PR47257790
>parentmass 250.0713
>ionization [M-H]-
>formula C12H13NO5
>rt 223.200000
>profile qtof
#smiles_iso C1=CC=C(C=C1)CC(=O)NC(CC(=O)O)C(=O)O
#smiles_can C1=CC=C(C=C1)CC(=O)NC(CC(=O)O)C(=O)O
#inchikey SVFKZPQPMMZHLZ-UHFFFAOYSA-N
#pubchem_id 562665
#mb_accession PR309404

>ms2peaks
88.039740 72.000000
132.031430 291.000000
133.032150 21.000000
250.071140 67.000000

