>compound PR48141260
>parentmass 564.3285000000001
>ionization [M+HCOO]-
>formula C26H50NO7P
>rt 556.800000
>profile qtof
#smiles_iso CCCCCC=CCC=CCCCCCCCC(=O)OCC(COP(=O)([O-])OCC[N+](C)(C)C)O
#smiles_can CCCCCC=CCC=CCCCCCCCC(=O)OCC(COP(=O)([O-])OCC[N+](C)(C)C)O
#inchikey SPJFYYJXNPEZDW-UHFFFAOYSA-N
#pubchem_id 25200694
#mb_accession PR309158,PR309159

>ms2peaks
242.075680 37.000000
279.235840 295.000000
280.232030 79.000000
281.235500 20.000000
504.282440 16.000000
504.311950 34.000000
505.300480 58.000000
505.336490 22.000000
564.306640 33.000000
564.329100 60.000000

>ms2peaks
279.234950 200.000000
280.227260 19.000000
504.296260 55.000000
504.321930 17.000000
564.314090 16.000000
564.328860 17.000000

