>compound PR48768640
>parentmass 353.1389
>ionization [M-H]-
>formula C21H22O5
>rt 440.400000
>profile qtof
#smiles_iso CC(=CCC1=C(C=CC(=C1)C(=O)C=CC2=C(C(=C(C=C2)O)O)OC)O)C
#smiles_can CC(=CCC1=C(C=CC(=C1)C(=O)C=CC2=C(C(=C(C=C2)O)O)OC)O)C
#inchikey RETRVWFVEFCGOK-UHFFFAOYSA-N
#pubchem_id 85152852
#mb_accession PR309048

>ms2
105.032420 26.000000
121.034260 28.000000
122.034400 21.000000
125.016610 18.000000
137.017620 23.000000
148.017470 37.000000
150.029910 1053.000000
150.062360 20.000000
151.033720 129.000000
160.080800 20.000000
161.097780 59.000000
176.011260 59.000000
177.011520 23.000000
177.017840 33.000000
177.026460 18.000000
188.078700 21.000000
188.089550 66.000000
191.035400 47.000000
210.068280 20.000000
212.087490 20.000000
212.095050 20.000000
256.342900 20.000000
269.044160 22.000000
295.049350 18.000000
295.065490 18.000000
301.147740 20.000000
321.116240 18.000000
322.109470 20.000000
323.091430 20.000000
338.112730 158.000000
339.117070 50.000000
339.128140 37.000000
340.109590 19.000000
352.158170 18.000000
353.104190 27.000000
353.141020 1273.000000
353.187990 20.000000

