>compound PR49389121
>parentmass 309.1088
>ionization [M-H]-
>formula C14H18N2O6
>rt 141.600000
>profile qtof
#smiles_iso C1=CC(=CC=C1CC(C(=O)O)NC(=O)CCC(C(=O)O)N)O
#smiles_can C1=CC(=CC=C1CC(C(=O)O)NC(=O)CCC(C(=O)O)N)O
#inchikey VVLXCWVSSLFQDS-UHFFFAOYSA-N
#pubchem_id 5056755
#mb_accession PR309407

>ms2peaks
70.033040 18.000000
74.026420 18.000000
81.043350 42.000000
93.034020 20.000000
96.756430 21.000000
96.991740 33.000000
97.041180 21.000000
99.051810 29.000000
109.039710 64.000000
109.048040 21.000000
113.037280 31.000000
119.050820 64.000000
123.057700 42.000000
127.049950 184.000000
128.034240 2651.000000
129.039540 129.000000
133.052310 23.000000
141.070080 63.000000
160.210080 21.000000
163.032380 28.000000
163.043010 136.000000
164.036850 19.000000
167.045810 141.000000
168.043720 18.000000
168.051650 50.000000
178.086410 22.000000
180.065900 547.000000
181.069180 112.000000
182.066420 63.000000
184.042820 21.000000
185.063510 20.000000
203.109070 18.000000
227.537020 20.000000
247.114180 18.000000
273.087430 37.000000
291.097600 438.000000
291.964230 18.000000
293.116940 28.000000
309.106510 375.000000

