>compound PR50989975
>parentmass 415.102
>ionization [M-H]-
>formula C21H20O9
>rt 293.400000
>profile qtof
#smiles_iso C1=CC=C2C(=C1)C(=O)C3=C(C2=O)C=C(C(=C3)CO)OC4C(C(C(C(O4)CO)O)O)O
#smiles_can C1=CC=C2C(=C1)C(=O)C3=C(C2=O)C=C(C(=C3)CO)OC4C(C(C(C(O4)CO)O)O)O
#inchikey BSYSQCIGSQBEKF-UHFFFAOYSA-N
#pubchem_id 139291799
#mb_accession PR309396

>ms2peaks
59.012240 117.000000
71.009900 41.000000
71.014630 20.000000
83.014520 21.000000
87.012490 17.000000
89.011030 16.000000
89.020560 247.000000
89.026420 92.000000
90.022740 23.000000
101.021800 242.000000
102.026140 17.000000
106.319790 18.000000
107.379060 19.000000
113.022150 100.000000
114.026650 23.000000
114.776290 16.000000
115.026790 16.000000
119.033420 200.000000
120.036360 16.000000
143.030110 79.000000
144.038710 17.000000
149.034880 17.000000
149.040500 18.000000
151.057890 21.000000
161.045640 33.000000
179.058120 42.000000
193.892580 23.000000
208.046940 16.000000
223.038560 119.000000
224.037660 16.000000
224.049710 16.000000
236.049930 37.000000
237.049880 119.000000
237.059020 141.000000
238.059100 154.000000
240.064420 22.000000
249.054860 40.000000
250.052410 16.000000
251.035170 56.000000
252.035980 57.000000
253.047530 722.000000
253.069890 18.000000
254.053570 120.000000
261.574680 28.000000
279.054570 16.000000
289.046660 20.000000
295.057950 23.000000
296.066130 17.000000
302.775420 17.000000
307.053250 32.000000
319.056610 22.000000
325.073970 16.000000
355.069270 26.000000
356.081760 18.000000
381.054780 43.000000

