>compound PR50311782
>parentmass 409.0442
>ionization [M-H]-
>formula C14H18O12S
>rt 138.000000
>profile qtof
#smiles_iso COC1=C(C=CC(=C1)C(=O)O)OC2C(C(C(C(O2)COS(=O)(=O)O)O)O)O
#smiles_can COC1=C(C=CC(=C1)C(=O)O)OC2C(C(C(C(O2)COS(=O)(=O)O)O)O)O
#inchikey YHVRMRPNSSPKAB-UHFFFAOYSA-N
#pubchem_id 73830851
#mb_accession PR308959

>ms2peaks
80.966510 20.000000
96.957060 110.000000
96.967320 21.000000
98.950560 18.000000
113.022400 24.000000
138.967640 22.000000
138.980560 21.000000
150.969470 27.000000
171.936110 18.000000
241.001660 165.000000
241.999020 18.000000
242.991210 23.000000
409.041530 443.000000

