>compound PR50128385
>parentmass 392.1125
>ionization [M-H]-
>formula C14H23N3O8S
>rt 142.200000
>profile qtof
#smiles_iso CC(CSCC(C(=O)NCC(=O)O)NC(=O)CCC(C(=O)O)N)C(=O)O
#smiles_can CC(CSCC(C(=O)NCC(=O)O)NC(=O)CCC(C(=O)O)N)C(=O)O
#inchikey JQWABENXVMJJMW-UHFFFAOYSA-N
#pubchem_id 20140672
#mb_accession PR309068

>ms2
99.057190 25.000000
112.031940 18.000000
118.310780 18.000000
127.046100 16.000000
128.031520 16.000000
128.040540 57.000000
129.038350 20.000000
143.044480 80.000000
144.039990 18.000000
145.058690 19.000000
146.042400 33.000000
160.007280 24.000000
167.044070 16.000000
170.034930 18.000000
177.037080 23.000000
179.042710 68.000000
184.106140 16.000000
210.094920 17.000000
254.077180 127.000000
272.091160 119.000000
273.087070 17.000000
275.105130 16.000000
288.062740 16.000000
306.074430 41.000000
306.091740 18.000000
374.112920 16.000000
392.109440 321.000000

