>compound PR51346207
>parentmass 675.3589
>ionization [M-H]-
>formula C33H56O14
>rt 525.000000
>profile qtof
#smiles_iso CCC=CCC=CCC=CCCCCCCCC(=O)OCC(COC1C(C(C(C(O1)COC2C(C(C(C(O2)CO)O)O)O)O)O)O)O
#smiles_can CCC=CCC=CCC=CCCCCCCCC(=O)OCC(COC1C(C(C(C(O1)COC2C(C(C(C(O2)CO)O)O)O)O)O)O)O
#inchikey MPSGDHOYFIUPSO-UHFFFAOYSA-N
#pubchem_id 73034882
#mb_accession PR309173

>ms2peaks
85.032180 18.000000
101.021610 27.000000
111.006540 25.000000
185.040470 20.000000
186.039570 24.000000
199.054280 19.000000
217.064040 20.000000
235.091130 21.000000
236.086320 23.000000
245.057710 18.000000
253.091510 23.000000
277.202150 20.000000
277.228330 65.000000
279.229800 20.000000
320.232330 19.000000
348.233950 19.000000
397.133090 340.000000
398.130190 39.000000
398.147250 23.000000
398.168820 30.000000
415.144320 68.000000
416.163150 27.000000
675.363040 128.000000

