>compound PR51331923
>parentmass 293.2116
>ionization [M-H]-
>formula C18H30O3
>rt 546.000000
>profile qtof
#smiles_iso CCC=CCC=CC=CC(CCCCCCCC(=O)O)O
#smiles_can CCC=CCC=CC=CC(CCCCCCCC(=O)O)O
#inchikey RIGGEAZDTKMXSI-UHFFFAOYSA-N
#pubchem_id 53394275
#mb_accession PR309079

>ms2
121.106660 105.000000
149.099610 19.000000
152.935730 20.000000
171.090700 21.000000
171.106990 19.000000
172.104900 20.000000
183.136170 104.000000
184.140470 42.000000
185.139560 21.000000
196.147830 33.000000
211.130170 38.000000
231.214970 26.000000
232.211380 41.000000
235.169530 84.000000
235.188570 18.000000
236.161640 18.000000
236.174260 18.000000
236.182190 18.000000
247.198640 26.000000
257.197750 20.000000
269.873780 18.000000
275.198850 309.000000
275.215610 44.000000
276.207670 42.000000
277.208470 48.000000
293.212070 775.000000

