>compound PR51333964
>parentmass 614.3283
>ionization [M-H]-
>formula C27H54NO12P
>rt 582.600000
>profile qtof
#smiles_iso CCCCCCCCCCCCCCCC(=O)OC[C@H](COP(=O)(O)OCCNC1C(C(C(C(O1)CO)O)O)O)O
#smiles_can CCCCCCCCCCCCCCCC(=O)OCC(COP(=O)(O)OCCNC1C(C(C(C(O1)CO)O)O)O)O
#inchikey UISOORRILGPHLE-OEYVFKEPSA-N
#pubchem_id 139292086
#mb_accession PR309167

>ms2peaks
152.999400 16.000000
238.045550 20.000000
255.214660 19.000000
255.232160 301.000000
256.193760 16.000000
256.230830 67.000000
452.275420 153.000000
452.291380 79.000000
453.287660 17.000000
494.284270 17.000000
524.300840 22.000000
614.315670 239.000000
614.338260 551.000000

