>compound PR52531980
>parentmass 445.1148
>ionization [M-H]-
>formula C22H22O10
>rt 245.400000
>profile qtof
#smiles_iso COC1=C(C(=C2C(=C1)OC(=CC2=O)C3=CC=C(C=C3)O)O)C4C(C(C(C(O4)CO)O)O)O
#smiles_can COC1=C(C(=C2C(=C1)OC(=CC2=O)C3=CC=C(C=C3)O)O)C4C(C(C(C(O4)CO)O)O)O
#inchikey ABRULANJVVJLFI-UHFFFAOYSA-N
#pubchem_id 369636
#mb_accession PR309288

>ms2peaks
163.049060 16.000000
164.007690 16.000000
175.004620 16.000000
183.761370 24.000000
185.671750 22.000000
217.009460 16.000000
217.051570 16.000000
231.018880 16.000000
231.029740 20.000000
254.058000 16.000000
261.035830 18.000000
281.048190 16.000000
281.072020 22.000000
282.048070 39.000000
283.044770 20.000000
285.045840 16.000000
295.031040 25.000000
295.057800 28.000000
296.050630 16.000000
297.031280 66.000000
297.041530 231.000000
298.034880 29.000000
298.053470 18.000000
299.044560 18.000000
325.036220 21.000000
325.076780 17.000000
325.091000 36.000000
327.026150 17.000000
339.070560 16.000000
445.115140 990.000000

