>compound PR52664693
>parentmass 323.1274
>ionization [M-H]-
>formula C20H20O4
>rt 535.800000
>profile qtof
#smiles_iso CC(=CCC1=C(C=CC2=C1OC(CC2=O)C3=CC=C(C=C3)O)O)C
#smiles_can CC(=CCC1=C(C=CC2=C1OC(CC2=O)C3=CC=C(C=C3)O)O)C
#inchikey KYFBXCHUXFKMGQ-UHFFFAOYSA-N
#pubchem_id 11609510
#mb_accession PR309046

>ms2
119.048930 346.000000
119.060660 39.000000
120.052390 22.000000
130.071560 18.000000
136.052380 18.000000
146.032590 23.000000
148.018070 25.000000
156.056850 44.000000
157.066640 24.000000
159.076540 19.000000
188.049800 19.000000
201.056060 39.000000
203.068100 310.000000
203.081280 55.000000
204.069380 38.000000
217.091130 19.000000
226.048370 21.000000
323.127010 990.000000

