>compound PR53424996
>parentmass 957.5103
>ionization [M+HCOO]-
>formula C47H76O17
>rt 436.800000
>profile qtof
#smiles_iso CC1C(C(C(C(O1)OC2C(C(COC2OC3C(C(C(OC3OC4CCC5(C(C4(C)CO)CCC6(C5CC=C7C6(CCC8(C7CC(CC8O)(C)C)C)C)C)C)C(=O)O)O)O)O)O)O)O)O
#smiles_can CC1C(C(C(C(O1)OC2C(C(COC2OC3C(C(C(OC3OC4CCC5(C(C4(C)CO)CCC6(C5CC=C7C6(CCC8(C7CC(CC8O)(C)C)C)C)C)C)C(=O)O)O)O)O)O)O)O)O
#inchikey IBZLICPLPYSFNZ-UHFFFAOYSA-N
#pubchem_id 13326381
#mb_accession PR308919

>ms2
85.026510 18.000000
131.036040 25.000000
136.056060 24.000000
174.526120 22.000000
205.073610 18.000000
911.503970 1402.000000
912.304440 19.000000
912.500670 687.000000
913.470950 41.000000
913.518070 130.000000
914.515620 76.000000
914.540410 22.000000
914.585750 20.000000
957.501400 18.000000
957.526980 27.000000

