>compound PR54993978
>parentmass 433.1119
>ionization [M-H]-
>formula C21H22O10
>rt 182.400000
>profile qtof
#smiles_iso C1C(OC2=C(C(=CC(=C2C1=O)O)O)C3C(C(C(C(O3)CO)O)O)O)C4=CC=C(C=C4)O
#smiles_can C1C(OC2=C(C(=CC(=C2C1=O)O)O)C3C(C(C(C(O3)CO)O)O)O)C4=CC=C(C=C4)O
#inchikey VPQWOQSQAVBHEV-UHFFFAOYSA-N
#pubchem_id 23502663
#mb_accession PR309321

>ms2
87.055610 18.000000
109.039000 19.000000
122.035550 22.000000
123.048160 18.000000
136.010910 19.000000
136.018050 20.000000
169.091430 25.000000
176.006500 25.000000
177.637540 20.000000
179.029080 26.000000
193.044970 18.000000
194.053010 21.000000
241.086400 19.000000
285.078670 20.000000
286.073180 18.000000
313.065430 100.000000
315.090420 18.000000
343.073910 80.000000
405.589390 23.000000
433.092220 36.000000
433.105190 168.000000
433.148650 19.000000

