>compound PR54336074
>parentmass 309.2064
>ionization [M-H]-
>formula C18H30O4
>rt 406.200000
>profile qtof
#smiles_iso CCC=CCC=CC=CC(CCCCCCCC(=O)O)OO
#smiles_can CCC=CCC=CC=CC(CCCCCCCC(=O)O)OO
#inchikey RWKJTIHNYSIIHW-UHFFFAOYSA-N
#pubchem_id 25200982
#mb_accession PR309084

>ms2peaks
137.101850 33.000000
141.078960 16.000000
154.083190 19.000000
171.099530 71.000000
172.104220 44.000000
185.113560 21.000000
223.132000 17.000000
247.201970 17.000000
251.155880 41.000000
251.179240 17.000000
291.195040 74.000000
309.198640 133.000000
309.208100 94.000000

