>compound PR54988329
>parentmass 579.1354
>ionization [M-H]-
>formula C26H28O15
>rt 201.000000
>profile qtof
#smiles_iso C1C(C(C(C(O1)C2=C3C(=C(C(=C2O)C4C(C(C(C(O4)CO)O)O)O)O)C(=O)C=C(O3)C5=CC(=C(C=C5)O)O)O)O)O
#smiles_can C1C(C(C(C(O1)C2=C3C(=C(C(=C2O)C4C(C(C(C(O4)CO)O)O)O)O)C(=O)C=C(O3)C5=CC(=C(C=C5)O)O)O)O)O
#inchikey XBGYTZHKGMCEGE-UHFFFAOYSA-N
#pubchem_id 3542481
#mb_accession PR309302

>ms2peaks
133.027680 22.000000
138.922580 19.000000
149.025380 16.000000
163.038350 16.000000
174.022750 35.000000
175.001210 65.000000
177.055630 25.000000
191.029370 16.000000
201.095750 16.000000
205.051470 20.000000
221.059750 17.000000
246.047130 20.000000
265.078460 20.000000
271.025850 17.000000
274.058990 16.000000
284.071500 54.000000
299.046910 16.000000
299.061160 34.000000
307.730990 16.000000
310.035280 16.000000
311.041900 19.000000
312.067380 26.000000
313.028720 16.000000
313.068570 17.000000
313.518920 29.000000
323.059660 19.000000
325.073150 16.000000
327.055570 16.000000
328.052060 38.000000
339.041780 20.000000
341.049740 17.000000
341.066740 47.000000
354.075010 17.000000
358.059810 21.000000
367.038210 20.000000
369.057560 228.000000
369.073670 166.000000
370.060150 128.000000
371.067900 30.000000
372.074550 22.000000
372.710940 16.000000
381.040160 53.000000
381.077760 17.000000
385.047000 27.000000
394.054440 16.000000
399.070400 322.000000
400.076080 102.000000
400.098660 18.000000
401.080870 35.000000
409.044430 18.000000
411.075840 23.000000
412.032560 16.000000
412.087980 18.000000
417.079070 17.000000
429.062710 34.000000
429.080470 100.000000
431.091950 16.000000
436.068300 18.000000
441.071590 32.000000
441.110020 24.000000
444.120000 20.000000
445.062870 18.000000
454.097660 24.000000
459.087980 109.000000
460.094970 52.000000
460.972470 16.000000
461.094060 38.000000
462.287080 18.000000
472.108370 19.000000
473.119050 16.000000
475.078160 21.000000
476.086670 19.000000
487.099820 20.000000
489.106600 268.000000
490.081910 24.000000
490.108430 37.000000
490.128970 16.000000
490.147130 16.000000
496.096890 30.000000
507.065610 17.000000
519.124820 17.000000
520.114750 16.000000
520.128540 17.000000
550.124940 17.000000
550.154600 37.000000
563.060490 18.000000
577.147340 17.000000
578.136290 52.000000
579.140440 2386.000000

