>compound PR54110114
>parentmass 583.2044
>ionization [M+HCOO]-
>formula C26H34O12
>rt 204.000000
>profile qtof
#smiles_iso COC1=C(C=CC(=C1)C2C(C(CO2)C(C3=CC(=C(C=C3)O)OC)OC4C(C(C(C(O4)CO)O)O)O)CO)O
#smiles_can COC1=C(C=CC(=C1)C2C(C(CO2)C(C3=CC(=C(C=C3)O)OC)OC4C(C(C(C(O4)CO)O)O)O)CO)O
#inchikey WMABCPOXSNGIJO-UHFFFAOYSA-N
#pubchem_id 14681426
#mb_accession PR309176

>ms2peaks
165.065060 16.000000
179.065540 38.000000
195.064240 18.000000
196.063200 17.000000
327.107300 27.000000
327.134250 35.000000
328.116880 42.000000
375.144530 209.000000
376.146390 16.000000
537.213010 34.000000
583.203120 54.000000

