>compound PR55692267
>parentmass 677.1525
>ionization [M-H]-
>formula C34H30O15
>rt 317.400000
>profile qtof
#smiles_iso C1C(C(C(CC1(C(=O)O)O)OC(=O)C=CC2=CC(=C(C=C2)O)O)OC(=O)C=CC3=CC(=C(C=C3)O)O)OC(=O)C=CC4=CC(=C(C=C4)O)O
#smiles_can C1C(C(C(CC1(C(=O)O)O)OC(=O)C=CC2=CC(=C(C=C2)O)O)OC(=O)C=CC3=CC(=C(C=C3)O)O)OC(=O)C=CC4=CC(=C(C=C4)O)O
#inchikey OAFXTKGAKYAFSI-UHFFFAOYSA-N
#pubchem_id 73606072
#mb_accession PR309024

>ms2peaks
123.042880 32.000000
335.072660 20.000000
336.087740 18.000000
353.085720 124.000000
353.103060 17.000000
515.096620 21.000000
515.117430 35.000000
515.137080 45.000000
516.130190 26.000000
677.153020 178.000000

