>compound PR55784684
>parentmass 593.1502
>ionization [M-H]-
>formula C27H30O15
>rt 268.800000
>profile qtof
#smiles_iso CC1C(C(C(C(O1)OC2C(C(C(OC2C3=C(C4=C(C=C3O)OC(=CC4=O)C5=CC(=C(C=C5)O)O)O)CO)O)O)O)O)O
#smiles_can CC1C(C(C(C(O1)OC2C(C(C(OC2C3=C(C4=C(C=C3O)OC(=CC4=O)C5=CC(=C(C=C5)O)O)O)CO)O)O)O)O)O
#inchikey IUYFTHKQEWZTHY-UHFFFAOYSA-N
#pubchem_id 25202481
#mb_accession PR309293

>ms2peaks
89.174960 18.000000
90.026600 17.000000
145.048720 24.000000
148.990860 18.000000
192.037800 16.000000
253.055360 18.000000
262.571290 16.000000
284.032560 21.000000
285.025240 30.000000
285.044860 75.000000
286.039610 52.000000
286.047150 18.000000
297.037780 99.000000
298.043850 72.000000
309.026760 16.000000
309.049100 72.000000
311.054110 45.000000
311.097200 16.000000
312.048340 20.000000
313.025630 109.000000
313.036380 105.000000
314.045290 17.000000
316.306920 16.000000
323.056640 17.000000
324.026030 16.000000
326.046110 32.000000
327.049590 51.000000
328.053500 20.000000
337.018550 29.000000
337.027440 84.000000
337.040740 84.000000
337.090640 24.000000
338.027740 20.000000
339.044620 17.000000
339.056030 36.000000
340.060300 16.000000
342.717290 16.000000
344.078890 47.000000
351.052950 17.000000
357.066350 32.000000
364.055050 31.000000
367.044460 81.000000
382.028410 20.000000
383.057530 16.000000
383.086760 18.000000
384.072780 17.000000
385.059780 21.000000
385.073210 17.000000
393.056730 16.000000
393.068300 20.000000
410.763460 16.000000
411.033750 42.000000
411.051670 122.000000
411.073970 507.000000
412.066500 59.000000
412.084930 16.000000
412.101440 25.000000
413.079220 17.000000
429.083160 36.000000
453.066860 16.000000
473.113490 16.000000
473.198360 17.000000
474.092900 23.000000
474.122800 25.000000
474.228060 16.000000
531.126950 33.000000
549.197750 16.000000
566.566650 16.000000
573.115660 18.000000
575.106020 50.000000
575.136290 192.000000
576.129270 32.000000
576.153630 37.000000
592.154540 16.000000
593.152340 1249.000000

