>compound PR55249525
>parentmass 130.0868
>ionization [M-H]-
>formula C6H13NO2
>rt 219.600000
>profile qtof
#smiles_iso CCC(C)C(C(=O)O)N
#smiles_can CCC(C)C(C(=O)O)N
#inchikey AGPKZVBTJJNPAG-UHFFFAOYSA-N
#pubchem_id 791
#mb_accession PR309411

>ms2peaks
112.980950 25.000000
114.998800 20.000000
130.085160 20.000000

