>compound PR55649586
>parentmass 265.1823
>ionization [M-H]-
>formula C16H26O3
>rt 490.200000
>profile qtof
#smiles_iso CCCCCC=CCC(C=CC=CCCC(=O)O)O
#smiles_can CCCCCC=CCC(C=CC=CCCC(=O)O)O
#inchikey KBOVKDIBOBQLRS-UHFFFAOYSA-N
#pubchem_id 5423
#mb_accession PR309073

>ms2peaks
121.102660 20.000000
144.076740 24.000000
167.104490 21.000000
167.111180 23.000000
265.163060 20.000000
265.184080 98.000000

