>compound PR55033251
>parentmass 553.1122
>ionization [M-H]-
>formula C31H22O10
>rt 335.400000
>profile qtof
#smiles_iso COC1=CC(=C2C(=O)CC(OC2=C1)C3=CC(=C(C=C3)O)C4=C(C=C(C5=C4OC(=CC5=O)C6=CC=C(C=C6)O)O)O)O
#smiles_can COC1=CC(=C2C(=O)CC(OC2=C1)C3=CC(=C(C=C3)O)C4=C(C=C(C5=C4OC(=CC5=O)C6=CC=C(C=C6)O)O)O)O
#inchikey XMFILYNCNQOLOA-UHFFFAOYSA-N
#pubchem_id 46841213
#mb_accession PR309381

>ms2peaks
226.056930 21.000000
239.027070 20.000000
281.056370 18.000000
282.024510 20.000000
282.038850 20.000000
282.058720 20.000000
297.030580 130.000000
297.077060 24.000000
298.034150 20.000000
307.025600 59.000000
313.076320 20.000000
325.032990 20.000000
339.056340 47.000000
341.078830 18.000000
402.075780 22.000000
403.074430 25.000000
417.083560 39.000000
417.097750 35.000000
419.121580 27.000000
443.074740 23.000000
553.093690 18.000000
553.118040 142.000000

