>compound PR55613456
>parentmass 325.093
>ionization [M-H]-
>formula C15H18O8
>rt 198.600000
>profile qtof
#smiles_iso C1=CC(=CC=C1C=CC(=O)O)OC2C(C(C(C(O2)CO)O)O)O
#smiles_can C1=CC(=CC=C1C=CC(=O)O)OC2C(C(C(C(O2)CO)O)O)O
#inchikey LJFYQZQUAULRDF-UHFFFAOYSA-N
#pubchem_id 73208527
#mb_accession PR309359

>ms2
117.028150 24.000000
117.040370 110.000000
119.050160 20.000000
130.040270 18.000000
145.029070 418.000000
145.044430 18.000000
205.044830 23.000000
267.070400 23.000000
325.095550 103.000000

