>compound PR56879419
>parentmass 504.1349
>ionization [M-H]-
>formula C20H27NO14
>rt 146.400000
>profile qtof
#smiles_iso C1=CC=C2C(=C1)N(C(=O)C(O2)OC3C(C(C(C(O3)CO)OC4C(C(C(C(O4)CO)O)O)O)O)O)O
#smiles_can C1=CC=C2C(=C1)N(C(=O)C(O2)OC3C(C(C(C(O3)CO)OC4C(C(C(C(O4)CO)O)O)O)O)O)O
#inchikey XCAANHSYSCAIDI-UHFFFAOYSA-N
#pubchem_id 139292137
#mb_accession PR309388

>ms2
152.032150 20.000000
162.018710 84.000000
163.018720 17.000000
180.022220 32.000000
504.128750 110.000000
504.143830 46.000000

