>compound PR57215211
>parentmass 857.4506
>ionization [M+HCOO]-
>formula C42H68O15
>rt 419.400000
>profile qtof
#smiles_iso CC1(CCC2(CCC3(C(=CCC4C3(CCC5C4(CC(C(C5(C)CO)OC6C(C(C(C(O6)CO)OC7C(C(C(C(O7)CO)O)O)O)O)O)O)C)C)C2C1)C)C(=O)O)C
#smiles_can CC1(CCC2(CCC3(C(=CCC4C3(CCC5C4(CC(C(C5(C)CO)OC6C(C(C(C(O6)CO)OC7C(C(C(C(O7)CO)O)O)O)O)O)O)C)C)C2C1)C)C(=O)O)C
#inchikey GQPGGSOQFNPVJI-UHFFFAOYSA-N
#pubchem_id 4483255
#mb_accession PR308916

>ms2peaks
89.023240 20.000000
101.021770 20.000000
119.031870 19.000000
161.043180 46.000000
161.052540 25.000000
190.532730 22.000000
440.326510 27.000000
444.320430 25.000000
487.343320 260.000000
488.329560 24.000000
488.348910 40.000000
488.374570 23.000000
547.223630 25.000000
616.422970 29.000000
631.373900 64.000000
631.410160 20.000000
649.392760 171.000000
649.424620 26.000000
650.392270 86.000000
651.389040 23.000000
756.441220 18.000000
761.336060 18.000000
811.444890 3236.000000
812.447690 1580.000000
812.574580 18.000000
813.456480 186.000000
814.437810 85.000000
857.443050 359.000000
857.496770 33.000000

