>compound PR58387185
>parentmass 945.4696
>ionization [M+HCOO]-
>formula C45H72O18
>rt 336.600000
>profile qtof
#smiles_iso CC1CCC2(C(C3C(O2)CC4C3(C(CC5C4CC=C6C5(CCC(C6)OC7C(C(C(C(O7)CO)OC8C(C(C(C(O8)C)O)O)O)O)OC9C(C(C(C(O9)C)O)O)O)C)O)C)C)OC1O
#smiles_can CC1CCC2(C(C3C(O2)CC4C3(C(CC5C4CC=C6C5(CCC(C6)OC7C(C(C(C(O7)CO)OC8C(C(C(C(O8)C)O)O)O)O)OC9C(C(C(C(O9)C)O)O)O)C)O)C)C)OC1O
#inchikey MWTJVBOEJQIILT-UHFFFAOYSA-N
#pubchem_id 139291973
#mb_accession PR308980,PR308981

>ms2peaks
113.022990 31.000000
143.029020 20.000000
143.037120 25.000000
205.073580 21.000000
483.439240 21.000000
637.336730 18.000000
737.405940 21.000000
737.449950 20.000000
738.384890 20.000000
738.414730 27.000000
739.431950 22.000000
861.316960 18.000000
899.458500 328.000000
900.487300 18.000000
901.486760 18.000000
902.495540 18.000000
934.373410 18.000000
945.454590 18.000000
945.503050 57.000000

>ms2peaks
113.030380 29.000000
119.034680 36.000000
179.054170 40.000000
205.072910 18.000000
248.088520 23.000000
737.418700 18.000000
738.416930 58.000000
899.449520 83.000000
899.469480 260.000000
900.465030 79.000000
900.499080 84.000000
901.451050 20.000000
902.493040 57.000000
945.481750 222.000000

