>compound PR58134811
>parentmass 947.4114
>ionization [M-H]-
>formula C44H68O22
>rt 403.200000
>profile qtof
#smiles_iso CC1C(C(C(C(O1)OC2C(OC(C(C2O)O)OC(C)(CCC=C(C)CCC=C(C)CCC=C(C)COC3C(C(C(C(O3)COC(=O)CC(=O)O)O)O)O)C=C)COC(=O)CC(=O)O)O)O)O
#smiles_can CC1C(C(C(C(O1)OC2C(OC(C(C2O)O)OC(C)(CCC=C(C)CCC=C(C)CCC=C(C)COC3C(C(C(C(O3)COC(=O)CC(=O)O)O)O)O)C=C)COC(=O)CC(=O)O)O)O)O
#inchikey ZKXDFLSRCGZCSL-UHFFFAOYSA-N
#pubchem_id 78052368
#mb_accession PR309139

>ms2
101.022950 18.000000
101.263490 16.000000
113.018330 25.000000
113.024590 37.000000
123.007430 16.000000
142.028000 21.000000
146.054240 17.000000
151.047230 19.000000
161.040890 17.000000
163.063660 58.000000
167.040160 35.000000
290.093900 25.000000
307.103120 16.000000
441.301390 17.000000
449.307740 36.000000
493.146450 21.000000
515.312130 16.000000
521.622190 20.000000
539.965880 16.000000
593.304930 17.000000
611.333740 88.000000
612.349060 18.000000
613.339360 16.000000
613.350520 37.000000
616.614810 23.000000
629.341370 17.000000
629.367000 19.000000
630.354000 21.000000
630.383790 18.000000
671.346620 36.000000
739.376100 20.000000
757.372190 17.000000
757.402280 137.000000
757.484920 17.000000
758.394100 136.000000
759.418700 36.000000
775.384580 66.000000
775.420530 18.000000
799.394170 37.000000
799.422420 83.000000
800.406370 34.000000
800.427610 17.000000
802.404970 17.000000
816.432500 16.000000
817.459530 35.000000
818.400330 21.000000
819.431950 16.000000
854.388920 18.000000
859.432860 332.000000
860.430790 161.000000
861.419370 17.000000
861.447750 54.000000
862.447750 23.000000
862.489620 36.000000
886.409790 16.000000
903.438420 20.000000
905.447510 19.000000
947.408200 435.000000
947.474790 16.000000

