>compound PR58748187
>parentmass 425.1235
>ionization [M-H]-
>formula C15H26N2O10S
>rt 127.200000
>profile qtof
#smiles_iso CSCC(C(=O)O)NC(=O)CCC(C(=O)O)NCC1(C(C(C(CO1)O)O)O)O
#smiles_can CSCC(C(=O)O)NC(=O)CCC(C(=O)O)NCC1(C(C(C(CO1)O)O)O)O
#inchikey OXQONDBZMLPJFL-UHFFFAOYSA-N
#pubchem_id 139292000
#mb_accession PR309141

>ms2peaks
84.047770 16.000000
99.998970 18.000000
100.005150 86.000000
111.050550 17.000000
113.071340 17.000000
119.013400 16.000000
119.020970 25.000000
123.053140 25.000000
125.073160 16.000000
138.043300 16.000000
140.032760 21.000000
141.055180 18.000000
143.040770 92.000000
144.047210 36.000000
155.035050 27.000000
155.046330 54.000000
157.063570 38.000000
165.064500 18.000000
177.043210 24.000000
180.252490 16.000000
183.037230 18.000000
196.950640 18.000000
215.062350 36.000000
215.069810 142.000000
216.066570 34.000000
217.952710 16.000000
227.073210 22.000000
249.042190 17.000000
249.052510 20.000000
263.071530 88.000000
264.071960 21.000000
264.084410 56.000000
265.063170 18.000000
269.071040 16.000000
292.002040 17.000000
335.093200 220.000000
336.092620 28.000000
359.087650 26.000000
407.105290 24.000000
425.120910 515.000000

