>compound PR58803928
>parentmass 508.0984
>ionization [M-H]-
>formula C16H31NO11S3
>rt 199.200000
>profile qtof
#smiles_iso CS(=O)(=O)CCCCCCCCC(=NOS(=O)(=O)O)SC1C(C(C(C(O1)CO)O)O)O
#smiles_can CS(=O)(=O)CCCCCCCCC(=NOS(=O)(=O)O)SC1C(C(C(C(O1)CO)O)O)O
#inchikey OZKVQSNRAFPWMK-UHFFFAOYSA-N
#pubchem_id 145994455
#mb_accession PR309213

>ms2peaks
95.946950 18.000000
96.958320 20.000000
96.967060 21.000000
103.981850 18.000000
240.996890 18.000000
345.988370 18.000000
508.099330 127.000000
508.140230 19.000000

