>compound PR59685798
>parentmass 297.244
>ionization [M-H]-
>formula C18H34O3
>rt 618.000000
>profile qtof
#smiles_iso CCCCCCCCC1C(O1)CCCCCCCC(=O)O
#smiles_can CCCCCCCCC1C(O1)CCCCCCCC(=O)O
#inchikey IMYZYCNQZDBZBQ-UHFFFAOYSA-N
#pubchem_id 15868
#mb_accession PR309104

>ms2
155.105830 18.000000
279.219790 21.000000
297.244780 121.000000

