>compound PR59987508
>parentmass 630.2195
>ionization [M+HCOO]-
>formula C30H35NO11
>rt 280.800000
>profile qtof
#smiles_iso COC1=CC=C(C=C1)C2=COC3=CC(=C(C=C3C2=O)OC)OC4C(C(C(C(O4)COC(=O)CC5CCNCC5)O)O)O
#smiles_can COC1=CC=C(C=C1)C2=COC3=CC(=C(C=C3C2=O)OC)OC4C(C(C(C(O4)COC(=O)CC5CCNCC5)O)O)O
#inchikey ZFUBXSYHXUTRFX-UHFFFAOYSA-N
#pubchem_id 139292172
#mb_accession PR309190

>ms2peaks
282.050630 108.000000
297.075710 509.000000
298.077880 20.000000
299.087740 25.000000
630.191350 21.000000
630.223450 102.000000

