>compound PR59688319
>parentmass 750.4464
>ionization [M+HCOO]-
>formula C39H63NO10
>rt 300.600000
>profile qtof
#smiles_iso CC1CCC2C(C3C(N2C1)CC4C3(CCC5C4CC=C6C5(CCC(C6)OC7C(C(C(C(O7)CO)O)O)OC8C(C(C(C(O8)C)O)O)O)C)C)C
#smiles_can CC1CCC2C(C3C(N2C1)CC4C3(CCC5C4CC=C6C5(CCC(C6)OC7C(C(C(C(O7)CO)O)O)OC8C(C(C(C(O8)C)O)O)O)C)C)C
#inchikey ZLSYCIYRYZUJCZ-UHFFFAOYSA-N
#pubchem_id 12302820
#mb_accession PR308970

>ms2
89.020680 25.000000
99.009360 27.000000
101.021260 52.000000
103.039310 20.000000
119.034730 43.000000
161.036610 19.000000
163.067140 18.000000
179.059200 27.000000
359.167140 18.000000
559.397160 18.000000
610.198360 24.000000
704.433900 382.000000
704.499690 20.000000
705.428650 83.000000
705.465150 19.000000
706.431400 39.000000
706.457890 86.000000
707.446960 22.000000
750.450380 290.000000

