>compound PR59866605
>parentmass 154.9836
>ionization [M-H]-
>formula C3H8O3S2
>rt 175.800000
>profile qtof
#smiles_iso CCCSS(=O)(=O)O
#smiles_can CCCSS(=O)(=O)O
#inchikey XXRSQNIODUGKPF-UHFFFAOYSA-N
#pubchem_id 3083960
#mb_accession PR308956

>ms2peaks
75.025210 17.000000
79.953140 45.000000
79.956380 16.000000
80.965310 105.000000
81.955570 18.000000
82.962300 17.000000
91.018720 16.000000
116.070610 18.000000
154.984040 376.000000

