>compound PR59086764
>parentmass 621.1094
>ionization [M-H]-
>formula C27H26O17
>rt 243.000000
>profile qtof
#smiles_iso C1=CC(=CC=C1C2=CC(=O)C3=C(C=C(C=C3O2)OC4C(C(C(C(O4)C(=O)O)O)O)OC5C(C(C(C(O5)C(=O)O)O)O)O)O)O
#smiles_can C1=CC(=CC=C1C2=CC(=O)C3=C(C=C(C=C3O2)OC4C(C(C(C(O4)C(=O)O)O)O)OC5C(C(C(C(O5)C(=O)O)O)O)O)O)O
#inchikey SJFTVAAHLRFBST-UHFFFAOYSA-N
#pubchem_id 74977517
#mb_accession PR309281

>ms2
59.012380 22.000000
71.011020 39.000000
72.995150 42.000000
85.024210 25.000000
85.033850 47.000000
89.278350 18.000000
91.028170 42.000000
99.008350 20.000000
113.022090 219.000000
131.032460 22.000000
132.031300 32.000000
149.028340 22.000000
157.015350 41.000000
159.032320 25.000000
163.016530 23.000000
170.370850 18.000000
175.022960 132.000000
176.029790 20.000000
193.032090 310.000000
193.041440 74.000000
194.039950 46.000000
207.437030 25.000000
209.106140 19.000000
235.044920 65.000000
235.052020 19.000000
268.037260 23.000000
269.042540 262.000000
269.052580 169.000000
270.032290 18.000000
270.053440 49.000000
275.935550 19.000000
289.058590 21.000000
289.664610 20.000000
310.101320 20.000000
311.048160 29.000000
350.985870 18.000000
351.057280 2406.000000
351.085690 28.000000
352.058410 248.000000
353.064300 84.000000
492.249730 25.000000
534.131350 36.000000
555.372500 19.000000
621.106870 1096.000000

