>compound PR60793941
>parentmass 355.065575
>ionization [M-H]-
>formula C15H16O10
>rt 174.000000
>profile qtof
#smiles_iso C1=CC(=CC=C1C=CC(=O)OC(C(C(C(C(=O)O)O)O)O)C(=O)O)O
#smiles_can C1=CC(=CC=C1C=CC(=O)OC(C(C(C(C(=O)O)O)O)O)C(=O)O)O
#inchikey LWEUFDJHDOPWFE-UHFFFAOYSA-N
#pubchem_id 145994453
#mb_accession PR309200,PR309201,PR309202,PR309203

>ms2
85.027130 166.000000
86.031710 23.000000
119.051100 19.000000
129.019420 20.000000
147.027790 40.000000
191.005250 28.000000
191.018570 169.000000
192.017170 20.000000
209.030490 149.000000
337.048490 24.000000
355.083710 24.000000

>ms2
85.028710 268.000000
119.048420 39.000000
129.016740 43.000000
147.024000 82.000000
163.027310 21.000000
163.042430 76.000000
164.034480 18.000000
173.003450 20.000000
191.019500 431.000000
192.015880 19.000000
209.031490 221.000000
210.023860 18.000000
222.082870 20.000000
325.466340 21.000000
337.043120 20.000000
355.053280 63.000000

>ms2
59.010610 20.000000
71.017910 21.000000
75.008520 32.000000
85.026730 266.000000
87.009550 22.000000
89.020210 18.000000
111.007570 21.000000
129.013140 18.000000
147.028500 20.000000
147.034120 18.000000
163.037170 18.000000
191.017940 221.000000
191.032550 27.000000
192.027310 19.000000
209.030460 552.000000
211.038710 18.000000
310.109280 19.000000
355.055540 38.000000
355.066770 23.000000

>ms2
55.017780 19.000000
85.025760 18.000000
85.030200 20.000000
129.013790 19.000000
145.033280 19.000000
147.027560 68.000000
191.019650 116.000000
200.178210 18.000000
209.031570 296.000000
210.027890 39.000000
211.034330 18.000000
337.055730 23.000000
355.064940 40.000000

