>compound PR60004221
>parentmass 533.0933
>ionization [M-H]-
>formula C24H22O14
>rt 274.800000
>profile qtof
#smiles_iso C1=CC(=C(C=C1C2=CC(=O)C3=C(C=C(C=C3O2)OC4C(C(C(C(O4)COC(=O)CC(=O)O)O)O)O)O)O)O
#smiles_can C1=CC(=C(C=C1C2=CC(=O)C3=C(C=C(C=C3O2)OC4C(C(C(C(O4)COC(=O)CC(=O)O)O)O)O)O)O)O
#inchikey RNDGJCZQVKFBPI-UHFFFAOYSA-N
#pubchem_id 5858132
#mb_accession PR309279

>ms2peaks
151.000640 48.000000
157.069110 18.000000
162.998140 20.000000
184.050720 20.000000
197.058460 20.000000
199.033770 21.000000
200.038710 20.000000
227.037120 37.000000
228.046020 20.000000
229.049210 36.000000
239.033770 20.000000
255.029360 237.000000
256.008730 18.000000
256.037410 20.000000
257.040620 40.000000
257.578640 26.000000
267.473970 29.000000
284.030940 1344.000000
285.037630 2161.000000
285.062320 24.000000
285.163330 18.000000
286.028590 92.000000
286.040040 273.000000
298.049190 24.000000
320.897920 19.000000
368.787750 33.000000
489.104190 2484.000000
489.196500 20.000000
490.103730 379.000000
490.127560 77.000000
490.148070 20.000000
491.106510 178.000000
533.094670 51.000000
533.110350 18.000000

