>compound PR61260275
>parentmass 563.1422
>ionization [M-H]-
>formula C26H28O14
>rt 296.400000
>profile qtof
#smiles_iso C1C(C(C(C(O1)OCC2C(C(C(C(O2)OC3=C(C(=C4C(=C3)C(=O)C5=CC=CC=C5C4=O)O)CO)O)O)O)O)O)O
#smiles_can C1C(C(C(C(O1)OCC2C(C(C(C(O2)OC3=C(C(=C4C(=C3)C(=O)C5=CC=CC=C5C4=O)O)CO)O)O)O)O)O)O
#inchikey NVKNRXOMCYTFJF-UHFFFAOYSA-N
#pubchem_id 21917783
#mb_accession PR309399

>ms2
85.029020 16.000000
89.021710 80.000000
90.022730 16.000000
101.020250 43.000000
101.027790 40.000000
102.444430 20.000000
108.376750 16.000000
113.025180 21.000000
131.026750 16.000000
131.036160 32.000000
138.092800 16.000000
140.045900 20.000000
143.032460 24.000000
149.045620 130.000000
150.044310 18.000000
151.045350 27.000000
161.046420 18.000000
191.053620 44.000000
191.059420 16.000000
192.055250 18.000000
250.821990 25.000000
251.034350 1421.000000
251.072280 20.000000
252.030650 88.000000
252.041630 119.000000
253.045200 41.000000
253.056340 30.000000
254.045810 16.000000
257.495420 31.000000
269.044860 90.000000
270.024110 18.000000
270.053410 16.000000
293.097690 21.000000
293.607450 19.000000
341.736300 26.000000
455.806270 16.000000
474.095370 17.000000
563.141540 2312.000000

