>compound PR61186948
>parentmass 562.313
>ionization [M+HCOO]-
>formula C26H48NO7P
>rt 525.000000
>profile qtof
#smiles_iso CCC=CCC=CCC=CCCCCCCCC(=O)OCC(COP(=O)([O-])OCC[N+](C)(C)C)O
#smiles_can CCC=CCC=CCC=CCCCCCCCC(=O)OCC(COP(=O)([O-])OCC[N+](C)(C)C)O
#inchikey WKQNRCYKYCKESD-UHFFFAOYSA-N
#pubchem_id 25200367
#mb_accession PR309157

>ms2peaks
277.194370 18.000000
277.214420 186.000000
502.290190 226.000000
503.296170 46.000000
562.309810 38.000000
562.352230 27.000000

