>compound PR61695790
>parentmass 431.1551
>ionization [M-H]-
>formula C19H28O11
>rt 184.800000
>profile qtof
#smiles_iso C1=CC=C(C=C1)COC2C(C(C(C(O2)CO)O)O)OC3C(C(C(C(O3)CO)O)O)O
#smiles_can C1=CC=C(C=C1)COC2C(C(C(C(O2)CO)O)O)OC3C(C(C(C(O3)CO)O)O)O
#inchikey WKXRKKUZTXIFJY-UHFFFAOYSA-N
#pubchem_id 73157713
#mb_accession PR309420

>ms2peaks
71.014560 40.000000
73.026310 16.000000
83.013840 18.000000
99.005580 21.000000
101.021730 116.000000
119.039410 26.000000
149.039110 16.000000
159.044560 16.000000
161.043530 151.000000
161.053220 32.000000
177.500750 21.000000
179.053480 16.000000
233.068470 17.000000
245.065670 18.000000
255.980820 16.000000
269.097260 35.000000
269.111020 65.000000
316.004490 37.000000
323.116360 18.000000
431.132390 39.000000
431.153320 340.000000
431.259920 19.000000

