>compound PR62763345
>parentmass 297.0757
>ionization [M-H]-
>formula C17H14O5
>rt 405.600000
>profile qtof
#smiles_iso COC1=CC2=C(C=C1)C(=O)C(=C(O2)C3=CC(=CC=C3)OC)O
#smiles_can COC1=CC2=C(C=C1)C(=O)C(=C(O2)C3=CC(=CC=C3)OC)O
#inchikey PFMGWOVPHHEHAL-UHFFFAOYSA-N
#pubchem_id 688836
#mb_accession PR309225

>ms2
127.061160 22.000000
129.035890 19.000000
132.022810 18.000000
145.030110 30.000000
146.005680 19.000000
146.998180 18.000000
154.048220 23.000000
155.050200 63.000000
167.038910 18.000000
167.050340 62.000000
182.033330 64.000000
183.043820 222.000000
184.043590 20.000000
184.054120 18.000000
185.090010 20.000000
195.034410 39.000000
195.044650 170.000000
198.068660 25.000000
210.023100 20.000000
210.033160 19.000000
211.039430 248.000000
211.055590 19.000000
212.039930 25.000000
212.052510 65.000000
223.049410 23.000000
225.058360 19.000000
226.041120 20.000000
239.034390 759.000000
240.031130 45.000000
240.043410 115.000000
254.046920 21.000000
254.062480 240.000000
267.022520 74.000000
267.040340 18.000000
268.855800 21.000000
282.031950 47.000000
282.052150 1462.000000
282.658910 20.000000
283.053040 267.000000
284.052090 23.000000
284.062900 21.000000
284.073060 18.000000
297.077480 2080.000000
297.213590 24.000000

