>compound PR63647289
>parentmass 291.1945
>ionization [M-H]-
>formula C18H28O3
>rt 570.000000
>profile qtof
#smiles_iso CCC=CCC1C=CC(=O)C1CCCCCCCC(=O)O
#smiles_can CCC=CCC1C=CC(=O)C1CCCCCCCC(=O)O
#inchikey IYEHRWJNUWAXAD-UHFFFAOYSA-N
#pubchem_id 53941620
#mb_accession PR309075

>ms2peaks
185.111370 18.000000
291.195950 58.000000

