>compound PR63812991
>parentmass 380.0948
>ionization [M-H]-
>formula C13H23N3O6S2
>rt 226.800000
>profile qtof
#smiles_iso CCCSSCC(C(=O)NCC(=O)O)NC(=O)CCC(C(=O)O)N
#smiles_can CCCSSCC(C(=O)NCC(=O)O)NC(=O)CCC(C(=O)O)N
#inchikey RGNVWSYKJVPEEP-UHFFFAOYSA-N
#pubchem_id 75166534
#mb_accession PR309067

>ms2peaks
99.999110 26.000000
123.057660 22.000000
128.031970 17.000000
129.033520 18.000000
141.063320 17.000000
143.043400 17.000000
169.058150 67.000000
171.046070 20.000000
179.041690 17.000000
179.053240 26.000000
185.034900 35.000000
210.085330 25.000000
215.077360 16.000000
254.078540 16.000000
272.093630 60.000000
380.080410 36.000000
380.096560 153.000000

