>compound PR63424851
>parentmass 492.1028
>ionization [M-H]-
>formula C16H31NO10S3
>rt 181.800000
>profile qtof
#smiles_iso CS(=O)CCCCCCCCC(=NOS(=O)(=O)O)SC1C(C(C(C(O1)CO)O)O)O
#smiles_can CS(=O)CCCCCCCCC(=NOS(=O)(=O)O)SC1C(C(C(C(O1)CO)O)O)O
#inchikey GPMDJOOLATZDQL-UHFFFAOYSA-N
#pubchem_id 74960784
#mb_accession PR309212

>ms2peaks
72.991270 25.000000
74.989290 160.000000
75.994700 33.000000
76.987920 39.000000
79.957510 205.000000
87.011100 18.000000
89.021790 19.000000
95.573950 21.000000
95.951970 1689.000000
96.959720 4216.000000
97.029200 38.000000
97.505830 19.000000
97.947830 177.000000
97.967830 30.000000
98.954840 130.000000
98.967650 20.000000
101.021800 44.000000
106.968500 19.000000
119.029370 23.000000
119.040000 44.000000
121.018810 20.000000
127.917440 20.000000
127.923210 18.000000
128.929460 67.000000
129.020550 18.000000
135.600680 31.000000
135.968670 30.000000
135.974850 43.000000
138.967160 57.000000
143.660370 23.000000
145.048250 55.000000
145.054000 42.000000
153.534470 18.000000
154.132220 19.000000
161.041690 18.000000
162.048490 27.000000
163.069580 20.000000
166.959370 18.000000
168.946980 41.000000
170.938980 20.000000
170.997890 23.000000
171.084470 37.000000
186.098250 88.000000
194.988400 20.000000
195.031050 187.000000
198.033520 19.000000
198.986620 18.000000
202.072170 19.000000
202.090360 18.000000
204.190780 18.000000
205.069950 18.000000
206.050830 18.000000
209.503050 25.000000
217.063810 20.000000
218.088810 18.000000
220.062670 23.000000
222.177320 21.000000
226.953480 33.000000
227.024000 112.000000
227.992000 22.000000
228.143840 24.000000
232.064380 20.000000
233.076050 58.000000
234.080730 1439.000000
234.109620 21.000000
235.044560 20.000000
235.071930 51.000000
235.084170 208.000000
236.049680 29.000000
236.062150 18.000000
236.086670 20.000000
238.023770 18.000000
241.000580 23.000000
241.017270 21.000000
245.812670 24.000000
250.091310 60.000000
250.918550 18.000000
252.100110 25.000000
252.534550 20.000000
258.811250 20.000000
259.011750 215.000000
259.032350 20.000000
261.002560 20.000000
261.021330 22.000000
266.056550 65.000000
267.047580 18.000000
273.978520 27.000000
274.987580 99.000000
275.006870 19.000000
275.989690 22.000000
286.440550 18.000000
290.984340 82.000000
290.996000 54.000000
291.008240 20.000000
291.979060 18.000000
291.994260 19.000000
292.112820 22.000000
299.037140 28.000000
299.052120 96.000000
300.049560 76.000000
304.508970 20.000000
312.713010 22.000000
316.068760 20.000000
376.203800 20.000000
376.527770 23.000000
401.856990 18.000000
428.106290 3399.000000
429.107970 834.000000
429.135130 97.000000
429.878850 18.000000
430.104610 489.000000
430.133670 18.000000
431.091400 24.000000
431.110530 127.000000
452.995270 22.000000
457.844910 32.000000
460.067990 19.000000
470.046360 20.000000
475.086880 19.000000
477.079250 184.000000
478.087220 98.000000
480.077970 19.000000
482.621700 19.000000
491.102110 18.000000
492.103240 13086.000000
492.157870 80.000000

