>compound PR64847358
>parentmass 313.2375
>ionization [M-H]-
>formula C18H34O4
>rt 503.400000
>profile qtof
#smiles_iso CCCCCC(C(CC=CCCCCCCCC(=O)O)O)O
#smiles_can CCCCCC(C(CC=CCCCCCCCC(=O)O)O)O
#inchikey CQSLTKIXAJTQGA-UHFFFAOYSA-N
#pubchem_id 53394649
#mb_accession PR309105

>ms2peaks
99.081280 34.000000
129.089970 51.000000
183.131520 55.000000
183.139890 34.000000
195.130860 20.000000
246.554810 27.000000
277.215390 16.000000
313.234740 733.000000

