>compound PR64940036
>parentmass 667.2825
>ionization [M+HCOO]-
>formula C28H46O15
>rt 483.600000
>profile qtof
#smiles_iso CCCCC(=O)OC1C(OC(C(C1OC(=O)CCCC)OC(=O)CCC)OC2(C(C(C(O2)CO)OC(=O)C)O)CO)CO
#smiles_can CCCCC(=O)OC1C(OC(C(C1OC(=O)CCCC)OC(=O)CCC)OC2(C(C(C(O2)CO)OC(=O)C)O)CO)CO
#inchikey TVWKJMQVETZQNH-UHFFFAOYSA-N
#pubchem_id 139292078
#mb_accession PR309007

>ms2
83.017260 22.000000
101.058090 27.000000
147.069320 21.000000
207.049360 41.000000
305.094570 18.000000
454.170990 16.000000
467.171110 17.000000
551.252810 18.000000
666.446900 17.000000
666.483950 16.000000
667.285640 242.000000
667.340880 16.000000
667.467960 16.000000

