>compound PR64056790
>parentmass 326.0875
>ionization [M-H]-
>formula C14H17NO8
>rt 190.200000
>profile qtof
#smiles_iso C1=CC=C2C(=C1)NC(=O)C(O2)OC3C(C(C(C(O3)CO)O)O)O
#smiles_can C1=CC=C2C(=C1)NC(=O)C(O2)OC3C(C(C(C(O3)CO)O)O)O
#inchikey PYQSUTLVBSTCSK-UHFFFAOYSA-N
#pubchem_id 14605136
#mb_accession PR309383

>ms2peaks
107.041690 23.000000
108.045320 182.000000
109.047910 16.000000
118.025810 16.000000
120.041570 16.000000
136.038220 36.000000
136.044690 22.000000
137.037110 17.000000
161.684810 23.000000
164.036000 655.000000
165.037410 44.000000
326.087980 183.000000

