>compound PR64596046
>parentmass 189.0766
>ionization [M-H]-
>formula C8H14O5
>rt 243.000000
>profile qtof
#smiles_iso C(CCC(=O)O)CC(CC(=O)O)O
#smiles_can C(CCC(=O)O)CC(CC(=O)O)O
#inchikey ARJZZFJXSNJKGR-UHFFFAOYSA-N
#pubchem_id 22328017
#mb_accession PR309131

>ms2peaks
99.075790 17.000000
99.083220 18.000000
99.960430 26.000000
111.008130 20.000000
125.097020 17.000000
127.073050 72.000000
129.056050 164.000000
189.074810 35.000000

