>compound PR65784443
>parentmass 921.4767
>ionization [M-H]-
>formula C44H74O20
>rt 379.200000
>profile qtof
#smiles_iso CC1C(C(C(C(O1)OCC2C(C(C(C(O2)OCC(=CCCC(=CCCC(=CCCC(C)(C=C)OC3C(C(C(C(O3)CO)OC4C(C(C(C(O4)C)O)O)O)O)O)C)C)C)O)O)O)O)O)O
#smiles_can CC1C(C(C(C(O1)OCC2C(C(C(C(O2)OCC(=CCCC(=CCCC(=CCCC(C)(C=C)OC3C(C(C(C(O3)CO)OC4C(C(C(C(O4)C)O)O)O)O)O)C)C)C)O)O)O)O)O)O
#inchikey VWZHZYXUGKPPIX-UHFFFAOYSA-N
#pubchem_id 85212301
#mb_accession PR309140

>ms2peaks
125.028430 16.000000
519.293760 18.000000
629.347290 21.000000
775.410280 32.000000
776.397460 16.000000
822.953740 17.000000
921.443910 60.000000
921.481510 125.000000

