>compound PR65498896
>parentmass 677.3536
>ionization [M-H]-
>formula C36H54O12
>rt 435.600000
>profile qtof
#smiles_iso CC1(CCC2(CCC3(C(=CCC4C3(CCC5C4(CC(C(C5(C)C(=O)O)OC6C(C(C(C(O6)C(=O)O)O)O)O)O)C)C)C2C1)C)C(=O)O)C
#smiles_can CC1(CCC2(CCC3(C(=CCC4C3(CCC5C4(CC(C(C5(C)C(=O)O)OC6C(C(C(C(O6)C(=O)O)O)O)O)O)C)C)C2C1)C)C(=O)O)C
#inchikey QOOMNXCRAXXTJZ-UHFFFAOYSA-N
#pubchem_id 14779966
#mb_accession PR308898

>ms2peaks
59.011440 44.000000
72.991920 24.000000
87.011040 27.000000
89.019550 17.000000
89.025750 68.000000
101.023990 73.000000
113.023930 130.000000
131.031080 20.000000
131.038130 25.000000
133.010410 39.000000
157.014050 23.000000
175.024380 40.000000
176.736680 20.000000
178.038530 21.000000
193.035140 1241.000000
194.037670 106.000000
255.109500 28.000000
287.561430 35.000000
344.562990 18.000000
384.268890 18.000000
447.670870 19.000000
501.877810 27.000000
502.337770 21.000000
677.354610 4379.000000
677.409670 22.000000

