>compound PR65920521
>parentmass 579.209
>ionization [M-H]-
>formula C28H36O13
>rt 264.000000
>profile qtof
#smiles_iso COC1=CC(=CC(=C1O)OC)C2C3COC(C3CO2)C4=CC(=C(C(=C4)OC)OC5C(C(C(C(O5)CO)O)O)O)OC
#smiles_can COC1=CC(=CC(=C1O)OC)C2C3COC(C3CO2)C4=CC(=C(C(=C4)OC)OC5C(C(C(C(O5)CO)O)O)O)OC
#inchikey WEKCEGQSIIQPAQ-UHFFFAOYSA-N
#pubchem_id 4486984
#mb_accession PR309177

>ms2
101.024940 16.000000
166.027080 35.000000
181.047910 16.000000
182.050720 18.000000
209.087300 24.000000
212.997670 17.000000
224.070920 17.000000
353.095310 17.000000
387.110990 19.000000
402.131900 20.000000
403.140780 17.000000
417.156590 291.000000
418.141940 16.000000
418.169830 37.000000
579.143130 16.000000
579.212280 16.000000

