>compound PR65119284
>parentmass 353.1014
>ionization [M-H]-
>formula C20H18O6
>rt 377.400000
>profile qtof
#smiles_iso CC(=CCC1=C(C=CC(=C1O)C2=COC3=CC(=CC(=C3C2=O)O)O)O)C
#smiles_can CC(=CCC1=C(C=CC(=C1O)C2=COC3=CC(=CC(=C3C2=O)O)O)O)C
#inchikey KCUZCRLRQVRBBV-UHFFFAOYSA-N
#pubchem_id 5281789
#mb_accession PR309033

>ms2
107.011440 18.000000
159.082120 22.000000
173.089770 20.000000
233.085920 24.000000
242.051970 20.000000
266.111540 24.000000
284.037570 20.000000
352.097750 18.000000
353.101260 247.000000

