>compound PR66844099
>parentmass 293.211
>ionization [M-H]-
>formula C18H30O3
>rt 544.800000
>profile qtof
#smiles_iso CCC=CCC=CCC1C(O1)CCCCCCCC(=O)O
#smiles_can CCC=CCC=CCC1C(O1)CCCCCCCC(=O)O
#inchikey JTEGNNHWOIJBJZ-UHFFFAOYSA-N
#pubchem_id 111585
#mb_accession PR309078

>ms2peaks
121.098650 46.000000
122.112880 29.000000
171.100200 86.000000
183.151000 22.000000
211.126600 18.000000
211.136440 48.000000
212.137180 21.000000
249.231720 19.000000
265.206970 20.000000
275.187130 25.000000
275.193760 53.000000
275.210570 26.000000
276.208190 21.000000
293.211520 490.000000

