>compound PR66822337
>parentmass 415.1591
>ionization [M-H]-
>formula C19H28O10
>rt 211.200000
>profile qtof
#smiles_iso COC(COC1C(C(C(C(O1)CO)O)O)O)/C=C/CC2=C(CCC2=O)CC(=O)O
#smiles_can COC(COC1C(C(C(C(O1)CO)O)O)O)C=CCC2=C(CCC2=O)CC(=O)O
#inchikey HWKCWIIFDARZFZ-NSCUHMNNSA-N
#pubchem_id 139291886
#mb_accession PR309341

>ms2
71.013310 58.000000
72.390460 21.000000
83.053390 17.000000
89.023130 40.000000
99.005460 39.000000
101.021830 87.000000
101.028120 41.000000
102.026400 23.000000
113.023990 82.000000
119.035320 21.000000
123.045100 16.000000
124.051480 23.000000
127.694150 20.000000
138.066120 161.000000
139.074520 259.000000
140.075230 49.000000
147.086040 22.000000
149.008070 56.000000
151.084090 17.000000
160.022490 30.000000
160.089890 21.000000
161.039790 16.000000
161.050320 17.000000
164.043240 21.000000
176.082080 42.000000
191.105500 411.000000
192.112640 59.000000
193.051150 35.000000
193.057910 23.000000
207.091800 18.000000
209.112140 19.000000
213.528260 16.000000
221.110660 17.000000
235.099200 20.000000
237.110400 23.000000
253.091660 16.000000
262.952120 20.000000
263.858430 20.000000
415.160030 3658.000000
415.195980 30.000000
415.217040 27.000000

