>compound PR66513585
>parentmass 478.0852
>ionization [M-H]-
>formula C15H29NO10S3
>rt 155.400000
>profile qtof
#smiles_iso CS(=O)CCCCCCCC(=NOS(=O)(=O)O)SC1C(C(C(C(O1)CO)O)O)O
#smiles_can CS(=O)CCCCCCCC(=NOS(=O)(=O)O)SC1C(C(C(C(O1)CO)O)O)O
#inchikey LQZALQLZOQQFGM-UHFFFAOYSA-N
#pubchem_id 74960762
#mb_accession PR309209

>ms2peaks
74.985390 36.000000
74.989680 50.000000
79.951900 21.000000
95.947580 40.000000
95.952520 128.000000
96.958540 459.000000
98.949710 20.000000
113.929990 24.000000
119.980430 35.000000
154.285430 18.000000
178.008960 24.000000
182.955250 20.000000
188.072570 18.000000
195.029190 18.000000
202.182250 18.000000
204.065830 20.000000
206.070270 23.000000
209.914840 18.000000
218.048890 20.000000
218.059780 20.000000
220.065960 37.000000
227.033680 41.000000
241.054570 18.000000
252.039730 20.000000
259.005830 20.000000
274.992340 53.000000
275.000950 31.000000
275.989840 18.000000
290.978150 21.000000
330.861020 40.000000
414.090940 413.000000
415.063480 22.000000
415.093320 113.000000
416.093600 38.000000
417.079100 18.000000
417.111910 26.000000
466.045680 30.000000
478.085080 1885.000000
478.139400 18.000000

