>compound PR67636624
>parentmass 187.0974
>ionization [M-H]-
>formula C9H16O4
>rt 286.800000
>profile qtof
#smiles_iso C(CCCC(=O)O)CCCC(=O)O
#smiles_can C(CCCC(=O)O)CCCC(=O)O
#inchikey BDJRBEYXGGNYIS-UHFFFAOYSA-N
#pubchem_id 2266
#mb_accession PR309132

>ms2
67.131780 18.000000
83.046910 36.000000
95.050630 25.000000
97.065330 502.000000
104.208130 19.000000
107.757840 20.000000
115.640470 17.000000
120.267040 35.000000
123.081520 210.000000
124.082910 54.000000
125.096900 5235.000000
126.099940 559.000000
126.158650 29.000000
129.088300 17.000000
143.099180 16.000000
143.110500 141.000000
169.083240 49.000000
169.091310 77.000000
170.093930 23.000000
183.731020 25.000000
184.543580 25.000000
187.097580 4657.000000
187.131350 16.000000

