>compound PR67289927
>parentmass 206.0815
>ionization [M-H]-
>formula C11H13NO3
>rt 242.400000
>profile qtof
#smiles_iso CC(=O)NC(CC1=CC=CC=C1)C(=O)O
#smiles_can CC(=O)NC(CC1=CC=CC=C1)C(=O)O
#inchikey CBQJSKKFNMDLON-UHFFFAOYSA-N
#pubchem_id 2000
#mb_accession PR309403

>ms2
57.645860 18.000000
91.056960 72.000000
103.052920 18.000000
137.099500 24.000000
145.929570 32.000000
147.029510 25.000000
147.039090 58.000000
164.066100 122.000000
164.072170 332.000000
165.074720 58.000000
165.082150 30.000000
206.079270 123.000000

