>compound PR67323983
>parentmass 337.1443
>ionization [M-H]-
>formula C21H22O4
>rt 486.600000
>profile qtof
#smiles_iso CC(C)(C=C)C1=C(C=C(C(=C1)C=CC(=O)C2=CC=C(C=C2)O)OC)O
#smiles_can CC(C)(C=C)C1=C(C=C(C(=C1)C=CC(=O)C2=CC=C(C=C2)O)OC)O
#inchikey KAZSKMJFUPEHHW-UHFFFAOYSA-N
#pubchem_id 3923
#mb_accession PR309369

>ms2
92.023650 40.000000
92.027780 47.000000
93.032060 169.000000
120.019740 227.000000
120.048460 18.000000
121.025820 18.000000
128.065080 34.000000
136.048710 20.000000
136.322340 24.000000
143.079420 18.000000
145.026550 18.000000
148.049130 33.000000
151.039280 24.000000
156.058580 20.000000
158.031940 24.000000
159.083980 23.000000
160.054230 18.000000
161.060230 109.000000
162.061340 38.000000
162.070880 26.000000
163.067250 20.000000
171.047470 20.000000
172.054140 36.000000
179.053730 19.000000
185.057280 109.000000
187.036440 162.000000
187.076890 174.000000
188.087270 21.000000
200.075880 25.000000
201.090960 197.000000
202.097600 38.000000
206.144580 20.000000
209.059840 18.000000
213.054310 37.000000
214.066680 18.000000
217.124270 62.000000
229.087720 195.000000
230.084470 42.000000
230.104020 28.000000
243.103070 102.000000
244.103040 20.000000
245.081380 38.000000
253.036380 18.000000
262.100980 59.000000
267.072880 24.000000
268.073390 228.000000
269.084990 22.000000
270.079500 18.000000
274.060550 21.000000
277.120360 50.000000
279.097810 30.000000
281.072170 21.000000
282.085970 18.000000
289.072200 19.000000
289.083740 41.000000
290.092900 70.000000
291.087650 18.000000
291.107700 20.000000
305.102260 43.000000
305.120120 144.000000
306.112400 21.000000
306.127530 66.000000
306.144900 19.000000
307.094540 52.000000
307.108000 29.000000
307.130190 40.000000
308.110960 18.000000
322.123350 18.000000
323.107880 26.000000
327.321470 22.000000
332.337010 18.000000
332.470250 21.000000
335.089810 19.000000
336.108640 20.000000
337.094940 22.000000
337.143830 5286.000000
337.175960 20.000000

