>compound PR67967319
>parentmass 356.0981
>ionization [M-H]-
>formula C15H19NO9
>rt 205.800000
>profile qtof
#smiles_iso COC1=CC2=C(C=C1)NC(=O)C(O2)OC3C(C(C(C(O3)CO)O)O)O
#smiles_can COC1=CC2=C(C=C1)NC(=O)C(O2)OC3C(C(C(C(O3)CO)O)O)O
#inchikey PMBZSEOAOIYRMW-UHFFFAOYSA-N
#pubchem_id 77195052
#mb_accession PR309386

>ms2peaks
68.997690 17.000000
71.009800 17.000000
85.029910 20.000000
89.020160 18.000000
89.024610 19.000000
98.599750 18.000000
122.025890 24.000000
123.031310 412.000000
124.035530 23.000000
133.017180 51.000000
138.055820 1279.000000
139.049350 24.000000
139.059600 52.000000
147.753920 22.000000
148.039050 190.000000
148.055360 17.000000
149.011370 20.000000
149.017650 35.000000
149.044160 18.000000
150.016740 84.000000
160.015550 18.000000
160.025180 17.000000
164.030850 18.000000
166.045880 199.000000
166.051530 500.000000
167.054080 54.000000
175.037700 35.000000
175.046200 35.000000
176.035020 16.000000
178.005370 17.000000
179.020030 192.000000
184.149370 33.000000
191.015410 26.000000
193.044020 51.000000
194.046020 4001.000000
194.168530 25.000000
195.046310 296.000000
196.048870 52.000000
217.050770 35.000000
220.024690 16.000000
235.070970 16.000000
235.722320 18.000000
246.545440 16.000000
298.094150 18.000000
341.087860 34.000000
355.106170 16.000000
356.098360 1209.000000

