>compound PR67072790
>parentmass 559.31245
>ionization [M+HCOO]-
>formula C27H46O9
>rt 562.200000
>profile qtof
#smiles_iso CCC=CCC=CCC=CCCCCCCCC(=O)OCC(COC1C(C(C(C(O1)CO)O)O)O)O
#smiles_can CCC=CCC=CCC=CCCCCCCCC(=O)OCC(COC1C(C(C(C(O1)CO)O)O)O)O
#inchikey HUSISCNTLUEZCN-UHFFFAOYSA-N
#pubchem_id 72984398
#mb_accession PR309161,PR309162,PR309163,PR309165

>ms2
59.010730 18.000000
97.066020 18.000000
101.027240 20.000000
187.057920 18.000000
235.092910 24.000000
253.082600 32.000000
253.091710 77.000000
253.110870 24.000000
254.103880 24.000000
277.216250 1004.000000
278.217070 214.000000
279.218290 21.000000
513.311160 410.000000
514.319700 18.000000
515.330690 18.000000
559.310360 325.000000

>ms2
253.101490 18.000000
277.212430 130.000000
278.231660 21.000000
513.297240 57.000000
514.314640 24.000000
515.321290 20.000000
559.311460 38.000000

>ms2
253.088200 37.000000
277.211580 115.000000
277.229430 27.000000
278.224640 51.000000
513.298650 20.000000
515.311040 21.000000
559.299260 21.000000

>ms2
235.075030 18.000000
277.213010 201.000000
513.313720 69.000000
559.302370 64.000000

