>compound PR67989320
>parentmass 353.0871
>ionization [M-H]-
>formula C16H18O9
>rt 276.000000
>profile qtof
#smiles_iso C1C(C(C(CC1(C(=O)O)O)O)OC(=O)C=CC2=CC(=C(C=C2)O)O)O
#smiles_can C1C(C(C(CC1(C(=O)O)O)O)OC(=O)C=CC2=CC(=C(C=C2)O)O)O
#inchikey GYFFKZTYYAFCTR-UHFFFAOYSA-N
#pubchem_id 58427569
#mb_accession PR309018

>ms2peaks
135.045090 21.000000
173.043870 74.000000
173.052000 15.000000
177.019640 17.000000
191.047390 16.000000
191.054920 45.000000
353.073520 17.000000

