>compound PR67680727
>parentmass 173.0086
>ionization [M-H]-
>formula C6H6O6
>rt 115.800000
>profile qtof
#smiles_iso C(C(=CC(=O)O)C(=O)O)C(=O)O
#smiles_can C(C(=CC(=O)O)C(=O)O)C(=O)O
#inchikey GTZCVFVGUGFEME-UHFFFAOYSA-N
#pubchem_id 309
#mb_accession PR309126

>ms2
85.027870 305.000000
85.036630 16.000000
129.018910 135.000000
154.990830 18.000000

