>compound PR68903925
>parentmass 591.1714
>ionization [M-H]-
>formula C28H32O14
>rt 277.200000
>profile qtof
#smiles_iso COC1=CC(=CC(=C1O)OC)C=CC(=O)OC2C(C(C(OC2OC(=O)C=CC3=CC(=C(C(=C3)OC)O)OC)CO)O)O
#smiles_can COC1=CC(=CC(=C1O)OC)C=CC(=O)OC2C(C(C(OC2OC(=O)C=CC3=CC(=C(C(=C3)OC)O)OC)CO)O)O
#inchikey KQDOTXAUJBODDM-UHFFFAOYSA-N
#pubchem_id 3347980
#mb_accession PR309005

>ms2
164.049330 44.000000
179.062330 20.000000
190.016480 20.000000
190.027940 40.000000
190.036380 19.000000
205.052340 225.000000
206.061970 20.000000
208.023970 25.000000
223.051330 20.000000
223.062120 37.000000
224.065370 24.000000
273.051540 20.000000
277.069730 21.000000
278.109560 25.000000
289.063200 27.000000
290.066250 24.000000
301.019680 20.000000
331.083620 18.000000
349.094180 19.000000
350.089050 18.000000
350.105320 21.000000
367.088810 21.000000
479.140990 18.000000
483.120730 24.000000
506.500340 26.000000
573.168270 19.000000
573.275270 24.000000
591.142270 35.000000
591.174560 58.000000

