>compound PR68639132
>parentmass 311.2222
>ionization [M-H]-
>formula C18H32O4
>rt 439.200000
>profile qtof
#smiles_iso CCC=CCC=CCC(C(CCCCCCCC(=O)O)O)O
#smiles_can CCC=CCC=CCC(C(CCCCCCCC(=O)O)O)O
#inchikey QRHSEDZBZMZPOA-UHFFFAOYSA-N
#pubchem_id 54242986
#mb_accession PR309091

>ms2peaks
110.033670 22.000000
125.096730 16.000000
151.149780 16.000000
171.098190 58.000000
171.105360 42.000000
176.632370 33.000000
197.123660 19.000000
199.123570 49.000000
209.149480 40.000000
224.848360 16.000000
225.156810 36.000000
249.220890 18.000000
291.208890 23.000000
293.203670 35.000000
293.218840 50.000000
294.230710 17.000000
310.211360 16.000000
311.224460 565.000000

