>compound PR68995234
>parentmass 172.0965
>ionization [M-H]-
>formula C8H15NO3
>rt 224.100000
>profile qtof
#smiles_iso CC(C)CC(C(=O)O)NC(=O)C
#smiles_can CC(C)CC(C(=O)O)NC(=O)C
#inchikey WXNXCEHXYPACJF-UHFFFAOYSA-N
#pubchem_id 1995
#mb_accession PR309412,PR309413

>ms2peaks
130.087890 40.000000
172.100390 18.000000

>ms2peaks
99.921260 19.000000
130.089020 42.000000

