>compound PR68388775
>parentmass 681.1317
>ionization [M-H]-
>formula C29H30O19
>rt 238.800000
>profile qtof
#smiles_iso COC1=CC(=CC(=C1O)OC)C2=CC(=O)C3=C(C=C(C=C3O2)OC4C(C(C(C(O4)C(=O)O)O)O)OC5C(C(C(C(O5)C(=O)O)O)O)O)O
#smiles_can COC1=CC(=CC(=C1O)OC)C2=CC(=O)C3=C(C=C(C=C3O2)OC4C(C(C(C(O4)C(=O)O)O)O)OC5C(C(C(C(O5)C(=O)O)O)O)O)O
#inchikey RDNMWJOGZVGRGW-UHFFFAOYSA-N
#pubchem_id 131752191
#mb_accession PR309283

>ms2
89.024680 17.000000
113.023950 17.000000
115.002750 18.000000
131.036900 98.000000
149.041790 35.000000
157.010470 16.000000
175.026610 51.000000
193.029860 26.000000
193.038300 16.000000
255.965480 18.000000
289.054870 33.000000
315.060330 35.000000
329.063630 33.000000
333.043950 20.000000
351.056030 307.000000
352.032470 16.000000
352.063390 33.000000
402.111690 17.000000
576.143980 16.000000
664.107120 17.000000
679.290470 17.000000
680.150210 16.000000
681.133000 638.000000

