>compound PR68079161
>parentmass 665.2125
>ionization [M-H]-
>formula C24H42O21
>rt 101.400000
>profile qtof
#smiles_iso C(C1C(C(C(C(O1)OCC2C(C(C(C(O2)OCC3C(C(C(C(O3)OC4(C(C(C(O4)CO)O)O)CO)O)O)O)O)O)O)O)O)O)O
#smiles_can C(C1C(C(C(C(O1)OCC2C(C(C(C(O2)OCC3C(C(C(C(O3)OC4(C(C(C(O4)CO)O)O)CO)O)O)O)O)O)O)O)O)O)O
#inchikey UQZIYBXSHAGNOE-UHFFFAOYSA-N
#pubchem_id 4287569
#mb_accession PR308962

>ms2peaks
89.021640 33.000000
89.026310 23.000000
90.023250 25.000000
99.044140 33.000000
101.025370 17.000000
113.014720 17.000000
113.019230 20.000000
113.025960 22.000000
119.032490 34.000000
125.021290 20.000000
131.034530 37.000000
143.035550 70.000000
151.045410 17.000000
162.046650 16.000000
173.046590 24.000000
179.052900 129.000000
179.063750 39.000000
221.060290 18.000000
221.072100 18.000000
273.892000 30.000000
317.095000 22.000000
323.101320 32.000000
341.084380 17.000000
341.110840 74.000000
383.110110 37.000000
383.125790 84.000000
395.114440 48.000000
665.209050 1202.000000
665.261600 26.000000
665.279850 16.000000

