>compound PR69272628
>parentmass 955.4894
>ionization [M-H]-
>formula C48H76O19
>rt 423.000000
>profile qtof
#smiles_iso CC1C(C(C(C(O1)OC2C(C(C(OC2OC3C(C(C(OC3OC4CCC5(C(C4(C)CO)CCC6(C5CC=C7C6(CCC8(C7CC(CC8O)(C)C)C)C)C)C)C(=O)O)O)O)C(=O)O)O)O)O)O)O
#smiles_can CC1C(C(C(C(O1)OC2C(C(C(OC2OC3C(C(C(OC3OC4CCC5(C(C4(C)CO)CCC6(C5CC=C7C6(CCC8(C7CC(CC8O)(C)C)C)C)C)C)C(=O)O)O)O)C(=O)O)O)O)O)O)O
#inchikey SZHUMUJGHFQABW-UHFFFAOYSA-N
#pubchem_id 75614526
#mb_accession PR308924

>ms2peaks
119.036100 18.000000
133.017070 20.000000
163.058590 18.000000
320.866150 20.000000
321.070890 44.000000
339.064940 22.000000
339.091640 93.000000
339.106320 20.000000
340.093720 18.000000
340.110110 20.000000
382.230590 25.000000
386.477330 24.000000
407.130860 30.000000
417.094700 27.000000
480.095550 19.000000
497.115140 479.000000
497.136990 33.000000
498.116210 108.000000
499.107390 41.000000
521.836240 20.000000
541.365230 21.000000
556.642640 32.000000
572.110230 19.000000
620.100040 21.000000
633.390320 18.000000
637.408450 19.000000
651.562500 19.000000
662.048890 25.000000
800.493710 19.000000
955.489750 6751.000000
955.574160 18.000000

