>compound PR69690982
>parentmass 963.4824
>ionization [M+HCOO]-
>formula C45H74O19
>rt 259.800000
>profile qtof
#smiles_iso CC1=C(OC2C1C3(CCC4C(C3C2)CCC5C4(CC(C(C5)OC6C(C(C(C(O6)CO)O)O)OC7C(C(C(C(O7)CO)O)O)O)O)C)C)CCC(C)COC8C(C(C(C(O8)CO)O)O)O
#smiles_can CC1=C(OC2C1C3(CCC4C(C3C2)CCC5C4(CC(C(C5)OC6C(C(C(C(O6)CO)O)O)OC7C(C(C(C(O7)CO)O)O)O)O)C)C)CCC(C)COC8C(C(C(C(O8)CO)O)O)O
#inchikey QEJIXVVELVKWFA-UHFFFAOYSA-N
#pubchem_id 74029754
#mb_accession PR308985

>ms2peaks
75.175950 16.000000
115.040450 17.000000
514.985900 20.000000
594.941890 19.000000
609.360290 33.000000
771.398380 16.000000
771.432500 16.000000
772.388670 16.000000
772.451660 20.000000
831.118160 18.000000
917.280760 16.000000
917.471250 1690.000000
918.474790 971.000000
919.453980 98.000000
919.479250 104.000000
919.520510 70.000000
920.455870 25.000000
920.509580 16.000000
921.471500 18.000000
921.497740 17.000000
963.471980 107.000000
963.504030 33.000000

