>compound PR69418281
>parentmass 433.2051
>ionization [M+HCOO]-
>formula C19H32O8
>rt 208.800000
>profile qtof
#smiles_iso CC(C=CC12C(CC(CC1(O2)C)OC3C(C(C(C(O3)CO)O)O)O)(C)C)O
#smiles_can CC(C=CC12C(CC(CC1(O2)C)OC3C(C(C(C(O3)CO)O)O)O)(C)C)O
#inchikey SMBCGBWABYMHIN-UHFFFAOYSA-N
#pubchem_id 73815034
#mb_accession PR308949

>ms2peaks
179.053420 30.000000
211.066090 20.000000
433.215030 17.000000

