>compound PR69936987
>parentmass 180.0654
>ionization [M-H]-
>formula C9H11NO3
>rt 107.400000
>profile qtof
#smiles_iso C1=CC(=CC=C1CC(C(=O)O)N)O
#smiles_can C1=CC(=CC=C1CC(C(=O)O)N)O
#inchikey OUYCCCASQSFEME-UHFFFAOYSA-N
#pubchem_id 1153
#mb_accession PR309415

>ms2
72.006680 18.000000
93.038270 21.000000
119.047730 19.000000
120.051060 19.000000
134.056750 18.000000
163.038350 101.000000
178.980830 27.000000
180.064160 242.000000

