>compound PR70034550
>parentmass 927.4611
>ionization [M+HCOO]-
>formula C45H70O17
>rt 436.800000
>profile qtof
#smiles_iso CC1C2C(CC3C2(CCC4C3CC=C5C4(CCC(C5)OC6C(C(C(C(O6)CO)O)O)OC7C(C(C(C(O7)C)O)O)O)C)C)OC18CCC(CO8)COC(=O)CC(C)(CC(=O)O)O
#smiles_can CC1C2C(CC3C2(CCC4C3CC=C5C4(CCC(C5)OC6C(C(C(C(O6)CO)O)O)OC7C(C(C(C(O7)C)O)O)O)C)C)OC18CCC(CO8)COC(=O)CC(C)(CC(=O)O)O
#inchikey KRFYMPRAIPKTAI-UHFFFAOYSA-N
#pubchem_id 14633180
#mb_accession PR308975,PR308976

>ms2peaks
115.036110 28.000000
154.738740 19.000000
163.063280 18.000000
271.103450 28.000000
508.319520 21.000000
608.341490 23.000000
735.351320 18.000000
735.381530 18.000000
735.404910 62.000000
736.391850 45.000000
738.205870 18.000000
881.460940 417.000000
881.508300 37.000000
882.444520 87.000000
882.474120 94.000000
883.433960 19.000000
884.446470 18.000000
927.415410 18.000000
927.459230 127.000000
927.525940 19.000000

>ms2peaks
106.514070 20.000000
119.037810 20.000000
144.917020 18.000000
162.047700 20.000000
179.045850 20.000000
290.854460 36.000000
589.336060 18.000000
608.282650 18.000000
735.388430 37.000000
736.421510 42.000000
881.455750 516.000000
882.458370 223.000000
882.499690 40.000000
883.439510 41.000000
927.460510 1227.000000

