>compound PR70600227
>parentmass 299.0761
>ionization [M-H]-
>formula C13H16O8
>rt 154.800000
>profile qtof
#smiles_iso C1=CC(=CC=C1C(=O)O)OC2C(C(C(C(O2)CO)O)O)O
#smiles_can C1=CC(=CC=C1C(=O)O)OC2C(C(C(C(O2)CO)O)O)O
#inchikey XSSDYIMYZONMBL-UHFFFAOYSA-N
#pubchem_id 3320872
#mb_accession PR309054

>ms2peaks
89.024770 20.000000
119.027990 22.000000
124.020070 23.000000
136.018300 29.000000
137.020520 40.000000
168.004710 50.000000
179.037310 63.000000

