>compound PR70077914
>parentmass 339.12179999999995
>ionization [M-H]-
>formula C20H20O5
>rt 519.600000
>profile qtof
#smiles_iso CC(=CCC1=CC(=C(C=C1O)O)C(=O)C=C(C2=CC=C(C=C2)O)O)C
#smiles_can CC(=CCC1=CC(=C(C=C1O)O)C(=O)C=C(C2=CC=C(C=C2)O)O)C
#inchikey IXMVCKVQOAGJGJ-UHFFFAOYSA-N
#pubchem_id 145994449
#mb_accession PR309028,PR309029,PR309030

>ms2peaks
93.033100 114.000000
93.037550 30.000000
107.045570 19.000000
108.018780 23.000000
117.032880 271.000000
132.011960 18.000000
132.019650 22.000000
133.029860 20.000000
133.107530 18.000000
137.020840 18.000000
145.017840 18.000000
145.028170 79.000000
145.033040 45.000000
146.035490 109.000000
147.038360 20.000000
157.093840 39.000000
158.031620 23.000000
159.041600 42.000000
159.081850 21.000000
160.080580 20.000000
161.018040 146.000000
161.026410 253.000000
162.026050 86.000000
163.022830 20.000000
164.039660 18.000000
175.110570 25.000000
177.091110 326.000000
178.097640 49.000000
189.010030 20.000000
189.023860 18.000000
199.072480 18.000000
201.015760 29.000000
201.083360 142.000000
201.089370 293.000000
201.098010 198.000000
202.098860 20.000000
203.068570 200.000000
210.739970 19.000000
217.082990 36.000000
219.096980 97.000000
219.112690 18.000000
220.082990 19.000000
221.080250 18.000000
245.050600 18.000000
245.079730 2272.000000
245.124340 21.000000
246.082310 339.000000
246.095980 27.000000
247.088610 19.000000
248.081570 20.000000
310.120330 18.000000
339.121370 612.000000

>ms2peaks
93.033410 39.000000
94.033750 22.000000
94.039700 18.000000
117.036130 136.000000
118.033450 19.000000
120.053150 18.000000
133.103060 18.000000
137.025890 18.000000
145.022600 20.000000
146.040480 19.000000
159.086030 20.000000
161.023090 246.000000
162.025070 70.000000
174.068080 21.000000
177.090850 234.000000
177.107190 18.000000
178.094510 88.000000
178.107160 19.000000
189.013870 41.000000
190.027160 23.000000
199.072860 18.000000
201.093610 262.000000
202.024980 22.000000
202.083220 21.000000
203.065900 19.000000
203.090560 20.000000
219.104160 43.000000
245.079560 1000.000000
245.273240 28.000000
246.075810 20.000000
246.088760 101.000000
309.112460 22.000000
339.122010 548.000000

>ms2peaks
107.054920 18.000000
117.037970 18.000000
134.035280 20.000000
161.018770 27.000000
161.025890 24.000000
177.096300 18.000000
179.056640 26.000000
190.021480 20.000000
201.089250 32.000000
245.079530 122.000000
339.136780 21.000000
339.206510 26.000000

