>compound PR70091752
>parentmass 291.1346
>ionization [M-H]-
>formula C15H20N2O4
>rt 173.400000
>profile qtof
#smiles_iso C1=CC=C(C=C1)CCCC(=O)NC(CCC(=O)N)C(=O)O
#smiles_can C1=CC=C(C=C1)CCCC(=O)NC(CCC(=O)N)C(=O)O
#inchikey XKQKXKRCMAJADR-UHFFFAOYSA-N
#pubchem_id 9943917
#mb_accession PR309408

>ms2peaks
119.050670 175.000000
120.053410 16.000000
127.082150 17.000000
127.090520 54.000000
128.071790 18.000000
145.097240 16.000000
171.071230 36.000000
171.082050 28.000000
221.989850 27.000000
291.139220 70.000000

