>compound PR71372001
>parentmass 282.0834
>ionization [M-H]-
>formula C10H13N5O5
>rt 117.000000
>profile qtof
#smiles_iso C1=NC2=C(N1[C@H]3[C@@H]([C@@H]([C@H](O3)CO)O)O)N=C(NC2=O)N
#smiles_can C1=NC2=C(N1C3C(C(C(O3)CO)O)O)N=C(NC2=O)N
#inchikey NYHBQMYGNKIUIF-UUOKFMHZSA-N
#pubchem_id 135398635
#mb_accession PR309134

>ms2
78.649880 30.000000
108.021610 127.000000
114.053330 18.000000
133.003450 25.000000
133.017270 190.000000
135.032530 24.000000
150.043150 887.000000
151.045940 22.000000
152.042480 22.000000
164.172760 20.000000
192.053470 20.000000
282.085390 394.000000

