>compound PR71783328
>parentmass 723.3464
>ionization [M+HCOO]-
>formula C32H54O15
>rt 598.800000
>profile qtof
#smiles_iso CCCCCC(=O)OC1C(OC(C(C1OC(=O)CCCCC)OC(=O)CCCCC)OC2(C(C(C(O2)CO)OC(=O)C)O)CO)CO
#smiles_can CCCCCC(=O)OC1C(OC(C(C1OC(=O)CCCCC)OC(=O)CCCCC)OC2(C(C(C(O2)CO)OC(=O)C)O)CO)CO
#inchikey ULBIMFHIPUGBOI-UHFFFAOYSA-N
#pubchem_id 139292089
#mb_accession PR309011

>ms2
115.072270 19.000000
305.088960 16.000000
366.089660 20.000000
383.119350 33.000000
481.188660 16.000000
579.274600 69.000000
581.271420 17.000000
677.366700 16.000000
723.344850 278.000000

