>compound PR71762077
>parentmass 461.1077
>ionization [M-H]-
>formula C22H22O11
>rt 222.600000
>profile qtof
#smiles_iso COC1=C(C(=C2C(=C1)OC(=CC2=O)C3=CC(=C(C=C3)O)O)O)C4C(C(C(C(O4)CO)O)O)O
#smiles_can COC1=C(C(=C2C(=C1)OC(=CC2=O)C3=CC(=C(C=C3)O)O)O)C4C(C(C(C(O4)CO)O)O)O
#inchikey DLVLXOYLQKCAME-UHFFFAOYSA-N
#pubchem_id 3556303
#mb_accession PR309289

>ms2
132.273220 18.000000
148.036620 16.000000
158.919680 18.000000
175.037060 20.000000
178.986080 19.000000
193.006770 18.000000
205.045010 20.000000
207.032300 23.000000
217.051240 16.000000
246.234470 18.000000
252.072860 17.000000
252.603440 16.000000
271.052520 17.000000
284.023930 25.000000
284.036590 16.000000
284.052670 18.000000
285.036290 76.000000
285.048520 40.000000
297.030850 16.000000
297.047790 18.000000
297.062560 33.000000
298.041050 194.000000
298.058410 72.000000
298.391750 19.000000
298.848480 17.000000
299.055300 42.000000
311.014130 18.000000
313.032470 405.000000
314.032500 59.000000
314.045260 50.000000
321.951930 17.000000
325.028320 25.000000
325.047060 19.000000
341.049530 50.000000
341.061980 98.000000
341.079350 32.000000
342.073390 33.000000
344.063140 24.000000
357.068020 17.000000
453.085540 22.000000
461.110290 2840.000000
461.137850 101.000000

