>compound PR71492974
>parentmass 129.0188
>ionization [M-H]-
>formula C5H6O4
>rt 130.800000
>profile qtof
#smiles_iso C=C(CC(=O)O)C(=O)O
#smiles_can C=C(CC(=O)O)C(=O)O
#inchikey LVHBHZANLOWSRM-UHFFFAOYSA-N
#pubchem_id 811
#mb_accession PR309123

>ms2
85.027630 112.000000
85.066820 20.000000
85.807200 16.000000

