>compound PR71170287
>parentmass 423.1818
>ionization [M-H]-
>formula C25H28O6
>rt 544.800000
>profile qtof
#smiles_iso CC(=CCC1=C(C(=CC(=C1)C2CC(=O)C3=C(C=C(C(=C3O2)CC=C(C)C)O)O)O)O)C
#smiles_can CC(=CCC1=C(C(=CC(=C1)C2CC(=O)C3=C(C=C(C(=C3O2)CC=C(C)C)O)O)O)O)C
#inchikey HCBKENVWCDLQOA-UHFFFAOYSA-N
#pubchem_id 480770
#mb_accession PR309043

>ms2peaks
65.003940 27.000000
123.043050 18.000000
131.085210 21.000000
133.064360 39.000000
148.051240 42.000000
149.058400 21.000000
175.079940 19.000000
176.006870 20.000000
191.107070 22.000000
203.108220 301.000000
205.084580 23.000000
219.066330 440.000000
220.069240 30.000000
379.188510 36.000000
381.216310 40.000000
423.158170 32.000000
423.184420 631.000000

