>compound PR71162800
>parentmass 687.1948
>ionization [M-H]-
>formula C33H36O16
>rt 292.800000
>profile qtof
#smiles_iso COC1=CC(=CC(=C1OC(COC2C(C(C(C(O2)CO)O)O)O)C(C3=CC(=C(C=C3)O)OC)O)OC)C4=CC(=O)C5=C(C=C(C=C5O4)O)O
#smiles_can COC1=CC(=CC(=C1OC(COC2C(C(C(C(O2)CO)O)O)O)C(C3=CC(=C(C=C3)O)OC)O)OC)C4=CC(=O)C5=C(C=C(C=C5O4)O)O
#inchikey WTKUHKWWAMSHEE-UHFFFAOYSA-N
#pubchem_id 77136544
#mb_accession PR309178

>ms2peaks
195.066990 85.000000
314.046300 36.000000
314.059110 16.000000
315.047240 27.000000
329.044460 16.000000
329.065090 165.000000
491.115780 18.000000
511.617130 32.000000
525.146670 86.000000
525.191590 16.000000
526.140320 16.000000
526.159120 35.000000
526.196660 16.000000
685.153630 16.000000
687.165950 24.000000
687.193660 57.000000

