>compound PR72590575
>parentmass 297.2422
>ionization [M-H]-
>formula C18H34O3
>rt 604.800000
>profile qtof
#smiles_iso CCCCCCC(CC=CCCCCCCCC(=O)O)O
#smiles_can CCCCCCC(CC=CCCCCCCCC(=O)O)O
#inchikey WBHHMMIMDMUBKC-UHFFFAOYSA-N
#pubchem_id 8839
#mb_accession PR309103

>ms2peaks
168.093260 17.000000
279.228240 28.000000
297.242980 80.000000

