>compound PR73773930
>parentmass 341.1079
>ionization [M+HCOO]-
>formula C11H20O9
>rt 114.600000
>profile qtof
#smiles_iso CC(=O)OCC(COC1C(C(C(C(O1)CO)O)O)O)O
#smiles_can CC(=O)OCC(COC1C(C(C(C(O1)CO)O)O)O)O
#inchikey SMBXNCWYGRMWEJ-UHFFFAOYSA-N
#pubchem_id 74033878
#mb_accession PR309146

>ms2
101.018630 21.000000
101.027210 42.000000
107.051130 41.000000
113.022600 16.000000
131.034000 18.000000
133.052260 18.000000
143.032070 27.000000
159.013720 19.000000
161.045520 40.000000
167.898530 16.000000
209.937710 18.000000
211.142320 17.000000
232.054410 16.000000
235.079590 321.000000
236.078030 16.000000
253.089580 74.000000
269.332790 16.000000
295.103910 921.000000
296.102080 142.000000
296.114230 55.000000
297.094880 16.000000
297.112300 47.000000
341.089050 37.000000

