>compound PR73240415
>parentmass 711.1402
>ionization [M-H]-
>formula C30H32O20
>rt 186.000000
>profile qtof
#smiles_iso C1=CC(=C(C=C1C2=C(C(=O)C3=C(C=C(C=C3O2)OC4C(C(C(C(O4)CO)O)O)O)O)OC5C(C(C(C(O5)COC(=O)CC(=O)O)O)O)O)O)O
#smiles_can C1=CC(=C(C=C1C2=C(C(=O)C3=C(C=C(C=C3O2)OC4C(C(C(C(O4)CO)O)O)O)O)OC5C(C(C(C(O5)COC(=O)CC(=O)O)O)O)O)O)O
#inchikey ZLQYEKDHCDLAGO-UHFFFAOYSA-N
#pubchem_id 74978238
#mb_accession PR309258

>ms2peaks
189.914260 37.000000
209.044280 39.000000
271.017850 55.000000
299.018370 109.000000
300.020170 20.000000
301.035430 59.000000
301.044560 76.000000
302.042480 26.000000
313.041530 18.000000
327.321290 19.000000
344.057830 21.000000
355.071260 26.000000
379.756930 18.000000
405.129670 21.000000
423.058530 18.000000
461.930970 18.000000
462.077970 182.000000
462.097900 36.000000
463.069400 63.000000
463.104060 20.000000
466.434810 18.000000
504.131010 22.000000
505.093690 83.000000
506.019290 27.000000
507.120240 19.000000
527.218870 20.000000
625.141360 18.000000
627.141720 20.000000
667.150020 878.000000
668.124210 45.000000
668.160950 104.000000
668.189580 19.000000
669.164790 20.000000
669.182370 20.000000
670.150020 21.000000
711.141300 305.000000

