>compound PR73900806
>parentmass 327.2168
>ionization [M-H]-
>formula C18H32O5
>rt 471.000000
>profile qtof
#smiles_iso CCCCCC=CCC(C(C(=O)CCCCCCC(=O)O)O)O
#smiles_can CCCCCC=CCC(C(C(=O)CCCCCCC(=O)O)O)O
#inchikey NIOKCFABUMZUDL-UHFFFAOYSA-N
#pubchem_id 71342303
#mb_accession PR309101

>ms2peaks
113.096470 17.000000
123.043110 36.000000
127.116740 17.000000
129.082870 16.000000
129.094440 22.000000
166.096470 20.000000
171.105120 16.000000
185.117020 33.000000
197.109710 16.000000
199.122380 16.000000
201.106000 97.000000
201.117890 100.000000
213.101000 16.000000
213.111760 61.000000
214.112980 16.000000
227.133760 16.000000
229.147170 18.000000
253.145050 18.000000
292.200680 20.000000
309.198880 32.000000
327.198820 55.000000
327.217010 408.000000

