>compound PR73262069
>parentmass 793.4382
>ionization [M-H]-
>formula C42H66O14
>rt 469.800000
>profile qtof
#smiles_iso CC1(CCC2(CCC3(C(=CCC4C3(CCC5C4(CCC(C5(C)C)OC6C(C(C(C(O6)C(=O)O)O)OC7C(C(C(C(O7)CO)O)O)O)O)C)C)C2C1)C)C(=O)O)C
#smiles_can CC1(CCC2(CCC3(C(=CCC4C3(CCC5C4(CCC(C5(C)C)OC6C(C(C(C(O6)C(=O)O)O)OC7C(C(C(C(O7)CO)O)O)O)O)C)C)C2C1)C)C(=O)O)C
#inchikey BQPYEFAVIPEQIK-UHFFFAOYSA-N
#pubchem_id 5087641
#mb_accession PR308912

>ms2peaks
71.007300 24.000000
71.010840 20.000000
89.023830 18.000000
99.010320 64.000000
113.024040 20.000000
131.958450 19.000000
143.036250 24.000000
159.020970 25.000000
161.044630 19.000000
215.121550 29.000000
320.169710 18.000000
332.089570 21.000000
337.069400 18.000000
341.545140 21.000000
357.424350 30.000000
396.161960 27.000000
396.175140 19.000000
451.268460 37.000000
453.320070 21.000000
455.328490 27.000000
455.361110 25.000000
471.687770 38.000000
523.377320 24.000000
524.360230 18.000000
524.374270 21.000000
524.392640 22.000000
537.368590 20.000000
538.364620 18.000000
551.378420 30.000000
612.000180 27.000000
613.379940 143.000000
614.354310 41.000000
631.393860 18.000000
731.455020 19.000000
748.417180 18.000000
755.416020 18.000000
757.504520 47.000000
759.144470 18.000000
786.442750 31.000000
792.407960 18.000000
793.375370 19.000000
793.436650 5358.000000
793.506100 30.000000

