>compound PR73731993
>parentmass 817.2031
>ionization [M-H]-
>formula C34H42O23
>rt 167.400000
>profile qtof
#smiles_iso COC1=C(C(=CC(=C1)C2=C(C(=O)C3=C(C=C(C=C3O2)OC4C(C(C(C(O4)CO)O)O)O)O)OC5C(C(C(C(O5)CO)O)O)O)OC6C(C(C(C(O6)CO)O)O)O)O
#smiles_can COC1=C(C(=CC(=C1)C2=C(C(=O)C3=C(C=C(C=C3O2)OC4C(C(C(C(O4)CO)O)O)O)O)OC5C(C(C(C(O5)CO)O)O)O)OC6C(C(C(C(O6)CO)O)O)O)O
#inchikey POYUZVAGWZVXKD-UHFFFAOYSA-N
#pubchem_id 74978322
#mb_accession PR309266

>ms2peaks
180.270940 27.000000
195.211530 18.000000
220.028170 27.000000
223.065770 32.000000
240.719600 20.000000
301.033780 27.000000
315.015690 27.000000
319.517150 24.000000
324.113560 29.000000
325.539980 18.000000
329.027950 73.000000
330.040500 140.000000
330.057860 18.000000
330.236600 22.000000
331.020230 21.000000
331.045960 1453.000000
332.043030 48.000000
332.055210 75.000000
340.388790 21.000000
345.076870 28.000000
356.180820 19.000000
365.938320 18.000000
369.071930 26.000000
372.996950 18.000000
373.053220 39.000000
373.069950 18.000000
374.081480 18.000000
378.451930 18.000000
388.581540 26.000000
417.066130 20.000000
441.279270 30.000000
442.269200 20.000000
450.405210 30.000000
461.377870 49.000000
464.701050 20.000000
464.850460 18.000000
478.082920 31.000000
478.707340 18.000000
485.998600 51.000000
491.101560 20.000000
492.086790 416.000000
493.098360 4615.000000
493.136720 76.000000
493.160770 26.000000
494.103090 951.000000
494.622160 18.000000
495.088780 50.000000
495.106410 222.000000
495.131070 21.000000
496.750640 18.000000
497.850220 18.000000
502.758360 19.000000
509.802610 27.000000
516.730350 18.000000
527.562500 20.000000
535.114750 20.000000
536.118770 18.000000
540.472410 23.000000
543.630130 19.000000
549.553040 21.000000
654.132930 25.000000
654.155940 20.000000
654.495670 25.000000
655.152220 4768.000000
656.095030 20.000000
656.156620 1728.000000
657.124450 54.000000
657.164790 172.000000
658.143370 26.000000
658.228580 18.000000
697.181090 18.000000
716.789490 36.000000
719.266660 41.000000
816.199890 24.000000
817.120850 20.000000
817.203920 7679.000000
817.278260 23.000000
817.352480 25.000000

