>compound PR73992483
>parentmass 223.1333
>ionization [M-H]-
>formula C13H20O3
>rt 435.000000
>profile qtof
#smiles_iso C(CCCC=CC=CC=O)CCCC(=O)O
#smiles_can C(CCCC=CC=CC=O)CCCC(=O)O
#inchikey XHDHWGKEDVWKAN-UHFFFAOYSA-N
#pubchem_id 54469261
#mb_accession PR309071

>ms2peaks
85.060550 20.000000
107.084830 20.000000
110.101350 21.000000
114.908120 18.000000
123.115360 21.000000
149.090160 28.000000
167.106460 29.000000
179.105580 20.000000
179.139800 21.000000
195.135360 56.000000
195.146010 21.000000
205.124070 30.000000
206.126210 43.000000
223.135030 518.000000

