>compound PR74312052
>parentmass 823.4103
>ionization [M-H]-
>formula C42H64O16
>rt 369.000000
>profile qtof
#smiles_iso CC12CCC(CC1C3=CCC4C5(CCC(C(C5CCC4(C3(CC2)C)C)(C)CO)OC6C(C(C(C(O6)C(=O)O)O)O)OC7C(C(C(C(O7)C(=O)O)O)O)O)C)(C)C(=O)O
#smiles_can CC12CCC(CC1C3=CCC4C5(CCC(C(C5CCC4(C3(CC2)C)C)(C)CO)OC6C(C(C(C(O6)C(=O)O)O)O)OC7C(C(C(C(O7)C(=O)O)O)O)O)C)(C)C(=O)O
#inchikey SLWCVFLNZDOMEZ-UHFFFAOYSA-N
#pubchem_id 74029747
#mb_accession PR308911

>ms2peaks
175.024350 20.000000
193.031310 18.000000
193.043370 39.000000
351.053740 39.000000
351.068150 18.000000
352.051330 18.000000
490.365540 20.000000
802.604060 21.000000
823.416080 258.000000

