>compound PR74501308
>parentmass 547.1460500000001
>ionization [M-H]-
>formula C26H28O13
>rt 316.500000
>profile qtof
#smiles_iso C1C(C(C(C(O1)OCC2C(C(C(C(O2)OCC3=C(C4=C(C=C3)C(=O)C5=CC=CC=C5C4=O)O)O)O)O)O)O)O
#smiles_can C1C(C(C(C(O1)OCC2C(C(C(C(O2)OCC3=C(C4=C(C=C3)C(=O)C5=CC=CC=C5C4=O)O)O)O)O)O)O)O
#inchikey BMOUMJCDDOLCGR-UHFFFAOYSA-N
#pubchem_id 139291798
#mb_accession PR309397,PR309398

>ms2
59.014120 77.000000
71.011760 123.000000
73.028230 19.000000
73.037080 16.000000
85.104390 16.000000
89.022640 543.000000
90.030100 16.000000
91.029940 17.000000
100.689450 20.000000
101.022420 328.000000
113.020840 78.000000
119.033380 80.000000
125.024770 34.000000
131.032790 462.000000
132.037770 40.000000
135.098250 18.000000
138.049240 16.000000
148.899290 17.000000
148.977720 26.000000
149.012040 16.000000
149.044600 1464.000000
150.048110 141.000000
151.048050 20.000000
161.042590 16.000000
161.053100 16.000000
168.026170 17.000000
191.051300 401.000000
191.059340 276.000000
191.070310 16.000000
193.060350 19.000000
194.037690 18.000000
206.198590 44.000000
209.066820 22.000000
210.066410 16.000000
221.063740 32.000000
225.062320 16.000000
231.050830 16.000000
236.040420 30.000000
236.050220 69.000000
237.055650 422.000000
238.050080 48.000000
238.062030 101.000000
251.071120 38.000000
251.081420 35.000000
252.034680 89.000000
252.045460 173.000000
252.080570 19.000000
253.052460 442.000000
254.051220 23.000000
254.058720 43.000000
255.408690 24.000000
267.067440 38.000000
267.561000 17.000000
274.153810 21.000000
277.058620 16.000000
279.076660 18.000000
281.083130 32.000000
281.673950 20.000000
295.058530 72.000000
296.065310 16.000000
311.089510 17.000000
319.321040 28.000000
324.755890 16.000000
325.127810 18.000000
400.125030 18.000000
417.099000 19.000000
427.102390 16.000000
457.116460 21.000000
490.258240 18.000000
531.167540 17.000000
546.142580 16.000000

>ms2
59.017270 22.000000
89.018430 33.000000
101.026980 32.000000
141.019730 27.000000
149.046840 17.000000
150.247250 17.000000
163.610670 20.000000
194.632710 29.000000
210.032940 26.000000
215.044570 19.000000
225.037630 16.000000
225.055160 45.000000
225.513840 21.000000
226.375320 18.000000
237.042130 24.000000
239.033250 16.000000
240.565480 50.000000
251.037220 16.000000
252.038180 18.000000
252.050030 26.000000
253.015010 22.000000
253.048900 9528.000000
253.291610 19.000000
253.343800 19.000000
254.022460 17.000000
254.052660 1706.000000
254.075450 18.000000
255.052960 166.000000
255.063370 59.000000
255.182590 16.000000
256.066070 23.000000
257.060180 18.000000
257.636170 16.000000
260.725950 19.000000
266.043760 41.000000
266.061800 17.000000
267.050840 36.000000
267.063870 71.000000
278.058530 21.000000
292.060420 16.000000
295.047270 57.000000
295.064850 16.000000
312.999730 16.000000
319.054410 36.000000
349.204350 19.000000
437.105010 45.000000
455.647160 17.000000
547.071110 16.000000
547.145320 1117.000000

