>compound PR74661034
>parentmass 753.4027
>ionization [M+HCOO]-
>formula C38H60O12
>rt 515.400000
>profile qtof
#smiles_iso CC1CCC2(C(C3C(O2)CC4C3(CCC5C4CC=C6C5(C(CC(C6)O)OC7C(C(C(CO7)O)O)OC8C(C(C(C(O8)C)O)O)O)C)C)C)OC1
#smiles_can CC1CCC2(C(C3C(O2)CC4C3(CCC5C4CC=C6C5(C(CC(C6)O)OC7C(C(C(CO7)O)O)OC8C(C(C(C(O8)C)O)O)O)C)C)C)OC1
#inchikey SKHJNNFXCKTDBG-UHFFFAOYSA-N
#pubchem_id 3509806
#mb_accession PR308969

>ms2
101.025150 17.000000
131.030720 47.000000
131.034910 20.000000
387.174220 20.000000
561.341980 20.000000
562.342710 24.000000
562.357480 16.000000
562.804380 16.000000
707.399480 1029.000000
708.402340 257.000000
708.446170 34.000000
709.400630 36.000000
709.427550 54.000000
710.404850 19.000000
724.316410 18.000000
753.358700 19.000000
753.382320 62.000000
753.413570 185.000000

