>compound PR75310675
>parentmass 407.1851
>ionization [M-H]-
>formula C25H28O5
>rt 580.400000
>profile qtof
#smiles_iso CC(=CCC1=CC(=C(C=C1O)O)C(=O)C=C(C2=CC(=C(C=C2)O)CC=C(C)C)O)C
#smiles_can CC(=CCC1=CC(=C(C=C1O)O)C(=O)C=C(C2=CC(=C(C=C2)O)CC=C(C)C)O)C
#inchikey FFPFIAFZJXSGDK-UHFFFAOYSA-N
#pubchem_id 74819274
#mb_accession PR309344,PR309345,PR309346

>ms2
104.360950 20.000000
106.043700 113.000000
107.046530 18.000000
108.019790 26.000000
109.025110 26.000000
109.062500 21.000000
121.029500 18.000000
122.036630 18.000000
126.184910 18.000000
130.039580 48.000000
130.045900 25.000000
132.020370 41.000000
133.108490 24.000000
134.025910 20.000000
145.020690 19.000000
145.029450 89.000000
146.037730 79.000000
148.052730 19.000000
150.029740 47.000000
158.030850 57.000000
158.040500 24.000000
159.079160 21.000000
159.692860 19.000000
161.095260 1065.000000
161.110030 18.000000
162.095250 65.000000
162.102720 53.000000
171.344730 18.000000
174.032390 21.000000
175.081160 18.000000
177.090930 388.000000
178.091020 20.000000
185.098080 501.000000
186.022310 19.000000
186.101640 62.000000
190.027770 20.000000
196.470990 18.000000
200.079380 19.000000
201.053330 18.000000
201.062640 19.000000
201.090190 814.000000
202.090910 73.000000
203.069210 121.000000
203.080410 23.000000
219.104980 233.000000
219.117190 55.000000
220.097000 18.000000
221.099900 20.000000
229.086180 681.000000
229.107650 18.000000
230.090040 18.000000
235.556140 22.000000
242.009260 21.000000
244.908520 31.000000
245.044980 18.000000
245.081010 3514.000000
245.113630 23.000000
246.079710 239.000000
246.092860 200.000000
247.077730 27.000000
247.098080 39.000000
248.088380 19.000000
251.058700 20.000000
262.455570 20.000000
288.899660 18.000000
405.158510 27.000000
406.177830 18.000000
406.513180 20.000000
407.184480 1686.000000

>ms2
130.070390 18.000000
161.098310 66.000000
164.056550 23.000000
177.090810 20.000000
177.096710 20.000000
185.093570 25.000000
187.102480 27.000000
201.087950 40.000000
202.089000 23.000000
202.098720 24.000000
219.099690 19.000000
229.085740 23.000000
245.085540 356.000000
246.092150 18.000000
313.127590 20.000000
313.142090 20.000000
407.168150 39.000000
407.190920 109.000000

>ms2
106.037410 24.000000
106.044350 69.000000
108.027350 23.000000
113.581100 27.000000
130.043350 39.000000
131.043840 20.000000
132.024440 25.000000
132.035770 18.000000
137.433290 22.000000
145.037290 21.000000
146.036970 24.000000
150.034270 20.000000
158.035900 18.000000
161.096270 813.000000
162.094590 36.000000
162.101170 27.000000
163.041430 20.000000
164.040050 18.000000
164.048520 20.000000
175.062610 28.000000
176.092000 21.000000
177.090820 347.000000
178.430020 22.000000
185.094940 485.000000
185.112580 19.000000
186.091450 39.000000
186.100450 22.000000
190.028180 18.000000
201.090930 628.000000
202.083590 19.000000
202.099370 24.000000
203.068860 21.000000
203.084790 20.000000
203.092290 19.000000
204.074010 37.000000
219.099440 82.000000
219.109340 42.000000
221.110580 20.000000
223.901580 20.000000
229.086430 398.000000
230.086060 38.000000
245.081360 2381.000000
246.078260 127.000000
246.088970 174.000000
247.079990 38.000000
407.136900 20.000000
407.187190 1511.000000
407.215150 20.000000

