>compound PR75143844
>parentmass 929.47505
>ionization [M+HCOO]-
>formula C45H72O17
>rt 342.300000
>profile qtof
#smiles_iso CC1CCC2(C(C3C(O2)CC4C3(CCC5C4CC=C6C5(CCC(C6)OC7C(C(C(C(O7)CO)OC8C(C(C(C(O8)C)O)O)O)O)OC9C(C(C(C(O9)C)O)O)O)C)C)C)OC1O
#smiles_can CC1CCC2(C(C3C(O2)CC4C3(CCC5C4CC=C6C5(CCC(C6)OC7C(C(C(C(O7)CO)OC8C(C(C(C(O8)C)O)O)O)O)OC9C(C(C(C(O9)C)O)O)O)C)C)C)OC1O
#inchikey LPZCNTXUCIGYQK-UHFFFAOYSA-N
#pubchem_id 85271213
#mb_accession PR308978,PR308979

>ms2peaks
113.017260 20.000000
119.034620 21.000000
143.037920 18.000000
165.066790 19.000000
247.086070 47.000000
737.394780 20.000000
883.474910 304.000000
884.449340 61.000000
884.480350 73.000000
885.477360 81.000000
885.499210 40.000000
886.519650 28.000000
887.522950 23.000000
890.128780 18.000000
929.485350 182.000000

>ms2peaks
59.011430 20.000000
119.032830 22.000000
163.062500 22.000000
164.062790 20.000000
205.058900 19.000000
247.083530 21.000000
289.105160 20.000000
555.341980 18.000000
719.383610 20.000000
719.414550 20.000000
737.395690 18.000000
737.422000 51.000000
737.438420 20.000000
738.412660 20.000000
740.427670 23.000000
750.064090 20.000000
883.467410 707.000000
884.479430 206.000000
885.455570 19.000000
885.492000 63.000000
886.490300 18.000000
922.304630 26.000000
929.467040 216.000000
929.496340 181.000000

