>compound PR75139836
>parentmass 355.1176666666667
>ionization [M-H]-
>formula C20H20O6
>rt 481.200000
>profile qtof
#smiles_iso CC(=CCC1=C2C(=C(C=C1O)O)C(=O)C(CO2)C3=C(C=C(C=C3)O)O)C
#smiles_can CC(=CCC1=C2C(=C(C=C1O)O)C(=O)C(CO2)C3=C(C=C(C=C3)O)O)C
#inchikey MERHMOCEIBOOMA-UHFFFAOYSA-N
#pubchem_id 119269
#mb_accession PR309038,PR309040,PR309044

>ms2peaks
63.020920 25.000000
65.000410 20.000000
65.005750 18.000000
75.605140 21.000000
107.046070 18.000000
109.067710 18.000000
121.999790 18.000000
122.005500 18.000000
123.076220 20.000000
133.061550 38.000000
133.069810 62.000000
134.032380 20.000000
134.067150 18.000000
135.044050 1194.000000
136.042450 59.000000
136.081180 18.000000
137.020710 18.000000
148.016720 31.000000
149.063190 28.000000
149.993350 50.000000
161.022740 23.000000
164.011870 30.000000
175.075150 81.000000
176.076540 36.000000
177.014850 20.000000
192.064470 18.000000
193.075060 21.000000
193.082960 19.000000
215.109630 22.000000
217.045940 28.000000
219.064030 1950.000000
219.330230 20.000000
220.067170 233.000000
220.077220 49.000000
221.069430 18.000000
232.068560 21.000000
245.081210 20.000000
267.100650 20.000000
338.099120 18.000000
355.118930 1338.000000
355.172300 18.000000

>ms2peaks
135.046940 69.000000
147.086170 18.000000
175.090940 19.000000
193.087490 20.000000
219.063310 21.000000
314.145570 20.000000
337.097440 20.000000
354.090940 18.000000
354.107420 21.000000
355.117430 90.000000

>ms2peaks
109.029400 43.000000
146.040620 19.000000
175.118090 20.000000
201.091660 33.000000
220.107300 18.000000
244.071120 18.000000
245.082980 189.000000
246.067310 18.000000
312.674010 20.000000
355.107420 42.000000
355.124540 20.000000

