>compound PR75708078
>parentmass 323.1275
>ionization [M-H]-
>formula C20H20O4
>rt 454.800000
>profile qtof
#smiles_iso CC(=CCC1=C(C2=C(C=C1O)OC(CC2=O)C3=CC=CC=C3)O)C
#smiles_can CC(=CCC1=C(C2=C(C=C1O)OC(CC2=O)C3=CC=CC=C3)O)C
#inchikey UOWOIGNEFLTNAW-UHFFFAOYSA-N
#pubchem_id 480763
#mb_accession PR309034

>ms2peaks
89.221230 20.000000
91.011580 30.000000
109.026790 20.000000
132.054410 43.000000
132.058170 96.000000
135.007630 96.000000
136.004790 18.000000
136.014950 19.000000
147.052030 21.000000
187.112880 83.000000
203.097410 32.000000
323.130580 228.000000

