>compound PR76299373
>parentmass 385.11339999999996
>ionization [M-H]-
>formula C17H22O10
>rt 206.400000
>profile qtof
#smiles_iso COC1=CC(=CC(=C1O)OC)C=CC(=O)OC2C(C(C(C(O2)CO)O)O)O
#smiles_can COC1=CC(=CC(=C1O)OC)C=CC(=O)OC2C(C(C(C(O2)CO)O)O)O
#inchikey XRKBRPFTFKKHEF-UHFFFAOYSA-N
#pubchem_id 4628123
#mb_accession PR309003,PR309004

>ms2peaks
149.021040 25.000000
164.050190 46.000000
175.005690 33.000000
175.056490 23.000000
178.057430 21.000000
179.066700 22.000000
190.029390 144.000000
190.043850 17.000000
191.022140 27.000000
205.049410 706.000000
206.054210 52.000000
207.045500 21.000000
223.053620 91.000000
223.067210 50.000000
247.058520 97.000000
247.070910 24.000000
265.067840 18.000000
289.068940 28.000000
326.100400 16.000000
385.107390 41.000000
385.120940 73.000000

>ms2peaks
149.022800 25.000000
164.047120 21.000000
175.001880 21.000000
189.018620 20.000000
205.049330 200.000000
216.593490 19.000000
221.077790 23.000000
223.061190 51.000000
223.071370 17.000000
234.042480 20.000000
247.058180 27.000000
265.067170 17.000000
267.072080 20.000000
307.987550 16.000000
313.120390 24.000000
339.092010 35.000000
352.059780 16.000000
385.125640 16.000000

