>compound PR76287429
>parentmass 281.0648
>ionization [M-H]-
>formula C13H14O7
>rt 214.800000
>profile qtof
#smiles_iso COC1=C(C=C(C=C1)/C=C/C(=O)OCC(C(=O)O)O)O
#smiles_can COC1=C(C=C(C=C1)C=CC(=O)OCC(C(=O)O)O)O
#inchikey ZWAYKTOAUPIGML-HWKANZROSA-N
#pubchem_id 139292180
#mb_accession PR309326

>ms2
134.036130 24.000000
149.062210 25.000000
178.021000 44.000000
178.028820 49.000000
179.025240 19.000000
179.037520 25.000000
193.047810 221.000000

