>compound PR76110551
>parentmass 911.5021
>ionization [M-H]-
>formula C47H76O17
>rt 436.800000
>profile qtof
#smiles_iso CC1C(C(C(C(O1)OC2C(C(COC2OC3C(C(C(OC3OC4CCC5(C(C4(C)CO)CCC6(C5CC=C7C6(CCC8(C7CC(CC8O)(C)C)C)C)C)C)C(=O)O)O)O)O)O)O)O)O
#smiles_can CC1C(C(C(C(O1)OC2C(C(COC2OC3C(C(C(OC3OC4CCC5(C(C4(C)CO)CCC6(C5CC=C7C6(CCC8(C7CC(CC8O)(C)C)C)C)C)C)C(=O)O)O)O)O)O)O)O)O
#inchikey IBZLICPLPYSFNZ-UHFFFAOYSA-N
#pubchem_id 13326381
#mb_accession PR308918

>ms2
59.016450 20.000000
85.025550 20.000000
89.018040 20.000000
113.017880 18.000000
131.033810 43.000000
157.012440 18.000000
163.059740 20.000000
201.025330 27.000000
205.067990 51.000000
205.074980 42.000000
247.080750 20.000000
277.088470 20.000000
295.108460 18.000000
296.508700 18.000000
370.845460 24.000000
411.431820 28.000000
435.122740 22.000000
458.367400 39.000000
464.269200 24.000000
480.652950 21.000000
481.951350 32.000000
482.539730 18.000000
492.959870 21.000000
506.761080 33.000000
509.101530 22.000000
525.376710 23.000000
572.420040 20.000000
624.350950 18.000000
630.704410 23.000000
632.403560 20.000000
661.002080 21.000000
668.665410 18.000000
690.707280 25.000000
890.750850 23.000000
911.361940 18.000000
911.501100 9387.000000
911.646420 18.000000

