>compound PR77243886
>parentmass 575.1386
>ionization [M-H]-
>formula C27H28O14
>rt 279.600000
>profile qtof
#smiles_iso CC1C(C(C(C(O1)OC2C(C(=O)C(OC2C3=C(C4=C(C=C3O)OC(=CC4=O)C5=CC(=C(C=C5)O)O)O)C)O)O)O)O
#smiles_can CC1C(C(C(C(O1)OC2C(C(=O)C(OC2C3=C(C4=C(C=C3O)OC(=CC4=O)C5=CC(=C(C=C5)O)O)O)C)O)O)O)O
#inchikey GKLSYIMLZDYQBJ-UHFFFAOYSA-N
#pubchem_id 194340
#mb_accession PR309291

>ms2
214.063640 18.000000
284.028780 21.000000
285.038090 73.000000
285.059420 16.000000
286.045990 27.000000
295.047030 19.000000
297.035610 45.000000
297.050050 39.000000
298.044530 84.000000
298.055880 51.000000
298.077480 16.000000
299.055360 43.000000
299.063540 25.000000
309.034480 52.000000
309.047910 68.000000
310.049710 16.000000
311.042630 54.000000
311.082340 16.000000
313.043300 16.000000
314.538730 16.000000
321.073820 25.000000
322.067810 21.000000
323.048280 18.000000
324.066310 17.000000
325.036680 16.000000
327.047450 98.000000
328.049800 16.000000
329.126770 17.000000
334.454900 16.000000
337.018160 34.000000
337.034090 139.000000
338.030460 16.000000
339.038730 20.000000
339.051610 32.000000
339.070740 16.000000
351.056580 16.000000
353.016690 16.000000
354.056760 16.000000
358.050230 18.000000
365.064150 20.000000
393.059810 50.000000
407.139770 18.000000
411.067260 275.000000
412.067470 23.000000
412.084410 17.000000
412.105100 22.000000
413.086940 17.000000
413.107700 17.000000
429.060910 37.000000
429.126980 24.000000
473.087590 45.000000
473.104920 52.000000
473.130580 16.000000
474.099210 18.000000
474.114870 18.000000
501.089810 22.000000
533.195680 20.000000
533.252440 20.000000
546.134280 21.000000
574.132870 55.000000
575.138980 1175.000000

