>compound PR77470782
>parentmass 582.2578
>ionization [M-H]-
>formula C34H37N3O6
>rt 337.200000
>profile qtof
#smiles_iso C1=CC(=CC=C1C=CC(=O)NCCCCN(CCCNC(=O)C=CC2=CC=C(C=C2)O)C(=O)C=CC3=CC=C(C=C3)O)O
#smiles_can C1=CC(=CC=C1C=CC(=O)NCCCCN(CCCNC(=O)C=CC2=CC=C(C=C2)O)C(=O)C=CC3=CC=C(C=C3)O)O
#inchikey PFDVWJCSCYDRMZ-UHFFFAOYSA-N
#pubchem_id 72739177
#mb_accession PR309363

>ms2
120.049580 17.000000
197.669540 22.000000
316.166170 33.000000
342.135070 99.000000
447.757660 29.000000
462.174190 21.000000
462.203700 116.000000
463.190860 16.000000
463.219970 34.000000
499.158360 17.000000
581.244570 17.000000
582.266360 247.000000

