>compound PR77612996
>parentmass 695.4001
>ionization [M+HCOO]-
>formula C36H58O10
>rt 435.600000
>profile qtof
#smiles_iso CC1(CCC2(CCC3(C(=CCC4C3(CCC5C4(CC(C(C5(C)CO)OC6C(C(C(C(O6)CO)O)O)O)O)C)C)C2C1)C)C(=O)O)C
#smiles_can CC1(CCC2(CCC3(C(=CCC4C3(CCC5C4(CC(C(C5(C)CO)OC6C(C(C(C(O6)CO)O)O)O)O)C)C)C2C1)C)C(=O)O)C
#inchikey ZOUJKJNUAOXJGL-UHFFFAOYSA-N
#pubchem_id 14031162
#mb_accession PR308900

>ms2
71.013620 25.000000
87.009320 20.000000
145.731400 20.000000
487.336880 127.000000
487.359070 20.000000
488.345180 48.000000
577.041870 31.000000
649.395140 2065.000000
650.401550 638.000000
651.386050 20.000000
651.402650 20.000000
652.530820 18.000000
660.712650 18.000000
663.359500 26.000000
676.290590 22.000000
695.401610 870.000000

