>compound PR77884180
>parentmass 962.499
>ionization [M+HCOO]-
>formula C45H75NO18
>rt 254.400000
>profile qtof
#smiles_iso CC1CC(C2(C(C3C(O2)CC4C3(CCC5C4CCC6C5(CCC(C6)OC7C(C(C(C(O7)CO)OC8C(C(C(C(O8)CO)O)O)OC9C(C(C(C(O9)CO)O)O)O)O)O)C)C)C)NC1)O
#smiles_can CC1CC(C2(C(C3C(O2)CC4C3(CCC5C4CCC6C5(CCC(C6)OC7C(C(C(C(O7)CO)OC8C(C(C(C(O8)CO)O)O)OC9C(C(C(C(O9)CO)O)O)O)O)O)C)C)C)NC1)O
#inchikey BEHAFIHZKYCTOR-UHFFFAOYSA-N
#pubchem_id 139291793
#mb_accession PR308987

>ms2peaks
107.033400 30.000000
143.032140 33.000000
162.042940 16.000000
221.062160 45.000000
384.605440 17.000000
407.670560 19.000000
558.073360 22.000000
593.373410 18.000000
662.046080 16.000000
673.713500 24.000000
754.408200 30.000000
754.443120 190.000000
755.376160 16.000000
755.468630 76.000000
916.483700 725.000000
916.560240 38.000000
916.722780 27.000000
917.192810 39.000000
917.495300 333.000000
918.466740 16.000000
918.523070 34.000000
962.496460 194.000000

