>compound PR77042209
>parentmass 351.1218
>ionization [M-H]-
>formula C21H20O5
>rt 481.200000
>profile qtof
#smiles_iso CC(=CCC1=C(C2=C(C=C1O)OC=C(C2=O)C3=CC=C(C=C3)OC)O)C
#smiles_can CC(=CCC1=C(C2=C(C=C1O)OC=C(C2=O)C3=CC=C(C=C3)OC)O)C
#inchikey JQNSUDIGIIGIOL-UHFFFAOYSA-N
#pubchem_id 5317478
#mb_accession PR309031

>ms2peaks
57.867120 19.000000
108.014270 21.000000
177.020110 23.000000
184.049180 19.000000
184.878330 21.000000
201.094700 23.000000
221.066150 19.000000
231.081830 21.000000
233.068910 28.000000
237.056980 107.000000
243.060530 18.000000
267.032590 22.000000
281.049130 21.000000
293.029820 24.000000
293.055910 20.000000
336.100980 91.000000
336.110660 26.000000
351.124570 318.000000
351.134310 95.000000

