>compound PR77088291
>parentmass 395.1905
>ionization [M+HCOO]-
>formula C16H30O8
>rt 198.600000
>profile qtof
#smiles_iso CC1(CCC(CC1O)C(C)(C)OC2C(C(C(C(O2)CO)O)O)O)O
#smiles_can CC1(CCC(CC1O)C(C)(C)OC2C(C(C(C(O2)CO)O)O)O)O
#inchikey RPCUMNYZTIHHPA-UHFFFAOYSA-N
#pubchem_id 73809750
#mb_accession PR308943

>ms2
71.008840 19.000000
113.026940 26.000000
161.046370 28.000000
179.046490 21.000000
335.122740 20.000000
349.197750 61.000000
350.173920 42.000000
350.189360 31.000000

