>compound PR77320768
>parentmass 255.065
>ionization [M-H]-
>formula C15H12O4
>rt 318.000000
>profile qtof
#smiles_iso C1C(OC2=C(C1=O)C=CC(=C2)O)C3=CC=C(C=C3)O
#smiles_can C1C(OC2=C(C1=O)C=CC(=C2)O)C3=CC=C(C=C3)O
#inchikey FURUXTVZLHCCNA-UHFFFAOYSA-N
#pubchem_id 1889
#mb_accession PR309306

>ms2peaks
119.048360 504.000000
120.053640 22.000000
121.027260 25.000000
121.056560 22.000000
135.007630 313.000000
135.050870 28.000000
136.005920 26.000000
212.050690 19.000000
240.074050 18.000000
255.064330 160.000000

