>compound PR77720724
>parentmass 311.22204
>ionization [M-H]-
>formula C18H32O4
>rt 504.720000
>profile qtof
#smiles_iso CCCCCC=CC=CC(CCCCCCCC(=O)O)OO
#smiles_can CCCCCC=CC=CC(CCCCCCCC(=O)O)OO
#inchikey JGUNZIWGNMQSBM-UHFFFAOYSA-N
#pubchem_id 1928
#mb_accession PR309092,PR309093,PR309094,PR309095,PR309096

>ms2
172.104900 18.000000
181.115540 19.000000
223.135820 18.000000
293.213100 169.000000
311.212040 17.000000
311.233610 19.000000

>ms2
99.080360 18.000000
139.104890 54.000000
139.114880 17.000000
140.115250 18.000000
171.103260 116.000000
183.136400 16.000000
185.121080 33.000000
197.146910 17.000000
202.118120 38.000000
269.799320 16.000000
274.191410 16.000000
275.196170 16.000000
293.207120 48.000000
293.216920 44.000000
295.209080 16.000000
310.215850 17.000000
311.220790 451.000000
311.261750 18.000000

>ms2
113.098860 21.000000
125.096180 23.000000
126.933470 18.000000
127.107090 28.000000
127.114060 19.000000
151.122760 18.000000
153.128230 17.000000
155.098420 23.000000
155.107930 28.000000
171.103850 104.000000
183.010070 20.000000
183.108280 16.000000
185.108320 36.000000
200.091290 17.000000
201.103700 16.000000
201.114350 52.000000
202.112780 20.000000
209.144820 19.000000
277.215150 18.000000
293.213840 103.000000
294.216550 37.000000
304.830320 16.000000
309.213070 20.000000
311.217800 113.000000
311.231540 118.000000

>ms2
171.106580 26.000000
183.143800 20.000000
293.207700 38.000000
311.220860 249.000000

>ms2
121.101390 16.000000
128.111390 16.000000
139.110290 36.000000
155.058200 21.000000
155.112640 25.000000
171.095750 38.000000
171.104520 95.000000
179.036510 18.000000
197.119280 20.000000
201.115420 16.000000
293.205440 24.000000
293.219480 16.000000
311.222500 269.000000

