>compound PR78052387
>parentmass 375.1283
>ionization [M-H]-
>formula C16H24O10
>rt 166.200000
>profile qtof
#smiles_iso CC1C(CC2C1C(OC=C2C(=O)O)OC3C(C(C(C(O3)CO)O)O)O)O
#smiles_can CC1C(CC2C1C(OC=C2C(=O)O)OC3C(C(C(C(O3)CO)O)O)O)O
#inchikey JNNGEAWILNVFFD-UHFFFAOYSA-N
#pubchem_id 4430509
#mb_accession PR309192

>ms2
59.015160 41.000000
65.921330 19.000000
69.033300 178.000000
70.036630 17.000000
71.011780 67.000000
72.012640 21.000000
72.020880 24.000000
85.025220 16.000000
85.030870 33.000000
89.014750 17.000000
89.021510 121.000000
93.030330 20.000000
95.048720 50.000000
99.040120 45.000000
99.047730 53.000000
100.043210 16.000000
101.021190 65.000000
107.044360 29.000000
107.050550 92.000000
109.068400 16.000000
113.023880 239.000000
114.026820 17.000000
114.032330 20.000000
119.033750 76.000000
119.041500 18.000000
123.043950 17.000000
123.080150 16.000000
125.021210 18.000000
133.043670 22.000000
143.025100 23.000000
143.035810 41.000000
151.069820 97.000000
151.076340 201.000000
151.977020 16.000000
152.081280 18.000000
152.088180 17.000000
168.938200 17.000000
169.085980 476.000000
169.104100 18.000000
170.088550 61.000000
170.103060 21.000000
177.057740 20.000000
199.173130 16.000000
213.075850 1332.000000
213.144590 20.000000
214.078920 193.000000
214.102280 19.000000
215.077480 16.000000
215.098600 23.000000
268.193660 21.000000
315.122620 18.000000
374.132140 19.000000

