>compound PR78253386
>parentmass 477.0631
>ionization [M-H]-
>formula C17H22N2O10S2
>rt 211.200000
>profile qtof
#smiles_iso COC1=CC=CC2=C1C(=CN2)CC(=NOS(=O)(=O)O)SC3C(C(C(C(O3)CO)O)O)O
#smiles_can COC1=CC=CC2=C1C(=CN2)CC(=NOS(=O)(=O)O)SC3C(C(C(C(O3)CO)O)O)O
#inchikey IIAGSABLXRZUSE-UHFFFAOYSA-N
#pubchem_id 598860
#mb_accession PR309216

>ms2
74.991470 179.000000
79.953500 47.000000
79.960370 18.000000
80.965570 21.000000
85.032090 20.000000
89.029400 33.000000
95.951860 228.000000
96.210250 25.000000
96.959870 1393.000000
97.947270 21.000000
97.958740 18.000000
98.953490 25.000000
98.960330 58.000000
117.022000 24.000000
127.927540 38.000000
128.927250 18.000000
138.963680 19.000000
195.026950 42.000000
201.030640 24.000000
203.079570 27.000000
227.035490 18.000000
236.064510 49.000000
237.056050 20.000000
237.763440 20.000000
247.301250 24.000000
249.101910 35.000000
259.008360 20.000000
259.019560 40.000000
274.989900 60.000000
275.992100 23.000000
276.972840 21.000000
283.005000 22.000000
477.018100 43.000000
477.061950 2701.000000
477.137420 21.000000

