>compound PR78676339
>parentmass 623.1613
>ionization [M-H]-
>formula C28H32O16
>rt 230.400000
>profile qtof
#smiles_iso COC1=C(C=CC(=C1)C2=CC(=O)C3=C(O2)C=C(C(=C3O)C4C(C(C(C(O4)CO)O)O)OC5C(C(C(C(O5)CO)O)O)O)O)O
#smiles_can COC1=C(C=CC(=C1)C2=CC(=O)C3=C(O2)C=C(C(=C3O)C4C(C(C(C(O4)CO)O)O)OC5C(C(C(C(O5)CO)O)O)O)O)O
#inchikey AQQFWSYLUDMDBP-UHFFFAOYSA-N
#pubchem_id 74977689
#mb_accession PR309294

>ms2peaks
59.011970 26.000000
71.015210 28.000000
89.023350 81.000000
101.024370 66.000000
101.031060 16.000000
101.044360 25.000000
113.023190 79.000000
119.031430 71.000000
143.040080 16.000000
161.905330 16.000000
244.753780 23.000000
298.005890 16.000000
298.066220 19.000000
299.049290 18.000000
308.032350 105.000000
308.042300 30.000000
309.031160 94.000000
309.048610 37.000000
313.003200 21.000000
323.052700 375.000000
323.067960 81.000000
324.060880 98.000000
324.076110 17.000000
325.065310 16.000000
335.582520 17.000000
341.060730 17.000000
353.072170 57.000000
354.073820 36.000000
355.092800 20.000000
362.621120 20.000000
367.081150 17.000000
371.118320 20.000000
383.087830 16.000000
385.095060 16.000000
420.024510 17.000000
421.995940 17.000000
428.093780 17.000000
443.075530 118.000000
443.099760 436.000000
444.093870 30.000000
444.104430 17.000000
445.131560 24.000000
504.108340 47.000000
506.113560 26.000000
514.012450 16.000000
528.698180 16.000000
623.044680 20.000000
623.103640 17.000000
623.161500 3324.000000
623.303100 16.000000

