>compound PR79227730
>parentmass 355.1176
>ionization [M-H]-
>formula C20H20O6
>rt 465.600000
>profile qtof
#smiles_iso CC(=CCC1=C(C(=CC(=C1)C2CC(=O)C3=C(C=C(C=C3O2)O)O)O)O)C
#smiles_can CC(=CCC1=C(C(=CC(=C1)C2CC(=O)C3=C(C=C(C=C3O2)O)O)O)O)C
#inchikey SFQIGPZCFNTPOD-UHFFFAOYSA-N
#pubchem_id 11725803
#mb_accession PR309039

>ms2
65.002140 26.000000
83.012390 63.000000
91.885820 18.000000
107.011750 243.000000
108.015750 21.000000
110.039700 21.000000
110.679900 20.000000
111.909580 33.000000
125.025090 114.000000
125.096160 21.000000
126.029860 20.000000
148.034870 20.000000
148.051730 844.000000
149.055450 58.000000
151.002580 4003.000000
151.018230 19.000000
152.002080 166.000000
152.015210 23.000000
152.995330 18.000000
153.005160 86.000000
153.175700 18.000000
177.091720 39.000000
189.461980 18.000000
203.105940 2841.000000
204.108000 308.000000
204.123520 23.000000
205.116710 25.000000
213.048780 18.000000
225.088010 18.000000
230.093900 18.000000
254.059680 21.000000
265.047730 20.000000
286.049710 20.000000
326.107730 18.000000
334.827550 20.000000
353.099090 21.000000
354.113740 43.000000
355.115840 2499.000000
355.147740 18.000000

