>compound PR79723203
>parentmass 641.1357
>ionization [M-H]-
>formula C27H30O18
>rt 201.000000
>profile qtof
#smiles_iso C1=C(C=C(C(=C1O)O)OC2C(C(C(C(O2)CO)O)O)O)C3=C(C(=O)C4=C(C=C(C=C4O3)O)O)OC5C(C(C(C(O5)CO)O)O)O
#smiles_can C1=C(C=C(C(=C1O)O)OC2C(C(C(C(O2)CO)O)O)O)C3=C(C(=O)C4=C(C=C(C=C4O3)O)O)OC5C(C(C(C(O5)CO)O)O)O
#inchikey FEWRYXXFMHQZRI-UHFFFAOYSA-N
#pubchem_id 14159396
#mb_accession PR309253

>ms2peaks
178.992340 18.000000
180.000090 44.000000
198.706050 20.000000
206.018450 24.000000
238.291490 18.000000
271.037110 18.000000
315.007720 69.000000
315.022860 63.000000
316.023590 268.000000
317.029360 221.000000
329.035130 27.000000
359.038060 18.000000
360.046690 25.000000
426.710240 34.000000
477.049840 18.000000
477.069820 37.000000
478.065030 120.000000
478.079530 90.000000
479.078830 380.000000
479.127010 19.000000
479.277280 20.000000
480.085270 82.000000
491.067870 23.000000
526.752200 24.000000
548.868290 27.000000
639.226200 22.000000
640.080870 20.000000
640.130620 85.000000
641.136110 2257.000000
641.183720 36.000000

