>compound PR79644231
>parentmass 337.09155
>ionization [M-H]-
>formula C16H18O8
>rt 198.600000
>profile qtof
#smiles_iso C1C(C(C(CC1(C(=O)O)O)OC(=O)C=CC2=CC=C(C=C2)O)O)O
#smiles_can C1C(C(C(CC1(C(=O)O)O)OC(=O)C=CC2=CC=C(C=C2)O)O)O
#inchikey BMRSEYFENKXDIS-UHFFFAOYSA-N
#pubchem_id 53420248
#mb_accession PR309013,PR309361

>ms2
92.031970 18.000000
93.032650 82.000000
111.046570 18.000000
137.004200 19.000000
137.025820 16.000000
156.037060 17.000000
163.036650 59.000000
168.893490 16.000000
173.037490 19.000000
173.047130 84.000000
191.055150 559.000000
192.055110 33.000000
192.069380 16.000000
337.085940 44.000000
337.101500 54.000000

>ms2
119.053230 17.000000
155.039440 16.000000
163.042370 150.000000

