>compound PR79216224
>parentmass 175.0599
>ionization [M-H]-
>formula C7H12O5
>rt 195.000000
>profile qtof
#smiles_iso CC(C)C(CC(=O)O)(C(=O)O)O
#smiles_can CC(C)C(CC(=O)O)(C(=O)O)O
#inchikey BITYXLXUCSKTJS-UHFFFAOYSA-N
#pubchem_id 77
#mb_accession PR309129

>ms2peaks
85.065570 86.000000
86.977570 18.000000
112.684060 17.000000
113.058360 35.000000
115.037560 172.000000
115.044110 77.000000
132.076710 20.000000
157.053130 16.000000
157.066070 17.000000
175.061200 283.000000

