>compound PR79877383
>parentmass 295.2272
>ionization [M-H]-
>formula C18H32O3
>rt 574.200000
>profile qtof
#smiles_iso CCCCCC(C=CC=CCCCCCCCC(=O)O)O
#smiles_can CCCCCC(C=CC=CCCCCCCCC(=O)O)O
#inchikey HNICUWMFWZBIFP-UHFFFAOYSA-N
#pubchem_id 1424
#mb_accession PR309089

>ms2
57.084130 18.000000
113.098260 20.000000
172.092790 24.000000
177.122960 20.000000
195.136720 59.000000
196.146410 20.000000
197.186310 20.000000
223.434520 29.000000
233.159770 19.000000
277.216190 272.000000
295.227720 1553.000000

