>compound PR80320753
>parentmass 415.19615
>ionization [M+HCOO]-
>formula C19H30O7
>rt 270.300000
>profile qtof
#smiles_iso CC1=CC(=O)CC(C1C=CC(C)OC2C(C(C(C(O2)CO)O)O)O)(C)C
#smiles_can CC1=CC(=O)CC(C1C=CC(C)OC2C(C(C(C(O2)CO)O)O)O)(C)C
#inchikey SZOPSAFLRCYJCX-UHFFFAOYSA-N
#pubchem_id 73815024
#mb_accession PR308946,PR308947

>ms2
101.027080 22.000000
179.052630 39.000000
181.070270 18.000000
415.202120 75.000000

>ms2
113.020910 104.000000
149.044590 18.000000
179.060440 20.000000
415.165310 30.000000
415.201020 76.000000

