>compound PR82643139
>parentmass 169.0859
>ionization [M-H]-
>formula C9H14O3
>rt 396.600000
>profile qtof
#smiles_iso CCCCCC(=O)C=CC(=O)O
#smiles_can CCCCCC(=O)C=CC(=O)O
#inchikey QHYBPAALYZNWPK-UHFFFAOYSA-N
#pubchem_id 5182942
#mb_accession PR309115

>ms2peaks
71.049980 22.000000
125.096410 160.000000
169.085720 19.000000

