>compound PR82163185
>parentmass 825.4238
>ionization [M-H]-
>formula C42H66O16
>rt 421.800000
>profile qtof
#smiles_iso CC1(CCC2(CCC3(C(=CCC4C3(CCC5C4(CC(C(C5(C)C(=O)O)OC6C(C(C(C(O6)CO)OC7C(C(C(C(O7)CO)O)O)O)O)O)O)C)C)C2C1)C)C(=O)O)C
#smiles_can CC1(CCC2(CCC3(C(=CCC4C3(CCC5C4(CC(C(C5(C)C(=O)O)OC6C(C(C(C(O6)CO)OC7C(C(C(C(O7)CO)O)O)O)O)O)O)C)C)C2C1)C)C(=O)O)C
#inchikey AFLNGLSTOJPKJJ-UHFFFAOYSA-N
#pubchem_id 14447545
#mb_accession PR308914

>ms2peaks
89.023340 19.000000
91.302950 19.000000
99.946160 19.000000
105.741420 20.000000
113.017790 68.000000
113.025230 376.000000
114.028650 23.000000
119.027360 36.000000
119.034100 39.000000
131.036330 20.000000
143.038730 19.000000
161.045410 326.000000
162.046800 47.000000
162.054980 21.000000
179.058400 178.000000
180.053440 36.000000
280.467380 18.000000
338.301240 30.000000
341.117650 30.000000
404.734220 19.000000
439.325590 222.000000
441.328670 24.000000
442.321170 24.000000
515.353700 18.000000
601.369810 19.000000
645.381650 23.000000
811.496400 28.000000
825.425540 3310.000000
825.483460 54.000000
825.555300 24.000000

