>compound PR82595508
>parentmass 579.1346
>ionization [M-H]-
>formula C26H28O15
>rt 190.800000
>profile qtof
#smiles_iso C1C(C(C(C(O1)C2=C(C(=C3C(=C2O)C(=O)C=C(O3)C4=CC(=C(C=C4)O)O)C5C(C(C(C(O5)CO)O)O)O)O)O)O)O
#smiles_can C1C(C(C(C(O1)C2=C(C(=C3C(=C2O)C(=O)C=C(O3)C4=CC(=C(C=C4)O)O)C5C(C(C(C(O5)CO)O)O)O)O)O)O)O
#inchikey WYYFCTVKFALPQV-UHFFFAOYSA-N
#pubchem_id 73802481
#mb_accession PR309301

>ms2
187.043440 18.000000
217.047070 20.000000
285.083500 17.000000
312.059450 20.000000
312.072690 17.000000
313.072420 16.000000
313.089840 20.000000
323.102140 20.000000
339.042760 18.000000
339.058870 19.000000
341.072630 59.000000
369.061740 66.000000
369.078090 21.000000
370.074010 25.000000
371.060210 18.000000
371.075680 16.000000
399.054170 34.000000
399.073640 48.000000
400.071230 33.000000
401.079410 16.000000
411.069730 44.000000
413.089480 16.000000
429.087040 16.000000
443.075160 35.000000
453.069550 18.000000
472.113040 16.000000
475.081970 17.000000
475.108580 17.000000
489.102290 94.000000
489.127620 50.000000
490.092930 16.000000
490.110930 44.000000
501.093870 20.000000
519.111330 94.000000
544.107480 34.000000
579.130000 430.000000

