>compound PR82038197
>parentmass 435.1288
>ionization [M-H]-
>formula C21H24O10
>rt 228.600000
>profile qtof
#smiles_iso C1=CC(=C(C(=C1)OC2C(C(C(C(O2)CO)O)O)O)C(=O)O)CC(C3=CC=C(C=C3)O)O
#smiles_can C1=CC(=C(C(=C1)OC2C(C(C(C(O2)CO)O)O)O)C(=O)O)CC(C3=CC=C(C=C3)O)O
#inchikey QZJRBIBADSCJKO-UHFFFAOYSA-N
#pubchem_id 139292036
#mb_accession PR308967

>ms2
75.135960 20.000000
81.032300 79.000000
109.031370 20.000000
122.037110 25.000000
123.042940 1648.000000
123.924680 22.000000
124.045520 143.000000
149.021070 131.000000
150.025560 29.000000
159.475220 19.000000
166.023390 19.000000
166.032500 25.000000
167.026610 20.000000
179.040590 24.000000
185.051190 19.000000
185.061720 58.000000
186.060520 18.000000
187.079760 19.000000
211.075470 24.000000
229.085560 2909.000000
229.107160 28.000000
230.090070 492.000000
255.064560 566.000000
256.062680 52.000000
256.075160 103.000000
262.347530 20.000000
267.637420 20.000000
273.076020 1974.000000
273.178130 24.000000
274.067660 41.000000
274.086270 228.000000
274.101290 19.000000
275.079960 18.000000
297.068600 25.000000
314.084350 19.000000
320.532530 18.000000
328.074430 23.000000
344.181980 20.000000
363.446350 23.000000
383.606290 21.000000
435.068270 22.000000
435.128330 6361.000000

