>compound PR82534774
>parentmass 915.4572
>ionization [M+HCOO]-
>formula C44H70O17
>rt 335.400000
>profile qtof
#smiles_iso CC1C(C(C(C(O1)OC2C(C(COC2OC3CC(CC4=CCC5C(C34C)CCC6(C5CC7C6C(=C(O7)CCC(C)COC8C(C(C(C(O8)CO)O)O)O)C)C)O)O)O)O)O)O
#smiles_can CC1C(C(C(C(O1)OC2C(C(COC2OC3CC(CC4=CCC5C(C34C)CCC6(C5CC7C6C(=C(O7)CCC(C)COC8C(C(C(C(O8)CO)O)O)O)C)C)O)O)O)O)O)O
#inchikey IUJLIWQDGYFELW-UHFFFAOYSA-N
#pubchem_id 139291897
#mb_accession PR308972

>ms2
87.784210 16.000000
116.928200 18.000000
521.122740 18.000000
591.369930 17.000000
706.417050 17.000000
723.381230 52.000000
724.343200 17.000000
724.403690 57.000000
725.407650 16.000000
726.412050 17.000000
869.268370 25.000000
869.382750 19.000000
869.450010 857.000000
869.504880 22.000000
870.168520 16.000000
870.458370 477.000000
871.439760 94.000000
871.492190 17.000000
871.755250 20.000000
872.478030 16.000000
915.469670 33.000000

