>compound PR83312572
>parentmass 771.1978
>ionization [M-H]-
>formula C33H40O21
>rt 177.000000
>profile qtof
#smiles_iso CC1C(C(C(C(O1)OC2=CC(=C3C(=C2)OC(=C(C3=O)OC4C(C(C(C(O4)CO)O)O)OC5C(C(C(C(O5)CO)O)O)O)C6=CC(=C(C=C6)O)O)O)O)O)O
#smiles_can CC1C(C(C(C(O1)OC2=CC(=C3C(=C2)OC(=C(C3=O)OC4C(C(C(C(O4)CO)O)O)OC5C(C(C(C(O5)CO)O)O)O)C6=CC(=C(C=C6)O)O)O)O)O)O
#inchikey CAXLTZYEJPQCKD-UHFFFAOYSA-N
#pubchem_id 74978168
#mb_accession PR309264

>ms2peaks
299.006290 21.000000
301.023160 20.000000
301.046050 16.000000
343.041780 27.000000
463.075990 17.000000
609.155520 91.000000
610.123170 18.000000
610.139340 17.000000
691.075560 16.000000
771.200680 335.000000
771.231510 44.000000

