>compound PR83874849
>parentmass 342.0819
>ionization [M-H]-
>formula C14H17NO9
>rt 150.600000
>profile qtof
#smiles_iso C1=CC=C2C(=C1)N(C(=O)C(O2)OC3C(C(C(C(O3)CO)O)O)O)O
#smiles_can C1=CC=C2C(=C1)N(C(=O)C(O2)OC3C(C(C(C(O3)CO)O)O)O)O
#inchikey OUSLYTBGQGKTME-UHFFFAOYSA-N
#pubchem_id 58114415
#mb_accession PR309384

>ms2peaks
71.014280 18.000000
85.032410 16.000000
90.035710 20.000000
91.033970 20.000000
94.836850 24.000000
118.027560 21.000000
118.034140 21.000000
124.039150 1017.000000
125.044740 76.000000
126.294620 21.000000
126.792400 17.000000
126.886830 17.000000
134.022160 252.000000
134.031620 16.000000
135.023220 18.000000
138.478900 16.000000
150.012730 17.000000
150.020220 16.000000
151.504240 16.000000
152.033390 535.000000
153.035230 34.000000
153.043520 19.000000
162.019810 245.000000
172.981840 16.000000
180.029910 4235.000000
180.052020 16.000000
180.335210 17.000000
181.034560 292.000000
182.028750 87.000000
186.233410 16.000000
199.202030 20.000000
200.999150 18.000000
211.797550 20.000000
331.176480 23.000000
342.080020 1013.000000
342.109010 32.000000

