>compound PR83167798
>parentmass 309.2057
>ionization [M-H]-
>formula C18H30O4
>rt 478.200000
>profile qtof
#smiles_iso CCCCCC1C(O1)C=CC(=O)CCCCCCCC(=O)O
#smiles_can CCCCCC1C(O1)C=CC(=O)CCCCCCCC(=O)O
#inchikey RCMABBHQYMBYKV-UHFFFAOYSA-N
#pubchem_id 53394018
#mb_accession PR309083,PR309087

>ms2peaks
121.097750 24.000000
125.097660 20.000000
137.094020 44.000000
153.122760 23.000000
166.129750 18.000000
171.103490 36.000000
171.117050 19.000000
184.984310 20.000000
185.121060 48.000000
197.121350 18.000000
221.154070 20.000000
221.161270 18.000000
222.151380 25.000000
247.205670 21.000000
252.162660 20.000000
290.183230 22.000000
291.195710 188.000000
309.203610 86.000000
309.221220 21.000000

>ms2peaks
59.014130 16.000000
171.095640 18.000000
171.112430 24.000000
193.160310 17.000000
211.133470 24.000000
291.200040 18.000000
309.194790 35.000000
309.209810 161.000000

