>compound PR83874720
>parentmass 755.2032
>ionization [M-H]-
>formula C33H40O20
>rt 184.800000
>profile qtof
#smiles_iso CC1C(C(C(C(O1)OC2C(C(C(OC2OC3=C(OC4=CC(=CC(=C4C3=O)O)OC5C(C(C(C(O5)C)O)O)O)C6=CC(=C(C=C6)O)O)CO)O)O)O)O)O
#smiles_can CC1C(C(C(C(O1)OC2C(C(C(OC2OC3=C(OC4=CC(=CC(=C4C3=O)O)OC5C(C(C(C(O5)C)O)O)O)C6=CC(=C(C=C6)O)O)CO)O)O)O)O)O
#inchikey WLPJMCCYDZFCBL-UHFFFAOYSA-N
#pubchem_id 23760107
#mb_accession PR309262

>ms2peaks
179.005570 27.000000
180.001240 20.000000
202.886870 22.000000
270.024440 25.000000
272.023650 20.000000
298.942540 19.000000
299.017850 390.000000
299.035610 34.000000
299.995270 24.000000
300.028630 241.000000
301.022460 18.000000
301.054530 21.000000
302.043060 23.000000
324.624210 20.000000
325.054230 43.000000
343.036440 18.000000
369.515320 20.000000
386.808590 21.000000
419.792510 31.000000
431.253660 27.000000
440.593540 18.000000
440.851470 26.000000
446.083070 919.000000
446.111180 69.000000
447.091710 432.000000
447.144500 18.000000
448.071080 20.000000
448.091610 46.000000
448.105650 21.000000
492.122220 18.000000
500.133210 28.000000
504.945770 20.000000
575.840580 21.000000
591.134700 20.000000
609.123410 57.000000
609.145570 165.000000
609.182560 42.000000
610.128050 24.000000
610.172610 38.000000
611.144040 18.000000
611.174870 18.000000
611.206120 21.000000
625.109500 29.000000
644.966490 27.000000
717.940670 23.000000
736.152710 25.000000
754.173030 20.000000
754.198180 22.000000
755.202150 3086.000000
755.252620 92.000000

