>compound PR84756037
>parentmass 307.19039999999995
>ionization [M-H]-
>formula C18H28O4
>rt 468.600000
>profile qtof
#smiles_iso CCC(C=CC=CC=CC(=O)CCCCCCCC(=O)O)O
#smiles_can CCC(C=CC=CC=CC(=O)CCCCCCCC(=O)O)O
#inchikey KLFMLBSZQZVKDC-UHFFFAOYSA-N
#pubchem_id 57137439
#mb_accession PR309076,PR309077

>ms2peaks
65.037980 23.000000
71.053720 34.000000
97.063120 39.000000
119.087740 23.000000
121.065780 136.000000
121.073490 28.000000
122.071780 20.000000
125.093850 53.000000
125.101260 16.000000
135.082780 17.000000
141.133790 18.000000
167.138380 26.000000
185.116260 347.000000
186.111530 21.000000
186.125180 16.000000
209.110760 77.000000
209.123630 61.000000
210.112350 16.000000
210.121050 24.000000
211.132600 94.000000
211.147280 25.000000
212.138090 23.000000
233.150760 26.000000
235.119340 36.000000
235.133030 241.000000
289.180390 50.000000
290.175780 17.000000
290.195010 20.000000
293.542270 16.000000
307.188320 70.000000
307.197510 71.000000
307.210970 49.000000

>ms2peaks
125.099080 17.000000
137.096160 157.000000
139.111590 18.000000
167.108570 23.000000
185.115050 17.000000
210.129650 17.000000
221.872830 17.000000
222.175090 17.000000
223.135280 73.000000
289.168430 19.000000
289.185940 17.000000
291.187100 20.000000
293.212740 16.000000
307.189090 189.000000

