>compound PR84408563
>parentmass 253.0498
>ionization [M-H]-
>formula C15H10O4
>rt 513.600000
>profile qtof
#smiles_iso C1=CC=C2C(=C1)C(=O)C(=C(O2)C3=CC=C(C=C3)O)O
#smiles_can C1=CC=C2C(=C1)C(=O)C(=C(O2)C3=CC=C(C=C3)O)O
#inchikey GPGOCTLAUAHUQO-UHFFFAOYSA-N
#pubchem_id 688715
#mb_accession PR309219

>ms2
89.374630 16.000000
101.031930 18.000000
209.061460 63.000000
209.068100 42.000000
223.039050 16.000000
224.051190 66.000000
224.079680 23.000000
225.052860 252.000000
253.048830 1253.000000

