>compound PR84755536
>parentmass 469.0801
>ionization [M-H]-
>formula C20H22O11S
>rt 220.200000
>profile qtof
#smiles_iso COC1=C(C=CC(=C1)C=CC(=O)O)OC(CO)C(C2=CC(=C(C=C2)O)OC)OS(=O)(=O)O
#smiles_can COC1=C(C=CC(=C1)C=CC(=O)O)OC(CO)C(C2=CC(=C(C=C2)O)OC)OS(=O)(=O)O
#inchikey DYRUQHNXUJVUOG-UHFFFAOYSA-N
#pubchem_id 145994452
#mb_accession PR309175

>ms2
134.041290 52.000000
135.038930 20.000000
136.044010 20.000000
149.015670 18.000000
149.026260 24.000000
149.054930 21.000000
149.064270 18.000000
150.025890 42.000000
150.037600 63.000000
151.032150 40.000000
158.542270 23.000000
163.045670 18.000000
165.044010 38.000000
165.055040 234.000000
166.376530 19.000000
179.044650 23.000000
182.038470 20.000000
193.049560 194.000000
194.044620 29.000000
194.055010 44.000000
195.052760 18.000000
195.063430 19.000000
195.072880 43.000000
196.060180 19.000000
239.074390 19.000000
244.998230 36.000000
245.017780 159.000000
246.010710 39.000000
255.112640 18.000000
259.022030 20.000000
260.024960 21.000000
281.999420 19.000000
282.092290 37.000000
283.087950 22.000000
284.098880 22.000000
297.079960 28.000000
341.111450 61.000000
341.127040 20.000000
342.089940 18.000000
342.120000 21.000000
391.135440 20.000000
409.590000 20.000000
469.084660 912.000000
469.121920 36.000000

