>compound PR84558766
>parentmass 935.4658
>ionization [M-H]-
>formula C48H72O18
>rt 478.800000
>profile qtof
#smiles_iso CC1=C(C(=O)CC(O1)OC2CC(CC3C2(CCC4(C3=CCC5C4(CCC6C5(CCC(C6(C)CO)OC7C(C(C(C(O7)C(=O)O)O)O)OC8C(C(C(C(O8)C(=O)O)O)O)O)C)C)C)C)(C)C)O
#smiles_can CC1=C(C(=O)CC(O1)OC2CC(CC3C2(CCC4(C3=CCC5C4(CCC6C5(CCC(C6(C)CO)OC7C(C(C(C(O7)C(=O)O)O)O)OC8C(C(C(C(O8)C(=O)O)O)O)O)C)C)C)C)(C)C)O
#inchikey WDQWPGLHLXQCEK-UHFFFAOYSA-N
#pubchem_id 139292121
#mb_accession PR308921

>ms2peaks
114.027340 18.000000
157.010180 20.000000
175.020660 25.000000
193.037460 20.000000
307.071260 21.000000
351.029940 29.000000
351.053740 234.000000
352.043430 18.000000
352.058200 20.000000
352.085080 20.000000
353.063290 57.000000
836.448490 18.000000
935.466430 1462.000000

