>compound PR84495876
>parentmass 429.0825
>ionization [M-H]-
>formula C21H18O10
>rt 262.200000
>profile qtof
#smiles_iso C1=CC2=C(C=C1O)OC3=C2C(=O)OC4=C3C=CC(=C4)OC5C(C(C(C(O5)CO)O)O)O
#smiles_can C1=CC2=C(C=C1O)OC3=C2C(=O)OC4=C3C=CC(=C4)OC5C(C(C(C(O5)CO)O)O)O
#inchikey JSKGNHCHUPJTOQ-UHFFFAOYSA-N
#pubchem_id 74977392
#mb_accession PR309351

>ms2
194.039900 25.000000
211.339520 20.000000
266.021360 555.000000
267.025150 43.000000
281.940400 20.000000
429.073060 58.000000
429.087740 97.000000

