>compound PR85156380
>parentmass 131.0347
>ionization [M-H]-
>formula C5H8O4
>rt 151.800000
>profile qtof
#smiles_iso C(CC(=O)O)CC(=O)O
#smiles_can C(CC(=O)O)CC(=O)O
#inchikey JFCQEDHGNNZCLN-UHFFFAOYSA-N
#pubchem_id 743
#mb_accession PR309124

>ms2peaks
71.013210 18.000000
87.042960 181.000000
87.098710 16.000000
87.215090 37.000000
113.023770 19.000000
131.033080 225.000000

