>compound PR85252889
>parentmass 253.0487
>ionization [M-H]-
>formula C15H10O4
>rt 509.400000
>profile qtof
#smiles_iso C1=CC2=C(C(=C1)O)C(=O)C3=C(C2=O)C=C(C=C3)CO
#smiles_can C1=CC2=C(C(=C1)O)C(=O)C3=C(C2=O)C=C(C=C3)CO
#inchikey DGGHVFUGMGGLON-UHFFFAOYSA-N
#pubchem_id 44595036
#mb_accession PR309393

>ms2peaks
70.999920 16.000000
142.068070 23.000000
169.060960 19.000000
170.995220 32.000000
181.066510 25.000000
195.042940 23.000000
208.049410 66.000000
209.049270 42.000000
210.062210 26.000000
224.037280 37.000000
224.045320 32.000000
225.051420 282.000000
225.073210 20.000000
251.099750 19.000000

