>compound PR85980965
>parentmass 447.1517
>ionization [M+HCOO]-
>formula C18H26O10
>rt 200.400000
>profile qtof
#smiles_iso C1C(C(C(O1)OCC2C(C(C(C(O2)OCC3=CC=CC=C3)O)O)O)O)(CO)O
#smiles_can C1C(C(C(O1)OCC2C(C(C(C(O2)OCC3=CC=CC=C3)O)O)O)O)(CO)O
#inchikey NJMQSVWMCODQIP-UHFFFAOYSA-N
#pubchem_id 14079044
#mb_accession PR309418

>ms2peaks
97.025460 23.000000
99.008800 16.000000
101.022510 17.000000
111.008450 20.000000
119.034920 25.000000
151.034730 16.000000
162.043490 16.000000
230.144990 17.000000
269.105260 57.000000
287.066410 16.000000
304.005860 20.000000
401.145200 289.000000
402.150270 63.000000
402.163180 31.000000
403.154690 43.000000
447.138760 24.000000
447.155940 17.000000
447.238220 16.000000

