>compound PR86028327
>parentmass 827.2656
>ionization [M-H]-
>formula C30H52O26
>rt 106.200000
>profile qtof
#smiles_iso C(C1C(C(C(C(O1)OC2C(OC(C(C2O)O)OC3C(OC(C(C3O)O)OC4C(OC(C(C4O)O)OC5C(OC(C(C5O)O)O)CO)CO)CO)CO)O)O)O)O
#smiles_can C(C1C(C(C(C(O1)OC2C(OC(C(C2O)O)OC3C(OC(C(C3O)O)OC4C(OC(C(C4O)O)OC5C(OC(C(C5O)O)O)CO)CO)CO)CO)O)O)O)O
#inchikey FTNIPWXXIGNQQF-UHFFFAOYSA-N
#pubchem_id 3710145
#mb_accession PR308964

>ms2
67.216450 23.000000
89.024570 20.000000
101.025590 20.000000
113.026740 34.000000
139.863770 17.000000
143.034990 26.000000
161.048570 39.000000
179.055480 351.000000
180.054500 20.000000
180.062590 23.000000
222.072430 16.000000
251.071140 40.000000
275.081420 17.000000
341.103390 32.000000
341.118650 17.000000
414.833980 22.000000
438.686280 20.000000
443.145290 39.000000
451.575440 17.000000
485.132350 19.000000
485.163970 16.000000
506.909090 18.000000
545.163940 81.000000
545.184750 34.000000
647.205630 68.000000
665.227720 16.000000
815.771420 26.000000
820.736880 16.000000
827.233220 127.000000
827.273860 1557.000000
827.328740 19.000000

