>compound PR86855224
>parentmass 367.116
>ionization [M-H]-
>formula C21H20O6
>rt 513.000000
>profile qtof
#smiles_iso CC(=CCC1=C(C2=C(C=C1O)OC(=O)C(=C2)C3=C(C=C(C=C3)O)O)OC)C
#smiles_can CC(=CCC1=C(C2=C(C=C1O)OC(=O)C(=C2)C3=C(C=C(C=C3)O)O)OC)C
#inchikey NZYSZZDSYIBYLC-UHFFFAOYSA-N
#pubchem_id 5317756
#mb_accession PR309035

>ms2peaks
107.437140 20.000000
133.039980 18.000000
181.061690 20.000000
224.045490 19.000000
237.044270 19.000000
267.027010 25.000000
292.882260 28.000000
296.034640 20.000000
297.037990 56.000000
309.048740 25.000000
310.034880 19.000000
352.089900 23.000000
352.105710 21.000000
353.105680 20.000000
367.120150 360.000000
367.142640 20.000000

