>compound PR86755737
>parentmass 775.4113
>ionization [M-H]-
>formula C38H64O16
>rt 387.000000
>profile qtof
#smiles_iso CC1C(C(C(C(O1)OC2C(OC(C(C2O)O)OC(C)(CCC=C(C)CCC=C(C)CCC=C(C)COC3C(C(C(C(O3)CO)O)O)O)C=C)CO)O)O)O
#smiles_can CC1C(C(C(C(O1)OC2C(OC(C(C2O)O)OC(C)(CCC=C(C)CCC=C(C)CCC=C(C)COC3C(C(C(C(O3)CO)O)O)O)C=C)CO)O)O)O
#inchikey OEOWMDSFDQHCFJ-UHFFFAOYSA-N
#pubchem_id 78052369
#mb_accession PR309136

>ms2peaks
89.022010 23.000000
101.016140 20.000000
101.026020 18.000000
113.024880 32.000000
119.038090 20.000000
161.040120 55.000000
163.059220 19.000000
181.061170 17.000000
188.427540 19.000000
312.508880 34.000000
449.276400 16.000000
457.202390 24.000000
467.271940 16.000000
467.298740 54.000000
484.853610 23.000000
594.807800 19.000000
602.753110 33.000000
611.346740 40.000000
612.335450 16.000000
612.355710 16.000000
614.374820 20.000000
629.360600 166.000000
630.343260 37.000000
630.364620 69.000000
631.368650 49.000000
731.374210 30.000000
775.348020 17.000000
775.412600 2695.000000
775.472660 38.000000

