>compound PR86111641
>parentmass 209.0447
>ionization [M-H]-
>formula C10H10O5
>rt 184.200000
>profile qtof
#smiles_iso COC1=CC(=CC(=C1O)O)C=CC(=O)O
#smiles_can COC1=CC(=CC(=C1O)O)C=CC(=O)O
#inchikey YFXWTVLDSKSYLW-UHFFFAOYSA-N
#pubchem_id 160594
#mb_accession PR309199

>ms2
50.676070 19.000000
59.012130 74.000000
93.031770 133.000000
119.047390 103.000000
119.053910 28.000000
121.063820 894.000000
122.070420 27.000000
147.039930 38.000000
147.051800 19.000000
147.565690 21.000000
165.054410 7993.000000
166.057590 807.000000
167.060350 39.000000
182.048100 19.000000
209.043430 155.000000

