>compound PR86817931
>parentmass 681.2971
>ionization [M+HCOO]-
>formula C29H48O15
>rt 514.200000
>profile qtof
#smiles_iso CCCCC(=O)OC1C(OC(C(C1OC(=O)CCCC)OC(=O)CCCC)OC2(C(C(C(O2)CO)OC(=O)C)O)CO)CO
#smiles_can CCCCC(=O)OC1C(OC(C(C1OC(=O)CCCC)OC(=O)CCCC)OC2(C(C(C(O2)CO)OC(=O)C)O)CO)CO
#inchikey AKPIJPQIDBGCGR-UHFFFAOYSA-N
#pubchem_id 139291780
#mb_accession PR309008

>ms2peaks
71.012620 16.000000
115.074060 21.000000
135.029040 16.000000
161.041210 46.000000
207.042740 55.000000
255.094380 16.000000
365.107700 17.000000
379.182890 16.000000
453.163180 24.000000
467.183870 33.000000
477.204320 18.000000
514.452760 22.000000
537.209110 16.000000
551.234310 44.000000
551.245060 18.000000
635.296260 16.000000
636.313840 19.000000
637.296020 22.000000
681.300110 428.000000

