>compound PR87340916
>parentmass 549.0886
>ionization [M-H]-
>formula C24H22O15
>rt 253.800000
>profile qtof
#smiles_iso C1=CC(=C(C=C1C2=C(C(=O)C3=C(C=C(C=C3O2)O)O)OC4C(C(C(C(O4)COC(=O)CC(=O)O)O)O)O)O)O
#smiles_can C1=CC(=C(C=C1C2=C(C(=O)C3=C(C=C(C=C3O2)O)O)OC4C(C(C(C(O4)COC(=O)CC(=O)O)O)O)O)O)O
#inchikey NBQPHANHNTWDML-UHFFFAOYSA-N
#pubchem_id 14730813
#mb_accession PR309239

>ms2
107.011440 18.000000
129.171310 20.000000
151.001370 118.000000
163.002080 23.000000
169.012990 18.000000
179.001620 103.000000
183.917530 20.000000
189.032010 19.000000
214.060910 18.000000
229.006380 22.000000
229.024320 36.000000
243.047200 20.000000
254.017350 20.000000
255.031940 39.000000
256.042240 19.000000
259.684110 23.000000
271.000490 20.000000
271.016480 80.000000
271.026760 135.000000
272.024870 20.000000
273.035580 69.000000
284.047240 21.000000
300.026610 1070.000000
300.058110 27.000000
301.029940 575.000000
301.058620 23.000000
302.032010 81.000000
302.046420 20.000000
303.034970 19.000000
303.052670 41.000000
313.036830 21.000000
340.034150 18.000000
341.024510 18.000000
343.033480 21.000000
343.047910 20.000000
355.048340 20.000000
429.004610 24.000000
463.078400 41.000000
463.096410 24.000000
464.097350 28.000000
503.093810 28.000000
504.757630 21.000000
505.099430 2462.000000
506.103270 463.000000
507.088930 30.000000
507.110230 89.000000
507.151890 18.000000
549.090940 21.000000

