>compound PR87210603
>parentmass 353.0869
>ionization [M-H]-
>formula C16H18O9
>rt 186.000000
>profile qtof
#smiles_iso C1C(C(C(CC1(C(=O)O)O)OC(=O)C=CC2=CC(=C(C=C2)O)O)O)O
#smiles_can C1C(C(C(CC1(C(=O)O)O)OC(=O)C=CC2=CC(=C(C=C2)O)O)O)O
#inchikey CWVRJTMFETXNAD-UHFFFAOYSA-N
#pubchem_id 348159
#mb_accession PR309015,PR309016,PR309017

>ms2peaks
59.010310 17.000000
77.034490 18.000000
81.034730 16.000000
85.029280 111.000000
93.033810 47.000000
93.038570 23.000000
99.042030 17.000000
107.049300 34.000000
109.626080 24.000000
111.043740 57.000000
127.036460 44.000000
131.558430 16.000000
133.026570 118.000000
133.036380 34.000000
133.099270 16.000000
134.025790 25.000000
134.036000 127.000000
134.047440 20.000000
134.770550 17.000000
135.044620 1412.000000
136.047650 136.000000
137.022520 16.000000
150.033260 24.000000
161.026210 167.000000
163.031750 16.000000
173.044630 59.000000
175.046480 38.000000
177.021450 109.000000
178.015520 48.000000
178.024150 32.000000
179.033370 2147.000000
180.035450 197.000000
180.041320 76.000000
182.263630 16.000000
191.055660 3700.000000
191.277180 16.000000
191.655670 24.000000
192.051060 68.000000
192.058870 195.000000
193.060760 36.000000
212.577440 16.000000
232.633540 17.000000
306.940730 17.000000
352.085540 16.000000
353.087650 1455.000000

>ms2peaks
77.038820 18.000000
85.026130 109.000000
85.030510 34.000000
87.010040 18.000000
93.034530 21.000000
94.039060 27.000000
106.037700 18.000000
107.049520 23.000000
109.028550 61.000000
111.045580 18.000000
112.594170 23.000000
127.039860 142.000000
128.042070 22.000000
129.472210 18.000000
133.024280 21.000000
133.036090 27.000000
135.044400 60.000000
136.041460 20.000000
136.050700 64.000000
137.055790 18.000000
138.966430 21.000000
141.022320 19.000000
147.045730 18.000000
153.019840 20.000000
161.020340 23.000000
161.027450 20.000000
162.028520 21.000000
171.030810 24.000000
173.049910 85.000000
177.020130 48.000000
178.029100 18.000000
179.034290 22.000000
179.043700 43.000000
180.032820 20.000000
190.036450 21.000000
190.885030 29.000000
191.054900 9022.000000
192.060240 684.000000
193.052640 78.000000
193.947510 19.000000
195.049410 18.000000
215.054290 19.000000
248.659990 18.000000
289.078610 18.000000
351.059300 18.000000
352.077880 38.000000
353.088170 1043.000000
353.114380 25.000000

>ms2peaks
85.024460 23.000000
127.038280 16.000000
133.029450 22.000000
160.015590 16.000000
178.027730 16.000000
191.055340 427.000000
192.052260 17.000000
195.064500 22.000000

