>compound PR87056102
>parentmass 561.1607
>ionization [M-H]-
>formula C27H30O13
>rt 307.800000
>profile qtof
#smiles_iso COC1=CC=C(C=C1)C2=COC3=C(C2=O)C=CC(=C3)OC4C(C(CC(O4)OC5C(C(C(C(O5)CO)O)O)O)O)O
#smiles_can COC1=CC=C(C=C1)C2=COC3=C(C2=O)C=CC(=C3)OC4C(C(CC(O4)OC5C(C(C(C(O5)CO)O)O)O)O)O
#inchikey NATAJDBKBAPGCB-UHFFFAOYSA-N
#pubchem_id 139291975
#mb_accession PR309187

>ms2peaks
112.965110 20.000000
137.116810 16.000000
149.042660 34.000000
156.659210 16.000000
167.047880 19.000000
221.441710 20.000000
224.045380 18.000000
225.049740 17.000000
251.030610 50.000000
252.035920 58.000000
252.056060 20.000000
252.067260 17.000000
253.054060 39.000000
267.029140 18.000000
267.064540 946.000000
268.036770 16.000000
268.066960 149.000000
269.036930 16.000000
269.050570 17.000000
269.068880 33.000000
271.424680 17.000000
280.069790 18.000000
307.052700 25.000000
400.104130 23.000000
547.137760 23.000000
559.199710 20.000000
561.159180 50.000000

