>compound PR87688914
>parentmass 591.1342
>ionization [M-H]-
>formula C27H28O15
>rt 270.000000
>profile qtof
#smiles_iso CC(CC(=O)O)(CC(=O)OCC1C(C(C(C(O1)OC2=C(OC3=CC(=CC(=C3C2=O)O)O)C4=CC=C(C=C4)O)O)O)O)O
#smiles_can CC(CC(=O)O)(CC(=O)OCC1C(C(C(C(O1)OC2=C(OC3=CC(=CC(=C3C2=O)O)O)C4=CC=C(C=C4)O)O)O)O)O
#inchikey ZALWWUJLKFBCQF-UHFFFAOYSA-N
#pubchem_id 23757216
#mb_accession PR309241

>ms2
57.037940 56.000000
78.043000 19.000000
128.033800 18.000000
161.040270 28.000000
170.398390 18.000000
185.060640 19.000000
201.915890 33.000000
203.038010 21.000000
213.047490 22.000000
218.763050 18.000000
227.033600 34.000000
227.040500 17.000000
229.046540 47.000000
239.041370 20.000000
244.808150 24.000000
251.296110 36.000000
255.029820 103.000000
256.038300 53.000000
257.046940 21.000000
259.047090 25.000000
269.035860 18.000000
284.033540 959.000000
285.038820 1650.000000
285.940280 18.000000
286.038240 128.000000
286.045780 45.000000
287.061100 18.000000
307.054810 30.000000
324.067320 23.000000
344.540190 18.000000
447.080810 237.000000
447.092800 523.000000
448.078610 20.000000
448.097930 115.000000
449.093630 20.000000
450.115750 25.000000
478.075230 21.000000
489.104580 692.000000
489.150050 18.000000
490.094510 112.000000
490.111600 149.000000
491.110780 21.000000
529.128850 127.000000
529.166380 18.000000
530.145080 41.000000
530.401790 20.000000
531.107120 24.000000
552.667050 18.000000
589.113650 31.000000
591.134090 2338.000000

