>compound PR88187379
>parentmass 329.2323285714286
>ionization [M-H]-
>formula C18H34O5
>rt 413.228571
>profile qtof
#smiles_iso CCCCCC(C(C=CC(CCCCCCCC(=O)O)O)O)O
#smiles_can CCCCCC(C(C=CC(CCCCCCCC(=O)O)O)O)O
#inchikey MDIUMSLCYIJBQC-UHFFFAOYSA-N
#pubchem_id 153001
#mb_accession PR309107,PR309108,PR309109,PR309110,PR309111,PR309112,PR309113

>ms2peaks
171.096710 18.000000
171.105450 44.000000
211.141750 20.000000
312.222720 20.000000
329.223720 23.000000
329.235320 53.000000

>ms2peaks
69.030140 16.000000
83.049110 18.000000
94.283390 16.000000
99.069410 28.000000
99.082070 153.000000
100.080750 18.000000
122.040530 28.000000
125.096190 78.000000
127.113430 112.000000
130.427150 18.000000
137.270830 18.000000
137.410480 27.000000
139.111720 195.000000
139.124790 18.000000
151.106430 18.000000
155.109050 24.000000
155.145480 18.000000
157.129640 16.000000
163.491390 19.000000
163.604220 17.000000
165.130510 102.000000
167.148700 113.000000
168.141340 47.000000
168.149550 20.000000
171.101990 531.000000
172.108870 63.000000
179.139970 23.000000
181.124340 70.000000
183.140200 442.000000
184.147800 37.000000
187.424240 26.000000
191.058290 22.000000
191.471540 16.000000
193.124470 91.000000
197.124880 16.000000
199.133270 56.000000
209.118000 99.000000
211.133530 2495.000000
212.132280 86.000000
212.141600 145.000000
213.139600 21.000000
214.094570 18.000000
229.144610 1022.000000
230.146640 92.000000
230.443660 20.000000
231.156400 42.000000
232.159870 16.000000
232.250750 20.000000
234.399980 26.000000
311.216310 106.000000
311.230800 20.000000
312.225280 17.000000
312.529080 18.000000
327.211640 16.000000
327.226530 16.000000
327.960660 16.000000
328.216610 19.000000
328.606510 16.000000
329.178470 17.000000
329.233760 12989.000000
329.290310 41.000000

>ms2peaks
129.019730 25.000000
129.090960 18.000000
169.127900 18.000000
175.981510 19.000000
181.125140 70.000000
182.124070 23.000000
186.115370 19.000000
194.136900 18.000000
197.115980 20.000000
198.123460 20.000000
209.113720 18.000000
210.122060 18.000000
211.125630 38.000000
227.133640 21.000000
293.206760 20.000000
311.217440 23.000000
312.230560 29.000000
327.209410 42.000000
327.224790 20.000000
328.229710 24.000000
329.230410 916.000000
329.260680 25.000000

>ms2peaks
77.844920 18.000000
99.080310 74.000000
113.099260 20.000000
129.092330 40.000000
145.101810 23.000000
149.093860 21.000000
155.141650 27.000000
165.122880 51.000000
167.106840 20.000000
169.113140 20.000000
169.124950 74.000000
171.147000 22.000000
181.123500 50.000000
185.111250 40.000000
186.116300 20.000000
197.114690 20.000000
198.112340 33.000000
199.114650 45.000000
199.131670 230.000000
200.133350 27.000000
205.924470 23.000000
209.110860 60.000000
209.122340 24.000000
211.131530 138.000000
219.881450 20.000000
227.125270 24.000000
229.139660 19.000000
230.147200 26.000000
249.174590 19.000000
275.208100 25.000000
293.210630 27.000000
308.188630 18.000000
310.210720 21.000000
311.215240 22.000000
311.226840 25.000000
327.207340 22.000000
327.537260 20.000000
328.212860 103.000000
329.232570 2210.000000

>ms2peaks
139.115750 17.000000
162.719770 17.000000
163.111860 16.000000
182.121610 25.000000
183.134380 20.000000
197.119780 40.000000
199.134290 19.000000
200.139160 52.000000
212.130650 16.000000
329.232150 400.000000

>ms2peaks
125.093650 23.000000
125.102460 17.000000
129.090960 30.000000
140.115450 16.000000
155.112780 17.000000
169.120610 16.000000
171.100770 139.000000
185.113240 16.000000
193.132860 19.000000
201.101090 27.000000
201.113540 17.000000
202.128390 20.000000
213.118560 18.000000
229.138210 18.000000
294.213870 16.000000
329.208190 16.000000
329.232730 660.000000

>ms2peaks
139.111150 16.000000
197.109760 20.000000
265.210540 20.000000
329.230960 169.000000

