>compound PR88453474
>parentmass 399.093
>ionization [M+HCOO]-
>formula C16H18O9
>rt 187.200000
>profile qtof
#smiles_iso COC1=C(C=C2C(=C1)C=CC(=O)O2)OC3C(C(C(C(O3)CO)O)O)O
#smiles_can COC1=C(C=C2C(=C1)C=CC(=O)O2)OC3C(C(C(C(O3)CO)O)O)O
#inchikey SGTCGCCQZOUMJJ-UHFFFAOYSA-N
#pubchem_id 346340
#mb_accession PR309350

>ms2
176.007750 174.000000
176.013920 95.000000
177.010820 39.000000
177.019390 19.000000
191.035260 1306.000000
192.035890 216.000000
192.044630 166.000000
193.041090 62.000000
207.047290 24.000000
399.082210 20.000000

