>compound PR88571317
>parentmass 213.1492
>ionization [M-H]-
>formula C12H22O3
>rt 388.200000
>profile qtof
#smiles_iso C(CCCCO)CCCC=CCC(=O)O
#smiles_can C(CCCCO)CCCC=CCC(=O)O
#inchikey RRJILZUCEDMMNU-UHFFFAOYSA-N
#pubchem_id 54281924
#mb_accession PR309070

>ms2
183.140760 206.000000
184.140560 20.000000
195.139620 314.000000
196.139450 41.000000
196.150630 21.000000
213.149660 1381.000000
213.166520 20.000000

