>compound PR89404751
>parentmass 436.0397
>ionization [M-H]-
>formula C12H23NO10S3
>rt 104.400000
>profile qtof
#smiles_iso CS(=O)CCCCC(=NOS(=O)(=O)O)SC1C(C(C(C(O1)CO)O)O)O
#smiles_can CS(=O)CCCCC(=NOS(=O)(=O)O)SC1C(C(C(C(O1)CO)O)O)O
#inchikey GMMLNKINDDUDCF-UHFFFAOYSA-N
#pubchem_id 4479912
#mb_accession PR309204

>ms2
51.680940 18.000000
56.128370 18.000000
74.990600 143.000000
74.995190 43.000000
75.999880 19.000000
79.955920 87.000000
85.030850 20.000000
85.035490 22.000000
95.950850 860.000000
96.959380 2879.000000
97.942960 21.000000
97.953980 38.000000
97.959400 23.000000
98.952380 66.000000
98.958450 100.000000
101.018550 38.000000
111.675900 18.000000
113.021940 18.000000
113.782360 40.000000
115.024940 22.000000
117.017380 28.000000
119.039890 20.000000
127.189190 19.000000
128.934590 24.000000
130.024660 30.000000
130.935150 18.000000
138.961000 18.000000
138.972030 22.000000
145.055790 22.000000
146.024440 25.000000
160.834980 26.000000
163.061890 52.000000
168.979690 24.000000
175.996050 18.000000
177.011000 46.000000
177.025530 22.000000
178.017490 1384.000000
179.009410 39.000000
179.020710 35.000000
180.008120 23.000000
180.024030 46.000000
193.013900 18.000000
194.020680 25.000000
194.036190 110.000000
195.024870 79.000000
195.033660 59.000000
195.051650 20.000000
204.009480 20.000000
209.340360 25.000000
211.978640 29.000000
219.034480 18.000000
219.548450 18.000000
225.977480 42.000000
227.035890 22.000000
230.597310 25.000000
231.885450 27.000000
237.020630 18.000000
239.967850 23.000000
242.983090 111.000000
243.982570 22.000000
258.024020 22.000000
258.999970 24.000000
259.018280 28.000000
259.030400 45.000000
260.008210 22.000000
260.024990 20.000000
272.964510 22.000000
274.984280 18.000000
274.998020 81.000000
275.987920 27.000000
275.996830 26.000000
276.981990 23.000000
277.815000 29.000000
290.971650 19.000000
290.995570 23.000000
298.070800 20.000000
353.794250 18.000000
372.043850 1881.000000
373.018710 20.000000
373.039060 142.000000
373.062410 79.000000
374.041810 125.000000
374.060760 21.000000
375.044860 37.000000
376.036410 23.000000
379.425050 20.000000
391.012480 18.000000
396.001190 24.000000
401.775360 20.000000
421.015410 67.000000
421.054380 21.000000
423.007020 36.000000
423.023650 23.000000
425.732570 19.000000
435.968600 20.000000
436.039580 6409.000000
436.077610 33.000000

