>compound PR89416102
>parentmass 462.0931
>ionization [M-H]-
>formula C15H29NO9S3
>rt 282.000000
>profile qtof
#smiles_iso CSCCCCCCCC(=NOS(=O)(=O)O)SC1C(C(C(C(O1)CO)O)O)O
#smiles_can CSCCCCCCCC(=NOS(=O)(=O)O)SC1C(C(C(C(O1)CO)O)O)O
#inchikey SJHVRBSHKTUXLG-UHFFFAOYSA-N
#pubchem_id 74960823
#mb_accession PR309210

>ms2
72.132550 21.000000
74.992150 245.000000
75.988070 25.000000
76.987640 45.000000
79.957080 66.000000
85.028180 20.000000
86.032120 37.000000
89.020960 18.000000
89.025940 18.000000
95.951010 562.000000
96.694760 18.000000
96.959270 2210.000000
97.947680 18.000000
98.947990 20.000000
98.955150 41.000000
98.965240 18.000000
99.008950 37.000000
101.028430 21.000000
113.030020 20.000000
119.031780 18.000000
123.012150 21.000000
138.968320 19.000000
138.980420 19.000000
146.046750 24.000000
163.063160 21.000000
180.522930 32.000000
185.641890 45.000000
195.032140 25.000000
197.031860 44.000000
203.547260 20.000000
205.073410 22.000000
206.069370 18.000000
220.076930 18.000000
220.087430 71.000000
220.096800 18.000000
220.454880 27.000000
225.027240 18.000000
228.018480 19.000000
239.029920 20.000000
242.003160 22.000000
252.762770 20.000000
259.009460 151.000000
260.001070 48.000000
261.016540 26.000000
265.616150 23.000000
266.030980 21.000000
266.041840 21.000000
268.046390 20.000000
269.030240 74.000000
270.035100 19.000000
270.047580 18.000000
274.971770 21.000000
274.981170 23.000000
276.982940 30.000000
276.993100 19.000000
284.054230 18.000000
443.219150 27.000000
462.091090 5676.000000
462.137910 20.000000

