>compound PR90548909
>parentmass 581.1502
>ionization [M-H]-
>formula C26H30O15
>rt 192.000000
>profile qtof
#smiles_iso C1C(OC2=C(C(=CC(=C2C1=O)OC3C(C(C(C(O3)CO)O)O)O)O)C4C(C(C(CO4)O)O)O)C5=CC(=C(C=C5)O)O
#smiles_can C1C(OC2=C(C(=CC(=C2C1=O)OC3C(C(C(C(O3)CO)O)O)O)O)C4C(C(C(CO4)O)O)O)C5=CC(=C(C=C5)O)O
#inchikey QETQPQDBDULWLC-UHFFFAOYSA-N
#pubchem_id 139292024
#mb_accession PR309322

>ms2
104.622910 18.000000
105.210030 20.000000
109.026370 18.000000
123.049850 21.000000
135.045780 20.000000
136.053250 23.000000
151.042800 20.000000
153.055920 20.000000
167.034590 235.000000
168.027500 30.000000
168.038760 42.000000
177.054050 46.000000
179.025100 20.000000
179.034870 38.000000
181.049120 21.000000
183.030180 23.000000
189.502940 18.000000
191.029420 38.000000
195.073550 20.000000
196.403240 24.000000
197.042850 106.000000
197.050160 33.000000
207.028780 18.000000
207.375730 19.000000
209.045010 743.000000
210.045460 65.000000
214.248660 20.000000
216.837950 33.000000
217.043230 20.000000
219.067810 25.000000
221.039380 18.000000
221.050700 24.000000
223.058290 18.000000
234.826170 28.000000
237.088580 20.000000
239.000260 19.000000
239.053220 1161.000000
239.076190 35.000000
240.057770 82.000000
240.068620 39.000000
241.048050 18.000000
241.062060 36.000000
251.049100 23.000000
251.064040 18.000000
257.060000 18.000000
265.074520 21.000000
269.067380 366.000000
274.735500 33.000000
281.075200 46.000000
289.040740 24.000000
299.074950 238.000000
300.079280 22.000000
307.044250 23.000000
311.073550 42.000000
311.085480 27.000000
313.075470 36.000000
313.435390 18.000000
329.090550 117.000000
330.071110 26.000000
330.091890 36.000000
340.533630 20.000000
341.091160 43.000000
342.093840 18.000000
343.101070 21.000000
355.062990 18.000000
359.066100 19.000000
359.093350 36.000000
371.056820 19.000000
371.076510 411.000000
372.083890 73.000000
383.091000 18.000000
384.069640 46.000000
397.082670 18.000000
401.083440 288.000000
401.104550 62.000000
402.083740 23.000000
403.093510 37.000000
413.099880 18.000000
414.088260 28.000000
419.114870 83.000000
431.098630 38.000000
432.098480 19.000000
443.095490 20.000000
443.110470 19.000000
461.109040 317.000000
461.132870 18.000000
462.092410 17.000000
462.109310 59.000000
462.133760 18.000000
463.120940 18.000000
473.110660 20.000000
476.677490 20.000000
491.117340 157.000000
491.138430 20.000000
492.130400 68.000000
493.118990 18.000000
563.151550 20.000000
564.143010 19.000000
581.021300 18.000000
581.151250 2173.000000

