>compound PR90813358
>parentmass 339.1229
>ionization [M-H]-
>formula C20H20O5
>rt 459.600000
>profile qtof
#smiles_iso CC(=CCC1=C2C(=C(C=C1O)O)C(=O)CC(O2)C3=CC=C(C=C3)O)C
#smiles_can CC(=CCC1=C2C(=C(C=C1O)O)C(=O)CC(O2)C3=CC=C(C=C3)O)C
#inchikey LPEPZZAVFJPLNZ-UHFFFAOYSA-N
#pubchem_id 509245
#mb_accession PR309036

>ms2
91.000470 18.000000
119.048710 59.000000
119.054640 38.000000
133.064180 21.000000
134.067230 18.000000
150.027650 22.000000
150.044590 23.000000
151.083890 18.000000
172.050740 20.000000
176.011410 27.000000
177.018920 20.000000
178.062700 20.000000
183.012020 18.000000
189.062480 19.000000
189.096100 20.000000
191.066700 18.000000
193.083790 27.000000
219.064180 238.000000
228.038530 23.000000
235.036010 20.000000
240.308760 43.000000
245.089690 21.000000
251.071110 22.000000
278.185180 21.000000
338.139890 43.000000
339.124050 572.000000
339.175780 24.000000

