>compound PR90315694
>parentmass 402.0898
>ionization [M-H]-
>formula C13H25NO9S2
>rt 231.000000
>profile qtof
#smiles_iso CC(C)CCCC(=NOS(=O)(=O)O)SC1C(C(C(C(O1)CO)O)O)O
#smiles_can CC(C)CCCC(=NOS(=O)(=O)O)SC1C(C(C(C(O1)CO)O)O)O
#inchikey PVFJQLBPPQHTLU-UHFFFAOYSA-N
#pubchem_id 145994454
#mb_accession PR309207

>ms2peaks
71.056470 22.000000
74.993200 37.000000
88.014780 18.000000
96.958530 49.000000
135.050280 20.000000
274.998290 19.000000
402.086030 36.000000

