>compound PR91007916
>parentmass 433.1351
>ionization [M+HCOO]-
>formula C17H24O10
>rt 230.400000
>profile qtof
#smiles_iso COC(=O)C1=COC(C(C1CC=O)C=C)OC2C(C(C(C(O2)CO)O)O)O
#smiles_can COC(=O)C1=COC(C(C1CC=O)C=C)OC2C(C(C(C(O2)CO)O)O)O
#inchikey CSKKDSFETGLMSB-UHFFFAOYSA-N
#pubchem_id 369002
#mb_accession PR308944

>ms2
59.013200 20.000000
69.036410 28.000000
71.010310 17.000000
71.013610 16.000000
71.020650 20.000000
78.357960 16.000000
89.022510 200.000000
90.030200 16.000000
96.016320 20.000000
100.045310 24.000000
101.020810 81.000000
113.018500 16.000000
113.026400 20.000000
113.274010 18.000000
119.038010 103.000000
123.038190 35.000000
123.046120 60.000000
131.033040 36.000000
143.022430 16.000000
143.037020 138.000000
149.042180 30.000000
155.030620 84.000000
157.042950 24.000000
161.040130 39.000000
175.038640 17.000000
176.089110 23.000000
179.054490 737.000000
180.055730 83.000000
197.077010 19.000000
207.063960 43.000000
225.068360 40.000000
225.078140 145.000000
249.072560 21.000000
252.216430 18.000000
279.067720 47.000000
387.127810 35.000000
388.150180 25.000000
431.495670 21.000000
431.908200 16.000000
433.096680 36.000000
433.135070 2113.000000

