>compound PR91386858
>parentmass 241.1191
>ionization [M-H]-
>formula C11H18N2O4
>rt 222.600000
>profile qtof
#smiles_iso CCC(C)C(C(=O)O)NC(=O)C1CCC(=O)N1
#smiles_can CCC(C)C(C(=O)O)NC(=O)C1CCC(=O)N1
#inchikey MKCVLTRITQNGQI-UHFFFAOYSA-N
#pubchem_id 21405068
#mb_accession PR309064

>ms2peaks
67.123720 20.000000
70.028270 16.000000
109.037730 16.000000
111.031770 38.000000
131.091600 16.000000
141.100390 17.000000
197.122560 44.000000
197.133090 76.000000
241.118940 227.000000

