>compound PR91101027
>parentmass 359.0977
>ionization [M-H]-
>formula C15H20O10
>rt 153.600000
>profile qtof
#smiles_iso COC1=CC(=CC(=C1O)OC)C(=O)OC2C(C(C(C(O2)CO)O)O)O
#smiles_can COC1=CC(=CC(=C1O)OC)C(=O)OC2C(C(C(C(O2)CO)O)O)O
#inchikey CIYLTHWUJCCASO-UHFFFAOYSA-N
#pubchem_id 14132345
#mb_accession PR309061

>ms2peaks
101.019760 23.000000
123.008240 28.000000
138.028060 23.000000
149.058820 18.000000
151.039720 18.000000
153.050900 48.000000
153.057690 49.000000
166.993710 19.000000
182.013820 59.000000
197.043900 239.000000
198.048930 19.000000
198.057450 29.000000
350.812190 25.000000

