>compound PR91471627
>parentmass 695.3124
>ionization [M+HCOO]-
>formula C30H50O15
>rt 540.600000
>profile qtof
#smiles_iso CCCCCC(=O)OC1C(C(C(OC1OC2(C(C(C(O2)CO)OC(=O)C)O)CO)CO)OC(=O)CCCC)OC(=O)CCCC
#smiles_can CCCCCC(=O)OC1C(C(C(OC1OC2(C(C(C(O2)CO)OC(=O)C)O)CO)CO)OC(=O)CCCC)OC(=O)CCCC
#inchikey UPRCEYHEHWELCG-UHFFFAOYSA-N
#pubchem_id 139292094
#mb_accession PR309009

>ms2peaks
101.059230 20.000000
115.072510 20.000000
143.029400 18.000000
161.090160 16.000000
162.048660 16.000000
167.030260 16.000000
203.052000 18.000000
207.046370 34.000000
383.113710 17.000000
421.152860 17.000000
453.161800 32.000000
453.179350 21.000000
467.183440 17.000000
481.171480 23.000000
481.202090 46.000000
551.204590 32.000000
551.243900 20.000000
565.254880 56.000000
576.504940 18.000000
649.327580 26.000000
650.299620 17.000000
695.316590 676.000000

