>compound PR91504089
>parentmass 461.1089
>ionization [M-H]-
>formula C22H22O11
>rt 256.800000
>profile qtof
#smiles_iso COC1=C(C=C(C=C1)C2=CC(=O)C3=C(C=C(C=C3O2)OC4C(C(C(C(O4)CO)O)O)O)O)O
#smiles_can COC1=C(C=C(C=C1)C2=CC(=O)C3=C(C=C(C=C3O2)OC4C(C(C(C(O4)CO)O)O)O)O)O
#inchikey WKUHPOMCLBLCOV-UHFFFAOYSA-N
#pubchem_id 5378562
#mb_accession PR309276

>ms2peaks
132.331420 30.000000
148.016950 16.000000
149.025480 16.000000
151.000080 67.000000
217.051560 16.000000
224.082110 22.000000
283.028660 53.000000
284.012510 23.000000
284.031130 88.000000
284.044560 81.000000
285.024050 42.000000
285.041140 28.000000
285.052670 17.000000
286.053100 21.000000
295.645870 17.000000
299.055360 522.000000
299.078160 18.000000
300.059880 66.000000
300.071810 17.000000
341.064730 16.000000
461.108400 624.000000

