>compound PR92769914
>parentmass 795.4575
>ionization [M-H]-
>formula C42H68O14
>rt 438.600000
>profile qtof
#smiles_iso CC1(CC2C3=CCC4C5(CCC(C(C5CCC4(C3(CCC2(C(C1)O)C)C)C)(C)CO)OC6C(C(C(C(O6)C(=O)O)O)O)OC7C(C(C(C(O7)CO)O)O)O)C)C
#smiles_can CC1(CC2C3=CCC4C5(CCC(C(C5CCC4(C3(CCC2(C(C1)O)C)C)C)(C)CO)OC6C(C(C(C(O6)C(=O)O)O)O)OC7C(C(C(C(O7)CO)O)O)O)C)C
#inchikey OKIHRVKXRCAJFQ-UHFFFAOYSA-N
#pubchem_id 13326389
#mb_accession PR308915

>ms2peaks
59.013760 20.000000
68.995790 26.000000
71.014150 18.000000
113.028580 45.000000
119.028020 18.000000
119.037640 30.000000
157.017700 39.000000
162.050220 21.000000
372.537780 24.000000
432.398100 29.000000
520.834720 18.000000
525.412840 24.000000
554.390690 20.000000
794.438050 18.000000
795.295170 20.000000
795.453740 2062.000000
795.558350 18.000000

