>compound PR92901474
>parentmass 341.0871
>ionization [M-H]-
>formula C15H18O9
>rt 160.200000
>profile qtof
#smiles_iso C1=CC(=C(C=C1C=CC(=O)OC2C(C(C(C(O2)CO)O)O)O)O)O
#smiles_can C1=CC(=C(C=C1C=CC(=O)OC2C(C(C(C(O2)CO)O)O)O)O)O
#inchikey WQSDYZZEIBAPIN-UHFFFAOYSA-N
#pubchem_id 4484225
#mb_accession PR309375

>ms2peaks
126.057060 16.000000
134.032170 24.000000
135.036100 39.000000
135.044190 149.000000
135.057970 22.000000
136.047380 17.000000
179.032460 569.000000
180.032910 58.000000
180.044160 20.000000
341.079350 33.000000

