>compound PR92443896
>parentmass 725.2065
>ionization [M-H]-
>formula C36H38O16
>rt 277.200000
>profile qtof
#smiles_iso CC1C(C(C(C(O1)OC2CC(OC(C2O)O)OC3=CC(=C(C(=C3)O)C(=O)CCC4=CC=C(C=C4)O)O)OC5=C(C=C6C=CC(=O)OC6=C5)OC)O)O
#smiles_can CC1C(C(C(C(O1)OC2CC(OC(C2O)O)OC3=CC(=C(C(=C3)O)C(=O)CCC4=CC=C(C=C4)O)O)OC5=C(C=C6C=CC(=O)OC6=C5)OC)O)O
#inchikey UAMRWBMUOAVLAI-UHFFFAOYSA-N
#pubchem_id 139292082
#mb_accession PR309353

>ms2peaks
136.659300 18.000000
143.025790 21.000000
150.039470 28.000000
165.063350 19.000000
175.034940 20.000000
176.009410 147.000000
176.017110 117.000000
177.019210 109.000000
191.034230 2162.000000
191.073870 18.000000
192.038300 366.000000
193.048710 80.000000
194.052110 23.000000
195.054240 23.000000
217.049330 20.000000
235.061600 18.000000
236.069690 49.000000
237.056870 18.000000
253.098770 26.000000
295.068360 18.000000
295.084690 33.000000
337.085630 58.000000
337.101320 39.000000
338.088590 21.000000
339.100310 20.000000
341.120700 18.000000
383.490260 20.000000
389.121920 40.000000
404.913480 18.000000
419.268950 21.000000
432.129300 39.000000
432.155760 23.000000
446.764980 18.000000
485.152340 22.000000
487.144070 22.000000
519.852110 18.000000
530.127870 18.000000
533.160460 539.000000
533.178960 105.000000
534.152220 133.000000
534.171330 187.000000
535.172730 114.000000
650.018680 21.000000
724.950870 24.000000
725.195680 92.000000
725.224790 159.000000

