>compound PR93444569
>parentmass 329.0884
>ionization [M-H]-
>formula C14H18O9
>rt 144.000000
>profile qtof
#smiles_iso COC1=C(C=CC(=C1)C(=O)OC2C(C(C(C(O2)CO)O)O)O)O
#smiles_can COC1=C(C=CC(=C1)C(=O)OC2C(C(C(C(O2)CO)O)O)O)O
#inchikey YROOZUQRTLHXIO-UHFFFAOYSA-N
#pubchem_id 14132343
#mb_accession PR309059

>ms2peaks
91.001340 22.000000
108.019290 25.000000
125.025650 18.000000
152.010570 65.000000
153.015490 19.000000
167.035480 566.000000
168.038240 20.000000
179.032880 21.000000

