>compound PR93949619
>parentmass 359.1326
>ionization [M-H]-
>formula C16H24O9
>rt 238.200000
>profile qtof
#smiles_iso CC1CCC2C1C(OC=C2C(=O)O)OC3C(C(C(C(O3)CO)O)O)O
#smiles_can CC1CCC2C1C(OC=C2C(=O)O)OC3C(C(C(C(O3)CO)O)O)O
#inchikey DSXFHNSGLYXPNG-UHFFFAOYSA-N
#pubchem_id 4490284
#mb_accession PR309193

>ms2peaks
71.015060 37.000000
87.003910 21.000000
89.018330 24.000000
89.023740 23.000000
93.067760 16.000000
101.020650 53.000000
109.064850 103.000000
117.833080 21.000000
119.032390 40.000000
135.080400 201.000000
136.079220 18.000000
144.033050 16.000000
153.089160 277.000000
154.091350 20.000000
154.222470 16.000000
197.079590 956.000000
198.080630 69.000000
198.090000 43.000000
199.085950 16.000000
226.076770 16.000000
359.130950 538.000000

