>compound PR94175026
>parentmass 381.2057
>ionization [M-H]-
>formula C24H30O4
>rt 493.500000
>profile qtof
#smiles_iso CC(=CCC1=C(C(=C(C=C1O)O)CC=C(C)C)CCC2=CC(=C(C=C2)O)O)C
#smiles_can CC(=CCC1=C(C(=C(C=C1O)O)CC=C(C)C)CCC2=CC(=C(C=C2)O)O)C
#inchikey QFAPONVNJTUMHF-UHFFFAOYSA-N
#pubchem_id 480815
#mb_accession PR309026,PR309027

>ms2peaks
68.995820 18.000000
70.007940 20.000000
107.079320 20.000000
109.064130 19.000000
118.429060 18.000000
121.028990 18.000000
122.037030 38.000000
125.098120 43.000000
133.062060 23.000000
135.041920 141.000000
147.044770 60.000000
147.051880 21.000000
148.048980 23.000000
148.056150 67.000000
148.530980 24.000000
149.101350 18.000000
149.128160 20.000000
150.098140 26.000000
154.989520 18.000000
157.911220 20.000000
159.047440 40.000000
160.038600 26.000000
161.057650 179.000000
173.060150 41.000000
175.077390 47.000000
176.087170 22.000000
183.421460 24.000000
186.101910 21.000000
187.068120 19.000000
191.105880 334.000000
192.106380 38.000000
193.088650 19.000000
193.117840 18.000000
201.087890 19.000000
201.094620 18.000000
202.094270 40.000000
202.103230 20.000000
203.103580 39.000000
203.114820 19.000000
203.126500 22.000000
204.110340 52.000000
204.121770 20.000000
215.104480 18.000000
215.136810 24.000000
216.112870 57.000000
216.189350 21.000000
217.115480 20.000000
217.128940 39.000000
217.137510 29.000000
217.160680 57.000000
218.160640 19.000000
218.172680 20.000000
219.160310 21.000000
230.130910 18.000000
241.156620 20.000000
242.160280 18.000000
244.141240 48.000000
244.154220 40.000000
259.168950 6179.000000
259.544340 20.000000
260.111820 25.000000
260.174260 1090.000000
260.240050 18.000000
261.165310 32.000000
261.174010 105.000000
261.190190 20.000000
262.177830 39.000000
294.121280 18.000000
309.108250 20.000000
310.134460 18.000000
311.124300 20.000000
380.195710 21.000000
381.206050 3785.000000

>ms2peaks
122.028110 18.000000
123.040250 69.000000
123.051370 20.000000
135.041930 19.000000
149.061290 18.000000
149.095830 94.000000
173.091310 18.000000
174.093730 18.000000
189.088910 76.000000
191.106190 1052.000000
192.109120 110.000000
193.108180 39.000000
216.347270 25.000000
242.097380 20.000000
259.170440 18.000000
320.089450 18.000000
380.202480 19.000000
381.205470 546.000000

