>compound PR94898229
>parentmass 464.0702
>ionization [M-H]-
>formula C14H27NO10S3
>rt 133.200000
>profile qtof
#smiles_iso CS(=O)CCCCCCC(=NOS(=O)(=O)O)SC1C(C(C(C(O1)CO)O)O)O
#smiles_can CS(=O)CCCCCCC(=NOS(=O)(=O)O)SC1C(C(C(C(O1)CO)O)O)O
#inchikey OOGAQHVYHLPICD-UHFFFAOYSA-N
#pubchem_id 74960764
#mb_accession PR309208

>ms2
96.955730 23.000000
101.020250 20.000000
160.012330 20.000000
195.028050 20.000000
243.059800 20.000000
260.017120 21.000000
271.017430 20.000000
287.052280 21.000000
288.062350 20.000000
305.057740 19.000000
402.064000 43.000000
425.900180 22.000000
449.049770 18.000000
449.118260 20.000000
464.061890 103.000000
464.079220 38.000000

