>compound PR94652027
>parentmass 799.2091
>ionization [M-H]-
>formula C38H40O19
>rt 251.400000
>profile qtof
#smiles_iso COC1=C(C=CC(=C1)C=CC(=O)OCC2C(C(C(C(O2)OC3C(C(C(OC3C4=C(C5=C(C=C4O)OC(=CC5=O)C6=CC(=C(C=C6)O)OC)O)CO)O)O)O)O)O)O
#smiles_can COC1=C(C=CC(=C1)C=CC(=O)OCC2C(C(C(C(O2)OC3C(C(C(OC3C4=C(C5=C(C=C4O)OC(=CC5=O)C6=CC(=C(C=C6)O)OC)O)CO)O)O)O)O)O)O
#inchikey DJZOTDSGEBENPL-UHFFFAOYSA-N
#pubchem_id 73829970
#mb_accession PR309333

>ms2
191.071870 17.000000
193.039020 17.000000
235.060260 46.000000
236.066070 20.000000
265.072940 17.000000
295.082120 35.000000
299.057980 19.000000
308.027800 20.000000
323.028590 20.000000
323.058110 168.000000
323.078280 22.000000
327.192960 17.000000
342.071230 33.000000
397.085910 20.000000
428.056580 19.000000
443.093230 86.000000
443.114870 33.000000
444.103240 33.000000
444.118260 17.000000
479.045990 16.000000
623.181460 16.000000
742.311160 18.000000
764.288940 16.000000
799.201170 479.000000

