>compound PR94876851
>parentmass 425.1653
>ionization [M+HCOO]-
>formula C16H28O10
>rt 193.200000
>profile qtof
#smiles_iso CC(=CCOC1C(C(C(C(O1)COC2C(C(C(CO2)O)O)O)O)O)O)C
#smiles_can CC(=CCOC1C(C(C(C(O1)COC2C(C(C(CO2)O)O)O)O)O)O)C
#inchikey NYSQQJIJJJAWCE-UHFFFAOYSA-N
#pubchem_id 131753120
#mb_accession PR308942

>ms2
59.017350 22.000000
71.012630 26.000000
89.020390 21.000000
101.021180 36.000000
113.022730 16.000000
119.035040 54.000000
143.030320 18.000000
149.037050 20.000000
149.046100 81.000000
179.050700 20.000000
179.057510 33.000000
247.114780 48.000000
272.076170 16.000000
379.159450 452.000000
380.146670 19.000000
380.165560 88.000000
425.162630 73.000000

