>compound PR94340476
>parentmass 123.0113
>ionization [M-H]-
>formula C3H8O3S
>rt 104.400000
>profile qtof
#smiles_iso CC(C)S(=O)(=O)O
#smiles_can CC(C)S(=O)(=O)O
#inchikey HNDXKIMMSFCCFW-UHFFFAOYSA-N
#pubchem_id 79392
#mb_accession PR308955

>ms2
79.958090 148.000000
80.007710 16.000000
123.010800 588.000000

