>compound PR95835144
>parentmass 307.1273
>ionization [M-H]-
>formula C15H20N2O5
>rt 156.600000
>profile qtof
#smiles_iso C1=CC(=C(C=C1C=CC(=O)NCCCCC(C(=O)O)N)O)O
#smiles_can C1=CC(=C(C=C1C=CC(=O)NCCCCC(C(=O)O)N)O)O
#inchikey WVFMZTORJFNZPK-UHFFFAOYSA-N
#pubchem_id 145994460
#mb_accession PR309376

>ms2
73.030780 22.000000
127.082650 17.000000
135.044310 174.000000
145.092860 17.000000
161.020130 17.000000
179.054580 20.000000
263.835600 21.000000
307.142400 58.000000

