>compound PR95277833
>parentmass 807.4175
>ionization [M-H]-
>formula C42H64O15
>rt 387.000000
>profile qtof
#smiles_iso CC1(C2CCC3(C(C2(CCC1OC4C(C(C(C(O4)C(=O)O)O)O)OC5C(C(C(C(O5)C(=O)O)O)O)O)C)CC=C6C3(CCC7(C6CC(CC7)(C)C(=O)O)C)C)C)C
#smiles_can CC1(C2CCC3(C(C2(CCC1OC4C(C(C(C(O4)C(=O)O)O)O)OC5C(C(C(C(O5)C(=O)O)O)O)O)C)CC=C6C3(CCC7(C6CC(CC7)(C)C(=O)O)C)C)C)C
#inchikey BCNKILSUUHWRTG-UHFFFAOYSA-N
#pubchem_id 13457498
#mb_accession PR308910

>ms2peaks
175.021730 24.000000
193.034100 38.000000
351.054570 18.000000
420.487980 20.000000
603.743350 18.000000
753.716980 27.000000
807.419620 458.000000
807.457340 47.000000

