>compound PR95668731
>parentmass 164.0708
>ionization [M-H]-
>formula C9H11NO2
>rt 139.200000
>profile qtof
#smiles_iso C1=CC=C(C=C1)CC(C(=O)O)N
#smiles_can C1=CC=C(C=C1)CC(C(=O)O)N
#inchikey COLNVLDHVKWLRT-UHFFFAOYSA-N
#pubchem_id 994
#mb_accession PR309414

>ms2peaks
103.054940 20.000000
104.054860 43.000000
111.006310 22.000000
147.042690 350.000000
147.052380 63.000000
148.047900 25.000000
164.073900 216.000000

