>compound PR95766084
>parentmass 191.0188
>ionization [M-H]-
>formula C6H8O7
>rt 96.300000
>profile qtof
#smiles_iso C(C(=O)O)C(CC(=O)O)(C(=O)O)O
#smiles_can C(C(=O)O)C(CC(=O)O)(C(=O)O)O
#inchikey KRKNYBCHXYNGOX-UHFFFAOYSA-N
#pubchem_id 311
#mb_accession PR309127,PR309128

>ms2peaks
67.018490 21.000000
85.025400 43.000000
87.006550 35.000000
87.297320 17.000000
92.007870 16.000000
111.006640 593.000000
112.012640 43.000000
129.020360 17.000000
173.041530 17.000000
191.012280 34.000000

>ms2peaks
85.029950 305.000000
86.034090 22.000000
87.008580 570.000000
87.066570 18.000000
88.017600 21.000000
89.008120 32.000000
111.008540 3053.000000
111.680790 16.000000
112.012120 155.000000
129.015060 40.000000
129.021840 47.000000
129.027470 71.000000
130.025120 32.000000
130.996440 20.000000
132.004100 16.000000
135.026690 17.000000
154.995860 18.000000
173.003450 26.000000
173.010680 98.000000
174.022490 25.000000
191.018950 438.000000

