>compound PR95515257
>parentmass 607.1657
>ionization [M-H]-
>formula C28H32O15
>rt 240.000000
>profile qtof
#smiles_iso CC1C(C(C(C(O1)OC2C(OC(C(C2O)O)OC3=C(OC4=CC(=CC(=C4C3=O)O)OC)C5=CC(=C(C=C5)O)O)C)O)O)O
#smiles_can CC1C(C(C(C(O1)OC2C(OC(C(C2O)O)OC3=C(OC4=CC(=CC(=C4C3=O)O)OC)C5=CC(=C(C=C5)O)O)C)O)O)O
#inchikey DGFGSUOQDJHNFL-UHFFFAOYSA-N
#pubchem_id 74978385
#mb_accession PR309254

>ms2
192.217640 18.000000
223.794310 19.000000
241.621350 18.000000
243.033070 27.000000
300.023930 21.000000
313.031890 34.000000
313.044650 129.000000
314.031220 63.000000
314.045530 52.000000
315.050230 424.000000
315.073760 23.000000
316.043670 25.000000
402.463500 37.000000
417.334050 20.000000
435.187620 20.000000
460.115390 39.000000
461.089110 56.000000
461.106900 237.000000
461.125150 78.000000
462.104770 288.000000
463.115050 25.000000
464.098270 22.000000
464.115200 18.000000
607.168760 605.000000

