>compound PR96595512
>parentmass 667.1552
>ionization [M-H]-
>formula C29H32O18
>rt 243.000000
>profile qtof
#smiles_iso COC1=CC(=CC(=C1OC2C(C(C(C(O2)CO)O)O)O)OC)C3=CC(=O)C4=C(C=C(C=C4O3)OC5C(C(C(C(O5)C(=O)O)O)O)O)O
#smiles_can COC1=CC(=CC(=C1OC2C(C(C(C(O2)CO)O)O)O)OC)C3=CC(=O)C4=C(C=C(C=C4O3)OC5C(C(C(C(O5)C(=O)O)O)O)O)O
#inchikey RXBHGYDCENBXLU-UHFFFAOYSA-N
#pubchem_id 139292059
#mb_accession PR309284

>ms2
299.035250 25.000000
310.229000 27.000000
314.053040 79.000000
316.048710 18.000000
329.055790 170.000000
329.067630 339.000000
329.089140 17.000000
330.063170 65.000000
330.088440 18.000000
331.131410 21.000000
461.122220 16.000000
505.121370 24.000000
667.135010 121.000000
667.151920 444.000000

