>compound PR96530275
>parentmass 467.1332
>ionization [M-H]-
>formula C17H28N2O11S
>rt 110.400000
>profile qtof
#smiles_iso C/C=C/S(=O)CC(C(=O)O)NC(=O)CCC(C(=O)O)NCC1(C(C(C(CO1)O)O)O)O
#smiles_can CC=CS(=O)CC(C(=O)O)NC(=O)CCC(C(=O)O)NCC1(C(C(C(CO1)O)O)O)O
#inchikey WROKSUMDFCBDIW-GORDUTHDSA-N
#pubchem_id 139292128
#mb_accession PR309142

>ms2
128.034440 97.000000
168.099720 16.000000
171.074140 160.000000
171.083720 27.000000
176.039440 20.000000
177.044250 21.000000
200.055540 55.000000
200.064000 23.000000
212.056490 19.000000
215.073960 19.000000
242.976060 23.000000
243.097920 16.000000
244.102890 20.000000
285.115050 23.000000
287.090880 16.000000
290.083160 52.000000
305.074860 50.000000
305.088750 75.000000
333.146150 22.000000
377.087190 20.000000
467.122250 56.000000
467.138850 189.000000

