>compound PR96315823
>parentmass 436.2234
>ionization [M-H]-
>formula C25H31N3O4
>rt 229.200000
>profile qtof
#smiles_iso C1=CC(=CC=C1C=CC(=O)NCCCCNCCCNC(=O)C=CC2=CC=C(C=C2)O)O
#smiles_can C1=CC(=CC=C1C=CC(=O)NCCCCNCCCNC(=O)C=CC2=CC=C(C=C2)O)O
#inchikey QYBCBMVQSCJMSA-UHFFFAOYSA-N
#pubchem_id 73190496
#mb_accession PR309362

>ms2
119.049470 413.000000
120.059310 16.000000
145.021770 58.000000
145.032040 99.000000
146.033310 16.000000
203.092270 16.000000
231.150910 18.000000
248.175050 16.000000
273.172270 54.000000
290.172000 36.000000
290.190030 201.000000
291.178530 16.000000
291.192440 55.000000
316.163970 388.000000
316.182400 86.000000
317.166410 17.000000
317.179140 48.000000
436.222500 1052.000000
436.317410 25.000000

