>compound PR96873134
>parentmass 721.4152
>ionization [M+HCOO]-
>formula C38H60O10
>rt 533.400000
>profile qtof
#smiles_iso CC(=O)OCC1C(C(C(C(O1)OC2CCC3(C(C2(C)CO)CCC4(C3CC=C5C4(CCC6(C5CC(CC6)(C)C)C(=O)O)C)C)C)O)O)O
#smiles_can CC(=O)OCC1C(C(C(C(O1)OC2CCC3(C(C2(C)CO)CCC4(C3CC=C5C4(CCC6(C5CC(CC6)(C)C)C(=O)O)C)C)C)O)O)O
#inchikey VBPRYVPCTXJOKZ-UHFFFAOYSA-N
#pubchem_id 15625524
#mb_accession PR308904

>ms2
145.535870 30.000000
155.972060 25.000000
343.150700 18.000000
403.848940 28.000000
422.295100 40.000000
434.549410 27.000000
540.087040 20.000000
615.395510 18.000000
617.397890 22.000000
625.255920 21.000000
634.497920 21.000000
675.303710 20.000000
675.334590 20.000000
675.410100 4467.000000
675.463010 19.000000
676.348450 18.000000
676.415770 1697.000000
676.485530 24.000000
677.409970 406.000000
677.427120 178.000000
678.432010 84.000000
721.345640 18.000000
721.413880 851.000000

