>compound PR97111586
>parentmass 338.0879
>ionization [M-H]-
>formula C15H17NO8
>rt 138.600000
>profile qtof
#smiles_iso C1=CC2=C(C=C1O)NC=C2C(=O)OC3C(C(C(C(O3)CO)O)O)O
#smiles_can C1=CC2=C(C=C1O)NC=C2C(=O)OC3C(C(C(C(O3)CO)O)O)O
#inchikey VZZSVZUINKFSIE-UHFFFAOYSA-N
#pubchem_id 77499147
#mb_accession PR309198

>ms2peaks
101.024020 19.000000
131.037410 84.000000
132.045270 148.000000
133.050130 27.000000
134.045680 42.000000
134.056470 28.000000
175.020360 22.000000
175.029950 24.000000
176.035310 404.000000
177.037540 49.000000
338.084690 18.000000
338.108060 21.000000
338.122380 18.000000

