>compound PR97887995
>parentmass 566.3452
>ionization [M+HCOO]-
>formula C26H52NO7P
>rt 616.200000
>profile qtof
#smiles_iso CCCCCCCCC=CCCCCCCCC(=O)OCC(COP(=O)([O-])OCC[N+](C)(C)C)O
#smiles_can CCCCCCCCC=CCCCCCCCC(=O)OCC(COP(=O)([O-])OCC[N+](C)(C)C)O
#inchikey YAMUFBLWGFFICM-UHFFFAOYSA-N
#pubchem_id 3082003
#mb_accession PR309160

>ms2peaks
102.582150 24.000000
152.988100 23.000000
224.069060 55.000000
224.075260 22.000000
281.228120 61.000000
281.248020 509.000000
282.250370 35.000000
429.256040 24.000000
506.319150 274.000000
506.333040 102.000000
507.336400 53.000000
508.376560 16.000000
538.003780 16.000000
566.328120 22.000000
566.351870 47.000000

