>compound PR97230850
>parentmass 447.053
>ionization [M-H]-
>formula C16H20N2O9S2
>rt 186.600000
>profile qtof
#smiles_iso C1=CC=C2C(=C1)C(=CN2)CC(=NOS(=O)(=O)O)SC3C(C(C(C(O3)CO)O)O)O
#smiles_can C1=CC=C2C(=C1)C(=CN2)CC(=NOS(=O)(=O)O)SC3C(C(C(C(O3)CO)O)O)O
#inchikey DNDNWOWHUWNBCK-UHFFFAOYSA-N
#pubchem_id 547456
#mb_accession PR309211

>ms2peaks
73.539110 23.000000
74.991750 141.000000
79.956530 18.000000
95.952160 470.000000
96.959220 879.000000
97.739430 18.000000
97.947960 28.000000
98.959800 67.000000
116.054610 18.000000
121.955920 25.000000
128.934300 23.000000
138.973450 39.000000
146.052550 20.000000
168.985900 19.000000
172.062000 24.000000
173.014300 19.000000
195.028370 21.000000
195.038280 38.000000
196.035350 20.000000
205.043750 36.000000
206.041690 20.000000
245.956280 18.000000
250.999650 18.000000
253.988080 73.000000
259.003360 35.000000
259.011600 27.000000
259.028660 25.000000
260.009890 18.000000
274.991490 39.000000
275.996730 18.000000
290.979100 18.000000
290.991940 20.000000
346.588010 19.000000
368.112880 24.000000
447.052150 3184.000000

