>compound PR98602625
>parentmass 401.1446
>ionization [M-H]-
>formula C18H26O10
>rt 200.400000
>profile qtof
#smiles_iso C1C(C(C(O1)OCC2C(C(C(C(O2)OCC3=CC=CC=C3)O)O)O)O)(CO)O
#smiles_can C1C(C(C(O1)OCC2C(C(C(C(O2)OCC3=CC=CC=C3)O)O)O)O)(CO)O
#inchikey NJMQSVWMCODQIP-UHFFFAOYSA-N
#pubchem_id 14079044
#mb_accession PR309417

>ms2peaks
71.013500 20.000000
83.011670 16.000000
89.015370 18.000000
89.021790 17.000000
125.023680 23.000000
131.029860 18.000000
161.044940 39.000000
178.028110 16.000000
234.064640 16.000000
251.096590 18.000000
269.104340 22.000000
270.106660 17.000000
401.147400 178.000000

