>compound PR98154511
>parentmass 450.0577
>ionization [M-H]-
>formula C13H25NO10S3
>rt 115.800000
>profile qtof
#smiles_iso CS(=O)CCCCCC(=NOS(=O)(=O)O)SC1C(C(C(C(O1)CO)O)O)O
#smiles_can CS(=O)CCCCCC(=NOS(=O)(=O)O)SC1C(C(C(C(O1)CO)O)O)O
#inchikey HUCGRJSHMZWRQQ-UHFFFAOYSA-N
#pubchem_id 4479687
#mb_accession PR309206

>ms2peaks
74.988880 37.000000
79.957140 25.000000
80.965850 18.000000
95.950210 38.000000
96.959470 167.000000
96.968280 65.000000
129.922610 24.000000
138.968080 22.000000
386.040990 21.000000
386.054960 20.000000
450.057590 361.000000

