>compound PR98588123
>parentmass 695.1463
>ionization [M-H]-
>formula C30H32O19
>rt 201.600000
>profile qtof
#smiles_iso C1=CC(=CC=C1C2=C(C(=O)C3=C(C=C(C=C3O2)OC4C(C(C(C(O4)CO)O)O)O)O)OC5C(C(C(C(O5)COC(=O)CC(=O)O)O)O)O)O
#smiles_can C1=CC(=CC=C1C2=C(C(=O)C3=C(C=C(C=C3O2)OC4C(C(C(C(O4)CO)O)O)O)O)OC5C(C(C(C(O5)COC(=O)CC(=O)O)O)O)O)O
#inchikey PSZBCORWZMVATQ-UHFFFAOYSA-N
#pubchem_id 74978040
#mb_accession PR309257

>ms2
161.024570 26.000000
167.032390 18.000000
167.970830 18.000000
175.005690 20.000000
209.042450 174.000000
209.054490 15.000000
239.059880 64.000000
265.045010 24.000000
269.067230 46.000000
283.018920 116.000000
283.030980 62.000000
284.027340 36.000000
284.038670 18.000000
285.024960 18.000000
285.041660 201.000000
285.055660 54.000000
295.092350 18.000000
295.370760 23.000000
311.060790 23.000000
326.034450 29.000000
327.046630 18.000000
327.997620 18.000000
330.086820 29.000000
351.053620 40.000000
371.088560 39.000000
386.097320 37.000000
401.087680 36.000000
413.080230 40.000000
431.098940 20.000000
447.095950 125.000000
448.073240 21.000000
489.102480 139.000000
489.117160 58.000000
490.111540 19.000000
491.104610 39.000000
491.124180 21.000000
509.066100 18.000000
531.016240 18.000000
533.120730 38.000000
564.146360 29.000000
612.169620 19.000000
637.140750 19.000000
651.159000 824.000000
652.153320 129.000000
652.172240 137.000000
653.141050 25.000000
653.164730 19.000000
654.161250 47.000000
654.179020 18.000000
654.224120 18.000000
695.144840 128.000000

