>compound PR98055480
>parentmass 709.3264
>ionization [M+HCOO]-
>formula C31H52O15
>rt 569.400000
>profile qtof
#smiles_iso CCCCCC(=O)OC1C(C(OC(C1OC(=O)CCCCC)OC2(C(C(C(O2)CO)OC(=O)C)O)CO)CO)OC(=O)CCCC
#smiles_can CCCCCC(=O)OC1C(C(OC(C1OC(=O)CCCCC)OC2(C(C(C(O2)CO)OC(=O)C)O)CO)CO)OC(=O)CCCC
#inchikey NNYRMMBHXZJRGM-UHFFFAOYSA-N
#pubchem_id 139291986
#mb_accession PR309010

>ms2
65.403820 36.000000
71.014280 23.000000
89.020200 18.000000
115.072300 17.000000
143.031130 20.000000
153.062700 17.000000
157.087450 21.000000
161.034150 32.000000
161.046050 23.000000
207.045180 22.000000
207.056400 19.000000
263.120090 21.000000
277.131130 21.000000
323.104370 34.000000
329.356110 18.000000
383.134000 42.000000
384.106230 20.000000
390.149900 17.000000
467.173860 19.000000
467.206240 18.000000
481.170990 16.000000
481.194700 39.000000
482.196010 16.000000
501.277440 17.000000
547.276430 18.000000
565.226380 28.000000
565.255550 27.000000
566.277100 25.000000
664.311460 18.000000
699.309330 24.000000
709.325930 720.000000

