>compound PR98338315
>parentmass 755.2036
>ionization [M-H]-
>formula C33H40O20
>rt 216.600000
>profile qtof
#smiles_iso CC1C(C(C(C(O1)OC2=CC(=C3C(=C2)OC(=C(C3=O)OC4C(C(C(C(O4)COC5C(C(C(C(O5)CO)O)O)O)O)O)O)C6=CC=C(C=C6)O)O)O)O)O
#smiles_can CC1C(C(C(C(O1)OC2=CC(=C3C(=C2)OC(=C(C3=O)OC4C(C(C(C(O4)COC5C(C(C(C(O5)CO)O)O)O)O)O)O)C6=CC=C(C=C6)O)O)O)O)O
#inchikey QFSDWLPMRWDFID-UHFFFAOYSA-N
#pubchem_id 74428193
#mb_accession PR309263

>ms2
151.005570 20.000000
284.020630 58.000000
284.033260 85.000000
285.017820 18.000000
285.033940 70.000000
285.049160 85.000000
286.040340 18.000000
286.055080 22.000000
355.534700 21.000000
383.982940 18.000000
755.207760 811.000000

