>compound PR99239107
>parentmass 299.0776
>ionization [M-H]-
>formula C13H16O8
>rt 181.200000
>profile qtof
#smiles_iso C1=CC=C(C(=C1)C(=O)O)OC2C(C(C(C(O2)CO)O)O)O
#smiles_can C1=CC=C(C(=C1)C(=O)O)OC2C(C(C(C(O2)CO)O)O)O
#inchikey TZPBMNKOLMSJPF-UHFFFAOYSA-N
#pubchem_id 4596190
#mb_accession PR309055

>ms2
93.032820 23.000000
137.022890 429.000000
138.032440 46.000000
183.117420 31.000000

