>compound PR00298935
>parentmass 752.421568
>ionization [M+H]+
>formula C39H61NO13
>rt 302.326368
>profile qtof
#smiles_iso CCC(C)C(=O)OC1C(C2C(CN3CC(CCC3C2(C)O)C)C4C1(C5C(CC6C7(C5(C4)OC6(C(CC7)OC(=O)C(C)(C(C)OC(=O)C)O)O)C)O)O)O
#smiles_can CCC(C)C(=O)OC1C(C2C(CN3CC(CCC3C2(C)O)C)C4C1(C5C(CC6C7(C5(C4)OC6(C(CC7)OC(=O)C(C)(C(C)OC(=O)C)O)O)C)O)O)O
#inchikey CPINTEKYWNYXNP-UHFFFAOYSA-N
#pubchem_id 3403655
#mb_accession PR301314,PR301318,PR301325,PR301349,PR310657

>ms2peaks
154.121610 10.000000
377.372890 5.000000
378.502530 6.000000
409.013610 6.000000
420.248170 7.000000
438.253080 6.000000
444.931210 6.000000
456.239260 7.000000
456.273160 20.000000
554.339660 5.000000
558.330200 6.000000
558.346010 9.000000
558.391110 5.000000
596.348510 9.000000
614.318660 75.000000
614.359500 23.000000
615.305110 8.000000
615.342530 13.000000
615.365600 8.000000
616.335270 8.000000
632.291990 6.000000
632.307370 16.000000
632.346800 61.000000
632.378540 25.000000
633.290280 6.000000
633.337220 16.000000
633.365780 24.000000
634.351380 12.000000
650.316530 11.000000
650.338750 24.000000
650.360660 30.000000
650.375430 15.000000
651.260380 7.000000
651.351320 27.000000
652.354190 6.000000
716.390870 36.000000
717.422970 7.000000
734.352420 6.000000
734.383060 48.000000
734.411010 108.000000
734.439640 36.000000
735.389040 37.000000
735.422180 20.000000
736.433110 7.000000
752.329710 10.000000
752.420720 1000.000000

>ms2peaks
751.381710 8.000000
751.406190 7.000000
752.327820 15.000000
752.423520 1000.000000

>ms2peaks
98.097470 38.000000
99.046200 16.000000
112.111940 16.000000
112.118980 27.000000
113.325530 13.000000
131.074940 11.000000
147.079680 17.000000
154.120100 111.000000
154.130480 81.000000
155.126360 53.000000
160.105910 16.000000
162.126890 14.000000
163.073670 18.000000
165.116550 16.000000
166.123370 11.000000
175.113650 21.000000
192.122940 16.000000
192.132480 24.000000
194.159710 17.000000
200.079830 21.000000
200.119050 13.000000
209.136610 15.000000
217.062810 18.000000
218.111430 15.000000
219.125030 15.000000
221.138690 13.000000
223.163120 19.000000
227.136230 12.000000
229.051880 12.000000
229.758540 11.000000
233.095600 11.000000
237.125120 13.000000
248.110530 15.000000
248.166700 18.000000
251.145970 23.000000
253.121870 17.000000
256.136930 17.000000
265.123440 12.000000
276.252440 13.000000
277.129880 18.000000
278.167600 12.000000
295.180050 12.000000
297.140660 11.000000
300.572110 11.000000
319.946170 11.000000
324.217590 20.000000
344.195590 13.000000
348.379180 13.000000
352.222260 17.000000
359.178560 13.000000
367.208950 11.000000
370.253940 15.000000
373.246430 13.000000
379.696260 13.000000
384.407530 12.000000
385.194060 11.000000
391.111300 17.000000
392.258360 13.000000
392.273590 27.000000
405.231960 11.000000
406.287170 11.000000
410.078120 13.000000
410.255520 17.000000
410.280210 55.000000
411.226810 11.000000
411.268800 40.000000
412.280090 13.000000
413.186610 12.000000
419.875550 11.000000
420.233000 22.000000
420.252040 24.000000
420.276760 34.000000
421.265840 11.000000
424.860290 11.000000
425.327120 11.000000
427.209110 15.000000
428.246730 11.000000
428.263700 25.000000
428.290620 40.000000
429.274780 24.000000
429.291560 11.000000
432.630770 13.000000
433.788670 16.000000
438.083650 17.000000
438.242580 110.000000
438.264070 375.000000
438.301120 11.000000
439.239900 25.000000
439.255860 41.000000
439.281370 21.000000
439.292240 11.000000
440.260890 13.000000
440.291530 17.000000
446.650600 15.000000
452.666900 16.000000
456.230740 86.000000
456.278930 1000.000000
457.058900 11.000000
457.277830 264.000000
458.250950 13.000000
458.412690 11.000000
458.513430 11.000000
460.249180 13.000000
465.867920 13.000000
474.279110 73.000000
474.298100 12.000000
475.134980 17.000000
475.287870 11.000000
476.302950 15.000000
502.518710 13.000000
508.395780 15.000000
518.301210 24.000000
518.317020 22.000000
521.300660 24.000000
522.329650 15.000000
532.372990 22.000000
536.260380 11.000000
536.289120 33.000000
536.349000 14.000000
537.290100 29.000000
540.303100 26.000000
540.319950 76.000000
540.339600 17.000000
541.301880 33.000000
541.322020 40.000000
541.337280 41.000000
541.357480 32.000000
542.344120 13.000000
542.363530 11.000000
550.306820 15.000000
552.319520 11.000000
553.311710 12.000000
553.976750 15.000000
554.293090 58.000000
554.309810 41.000000
556.330380 11.000000
558.198240 13.000000
558.294560 84.000000
558.341670 868.000000
558.406250 11.000000
558.795650 15.000000
558.923580 11.000000
559.228640 11.000000
559.313960 36.000000
559.344670 255.000000
559.364620 115.000000
560.321230 49.000000
560.351810 54.000000
561.160890 19.000000
561.335690 24.000000
565.488220 12.000000
568.302670 11.000000
568.333680 13.000000
569.337220 34.000000
572.208370 11.000000
572.306270 11.000000
572.325680 26.000000
572.346310 26.000000
573.271180 12.000000
573.316220 22.000000
576.317630 11.000000
576.356570 54.000000
578.303710 15.000000
579.303220 11.000000
579.341060 11.000000
580.311100 15.000000
583.329410 13.000000
583.564210 19.000000
583.846980 20.000000
594.371890 13.000000
595.749270 13.000000
596.269040 11.000000
596.302370 89.000000
596.325130 186.000000
596.368650 15.000000
597.279850 11.000000
597.331970 103.000000
597.360470 16.000000
598.089110 15.000000
598.291990 15.000000
598.348940 22.000000
598.986690 13.000000
605.055110 15.000000
614.224610 25.000000
614.272580 37.000000
614.307250 195.000000
614.331600 717.000000
614.422910 11.000000
615.239690 11.000000
615.303040 43.000000
615.332210 215.000000
615.366880 59.000000
616.297000 17.000000
616.340700 55.000000
617.356320 11.000000
627.506770 11.000000
632.267520 23.000000
632.292300 27.000000
632.339110 541.000000
633.086430 20.000000
633.308590 48.000000
633.333680 181.000000
633.375060 45.000000
634.343080 13.000000
634.365230 14.000000
634.414730 11.000000
650.325560 12.000000
650.359990 29.000000
651.370610 11.000000
674.381900 11.000000
674.407100 13.000000
675.391660 15.000000
676.459900 21.000000
698.375430 13.000000
699.370240 13.000000
699.393010 11.000000
699.440550 11.000000
701.379700 18.000000
716.377690 73.000000
716.415100 76.000000
717.414610 54.000000
717.659670 13.000000
733.433230 28.000000
734.298280 13.000000
734.359500 68.000000
734.394650 99.000000
734.424560 269.000000
735.406680 58.000000
735.429440 49.000000
735.455380 13.000000
736.396420 13.000000
752.308170 11.000000
752.406250 33.000000
752.446840 20.000000

>ms2peaks
69.031040 15.000000
81.067890 13.000000
83.052400 15.000000
88.496990 13.000000
89.063730 10.000000
97.058310 19.000000
99.050320 11.000000
112.113460 13.000000
129.068340 12.000000
142.119540 11.000000
154.102980 10.000000
154.113240 13.000000
154.122450 14.000000
154.128970 27.000000
155.123730 16.000000
161.120290 10.000000
162.128850 22.000000
166.106810 14.000000
166.124600 10.000000
174.135620 14.000000
180.133740 11.000000
180.146270 11.000000
183.084470 11.000000
188.143540 12.000000
190.123380 39.000000
192.111370 12.000000
192.140640 26.000000
193.145200 22.000000
193.159120 15.000000
204.123400 11.000000
221.134930 14.000000
225.130630 12.000000
227.107710 10.000000
228.964600 16.000000
236.124220 10.000000
247.131450 11.000000
251.189670 16.000000
259.340060 11.000000
261.182040 13.000000
263.121800 11.000000
267.138400 17.000000
269.155330 15.000000
273.185550 10.000000
276.653960 12.000000
279.139560 11.000000
285.154660 13.000000
296.179930 11.000000
297.162570 12.000000
315.601620 11.000000
316.178440 17.000000
344.172270 19.000000
368.271000 13.000000
370.200350 12.000000
378.619050 17.000000
379.515350 12.000000
384.791470 10.000000
385.831910 13.000000
385.904300 10.000000
390.237270 15.000000
392.261260 10.000000
392.273470 10.000000
394.075260 16.000000
402.235960 13.000000
408.243040 14.000000
410.167540 11.000000
410.259610 36.000000
410.274810 53.000000
410.290920 22.000000
411.280120 14.000000
413.282650 10.000000
415.030210 14.000000
420.190190 13.000000
420.238250 23.000000
420.256320 34.000000
420.268920 32.000000
421.255980 11.000000
428.257930 14.000000
428.279360 29.000000
429.290860 13.000000
430.317200 10.000000
438.196900 13.000000
438.228060 48.000000
438.257080 325.000000
438.276120 116.000000
438.304380 10.000000
438.320560 18.000000
439.199920 11.000000
439.243160 10.000000
439.268010 144.000000
439.280790 42.000000
439.299010 16.000000
440.277010 10.000000
441.261260 12.000000
441.368350 13.000000
456.092530 10.000000
456.224950 35.000000
456.244230 90.000000
456.275910 1000.000000
456.718990 12.000000
457.238950 11.000000
457.273740 210.000000
457.303530 14.000000
458.270260 21.000000
458.288760 11.000000
458.522610 12.000000
458.568330 10.000000
460.288450 12.000000
461.523280 10.000000
474.083010 15.000000
474.286190 54.000000
474.305360 46.000000
475.295100 33.000000
476.224000 10.000000
483.435790 15.000000
490.306430 10.000000
512.355410 14.000000
520.271180 10.000000
536.264340 10.000000
536.281800 18.000000
536.312680 11.000000
537.294800 10.000000
538.276980 11.000000
540.153690 11.000000
540.308470 15.000000
540.331120 58.000000
540.349550 54.000000
541.305180 13.000000
541.330510 32.000000
543.485530 11.000000
550.061890 11.000000
554.279910 10.000000
554.317990 35.000000
555.336790 19.000000
555.461730 14.000000
556.324830 29.000000
557.326900 45.000000
557.345640 28.000000
558.134640 10.000000
558.282040 24.000000
558.349430 674.000000
559.300780 29.000000
559.324580 99.000000
559.355220 165.000000
559.387080 11.000000
560.340940 20.000000
560.375610 11.000000
561.349180 23.000000
568.346130 10.000000
568.996340 20.000000
571.287230 11.000000
572.307130 10.000000
572.347170 11.000000
574.324650 11.000000
574.345700 38.000000
575.339720 10.000000
576.037290 14.000000
576.338320 42.000000
576.362240 18.000000
577.329160 13.000000
577.368530 11.000000
578.291380 58.000000
578.331600 23.000000
578.421260 13.000000
579.259090 21.000000
580.316530 12.000000
586.346680 11.000000
586.363590 14.000000
596.284610 23.000000
596.328610 304.000000
596.386900 12.000000
597.324650 148.000000
598.314640 13.000000
598.337040 22.000000
614.302250 77.000000
614.334110 571.000000
614.995670 14.000000
615.312870 77.000000
615.342960 121.000000
615.396480 13.000000
615.697200 10.000000
616.346130 11.000000
616.379210 11.000000
617.332090 11.000000
620.773250 11.000000
622.053160 13.000000
629.512080 10.000000
630.097350 10.000000
632.225710 14.000000
632.251400 10.000000
632.276920 21.000000
632.307430 42.000000
632.330510 205.000000
632.345340 558.000000
632.390810 14.000000
632.731630 10.000000
633.255130 10.000000
633.326900 140.000000
633.353820 102.000000
633.380680 72.000000
633.402950 15.000000
634.344730 45.000000
634.368230 21.000000
635.351320 31.000000
636.362670 13.000000
636.431030 11.000000
651.285580 10.000000
654.376590 14.000000
656.350460 10.000000
656.371340 10.000000
666.676820 14.000000
675.374330 12.000000
698.385440 11.000000
698.427920 33.000000
699.397090 11.000000
716.352720 11.000000
716.390010 86.000000
716.418520 26.000000
716.443660 14.000000
717.385440 23.000000
717.419130 21.000000
718.399660 11.000000
732.408940 10.000000
733.399840 29.000000
734.337950 26.000000
734.358280 22.000000
734.413760 235.000000
734.853580 15.000000
735.397030 85.000000
735.424930 66.000000
735.473390 12.000000
735.567630 10.000000
736.402160 26.000000
736.424190 17.000000
736.459290 27.000000
738.646610 15.000000
752.340210 14.000000
752.403560 10.000000

>ms2peaks
63.943510 27.000000
98.095780 24.000000
99.042770 27.000000
112.799210 23.000000
117.057630 20.000000
128.108310 27.000000
154.121610 61.000000
154.136660 20.000000
177.148470 21.000000
287.692750 26.000000
352.223480 27.000000
377.372890 30.000000
378.502530 38.000000
392.235750 17.000000
409.013610 33.000000
420.248170 40.000000
420.262760 20.000000
438.253080 38.000000
438.281560 29.000000
439.275630 23.000000
444.931210 36.000000
456.239260 40.000000
456.273160 120.000000
457.265900 18.000000
457.284390 25.000000
462.048070 26.000000
468.545560 20.000000
474.286130 19.000000
508.340330 20.000000
522.276670 18.000000
522.427430 20.000000
554.339660 32.000000
555.328000 21.000000
558.330200 38.000000
558.346010 51.000000
558.391110 30.000000
559.307370 20.000000
559.331480 24.000000
560.356630 18.000000
560.373720 22.000000
568.316350 22.000000
572.888850 23.000000
577.355900 17.000000
579.319340 22.000000
596.300290 25.000000
596.348510 55.000000
597.318790 23.000000
597.341000 22.000000
614.276980 17.000000
614.318660 440.000000
614.359500 137.000000
615.291750 17.000000
615.305110 47.000000
615.342530 76.000000
615.365600 46.000000
616.335270 50.000000
616.373110 28.000000
632.291990 37.000000
632.307370 94.000000
632.346800 360.000000
632.378540 148.000000
633.290280 38.000000
633.337220 95.000000
633.365780 139.000000
634.351380 71.000000
635.235720 17.000000
635.325740 20.000000
636.142150 18.000000
642.088990 21.000000
650.316530 67.000000
650.338750 139.000000
650.360660 174.000000
650.375430 91.000000
651.260380 41.000000
651.351320 158.000000
652.314820 18.000000
652.354190 35.000000
652.398860 18.000000
674.346560 25.000000
675.415040 25.000000
692.348880 17.000000
699.371700 25.000000
704.377560 20.000000
716.329220 19.000000
716.390870 214.000000
717.422970 41.000000
717.467290 18.000000
719.388430 17.000000
721.200200 20.000000
733.218810 17.000000
734.352420 38.000000
734.383060 281.000000
734.411010 637.000000
734.439640 210.000000
734.536560 18.000000
735.359130 17.000000
735.389040 221.000000
735.422180 120.000000
736.403320 20.000000
736.433110 39.000000
736.458130 19.000000
737.430910 25.000000
751.400210 21.000000
751.437810 17.000000
751.918880 18.000000
752.144710 21.000000
752.240110 28.000000
752.329710 57.000000
752.420720 5894.000000

