>compound PR00929354
>parentmass 927.5311777272728
>ionization [M+H]+
>formula C48H78O17
>rt 377.182691
>profile qtof
#smiles_iso CC1C(C(C(C(O1)OC2C(OC(C(C2O)O)OC3CCC4(C(C3(C)C)CCC5(C4C=CC6=C7CC(CCC7(C(CC65C)O)CO)(C)C)C)C)COC8C(C(C(C(O8)CO)O)O)O)O)O)O
#smiles_can CC1C(C(C(C(O1)OC2C(OC(C(C2O)O)OC3CCC4(C(C3(C)C)CCC5(C4C=CC6=C7CC(CCC7(C(CC65C)O)CO)(C)C)C)C)COC8C(C(C(C(O8)CO)O)O)O)O)O)O
#inchikey PYJMYPPFWASOJX-UHFFFAOYSA-N
#pubchem_id 4483646
#mb_accession PR304348,PR304352,PR304356,PR304360,PR304364,PR304371,PR304378,PR304382,PR304386,PR304390,PR310403

>ms2
111.015390 110.000000
121.097310 52.000000
127.036870 52.000000
127.230690 52.000000
129.048110 117.000000
129.060350 74.000000
163.151950 52.000000
187.152020 55.000000
255.080080 68.000000
293.125060 68.000000
308.804570 52.000000
309.095830 61.000000
309.118260 262.000000
309.138850 55.000000
327.120180 52.000000
345.959200 74.000000
399.537690 65.000000
403.319700 126.000000
403.343750 126.000000
404.333980 52.000000
409.340700 55.000000
421.344420 1000.000000
422.344120 58.000000
422.360350 126.000000
423.332030 52.000000
471.174530 61.000000
471.196690 52.000000
489.163940 68.000000
572.317200 55.000000
583.426150 194.000000
585.210510 52.000000
601.424620 71.000000
603.423340 65.000000
604.448360 58.000000
622.238400 58.000000
647.834350 55.000000
746.448730 52.000000
748.442870 81.000000
763.451350 52.000000
765.454350 52.000000
765.499510 52.000000
765.533510 55.000000
846.495060 52.000000
856.035830 65.000000
878.494380 58.000000
909.485350 52.000000
927.540890 579.000000

>ms2
237.083620 69.000000
273.090180 105.000000
273.104060 56.000000
309.118040 128.000000
309.135990 53.000000
325.117860 53.000000
403.312740 53.000000
405.336700 66.000000
421.338170 112.000000
421.357360 105.000000
421.378750 56.000000
422.340850 56.000000
422.390080 59.000000
423.346920 53.000000
471.162350 105.000000
471.179110 227.000000
471.195620 118.000000
471.376800 59.000000
472.095310 79.000000
472.188930 56.000000
489.165920 112.000000
583.383790 56.000000
601.382510 53.000000
620.439700 53.000000
684.481570 56.000000
765.430180 76.000000
765.477720 128.000000
766.008790 56.000000
766.473450 53.000000
782.481260 56.000000
846.497130 59.000000
847.504760 99.000000
891.538760 53.000000
892.522520 72.000000
909.494080 66.000000
911.518980 53.000000
926.531680 53.000000
927.438350 66.000000
927.531860 1000.000000
927.574830 214.000000

>ms2
75.039280 55.000000
97.029340 94.000000
111.040190 49.000000
129.051280 172.000000
145.037410 44.000000
145.044780 44.000000
147.062060 55.000000
163.052690 89.000000
165.075530 44.000000
187.145400 52.000000
189.157840 47.000000
189.167340 81.000000
201.166690 47.000000
207.180300 44.000000
215.167370 42.000000
237.076260 42.000000
237.170850 44.000000
255.094600 42.000000
256.079470 49.000000
273.085450 89.000000
273.096160 211.000000
294.118960 91.000000
309.113980 341.000000
309.123440 135.000000
325.101960 44.000000
391.329190 52.000000
403.324310 44.000000
403.336760 55.000000
404.344300 44.000000
405.327970 60.000000
421.324620 188.000000
421.345790 1000.000000
421.371340 122.000000
422.315280 42.000000
422.356840 208.000000
423.350650 44.000000
424.367220 86.000000
436.375150 44.000000
439.367860 143.000000
440.362340 47.000000
542.076480 49.000000
542.653200 60.000000
567.416630 42.000000
583.400820 52.000000
585.407230 44.000000
601.392700 52.000000
601.419250 89.000000
732.474610 62.000000
747.452640 55.000000
910.514400 42.000000

>ms2
71.048310 187.000000
95.088240 176.000000
111.043420 176.000000
129.055800 1000.000000
147.063230 352.000000
147.123950 374.000000
155.091630 198.000000
181.039960 176.000000
188.157140 231.000000
189.160190 769.000000
201.112700 231.000000
208.174800 319.000000
213.153870 253.000000
215.172520 418.000000
222.641720 242.000000
241.182620 176.000000
242.197690 209.000000
246.231320 275.000000
247.020290 176.000000
269.168270 275.000000
277.001100 187.000000
291.199800 176.000000
319.233950 176.000000
330.571780 187.000000
333.211400 176.000000
376.296390 176.000000
376.320220 187.000000
403.326450 220.000000
403.346590 429.000000
421.338010 769.000000
422.319270 198.000000
422.349850 835.000000
439.367680 220.000000
513.532290 286.000000

>ms2
97.033800 142.000000
112.050930 118.000000
129.051360 95.000000
146.054550 95.000000
147.058940 207.000000
147.069920 320.000000
163.057660 101.000000
201.164260 95.000000
201.172700 112.000000
205.080670 118.000000
243.217410 101.000000
255.078520 148.000000
255.093690 136.000000
261.215670 124.000000
273.079620 201.000000
274.109440 130.000000
309.118800 882.000000
391.309690 124.000000
391.358120 101.000000
403.333920 101.000000
418.139250 130.000000
421.333370 710.000000
421.358180 1000.000000
422.348300 183.000000
422.365230 320.000000
435.125790 95.000000
438.350250 95.000000
439.354460 385.000000
471.169530 95.000000
472.170380 107.000000
583.412540 124.000000
584.457460 112.000000
602.292180 101.000000
698.084050 124.000000
730.493650 112.000000
748.495300 95.000000
765.558110 118.000000
782.409670 148.000000
909.545530 101.000000
927.469180 219.000000
927.503170 343.000000
927.531980 296.000000

>ms2
85.028000 134.000000
85.033260 62.000000
129.051510 58.000000
129.063020 76.000000
144.768050 65.000000
147.068300 283.000000
163.062620 58.000000
189.171520 163.000000
195.057210 58.000000
207.168720 58.000000
233.191800 62.000000
255.085720 76.000000
273.084410 72.000000
273.093780 65.000000
274.099950 94.000000
299.224760 58.000000
305.214970 58.000000
309.111510 399.000000
309.124050 149.000000
327.123380 58.000000
403.332240 141.000000
404.340000 62.000000
408.985530 65.000000
413.913330 58.000000
421.346370 1000.000000
422.334500 203.000000
422.359440 120.000000
423.356750 123.000000
439.333920 91.000000
439.355380 58.000000
439.378050 65.000000
583.398860 58.000000
601.414610 65.000000
603.447140 58.000000
747.473330 58.000000
769.809270 69.000000
909.514160 58.000000

>ms2
129.049560 232.000000
165.078610 76.000000
201.153150 133.000000
273.094970 76.000000
273.105350 65.000000
309.111720 198.000000
325.133240 91.000000
403.323490 76.000000
404.333010 61.000000
405.320860 61.000000
421.347660 1000.000000
421.382810 68.000000
422.321110 61.000000
422.353090 426.000000
422.373500 76.000000
423.340670 221.000000
435.159000 65.000000
471.157930 76.000000
472.205200 76.000000
489.180690 72.000000
583.398560 61.000000
586.397580 61.000000
602.397160 80.000000
603.416930 61.000000
745.440920 61.000000
746.412290 87.000000
746.435790 61.000000
747.453610 61.000000
766.377010 68.000000
767.457890 61.000000
767.480470 61.000000
846.516110 95.000000
847.517460 61.000000
847.541260 61.000000
909.519840 61.000000
909.548160 99.000000
927.513730 156.000000
927.541990 87.000000
927.588320 68.000000

>ms2
203.072780 58.000000
254.980590 51.000000
309.120940 166.000000
404.322780 51.000000
421.344910 265.000000
423.387730 51.000000
471.159730 339.000000
471.178500 256.000000
567.400150 51.000000
583.367070 61.000000
583.388310 131.000000
584.410520 67.000000
601.410890 51.000000
684.468810 67.000000
700.916320 51.000000
745.461670 131.000000
746.424260 51.000000
749.485720 70.000000
765.483760 112.000000
846.519470 64.000000
847.008420 54.000000
850.388490 51.000000
891.505130 70.000000
910.520510 58.000000
927.485410 77.000000
927.525020 1000.000000
927.549010 364.000000
927.580440 134.000000

>ms2
129.056560 161.000000
129.065430 33.000000
145.050260 73.000000
145.058560 73.000000
147.057920 45.000000
147.071330 215.000000
159.107060 53.000000
162.453600 37.000000
163.057460 33.000000
163.067930 33.000000
165.073730 37.000000
175.155400 35.000000
187.075420 33.000000
189.163770 33.000000
213.170260 39.000000
225.076490 53.000000
244.217120 41.000000
247.188720 33.000000
266.201230 33.000000
273.097170 73.000000
274.115510 41.000000
275.111300 37.000000
291.114110 63.000000
293.118410 33.000000
309.101040 73.000000
309.115720 199.000000
351.220460 35.000000
391.332730 33.000000
393.283480 43.000000
403.330080 37.000000
404.186070 41.000000
404.327060 55.000000
405.340610 33.000000
421.348720 1000.000000
422.325100 65.000000
422.347690 199.000000
424.349850 41.000000
424.378810 33.000000
425.247620 33.000000
439.346680 35.000000
471.180150 33.000000
571.408260 37.000000
601.410710 67.000000
749.507750 43.000000
894.534480 41.000000

>ms2
57.036930 383.000000
85.003810 157.000000
85.026950 304.000000
97.023260 270.000000
111.036530 174.000000
121.086610 148.000000
124.118000 165.000000
127.041660 139.000000
129.047100 139.000000
130.057910 139.000000
145.098920 148.000000
146.054440 139.000000
149.132170 148.000000
165.080310 313.000000
167.145510 148.000000
169.052690 217.000000
187.147550 235.000000
189.149960 174.000000
189.168620 443.000000
200.153050 139.000000
201.160420 209.000000
209.076710 313.000000
227.181110 209.000000
233.196150 139.000000
245.186420 191.000000
255.090730 313.000000
281.218080 148.000000
287.982760 191.000000
307.260190 148.000000
309.123630 183.000000
391.355620 191.000000
403.320950 374.000000
403.333860 426.000000
404.363400 139.000000
421.348600 1000.000000
649.882750 183.000000

>ms2
111.015390 34.000000
121.097310 16.000000
127.036870 16.000000
127.230690 16.000000
129.048110 36.000000
129.060350 23.000000
163.151950 16.000000
187.152020 17.000000
255.080080 21.000000
293.125060 21.000000
308.804570 16.000000
309.095830 19.000000
309.118260 81.000000
309.138850 17.000000
327.120180 16.000000
345.959200 23.000000
399.537690 20.000000
403.319700 39.000000
403.343750 39.000000
404.333980 16.000000
409.340700 17.000000
421.344420 309.000000
422.344120 18.000000
422.360350 39.000000
423.332030 16.000000
471.174530 19.000000
471.196690 16.000000
489.163940 21.000000
572.317200 17.000000
583.426150 60.000000
585.210510 16.000000
601.424620 22.000000
603.423340 20.000000
604.448360 18.000000
622.238400 18.000000
647.834350 17.000000
746.448730 16.000000
748.442870 25.000000
763.451350 16.000000
765.454350 16.000000
765.499510 16.000000
765.533510 17.000000
846.495060 16.000000
856.035830 20.000000
878.494380 18.000000
909.485350 16.000000
927.540890 179.000000

