>compound PR00747552
>parentmass 369.1808836999999
>ionization [M+H]+
>formula C21H24N2O4
>rt 262.119000
>profile qtof
#smiles_iso C[C@H]1[C@H]2CN3CC[C@]4([C@@H]3C[C@@H]2C(=CO1)C(=O)OC)C5=CC=CC=C5NC4=O
#smiles_can CC1C2CN3CCC4(C3CC2C(=CO1)C(=O)OC)C5=CC=CC=C5NC4=O
#inchikey JMIAZDVHNCCPDM-DAFCLMLCSA-N
#pubchem_id 94160
#mb_accession PR300063,PR300068,PR300073,PR300078,PR300083,PR300088,PR300093,PR300098,PR300103,PR300108,PR300113,PR300118

>ms2peaks
108.081310 8.000000
115.054600 6.000000
124.038070 11.000000
132.044650 14.000000
132.079700 38.000000
133.086470 6.000000
142.064380 36.000000
150.091060 10.000000
158.062900 9.000000
160.075270 332.000000
160.112080 8.000000
161.078060 36.000000
178.086290 51.000000
187.084960 12.000000
201.102480 35.000000
202.102860 6.000000
210.112950 20.000000
241.132220 11.000000
267.150210 6.000000
309.159150 85.000000
310.162230 17.000000
337.154790 97.000000
338.157960 28.000000
369.181240 1000.000000
369.236300 32.000000

>ms2peaks
337.154210 10.000000
369.120300 8.000000
369.182070 1000.000000
369.237730 33.000000
369.288510 6.000000

>ms2peaks
108.080250 22.000000
109.065830 6.000000
118.065140 21.000000
124.040170 34.000000
132.042920 23.000000
132.080750 95.000000
133.084270 9.000000
142.065230 87.000000
143.067660 8.000000
150.091090 29.000000
158.060730 26.000000
159.063630 6.000000
160.044140 6.000000
160.075520 1000.000000
160.111910 32.000000
161.078930 120.000000
162.083020 8.000000
178.085920 175.000000
179.089570 24.000000
187.086150 38.000000
199.089290 7.000000
201.102260 93.000000
202.105220 21.000000
210.113570 41.000000
211.113160 8.000000
213.103490 12.000000
239.119550 9.000000
241.132840 33.000000
265.099790 6.000000
265.134310 7.000000
267.113190 6.000000
267.152310 20.000000
281.166470 17.000000
291.151580 9.000000
309.159180 131.000000
310.163420 33.000000
311.170530 7.000000
337.154970 102.000000
338.143800 6.000000
338.158910 25.000000
367.164060 14.000000
369.180660 92.000000

>ms2peaks
55.056040 7.000000
67.049790 5.000000
77.040260 15.000000
79.041820 6.000000
79.054060 19.000000
81.069850 36.000000
82.994740 6.000000
83.008340 8.000000
83.015020 11.000000
84.044090 6.000000
90.049420 6.000000
91.041170 5.000000
91.052020 19.000000
91.059440 18.000000
93.061440 5.000000
96.081140 11.000000
97.064250 6.000000
103.051440 9.000000
104.048680 40.000000
105.064900 22.000000
105.070190 28.000000
106.065990 13.000000
106.071280 6.000000
108.080840 96.000000
109.050340 6.000000
109.065730 8.000000
109.084830 17.000000
115.033170 6.000000
115.053670 501.000000
116.051910 133.000000
116.068860 6.000000
117.057610 441.000000
118.051210 30.000000
118.063960 241.000000
119.067880 13.000000
121.066350 5.000000
122.022220 47.000000
123.026740 7.000000
124.022090 6.000000
124.038030 123.000000
125.036050 6.000000
130.047260 6.000000
130.064740 117.000000
131.069370 26.000000
131.075640 21.000000
132.004210 7.000000
132.044250 656.000000
132.060620 26.000000
132.080220 1000.000000
133.022490 5.000000
133.036540 7.000000
133.046890 58.000000
133.055600 11.000000
133.067080 9.000000
133.081620 91.000000
133.091050 20.000000
140.029540 5.000000
140.047070 137.000000
141.051830 9.000000
142.064820 960.000000
143.050860 5.000000
143.068450 106.000000
144.044910 15.000000
144.080220 9.000000
145.052760 42.000000
146.056060 7.000000
150.085360 5.000000
158.051820 20.000000
158.061780 48.000000
159.063520 18.000000
159.074250 5.000000
159.089710 9.000000
160.050990 9.000000
160.074920 733.000000
161.064830 12.000000
161.078250 105.000000
162.081270 8.000000
166.061920 9.000000
167.054490 6.000000
169.076250 9.000000
170.055560 7.000000
172.067720 9.000000
172.077510 6.000000
173.070270 6.000000
173.080550 6.000000
173.099460 11.000000
173.109010 19.000000
174.110920 6.000000
178.070040 5.000000
178.086300 22.000000
181.074810 5.000000
185.071580 5.000000
186.085130 14.000000
187.088040 26.000000
197.068970 6.000000
199.085680 20.000000
200.087280 14.000000
201.098570 50.000000
201.108290 23.000000
202.106460 14.000000
210.109300 5.000000
237.100490 11.000000

>ms2peaks
108.079680 7.000000
115.055690 8.000000
118.065340 10.000000
124.039790 13.000000
132.044690 13.000000
132.080700 41.000000
142.065640 35.000000
143.069230 7.000000
150.094310 7.000000
158.060650 12.000000
160.075780 286.000000
160.111710 7.000000
161.079280 36.000000
178.086380 49.000000
179.088870 6.000000
187.088170 13.000000
201.102910 33.000000
202.104480 7.000000
210.113330 18.000000
241.126560 6.000000
241.135410 8.000000
267.152650 7.000000
291.147460 6.000000
309.160190 87.000000
310.161930 16.000000
337.154720 95.000000
338.159610 23.000000
369.181880 1000.000000
369.238650 31.000000

>ms2peaks
337.153530 9.000000
369.115360 5.000000
369.180940 1000.000000
369.236630 34.000000
369.287200 7.000000

>ms2peaks
108.080860 28.000000
115.054970 7.000000
118.065360 16.000000
124.039600 33.000000
132.045300 31.000000
132.079990 92.000000
133.082500 13.000000
142.065430 88.000000
143.069580 13.000000
150.091290 30.000000
158.060670 29.000000
160.075390 1000.000000
160.111910 34.000000
161.078900 128.000000
162.082350 12.000000
178.086940 180.000000
179.089490 20.000000
187.086850 45.000000
199.089860 6.000000
201.102840 112.000000
202.104480 19.000000
210.113680 55.000000
211.113130 6.000000
213.102220 11.000000
239.116880 6.000000
241.134060 28.000000
265.129000 6.000000
265.139250 5.000000
267.151340 20.000000
269.092800 7.000000
281.093350 6.000000
281.163790 24.000000
291.147950 18.000000
309.160130 142.000000
310.164950 40.000000
337.155640 101.000000
338.159060 27.000000
367.172850 7.000000
369.179260 108.000000

>ms2peaks
55.054970 6.000000
77.034930 13.000000
77.039600 18.000000
77.044340 6.000000
79.054850 11.000000
81.065920 15.000000
81.071820 23.000000
82.030740 5.000000
83.010420 11.000000
83.014850 18.000000
91.053710 58.000000
92.047190 8.000000
93.061110 10.000000
94.064930 14.000000
95.051160 9.000000
96.040250 5.000000
96.082460 9.000000
103.054030 14.000000
104.047970 28.000000
104.054730 8.000000
105.069420 57.000000
106.033170 10.000000
106.065480 27.000000
107.048390 11.000000
108.042690 7.000000
108.078870 41.000000
108.084730 32.000000
109.085220 6.000000
115.054460 600.000000
116.052510 122.000000
116.062140 21.000000
117.031590 10.000000
117.057520 557.000000
118.064710 267.000000
119.068820 35.000000
122.025080 53.000000
122.064430 6.000000
122.098850 6.000000
124.039230 122.000000
125.042480 12.000000
128.047590 9.000000
130.064710 132.000000
131.070360 46.000000
132.020680 9.000000
132.044740 687.000000
132.080860 947.000000
133.043400 32.000000
133.049700 46.000000
133.067250 12.000000
133.085210 97.000000
140.049760 164.000000
141.047810 8.000000
141.057040 7.000000
142.043980 11.000000
142.065370 1000.000000
143.068530 124.000000
144.078640 15.000000
145.053630 55.000000
146.055510 9.000000
150.091080 18.000000
158.059690 58.000000
158.081800 7.000000
159.062740 11.000000
160.048100 5.000000
160.075850 853.000000
161.059650 5.000000
161.076480 78.000000
168.069530 6.000000
168.079910 9.000000
170.058230 8.000000
173.068560 11.000000
173.102550 12.000000
173.111690 21.000000
174.075840 6.000000
178.088500 27.000000
183.095340 10.000000
185.060680 9.000000
185.072020 13.000000
185.081360 9.000000
187.080520 9.000000
187.091870 11.000000
198.073680 8.000000
199.087200 29.000000
201.089370 9.000000
201.103000 28.000000
213.099700 8.000000

>ms2peaks
108.080220 9.000000
115.055090 7.000000
118.065340 10.000000
124.041110 9.000000
132.045300 12.000000
132.081020 36.000000
142.064610 41.000000
143.068130 6.000000
150.091660 8.000000
158.059460 10.000000
160.075440 321.000000
160.111560 8.000000
161.079760 36.000000
178.086140 49.000000
187.088850 10.000000
201.102650 35.000000
202.104350 5.000000
210.108310 7.000000
210.116230 17.000000
241.135940 14.000000
267.150910 8.000000
309.159760 83.000000
310.163450 20.000000
337.155980 95.000000
338.158170 22.000000
369.181850 1000.000000
369.237240 31.000000

>ms2peaks
337.155000 10.000000
369.180790 1000.000000
369.237090 33.000000
369.287450 6.000000

>ms2peaks
81.072670 5.000000
108.080840 32.000000
115.054150 7.000000
118.065080 20.000000
124.039190 33.000000
132.045140 21.000000
132.080750 82.000000
133.081630 6.000000
142.065800 88.000000
143.068890 11.000000
150.092420 37.000000
151.095520 6.000000
158.049160 5.000000
158.059520 30.000000
159.061740 6.000000
160.040950 7.000000
160.075760 1000.000000
160.111690 39.000000
160.303790 5.000000
161.077910 130.000000
178.086290 180.000000
179.088590 26.000000
187.087020 35.000000
199.087450 6.000000
201.102230 106.000000
202.105420 17.000000
210.113310 52.000000
213.098360 5.000000
239.118230 8.000000
241.133000 30.000000
242.136380 6.000000
265.092900 6.000000
265.135830 7.000000
267.148350 23.000000
268.151920 6.000000
281.165620 13.000000
291.150510 10.000000
309.160740 138.000000
310.156560 18.000000
310.166600 23.000000
337.155550 103.000000
338.159480 23.000000
367.165190 11.000000
369.180300 93.000000

>ms2peaks
77.038700 31.000000
78.029620 5.000000
78.035850 14.000000
79.055900 9.000000
80.052160 7.000000
81.068600 40.000000
83.011140 24.000000
83.018620 6.000000
89.037510 9.000000
90.043810 6.000000
91.053960 66.000000
92.049030 8.000000
93.051180 7.000000
93.059610 6.000000
94.065090 6.000000
95.072900 8.000000
96.079400 9.000000
103.056980 6.000000
104.048820 40.000000
105.069080 69.000000
106.059270 7.000000
108.040910 6.000000
108.048220 15.000000
108.082580 91.000000
109.084950 12.000000
115.054080 597.000000
116.037650 10.000000
116.049520 80.000000
116.058360 51.000000
117.056540 543.000000
118.064620 261.000000
119.060110 11.000000
119.071370 12.000000
122.023590 38.000000
122.095470 13.000000
123.023950 6.000000
124.025280 6.000000
124.039900 150.000000
125.043530 16.000000
128.050520 11.000000
130.038770 6.000000
130.051850 7.000000
130.064800 123.000000
130.904620 8.000000
131.069990 42.000000
132.025330 14.000000
132.044010 656.000000
132.062590 12.000000
132.080180 1000.000000
133.039400 17.000000
133.047270 59.000000
133.067870 7.000000
133.084230 95.000000
136.109650 5.000000
140.049420 128.000000
141.052430 17.000000
141.057270 9.000000
142.036910 8.000000
142.045430 6.000000
142.063930 859.000000
143.069020 113.000000
144.050570 8.000000
144.081470 10.000000
145.049800 23.000000
145.057560 11.000000
150.092070 10.000000
154.065200 10.000000
158.040860 5.000000
158.059300 86.000000
159.064990 35.000000
159.070280 14.000000
160.075440 807.000000
161.070240 29.000000
161.079860 43.000000
161.087540 22.000000
162.080550 6.000000
173.075620 16.000000
173.107640 22.000000
178.085510 39.000000
186.072360 8.000000
186.085620 8.000000
187.087890 21.000000
199.085650 27.000000
200.086720 12.000000
201.102870 50.000000
202.103740 11.000000
236.080580 5.000000
265.135770 16.000000
279.071040 6.000000
369.176300 25.000000

