>compound PR00314989
>parentmass 825.4235
>ionization [M+H]+
>formula C42H64O16
>rt 369.000000
>profile qtof
#smiles_iso CC12CCC(CC1C3=CCC4C5(CCC(C(C5CCC4(C3(CC2)C)C)(C)CO)OC6C(C(C(C(O6)C(=O)O)O)O)OC7C(C(C(C(O7)C(=O)O)O)O)O)C)(C)C(=O)O
#smiles_can CC12CCC(CC1C3=CCC4C5(CCC(C(C5CCC4(C3(CC2)C)C)(C)CO)OC6C(C(C(C(O6)C(=O)O)O)O)OC7C(C(C(C(O7)C(=O)O)O)O)O)C)(C)C(=O)O
#inchikey SLWCVFLNZDOMEZ-UHFFFAOYSA-N
#pubchem_id 74029747
#mb_accession PR310664

>ms2
111.017910 24.000000
141.017300 66.000000
151.106050 19.000000
159.030230 17.000000
160.028120 24.000000
180.116360 22.000000
187.141750 18.000000
191.178540 17.000000
197.048870 36.000000
201.160160 29.000000
204.176330 26.000000
215.149030 19.000000
221.187710 26.000000
228.168530 17.000000
245.641820 23.000000
271.035610 19.000000
300.702670 18.000000
331.240510 18.000000
357.080960 23.000000
379.306820 47.000000
419.310150 25.000000
420.197660 20.000000
437.335910 44.000000
438.337650 19.000000
439.333560 18.000000
439.358950 34.000000
440.345520 29.000000
455.350460 432.000000
456.348690 18.000000
456.368900 22.000000
457.363680 66.000000
473.345180 70.000000
473.378780 23.000000
474.367460 61.000000
474.385100 20.000000
514.835880 25.000000
597.129700 19.000000
597.389590 23.000000
627.031980 27.000000
632.371950 17.000000
649.390080 18.000000
650.405520 36.000000
807.129880 20.000000
825.382870 18.000000
825.416200 95.000000
825.442930 98.000000

