>compound PR00769423
>parentmass 362.14991806153853
>ionization [M+H]+
>formula C21H19N3O3
>rt 371.486732
>profile qtof
#smiles_iso C1=CC=C2C(=C1)C(=CN2)CC(C(=O)O)NC(=O)CC3=CNC4=CC=CC=C43
#smiles_can C1=CC=C2C(=C1)C(=CN2)CC(C(=O)O)NC(=O)CC3=CNC4=CC=CC=C43
#inchikey FOSPCYZZRVNHJS-UHFFFAOYSA-N
#pubchem_id 4604444
#mb_accession PR304205,PR304207,PR304209,PR304211,PR304213,PR304215,PR304217,PR304219,PR304221,PR304223,PR304225,PR304227,PR310543

>ms2peaks
103.055610 5.000000
118.064640 36.000000
130.037510 7.000000
130.064380 1000.000000
131.060290 15.000000
131.068910 97.000000
132.078950 46.000000
144.076890 21.000000
146.060230 165.000000
157.075260 46.000000
158.058300 31.000000
159.091050 113.000000
160.090990 13.000000
170.062670 52.000000
175.086180 5.000000
185.050750 6.000000
185.070590 275.000000
186.058930 5.000000
186.073910 59.000000
187.076810 7.000000
187.089400 31.000000
188.070180 492.000000
189.072250 46.000000
189.081020 18.000000
190.081390 5.000000
205.097050 300.000000
206.094770 18.000000
206.101850 38.000000
207.097960 5.000000
217.103270 8.000000
245.095350 8.000000
256.099370 7.000000
268.070770 6.000000
271.121060 19.000000
271.131200 19.000000
272.120060 13.000000
277.278750 5.000000
289.129430 6.000000
316.118930 5.000000
316.143680 60.000000
316.160000 13.000000
317.132570 5.000000
317.148410 7.000000
317.161350 7.000000
344.140720 107.000000
345.123900 11.000000
345.146180 23.000000
362.150390 705.000000

>ms2peaks
130.064300 36.000000
159.093120 10.000000
185.071470 77.000000
186.069080 8.000000
186.078700 5.000000
188.065630 10.000000
188.073670 8.000000
205.098010 123.000000
206.103500 16.000000
316.146790 31.000000
317.147090 10.000000
344.140900 73.000000
345.131130 6.000000
345.145050 18.000000
362.102630 6.000000
362.150450 1000.000000
362.204560 6.000000

>ms2peaks
130.038300 9.000000
130.064880 1000.000000
131.054580 9.000000
131.068880 105.000000
132.076600 22.000000
132.084030 11.000000
142.066890 13.000000
144.074430 9.000000
144.083080 20.000000
146.060700 235.000000
147.065960 21.000000
157.075910 66.000000
158.062880 6.000000
158.080250 7.000000
159.091290 102.000000
160.077670 5.000000
160.097270 12.000000
169.077530 10.000000
170.052230 8.000000
170.061260 31.000000
171.090070 6.000000
185.071230 91.000000
188.070050 391.000000
189.073810 57.000000
190.075070 9.000000
205.103640 5.000000
271.117460 11.000000
271.125520 24.000000

>ms2peaks
77.039870 7.000000
91.053130 9.000000
103.053330 70.000000
103.062620 6.000000
115.046780 13.000000
115.054820 28.000000
117.061460 8.000000
117.073140 7.000000
118.058620 49.000000
118.067090 88.000000
119.069350 10.000000
127.052650 13.000000
128.049640 36.000000
130.065050 1000.000000
131.068040 150.000000
132.068500 8.000000
132.078220 59.000000
132.086180 17.000000
142.052460 7.000000
142.065510 42.000000
143.072560 47.000000
144.072390 6.000000
144.080830 29.000000
146.058590 93.000000
147.054780 11.000000
155.074910 6.000000
156.063600 7.000000
157.075040 29.000000
159.087570 23.000000
170.058030 48.000000
171.068390 11.000000
185.063930 6.000000
257.100590 7.000000

>ms2peaks
103.051830 7.000000
115.054240 7.000000
117.068680 6.000000
118.061580 7.000000
118.069590 10.000000
130.043610 6.000000
130.064320 1000.000000
131.068620 96.000000
132.069260 19.000000
132.082090 33.000000
142.061480 7.000000
143.073970 6.000000
144.079710 31.000000
146.043980 7.000000
146.060350 180.000000
147.057650 9.000000
147.065780 12.000000
157.077500 36.000000
158.061660 11.000000
159.090520 105.000000
167.054340 7.000000
169.079830 7.000000
170.060440 20.000000
175.085210 9.000000
185.070280 298.000000
186.075410 37.000000
187.069530 6.000000
187.080340 6.000000
187.089280 8.000000
188.033630 5.000000
188.069920 513.000000
189.069920 28.000000
189.078690 27.000000
205.091830 136.000000
205.099330 208.000000
206.093540 19.000000
206.104580 30.000000
207.094960 7.000000
207.105590 6.000000
217.101550 10.000000
245.090090 6.000000
254.097630 7.000000
271.123960 34.000000
272.119320 9.000000
299.120510 12.000000
316.144130 46.000000
316.152680 22.000000
317.132170 6.000000
317.149410 12.000000
317.170470 5.000000
344.109710 7.000000
344.143070 81.000000
345.146640 17.000000
362.150020 665.000000

>ms2peaks
130.064440 44.000000
159.092640 8.000000
185.070560 84.000000
186.073500 9.000000
188.068800 18.000000
205.097530 124.000000
206.099850 20.000000
316.144040 33.000000
317.144560 8.000000
344.136080 82.000000
345.139130 28.000000
362.149170 1000.000000
362.203490 11.000000

>ms2peaks
118.065180 20.000000
130.032390 6.000000
130.043590 6.000000
130.064900 1000.000000
131.055080 9.000000
131.067990 103.000000
132.080020 44.000000
142.065600 16.000000
144.079540 39.000000
146.059560 232.000000
147.063320 20.000000
154.066010 5.000000
157.076450 54.000000
158.059070 9.000000
158.082340 13.000000
159.090670 127.000000
160.093170 17.000000
170.056320 20.000000
170.064640 18.000000
185.071560 80.000000
186.075360 14.000000
188.069980 367.000000
189.073210 56.000000
271.121150 17.000000
271.130580 9.000000
272.124690 6.000000

>ms2peaks
77.038930 19.000000
91.052180 9.000000
103.048920 30.000000
103.055100 37.000000
104.052010 13.000000
115.054340 52.000000
116.056430 6.000000
116.076460 5.000000
117.055150 18.000000
117.061120 10.000000
117.073200 16.000000
118.063980 160.000000
119.070630 10.000000
127.056430 10.000000
128.042340 10.000000
128.051710 20.000000
129.061630 8.000000
130.029540 5.000000
130.064970 1000.000000
131.067870 124.000000
132.075780 15.000000
132.082490 47.000000
142.067490 33.000000
143.065320 18.000000
143.073880 29.000000
144.080700 32.000000
146.060290 97.000000
147.062260 13.000000
154.062700 7.000000
157.077190 36.000000
158.081820 11.000000
159.090260 11.000000
167.055560 7.000000
170.058120 13.000000
170.066790 11.000000
257.108280 10.000000
269.101780 5.000000

>ms2peaks
118.066180 16.000000
129.053540 6.000000
130.064610 1000.000000
131.067580 110.000000
132.081790 32.000000
142.061710 9.000000
144.076540 11.000000
144.083130 6.000000
146.060210 164.000000
147.064820 9.000000
157.068600 10.000000
157.077940 27.000000
158.057540 11.000000
159.091740 121.000000
167.062590 6.000000
169.075240 7.000000
170.059890 36.000000
170.069320 14.000000
175.082150 11.000000
185.053360 7.000000
185.070880 281.000000
186.067440 17.000000
186.079640 15.000000
187.068700 6.000000
188.070510 460.000000
189.073200 72.000000
190.078810 9.000000
205.097430 299.000000
206.094190 16.000000
206.104130 29.000000
217.105350 5.000000
245.091800 10.000000
257.108700 7.000000
269.108400 7.000000
270.107210 6.000000
271.121700 41.000000
272.125340 7.000000
285.089510 8.000000
316.143770 52.000000
317.153470 23.000000
344.123080 17.000000
344.136660 83.000000
345.131070 10.000000
345.147610 17.000000
362.148830 805.000000
362.202970 6.000000

>ms2peaks
130.064930 37.000000
159.092300 9.000000
175.085280 5.000000
185.070790 86.000000
186.077760 8.000000
188.063930 7.000000
188.074250 11.000000
205.097810 134.000000
206.098770 12.000000
206.107770 5.000000
316.144530 42.000000
344.140560 71.000000
345.138580 15.000000
345.163270 5.000000
362.091310 6.000000
362.150540 1000.000000
362.201480 8.000000

>ms2peaks
118.067860 18.000000
130.064480 1000.000000
131.068790 103.000000
132.070600 8.000000
132.081090 20.000000
142.067790 14.000000
143.076190 5.000000
144.077650 30.000000
144.085170 10.000000
145.086520 8.000000
146.059430 274.000000
147.063670 35.000000
157.074200 67.000000
158.058720 7.000000
158.076900 12.000000
159.092500 122.000000
160.098160 12.000000
170.058410 30.000000
170.066180 7.000000
182.060180 6.000000
185.067660 28.000000
185.077070 45.000000
186.068700 12.000000
187.081270 5.000000
188.068920 335.000000
189.073330 51.000000
189.084410 10.000000
271.124660 22.000000

>ms2peaks
77.034320 6.000000
91.048630 6.000000
91.056660 10.000000
103.052630 59.000000
115.052090 39.000000
116.056100 7.000000
117.056750 26.000000
117.069890 7.000000
118.045420 5.000000
118.063220 174.000000
127.053460 12.000000
128.049760 22.000000
129.052140 8.000000
130.036090 5.000000
130.051060 9.000000
130.063840 1000.000000
131.067230 106.000000
132.079250 65.000000
142.067250 35.000000
143.069950 48.000000
144.074720 15.000000
144.081500 17.000000
146.059740 87.000000
147.064160 11.000000
157.074690 33.000000
159.089690 29.000000
169.073640 6.000000
170.052580 8.000000
170.061220 7.000000
256.101100 8.000000
268.101200 5.000000
269.097720 5.000000
269.110780 11.000000

>ms2peaks
74.006260 21.000000
102.103270 20.000000
103.055610 41.000000
106.051830 22.000000
106.068680 22.000000
108.199360 17.000000
115.051320 29.000000
117.069920 25.000000
117.075680 21.000000
118.040210 21.000000
118.049770 17.000000
118.064640 293.000000
127.078990 25.000000
130.026840 21.000000
130.037510 54.000000
130.050160 17.000000
130.064380 8079.000000
130.087780 20.000000
131.060290 120.000000
131.068910 782.000000
132.064710 21.000000
132.078950 369.000000
133.017140 18.000000
133.077390 28.000000
133.082920 20.000000
134.265780 20.000000
137.780820 26.000000
140.156460 18.000000
142.057850 17.000000
142.068190 18.000000
143.065980 25.000000
144.042050 37.000000
144.076890 172.000000
144.445720 17.000000
145.071090 20.000000
145.080180 33.000000
146.060230 1329.000000
147.059560 20.000000
148.060730 29.000000
149.962160 23.000000
157.075260 371.000000
158.058300 251.000000
158.079640 18.000000
158.742250 17.000000
159.060270 21.000000
159.072530 24.000000
159.091050 916.000000
160.066020 25.000000
160.078080 22.000000
160.090990 104.000000
161.093830 18.000000
167.066010 18.000000
167.562740 20.000000
169.075330 18.000000
170.062670 418.000000
171.082930 17.000000
171.098600 38.000000
172.075580 18.000000
173.066730 17.000000
175.086180 41.000000
179.755800 18.000000
181.073680 40.000000
181.281630 21.000000
185.050750 50.000000
185.070590 2221.000000
185.236600 23.000000
186.058930 42.000000
186.073910 475.000000
187.063810 25.000000
187.076810 55.000000
187.089400 250.000000
188.034880 40.000000
188.044680 24.000000
188.070180 3976.000000
188.216640 21.000000
188.790560 17.000000
189.060360 27.000000
189.072250 371.000000
189.081020 145.000000
190.073410 36.000000
190.081390 44.000000
191.074330 30.000000
191.954120 20.000000
192.070010 32.000000
197.721210 25.000000
200.080810 18.000000
201.175570 17.000000
205.041900 18.000000
205.058620 28.000000
205.097050 2423.000000
206.094770 142.000000
206.101850 308.000000
207.097960 44.000000
207.106640 39.000000
214.274840 22.000000
215.081280 38.000000
215.090090 21.000000
216.078510 20.000000
217.103270 68.000000
226.411270 19.000000
231.078080 20.000000
242.345380 17.000000
242.915920 19.000000
243.107390 19.000000
245.095350 64.000000
247.124880 19.000000
255.103270 29.000000
256.099370 59.000000
257.108000 38.000000
258.110530 21.000000
262.104740 18.000000
268.070770 51.000000
269.106510 20.000000
271.090210 18.000000
271.104860 17.000000
271.121060 150.000000
271.131200 154.000000
272.120060 104.000000
273.108700 18.000000
273.130040 20.000000
277.278750 43.000000
282.117250 22.000000
286.090730 20.000000
289.129430 52.000000
297.918400 23.000000
298.124420 37.000000
299.118710 18.000000
299.135990 27.000000
300.106290 24.000000
300.140530 27.000000
301.127900 17.000000
316.118930 43.000000
316.143680 482.000000
316.160000 109.000000
317.124880 18.000000
317.132570 41.000000
317.148410 53.000000
317.161350 54.000000
318.116670 18.000000
318.144130 23.000000
319.162230 20.000000
326.123810 19.000000
330.030300 17.000000
334.063020 20.000000
334.153560 18.000000
344.140720 865.000000
344.197970 17.000000
345.123900 85.000000
345.146180 189.000000
345.297640 36.000000
346.133000 17.000000
349.093900 20.000000
360.140660 19.000000
361.133790 38.000000
361.729580 18.000000
362.104460 17.000000
362.150390 5693.000000

