>compound PR00959627
>parentmass 447.0918
>ionization [M+H]+
>formula C21H18O11
>rt 269.400000
>profile qtof
#smiles_iso C1=CC=C(C=C1)C2=CC(=O)C3=C(C(=C(C=C3O2)OC4C(C(C(C(O4)C(=O)O)O)O)O)O)O
#smiles_can C1=CC=C(C=C1)C2=CC(=O)C3=C(C(=C(C=C3O2)OC4C(C(C(C(O4)C(=O)O)O)O)O)O)O
#inchikey IKIIZLYTISPENI-UHFFFAOYSA-N
#pubchem_id 3807559
#mb_accession PR310945

>ms2
271.036800 20.000000
271.061920 909.000000
272.048770 21.000000
272.060090 66.000000
272.070250 46.000000
447.005980 17.000000
447.076290 98.000000
447.105040 95.000000

