>compound PR00089042
>parentmass 383.22175000000004
>ionization [M+H]+
>formula C24H30O4
>rt 494.700000
>profile qtof
#smiles_iso CC(=CCC1=C(C(=C(C=C1O)O)CC=C(C)C)CCC2=CC(=C(C=C2)O)O)C
#smiles_can CC(=CCC1=C(C(=C(C=C1O)O)CC=C(C)C)CCC2=CC(=C(C=C2)O)O)C
#inchikey QFAPONVNJTUMHF-UHFFFAOYSA-N
#pubchem_id 480815
#mb_accession PR310749,PR310750

>ms2peaks
62.227610 19.000000
69.058430 25.000000
69.067200 160.000000
69.073920 79.000000
75.067430 18.000000
97.066590 22.000000
105.070820 25.000000
119.051060 21.000000
121.062230 18.000000
123.027350 23.000000
123.043990 683.000000
123.074890 22.000000
124.044280 61.000000
131.038390 21.000000
131.050160 25.000000
134.057010 18.000000
135.044690 84.000000
137.028590 25.000000
137.060350 649.000000
138.057240 43.000000
139.036830 17.000000
139.065220 21.000000
147.051300 17.000000
148.060550 23.000000
149.057560 41.000000
150.058430 18.000000
152.076230 18.000000
152.083330 34.000000
153.074570 17.000000
160.183330 20.000000
161.056270 93.000000
161.064880 24.000000
162.061140 19.000000
162.526490 20.000000
163.077850 51.000000
166.092770 20.000000
173.096100 18.000000
177.087780 20.000000
180.086640 40.000000
187.113270 24.000000
188.083440 25.000000
189.090440 39.000000
190.088620 18.000000
191.106480 64.000000
191.117460 35.000000
192.123840 30.000000
193.194930 30.000000
194.130190 21.000000
196.081510 20.000000
198.098240 22.000000
201.061260 17.000000
201.090230 20.000000
202.086110 18.000000
202.092930 21.000000
203.105590 110.000000
204.103870 40.000000
205.101700 51.000000
205.117600 36.000000
206.139770 18.000000
207.074570 20.000000
210.067980 23.000000
211.074480 22.000000
211.084180 21.000000
213.100950 22.000000
214.093690 17.000000
217.125230 25.000000
218.087660 18.000000
223.078660 45.000000
225.085080 17.000000
225.105710 27.000000
225.945400 24.000000
228.082870 18.000000
234.064440 27.000000
235.690890 20.000000
238.061330 29.000000
239.064760 23.000000
243.094600 41.000000
243.102980 43.000000
245.087340 18.000000
247.009230 44.000000
247.164320 35.000000
247.174870 62.000000
253.102830 52.000000
253.119920 27.000000
254.091200 23.000000
255.104800 42.000000
255.113680 26.000000
256.075200 31.000000
257.085660 170.000000
258.087620 89.000000
259.046570 24.000000
259.083310 23.000000
259.098050 273.000000
260.098540 20.000000
261.082120 21.000000
261.992070 48.000000
269.078670 19.000000
270.133240 20.000000
271.095830 579.000000
271.106230 215.000000
272.095580 235.000000
272.115690 18.000000
273.102420 59.000000
273.715120 30.000000
277.191620 17.000000
279.136630 36.000000
281.147310 22.000000
303.599000 23.000000
310.151790 17.000000
313.137390 24.000000
314.147640 27.000000
314.161160 32.000000
315.156560 258.000000
316.163970 18.000000
317.179020 17.000000
325.162110 21.000000
326.928470 21.000000
327.098420 19.000000
327.113070 51.000000
327.160710 1868.000000
328.113070 17.000000
328.162780 474.000000
329.070620 20.000000
329.161900 39.000000
330.158810 19.000000
364.191650 26.000000
381.058230 17.000000
382.219910 81.000000
383.105900 22.000000
383.139280 18.000000
383.185180 18.000000
383.223300 2791.000000

>ms2peaks
66.327410 20.000000
135.046300 27.000000
137.053050 38.000000
149.058490 74.000000
163.088650 20.000000
173.098040 42.000000
189.084290 19.000000
191.102720 114.000000
205.118270 25.000000
254.083710 17.000000
259.101990 20.000000
269.087830 21.000000
271.087310 24.000000
271.104100 74.000000
271.390140 25.000000
315.162290 19.000000
316.156710 29.000000
322.068940 22.000000
326.150760 23.000000
327.153630 108.000000
382.209780 29.000000
383.226620 430.000000

