>compound PR01337130
>parentmass 496.34000000000003
>ionization [M+H]+
>formula C24H50NO7P
>rt 598.800000
>profile qtof
#smiles_iso CCCCCCCCCCCCCCCC(=O)OCC(COP(=O)([O-])OCC[N+](C)(C)C)O
#smiles_can CCCCCCCCCCCCCCCC(=O)OCC(COP(=O)([O-])OCC[N+](C)(C)C)O
#inchikey ASWBNKHCZGQVJV-UHFFFAOYSA-N
#pubchem_id 86554
#mb_accession PR310838,PR310839

>ms2
85.102390 20.000000
104.090880 20.000000
104.107570 144.000000
105.105670 20.000000
124.997290 30.000000
183.877610 21.000000
184.072920 767.000000
185.072270 33.000000
185.091890 30.000000
195.962430 32.000000
198.075820 18.000000
251.237050 17.000000
257.247590 31.000000
313.263400 21.000000
419.265530 21.000000
459.819700 20.000000
464.317080 17.000000
477.049440 20.000000
478.322110 95.000000
479.322880 20.000000
479.337950 20.000000
495.978670 18.000000
496.335570 1256.000000

>ms2
86.099490 80.000000
96.088270 24.000000
104.107190 1544.000000
104.639430 16.000000
105.112320 120.000000
106.116140 22.000000
124.998540 142.000000
137.134050 18.000000
163.017200 24.000000
166.047520 23.000000
166.063340 64.000000
168.481480 37.000000
184.074420 2760.000000
185.049610 21.000000
185.079040 223.000000
186.090580 37.000000
201.167830 27.000000
260.818210 33.000000
313.266850 105.000000
313.284360 101.000000
314.258610 21.000000
314.272980 19.000000
314.290190 65.000000
353.519500 25.000000
419.236630 40.000000
419.254520 80.000000
453.339510 27.000000
478.159640 18.000000
478.280940 23.000000
478.310820 120.000000
478.325530 412.000000
478.358800 20.000000
478.389220 30.000000
479.308110 45.000000
479.333070 190.000000
480.316070 16.000000
496.136200 17.000000
496.265350 46.000000
496.303770 105.000000
496.339570 5647.000000
496.423580 18.000000

