>compound PR01680604
>parentmass 399.2278339
>ionization [M+H]+
>formula C23H30N2O4
>rt 332.365020
>profile qtof
#smiles_iso CC[C@@H]1CN2CCC3=C([C@@H]2C[C@@H]1/C(=C\OC)/C(=O)OC)NC4=C3C(=CC=C4)OC
#smiles_can CCC1CN2CCC3=C(C2CC1C(=COC)C(=O)OC)NC4=C3C(=CC=C4)OC
#inchikey LELBFTMXCIIKKX-QVRQZEMUSA-N
#pubchem_id 3034396
#mb_accession PR301315,PR301319,PR301322,PR301326,PR301329,PR301332,PR301335,PR301338,PR301341,PR301344,PR301350

>ms2peaks
110.096660 31.000000
129.055770 14.000000
144.079190 9.000000
159.068710 24.000000
168.101700 10.000000
174.092090 175.000000
175.096160 27.000000
186.088680 6.000000
194.118770 7.000000
200.105990 16.000000
226.145000 84.000000
227.144270 9.000000
238.145070 73.000000
239.146910 15.000000
296.132750 5.000000
328.149750 7.000000
367.202210 25.000000
368.203030 5.000000
399.229160 1000.000000
399.287020 26.000000

>ms2peaks
399.228300 1000.000000
399.285890 31.000000

>ms2peaks
75.044690 8.000000
84.081750 13.000000
95.046830 7.000000
108.081340 16.000000
110.097270 180.000000
111.093950 7.000000
111.103000 13.000000
117.072650 9.000000
122.097840 10.000000
126.053830 5.000000
129.055180 107.000000
130.061660 6.000000
138.056850 9.000000
139.075440 15.000000
144.076280 7.000000
144.082430 19.000000
146.096330 15.000000
147.101150 5.000000
148.075500 6.000000
152.072270 20.000000
154.123210 5.000000
155.069560 6.000000
159.067760 71.000000
160.074420 28.000000
162.090120 10.000000
163.074450 5.000000
166.090560 11.000000
168.103520 80.000000
169.103090 9.000000
169.112490 5.000000
171.103410 29.000000
174.057020 12.000000
174.092090 1000.000000
174.130230 7.000000
175.094910 142.000000
176.102800 15.000000
177.091230 7.000000
178.117750 7.000000
178.127700 8.000000
180.101590 13.000000
182.117900 16.000000
186.093290 22.000000
188.107730 27.000000
194.117610 56.000000
195.120960 9.000000
198.096270 6.000000
199.097930 15.000000
199.108050 5.000000
200.107530 99.000000
201.100660 6.000000
201.112880 11.000000
202.122120 26.000000
206.119980 24.000000
207.119170 6.000000
210.093200 13.000000
211.096860 6.000000
212.109050 18.000000
224.110370 7.000000
224.132450 7.000000
226.144260 344.000000
227.150670 42.000000
229.135120 15.000000
236.112430 9.000000
238.083630 5.000000
238.092730 11.000000
238.144550 336.000000
239.146740 51.000000
240.153210 9.000000
254.118180 5.000000
255.149320 34.000000
255.159840 10.000000
256.156520 6.000000
264.108370 8.000000
264.136170 10.000000
266.119110 20.000000
266.161290 6.000000
268.133910 7.000000
270.107600 9.000000
270.116730 20.000000
281.165890 9.000000
283.173610 7.000000
283.187680 9.000000
292.137600 7.000000
296.126890 16.000000
320.150510 6.000000
324.164000 9.000000
326.177980 6.000000
328.151150 12.000000
335.176820 6.000000
367.202480 48.000000
368.203370 18.000000
371.198180 5.000000
399.230440 161.000000

>ms2peaks
56.051860 6.000000
67.055370 7.000000
75.034470 5.000000
75.041200 34.000000
75.046120 118.000000
77.042890 10.000000
79.049730 9.000000
79.055050 29.000000
80.049390 8.000000
80.060210 5.000000
81.072190 7.000000
82.066730 5.000000
84.077960 10.000000
84.082480 16.000000
91.055670 25.000000
91.060970 8.000000
92.048790 5.000000
93.069660 9.000000
94.068020 19.000000
95.048860 9.000000
96.049440 5.000000
104.050720 6.000000
105.068050 6.000000
105.073360 8.000000
106.068240 6.000000
107.076990 5.000000
108.048540 6.000000
108.081640 33.000000
109.060800 6.000000
110.097970 178.000000
111.043640 13.000000
111.075630 8.000000
111.096250 7.000000
111.101660 6.000000
115.055750 111.000000
116.048340 7.000000
116.070520 7.000000
117.053320 20.000000
117.063160 61.000000
117.070320 198.000000
118.064460 47.000000
118.071980 37.000000
119.075710 11.000000
120.044000 8.000000
120.084510 9.000000
121.066830 9.000000
121.091670 7.000000
122.055890 8.000000
122.091360 12.000000
122.102060 35.000000
123.062290 6.000000
123.079770 7.000000
123.088170 13.000000
124.109650 5.000000
127.051700 47.000000
127.060070 51.000000
128.041380 6.000000
128.054920 30.000000
128.066590 16.000000
129.055620 60.000000
129.065670 45.000000
130.064580 108.000000
131.056340 6.000000
131.073120 181.000000
132.045230 6.000000
132.063870 8.000000
132.078380 30.000000
133.053730 6.000000
134.094530 11.000000
135.071180 7.000000
136.073990 19.000000
137.085280 5.000000
138.047680 6.000000
138.056290 22.000000
139.074190 27.000000
142.061610 25.000000
142.070680 13.000000
143.074570 224.000000
144.046050 9.000000
144.081470 290.000000
145.044450 5.000000
145.052340 8.000000
145.065640 10.000000
145.074980 13.000000
145.081590 18.000000
145.090530 21.000000
146.058330 28.000000
146.068390 10.000000
146.096070 69.000000
146.108670 6.000000
147.071370 25.000000
148.084000 11.000000
150.130630 5.000000
152.064440 12.000000
152.075270 59.000000
153.077680 8.000000
154.067690 22.000000
156.065670 5.000000
156.083340 19.000000
157.057690 15.000000
157.092470 13.000000
158.056490 22.000000
158.067930 9.000000
158.094010 8.000000
158.101200 6.000000
159.040480 7.000000
159.068280 1000.000000
159.091870 5.000000
160.073090 186.000000
161.076220 13.000000
162.082150 8.000000
162.094470 10.000000
163.091020 5.000000
165.070420 5.000000
165.080410 9.000000
166.065900 10.000000
166.076780 9.000000
166.083760 17.000000
167.072190 24.000000
167.081270 17.000000
168.081380 36.000000
168.092990 15.000000
169.078490 11.000000
169.085540 7.000000
169.093350 8.000000
169.101030 7.000000
170.057460 16.000000
170.068210 10.000000
170.082630 9.000000
171.059110 10.000000
171.069660 22.000000
172.072970 27.000000
172.083500 18.000000
172.118210 5.000000
173.074510 6.000000
173.084670 31.000000
174.092330 575.000000
175.073470 7.000000
175.087840 14.000000
175.099030 49.000000
177.086290 8.000000
178.069900 10.000000
178.128200 9.000000
180.080060 22.000000
180.101960 14.000000
181.077440 6.000000
181.084140 7.000000
181.093250 7.000000
182.067290 6.000000
182.111800 9.000000
182.130550 5.000000
183.057650 14.000000
183.068850 8.000000
184.065630 14.000000
184.077770 67.000000
184.085430 31.000000
185.082240 88.000000
186.069600 7.000000
186.088710 20.000000
187.100140 11.000000
189.075700 6.000000
191.066650 5.000000
192.081360 22.000000
193.107590 6.000000
194.091280 13.000000
194.109450 6.000000
195.062680 17.000000
195.072600 28.000000
196.075610 17.000000
197.066880 7.000000
197.080260 22.000000
197.089070 8.000000
197.102390 10.000000
197.113270 6.000000
198.095230 22.000000
199.092010 14.000000
200.085420 7.000000
200.099720 16.000000
200.111340 16.000000
204.078380 8.000000
205.091280 10.000000
206.094700 10.000000
206.104390 6.000000
207.073460 8.000000
208.076920 5.000000
209.089170 12.000000
209.123080 6.000000
210.084520 25.000000
210.096860 72.000000
211.096790 28.000000
211.258030 5.000000
212.099400 8.000000
213.106080 5.000000
216.085210 6.000000
218.082900 7.000000
218.101840 6.000000
220.069410 12.000000
220.106080 11.000000
221.090620 32.000000
222.080600 15.000000
222.100850 7.000000
223.091750 22.000000
223.104400 12.000000
224.067760 6.000000
224.092350 18.000000
224.113850 6.000000
225.116790 11.000000
226.122560 5.000000
232.079790 6.000000
233.073330 9.000000
233.089750 13.000000
234.081360 10.000000
234.096390 31.000000
234.125760 6.000000
235.089600 14.000000
236.092830 15.000000
236.112140 20.000000
237.074620 6.000000
237.115070 6.000000
238.080690 6.000000
238.120730 6.000000
239.104740 18.000000
239.125600 24.000000
240.065320 6.000000
240.124180 10.000000
246.086380 7.000000
246.124830 5.000000
247.081970 6.000000
247.114960 7.000000
248.092210 9.000000
248.104860 8.000000
248.118840 7.000000
249.085340 7.000000
249.106860 21.000000
249.124510 14.000000
250.102910 14.000000
250.128130 17.000000
251.109770 6.000000
252.099030 7.000000
255.147960 7.000000
260.109500 11.000000
263.115840 14.000000
263.135310 10.000000
264.092410 9.000000
265.115510 7.000000
265.145690 9.000000
277.113430 8.000000
277.128600 5.000000
277.146420 8.000000
280.116760 6.000000
291.131900 6.000000
305.139560 6.000000
310.170720 5.000000
323.165440 6.000000

>ms2peaks
110.096460 31.000000
129.054860 20.000000
144.080140 5.000000
159.069440 23.000000
160.072600 8.000000
168.102740 15.000000
174.091830 178.000000
175.096180 28.000000
194.115940 7.000000
200.107710 12.000000
202.122010 6.000000
206.118450 5.000000
226.143460 89.000000
227.147170 13.000000
238.144070 78.000000
239.143680 9.000000
328.155910 6.000000
367.201290 20.000000
368.204650 8.000000
399.229860 1000.000000
399.288180 28.000000

>ms2peaks
399.227020 1000.000000
399.284300 30.000000

>ms2peaks
75.044050 11.000000
95.053010 6.000000
108.082660 5.000000
110.097570 172.000000
111.100070 16.000000
111.105490 5.000000
117.072790 7.000000
122.097560 11.000000
124.116630 5.000000
126.053600 7.000000
129.055020 128.000000
130.057720 9.000000
135.081280 6.000000
136.075970 7.000000
138.056870 8.000000
139.075380 18.000000
143.072100 6.000000
144.082230 12.000000
146.096860 26.000000
152.071140 18.000000
154.120440 6.000000
159.068280 66.000000
160.074650 35.000000
161.084140 10.000000
162.091890 13.000000
166.088390 18.000000
168.102750 109.000000
169.102550 13.000000
171.103010 35.000000
172.107530 6.000000
174.060300 6.000000
174.092410 1000.000000
174.131200 12.000000
175.095890 132.000000
176.102420 16.000000
177.095470 9.000000
178.130000 5.000000
180.102250 14.000000
182.118480 13.000000
185.084670 6.000000
186.090740 15.000000
186.102170 5.000000
187.097660 8.000000
188.109410 24.000000
194.118800 61.000000
195.121870 6.000000
197.084430 5.000000
199.099170 10.000000
200.107820 79.000000
201.110870 10.000000
202.121830 22.000000
202.128400 10.000000
206.118290 31.000000
210.093120 25.000000
212.106090 20.000000
224.128860 17.000000
226.107270 6.000000
226.145050 378.000000
227.148700 54.000000
228.147740 7.000000
228.158390 6.000000
229.131450 10.000000
234.095810 6.000000
236.108670 16.000000
238.088330 8.000000
238.145870 345.000000
239.131770 7.000000
239.149260 55.000000
252.099170 6.000000
255.149770 26.000000
264.100590 6.000000
266.121980 13.000000
266.156160 9.000000
270.115880 22.000000
278.154850 9.000000
283.169800 5.000000
283.186890 14.000000
284.132260 9.000000
296.128390 14.000000
309.162170 5.000000
324.160400 8.000000
328.159420 13.000000
335.175930 13.000000
367.202760 66.000000
368.204500 18.000000
371.204410 5.000000
399.195250 9.000000
399.228820 184.000000

>ms2peaks
55.059030 6.000000
56.050350 11.000000
71.042380 6.000000
75.044200 119.000000
76.046940 8.000000
77.036580 5.000000
79.056950 18.000000
80.052790 7.000000
81.069730 5.000000
82.065870 10.000000
84.082470 14.000000
85.029500 8.000000
91.055480 37.000000
91.064210 8.000000
92.056510 16.000000
93.053290 5.000000
93.058590 6.000000
93.070520 13.000000
94.063720 8.000000
95.046490 15.000000
95.072570 6.000000
96.053750 10.000000
99.043770 5.000000
103.052510 7.000000
103.059320 10.000000
104.051710 10.000000
105.067570 11.000000
107.072920 6.000000
108.081790 21.000000
109.085690 9.000000
110.063230 5.000000
110.097120 174.000000
111.075690 6.000000
111.083050 15.000000
111.099210 22.000000
115.054280 101.000000
116.044430 5.000000
116.056660 19.000000
117.051770 15.000000
117.058510 40.000000
117.069270 191.000000
118.065650 91.000000
119.089060 7.000000
120.080110 11.000000
122.097000 53.000000
123.078910 11.000000
123.101220 7.000000
127.054220 105.000000
128.049440 36.000000
128.062640 32.000000
129.046300 8.000000
129.058030 85.000000
129.070880 20.000000
130.057240 17.000000
130.065980 89.000000
131.047200 6.000000
131.072010 178.000000
132.078800 41.000000
133.051410 8.000000
135.096390 8.000000
136.077870 7.000000
138.054500 16.000000
139.072630 21.000000
139.079570 23.000000
140.077440 10.000000
142.065370 22.000000
143.072630 270.000000
144.042920 11.000000
144.080510 283.000000
145.053680 19.000000
145.085250 60.000000
146.059140 37.000000
146.095950 79.000000
147.066410 22.000000
147.074160 11.000000
148.076430 20.000000
150.090000 11.000000
151.074810 11.000000
152.061890 9.000000
152.071080 26.000000
152.079640 11.000000
153.067610 6.000000
154.069120 21.000000
154.122270 11.000000
155.053940 7.000000
155.064220 5.000000
155.074570 13.000000
156.083940 25.000000
157.053990 9.000000
157.083630 16.000000
158.060500 65.000000
158.099330 8.000000
159.068330 1000.000000
159.103450 5.000000
160.072630 169.000000
161.073560 11.000000
161.080340 15.000000
162.092580 22.000000
166.065990 10.000000
166.082630 9.000000
166.090470 9.000000
167.075390 27.000000
168.058240 5.000000
168.065690 15.000000
168.080950 26.000000
169.080840 9.000000
169.089690 25.000000
170.061740 46.000000
170.089550 11.000000
171.053120 6.000000
171.063080 28.000000
171.072560 16.000000
172.076550 36.000000
172.107030 9.000000
173.083210 39.000000
174.090990 697.000000
175.094820 100.000000
176.069180 8.000000
176.100770 20.000000
179.074770 5.000000
180.075030 10.000000
180.104290 10.000000
181.071270 6.000000
181.085680 10.000000
182.102800 9.000000
183.066420 24.000000
184.063320 12.000000
184.076770 72.000000
185.077930 50.000000
185.086590 47.000000
186.088910 55.000000
187.096880 13.000000
188.104970 11.000000
189.069850 8.000000
189.079190 6.000000
191.071990 9.000000
192.080050 12.000000
193.088840 20.000000
194.070590 9.000000
194.091960 14.000000
194.104340 6.000000
195.067290 29.000000
196.066500 6.000000
196.077160 21.000000
197.072070 17.000000
197.084460 10.000000
198.053540 5.000000
198.080370 28.000000
198.090650 32.000000
199.103180 20.000000
200.101440 18.000000
200.110870 20.000000
201.111500 14.000000
202.113140 10.000000
204.073150 18.000000
204.087770 7.000000
205.087810 14.000000
206.087390 9.000000
206.101720 13.000000
206.121260 9.000000
208.073030 6.000000
208.086620 9.000000
209.082930 28.000000
209.092390 6.000000
210.090850 74.000000
210.104840 8.000000
211.091510 13.000000
211.100850 9.000000
212.107850 11.000000
213.116130 6.000000
217.092270 11.000000
218.088620 9.000000
218.105290 6.000000
219.112440 10.000000
220.074020 36.000000
220.098420 9.000000
220.119640 14.000000
221.079760 26.000000
221.095660 11.000000
222.076630 5.000000
222.090500 15.000000
223.064680 5.000000
223.089430 10.000000
223.099840 14.000000
224.068860 14.000000
224.103040 31.000000
224.113330 8.000000
226.085590 11.000000
226.127430 6.000000
232.078810 6.000000
232.114790 6.000000
233.082400 11.000000
233.092100 7.000000
234.083920 17.000000
234.093960 19.000000
235.099580 21.000000
236.072630 11.000000
236.105290 31.000000
237.080180 7.000000
237.107090 14.000000
237.120800 5.000000
238.084380 7.000000
238.118940 6.000000
239.095750 7.000000
239.114030 17.000000
239.133610 12.000000
240.100940 6.000000
240.125030 7.000000
240.137450 7.000000
246.133060 7.000000
247.095120 10.000000
248.084260 9.000000
248.108170 23.000000
249.117390 6.000000
250.089420 9.000000
250.119250 5.000000
251.097320 7.000000
262.092530 9.000000
262.114410 6.000000
262.130100 6.000000
263.089780 9.000000
263.125700 21.000000
264.122250 7.000000
264.136410 9.000000
265.069120 5.000000
265.091670 6.000000
265.137790 13.000000
266.110570 8.000000
267.159550 6.000000
276.096650 14.000000
277.107730 8.000000
277.140660 11.000000
279.123600 7.000000
280.140350 6.000000
289.094060 6.000000
291.148930 9.000000

>ms2peaks
110.097720 30.000000
129.054730 15.000000
144.083970 7.000000
146.096730 6.000000
159.063600 11.000000
159.073260 11.000000
168.102340 13.000000
174.092000 173.000000
175.092930 20.000000
175.101680 7.000000
188.104320 6.000000
194.118380 10.000000
200.108670 14.000000
226.144960 87.000000
227.146270 13.000000
238.144410 86.000000
239.147780 13.000000
255.147090 6.000000
328.154820 5.000000
367.199280 21.000000
399.226560 1000.000000
399.283510 26.000000

>ms2peaks
399.228180 1000.000000
399.285640 31.000000

>ms2peaks
75.038480 10.000000
75.045520 104.000000
76.048130 12.000000
79.053860 25.000000
79.059370 21.000000
81.074180 5.000000
82.069000 8.000000
84.082540 17.000000
91.055340 38.000000
92.055250 5.000000
93.070470 18.000000
94.071150 6.000000
95.048700 33.000000
95.071820 7.000000
96.053100 7.000000
96.083570 8.000000
99.045680 8.000000
103.055950 11.000000
105.073080 19.000000
107.050480 11.000000
108.047590 6.000000
108.081640 35.000000
109.086860 9.000000
110.097250 254.000000
111.046090 9.000000
111.072400 7.000000
111.088150 6.000000
111.101370 19.000000
115.054730 106.000000
116.047770 10.000000
116.059860 12.000000
117.055790 18.000000
117.070440 238.000000
118.064570 93.000000
118.073930 35.000000
119.087070 7.000000
120.084120 6.000000
121.086010 13.000000
122.063030 8.000000
122.095800 42.000000
123.081260 7.000000
123.089240 6.000000
123.100660 11.000000
124.118410 6.000000
126.050250 6.000000
127.050830 26.000000
127.055980 83.000000
128.050610 27.000000
128.062210 37.000000
129.055740 81.000000
129.070160 44.000000
130.065280 109.000000
131.050920 5.000000
131.069380 58.000000
131.075930 110.000000
132.045780 8.000000
132.066570 13.000000
132.077330 33.000000
132.083270 16.000000
133.052870 7.000000
134.057390 9.000000
134.100480 7.000000
135.101700 9.000000
136.075780 9.000000
138.052190 16.000000
139.075200 30.000000
141.071240 7.000000
142.060940 6.000000
142.068680 34.000000
143.056260 7.000000
143.073850 216.000000
143.093050 6.000000
144.043050 7.000000
144.081740 345.000000
145.053310 8.000000
145.079410 14.000000
145.086440 43.000000
145.097960 8.000000
146.059920 8.000000
146.067380 6.000000
146.094940 53.000000
146.101170 37.000000
147.066930 28.000000
147.075090 8.000000
148.077740 11.000000
148.113450 5.000000
150.062640 9.000000
150.097020 9.000000
151.066310 7.000000
152.072110 50.000000
153.070400 16.000000
154.062210 11.000000
154.069660 16.000000
155.074160 23.000000
155.083540 8.000000
156.080800 24.000000
157.046200 5.000000
157.091110 16.000000
158.061170 32.000000
158.065890 11.000000
158.091090 8.000000
158.102280 13.000000
159.050140 10.000000
159.068880 1000.000000
160.071330 89.000000
160.080630 39.000000
161.086110 30.000000
162.088150 27.000000
163.100250 6.000000
165.082060 11.000000
166.066620 11.000000
166.088030 20.000000
167.070980 11.000000
168.083980 46.000000
168.105040 13.000000
169.051120 7.000000
169.086090 28.000000
170.062480 45.000000
170.096120 10.000000
171.067980 30.000000
172.066740 5.000000
172.078380 28.000000
173.084700 25.000000
173.096980 10.000000
174.052750 10.000000
174.091920 656.000000
175.090520 35.000000
175.096950 45.000000
175.105220 14.000000
176.076860 7.000000
176.102040 7.000000
179.065860 6.000000
179.087040 6.000000
180.077610 8.000000
180.086980 17.000000
180.102920 15.000000
181.089360 19.000000
181.113270 5.000000
182.066880 8.000000
182.095780 13.000000
182.125350 5.000000
183.066710 25.000000
183.098850 8.000000
184.077000 107.000000
185.062620 9.000000
185.081480 75.000000
185.096240 9.000000
186.094300 24.000000
187.099470 10.000000
188.104640 14.000000
190.090390 13.000000
191.079320 7.000000
192.078340 15.000000
193.081890 12.000000
193.090790 11.000000
194.062930 12.000000
194.087160 6.000000
194.095720 19.000000
194.109440 6.000000
195.070050 18.000000
195.079360 5.000000
196.066440 11.000000
196.077610 19.000000
197.085310 54.000000
198.088650 23.000000
199.095430 5.000000
199.109090 9.000000
200.069410 7.000000
200.093720 9.000000
200.107640 23.000000
200.115600 15.000000
201.100140 10.000000
201.108930 6.000000
202.120220 6.000000
204.072100 8.000000
204.082310 9.000000
204.093660 13.000000
205.094060 10.000000
206.090640 10.000000
206.099690 11.000000
207.067440 15.000000
207.097370 7.000000
208.073680 23.000000
208.098300 6.000000
208.108030 11.000000
209.083050 20.000000
209.089450 7.000000
210.084490 25.000000
210.095630 45.000000
211.081510 11.000000
211.100450 14.000000
211.111270 5.000000
212.118240 9.000000
214.126170 6.000000
217.089830 18.000000
218.096740 11.000000
219.106280 7.000000
220.072980 20.000000
220.085360 13.000000
221.081280 15.000000
221.093190 18.000000
221.121670 8.000000
222.061290 5.000000
222.092060 29.000000
223.093110 16.000000
223.104870 8.000000
224.076310 8.000000
224.088120 9.000000
224.109740 43.000000
225.094530 17.000000
225.119520 6.000000
226.125460 5.000000
233.078220 7.000000
233.090230 10.000000
233.098690 8.000000
234.080800 6.000000
234.094160 26.000000
234.114270 6.000000
235.091160 17.000000
235.110470 5.000000
236.067870 8.000000
236.092100 8.000000
236.109040 31.000000
237.077470 6.000000
237.115660 22.000000
238.087390 22.000000
238.145650 7.000000
239.095110 12.000000
239.123630 40.000000
240.119950 7.000000
240.130260 6.000000
244.114240 6.000000
246.097630 9.000000
247.098970 6.000000
248.079270 9.000000
248.095670 15.000000
248.108690 11.000000
249.081130 15.000000
249.107100 10.000000
249.116840 7.000000
250.123120 19.000000
251.118270 13.000000
252.095630 6.000000
252.111110 5.000000
258.101750 7.000000
261.122620 9.000000
262.088070 11.000000
262.112670 11.000000
262.125370 12.000000
263.114620 10.000000
263.131710 13.000000
264.079800 6.000000
264.104060 6.000000
264.141390 7.000000
265.117950 12.000000
265.136440 7.000000
268.087890 5.000000
275.117220 5.000000
275.127260 7.000000
276.084780 6.000000
277.139920 8.000000
278.109220 6.000000
288.117920 5.000000
291.117490 7.000000

