>compound PR01652151
>parentmass 235.0315
>ionization [M+H]+
>formula C9H14OS3
>rt 408.000000
>profile qtof
#smiles_iso C=CCSSC=CCS(=O)CC=C
#smiles_can C=CCSSC=CCS(=O)CC=C
#inchikey IXELFRRANAOWSF-UHFFFAOYSA-N
#pubchem_id 72373
#mb_accession PR311164

>ms2
113.041260 53.000000
113.048000 99.000000
129.039920 62.000000
161.010640 33.000000

