>compound PR01838082
>parentmass 336.1805494
>ionization [M+H]+
>formula C18H25NO5
>rt 227.773980
>profile qtof
#smiles_iso C/C=C\1/C[C@H]([C@@](C(=O)OCC2=CCN3[C@H]2[C@@H](CC3)OC1=O)(C)O)C
#smiles_can CC=C1CC(C(C(=O)OCC2=CCN3C2C(CC3)OC1=O)(C)O)C
#inchikey HKODIGSRFALUTA-JTLQZVBZSA-N
#pubchem_id 5280906
#mb_accession PR301232,PR301235,PR301238,PR301241,PR301244,PR301247,PR301250,PR301253,PR301256,PR301259,PR301262,PR301265

>ms2
93.070380 9.000000
94.053630 5.000000
94.065120 42.000000
120.081010 46.000000
138.092040 33.000000
153.088680 6.000000
308.171050 11.000000
308.188320 44.000000
309.187870 8.000000
336.179630 1000.000000

>ms2
336.141170 5.000000
336.182460 1000.000000

>ms2
59.053650 13.000000
67.054210 38.000000
68.053380 21.000000
70.067890 7.000000
71.048790 13.000000
77.036560 15.000000
78.034680 8.000000
79.053790 37.000000
80.045970 18.000000
81.055980 7.000000
81.072070 57.000000
82.061860 15.000000
82.067260 9.000000
82.077640 15.000000
84.045810 11.000000
85.065700 9.000000
91.055110 70.000000
92.058180 13.000000
93.058780 7.000000
93.071080 82.000000
94.065660 425.000000
94.829380 8.000000
94.891070 7.000000
95.066190 56.000000
95.086620 9.000000
96.048820 9.000000
96.079610 130.000000
101.061790 9.000000
103.038040 8.000000
103.041370 17.000000
103.053940 33.000000
104.061000 7.000000
105.060460 7.000000
105.069980 18.000000
106.039350 10.000000
107.058300 11.000000
107.075150 7.000000
107.087490 42.000000
107.096230 8.000000
108.076580 18.000000
108.082790 26.000000
108.087720 28.000000
108.528330 7.000000
109.083300 7.000000
109.095990 33.000000
110.092010 38.000000
110.097430 53.000000
111.039940 8.000000
111.099270 11.000000
112.078670 28.000000
118.062970 30.000000
118.067870 9.000000
119.035330 10.000000
119.211730 7.000000
120.064310 12.000000
120.081650 651.000000
121.062090 10.000000
121.071600 21.000000
121.083590 106.000000
121.093910 25.000000
121.104970 8.000000
122.091350 40.000000
122.098780 80.000000
122.111210 9.000000
123.116710 12.000000
124.084980 19.000000
125.086320 12.000000
125.100600 117.000000
126.091250 7.000000
126.096010 16.000000
127.074980 10.000000
131.389020 10.000000
131.600770 7.000000
133.107410 7.000000
135.080860 64.000000
136.074110 7.000000
137.082170 15.000000
137.097820 9.000000
137.718810 8.000000
138.090440 574.000000
139.038820 14.000000
139.080410 11.000000
139.094700 36.000000
140.113740 14.000000
142.685590 7.000000
147.104510 9.000000
153.078450 9.000000
153.091080 96.000000
153.105990 7.000000
156.076220 9.000000
156.100310 18.000000
160.111570 7.000000
160.116530 19.000000
163.073060 9.000000
163.095310 7.000000
164.735050 8.000000
171.118210 8.000000
174.096360 11.000000
174.131330 13.000000
181.084170 11.000000
182.491260 11.000000
188.149260 14.000000
193.246840 8.000000
198.196530 8.000000
206.388060 9.000000
211.279430 9.000000
218.121690 22.000000
218.144270 9.000000
220.121520 14.000000
220.142700 7.000000
221.129520 8.000000
223.111880 7.000000
234.160200 8.000000
238.145920 29.000000
246.175290 9.000000
248.164510 21.000000
248.178700 9.000000
250.071490 7.000000
261.333650 7.000000
266.174870 10.000000
274.183620 8.000000
287.869290 7.000000
288.186280 13.000000
290.166440 24.000000
290.181880 9.000000
291.164670 8.000000
291.180480 12.000000
291.800900 18.000000
292.189730 15.000000
292.206150 8.000000
294.110290 7.000000
306.144560 13.000000
308.134830 7.000000
308.160190 16.000000
308.186830 386.000000
308.213960 9.000000
309.137850 7.000000
309.191130 67.000000
309.208920 9.000000
321.394380 13.000000
335.918210 7.000000
336.151670 38.000000
336.179930 1000.000000

>ms2
55.048270 78.000000
55.053260 65.000000
56.052980 73.000000
57.037280 57.000000
65.033100 49.000000
68.052340 100.000000
68.058680 51.000000
69.052730 57.000000
69.068670 119.000000
71.049420 49.000000
77.032120 86.000000
77.037700 67.000000
77.044010 81.000000
79.052890 291.000000
80.043290 54.000000
80.051670 54.000000
80.057140 65.000000
80.290180 49.000000
81.033200 59.000000
81.054730 46.000000
81.058220 121.000000
81.068630 57.000000
82.068400 181.000000
84.039050 46.000000
84.054180 67.000000
85.052170 54.000000
85.068170 51.000000
91.049580 170.000000
91.057210 342.000000
92.044610 137.000000
92.049450 127.000000
92.058590 57.000000
93.042570 73.000000
93.051010 78.000000
93.056830 46.000000
93.073950 224.000000
94.019270 49.000000
94.055810 135.000000
94.067100 1000.000000
95.064690 49.000000
95.087100 129.000000
96.078250 167.000000
96.083660 105.000000
98.044870 57.000000
100.989400 75.000000
103.053470 191.000000
104.058830 46.000000
104.063290 121.000000
104.673330 46.000000
105.058910 84.000000
105.072960 151.000000
105.936810 49.000000
106.063280 49.000000
106.068010 59.000000
107.067050 146.000000
107.074310 59.000000
107.079680 86.000000
107.092120 84.000000
108.048680 54.000000
108.073080 92.000000
108.080380 116.000000
109.045200 81.000000
109.058520 84.000000
109.087010 65.000000
110.053930 73.000000
110.063700 65.000000
110.098620 57.000000
116.045150 46.000000
117.074710 57.000000
118.040600 81.000000
118.061230 221.000000
118.072880 70.000000
119.070270 65.000000
120.075810 173.000000
120.084120 391.000000
121.082280 62.000000
122.061860 46.000000
127.034030 81.000000
135.075990 54.000000
135.083310 46.000000
136.072250 75.000000
138.094120 57.000000
149.097320 49.000000
153.096070 46.000000
158.088300 73.000000
158.105880 102.000000
169.507430 54.000000
225.990080 75.000000
232.132160 46.000000
257.232240 54.000000
266.540130 54.000000
336.177760 100.000000
336.190980 86.000000

>ms2
80.048020 6.000000
93.069530 7.000000
94.058170 6.000000
94.066760 24.000000
96.083620 9.000000
110.096150 5.000000
120.081580 71.000000
125.091610 5.000000
138.093320 41.000000
220.129750 6.000000
308.184600 37.000000
309.190890 12.000000
336.138030 6.000000
336.180910 1000.000000

>ms2
336.136570 8.000000
336.180020 1000.000000

>ms2
55.053310 6.000000
56.048110 6.000000
65.033740 7.000000
66.923250 10.000000
67.035030 6.000000
67.053340 16.000000
68.049800 24.000000
68.059800 12.000000
70.783970 7.000000
77.035550 5.000000
77.039630 19.000000
78.034530 14.000000
78.047170 12.000000
79.055270 33.000000
80.050290 36.000000
81.056340 17.000000
81.062740 14.000000
81.069290 38.000000
81.215090 7.000000
82.064140 19.000000
82.071940 8.000000
83.047210 7.000000
83.083960 10.000000
91.053900 47.000000
91.062440 9.000000
92.047520 7.000000
93.071890 87.000000
93.631600 7.000000
94.065220 447.000000
95.048480 9.000000
95.059670 8.000000
95.071380 16.000000
95.085950 16.000000
96.080440 180.000000
97.083400 13.000000
97.104450 14.000000
98.042220 6.000000
98.066750 7.000000
99.047390 8.000000
100.574960 13.000000
101.059100 6.000000
103.056110 88.000000
104.058300 10.000000
105.059360 7.000000
105.073490 18.000000
105.518070 7.000000
107.073950 21.000000
107.085140 54.000000
107.093410 16.000000
108.082010 104.000000
109.062820 46.000000
109.078920 11.000000
109.087570 6.000000
109.097730 8.000000
109.103450 7.000000
109.190760 6.000000
110.066250 12.000000
110.098160 65.000000
111.076740 26.000000
111.101330 16.000000
117.056400 6.000000
118.065990 76.000000
120.059820 21.000000
120.080830 659.000000
120.935900 6.000000
121.061130 27.000000
121.077450 15.000000
121.085490 51.000000
121.091560 38.000000
121.315520 9.000000
121.555400 6.000000
122.086330 12.000000
122.096890 77.000000
123.103200 24.000000
125.085350 17.000000
125.094280 73.000000
127.175540 6.000000
135.081800 27.000000
137.092970 7.000000
138.075440 23.000000
138.090120 488.000000
138.103070 38.000000
139.078090 14.000000
139.088850 8.000000
139.101300 17.000000
140.084110 6.000000
140.105100 31.000000
145.091950 7.000000
146.100130 6.000000
148.111100 11.000000
149.132600 11.000000
153.057600 6.000000
153.070340 7.000000
153.089940 156.000000
154.095430 21.000000
156.102520 11.000000
163.071700 6.000000
164.109600 9.000000
175.138030 17.000000
180.963730 6.000000
181.093800 10.000000
190.121900 15.000000
197.020840 7.000000
205.146770 8.000000
205.211810 11.000000
220.116120 8.000000
220.128140 45.000000
220.139340 8.000000
232.109650 6.000000
234.150560 8.000000
234.376270 8.000000
238.143880 17.000000
239.988430 6.000000
241.023270 8.000000
241.070630 6.000000
241.348800 8.000000
248.143170 7.000000
248.172700 7.000000
290.156370 7.000000
290.170200 18.000000
290.182620 12.000000
292.995270 7.000000
308.125030 10.000000
308.154660 16.000000
308.186680 372.000000
308.200780 89.000000
309.190830 60.000000
310.178340 7.000000
310.496580 6.000000
311.445500 8.000000
318.173310 7.000000
336.091000 7.000000
336.146240 8.000000
336.180510 1000.000000

>ms2
65.678180 104.000000
67.055050 304.000000
67.059720 110.000000
67.990390 60.000000
68.049000 107.000000
69.065830 60.000000
77.038640 470.000000
78.033460 95.000000
78.046150 65.000000
79.053070 54.000000
79.059160 122.000000
80.032500 68.000000
80.045780 116.000000
80.053180 226.000000
81.066550 62.000000
81.073810 68.000000
82.066020 74.000000
83.048380 62.000000
83.085140 51.000000
84.048990 62.000000
85.055010 83.000000
91.046290 54.000000
91.055600 443.000000
92.048810 77.000000
93.060010 60.000000
93.068820 250.000000
94.056530 83.000000
94.066200 1000.000000
94.082110 146.000000
95.077470 74.000000
95.263080 62.000000
96.077510 51.000000
96.082530 60.000000
96.088150 62.000000
103.054840 289.000000
104.948620 60.000000
105.063280 51.000000
106.065620 125.000000
107.070990 324.000000
107.079930 95.000000
108.079310 190.000000
108.085210 77.000000
109.123430 74.000000
110.025200 60.000000
110.090810 80.000000
112.072550 65.000000
112.077640 54.000000
118.060970 86.000000
118.069170 280.000000
120.063030 68.000000
120.080480 176.000000
121.081110 62.000000
122.088390 80.000000
122.100270 60.000000
122.105420 95.000000
125.099720 71.000000
132.076580 60.000000
132.089580 71.000000
134.098500 60.000000
136.081130 54.000000
138.094380 107.000000
140.106480 54.000000
154.079990 62.000000
156.083010 51.000000
159.114790 54.000000
160.109390 51.000000
172.104310 62.000000
203.071900 74.000000
331.697110 60.000000

>ms2
93.071410 7.000000
94.062100 21.000000
94.069350 10.000000
96.081600 8.000000
107.088380 8.000000
108.079120 5.000000
120.078810 38.000000
120.085980 30.000000
138.090790 48.000000
139.091570 6.000000
153.088730 12.000000
308.192660 30.000000
309.188930 8.000000
336.136990 13.000000
336.180480 1000.000000

>ms2
336.127720 6.000000
336.140930 5.000000
336.180970 1000.000000
336.230500 9.000000

>ms2
57.474630 6.000000
67.048930 6.000000
67.054470 8.000000
68.048680 21.000000
68.052820 21.000000
68.064610 6.000000
69.038360 12.000000
71.048780 7.000000
76.370060 12.000000
77.040990 46.000000
78.040690 7.000000
79.058980 7.000000
80.038940 7.000000
80.048160 13.000000
80.051960 18.000000
81.028720 6.000000
81.057420 29.000000
81.067410 14.000000
81.072100 16.000000
82.061590 7.000000
82.068370 8.000000
82.076110 6.000000
83.051390 14.000000
83.057550 12.000000
83.073070 6.000000
84.083380 6.000000
86.059350 6.000000
86.064930 8.000000
86.768370 6.000000
88.050640 13.000000
91.049220 17.000000
91.056020 24.000000
91.063410 7.000000
92.043980 9.000000
93.054340 11.000000
93.067400 45.000000
93.078780 33.000000
94.048810 8.000000
94.065320 318.000000
94.963470 6.000000
95.067800 33.000000
95.074550 8.000000
95.178340 6.000000
96.071340 6.000000
96.082240 72.000000
97.081710 8.000000
98.062410 6.000000
98.219860 8.000000
99.857920 6.000000
103.048260 25.000000
103.053380 60.000000
103.063800 12.000000
105.057270 17.000000
105.067990 31.000000
107.069200 20.000000
107.077290 8.000000
107.085230 27.000000
107.093610 13.000000
108.072470 6.000000
108.081900 49.000000
109.056000 7.000000
109.067380 30.000000
109.082100 7.000000
109.089680 9.000000
109.096080 27.000000
109.108670 7.000000
109.798640 7.000000
110.059840 8.000000
110.072270 9.000000
110.098810 59.000000
111.079740 15.000000
111.109920 6.000000
112.080640 6.000000
118.043720 7.000000
118.049310 7.000000
118.060200 8.000000
118.065820 6.000000
118.075100 8.000000
119.055960 10.000000
120.062610 9.000000
120.082340 600.000000
120.210040 7.000000
120.901430 6.000000
121.057970 7.000000
121.080640 35.000000
121.089960 72.000000
121.133830 6.000000
121.568150 8.000000
121.710390 7.000000
122.079360 6.000000
122.098610 55.000000
123.096890 27.000000
124.115750 10.000000
125.053600 5.000000
125.059040 15.000000
125.098050 46.000000
125.111010 31.000000
125.325250 6.000000
126.097930 8.000000
133.090530 10.000000
133.101240 6.000000
133.106580 7.000000
134.095840 6.000000
135.079700 32.000000
137.091550 11.000000
138.062550 10.000000
138.091130 391.000000
139.078810 8.000000
139.095810 40.000000
139.105500 15.000000
140.074950 6.000000
140.087070 11.000000
140.108540 26.000000
140.121630 7.000000
148.116000 7.000000
150.082080 8.000000
150.135040 6.000000
152.113010 6.000000
153.072780 7.000000
153.085250 40.000000
153.095500 60.000000
154.080670 7.000000
156.104680 15.000000
159.778690 12.000000
161.107420 7.000000
163.126340 6.000000
172.567050 7.000000
174.133450 19.000000
177.514980 7.000000
183.087840 7.000000
193.135670 8.000000
196.419780 6.000000
206.119030 19.000000
210.581160 7.000000
213.109330 12.000000
220.124730 27.000000
220.144200 15.000000
225.081310 6.000000
229.158950 7.000000
238.095760 6.000000
238.128250 6.000000
238.162890 6.000000
248.165770 7.000000
262.167360 6.000000
263.056340 7.000000
266.174740 7.000000
266.198520 11.000000
274.166350 7.000000
290.156040 9.000000
290.171510 43.000000
292.182220 15.000000
292.197300 14.000000
293.205200 7.000000
306.183410 7.000000
308.159820 6.000000
308.182340 309.000000
308.197240 113.000000
309.186770 44.000000
309.199400 15.000000
309.671660 7.000000
318.175840 15.000000
335.852910 7.000000
336.181670 1000.000000
336.240390 7.000000

>ms2
55.052590 57.000000
65.037790 74.000000
65.042270 48.000000
66.046110 43.000000
67.054590 409.000000
68.057190 48.000000
69.032870 52.000000
77.031850 157.000000
77.038010 48.000000
77.594040 57.000000
78.044330 109.000000
79.050860 67.000000
79.056160 45.000000
80.046660 219.000000
80.060940 57.000000
81.068660 52.000000
82.052300 48.000000
82.066450 112.000000
83.055370 40.000000
83.068510 40.000000
83.086990 40.000000
91.046330 43.000000
91.055620 418.000000
91.755550 43.000000
92.047310 154.000000
92.055050 59.000000
93.066690 430.000000
94.065790 1000.000000
95.068310 230.000000
95.083460 40.000000
96.075980 162.000000
96.085880 133.000000
103.049550 102.000000
103.063620 52.000000
105.050130 43.000000
105.069340 114.000000
107.077480 43.000000
107.095190 112.000000
108.070110 57.000000
108.079780 45.000000
109.054220 59.000000
115.123590 71.000000
118.067010 266.000000
119.531470 43.000000
120.079640 226.000000
120.084850 121.000000
121.083300 138.000000
124.079970 45.000000
127.092320 59.000000
137.117520 45.000000
138.089650 143.000000
146.069380 52.000000
147.070300 45.000000
154.085160 52.000000
156.103680 48.000000
160.109450 57.000000
167.070940 93.000000
179.084820 76.000000
202.814220 59.000000
314.768250 55.000000

