>compound PR01809759
>parentmass 334.16489929999995
>ionization [M+H]+
>formula C18H23NO5
>rt 206.890020
>profile qtof
#smiles_iso C/C=C\1/CC(=C)[C@@](C(=O)OCC2=CCN3[C@H]2[C@@H](CC3)OC1=O)(C)O
#smiles_can CC=C1CC(=C)C(C(=O)OCC2=CCN3C2C(CC3)OC1=O)(C)O
#inchikey FCEVNJIUIMLVML-QPSVUOIXSA-N
#pubchem_id 5281750
#mb_accession PR301186,PR301190,PR301193,PR301197,PR301201,PR301205,PR301209,PR301212,PR301216,PR301220,PR301224,PR301228

>ms2peaks
91.057000 5.000000
93.072800 6.000000
94.065430 21.000000
94.069790 11.000000
96.081310 7.000000
105.066980 7.000000
109.065020 7.000000
118.067210 6.000000
120.081280 46.000000
122.098880 10.000000
123.082910 5.000000
138.085750 7.000000
138.092880 30.000000
151.076800 6.000000
306.172180 51.000000
334.167050 1000.000000
334.219330 21.000000

>ms2peaks
334.113040 5.000000
334.165440 1000.000000
334.217070 21.000000

>ms2peaks
67.054630 41.000000
68.046030 23.000000
68.051820 22.000000
69.058560 5.000000
77.037370 5.000000
77.042320 13.000000
77.324870 6.000000
79.053520 27.000000
79.058260 15.000000
79.062930 5.000000
80.002800 8.000000
80.029190 8.000000
80.050270 117.000000
80.063080 6.000000
81.050380 10.000000
81.059520 7.000000
81.070280 47.000000
82.063550 18.000000
82.070610 10.000000
83.047360 6.000000
84.044980 5.000000
85.065890 9.000000
86.060630 9.000000
90.680150 7.000000
91.045270 13.000000
91.055830 98.000000
92.058460 27.000000
93.061710 26.000000
93.069170 148.000000
94.065740 415.000000
94.079170 6.000000
95.051800 27.000000
95.073200 28.000000
95.084600 14.000000
96.082530 154.000000
97.069370 7.000000
97.088650 14.000000
97.797350 6.000000
102.906270 5.000000
103.041050 16.000000
103.051970 48.000000
103.058110 49.000000
104.044700 12.000000
104.059980 6.000000
105.041230 5.000000
105.060900 10.000000
105.071300 75.000000
106.065930 15.000000
106.073040 14.000000
107.071730 24.000000
107.079580 13.000000
108.082280 143.000000
109.065610 139.000000
109.082310 22.000000
109.088100 32.000000
110.059710 12.000000
110.069500 8.000000
110.096920 78.000000
116.041500 5.000000
117.077730 6.000000
118.066870 102.000000
119.065310 7.000000
119.076010 15.000000
120.081920 845.000000
121.011600 7.000000
121.063000 5.000000
121.084720 94.000000
121.096880 7.000000
122.084020 7.000000
122.096860 161.000000
123.043330 6.000000
123.078610 78.000000
123.089120 16.000000
123.102950 12.000000
124.071820 14.000000
124.083330 9.000000
126.096850 6.000000
127.075170 10.000000
129.071400 15.000000
131.081470 9.000000
133.063930 17.000000
133.071200 20.000000
133.090730 14.000000
133.099040 5.000000
134.068010 5.000000
134.094270 20.000000
136.077290 22.000000
137.067600 5.000000
138.070820 5.000000
138.092900 586.000000
139.068020 11.000000
139.093730 58.000000
139.098910 21.000000
140.103700 6.000000
141.065990 6.000000
145.089690 5.000000
145.102050 6.000000
146.101880 6.000000
147.066220 10.000000
147.075040 12.000000
147.088000 12.000000
147.112290 11.000000
148.078350 6.000000
148.099820 5.000000
148.110700 20.000000
148.117510 13.000000
150.130000 6.000000
151.035930 6.000000
151.066760 30.000000
151.075990 93.000000
151.086870 18.000000
152.085110 12.000000
153.882710 6.000000
156.089890 9.000000
156.101970 18.000000
156.582700 15.000000
158.104750 7.000000
159.085020 9.000000
159.119160 5.000000
160.113280 5.000000
161.069060 7.000000
162.136920 11.000000
163.101490 9.000000
167.074080 7.000000
169.101870 15.000000
171.089800 5.000000
171.107820 10.000000
172.104980 5.000000
172.115540 19.000000
173.126740 7.000000
174.109470 7.000000
175.107590 11.000000
176.103130 9.000000
177.097610 6.000000
179.069820 16.000000
183.120830 5.000000
184.103260 15.000000
185.092250 5.000000
187.066420 6.000000
187.098970 10.000000
187.132400 5.000000
191.137420 5.000000
193.113650 15.000000
194.106770 8.000000
197.081220 10.000000
200.039490 8.000000
200.120450 10.000000
200.138030 6.000000
201.148130 6.000000
206.122880 8.000000
211.140140 16.000000
212.141820 6.000000
212.845140 6.000000
216.660710 7.000000
222.161440 8.000000
223.148120 6.000000
229.117200 6.000000
232.940630 5.000000
234.615140 5.000000
235.106610 8.000000
236.128270 5.000000
242.112690 6.000000
246.149190 33.000000
246.164290 7.000000
247.162030 6.000000
271.138850 6.000000
272.174380 5.000000
274.149630 33.000000
288.146390 8.000000
288.161960 59.000000
288.408480 10.000000
289.161960 23.000000
290.169430 10.000000
291.184110 6.000000
297.998110 7.000000
305.920680 5.000000
306.118100 5.000000
306.163730 303.000000
306.174320 297.000000
307.164610 41.000000
307.178800 95.000000
307.205900 5.000000
308.175140 15.000000
309.191770 5.000000
321.077850 7.000000
321.212980 6.000000
334.165160 1000.000000

>ms2peaks
54.807100 25.000000
56.049730 30.000000
65.040790 32.000000
66.038010 27.000000
67.055440 301.000000
68.050150 31.000000
70.027370 31.000000
77.029590 38.000000
77.039990 194.000000
77.782970 28.000000
78.033100 49.000000
78.046210 41.000000
79.052660 139.000000
79.061410 59.000000
80.049900 319.000000
80.059680 30.000000
81.052700 68.000000
81.058910 28.000000
81.069650 238.000000
82.063050 59.000000
82.067410 167.000000
82.077100 24.000000
83.049990 25.000000
84.046270 38.000000
84.072430 37.000000
91.050620 153.000000
91.055300 501.000000
92.067030 38.000000
93.058580 204.000000
93.071420 229.000000
93.498540 37.000000
94.067230 1000.000000
95.045620 25.000000
95.064990 68.000000
95.072120 79.000000
95.083530 187.000000
96.080480 184.000000
96.085280 68.000000
97.074570 24.000000
103.050240 155.000000
103.059080 84.000000
104.057290 28.000000
105.054400 24.000000
105.070560 80.000000
106.065910 201.000000
106.069810 91.000000
107.071240 111.000000
107.077590 45.000000
108.040950 24.000000
108.058380 72.000000
108.069980 23.000000
108.078830 250.000000
109.065140 180.000000
109.079430 34.000000
109.089970 31.000000
110.062470 58.000000
110.097320 200.000000
110.698710 24.000000
112.070080 24.000000
113.077830 32.000000
115.051680 53.000000
115.059760 42.000000
116.055640 32.000000
117.059360 58.000000
118.055130 31.000000
118.066740 83.000000
119.065640 34.000000
119.072830 32.000000
119.089980 70.000000
120.071350 48.000000
120.079260 264.000000
120.085580 176.000000
120.342690 24.000000
122.102680 65.000000
123.078580 28.000000
123.099180 28.000000
124.074980 56.000000
126.091880 30.000000
128.058870 30.000000
129.066360 25.000000
130.048490 27.000000
130.070760 34.000000
131.089160 27.000000
132.056660 30.000000
132.078870 37.000000
132.086620 31.000000
133.058750 41.000000
136.067020 24.000000
140.092120 34.000000
140.109210 83.000000
141.064940 32.000000
144.082460 28.000000
144.094600 39.000000
155.090700 35.000000
157.086200 30.000000
168.070080 28.000000
170.101560 48.000000
170.900530 24.000000
171.078340 28.000000
181.073590 27.000000
187.126100 35.000000
194.089190 24.000000
247.091890 25.000000
334.129880 28.000000
334.144650 51.000000
334.171720 129.000000

>ms2peaks
91.055640 11.000000
93.070400 5.000000
94.066510 22.000000
103.054520 10.000000
105.069640 7.000000
109.061650 5.000000
118.065710 6.000000
120.082080 44.000000
138.091080 32.000000
139.097410 7.000000
151.073840 9.000000
306.168580 39.000000
334.165340 1000.000000
334.217290 23.000000

>ms2peaks
334.105350 5.000000
334.165340 1000.000000
334.216800 24.000000

>ms2peaks
55.015100 5.000000
57.033760 6.000000
65.034820 11.000000
67.036930 7.000000
67.043220 6.000000
67.055240 36.000000
69.039890 6.000000
77.035100 20.000000
77.043310 19.000000
78.030900 12.000000
79.052150 10.000000
79.056590 16.000000
80.049100 74.000000
81.056760 20.000000
81.072620 58.000000
82.040050 6.000000
82.063240 5.000000
82.070320 9.000000
82.076740 6.000000
83.050070 6.000000
84.047940 14.000000
85.055520 6.000000
87.636640 6.000000
91.051130 32.000000
91.056150 72.000000
92.043430 9.000000
92.052760 11.000000
92.059270 16.000000
93.059010 10.000000
93.069250 94.000000
93.073830 76.000000
94.042120 6.000000
94.066090 446.000000
95.052150 17.000000
95.071680 55.000000
95.085720 36.000000
95.091790 20.000000
96.068670 23.000000
96.080720 168.000000
97.089090 5.000000
103.041060 5.000000
103.053700 63.000000
105.060020 10.000000
105.067770 22.000000
105.075230 75.000000
105.675580 8.000000
106.063520 36.000000
106.076230 21.000000
107.072690 55.000000
107.085230 36.000000
108.080310 140.000000
109.064610 133.000000
109.087100 18.000000
110.060050 14.000000
110.081540 7.000000
110.087870 8.000000
110.096150 17.000000
110.103010 20.000000
110.110490 7.000000
111.047640 9.000000
112.073190 16.000000
112.160860 7.000000
113.078720 5.000000
117.051880 6.000000
117.068160 14.000000
117.075970 14.000000
118.065770 107.000000
119.066760 36.000000
119.079820 8.000000
119.999800 5.000000
120.055810 8.000000
120.080920 630.000000
120.225140 5.000000
121.060340 15.000000
121.068260 17.000000
121.077300 22.000000
121.085160 130.000000
122.067120 6.000000
122.094240 112.000000
122.100490 60.000000
123.061490 5.000000
123.080550 125.000000
123.104100 9.000000
124.082890 6.000000
124.088620 16.000000
125.087760 7.000000
125.099890 21.000000
126.090640 9.000000
128.067200 5.000000
129.068660 7.000000
132.081790 9.000000
132.087750 7.000000
133.066350 74.000000
134.069200 6.000000
134.101140 9.000000
135.088360 5.000000
135.468520 6.000000
136.074450 17.000000
136.081310 21.000000
137.010990 5.000000
137.063860 12.000000
137.091570 5.000000
138.091720 633.000000
139.080460 5.000000
139.093110 41.000000
140.064060 5.000000
140.085310 5.000000
140.111790 11.000000
146.093990 12.000000
147.083040 10.000000
148.112290 18.000000
148.120590 6.000000
149.098600 10.000000
151.059890 12.000000
151.076430 165.000000
152.079730 28.000000
153.090270 7.000000
155.083250 9.000000
156.098820 22.000000
156.109820 8.000000
157.084990 10.000000
157.101200 11.000000
158.091800 6.000000
158.116680 6.000000
161.055880 6.000000
162.088760 9.000000
162.130780 5.000000
163.076430 10.000000
165.073970 6.000000
167.084560 7.000000
171.108110 6.000000
172.123840 9.000000
173.082760 6.000000
173.110410 7.000000
175.096340 8.000000
176.088790 5.000000
176.117610 9.000000
176.310810 6.000000
179.081510 6.000000
182.095520 5.000000
185.130200 6.000000
186.098110 10.000000
186.138240 5.000000
187.090740 6.000000
187.532930 7.000000
188.143330 6.000000
192.084550 6.000000
192.138060 6.000000
197.078450 11.000000
197.121750 6.000000
206.114400 6.000000
210.120390 10.000000
210.128600 6.000000
212.068450 6.000000
224.364580 5.000000
225.137940 6.000000
226.163510 17.000000
228.116780 7.000000
233.313230 9.000000
236.141630 6.000000
246.150020 50.000000
274.148830 25.000000
275.145780 6.000000
288.150020 18.000000
288.162600 48.000000
306.098210 8.000000
306.126500 9.000000
306.136510 8.000000
306.171050 419.000000
306.190550 56.000000
307.173280 107.000000
309.198150 6.000000
322.799990 7.000000
334.121250 10.000000
334.165740 1000.000000

>ms2peaks
64.851700 22.000000
65.038440 43.000000
67.037450 22.000000
67.053000 157.000000
67.057650 357.000000
68.047920 52.000000
68.053440 77.000000
68.060370 23.000000
72.181850 22.000000
77.039380 322.000000
78.033510 36.000000
78.037300 124.000000
78.049350 42.000000
79.053730 192.000000
80.003000 26.000000
80.041540 27.000000
80.048880 58.000000
80.052610 119.000000
81.032620 26.000000
81.051150 22.000000
81.058690 85.000000
81.069640 95.000000
81.074810 88.000000
82.060430 68.000000
82.065960 44.000000
82.072660 47.000000
82.504300 31.000000
83.073750 27.000000
84.049860 48.000000
84.081650 22.000000
86.063840 31.000000
91.056580 317.000000
92.050020 100.000000
93.044550 33.000000
93.060260 161.000000
93.068950 224.000000
94.044110 37.000000
94.051820 26.000000
94.066250 1000.000000
94.077070 55.000000
95.069050 28.000000
95.075830 27.000000
95.086590 64.000000
96.083760 109.000000
103.045650 25.000000
103.055210 181.000000
103.065780 27.000000
105.058820 86.000000
105.064100 95.000000
105.069190 65.000000
105.075080 32.000000
106.064430 63.000000
106.072670 27.000000
107.075050 26.000000
108.056140 21.000000
108.070880 28.000000
108.078060 200.000000
108.083110 72.000000
109.062260 197.000000
109.068960 82.000000
109.088070 29.000000
110.058240 21.000000
110.097080 208.000000
111.085040 27.000000
111.101740 37.000000
112.072360 27.000000
115.059760 23.000000
117.061260 21.000000
117.070560 68.000000
118.065730 187.000000
119.072000 79.000000
119.089650 22.000000
120.074930 86.000000
120.081360 310.000000
121.087770 54.000000
122.073050 27.000000
122.094960 48.000000
122.104710 32.000000
123.080730 36.000000
128.063430 25.000000
129.068370 63.000000
130.062760 26.000000
131.068160 26.000000
132.081560 86.000000
133.099930 26.000000
134.093200 21.000000
134.102810 29.000000
134.529800 25.000000
135.045100 34.000000
138.094160 184.000000
145.066910 69.000000
148.118160 22.000000
153.074920 29.000000
155.080120 27.000000
156.085600 27.000000
156.092730 53.000000
156.111690 42.000000
157.068940 28.000000
157.093990 37.000000
168.079710 23.000000
171.088520 27.000000
177.182190 27.000000
178.117520 74.000000
185.091130 26.000000

>ms2peaks
80.047590 8.000000
93.070050 12.000000
94.066250 22.000000
105.070010 5.000000
109.063610 8.000000
120.080580 53.000000
123.081370 10.000000
138.092470 36.000000
151.074940 11.000000
306.170990 38.000000
307.186070 5.000000
334.165370 1000.000000
334.217010 18.000000

>ms2peaks
334.165040 1000.000000
334.217990 26.000000

>ms2peaks
65.039070 6.000000
67.054430 9.000000
67.060300 13.000000
68.048530 33.000000
69.058430 18.000000
77.032410 5.000000
77.039000 17.000000
77.043720 9.000000
78.040260 15.000000
79.055020 51.000000
80.050640 44.000000
80.062440 7.000000
81.061840 7.000000
81.069660 10.000000
82.065190 26.000000
82.072960 13.000000
84.070020 7.000000
86.063570 11.000000
87.069460 15.000000
91.034190 5.000000
91.053450 89.000000
91.057960 66.000000
92.049670 26.000000
92.056840 9.000000
93.069960 139.000000
94.033230 6.000000
94.066860 404.000000
95.046790 5.000000
95.053970 15.000000
95.066700 10.000000
95.073570 10.000000
95.084710 26.000000
95.089030 28.000000
96.081780 137.000000
97.092290 9.000000
103.054670 136.000000
105.070510 167.000000
106.062160 14.000000
106.072850 11.000000
107.068360 20.000000
107.076990 12.000000
107.089860 30.000000
107.093810 11.000000
108.077740 37.000000
108.084520 74.000000
109.063100 98.000000
109.072380 21.000000
109.085060 9.000000
109.106840 8.000000
110.053590 13.000000
110.062440 31.000000
110.071750 13.000000
110.094800 29.000000
110.102190 28.000000
111.100480 13.000000
112.078290 5.000000
115.061050 11.000000
117.065640 29.000000
117.073970 6.000000
118.062360 24.000000
118.069520 34.000000
119.070630 13.000000
119.079900 10.000000
119.307080 7.000000
120.062390 8.000000
120.081730 716.000000
121.026100 6.000000
121.060760 9.000000
121.071930 15.000000
121.087300 149.000000
122.093150 40.000000
122.099800 95.000000
123.081150 109.000000
123.099110 9.000000
124.077710 11.000000
125.089580 6.000000
130.059660 8.000000
131.083470 40.000000
132.082630 6.000000
133.056960 8.000000
133.067470 17.000000
133.073730 9.000000
134.095050 8.000000
134.102140 12.000000
135.080060 21.000000
136.061020 6.000000
136.075650 8.000000
138.092580 649.000000
139.098530 57.000000
140.107990 28.000000
140.112930 13.000000
141.073170 10.000000
144.077030 7.000000
144.096050 8.000000
145.063540 9.000000
146.095230 17.000000
147.081800 5.000000
147.102390 10.000000
147.118620 19.000000
148.095050 7.000000
148.112660 10.000000
149.125140 13.000000
149.516560 7.000000
151.076280 193.000000
153.257580 6.000000
156.103320 19.000000
157.104110 9.000000
157.116590 8.000000
157.953810 14.000000
163.069120 6.000000
164.343780 6.000000
165.864760 5.000000
168.094220 6.000000
172.103450 5.000000
172.116230 5.000000
174.129550 16.000000
175.074280 6.000000
179.071040 5.000000
179.082490 5.000000
185.099240 9.000000
186.092000 6.000000
193.046010 6.000000
194.117770 6.000000
197.077610 9.000000
204.146970 8.000000
208.171840 6.000000
211.100720 6.000000
220.904130 5.000000
224.117980 6.000000
226.116880 7.000000
226.132060 9.000000
239.142230 7.000000
241.426120 5.000000
244.174930 6.000000
246.146260 23.000000
274.138760 6.000000
274.156620 14.000000
288.157380 30.000000
288.173550 9.000000
290.174410 6.000000
306.136320 7.000000
306.161320 128.000000
306.172490 387.000000
307.157930 12.000000
307.178410 105.000000
308.166110 8.000000
308.184630 13.000000
316.163360 10.000000
334.118100 11.000000
334.166230 1000.000000

>ms2peaks
55.052870 22.000000
65.041790 82.000000
66.044220 26.000000
67.044620 35.000000
67.055270 307.000000
67.220480 21.000000
68.042870 22.000000
68.049350 90.000000
69.070080 42.000000
70.054750 21.000000
77.039790 436.000000
78.033330 82.000000
78.677930 25.000000
79.048770 26.000000
79.056570 245.000000
80.018680 32.000000
80.041030 22.000000
80.050770 267.000000
81.047860 24.000000
81.057960 62.000000
81.069630 153.000000
82.064970 194.000000
82.072170 38.000000
83.053370 36.000000
84.046330 123.000000
85.047390 24.000000
86.063130 22.000000
91.039900 25.000000
91.054210 662.000000
92.048540 61.000000
92.054780 78.000000
93.058330 72.000000
93.069200 58.000000
93.074520 37.000000
93.606310 21.000000
94.036510 43.000000
94.052480 45.000000
94.064680 1000.000000
94.078230 26.000000
94.600330 33.000000
95.071550 93.000000
95.084370 119.000000
96.074070 47.000000
96.082980 239.000000
103.050830 27.000000
103.056620 98.000000
103.591720 24.000000
104.054530 24.000000
105.054410 25.000000
105.058850 27.000000
105.066280 32.000000
105.074940 108.000000
106.064480 177.000000
106.072070 90.000000
107.045930 21.000000
107.073730 89.000000
107.086210 26.000000
108.078960 158.000000
108.089250 53.000000
109.049020 45.000000
109.060230 69.000000
109.069100 118.000000
110.060410 45.000000
110.083890 24.000000
112.071530 41.000000
117.074070 22.000000
118.041400 22.000000
118.059880 46.000000
118.066350 113.000000
118.072460 50.000000
119.066890 21.000000
119.073470 28.000000
120.033010 54.000000
120.074240 105.000000
120.081110 463.000000
121.087040 72.000000
121.093960 43.000000
123.071580 28.000000
126.091300 37.000000
127.996420 25.000000
128.053330 27.000000
128.063450 40.000000
129.074070 40.000000
130.062710 48.000000
131.079190 68.000000
131.087570 22.000000
133.079420 26.000000
135.046420 27.000000
138.083800 22.000000
138.093200 63.000000
138.101670 73.000000
139.059890 33.000000
141.067090 28.000000
142.070480 35.000000
142.077820 42.000000
144.081420 61.000000
145.096190 24.000000
146.102490 92.000000
147.067550 41.000000
148.113780 21.000000
151.076890 21.000000
153.066190 46.000000
154.075300 22.000000
156.087650 30.000000
157.090850 26.000000
158.101810 64.000000
162.123790 26.000000
165.057940 28.000000
166.074830 28.000000
170.099080 25.000000
172.114810 24.000000
179.076630 30.000000
186.127380 22.000000
205.677540 26.000000
244.174560 30.000000
265.432250 32.000000
281.608340 24.000000

