>compound PR02133088
>parentmass 307.17719999999997
>ionization [M+H]+
>formula C15H22N4O3
>rt 186.000000
>profile qtof
#smiles_iso COC1=C(C=CC(=C1)C=CC(=O)NCCCCN=C(N)N)O
#smiles_can COC1=C(C=CC(=C1)C=CC(=O)NCCCCN=C(N)N)O
#inchikey UBMDAKWARMURDL-UHFFFAOYSA-N
#pubchem_id 54344714
#mb_accession PR311014,PR311015

>ms2
95.047490 20.000000
114.105030 105.000000
114.354890 16.000000
115.092380 20.000000
116.748190 17.000000
117.031080 76.000000
117.042350 22.000000
117.319310 16.000000
131.135710 33.000000
134.038620 17.000000
135.038070 29.000000
145.032320 187.000000
145.040740 29.000000
149.051410 20.000000
157.116000 21.000000
164.065730 16.000000
177.042390 46.000000
177.056320 497.000000
178.048480 24.000000
178.068910 19.000000
221.993940 18.000000
232.136260 17.000000
247.008540 16.000000
248.127180 60.000000
250.134640 17.000000
290.119750 33.000000
290.158330 90.000000
307.013730 16.000000
307.042450 16.000000
307.121190 16.000000
307.177370 842.000000

>ms2
59.047270 21.000000
90.042350 18.000000
114.105430 60.000000
115.064890 16.000000
115.091320 16.000000
115.099980 17.000000
117.033960 214.000000
119.302570 17.000000
131.129810 37.000000
134.036270 17.000000
145.028590 456.000000
146.034480 88.000000
149.056720 57.000000
163.030780 20.000000
177.040100 62.000000
177.056030 972.000000
177.072810 26.000000
178.054280 89.000000
178.063350 53.000000
194.085570 18.000000
198.964370 21.000000
220.506620 16.000000
228.160250 18.000000
247.142720 34.000000
248.117580 69.000000
248.131090 55.000000
265.143190 18.000000
273.123540 30.000000
273.134610 39.000000
284.553500 20.000000
290.135990 25.000000
290.147860 71.000000
290.163300 120.000000
307.176940 1531.000000

