>compound PR02476808
>parentmass 741.2023
>ionization [M+H]+
>formula C36H36O17
>rt 252.600000
>profile qtof
#smiles_iso C1=CC(=CC=C1C=CC(=O)OCC2C(C(C(C(O2)OC3C(C(C(OC3C4=C(C5=C(C=C4O)OC(=CC5=O)C6=CC=C(C=C6)O)O)CO)O)O)O)O)O)O
#smiles_can C1=CC(=CC=C1C=CC(=O)OCC2C(C(C(C(O2)OC3C(C(C(OC3C4=C(C5=C(C=C4O)OC(=CC5=O)C6=CC=C(C=C6)O)O)CO)O)O)O)O)O)O
#inchikey RECLDAGWBWVMCW-UHFFFAOYSA-N
#pubchem_id 74977469
#mb_accession PR310984

>ms2
61.138250 24.000000
147.040770 152.000000
165.056340 20.000000
283.061280 58.000000
314.049620 30.000000
314.081330 21.000000
337.067870 34.000000
367.071200 24.000000
367.087190 24.000000
380.086910 23.000000
387.318850 27.000000
415.130220 16.000000
433.100100 63.000000
433.112240 39.000000
433.132930 39.000000
434.129580 24.000000
545.921020 21.000000
578.154720 16.000000
725.478030 18.000000
741.175350 40.000000
741.206910 222.000000

