>compound PR02887064
>parentmass 682.3721
>ionization [M+NH4]+
>formula C31H52O15
>rt 569.400000
>profile qtof
#smiles_iso CCCCCC(=O)OC1C(C(OC(C1OC(=O)CCCCC)OC2(C(C(C(O2)CO)OC(=O)C)O)CO)CO)OC(=O)CCCC
#smiles_can CCCCCC(=O)OC1C(C(OC(C1OC(=O)CCCCC)OC2(C(C(C(O2)CO)OC(=O)C)O)CO)CO)OC(=O)CCCC
#inchikey NNYRMMBHXZJRGM-UHFFFAOYSA-N
#pubchem_id 139291986
#mb_accession PR310741

>ms2
99.077930 37.000000
99.082380 34.000000
109.031830 20.000000
127.038060 17.000000
169.047040 16.000000
169.059220 22.000000
211.100600 17.000000
243.160140 20.000000
253.104870 23.000000
267.113800 18.000000
285.116210 21.000000
285.153200 17.000000
343.675510 19.000000
369.184540 17.000000
388.191830 20.000000
485.227230 17.000000
485.275940 279.000000
485.398710 19.000000
486.281280 18.000000
487.280300 16.000000
647.293210 19.000000
682.313660 17.000000
682.362180 69.000000
682.381350 47.000000

