>compound PR02854309
>parentmass 225.0910064
>ionization [M+H]+
>formula C15H12O2
>rt 510.233502
>profile qtof
#smiles_iso C1C(OC2=CC=CC=C2C1=O)C3=CC=CC=C3
#smiles_can C1C(OC2=CC=CC=C2C1=O)C3=CC=CC=C3
#inchikey ZONYXWQDUYMKFB-UHFFFAOYSA-N
#pubchem_id 10251
#mb_accession PR302484,PR302489,PR302495,PR302501,PR302507,PR302513,PR302519,PR302525,PR302531,PR302536,PR302542,PR302548,PR310482

>ms2
65.040370 25.000000
88.507440 5.000000
91.051140 9.000000
93.031800 21.000000
93.036990 13.000000
103.052980 116.000000
104.056070 8.000000
105.033540 8.000000
105.074200 8.000000
106.043370 6.000000
107.047470 5.000000
119.044880 7.000000
119.053700 10.000000
121.011090 9.000000
121.028600 656.000000
122.032870 52.000000
122.042710 7.000000
131.043580 77.000000
131.053340 59.000000
131.058530 20.000000
132.049880 15.000000
147.035950 34.000000
147.046750 72.000000
148.050400 9.000000
152.059430 5.000000
153.060610 8.000000
166.076970 6.000000
170.094040 6.000000
175.350590 7.000000
178.044010 5.000000
178.071400 24.000000
178.079880 52.000000
178.087430 14.000000
179.051540 6.000000
179.078050 42.000000
179.085950 119.000000
180.087690 11.000000
181.065430 29.000000
183.068910 7.000000
183.081380 13.000000
195.084340 5.000000
197.095020 8.000000
207.077130 62.000000
207.089260 20.000000
208.079710 19.000000
208.695220 6.000000
210.068440 292.000000
211.064670 16.000000
211.076510 16.000000
223.079420 12.000000
225.056430 6.000000
225.090960 1000.000000

>ms2
121.027340 48.000000
131.049550 16.000000
147.043700 19.000000
179.084400 15.000000
207.074860 9.000000
207.083070 15.000000
210.066570 65.000000
211.071810 9.000000
225.090970 1000.000000
225.136600 10.000000

>ms2
65.034360 14.000000
65.038980 63.000000
77.036200 69.000000
79.057350 24.000000
91.053960 6.000000
92.251430 6.000000
93.027920 65.000000
93.034480 143.000000
94.038340 6.000000
95.046040 6.000000
101.033790 10.000000
103.017760 12.000000
103.043080 43.000000
103.054470 256.000000
104.058290 29.000000
104.062980 19.000000
104.746510 6.000000
105.070640 12.000000
107.037540 6.000000
119.047030 14.000000
119.334650 8.000000
120.991710 11.000000
121.011010 47.000000
121.028280 1000.000000
122.029380 56.000000
122.038590 13.000000
127.053610 7.000000
129.032090 8.000000
129.037490 9.000000
131.036580 12.000000
131.046920 142.000000
132.046510 14.000000
132.062960 8.000000
133.053800 7.000000
141.069630 9.000000
147.039550 20.000000
147.046300 16.000000
147.052020 5.000000
148.048100 12.000000
151.047060 6.000000
153.071490 18.000000
154.082400 36.000000
155.086780 11.000000
164.064470 6.000000
165.067080 15.000000
166.083270 7.000000
176.057280 6.000000
177.053650 8.000000
177.067600 9.000000
178.016920 6.000000
178.075930 291.000000
179.075100 56.000000
179.085050 91.000000
179.092830 36.000000
180.097640 16.000000
181.040040 5.000000
181.050490 18.000000
181.062960 102.000000
181.130170 6.000000
182.058060 8.000000
182.070790 60.000000
182.892030 10.000000
193.069560 13.000000
205.072510 8.000000
206.468310 5.000000
207.079790 35.000000
207.087630 25.000000
210.068040 167.000000
211.064250 22.000000
211.076740 15.000000
223.070710 6.000000
225.085450 10.000000

>ms2
65.031570 136.000000
65.037270 109.000000
65.044910 125.000000
66.039970 217.000000
75.026200 125.000000
77.034360 168.000000
77.039090 717.000000
79.051370 141.000000
93.032580 783.000000
94.033830 136.000000
102.053600 266.000000
103.053750 707.000000
115.964110 92.000000
121.022670 272.000000
121.029040 429.000000
152.061870 489.000000
154.072080 109.000000
165.071560 114.000000
165.151370 98.000000
176.051100 136.000000
176.065860 283.000000
178.078950 1000.000000
179.052750 217.000000
181.063420 196.000000
182.072160 283.000000
224.082760 228.000000
225.081600 228.000000
225.102250 207.000000

>ms2
65.039380 7.000000
93.032910 48.000000
103.054060 54.000000
103.059590 39.000000
120.996730 6.000000
121.008580 6.000000
121.028250 516.000000
122.023880 8.000000
122.034400 17.000000
131.037900 8.000000
131.048220 101.000000
132.051740 7.000000
147.043620 95.000000
147.055240 6.000000
153.074360 10.000000
166.071700 5.000000
177.069640 8.000000
178.054690 10.000000
178.076770 45.000000
178.086590 13.000000
179.063670 7.000000
179.083950 96.000000
179.090790 37.000000
180.090420 11.000000
181.065230 6.000000
181.073670 7.000000
183.076250 11.000000
197.099640 9.000000
207.078190 59.000000
207.087650 22.000000
208.083070 15.000000
210.032170 9.000000
210.052030 15.000000
210.068830 166.000000
211.071270 16.000000
224.089630 7.000000
225.055220 10.000000
225.091230 1000.000000
225.137470 11.000000

>ms2
121.028200 53.000000
131.049030 16.000000
147.038470 18.000000
147.046400 15.000000
179.080460 8.000000
179.088810 13.000000
197.093200 8.000000
207.080760 36.000000
208.084010 6.000000
210.068600 59.000000
211.074720 6.000000
225.058180 8.000000
225.090840 1000.000000
225.133500 10.000000

>ms2
52.988120 9.000000
54.377160 7.000000
65.038670 102.000000
66.044010 6.000000
70.674700 8.000000
77.037160 27.000000
79.055210 50.000000
80.061590 6.000000
91.054370 50.000000
93.009530 9.000000
93.017520 10.000000
93.034380 335.000000
94.034150 9.000000
94.037450 23.000000
101.037610 16.000000
102.045990 6.000000
103.032130 7.000000
103.042870 23.000000
103.054400 508.000000
104.058080 39.000000
105.035970 34.000000
105.066170 10.000000
107.052150 7.000000
107.349850 8.000000
113.417560 14.000000
115.057290 6.000000
118.744000 6.000000
119.049080 6.000000
120.553810 5.000000
120.995830 6.000000
121.015050 21.000000
121.028820 1000.000000
122.028490 60.000000
122.036610 25.000000
123.031430 7.000000
125.765170 5.000000
127.053510 5.000000
128.129870 7.000000
130.039690 5.000000
131.036470 12.000000
131.049840 156.000000
132.041790 10.000000
132.049700 8.000000
135.174960 5.000000
147.025330 7.000000
147.040570 69.000000
151.052810 5.000000
151.058650 6.000000
152.045460 11.000000
153.047590 6.000000
153.058210 6.000000
153.069610 29.000000
154.081010 11.000000
155.079190 6.000000
164.063540 14.000000
165.066180 21.000000
165.074570 10.000000
169.104660 6.000000
176.049590 12.000000
176.060270 9.000000
177.070160 23.000000
178.057530 7.000000
178.079030 397.000000
179.066130 21.000000
179.086350 157.000000
180.084550 13.000000
181.035890 7.000000
181.062560 162.000000
181.846080 12.000000
182.073900 63.000000
183.073090 17.000000
192.054260 9.000000
195.073140 8.000000
207.077300 26.000000
207.085080 26.000000
208.084560 13.000000
209.059020 15.000000
209.068020 11.000000
210.069810 128.000000
211.071170 10.000000
223.075470 12.000000
224.073990 5.000000

>ms2
65.035040 133.000000
65.040050 133.000000
77.034210 76.000000
77.041000 92.000000
93.027950 80.000000
93.034940 325.000000
103.054210 1000.000000
104.058530 80.000000
121.030240 261.000000
122.028340 217.000000
131.050190 333.000000
139.063260 149.000000
151.056750 225.000000
152.053630 116.000000
152.062880 329.000000
153.066730 201.000000
154.070110 92.000000
176.063080 406.000000
176.068120 157.000000
177.068560 124.000000
178.061580 92.000000
178.078020 181.000000
179.076860 104.000000
181.064510 301.000000
182.061780 84.000000
189.066850 133.000000
211.062710 80.000000
225.081510 88.000000
225.093510 422.000000

>ms2
65.037940 9.000000
77.035390 6.000000
91.059770 6.000000
93.033010 37.000000
93.039630 7.000000
94.038540 6.000000
103.043070 7.000000
103.054190 83.000000
105.033200 12.000000
107.047290 5.000000
119.046520 11.000000
121.028240 504.000000
122.032070 48.000000
131.032410 6.000000
131.048600 142.000000
132.054990 11.000000
147.045070 103.000000
148.042650 8.000000
153.068700 9.000000
165.068470 7.000000
176.009630 6.000000
177.067310 11.000000
178.077550 71.000000
179.064620 7.000000
179.084300 136.000000
180.090560 19.000000
180.099810 7.000000
181.055240 8.000000
181.068530 20.000000
182.067890 21.000000
183.025380 7.000000
183.086230 9.000000
197.096220 14.000000
207.080470 65.000000
208.077090 7.000000
210.066960 200.000000
211.070940 25.000000
212.057740 6.000000
212.073350 10.000000
225.068300 9.000000
225.090910 1000.000000
225.132930 9.000000

>ms2
121.023630 26.000000
121.030110 37.000000
131.044270 5.000000
131.050740 10.000000
147.043460 30.000000
179.084660 19.000000
207.079940 29.000000
210.060390 26.000000
210.069900 49.000000
211.070450 6.000000
225.089900 1000.000000
225.134090 11.000000

>ms2
58.731660 7.000000
65.019360 7.000000
65.037290 63.000000
77.037450 83.000000
78.037110 10.000000
79.055200 33.000000
91.056640 15.000000
92.056540 13.000000
93.032080 328.000000
93.038760 56.000000
94.038790 6.000000
102.045880 6.000000
103.054660 467.000000
104.057280 48.000000
107.048560 10.000000
111.039600 9.000000
120.931310 6.000000
121.002890 14.000000
121.008550 23.000000
121.028120 1000.000000
122.032630 115.000000
127.051630 6.000000
129.028730 8.000000
129.037570 15.000000
131.049360 177.000000
132.054660 26.000000
147.041810 29.000000
147.050550 27.000000
148.050370 9.000000
151.040880 5.000000
151.441070 6.000000
152.068080 9.000000
153.064210 6.000000
154.076780 21.000000
154.788990 5.000000
164.060970 18.000000
165.067760 32.000000
176.060170 14.000000
177.067000 10.000000
178.058320 14.000000
178.078080 312.000000
179.083760 176.000000
180.089170 6.000000
181.063930 129.000000
182.070880 44.000000
183.076830 7.000000
184.078490 6.000000
205.070940 14.000000
207.081890 23.000000
210.069660 104.000000
211.026520 7.000000
211.086590 5.000000

>ms2
65.037760 251.000000
65.042020 105.000000
66.049860 126.000000
77.038800 515.000000
91.054000 259.000000
93.035220 414.000000
103.051390 1000.000000
103.177600 121.000000
107.053540 84.000000
128.060330 117.000000
151.046140 96.000000
152.056580 188.000000
153.064210 201.000000
153.071870 130.000000
176.061460 205.000000
178.083540 134.000000
181.064730 146.000000
184.084150 75.000000
225.067810 138.000000
225.091310 126.000000

>ms2
52.916970 19.000000
65.031660 19.000000
65.040370 151.000000
67.468100 17.000000
77.033970 24.000000
77.040390 25.000000
79.052960 18.000000
88.507440 33.000000
91.045490 15.000000
91.051140 57.000000
91.055030 29.000000
92.057310 25.000000
93.031800 130.000000
93.036990 80.000000
94.040460 18.000000
97.944090 17.000000
102.964290 28.000000
103.014200 27.000000
103.052980 708.000000
104.056070 50.000000
105.033540 46.000000
105.052650 18.000000
105.066680 20.000000
105.074200 47.000000
106.043370 35.000000
107.047470 32.000000
107.054180 25.000000
119.044880 40.000000
119.053700 59.000000
121.011090 56.000000
121.028600 3992.000000
121.083190 20.000000
122.032870 318.000000
122.042710 44.000000
122.075910 22.000000
122.752830 19.000000
123.033230 20.000000
124.089240 17.000000
124.625690 21.000000
124.997060 20.000000
129.035630 23.000000
131.021740 30.000000
131.043580 468.000000
131.053340 359.000000
131.058530 121.000000
132.025920 26.000000
132.049880 92.000000
132.060200 20.000000
133.047450 28.000000
137.220460 17.000000
139.802050 20.000000
147.035950 209.000000
147.046750 438.000000
147.842790 20.000000
148.042220 19.000000
148.050400 56.000000
152.059430 31.000000
152.064960 27.000000
153.060610 50.000000
153.070140 27.000000
153.751270 24.000000
154.062300 28.000000
154.405300 27.000000
155.091520 20.000000
165.063840 30.000000
165.080310 28.000000
166.076970 39.000000
167.078580 20.000000
169.094880 27.000000
169.108430 28.000000
170.094040 34.000000
175.350590 42.000000
175.614320 17.000000
177.065190 19.000000
177.072560 26.000000
178.029140 28.000000
178.044010 32.000000
178.071400 146.000000
178.079880 316.000000
178.087430 85.000000
178.162250 18.000000
179.051540 36.000000
179.078050 255.000000
179.085950 726.000000
180.079280 30.000000
180.087690 67.000000
180.193210 18.000000
181.047910 20.000000
181.065430 178.000000
181.090530 21.000000
182.067950 20.000000
182.084080 29.000000
183.068910 42.000000
183.081380 79.000000
195.084340 32.000000
197.095020 50.000000
207.077130 375.000000
207.089260 124.000000
208.079710 117.000000
208.090560 22.000000
208.695220 38.000000
210.068440 1774.000000
210.180330 27.000000
211.064670 98.000000
211.076510 96.000000
212.039870 20.000000
212.068390 22.000000
223.061710 21.000000
223.079420 73.000000
224.816360 18.000000
225.056430 35.000000
225.090960 6082.000000

