>compound PR03329959
>parentmass 767.4940041
>ionization [M+H]+
>formula C42H70O12
>rt 577.972980
>profile qtof
#smiles_iso CC(=CC/C=C(/C)\[C@H]1CC[C@@]2([C@@H]1[C@@H](C[C@H]3[C@]2(CC[C@@H]4[C@@]3(CC[C@@H](C4(C)C)O[C@H]5[C@@H]([C@H]([C@@H]([C@H](O5)CO)O)O)O[C@H]6[C@@H]([C@H]([C@@H]([C@H](O6)CO)O)O)O)C)C)O)C)C
#smiles_can CC(=CCC=C(C)C1CCC2(C1C(CC3C2(CCC4C3(CCC(C4(C)C)OC5C(C(C(C(O5)CO)O)O)OC6C(C(C(C(O6)CO)O)O)O)C)C)O)C)C
#inchikey NJUXRKMKOFXMRX-OOFHPJNRSA-N
#pubchem_id 11499199
#mb_accession PR304418,PR304420,PR304422,PR304424,PR304426,PR304428,PR304429,PR304431,PR304433,PR304435,PR304437,PR304439

>ms2
121.099490 103.000000
127.107150 374.000000
145.047940 135.000000
147.118180 129.000000
149.126240 219.000000
163.062900 265.000000
179.148220 103.000000
189.150970 245.000000
189.166900 110.000000
189.175220 110.000000
191.185150 116.000000
204.190440 103.000000
208.159930 135.000000
217.162960 110.000000
217.181030 103.000000
241.196460 116.000000
245.230940 148.000000
262.224210 161.000000
271.707790 129.000000
272.256410 103.000000
289.081940 129.000000
295.246640 148.000000
349.236820 187.000000
369.332700 219.000000
370.233520 110.000000
407.351100 219.000000
407.366360 723.000000
408.369140 213.000000
409.385380 129.000000
425.380000 1000.000000
425.406460 110.000000
426.381810 342.000000
443.395390 103.000000
459.329650 116.000000
486.330600 103.000000
502.372310 103.000000
521.371770 103.000000
551.393250 116.000000
569.416990 103.000000
588.443120 219.000000
605.465030 110.000000
606.472470 110.000000
767.439820 123.000000
767.480530 484.000000
767.510440 374.000000

>ms2
127.111510 123.000000
163.057950 51.000000
271.073460 83.000000
325.110470 46.000000
407.351780 120.000000
407.369810 51.000000
408.367100 49.000000
409.379360 51.000000
425.320220 49.000000
425.353670 51.000000
425.370820 203.000000
425.408330 63.000000
426.385800 146.000000
443.376740 63.000000
443.399660 57.000000
444.396580 51.000000
448.960050 46.000000
497.400730 46.000000
551.426210 57.000000
569.379580 51.000000
587.396910 57.000000
587.428590 51.000000
588.436830 49.000000
605.404720 46.000000
605.455990 146.000000
606.452330 49.000000
731.448000 63.000000
731.475400 46.000000
736.120610 46.000000
749.523930 51.000000
766.484620 206.000000
767.440610 57.000000
767.496580 1000.000000
767.596620 46.000000

>ms2
85.028870 108.000000
99.077850 101.000000
107.091780 108.000000
121.101580 165.000000
127.039850 101.000000
135.116880 101.000000
145.047880 418.000000
145.092190 165.000000
146.039020 127.000000
147.060230 114.000000
149.130400 101.000000
150.134410 146.000000
163.057860 158.000000
163.065060 177.000000
175.148420 114.000000
176.159000 108.000000
189.130480 127.000000
189.166840 108.000000
203.146240 152.000000
203.156600 101.000000
203.179930 101.000000
205.192550 127.000000
216.192400 101.000000
217.191820 177.000000
217.204240 443.000000
251.184740 114.000000
253.199660 101.000000
255.206850 114.000000
276.240170 108.000000
285.263640 348.000000
300.213040 101.000000
313.261170 152.000000
314.243100 108.000000
318.216830 108.000000
324.224330 101.000000
325.293610 101.000000
369.325260 101.000000
386.137760 184.000000
405.322970 108.000000
407.354680 234.000000
407.369290 380.000000
407.384030 228.000000
408.365080 101.000000
408.383420 234.000000
425.376310 1000.000000
426.373600 101.000000
426.390260 101.000000
438.360690 114.000000
443.274260 108.000000
443.361540 114.000000
443.391720 297.000000
454.428860 108.000000
515.392820 108.000000
533.446170 114.000000
587.436580 108.000000
605.451970 108.000000
767.497920 114.000000

>ms2
67.057890 186.000000
81.066730 186.000000
85.028720 186.000000
107.087030 330.000000
109.099650 392.000000
111.062450 216.000000
119.086210 206.000000
121.108700 196.000000
127.048260 175.000000
135.118350 165.000000
145.049260 268.000000
145.098710 206.000000
145.105930 186.000000
147.119190 165.000000
149.136780 165.000000
150.130370 278.000000
159.124540 165.000000
161.131150 196.000000
175.149350 392.000000
176.146650 289.000000
177.131230 175.000000
181.097550 186.000000
187.151810 237.000000
189.153780 237.000000
189.162830 1000.000000
208.222500 175.000000
217.206600 258.000000
255.157040 165.000000
258.229160 175.000000
275.166290 165.000000

>ms2
135.112110 82.000000
145.053620 82.000000
145.060360 78.000000
148.121960 215.000000
155.196410 96.000000
163.152860 73.000000
165.155850 78.000000
177.163940 78.000000
189.168980 82.000000
203.187230 110.000000
207.175200 283.000000
213.178010 78.000000
215.175670 73.000000
217.193510 82.000000
243.195530 78.000000
246.237920 119.000000
247.204130 96.000000
259.255250 91.000000
273.260830 105.000000
275.228450 91.000000
283.252200 91.000000
299.270140 73.000000
324.249360 91.000000
325.107150 91.000000
325.119170 82.000000
369.899110 128.000000
395.370610 73.000000
407.354680 169.000000
407.371860 411.000000
408.353550 110.000000
408.379910 132.000000
409.375670 91.000000
425.383580 740.000000
426.381770 119.000000
433.363680 146.000000
443.386870 361.000000
535.399230 78.000000
569.417720 96.000000
587.426880 114.000000
605.426450 164.000000
605.453310 192.000000
607.461060 78.000000
748.476930 78.000000
765.479550 73.000000
766.465030 73.000000
766.493470 137.000000
767.489620 1000.000000

>ms2
123.125050 45.000000
127.116660 45.000000
189.162310 42.000000
305.481380 60.000000
325.110440 186.000000
327.119420 89.000000
336.289220 42.000000
406.370390 58.000000
407.334110 45.000000
407.370360 226.000000
407.387730 55.000000
423.368320 52.000000
425.328700 42.000000
425.370300 171.000000
425.395170 171.000000
425.480620 42.000000
443.376130 42.000000
443.393160 42.000000
444.379150 47.000000
444.417140 63.000000
445.416170 60.000000
587.424740 45.000000
605.418640 47.000000
605.445310 194.000000
605.495420 68.000000
749.496700 76.000000
750.503480 42.000000
765.448060 47.000000
766.338930 42.000000
766.463440 55.000000
766.514470 50.000000
767.499150 1000.000000

>ms2
81.068270 170.000000
85.027410 248.000000
85.035550 255.000000
100.085320 128.000000
109.091670 113.000000
109.099180 142.000000
123.117070 426.000000
127.037550 142.000000
134.108250 121.000000
145.052980 135.000000
149.126740 170.000000
149.136760 142.000000
152.154330 113.000000
163.056530 177.000000
163.146670 234.000000
168.105470 113.000000
175.150570 121.000000
185.141340 121.000000
189.164930 149.000000
191.178920 121.000000
193.158770 135.000000
201.172330 199.000000
203.144870 113.000000
203.177110 255.000000
203.188690 121.000000
205.159620 121.000000
207.169390 270.000000
207.181150 142.000000
217.189500 305.000000
221.179520 113.000000
227.184800 113.000000
243.222090 170.000000
251.145900 113.000000
253.150560 142.000000
255.196120 121.000000
255.205230 128.000000
257.231350 128.000000
269.234680 121.000000
271.229830 113.000000
277.189910 191.000000
289.082340 156.000000
289.163510 142.000000
297.250950 142.000000
297.273070 128.000000
311.196810 113.000000
325.094600 113.000000
325.113980 128.000000
329.221800 142.000000
343.288760 326.000000
393.378970 113.000000
406.316740 113.000000
407.357240 113.000000
407.373470 113.000000
408.381680 113.000000
409.316960 121.000000
425.374110 1000.000000
426.381290 298.000000
443.408170 121.000000
515.384030 121.000000
605.402770 376.000000
626.657230 142.000000
750.477600 113.000000

>ms2
69.071610 247.000000
73.031320 219.000000
85.030110 342.000000
93.070250 274.000000
95.086720 452.000000
108.095520 233.000000
109.085090 342.000000
109.096510 356.000000
109.106350 219.000000
110.106080 247.000000
118.357220 219.000000
119.086330 315.000000
121.101680 959.000000
123.069400 219.000000
124.126970 274.000000
133.097380 342.000000
135.118610 315.000000
135.125760 260.000000
147.120410 1000.000000
147.124680 370.000000
149.128270 329.000000
159.112010 548.000000
161.128830 233.000000
163.155930 219.000000
175.157810 534.000000
189.139850 219.000000
189.165340 288.000000
189.173580 233.000000
203.152040 219.000000
204.188740 274.000000
217.190840 274.000000
217.202990 274.000000
218.192700 274.000000
221.194920 247.000000
225.172910 219.000000
227.179490 260.000000
227.475370 219.000000
229.201070 233.000000
240.188280 274.000000
241.067200 233.000000
245.230290 247.000000
271.236850 219.000000
321.271210 247.000000
337.306150 342.000000
342.327550 274.000000
365.314300 247.000000

>ms2
83.081000 127.000000
123.119380 127.000000
145.047670 135.000000
147.118320 143.000000
159.117650 159.000000
163.005520 127.000000
163.061460 286.000000
163.070360 183.000000
163.146550 127.000000
189.166790 317.000000
191.179870 159.000000
203.183030 135.000000
204.187480 127.000000
207.171420 302.000000
217.174760 151.000000
218.204240 230.000000
234.193470 127.000000
241.190510 127.000000
274.262510 214.000000
314.298550 127.000000
367.249630 127.000000
370.315060 127.000000
381.171170 151.000000
405.366300 127.000000
406.354710 183.000000
407.354520 127.000000
407.387480 190.000000
408.371280 135.000000
408.383790 167.000000
425.371060 294.000000
425.382600 1000.000000
426.371770 127.000000
426.388460 127.000000
427.389830 421.000000
491.394230 167.000000
514.351320 127.000000
516.390930 135.000000
589.445860 127.000000
605.426270 159.000000
605.446170 214.000000
606.457760 405.000000
607.443050 143.000000
713.460510 143.000000
765.489500 143.000000
766.470950 127.000000
766.492130 183.000000
767.482240 794.000000
767.524960 127.000000
767.575740 159.000000

>ms2
109.104930 66.000000
116.997280 63.000000
189.170470 81.000000
204.196960 59.000000
286.240970 59.000000
325.103180 59.000000
325.122740 162.000000
327.109680 77.000000
343.127840 81.000000
351.282140 59.000000
369.295440 59.000000
407.358340 133.000000
407.374820 111.000000
407.402500 66.000000
408.375400 85.000000
408.391850 125.000000
409.425900 59.000000
425.342500 155.000000
425.362240 107.000000
425.396550 199.000000
426.349820 59.000000
426.369020 151.000000
426.412020 66.000000
443.366880 63.000000
443.388210 70.000000
487.158720 85.000000
505.142640 100.000000
524.400270 59.000000
569.383180 59.000000
587.384580 59.000000
605.403380 144.000000
605.467100 181.000000
606.421810 59.000000
606.472050 59.000000
606.489930 74.000000
749.426640 63.000000
749.448910 59.000000
750.480100 59.000000
750.502560 59.000000
761.112610 59.000000
765.454530 59.000000
767.432190 74.000000
767.468200 1000.000000
767.510190 502.000000
767.548100 435.000000

>ms2
85.031200 198.000000
95.082420 151.000000
97.029720 217.000000
99.081300 340.000000
109.109330 160.000000
121.102780 349.000000
123.112820 358.000000
127.037550 170.000000
135.105000 170.000000
145.047100 491.000000
145.058720 274.000000
147.123470 151.000000
159.121370 160.000000
161.138490 198.000000
163.054410 396.000000
163.066570 151.000000
173.139420 198.000000
175.145830 151.000000
177.180020 160.000000
189.162200 151.000000
189.170530 396.000000
191.171400 151.000000
191.188030 151.000000
199.152470 151.000000
201.120940 151.000000
201.167160 151.000000
202.166960 151.000000
203.148670 160.000000
205.204180 160.000000
207.167160 151.000000
207.175990 208.000000
218.197400 189.000000
219.133870 160.000000
219.209840 160.000000
227.175540 198.000000
241.194490 151.000000
245.228150 160.000000
255.197110 151.000000
271.230900 151.000000
285.265500 151.000000
287.270420 208.000000
299.257660 151.000000
332.266780 160.000000
342.883210 198.000000
351.297850 151.000000
379.256010 151.000000
379.319550 151.000000
382.326810 217.000000
396.992650 151.000000
407.367740 1000.000000
408.388580 170.000000
425.352420 217.000000
425.383760 500.000000
426.371580 189.000000
426.388490 179.000000
443.384340 151.000000
443.404880 170.000000
444.397800 189.000000
496.368650 217.000000
497.368290 236.000000
541.467710 189.000000
569.430240 236.000000
605.404660 151.000000
679.432620 160.000000

>ms2
81.068240 488.000000
85.028790 195.000000
95.085090 220.000000
97.636250 220.000000
107.084150 476.000000
109.101740 732.000000
109.108180 232.000000
110.104360 195.000000
121.099710 293.000000
123.119190 390.000000
127.038200 439.000000
127.046040 195.000000
129.051480 220.000000
133.101960 207.000000
137.133560 195.000000
145.053710 220.000000
145.106030 195.000000
146.101270 305.000000
147.118870 1000.000000
157.102100 195.000000
161.082090 207.000000
161.131290 207.000000
161.141780 232.000000
164.150730 195.000000
173.129180 232.000000
176.156890 256.000000
188.148440 220.000000
189.162380 402.000000
189.173370 220.000000
190.180390 220.000000
191.187100 439.000000
192.176320 256.000000
192.194340 293.000000
201.115220 207.000000
203.178070 280.000000
207.172850 195.000000
215.144580 293.000000
215.151860 549.000000
217.193630 220.000000
218.186840 232.000000
218.197130 439.000000
229.165820 220.000000
255.210540 463.000000
257.225770 390.000000
283.233950 390.000000
297.248930 207.000000
355.659670 244.000000

