>compound PR03010591
>parentmass 361.1407
>ionization [M+H]+
>formula C18H20N2O6
>rt 238.800000
>profile qtof
#smiles_iso C1=CC(=CC=C1CC(C(=O)O)N)OC2=C(C=CC(=C2)CC(C(=O)O)N)O
#smiles_can C1=CC(=CC=C1CC(C(=O)O)N)OC2=C(C=CC(=C2)CC(C(=O)O)N)O
#inchikey FWZXNPNHUWFOCM-UHFFFAOYSA-N
#pubchem_id 14309606
#mb_accession PR311146

>ms2peaks
96.082630 23.000000
112.073650 21.000000
120.054180 18.000000
136.081130 18.000000
145.049220 76.000000
146.051040 25.000000
146.062590 27.000000
147.063320 30.000000
148.038740 154.000000
166.085160 16.000000
166.094910 40.000000
172.039890 17.000000
181.079940 24.000000
190.050800 18.000000
190.061420 17.000000
194.083720 18.000000
223.721370 16.000000
255.073900 20.000000
255.113980 23.000000
263.117460 52.000000
286.098910 20.000000
298.766050 16.000000
299.139500 45.000000
299.158970 24.000000
300.153960 34.000000
301.107790 18.000000
301.119200 26.000000
302.125340 17.000000
317.132350 30.000000
317.149840 71.000000
317.162350 18.000000
318.153720 17.000000
344.141170 17.000000
346.139560 21.000000

