>compound PR03765537
>parentmass 396.3271
>ionization [M+H]+
>formula C27H41NO
>rt 356.400000
>profile qtof
#smiles_iso CC1CCC2(C(C3C(O2)CC4C3(CCC5C4CC=C6C5(CCC=C6)C)C)C)NC1
#smiles_can CC1CCC2(C(C3C(O2)CC4C3(CCC5C4CC=C6C5(CCC=C6)C)C)C)NC1
#inchikey OYNIUJOJEWHJPN-UHFFFAOYSA-N
#pubchem_id 495009
#mb_accession PR310695

>ms2peaks
81.070530 18.000000
103.093010 20.000000
173.087140 24.000000
246.851610 33.000000
268.092830 24.000000
381.247920 37.000000
395.200840 18.000000
396.298310 27.000000
396.324370 685.000000
396.345430 125.000000

