>compound PR03234859
>parentmass 465.1027525
>ionization [M+H]+
>formula C21H20O12
>rt 241.552020
>profile qtof
#smiles_iso C1=CC(=C(C=C1C2=C(C(=O)C3=C(C=C(C=C3O2)O)O)O[C@H]4[C@@H]([C@H]([C@@H]([C@H](O4)CO)O)O)O)O)O
#smiles_can C1=CC(=C(C=C1C2=C(C(=O)C3=C(C=C(C=C3O2)O)O)OC4C(C(C(C(O4)CO)O)O)O)O)O
#inchikey OVSQVDMCBVZWGM-QSOFNFLRSA-N
#pubchem_id 5280804
#mb_accession PR302800,PR302805,PR302810,PR302815,PR302820,PR302825,PR302830,PR302835,PR302840,PR302845,PR302850,PR302855

>ms2peaks
84.990520 7.000000
111.010060 10.000000
127.029650 8.000000
127.039110 8.000000
145.049000 7.000000
153.017440 27.000000
163.044360 7.000000
201.050810 8.000000
219.026550 12.000000
229.031520 10.000000
229.053500 7.000000
257.038970 8.000000
258.862790 12.000000
302.852420 7.000000
303.009860 8.000000
303.049220 1000.000000
304.050350 135.000000
304.065220 28.000000
304.084560 8.000000
305.053280 12.000000
305.064700 22.000000
315.626340 8.000000
355.897430 7.000000
370.036650 10.000000
426.944060 9.000000
430.103700 8.000000
465.029570 7.000000
465.081240 11.000000
465.115020 45.000000

>ms2peaks
65.401370 8.000000
145.041730 7.000000
145.050130 9.000000
217.812180 12.000000
255.666140 8.000000
302.040340 14.000000
302.985930 23.000000
303.047390 1000.000000
304.026700 9.000000
304.044950 64.000000
304.060180 181.000000
305.036220 8.000000
305.053710 21.000000
306.646300 8.000000
306.711460 10.000000
359.692960 15.000000
464.085600 7.000000
465.096280 162.000000
465.111450 150.000000

>ms2peaks
69.032540 10.000000
81.037070 10.000000
85.027310 35.000000
86.815740 6.000000
97.034530 10.000000
119.015670 9.000000
127.034810 9.000000
165.015340 11.000000
192.725620 7.000000
229.057430 7.000000
247.056270 7.000000
276.145750 13.000000
286.919130 6.000000
301.032320 7.000000
302.037660 8.000000
302.994900 11.000000
303.051300 1000.000000
304.007570 15.000000
304.044070 55.000000
304.060760 73.000000
305.048280 10.000000
305.057830 19.000000
305.072420 10.000000

>ms2peaks
69.032250 124.000000
70.037220 100.000000
85.024020 153.000000
107.041020 124.000000
109.027420 265.000000
121.020900 112.000000
125.022190 159.000000
129.063250 159.000000
135.045200 271.000000
137.020690 465.000000
138.024830 147.000000
143.049510 200.000000
145.056990 212.000000
145.063660 218.000000
151.937380 112.000000
153.020480 388.000000
155.053020 176.000000
157.742430 112.000000
163.014470 271.000000
163.044620 100.000000
165.011800 188.000000
165.018360 418.000000
183.041790 247.000000
188.033110 159.000000
191.062240 106.000000
201.054410 394.000000
203.058290 100.000000
204.043660 276.000000
205.043060 200.000000
215.028120 235.000000
229.019640 135.000000
229.048400 1000.000000
231.042740 159.000000
232.043050 129.000000
245.046300 135.000000
246.050480 129.000000
248.054170 100.000000
257.045350 100.000000
257.057340 306.000000
274.044070 218.000000
282.010160 118.000000
301.028960 153.000000
303.046300 700.000000
305.020080 153.000000

>ms2peaks
85.028340 33.000000
97.028240 7.000000
101.019590 11.000000
127.022860 15.000000
137.016300 10.000000
137.023450 29.000000
138.022780 13.000000
145.043700 19.000000
174.060610 11.000000
201.059860 21.000000
229.042180 13.000000
229.048870 8.000000
258.035370 13.000000
301.038480 8.000000
302.034060 13.000000
303.012450 7.000000
303.048800 1000.000000
304.040800 29.000000
304.054140 137.000000
304.080540 15.000000
304.164400 8.000000
329.173580 7.000000
345.050350 10.000000
465.085240 10.000000
465.107390 31.000000

>ms2peaks
85.030720 15.000000
128.042820 8.000000
163.055500 12.000000
183.318920 10.000000
191.194870 7.000000
193.394490 9.000000
300.932860 6.000000
303.022950 30.000000
303.049740 1000.000000
304.014830 11.000000
304.055270 171.000000
305.000730 9.000000
305.056090 25.000000
383.068660 11.000000
400.069460 12.000000
447.092800 13.000000
464.744510 8.000000
465.056490 12.000000
465.090000 144.000000
465.107210 169.000000

>ms2peaks
69.030540 15.000000
69.034630 7.000000
81.034390 8.000000
85.022380 12.000000
85.921690 7.000000
127.035170 9.000000
127.044400 9.000000
152.996220 7.000000
189.554490 19.000000
204.889020 7.000000
213.045560 9.000000
230.055760 12.000000
257.033750 15.000000
275.065250 13.000000
299.261320 13.000000
302.027280 15.000000
303.049990 1000.000000
303.084660 9.000000
304.025850 7.000000
304.039280 34.000000
304.053340 105.000000
304.067960 26.000000
305.055690 23.000000
306.051570 14.000000
369.082430 9.000000

>ms2peaks
69.000330 127.000000
69.040910 139.000000
85.029770 103.000000
93.030450 182.000000
97.033690 255.000000
106.233270 139.000000
121.031970 127.000000
127.028710 152.000000
127.037560 182.000000
137.001040 200.000000
137.024920 442.000000
138.022110 176.000000
139.039980 267.000000
145.065440 285.000000
152.993270 121.000000
153.014970 848.000000
154.018170 158.000000
157.065090 139.000000
163.041790 370.000000
165.016040 424.000000
166.026780 164.000000
174.063250 109.000000
179.027690 109.000000
183.026060 212.000000
183.041090 121.000000
187.037770 121.000000
191.031360 152.000000
201.056690 212.000000
201.066300 109.000000
202.052540 109.000000
202.210920 224.000000
210.063800 194.000000
219.008090 109.000000
229.021130 152.000000
229.047990 1000.000000
229.065480 109.000000
230.051440 109.000000
233.044450 103.000000
245.056200 127.000000
247.051800 127.000000
248.051560 127.000000
257.041630 224.000000
257.060460 424.000000
285.061340 133.000000
303.055630 133.000000
309.978000 109.000000

>ms2peaks
69.029440 9.000000
85.027910 11.000000
93.029990 14.000000
115.035580 7.000000
121.029300 9.000000
127.038250 19.000000
145.059170 10.000000
147.046550 10.000000
152.000350 6.000000
164.102230 8.000000
165.013570 13.000000
229.043750 19.000000
278.665370 11.000000
285.047240 7.000000
288.983980 6.000000
295.685210 7.000000
302.037260 10.000000
302.050020 11.000000
302.610290 6.000000
303.013730 22.000000
303.050810 1000.000000
304.014100 7.000000
304.027470 29.000000
304.052980 95.000000
304.063630 35.000000
304.080990 11.000000
304.670930 7.000000
305.047760 19.000000
305.072970 15.000000
306.968660 6.000000
315.067140 11.000000
345.069340 10.000000
394.073360 8.000000
465.100770 16.000000

>ms2peaks
85.028710 11.000000
127.034170 11.000000
145.041410 11.000000
145.051380 9.000000
200.851210 20.000000
218.043030 7.000000
302.977290 14.000000
302.997380 14.000000
303.048070 1000.000000
303.932220 12.000000
303.983520 10.000000
304.049130 242.000000
305.035890 9.000000
305.050200 6.000000
305.067200 13.000000
306.581480 7.000000
369.058260 7.000000
463.080410 11.000000
464.106410 6.000000
465.055630 12.000000
465.100920 248.000000

>ms2peaks
68.995490 13.000000
68.999360 9.000000
85.023490 10.000000
109.029570 14.000000
115.040540 8.000000
123.049870 7.000000
127.028500 20.000000
127.039660 21.000000
137.025760 7.000000
146.042050 8.000000
153.019410 14.000000
161.058430 7.000000
165.014420 28.000000
177.029800 7.000000
197.841320 8.000000
223.044070 6.000000
229.039870 7.000000
229.058640 9.000000
258.051300 13.000000
275.045900 11.000000
286.071660 8.000000
291.094760 22.000000
302.989620 6.000000
303.035100 175.000000
303.050450 1000.000000
303.077760 17.000000
304.019620 6.000000
304.038670 15.000000
304.052890 95.000000
304.064450 65.000000
305.044590 11.000000
305.058960 9.000000
305.576390 8.000000
306.063630 19.000000
327.039610 11.000000
354.967380 9.000000
369.053560 7.000000
411.024230 7.000000
427.093510 10.000000

>ms2peaks
67.017250 92.000000
67.052850 115.000000
81.028940 106.000000
81.036070 111.000000
85.029590 184.000000
93.040730 281.000000
95.016850 175.000000
95.041430 134.000000
111.008150 194.000000
121.026500 189.000000
121.034130 92.000000
127.043350 78.000000
137.020400 788.000000
138.029620 124.000000
145.026110 92.000000
153.014650 447.000000
153.023100 88.000000
156.055100 83.000000
163.039150 101.000000
163.078220 157.000000
164.986070 184.000000
165.012370 147.000000
165.019710 355.000000
167.049270 276.000000
173.051350 166.000000
201.046080 217.000000
201.060700 115.000000
202.055570 253.000000
205.031650 171.000000
211.041580 115.000000
213.053820 111.000000
219.024780 198.000000
219.054240 124.000000
220.175840 120.000000
228.040480 382.000000
229.047580 1000.000000
230.052190 101.000000
234.047900 106.000000
257.045530 83.000000
258.056950 83.000000
274.060970 143.000000
285.046750 92.000000
303.020110 134.000000
303.037870 493.000000
303.054200 613.000000
304.050110 184.000000
436.410030 143.000000

