>compound PR03351180
>parentmass 449.1078379
>ionization [M+H]+
>formula C21H20O11
>rt 222.940980
>profile qtof
#smiles_iso C1=CC(=C(C=C1C2=CC(=O)C3=C(O2)C(=C(C=C3O)O)[C@H]4[C@@H]([C@H]([C@@H]([C@H](O4)CO)O)O)O)O)O
#smiles_can C1=CC(=C(C=C1C2=CC(=O)C3=C(O2)C(=C(C=C3O)O)C4C(C(C(C(O4)CO)O)O)O)O)O
#inchikey PLAPMLGJVGLZOV-VPRICQMDSA-N
#pubchem_id 5281675
#mb_accession PR302152,PR302157,PR302162,PR302167,PR302172,PR302177,PR302182,PR302187,PR302192,PR302197,PR302202,PR302207

>ms2peaks
109.027970 5.000000
163.038620 5.000000
165.016400 13.000000
217.049060 12.000000
227.052960 6.000000
229.051770 6.000000
243.033290 14.000000
259.062440 15.000000
271.056550 13.000000
272.057890 5.000000
272.066590 5.000000
273.073730 9.000000
287.050480 18.000000
289.068660 6.000000
299.053740 204.000000
299.089320 6.000000
300.030120 6.000000
300.058010 106.000000
301.064850 12.000000
302.070740 13.000000
311.057830 68.000000
312.057430 7.000000
313.057310 12.000000
313.071810 37.000000
314.068850 8.000000
324.056920 10.000000
327.037410 16.000000
327.051790 10.000000
329.025670 6.000000
329.066010 315.000000
330.049190 12.000000
330.067440 56.000000
330.078770 26.000000
331.063720 13.000000
331.092070 5.000000
339.038090 9.000000
339.055630 9.000000
339.082890 24.000000
339.094210 8.000000
340.094510 20.000000
341.074100 23.000000
341.106540 11.000000
343.089750 6.000000
353.062590 68.000000
353.079160 13.000000
354.071290 20.000000
359.070160 9.000000
367.073090 28.000000
367.085750 32.000000
371.079960 12.000000
373.188450 5.000000
383.075010 86.000000
384.075010 20.000000
395.064480 22.000000
395.080140 35.000000
396.078550 14.000000
413.040710 5.000000
413.067050 19.000000
413.088320 104.000000
414.074040 9.000000
414.092440 24.000000
415.084840 11.000000
415.108670 10.000000
431.068420 16.000000
431.095730 169.000000
432.045100 6.000000
432.079620 8.000000
432.108950 43.000000
449.018950 5.000000
449.046140 11.000000
449.105740 1000.000000

>ms2peaks
329.065160 5.000000
383.071470 6.000000
413.080600 8.000000
413.092350 8.000000
431.098750 20.000000
431.110870 8.000000
449.024690 6.000000
449.054230 13.000000
449.107820 1000.000000

>ms2peaks
137.019730 16.000000
165.022250 7.000000
177.043620 6.000000
203.024690 5.000000
215.036440 9.000000
217.038410 8.000000
217.049650 36.000000
217.062270 5.000000
218.058850 10.000000
219.029710 10.000000
233.046200 17.000000
235.066280 7.000000
241.051250 8.000000
243.030080 76.000000
243.049360 5.000000
254.873960 7.000000
259.059140 30.000000
286.043910 6.000000
287.044280 6.000000
287.059300 20.000000
290.055630 5.000000
296.076420 5.000000
299.000240 9.000000
299.021510 19.000000
299.053220 667.000000
300.036770 20.000000
300.059540 248.000000
301.066860 22.000000
311.029540 14.000000
311.043550 44.000000
311.058870 72.000000
312.057560 10.000000
313.058840 26.000000
313.075230 81.000000
323.053650 11.000000
324.053990 22.000000
324.081540 7.000000
325.044370 7.000000
325.059480 29.000000
325.077790 24.000000
327.049220 26.000000
328.040310 9.000000
328.065030 10.000000
328.936430 5.000000
329.009030 6.000000
329.065340 1000.000000
330.051790 42.000000
330.065860 100.000000
330.081540 36.000000
331.061740 7.000000
331.075780 23.000000
338.078830 7.000000
339.028810 8.000000
339.053440 41.000000
339.090330 275.000000
340.088350 33.000000
341.039670 10.000000
341.065610 28.000000
342.054630 7.000000
343.049560 5.000000
343.069150 11.000000
343.082890 6.000000
343.098300 7.000000
352.051450 7.000000
353.019070 5.000000
353.036130 16.000000
353.064790 237.000000
354.064060 46.000000
354.082550 25.000000
355.059300 8.000000
355.084230 19.000000
358.061980 7.000000
359.074010 56.000000
359.096130 6.000000
360.062740 6.000000
360.081210 10.000000
365.043120 7.000000
366.071470 6.000000
367.055760 7.000000
367.075290 48.000000
367.087280 60.000000
367.108460 5.000000
368.068850 7.000000
368.085110 16.000000
369.067140 5.000000
371.071440 27.000000
371.092100 7.000000
372.085510 8.000000
383.036740 7.000000
383.068390 63.000000
383.085360 65.000000
384.058960 8.000000
384.080200 13.000000
385.072420 7.000000
395.069240 63.000000
395.096740 20.000000
396.054990 6.000000
396.076140 10.000000
396.101900 5.000000
413.061280 14.000000
413.078920 62.000000
413.096440 71.000000
413.236790 9.000000
414.036070 9.000000
414.082700 20.000000
414.094730 41.000000
414.111760 6.000000
431.070220 8.000000
431.090330 32.000000
431.375240 7.000000
432.122560 6.000000

>ms2peaks
50.136160 16.000000
69.014430 30.000000
69.030860 11.000000
69.708890 11.000000
79.014610 59.000000
80.017140 11.000000
81.033620 19.000000
81.038090 11.000000
81.071340 10.000000
81.368240 10.000000
82.037750 24.000000
82.762030 10.000000
85.028560 40.000000
89.036650 24.000000
89.047910 13.000000
93.030470 10.000000
95.003080 13.000000
95.012670 24.000000
97.025720 20.000000
97.031670 10.000000
105.026600 12.000000
109.026570 62.000000
109.039180 22.000000
110.029270 13.000000
110.036100 13.000000
110.042300 11.000000
111.011400 19.000000
111.043410 37.000000
117.029150 19.000000
117.040310 18.000000
121.027100 33.000000
122.030560 12.000000
122.995950 21.000000
123.005440 39.000000
123.042830 31.000000
124.006820 11.000000
125.020250 27.000000
125.028560 18.000000
126.032170 16.000000
129.031880 14.000000
129.077070 20.000000
130.038480 16.000000
131.016450 11.000000
131.043180 37.000000
132.560970 10.000000
133.030140 28.000000
134.037570 12.000000
135.035920 34.000000
135.043880 49.000000
135.049930 80.000000
136.013350 11.000000
136.041410 13.000000
136.049900 120.000000
136.578800 10.000000
136.966320 10.000000
136.999160 39.000000
137.007100 48.000000
137.021360 665.000000
137.030590 73.000000
137.053390 25.000000
138.027420 121.000000
138.034330 68.000000
138.364200 11.000000
139.024610 28.000000
139.033190 19.000000
139.669710 10.000000
141.069560 53.000000
141.211780 17.000000
142.071430 10.000000
143.009450 12.000000
143.038830 25.000000
144.017960 16.000000
144.052580 34.000000
144.122270 13.000000
145.012480 10.000000
145.025450 11.000000
146.046190 17.000000
147.048800 16.000000
149.017680 19.000000
149.025510 69.000000
150.021290 12.000000
151.036060 14.000000
151.047060 12.000000
152.047010 21.000000
152.059020 20.000000
153.002760 19.000000
157.057040 10.000000
157.071580 11.000000
159.042020 39.000000
160.076140 15.000000
160.968080 11.000000
161.001740 15.000000
161.016070 71.000000
161.024020 118.000000
161.062130 30.000000
162.060000 13.000000
162.860700 24.000000
163.020360 20.000000
163.033450 48.000000
163.042070 38.000000
164.033770 11.000000
164.184080 21.000000
165.016630 260.000000
165.056930 16.000000
165.854740 10.000000
166.025670 48.000000
166.032150 16.000000
167.030520 10.000000
167.044560 17.000000
167.092910 18.000000
168.918750 15.000000
169.065630 19.000000
171.033910 16.000000
171.045000 26.000000
172.044080 13.000000
172.052150 25.000000
173.058560 24.000000
173.120880 11.000000
174.032520 10.000000
174.999730 16.000000
175.025940 10.000000
175.036120 25.000000
175.042980 11.000000
176.995900 20.000000
177.011630 50.000000
177.020110 29.000000
177.054570 19.000000
177.995930 15.000000
178.036210 10.000000
178.065260 45.000000
179.025530 37.000000
179.036150 118.000000
181.057050 13.000000
183.045380 15.000000
183.078860 19.000000
184.053210 17.000000
185.027450 16.000000
185.060750 19.000000
187.017260 13.000000
187.036010 73.000000
187.043690 35.000000
187.079330 17.000000
188.051180 15.000000
188.073680 25.000000
189.028950 22.000000
189.042160 16.000000
189.050420 16.000000
189.062190 25.000000
191.030720 58.000000
191.039170 16.000000
192.045930 42.000000
193.042130 13.000000
194.078400 12.000000
195.072540 10.000000
196.050460 22.000000
197.055150 47.000000
197.068860 17.000000
198.066910 15.000000
198.081050 44.000000
198.141020 24.000000
199.031910 16.000000
199.073240 17.000000
200.061230 17.000000
201.020890 11.000000
201.052960 25.000000
201.866030 11.000000
202.089840 12.000000
203.021700 13.000000
203.032790 43.000000
203.041560 57.000000
204.037610 12.000000
204.994580 16.000000
205.043010 13.000000
205.060680 38.000000
206.616060 16.000000
207.027100 22.000000
207.044560 11.000000
208.034590 18.000000
209.074100 14.000000
209.097530 13.000000
210.073490 12.000000
211.026490 11.000000
211.040560 26.000000
212.080900 19.000000
213.051610 44.000000
213.060070 71.000000
214.062930 26.000000
215.033230 18.000000
215.046260 44.000000
215.070340 10.000000
216.077190 11.000000
217.013170 13.000000
217.044360 29.000000
217.051700 29.000000
218.048310 15.000000
222.056550 15.000000
224.075260 10.000000
225.054550 14.000000
225.994570 12.000000
226.052140 29.000000
226.061290 25.000000
226.076550 32.000000
226.470460 22.000000
227.052690 22.000000
227.061650 61.000000
227.072540 181.000000
227.880280 11.000000
229.006740 12.000000
229.048160 193.000000
229.058620 119.000000
229.210420 12.000000
230.052960 30.000000
230.060090 26.000000
233.048400 16.000000
233.123930 11.000000
235.025150 15.000000
236.039490 12.000000
236.054570 11.000000
237.043880 37.000000
237.050060 16.000000
237.062620 14.000000
239.034700 13.000000
240.041750 12.000000
240.079830 13.000000
243.025250 75.000000
243.069720 178.000000
244.033550 11.000000
244.065440 25.000000
244.074720 54.000000
245.040830 13.000000
245.084120 40.000000
246.069980 10.000000
246.920150 14.000000
247.035570 10.000000
250.059830 46.000000
252.295470 13.000000
253.020140 14.000000
253.049040 17.000000
254.060390 17.000000
254.071030 53.000000
254.336060 10.000000
255.048860 10.000000
255.065950 26.000000
255.078960 16.000000
256.056730 20.000000
257.044040 73.000000
257.066280 13.000000
258.038480 16.000000
258.052430 44.000000
259.058930 24.000000
259.067290 69.000000
263.048430 26.000000
265.049770 31.000000
265.086270 15.000000
266.053410 11.000000
269.047850 20.000000
270.055570 19.000000
270.070130 22.000000
271.028140 30.000000
271.059420 629.000000
271.083890 29.000000
272.031740 43.000000
272.063320 394.000000
272.076230 156.000000
273.027740 12.000000
273.070220 99.000000
273.080570 88.000000
273.176060 11.000000
279.062770 30.000000
279.074040 27.000000
281.050080 32.000000
282.038210 20.000000
282.050870 76.000000
282.069700 19.000000
283.054410 71.000000
284.054990 15.000000
284.073580 29.000000
285.110050 10.000000
286.030460 17.000000
286.058040 35.000000
287.010100 29.000000
287.051790 71.000000
287.066800 45.000000
293.061890 20.000000
294.078030 15.000000
295.031430 12.000000
295.049710 57.000000
295.062620 49.000000
295.076080 32.000000
296.051330 25.000000
296.062530 31.000000
296.079530 11.000000
296.145260 16.000000
297.059420 11.000000
298.867650 11.000000
299.024780 61.000000
299.054630 988.000000
299.079190 22.000000
299.774350 12.000000
300.031620 13.000000
300.064030 1000.000000
301.067570 300.000000
301.080630 79.000000
301.171780 21.000000
302.064730 43.000000
302.080050 40.000000
303.542390 10.000000
307.052220 10.000000
309.067840 30.000000
309.088780 19.000000
311.027650 37.000000
311.053770 260.000000
311.065700 118.000000
312.019380 10.000000
312.058440 73.000000
312.950040 26.000000
313.023740 21.000000
313.051180 53.000000
313.066990 265.000000
313.080900 205.000000
313.274080 16.000000
314.074070 50.000000
314.084930 16.000000
315.067780 25.000000
318.240570 11.000000
320.088070 11.000000
321.040770 11.000000
321.063510 11.000000
323.030060 10.000000
323.054600 37.000000
323.064790 12.000000
324.061340 98.000000
325.060970 71.000000
325.071110 167.000000
326.072270 10.000000
327.055690 14.000000
329.068790 188.000000
329.086700 16.000000
330.066130 16.000000
331.072140 12.000000
337.048400 11.000000
337.076600 40.000000
337.096100 10.000000
339.065030 17.000000
339.082860 97.000000
339.102870 13.000000
340.063930 22.000000
340.090520 20.000000
341.057190 20.000000
351.033290 11.000000
351.051450 23.000000
353.060760 22.000000

>ms2peaks
137.021480 12.000000
161.024720 7.000000
189.060640 5.000000
205.047520 8.000000
217.047200 19.000000
243.036150 5.000000
259.060610 17.000000
261.041900 11.000000
271.062840 17.000000
272.069210 27.000000
283.050480 5.000000
286.044530 10.000000
287.038210 11.000000
287.055540 9.000000
287.064390 9.000000
299.022060 7.000000
299.056150 215.000000
300.033390 6.000000
300.047970 32.000000
300.064240 115.000000
301.064670 46.000000
311.053440 47.000000
313.032170 7.000000
313.044430 8.000000
313.064330 13.000000
313.076540 28.000000
314.072110 8.000000
325.064640 8.000000
327.043180 9.000000
327.058290 11.000000
329.015590 6.000000
329.065460 333.000000
330.031560 10.000000
330.057950 38.000000
330.072300 37.000000
331.069980 9.000000
339.051640 11.000000
339.078830 31.000000
339.095370 55.000000
340.087920 20.000000
341.061460 17.000000
342.061550 8.000000
342.087680 12.000000
353.067080 77.000000
353.081300 13.000000
354.050540 13.000000
354.066620 22.000000
354.079440 17.000000
359.072300 15.000000
367.077940 18.000000
371.081420 7.000000
372.082580 5.000000
373.951750 5.000000
383.074400 77.000000
384.068850 13.000000
384.081600 9.000000
385.086730 9.000000
395.056950 20.000000
395.081820 42.000000
396.090940 9.000000
401.090060 6.000000
413.045410 5.000000
413.088130 110.000000
414.088960 12.000000
414.103910 12.000000
414.122620 5.000000
415.083920 9.000000
431.065950 7.000000
431.095060 156.000000
432.094790 41.000000
449.040470 12.000000
449.070400 17.000000
449.106990 1000.000000

>ms2peaks
329.061980 5.000000
383.076230 6.000000
413.083070 9.000000
431.095490 24.000000
448.102810 8.000000
449.057770 17.000000
449.107730 1000.000000
449.168060 7.000000

>ms2peaks
136.993550 7.000000
137.022980 42.000000
192.035680 8.000000
192.045230 6.000000
201.017460 9.000000
207.074480 5.000000
217.048770 53.000000
217.056110 25.000000
218.056880 7.000000
229.044800 6.000000
233.048170 7.000000
243.030400 50.000000
244.028460 11.000000
259.063510 20.000000
259.074250 9.000000
261.029140 6.000000
261.042110 13.000000
262.060940 7.000000
271.062190 16.000000
272.068300 8.000000
281.046170 5.000000
287.050990 31.000000
287.060460 35.000000
288.051790 6.000000
288.063570 5.000000
296.042240 7.000000
297.067320 7.000000
298.972290 7.000000
299.007630 10.000000
299.054810 779.000000
300.060090 266.000000
301.032750 8.000000
301.068760 23.000000
302.058650 7.000000
311.018130 7.000000
311.054930 144.000000
311.083680 5.000000
312.043030 11.000000
312.060090 24.000000
313.046050 6.000000
313.068700 122.000000
314.066040 7.000000
314.078430 11.000000
323.058230 20.000000
324.048160 12.000000
324.067260 38.000000
325.067380 47.000000
326.064360 18.000000
327.050290 59.000000
329.010590 6.000000
329.028200 13.000000
329.066040 1000.000000
330.031680 6.000000
330.069760 222.000000
331.072020 35.000000
339.016110 11.000000
339.046510 30.000000
339.087550 305.000000
340.067320 8.000000
340.087590 68.000000
340.106020 9.000000
341.027710 8.000000
341.048550 12.000000
341.059630 33.000000
341.072940 48.000000
342.070400 21.000000
343.067810 13.000000
343.081240 29.000000
344.080170 11.000000
348.061430 8.000000
351.088010 7.000000
352.063350 10.000000
352.927190 5.000000
353.016420 6.000000
353.064330 297.000000
354.064670 28.000000
354.075530 27.000000
355.079590 8.000000
359.062040 16.000000
359.083310 38.000000
360.072810 11.000000
360.090120 5.000000
366.079250 18.000000
366.089260 6.000000
367.078890 96.000000
367.108430 10.000000
368.091160 18.000000
371.040560 7.000000
371.060060 7.000000
371.079380 24.000000
378.068600 8.000000
383.017940 13.000000
383.051150 28.000000
383.079410 103.000000
384.015080 7.000000
384.071290 20.000000
384.088750 15.000000
384.103120 5.000000
385.072810 5.000000
385.109380 6.000000
395.012240 5.000000
395.062870 41.000000
395.077670 110.000000
396.070590 12.000000
397.089020 6.000000
413.023160 9.000000
413.087100 170.000000
414.086300 29.000000
414.102290 11.000000
431.075350 9.000000
431.095980 10.000000
431.108610 27.000000
432.096040 12.000000
449.109380 7.000000

>ms2peaks
55.004790 17.000000
55.016700 16.000000
66.048580 9.000000
67.019050 9.000000
68.998450 8.000000
69.026440 11.000000
77.037720 15.000000
78.043700 11.000000
79.018700 119.000000
81.019750 10.000000
81.032770 82.000000
85.016630 10.000000
85.027210 38.000000
93.033440 22.000000
95.012680 8.000000
95.049090 9.000000
95.055740 12.000000
99.009490 13.000000
105.040570 9.000000
107.009110 20.000000
107.014260 27.000000
107.046530 27.000000
109.023970 47.000000
109.030440 48.000000
109.116970 11.000000
111.008090 10.000000
112.057400 9.000000
115.049890 8.000000
115.057400 13.000000
117.033740 30.000000
118.038520 12.000000
120.050130 22.000000
121.009450 9.000000
121.029740 11.000000
123.000440 8.000000
123.008520 21.000000
123.043770 8.000000
123.926510 9.000000
124.011090 13.000000
125.014880 25.000000
125.024280 47.000000
127.359490 12.000000
128.062960 12.000000
129.073910 9.000000
130.176220 14.000000
132.055420 8.000000
133.024600 17.000000
134.908230 9.000000
135.017500 10.000000
135.039580 124.000000
135.047740 70.000000
136.033420 15.000000
136.051220 133.000000
136.061780 40.000000
136.218720 16.000000
136.887760 17.000000
136.989790 9.000000
137.007660 17.000000
137.022960 514.000000
137.034290 41.000000
137.055360 23.000000
137.062990 9.000000
137.919510 8.000000
138.026500 203.000000
138.330610 9.000000
138.998520 10.000000
139.025820 9.000000
140.041900 13.000000
141.066040 17.000000
141.739900 9.000000
142.840650 8.000000
144.031750 16.000000
145.027850 23.000000
145.034000 12.000000
145.060700 21.000000
146.030440 9.000000
146.063600 14.000000
147.005650 10.000000
147.035870 10.000000
147.045680 9.000000
147.055790 24.000000
149.015120 14.000000
149.028180 34.000000
149.061950 9.000000
152.040770 9.000000
152.053410 15.000000
152.068940 11.000000
153.017170 21.000000
153.061680 17.000000
153.073720 12.000000
154.075470 22.000000
155.049880 12.000000
159.039720 15.000000
160.057420 18.000000
161.016750 88.000000
161.023650 87.000000
161.056080 9.000000
162.029590 52.000000
162.995240 11.000000
163.032260 55.000000
163.048520 13.000000
164.032460 22.000000
164.040890 33.000000
164.983860 16.000000
165.011290 61.000000
165.018780 146.000000
165.063630 13.000000
166.018220 26.000000
166.025560 22.000000
167.017010 13.000000
167.028580 11.000000
169.027920 10.000000
169.061970 30.000000
170.035780 21.000000
170.067810 18.000000
170.083820 13.000000
171.026430 8.000000
171.037690 10.000000
171.483670 11.000000
172.053380 17.000000
173.021390 19.000000
173.054990 42.000000
173.064300 16.000000
174.026490 24.000000
174.034350 11.000000
176.051450 25.000000
176.997730 17.000000
177.010600 63.000000
177.022190 54.000000
177.053310 14.000000
177.059980 10.000000
177.994110 10.000000
178.998050 10.000000
179.017030 8.000000
179.027420 28.000000
179.038710 57.000000
180.034150 22.000000
180.048830 10.000000
181.059630 13.000000
182.078810 22.000000
183.047450 35.000000
184.027980 11.000000
184.040890 9.000000
185.056780 34.000000
187.031430 50.000000
187.047870 11.000000
187.073410 10.000000
188.007400 13.000000
188.705280 13.000000
189.015500 30.000000
189.051190 34.000000
190.050830 20.000000
190.079300 13.000000
191.001980 12.000000
191.010710 13.000000
191.029770 13.000000
192.037540 26.000000
193.052830 8.000000
193.540070 16.000000
195.041490 13.000000
195.074190 14.000000
197.060120 48.000000
198.032410 13.000000
198.049760 9.000000
198.068160 22.000000
198.078550 13.000000
199.039990 28.000000
199.062740 11.000000
201.051570 54.000000
201.063960 26.000000
202.029950 33.000000
202.066590 9.000000
203.029140 107.000000
203.051160 37.000000
203.062710 12.000000
204.036180 30.000000
205.015300 9.000000
205.043320 24.000000
205.054580 11.000000
206.017350 17.000000
207.045030 10.000000
207.259520 12.000000
208.038440 31.000000
209.024920 18.000000
209.042690 11.000000
209.058260 9.000000
210.055360 9.000000
211.034480 51.000000
211.044460 12.000000
211.059510 8.000000
211.075620 22.000000
212.010590 13.000000
212.033740 11.000000
212.048840 15.000000
212.542400 13.000000
213.046750 50.000000
213.056550 20.000000
213.064680 18.000000
214.064290 9.000000
214.251860 9.000000
215.037690 9.000000
215.044800 12.000000
215.074710 36.000000
216.013570 13.000000
216.043910 8.000000
216.076950 8.000000
217.010240 11.000000
217.049480 18.000000
217.069600 16.000000
219.019760 8.000000
219.041640 13.000000
219.065320 13.000000
222.979280 9.000000
225.028030 8.000000
226.033400 12.000000
226.049210 8.000000
226.065930 51.000000
227.065700 64.000000
227.074940 186.000000
228.074490 35.000000
228.084240 11.000000
228.674590 11.000000
229.030230 27.000000
229.047270 126.000000
229.055220 82.000000
229.070140 12.000000
229.191940 9.000000
229.957600 11.000000
230.049030 99.000000
230.064740 20.000000
230.314770 9.000000
231.019810 12.000000
231.065200 51.000000
232.196330 9.000000
233.039860 12.000000
234.032940 23.000000
235.048280 26.000000
236.052140 21.000000
237.037520 13.000000
237.069400 53.000000
239.037600 11.000000
241.047300 14.000000
241.715320 19.000000
242.909620 9.000000
243.024570 12.000000
243.034360 13.000000
243.060070 66.000000
243.075450 8.000000
244.058820 37.000000
244.076200 74.000000
245.656750 12.000000
245.987380 15.000000
246.085360 14.000000
246.597370 9.000000
247.037190 13.000000
247.070220 8.000000
250.058650 13.000000
250.065570 25.000000
251.066380 9.000000
251.073960 18.000000
253.056050 8.000000
254.058560 41.000000
254.790710 11.000000
255.032560 12.000000
255.065050 18.000000
255.080760 8.000000
256.056550 9.000000
256.469730 12.000000
257.046780 49.000000
257.220090 13.000000
258.016420 13.000000
258.040220 32.000000
258.058410 32.000000
258.070620 21.000000
259.057620 11.000000
260.014650 8.000000
260.072270 8.000000
261.046110 13.000000
266.049380 10.000000
267.065520 27.000000
269.044070 11.000000
270.051180 23.000000
271.017060 9.000000
271.061460 521.000000
271.352970 9.000000
272.058350 156.000000
272.068210 450.000000
272.090300 20.000000
273.064510 73.000000
273.080410 12.000000
277.036990 15.000000
279.058470 13.000000
279.721070 8.000000
280.064030 8.000000
281.035340 26.000000
281.054840 11.000000
282.044740 21.000000
282.058530 35.000000
283.055790 36.000000
283.251800 10.000000
284.064580 30.000000
285.085270 12.000000
286.037110 12.000000
287.053040 39.000000
287.064450 10.000000
287.220860 13.000000
288.045260 8.000000
288.058200 20.000000
289.051300 13.000000
293.036830 22.000000
295.064120 15.000000
295.077270 10.000000
295.993900 12.000000
297.064940 44.000000
297.384000 10.000000
298.155120 13.000000
299.024720 8.000000
299.050540 501.000000
299.064910 468.000000
299.930390 9.000000
300.018190 26.000000
300.039580 94.000000
300.063020 1000.000000
300.125210 17.000000
300.962520 9.000000
301.050020 17.000000
301.074580 215.000000
302.068660 24.000000
306.063390 18.000000
309.069090 24.000000
310.950230 8.000000
311.050510 282.000000
311.070890 123.000000
311.099520 12.000000
311.205140 11.000000
312.038360 23.000000
312.055360 22.000000
312.068120 40.000000
312.537380 8.000000
312.806850 9.000000
313.048430 24.000000
313.067540 344.000000
313.079190 181.000000
313.112820 8.000000
314.054840 9.000000
314.083980 10.000000
314.094020 10.000000
315.056400 12.000000
315.073060 13.000000
315.096620 10.000000
321.026210 11.000000
324.030520 9.000000
324.061100 30.000000
324.081850 11.000000
325.038970 11.000000
325.069850 112.000000
325.463560 21.000000
326.079990 9.000000
327.043760 8.000000
327.078250 10.000000
328.089230 22.000000
329.040100 9.000000
329.052060 27.000000
329.065000 61.000000
329.086210 13.000000
330.072480 8.000000
330.087250 17.000000
334.472690 8.000000
336.049770 17.000000
337.056980 34.000000
337.067080 38.000000
337.082490 11.000000
337.999330 10.000000
338.595400 8.000000
339.043760 21.000000
339.059630 12.000000
339.081300 44.000000
340.053190 15.000000
340.084440 13.000000
340.102110 13.000000
341.061220 12.000000
341.075260 35.000000
342.070740 8.000000
342.103670 8.000000
351.040800 14.000000
396.468140 11.000000

>ms2peaks
137.024410 26.000000
165.020430 11.000000
217.050660 19.000000
218.059980 8.000000
237.633120 7.000000
243.034790 7.000000
243.063400 10.000000
259.065490 12.000000
269.055420 7.000000
272.062230 17.000000
299.055110 221.000000
300.036530 6.000000
300.063420 123.000000
301.071660 21.000000
311.026210 5.000000
311.057560 41.000000
313.067540 45.000000
313.086430 8.000000
314.073610 8.000000
325.071010 10.000000
327.042450 10.000000
327.097080 7.000000
329.058410 97.000000
329.069210 200.000000
330.063780 40.000000
330.074890 15.000000
339.050510 10.000000
339.075160 31.000000
339.090670 61.000000
340.057620 6.000000
340.084260 17.000000
341.059110 7.000000
341.078550 6.000000
342.067870 5.000000
353.038700 8.000000
353.060970 44.000000
353.074250 50.000000
353.083860 15.000000
354.071170 7.000000
354.096680 6.000000
359.078340 28.000000
365.057160 5.000000
367.081970 40.000000
371.087980 7.000000
383.074310 80.000000
384.080690 24.000000
395.072360 48.000000
395.103670 6.000000
396.078520 5.000000
413.053070 7.000000
413.077670 49.000000
413.093200 74.000000
414.087220 23.000000
415.098720 5.000000
431.099430 173.000000
432.093990 18.000000
432.113430 16.000000
433.101750 6.000000
447.084110 6.000000
449.049710 20.000000
449.109130 1000.000000

>ms2peaks
413.089170 8.000000
431.094850 35.000000
432.101100 8.000000
449.037810 7.000000
449.061740 11.000000
449.107940 1000.000000
449.168240 7.000000

>ms2peaks
85.028140 5.000000
137.018720 5.000000
137.027790 14.000000
138.017270 6.000000
176.078770 6.000000
177.053760 5.000000
217.036970 9.000000
217.046260 44.000000
217.066280 7.000000
219.023970 11.000000
229.048050 6.000000
231.035580 5.000000
231.057400 5.000000
236.070470 6.000000
243.028400 50.000000
244.037950 21.000000
259.060700 30.000000
260.070220 8.000000
261.033200 7.000000
272.057370 9.000000
283.058010 6.000000
287.044160 24.000000
287.057340 22.000000
288.052000 6.000000
297.075160 5.000000
297.084930 7.000000
298.597600 8.000000
298.993840 10.000000
299.008180 15.000000
299.054810 730.000000
300.059390 177.000000
300.073820 49.000000
301.054320 23.000000
301.067540 53.000000
311.053800 122.000000
312.047270 10.000000
312.062470 9.000000
312.074980 5.000000
313.071200 125.000000
314.066010 5.000000
314.078340 19.000000
323.055510 6.000000
324.068330 35.000000
325.057250 7.000000
325.072690 27.000000
327.031220 10.000000
327.042630 34.000000
327.075840 13.000000
328.089750 9.000000
328.984530 7.000000
329.011810 20.000000
329.065120 1000.000000
330.008240 6.000000
330.039120 8.000000
330.067930 198.000000
331.027130 6.000000
331.076050 25.000000
337.063480 7.000000
339.042110 33.000000
339.084170 282.000000
340.044620 6.000000
340.060700 25.000000
340.087190 36.000000
341.063930 56.000000
341.077480 29.000000
342.067170 6.000000
343.065890 15.000000
343.087950 10.000000
344.082760 6.000000
349.312260 7.000000
351.050320 7.000000
351.080780 10.000000
351.097660 10.000000
353.065060 301.000000
354.068150 52.000000
354.090450 8.000000
355.076660 13.000000
359.072110 100.000000
359.094940 9.000000
360.071170 18.000000
360.085110 12.000000
365.068850 34.000000
366.070160 10.000000
367.073700 34.000000
367.086910 56.000000
368.065800 6.000000
368.080380 22.000000
368.097080 10.000000
368.957210 5.000000
369.089940 6.000000
371.074800 13.000000
377.058170 6.000000
378.062410 6.000000
383.025600 6.000000
383.075380 129.000000
384.065220 8.000000
384.082150 20.000000
387.088590 5.000000
395.055820 21.000000
395.077510 80.000000
396.070250 12.000000
396.086210 9.000000
397.087620 8.000000
404.659790 5.000000
413.026210 6.000000
413.082400 181.000000
414.088590 44.000000
415.080290 5.000000
431.069790 8.000000
431.083160 24.000000
431.102780 17.000000
432.090850 7.000000

>ms2peaks
65.038890 21.000000
67.052530 14.000000
68.994810 30.000000
69.003450 17.000000
69.032300 9.000000
69.312990 10.000000
77.038150 15.000000
79.009050 12.000000
79.016920 63.000000
79.022120 31.000000
79.056830 14.000000
81.030720 11.000000
81.036030 13.000000
85.025980 48.000000
85.765300 11.000000
86.028170 10.000000
89.036520 29.000000
91.049620 12.000000
91.057460 16.000000
92.989050 19.000000
92.994830 14.000000
93.034420 17.000000
95.050400 27.000000
97.021260 18.000000
107.013630 14.000000
107.044400 16.000000
109.019170 13.000000
109.027040 22.000000
109.037590 13.000000
109.493420 10.000000
110.029000 10.000000
110.036110 37.000000
111.011670 18.000000
111.038190 24.000000
115.057870 15.000000
115.359980 21.000000
117.025730 25.000000
119.047440 18.000000
121.029050 27.000000
122.907460 10.000000
123.007570 55.000000
123.038480 26.000000
128.826460 17.000000
129.062680 22.000000
134.028490 11.000000
134.039050 15.000000
134.628460 11.000000
135.025310 29.000000
135.042390 191.000000
135.567090 9.000000
136.037080 13.000000
136.055420 84.000000
136.064420 21.000000
136.893940 10.000000
136.959580 13.000000
136.980620 15.000000
136.998140 14.000000
137.021880 658.000000
137.243380 13.000000
137.628720 15.000000
138.027240 153.000000
138.036730 30.000000
139.036450 18.000000
139.043470 17.000000
139.058200 9.000000
144.043820 11.000000
145.023270 20.000000
146.022600 22.000000
146.037140 12.000000
147.047030 35.000000
147.050720 13.000000
148.051030 24.000000
149.011670 11.000000
149.021260 59.000000
149.032420 14.000000
150.024370 24.000000
151.032440 12.000000
152.008210 13.000000
152.059880 31.000000
152.070880 9.000000
153.016920 21.000000
153.057970 21.000000
153.073580 15.000000
155.047210 15.000000
157.030360 11.000000
157.061260 15.000000
158.034240 21.000000
159.041900 21.000000
159.086040 9.000000
160.049130 17.000000
160.053700 41.000000
161.006550 12.000000
161.019670 76.000000
161.027180 120.000000
162.033460 25.000000
162.054730 22.000000
163.034450 39.000000
163.042110 99.000000
164.040500 12.000000
164.983320 14.000000
165.018230 499.000000
165.048340 10.000000
166.013280 12.000000
166.038540 15.000000
167.029400 26.000000
167.041050 15.000000
167.082580 21.000000
167.563220 15.000000
168.478240 10.000000
169.057770 17.000000
170.064390 18.000000
171.045030 16.000000
171.073070 11.000000
173.020970 15.000000
173.034470 16.000000
173.057540 43.000000
174.053960 14.000000
174.473970 9.000000
175.039760 13.000000
177.019930 85.000000
177.043760 14.000000
177.053390 21.000000
177.065750 16.000000
178.061190 21.000000
179.000990 11.000000
179.033430 63.000000
179.047420 9.000000
179.849090 16.000000
180.023680 15.000000
181.021220 15.000000
181.049290 11.000000
181.068600 38.000000
182.068650 15.000000
182.153690 12.000000
183.041340 34.000000
183.049090 23.000000
183.079830 19.000000
183.920900 14.000000
185.059800 11.000000
185.067210 19.000000
185.132930 11.000000
187.038360 40.000000
188.029940 29.000000
188.083950 11.000000
189.003390 10.000000
189.014790 29.000000
189.037260 18.000000
189.056730 47.000000
191.028730 14.000000
191.038470 30.000000
191.048980 11.000000
193.064510 10.000000
194.072480 11.000000
195.027130 12.000000
197.051970 14.000000
197.059740 9.000000
198.028350 15.000000
198.067260 26.000000
199.023910 11.000000
199.038010 18.000000
199.045100 15.000000
199.055070 21.000000
199.072140 28.000000
200.068180 26.000000
201.016970 20.000000
201.058260 28.000000
201.999370 15.000000
202.023250 24.000000
202.041750 14.000000
202.061870 10.000000
202.070240 30.000000
203.034790 158.000000
205.967800 18.000000
207.006060 11.000000
207.161930 9.000000
208.037540 10.000000
209.016250 16.000000
210.067460 14.000000
211.018600 14.000000
211.034990 37.000000
211.080840 16.000000
212.041260 14.000000
213.046430 31.000000
213.064330 22.000000
214.053940 11.000000
215.043240 19.000000
215.058840 23.000000
216.030590 25.000000
216.045520 28.000000
216.064590 13.000000
216.081180 16.000000
217.032780 17.000000
217.050290 85.000000
217.078250 16.000000
218.063430 9.000000
219.032850 10.000000
219.045200 17.000000
225.047230 38.000000
226.027510 14.000000
226.057360 69.000000
226.489730 11.000000
227.029790 15.000000
227.049580 9.000000
227.059360 31.000000
227.069410 120.000000
227.079220 47.000000
228.082230 10.000000
229.047450 212.000000
229.059400 61.000000
230.056980 34.000000
230.068020 17.000000
231.024000 17.000000
231.056720 21.000000
231.066500 19.000000
233.042300 10.000000
233.062810 25.000000
233.952330 14.000000
234.061900 14.000000
234.071260 14.000000
235.000000 16.000000
235.887270 20.000000
237.058750 34.000000
237.650310 13.000000
238.063460 33.000000
239.037170 19.000000
240.959050 15.000000
243.065780 116.000000
243.076220 72.000000
243.381760 9.000000
244.070500 54.000000
244.100420 14.000000
245.013230 9.000000
245.041260 15.000000
250.073170 32.000000
251.055180 16.000000
251.071550 34.000000
251.245070 9.000000
252.060850 12.000000
253.099960 12.000000
253.955000 9.000000
254.050800 31.000000
254.065670 25.000000
254.383130 9.000000
255.015850 10.000000
255.023320 28.000000
255.043030 34.000000
255.061290 19.000000
255.072280 11.000000
257.039790 71.000000
257.052370 14.000000
258.048980 24.000000
258.058290 37.000000
259.036010 30.000000
259.061520 18.000000
263.029080 10.000000
263.473420 16.000000
264.036220 15.000000
264.047760 20.000000
265.036740 16.000000
266.054810 29.000000
269.083830 23.000000
270.679170 12.000000
271.019710 41.000000
271.031100 29.000000
271.056000 324.000000
271.067660 312.000000
271.713560 19.000000
271.972870 10.000000
272.034910 9.000000
272.047730 42.000000
272.067080 701.000000
272.639100 43.000000
273.037200 29.000000
273.066410 24.000000
273.079770 57.000000
274.083190 11.000000
275.311520 9.000000
278.128970 9.000000
279.061580 9.000000
279.072510 9.000000
279.085300 13.000000
282.031490 21.000000
282.049740 31.000000
282.060240 69.000000
283.061100 9.000000
283.134550 9.000000
284.056210 27.000000
284.074010 53.000000
285.074070 19.000000
287.037290 11.000000
287.053160 66.000000
287.084870 13.000000
287.097170 15.000000
290.091130 10.000000
293.038240 10.000000
295.038670 24.000000
295.056760 53.000000
295.067690 49.000000
295.080470 10.000000
296.063290 22.000000
296.791200 10.000000
296.946110 11.000000
297.080470 29.000000
298.718110 9.000000
299.020390 17.000000
299.057310 738.000000
300.008640 31.000000
300.023770 33.000000
300.037290 46.000000
300.061550 1000.000000
300.090850 47.000000
301.058750 149.000000
301.071350 158.000000
301.086460 53.000000
302.058040 42.000000
302.069700 23.000000
302.093690 14.000000
303.035800 16.000000
309.058410 52.000000
310.062930 28.000000
311.022490 10.000000
311.051090 193.000000
311.061610 161.000000
312.052550 30.000000
312.062380 37.000000
313.033720 14.000000
313.064210 400.000000
313.079740 108.000000
314.047150 12.000000
314.061250 24.000000
314.076870 43.000000
314.220090 9.000000
315.041600 12.000000
320.061580 15.000000
321.072750 39.000000
322.083860 18.000000
323.064000 54.000000
324.045780 22.000000
324.063080 31.000000
324.984250 13.000000
325.076870 72.000000
326.075680 12.000000
328.070160 20.000000
328.828610 10.000000
329.064820 149.000000
329.082610 24.000000
330.065670 27.000000
331.061310 9.000000
337.020170 13.000000
337.071590 36.000000
337.155910 9.000000
338.068020 22.000000
339.030670 16.000000
339.043460 21.000000
339.061430 30.000000
339.081970 173.000000
339.102390 34.000000
340.054870 15.000000
340.115230 13.000000
340.845060 9.000000
341.046360 9.000000
341.070370 47.000000
352.961640 17.000000
382.601990 11.000000
436.594790 14.000000
443.790710 13.000000

