>compound PR03531112
>parentmass 838.2764
>ionization [M+NH4]+
>formula C38H44O20
>rt 363.000000
>profile qtof
#smiles_iso CC(=O)OCC1C(C(C(C(O1)OC2(C(C(C(O2)COC(=O)C=CC3=CC(=C(C=C3)O)OC)O)OC(=O)C=CC4=CC(=C(C=C4)O)OC)CO)OC(=O)C)O)OC(=O)C
#smiles_can CC(=O)OCC1C(C(C(C(O1)OC2(C(C(C(O2)COC(=O)C=CC3=CC(=C(C=C3)O)OC)O)OC(=O)C=CC4=CC(=C(C=C4)O)OC)CO)OC(=O)C)O)OC(=O)C
#inchikey VIYLZUDAAGEJSD-UHFFFAOYSA-N
#pubchem_id 73157807
#mb_accession PR311031

>ms2peaks
177.056440 75.000000
204.076400 19.000000
243.066990 16.000000
515.160830 103.000000
515.181400 52.000000
838.264100 67.000000

