>compound PR04460924
>parentmass 271.06009989999995
>ionization [M+H]+
>formula C15H10O5
>rt 352.674000
>profile qtof
#smiles_iso C1=CC2=C(C(=C1)O)C(=O)C3=C(C2=O)C=C(C=C3O)CO
#smiles_can C1=CC2=C(C(=C1)O)C(=O)C3=C(C2=O)C=C(C=C3O)CO
#inchikey YDQWDHRMZQUTBA-UHFFFAOYSA-N
#pubchem_id 10207
#mb_accession PR302863,PR302869,PR302875,PR302881,PR302887,PR302893,PR302899,PR302905,PR302911,PR302917,PR302923,PR302929

>ms2
91.050740 8.000000
91.056610 8.000000
111.010710 10.000000
119.046660 25.000000
121.029190 6.000000
145.024690 6.000000
145.032780 9.000000
153.018250 97.000000
154.022320 6.000000
163.038440 7.000000
197.065050 6.000000
229.049930 5.000000
271.024260 13.000000
271.060240 1000.000000
271.108030 14.000000

>ms2
271.019680 8.000000
271.059880 1000.000000
271.105650 14.000000

>ms2
67.014660 25.000000
67.018940 10.000000
68.995320 41.000000
85.013990 5.000000
91.048400 14.000000
91.057590 26.000000
109.032390 5.000000
111.008960 16.000000
115.047010 5.000000
119.049270 257.000000
120.052060 27.000000
121.016590 10.000000
121.029180 97.000000
131.050280 8.000000
141.060490 8.000000
141.068660 26.000000
145.005810 10.000000
145.029480 105.000000
146.034000 13.000000
147.045840 7.000000
153.018020 725.000000
154.023500 91.000000
155.014140 6.000000
157.061400 5.000000
157.067840 9.000000
163.038640 62.000000
169.057430 10.000000
169.065080 11.000000
185.063290 7.000000
187.037580 26.000000
192.979390 5.000000
197.061280 12.000000
198.052720 9.000000
203.059430 5.000000
203.075590 7.000000
213.060270 7.000000
225.053340 20.000000
225.061920 12.000000
229.039260 29.000000
229.050770 40.000000
229.059020 14.000000
230.053910 6.000000
242.056530 13.000000
243.048420 6.000000
243.063770 40.000000
243.073230 20.000000
269.055210 8.000000
270.981290 8.000000
271.022740 5.000000
271.060760 1000.000000

>ms2
65.037670 174.000000
65.042360 81.000000
66.039890 56.000000
67.006580 49.000000
67.019580 183.000000
68.996650 435.000000
69.030830 125.000000
69.035010 301.000000
69.539480 44.000000
70.000490 42.000000
75.025760 42.000000
77.033810 42.000000
79.015150 58.000000
80.013140 74.000000
80.027850 83.000000
81.028580 49.000000
85.017870 72.000000
91.042350 238.000000
91.054390 931.000000
91.537750 42.000000
92.054730 125.000000
92.992590 46.000000
93.032190 72.000000
95.013330 79.000000
97.027320 53.000000
101.040740 83.000000
105.034680 65.000000
108.020780 60.000000
111.008800 120.000000
113.039500 44.000000
115.048000 178.000000
115.056370 312.000000
116.055020 72.000000
117.030740 146.000000
118.040410 65.000000
118.656370 56.000000
119.043090 69.000000
119.052240 72.000000
121.011730 42.000000
121.017710 69.000000
121.029680 222.000000
124.012490 125.000000
125.021800 58.000000
127.050300 65.000000
131.048780 104.000000
132.052540 49.000000
137.013760 60.000000
139.033520 69.000000
139.047060 42.000000
140.065700 248.000000
141.028110 95.000000
141.065510 42.000000
145.005940 69.000000
145.024570 602.000000
146.028610 104.000000
146.038930 109.000000
147.038570 51.000000
150.043840 58.000000
151.042720 100.000000
152.057940 44.000000
153.017870 1000.000000
154.021790 62.000000
155.018100 74.000000
155.043230 86.000000
163.029240 42.000000
167.047650 88.000000
168.032200 49.000000
169.023700 79.000000
172.047260 46.000000
179.054400 67.000000
187.026520 46.000000
188.040080 42.000000
213.049910 53.000000
216.052580 56.000000
237.113200 53.000000
242.053100 42.000000
247.883500 62.000000

>ms2
67.017360 6.000000
91.053850 10.000000
111.008580 5.000000
119.048740 30.000000
120.052120 6.000000
121.029760 14.000000
141.066890 10.000000
145.028410 11.000000
153.017900 93.000000
163.036960 6.000000
225.059280 5.000000
229.051270 5.000000
243.060210 7.000000
243.071560 8.000000
271.027650 6.000000
271.060490 1000.000000
271.106230 13.000000

>ms2
271.060610 1000.000000
271.108520 14.000000

>ms2
67.013660 12.000000
67.020010 7.000000
68.998340 19.000000
75.022670 5.000000
83.018590 6.000000
91.018460 8.000000
91.044880 8.000000
91.052440 34.000000
91.057580 12.000000
97.031010 5.000000
111.008520 19.000000
111.018260 6.000000
115.052400 8.000000
119.033900 14.000000
119.048440 284.000000
120.057060 9.000000
121.012960 6.000000
121.022400 15.000000
121.030720 55.000000
122.033460 7.000000
125.020640 6.000000
135.007420 5.000000
141.070970 14.000000
141.077910 5.000000
145.016100 11.000000
145.027480 78.000000
145.039720 7.000000
146.029040 9.000000
146.034560 6.000000
152.990480 5.000000
153.018110 841.000000
154.019330 52.000000
154.029340 13.000000
155.027830 6.000000
155.044880 9.000000
163.037190 29.000000
164.043050 8.000000
167.046910 5.000000
168.056120 14.000000
169.049800 8.000000
169.068160 21.000000
187.034610 9.000000
187.043200 8.000000
188.044430 9.000000
196.916470 5.000000
197.052920 9.000000
197.068480 9.000000
203.069600 10.000000
225.034970 5.000000
225.047520 17.000000
225.060590 23.000000
226.055080 8.000000
229.037640 16.000000
229.054820 34.000000
230.054180 6.000000
243.056150 15.000000
243.070510 37.000000
244.012650 9.000000
244.066990 17.000000
253.023640 7.000000
253.042880 12.000000
253.056550 15.000000
254.057050 9.000000
270.945740 6.000000
270.996310 6.000000
271.015260 10.000000
271.060120 1000.000000

>ms2
55.710950 58.000000
63.022850 109.000000
64.112690 48.000000
65.036660 77.000000
66.311460 44.000000
67.011800 75.000000
67.021590 174.000000
68.994980 271.000000
69.028330 48.000000
69.033460 143.000000
75.019850 73.000000
77.035950 114.000000
79.015480 44.000000
83.014980 51.000000
89.037810 126.000000
91.053960 1000.000000
91.063090 56.000000
92.051830 58.000000
92.059650 90.000000
92.998000 80.000000
93.024180 51.000000
93.032010 41.000000
95.050110 87.000000
97.004070 70.000000
101.044530 56.000000
102.042660 73.000000
111.014170 51.000000
115.048220 295.000000
115.059280 148.000000
116.057330 56.000000
117.033890 186.000000
117.040140 65.000000
118.038220 65.000000
118.064290 123.000000
119.038450 48.000000
119.045650 361.000000
119.052890 92.000000
120.054460 48.000000
121.025730 116.000000
121.035580 104.000000
121.054180 56.000000
122.038800 111.000000
123.157000 41.000000
126.048580 51.000000
127.060030 61.000000
128.057590 48.000000
130.573410 51.000000
134.029590 44.000000
140.069530 116.000000
141.066360 70.000000
143.050960 63.000000
144.990890 51.000000
145.015690 128.000000
145.024120 550.000000
145.031250 177.000000
145.040180 51.000000
146.614360 41.000000
150.048020 75.000000
151.052110 68.000000
153.015240 937.000000
153.024050 794.000000
153.978940 65.000000
155.045320 65.000000
156.019360 82.000000
156.056930 48.000000
158.951800 48.000000
159.039890 85.000000
168.051360 80.000000
169.063370 61.000000
173.059420 109.000000
197.060360 68.000000
204.013470 70.000000
213.050740 73.000000
219.289870 53.000000
265.601410 53.000000
271.047850 128.000000
271.065310 160.000000

>ms2
119.047600 37.000000
119.054760 9.000000
145.025150 6.000000
153.011920 37.000000
153.018740 75.000000
154.017610 6.000000
229.044490 9.000000
243.064940 7.000000
271.058500 1000.000000
271.106900 10.000000

>ms2
271.026280 8.000000
271.059270 1000.000000
271.106020 13.000000

>ms2
67.017880 48.000000
68.992560 10.000000
68.999100 28.000000
70.001840 6.000000
91.053090 80.000000
97.029480 9.000000
109.022080 9.000000
111.008060 20.000000
119.048550 263.000000
120.055390 22.000000
121.028760 83.000000
122.031870 12.000000
125.022070 12.000000
131.044170 5.000000
135.003950 6.000000
141.056780 10.000000
141.068600 31.000000
145.016280 8.000000
145.027530 84.000000
146.034820 12.000000
147.077700 6.000000
152.986280 6.000000
152.999910 25.000000
153.018390 649.000000
154.000530 6.000000
154.018770 35.000000
155.039230 5.000000
155.049670 18.000000
157.064730 11.000000
163.037920 56.000000
164.039470 7.000000
169.063190 9.000000
173.060200 7.000000
185.060230 15.000000
187.031010 5.000000
187.041180 11.000000
187.081050 11.000000
197.050280 23.000000
197.060380 29.000000
201.055770 8.000000
202.052060 11.000000
202.064190 12.000000
203.077940 7.000000
225.054520 14.000000
225.063370 12.000000
226.055790 8.000000
229.050290 39.000000
242.059510 8.000000
243.058590 35.000000
243.070970 30.000000
244.069460 8.000000
254.056720 9.000000
271.032710 11.000000
271.059780 1000.000000

>ms2
65.042130 92.000000
67.022730 63.000000
68.997800 73.000000
69.024890 52.000000
69.031170 157.000000
79.015820 161.000000
79.055440 94.000000
81.033290 73.000000
83.014400 57.000000
85.031040 73.000000
88.025630 57.000000
89.033790 67.000000
90.297200 40.000000
91.054630 1000.000000
92.059200 184.000000
92.995740 65.000000
93.031820 42.000000
101.027540 88.000000
101.036440 46.000000
102.851650 69.000000
107.007770 75.000000
108.048160 52.000000
111.001360 40.000000
111.011910 48.000000
112.013570 42.000000
116.063400 63.000000
117.022130 44.000000
117.026880 136.000000
117.034070 103.000000
119.047420 46.000000
119.052890 42.000000
121.017450 48.000000
121.025230 174.000000
121.033270 34.000000
127.046640 42.000000
127.055760 109.000000
131.038220 40.000000
131.049160 55.000000
135.003010 67.000000
139.043610 94.000000
140.050490 67.000000
140.064440 69.000000
141.064670 55.000000
141.075900 117.000000
145.025670 505.000000
151.055040 48.000000
152.051390 61.000000
153.016570 625.000000
153.024370 134.000000
154.021990 96.000000
155.046970 212.000000
163.061800 99.000000
168.059340 145.000000
169.035350 61.000000
170.063570 63.000000
171.053630 55.000000
196.050340 119.000000
197.052690 61.000000
197.063750 84.000000
198.054310 73.000000
242.051640 42.000000
269.045320 55.000000
271.053710 42.000000

