>compound PR05161843
>parentmass 623.3115635000001
>ionization [M+H]+
>formula C38H42N2O6
>rt 251.185980
>profile qtof
#smiles_iso CN1CCC2=CC(=C3C=C2[C@@H]1CC4=CC=C(C=C4)OC5=C(C=CC(=C5)C[C@H]6C7=C(O3)C(=C(C=C7CCN6C)OC)OC)OC)OC
#smiles_can CN1CCC2=CC(=C3C=C2C1CC4=CC=C(C=C4)OC5=C(C=CC(=C5)CC6C7=C(O3)C(=C(C=C7CCN6C)OC)OC)OC)OC
#inchikey WVTKBKWTSCPRNU-KYJUHHDHSA-N
#pubchem_id 73078
#mb_accession PR301495,PR301499,PR301503,PR301506,PR301510,PR301514,PR301518,PR301522,PR301526,PR301530,PR301534,PR301537

>ms2
174.086290 10.000000
175.082020 8.000000
176.115600 5.000000
191.093410 21.000000
192.096850 8.000000
309.103550 9.000000
381.145750 7.000000
381.175200 40.000000
381.186740 25.000000
383.146550 6.000000
399.149990 6.000000
486.201170 8.000000
516.264770 5.000000
535.238220 8.000000
550.235720 5.000000
560.226620 8.000000
576.246770 8.000000
580.226560 6.000000
580.265500 20.000000
581.273070 7.000000
581.290280 5.000000
592.232420 5.000000
592.252690 24.000000
592.275940 24.000000
593.255000 11.000000
593.278500 15.000000
594.293820 5.000000
623.241940 14.000000
623.312740 1000.000000
623.368900 6.000000

>ms2
312.155090 15.000000
312.165890 9.000000
468.463200 6.000000
623.209780 11.000000
623.250370 18.000000
623.312500 1000.000000

>ms2
146.096300 5.000000
147.068100 5.000000
151.062610 7.000000
175.088790 7.000000
176.099440 8.000000
176.106050 34.000000
187.912340 10.000000
189.094770 5.000000
189.237700 5.000000
190.082460 7.000000
190.121950 7.000000
191.090550 13.000000
192.091780 18.000000
192.104770 8.000000
193.104490 8.000000
211.103730 5.000000
218.112470 9.000000
219.129120 6.000000
220.065510 5.000000
222.121630 6.000000
237.628110 5.000000
255.117770 5.000000
283.119690 5.000000
294.127990 8.000000
305.112270 7.000000
310.125610 10.000000
334.162600 8.000000
343.134160 8.000000
366.103880 5.000000
369.163850 7.000000
370.170870 5.000000
375.175260 5.000000
381.178440 46.000000
381.200840 14.000000
382.188140 20.000000
382.700260 12.000000
384.192050 6.000000
395.526980 5.000000
396.198360 8.000000
397.151370 6.000000
400.165100 9.000000
400.185760 14.000000
401.123290 8.000000
414.843750 5.000000
442.256320 5.000000
443.210450 8.000000
445.235410 10.000000
446.238160 5.000000
455.525730 8.000000
464.128660 8.000000
479.250520 5.000000
485.079960 7.000000
516.219600 8.000000
517.201420 18.000000
537.210080 8.000000
548.201420 8.000000
548.260930 5.000000
549.019710 7.000000
549.222960 11.000000
549.265200 12.000000
560.230350 9.000000
560.246830 16.000000
561.239500 17.000000
563.232300 7.000000
580.232970 12.000000
580.253660 41.000000
580.289370 33.000000
581.263120 18.000000
581.283630 42.000000
591.288330 9.000000
592.238400 33.000000
592.269040 80.000000
593.256290 7.000000
593.288270 46.000000
594.282170 16.000000
608.294190 8.000000
623.185240 12.000000
623.222290 12.000000
623.255490 47.000000
623.307430 1000.000000

>ms2
91.055950 67.000000
95.049750 21.000000
116.059930 17.000000
119.083560 19.000000
121.061940 21.000000
122.075510 15.000000
123.044370 18.000000
132.055470 22.000000
133.068590 28.000000
134.070860 23.000000
137.059270 18.000000
144.082870 27.000000
145.091570 38.000000
146.068560 15.000000
146.097730 54.000000
147.068450 25.000000
148.078780 25.000000
150.090060 14.000000
151.077910 20.000000
152.054090 29.000000
153.072080 15.000000
156.095110 18.000000
157.066990 17.000000
157.078540 19.000000
158.101030 17.000000
159.051710 23.000000
159.082600 25.000000
159.099500 36.000000
159.116040 19.000000
160.053630 42.000000
160.080520 14.000000
161.081360 51.000000
162.080250 58.000000
162.094270 94.000000
163.105450 14.000000
165.068760 19.000000
165.092380 19.000000
167.072740 14.000000
169.037090 27.000000
171.077350 17.000000
174.076450 46.000000
174.092650 1000.000000
174.131060 14.000000
175.072080 35.000000
175.084580 30.000000
175.097520 190.000000
176.076400 22.000000
176.089980 31.000000
176.100430 58.000000
176.113050 57.000000
177.070240 17.000000
177.111400 20.000000
186.097410 19.000000
189.073790 16.000000
189.087600 36.000000
189.110370 25.000000
190.078450 17.000000
190.087980 76.000000
190.128040 25.000000
191.087800 109.000000
191.107350 38.000000
192.054030 29.000000
192.089860 25.000000
192.098600 41.000000
192.111480 33.000000
193.506390 15.000000
195.063690 15.000000
195.080800 15.000000
196.068760 22.000000
196.089770 26.000000
200.107790 16.000000
201.085020 19.000000
202.093540 15.000000
204.101180 52.000000
204.111250 51.000000
205.111470 17.000000
206.053620 28.000000
206.085720 19.000000
206.103270 17.000000
208.091250 14.000000
210.100170 16.000000
212.080410 19.000000
214.115490 17.000000
220.105120 14.000000
221.083710 19.000000
223.068820 23.000000
225.099950 29.000000
227.107510 116.000000
228.106250 25.000000
229.117840 28.000000
234.100400 14.000000
235.080520 15.000000
235.112790 32.000000
236.111790 17.000000
237.076250 17.000000
237.087280 14.000000
237.103230 19.000000
239.098130 55.000000
239.112760 39.000000
241.085680 15.000000
242.331360 22.000000
243.382390 20.000000
249.089340 15.000000
250.118900 33.000000
251.103910 30.000000
252.042360 18.000000
252.090070 50.000000
254.109790 23.000000
255.110060 21.000000
261.096800 24.000000
262.120210 25.000000
263.102570 30.000000
265.123440 15.000000
266.108150 17.000000
267.097630 19.000000
268.108120 19.000000
268.118040 15.000000
269.104890 18.000000
269.134310 24.000000
269.156830 15.000000
275.088440 14.000000
279.069210 18.000000
279.117860 19.000000
280.106960 16.000000
281.107730 20.000000
283.135740 20.000000
284.096980 14.000000
284.141850 20.000000
288.115600 30.000000
289.131130 26.000000
291.085300 17.000000
292.129610 18.000000
294.113950 26.000000
294.129820 24.000000
295.096250 50.000000
295.135710 30.000000
296.138460 14.000000
297.135500 14.000000
298.102870 19.000000
299.032590 14.000000
299.164120 26.000000
302.095920 32.000000
303.119780 17.000000
303.201420 20.000000
306.113740 58.000000
307.120640 69.000000
309.121060 33.000000
309.138790 27.000000
319.108920 17.000000
319.161590 33.000000
320.132750 21.000000
321.116180 29.000000
321.132290 19.000000
322.138950 17.000000
323.119350 15.000000
323.132870 30.000000
324.112210 18.000000
324.163670 20.000000
325.126800 24.000000
325.667910 15.000000
327.148380 15.000000
328.154080 15.000000
331.110690 22.000000
333.133420 30.000000
333.148130 18.000000
334.108860 14.000000
334.135070 16.000000
335.126920 14.000000
336.109250 18.000000
337.103850 14.000000
337.124080 21.000000
337.150760 22.000000
338.126460 45.000000
338.138060 19.000000
339.146330 31.000000
340.112790 14.000000
341.128270 17.000000
342.089110 18.000000
343.127010 18.000000
346.123810 14.000000
348.136690 14.000000
349.131560 18.000000
349.169280 19.000000
350.141940 28.000000
350.150790 14.000000
350.167420 17.000000
351.148620 45.000000
352.111360 21.000000
352.158570 36.000000
353.138030 15.000000
353.182010 63.000000
355.178280 14.000000
359.135990 17.000000
359.176610 19.000000
359.669650 17.000000
361.128110 17.000000
362.419310 15.000000
363.099370 19.000000
363.173890 127.000000
363.214420 25.000000
363.240510 14.000000
364.165860 30.000000
364.180940 24.000000
364.195950 15.000000
365.095000 17.000000
365.134640 16.000000
365.150510 14.000000
365.192020 63.000000
365.204250 16.000000
366.163670 17.000000
366.184020 31.000000
367.076600 14.000000
369.119050 15.000000
369.157530 33.000000
371.146820 17.000000
372.139500 19.000000
373.103120 21.000000
373.147860 42.000000
375.164120 15.000000
379.174190 18.000000
380.166050 17.000000
381.138240 14.000000
381.167450 113.000000
381.181090 406.000000
381.202510 63.000000
382.160950 58.000000
382.191350 91.000000
383.143400 21.000000
383.175230 42.000000
383.191830 26.000000
384.169160 18.000000
384.186000 17.000000
385.151280 14.000000
387.157650 17.000000
389.174650 15.000000
392.484530 17.000000
396.161010 18.000000
398.174650 33.000000
399.724640 21.000000
403.142460 16.000000
411.140380 21.000000
411.173340 14.000000
413.130460 17.000000
413.163020 16.000000
415.164150 24.000000
415.190890 21.000000
424.166140 17.000000
426.161620 14.000000
427.175480 33.000000
428.195710 18.000000
430.103150 19.000000
440.134860 29.000000
440.211330 16.000000
443.199710 19.000000
444.212590 16.000000
445.215360 15.000000
471.193080 15.000000
487.205630 22.000000
494.240600 30.000000
502.193450 14.000000
502.219790 15.000000
504.191100 30.000000
514.186950 19.000000
515.163210 23.000000
516.224730 61.000000
519.161190 20.000000
519.204710 19.000000
520.208250 18.000000
523.167180 23.000000
526.057560 15.000000
530.220210 24.000000
531.205320 18.000000
537.210880 22.000000
544.230160 14.000000
546.203310 14.000000
546.246280 58.000000
547.216310 15.000000
547.236820 23.000000
550.225890 24.000000
550.263000 30.000000
551.286560 17.000000
560.255190 18.000000
562.171570 14.000000
562.207030 41.000000
564.254820 14.000000
565.305240 19.000000
575.253480 17.000000
576.230960 14.000000
577.232360 19.000000
578.251590 18.000000
580.282290 15.000000
591.267330 24.000000
593.181820 25.000000
593.249270 39.000000
605.268680 14.000000
607.268800 14.000000
608.264160 15.000000
623.288150 19.000000
623.317810 14.000000

>ms2
146.099120 7.000000
159.081310 6.000000
160.077850 6.000000
174.060290 6.000000
174.097230 12.000000
176.112170 12.000000
190.085920 11.000000
192.102920 13.000000
227.105300 11.000000
278.124850 5.000000
279.099980 7.000000
289.134000 5.000000
295.092650 6.000000
295.124020 6.000000
310.121920 6.000000
312.161100 46.000000
312.669070 10.000000
321.953980 6.000000
365.167600 7.000000
381.176790 20.000000
381.191130 40.000000
533.900330 6.000000
537.231690 7.000000
545.214420 6.000000
546.205570 5.000000
549.230590 5.000000
550.242800 8.000000
552.219420 6.000000
560.245790 10.000000
562.240660 13.000000
577.231570 5.000000
578.275390 6.000000
580.278440 29.000000
581.292110 19.000000
592.257630 8.000000
592.275760 27.000000
592.315800 5.000000
593.250980 8.000000
595.307250 5.000000
599.301700 5.000000
623.224060 23.000000
623.268250 38.000000
623.311040 1000.000000

>ms2
312.159180 21.000000
623.213200 10.000000
623.243530 24.000000
623.313780 1000.000000

>ms2
165.092960 5.000000
175.098860 10.000000
176.103200 21.000000
177.117360 6.000000
190.092710 9.000000
191.088090 15.000000
191.096730 23.000000
192.095830 16.000000
192.102780 16.000000
204.101650 8.000000
213.089050 6.000000
217.103590 6.000000
227.106190 8.000000
324.164550 7.000000
334.142150 6.000000
336.159790 7.000000
355.140290 6.000000
355.197540 7.000000
365.203460 6.000000
381.170010 15.000000
381.185760 42.000000
381.201390 14.000000
382.170840 11.000000
382.189580 16.000000
389.030120 9.000000
396.202910 9.000000
400.213620 6.000000
401.207240 10.000000
424.168000 5.000000
489.235660 6.000000
519.202090 8.000000
548.265870 9.000000
549.218080 8.000000
549.256710 5.000000
550.250310 7.000000
560.230530 13.000000
560.249020 7.000000
561.221310 21.000000
561.246280 15.000000
562.222840 7.000000
562.237370 8.000000
562.270200 5.000000
580.218200 7.000000
580.272280 99.000000
581.273680 48.000000
582.255130 9.000000
586.733640 12.000000
591.268010 9.000000
591.300110 11.000000
592.212220 15.000000
592.242130 37.000000
592.276550 92.000000
593.246640 8.000000
593.285460 37.000000
594.274350 20.000000
594.302980 8.000000
609.324950 6.000000
623.196900 10.000000
623.240780 16.000000
623.313600 1000.000000

>ms2
99.932350 20.000000
108.085150 14.000000
109.061680 20.000000
115.055770 21.000000
118.068180 19.000000
131.074420 18.000000
132.078570 24.000000
132.084180 29.000000
133.091130 25.000000
135.074600 21.000000
135.101410 16.000000
138.060030 18.000000
143.073060 27.000000
145.067000 65.000000
145.083210 18.000000
145.094650 33.000000
146.058470 48.000000
146.094680 86.000000
146.102260 144.000000
146.984630 16.000000
147.086690 22.000000
147.096600 18.000000
148.100590 16.000000
149.070890 21.000000
150.072240 14.000000
151.076320 36.000000
159.052510 20.000000
159.086880 19.000000
159.102890 16.000000
159.113420 20.000000
160.077650 16.000000
161.067830 21.000000
161.097730 23.000000
162.087400 86.000000
162.101290 66.000000
163.060520 32.000000
163.089570 14.000000
165.081710 14.000000
166.085570 17.000000
172.026980 16.000000
172.070500 17.000000
173.080510 16.000000
174.055910 21.000000
174.065230 15.000000
174.091960 1000.000000
175.087800 116.000000
175.102020 143.000000
175.952560 20.000000
176.074130 93.000000
176.093840 21.000000
176.107800 150.000000
177.050230 19.000000
177.070860 15.000000
177.082500 39.000000
177.111020 14.000000
178.087130 22.000000
179.079570 25.000000
180.090910 29.000000
183.077910 14.000000
184.403750 14.000000
187.099400 21.000000
188.106800 16.000000
189.084380 21.000000
189.119060 58.000000
190.082720 127.000000
190.097530 16.000000
190.121410 16.000000
191.093090 55.000000
191.100020 70.000000
192.073410 18.000000
192.091430 71.000000
192.101960 120.000000
193.066960 16.000000
193.106860 16.000000
195.085430 32.000000
197.056630 14.000000
201.115220 15.000000
204.094880 85.000000
204.112980 14.000000
205.065960 24.000000
205.076840 17.000000
205.088520 15.000000
206.120010 88.000000
208.085480 39.000000
209.074690 30.000000
211.058730 16.000000
212.407520 16.000000
213.089900 34.000000
217.126920 24.000000
219.058910 21.000000
222.113160 16.000000
223.071370 16.000000
225.087140 16.000000
225.102050 21.000000
227.101590 23.000000
227.115480 76.000000
228.114810 16.000000
228.680040 15.000000
231.072020 17.000000
232.089690 21.000000
233.092620 14.000000
234.073930 27.000000
234.101440 16.000000
234.341840 15.000000
235.071700 53.000000
235.114670 19.000000
236.086720 15.000000
237.070390 25.000000
237.083950 35.000000
237.118150 16.000000
238.087400 17.000000
238.100720 20.000000
239.076770 15.000000
239.091290 25.000000
240.111360 37.000000
241.079960 16.000000
241.092290 19.000000
246.128170 19.000000
246.138310 17.000000
248.078840 50.000000
250.096950 16.000000
251.071610 16.000000
251.101970 21.000000
252.102020 21.000000
252.110950 56.000000
253.114840 16.000000
254.118940 14.000000
255.075780 27.000000
255.090180 20.000000
257.121860 20.000000
263.105470 16.000000
263.126740 16.000000
264.109410 17.000000
265.104250 16.000000
267.105710 15.000000
268.074160 16.000000
268.104030 26.000000
268.112520 20.000000
270.145200 16.000000
272.115200 17.000000
277.089510 15.000000
277.150820 17.000000
278.083560 33.000000
279.104340 19.000000
280.099790 32.000000
281.108980 34.000000
281.134800 22.000000
282.092860 30.000000
282.128020 56.000000
283.125060 16.000000
285.097560 14.000000
286.130650 19.000000
288.076600 18.000000
292.094850 15.000000
293.081090 19.000000
293.434600 23.000000
294.098600 22.000000
296.095550 14.000000
296.130370 36.000000
296.148160 14.000000
297.120700 18.000000
298.123440 17.000000
299.060270 16.000000
299.113400 16.000000
303.111660 18.000000
304.117980 17.000000
305.110050 18.000000
307.079440 21.000000
307.107700 18.000000
307.603760 15.000000
308.144200 27.000000
309.115450 14.000000
310.091310 16.000000
310.113680 15.000000
310.141570 16.000000
318.113950 55.000000
319.124600 34.000000
320.119810 44.000000
320.136660 77.000000
320.192990 14.000000
321.137630 25.000000
322.143890 21.000000
323.088650 16.000000
323.114140 38.000000
323.127560 37.000000
325.121640 14.000000
327.148010 44.000000
329.121770 20.000000
330.136780 19.000000
331.104280 35.000000
332.119870 16.000000
332.251770 14.000000
333.118010 14.000000
334.140690 17.000000
335.103850 25.000000
335.132840 19.000000
335.160030 14.000000
336.168430 21.000000
337.122190 48.000000
337.144620 16.000000
338.128880 86.000000
338.145260 85.000000
340.138400 21.000000
342.103330 16.000000
344.476780 16.000000
345.242550 16.000000
346.134980 27.000000
348.128570 17.000000
348.139100 15.000000
348.156310 15.000000
349.144410 46.000000
350.133450 80.000000
351.130310 44.000000
351.143400 21.000000
352.141300 17.000000
352.851990 14.000000
353.146090 16.000000
353.156310 18.000000
353.182340 16.000000
353.198970 15.000000
354.169250 39.000000
358.114230 18.000000
359.110200 14.000000
362.075870 15.000000
362.128230 15.000000
363.133510 15.000000
363.159240 84.000000
363.173920 16.000000
364.148320 15.000000
364.171660 30.000000
364.201900 16.000000
365.141510 17.000000
365.169040 16.000000
365.179900 15.000000
365.937930 20.000000
366.185550 27.000000
367.140530 20.000000
367.169040 15.000000
371.168330 16.000000
372.143740 15.000000
373.130040 14.000000
373.150020 14.000000
379.142490 27.000000
380.183350 17.000000
381.117000 18.000000
381.142910 58.000000
381.156370 72.000000
381.175230 183.000000
381.191650 460.000000
381.571440 15.000000
382.125060 16.000000
382.180420 104.000000
382.197750 22.000000
383.165340 16.000000
383.201020 45.000000
386.155120 14.000000
392.113310 25.000000
394.141690 14.000000
396.199710 16.000000
397.135500 16.000000
397.187900 16.000000
398.136930 14.000000
398.177580 19.000000
399.170680 21.000000
400.128390 32.000000
400.157040 19.000000
401.152920 38.000000
401.167940 24.000000
412.127040 14.000000
412.156190 16.000000
413.161900 18.000000
414.177640 23.000000
423.204860 18.000000
425.150450 15.000000
427.391510 16.000000
430.179780 15.000000
440.004240 18.000000
440.179410 65.000000
441.191590 34.000000
442.178470 16.000000
443.189970 21.000000
443.233430 14.000000
456.202450 17.000000
456.216710 16.000000
463.165710 27.000000
470.188780 15.000000
473.082550 16.000000
474.177760 35.000000
477.209350 15.000000
485.256710 20.000000
486.136080 14.000000
488.186580 18.000000
490.164460 14.000000
501.229980 17.000000
502.170620 18.000000
502.205470 19.000000
503.348970 14.000000
504.189210 16.000000
504.215670 19.000000
505.163880 14.000000
506.217440 43.000000
508.160640 15.000000
509.270810 15.000000
513.189150 18.000000
515.161740 24.000000
516.191890 17.000000
519.898800 18.000000
524.218810 16.000000
530.168760 15.000000
530.204960 16.000000
530.237550 50.000000
531.138920 19.000000
531.181640 18.000000
532.139470 17.000000
533.149290 16.000000
533.172730 20.000000
534.189390 38.000000
534.226810 35.000000
535.257870 16.000000
543.202820 16.000000
544.186770 31.000000
546.207150 15.000000
546.227660 48.000000
547.195190 25.000000
547.218570 25.000000
548.246520 27.000000
549.269590 20.000000
551.222660 49.000000
551.263920 17.000000
551.283140 14.000000
551.321590 16.000000
561.238280 32.000000
561.262330 21.000000
561.282650 23.000000
562.276860 22.000000
563.242310 52.000000
564.211240 57.000000
577.239440 16.000000
578.260190 14.000000
579.239750 15.000000
591.241330 20.000000
593.235600 14.000000
593.266540 31.000000
607.262510 17.000000
608.291260 18.000000

>ms2
146.096710 12.000000
174.091920 11.000000
174.099930 14.000000
175.096390 5.000000
177.106200 7.000000
191.093260 11.000000
191.100190 11.000000
192.103420 13.000000
280.110170 9.000000
381.175380 16.000000
381.193700 36.000000
382.176640 9.000000
382.191800 12.000000
400.201690 6.000000
487.204470 6.000000
531.257750 6.000000
532.221130 7.000000
550.227110 5.000000
561.239870 6.000000
562.236690 6.000000
580.270200 9.000000
581.259890 8.000000
581.282650 7.000000
592.220210 7.000000
592.265870 34.000000
592.294560 14.000000
593.266600 12.000000
623.229250 24.000000
623.309880 1000.000000
623.387330 5.000000

>ms2
289.642300 6.000000
312.148930 8.000000
312.164610 9.000000
312.671970 10.000000
623.242190 19.000000
623.313480 1000.000000

>ms2
112.048610 5.000000
144.061110 7.000000
145.068450 6.000000
175.100140 7.000000
176.107250 47.000000
191.094830 21.000000
192.103160 13.000000
192.114260 5.000000
193.105830 6.000000
203.067500 7.000000
204.099170 10.000000
206.117770 7.000000
218.124210 9.000000
250.099490 6.000000
255.149630 5.000000
261.058960 6.000000
265.073300 5.000000
283.136110 7.000000
373.131470 5.000000
379.565220 6.000000
381.165710 13.000000
381.192870 50.000000
382.178470 7.000000
382.192170 18.000000
386.172120 10.000000
397.155760 10.000000
399.167300 7.000000
401.181640 5.000000
406.985470 5.000000
415.172610 5.000000
415.989840 5.000000
427.196080 6.000000
431.215940 5.000000
433.222110 5.000000
446.225280 6.000000
448.242100 5.000000
456.226100 15.000000
486.225770 7.000000
486.260040 6.000000
508.208920 5.000000
509.239870 6.000000
523.274480 5.000000
534.185060 5.000000
536.221310 5.000000
549.230960 13.000000
549.252990 6.000000
560.234440 12.000000
561.249150 8.000000
562.268920 8.000000
577.225460 5.000000
580.270140 35.000000
581.266300 27.000000
581.294920 25.000000
584.279480 7.000000
591.278380 8.000000
591.294620 8.000000
592.212160 6.000000
592.240050 13.000000
592.268860 107.000000
592.294800 20.000000
593.265560 43.000000
593.294370 40.000000
594.276370 8.000000
594.297790 28.000000
595.284240 9.000000
611.232850 8.000000
623.224610 11.000000
623.315190 1000.000000

>ms2
91.030430 16.000000
99.041190 13.000000
104.058270 12.000000
124.074610 18.000000
130.076480 14.000000
131.049000 13.000000
134.073960 29.000000
137.059480 14.000000
137.067180 20.000000
143.057530 18.000000
144.059480 19.000000
145.090100 24.000000
146.076080 13.000000
146.095320 73.000000
146.105730 28.000000
147.077150 28.000000
148.111740 13.000000
151.078450 30.000000
152.082140 15.000000
159.076970 25.000000
159.110720 16.000000
160.046040 13.000000
160.068510 18.000000
160.084750 35.000000
160.116530 26.000000
161.059970 47.000000
161.082320 18.000000
161.089320 14.000000
162.081190 30.000000
162.090850 89.000000
162.098460 28.000000
163.069180 18.000000
163.095230 12.000000
168.093920 16.000000
172.078610 16.000000
172.418050 13.000000
173.060680 18.000000
173.088150 35.000000
173.111820 14.000000
174.055940 33.000000
174.072270 31.000000
174.091860 1000.000000
174.139430 12.000000
175.076370 34.000000
175.091770 106.000000
175.100360 84.000000
176.070650 13.000000
176.109070 187.000000
177.083710 21.000000
177.113250 47.000000
178.077820 31.000000
178.093340 47.000000
179.067030 16.000000
179.091060 14.000000
188.077000 33.000000
189.106450 18.000000
189.116130 30.000000
190.088970 110.000000
191.085010 40.000000
191.097120 80.000000
191.121640 22.000000
192.102170 89.000000
193.099140 17.000000
195.077180 12.000000
199.110440 22.000000
201.839630 13.000000
204.063950 16.000000
204.102940 78.000000
205.100890 13.000000
206.098480 21.000000
206.124620 16.000000
209.063420 16.000000
209.107250 16.000000
210.064770 13.000000
211.074540 13.000000
212.329930 13.000000
219.140900 14.000000
222.097790 21.000000
222.411740 13.000000
224.117550 20.000000
225.047910 18.000000
225.081240 14.000000
226.111010 15.000000
227.108920 57.000000
234.071270 18.000000
235.070360 27.000000
236.095750 24.000000
238.053010 16.000000
238.099720 25.000000
239.106640 28.000000
240.102650 15.000000
240.117310 27.000000
240.172500 15.000000
241.120160 42.000000
244.070860 18.000000
245.059390 15.000000
246.103710 25.000000
248.456220 15.000000
249.090990 44.000000
249.102450 15.000000
250.098310 29.000000
251.061690 15.000000
251.077260 31.000000
251.103700 45.000000
251.117510 13.000000
253.089600 14.000000
253.125090 22.000000
254.115620 16.000000
254.960940 13.000000
260.071170 13.000000
264.066500 14.000000
264.116940 19.000000
265.071470 15.000000
265.127260 21.000000
269.111330 34.000000
269.123900 33.000000
270.152740 12.000000
274.089290 13.000000
277.052400 21.000000
278.119350 36.000000
279.084260 12.000000
280.106320 32.000000
280.116610 19.000000
281.085720 14.000000
281.098600 13.000000
282.091860 37.000000
283.088170 25.000000
290.091830 12.000000
292.100190 13.000000
293.110780 14.000000
294.123470 59.000000
294.147830 15.000000
295.105500 21.000000
295.128970 23.000000
296.132390 15.000000
299.143770 13.000000
303.094510 12.000000
304.093080 14.000000
305.101380 69.000000
306.151920 29.000000
307.122650 14.000000
307.132750 15.000000
308.106050 20.000000
308.120390 15.000000
309.141450 12.000000
310.120640 14.000000
310.138460 19.000000
310.154880 18.000000
310.973910 17.000000
311.120000 30.000000
312.149410 15.000000
313.127110 15.000000
320.133090 49.000000
321.139040 12.000000
321.173310 13.000000
321.817840 12.000000
322.113860 36.000000
322.134580 13.000000
322.644620 12.000000
323.115880 30.000000
323.131620 14.000000
323.141140 14.000000
324.116210 23.000000
325.128450 40.000000
332.113100 14.000000
333.132230 20.000000
335.105740 55.000000
335.126950 18.000000
335.145630 24.000000
336.118590 18.000000
337.145600 12.000000
338.108220 12.000000
338.133300 30.000000
339.115420 14.000000
339.135890 12.000000
340.167820 21.000000
341.109650 14.000000
341.143770 15.000000
341.438900 15.000000
342.157260 24.000000
342.173550 13.000000
343.138580 19.000000
344.515960 15.000000
346.137660 14.000000
347.128140 14.000000
348.145080 13.000000
348.167880 14.000000
349.134220 13.000000
349.159300 36.000000
349.173070 16.000000
350.113800 12.000000
350.135740 41.000000
351.137600 30.000000
353.156800 67.000000
354.145660 13.000000
355.146940 14.000000
356.130860 25.000000
356.147220 20.000000
357.147920 13.000000
358.130520 13.000000
359.153630 16.000000
362.364990 13.000000
363.143550 17.000000
363.183650 13.000000
364.167480 69.000000
365.153530 53.000000
365.181730 57.000000
366.152500 66.000000
369.133970 13.000000
371.110230 16.000000
372.158390 21.000000
373.139070 16.000000
376.176850 18.000000
379.075870 16.000000
381.134310 16.000000
381.148190 33.000000
381.178470 568.000000
381.193570 275.000000
382.133700 13.000000
382.179230 124.000000
383.134580 12.000000
383.166470 15.000000
383.184080 18.000000
383.206210 12.000000
384.128630 14.000000
384.146060 49.000000
384.172450 52.000000
385.152470 27.000000
386.047940 12.000000
386.172670 24.000000
393.131990 12.000000
398.163850 13.000000
399.159270 12.000000
400.157260 13.000000
400.206630 12.000000
402.136900 12.000000
404.162480 12.000000
411.160190 13.000000
412.132570 13.000000
412.147830 15.000000
412.166140 14.000000
412.213500 17.000000
413.121830 16.000000
414.197880 17.000000
415.155330 17.000000
415.229520 14.000000
423.181640 13.000000
426.170320 15.000000
429.183410 16.000000
431.207580 12.000000
437.161800 14.000000
442.212550 18.000000
443.213130 16.000000
444.128390 21.000000
445.224400 13.000000
462.159060 14.000000
472.185420 21.000000
485.240910 21.000000
492.186400 17.000000
493.219270 14.000000
501.209380 17.000000
501.241850 13.000000
503.129790 18.000000
503.188080 30.000000
505.216190 29.000000
507.205780 21.000000
516.128420 16.000000
516.193730 30.000000
517.199400 13.000000
518.214900 18.000000
519.202510 13.000000
519.218200 13.000000
520.190060 12.000000
520.220580 17.000000
521.834350 13.000000
522.209840 13.000000
530.189390 56.000000
530.206480 15.000000
531.169430 13.000000
532.221370 25.000000
534.205020 12.000000
535.229190 14.000000
536.221560 23.000000
544.222960 18.000000
546.222470 14.000000
546.301880 21.000000
548.233280 12.000000
548.276550 12.000000
549.241940 38.000000
551.230290 28.000000
557.871770 15.000000
560.247740 48.000000
560.275880 14.000000
562.197200 13.000000
563.145390 17.000000
563.171630 13.000000
563.239750 13.000000
564.249330 44.000000
566.259640 16.000000
567.268490 16.000000
576.242680 22.000000
577.218750 14.000000
577.252690 38.000000
577.273190 15.000000
578.232300 12.000000
579.289370 41.000000
585.854490 15.000000
593.257320 12.000000
607.271000 72.000000
608.288330 16.000000
623.297790 17.000000

