>compound PR05279410
>parentmass 231.1714
>ionization [M+H]+
>formula C11H22N2O3
>rt 172.800000
>profile qtof
#smiles_iso CCC(C)C(C(=O)[O-])NC(=O)C(C(C)C)[NH3+]
#smiles_can CCC(C)C(C(=O)[O-])NC(=O)C(C(C)C)[NH3+]
#inchikey PNVLWFYAPWAQMU-UHFFFAOYSA-N
#pubchem_id 5246012
#mb_accession PR311049

>ms2
71.734770 19.000000
72.076130 125.000000
72.081950 208.000000
72.516800 20.000000
120.076860 24.000000
128.072390 23.000000
131.060610 18.000000
132.104250 54.000000
183.967540 20.000000
206.091690 17.000000
231.138840 27.000000
231.148650 17.000000
231.175000 420.000000

