>compound PR05586960
>parentmass 265.1547
>ionization [M+H]+
>formula C14H20N2O3
>rt 168.000000
>profile qtof
#smiles_iso COC1=C(C=CC(=C1)C=CC(=O)NCCCCN)O
#smiles_can COC1=C(C=CC(=C1)C=CC(=O)NCCCCN)O
#inchikey SFUVCMKSYKHYLD-UHFFFAOYSA-N
#pubchem_id 10384
#mb_accession PR311012,PR311013

>ms2peaks
89.033940 28.000000
89.108730 18.000000
103.059410 22.000000
116.092490 20.000000
117.033450 75.000000
118.031860 33.000000
145.015870 69.000000
145.027210 119.000000
145.034350 73.000000
146.033720 28.000000
149.055920 25.000000
160.078120 25.000000
177.053960 638.000000
178.053090 18.000000
179.063320 18.000000
194.075990 18.000000
248.131710 94.000000
265.127290 17.000000
265.143980 111.000000
265.153930 300.000000
265.167880 72.000000

>ms2peaks
72.078030 22.000000
72.083730 57.000000
78.049950 38.000000
79.050270 23.000000
89.039370 79.000000
89.101480 29.000000
89.108890 70.000000
103.050750 20.000000
105.034050 27.000000
109.099300 21.000000
114.087910 21.000000
115.087030 45.000000
115.093960 23.000000
117.033220 280.000000
118.038190 45.000000
118.043540 43.000000
134.020320 18.000000
134.030180 39.000000
135.041290 20.000000
145.004940 21.000000
145.028790 1036.000000
146.029110 82.000000
147.032550 20.000000
147.038830 40.000000
149.061940 109.000000
150.060490 19.000000
152.067350 19.000000
162.091510 17.000000
175.105590 27.000000
177.022550 17.000000
177.038670 51.000000
177.054120 2469.000000
178.038180 20.000000
178.057340 431.000000
179.056810 29.000000
180.507510 18.000000
186.052540 25.000000
247.125720 17.000000
247.137630 18.000000
248.128140 208.000000
249.133290 54.000000
262.601930 30.000000
265.123110 20.000000
265.157290 2022.000000
265.201200 17.000000

