>compound PR06692905
>parentmass 379.0812292615384
>ionization [M+H]+
>formula C21H14O7
>rt 536.031674
>profile qtof
#smiles_iso COC1=C2C(=CC3=C(C4=C(C=C31)C(=O)OC4)C5=CC6=C(C=C5)OCO6)OCO2
#smiles_can COC1=C2C(=CC3=C(C4=C(C=C31)C(=O)OC4)C5=CC6=C(C=C5)OCO6)OCO2
#inchikey VINGQMQXGDIELG-UHFFFAOYSA-N
#pubchem_id 71587721
#mb_accession PR303958,PR303959,PR303960,PR303961,PR303962,PR303963,PR303964,PR303965,PR303966,PR303967,PR303968,PR303969,PR310443

>ms2
164.058470 7.000000
176.062390 20.000000
189.060360 6.000000
189.071260 33.000000
190.084520 7.000000
191.083940 19.000000
191.092990 7.000000
201.072810 10.000000
202.075100 14.000000
204.047530 8.000000
204.056580 26.000000
204.071460 5.000000
205.055180 14.000000
205.065890 5.000000
206.066930 11.000000
217.056370 6.000000
217.067060 6.000000
218.068440 24.000000
218.078050 7.000000
219.068940 38.000000
219.083890 104.000000
220.057690 8.000000
220.086960 14.000000
229.063170 12.000000
232.052060 30.000000
233.057430 17.000000
234.065720 25.000000
235.067410 13.000000
236.085830 10.000000
245.066150 17.000000
246.066970 205.000000
246.089720 6.000000
247.033600 8.000000
247.069630 95.000000
248.040220 6.000000
248.068390 10.000000
248.085830 12.000000
249.054900 6.000000
249.085590 6.000000
250.058960 7.000000
259.055050 8.000000
259.075740 10.000000
260.043790 17.000000
260.054080 6.000000
261.049930 22.000000
261.069980 7.000000
262.062590 156.000000
262.072450 46.000000
263.035460 6.000000
263.063840 25.000000
264.076780 13.000000
266.071590 8.000000
273.053410 16.000000
273.067750 11.000000
274.026310 6.000000
274.056270 56.000000
274.067050 131.000000
275.028660 7.000000
275.064540 46.000000
275.075230 103.000000
276.048740 6.000000
276.067780 7.000000
276.083100 49.000000
277.053500 13.000000
277.087830 298.000000
278.093930 63.000000
279.066160 6.000000
288.047360 6.000000
289.074980 10.000000
290.058960 151.000000
291.064360 48.000000
292.069240 11.000000
303.062710 159.000000
304.020720 8.000000
304.038600 27.000000
304.073700 238.000000
305.080200 456.000000
305.927030 5.000000
306.048490 7.000000
306.085660 73.000000
307.093320 10.000000
316.036440 13.000000
319.060180 36.000000
319.074430 26.000000
320.067870 127.000000
320.087980 12.000000
321.073880 66.000000
322.076050 14.000000
331.058350 11.000000
332.064480 7.000000
333.084630 14.000000
334.034940 10.000000
334.069210 18.000000
335.054960 17.000000
335.092250 614.000000
335.926180 6.000000
336.087220 61.000000
336.102200 44.000000
336.998350 5.000000
337.098140 11.000000
338.092160 11.000000
347.055600 7.000000
349.070370 494.000000
350.066470 42.000000
350.079350 74.000000
350.092740 32.000000
351.065190 11.000000
351.089390 13.000000
361.022610 6.000000
361.067570 15.000000
363.021150 5.000000
363.063110 7.000000
364.062470 6.000000
378.067540 73.000000
378.088810 18.000000
379.079010 1000.000000
379.137080 12.000000

>ms2
305.067140 6.000000
305.080870 24.000000
320.063900 6.000000
335.090760 152.000000
336.094270 31.000000
349.072050 67.000000
350.069580 10.000000
350.083950 11.000000
378.074430 47.000000
379.081330 1000.000000
379.136900 8.000000

>ms2
109.515960 6.000000
136.337220 6.000000
157.033680 12.000000
175.955200 5.000000
178.080110 6.000000
179.082410 10.000000
182.070340 7.000000
185.988240 8.000000
186.731480 10.000000
189.068710 138.000000
190.081010 31.000000
191.088880 56.000000
192.053590 8.000000
192.062260 7.000000
192.085100 11.000000
193.098110 7.000000
193.642320 8.000000
196.913440 13.000000
199.380690 9.000000
201.029790 7.000000
201.060490 12.000000
201.071670 56.000000
201.570500 8.000000
202.065810 9.000000
202.075870 26.000000
202.722820 7.000000
203.083280 10.000000
204.010210 8.000000
204.025440 8.000000
204.049420 8.000000
204.064700 14.000000
204.632860 10.000000
204.819980 8.000000
204.864360 7.000000
205.066880 28.000000
205.112180 9.000000
206.069500 48.000000
206.233250 15.000000
207.076600 10.000000
215.097980 7.000000
217.069150 130.000000
218.046490 8.000000
218.072810 58.000000
218.086260 12.000000
219.079150 267.000000
219.090670 83.000000
220.026960 7.000000
220.082670 61.000000
221.055130 5.000000
221.084780 11.000000
222.059480 5.000000
224.570660 12.000000
229.047730 6.000000
229.066040 36.000000
230.070130 5.000000
230.077390 6.000000
231.078750 27.000000
231.087140 7.000000
232.028270 8.000000
232.053800 33.000000
233.039350 10.000000
233.055330 33.000000
233.072800 7.000000
233.935930 6.000000
234.069150 15.000000
234.076900 19.000000
234.092450 6.000000
234.593250 6.000000
235.062440 19.000000
235.074550 42.000000
235.088240 5.000000
236.043910 9.000000
236.066420 6.000000
236.078230 18.000000
241.374400 5.000000
242.060240 10.000000
243.771060 8.000000
245.058040 70.000000
245.072890 7.000000
245.124480 10.000000
246.043620 10.000000
246.067210 727.000000
246.409230 10.000000
246.743160 6.000000
247.039780 5.000000
247.075790 643.000000
247.117740 7.000000
248.039320 18.000000
248.051410 10.000000
248.073260 59.000000
248.084200 78.000000
249.052890 7.000000
249.083500 29.000000
249.094540 22.000000
249.834670 5.000000
250.055010 31.000000
250.091140 20.000000
253.899720 5.000000
257.054350 6.000000
258.037960 7.000000
258.076230 10.000000
258.815340 8.000000
259.047880 8.000000
259.064540 6.000000
259.081700 16.000000
260.037810 10.000000
260.053860 15.000000
260.067870 9.000000
260.081700 7.000000
261.055790 31.000000
261.075840 6.000000
261.090060 7.000000
261.828670 8.000000
262.033450 15.000000
262.062350 660.000000
262.079530 55.000000
262.257510 6.000000
262.591550 6.000000
263.031830 6.000000
263.052980 42.000000
263.069090 177.000000
263.083680 30.000000
264.048740 6.000000
264.069180 59.000000
265.075290 19.000000
265.963780 6.000000
266.758730 11.000000
270.284240 9.000000
270.829960 7.000000
271.095180 8.000000
273.049220 13.000000
273.061280 35.000000
273.749240 6.000000
273.981080 9.000000
274.023410 6.000000
274.060610 631.000000
274.081790 24.000000
274.421720 14.000000
274.512270 5.000000
275.043580 55.000000
275.069370 394.000000
275.257450 6.000000
276.031160 15.000000
276.047640 11.000000
276.075130 140.000000
277.041410 8.000000
277.060910 34.000000
277.087490 1000.000000
277.499600 6.000000
278.092380 183.000000
279.064510 11.000000
279.087400 28.000000
279.597020 19.000000
280.079160 12.000000
286.063750 5.000000
286.296420 6.000000
287.074680 8.000000
288.037350 20.000000
288.054110 15.000000
288.087520 12.000000
289.005280 6.000000
289.035430 16.000000
289.048650 54.000000
289.967900 6.000000
289.993190 5.000000
290.026760 12.000000
290.057280 907.000000
291.064090 245.000000
291.129270 9.000000
292.060240 20.000000
292.070860 36.000000
292.582030 7.000000
293.028720 12.000000
297.276860 10.000000
302.057500 8.000000
303.025090 18.000000
303.052520 210.000000
303.062770 538.000000
303.074490 322.000000
303.118870 10.000000
303.893920 6.000000
303.957640 5.000000
304.029080 35.000000
304.069490 417.000000
304.079650 212.000000
304.197810 6.000000
304.442080 5.000000
305.051420 93.000000
305.079930 653.000000
305.107910 10.000000
305.429320 7.000000
306.048430 83.000000
306.067540 30.000000
306.078830 42.000000
306.097440 59.000000
306.960940 5.000000
307.041990 9.000000
307.055940 5.000000
307.082860 8.000000
307.815580 10.000000
308.038700 6.000000
308.094700 5.000000
316.028440 12.000000
316.039030 32.000000
317.042240 11.000000
317.080570 7.000000
318.048740 11.000000
318.063570 14.000000
319.045440 83.000000
319.059600 111.000000
319.071010 94.000000
319.118070 5.000000
320.067990 151.000000
320.084690 32.000000
321.060610 18.000000
321.078090 105.000000
322.081360 23.000000
322.097780 8.000000
328.311000 7.000000
331.041290 18.000000
331.062040 82.000000
331.873470 10.000000
332.064580 50.000000
332.075840 14.000000
333.037690 12.000000
333.059080 33.000000
333.080290 14.000000
334.036530 90.000000
334.050780 61.000000
334.069760 20.000000
334.088590 12.000000
335.043520 24.000000
335.080840 36.000000
335.345310 7.000000
336.086240 19.000000
338.677030 6.000000
346.034240 6.000000
346.046750 7.000000
348.049290 9.000000
348.060390 18.000000
348.075960 8.000000
349.000670 16.000000
349.071470 665.000000
349.103490 11.000000
350.075200 132.000000
350.105320 16.000000
350.117520 6.000000
351.057040 32.000000
351.074430 25.000000
351.096440 8.000000
357.621890 6.000000
362.209930 9.000000
364.051180 7.000000
377.080380 7.000000
378.058200 12.000000
378.079160 5.000000
379.072750 6.000000

>ms2
55.376740 10.000000
78.510120 9.000000
93.016370 21.000000
110.018520 23.000000
126.047820 13.000000
144.007430 12.000000
148.545000 22.000000
151.048100 21.000000
152.057630 51.000000
152.160720 12.000000
152.385600 9.000000
160.513180 9.000000
163.054670 92.000000
163.062270 27.000000
164.046880 27.000000
164.056550 95.000000
164.069370 52.000000
164.085160 10.000000
165.066910 58.000000
165.077730 19.000000
165.131040 9.000000
166.075640 12.000000
166.084960 10.000000
172.226180 9.000000
174.044850 63.000000
175.053960 58.000000
176.061490 884.000000
177.058780 77.000000
177.067860 189.000000
177.114530 17.000000
178.078450 151.000000
178.452760 10.000000
179.043490 12.000000
179.050400 12.000000
179.081120 30.000000
180.349260 11.000000
180.420590 10.000000
185.295650 9.000000
187.047790 32.000000
187.058170 11.000000
187.724210 12.000000
188.060900 145.000000
189.068560 1000.000000
190.049420 10.000000
190.065660 124.000000
190.080410 179.000000
190.841550 16.000000
191.034480 9.000000
191.047390 37.000000
191.060440 13.000000
191.081560 120.000000
191.091130 47.000000
191.531100 9.000000
192.047840 10.000000
192.058410 43.000000
192.088150 9.000000
193.021330 18.000000
193.061330 10.000000
193.075650 19.000000
195.035340 10.000000
199.043750 26.000000
200.062930 72.000000
200.365550 24.000000
201.069460 99.000000
202.038710 41.000000
202.047380 30.000000
202.071880 71.000000
202.089480 11.000000
203.036220 49.000000
203.048510 116.000000
203.082960 29.000000
203.887970 12.000000
204.035170 29.000000
204.056460 793.000000
205.037640 9.000000
205.063920 518.000000
205.193730 15.000000
205.377640 9.000000
206.040280 10.000000
206.060240 29.000000
206.073500 215.000000
206.522170 16.000000
207.073990 14.000000
207.081560 30.000000
207.384230 9.000000
209.044950 17.000000
210.847060 30.000000
212.830580 15.000000
213.067950 11.000000
214.049470 16.000000
215.728730 11.000000
216.055310 45.000000
216.385790 27.000000
216.559830 12.000000
217.063520 181.000000
217.158070 22.000000
218.036420 21.000000
218.064420 127.000000
218.075700 106.000000
219.034550 11.000000
219.047700 17.000000
219.079070 297.000000
220.048870 121.000000
220.066530 19.000000
220.078450 25.000000
221.051010 13.000000
221.067470 13.000000
222.073640 9.000000
223.063370 20.000000
224.444610 11.000000
227.180710 9.000000
228.054120 16.000000
229.062260 9.000000
230.027240 13.000000
230.039960 63.000000
231.046780 236.000000
231.079770 9.000000
231.603290 9.000000
232.032590 14.000000
232.045090 85.000000
232.054080 279.000000
233.032550 13.000000
233.056660 266.000000
233.071210 52.000000
233.484990 10.000000
234.045170 11.000000
234.067490 132.000000
234.107760 25.000000
234.975950 12.000000
235.057770 25.000000
235.076340 63.000000
236.083150 13.000000
244.035770 10.000000
244.044130 12.000000
244.052830 11.000000
245.028150 19.000000
245.040620 10.000000
245.060360 178.000000
246.031400 14.000000
246.066350 770.000000
246.092700 11.000000
246.478010 11.000000
247.030910 10.000000
247.038740 24.000000
247.069050 175.000000
247.083150 30.000000
247.095170 9.000000
248.026690 41.000000
248.044430 162.000000
248.056380 47.000000
248.073910 12.000000
248.086010 9.000000
249.045810 45.000000
249.058230 70.000000
250.063080 10.000000
250.517230 23.000000
251.132260 12.000000
258.029630 22.000000
258.605960 9.000000
259.030270 10.000000
260.044920 156.000000
260.055150 67.000000
260.628630 11.000000
261.042820 57.000000
261.057530 89.000000
261.091890 17.000000
261.147310 16.000000
261.196380 11.000000
261.509920 9.000000
262.061400 319.000000
262.073760 71.000000
263.061550 102.000000
263.075560 35.000000
264.237790 10.000000
268.553500 14.000000
271.033600 10.000000
271.883510 9.000000
273.055450 68.000000
274.057160 16.000000
275.054600 50.000000
275.069890 217.000000
276.044310 35.000000
276.070190 17.000000
276.085140 58.000000
277.046330 13.000000
277.066830 9.000000
277.079900 27.000000
277.561830 9.000000
278.048890 21.000000
279.055300 9.000000
288.028500 11.000000
288.053220 25.000000
289.036100 16.000000
289.052670 34.000000
290.046450 11.000000
290.060420 46.000000
290.070040 25.000000
291.064760 65.000000
291.092620 11.000000
293.061520 17.000000
303.059660 41.000000
303.073270 31.000000
304.043460 9.000000
304.062040 37.000000
304.075810 11.000000
305.035520 20.000000
305.054200 10.000000
305.179140 9.000000
306.050110 15.000000
307.037290 12.000000
307.057100 10.000000
307.078770 15.000000
319.059940 47.000000
333.088130 15.000000

>ms2
176.061480 8.000000
177.062410 14.000000
178.085310 8.000000
189.054310 6.000000
189.065670 28.000000
189.082050 6.000000
191.009510 5.000000
191.083180 17.000000
192.061980 6.000000
201.071560 22.000000
204.054260 19.000000
204.063490 6.000000
205.063100 32.000000
206.071240 12.000000
206.077090 6.000000
216.057020 7.000000
216.942250 6.000000
217.061160 19.000000
217.072330 5.000000
218.065600 26.000000
218.094420 8.000000
219.081410 73.000000
220.053050 9.000000
220.080220 17.000000
220.089050 14.000000
221.048630 8.000000
231.040300 6.000000
231.079880 7.000000
232.057950 18.000000
233.064070 26.000000
234.067600 25.000000
235.071350 16.000000
235.084750 11.000000
244.059270 7.000000
245.062670 12.000000
246.036850 7.000000
246.062380 141.000000
246.073850 109.000000
247.066600 55.000000
247.077210 96.000000
247.092060 16.000000
247.406860 9.000000
248.075030 10.000000
248.086150 11.000000
249.078090 6.000000
259.043490 7.000000
260.040560 9.000000
260.055510 8.000000
261.050900 18.000000
261.063080 8.000000
262.033970 8.000000
262.055050 69.000000
262.066990 149.000000
263.055180 10.000000
263.069030 45.000000
264.070500 20.000000
264.087920 5.000000
274.033170 7.000000
274.048130 21.000000
274.057430 60.000000
274.069850 78.000000
275.066100 132.000000
275.078950 53.000000
276.079710 25.000000
277.057340 14.000000
277.075500 60.000000
277.090640 173.000000
278.072880 17.000000
278.091310 33.000000
279.090000 9.000000
288.034330 11.000000
289.040620 9.000000
289.060700 16.000000
290.040740 24.000000
290.061950 133.000000
291.042540 8.000000
291.056730 23.000000
291.070130 19.000000
302.058530 7.000000
303.062320 88.000000
303.073730 39.000000
304.031280 5.000000
304.071470 191.000000
304.640620 5.000000
305.080350 493.000000
306.044280 10.000000
306.059690 20.000000
306.087800 99.000000
307.079770 8.000000
307.093230 13.000000
308.106380 7.000000
318.049840 10.000000
318.710270 7.000000
319.053960 17.000000
319.069270 13.000000
320.052730 47.000000
320.066620 72.000000
320.081020 16.000000
321.060520 19.000000
321.081090 21.000000
331.052610 8.000000
331.086700 6.000000
332.054260 6.000000
333.051940 7.000000
334.033970 6.000000
334.044160 15.000000
335.081390 118.000000
335.092860 410.000000
336.088470 107.000000
336.101650 44.000000
348.993160 7.000000
349.070160 449.000000
350.052000 18.000000
350.078090 88.000000
350.093630 7.000000
351.064610 6.000000
351.078400 12.000000
378.054870 14.000000
378.070040 25.000000
378.083160 39.000000
379.081450 1000.000000
379.145450 5.000000

>ms2
305.079800 12.000000
320.063420 8.000000
335.092250 145.000000
336.095640 45.000000
349.070890 71.000000
350.066040 10.000000
350.079620 15.000000
378.059660 9.000000
378.074710 46.000000
379.079900 1000.000000
379.134120 8.000000

>ms2
127.591630 7.000000
132.637540 5.000000
169.557510 5.000000
175.048170 8.000000
176.061420 12.000000
178.067840 5.000000
178.076740 5.000000
189.065580 28.000000
189.072970 56.000000
190.060210 7.000000
190.073200 7.000000
190.083130 10.000000
191.059010 7.000000
191.070010 20.000000
191.086620 52.000000
193.063260 8.000000
194.886900 7.000000
201.071720 74.000000
201.712040 6.000000
201.799820 13.000000
201.974400 13.000000
202.070340 7.000000
202.083830 11.000000
203.054020 5.000000
203.085430 36.000000
203.662540 5.000000
204.059420 28.000000
204.073550 9.000000
205.049800 10.000000
205.060940 24.000000
205.071700 5.000000
206.078190 8.000000
208.033860 7.000000
209.068920 7.000000
216.055470 8.000000
217.008990 12.000000
217.036210 9.000000
217.068890 128.000000
218.050260 6.000000
218.069530 141.000000
219.080520 443.000000
219.145370 5.000000
220.071470 14.000000
220.080960 39.000000
220.092000 17.000000
220.520110 11.000000
221.043170 6.000000
221.085620 7.000000
222.216030 5.000000
226.208820 7.000000
229.059600 6.000000
229.071660 7.000000
230.070360 6.000000
230.121610 6.000000
231.046070 9.000000
231.072540 7.000000
231.082860 9.000000
231.997060 5.000000
232.043760 25.000000
232.053040 42.000000
232.085710 7.000000
233.023860 11.000000
233.057880 68.000000
234.060040 28.000000
234.070070 33.000000
235.052370 8.000000
235.072590 50.000000
236.076170 14.000000
239.041150 6.000000
244.053590 20.000000
245.054490 13.000000
245.062210 43.000000
246.035950 5.000000
246.067840 827.000000
246.267000 8.000000
247.013990 11.000000
247.031770 12.000000
247.046230 15.000000
247.075260 554.000000
247.210800 10.000000
247.799000 11.000000
247.981460 5.000000
248.016200 14.000000
248.042330 16.000000
248.074510 33.000000
248.086560 69.000000
248.270420 21.000000
249.048450 21.000000
249.063280 11.000000
249.094620 30.000000
249.504790 5.000000
250.067500 9.000000
251.292510 6.000000
257.074280 10.000000
258.063570 23.000000
259.037510 15.000000
259.073820 12.000000
259.095700 15.000000
259.675260 6.000000
260.050810 49.000000
260.079960 5.000000
260.455570 6.000000
261.036160 8.000000
261.048650 8.000000
261.061400 26.000000
261.095000 8.000000
262.021730 5.000000
262.034850 7.000000
262.062130 650.000000
263.003020 5.000000
263.066590 269.000000
263.091710 5.000000
264.062740 10.000000
264.085910 26.000000
265.061040 7.000000
265.075500 5.000000
267.685490 5.000000
271.025510 5.000000
272.032810 13.000000
272.053250 7.000000
273.057460 37.000000
274.053710 241.000000
274.065060 516.000000
275.031490 17.000000
275.069730 457.000000
275.995060 8.000000
276.074830 161.000000
277.020020 6.000000
277.045010 23.000000
277.086330 1000.000000
277.125550 9.000000
277.217560 7.000000
278.058590 35.000000
278.080320 68.000000
278.096860 86.000000
278.216980 14.000000
278.909970 7.000000
279.022800 10.000000
279.059630 5.000000
279.086790 24.000000
280.068270 6.000000
281.434690 5.000000
287.058620 10.000000
287.068510 7.000000
288.036830 22.000000
288.052370 13.000000
289.034640 10.000000
289.046300 6.000000
290.026090 13.000000
290.057950 668.000000
290.135190 9.000000
291.060210 211.000000
292.060940 55.000000
292.077180 15.000000
293.072780 10.000000
294.922550 5.000000
295.074010 7.000000
296.174770 5.000000
297.563660 9.000000
301.893010 6.000000
302.040950 14.000000
302.065800 9.000000
303.016450 12.000000
303.037290 28.000000
303.066010 839.000000
303.723300 8.000000
304.014280 8.000000
304.032260 54.000000
304.043330 50.000000
304.072270 524.000000
304.130190 6.000000
304.368960 9.000000
304.564700 5.000000
304.922820 8.000000
305.036960 28.000000
305.056640 33.000000
305.080810 772.000000
305.148220 13.000000
306.047670 29.000000
306.059420 114.000000
306.088680 178.000000
306.138790 6.000000
306.163760 5.000000
307.043980 27.000000
307.063780 14.000000
307.087430 21.000000
308.077180 6.000000
308.278410 6.000000
308.350190 6.000000
311.055480 5.000000
312.755950 5.000000
312.870850 5.000000
313.756870 13.000000
316.002110 5.000000
316.017490 7.000000
316.030880 9.000000
316.044890 23.000000
317.047150 12.000000
317.080080 8.000000
317.094670 8.000000
318.067350 6.000000
319.061770 278.000000
320.029300 7.000000
320.067500 248.000000
321.061220 24.000000
321.074980 75.000000
321.548220 5.000000
321.575160 5.000000
322.079960 21.000000
322.359340 7.000000
329.302280 17.000000
331.025760 8.000000
331.046450 27.000000
331.068390 66.000000
332.058170 59.000000
332.076900 11.000000
333.016360 9.000000
333.041810 18.000000
333.051330 13.000000
333.076840 43.000000
333.181760 7.000000
334.047580 161.000000
334.060640 78.000000
334.080200 63.000000
335.048250 26.000000
335.060880 13.000000
335.092590 43.000000
335.102110 19.000000
345.046390 7.000000
346.044310 10.000000
347.043610 20.000000
347.069000 8.000000
348.071320 13.000000
348.361690 7.000000
349.019100 5.000000
349.047360 37.000000
349.074100 667.000000
349.887730 7.000000
350.044190 8.000000
350.070740 100.000000
350.089200 21.000000
350.436950 12.000000
351.065000 20.000000
351.086430 6.000000
351.133270 5.000000
360.069180 7.000000
361.052310 13.000000
363.049840 6.000000
364.058380 7.000000
377.058870 5.000000

>ms2
68.999770 13.000000
88.864330 13.000000
138.701950 10.000000
139.114580 9.000000
152.064900 16.000000
152.071430 8.000000
153.032290 11.000000
153.062500 11.000000
161.089510 10.000000
163.053340 39.000000
163.298710 11.000000
163.838320 9.000000
163.906490 10.000000
164.051820 15.000000
164.062420 85.000000
165.069790 65.000000
166.074950 24.000000
167.076000 9.000000
174.038710 22.000000
174.045620 37.000000
174.056300 13.000000
174.975880 15.000000
175.056440 125.000000
175.983870 13.000000
176.040620 45.000000
176.063480 937.000000
177.069530 252.000000
177.079610 48.000000
178.036670 11.000000
178.074570 227.000000
178.686920 14.000000
179.069470 9.000000
179.083440 16.000000
179.091030 17.000000
180.073720 9.000000
186.040050 15.000000
186.203410 13.000000
187.055440 86.000000
187.808150 15.000000
188.034710 9.000000
188.059810 318.000000
189.067640 812.000000
189.076340 199.000000
190.038620 9.000000
190.077380 400.000000
190.278520 10.000000
191.048980 29.000000
191.079730 73.000000
192.047450 22.000000
192.058240 83.000000
192.069370 13.000000
192.083100 24.000000
193.068910 29.000000
194.070970 10.000000
197.147520 39.000000
199.740590 24.000000
200.065400 55.000000
201.053480 14.000000
201.069210 142.000000
201.081360 58.000000
202.009930 13.000000
202.041520 97.000000
202.050670 20.000000
202.073380 60.000000
202.085770 87.000000
202.403200 10.000000
203.046080 73.000000
203.066890 18.000000
203.079160 30.000000
203.178120 9.000000
204.035450 37.000000
204.057750 726.000000
204.073940 64.000000
204.211030 13.000000
204.943040 9.000000
205.061000 282.000000
205.074110 150.000000
205.245670 16.000000
205.312770 10.000000
206.060990 55.000000
206.073650 157.000000
206.084150 28.000000
207.046840 10.000000
207.073240 31.000000
207.082230 10.000000
207.123180 14.000000
208.078400 10.000000
209.065630 11.000000
214.256180 12.000000
215.037080 24.000000
215.047230 15.000000
216.049290 29.000000
216.057300 45.000000
216.692430 12.000000
217.024150 13.000000
217.063130 235.000000
218.036090 13.000000
218.054150 11.000000
218.072110 156.000000
219.031430 10.000000
219.041500 22.000000
219.075940 28.000000
219.083470 72.000000
220.054460 90.000000
220.082180 39.000000
221.061520 69.000000
222.053730 13.000000
222.072200 36.000000
227.052110 15.000000
228.628890 9.000000
229.030980 19.000000
230.036130 67.000000
231.015850 20.000000
231.037000 78.000000
231.046950 121.000000
231.058880 15.000000
231.586880 9.000000
232.052540 246.000000
233.029360 16.000000
233.060180 239.000000
234.051360 40.000000
234.063140 134.000000
234.072300 147.000000
235.069000 10.000000
235.084690 24.000000
236.073990 15.000000
244.043530 39.000000
244.053560 11.000000
245.046780 29.000000
245.057890 102.000000
245.789980 11.000000
246.001800 10.000000
246.069270 1000.000000
246.147660 16.000000
247.044560 26.000000
247.073460 326.000000
248.048190 213.000000
248.060210 45.000000
248.079620 9.000000
249.030300 11.000000
249.054840 128.000000
250.033020 9.000000
250.062740 22.000000
251.045460 18.000000
257.067960 12.000000
258.007390 10.000000
259.056640 13.000000
259.172090 10.000000
260.029390 9.000000
260.046910 160.000000
260.065550 44.000000
260.286680 9.000000
260.557710 9.000000
261.025210 25.000000
261.045200 56.000000
261.058200 123.000000
261.071930 17.000000
262.015990 12.000000
262.064880 471.000000
263.065250 63.000000
263.075530 47.000000
264.076630 46.000000
264.506590 9.000000
264.665310 11.000000
273.054140 118.000000
274.038850 10.000000
274.061830 76.000000
274.077940 19.000000
275.021060 27.000000
275.056210 49.000000
275.071780 214.000000
275.112490 12.000000
276.031190 12.000000
276.041200 18.000000
276.058010 13.000000
276.073790 39.000000
276.092470 84.000000
276.155460 15.000000
277.054470 37.000000
277.078000 27.000000
278.048980 19.000000
278.059660 12.000000
278.091770 10.000000
288.038210 38.000000
289.042850 10.000000
289.056520 9.000000
289.066740 11.000000
290.041810 15.000000
290.057250 70.000000
290.076600 9.000000
291.020170 12.000000
291.042570 10.000000
291.060330 37.000000
291.074220 14.000000
292.071110 9.000000
302.057830 19.000000
303.054660 12.000000
303.068570 51.000000
303.082240 42.000000
304.051510 17.000000
304.073700 27.000000
305.081820 10.000000
306.046140 25.000000
318.042300 18.000000
318.056370 23.000000
319.070220 63.000000
333.084960 22.000000
340.570310 11.000000
345.649140 9.000000

>ms2
176.062420 15.000000
177.064120 10.000000
189.072330 35.000000
190.077030 31.000000
191.079380 11.000000
192.088750 9.000000
201.068360 24.000000
202.071010 11.000000
202.080800 5.000000
204.053880 38.000000
205.067520 14.000000
206.076370 8.000000
217.066910 29.000000
218.070910 20.000000
219.051650 9.000000
219.081820 115.000000
220.074010 21.000000
221.096710 11.000000
232.039870 5.000000
232.051930 24.000000
233.059220 6.000000
234.055440 8.000000
234.068190 7.000000
234.079880 12.000000
235.079280 15.000000
245.039220 10.000000
245.051130 12.000000
245.061970 16.000000
246.043300 7.000000
246.067140 201.000000
247.071790 136.000000
248.039610 8.000000
248.049300 12.000000
248.078050 12.000000
249.060290 9.000000
260.031250 9.000000
260.050840 23.000000
261.046140 21.000000
262.061040 150.000000
263.066220 57.000000
264.055850 6.000000
273.054660 25.000000
274.061740 123.000000
275.033050 6.000000
275.061830 59.000000
275.073060 90.000000
276.039180 11.000000
276.062740 12.000000
276.075260 14.000000
277.057770 14.000000
277.083500 189.000000
277.287350 5.000000
278.091430 18.000000
288.041690 8.000000
289.045170 17.000000
290.048800 61.000000
290.066860 49.000000
291.057160 46.000000
291.086610 10.000000
303.062290 125.000000
304.021790 8.000000
304.037380 11.000000
304.069240 201.000000
305.028110 9.000000
305.080440 362.000000
306.082890 78.000000
307.055020 6.000000
307.086490 30.000000
318.044490 9.000000
319.059630 27.000000
319.071840 10.000000
320.067690 92.000000
321.060390 16.000000
321.076050 15.000000
321.087010 8.000000
331.052060 8.000000
333.085050 5.000000
334.042140 22.000000
334.096980 8.000000
335.034180 6.000000
335.088380 553.000000
336.083040 26.000000
336.093350 80.000000
337.088530 27.000000
337.893950 5.000000
347.061800 6.000000
349.068570 452.000000
350.065860 56.000000
350.081020 38.000000
350.096310 16.000000
351.072450 13.000000
351.233180 6.000000
361.074980 6.000000
363.050720 6.000000
378.069950 99.000000
379.081390 1000.000000

>ms2
277.089660 5.000000
305.078250 13.000000
335.091280 143.000000
336.093660 33.000000
349.073000 105.000000
350.071110 11.000000
350.085170 8.000000
378.071290 37.000000
379.082120 1000.000000

>ms2
144.049330 7.000000
145.983870 10.000000
153.140980 6.000000
156.667830 5.000000
166.388920 11.000000
172.682880 9.000000
175.361010 5.000000
178.081630 9.000000
179.074570 7.000000
179.080570 6.000000
188.771970 5.000000
189.046540 5.000000
189.068100 50.000000
189.079060 22.000000
189.389530 6.000000
190.078200 22.000000
190.650650 9.000000
191.076430 32.000000
191.093920 15.000000
192.080030 5.000000
192.088840 7.000000
193.097670 7.000000
197.123380 6.000000
199.032850 6.000000
201.065520 59.000000
202.075990 14.000000
202.088070 10.000000
203.079410 7.000000
203.092330 21.000000
204.051100 27.000000
204.060100 49.000000
204.071440 15.000000
205.061890 42.000000
206.059750 12.000000
206.072860 28.000000
207.073590 8.000000
209.423050 9.000000
211.840270 8.000000
214.165590 5.000000
217.042110 8.000000
217.063920 128.000000
217.102830 6.000000
218.066470 20.000000
218.078200 42.000000
218.480060 7.000000
218.982450 8.000000
219.079610 366.000000
219.109480 8.000000
219.979640 5.000000
220.052250 5.000000
220.070660 7.000000
220.082000 17.000000
220.093220 47.000000
221.084530 20.000000
223.073880 5.000000
224.843990 6.000000
226.088580 12.000000
230.047350 7.000000
231.058610 5.000000
231.072430 5.000000
231.097550 8.000000
232.045590 30.000000
232.053730 25.000000
233.045430 20.000000
233.058550 33.000000
233.095400 8.000000
234.047960 17.000000
234.069730 42.000000
235.056470 12.000000
235.067550 46.000000
235.076140 39.000000
235.086990 12.000000
236.074770 17.000000
237.105420 9.000000
240.064100 6.000000
244.049880 16.000000
245.057590 71.000000
245.072810 23.000000
246.045790 28.000000
246.068590 738.000000
246.080110 176.000000
247.036760 12.000000
247.074580 548.000000
247.263440 7.000000
247.395690 6.000000
248.065750 37.000000
248.084440 58.000000
248.098050 6.000000
249.064180 5.000000
249.075840 21.000000
249.087480 27.000000
250.058040 7.000000
257.034210 6.000000
257.050630 6.000000
258.028440 6.000000
258.065550 5.000000
258.996730 8.000000
259.022310 16.000000
259.065610 31.000000
259.076870 21.000000
260.033260 5.000000
260.057920 18.000000
260.077820 9.000000
260.101870 6.000000
261.039250 6.000000
261.047210 11.000000
261.062130 12.000000
261.120330 8.000000
261.985440 5.000000
262.031430 5.000000
262.064240 776.000000
263.067720 152.000000
263.093570 10.000000
263.911290 7.000000
264.051150 11.000000
264.083160 12.000000
268.059600 7.000000
273.064610 33.000000
274.043520 67.000000
274.063110 663.000000
274.091800 15.000000
274.644900 9.000000
275.015750 8.000000
275.051850 86.000000
275.072570 451.000000
276.042330 25.000000
276.066770 59.000000
276.077910 77.000000
276.968780 8.000000
277.037170 11.000000
277.087590 1000.000000
277.207610 7.000000
277.797490 6.000000
277.863250 6.000000
278.057070 23.000000
278.076660 38.000000
278.089020 79.000000
278.102360 52.000000
279.060460 5.000000
279.085480 8.000000
279.095980 32.000000
279.382290 6.000000
287.071320 6.000000
288.017330 8.000000
288.034240 48.000000
288.043670 14.000000
288.891850 7.000000
289.045260 7.000000
289.061610 12.000000
289.078220 23.000000
289.901210 8.000000
290.002080 7.000000
290.016540 11.000000
290.054050 419.000000
290.068210 243.000000
291.053280 119.000000
291.070340 100.000000
292.067810 33.000000
293.070220 6.000000
302.055940 7.000000
302.973080 8.000000
303.022670 17.000000
303.063570 755.000000
303.085050 75.000000
303.226440 5.000000
303.782500 7.000000
303.986080 7.000000
304.020600 15.000000
304.037050 24.000000
304.049440 79.000000
304.066190 255.000000
304.080720 162.000000
304.544620 6.000000
304.898350 8.000000
305.029720 37.000000
305.047120 27.000000
305.072050 250.000000
305.083100 553.000000
306.046200 38.000000
306.058350 35.000000
306.087190 153.000000
307.052860 10.000000
307.070890 5.000000
307.092470 43.000000
307.426510 8.000000
307.508060 8.000000
308.068790 7.000000
316.034360 42.000000
316.057070 5.000000
317.048740 10.000000
317.069240 5.000000
318.026280 16.000000
318.050320 26.000000
318.076630 7.000000
318.513820 6.000000
319.041380 33.000000
319.061160 242.000000
319.084660 28.000000
319.607730 7.000000
320.067720 261.000000
320.210850 12.000000
321.056340 20.000000
321.073910 118.000000
321.092250 8.000000
322.073390 5.000000
322.084930 13.000000
323.082670 7.000000
324.093380 7.000000
331.050960 30.000000
331.071290 59.000000
331.987270 11.000000
332.049040 11.000000
332.071260 13.000000
333.026820 15.000000
333.054290 8.000000
333.079860 55.000000
333.191310 6.000000
334.041320 107.000000
334.056240 45.000000
334.086000 55.000000
334.106230 8.000000
335.070070 7.000000
335.091740 12.000000
336.067320 6.000000
336.079900 8.000000
341.073210 9.000000
346.053800 11.000000
347.057280 38.000000
347.075680 7.000000
347.154240 5.000000
348.037230 6.000000
348.050960 9.000000
348.069090 24.000000
348.209810 6.000000
348.671360 5.000000
348.999880 9.000000
349.056850 260.000000
349.075680 492.000000
350.072020 98.000000
350.088560 29.000000
350.105710 10.000000
350.179140 6.000000
350.576930 6.000000
351.081970 13.000000
352.090480 7.000000
361.064300 7.000000
365.073270 6.000000
379.088440 5.000000

>ms2
68.986580 16.000000
74.011630 21.000000
111.264230 16.000000
138.049210 13.000000
151.049380 13.000000
152.059020 35.000000
152.068450 17.000000
153.075580 12.000000
163.045350 11.000000
163.057880 20.000000
164.052640 9.000000
164.064580 103.000000
165.049940 18.000000
165.067700 70.000000
166.075640 13.000000
167.078200 19.000000
168.050090 8.000000
174.039110 35.000000
174.050050 14.000000
175.039660 9.000000
175.051330 24.000000
176.018940 10.000000
176.061100 1000.000000
176.129490 8.000000
176.808330 9.000000
176.956250 8.000000
177.054750 43.000000
177.068680 329.000000
178.078480 209.000000
178.429240 8.000000
179.055510 16.000000
179.080060 33.000000
180.056950 20.000000
181.065230 30.000000
186.039120 14.000000
187.036970 8.000000
187.053190 120.000000
188.048430 29.000000
188.061400 264.000000
188.200090 28.000000
188.902370 8.000000
189.051010 21.000000
189.070310 884.000000
189.380780 13.000000
190.040540 11.000000
190.073040 407.000000
190.246510 8.000000
191.050610 78.000000
191.083040 173.000000
192.054260 19.000000
192.064190 31.000000
192.089570 14.000000
193.062710 99.000000
193.070110 34.000000
200.065220 8.000000
201.056670 25.000000
201.070210 132.000000
201.971600 9.000000
202.039170 30.000000
202.067600 44.000000
202.078000 63.000000
202.088560 26.000000
202.937360 9.000000
203.023100 20.000000
203.047500 144.000000
203.094800 9.000000
203.839740 8.000000
204.057220 689.000000
205.062420 320.000000
206.018340 21.000000
206.070130 125.000000
206.082900 44.000000
206.335080 12.000000
206.492420 11.000000
207.040220 15.000000
207.064070 9.000000
207.076750 30.000000
207.086880 10.000000
208.047210 9.000000
208.228210 10.000000
214.099110 18.000000
215.056000 43.000000
215.084060 13.000000
216.058270 69.000000
217.048170 13.000000
217.060870 132.000000
217.069610 81.000000
218.073500 134.000000
218.088330 18.000000
218.250930 12.000000
219.037020 37.000000
219.046260 39.000000
219.078780 146.000000
219.095020 49.000000
219.985380 16.000000
220.041380 48.000000
220.048370 83.000000
220.059830 71.000000
221.049000 15.000000
221.062260 72.000000
222.061200 58.000000
227.870320 12.000000
228.059430 13.000000
229.377790 13.000000
230.022860 9.000000
230.031270 11.000000
230.047010 8.000000
231.046420 202.000000
231.084520 11.000000
231.511020 13.000000
232.040540 80.000000
232.055790 198.000000
233.038590 15.000000
233.054410 192.000000
233.064500 194.000000
234.062240 43.000000
234.070650 141.000000
234.826340 8.000000
235.061550 29.000000
235.075930 147.000000
235.811780 10.000000
236.085430 14.000000
243.045300 15.000000
244.050920 26.000000
245.060010 243.000000
245.114560 9.000000
246.039180 11.000000
246.063480 409.000000
246.073090 347.000000
247.041530 8.000000
247.051990 17.000000
247.065830 100.000000
247.075840 173.000000
247.087310 43.000000
248.047650 239.000000
248.075320 38.000000
248.207110 8.000000
248.875030 10.000000
249.048930 39.000000
249.064090 47.000000
249.087570 15.000000
250.056180 38.000000
259.035400 13.000000
260.045590 156.000000
260.060790 42.000000
260.086520 13.000000
261.046200 102.000000
261.059600 53.000000
261.085170 10.000000
262.060120 289.000000
262.082490 23.000000
263.063320 104.000000
263.075290 47.000000
264.049990 31.000000
269.242860 9.000000
273.054230 45.000000
273.065670 77.000000
274.051090 11.000000
274.061460 59.000000
274.075740 21.000000
274.275050 10.000000
275.053960 61.000000
275.070740 238.000000
276.039060 10.000000
276.064450 57.000000
276.075590 43.000000
276.094570 10.000000
277.028750 14.000000
277.057560 8.000000
277.085210 29.000000
278.059330 40.000000
288.042390 19.000000
289.019900 49.000000
289.045960 37.000000
289.058010 61.000000
290.041020 19.000000
290.054870 118.000000
290.082670 11.000000
290.957550 9.000000
291.061800 34.000000
291.927060 10.000000
302.326050 9.000000
303.043850 17.000000
303.059330 52.000000
303.071560 62.000000
303.746370 10.000000
304.026400 8.000000
304.040680 14.000000
304.081090 21.000000
306.220640 11.000000
318.035220 19.000000
318.051700 27.000000
318.070040 14.000000
319.043330 8.000000
319.065090 24.000000
320.054080 15.000000
326.687160 9.000000
334.035550 10.000000
365.591280 10.000000

>ms2
79.539550 30.000000
137.011310 26.000000
141.027180 17.000000
153.061650 17.000000
164.058470 45.000000
166.491060 23.000000
176.062390 138.000000
177.586610 24.000000
178.076260 25.000000
187.056780 18.000000
187.904540 30.000000
188.072390 31.000000
189.060360 44.000000
189.071260 224.000000
190.073170 18.000000
190.084520 51.000000
191.076680 31.000000
191.083940 129.000000
191.092990 51.000000
192.048260 26.000000
192.090760 34.000000
192.542050 17.000000
201.058110 23.000000
201.072810 72.000000
201.079620 29.000000
202.075100 93.000000
203.035930 28.000000
203.089050 28.000000
203.095980 29.000000
204.047530 57.000000
204.056580 176.000000
204.071460 36.000000
205.055180 98.000000
205.065890 37.000000
206.066930 73.000000
206.279370 28.000000
207.478960 18.000000
208.080000 22.000000
217.056370 42.000000
217.067060 43.000000
217.077590 17.000000
218.068440 167.000000
218.078050 45.000000
219.068940 262.000000
219.083890 714.000000
220.040050 21.000000
220.057690 54.000000
220.086960 93.000000
221.072390 19.000000
221.093700 23.000000
222.073100 20.000000
223.078080 33.000000
227.579220 17.000000
227.625370 17.000000
228.815400 17.000000
229.063170 81.000000
229.456990 34.000000
230.080050 20.000000
231.042300 28.000000
231.071530 17.000000
232.052060 205.000000
232.073910 17.000000
233.057430 120.000000
233.073520 27.000000
234.065720 174.000000
234.081470 18.000000
235.067410 87.000000
236.056610 25.000000
236.075290 30.000000
236.085830 68.000000
238.375050 27.000000
245.053850 26.000000
245.066150 120.000000
246.066970 1410.000000
246.089720 43.000000
246.439120 22.000000
246.465190 17.000000
247.033600 57.000000
247.047060 25.000000
247.069630 654.000000
247.942250 23.000000
248.040220 42.000000
248.068390 67.000000
248.085830 80.000000
249.054900 43.000000
249.085590 38.000000
250.058960 47.000000
250.068790 29.000000
256.031100 25.000000
256.277860 27.000000
256.676420 25.000000
257.068700 22.000000
259.055050 55.000000
259.075740 67.000000
260.043790 120.000000
260.054080 42.000000
261.025450 20.000000
261.049930 154.000000
261.069980 49.000000
262.062590 1070.000000
262.072450 316.000000
263.035460 39.000000
263.063840 175.000000
263.084900 20.000000
264.045290 26.000000
264.076780 89.000000
265.043030 27.000000
266.071590 52.000000
266.084560 18.000000
273.053410 108.000000
273.067750 73.000000
274.026310 42.000000
274.056270 385.000000
274.067050 904.000000
275.028660 51.000000
275.064540 316.000000
275.075230 710.000000
276.028810 25.000000
276.048740 38.000000
276.067780 50.000000
276.083100 337.000000
276.109100 18.000000
276.654390 21.000000
276.998930 22.000000
277.053500 86.000000
277.087830 2047.000000
277.983580 33.000000
278.093930 436.000000
278.308560 21.000000
278.410060 17.000000
279.037960 32.000000
279.066160 44.000000
280.054320 20.000000
280.089510 29.000000
283.949280 30.000000
287.028530 19.000000
287.066990 17.000000
287.500370 21.000000
287.982850 19.000000
288.025050 22.000000
288.047360 43.000000
289.025180 25.000000
289.039490 17.000000
289.074980 67.000000
290.058960 1040.000000
291.036590 19.000000
291.064360 328.000000
291.762510 20.000000
292.069240 77.000000
292.176540 27.000000
299.510220 22.000000
300.013340 19.000000
300.631560 31.000000
301.041110 18.000000
303.062710 1091.000000
303.662960 24.000000
304.020720 54.000000
304.038600 189.000000
304.073700 1638.000000
304.117460 17.000000
304.331760 17.000000
305.046510 20.000000
305.080200 3133.000000
305.474090 18.000000
305.927030 37.000000
306.048490 48.000000
306.085660 505.000000
306.111050 18.000000
306.132660 18.000000
306.250270 20.000000
307.050750 28.000000
307.079380 20.000000
307.093320 68.000000
308.131230 17.000000
314.931980 19.000000
315.747650 24.000000
316.036440 89.000000
317.042270 23.000000
318.044400 30.000000
318.058750 17.000000
319.013030 18.000000
319.034030 17.000000
319.060180 246.000000
319.074430 180.000000
319.220550 20.000000
320.067870 870.000000
320.087980 81.000000
321.073880 454.000000
322.052490 20.000000
322.076050 93.000000
327.412660 20.000000
327.462550 17.000000
328.185060 19.000000
331.058350 73.000000
331.076870 27.000000
332.064480 45.000000
333.043370 18.000000
333.066890 19.000000
333.084630 93.000000
334.034940 69.000000
334.069210 121.000000
334.098080 34.000000
335.040500 17.000000
335.054960 117.000000
335.092250 4224.000000
335.894230 20.000000
335.926180 38.000000
336.087220 418.000000
336.102200 302.000000
336.122740 26.000000
336.204130 20.000000
336.282170 17.000000
336.998350 37.000000
337.098140 74.000000
337.682560 18.000000
338.059600 24.000000
338.092160 74.000000
338.106020 18.000000
343.434720 17.000000
344.209290 22.000000
345.445190 25.000000
347.055600 48.000000
347.080810 21.000000
348.056850 18.000000
349.018520 20.000000
349.070370 3398.000000
350.044220 22.000000
350.066470 291.000000
350.079350 512.000000
350.092740 219.000000
351.065190 73.000000
351.089390 89.000000
356.885960 20.000000
360.564120 21.000000
361.022610 39.000000
361.067570 106.000000
361.080870 25.000000
363.021150 36.000000
363.063110 51.000000
364.062470 42.000000
378.067540 505.000000
378.088810 122.000000
378.751620 18.000000
379.047640 24.000000
379.079010 6876.000000
379.137080 84.000000

