>compound PR06706198
>parentmass 483.12857340000005
>ionization [M+H]+
>formula C25H22O10
>rt 297.597000
>profile qtof
#smiles_iso COC1=C(C=CC(=C1)[C@H]2[C@@H](C3=C(O2)C(=CC(=C3)[C@@H]4[C@H](C(=O)C5=C(C=C(C=C5O4)O)O)O)O)CO)O
#smiles_can COC1=C(C=CC(=C1)C2C(C3=C(O2)C(=CC(=C3)C4C(C(=O)C5=C(C=C(C=C5O4)O)O)O)O)CO)O
#inchikey BMLIIPOXVWESJG-LMBCONBSSA-N
#pubchem_id 441764
#mb_accession PR303889,PR303892,PR303894,PR303896,PR303898,PR303901,PR303903,PR303906,PR303909,PR303911,PR303913,PR303916

>ms2peaks
97.043530 13.000000
111.043670 23.000000
113.025060 10.000000
121.064790 17.000000
123.043500 41.000000
131.048840 35.000000
135.043080 44.000000
135.050200 15.000000
137.046400 26.000000
137.059650 391.000000
138.062120 51.000000
147.051130 12.000000
148.998860 11.000000
149.012500 13.000000
149.020740 28.000000
149.029710 25.000000
149.053820 28.000000
150.068530 11.000000
152.999940 29.000000
153.015200 283.000000
153.022980 224.000000
154.024610 32.000000
155.032780 13.000000
157.026570 13.000000
161.066010 22.000000
165.018590 12.000000
165.071060 10.000000
166.052120 15.000000
167.033450 88.000000
167.082530 13.000000
168.034090 12.000000
168.050400 12.000000
175.045170 13.000000
181.868740 11.000000
183.078700 10.000000
187.048740 16.000000
192.038620 15.000000
193.065600 10.000000
194.075990 13.000000
195.028370 139.000000
195.079910 31.000000
196.036850 15.000000
197.050800 22.000000
202.081950 12.000000
203.039640 17.000000
204.035110 11.000000
209.059970 41.000000
210.054290 14.000000
210.072170 10.000000
211.079010 33.000000
221.049510 12.000000
222.057310 18.000000
223.082990 10.000000
224.089780 14.000000
225.084610 34.000000
226.060550 10.000000
226.093120 12.000000
229.050980 34.000000
229.088960 10.000000
237.021360 11.000000
237.045640 13.000000
237.073930 15.000000
237.088930 13.000000
238.074720 17.000000
239.069320 37.000000
243.075060 11.000000
249.065610 14.000000
250.049070 21.000000
251.071720 40.000000
252.074050 25.000000
253.077670 20.000000
253.087160 11.000000
255.049730 12.000000
255.062120 18.000000
255.075150 11.000000
256.065640 12.000000
256.077030 10.000000
257.030060 14.000000
257.047490 12.000000
257.057040 10.000000
258.059390 16.000000
258.084170 11.000000
258.096010 25.000000
258.106200 14.000000
259.035800 10.000000
259.097170 63.000000
260.093960 12.000000
261.048190 14.000000
264.076050 10.000000
265.044830 26.000000
265.077240 14.000000
267.071170 12.000000
269.084440 21.000000
270.089510 62.000000
271.066100 11.000000
271.094180 62.000000
272.098140 18.000000
272.116300 25.000000
273.103420 12.000000
277.046780 29.000000
278.067110 10.000000
278.303380 11.000000
279.060700 34.000000
279.078800 13.000000
280.076540 18.000000
281.052950 11.000000
281.074520 14.000000
281.091800 10.000000
282.079930 23.000000
282.094390 10.000000
283.055630 28.000000
283.083310 12.000000
283.096190 11.000000
284.055020 12.000000
284.081850 11.000000
285.043820 12.000000
287.102260 11.000000
293.076140 11.000000
293.606140 10.000000
294.059720 11.000000
295.080930 10.000000
295.091310 12.000000
296.053380 29.000000
297.096590 12.000000
297.116000 10.000000
299.073330 21.000000
300.066710 15.000000
301.079590 15.000000
303.074620 12.000000
305.076870 13.000000
307.059880 23.000000
307.070310 14.000000
309.073730 50.000000
311.048250 37.000000
311.063810 23.000000
313.066620 10.000000
313.080780 39.000000
316.090000 12.000000
318.042910 12.000000
323.062070 14.000000
323.083040 13.000000
327.086670 36.000000
328.080140 14.000000
328.094390 12.000000
329.048430 14.000000
330.084660 10.000000
331.040620 10.000000
341.062530 21.000000
343.095980 10.000000
347.078220 18.000000
347.102420 12.000000
351.055760 10.000000
351.093200 11.000000
357.069980 12.000000
357.082090 15.000000
358.067320 11.000000
359.066250 20.000000
359.083740 17.000000
372.692690 10.000000
374.128420 10.000000
375.089420 24.000000
375.126400 26.000000
379.102780 26.000000
379.118380 27.000000
380.136660 21.000000
383.711910 12.000000
387.078190 10.000000
388.114650 13.000000
390.105290 29.000000
391.102630 14.000000
391.114810 21.000000
403.052830 11.000000
403.071320 11.000000
405.094060 10.000000
407.036380 10.000000
407.094600 75.000000
407.121860 92.000000
408.104030 12.000000
408.122500 74.000000
409.116700 11.000000
409.131130 11.000000
417.081880 49.000000
418.096440 10.000000
418.112610 12.000000
419.104100 14.000000
419.125920 12.000000
421.109740 10.000000
423.095340 17.000000
433.093990 21.000000
435.103580 416.000000
435.118260 246.000000
435.150240 14.000000
436.093720 13.000000
436.110720 74.000000
436.174530 21.000000
437.070590 12.000000
437.100460 22.000000
437.123080 85.000000
441.142120 10.000000
447.095340 45.000000
447.112240 49.000000
448.093140 20.000000
448.120420 13.000000
452.095730 10.000000
452.123170 33.000000
453.065430 11.000000
453.082490 11.000000
453.118380 1000.000000
454.085270 33.000000
454.120510 364.000000
455.105710 11.000000
455.137360 24.000000
462.441500 15.000000
462.910640 12.000000
464.103360 13.000000
464.130100 23.000000
465.114720 49.000000
482.127380 11.000000
483.077150 40.000000
483.129640 447.000000
483.204860 10.000000

>ms2peaks
137.065900 8.000000
153.013350 24.000000
153.025650 30.000000
195.025480 7.000000
269.088040 7.000000
271.083190 7.000000
272.103450 6.000000
289.098210 10.000000
323.058720 8.000000
329.063480 6.000000
407.106350 19.000000
435.096530 115.000000
435.113770 135.000000
436.100560 14.000000
436.121030 15.000000
436.138670 7.000000
437.109740 7.000000
441.408420 6.000000
447.117160 8.000000
453.117860 1000.000000
454.102660 60.000000
454.126010 251.000000
455.104580 18.000000
455.132110 23.000000
455.147060 9.000000
464.109680 7.000000
465.112610 15.000000
465.132900 12.000000
465.145970 13.000000
466.110720 12.000000
466.130400 8.000000
483.123020 381.000000
483.141780 300.000000

>ms2peaks
69.032460 21.000000
93.035180 10.000000
107.052170 9.000000
111.037140 11.000000
111.045730 11.000000
121.064920 12.000000
122.032700 20.000000
123.043730 18.000000
127.035870 23.000000
130.042240 11.000000
131.047910 27.000000
133.039110 17.000000
133.048900 20.000000
133.060760 9.000000
133.547290 9.000000
135.043080 36.000000
137.060100 668.000000
138.058330 10.000000
139.032070 12.000000
139.044310 21.000000
140.042470 9.000000
147.043870 20.000000
148.048830 15.000000
149.015030 12.000000
149.023280 66.000000
149.032530 23.000000
149.054500 11.000000
150.024540 16.000000
150.032240 10.000000
151.072660 46.000000
153.018780 1000.000000
153.049290 16.000000
154.024800 87.000000
155.031360 15.000000
159.039610 21.000000
160.046170 9.000000
160.333760 9.000000
161.049800 13.000000
161.060610 37.000000
161.070310 26.000000
163.071110 12.000000
167.032670 108.000000
168.043300 21.000000
175.036090 10.000000
177.050930 35.000000
178.073880 9.000000
179.031920 28.000000
179.068850 13.000000
181.022140 10.000000
183.036870 12.000000
187.039520 9.000000
193.065400 14.000000
195.029340 249.000000
195.082520 10.000000
196.035540 37.000000
201.056950 10.000000
203.036000 46.000000
205.061870 10.000000
209.064510 14.000000
210.061780 15.000000
211.077970 11.000000
213.050750 11.000000
213.092440 9.000000
213.103070 13.000000
215.038820 16.000000
217.054000 13.000000
217.914490 28.000000
221.047320 51.000000
221.066410 58.000000
222.064790 26.000000
223.074420 30.000000
223.082320 9.000000
225.086010 11.000000
225.096540 11.000000
227.062760 50.000000
227.073260 20.000000
228.031200 10.000000
228.076770 19.000000
231.069530 10.000000
233.060820 15.000000
235.086320 11.000000
237.054500 73.000000
237.082630 22.000000
238.060440 21.000000
238.084430 22.000000
239.074620 53.000000
240.075010 10.000000
241.100880 11.000000
242.058620 14.000000
249.056300 37.000000
250.066500 49.000000
251.026570 12.000000
251.072240 118.000000
251.087910 16.000000
251.351210 14.000000
252.096860 12.000000
253.069960 9.000000
253.087840 97.000000
254.089040 21.000000
254.418520 9.000000
255.059020 37.000000
255.069270 44.000000
257.043550 73.000000
257.065730 9.000000
257.074860 10.000000
258.073270 10.000000
258.089600 62.000000
258.103670 17.000000
259.096040 28.000000
259.722930 13.000000
261.066100 11.000000
261.082520 31.000000
261.120390 11.000000
263.068730 9.000000
263.075870 25.000000
264.084930 11.000000
265.024020 11.000000
265.047000 89.000000
265.063780 27.000000
265.087070 13.000000
265.097020 9.000000
265.110110 11.000000
266.045990 16.000000
266.066530 15.000000
267.052760 12.000000
268.060270 11.000000
268.069270 14.000000
269.072480 23.000000
269.092530 13.000000
270.084840 12.000000
270.096190 34.000000
270.195470 17.000000
271.059720 10.000000
271.089870 91.000000
271.099270 93.000000
271.108760 25.000000
272.104000 74.000000
273.030760 10.000000
273.112520 11.000000
277.040070 30.000000
277.050660 10.000000
278.049650 12.000000
278.093230 9.000000
279.066470 22.000000
280.064540 19.000000
281.080050 60.000000
281.092220 30.000000
282.064270 14.000000
282.084470 31.000000
282.099820 9.000000
283.052980 53.000000
283.065670 126.000000
283.098720 113.000000
283.117280 10.000000
284.072880 23.000000
284.104740 12.000000
285.037720 60.000000
285.077300 9.000000
289.081910 11.000000
289.407380 13.000000
291.061160 14.000000
293.037140 11.000000
293.074010 15.000000
293.086760 22.000000
294.061040 17.000000
294.091130 26.000000
295.058470 11.000000
295.071110 23.000000
295.094450 10.000000
296.069700 13.000000
296.084470 15.000000
297.074800 40.000000
299.050630 9.000000
299.060520 35.000000
299.093840 58.000000
299.105040 16.000000
300.070430 11.000000
300.092960 12.000000
302.083340 14.000000
303.013760 20.000000
303.058470 21.000000
305.089360 12.000000
305.115840 11.000000
306.648740 12.000000
307.064760 10.000000
309.070530 59.000000
309.082700 55.000000
309.121060 10.000000
310.055150 10.000000
310.076080 11.000000
310.473270 10.000000
311.055180 106.000000
311.096680 13.000000
312.049500 10.000000
313.066740 11.000000
314.050690 9.000000
315.659150 9.000000
317.425990 15.000000
320.109250 10.000000
321.071470 43.000000
322.061920 10.000000
323.101170 9.000000
325.112370 15.000000
330.071200 12.000000
330.091740 20.000000
331.059540 21.000000
331.088780 16.000000
334.074710 27.000000
335.085910 10.000000
336.119570 14.000000
339.076720 11.000000
339.099580 23.000000
341.083370 16.000000
346.087520 11.000000
346.098880 11.000000
347.112240 9.000000
351.081090 32.000000
351.102840 10.000000
352.096440 15.000000
357.067290 12.000000
357.087310 9.000000
358.090790 18.000000
359.087040 16.000000
361.088710 11.000000
361.112460 21.000000
361.132260 12.000000
362.097080 13.000000
363.083890 10.000000
369.075930 27.000000
370.081420 10.000000
376.090790 25.000000
379.116120 111.000000
380.082550 9.000000
380.115660 10.000000
380.130550 30.000000
383.092560 9.000000
386.066160 13.000000
386.086120 14.000000
387.091130 27.000000
389.096860 25.000000
391.111330 68.000000
391.128480 15.000000
392.093480 15.000000
392.122410 27.000000
402.119170 11.000000
403.068360 12.000000
403.086850 25.000000
404.083890 31.000000
405.095400 9.000000
406.101100 12.000000
407.078060 13.000000
407.113460 114.000000
407.130070 48.000000
408.102450 22.000000
408.125180 40.000000
408.150120 10.000000
409.112880 15.000000
414.071530 25.000000
415.082370 11.000000
417.094330 30.000000
417.112430 22.000000
418.095280 30.000000
418.110380 9.000000
421.083190 12.000000
428.149050 12.000000
435.088530 16.000000
435.110020 42.000000
435.128810 17.000000
436.107480 15.000000
449.109530 12.000000

>ms2peaks
65.038520 28.000000
67.016310 29.000000
68.998300 46.000000
93.031220 91.000000
93.039820 19.000000
103.049930 24.000000
109.027380 38.000000
109.070760 25.000000
110.027530 19.000000
111.044820 34.000000
111.049480 76.000000
115.051150 20.000000
119.048710 49.000000
119.057090 20.000000
121.028500 108.000000
121.036010 53.000000
121.043160 29.000000
122.033820 73.000000
122.047620 97.000000
123.034130 20.000000
123.047140 19.000000
124.054780 26.000000
130.044200 19.000000
131.045010 25.000000
131.054180 22.000000
133.304670 27.000000
135.044820 42.000000
137.058620 724.000000
138.029630 19.000000
138.063350 46.000000
139.026730 24.000000
139.038270 125.000000
139.060000 31.000000
141.075610 22.000000
143.049840 27.000000
143.078690 24.000000
145.025530 21.000000
146.030380 28.000000
147.035370 20.000000
147.041030 21.000000
147.051650 30.000000
149.025310 377.000000
150.067840 66.000000
151.038420 29.000000
152.055600 21.000000
152.068590 44.000000
153.017550 1000.000000
153.071850 40.000000
153.373260 19.000000
154.023420 26.000000
154.029710 19.000000
159.035450 34.000000
159.050720 19.000000
159.081920 38.000000
161.055130 63.000000
163.033710 24.000000
164.398300 43.000000
165.060200 19.000000
165.073490 90.000000
166.066790 20.000000
167.040530 47.000000
167.080920 20.000000
168.081530 25.000000
169.065870 42.000000
170.066700 22.000000
171.090070 25.000000
174.066160 21.000000
175.146300 25.000000
177.058550 20.000000
177.065510 20.000000
177.075740 21.000000
177.084010 19.000000
178.057210 22.000000
178.071490 49.000000
179.088780 31.000000
180.105500 21.000000
181.017870 34.000000
181.061230 40.000000
181.072270 99.000000
183.039510 24.000000
183.076780 62.000000
184.048770 22.000000
185.067490 22.000000
186.068850 20.000000
187.036940 22.000000
191.093800 22.000000
193.061130 74.000000
193.073590 19.000000
194.080640 20.000000
195.023070 102.000000
195.032610 63.000000
195.078490 48.000000
195.085530 18.000000
196.050450 24.000000
196.084900 21.000000
197.054020 24.000000
197.063190 19.000000
197.069840 20.000000
199.082960 30.000000
201.052470 20.000000
201.090930 53.000000
202.069950 22.000000
203.031950 20.000000
205.066910 102.000000
206.076320 22.000000
207.084810 22.000000
209.064350 39.000000
210.056440 42.000000
210.076720 19.000000
211.054060 47.000000
211.069260 19.000000
211.081020 22.000000
211.812410 20.000000
213.054370 64.000000
215.077500 22.000000
217.057050 21.000000
217.069080 25.000000
217.095500 26.000000
217.861620 28.000000
218.069690 22.000000
219.082440 20.000000
220.061250 26.000000
220.085480 30.000000
221.060870 28.000000
222.056840 43.000000
222.068740 65.000000
223.068660 69.000000
224.071110 22.000000
224.098660 19.000000
226.066310 28.000000
227.064560 21.000000
227.075060 88.000000
227.793490 20.000000
228.076710 22.000000
229.042050 43.000000
229.053500 90.000000
229.085300 19.000000
233.076320 38.000000
234.027100 20.000000
235.067580 26.000000
236.026870 29.000000
236.054200 35.000000
236.070620 35.000000
237.050870 65.000000
237.061080 24.000000
238.048220 29.000000
238.069240 54.000000
239.059190 52.000000
240.073070 21.000000
241.053010 46.000000
241.068160 29.000000
241.085750 28.000000
242.071380 19.000000
243.059490 20.000000
244.080690 26.000000
246.559160 21.000000
247.053940 24.000000
247.118270 25.000000
249.039630 22.000000
249.052380 21.000000
249.069200 24.000000
250.054370 21.000000
250.069350 56.000000
250.463120 20.000000
251.068600 33.000000
251.077220 62.000000
252.070210 20.000000
253.045090 22.000000
253.086620 20.000000
253.097960 20.000000
254.063190 22.000000
254.076160 26.000000
254.095870 26.000000
255.075910 87.000000
257.038300 43.000000
258.074740 31.000000
258.088990 28.000000
260.073000 20.000000
261.051820 19.000000
261.077790 46.000000
264.074430 28.000000
266.026950 20.000000
266.046170 22.000000
266.060880 22.000000
267.072240 48.000000
271.747280 22.000000
273.083470 34.000000
273.103090 21.000000
275.101260 20.000000
276.094270 19.000000
278.066220 29.000000
280.076320 82.000000
281.045410 20.000000
283.045620 20.000000
284.056060 19.000000
284.080200 19.000000
287.071620 28.000000
287.085570 19.000000
293.111600 21.000000
295.043430 31.000000
299.072850 19.000000
300.050260 21.000000
301.080750 130.000000
305.085420 44.000000
307.082180 33.000000
309.074190 28.000000
312.078640 30.000000
313.082890 30.000000
318.076170 20.000000
329.077240 20.000000
345.059200 33.000000
356.231110 19.000000
358.447850 37.000000
359.088750 27.000000
359.129490 21.000000
375.094020 19.000000
386.949890 20.000000
395.067200 29.000000
403.084840 20.000000

>ms2peaks
105.029460 11.000000
111.005040 11.000000
119.044990 11.000000
123.038900 11.000000
124.056110 15.000000
135.038620 10.000000
135.046020 15.000000
137.020220 16.000000
137.053710 120.000000
137.061740 249.000000
138.064770 12.000000
147.031310 13.000000
148.048740 13.000000
149.023710 70.000000
151.070850 20.000000
152.971560 11.000000
153.018860 509.000000
154.011730 27.000000
154.022340 65.000000
155.027500 15.000000
161.056870 13.000000
162.058720 10.000000
163.037290 12.000000
165.010500 17.000000
165.055940 11.000000
165.068310 10.000000
167.032700 96.000000
168.623580 13.000000
179.017300 10.000000
180.072910 10.000000
181.062740 10.000000
183.039950 12.000000
183.088960 11.000000
184.054670 13.000000
187.070650 13.000000
189.047620 12.000000
193.065890 18.000000
195.009460 13.000000
195.028270 196.000000
196.016530 10.000000
196.027920 18.000000
197.035100 12.000000
199.039180 24.000000
199.067930 13.000000
201.085660 15.000000
203.025540 12.000000
203.037370 26.000000
205.054120 13.000000
205.067090 26.000000
209.046160 11.000000
209.061680 10.000000
211.051090 25.000000
211.066740 12.000000
211.084640 16.000000
212.081340 12.000000
213.048110 14.000000
215.086040 21.000000
216.113430 20.000000
221.049870 11.000000
223.050510 15.000000
223.079180 11.000000
225.096410 11.000000
226.054240 12.000000
228.039400 11.000000
228.070980 12.000000
229.045390 10.000000
229.055180 12.000000
231.091870 11.000000
235.073700 23.000000
237.059040 26.000000
238.067660 12.000000
239.059050 11.000000
239.072300 35.000000
239.099330 12.000000
240.807050 17.000000
242.084580 10.000000
242.100650 12.000000
243.056900 12.000000
243.103130 15.000000
247.060930 13.000000
249.068850 10.000000
250.055560 11.000000
251.063660 12.000000
251.075210 25.000000
252.087750 15.000000
253.080080 25.000000
253.092730 27.000000
253.102520 29.000000
255.059190 41.000000
255.077680 34.000000
255.104030 25.000000
257.033750 26.000000
257.045410 57.000000
257.061860 12.000000
257.078430 16.000000
258.042240 12.000000
258.075100 24.000000
258.088230 26.000000
259.097050 39.000000
259.109950 12.000000
260.084050 14.000000
263.053680 15.000000
263.514590 12.000000
266.056550 18.000000
267.982730 12.000000
269.083920 29.000000
270.043950 12.000000
270.056090 11.000000
270.085570 29.000000
270.168640 11.000000
271.098420 132.000000
272.081730 15.000000
272.097050 13.000000
272.109590 11.000000
279.075930 35.000000
279.093350 16.000000
281.074890 34.000000
281.089690 15.000000
282.092860 15.000000
283.034030 11.000000
283.067260 70.000000
283.084010 76.000000
284.057010 24.000000
284.096160 15.000000
285.060880 10.000000
287.069310 11.000000
288.066830 11.000000
289.110930 12.000000
292.051390 10.000000
293.086430 14.000000
294.083740 40.000000
295.094850 10.000000
295.106900 12.000000
296.073970 12.000000
296.093630 15.000000
301.058870 14.000000
301.075680 10.000000
309.060210 13.000000
309.070370 27.000000
309.085780 12.000000
310.072270 10.000000
311.052700 43.000000
311.069180 22.000000
314.072630 11.000000
320.864840 15.000000
327.061100 10.000000
327.075620 25.000000
327.088530 27.000000
327.105830 11.000000
330.071990 13.000000
331.070130 12.000000
339.097020 12.000000
341.062840 23.000000
341.078550 19.000000
346.095520 16.000000
349.104310 11.000000
350.456970 11.000000
351.057310 20.000000
352.097500 15.000000
361.072720 11.000000
361.086000 18.000000
361.105070 26.000000
369.071410 12.000000
371.071010 12.000000
373.107880 12.000000
374.100040 15.000000
379.121280 62.000000
379.158660 24.000000
380.116760 20.000000
385.051640 10.000000
388.093510 13.000000
389.085450 12.000000
389.106080 11.000000
390.112120 12.000000
391.100950 32.000000
392.082310 10.000000
401.055450 10.000000
402.068150 15.000000
407.093570 39.000000
407.111570 214.000000
407.238280 10.000000
408.106260 12.000000
408.122650 13.000000
415.078310 25.000000
417.067140 12.000000
417.104950 16.000000
418.119840 11.000000
419.083590 12.000000
419.114010 48.000000
420.118160 13.000000
421.139160 15.000000
423.111080 16.000000
435.103550 660.000000
435.129210 63.000000
436.033840 18.000000
436.117280 147.000000
437.090390 24.000000
437.114990 24.000000
438.112610 24.000000
446.421480 14.000000
448.122590 14.000000
452.113400 22.000000
453.065220 11.000000
453.121670 1000.000000
454.109250 157.000000
454.133150 84.000000
455.106630 13.000000
455.137420 31.000000
456.111660 12.000000
459.509250 10.000000
462.076780 15.000000
464.110050 11.000000
464.130550 25.000000
465.111020 85.000000
465.130580 33.000000
465.145420 16.000000
468.017880 14.000000
483.096220 25.000000
483.130620 324.000000
483.145020 133.000000

>ms2peaks
137.060350 22.000000
153.018170 28.000000
153.027800 15.000000
158.846790 7.000000
195.031070 6.000000
259.096070 24.000000
271.097200 12.000000
283.093380 11.000000
327.091060 5.000000
407.105710 8.000000
435.075160 11.000000
435.108580 201.000000
436.111180 73.000000
437.104100 17.000000
437.118290 8.000000
441.146640 6.000000
447.103490 18.000000
447.134190 6.000000
452.116550 7.000000
453.062560 10.000000
453.119020 1000.000000
454.067960 5.000000
454.122130 284.000000
455.110530 13.000000
455.122800 39.000000
464.089570 7.000000
464.111690 9.000000
465.102390 16.000000
465.127780 23.000000
466.100560 5.000000
467.124790 6.000000
482.118070 16.000000
483.128420 644.000000

>ms2peaks
107.048720 34.000000
111.046090 11.000000
121.066310 13.000000
122.039860 11.000000
127.033100 16.000000
127.040030 13.000000
129.068680 11.000000
131.046860 11.000000
135.049350 20.000000
137.024340 25.000000
137.041180 11.000000
137.059980 524.000000
137.199160 11.000000
138.060990 29.000000
138.067840 51.000000
139.035230 28.000000
146.767380 13.000000
146.850280 15.000000
147.040280 24.000000
149.010480 25.000000
149.026540 167.000000
149.060170 44.000000
149.067960 11.000000
150.021180 13.000000
150.033770 11.000000
150.072910 15.000000
151.036450 25.000000
151.072400 29.000000
152.994160 13.000000
153.018360 1000.000000
154.023450 80.000000
155.022340 11.000000
161.057420 52.000000
161.070110 11.000000
163.033360 21.000000
163.076810 11.000000
165.064960 32.000000
167.014760 11.000000
167.028120 19.000000
167.037310 91.000000
171.798190 11.000000
175.040250 34.000000
175.048340 17.000000
177.055250 36.000000
179.029310 15.000000
181.034960 11.000000
181.069950 37.000000
186.073230 16.000000
187.039200 11.000000
193.059130 12.000000
193.073240 18.000000
194.076200 13.000000
194.993040 18.000000
195.008910 11.000000
195.028560 315.000000
196.018480 16.000000
196.033950 46.000000
197.045930 11.000000
198.066830 14.000000
200.078480 13.000000
201.048550 13.000000
201.057330 13.000000
203.041660 13.000000
204.040740 13.000000
207.056560 16.000000
209.054990 14.000000
210.073060 29.000000
211.050170 13.000000
211.078450 42.000000
212.083800 21.000000
213.054500 13.000000
213.086320 11.000000
221.060460 34.000000
222.080840 15.000000
222.447100 13.000000
223.061020 26.000000
223.081220 24.000000
225.060060 11.000000
225.092210 53.000000
226.053470 11.000000
227.037730 46.000000
227.069840 20.000000
227.079210 26.000000
228.027740 23.000000
229.047730 28.000000
229.061570 13.000000
229.088960 31.000000
229.872040 14.000000
233.054080 11.000000
235.085800 14.000000
237.047530 11.000000
237.060100 14.000000
237.072690 13.000000
238.069560 11.000000
239.033620 12.000000
239.069580 68.000000
240.066600 19.000000
240.091190 11.000000
245.047350 13.000000
245.078870 13.000000
251.069520 66.000000
251.083180 28.000000
252.080860 37.000000
253.082460 34.000000
253.094180 62.000000
254.090160 54.000000
254.549870 16.000000
255.075230 19.000000
255.107470 11.000000
256.065700 14.000000
256.075740 11.000000
257.044130 187.000000
257.055660 65.000000
257.078670 11.000000
258.089660 39.000000
259.029540 13.000000
259.084930 29.000000
259.100340 12.000000
261.055850 15.000000
261.077180 21.000000
263.077940 21.000000
265.050050 15.000000
265.088350 16.000000
266.052370 16.000000
267.076350 19.000000
269.070620 26.000000
269.085450 66.000000
270.076900 44.000000
270.096040 90.000000
271.056850 11.000000
271.066500 12.000000
271.090970 33.000000
271.101900 81.000000
272.092160 12.000000
272.100430 33.000000
273.099850 11.000000
273.112370 11.000000
277.045200 23.000000
277.594880 19.000000
278.063570 13.000000
279.047910 11.000000
279.070220 67.000000
280.061740 12.000000
280.078920 26.000000
281.063390 13.000000
281.083040 116.000000
281.109250 16.000000
282.077730 29.000000
282.085630 12.000000
283.042450 17.000000
283.062680 99.000000
283.096740 12.000000
283.113920 21.000000
283.125180 20.000000
283.135770 13.000000
284.057040 21.000000
284.074650 13.000000
285.104370 14.000000
286.031950 11.000000
287.050350 11.000000
287.075470 15.000000
287.189610 21.000000
289.037780 20.000000
289.061770 16.000000
291.054960 27.000000
291.374940 15.000000
292.067020 13.000000
293.020360 19.000000
293.044460 11.000000
293.084810 11.000000
293.093660 11.000000
295.051760 11.000000
295.062710 26.000000
295.089600 11.000000
296.062130 13.000000
296.092250 18.000000
297.078640 14.000000
297.117460 11.000000
298.037170 15.000000
298.049290 11.000000
298.095430 12.000000
299.050960 13.000000
299.061920 17.000000
299.953400 17.000000
305.053160 12.000000
307.097750 17.000000
308.087830 16.000000
309.072810 115.000000
311.038420 45.000000
311.058440 94.000000
312.045750 31.000000
312.060420 51.000000
313.065550 35.000000
313.086150 14.000000
315.097140 13.000000
317.078250 11.000000
321.084260 11.000000
323.067080 11.000000
323.082280 22.000000
324.079010 14.000000
326.574770 11.000000
329.066130 15.000000
331.060520 12.000000
331.082730 13.000000
333.078160 36.000000
335.105040 38.000000
339.110080 16.000000
340.070710 13.000000
344.056760 11.000000
347.096250 11.000000
347.123050 14.000000
351.089390 41.000000
351.105380 51.000000
353.383330 11.000000
354.046510 16.000000
358.069670 13.000000
358.083400 41.000000
358.103270 13.000000
359.093110 37.000000
361.102170 47.000000
362.105220 13.000000
364.095700 26.000000
364.110290 13.000000
365.108890 11.000000
367.058440 11.000000
368.060880 13.000000
373.093990 11.000000
375.077580 33.000000
376.089750 32.000000
377.080050 13.000000
379.027340 20.000000
379.108950 67.000000
379.122740 100.000000
380.115020 11.000000
380.133730 24.000000
381.140080 25.000000
385.068080 11.000000
387.104310 16.000000
389.082790 11.000000
389.111050 12.000000
391.076170 11.000000
391.114140 24.000000
392.115140 22.000000
397.071840 13.000000
400.085780 15.000000
403.095610 14.000000
405.096620 21.000000
407.098630 49.000000
407.117220 237.000000
408.106750 13.000000
408.115140 34.000000
408.133090 50.000000
417.091340 52.000000
417.108980 37.000000
417.217740 11.000000
418.076080 12.000000
418.121950 11.000000
419.120610 13.000000
435.104280 46.000000
435.125490 34.000000
436.136930 18.000000
437.122650 13.000000

>ms2peaks
65.036000 50.000000
66.037390 35.000000
68.998170 25.000000
81.034410 24.000000
89.183570 28.000000
91.047970 26.000000
91.057020 26.000000
93.027780 33.000000
94.041040 31.000000
97.029680 24.000000
105.039270 30.000000
107.042800 25.000000
108.021000 33.000000
109.033810 30.000000
111.041110 52.000000
112.044620 26.000000
112.119430 25.000000
113.050830 30.000000
115.054640 28.000000
117.038150 24.000000
118.049840 28.000000
119.042910 67.000000
119.049580 55.000000
119.472390 24.000000
120.009800 24.000000
121.027500 339.000000
122.034150 87.000000
124.056930 26.000000
127.051330 22.000000
128.064730 26.000000
131.049480 55.000000
135.038150 28.000000
137.059570 705.000000
137.072830 42.000000
138.060680 45.000000
139.036740 101.000000
141.035370 31.000000
143.053330 47.000000
145.027070 24.000000
146.032960 29.000000
147.045790 161.000000
148.020140 22.000000
148.044130 69.000000
149.016780 50.000000
149.026060 250.000000
150.022110 45.000000
150.032320 66.000000
152.058060 76.000000
153.005630 64.000000
153.019000 1000.000000
153.048610 26.000000
153.056920 34.000000
153.070630 87.000000
154.020110 26.000000
154.068050 25.000000
155.043120 24.000000
155.080860 22.000000
157.067120 96.000000
161.026920 34.000000
161.059680 35.000000
163.036270 50.000000
164.060300 58.000000
165.068860 309.000000
165.081050 63.000000
166.084320 22.000000
167.040220 51.000000
167.048260 31.000000
167.081240 62.000000
169.057430 54.000000
169.068220 52.000000
169.091060 26.000000
171.440570 22.000000
173.061360 63.000000
175.040440 45.000000
175.077670 24.000000
177.065490 107.000000
178.055630 31.000000
179.079610 29.000000
179.098130 28.000000
181.060760 88.000000
181.070160 76.000000
181.078800 37.000000
182.054170 24.000000
182.066530 48.000000
182.078980 39.000000
183.063930 35.000000
183.075150 28.000000
183.082280 54.000000
184.045490 28.000000
185.056980 31.000000
188.011400 28.000000
189.056490 46.000000
189.073610 25.000000
190.075880 31.000000
193.066010 201.000000
194.065480 26.000000
194.077410 37.000000
195.018660 54.000000
195.032650 64.000000
195.079820 248.000000
195.094330 34.000000
196.032390 30.000000
196.418640 26.000000
197.063740 24.000000
198.058000 22.000000
199.055950 29.000000
199.068240 45.000000
200.055850 29.000000
201.040530 38.000000
201.050000 26.000000
203.034260 29.000000
204.040760 29.000000
205.066450 139.000000
206.068910 56.000000
208.052750 34.000000
209.046600 60.000000
209.053790 54.000000
209.067030 22.000000
210.059920 64.000000
210.070220 88.000000
211.045560 60.000000
211.069670 111.000000
211.085280 38.000000
212.078380 55.000000
213.060270 143.000000
213.089370 25.000000
218.073620 30.000000
218.100890 25.000000
219.086820 30.000000
220.045410 22.000000
221.053540 24.000000
221.063570 22.000000
221.098400 26.000000
222.053090 26.000000
222.068730 33.000000
223.076310 72.000000
223.137440 26.000000
225.052080 26.000000
225.090820 41.000000
226.070660 26.000000
227.038860 30.000000
227.064010 22.000000
228.041490 56.000000
228.058750 24.000000
229.050200 178.000000
231.040330 22.000000
231.078610 28.000000
234.070370 24.000000
235.078000 63.000000
236.039200 26.000000
237.056580 212.000000
237.085490 41.000000
238.055710 106.000000
238.069120 104.000000
239.077970 28.000000
240.082060 22.000000
241.048580 47.000000
241.065160 35.000000
242.046660 26.000000
245.049420 33.000000
245.090300 29.000000
246.066470 30.000000
247.065830 45.000000
247.079530 22.000000
248.042190 22.000000
250.059750 75.000000
250.077700 26.000000
251.066940 84.000000
252.069500 37.000000
253.038820 28.000000
253.086790 59.000000
254.046510 54.000000
254.062010 24.000000
254.085910 26.000000
255.067840 30.000000
257.052550 45.000000
258.064090 31.000000
258.080540 30.000000
260.077390 29.000000
261.090610 28.000000
262.072970 30.000000
263.074340 30.000000
267.046300 22.000000
268.063540 50.000000
268.093080 24.000000
268.107120 26.000000
269.043240 22.000000
272.072200 22.000000
272.086610 37.000000
273.092190 39.000000
274.084410 26.000000
276.081940 31.000000
277.058350 26.000000
278.062410 25.000000
280.072200 22.000000
280.113680 25.000000
281.066190 25.000000
282.065860 22.000000
282.099820 31.000000
283.073460 62.000000
284.082980 31.000000
285.066560 64.000000
285.085270 35.000000
286.070400 30.000000
287.043180 22.000000
288.073760 22.000000
289.078490 62.000000
289.088680 25.000000
291.067470 24.000000
297.057460 28.000000
301.088870 22.000000
304.073210 33.000000
307.104250 24.000000
309.067320 24.000000
309.079960 24.000000
312.074070 22.000000
313.079100 56.000000
313.091610 66.000000
314.092130 38.000000
314.703090 24.000000
317.080510 42.000000
322.713290 26.000000
323.064420 26.000000
343.062130 37.000000
343.101010 24.000000
345.079990 132.000000
346.087890 22.000000
347.108830 28.000000
356.076260 33.000000
360.102870 24.000000
364.101960 29.000000
379.122680 47.000000
383.049160 22.000000
383.325810 22.000000
387.034210 33.000000
387.073060 22.000000
401.070500 35.000000

>ms2peaks
67.020790 9.000000
107.047410 11.000000
111.008130 11.000000
112.043970 15.000000
120.057920 9.000000
122.032490 12.000000
123.045470 26.000000
124.047550 10.000000
127.051910 11.000000
130.293330 13.000000
137.043660 10.000000
137.059330 279.000000
138.047970 13.000000
138.060440 23.000000
138.075650 12.000000
143.051300 12.000000
143.406650 10.000000
147.041310 9.000000
148.050640 21.000000
149.015690 9.000000
149.023740 50.000000
149.058330 11.000000
151.033360 10.000000
151.040860 14.000000
153.016280 415.000000
153.024580 135.000000
154.019520 33.000000
159.035170 12.000000
161.061340 20.000000
162.069230 9.000000
164.031600 12.000000
166.071870 11.000000
167.035460 50.000000
167.046220 13.000000
172.918200 12.000000
175.040470 10.000000
176.031490 18.000000
179.038890 16.000000
181.002590 11.000000
181.018220 10.000000
181.068420 12.000000
183.028640 12.000000
187.076170 10.000000
191.099990 11.000000
193.060210 12.000000
194.059810 11.000000
194.075910 12.000000
195.029310 126.000000
195.068660 10.000000
196.025010 12.000000
196.036820 9.000000
196.087460 10.000000
197.063450 11.000000
198.067630 11.000000
201.041180 13.000000
201.052870 10.000000
203.042500 10.000000
205.065200 36.000000
209.498200 14.000000
210.069060 24.000000
211.066800 10.000000
213.048340 12.000000
213.060410 9.000000
214.066560 11.000000
221.059710 39.000000
221.071260 17.000000
223.080120 20.000000
224.083450 12.000000
226.057570 11.000000
226.963210 10.000000
227.030960 11.000000
227.074040 9.000000
229.054460 24.000000
229.091320 10.000000
235.064740 9.000000
235.077420 13.000000
236.032040 9.000000
236.087310 14.000000
237.051100 10.000000
237.061540 10.000000
238.055730 14.000000
239.069550 45.000000
240.073550 11.000000
240.085340 10.000000
241.083100 11.000000
249.051820 10.000000
249.062190 9.000000
251.062090 13.000000
251.075970 27.000000
253.051650 15.000000
253.073320 9.000000
253.085450 31.000000
253.093320 21.000000
253.112080 9.000000
254.057170 10.000000
255.069890 34.000000
257.046810 36.000000
257.056550 20.000000
257.078340 11.000000
258.058780 9.000000
258.072690 10.000000
258.091860 17.000000
259.086820 35.000000
259.101350 67.000000
260.091030 9.000000
263.069240 22.000000
264.070400 10.000000
265.064330 23.000000
265.088200 11.000000
268.066160 16.000000
268.846250 11.000000
269.086850 10.000000
270.061680 11.000000
270.083770 16.000000
270.093810 19.000000
271.061770 9.000000
271.093260 75.000000
271.107670 64.000000
277.058590 21.000000
279.056340 11.000000
279.071200 9.000000
281.036470 9.000000
281.047180 11.000000
281.077970 22.000000
282.082920 14.000000
283.051540 51.000000
283.063720 88.000000
283.096470 51.000000
285.039430 10.000000
285.050960 32.000000
287.574770 9.000000
289.103910 20.000000
291.084840 12.000000
291.104220 15.000000
293.070950 10.000000
293.098110 9.000000
294.041900 12.000000
295.058070 20.000000
297.101840 18.000000
297.660100 12.000000
299.091030 12.000000
300.053860 18.000000
300.095030 11.000000
300.419340 13.000000
300.905610 9.000000
301.099910 12.000000
302.077670 18.000000
309.077000 92.000000
310.076840 15.000000
310.089050 10.000000
311.036680 19.000000
311.050450 29.000000
311.069430 70.000000
312.053530 10.000000
313.074770 10.000000
321.104520 9.000000
321.342930 9.000000
322.079650 10.000000
323.043640 10.000000
327.084290 22.000000
327.099950 20.000000
328.095310 20.000000
329.066500 19.000000
329.081670 11.000000
331.090060 10.000000
340.092130 10.000000
341.078670 13.000000
341.112880 9.000000
344.407590 10.000000
351.102420 11.000000
352.091980 9.000000
358.111300 14.000000
359.099370 12.000000
361.099060 9.000000
361.128230 11.000000
363.083890 12.000000
370.078370 11.000000
375.076970 11.000000
376.085940 11.000000
379.104060 29.000000
379.124110 10.000000
380.105010 12.000000
380.248380 13.000000
381.095090 9.000000
387.089510 12.000000
388.092590 10.000000
389.090240 38.000000
389.108980 14.000000
390.104920 10.000000
391.114750 11.000000
398.079160 11.000000
399.659360 10.000000
403.082240 14.000000
406.103610 9.000000
407.114590 247.000000
408.110500 67.000000
409.124420 11.000000
413.085210 12.000000
417.096710 9.000000
418.086210 10.000000
418.106690 35.000000
419.109340 23.000000
419.133060 10.000000
420.081910 12.000000
420.104190 35.000000
420.143950 12.000000
423.332120 11.000000
424.109410 11.000000
433.963470 9.000000
435.057680 11.000000
435.108370 632.000000
436.066770 10.000000
436.101620 60.000000
436.120300 101.000000
437.120970 62.000000
441.922360 11.000000
447.088710 9.000000
447.103820 11.000000
453.062350 10.000000
453.118680 1000.000000
453.220490 11.000000
453.421600 11.000000
454.118500 146.000000
454.132900 113.000000
454.252040 11.000000
455.122560 45.000000
455.137940 15.000000
455.220490 10.000000
456.111820 9.000000
464.091710 10.000000
464.109160 10.000000
465.097110 20.000000
465.118680 32.000000
466.099610 9.000000
466.117610 28.000000
483.060580 9.000000
483.110570 59.000000
483.131990 367.000000

>ms2peaks
137.060490 27.000000
153.019070 20.000000
153.027710 6.000000
259.113830 5.000000
271.098330 9.000000
283.109710 6.000000
289.102450 15.000000
311.098300 7.000000
329.057040 6.000000
329.072810 7.000000
339.091220 10.000000
354.772580 5.000000
407.113250 6.000000
435.108250 228.000000
436.117100 66.000000
438.118680 6.000000
447.115140 10.000000
452.112760 13.000000
453.068150 7.000000
453.119660 1000.000000
454.078580 6.000000
454.124300 292.000000
454.617220 6.000000
455.091000 6.000000
455.120510 31.000000
455.133420 24.000000
464.102570 6.000000
465.113490 49.000000
483.128690 639.000000

>ms2peaks
83.016530 13.000000
109.070310 13.000000
111.003020 16.000000
111.008350 14.000000
111.045110 26.000000
119.043940 11.000000
121.061950 19.000000
123.041950 70.000000
125.059230 13.000000
127.041250 28.000000
131.044530 11.000000
135.041720 34.000000
135.048540 17.000000
136.824870 13.000000
137.028960 19.000000
137.060240 603.000000
138.055660 11.000000
138.063080 13.000000
138.072530 14.000000
139.031100 13.000000
139.043180 11.000000
139.687230 22.000000
147.028020 11.000000
147.042270 12.000000
148.045720 19.000000
149.022770 205.000000
149.060810 71.000000
149.099690 17.000000
150.032420 14.000000
151.035570 12.000000
151.043720 13.000000
151.072050 35.000000
152.981960 12.000000
153.002790 28.000000
153.017170 1000.000000
153.390260 19.000000
154.012010 14.000000
154.021820 138.000000
155.019100 11.000000
161.065410 53.000000
162.060290 17.000000
162.068770 40.000000
163.041400 13.000000
165.010990 19.000000
166.075440 20.000000
166.529680 11.000000
167.030410 79.000000
167.036640 95.000000
167.076750 11.000000
167.089050 17.000000
168.029940 17.000000
168.041170 14.000000
169.038180 26.000000
175.033540 15.000000
175.051740 24.000000
177.017870 38.000000
187.040190 17.000000
189.050310 33.000000
189.058610 15.000000
193.055250 17.000000
193.066830 25.000000
195.025940 237.000000
195.043780 12.000000
195.093690 11.000000
196.020600 14.000000
196.035350 52.000000
196.077190 12.000000
196.089660 13.000000
197.033330 11.000000
197.085070 22.000000
199.075200 42.000000
199.084370 42.000000
200.057860 11.000000
201.049360 19.000000
202.621690 12.000000
203.030300 28.000000
204.025540 13.000000
206.037520 18.000000
211.070140 28.000000
213.098280 21.000000
217.046310 13.000000
217.933410 13.000000
218.061870 15.000000
221.055130 28.000000
222.068250 30.000000
223.080920 19.000000
224.071610 40.000000
225.041660 14.000000
225.089110 56.000000
227.066180 13.000000
228.044340 11.000000
228.069320 15.000000
228.079440 48.000000
229.086940 11.000000
230.057360 13.000000
232.061130 19.000000
234.736690 18.000000
236.042510 32.000000
237.053940 29.000000
237.097810 16.000000
238.064250 28.000000
238.106380 14.000000
239.038500 11.000000
239.059890 54.000000
240.080830 11.000000
241.083570 15.000000
243.067730 15.000000
243.104640 19.000000
249.055210 43.000000
249.093900 13.000000
250.081470 13.000000
251.061310 35.000000
251.071030 93.000000
251.092030 14.000000
252.055020 17.000000
252.068860 24.000000
252.079620 28.000000
252.977190 18.000000
253.082260 46.000000
255.063930 48.000000
255.099490 11.000000
256.077730 15.000000
257.037660 73.000000
257.051300 89.000000
257.517240 11.000000
258.046140 13.000000
258.075680 24.000000
258.085850 15.000000
259.093540 12.000000
259.105990 11.000000
261.061310 29.000000
261.075990 16.000000
262.065610 15.000000
262.077120 13.000000
263.064580 35.000000
263.079320 12.000000
265.032140 11.000000
265.046200 34.000000
265.082920 12.000000
267.057160 12.000000
268.069000 17.000000
269.074620 63.000000
269.087620 81.000000
270.084930 93.000000
271.065490 14.000000
271.095370 169.000000
271.112640 11.000000
272.104430 26.000000
273.484250 12.000000
277.052120 29.000000
279.051060 13.000000
279.061490 13.000000
279.074800 13.000000
280.072050 39.000000
281.031590 13.000000
281.045440 17.000000
281.060850 17.000000
281.072970 42.000000
281.083710 52.000000
283.056060 137.000000
283.080200 13.000000
283.092320 15.000000
283.102720 11.000000
284.071170 19.000000
284.084960 28.000000
284.108760 11.000000
285.034450 13.000000
285.068270 13.000000
285.085690 13.000000
285.113560 18.000000
286.109920 24.000000
290.093380 13.000000
293.030980 15.000000
293.046140 48.000000
293.075960 17.000000
293.088530 44.000000
294.048860 26.000000
295.056670 83.000000
295.088260 11.000000
296.097350 13.000000
297.073880 42.000000
297.105530 11.000000
298.037540 11.000000
298.076020 17.000000
298.146880 11.000000
299.041020 19.000000
299.092160 29.000000
300.050750 13.000000
301.017240 19.000000
301.086060 14.000000
307.104920 13.000000
309.072170 27.000000
309.089260 16.000000
311.027680 14.000000
311.053100 69.000000
312.055450 13.000000
313.048770 15.000000
313.084750 11.000000
314.091090 24.000000
315.082890 11.000000
319.093200 24.000000
319.105650 21.000000
321.082790 11.000000
323.088990 12.000000
324.082520 12.000000
326.110600 13.000000
327.076450 18.000000
327.087430 14.000000
328.089080 13.000000
329.081420 11.000000
331.050750 12.000000
331.066620 14.000000
333.102540 14.000000
335.085140 14.000000
338.110780 13.000000
343.062320 26.000000
347.087340 11.000000
349.106960 11.000000
351.044220 14.000000
351.089750 28.000000
352.090610 18.000000
358.083740 27.000000
359.092740 43.000000
360.099670 27.000000
361.102540 25.000000
361.113010 30.000000
369.058810 11.000000
370.101380 11.000000
370.338560 12.000000
373.096340 19.000000
375.079500 12.000000
375.244690 13.000000
376.087370 16.000000
379.075380 11.000000
379.091580 16.000000
379.117100 169.000000
380.123840 60.000000
380.800810 16.000000
383.094180 15.000000
385.072910 17.000000
389.085330 14.000000
389.133270 11.000000
390.110990 13.000000
391.124390 27.000000
392.103360 36.000000
394.016970 11.000000
398.052430 11.000000
400.100370 13.000000
401.099430 13.000000
402.099430 12.000000
405.101470 14.000000
406.116760 31.000000
407.112120 214.000000
408.096680 13.000000
408.119840 58.000000
410.122560 17.000000
417.084380 36.000000
417.101840 25.000000
418.082430 11.000000
419.108120 24.000000
419.124970 11.000000
429.118870 17.000000
435.110410 51.000000
438.111540 13.000000
454.093930 13.000000
464.129520 11.000000

>ms2peaks
69.034070 19.000000
88.011300 28.000000
89.036190 32.000000
91.046460 26.000000
91.053000 20.000000
93.034020 34.000000
93.068030 18.000000
94.041780 46.000000
95.030230 26.000000
97.027200 43.000000
107.051710 35.000000
107.087710 20.000000
109.026050 34.000000
110.036820 18.000000
116.592170 30.000000
119.053220 19.000000
121.030420 82.000000
121.070050 20.000000
122.034970 114.000000
123.022770 38.000000
123.037910 20.000000
123.046550 18.000000
131.048490 66.000000
131.059070 21.000000
131.092010 21.000000
135.044400 37.000000
137.024860 18.000000
137.060290 529.000000
139.036320 110.000000
139.548580 27.000000
140.148800 17.000000
141.067670 21.000000
143.052340 20.000000
146.035390 19.000000
147.040970 98.000000
149.022110 240.000000
149.042280 27.000000
150.024440 18.000000
151.043780 18.000000
151.057860 23.000000
151.073900 21.000000
152.017960 20.000000
152.055010 21.000000
152.059920 35.000000
152.988510 21.000000
153.019030 1000.000000
153.060440 106.000000
153.070770 34.000000
154.017140 41.000000
154.025470 21.000000
154.065730 20.000000
155.068540 38.000000
155.082170 29.000000
159.045170 43.000000
161.049620 18.000000
161.057110 20.000000
161.063980 29.000000
163.028990 34.000000
163.037090 17.000000
164.047940 18.000000
165.020980 44.000000
165.070820 38.000000
165.077640 79.000000
166.017990 18.000000
166.074020 21.000000
166.087340 22.000000
167.026700 18.000000
167.037920 24.000000
167.057070 23.000000
167.088060 27.000000
169.063550 35.000000
170.061250 17.000000
170.067980 20.000000
172.054120 25.000000
174.072530 32.000000
176.270610 22.000000
177.015760 17.000000
177.059360 54.000000
177.070190 20.000000
178.084590 17.000000
179.074890 20.000000
180.056110 20.000000
181.052670 36.000000
181.064640 110.000000
182.058240 18.000000
182.065700 17.000000
183.080110 25.000000
184.084580 40.000000
187.036560 20.000000
192.054460 27.000000
193.055800 18.000000
193.066310 118.000000
195.032730 74.000000
195.048400 49.000000
195.075160 20.000000
195.083340 18.000000
196.027690 36.000000
197.056920 18.000000
197.066650 39.000000
199.078610 18.000000
202.023790 17.000000
204.041320 17.000000
204.087920 20.000000
205.066740 111.000000
206.068920 20.000000
207.065980 17.000000
209.059840 65.000000
210.060560 18.000000
210.072530 18.000000
211.033690 17.000000
211.083440 21.000000
212.081220 17.000000
213.057130 43.000000
215.023640 20.000000
215.064440 20.000000
216.063110 22.000000
217.058820 29.000000
219.030320 47.000000
219.067950 25.000000
221.060960 132.000000
221.075150 50.000000
222.071490 62.000000
223.075230 20.000000
224.085650 23.000000
225.049360 35.000000
225.057860 16.000000
225.093770 58.000000
225.907140 23.000000
227.063390 25.000000
227.092320 17.000000
229.050630 37.000000
229.060650 51.000000
230.055250 27.000000
232.050110 24.000000
233.054720 25.000000
235.061330 18.000000
235.071820 72.000000
235.089260 23.000000
237.047320 41.000000
237.064770 26.000000
238.070540 20.000000
239.061860 21.000000
239.075560 18.000000
241.044890 23.000000
241.056920 20.000000
242.062240 21.000000
242.100370 21.000000
243.100140 18.000000
247.076640 37.000000
250.059520 26.000000
250.078490 25.000000
251.050130 38.000000
251.064160 30.000000
251.082890 25.000000
253.050540 22.000000
253.083850 29.000000
254.049500 18.000000
254.060620 85.000000
255.063520 40.000000
255.104890 18.000000
256.034940 21.000000
256.053890 27.000000
256.226440 18.000000
259.075200 17.000000
263.065700 17.000000
265.057800 18.000000
265.067750 20.000000
266.066620 43.000000
267.069400 18.000000
267.080410 25.000000
268.059510 20.000000
269.082090 26.000000
271.081760 17.000000
271.098570 45.000000
272.083340 21.000000
274.048710 21.000000
276.073030 18.000000
277.048280 29.000000
277.067350 19.000000
277.087920 20.000000
279.071320 22.000000
279.081700 18.000000
281.074040 19.000000
282.048220 18.000000
283.071470 44.000000
289.083440 61.000000
290.068020 17.000000
295.063480 18.000000
295.076750 22.000000
295.105040 20.000000
296.075810 17.000000
300.075200 18.000000
300.089140 50.000000
301.086210 17.000000
302.095550 17.000000
303.054050 18.000000
304.073970 22.000000
313.733460 27.000000
318.097320 24.000000
329.067170 21.000000
342.088900 21.000000
347.090640 17.000000
347.108490 21.000000
360.102910 28.000000
363.092190 17.000000
364.091520 30.000000
375.086120 19.000000
376.089970 37.000000
397.061310 19.000000
420.114470 20.000000

