>compound PR06752944
>parentmass 517.2195
>ionization [M+H]+
>formula C26H32N2O9
>rt 236.400000
>profile qtof
#smiles_iso C=CC1C(C(=COC1OC2C(C(C(C(O2)CO)O)O)O)C(=O)O)CC3C4=C(CCN3)C5=CC=CC=C5N4
#smiles_can C=CC1C(C(=COC1OC2C(C(C(C(O2)CO)O)O)O)C(=O)O)CC3C4=C(CCN3)C5=CC=CC=C5N4
#inchikey CMMIVMFGFIBAGC-UHFFFAOYSA-N
#pubchem_id 73806906
#mb_accession PR311109

>ms2peaks
69.038950 18.000000
105.076110 17.000000
109.028760 16.000000
112.965240 16.000000
127.047530 19.000000
131.048030 30.000000
131.080900 16.000000
134.066020 20.000000
137.589980 18.000000
144.072130 91.000000
144.081380 43.000000
144.090350 65.000000
145.040710 17.000000
145.055470 17.000000
145.089940 20.000000
150.971970 18.000000
151.035950 39.000000
152.073380 16.000000
156.075790 58.000000
157.076860 18.000000
158.087130 16.000000
158.094670 22.000000
158.105640 18.000000
168.083040 23.000000
169.045490 17.000000
169.095320 18.000000
170.103000 55.000000
172.074040 18.000000
172.102620 28.000000
175.046570 17.000000
176.071560 28.000000
177.050190 16.000000
177.059250 18.000000
180.066530 20.000000
181.076740 20.000000
181.101070 18.000000
182.087280 17.000000
182.098280 20.000000
184.072630 16.000000
194.094120 35.000000
194.108490 19.000000
204.089190 16.000000
205.084260 16.000000
206.090520 24.000000
208.119430 17.000000
210.105850 18.000000
213.120300 17.000000
216.973330 17.000000
219.103820 20.000000
221.122510 16.000000
222.094770 97.000000
223.093890 50.000000
224.069170 18.000000
224.095840 17.000000
224.122190 41.000000
225.095870 17.000000
231.101060 18.000000
232.556780 20.000000
234.083330 20.000000
238.060780 17.000000
238.076460 21.000000
238.086120 17.000000
239.091060 32.000000
240.120880 20.000000
246.056850 27.000000
246.084950 20.000000
246.128270 18.000000
246.137830 22.000000
250.077410 18.000000
250.089450 17.000000
250.107320 34.000000
250.151110 16.000000
250.169650 23.000000
251.083660 57.000000
251.094280 114.000000
251.128130 25.000000
252.099000 18.000000
252.116100 17.000000
260.106230 16.000000
260.116030 17.000000
262.106320 19.000000
264.124820 25.000000
267.894040 20.000000
268.097140 92.000000
268.110660 23.000000
269.093440 46.000000
269.103820 51.000000
269.114840 32.000000
276.129820 20.000000
277.134220 19.000000
277.147800 17.000000
280.092040 16.000000
280.140140 16.000000
282.141200 18.000000
283.160740 30.000000
284.119960 19.000000
290.114690 34.000000
294.133120 16.000000
294.153440 21.000000
294.172090 17.000000
296.270870 16.000000
302.128450 34.000000
308.119170 19.000000
308.147580 22.000000
309.133120 20.000000
309.144440 22.000000
311.149900 18.000000
320.128420 212.000000
320.145110 74.000000
322.146730 24.000000
326.131380 99.000000
326.142850 74.000000
327.146180 19.000000
337.146270 52.000000
337.160000 101.000000
337.986210 17.000000
338.114320 16.000000
338.129460 51.000000
338.143920 107.000000
338.168820 48.000000
338.407560 16.000000
339.117610 33.000000
339.137850 40.000000
339.149440 23.000000
340.144990 17.000000
340.170680 21.000000
351.112460 16.000000
355.144070 20.000000
355.172910 17.000000
355.194120 44.000000
356.170470 20.000000
366.079040 18.000000
368.016850 24.000000
368.083400 20.000000
374.154270 23.000000
375.056920 16.000000
427.726620 22.000000
450.169620 31.000000
471.223820 16.000000
475.238560 16.000000
482.182460 17.000000
488.187290 18.000000
500.166380 153.000000
500.201510 748.000000
501.168580 40.000000
501.204590 111.000000
501.238490 20.000000
502.178410 17.000000
503.220920 21.000000
516.210210 19.000000
517.158200 18.000000
517.218080 2670.000000

