>compound PR06852207
>parentmass 149.059706
>ionization [M+H]+
>formula C9H8O2
>rt 350.403960
>profile qtof
#smiles_iso C1=CC=C(C=C1)/C=C/C(=O)O
#smiles_can C1=CC=C(C=C1)C=CC(=O)O
#inchikey WBYWAXJHAXSJNI-VOTSOKGWSA-N
#pubchem_id 444539
#mb_accession PR303321,PR303323,PR303325,PR303328,PR303330,PR303332,PR303335,PR303337,PR303339

>ms2peaks
77.042270 42.000000
82.520670 35.000000
103.054860 167.000000
131.050980 1000.000000
132.046570 42.000000
132.572200 56.000000
149.056530 52.000000

>ms2peaks
103.043400 17.000000
103.050580 35.000000
103.055800 14.000000
128.561190 15.000000
131.048310 1000.000000
131.416090 14.000000
132.052080 121.000000
132.059360 93.000000
133.050750 18.000000
147.043520 18.000000
149.054370 45.000000
149.059880 123.000000

>ms2peaks
103.038380 1000.000000

>ms2peaks
103.038040 50.000000
103.046490 58.000000
103.056580 146.000000
131.050980 1000.000000
132.048680 55.000000
133.050000 50.000000
149.065600 52.000000

>ms2peaks
103.051210 24.000000
103.062190 31.000000
131.050230 1000.000000
132.052610 59.000000
149.056000 89.000000
149.064870 23.000000

>ms2peaks
103.050380 1000.000000

>ms2peaks
103.033010 94.000000
103.055340 659.000000
117.963880 67.000000
131.031200 118.000000
131.048570 1000.000000
132.044040 82.000000
134.860980 71.000000
149.018970 106.000000

>ms2peaks
90.499830 34.000000
103.049590 49.000000
111.024930 24.000000
131.024120 22.000000
131.030620 24.000000
131.048510 1000.000000
132.050220 72.000000
132.057220 56.000000
149.013850 31.000000
149.061170 149.000000

>ms2peaks
103.058730 1000.000000

