>compound PR06765553
>parentmass 153.067
>ionization [M+H]+
>formula C7H8N2O2
>rt 140.400000
>profile qtof
#smiles_iso CC1=C(C=C(C=C1)[N+](=O)[O-])N
#smiles_can CC1=C(C=C(C=C1)[N+](=O)[O-])N
#inchikey DSBIJCMXAIKKKI-UHFFFAOYSA-N
#pubchem_id 7444
#mb_accession PR310800

>ms2peaks
100.512340 20.000000
107.046040 19.000000
107.060520 188.000000
107.090450 17.000000
113.962210 20.000000
114.052880 17.000000
120.079770 34.000000
125.022010 17.000000
133.479840 16.000000
135.056920 40.000000
153.065230 373.000000
153.077420 27.000000

