>compound PR06591386
>parentmass 285.0757499076924
>ionization [M+H]+
>formula C16H12O5
>rt 458.065846
>profile qtof
#smiles_iso COC1=CC=C(C=C1)C2=COC3=CC(=CC(=C3C2=O)O)O
#smiles_can COC1=CC=C(C=C1)C2=COC3=CC(=CC(=C3C2=O)O)O
#inchikey WUADCCWRTIWANL-UHFFFAOYSA-N
#pubchem_id 5280373
#mb_accession PR302075,PR302078,PR302082,PR302086,PR302090,PR302093,PR302097,PR302100,PR302104,PR302108,PR302112,PR302116,PR310861

>ms2peaks
96.019580 6.000000
118.041230 15.000000
123.042080 10.000000
124.013980 13.000000
149.023360 12.000000
152.009410 47.000000
153.015290 14.000000
158.035280 17.000000
179.035160 11.000000
185.056000 6.000000
186.069930 8.000000
197.060070 15.000000
213.051800 52.000000
213.061650 15.000000
214.060120 14.000000
225.055880 7.000000
229.088530 23.000000
241.053890 15.000000
242.056150 47.000000
243.060350 7.000000
252.041400 6.000000
253.047000 35.000000
254.047900 5.000000
269.036740 14.000000
269.046510 37.000000
270.044310 17.000000
270.054200 48.000000
271.048000 6.000000
285.027770 9.000000
285.075230 1000.000000
285.125370 16.000000

>ms2peaks
285.075680 1000.000000
285.124660 24.000000

>ms2peaks
55.120830 11.000000
63.086240 6.000000
65.039020 8.000000
67.021230 8.000000
77.038750 5.000000
79.050420 16.000000
81.036000 8.000000
84.006740 7.000000
90.035720 8.000000
90.042520 6.000000
90.049410 26.000000
93.036840 6.000000
95.049580 10.000000
95.515060 9.000000
96.020210 12.000000
103.053530 37.000000
103.058750 9.000000
103.285110 11.000000
104.023430 7.000000
105.069790 64.000000
106.071600 13.000000
107.050250 26.000000
108.060760 6.000000
109.025840 8.000000
111.006240 49.000000
112.015270 9.000000
112.626820 8.000000
115.055730 17.000000
116.054990 5.000000
118.041630 197.000000
118.895360 6.000000
119.043380 57.000000
121.016410 8.000000
121.028210 55.000000
121.061650 16.000000
122.031510 8.000000
122.464040 6.000000
123.013890 8.000000
123.042880 236.000000
123.977550 6.000000
124.015130 218.000000
124.028050 6.000000
124.046680 16.000000
124.065320 9.000000
125.020220 37.000000
126.019280 8.000000
128.060060 11.000000
128.072080 6.000000
129.069500 8.000000
130.042630 7.000000
130.056920 6.000000
131.045430 13.000000
131.052960 7.000000
131.067170 7.000000
132.056530 26.000000
132.067340 5.000000
133.026250 13.000000
133.064800 152.000000
135.042480 37.000000
137.009120 6.000000
137.051330 6.000000
139.045870 11.000000
141.066330 14.000000
141.071170 29.000000
143.042820 9.000000
144.055450 18.000000
144.255840 14.000000
145.023060 6.000000
145.055390 32.000000
145.067540 55.000000
146.055760 7.000000
147.043140 15.000000
147.080150 11.000000
149.000460 9.000000
149.024520 382.000000
149.055540 6.000000
149.346530 7.000000
150.025310 29.000000
151.045150 18.000000
151.060790 6.000000
151.073260 5.000000
152.009840 1000.000000
152.058070 11.000000
152.992610 13.000000
153.017350 514.000000
153.063370 11.000000
154.003250 10.000000
154.017140 37.000000
154.024690 17.000000
154.314870 8.000000
155.054760 17.000000
155.838330 8.000000
157.025860 5.000000
157.061920 9.000000
157.070740 6.000000
157.955670 8.000000
158.004380 6.000000
158.020130 18.000000
158.036770 373.000000
158.068820 13.000000
158.308500 5.000000
159.038910 68.000000
159.076580 8.000000
161.058870 7.000000
162.072720 10.000000
163.037860 13.000000
164.496550 6.000000
165.043990 7.000000
165.067280 6.000000
167.042340 5.000000
168.059800 37.000000
169.064150 78.000000
171.042950 31.000000
172.051940 21.000000
173.016330 11.000000
173.058850 23.000000
173.084670 6.000000
173.102680 8.000000
179.034060 87.000000
179.045290 13.000000
180.033040 14.000000
181.212190 7.000000
182.039860 6.000000
183.039890 12.000000
183.049350 25.000000
183.080890 40.000000
184.038280 9.000000
184.048750 26.000000
184.502230 5.000000
184.655750 10.000000
185.024670 8.000000
185.056590 31.000000
186.031750 15.000000
186.061570 82.000000
186.068730 64.000000
186.078990 15.000000
187.024630 11.000000
187.059710 6.000000
187.073720 6.000000
187.081940 6.000000
190.498150 7.000000
191.034450 19.000000
192.037640 9.000000
196.056000 40.000000
196.888260 6.000000
197.056300 149.000000
197.066020 108.000000
198.067250 49.000000
198.081920 6.000000
199.062210 6.000000
199.072300 14.000000
200.038410 9.000000
200.049320 34.000000
200.218380 7.000000
201.051480 31.000000
201.088470 13.000000
202.055560 9.000000
202.096250 5.000000
202.780850 11.000000
205.219450 7.000000
206.032260 10.000000
207.048160 6.000000
210.029970 8.000000
211.042830 32.000000
211.066770 30.000000
211.079740 18.000000
212.031400 6.000000
212.042130 5.000000
212.992800 15.000000
213.018910 10.000000
213.035060 52.000000
213.054960 618.000000
213.134020 10.000000
214.022570 7.000000
214.058640 245.000000
214.065990 98.000000
215.049970 15.000000
215.060290 12.000000
215.077010 6.000000
215.187560 5.000000
215.716510 7.000000
216.028170 11.000000
216.038390 8.000000
217.045380 6.000000
224.053500 53.000000
225.032470 7.000000
225.054500 68.000000
225.062380 39.000000
226.058690 8.000000
226.066830 8.000000
227.037920 7.000000
227.061190 18.000000
227.070940 6.000000
228.038040 6.000000
228.065750 9.000000
228.090970 5.000000
229.058880 8.000000
229.086690 533.000000
229.238950 8.000000
230.074340 13.000000
230.090730 28.000000
230.131670 6.000000
231.087370 7.000000
231.106920 9.000000
235.040590 5.000000
237.883260 6.000000
238.064290 5.000000
239.075470 6.000000
241.003800 6.000000
241.048250 278.000000
242.057750 919.000000
243.061000 151.000000
243.091490 5.000000
243.276920 8.000000
244.038710 8.000000
244.070190 21.000000
248.513410 7.000000
251.026350 6.000000
251.039760 8.000000
252.005770 7.000000
252.034000 59.000000
252.045360 32.000000
252.055070 15.000000
253.015850 10.000000
253.050840 584.000000
254.053470 128.000000
254.905880 8.000000
255.033220 9.000000
255.049970 7.000000
255.063800 23.000000
256.073330 21.000000
258.090940 5.000000
267.059720 9.000000
268.037230 8.000000
268.963170 5.000000
268.989590 6.000000
269.006380 7.000000
269.045350 821.000000
269.126950 6.000000
270.003750 10.000000
270.023960 36.000000
270.050110 654.000000
270.059970 284.000000
270.092900 8.000000
271.047880 26.000000
271.060910 52.000000
272.035060 5.000000
272.062470 25.000000
282.449890 9.000000
285.052760 22.000000
285.076020 604.000000

>ms2peaks
65.039060 67.000000
67.004250 18.000000
67.016930 71.000000
67.052670 17.000000
68.025890 27.000000
68.997400 211.000000
71.381450 12.000000
77.038360 93.000000
78.010950 68.000000
79.054960 102.000000
89.037670 178.000000
90.043610 137.000000
90.047420 362.000000
91.052770 50.000000
91.296370 12.000000
92.013400 12.000000
92.025060 35.000000
93.034900 15.000000
94.728520 13.000000
95.010060 24.000000
95.016910 36.000000
95.050980 18.000000
96.010820 25.000000
96.020240 189.000000
97.025570 48.000000
97.036940 18.000000
102.043300 155.000000
102.051760 15.000000
103.040180 14.000000
103.054500 19.000000
104.024980 20.000000
105.034550 27.000000
105.056970 18.000000
105.069210 21.000000
106.032040 21.000000
108.010000 21.000000
108.018330 43.000000
109.601110 12.000000
110.038610 35.000000
114.913280 15.000000
115.036760 24.000000
115.053010 568.000000
116.015260 13.000000
116.053400 24.000000
116.060200 106.000000
117.039890 24.000000
117.058580 36.000000
117.072580 43.000000
118.038350 294.000000
118.042850 104.000000
118.050840 20.000000
119.039750 17.000000
119.051070 13.000000
121.029930 40.000000
121.070620 24.000000
124.013690 242.000000
124.019610 104.000000
124.990690 13.000000
125.021000 35.000000
125.084460 17.000000
126.040250 17.000000
127.043750 17.000000
127.053020 115.000000
127.061110 122.000000
128.058460 119.000000
129.030840 20.000000
129.059840 40.000000
129.067610 54.000000
129.076000 112.000000
130.040250 75.000000
130.073300 33.000000
130.085390 15.000000
131.043370 42.000000
131.052320 40.000000
132.052280 49.000000
132.058730 39.000000
133.031630 31.000000
133.058720 17.000000
134.038160 14.000000
134.073410 19.000000
135.007870 24.000000
135.047090 16.000000
136.018630 21.000000
137.026180 41.000000
139.041050 18.000000
139.056700 310.000000
140.034500 28.000000
140.058270 69.000000
140.064180 29.000000
141.030230 23.000000
141.071460 35.000000
141.076200 74.000000
142.022190 19.000000
142.072660 13.000000
143.041640 48.000000
143.050190 210.000000
143.808960 18.000000
144.051740 40.000000
144.059430 16.000000
145.021160 13.000000
145.051510 15.000000
145.065600 46.000000
146.030900 18.000000
147.034030 13.000000
147.046460 40.000000
149.018940 13.000000
150.030240 24.000000
151.055560 51.000000
152.001880 28.000000
152.013200 156.000000
152.059390 21.000000
152.070920 18.000000
152.127350 13.000000
153.010680 52.000000
153.018840 122.000000
155.050370 22.000000
157.034420 21.000000
157.064450 215.000000
158.024220 18.000000
158.037080 141.000000
158.062100 24.000000
158.069810 65.000000
159.046520 72.000000
159.235290 15.000000
160.038410 22.000000
160.052150 18.000000
164.833790 12.000000
168.043150 13.000000
168.055240 90.000000
169.016690 13.000000
169.062940 24.000000
169.646390 26.000000
170.038500 13.000000
171.036500 66.000000
171.046420 71.000000
171.053680 70.000000
172.019230 15.000000
172.051470 15.000000
173.022050 20.000000
179.032330 13.000000
179.045780 17.000000
179.237590 20.000000
183.040860 40.000000
184.035690 15.000000
184.054170 46.000000
185.036410 43.000000
185.048220 85.000000
185.062740 290.000000
186.045180 19.000000
186.065030 12.000000
186.075100 29.000000
187.043260 15.000000
187.063130 15.000000
188.048340 41.000000
195.042660 59.000000
195.048570 21.000000
196.053700 40.000000
197.059420 174.000000
197.068130 41.000000
198.021820 18.000000
198.070110 23.000000
199.032640 105.000000
199.046740 40.000000
200.046880 85.000000
211.040500 32.000000
212.043200 18.000000
212.066350 17.000000
213.023590 12.000000
213.054750 1000.000000
214.052120 103.000000
214.069920 30.000000
215.032000 17.000000
215.057970 42.000000
218.149370 12.000000
223.032990 12.000000
225.057430 33.000000
227.029370 15.000000
241.045960 146.000000
241.056290 57.000000
241.068570 76.000000
242.053850 20.000000
242.063060 24.000000
253.040920 27.000000
254.054110 49.000000
269.037480 42.000000
269.051120 89.000000
270.036680 18.000000
271.054380 12.000000
282.869900 18.000000

>ms2peaks
118.040810 14.000000
123.044820 15.000000
124.009030 7.000000
124.015040 21.000000
133.065170 8.000000
149.022510 24.000000
152.008680 53.000000
153.015000 12.000000
153.024690 5.000000
158.036070 18.000000
159.040830 5.000000
179.036040 15.000000
186.061480 7.000000
197.059600 16.000000
213.053420 73.000000
214.060350 9.000000
225.057630 7.000000
229.083880 30.000000
229.098180 7.000000
230.085620 6.000000
241.050230 27.000000
242.051940 18.000000
242.063370 17.000000
243.050480 9.000000
243.064300 6.000000
253.049480 35.000000
269.044920 58.000000
270.049410 57.000000
271.056760 8.000000
285.033600 20.000000
285.073940 1000.000000
285.121920 21.000000

>ms2peaks
285.027470 5.000000
285.075680 1000.000000
285.124480 25.000000

>ms2peaks
67.016110 5.000000
67.057800 11.000000
68.964640 7.000000
77.039020 8.000000
79.055890 12.000000
80.059720 8.000000
89.041270 7.000000
90.044490 55.000000
91.060040 8.000000
92.054650 9.000000
93.027750 6.000000
95.011530 19.000000
95.047670 9.000000
96.018330 37.000000
102.047710 12.000000
103.033810 5.000000
103.044720 7.000000
103.057120 37.000000
105.068280 24.000000
106.071720 7.000000
107.043480 8.000000
107.049710 9.000000
108.023500 6.000000
108.041460 10.000000
111.004330 6.000000
111.010280 10.000000
111.044070 24.000000
112.006070 6.000000
115.051350 28.000000
115.059140 7.000000
117.035040 6.000000
117.071670 10.000000
117.318280 7.000000
118.026470 7.000000
118.042070 243.000000
119.040120 27.000000
119.048490 19.000000
119.052770 10.000000
119.797660 8.000000
120.064350 6.000000
120.229960 7.000000
120.964800 5.000000
121.005620 5.000000
121.012140 12.000000
121.026480 76.000000
121.069630 15.000000
122.027210 5.000000
122.073420 7.000000
123.013890 14.000000
123.027200 9.000000
123.040810 135.000000
123.048670 75.000000
123.966250 6.000000
124.008420 75.000000
124.017680 199.000000
124.044420 26.000000
125.010020 6.000000
125.028550 20.000000
125.054940 6.000000
126.246170 6.000000
130.036210 45.000000
130.050140 6.000000
131.051540 30.000000
131.075760 14.000000
131.084640 7.000000
132.008330 6.000000
132.014080 7.000000
132.023960 8.000000
132.054210 20.000000
133.015240 12.000000
133.062560 99.000000
134.045170 5.000000
135.037020 7.000000
135.046480 13.000000
136.015950 14.000000
136.023470 7.000000
139.037750 34.000000
139.054120 6.000000
139.060290 7.000000
140.059800 7.000000
141.047160 7.000000
141.056880 10.000000
141.068850 47.000000
141.198230 5.000000
143.050340 15.000000
144.051300 20.000000
144.058270 20.000000
144.071660 7.000000
145.024190 17.000000
145.038360 10.000000
145.065350 46.000000
146.053050 7.000000
146.074630 23.000000
148.048390 10.000000
148.987010 8.000000
149.018020 98.000000
149.023960 220.000000
149.036390 16.000000
150.008480 17.000000
150.018950 5.000000
150.032090 17.000000
151.040160 7.000000
151.986020 16.000000
152.010730 1000.000000
152.061740 11.000000
153.016310 501.000000
153.068850 29.000000
153.857730 5.000000
153.986740 7.000000
154.011400 9.000000
154.024810 15.000000
154.078370 6.000000
155.042300 7.000000
155.050090 10.000000
156.058760 9.000000
157.037320 8.000000
157.062670 21.000000
158.013640 8.000000
158.036640 268.000000
159.035080 8.000000
159.041750 21.000000
159.077160 9.000000
159.086910 15.000000
160.040510 6.000000
160.085910 8.000000
160.568850 7.000000
161.049040 7.000000
161.060040 15.000000
161.089710 26.000000
165.025680 5.000000
168.036850 7.000000
168.061610 67.000000
169.056820 46.000000
169.067950 9.000000
169.079670 7.000000
170.033780 5.000000
170.077760 8.000000
171.072680 6.000000
172.044740 18.000000
172.052580 11.000000
172.064850 9.000000
172.075900 14.000000
173.055690 10.000000
173.063980 28.000000
173.103620 13.000000
174.773160 6.000000
176.854680 5.000000
178.017110 7.000000
178.356480 11.000000
179.036610 100.000000
180.029980 6.000000
180.036100 18.000000
180.054780 7.000000
181.055710 5.000000
181.063950 9.000000
181.071840 6.000000
183.036450 9.000000
183.056180 18.000000
183.073850 13.000000
183.083470 18.000000
183.101390 7.000000
184.047730 10.000000
184.058990 14.000000
185.055220 36.000000
185.062230 25.000000
186.026550 7.000000
186.037870 17.000000
186.058690 17.000000
186.071500 71.000000
186.950850 6.000000
187.073820 6.000000
187.084240 8.000000
191.031940 13.000000
192.029820 7.000000
195.047300 5.000000
195.087330 5.000000
196.047100 21.000000
196.058820 13.000000
197.026310 11.000000
197.037980 5.000000
197.058750 220.000000
198.063350 35.000000
198.074510 18.000000
198.768140 6.000000
199.072080 11.000000
200.027370 11.000000
200.046720 18.000000
201.036790 17.000000
201.054430 37.000000
201.098390 18.000000
201.467910 5.000000
202.064330 11.000000
210.025960 13.000000
210.074330 5.000000
210.765950 9.000000
210.826510 6.000000
211.036700 39.000000
211.066960 7.000000
211.673750 5.000000
212.033280 8.000000
212.043820 6.000000
212.082230 6.000000
213.007390 15.000000
213.030010 22.000000
213.047820 216.000000
213.058430 452.000000
214.035680 21.000000
214.048030 48.000000
214.063350 241.000000
215.029210 6.000000
215.054730 25.000000
215.069730 16.000000
216.047820 26.000000
216.064100 9.000000
217.042890 8.000000
224.031660 6.000000
224.042970 15.000000
224.054490 27.000000
225.057370 69.000000
225.594790 7.000000
226.055890 24.000000
226.071410 7.000000
226.302200 6.000000
226.644130 10.000000
227.031050 25.000000
227.066450 16.000000
229.060420 19.000000
229.086810 474.000000
229.797180 9.000000
230.026030 6.000000
230.087080 50.000000
230.097810 43.000000
240.078340 14.000000
241.026580 7.000000
241.049790 261.000000
242.050260 411.000000
242.064060 353.000000
242.156680 7.000000
243.060040 140.000000
243.067920 68.000000
244.070830 11.000000
252.042190 129.000000
252.068530 7.000000
253.000470 15.000000
253.034120 149.000000
253.046910 311.000000
253.058070 262.000000
254.056210 96.000000
255.063860 28.000000
257.080810 23.000000
269.001650 26.000000
269.044560 735.000000
269.057830 168.000000
269.189060 7.000000
269.685000 8.000000
269.961400 5.000000
270.036800 126.000000
270.052700 702.000000
270.970610 6.000000
271.006960 6.000000
271.043030 34.000000
271.055940 156.000000
271.077090 20.000000
272.053160 20.000000
272.076140 8.000000
273.013400 8.000000
275.978090 9.000000
280.758090 8.000000
283.186710 8.000000
285.042300 25.000000
285.076900 652.000000

>ms2peaks
64.028500 14.000000
65.043770 13.000000
67.016490 38.000000
67.023490 18.000000
68.990950 18.000000
68.997210 22.000000
75.019140 12.000000
77.031510 27.000000
77.039430 18.000000
78.002600 26.000000
78.007880 15.000000
78.048390 32.000000
79.034300 26.000000
79.054190 43.000000
79.064160 29.000000
80.058350 32.000000
80.094440 15.000000
81.031270 69.000000
87.296130 12.000000
88.466790 13.000000
89.033990 86.000000
89.040230 181.000000
89.964140 12.000000
89.969960 16.000000
90.046350 461.000000
91.050420 47.000000
91.058150 35.000000
91.703970 17.000000
92.055810 18.000000
95.982960 15.000000
96.010250 13.000000
96.014410 44.000000
96.021040 74.000000
97.024440 32.000000
102.045020 113.000000
103.052890 99.000000
103.059230 17.000000
103.477030 18.000000
104.027050 18.000000
104.063720 53.000000
105.073300 19.000000
107.047600 42.000000
108.019370 58.000000
108.032430 15.000000
110.006420 12.000000
114.029280 26.000000
115.037750 24.000000
115.053600 515.000000
115.059100 141.000000
115.227680 21.000000
116.057760 60.000000
116.064530 15.000000
117.068730 71.000000
117.455250 15.000000
118.040310 79.000000
118.047200 54.000000
119.029170 20.000000
119.046590 101.000000
121.064290 15.000000
122.030480 38.000000
124.000750 15.000000
124.013980 310.000000
124.023910 76.000000
125.013340 15.000000
126.005690 19.000000
127.043980 33.000000
127.054310 110.000000
127.068880 27.000000
128.062820 319.000000
129.034850 15.000000
129.070020 138.000000
129.077580 53.000000
129.344920 21.000000
130.032090 11.000000
130.041520 171.000000
130.082310 53.000000
131.017360 16.000000
131.045390 68.000000
131.053180 65.000000
132.067760 16.000000
133.042680 22.000000
133.056950 36.000000
133.064670 13.000000
134.033630 36.000000
134.066790 15.000000
135.042790 32.000000
136.013460 34.000000
137.022840 19.000000
139.008500 12.000000
139.020460 18.000000
139.051770 136.000000
139.063310 29.000000
140.056210 92.000000
140.062360 182.000000
140.395030 13.000000
141.028700 28.000000
141.074220 179.000000
141.570480 15.000000
142.045490 27.000000
142.079590 17.000000
143.018390 15.000000
143.043560 124.000000
143.051710 50.000000
144.060320 15.000000
147.046690 19.000000
150.297940 23.000000
151.054790 57.000000
152.008940 109.000000
152.060410 51.000000
153.008120 40.000000
153.022930 207.000000
154.015550 21.000000
155.055760 22.000000
156.053510 15.000000
156.061460 22.000000
157.051610 34.000000
157.066960 185.000000
158.002590 24.000000
158.017880 16.000000
158.030120 51.000000
158.036730 70.000000
158.044660 39.000000
158.066600 33.000000
159.042310 100.000000
159.067840 19.000000
160.051830 13.000000
162.032580 18.000000
163.021930 15.000000
167.048130 89.000000
167.057500 50.000000
168.054520 151.000000
168.065190 26.000000
169.064960 159.000000
170.018590 42.000000
170.065370 15.000000
170.167530 33.000000
171.034300 24.000000
171.044560 128.000000
171.081600 15.000000
173.048890 18.000000
175.040180 18.000000
179.049070 29.000000
181.063610 40.000000
183.047820 21.000000
184.044050 38.000000
184.058200 30.000000
185.039660 42.000000
185.059920 305.000000
185.067290 90.000000
185.229970 15.000000
186.041670 25.000000
186.057100 19.000000
186.068190 15.000000
186.078690 13.000000
187.029500 15.000000
187.038640 34.000000
187.046300 17.000000
187.070650 25.000000
188.038470 23.000000
188.049500 12.000000
195.038020 40.000000
196.041140 44.000000
196.059910 32.000000
197.022770 18.000000
197.063060 101.000000
198.049940 20.000000
198.058760 29.000000
199.032900 24.000000
200.042480 15.000000
201.062880 30.000000
211.035390 26.000000
212.043120 57.000000
212.051450 27.000000
213.034040 29.000000
213.054000 1000.000000
213.071380 42.000000
213.200560 12.000000
214.037770 15.000000
214.053700 46.000000
214.066040 58.000000
215.038960 18.000000
215.052310 32.000000
216.019440 19.000000
216.039610 23.000000
216.048360 24.000000
224.036820 16.000000
224.046010 28.000000
225.024190 15.000000
230.089310 20.000000
241.045380 241.000000
241.053730 136.000000
242.047850 49.000000
242.062230 66.000000
253.042560 24.000000
253.060680 43.000000
255.067310 21.000000
268.027740 21.000000
269.041440 43.000000
269.057220 33.000000
270.055020 15.000000

>ms2peaks
118.041690 8.000000
123.044190 15.000000
124.012530 19.000000
133.064100 7.000000
149.024750 21.000000
152.010380 61.000000
153.016220 23.000000
158.036590 14.000000
197.060490 8.000000
213.054060 59.000000
214.055860 11.000000
214.065700 7.000000
215.062900 5.000000
225.057270 8.000000
229.083600 24.000000
241.050380 22.000000
242.055300 39.000000
252.043410 6.000000
253.046220 16.000000
253.059630 16.000000
269.028960 6.000000
269.044560 43.000000
270.048740 50.000000
270.062810 15.000000
285.076900 1000.000000
285.120210 12.000000
285.132870 8.000000

>ms2peaks
285.075230 1000.000000
285.123230 28.000000

>ms2peaks
67.018230 10.000000
68.019260 8.000000
68.986710 6.000000
68.995900 7.000000
69.000800 5.000000
69.029090 10.000000
79.044940 8.000000
90.031250 5.000000
90.048250 45.000000
91.053980 5.000000
93.030010 7.000000
95.009250 6.000000
95.047780 7.000000
96.014780 28.000000
96.026650 8.000000
97.027550 7.000000
97.033150 14.000000
102.041620 9.000000
103.050250 6.000000
103.057690 23.000000
105.070360 82.000000
107.051380 55.000000
108.050020 21.000000
108.070270 10.000000
109.063690 10.000000
110.985240 5.000000
111.006470 26.000000
111.038740 8.000000
111.414020 6.000000
115.056690 7.000000
116.055410 17.000000
117.067720 19.000000
117.115850 6.000000
118.040080 235.000000
119.036090 10.000000
119.047760 42.000000
120.136980 8.000000
121.028320 123.000000
121.063360 55.000000
121.644710 5.000000
122.029300 6.000000
122.237370 7.000000
122.357340 9.000000
123.001430 11.000000
123.032490 20.000000
123.042190 140.000000
123.050080 46.000000
124.014420 386.000000
124.045970 44.000000
124.059070 5.000000
124.180140 8.000000
124.454570 5.000000
124.747700 7.000000
125.043630 6.000000
127.053440 6.000000
128.061690 8.000000
131.049800 44.000000
132.018200 5.000000
132.059140 33.000000
133.018710 10.000000
133.063340 207.000000
134.065540 17.000000
135.046160 15.000000
135.070470 7.000000
136.018520 10.000000
136.042420 9.000000
137.011140 6.000000
139.035870 47.000000
139.046260 9.000000
140.062060 5.000000
141.058930 6.000000
141.065800 17.000000
141.072130 12.000000
142.033690 9.000000
142.042630 7.000000
142.067550 8.000000
142.443370 10.000000
143.027730 6.000000
144.052290 14.000000
144.064120 6.000000
145.029750 14.000000
145.059770 8.000000
145.068620 47.000000
146.067180 7.000000
146.771610 8.000000
147.050450 17.000000
148.997970 6.000000
149.022490 426.000000
149.660520 9.000000
150.033660 15.000000
151.987750 12.000000
152.010040 893.000000
152.057500 8.000000
152.971500 19.000000
153.006620 101.000000
153.018100 386.000000
153.033580 10.000000
153.048160 10.000000
153.069290 8.000000
154.023620 38.000000
154.078890 8.000000
155.024540 8.000000
155.054060 28.000000
155.088970 8.000000
155.516820 6.000000
156.047360 8.000000
156.059130 10.000000
156.498400 6.000000
157.059810 13.000000
157.067120 14.000000
158.029100 84.000000
158.036770 269.000000
158.053330 9.000000
158.069440 10.000000
158.082750 9.000000
158.494190 6.000000
159.035740 26.000000
159.073680 10.000000
160.036800 10.000000
161.031070 5.000000
161.038640 15.000000
161.061690 42.000000
161.095430 38.000000
162.248840 5.000000
163.041470 27.000000
163.089980 6.000000
165.041290 8.000000
165.059050 12.000000
166.086520 6.000000
167.182620 7.000000
168.040950 9.000000
168.054600 72.000000
168.065340 25.000000
169.060970 38.000000
169.068830 17.000000
170.046860 10.000000
171.009320 8.000000
171.047200 19.000000
171.078990 19.000000
172.016540 13.000000
172.045960 11.000000
173.059710 29.000000
174.057480 11.000000
176.226470 7.000000
176.521960 14.000000
176.960040 6.000000
179.012680 6.000000
179.022110 15.000000
179.036410 112.000000
179.155840 6.000000
180.803760 7.000000
181.060790 6.000000
182.073560 8.000000
183.039320 38.000000
183.050430 15.000000
183.071750 17.000000
183.082170 28.000000
184.049620 21.000000
184.077270 7.000000
185.039310 9.000000
185.058380 48.000000
185.065050 15.000000
186.037030 8.000000
186.053800 13.000000
186.070300 95.000000
187.038990 9.000000
187.075670 33.000000
188.066860 12.000000
188.081380 8.000000
189.085920 8.000000
191.698880 9.000000
191.917500 7.000000
192.040360 10.000000
195.038160 7.000000
195.075210 7.000000
195.294490 5.000000
196.050340 34.000000
196.061610 6.000000
196.587250 8.000000
197.015640 5.000000
197.027790 8.000000
197.039280 17.000000
197.057390 202.000000
197.919630 10.000000
198.064830 38.000000
198.070850 15.000000
199.026980 13.000000
199.073820 17.000000
200.045930 13.000000
200.058640 9.000000
201.055210 22.000000
201.070860 12.000000
201.088010 9.000000
201.100810 6.000000
202.037960 13.000000
202.053500 19.000000
210.076890 15.000000
211.032670 11.000000
211.045610 22.000000
211.074010 17.000000
212.045120 9.000000
212.469500 6.000000
212.849590 7.000000
213.029400 9.000000
213.054180 720.000000
213.646450 7.000000
214.006900 14.000000
214.030200 5.000000
214.049380 59.000000
214.062590 224.000000
214.244220 8.000000
214.355300 6.000000
215.063230 79.000000
215.080120 6.000000
215.942140 6.000000
216.030940 9.000000
216.041430 17.000000
216.056410 7.000000
216.076980 15.000000
218.032550 6.000000
224.036070 12.000000
224.044370 13.000000
225.046920 67.000000
225.055660 69.000000
225.064560 21.000000
226.033480 14.000000
226.055680 9.000000
226.067760 22.000000
227.022110 8.000000
227.046100 15.000000
228.038570 8.000000
228.062970 9.000000
228.978740 12.000000
229.053440 10.000000
229.084990 566.000000
229.122680 7.000000
229.198620 6.000000
230.052460 8.000000
230.086670 74.000000
230.181730 12.000000
231.072040 7.000000
231.087540 6.000000
231.103070 6.000000
231.638380 6.000000
232.151820 8.000000
238.065290 6.000000
239.074740 6.000000
240.077680 7.000000
241.026060 15.000000
241.049150 225.000000
241.873570 6.000000
241.992660 6.000000
242.005680 8.000000
242.058010 908.000000
242.107510 8.000000
243.062970 163.000000
243.077850 22.000000
243.322100 10.000000
244.064730 15.000000
244.589230 6.000000
244.872630 10.000000
244.917280 6.000000
245.398030 8.000000
247.043400 6.000000
249.044720 6.000000
252.041470 60.000000
253.011440 8.000000
253.048390 560.000000
253.958830 10.000000
253.998350 12.000000
254.054990 186.000000
255.029850 15.000000
255.059100 19.000000
255.072680 6.000000
257.079500 7.000000
258.670260 6.000000
259.085330 17.000000
259.224150 5.000000
266.877810 15.000000
266.952790 5.000000
269.002230 23.000000
269.045200 904.000000
269.071560 14.000000
269.990360 6.000000
270.011020 20.000000
270.051210 1000.000000
270.751400 10.000000
271.031280 8.000000
271.057250 143.000000
271.068970 31.000000
271.603330 6.000000
272.064940 14.000000
272.969020 6.000000
274.871190 7.000000
281.918090 5.000000
283.027890 8.000000
285.045650 6.000000
285.076720 691.000000

>ms2peaks
63.020560 28.000000
67.020940 15.000000
69.001460 12.000000
71.696430 10.000000
77.037830 43.000000
78.010320 53.000000
78.044650 50.000000
80.001080 12.000000
83.010480 14.000000
85.007870 22.000000
89.032880 44.000000
89.038760 98.000000
90.032560 18.000000
90.046480 267.000000
90.678120 11.000000
90.868140 11.000000
91.047300 21.000000
91.051690 61.000000
91.056580 67.000000
92.030510 18.000000
93.024080 15.000000
95.013080 14.000000
96.001980 30.000000
96.019470 159.000000
97.028110 20.000000
102.046230 162.000000
103.053400 85.000000
104.055530 11.000000
105.033740 42.000000
105.060330 15.000000
106.039470 17.000000
106.044600 17.000000
106.312100 10.000000
107.047420 30.000000
108.020000 37.000000
109.027610 16.000000
109.063960 20.000000
111.010440 33.000000
114.034610 14.000000
114.050700 22.000000
115.055080 326.000000
116.040270 17.000000
116.046460 13.000000
116.059720 111.000000
116.936200 14.000000
117.417360 13.000000
118.039570 36.000000
118.045740 91.000000
119.039330 17.000000
119.048220 10.000000
120.052470 14.000000
121.026170 26.000000
121.052080 26.000000
122.022750 17.000000
123.046050 26.000000
123.998520 37.000000
124.015860 222.000000
125.654060 22.000000
126.010140 18.000000
126.047060 18.000000
127.046290 20.000000
127.055210 133.000000
128.059780 82.000000
128.065640 99.000000
129.067700 136.000000
130.039290 187.000000
130.076340 13.000000
131.046370 80.000000
132.051590 17.000000
132.057800 22.000000
134.034650 23.000000
135.011640 11.000000
135.045730 29.000000
136.049040 18.000000
137.022190 17.000000
138.046200 20.000000
139.052950 225.000000
139.062290 35.000000
140.006700 12.000000
140.052570 13.000000
140.062650 50.000000
141.057360 15.000000
141.069380 227.000000
142.037980 24.000000
143.032620 21.000000
143.044430 147.000000
143.051680 34.000000
143.845720 10.000000
144.054400 50.000000
145.023250 19.000000
145.043030 17.000000
145.057590 131.000000
145.071350 40.000000
146.019150 20.000000
146.067870 21.000000
146.178010 17.000000
147.046450 29.000000
149.027110 16.000000
150.038890 12.000000
150.063780 22.000000
151.056840 33.000000
152.007720 85.000000
152.013550 79.000000
152.049510 20.000000
152.060420 78.000000
153.016280 289.000000
154.012480 37.000000
154.027470 23.000000
154.073490 14.000000
155.047870 26.000000
155.055500 15.000000
156.056000 18.000000
156.068100 11.000000
157.021070 10.000000
157.052370 20.000000
157.064270 170.000000
158.034360 46.000000
158.041600 12.000000
158.071290 56.000000
158.289110 12.000000
158.550430 15.000000
159.026490 20.000000
159.037260 35.000000
159.084400 20.000000
160.049760 26.000000
161.102370 12.000000
162.055800 12.000000
165.074230 17.000000
167.042180 32.000000
167.054990 32.000000
168.060810 75.000000
169.062180 90.000000
170.593830 11.000000
170.986430 15.000000
171.043670 154.000000
171.059750 12.000000
171.082780 23.000000
172.052020 34.000000
173.024320 12.000000
173.054170 10.000000
174.067540 15.000000
175.038990 29.000000
177.014500 16.000000
182.080000 29.000000
183.047130 56.000000
184.052110 101.000000
185.052020 92.000000
185.063670 197.000000
186.064670 19.000000
187.034820 45.000000
187.051620 13.000000
187.068600 12.000000
187.166950 19.000000
192.042310 16.000000
193.196670 24.000000
195.022640 40.000000
195.043960 56.000000
195.054090 22.000000
196.053090 37.000000
197.056580 96.000000
198.062650 13.000000
199.038390 20.000000
200.048610 50.000000
201.053650 24.000000
201.422180 10.000000
203.034500 15.000000
205.122450 18.000000
212.016360 13.000000
212.044630 48.000000
212.052760 66.000000
212.978740 18.000000
213.014880 12.000000
213.052890 1000.000000
214.063450 155.000000
215.034710 26.000000
215.052840 36.000000
216.040760 59.000000
225.058150 86.000000
241.046890 79.000000
241.057540 108.000000
242.041720 46.000000
242.052900 42.000000
243.067250 14.000000
243.076460 14.000000
252.047030 15.000000
253.031800 14.000000
253.053700 13.000000
253.063540 15.000000
254.052280 37.000000
269.039370 48.000000
270.040990 16.000000
270.054570 14.000000

>ms2peaks
55.011350 24.000000
65.040630 38.000000
67.019450 29.000000
77.041690 33.000000
79.054910 26.000000
90.043560 76.000000
95.050900 38.000000
96.019580 162.000000
102.045490 35.000000
102.053900 25.000000
104.048080 21.000000
106.078170 21.000000
107.043640 20.000000
107.053300 107.000000
111.009190 70.000000
115.055780 57.000000
117.058860 20.000000
117.072230 49.000000
118.028600 31.000000
118.041230 442.000000
119.001080 48.000000
119.046250 46.000000
119.052970 24.000000
121.029590 101.000000
121.051320 33.000000
121.057540 21.000000
122.841360 20.000000
123.022330 27.000000
123.042080 303.000000
123.050260 140.000000
123.999540 26.000000
124.013980 376.000000
124.045270 29.000000
124.092680 28.000000
125.010970 20.000000
125.051860 31.000000
125.799300 17.000000
126.196370 39.000000
127.061860 44.000000
129.032750 20.000000
130.038670 34.000000
130.045610 100.000000
130.074080 37.000000
131.020950 24.000000
131.034380 29.000000
131.041210 51.000000
131.047000 49.000000
131.203780 17.000000
131.762420 46.000000
132.049060 43.000000
132.058380 59.000000
133.064360 100.000000
134.043330 37.000000
139.033840 32.000000
139.040540 35.000000
140.057080 52.000000
140.067660 17.000000
141.050200 17.000000
141.066990 20.000000
141.079760 22.000000
143.042540 22.000000
143.055790 25.000000
145.022090 33.000000
145.046430 52.000000
145.061510 123.000000
145.069530 96.000000
146.067310 24.000000
147.044590 22.000000
147.074400 41.000000
147.382980 18.000000
149.008320 67.000000
149.023360 364.000000
149.033920 67.000000
150.029360 76.000000
151.051470 24.000000
151.059050 20.000000
151.983630 17.000000
152.009410 1362.000000
152.935200 21.000000
152.986190 37.000000
153.015290 403.000000
153.021500 135.000000
153.504580 28.000000
154.024640 33.000000
155.044110 61.000000
155.051830 18.000000
155.063920 33.000000
157.040450 18.000000
157.058960 49.000000
157.068080 28.000000
157.709870 26.000000
158.012660 54.000000
158.035280 483.000000
158.068040 25.000000
159.038880 120.000000
160.045430 29.000000
161.056380 26.000000
161.064390 26.000000
163.005920 17.000000
163.039830 30.000000
163.487670 28.000000
165.078920 20.000000
167.054200 30.000000
168.053250 80.000000
169.056380 135.000000
170.069400 44.000000
171.037110 89.000000
171.049450 87.000000
171.076130 38.000000
171.084950 21.000000
172.036580 21.000000
172.057800 65.000000
179.035160 331.000000
180.058060 18.000000
181.048830 20.000000
182.073550 29.000000
183.043370 36.000000
183.079650 29.000000
183.088240 20.000000
184.050990 26.000000
184.060940 26.000000
184.067610 17.000000
185.056000 162.000000
185.068150 26.000000
185.670290 30.000000
186.019970 29.000000
186.058030 49.000000
186.069930 233.000000
186.225400 31.000000
187.079300 42.000000
188.070340 24.000000
188.636720 18.000000
189.067490 35.000000
191.037670 30.000000
191.731890 30.000000
192.031520 40.000000
192.834920 35.000000
195.046880 35.000000
196.042180 25.000000
196.049480 28.000000
197.045120 59.000000
197.060070 437.000000
197.543690 20.000000
197.937180 50.000000
198.059490 21.000000
198.077550 22.000000
199.034760 28.000000
199.066640 74.000000
199.078310 35.000000
200.050660 29.000000
200.058040 21.000000
201.053390 72.000000
201.087400 23.000000
203.030090 60.000000
203.762830 31.000000
204.744220 27.000000
209.053860 17.000000
210.184400 33.000000
212.005040 19.000000
212.052700 19.000000
213.011860 37.000000
213.034820 52.000000
213.051800 1529.000000
213.061650 441.000000
213.091030 21.000000
213.179140 20.000000
214.060120 414.000000
215.040020 17.000000
215.061480 84.000000
215.074620 38.000000
215.084990 17.000000
216.040570 86.000000
216.055940 37.000000
216.792850 24.000000
217.042160 33.000000
218.035920 22.000000
224.046070 95.000000
225.025620 39.000000
225.040340 28.000000
225.055880 203.000000
226.018160 20.000000
226.070360 17.000000
228.052890 23.000000
229.037520 61.000000
229.060810 108.000000
229.088530 664.000000
230.085270 77.000000
231.089630 32.000000
231.461170 26.000000
235.336690 20.000000
235.368450 28.000000
236.851390 42.000000
238.530900 23.000000
240.073100 24.000000
241.036500 98.000000
241.053890 451.000000
241.886840 30.000000
242.020600 27.000000
242.031910 40.000000
242.056150 1369.000000
243.045070 85.000000
243.060350 192.000000
244.040010 20.000000
252.041400 169.000000
252.053120 54.000000
253.047000 1013.000000
253.998630 34.000000
254.024290 31.000000
254.047900 160.000000
254.066160 42.000000
255.012280 38.000000
255.048870 24.000000
257.059420 20.000000
258.077270 28.000000
258.090210 37.000000
259.959260 28.000000
262.942260 20.000000
264.164520 32.000000
269.036740 410.000000
269.046510 1088.000000
269.072780 21.000000
269.741880 46.000000
269.872470 28.000000
269.982820 26.000000
270.020390 41.000000
270.044310 485.000000
270.054200 1413.000000
270.462370 20.000000
270.672820 29.000000
270.881070 20.000000
270.922150 17.000000
271.048000 165.000000
271.063630 105.000000
273.082700 18.000000
276.282710 20.000000
280.626400 21.000000
283.106840 17.000000
284.069270 45.000000
284.485600 17.000000
284.735870 32.000000
284.836980 29.000000
284.961940 20.000000
284.974610 63.000000
284.992280 25.000000
285.007840 57.000000
285.027770 273.000000
285.075230 29165.000000
285.125370 457.000000
285.173070 51.000000
285.201720 20.000000

