>compound PR06253910
>parentmass 495.1129
>ionization [M+H]+
>formula C22H22O13
>rt 274.800000
>profile qtof
#smiles_iso COC1=C(C=C2C(=C1O)C(=O)C(=C(O2)C3=CC(=C(C=C3)O)O)O)OC4C(C(C(C(O4)CO)O)O)O
#smiles_can COC1=C(C=C2C(=C1O)C(=O)C(=C(O2)C3=CC(=C(C=C3)O)O)O)OC4C(C(C(C(O4)CO)O)O)O
#inchikey AFCDXKGLUDDXCK-UHFFFAOYSA-N
#pubchem_id 14157911
#mb_accession PR310911

>ms2
82.217410 20.000000
85.029900 88.000000
91.041400 18.000000
97.034840 36.000000
108.018970 17.000000
109.028370 43.000000
109.799810 20.000000
111.012700 17.000000
123.041760 38.000000
127.038480 91.000000
137.017200 17.000000
139.048720 22.000000
145.045090 54.000000
145.053120 48.000000
146.048140 17.000000
153.024430 38.000000
163.027980 18.000000
165.006070 24.000000
165.019090 17.000000
167.028460 17.000000
191.987500 26.000000
202.406620 17.000000
217.046260 44.000000
231.069120 18.000000
233.043750 18.000000
234.073680 17.000000
234.916560 25.000000
241.040680 21.000000
244.039570 17.000000
245.004260 20.000000
245.041790 16.000000
245.054110 83.000000
246.067210 17.000000
272.796810 18.000000
273.040250 53.000000
274.054570 19.000000
277.078030 20.000000
287.038300 18.000000
288.335510 17.000000
288.480440 18.000000
289.008180 20.000000
289.048220 17.000000
289.068150 23.000000
290.037230 27.000000
290.702940 20.000000
301.029880 21.000000
301.041660 48.000000
302.025120 24.000000
304.048220 17.000000
308.036250 20.000000
316.046540 24.000000
316.065030 20.000000
317.070340 31.000000
318.032680 238.000000
319.028140 42.000000
319.051150 17.000000
319.066130 20.000000
319.320950 18.000000
330.034000 21.000000
331.059270 31.000000
332.372040 18.000000
332.748780 24.000000
332.996370 18.000000
333.019680 86.000000
333.061680 6823.000000
333.095580 25.000000
334.064640 1037.000000
335.067990 139.000000
335.126070 18.000000
336.049440 17.000000
336.066040 26.000000
337.295780 17.000000
346.105410 27.000000
357.057770 39.000000
392.060060 17.000000
479.218290 19.000000
495.101010 115.000000
495.115300 325.000000
495.137420 137.000000

