>compound PR06057570
>parentmass 757.1997
>ionization [M+H]+
>formula C36H36O18
>rt 228.600000
>profile qtof
#smiles_iso C1=CC(=CC=C1C=CC(=O)OCC2C(C(C(C(O2)OC3C(C(C(OC3C4=C(C5=C(C=C4O)OC(=CC5=O)C6=CC(=C(C=C6)O)O)O)CO)O)O)O)O)O)O
#smiles_can C1=CC(=CC=C1C=CC(=O)OCC2C(C(C(C(O2)OC3C(C(C(OC3C4=C(C5=C(C=C4O)OC(=CC5=O)C6=CC(=C(C=C6)O)O)O)CO)O)O)O)O)O)O
#inchikey MWRFISCXYNYBKS-UHFFFAOYSA-N
#pubchem_id 145994457
#mb_accession PR310985

>ms2peaks
147.045100 518.000000
165.059020 55.000000
169.605970 18.000000
287.052610 86.000000
288.054990 17.000000
291.089840 22.000000
299.035340 22.000000
299.055150 36.000000
300.048520 37.000000
309.089020 38.000000
309.100370 22.000000
311.047000 16.000000
312.058960 23.000000
313.069000 18.000000
329.062680 245.000000
329.076540 100.000000
330.060270 17.000000
353.035580 24.000000
353.065980 221.000000
367.075620 16.000000
377.061680 21.000000
383.029690 17.000000
383.073670 17.000000
384.084720 18.000000
384.100160 38.000000
395.091160 36.000000
396.072940 53.000000
397.097870 21.000000
413.090880 78.000000
413.110350 21.000000
431.078430 26.000000
431.090640 38.000000
432.082180 20.000000
432.098540 23.000000
433.095460 18.000000
449.106600 136.000000
449.126890 59.000000
450.115840 127.000000
450.305420 26.000000
451.065670 20.000000
577.164250 33.000000
595.125370 54.000000
596.144100 16.000000
742.241820 16.000000
756.188660 16.000000
757.123110 16.000000
757.154050 76.000000
757.203000 1309.000000
757.258300 16.000000

