>compound PR06108735
>parentmass 581.1509
>ionization [M+H]+
>formula C26H28O15
>rt 191.400000
>profile qtof
#smiles_iso C1C(C(C(C(O1)C2=C(C(=C3C(=C2O)C(=O)C=C(O3)C4=CC(=C(C=C4)O)O)C5C(C(C(C(O5)CO)O)O)O)O)O)O)O
#smiles_can C1C(C(C(C(O1)C2=C(C(=C3C(=C2O)C(=O)C=C(O3)C4=CC(=C(C=C4)O)O)C5C(C(C(C(O5)CO)O)O)O)O)O)O)O
#inchikey WYYFCTVKFALPQV-UHFFFAOYSA-N
#pubchem_id 73802481
#mb_accession PR310991

>ms2peaks
197.089860 24.000000
232.066190 26.000000
240.471910 21.000000
310.050110 39.000000
311.059660 51.000000
313.093140 17.000000
323.061340 39.000000
324.060880 52.000000
334.087310 50.000000
339.555510 21.000000
341.064450 28.000000
343.086210 16.000000
353.050510 23.000000
353.071010 25.000000
355.075990 17.000000
358.730590 41.000000
361.062500 23.000000
365.046750 27.000000
365.072300 25.000000
366.077390 36.000000
368.076630 18.000000
371.080990 60.000000
393.099000 16.000000
395.067750 25.000000
395.085360 19.000000
396.079010 22.000000
398.101440 23.000000
407.068180 19.000000
408.073120 27.000000
413.068480 17.000000
413.100010 83.000000
414.104890 27.000000
426.091740 25.000000
427.089260 16.000000
428.084780 18.000000
431.073790 16.000000
431.094970 17.000000
443.034760 17.000000
443.066380 37.000000
443.100190 23.000000
443.129610 16.000000
461.095400 18.000000
461.125210 16.000000
467.090000 17.000000
468.090090 58.000000
473.102420 22.000000
473.577880 17.000000
474.103790 19.000000
477.848630 25.000000
485.112240 67.000000
497.111570 68.000000
498.108490 48.000000
509.102390 16.000000
515.084590 24.000000
527.120540 50.000000
530.143680 19.000000
545.083310 23.000000
545.103520 16.000000
545.136110 58.000000
546.097410 36.000000
546.135860 17.000000
563.145810 65.000000
564.162960 19.000000
566.176570 22.000000
580.130680 27.000000
581.148930 466.000000

