>compound PR06194992
>parentmass 209.12845420000002
>ionization [M+H]+
>formula C11H16N2O2
>rt 143.911980
>profile qtof
#smiles_iso CC[C@H]1[C@H](COC1=O)CC2=CN=CN2C
#smiles_can CCC1C(COC1=O)CC2=CN=CN2C
#inchikey QCHFTSOMWOSFHM-WPRPVWTQSA-N
#pubchem_id 5910
#mb_accession PR300600,PR300605,PR300610,PR300615,PR300620,PR300625,PR300629,PR300634,PR300639,PR300644,PR300649

>ms2peaks
95.060630 78.000000
96.068790 56.000000
97.072050 8.000000
109.076580 10.000000
121.077810 25.000000
122.085550 5.000000
122.098880 9.000000
133.078120 5.000000
135.092090 8.000000
136.112850 7.000000
151.123950 5.000000
163.125150 56.000000
191.122820 5.000000
209.130080 1000.000000
209.171910 31.000000

>ms2peaks
163.120480 7.000000
209.129300 1000.000000
209.170410 32.000000

>ms2peaks
68.044500 8.000000
68.049640 38.000000
78.050190 7.000000
80.035400 12.000000
80.045760 9.000000
80.050030 15.000000
81.045550 28.000000
81.768010 7.000000
82.049150 6.000000
82.064430 5.000000
83.053250 11.000000
83.058580 21.000000
83.064690 15.000000
85.487840 5.000000
94.062910 27.000000
94.068500 38.000000
95.061520 1000.000000
95.074840 19.000000
95.087780 16.000000
96.052710 18.000000
96.068180 904.000000
97.067150 23.000000
97.074740 72.000000
98.497520 6.000000
103.060760 6.000000
106.078290 5.000000
107.059000 10.000000
107.066890 24.000000
107.076530 26.000000
108.077800 12.000000
109.066330 9.000000
109.077830 72.000000
110.084220 13.000000
112.872640 11.000000
117.060140 13.000000
120.071410 7.000000
121.075900 199.000000
121.085220 49.000000
122.078890 38.000000
122.088840 37.000000
122.096590 42.000000
123.090220 48.000000
123.098540 31.000000
124.098100 10.000000
126.366220 6.000000
132.083940 9.000000
133.066910 9.000000
133.075820 29.000000
133.082690 27.000000
134.074840 11.000000
134.083760 34.000000
135.080230 5.000000
135.091260 23.000000
135.097240 32.000000
135.111270 8.000000
136.093660 9.000000
138.133070 11.000000
146.087970 14.000000
147.089430 19.000000
147.096570 23.000000
148.098420 26.000000
149.062930 14.000000
149.109970 8.000000
150.109220 7.000000
151.125580 47.000000
161.068150 9.000000
161.078350 7.000000
161.105580 5.000000
162.080060 20.000000
163.081760 9.000000
163.096880 18.000000
163.106260 18.000000
163.125270 129.000000
164.084960 5.000000
164.123260 19.000000
164.140840 7.000000
176.086850 8.000000
177.103650 10.000000
181.134920 10.000000
191.121410 8.000000
209.126980 212.000000
209.140990 46.000000

>ms2peaks
66.031570 25.000000
67.054920 30.000000
68.036740 73.000000
69.053890 27.000000
81.040170 61.000000
81.047290 62.000000
83.066740 30.000000
95.061560 1000.000000
96.063770 176.000000
96.069770 136.000000
97.072030 92.000000
103.917150 25.000000
107.064390 89.000000
109.075770 70.000000
133.075100 41.000000

>ms2peaks
94.061740 6.000000
95.055630 23.000000
95.060940 67.000000
95.085610 5.000000
96.067800 62.000000
109.076550 13.000000
121.075570 18.000000
122.080090 6.000000
122.092190 11.000000
133.079440 7.000000
135.090910 8.000000
163.123570 56.000000
163.131210 13.000000
209.128800 1000.000000
209.170230 25.000000

>ms2peaks
209.128570 1000.000000
209.169590 34.000000

>ms2peaks
65.040510 5.000000
68.009360 6.000000
68.049290 17.000000
68.721710 5.000000
69.055020 6.000000
69.071030 8.000000
77.041850 7.000000
79.055180 14.000000
79.059510 6.000000
80.051190 24.000000
81.043710 7.000000
81.068390 6.000000
83.054820 5.000000
83.059430 7.000000
83.591610 7.000000
91.053160 11.000000
92.052960 12.000000
93.150630 8.000000
94.065900 69.000000
94.740590 7.000000
95.061210 744.000000
95.074720 16.000000
95.082770 7.000000
95.087750 9.000000
96.067960 1000.000000
96.080750 7.000000
97.071190 79.000000
97.076180 29.000000
99.078580 5.000000
105.069130 7.000000
106.064160 8.000000
107.059610 9.000000
107.075380 15.000000
107.087630 7.000000
108.071320 7.000000
108.082820 6.000000
109.075800 80.000000
120.072750 6.000000
121.061960 19.000000
121.075970 180.000000
121.087380 22.000000
122.080760 51.000000
122.097760 56.000000
123.077730 16.000000
123.088030 47.000000
123.093930 32.000000
123.102000 6.000000
124.089810 5.000000
125.069770 5.000000
125.095150 8.000000
133.062240 8.000000
133.074040 72.000000
133.082610 33.000000
134.081830 58.000000
135.081380 10.000000
135.092480 120.000000
136.107350 13.000000
136.121860 18.000000
137.115720 6.000000
138.120880 6.000000
139.089310 11.000000
144.707660 7.000000
147.077870 7.000000
147.090040 43.000000
147.098220 13.000000
148.091420 23.000000
148.101590 30.000000
149.098390 12.000000
149.109920 18.000000
150.112590 13.000000
151.118500 16.000000
151.125930 5.000000
151.151060 7.000000
152.123230 9.000000
161.109920 12.000000
162.086320 6.000000
163.123640 134.000000
164.118010 6.000000
165.144450 6.000000
166.145740 5.000000
181.094880 5.000000
191.112790 6.000000
191.125630 6.000000
209.109190 13.000000
209.126390 114.000000
209.134900 90.000000
209.176680 5.000000

>ms2peaks
68.051140 92.000000
82.038440 83.000000
94.060210 90.000000
95.060780 1000.000000
95.604060 43.000000
96.068470 416.000000
96.126300 43.000000
97.072700 43.000000
98.146240 37.000000
98.877540 35.000000
108.080170 31.000000
109.038830 37.000000
120.068860 50.000000
121.066170 31.000000
121.081890 45.000000
133.081100 134.000000
148.094090 30.000000
149.101990 35.000000

>ms2peaks
68.048240 6.000000
94.067630 6.000000
95.061330 70.000000
96.056580 6.000000
96.069450 64.000000
109.074590 10.000000
121.076900 30.000000
122.096580 19.000000
133.077030 9.000000
135.091030 7.000000
147.095140 6.000000
151.123260 8.000000
163.122740 72.000000
209.090550 6.000000
209.128920 1000.000000
209.169510 28.000000

>ms2peaks
163.124370 5.000000
209.088960 5.000000
209.128680 1000.000000
209.169970 37.000000

>ms2peaks
54.031720 75.000000
68.048520 40.000000
80.048360 38.000000
80.064210 67.000000
95.049080 50.000000
95.061350 1000.000000
96.053350 71.000000
96.061970 119.000000
96.070500 467.000000
97.061610 42.000000
121.076130 107.000000
133.083310 96.000000
149.101560 50.000000

