>compound PR06652053
>parentmass 625.2548333333334
>ionization [M+H]+
>formula C36H36N2O8
>rt 351.800000
>profile qtof
#smiles_iso COC1=CC(=CC2=C1OC(C2C(=O)NCCC3=CC=C(C=C3)O)C4=CC(=C(C=C4)O)OC)C=CC(=O)NCCC5=CC=C(C=C5)O
#smiles_can COC1=CC(=CC2=C1OC(C2C(=O)NCCC3=CC=C(C=C3)O)C4=CC(=C(C=C4)O)OC)C=CC(=O)NCCC5=CC=C(C=C5)O
#inchikey DROXVBRNXCRUHP-UHFFFAOYSA-N
#pubchem_id 338256
#mb_accession PR311133,PR311134,PR311135

>ms2
121.071460 49.000000
164.068070 17.000000
201.056960 23.000000
283.096190 18.000000
283.111690 18.000000
285.121150 24.000000
297.103760 24.000000
297.114230 35.000000
323.103520 38.000000
324.094330 23.000000
364.083500 20.000000
364.121490 18.000000
365.123170 20.000000
450.097660 17.000000
460.161500 44.000000
460.189120 49.000000
461.176450 38.000000
488.131070 20.000000
488.171420 166.000000
490.176570 17.000000
625.130740 18.000000
625.193600 17.000000
625.218020 42.000000
625.251340 302.000000

>ms2
121.061440 17.000000
145.027630 34.000000
177.060270 18.000000
201.053970 43.000000
201.063460 56.000000
323.074800 18.000000
323.086580 17.000000
338.099060 25.000000
430.921940 20.000000
462.199280 17.000000
488.082730 18.000000
488.151280 49.000000
488.171260 76.000000
488.191590 73.000000
625.250370 270.000000

>ms2
121.059140 17.000000
121.069340 24.000000
133.038330 19.000000
137.018830 17.000000
137.061870 20.000000
147.044910 18.000000
149.047590 19.000000
150.071040 27.000000
164.078600 19.000000
175.082640 17.000000
187.026000 19.000000
201.038070 22.000000
201.048100 111.000000
201.065480 19.000000
214.733630 20.000000
220.776750 18.000000
221.090790 24.000000
233.058840 17.000000
234.071370 21.000000
237.080180 35.000000
237.093890 17.000000
249.073270 24.000000
249.089420 19.000000
250.048580 18.000000
254.057540 18.000000
255.041240 17.000000
261.066680 17.000000
262.065920 21.000000
265.086980 60.000000
269.115080 18.000000
275.056820 17.000000
278.058840 62.000000
278.078520 17.000000
280.108950 20.000000
283.123630 18.000000
286.095250 20.000000
291.074010 36.000000
293.055330 35.000000
293.070100 61.000000
293.086610 99.000000
294.090420 97.000000
295.068510 19.000000
295.094970 20.000000
295.218690 18.000000
297.108000 37.000000
298.134370 30.000000
299.124850 35.000000
300.123440 20.000000
301.131350 19.000000
307.076540 24.000000
307.096560 397.000000
307.113340 73.000000
308.061490 39.000000
308.075650 40.000000
308.099180 19.000000
308.110690 36.000000
309.077000 17.000000
314.141270 17.000000
318.760680 17.000000
323.071690 23.000000
324.095030 38.000000
325.082820 52.000000
325.107270 1038.000000
326.057830 20.000000
326.107090 252.000000
326.125210 55.000000
327.111790 17.000000
332.187100 19.000000
336.047580 17.000000
336.061250 18.000000
338.135440 33.000000
351.005220 21.000000
351.088320 513.000000
352.096370 166.000000
353.075930 21.000000
375.283810 23.000000
377.113770 20.000000
402.565430 51.000000
420.165860 20.000000
461.991240 18.000000
462.176970 141.000000
462.189700 333.000000
462.208040 88.000000
463.149900 17.000000
463.194460 164.000000
482.468690 17.000000
488.142240 24.000000
488.160640 112.000000
489.168580 22.000000
624.236940 17.000000
625.198490 17.000000
625.255550 2354.000000
625.373660 22.000000

