>compound PR06556201
>parentmass 456.34722073846154
>ionization [M+H]+
>formula C29H45NO3
>rt 489.639711
>profile qtof
#smiles_iso CC1CCC2(C(C3C(O2)CC4C3(CCC5C4CC=C6C5(CCC(C6)OC(=O)C)C)C)C)NC1
#smiles_can CC1CCC2(C(C3C(O2)CC4C3(CCC5C4CC=C6C5(CCC(C6)OC(=O)C)C)C)C)NC1
#inchikey MCQNPWNREVNWDQ-UHFFFAOYSA-N
#pubchem_id 262502
#mb_accession PR300773,PR300778,PR300783,PR300788,PR300793,PR300798,PR300803,PR300808,PR300813,PR300818,PR300823,PR300828,PR310420

>ms2peaks
107.085140 6.000000
109.101330 8.000000
114.093200 6.000000
121.101330 8.000000
124.111950 9.000000
126.128650 13.000000
133.102660 13.000000
143.085220 8.000000
145.102040 10.000000
147.117900 18.000000
149.131810 7.000000
157.101300 40.000000
158.106140 8.000000
159.116940 12.000000
171.116640 8.000000
197.134800 6.000000
253.196990 52.000000
254.200580 11.000000
378.317630 29.000000
379.318940 9.000000
438.338290 51.000000
439.340880 15.000000
456.349520 1000.000000
456.411710 28.000000

>ms2peaks
456.347660 1000.000000
456.409940 28.000000

>ms2peaks
70.065660 17.000000
81.071450 17.000000
93.072200 7.000000
95.087490 11.000000
105.071780 9.000000
107.086520 31.000000
109.101850 76.000000
110.104820 7.000000
114.092390 40.000000
117.070830 8.000000
119.083390 5.000000
121.102620 43.000000
122.106240 6.000000
123.116710 17.000000
124.112440 46.000000
125.116750 7.000000
126.128440 91.000000
127.112920 6.000000
127.131500 17.000000
131.087110 26.000000
133.102340 53.000000
135.118100 12.000000
143.086170 36.000000
145.102220 33.000000
147.117950 80.000000
148.121690 13.000000
149.133150 38.000000
157.101910 190.000000
158.105560 32.000000
159.117580 51.000000
161.133040 10.000000
171.116520 34.000000
173.133240 14.000000
183.111190 5.000000
183.119630 7.000000
185.131650 9.000000
197.131840 25.000000
197.139860 8.000000
211.149230 15.000000
213.164780 9.000000
225.162170 19.000000
253.195650 312.000000
254.200210 79.000000
255.203200 8.000000
313.207030 6.000000
313.220340 20.000000
314.221770 8.000000
378.315000 159.000000
379.319430 66.000000
396.325530 43.000000
397.330350 10.000000
438.336060 344.000000
439.340360 136.000000
440.341550 21.000000
456.286440 7.000000
456.347410 1000.000000
456.408480 20.000000

>ms2peaks
67.045080 6.000000
67.055980 92.000000
68.052670 11.000000
68.060980 8.000000
69.070850 24.000000
69.074750 12.000000
70.066220 163.000000
71.062670 7.000000
77.042950 6.000000
79.055000 104.000000
80.059840 13.000000
81.070720 171.000000
82.073960 12.000000
83.069330 6.000000
83.078800 5.000000
83.086720 11.000000
84.079090 6.000000
86.100040 5.000000
91.054940 217.000000
92.058970 12.000000
93.070640 215.000000
94.062750 6.000000
94.070550 8.000000
94.076250 6.000000
95.050880 9.000000
95.072080 15.000000
95.086420 141.000000
96.078520 14.000000
96.083850 39.000000
97.070080 8.000000
98.098850 27.000000
105.070340 324.000000
106.071780 24.000000
106.077530 21.000000
107.085980 196.000000
108.084410 8.000000
108.091160 22.000000
109.084650 6.000000
109.102690 222.000000
110.094310 8.000000
110.102650 14.000000
112.111930 5.000000
114.084520 10.000000
114.094420 49.000000
115.053610 37.000000
117.071060 166.000000
118.070340 7.000000
118.076740 14.000000
119.086590 180.000000
120.088510 29.000000
121.102230 199.000000
122.103030 15.000000
122.109260 14.000000
123.102410 6.000000
123.117100 33.000000
124.113260 169.000000
125.096960 5.000000
125.114790 24.000000
126.127480 152.000000
127.129700 26.000000
128.053300 8.000000
128.063510 51.000000
129.055040 6.000000
129.071080 244.000000
130.072170 45.000000
130.083250 9.000000
131.086410 266.000000
132.089690 41.000000
133.074370 8.000000
133.101470 539.000000
134.104170 69.000000
135.118000 33.000000
136.107830 11.000000
136.116170 6.000000
138.127180 14.000000
141.066060 26.000000
141.072110 58.000000
142.078280 302.000000
143.085860 258.000000
144.090260 62.000000
145.101760 336.000000
146.096130 7.000000
146.106580 27.000000
147.117890 521.000000
148.118770 94.000000
148.129850 15.000000
149.119950 9.000000
149.132740 91.000000
150.126280 49.000000
151.132520 7.000000
153.071590 19.000000
155.086430 104.000000
156.093800 50.000000
157.075420 15.000000
157.101820 1000.000000
158.093310 13.000000
158.106430 151.000000
159.118380 254.000000
160.122240 47.000000
161.133640 60.000000
162.128020 27.000000
162.138120 10.000000
163.134230 8.000000
164.137410 21.000000
164.143720 39.000000
165.148120 5.000000
166.157610 6.000000
167.085560 8.000000
168.094300 18.000000
169.101750 104.000000
170.103780 12.000000
171.116960 108.000000
172.122800 34.000000
173.132430 91.000000
174.135470 16.000000
176.136320 7.000000
181.099670 15.000000
181.108400 12.000000
182.102540 24.000000
182.114110 6.000000
183.117780 133.000000
184.122450 31.000000
185.132710 67.000000
186.136640 13.000000
187.140350 6.000000
187.151310 8.000000
188.157300 5.000000
195.117340 20.000000
196.125700 25.000000
196.133680 7.000000
197.132290 135.000000
198.127530 5.000000
198.139920 15.000000
199.148410 29.000000
200.157990 6.000000
203.175260 7.000000
204.175130 9.000000
209.123580 20.000000
209.133760 23.000000
210.139160 7.000000
211.151280 76.000000
212.151640 13.000000
212.166290 5.000000
213.162800 11.000000
213.173890 6.000000
223.145840 26.000000
224.157590 69.000000
225.163590 71.000000
237.169300 8.000000
238.170580 44.000000
239.168610 12.000000
253.193530 90.000000
254.192140 7.000000
254.202410 27.000000
258.229740 7.000000
322.246920 7.000000
348.270600 6.000000
362.288420 34.000000
363.288300 10.000000
378.317500 229.000000
379.323760 74.000000
380.318850 5.000000

>ms2peaks
109.102660 14.000000
114.091870 6.000000
121.101110 10.000000
124.113180 9.000000
126.129360 15.000000
131.086350 6.000000
133.101240 14.000000
143.085140 6.000000
145.101120 8.000000
147.117420 17.000000
149.132740 7.000000
157.100980 43.000000
158.105590 6.000000
159.117690 11.000000
171.117710 8.000000
197.135350 9.000000
253.195980 52.000000
254.198520 12.000000
313.220490 6.000000
378.313810 34.000000
379.322270 10.000000
396.326630 7.000000
438.336820 51.000000
439.338680 19.000000
456.347660 1000.000000
456.410280 26.000000

>ms2peaks
456.348570 1000.000000
456.411440 30.000000

>ms2peaks
70.066860 19.000000
81.071200 12.000000
93.070870 10.000000
95.087330 15.000000
96.083540 6.000000
99.081100 5.000000
105.070970 12.000000
107.086140 32.000000
109.102260 71.000000
114.092600 49.000000
119.085940 8.000000
121.102020 48.000000
123.117450 22.000000
124.113200 54.000000
126.128670 98.000000
127.113260 11.000000
129.071150 5.000000
131.088230 18.000000
133.101850 52.000000
135.119900 9.000000
143.087050 37.000000
145.102580 32.000000
147.117980 89.000000
148.121510 15.000000
149.132430 39.000000
157.101930 195.000000
158.105560 27.000000
159.116870 52.000000
161.133190 9.000000
171.118420 31.000000
173.132890 17.000000
183.116090 14.000000
185.130580 10.000000
197.134120 33.000000
199.150270 6.000000
211.150120 20.000000
213.165510 13.000000
224.154080 5.000000
225.166720 18.000000
226.168400 5.000000
251.182450 6.000000
253.196040 320.000000
254.199910 81.000000
255.203260 8.000000
313.216980 27.000000
378.317170 167.000000
379.304720 20.000000
379.322540 46.000000
380.324100 7.000000
396.327850 43.000000
397.332610 12.000000
438.337550 356.000000
439.340820 119.000000
440.343570 26.000000
456.296630 6.000000
456.347840 1000.000000
456.409120 14.000000

>ms2peaks
67.055080 91.000000
68.052120 5.000000
68.059260 6.000000
69.069440 19.000000
69.075500 10.000000
70.066500 163.000000
77.041050 8.000000
79.054650 106.000000
81.071060 196.000000
82.074750 16.000000
83.051480 8.000000
83.090600 12.000000
91.055240 178.000000
92.059040 17.000000
93.070490 164.000000
94.065610 18.000000
94.076850 14.000000
95.048190 7.000000
95.067920 8.000000
95.074800 10.000000
95.086670 139.000000
96.082310 25.000000
96.087980 11.000000
97.069700 8.000000
98.097890 32.000000
105.070040 330.000000
106.072290 38.000000
107.086230 229.000000
108.082020 7.000000
108.088900 14.000000
109.069040 6.000000
109.101590 194.000000
110.098250 10.000000
110.104910 31.000000
111.105720 7.000000
112.112610 7.000000
114.089900 21.000000
114.096280 23.000000
115.056430 17.000000
115.094320 5.000000
117.059620 10.000000
117.069920 104.000000
118.074020 24.000000
119.086080 148.000000
120.090490 17.000000
121.091690 15.000000
121.102310 160.000000
122.095540 20.000000
122.104860 12.000000
122.111560 9.000000
123.103170 9.000000
123.114400 13.000000
123.124020 9.000000
124.113170 155.000000
125.117790 24.000000
126.107830 6.000000
126.127180 145.000000
127.056850 6.000000
127.118000 15.000000
127.130360 12.000000
128.062530 28.000000
129.070680 199.000000
130.066560 7.000000
130.075210 42.000000
131.085360 261.000000
132.080810 5.000000
132.090010 26.000000
133.101700 470.000000
134.104800 52.000000
135.114610 30.000000
136.112630 8.000000
141.069310 64.000000
141.083920 6.000000
142.077060 271.000000
143.085570 243.000000
144.090910 86.000000
145.101580 274.000000
146.104550 38.000000
147.088460 10.000000
147.116520 484.000000
148.120800 48.000000
149.120540 11.000000
149.131970 54.000000
149.137820 26.000000
150.128720 78.000000
151.140000 8.000000
152.142530 9.000000
153.071850 7.000000
155.071370 8.000000
155.085570 86.000000
156.091030 18.000000
157.062350 6.000000
157.082820 8.000000
157.101470 1000.000000
158.105030 156.000000
159.117630 283.000000
160.120640 43.000000
161.132690 60.000000
162.127120 24.000000
162.140340 7.000000
164.144010 50.000000
165.148240 5.000000
167.083760 8.000000
168.091810 16.000000
168.099590 9.000000
169.100520 75.000000
170.105000 14.000000
171.105760 13.000000
171.118450 118.000000
172.121660 15.000000
173.132900 98.000000
174.134230 6.000000
175.150600 9.000000
181.101720 25.000000
182.103990 24.000000
182.114440 11.000000
183.116650 122.000000
184.122990 37.000000
185.133030 80.000000
186.120970 5.000000
186.142650 13.000000
187.141420 6.000000
187.151920 13.000000
195.118190 30.000000
196.127990 17.000000
197.113050 5.000000
197.132350 115.000000
198.135030 29.000000
198.143890 9.000000
199.147350 46.000000
202.157140 10.000000
202.165270 7.000000
204.167240 6.000000
209.132580 26.000000
210.141460 12.000000
211.144640 31.000000
211.154310 42.000000
212.153470 12.000000
212.165630 5.000000
213.157010 13.000000
216.176590 16.000000
223.149950 49.000000
224.130650 6.000000
224.148060 17.000000
224.156720 33.000000
225.162840 47.000000
226.165330 8.000000
237.159240 9.000000
238.157750 7.000000
238.172790 39.000000
253.194150 86.000000
254.196610 7.000000
362.265290 12.000000
362.282140 33.000000
363.282560 16.000000
363.298460 7.000000
364.292390 8.000000
378.316470 233.000000
379.317990 91.000000
380.323700 6.000000
438.329010 5.000000

>ms2peaks
107.086840 6.000000
109.101350 13.000000
121.102660 6.000000
124.112140 7.000000
126.127340 18.000000
133.102130 11.000000
145.101430 8.000000
147.117360 20.000000
149.132060 7.000000
157.101880 39.000000
158.103680 6.000000
159.116840 10.000000
171.116390 7.000000
197.132840 6.000000
253.194900 52.000000
254.197190 13.000000
378.315830 29.000000
379.316130 6.000000
396.322880 7.000000
438.335690 52.000000
439.340450 17.000000
456.347720 1000.000000
456.410250 25.000000

>ms2peaks
456.349270 1000.000000
456.411350 29.000000

>ms2peaks
70.065310 18.000000
81.070500 9.000000
93.070200 5.000000
95.085530 11.000000
96.080280 6.000000
105.070520 8.000000
107.086690 28.000000
109.102070 74.000000
114.092720 41.000000
117.071920 6.000000
119.086400 12.000000
121.101390 48.000000
123.118740 17.000000
124.112390 55.000000
126.128840 102.000000
127.112900 12.000000
127.129050 10.000000
129.071790 7.000000
131.086490 28.000000
133.102040 54.000000
135.117600 11.000000
143.088090 36.000000
145.101580 36.000000
147.117520 88.000000
148.119950 11.000000
149.133590 45.000000
150.137480 6.000000
151.112630 7.000000
157.102130 196.000000
158.105910 29.000000
159.118320 49.000000
161.134690 14.000000
171.117310 39.000000
172.119310 5.000000
173.133880 21.000000
183.116730 11.000000
185.133510 15.000000
187.151500 6.000000
197.125200 7.000000
197.135030 26.000000
198.140030 6.000000
211.149340 17.000000
213.164140 15.000000
225.163970 20.000000
253.196140 321.000000
254.200320 75.000000
313.215450 21.000000
378.315000 156.000000
379.318420 60.000000
380.315400 6.000000
396.328430 50.000000
397.329960 7.000000
438.283110 10.000000
438.336670 342.000000
439.340090 139.000000
440.348050 24.000000
456.347750 1000.000000
456.409850 13.000000

>ms2peaks
55.053960 7.000000
67.055110 98.000000
69.071090 36.000000
70.065800 154.000000
71.065850 5.000000
71.072280 6.000000
79.055710 84.000000
81.070950 234.000000
82.062360 6.000000
83.051800 8.000000
83.086520 5.000000
84.082890 11.000000
86.096680 8.000000
91.055240 186.000000
93.071160 203.000000
94.070540 16.000000
94.077800 15.000000
95.050170 10.000000
95.075070 16.000000
95.086450 120.000000
96.080790 28.000000
96.085820 15.000000
97.067490 12.000000
98.097690 23.000000
105.071240 311.000000
106.073680 42.000000
107.086280 236.000000
108.082770 12.000000
108.091950 22.000000
109.083160 8.000000
109.094400 29.000000
109.102410 245.000000
110.096060 14.000000
110.104080 23.000000
110.111150 12.000000
114.087490 20.000000
114.093080 58.000000
115.052850 15.000000
117.066870 53.000000
117.072070 128.000000
118.072380 7.000000
118.077320 20.000000
119.086260 166.000000
120.086140 11.000000
120.093540 15.000000
121.089280 14.000000
121.102550 194.000000
122.101730 25.000000
123.087770 7.000000
123.113610 6.000000
123.118820 21.000000
124.112660 125.000000
125.116350 33.000000
126.128270 152.000000
127.129540 9.000000
127.137140 8.000000
128.063460 35.000000
129.071560 240.000000
130.076840 52.000000
131.086400 256.000000
132.091140 27.000000
133.102750 495.000000
134.099370 19.000000
134.107350 46.000000
135.114140 13.000000
135.121730 16.000000
136.110820 8.000000
136.118800 11.000000
136.127690 5.000000
138.128160 16.000000
141.070040 67.000000
142.065400 14.000000
142.079220 272.000000
143.087140 258.000000
144.091490 49.000000
145.084690 8.000000
145.102280 320.000000
146.106600 49.000000
146.116330 7.000000
147.093190 6.000000
147.117190 526.000000
148.121290 73.000000
149.129520 67.000000
149.139880 13.000000
150.127350 27.000000
150.134290 19.000000
151.134720 6.000000
153.068510 5.000000
153.128620 8.000000
155.087770 94.000000
156.092670 40.000000
157.102160 1000.000000
158.105210 139.000000
159.118010 311.000000
160.121670 42.000000
161.129870 39.000000
161.135990 23.000000
162.135010 14.000000
163.134540 7.000000
164.139560 20.000000
164.150420 16.000000
166.160660 5.000000
167.086070 12.000000
168.093960 15.000000
169.102710 82.000000
170.108340 13.000000
171.118520 158.000000
172.120270 34.000000
173.097410 6.000000
173.129710 33.000000
173.138060 34.000000
174.134900 15.000000
175.148860 6.000000
176.146820 7.000000
178.159520 6.000000
181.095060 5.000000
182.112950 22.000000
183.118820 151.000000
184.112150 10.000000
184.125050 26.000000
185.133540 81.000000
185.141330 21.000000
186.130710 10.000000
186.139690 9.000000
186.152020 6.000000
187.150180 20.000000
195.116100 16.000000
196.125030 19.000000
197.133560 90.000000
198.139370 35.000000
199.139650 14.000000
199.149550 32.000000
200.146640 7.000000
209.134220 33.000000
210.139100 12.000000
211.150790 54.000000
212.155620 17.000000
212.163010 6.000000
213.154680 5.000000
213.164060 6.000000
216.174410 6.000000
222.140810 7.000000
223.147430 21.000000
224.156480 64.000000
225.163480 38.000000
237.158800 7.000000
238.174180 23.000000
239.173200 8.000000
253.195590 103.000000
254.197850 16.000000
258.218140 6.000000
348.271610 6.000000
362.290220 33.000000
363.258150 5.000000
363.282560 9.000000
364.296720 8.000000
378.299900 55.000000
378.316930 251.000000
379.319370 96.000000
380.322200 17.000000
439.346740 5.000000

>ms2peaks
66.325900 35.000000
67.057320 82.000000
68.041880 23.000000
69.069020 47.000000
70.062390 97.000000
70.066930 145.000000
70.634770 20.000000
71.071910 46.000000
72.078310 21.000000
77.161940 18.000000
79.053870 73.000000
81.063320 50.000000
81.069630 199.000000
81.075980 66.000000
82.064840 17.000000
82.073620 61.000000
83.087960 18.000000
83.386210 41.000000
84.020380 21.000000
84.659700 28.000000
86.100410 26.000000
88.817830 17.000000
91.055870 102.000000
92.485120 24.000000
93.069530 316.000000
93.955890 23.000000
94.074230 81.000000
95.041890 20.000000
95.055920 45.000000
95.087960 210.000000
96.079790 87.000000
96.091160 57.000000
97.067900 45.000000
97.102040 44.000000
98.094180 20.000000
99.082660 56.000000
105.070910 330.000000
106.073020 30.000000
106.078540 34.000000
107.074300 24.000000
107.085140 773.000000
107.099600 30.000000
108.084690 17.000000
108.093350 73.000000
108.237280 18.000000
109.080890 36.000000
109.090720 75.000000
109.101330 1037.000000
109.106160 479.000000
109.450260 24.000000
110.024770 21.000000
110.096760 20.000000
110.108030 30.000000
110.183610 22.000000
111.109190 21.000000
112.407040 39.000000
112.711750 18.000000
114.079920 46.000000
114.093200 791.000000
115.054020 30.000000
115.088540 27.000000
115.098000 17.000000
117.046250 27.000000
117.072260 197.000000
117.080900 35.000000
118.078440 21.000000
119.078630 61.000000
119.084460 197.000000
121.076720 19.000000
121.087170 66.000000
121.101330 951.000000
121.133050 22.000000
122.092000 17.000000
122.106900 86.000000
123.109530 55.000000
123.117910 350.000000
124.111950 1176.000000
124.142490 24.000000
125.110810 22.000000
125.117280 16.000000
126.128650 1585.000000
127.109100 61.000000
127.113910 27.000000
127.122570 22.000000
127.132680 100.000000
127.140910 66.000000
128.064740 21.000000
128.136840 30.000000
129.051220 21.000000
129.071700 233.000000
130.070850 20.000000
131.082320 365.000000
131.088680 403.000000
131.101060 22.000000
132.084170 22.000000
132.098830 25.000000
132.452760 28.000000
133.080030 25.000000
133.102660 1593.000000
133.129010 33.000000
133.254430 19.000000
134.019880 20.000000
134.104460 205.000000
134.113360 23.000000
134.758160 18.000000
135.106200 76.000000
135.116790 333.000000
136.120740 17.000000
137.139110 18.000000
138.100010 17.000000
138.134920 20.000000
138.687290 25.000000
139.106960 19.000000
139.114230 20.000000
139.154650 18.000000
139.449800 19.000000
140.123700 24.000000
141.063860 19.000000
141.071150 23.000000
142.062320 31.000000
142.071700 19.000000
142.089650 20.000000
142.118060 19.000000
142.127810 18.000000
143.085220 972.000000
144.080380 26.000000
144.096300 171.000000
144.138660 81.000000
145.087570 58.000000
145.102040 1290.000000
146.100370 52.000000
146.107590 56.000000
147.025920 23.000000
147.057400 24.000000
147.078990 22.000000
147.117900 2302.000000
148.119980 329.000000
148.129930 55.000000
149.097870 19.000000
149.113420 47.000000
149.131810 927.000000
149.891080 20.000000
150.118450 18.000000
150.136030 244.000000
151.106660 21.000000
151.115980 58.000000
152.116410 25.000000
153.125230 48.000000
153.973040 20.000000
155.073390 17.000000
155.086400 89.000000
155.445420 17.000000
156.146090 18.000000
157.072920 47.000000
157.101300 5110.000000
157.150280 22.000000
157.190220 17.000000
158.106140 1036.000000
158.133180 24.000000
159.073940 21.000000
159.100630 54.000000
159.116940 1574.000000
160.120130 94.000000
160.128600 73.000000
161.118880 50.000000
161.131240 174.000000
161.141020 132.000000
162.121580 50.000000
162.139020 24.000000
163.104640 20.000000
163.224790 22.000000
163.351700 41.000000
163.884810 18.000000
164.144270 149.000000
165.119220 54.000000
165.149440 19.000000
165.156890 27.000000
166.162800 24.000000
167.085710 18.000000
168.094360 17.000000
168.136830 35.000000
169.099720 151.000000
169.114460 25.000000
170.108640 65.000000
170.124650 17.000000
170.971710 19.000000
171.116640 974.000000
172.120410 193.000000
172.950640 20.000000
173.128780 301.000000
173.135970 187.000000
174.053700 18.000000
174.129940 21.000000
174.140750 37.000000
174.952000 20.000000
175.142780 24.000000
175.151400 18.000000
176.144850 19.000000
177.139310 18.000000
177.641620 22.000000
178.154590 39.000000
179.728780 27.000000
182.015440 21.000000
182.103640 21.000000
183.099200 17.000000
183.116960 385.000000
184.114260 33.000000
184.125080 44.000000
184.138950 17.000000
184.436360 39.000000
185.102510 32.000000
185.130780 258.000000
185.140370 51.000000
186.132570 20.000000
186.142360 86.000000
187.047240 18.000000
187.145480 176.000000
188.159240 61.000000
188.977100 25.000000
189.640520 27.000000
192.159300 20.000000
192.178310 49.000000
193.103100 20.000000
194.161010 20.000000
195.107500 35.000000
195.126010 48.000000
196.955960 21.000000
197.111800 37.000000
197.134800 752.000000
198.136000 151.000000
198.148300 54.000000
199.134990 76.000000
199.145360 140.000000
200.146760 63.000000
200.157270 69.000000
200.801730 39.000000
201.155820 17.000000
201.164600 27.000000
202.161030 22.000000
203.133830 20.000000
206.518720 18.000000
209.130450 30.000000
209.144810 24.000000
210.110760 23.000000
210.142670 38.000000
210.270940 17.000000
210.382110 20.000000
210.828320 18.000000
211.147090 412.000000
211.694760 31.000000
211.819720 27.000000
212.138310 17.000000
212.150880 114.000000
212.163930 28.000000
212.859510 18.000000
213.155930 138.000000
213.167830 167.000000
213.797320 20.000000
214.163970 34.000000
214.181690 19.000000
216.627300 18.000000
218.104780 37.000000
219.284000 18.000000
223.137800 33.000000
223.150210 74.000000
224.143360 39.000000
224.157760 53.000000
225.165630 418.000000
225.189030 30.000000
226.160630 22.000000
226.170870 38.000000
227.159090 45.000000
227.329450 17.000000
227.814470 19.000000
229.192660 28.000000
231.125260 23.000000
235.142490 17.000000
235.478450 31.000000
238.168840 55.000000
238.939790 58.000000
239.182300 20.000000
240.081890 19.000000
244.212010 17.000000
244.250260 20.000000
246.542450 33.000000
248.132100 21.000000
249.404310 18.000000
249.812090 22.000000
250.620940 18.000000
251.176100 64.000000
251.716080 20.000000
252.194820 34.000000
253.047330 24.000000
253.072360 31.000000
253.097700 18.000000
253.156830 95.000000
253.196990 6564.000000
253.684040 17.000000
253.977490 18.000000
254.139240 29.000000
254.200580 1364.000000
254.364810 18.000000
255.178540 37.000000
256.444340 28.000000
256.564420 18.000000
256.933810 20.000000
258.114110 25.000000
258.835780 21.000000
260.037170 18.000000
260.580960 22.000000
260.888400 19.000000
261.217100 25.000000
261.725070 25.000000
261.807070 18.000000
262.379940 26.000000
264.005310 18.000000
264.192230 24.000000
265.189120 56.000000
265.199520 20.000000
265.429290 21.000000
265.830170 23.000000
266.396850 17.000000
267.239470 20.000000
267.295900 24.000000
267.779790 35.000000
271.193360 27.000000
271.734530 21.000000
272.169860 27.000000
272.912050 17.000000
273.013700 29.000000
273.189540 17.000000
274.278720 23.000000
275.219060 17.000000
276.071810 54.000000
278.020390 25.000000
281.226260 35.000000
281.246670 23.000000
282.669190 31.000000
283.740200 25.000000
285.220670 19.000000
286.507970 17.000000
287.768310 44.000000
287.956730 26.000000
288.791660 20.000000
290.414280 21.000000
292.052150 31.000000
292.716610 28.000000
293.236210 30.000000
293.559970 18.000000
294.579530 18.000000
295.018680 27.000000
295.564450 24.000000
296.529110 20.000000
297.210300 18.000000
299.097020 18.000000
299.129820 20.000000
300.203060 21.000000
300.358370 21.000000
300.997590 22.000000
301.355530 21.000000
301.790010 36.000000
303.317020 22.000000
304.394350 22.000000
306.248810 21.000000
308.082460 17.000000
308.161380 22.000000
309.194150 21.000000
311.077880 19.000000
313.190030 18.000000
313.209990 205.000000
313.224980 576.000000
313.837680 21.000000
314.200070 18.000000
314.212100 54.000000
314.228880 31.000000
315.373840 18.000000
318.454560 20.000000
318.814480 20.000000
319.233400 48.000000
319.243990 21.000000
321.742580 20.000000
321.858860 29.000000
321.922090 17.000000
323.241420 19.000000
328.590450 19.000000
329.397400 42.000000
330.002840 29.000000
332.116330 29.000000
332.804900 29.000000
333.249910 21.000000
333.914980 18.000000
338.102600 29.000000
339.024350 18.000000
340.699220 17.000000
342.955320 27.000000
344.528780 37.000000
345.738460 29.000000
347.749210 17.000000
349.238830 17.000000
351.581480 43.000000
354.147550 25.000000
354.905730 23.000000
356.170380 29.000000
360.362120 38.000000
361.291170 17.000000
362.268460 20.000000
362.291530 21.000000
363.296630 30.000000
363.487980 50.000000
364.283360 37.000000
364.925290 28.000000
365.569310 21.000000
367.316410 21.000000
367.418060 18.000000
371.359710 19.000000
376.630800 24.000000
377.568450 20.000000
378.085540 21.000000
378.214510 25.000000
378.244840 34.000000
378.274570 78.000000
378.317630 3672.000000
378.371670 20.000000
378.407260 23.000000
379.204320 17.000000
379.318940 1162.000000
379.339140 232.000000
379.416720 18.000000
380.144130 20.000000
380.305420 53.000000
380.321810 135.000000
380.884060 19.000000
380.992980 21.000000
381.328340 44.000000
381.475340 19.000000
383.195680 21.000000
384.294040 24.000000
384.478730 17.000000
386.109280 17.000000
389.010830 18.000000
390.376190 18.000000
391.067720 26.000000
392.070340 24.000000
393.969180 28.000000
396.039060 21.000000
396.112920 20.000000
396.165220 25.000000
396.259770 20.000000
396.291500 20.000000
396.327790 598.000000
396.343260 187.000000
397.302460 24.000000
397.333440 181.000000
397.902470 20.000000
398.335600 41.000000
398.547300 20.000000
399.459320 19.000000
399.956210 24.000000
401.554780 21.000000
403.624050 18.000000
407.335140 20.000000
408.285550 47.000000
409.901890 20.000000
411.460170 21.000000
414.490390 24.000000
416.535950 22.000000
417.375550 23.000000
418.609250 18.000000
420.362400 22.000000
421.470430 41.000000
422.617580 30.000000
422.883090 24.000000
423.698850 18.000000
424.736600 33.000000
431.153840 30.000000
434.367130 30.000000
435.544280 21.000000
437.534730 18.000000
437.901310 21.000000
437.955930 26.000000
438.005710 18.000000
438.130890 20.000000
438.219420 18.000000
438.266570 51.000000
438.284580 52.000000
438.338290 6524.000000
438.380520 38.000000
439.125790 18.000000
439.215360 49.000000
439.255520 17.000000
439.310240 220.000000
439.340880 1889.000000
439.959470 17.000000
440.210820 28.000000
440.265590 38.000000
440.339200 380.000000
440.374880 26.000000
440.447200 18.000000
441.338380 43.000000
441.372340 17.000000
441.442870 25.000000
445.182250 26.000000
445.469940 19.000000
447.346250 17.000000
448.641540 17.000000
448.840790 18.000000
449.803530 17.000000
450.047000 17.000000
450.929630 18.000000
451.588990 17.000000
453.330110 17.000000
453.672850 33.000000
454.629390 21.000000
455.259310 18.000000
455.475520 37.000000
455.650970 17.000000
455.730560 18.000000
455.869900 20.000000
455.910980 24.000000
455.929080 18.000000
456.071470 18.000000
456.103910 49.000000
456.139340 18.000000
456.180050 23.000000
456.196840 17.000000
456.226590 68.000000
456.253540 157.000000
456.280640 467.000000
456.349520 126687.000000
456.411710 3558.000000
456.469570 256.000000

