>compound PR07497135
>parentmass 625.1757627999999
>ionization [M]+
>formula C28H33O16+
>rt 167.635980
>profile qtof
#smiles_iso COC1=C(C=CC(=C1)C2=C(C=C3C(=CC(=CC3=[O+]2)O)O[C@H]4[C@@H]([C@H]([C@@H]([C@H](O4)CO)O)O)O)O[C@H]5[C@@H]([C@H]([C@@H]([C@H](O5)CO)O)O)O)O
#smiles_can COC1=C(C=CC(=C1)C2=C(C=C3C(=CC(=CC3=[O+]2)O)OC4C(C(C(C(O4)CO)O)O)O)OC5C(C(C(C(O5)CO)O)O)O)O
#inchikey IPVSUYLZIAYTOK-DPOJTEBASA-O
#pubchem_id 5488811
#mb_accession PR303260,PR303263,PR303266,PR303269,PR303272,PR303275,PR303278,PR303281,PR303284,PR303287,PR303290,PR303293

>ms2peaks
135.725370 5.000000
235.059860 5.000000
258.057160 5.000000
301.026550 8.000000
301.036900 12.000000
301.069670 1000.000000
301.114440 5.000000
302.068300 100.000000
302.080540 95.000000
303.059690 11.000000
303.079100 22.000000
432.031590 5.000000
463.113800 212.000000
463.133880 55.000000
464.086940 8.000000
464.129120 68.000000
464.945220 5.000000
465.124390 7.000000
465.145360 6.000000
504.433200 6.000000
625.083800 6.000000
625.115300 21.000000
625.173770 590.000000

>ms2peaks
301.068660 9.000000
463.107300 18.000000
463.125030 35.000000
625.112920 24.000000
625.175840 1000.000000

>ms2peaks
301.024960 5.000000
301.070950 1000.000000
302.039460 7.000000
302.071870 117.000000
302.088380 26.000000
303.046300 6.000000
303.076690 28.000000
304.076140 7.000000
427.083650 6.000000
463.108030 28.000000
463.131200 36.000000
464.123470 8.000000
464.148040 6.000000

>ms2peaks
202.057940 12.000000
213.056520 5.000000
230.056300 6.000000
246.098480 5.000000
257.047270 10.000000
258.049650 7.000000
258.058470 12.000000
261.607820 6.000000
286.003780 6.000000
286.014800 6.000000
286.047240 248.000000
287.032070 6.000000
287.045900 29.000000
287.056670 32.000000
288.042880 6.000000
300.979130 6.000000
301.023190 10.000000
301.039830 24.000000
301.070710 1000.000000
302.034420 9.000000
302.073640 199.000000
303.083710 34.000000

>ms2peaks
286.040990 5.000000
286.050200 6.000000
301.034210 6.000000
301.070400 1000.000000
302.067260 135.000000
302.080870 67.000000
303.069310 16.000000
303.087830 7.000000
463.074400 6.000000
463.124240 293.000000
464.127900 69.000000
465.129430 6.000000
466.135440 6.000000
625.077700 5.000000
625.097050 5.000000
625.178280 596.000000

>ms2peaks
301.064060 6.000000
301.075560 9.000000
463.118990 57.000000
464.127780 13.000000
465.135930 6.000000
625.067380 9.000000
625.115420 16.000000
625.176570 1000.000000

>ms2peaks
301.018950 9.000000
301.038540 14.000000
301.071380 1000.000000
302.060150 39.000000
302.074160 159.000000
302.096220 6.000000
303.072170 30.000000
463.078670 5.000000
463.121580 54.000000
463.136380 18.000000
464.124450 17.000000

>ms2peaks
230.050490 10.000000
258.041870 17.000000
258.058230 7.000000
286.004180 6.000000
286.033170 72.000000
286.043520 153.000000
286.057340 51.000000
287.048070 33.000000
287.068510 9.000000
288.063200 8.000000
300.955410 8.000000
301.070040 1000.000000
302.016270 10.000000
302.054320 27.000000
302.065120 72.000000
302.083370 65.000000

>ms2peaks
225.797200 7.000000
258.056180 6.000000
286.043700 6.000000
287.059330 7.000000
301.011510 6.000000
301.035190 32.000000
301.070950 1000.000000
302.027010 7.000000
302.072170 146.000000
302.094510 11.000000
303.073790 8.000000
380.241150 6.000000
463.065980 6.000000
463.120450 176.000000
463.136900 67.000000
464.132570 54.000000
465.132320 6.000000
489.006320 9.000000
625.098510 13.000000
625.128300 12.000000
625.180970 630.000000

>ms2peaks
301.069890 12.000000
463.095550 6.000000
463.123750 54.000000
464.123840 7.000000
625.084170 19.000000
625.177250 1000.000000

>ms2peaks
301.021610 6.000000
301.034180 11.000000
301.071560 1000.000000
302.074650 165.000000
303.082060 15.000000
463.113740 28.000000
463.131010 50.000000
464.120610 9.000000
464.136290 11.000000

>ms2peaks
202.054730 6.000000
230.052020 24.000000
230.061050 8.000000
257.046910 6.000000
258.048890 38.000000
259.051670 5.000000
259.061250 5.000000
286.046050 221.000000
286.098570 7.000000
287.048920 41.000000
287.062160 11.000000
288.026820 7.000000
301.025390 13.000000
301.070310 1000.000000
301.106020 8.000000
302.072850 151.000000
302.086790 44.000000
303.072270 31.000000

