>compound PR07928500
>parentmass 494.3318
>ionization [M+H]+
>formula C24H47NO9
>rt 273.000000
>profile qtof
#smiles_iso CCCCCCCCCCCCC(C(C(COC1C(C(C(C(O1)CO)O)O)O)NC(=O)C)O)O
#smiles_can CCCCCCCCCCCCC(C(C(COC1C(C(C(C(O1)CO)O)O)O)NC(=O)C)O)O
#inchikey IAPUZRMYFXZQIM-UHFFFAOYSA-N
#pubchem_id 139291887
#mb_accession PR310837

>ms2
90.056250 16.000000
97.029740 16.000000
121.103870 30.000000
175.112590 16.000000
247.774340 16.000000
251.176760 18.000000
278.229950 19.000000
314.237150 24.000000
314.251650 38.000000
314.269100 225.000000
314.283570 42.000000
314.296110 18.000000
315.272160 59.000000
328.095210 16.000000
332.240510 31.000000
332.268920 110.000000
332.281830 203.000000
333.282260 79.000000
442.642210 16.000000
494.270020 20.000000
494.336300 568.000000

