>compound PR07900132
>parentmass 195.06518566153844
>ionization [M+H]+
>formula C10H10O4
>rt 335.359403
>profile qtof
#smiles_iso CC(=O)OC1=C(C=C(C=C1)C=O)OC
#smiles_can CC(=O)OC1=C(C=C(C=C1)C=O)OC
#inchikey PZSJOBKRSVRODF-UHFFFAOYSA-N
#pubchem_id 61229
#mb_accession PR304108,PR304110,PR304112,PR304114,PR304116,PR304118,PR304120,PR304122,PR304124,PR304126,PR304128,PR304130,PR310425

>ms2
65.040180 91.000000
65.045590 14.000000
93.033840 232.000000
94.038410 16.000000
109.928220 22.000000
110.033580 23.000000
111.978420 32.000000
113.962380 14.000000
125.047870 19.000000
125.059050 255.000000
126.062970 14.000000
126.070520 14.000000
152.098330 15.000000
153.054920 1000.000000
154.059540 144.000000
156.992720 24.000000
157.119920 14.000000
194.126600 18.000000

>ms2
113.932530 6.000000
113.960200 14.000000
125.056540 61.000000
125.062420 26.000000
151.974840 7.000000
153.027650 7.000000
153.053760 1000.000000
154.046510 16.000000
154.054920 59.000000
154.061430 53.000000
155.065410 7.000000

>ms2
65.037640 476.000000
81.144970 74.000000
93.014920 66.000000
93.034050 1000.000000
94.040120 92.000000
110.034340 413.000000
125.058760 77.000000

>ms2
65.035850 1000.000000

>ms2
65.035630 14.000000
65.039270 32.000000
65.042340 12.000000
92.031230 14.000000
93.032420 105.000000
94.028140 12.000000
95.826320 12.000000
105.951450 14.000000
125.059790 234.000000
125.714570 12.000000
126.059650 12.000000
127.068560 14.000000
133.537080 23.000000
153.054890 1000.000000
153.129780 14.000000
153.671280 12.000000
154.055540 45.000000
154.061480 62.000000
155.061950 18.000000
161.137120 14.000000

>ms2
93.034650 13.000000
113.967510 5.000000
116.515620 6.000000
125.060330 75.000000
126.066160 13.000000
153.054310 1000.000000
153.068310 16.000000
154.056950 76.000000
154.062270 31.000000
155.064060 6.000000
156.963610 9.000000
157.548050 9.000000

>ms2
65.038290 895.000000
67.042710 66.000000
93.033660 1000.000000
93.807310 66.000000
95.043660 105.000000
125.054700 98.000000
125.061950 86.000000
134.056720 94.000000

>ms2
110.032320 1000.000000

>ms2
65.034580 20.000000
65.042430 11.000000
93.022240 9.000000
93.033820 178.000000
94.039490 12.000000
95.033680 10.000000
110.035810 11.000000
125.059970 226.000000
126.059040 11.000000
126.068990 10.000000
137.031300 16.000000
153.039600 15.000000
153.054860 1000.000000
154.049740 11.000000
154.061660 63.000000
159.267380 9.000000
160.125790 12.000000
183.997910 15.000000

>ms2
113.961690 10.000000
125.059620 77.000000
126.064970 7.000000
137.030910 6.000000
153.031680 8.000000
153.054400 1000.000000
154.046280 9.000000
154.059190 94.000000
155.057560 12.000000

>ms2
65.006770 46.000000
65.039000 355.000000
65.497250 43.000000
66.043170 164.000000
82.045470 51.000000
93.033610 1000.000000
93.723440 61.000000
93.984220 54.000000
94.037720 46.000000
110.036610 92.000000
111.038010 51.000000
124.054460 46.000000
125.063840 46.000000
151.038220 69.000000

>ms2
65.039840 1000.000000
81.035690 533.000000
93.035280 444.000000

>ms2
65.040180 113.000000
65.045590 18.000000
93.033840 289.000000
94.038410 20.000000
109.928220 27.000000
110.033580 29.000000
111.978420 40.000000
113.962380 17.000000
125.047870 24.000000
125.059050 318.000000
126.062970 18.000000
126.070520 17.000000
152.098330 19.000000
153.054920 1248.000000
154.059540 180.000000
156.992720 30.000000
157.119920 18.000000
194.126600 22.000000

