>compound PR07009313
>parentmass 476.2756
>ionization [M+H]+
>formula C23H42NO7P
>rt 523.800000
>profile qtof
#smiles_iso CCCCCC=CCC=CCC=CCCCCC(=O)OC(CO)COP(=O)(O)OCCN
#smiles_can CCCCCC=CCC=CCC=CCCCCC(=O)OC(CO)COP(=O)(O)OCCN
#inchikey QYXNIRQICOBIAE-UHFFFAOYSA-N
#pubchem_id 76043304
#mb_accession PR310834

>ms2peaks
225.167450 22.000000
335.221890 23.000000
335.245390 28.000000
335.274990 42.000000
416.634280 21.000000
436.473970 20.000000
458.193360 18.000000
458.244660 20.000000
458.270780 17.000000
459.269840 19.000000
476.265170 136.000000
476.295230 19.000000

