>compound PR07786117
>parentmass 465.1027525
>ionization [M+H]+
>formula C21H20O12
>rt 239.793000
>profile qtof
#smiles_iso C1=CC(=C(C=C1C2=C(C(=O)C3=C(C=C(C=C3O2)O)O)O[C@H]4[C@@H]([C@H]([C@H]([C@H](O4)CO)O)O)O)O)O
#smiles_can C1=CC(=C(C=C1C2=C(C(=O)C3=C(C=C(C=C3O2)O)O)OC4C(C(C(C(O4)CO)O)O)O)O)O
#inchikey OVSQVDMCBVZWGM-DTGCRPNFSA-N
#pubchem_id 5281643
#mb_accession PR302755,PR302759,PR302762,PR302766,PR302770,PR302774,PR302778,PR302782,PR302785,PR302789,PR302793,PR302797

>ms2
61.018920 7.000000
61.029670 7.000000
91.039510 10.000000
97.033060 7.000000
115.041260 10.000000
145.063960 9.000000
163.055510 7.000000
165.016660 31.000000
188.047090 8.000000
208.840210 9.000000
229.035870 9.000000
229.053960 7.000000
247.053240 9.000000
257.044010 14.000000
299.054320 13.000000
302.982090 14.000000
303.012330 8.000000
303.049470 1000.000000
303.093960 7.000000
304.017240 17.000000
304.045840 67.000000
304.054810 157.000000
305.039460 19.000000
305.062470 35.000000
307.067960 8.000000
316.050720 10.000000
393.067170 16.000000
432.982090 7.000000
448.080900 9.000000
465.096920 29.000000
465.113220 9.000000

>ms2
85.020370 11.000000
91.031620 18.000000
145.048580 7.000000
301.466340 6.000000
303.011080 7.000000
303.049710 1000.000000
304.020050 10.000000
304.038480 19.000000
304.050320 58.000000
304.061520 54.000000
305.005520 7.000000
305.047210 9.000000
305.059080 8.000000
306.038020 9.000000
314.444790 6.000000
427.964080 8.000000
430.104370 6.000000
465.066860 20.000000
465.089940 96.000000
465.109590 250.000000

>ms2
61.028260 29.000000
61.894940 8.000000
81.035900 8.000000
85.024350 9.000000
91.039840 52.000000
115.037520 20.000000
137.015140 10.000000
145.057110 7.000000
165.017150 8.000000
201.053310 10.000000
229.042740 11.000000
241.019230 11.000000
257.040890 8.000000
275.048430 8.000000
301.052430 8.000000
303.014650 9.000000
303.051610 1000.000000
303.091030 12.000000
304.001920 9.000000
304.036620 13.000000
304.053470 130.000000
305.041380 8.000000
305.055420 8.000000
369.116730 18.000000

>ms2
64.130170 140.000000
77.039410 124.000000
91.034390 204.000000
97.029290 177.000000
109.025020 140.000000
111.006110 220.000000
118.075460 140.000000
121.022950 263.000000
129.055340 108.000000
137.020780 263.000000
137.032120 328.000000
147.020340 156.000000
150.021530 108.000000
153.020160 737.000000
159.046520 140.000000
162.028500 129.000000
165.014620 183.000000
165.031100 108.000000
166.442670 108.000000
167.022780 108.000000
173.055940 247.000000
179.044910 210.000000
184.040160 172.000000
184.058270 161.000000
187.038350 167.000000
201.021970 91.000000
201.061100 484.000000
202.059480 242.000000
217.048980 188.000000
219.034120 172.000000
219.068560 97.000000
228.033940 97.000000
229.047000 1000.000000
229.056520 312.000000
241.033480 129.000000
245.036870 151.000000
247.075150 172.000000
257.052980 108.000000
274.048190 118.000000
285.020970 108.000000
286.877410 140.000000
303.042270 366.000000
303.053470 882.000000
305.050630 339.000000
306.068700 97.000000

>ms2
85.032460 30.000000
97.027240 7.000000
98.029500 9.000000
127.042380 8.000000
127.052020 6.000000
137.014340 32.000000
138.022250 7.000000
165.013810 25.000000
165.021670 6.000000
177.150210 13.000000
183.055070 15.000000
216.572600 9.000000
231.071780 7.000000
285.010310 9.000000
285.020970 9.000000
302.980830 7.000000
303.005830 21.000000
303.047820 1000.000000
303.085210 6.000000
303.665040 7.000000
304.038510 71.000000
304.060610 69.000000
304.768590 10.000000
305.046910 33.000000
305.058560 49.000000
306.640810 7.000000
369.069760 7.000000
370.057100 6.000000
381.048370 9.000000
381.071010 10.000000
392.061610 12.000000
465.071750 11.000000
465.095400 46.000000
465.123110 20.000000

>ms2
91.038990 11.000000
127.035450 7.000000
145.047160 9.000000
303.012480 15.000000
303.049130 1000.000000
303.987090 10.000000
304.035610 20.000000
304.051940 168.000000
304.077480 19.000000
305.037140 7.000000
305.061650 8.000000
324.419400 7.000000
465.061040 8.000000
465.105870 321.000000

>ms2
61.028640 12.000000
85.028520 10.000000
91.040530 6.000000
99.047970 17.000000
110.976210 7.000000
111.006130 10.000000
115.037110 8.000000
118.430750 11.000000
121.028920 15.000000
127.026780 13.000000
135.820830 7.000000
149.028310 6.000000
165.017760 7.000000
191.065540 21.000000
201.054530 11.000000
213.052900 9.000000
219.060000 8.000000
228.044890 9.000000
247.064730 10.000000
302.993710 7.000000
303.006290 13.000000
303.017330 12.000000
303.050320 1000.000000
303.125920 6.000000
304.046840 180.000000
304.062680 61.000000
305.037840 17.000000
305.058170 23.000000
305.070370 10.000000
307.448150 6.000000
309.071990 6.000000
315.041470 8.000000
343.060790 7.000000
365.058530 7.000000

>ms2
63.024340 85.000000
115.052380 90.000000
131.047810 142.000000
134.026820 85.000000
137.015980 132.000000
137.022740 90.000000
138.022250 113.000000
143.055970 85.000000
153.017290 863.000000
163.034160 113.000000
165.021010 330.000000
173.060390 151.000000
177.019330 165.000000
183.037020 113.000000
187.049220 137.000000
194.017240 127.000000
217.051420 99.000000
229.048520 1000.000000
230.049640 90.000000
230.058550 123.000000
231.051030 165.000000
245.018250 132.000000
256.042300 123.000000
257.048980 340.000000
274.038540 80.000000
274.058990 80.000000
285.037080 123.000000
303.042420 123.000000
303.063480 90.000000
305.071260 137.000000
327.961760 99.000000

>ms2
85.012560 6.000000
86.030780 7.000000
115.039190 11.000000
117.053880 12.000000
145.057750 8.000000
149.024720 7.000000
157.065310 14.000000
163.041400 14.000000
163.062010 8.000000
165.017990 6.000000
187.042710 6.000000
193.693410 9.000000
201.056750 7.000000
229.047270 15.000000
229.057650 23.000000
229.284150 6.000000
257.048160 7.000000
274.035060 8.000000
275.057100 6.000000
285.048280 10.000000
302.971770 6.000000
302.988400 11.000000
303.002110 8.000000
303.021730 15.000000
303.050780 1000.000000
303.088960 8.000000
303.746860 11.000000
303.995240 8.000000
304.023380 7.000000
304.047670 101.000000
304.065190 38.000000
304.919280 6.000000
305.059880 33.000000
308.992800 6.000000
315.040800 20.000000
321.038640 7.000000
369.025630 7.000000
406.977690 9.000000
465.047610 8.000000
465.108120 48.000000

>ms2
91.040100 8.000000
300.613860 12.000000
302.307590 7.000000
302.997310 8.000000
303.017060 10.000000
303.047610 1000.000000
304.051790 133.000000
304.065950 21.000000
305.061190 15.000000
306.058140 7.000000
315.026030 7.000000
399.051450 10.000000
411.068630 5.000000
427.960050 11.000000
465.012020 12.000000
465.043760 21.000000
465.069150 13.000000
465.101990 350.000000
465.182340 6.000000

>ms2
61.031510 14.000000
77.119030 6.000000
85.022770 8.000000
85.033100 11.000000
97.026120 7.000000
99.033390 10.000000
100.052670 8.000000
101.021430 10.000000
117.041050 7.000000
132.282000 6.000000
219.023940 10.000000
229.055600 8.000000
247.066040 7.000000
257.050660 13.000000
285.033510 6.000000
302.041470 6.000000
302.873290 7.000000
302.974980 10.000000
303.010960 7.000000
303.049290 1000.000000
303.428130 6.000000
303.999480 7.000000
304.010190 12.000000
304.043980 52.000000
304.056790 33.000000
305.050720 12.000000
305.062870 6.000000
327.051090 8.000000
369.037930 8.000000
388.956180 10.000000

>ms2
69.031820 135.000000
72.581860 127.000000
85.029500 152.000000
109.029810 180.000000
109.851140 82.000000
111.009150 131.000000
117.068890 82.000000
133.025530 70.000000
137.012160 74.000000
137.020980 102.000000
137.030930 217.000000
153.002330 135.000000
153.018020 1000.000000
154.019180 283.000000
165.009080 279.000000
165.017870 135.000000
166.022800 94.000000
169.526670 131.000000
179.028670 86.000000
181.029420 148.000000
183.037510 94.000000
187.041500 102.000000
191.072110 148.000000
201.056720 422.000000
202.051250 164.000000
203.171650 90.000000
204.041640 90.000000
211.036510 209.000000
229.043550 311.000000
229.054530 74.000000
232.042240 135.000000
245.044600 107.000000
246.506520 119.000000
257.044310 328.000000
257.058070 291.000000
267.016480 115.000000
275.071720 82.000000
281.472780 135.000000
286.687320 115.000000
303.051970 512.000000
304.048490 172.000000
314.075380 70.000000
410.496830 86.000000

