>compound PR07121017
>parentmass 419.1336586999999
>ionization [M+H]+
>formula C21H22O9
>rt 244.982040
>profile qtof
#smiles_iso C1[C@H](OC2=C(C1=O)C=CC(=C2)O)C3=CC=C(C=C3)O[C@H]4[C@@H]([C@H]([C@@H]([C@H](O4)CO)O)O)O
#smiles_can C1C(OC2=C(C1=O)C=CC(=C2)O)C3=CC=C(C=C3)OC4C(C(C(C(O4)CO)O)O)O
#inchikey DEMKZLAVQYISIA-ZRWXNEIDSA-N
#pubchem_id 503737
#mb_accession PR303638,PR303639,PR303640,PR303641,PR303642,PR303643,PR303644,PR303645,PR303646,PR303647,PR303648,PR303649

>ms2
85.027410 30.000000
115.036360 23.000000
125.873490 28.000000
128.042720 16.000000
137.022080 150.000000
137.032350 26.000000
138.026430 12.000000
142.908580 20.000000
145.047520 14.000000
147.018940 12.000000
147.043530 49.000000
147.049470 32.000000
148.048810 14.000000
183.084840 12.000000
194.081250 17.000000
211.072140 12.000000
211.082670 33.000000
256.479250 12.000000
257.081970 1000.000000
257.370540 16.000000
258.079710 141.000000
258.091160 91.000000
259.085420 12.000000
280.533330 20.000000
419.117710 15.000000
419.162570 12.000000

>ms2
169.238980 9.000000
255.059680 6.000000
257.053250 12.000000
257.079680 1000.000000
258.085510 206.000000
259.077580 39.000000
259.101930 17.000000
327.301790 7.000000
365.095090 11.000000
419.129390 26.000000
419.146640 14.000000

>ms2
54.143640 16.000000
69.889910 19.000000
85.030630 36.000000
93.028370 16.000000
109.026090 17.000000
115.038090 26.000000
123.040820 15.000000
137.022200 743.000000
138.028980 93.000000
145.047880 18.000000
147.043140 187.000000
147.053570 15.000000
148.047820 32.000000
163.031200 25.000000
163.039760 20.000000
165.066640 18.000000
171.079210 29.000000
173.069870 34.000000
187.081380 39.000000
189.053560 18.000000
195.071690 32.000000
208.345140 21.000000
210.990910 20.000000
211.074170 17.000000
215.073640 20.000000
229.072050 17.000000
229.081150 23.000000
239.069630 81.000000
239.081390 22.000000
240.220260 15.000000
242.054120 56.000000
242.072590 29.000000
257.081020 1000.000000
258.080140 205.000000
258.091490 37.000000
259.082310 50.000000

>ms2
81.032810 97.000000
83.041840 24.000000
91.050900 25.000000
91.057180 60.000000
97.027800 74.000000
107.046290 40.000000
109.025870 25.000000
117.033200 38.000000
119.050360 185.000000
120.054280 54.000000
123.038960 24.000000
137.011050 24.000000
137.023820 1000.000000
137.234510 28.000000
138.026860 31.000000
141.064730 29.000000
145.066760 39.000000
147.043410 181.000000
147.051910 54.000000
153.064070 32.000000
153.072270 36.000000
165.071700 74.000000
166.071640 24.000000
171.077010 29.000000
173.063430 35.000000
239.062300 52.000000
239.078460 25.000000
242.064120 24.000000
258.086360 42.000000

>ms2
69.033460 12.000000
85.028060 27.000000
86.031240 12.000000
93.034190 14.000000
97.026480 12.000000
117.033510 12.000000
137.015410 23.000000
137.024870 94.000000
138.028490 12.000000
147.042100 118.000000
153.060410 15.000000
211.076350 21.000000
215.074170 42.000000
239.070360 12.000000
242.054400 12.000000
257.080230 1000.000000
258.089720 113.000000
259.689210 12.000000
260.435700 12.000000
262.171600 12.000000

>ms2
127.041150 12.000000
138.006380 9.000000
145.049350 9.000000
146.051710 9.000000
156.429860 14.000000
252.137590 9.000000
257.026760 8.000000
257.080870 1000.000000
257.106320 13.000000
258.065190 11.000000
258.080020 117.000000
258.089170 94.000000
259.085390 9.000000
260.087710 17.000000
269.811040 19.000000
419.126890 41.000000
419.147920 22.000000

>ms2
81.032060 24.000000
85.027940 30.000000
93.031520 69.000000
109.027700 19.000000
117.021200 41.000000
127.038620 60.000000
128.042690 36.000000
137.022520 548.000000
137.415120 23.000000
137.589890 22.000000
138.027160 154.000000
147.045030 370.000000
149.046540 20.000000
171.316620 19.000000
183.082460 23.000000
184.160580 34.000000
187.488850 44.000000
197.055660 21.000000
211.073500 94.000000
239.044220 19.000000
239.064160 55.000000
239.073360 54.000000
242.065460 42.000000
257.082310 1000.000000
257.093200 180.000000
258.079100 215.000000
258.094640 99.000000
258.811520 21.000000
259.092830 27.000000
285.091130 21.000000
310.120150 20.000000
350.085210 20.000000

>ms2
77.039730 37.000000
77.045110 33.000000
81.032390 37.000000
103.034210 70.000000
113.776780 32.000000
117.032800 69.000000
120.047100 86.000000
123.044570 81.000000
126.791890 58.000000
135.960600 48.000000
136.996280 32.000000
137.021390 1000.000000
137.036470 30.000000
138.024960 48.000000
138.032170 35.000000
138.343830 35.000000
139.025180 32.000000
147.040860 99.000000
147.047270 125.000000
154.838880 33.000000
163.039220 46.000000
165.068950 53.000000
183.088810 33.000000
197.064440 46.000000
211.077240 33.000000
239.070530 37.000000

>ms2
85.001860 12.000000
85.031110 11.000000
109.033340 11.000000
116.048550 11.000000
119.036770 10.000000
127.039180 16.000000
137.024920 207.000000
138.024960 51.000000
145.054240 10.000000
147.042980 25.000000
152.058490 11.000000
163.036000 10.000000
200.964940 11.000000
202.653840 10.000000
211.073870 13.000000
221.056300 11.000000
257.049930 14.000000
257.079470 1000.000000
258.081300 60.000000
258.093230 84.000000
259.088040 56.000000

>ms2
115.042120 9.000000
121.053460 5.000000
137.018230 8.000000
155.035230 5.000000
163.054280 7.000000
257.080410 1000.000000
258.083680 105.000000
259.068600 5.000000
259.084230 38.000000
259.100250 26.000000
299.072330 7.000000
419.116670 13.000000
419.133360 8.000000
419.151400 13.000000

>ms2
69.032960 15.000000
85.022650 16.000000
85.028600 21.000000
93.031840 18.000000
119.046070 16.000000
121.061750 13.000000
127.037060 31.000000
127.049290 39.000000
137.021510 440.000000
137.028750 136.000000
137.953660 14.000000
138.028380 52.000000
147.029940 16.000000
147.044970 211.000000
147.049670 87.000000
154.771740 15.000000
163.036870 19.000000
171.077650 20.000000
187.084300 14.000000
197.055180 13.000000
201.091310 16.000000
211.071520 31.000000
239.059300 13.000000
240.077960 16.000000
242.056470 44.000000
243.060970 30.000000
257.043760 31.000000
257.081300 1000.000000
258.081330 142.000000
259.100830 18.000000

>ms2
81.033000 53.000000
81.038320 24.000000
91.053630 20.000000
91.058090 24.000000
92.055920 28.000000
95.048990 17.000000
104.448810 16.000000
107.049670 40.000000
108.053490 18.000000
109.025580 16.000000
119.034230 25.000000
119.049900 222.000000
120.052520 99.000000
121.033160 21.000000
123.042910 106.000000
137.002850 34.000000
137.024220 1000.000000
138.025990 68.000000
138.036100 49.000000
141.065840 42.000000
145.024980 19.000000
147.045850 179.000000
148.045720 40.000000
153.065310 26.000000
154.073380 26.000000
163.041210 18.000000
163.049040 34.000000
165.070710 64.000000
166.078410 26.000000
176.063750 20.000000
194.068250 18.000000
316.102780 16.000000

