>compound PR07929510
>parentmass 919.4847
>ionization [M-H2O+H]+
>formula C45H76O20
>rt 278.400000
>profile qtof
#smiles_iso CC1C2C(CC3C2(CCC4C3CCC5C4(CC(C(C5)OC6C(C(C(C(O6)CO)O)O)OC7C(C(C(C(O7)CO)O)O)O)O)C)C)OC1(CCC(C)COC8C(C(C(C(O8)CO)O)O)O)O
#smiles_can CC1C2C(CC3C2(CCC4C3CCC5C4(CC(C(C5)OC6C(C(C(C(O6)CO)O)O)OC7C(C(C(C(O7)CO)O)O)O)O)C)C)OC1(CCC(C)COC8C(C(C(C(O8)CO)O)O)O)O
#inchikey FRVIYMUWTVFMSJ-UHFFFAOYSA-N
#pubchem_id 74029753
#mb_accession PR310716

>ms2
147.065770 35.000000
177.087340 19.000000
251.177280 18.000000
252.191150 46.000000
261.168210 18.000000
269.186000 37.000000
269.201510 16.000000
270.209050 37.000000
287.183410 22.000000
287.200380 37.000000
353.200070 16.000000
395.231050 23.000000
431.332950 16.000000
595.313780 37.000000
611.374020 53.000000
612.373350 18.000000
613.384090 18.000000
638.186160 18.000000
755.408450 16.000000
757.418150 52.000000
757.455990 41.000000
918.231870 16.000000
919.429200 23.000000
919.478520 176.000000
919.503850 202.000000

