>compound PR07676404
>parentmass 447.1285734
>ionization [M+H]+
>formula C22H22O10
>rt 343.965000
>profile qtof
#smiles_iso COC1=CC=C(C=C1)C2=COC3=CC(=CC(=C3C2=O)O)O[C@H]4[C@@H]([C@H]([C@@H]([C@H](O4)CO)O)O)O
#smiles_can COC1=CC=C(C=C1)C2=COC3=CC(=CC(=C3C2=O)O)OC4C(C(C(C(O4)CO)O)O)O
#inchikey LFEUICHQZGNOHD-RECXWPGBSA-N
#pubchem_id 5280781
#mb_accession PR302862,PR302868,PR302874,PR302880,PR302886,PR302892,PR302898,PR302904,PR302910,PR302916,PR302922,PR302928

>ms2
123.045350 7.000000
152.010560 24.000000
153.020400 6.000000
229.078920 6.000000
229.092220 11.000000
242.046540 6.000000
253.041230 6.000000
253.050290 13.000000
269.050780 7.000000
270.048490 19.000000
270.060790 10.000000
285.039250 16.000000
285.076570 1000.000000
285.122920 10.000000
286.056640 7.000000
286.079320 176.000000
287.085110 16.000000
447.127350 140.000000

>ms2
285.039150 11.000000
285.075560 724.000000
286.080080 124.000000
287.084440 13.000000
447.071750 11.000000
447.128970 1000.000000

>ms2
123.042650 6.000000
152.014220 6.000000
229.086760 15.000000
270.043850 7.000000
270.055270 22.000000
285.006840 6.000000
285.030850 10.000000
285.077060 1000.000000
286.052920 11.000000
286.081120 161.000000
287.067500 8.000000
287.084720 23.000000
288.086090 7.000000

>ms2
85.023770 8.000000
90.046520 12.000000
91.020200 16.000000
91.041840 10.000000
93.048580 12.000000
95.010680 18.000000
95.016950 31.000000
96.017670 25.000000
96.024220 28.000000
102.041600 18.000000
103.052790 55.000000
103.736450 13.000000
104.024230 10.000000
105.065990 15.000000
106.073190 18.000000
107.032910 12.000000
107.045700 38.000000
111.008320 21.000000
118.040360 140.000000
119.046690 39.000000
120.934330 9.000000
121.024960 44.000000
121.031260 18.000000
123.027660 8.000000
123.044340 161.000000
123.049480 65.000000
124.012610 159.000000
124.049100 34.000000
127.053530 12.000000
129.071500 8.000000
130.040300 17.000000
130.077710 8.000000
132.012150 12.000000
132.025470 16.000000
132.949890 15.000000
133.050090 14.000000
133.058490 45.000000
133.064120 111.000000
135.041240 10.000000
135.780090 9.000000
139.024090 14.000000
139.042130 10.000000
140.052020 8.000000
141.066530 51.000000
144.023900 18.000000
145.059300 36.000000
149.020870 221.000000
149.028700 54.000000
149.595370 8.000000
150.018330 15.000000
150.030940 18.000000
151.020290 8.000000
151.043380 25.000000
151.968480 16.000000
151.987230 13.000000
152.008220 879.000000
152.030470 20.000000
152.985570 8.000000
152.997450 9.000000
153.008580 60.000000
153.018950 306.000000
153.062330 12.000000
153.070140 16.000000
154.017780 26.000000
155.047740 22.000000
155.087040 12.000000
156.920760 11.000000
157.028240 14.000000
158.033840 160.000000
158.042820 93.000000
158.071000 8.000000
159.039810 29.000000
159.050230 11.000000
160.045260 14.000000
160.821000 9.000000
161.050750 11.000000
161.095670 18.000000
161.104520 10.000000
162.524830 18.000000
163.032100 12.000000
163.046570 12.000000
164.052060 21.000000
165.523420 14.000000
167.038790 9.000000
168.040830 9.000000
168.058150 23.000000
169.057270 45.000000
169.071400 30.000000
170.057310 18.000000
171.072530 18.000000
172.046330 15.000000
172.052630 13.000000
173.048860 34.000000
174.051880 9.000000
176.334730 15.000000
179.031570 77.000000
179.042660 29.000000
180.032360 13.000000
182.063840 10.000000
183.040880 34.000000
183.082310 13.000000
183.089600 8.000000
183.994670 10.000000
184.032810 8.000000
185.053120 92.000000
185.097350 15.000000
186.048130 12.000000
186.053160 22.000000
186.068160 25.000000
187.041490 14.000000
187.073030 28.000000
187.141020 13.000000
188.037780 15.000000
188.083830 12.000000
188.603070 14.000000
196.034850 15.000000
196.056230 30.000000
197.046880 28.000000
197.063670 141.000000
197.080170 9.000000
197.415040 12.000000
198.064770 50.000000
199.043560 13.000000
200.589490 10.000000
201.024540 10.000000
201.036000 9.000000
201.051330 26.000000
201.062130 14.000000
201.093900 9.000000
202.091900 10.000000
209.062620 10.000000
211.045410 14.000000
211.055110 22.000000
211.071930 22.000000
211.086980 9.000000
212.066560 11.000000
212.183010 10.000000
213.008240 15.000000
213.053510 673.000000
214.054140 67.000000
214.061800 143.000000
214.075590 19.000000
215.056180 11.000000
215.072420 29.000000
215.401410 8.000000
216.044630 14.000000
217.325940 10.000000
218.085720 19.000000
218.795550 9.000000
224.027160 11.000000
224.036360 10.000000
224.051800 8.000000
225.042110 10.000000
225.056880 66.000000
225.072540 35.000000
226.047300 55.000000
226.055250 20.000000
226.998520 18.000000
227.026500 9.000000
227.044970 16.000000
227.080030 12.000000
229.068510 61.000000
229.085160 422.000000
229.094180 158.000000
230.048830 13.000000
230.062040 12.000000
230.076400 50.000000
230.088300 13.000000
230.102100 33.000000
234.934490 8.000000
239.068880 10.000000
241.013790 19.000000
241.026350 14.000000
241.044040 109.000000
241.054410 96.000000
241.936020 21.000000
242.031280 14.000000
242.052960 642.000000
242.066420 207.000000
242.459820 10.000000
243.059360 119.000000
252.039060 63.000000
252.047850 52.000000
252.992170 9.000000
253.025940 81.000000
253.048600 571.000000
254.055590 115.000000
255.037050 18.000000
255.062930 20.000000
256.076390 13.000000
258.424840 28.000000
269.011200 15.000000
269.025760 96.000000
269.048310 698.000000
269.104280 14.000000
269.943360 11.000000
269.996860 9.000000
270.029820 80.000000
270.047640 441.000000
270.060550 213.000000
270.800420 12.000000
271.037290 31.000000
271.056340 203.000000
271.077150 16.000000
272.056950 10.000000
285.052670 34.000000
285.076660 1000.000000
285.461000 9.000000
286.061000 18.000000
286.081020 193.000000
287.047760 19.000000
287.069760 9.000000
299.793640 10.000000
383.156590 10.000000
416.789060 9.000000

>ms2
152.010470 27.000000
153.017040 9.000000
229.086650 13.000000
242.057750 8.000000
253.045850 18.000000
270.051120 27.000000
285.011320 6.000000
285.039000 16.000000
285.075930 1000.000000
286.079220 234.000000
287.082700 30.000000
447.121250 101.000000
447.141240 52.000000

>ms2
285.038330 16.000000
285.075560 687.000000
286.079960 130.000000
287.079220 10.000000
447.050420 8.000000
447.082700 7.000000
447.126620 1000.000000

>ms2
123.041200 6.000000
152.011900 12.000000
153.016740 5.000000
229.086580 7.000000
242.059460 6.000000
253.055270 8.000000
270.054380 26.000000
285.023860 8.000000
285.046840 6.000000
285.076110 1000.000000
285.124790 5.000000
286.080230 184.000000
287.079900 22.000000
288.082550 5.000000

>ms2
65.040660 16.000000
69.036870 15.000000
83.010080 13.000000
91.054900 16.000000
96.020650 10.000000
97.022770 12.000000
103.051650 21.000000
103.057870 12.000000
104.033500 13.000000
105.071910 16.000000
107.047200 40.000000
108.016320 13.000000
110.648430 22.000000
112.012610 14.000000
118.041050 172.000000
119.041380 17.000000
119.051090 61.000000
120.051070 24.000000
121.009200 14.000000
121.022480 11.000000
121.028210 26.000000
121.069620 26.000000
122.071620 13.000000
122.096340 21.000000
123.035740 102.000000
123.044940 232.000000
123.998400 14.000000
124.015530 173.000000
125.016790 16.000000
126.034190 14.000000
127.051510 17.000000
128.060180 15.000000
129.070300 13.000000
131.038270 20.000000
131.047780 24.000000
131.296280 9.000000
132.023060 24.000000
132.054610 11.000000
133.025120 25.000000
133.055690 27.000000
133.063720 145.000000
135.041050 21.000000
136.020360 15.000000
139.035720 29.000000
139.046130 12.000000
140.027740 13.000000
140.037200 12.000000
140.063980 15.000000
141.067170 30.000000
142.078120 17.000000
142.544830 14.000000
144.042140 10.000000
144.062650 21.000000
144.996080 18.000000
145.063890 55.000000
149.023670 292.000000
149.039220 29.000000
149.339100 10.000000
150.032590 11.000000
152.011840 1000.000000
152.041870 10.000000
153.017880 425.000000
153.058440 14.000000
153.078430 18.000000
154.012010 9.000000
155.043490 22.000000
158.020170 18.000000
158.036640 243.000000
158.070950 59.000000
159.031970 9.000000
159.039640 12.000000
159.084720 13.000000
160.036710 10.000000
161.057860 28.000000
161.088790 15.000000
161.094410 23.000000
161.105640 9.000000
163.040540 80.000000
165.065950 13.000000
167.041920 20.000000
168.037690 18.000000
168.054780 30.000000
168.061450 22.000000
169.066010 18.000000
169.071230 10.000000
169.763760 10.000000
170.746220 10.000000
172.061490 18.000000
172.088870 17.000000
172.599320 17.000000
173.049360 20.000000
173.059830 36.000000
173.102010 16.000000
174.102250 12.000000
177.065960 17.000000
179.031880 71.000000
179.084930 11.000000
180.038590 26.000000
180.048920 23.000000
182.591830 10.000000
183.040330 11.000000
183.076190 15.000000
183.092830 14.000000
184.049300 10.000000
184.089260 26.000000
185.010380 26.000000
185.054570 32.000000
185.063740 15.000000
186.059070 12.000000
186.069700 42.000000
187.067080 29.000000
187.075930 12.000000
190.125120 16.000000
194.959920 11.000000
196.038250 11.000000
196.059300 12.000000
197.051500 44.000000
197.060730 87.000000
198.023940 14.000000
198.049850 15.000000
198.060820 29.000000
198.074420 11.000000
199.039290 12.000000
199.063980 15.000000
199.077240 14.000000
200.044970 11.000000
201.055070 73.000000
201.090620 14.000000
201.104600 10.000000
210.076190 30.000000
211.072400 45.000000
211.455510 11.000000
212.047390 21.000000
212.059720 10.000000
213.055070 634.000000
214.024930 17.000000
214.057600 159.000000
214.068100 68.000000
214.080440 14.000000
214.459260 18.000000
215.049800 22.000000
215.066310 39.000000
215.560150 14.000000
216.037220 15.000000
216.059310 17.000000
219.092900 13.000000
222.118960 10.000000
224.048200 104.000000
225.017060 14.000000
225.038650 10.000000
225.051470 55.000000
225.065510 15.000000
226.065080 9.000000
227.068920 11.000000
228.042920 11.000000
228.066070 11.000000
229.086750 409.000000
230.087920 34.000000
230.096190 47.000000
230.107510 16.000000
239.073900 12.000000
239.371340 12.000000
240.071530 16.000000
241.035860 23.000000
241.051150 236.000000
242.014400 14.000000
242.025340 12.000000
242.055420 881.000000
242.079860 10.000000
243.053150 129.000000
243.074830 26.000000
244.066250 9.000000
245.335690 16.000000
245.959340 12.000000
252.047790 38.000000
253.024230 34.000000
253.050430 714.000000
253.555180 9.000000
254.053530 118.000000
254.070250 31.000000
257.072110 18.000000
257.083250 74.000000
258.713260 11.000000
261.214020 16.000000
267.057620 11.000000
269.014340 25.000000
269.041690 599.000000
269.066800 27.000000
270.021120 10.000000
270.052400 796.000000
270.085270 11.000000
270.264310 16.000000
271.034640 24.000000
271.047090 88.000000
271.062900 34.000000
271.074460 14.000000
272.049040 30.000000
272.075930 9.000000
275.240780 12.000000
284.783540 11.000000
285.073880 754.000000
285.295070 20.000000
286.063810 61.000000
286.080380 225.000000
287.069950 25.000000
287.089110 32.000000
288.744020 9.000000
295.753970 12.000000
297.927280 11.000000
328.951810 20.000000
375.940610 13.000000

>ms2
149.025770 5.000000
152.008030 19.000000
153.008210 6.000000
229.081270 20.000000
229.092580 7.000000
242.046880 6.000000
253.050800 11.000000
254.056900 7.000000
269.041380 10.000000
270.034940 6.000000
270.042940 7.000000
270.055850 14.000000
285.018280 7.000000
285.034940 8.000000
285.075200 1000.000000
286.079900 184.000000
287.080140 19.000000
447.119020 71.000000
447.133970 86.000000

>ms2
285.012180 6.000000
285.042080 8.000000
285.074620 653.000000
286.078740 120.000000
287.083560 23.000000
447.064730 12.000000
447.128660 1000.000000

>ms2
152.012300 7.000000
229.084060 7.000000
253.051210 15.000000
270.052950 22.000000
285.032870 9.000000
285.076290 1000.000000
286.081090 176.000000
287.075530 9.000000
287.086850 26.000000

>ms2
64.544170 12.000000
67.018480 13.000000
68.996990 14.000000
77.037000 42.000000
79.056690 38.000000
81.033410 51.000000
82.088890 11.000000
90.050030 44.000000
91.055890 16.000000
103.057820 53.000000
107.004750 14.000000
107.042420 31.000000
107.049900 18.000000
107.600270 12.000000
108.064370 20.000000
111.001370 16.000000
111.011910 11.000000
115.052050 20.000000
118.018330 12.000000
118.027690 26.000000
118.039830 231.000000
119.038480 10.000000
119.051740 24.000000
121.123630 11.000000
122.030750 16.000000
122.059010 17.000000
123.041410 285.000000
123.424780 9.000000
124.015540 363.000000
124.027890 27.000000
124.048520 20.000000
124.277600 17.000000
125.445060 11.000000
126.014090 19.000000
129.066570 22.000000
130.040300 27.000000
130.046600 12.000000
130.067750 28.000000
130.079800 25.000000
131.052200 11.000000
132.060790 60.000000
133.034040 12.000000
133.063830 140.000000
134.075650 11.000000
134.370450 13.000000
135.040860 11.000000
135.050380 11.000000
136.017880 19.000000
139.039610 35.000000
141.053650 13.000000
141.068370 30.000000
142.077070 13.000000
144.024140 16.000000
145.058720 12.000000
145.068280 48.000000
145.373830 11.000000
147.971080 13.000000
148.607940 21.000000
149.022660 269.000000
150.021320 10.000000
150.033130 23.000000
150.907320 11.000000
151.041240 15.000000
151.982100 10.000000
152.007930 618.000000
152.016480 117.000000
152.057460 31.000000
153.009430 72.000000
153.019330 401.000000
153.069260 27.000000
154.009690 22.000000
154.020250 32.000000
157.064320 39.000000
158.029720 69.000000
158.037800 226.000000
158.073940 26.000000
159.026540 20.000000
159.036960 17.000000
159.046390 34.000000
159.643340 10.000000
163.040370 15.000000
165.022130 14.000000
166.827270 14.000000
168.058670 21.000000
168.395840 10.000000
169.064100 42.000000
170.056870 9.000000
171.050980 14.000000
171.077910 19.000000
172.051910 20.000000
173.055540 40.000000
173.065020 21.000000
174.066090 25.000000
174.471500 10.000000
174.577360 16.000000
179.027880 27.000000
180.065030 13.000000
181.066560 22.000000
181.810870 11.000000
183.044850 15.000000
183.070720 18.000000
183.084520 11.000000
184.045330 13.000000
184.077620 10.000000
185.057480 31.000000
185.070130 25.000000
186.032640 11.000000
186.062320 18.000000
192.027070 16.000000
192.039180 34.000000
192.059540 22.000000
196.060970 38.000000
196.902440 12.000000
197.061780 80.000000
198.060460 39.000000
198.074710 15.000000
199.061650 9.000000
199.073200 11.000000
200.043400 19.000000
200.049610 9.000000
201.059560 10.000000
201.082030 13.000000
202.063750 13.000000
202.100450 13.000000
207.042680 15.000000
211.032910 10.000000
211.041000 42.000000
212.053560 18.000000
213.043530 91.000000
213.056140 654.000000
214.033580 13.000000
214.059490 154.000000
215.064010 10.000000
215.076610 12.000000
215.878570 28.000000
216.028110 22.000000
216.044070 38.000000
216.051510 28.000000
216.071350 10.000000
216.208130 13.000000
224.051320 10.000000
225.055730 38.000000
225.956990 13.000000
226.030820 13.000000
226.050640 24.000000
227.041180 14.000000
229.085220 463.000000
229.895630 11.000000
230.058180 10.000000
230.074300 13.000000
230.085170 22.000000
230.095400 10.000000
230.351180 13.000000
230.551270 9.000000
233.917660 13.000000
235.815630 11.000000
239.056460 10.000000
239.243270 12.000000
241.031680 33.000000
241.046360 167.000000
241.056630 59.000000
241.327070 10.000000
241.771530 11.000000
242.014560 14.000000
242.057500 626.000000
242.126390 16.000000
243.057630 108.000000
243.120850 15.000000
251.146060 13.000000
252.032590 59.000000
252.045790 62.000000
253.004960 11.000000
253.045970 311.000000
253.057720 167.000000
254.031690 14.000000
254.042190 42.000000
254.060330 22.000000
255.056210 9.000000
255.632020 16.000000
256.053620 9.000000
257.079650 28.000000
267.058690 13.000000
268.989470 10.000000
269.014740 20.000000
269.043030 1000.000000
270.008540 31.000000
270.025020 10.000000
270.051910 560.000000
270.060880 206.000000
270.548460 11.000000
271.054870 61.000000
271.065520 51.000000
272.081180 13.000000
278.848660 16.000000
284.882350 10.000000
285.076970 882.000000
285.706730 10.000000
285.889310 10.000000
286.052000 11.000000
286.065800 37.000000
286.081600 110.000000
286.091830 48.000000
286.114040 10.000000
287.070430 28.000000
287.085020 11.000000
331.077090 13.000000
410.619960 10.000000
426.078190 10.000000

