>compound PR07259626
>parentmass 318.29037460000006
>ionization [M+H]+
>formula C20H35N3
>rt 134.689020
>profile qtof
#smiles_iso C1CCN[C@H](C1)[C@]23C[C@@H](C[C@H]4[C@H]2NCCC4)[C@H]5CCCCN5C3
#smiles_can C1CCNC(C1)C23CC(CC4C2NCCC4)C5CCCCN5C3
#inchikey YUKCLPPRYNXRAF-RFVXBFLTSA-N
#pubchem_id 442959
#mb_accession PR300714,PR300719,PR300723,PR300728,PR300733,PR300737,PR300742,PR300747,PR300752,PR300761,PR300765

>ms2
83.088230 5.000000
84.079200 7.000000
84.083870 12.000000
96.081820 10.000000
98.095930 13.000000
109.104310 6.000000
136.111250 7.000000
204.157300 5.000000
209.209780 6.000000
233.206280 9.000000
234.195790 8.000000
235.212200 20.000000
236.225220 10.000000
262.230960 6.000000
299.258700 8.000000
301.252470 6.000000
309.945040 7.000000
316.261570 6.000000
316.279420 6.000000
317.281100 12.000000
318.224820 6.000000
318.256840 15.000000
318.290800 1000.000000

>ms2
318.237340 5.000000
318.291140 1000.000000

>ms2
84.080640 80.000000
84.087020 21.000000
96.083660 15.000000
98.096440 135.000000
98.104660 15.000000
99.097000 26.000000
110.099270 7.000000
122.099280 11.000000
124.111340 14.000000
136.118150 7.000000
145.104830 6.000000
154.074780 6.000000
159.112920 7.000000
173.119260 5.000000
178.167330 7.000000
182.106320 7.000000
188.142870 8.000000
209.205830 6.000000
218.548860 5.000000
219.182600 6.000000
219.195560 7.000000
221.204610 19.000000
222.201540 11.000000
223.215100 10.000000
224.215670 6.000000
227.924730 5.000000
231.324510 10.000000
233.198040 75.000000
233.207720 34.000000
234.210650 21.000000
235.100040 6.000000
235.218090 142.000000
236.188860 6.000000
236.209170 7.000000
249.223970 13.000000
275.251680 8.000000
287.236760 8.000000
289.260960 10.000000
290.269840 7.000000
299.254000 6.000000
301.264010 76.000000
316.269290 38.000000
316.284090 14.000000
317.267430 22.000000
317.281830 10.000000
318.292210 1000.000000

>ms2
51.892700 39.000000
68.050090 47.000000
69.071430 49.000000
70.066730 130.000000
79.054290 47.000000
81.069690 35.000000
82.063510 49.000000
84.078900 509.000000
84.085730 206.000000
85.083940 41.000000
85.196300 43.000000
91.044100 76.000000
91.053190 161.000000
94.062160 43.000000
96.077080 39.000000
98.072170 45.000000
98.097050 1000.000000
99.107230 103.000000
106.056740 68.000000
106.061520 54.000000
109.519850 87.000000
110.096400 64.000000
117.063390 56.000000
122.097220 62.000000
124.102970 76.000000
124.111660 58.000000
131.080830 99.000000
131.088010 47.000000
133.100300 37.000000
133.106670 35.000000
134.100130 68.000000
135.115280 49.000000
142.076750 76.000000
143.082470 107.000000
147.104980 37.000000
148.107240 148.000000
156.075360 66.000000
162.124940 56.000000
174.128140 43.000000
174.212340 45.000000
175.128560 43.000000
176.137480 39.000000
188.138320 37.000000
190.167480 93.000000
202.169330 41.000000
209.176150 43.000000
219.195130 111.000000
223.202670 41.000000
231.179890 49.000000
231.194030 52.000000
233.198810 45.000000
234.204010 111.000000
234.215520 56.000000
235.410030 35.000000
236.220730 39.000000
289.270900 43.000000
316.290990 41.000000
318.254270 43.000000

>ms2
84.080620 19.000000
98.095060 20.000000
98.100140 12.000000
218.194920 5.000000
233.181590 6.000000
233.199980 24.000000
233.210770 10.000000
235.208330 7.000000
235.218780 12.000000
301.251890 6.000000
301.269170 8.000000
316.282440 14.000000
317.284970 10.000000
318.256040 7.000000
318.291140 1000.000000

>ms2
318.244840 8.000000
318.290220 1000.000000

>ms2
84.081160 94.000000
85.087420 9.000000
96.078780 9.000000
96.085690 11.000000
97.090880 6.000000
98.096790 169.000000
99.101940 11.000000
106.070140 9.000000
122.094270 6.000000
124.113710 14.000000
125.117160 5.000000
131.080410 5.000000
134.089370 6.000000
136.109680 6.000000
147.101960 7.000000
147.120570 5.000000
151.133320 5.000000
158.108370 6.000000
159.118650 7.000000
173.131350 13.000000
173.917850 7.000000
175.142040 7.000000
185.129700 5.000000
187.145290 5.000000
194.176350 6.000000
194.856920 7.000000
195.188320 5.000000
218.187500 8.000000
218.199340 17.000000
219.187960 6.000000
223.185500 5.000000
223.214460 8.000000
230.196380 6.000000
233.185970 10.000000
233.199950 78.000000
234.206560 6.000000
235.194000 7.000000
235.217530 124.000000
236.211820 14.000000
236.223070 7.000000
287.237640 7.000000
287.252590 14.000000
290.272460 6.000000
301.263610 42.000000
302.226680 7.000000
302.272710 28.000000
316.270390 24.000000
316.284210 31.000000
317.276310 22.000000
318.200560 7.000000
318.239110 6.000000
318.257570 5.000000
318.292080 1000.000000

>ms2
56.051040 68.000000
68.017950 97.000000
70.060890 63.000000
71.070290 57.000000
77.040370 57.000000
79.052340 32.000000
81.073910 39.000000
84.070650 37.000000
84.079440 616.000000
91.054270 57.000000
93.069500 78.000000
96.079000 78.000000
98.096680 1000.000000
99.090930 32.000000
99.100070 125.000000
105.068950 41.000000
106.066430 41.000000
107.083480 37.000000
109.100430 32.000000
110.089810 91.000000
112.113770 58.000000
115.033230 34.000000
117.067670 32.000000
118.075870 41.000000
120.078070 32.000000
122.094010 45.000000
127.427370 44.000000
128.066740 58.000000
129.067410 37.000000
129.080250 29.000000
131.086650 42.000000
132.080180 42.000000
134.093840 76.000000
134.100050 97.000000
140.965230 31.000000
141.068120 36.000000
143.087970 68.000000
146.095140 96.000000
147.100370 76.000000
147.114230 36.000000
148.118650 32.000000
155.076800 37.000000
160.112110 193.000000
161.119840 83.000000
161.128250 75.000000
162.125810 206.000000
162.141270 75.000000
163.126190 45.000000
164.144390 41.000000
171.095660 34.000000
171.124820 55.000000
172.122360 39.000000
174.124150 39.000000
174.131790 32.000000
176.145690 32.000000
177.143480 32.000000
186.117230 44.000000
191.147250 45.000000
201.142000 34.000000
214.152570 57.000000
214.161610 28.000000
233.189240 70.000000
233.198470 159.000000
235.208970 32.000000
236.215320 34.000000
284.236910 31.000000
301.258610 73.000000
301.275700 49.000000
314.249180 55.000000
316.267580 28.000000
316.278380 55.000000
318.280240 47.000000
318.294310 53.000000

>ms2
84.080180 14.000000
85.082620 10.000000
98.098240 34.000000
124.107510 9.000000
148.108110 5.000000
233.203350 36.000000
235.216170 29.000000
235.244610 5.000000
301.260830 24.000000
316.268710 10.000000
316.282530 6.000000
318.232540 6.000000
318.260350 16.000000
318.291140 1000.000000

>ms2
84.073780 15.000000
84.082770 113.000000
93.066160 6.000000
96.080730 15.000000
98.096010 148.000000
101.876100 6.000000
124.119060 10.000000
134.084120 5.000000
136.113770 8.000000
138.126950 13.000000
145.090240 5.000000
148.108520 6.000000
161.131410 6.000000
174.103790 5.000000
190.155840 5.000000
190.163820 6.000000
195.181720 14.000000
208.192430 8.000000
218.180770 11.000000
218.197750 24.000000
221.204320 11.000000
223.208590 10.000000
223.221010 11.000000
233.139950 5.000000
233.204210 79.000000
234.201630 16.000000
235.219020 154.000000
236.221800 19.000000
236.234420 9.000000
237.222170 6.000000
276.253750 8.000000
290.273250 6.000000
300.258480 6.000000
301.248540 16.000000
301.264950 70.000000
302.268040 15.000000
302.277710 9.000000
316.240720 7.000000
316.268650 19.000000
316.277830 53.000000
317.272220 16.000000
318.290860 1000.000000

>ms2
70.061400 40.000000
70.066000 78.000000
70.070240 118.000000
79.049270 46.000000
79.058330 40.000000
80.052120 37.000000
82.071470 27.000000
84.080270 1000.000000
84.087880 116.000000
84.118860 29.000000
85.079370 53.000000
91.185550 33.000000
92.050870 40.000000
93.076370 30.000000
94.079890 41.000000
96.078790 88.000000
97.540830 53.000000
98.097520 872.000000
100.096960 43.000000
100.122120 33.000000
105.059960 40.000000
105.071350 27.000000
105.077490 53.000000
106.059330 115.000000
107.091440 40.000000
110.103390 129.000000
120.075810 46.000000
122.097260 48.000000
122.102860 73.000000
123.102140 49.000000
124.086260 48.000000
124.112460 177.000000
129.065690 30.000000
130.069810 77.000000
130.078920 32.000000
131.070400 70.000000
131.079680 37.000000
132.098370 57.000000
133.099030 33.000000
134.094040 48.000000
135.102710 43.000000
135.111650 43.000000
138.122760 56.000000
142.072650 48.000000
145.102680 53.000000
146.093310 30.000000
148.103610 33.000000
148.113250 69.000000
149.122120 46.000000
150.122560 27.000000
155.092250 32.000000
156.090090 46.000000
156.100140 29.000000
158.090550 43.000000
159.095520 64.000000
159.121260 86.000000
160.106060 97.000000
161.120410 54.000000
161.130450 45.000000
164.148210 69.000000
171.108950 40.000000
173.120500 43.000000
174.116520 70.000000
174.139180 27.000000
185.133670 56.000000
188.152190 35.000000
189.149220 56.000000
190.158390 70.000000
191.127110 41.000000
192.150630 29.000000
197.119250 37.000000
200.150600 59.000000
205.173230 37.000000
212.152680 32.000000
214.147020 53.000000
218.175860 43.000000
220.874180 29.000000
231.190870 57.000000
232.193950 54.000000
233.202010 155.000000
234.226210 67.000000
235.216380 29.000000
236.223790 32.000000
249.233860 29.000000
301.243590 35.000000
318.297300 75.000000

