>compound PR08001776
>parentmass 415.2227485
>ionization [M+H]+
>formula C23H30N2O5
>rt 255.646980
>profile qtof
#smiles_iso CC[C@H]1CN2CC[C@]3(C(=NC4=C3C(=CC=C4)OC)[C@@H]2C[C@@H]1/C(=C\OC)/C(=O)OC)O
#smiles_can CCC1CN2CCC3(C(=NC4=C3C(=CC=C4)OC)C2CC1C(=COC)C(=O)OC)O
#inchikey RYENLSMHLCNXJT-ZHOKILCHSA-N
#pubchem_id 71749158
#mb_accession PR301449,PR301453,PR301457,PR301461,PR301465,PR301469,PR301473,PR301477,PR301481,PR301485,PR301489,PR301493

>ms2peaks
110.097500 28.000000
129.059400 7.000000
145.083890 6.000000
147.068560 6.000000
162.047960 9.000000
162.058070 6.000000
162.092240 12.000000
168.101590 5.000000
173.075740 6.000000
175.061310 32.000000
175.069630 10.000000
176.068500 6.000000
190.086930 275.000000
191.090710 25.000000
191.100920 7.000000
194.122380 5.000000
226.136980 17.000000
226.144840 46.000000
227.112470 10.000000
227.124560 6.000000
227.151930 5.000000
238.145570 42.000000
240.145710 5.000000
240.156970 25.000000
245.130360 7.000000
281.164150 9.000000
299.178860 16.000000
381.182460 22.000000
382.182710 9.000000
383.209930 5.000000
397.199550 17.000000
397.213500 73.000000
398.202210 12.000000
398.219330 18.000000
399.224300 8.000000
415.168090 6.000000
415.223600 1000.000000

>ms2peaks
415.223180 1000.000000
415.279690 10.000000

>ms2peaks
98.096390 20.000000
110.097500 141.000000
124.108610 20.000000
124.113830 6.000000
129.056210 45.000000
129.067460 8.000000
133.051770 16.000000
134.058380 6.000000
135.049390 6.000000
137.120350 6.000000
138.054350 6.000000
139.070890 6.000000
144.085310 8.000000
145.071530 5.000000
147.072740 8.000000
150.056230 6.000000
154.087080 5.000000
162.053250 37.000000
162.092580 34.000000
168.100250 23.000000
168.106720 28.000000
169.098130 13.000000
171.099660 17.000000
172.073900 46.000000
174.085100 8.000000
174.094440 18.000000
175.062550 104.000000
175.095570 6.000000
176.076350 5.000000
190.060650 6.000000
190.086440 1000.000000
191.090580 147.000000
192.089610 5.000000
192.104290 16.000000
194.113480 23.000000
194.127720 9.000000
197.117520 5.000000
206.118320 9.000000
208.131880 12.000000
216.098820 6.000000
226.142330 140.000000
227.100420 5.000000
227.113570 16.000000
227.121380 32.000000
227.148910 27.000000
238.143340 130.000000
239.126500 16.000000
239.145390 19.000000
240.159740 47.000000
240.179570 6.000000
252.171660 8.000000
271.134190 5.000000
271.146270 15.000000
281.165530 63.000000
282.163300 15.000000
282.171050 7.000000
293.044710 5.000000
299.174070 35.000000
300.167940 7.000000
325.150300 6.000000
381.182370 50.000000
382.189000 12.000000
383.205410 11.000000
395.192380 5.000000
397.169980 6.000000
397.209840 233.000000
398.212860 55.000000
398.238770 9.000000
399.224270 15.000000
415.183070 9.000000
415.225100 133.000000

>ms2peaks
56.049860 18.000000
75.035640 13.000000
75.045720 28.000000
77.037850 15.000000
82.030170 7.000000
84.084660 8.000000
86.454940 9.000000
92.027860 6.000000
92.056510 7.000000
94.042990 8.000000
98.904260 6.000000
104.047910 43.000000
104.055260 7.000000
105.035490 17.000000
105.053110 6.000000
105.063770 7.000000
105.078350 6.000000
106.065780 18.000000
107.046710 5.000000
108.044020 9.000000
110.096420 144.000000
110.107430 10.000000
114.487860 7.000000
115.051960 26.000000
116.049770 59.000000
116.059390 23.000000
116.697300 5.000000
117.049860 7.000000
117.058650 28.000000
117.070450 17.000000
117.079930 7.000000
118.060770 10.000000
118.082760 5.000000
119.029540 7.000000
119.035200 11.000000
119.057760 7.000000
119.073810 18.000000
120.047070 19.000000
120.060430 11.000000
120.078350 7.000000
121.989090 8.000000
122.056630 15.000000
122.070530 13.000000
122.089620 5.000000
122.096420 5.000000
123.088970 7.000000
124.081730 7.000000
124.104640 7.000000
124.116500 11.000000
126.050920 7.000000
126.904830 6.000000
127.057430 16.000000
127.072970 5.000000
129.052980 11.000000
129.063080 42.000000
130.063840 106.000000
130.453770 5.000000
131.062970 18.000000
131.072590 20.000000
132.043490 42.000000
132.078350 11.000000
132.085480 12.000000
133.047030 29.000000
133.053480 47.000000
133.086940 8.000000
134.036960 7.000000
134.047910 17.000000
134.059650 61.000000
134.099410 17.000000
135.041700 8.000000
136.073290 7.000000
138.058470 6.000000
139.056930 13.000000
139.069080 7.000000
139.076110 12.000000
143.066120 10.000000
143.074630 33.000000
144.039520 5.000000
144.067400 9.000000
144.079900 79.000000
145.059230 16.000000
145.069370 18.000000
145.083450 14.000000
146.054990 60.000000
146.060560 179.000000
146.094380 11.000000
147.069050 382.000000
147.098890 6.000000
148.060520 6.000000
148.074680 65.000000
149.048870 22.000000
150.058010 16.000000
152.066380 30.000000
154.066210 19.000000
154.123230 7.000000
155.073650 7.000000
156.049040 13.000000
156.063610 10.000000
157.036450 7.000000
157.053420 39.000000
158.062480 21.000000
159.030120 6.000000
159.066310 11.000000
159.074140 16.000000
160.031070 7.000000
160.063510 14.000000
160.080780 16.000000
161.046860 22.000000
161.083440 13.000000
162.056580 71.000000
162.091540 131.000000
162.103640 17.000000
163.049710 5.000000
163.096910 27.000000
163.183320 7.000000
164.078160 5.000000
167.066970 20.000000
167.085170 5.000000
168.085910 6.000000
168.099010 7.000000
169.048510 8.000000
169.093750 7.000000
170.060010 17.000000
170.095370 5.000000
172.059910 5.000000
172.076920 94.000000
172.087680 11.000000
172.995360 6.000000
173.086870 5.000000
173.399150 6.000000
174.048230 42.000000
174.066150 7.000000
174.087780 13.000000
175.031880 12.000000
175.041370 16.000000
175.063110 1000.000000
175.086270 8.000000
176.045870 7.000000
176.065370 115.000000
176.079910 17.000000
177.064620 6.000000
179.094480 8.000000
181.459050 8.000000
183.057650 17.000000
183.070970 24.000000
183.093920 7.000000
184.064300 6.000000
184.074620 19.000000
184.091630 8.000000
185.846800 7.000000
186.096560 17.000000
187.064040 13.000000
187.071990 9.000000
188.069610 10.000000
188.098500 8.000000
188.105530 23.000000
190.067370 5.000000
190.085940 289.000000
191.096100 51.000000
194.108180 6.000000
195.064580 7.000000
196.078840 6.000000
197.075520 24.000000
198.077030 21.000000
198.089140 67.000000
199.080980 21.000000
200.090960 7.000000
200.107040 10.000000
201.073000 18.000000
207.125080 8.000000
208.081590 11.000000
209.085050 5.000000
210.078920 5.000000
210.126220 6.000000
211.071620 11.000000
211.084000 39.000000
212.070590 6.000000
212.078720 12.000000
212.092390 13.000000
212.104660 24.000000
213.063960 6.000000
213.094020 8.000000
213.105620 11.000000
214.097120 15.000000
215.079190 5.000000
218.097050 8.000000
221.086330 6.000000
221.105330 7.000000
222.073230 12.000000
223.095720 22.000000
223.144010 6.000000
223.470720 10.000000
224.104800 7.000000
224.130260 8.000000
225.097050 6.000000
225.105940 6.000000
226.113360 5.000000
226.312270 7.000000
227.105260 5.000000
227.117340 22.000000
227.127870 22.000000
228.141890 6.000000
229.086550 6.000000
231.108660 7.000000
233.088100 8.000000
235.096560 5.000000
236.105910 12.000000
237.091320 11.000000
237.100920 13.000000
237.108890 9.000000
238.102480 14.000000
238.115260 8.000000
238.134200 5.000000
238.845140 5.000000
239.096450 5.000000
239.110640 6.000000
239.119740 13.000000
239.129640 6.000000
240.117680 5.000000
249.050200 6.000000
249.105820 5.000000
250.072010 5.000000
251.118650 50.000000
252.116590 30.000000
252.129530 12.000000
252.142880 6.000000
252.472270 5.000000
253.132160 10.000000
261.101350 7.000000
262.113740 14.000000
263.105500 5.000000
263.127080 10.000000
265.100070 13.000000
265.111360 6.000000
265.128330 64.000000
265.139340 57.000000
265.150330 11.000000
266.121090 5.000000
266.136960 6.000000
267.106510 13.000000
267.118560 5.000000
267.136990 6.000000
277.056520 9.000000
277.127560 6.000000
279.141690 6.000000
279.162510 10.000000
280.099950 6.000000
280.144530 6.000000
281.150970 10.000000
281.167880 35.000000
282.161530 7.000000
290.137760 16.000000
293.075440 5.000000
293.101720 5.000000
294.104340 12.000000
299.173650 5.000000
319.101500 5.000000
319.117830 5.000000
321.127590 5.000000
335.148380 11.000000
347.144990 6.000000
349.153320 5.000000
352.126770 5.000000
381.172670 72.000000
381.185420 50.000000
382.174870 17.000000
383.199620 6.000000
389.610170 8.000000

>ms2peaks
98.098560 11.000000
110.097260 13.000000
129.058560 9.000000
144.078690 7.000000
147.068010 10.000000
162.091710 20.000000
168.100020 12.000000
172.071040 18.000000
175.063430 45.000000
176.059460 7.000000
176.068770 6.000000
190.086260 254.000000
191.087280 16.000000
191.094620 17.000000
226.142790 38.000000
226.152100 14.000000
227.120160 13.000000
238.134800 21.000000
238.147740 35.000000
240.156780 17.000000
240.173710 10.000000
245.130050 9.000000
281.155400 6.000000
281.169400 8.000000
381.180480 20.000000
382.178070 11.000000
383.197480 6.000000
397.201930 24.000000
397.216830 55.000000
398.212650 12.000000
398.236270 9.000000
415.178740 8.000000
415.223630 1000.000000

>ms2peaks
415.169950 11.000000
415.222320 1000.000000
415.283940 10.000000

>ms2peaks
70.067470 9.000000
98.100170 34.000000
110.085280 8.000000
110.096420 102.000000
111.101200 11.000000
116.051310 10.000000
117.070530 11.000000
120.416890 7.000000
124.112730 13.000000
124.120440 6.000000
129.054110 60.000000
129.070910 5.000000
132.048140 5.000000
134.059020 9.000000
139.069060 8.000000
144.067660 7.000000
144.079160 17.000000
147.068700 9.000000
148.075840 16.000000
150.050800 9.000000
152.067030 6.000000
152.075040 6.000000
154.118560 8.000000
159.070080 6.000000
160.042070 5.000000
162.055500 36.000000
162.075840 9.000000
162.087280 25.000000
162.093630 38.000000
163.092360 8.000000
165.093860 6.000000
168.100400 36.000000
171.099520 16.000000
171.106770 10.000000
172.075650 40.000000
174.087750 20.000000
174.096970 9.000000
175.060530 97.000000
177.075780 5.000000
178.123080 6.000000
190.085540 1000.000000
191.089140 160.000000
192.092580 15.000000
194.111740 7.000000
194.119090 18.000000
195.119060 7.000000
197.117690 6.000000
198.094210 6.000000
206.116350 18.000000
208.134160 5.000000
211.078920 5.000000
216.097760 10.000000
226.144760 100.000000
226.165130 6.000000
227.116870 61.000000
227.145800 15.000000
228.124310 9.000000
228.148670 6.000000
238.145160 152.000000
239.141360 17.000000
239.158250 6.000000
240.157640 64.000000
245.122670 8.000000
245.136950 7.000000
271.152920 6.000000
281.165010 63.000000
281.176640 15.000000
282.155060 6.000000
282.170070 11.000000
297.154480 6.000000
299.174560 29.000000
299.185760 14.000000
300.177760 7.000000
381.158720 7.000000
381.180360 30.000000
381.195980 9.000000
382.178470 13.000000
382.192930 17.000000
383.183380 8.000000
383.207730 7.000000
397.164520 11.000000
397.210940 281.000000
398.195710 9.000000
398.217560 57.000000
399.216460 17.000000
415.194000 8.000000
415.223480 160.000000

>ms2peaks
56.047740 7.000000
56.052610 6.000000
66.427870 5.000000
68.046230 7.000000
70.068610 8.000000
75.043970 41.000000
79.053610 6.000000
85.026680 13.000000
89.035510 6.000000
91.051670 20.000000
91.062890 14.000000
92.025350 9.000000
93.063230 5.000000
93.071330 5.000000
94.036860 5.000000
95.050500 7.000000
95.087620 6.000000
98.094050 11.000000
102.044480 5.000000
104.025890 7.000000
104.042180 16.000000
104.049490 37.000000
104.057420 7.000000
105.032260 17.000000
106.061240 20.000000
106.067790 24.000000
107.033910 6.000000
107.040370 10.000000
108.083110 11.000000
109.056700 10.000000
110.097080 103.000000
111.094000 6.000000
111.097180 16.000000
114.796900 6.000000
115.056370 19.000000
116.026170 6.000000
116.039500 14.000000
116.050350 66.000000
117.046800 6.000000
117.052330 11.000000
117.065910 36.000000
117.993880 6.000000
118.061710 8.000000
118.073830 11.000000
119.045490 7.000000
119.072620 31.000000
119.084050 7.000000
120.046410 8.000000
120.055960 25.000000
121.062810 12.000000
121.068420 11.000000
122.098750 10.000000
123.075410 7.000000
123.082180 7.000000
124.078580 5.000000
124.183780 6.000000
125.099770 6.000000
126.053260 9.000000
127.055980 12.000000
129.039570 8.000000
129.054920 27.000000
129.880690 5.000000
130.040410 12.000000
130.047270 5.000000
130.067670 76.000000
131.068210 20.000000
131.076170 41.000000
132.044660 47.000000
132.074280 5.000000
132.083280 28.000000
133.050770 53.000000
133.057910 42.000000
133.077350 7.000000
134.040180 5.000000
134.049300 5.000000
134.057650 19.000000
134.065460 17.000000
134.096710 6.000000
134.299670 7.000000
135.036710 5.000000
136.080950 6.000000
137.058560 7.000000
138.061340 15.000000
139.075470 5.000000
142.058410 5.000000
143.065200 17.000000
143.074460 36.000000
144.075640 60.000000
144.089140 22.000000
144.366390 5.000000
145.045610 12.000000
145.067750 20.000000
146.055570 47.000000
146.062850 68.000000
146.088780 6.000000
147.066890 340.000000
148.068020 6.000000
148.078430 15.000000
148.109010 5.000000
148.846130 7.000000
149.059540 8.000000
149.085530 6.000000
150.053700 8.000000
150.081120 8.000000
150.090180 5.000000
151.055770 6.000000
152.067700 18.000000
154.063780 15.000000
155.067960 8.000000
156.045760 9.000000
156.076630 6.000000
157.049880 67.000000
158.062520 8.000000
158.077320 14.000000
158.097560 7.000000
159.026990 6.000000
159.037870 5.000000
159.061160 7.000000
159.068880 20.000000
159.078600 6.000000
160.038390 18.000000
160.074660 55.000000
160.681610 7.000000
161.088200 7.000000
162.044820 16.000000
162.054060 71.000000
162.091740 118.000000
162.106690 8.000000
162.861660 6.000000
163.086840 6.000000
163.099700 33.000000
164.106570 14.000000
165.094450 15.000000
167.015210 5.000000
167.053020 9.000000
167.062240 7.000000
167.122160 9.000000
168.077760 7.000000
170.028990 9.000000
172.061720 11.000000
172.075580 105.000000
173.076050 12.000000
173.084050 19.000000
174.057980 32.000000
174.074340 7.000000
174.089340 20.000000
175.023280 10.000000
175.041530 6.000000
175.063260 1000.000000
175.088590 15.000000
176.066250 106.000000
176.077940 33.000000
177.065810 15.000000
178.080630 8.000000
180.509000 6.000000
182.060120 13.000000
183.071260 11.000000
184.067490 5.000000
184.082110 8.000000
184.094990 7.000000
184.168560 7.000000
185.059750 6.000000
185.081620 11.000000
185.101760 5.000000
185.112470 8.000000
186.054660 6.000000
186.085420 10.000000
186.098130 5.000000
186.384170 5.000000
187.088500 11.000000
187.098820 5.000000
189.083690 6.000000
190.068150 11.000000
190.087040 259.000000
190.162050 7.000000
191.084380 43.000000
191.094250 12.000000
192.081620 9.000000
193.075330 6.000000
195.088180 5.000000
197.071760 22.000000
198.069090 7.000000
198.086300 17.000000
199.082530 30.000000
199.093340 30.000000
200.063640 5.000000
200.089100 7.000000
200.110260 5.000000
201.071530 8.000000
202.086180 8.000000
203.115390 7.000000
210.086550 6.000000
211.091000 75.000000
212.088730 18.000000
213.064580 12.000000
213.090610 13.000000
213.103840 15.000000
214.101990 6.000000
215.073120 8.000000
222.088330 7.000000
223.044160 6.000000
223.081450 35.000000
224.093120 7.000000
225.091830 6.000000
226.098130 5.000000
226.117780 7.000000
227.105330 9.000000
227.116040 40.000000
228.124340 5.000000
234.103100 7.000000
235.090070 6.000000
236.100860 16.000000
236.123830 6.000000
237.106000 22.000000
238.103100 18.000000
238.118590 5.000000
238.141880 6.000000
239.126400 6.000000
241.102190 6.000000
242.089170 6.000000
245.141690 5.000000
247.141400 5.000000
249.095320 7.000000
249.123630 11.000000
251.114790 38.000000
251.127320 15.000000
252.105450 10.000000
252.120730 6.000000
252.129560 12.000000
252.143520 10.000000
253.133640 26.000000
253.152790 5.000000
263.121280 7.000000
264.057310 5.000000
265.107270 19.000000
265.131130 99.000000
266.125580 7.000000
266.143130 16.000000
267.153750 5.000000
268.117890 7.000000
269.139250 6.000000
269.443080 8.000000
274.074490 6.000000
275.104370 7.000000
276.120730 5.000000
277.081300 6.000000
277.121730 6.000000
278.120060 7.000000
279.150940 11.000000
281.155700 13.000000
281.166410 42.000000
282.161620 7.000000
282.175480 8.000000
289.116520 5.000000
289.227780 5.000000
293.082670 6.000000
293.098300 6.000000
293.159730 5.000000
295.140690 5.000000
296.181270 6.000000
301.120510 6.000000
305.114230 6.000000
309.116760 11.000000
318.112550 6.000000
321.151860 5.000000
327.134980 11.000000
337.156770 14.000000
347.150480 7.000000
349.158140 6.000000
351.182500 6.000000
381.174740 62.000000
381.190640 25.000000
382.125760 6.000000
382.154850 7.000000
382.171660 9.000000
382.201170 5.000000
383.170840 5.000000
397.203830 5.000000

>ms2peaks
110.093640 10.000000
110.099400 13.000000
129.053600 8.000000
133.047760 8.000000
134.062960 8.000000
144.083280 12.000000
162.081570 7.000000
162.090580 25.000000
168.100860 13.000000
172.077650 22.000000
174.091250 11.000000
175.063350 49.000000
176.062840 8.000000
190.055980 6.000000
190.087040 288.000000
191.090450 38.000000
194.113660 7.000000
198.092560 6.000000
226.145540 60.000000
238.133900 12.000000
238.146190 57.000000
239.145830 6.000000
240.162750 35.000000
245.131420 9.000000
271.139560 8.000000
281.161770 13.000000
282.168270 8.000000
381.168850 7.000000
381.180390 14.000000
382.181240 8.000000
383.193020 8.000000
397.209050 59.000000
397.237090 7.000000
398.210390 16.000000
398.228300 10.000000
415.222930 1000.000000

>ms2peaks
415.159640 9.000000
415.181980 5.000000
415.223270 1000.000000
415.278290 5.000000

>ms2peaks
98.093640 12.000000
110.084620 5.000000
110.095170 68.000000
110.101620 36.000000
111.098890 6.000000
116.047560 5.000000
124.100860 5.000000
129.052490 41.000000
130.063810 7.000000
131.071700 7.000000
133.053670 13.000000
138.060940 16.000000
139.071170 8.000000
144.080890 18.000000
144.088550 13.000000
147.070970 6.000000
147.079540 10.000000
158.060590 7.000000
162.057210 28.000000
162.090820 43.000000
162.100620 16.000000
162.108340 6.000000
165.086580 7.000000
168.103030 53.000000
169.107100 11.000000
171.102040 17.000000
172.075700 45.000000
172.088900 9.000000
173.068800 11.000000
174.093990 7.000000
175.052870 10.000000
175.064130 58.000000
176.069560 5.000000
188.104640 5.000000
190.058410 6.000000
190.086940 1000.000000
191.091930 132.000000
192.097960 11.000000
194.112410 13.000000
194.130510 5.000000
202.085080 7.000000
206.125670 12.000000
208.132920 7.000000
216.104950 13.000000
226.140200 71.000000
226.151640 53.000000
227.112460 28.000000
227.121570 26.000000
227.143600 7.000000
227.152690 9.000000
228.146620 8.000000
229.135570 5.000000
238.117600 9.000000
238.143250 117.000000
239.129330 6.000000
239.148500 32.000000
240.157300 49.000000
245.119250 5.000000
245.134090 11.000000
271.145230 8.000000
280.127320 7.000000
281.129940 5.000000
281.140560 8.000000
281.162720 48.000000
281.172880 23.000000
282.163390 9.000000
282.175290 7.000000
299.169950 22.000000
299.188840 7.000000
341.152590 6.000000
381.174650 36.000000
381.193600 10.000000
382.182710 12.000000
382.204710 8.000000
383.184420 9.000000
383.200040 17.000000
397.170290 11.000000
397.210850 269.000000
398.202300 11.000000
398.212980 31.000000
398.236180 9.000000
399.211850 7.000000
415.197300 25.000000
415.223570 116.000000

>ms2peaks
56.043450 7.000000
68.045230 10.000000
71.067440 6.000000
75.042530 28.000000
75.049550 6.000000
75.127440 6.000000
76.818750 6.000000
77.037200 8.000000
77.042630 12.000000
79.057900 24.000000
80.055500 10.000000
81.055680 6.000000
82.028870 6.000000
82.060940 7.000000
82.066470 7.000000
85.028980 7.000000
85.082400 6.000000
91.053560 15.000000
92.055370 8.000000
92.218460 10.000000
93.052370 8.000000
93.069740 30.000000
94.044300 9.000000
94.061740 10.000000
95.049770 6.000000
98.068310 6.000000
98.096350 6.000000
102.037950 6.000000
102.046300 24.000000
103.053750 7.000000
104.039360 8.000000
104.052410 39.000000
105.034500 8.000000
105.039990 6.000000
105.074580 6.000000
106.041360 8.000000
106.063730 35.000000
107.070300 18.000000
107.085380 9.000000
108.079700 17.000000
109.054130 6.000000
109.653790 7.000000
110.055000 8.000000
110.090980 19.000000
110.098640 71.000000
111.046120 6.000000
115.051860 7.000000
115.056960 27.000000
116.047900 34.000000
116.052280 65.000000
117.060290 6.000000
117.066730 8.000000
118.065350 12.000000
118.072750 14.000000
118.789030 6.000000
119.076320 20.000000
120.042700 14.000000
120.056940 14.000000
120.085430 6.000000
121.060530 6.000000
121.358670 6.000000
122.102460 12.000000
123.082830 16.000000
124.074000 6.000000
124.115580 15.000000
125.117260 9.000000
127.057240 6.000000
128.051530 14.000000
129.054210 63.000000
129.062420 23.000000
130.041210 9.000000
130.062160 43.000000
130.068650 35.000000
131.068680 46.000000
131.075300 27.000000
132.042480 33.000000
132.079850 16.000000
132.088490 15.000000
133.039950 7.000000
133.052110 48.000000
133.618880 6.000000
134.056790 34.000000
134.062760 36.000000
134.092150 7.000000
135.032140 6.000000
135.048830 8.000000
135.058900 14.000000
135.091770 6.000000
135.632860 6.000000
136.039260 11.000000
136.044220 17.000000
136.070310 6.000000
136.079830 8.000000
137.091540 7.000000
137.289310 11.000000
138.042650 9.000000
139.070950 7.000000
139.081390 13.000000
142.067150 6.000000
143.051710 6.000000
143.072780 26.000000
144.043490 6.000000
144.055270 8.000000
144.065050 11.000000
144.081130 80.000000
145.055130 33.000000
145.065660 7.000000
145.079010 11.000000
146.019500 8.000000
146.057620 142.000000
146.066510 48.000000
146.096980 34.000000
147.045990 16.000000
147.058300 35.000000
147.069230 306.000000
147.103780 6.000000
148.071930 69.000000
148.115880 7.000000
149.046390 18.000000
149.050950 7.000000
149.077190 12.000000
149.088320 10.000000
150.044740 7.000000
150.053010 15.000000
150.063310 9.000000
151.036620 6.000000
152.073070 41.000000
154.061110 6.000000
154.072160 6.000000
155.069750 12.000000
155.721470 13.000000
156.040830 6.000000
156.047390 11.000000
156.081470 8.000000
157.048970 41.000000
157.080580 6.000000
158.054870 26.000000
159.045680 6.000000
159.061400 12.000000
159.068420 15.000000
159.088620 6.000000
160.037030 25.000000
160.071960 40.000000
160.080380 24.000000
160.834210 6.000000
161.048420 35.000000
161.092390 14.000000
162.049850 29.000000
162.058750 57.000000
162.088870 113.000000
162.096100 122.000000
162.111570 15.000000
163.099820 7.000000
167.072310 6.000000
167.698490 8.000000
169.071760 6.000000
170.059220 6.000000
170.087780 6.000000
170.120060 6.000000
172.075580 184.000000
172.117550 7.000000
172.828980 6.000000
173.081360 13.000000
173.106190 6.000000
174.044420 17.000000
174.061550 52.000000
174.100270 13.000000
174.229860 6.000000
175.063920 1000.000000
175.106340 8.000000
175.201720 6.000000
176.051820 16.000000
176.067660 97.000000
176.104810 6.000000
177.061780 7.000000
177.557710 6.000000
178.054440 6.000000
184.059200 6.000000
184.067440 20.000000
184.084290 17.000000
187.045930 8.000000
187.061110 22.000000
187.086260 13.000000
188.070220 8.000000
188.082170 6.000000
189.073900 7.000000
189.084750 9.000000
190.059370 13.000000
190.086010 249.000000
190.125260 9.000000
191.091450 51.000000
192.091720 12.000000
195.070890 6.000000
195.088380 6.000000
195.811920 6.000000
196.113660 8.000000
197.065540 6.000000
197.076100 6.000000
198.070140 21.000000
198.093980 25.000000
199.080460 7.000000
199.104130 6.000000
200.124970 8.000000
201.078700 6.000000
202.095600 6.000000
208.055480 7.000000
208.079820 9.000000
208.122130 8.000000
209.137860 6.000000
210.086730 6.000000
211.088680 69.000000
211.103260 10.000000
212.050160 6.000000
212.084900 52.000000
212.105010 19.000000
213.065340 9.000000
213.080930 8.000000
213.092180 6.000000
213.103380 6.000000
213.120450 6.000000
214.101410 6.000000
215.088240 6.000000
216.101610 15.000000
219.090680 6.000000
223.082720 24.000000
223.093810 23.000000
224.097350 13.000000
224.112990 9.000000
227.119630 39.000000
230.693080 6.000000
231.092760 6.000000
235.087510 6.000000
235.103410 6.000000
236.095150 24.000000
237.100160 27.000000
237.110810 25.000000
238.105830 7.000000
239.105410 8.000000
239.120640 15.000000
241.104490 8.000000
243.031570 6.000000
247.087020 12.000000
250.113420 7.000000
251.043140 6.000000
251.053590 6.000000
251.101380 13.000000
251.110150 21.000000
251.122650 40.000000
252.113740 10.000000
252.142470 9.000000
253.115140 8.000000
253.132160 27.000000
253.144820 10.000000
254.100710 9.000000
254.150010 8.000000
255.107890 6.000000
263.115660 6.000000
264.109500 6.000000
265.134190 73.000000
265.854800 9.000000
266.135130 6.000000
266.146550 15.000000
266.844420 7.000000
266.928530 6.000000
267.083950 7.000000
267.129880 7.000000
267.364900 7.000000
277.026550 6.000000
277.092560 23.000000
277.134090 7.000000
279.108980 6.000000
281.162080 28.000000
281.174010 31.000000
281.190250 8.000000
281.602750 6.000000
282.151980 6.000000
283.166750 8.000000
286.722170 6.000000
289.137760 7.000000
290.137120 6.000000
293.112920 20.000000
294.099640 11.000000
305.081180 6.000000
308.854130 6.000000
309.109530 6.000000
309.124790 6.000000
311.110990 6.000000
317.144560 7.000000
319.136780 8.000000
325.114840 9.000000
335.136290 9.000000
338.150360 14.000000
349.144350 6.000000
349.156980 14.000000
355.209810 9.000000
367.179690 6.000000
372.184200 10.000000
381.151000 6.000000
381.183380 96.000000
382.178830 28.000000
382.211670 9.000000

