>compound PR08391658
>parentmass 795.4541
>ionization [M+H]+
>formula C42H66O14
>rt 470.400000
>profile qtof
#smiles_iso CC1(CC2C3=CCC4C5(CCC(C(C5CCC4(C3(CCC2(C(=O)C1)C)C)C)(C)CO)OC6C(C(C(C(O6)C(=O)O)O)O)OC7C(C(C(C(O7)CO)O)O)O)C)C
#smiles_can CC1(CC2C3=CCC4C5(CCC(C(C5CCC4(C3(CCC2(C(=O)C1)C)C)C)(C)CO)OC6C(C(C(C(O6)C(=O)O)O)O)OC7C(C(C(C(O7)CO)O)O)O)C)C
#inchikey YDNHBSRZSMNZPB-UHFFFAOYSA-N
#pubchem_id 74932636
#mb_accession PR310665

>ms2
85.026250 20.000000
141.018650 21.000000
149.121580 21.000000
151.115650 20.000000
163.054470 19.000000
193.166290 21.000000
201.162580 21.000000
216.026120 33.000000
217.152100 20.000000
220.177600 23.000000
241.163830 22.000000
246.182340 18.000000
273.219640 23.000000
301.236110 17.000000
381.310270 19.000000
409.350830 20.000000
421.293490 26.000000
421.350740 45.000000
422.347780 18.000000
439.345580 79.000000
439.367000 86.000000
440.342560 42.000000
440.369200 88.000000
441.365570 18.000000
442.379640 22.000000
457.376430 20.000000
499.088810 23.000000
581.396000 17.000000
597.377260 37.000000
597.400210 21.000000
597.415830 18.000000
616.377620 27.000000
633.420590 22.000000
795.401060 64.000000
795.454710 189.000000

