>compound PR08544808
>parentmass 579.1708319384614
>ionization [M+H]+
>formula C27H30O14
>rt 236.598443
>profile qtof
#smiles_iso C[C@H]1[C@@H]([C@H]([C@H]([C@@H](O1)OC2=CC(=C3C(=C2)OC(=C(C3=O)O[C@H]4[C@@H]([C@@H]([C@H]([C@@H](O4)C)O)O)O)C5=CC=C(C=C5)O)O)O)O)O
#smiles_can CC1C(C(C(C(O1)OC2=CC(=C3C(=C2)OC(=C(C3=O)OC4C(C(C(C(O4)C)O)O)O)C5=CC=C(C=C5)O)O)O)O)O
#inchikey PUPKKEQDLNREIM-QNSQPKOQSA-N
#pubchem_id 5486199
#mb_accession PR302408,PR302414,PR302420,PR302426,PR302432,PR302438,PR302444,PR302450,PR302456,PR302462,PR302468,PR302474,PR310915

>ms2peaks
71.047680 16.000000
85.026860 57.000000
111.047250 10.000000
121.031910 10.000000
129.054980 44.000000
147.066040 18.000000
155.319210 9.000000
281.674590 6.000000
287.005190 21.000000
287.015900 26.000000
287.054930 1000.000000
288.051670 54.000000
288.065430 110.000000
289.023650 9.000000
289.064150 22.000000
397.041500 10.000000
397.095400 12.000000
421.089450 9.000000
433.051510 13.000000
433.114290 646.000000
434.058930 23.000000
434.110660 62.000000
434.126400 62.000000
434.139040 20.000000
435.088230 10.000000
435.111820 17.000000
435.131650 7.000000
437.588320 9.000000
439.567690 7.000000
457.074430 10.000000
578.577330 6.000000
579.124330 7.000000
579.175660 189.000000

>ms2peaks
129.052320 12.000000
147.054530 10.000000
147.069890 19.000000
239.087450 7.000000
287.047700 22.000000
419.227110 9.000000
431.542600 6.000000
433.064540 7.000000
433.115480 1000.000000
433.588350 6.000000
434.067810 8.000000
434.081120 13.000000
434.115540 268.000000
435.103060 24.000000
435.125340 23.000000
436.127960 24.000000
475.927760 6.000000
481.107670 6.000000
562.132020 7.000000
579.078310 5.000000
579.104980 14.000000
579.175600 560.000000

>ms2peaks
71.048700 18.000000
85.029670 41.000000
129.057420 30.000000
129.063200 12.000000
130.063050 5.000000
147.062650 6.000000
211.027660 6.000000
286.993410 5.000000
287.055110 1000.000000
288.008540 6.000000
288.061310 133.000000
289.058440 20.000000
433.070470 6.000000

>ms2peaks
57.029980 13.000000
69.001480 26.000000
71.048670 63.000000
85.031970 26.000000
94.628810 11.000000
107.050930 22.000000
129.059680 16.000000
134.033200 14.000000
137.018620 21.000000
137.027040 18.000000
153.020050 23.000000
165.016530 26.000000
202.056370 20.000000
213.057740 18.000000
241.055130 16.000000
270.041900 20.000000
286.903630 10.000000
286.991970 12.000000
287.057250 1000.000000
288.041600 25.000000
288.060490 266.000000
289.039280 40.000000
289.060120 13.000000
293.704440 11.000000
351.100040 15.000000
390.110900 12.000000

>ms2peaks
71.049510 30.000000
85.029660 61.000000
99.037090 12.000000
129.052640 22.000000
147.062410 34.000000
165.025240 5.000000
182.426530 6.000000
188.674410 6.000000
199.940050 6.000000
284.749210 14.000000
287.010160 20.000000
287.052700 1000.000000
287.270260 7.000000
287.838650 11.000000
288.015530 13.000000
288.057190 202.000000
289.065980 49.000000
290.067440 6.000000
311.040130 10.000000
311.055540 8.000000
313.636570 8.000000
317.553130 7.000000
319.287450 9.000000
397.082860 6.000000
397.093660 8.000000
433.023410 6.000000
433.075070 36.000000
433.114230 525.000000
433.247040 6.000000
434.110600 151.000000
435.113340 27.000000
435.133510 13.000000
435.550870 8.000000
468.277530 6.000000
579.147090 37.000000
579.178410 212.000000

>ms2peaks
71.048150 5.000000
85.022400 7.000000
85.026520 6.000000
129.054150 16.000000
287.050660 24.000000
287.064210 12.000000
288.076630 8.000000
320.926730 9.000000
331.438420 6.000000
355.801360 5.000000
367.796330 6.000000
384.896210 6.000000
433.113010 1000.000000
434.053650 11.000000
434.115140 256.000000
435.106900 24.000000
435.136750 18.000000
562.121830 6.000000
562.169620 7.000000
578.775760 6.000000
579.081300 6.000000
579.110840 10.000000
579.136170 34.000000
579.174560 498.000000

>ms2peaks
71.048260 7.000000
71.051640 15.000000
85.024670 36.000000
85.029930 55.000000
87.026580 9.000000
129.046050 25.000000
129.054210 27.000000
287.022160 18.000000
287.056700 1000.000000
288.056340 184.000000
289.051120 14.000000
289.067660 6.000000
289.392880 6.000000
290.039370 6.000000
294.938420 5.000000
321.655000 6.000000
329.068790 10.000000
433.094880 6.000000
434.096620 10.000000
435.111020 5.000000

>ms2peaks
85.029020 24.000000
86.035450 8.000000
127.052730 8.000000
153.013600 11.000000
153.023960 20.000000
154.012370 8.000000
157.061100 13.000000
165.009260 15.000000
165.018600 16.000000
226.505100 10.000000
241.051670 22.000000
247.875520 7.000000
285.076540 13.000000
286.130950 9.000000
287.018010 13.000000
287.056730 1000.000000
288.039550 12.000000
288.056880 21.000000
288.066190 36.000000
289.049500 19.000000
290.054080 16.000000
290.372530 7.000000
325.072630 12.000000
354.068540 8.000000

>ms2peaks
85.027380 8.000000
85.033790 12.000000
87.042880 5.000000
105.032420 6.000000
105.771850 6.000000
129.047780 11.000000
130.051820 6.000000
147.058010 14.000000
147.066280 25.000000
163.063110 8.000000
198.201490 6.000000
248.481520 16.000000
281.803890 8.000000
286.660860 6.000000
287.007870 8.000000
287.027710 23.000000
287.054660 1000.000000
288.032960 22.000000
288.054660 116.000000
288.078700 40.000000
289.021730 7.000000
289.054720 6.000000
289.073580 15.000000
290.065310 7.000000
291.150880 8.000000
294.347780 7.000000
315.537960 10.000000
402.700290 9.000000
416.093380 6.000000
433.041600 10.000000
433.055240 7.000000
433.086580 79.000000
433.114350 560.000000
434.112490 69.000000
434.130520 59.000000
435.117220 10.000000
435.134430 16.000000
436.108610 6.000000
436.137540 7.000000
579.102910 7.000000
579.135070 24.000000
579.160950 63.000000
579.184140 57.000000
579.206910 29.000000

>ms2peaks
85.026290 7.000000
129.054050 17.000000
147.064590 6.000000
280.631440 9.000000
286.430510 5.000000
287.030820 7.000000
287.055910 39.000000
288.048490 9.000000
324.530400 7.000000
331.710970 7.000000
335.099090 6.000000
365.467440 7.000000
429.216770 7.000000
431.855190 5.000000
433.113160 1000.000000
433.161250 9.000000
433.180450 5.000000
434.043520 5.000000
434.064420 6.000000
434.088290 30.000000
434.115910 128.000000
434.145140 15.000000
435.118040 32.000000
436.061980 8.000000
439.265990 5.000000
469.799320 11.000000
579.129330 16.000000
579.172060 435.000000

>ms2peaks
71.026040 6.000000
71.050700 19.000000
85.031070 87.000000
88.046630 7.000000
122.389720 7.000000
126.869830 6.000000
129.051060 9.000000
129.059590 8.000000
147.066240 15.000000
213.077510 6.000000
251.795500 8.000000
287.055330 1000.000000
287.126130 9.000000
288.052860 101.000000
288.070220 47.000000
289.051240 14.000000
311.055110 8.000000
379.085210 8.000000
397.112980 5.000000
415.093990 6.000000
433.117800 14.000000

>ms2peaks
71.049590 27.000000
85.028980 23.000000
111.005080 28.000000
121.024150 15.000000
121.032620 12.000000
129.053070 16.000000
147.046830 15.000000
147.058940 22.000000
153.017010 12.000000
161.021060 15.000000
177.047970 11.000000
192.978230 22.000000
203.060070 14.000000
203.078810 16.000000
214.059050 24.000000
232.067440 18.000000
241.052690 15.000000
244.074040 10.000000
260.050630 14.000000
282.998660 16.000000
287.029750 50.000000
287.052670 1000.000000
288.048370 65.000000
288.063840 87.000000
288.073640 46.000000
289.065030 10.000000
290.070740 33.000000
291.943880 12.000000
298.866850 12.000000
299.294650 13.000000
300.046020 15.000000

>ms2peaks
71.047680 45.000000
85.026860 158.000000
111.047250 29.000000
121.031910 28.000000
129.054980 122.000000
147.066040 50.000000
155.319210 26.000000
281.674590 17.000000
287.005190 58.000000
287.015900 72.000000
287.054930 2771.000000
288.051670 150.000000
288.065430 304.000000
289.023650 26.000000
289.064150 62.000000
397.041500 28.000000
397.095400 34.000000
421.089450 25.000000
433.051510 37.000000
433.114290 1789.000000
434.058930 64.000000
434.110660 172.000000
434.126400 173.000000
434.139040 55.000000
435.088230 27.000000
435.111820 47.000000
435.131650 20.000000
437.588320 24.000000
439.567690 20.000000
457.074430 28.000000
578.577330 17.000000
579.124330 20.000000
579.175660 525.000000

