>compound PR08870062
>parentmass 579.1497027
>ionization [M+H]+
>formula C30H26O12
>rt 168.082020
>profile qtof
#smiles_iso C1[C@@H]([C@H](OC2=C1C(=CC(=C2[C@@H]3[C@H]([C@H](OC4=CC(=CC(=C34)O)O)C5=CC(=C(C=C5)O)O)O)O)O)C6=CC(=C(C=C6)O)O)O
#smiles_can C1C(C(OC2=C1C(=CC(=C2C3C(C(OC4=CC(=CC(=C34)O)O)C5=CC(=C(C=C5)O)O)O)O)O)C6=CC(=C(C=C6)O)O)O
#inchikey XFZJEEAOWLFHDH-UKWJTHFESA-N
#pubchem_id 11250133
#mb_accession PR302347,PR302353,PR302359,PR302370,PR302396

>ms2
247.061160 23.000000
249.065770 10.000000
271.805080 6.000000
288.917240 7.000000
289.044980 8.000000
289.059600 11.000000
289.075650 42.000000
290.076200 9.000000
291.060000 10.000000
291.078250 71.000000
291.094640 37.000000
292.079410 9.000000
292.097630 7.000000
301.066100 13.000000
301.996700 6.000000
314.338380 7.000000
347.794830 11.000000
359.294370 11.000000
380.004030 6.000000
398.620240 6.000000
409.083860 15.000000
409.101530 59.000000
410.104100 7.000000
411.081510 8.000000
411.103000 10.000000
427.075810 15.000000
427.101560 117.000000
428.055540 6.000000
428.090760 14.000000
429.111330 12.000000
435.105100 10.000000
453.108490 16.000000
453.126890 7.000000
577.103640 8.000000
578.016420 9.000000
578.119930 9.000000
578.141850 8.000000
579.102420 65.000000
579.149110 1000.000000
579.193300 13.000000

>ms2
123.037100 95.000000
123.046080 38.000000
124.048000 40.000000
127.040060 1000.000000
135.042710 41.000000
135.049270 130.000000
137.017650 38.000000
139.038730 354.000000
139.047410 56.000000
140.031540 27.000000
140.057600 62.000000
148.049470 35.000000
151.039150 37.000000
152.574370 27.000000
163.038680 260.000000
165.056430 52.000000
166.799640 33.000000
167.025700 33.000000
177.047150 52.000000
187.015670 37.000000
187.035100 44.000000
191.039400 63.000000
200.872770 68.000000
201.055690 83.000000
202.959720 68.000000
205.049270 90.000000
206.046800 33.000000
215.068300 41.000000
227.042270 60.000000
229.056290 63.000000
233.034210 44.000000
233.047100 81.000000
233.951200 46.000000
243.075900 87.000000
245.044020 33.000000
245.057310 48.000000
247.048430 95.000000
247.060960 95.000000
248.074480 46.000000
250.045300 38.000000
250.082470 44.000000
255.046830 54.000000
257.031650 37.000000
257.047520 148.000000
259.057980 186.000000
260.036290 46.000000
269.047880 41.000000
271.056550 227.000000
271.072880 32.000000
272.045590 59.000000
272.059910 62.000000
272.070040 63.000000
275.057980 281.000000
276.060210 90.000000
277.056610 38.000000
283.059420 149.000000
285.079220 37.000000
287.047360 110.000000
287.066010 124.000000
288.049320 41.000000
289.074190 105.000000
291.077210 29.000000
299.045230 33.000000
302.076050 122.000000
311.067600 40.000000
312.061280 51.000000
393.088170 57.000000
409.092380 208.000000
410.110720 43.000000
411.084900 43.000000
411.105530 32.000000

>ms2
89.036960 65.000000
106.038040 54.000000
123.042130 153.000000
123.047370 280.000000
127.039960 1000.000000
133.219390 57.000000
135.044690 309.000000
135.053600 159.000000
136.049070 82.000000
137.027500 76.000000
137.052510 71.000000
139.036710 535.000000
140.041850 142.000000
140.358920 68.000000
149.025130 235.000000
150.018720 57.000000
150.043990 62.000000
151.042800 139.000000
155.068390 85.000000
158.304410 57.000000
160.055250 51.000000
161.059690 261.000000
163.021590 51.000000
163.038120 598.000000
165.046540 91.000000
165.058350 57.000000
169.062560 57.000000
169.119630 85.000000
172.148130 62.000000
173.056850 68.000000
175.030140 153.000000
175.041440 79.000000
176.043120 108.000000
177.057980 59.000000
179.078770 62.000000
185.059560 76.000000
187.051570 54.000000
188.044800 74.000000
188.054870 99.000000
191.024220 54.000000
191.029600 139.000000
195.043910 68.000000
196.041950 65.000000
199.070910 57.000000
203.031490 88.000000
203.038500 79.000000
203.067920 93.000000
204.027770 122.000000
211.032530 76.000000
213.053560 88.000000
214.994930 68.000000
215.029270 82.000000
229.047230 198.000000
229.055850 105.000000
230.048580 108.000000
230.078110 74.000000
233.034700 65.000000
233.042100 57.000000
245.001040 96.000000
245.054930 68.000000
247.065900 96.000000
255.062730 54.000000
257.026890 164.000000
257.044950 221.000000
258.045840 195.000000
259.047910 108.000000
265.052090 85.000000
271.064510 57.000000
277.049840 76.000000
283.057590 119.000000
287.047760 68.000000
297.089510 91.000000
324.086520 71.000000

>ms2
247.055770 13.000000
271.044400 5.000000
271.056670 7.000000
275.056670 5.000000
275.066530 8.000000
289.063080 27.000000
289.086490 17.000000
291.083830 83.000000
301.065670 16.000000
301.076350 6.000000
303.090180 6.000000
335.872280 5.000000
353.660400 6.000000
407.251220 7.000000
409.090760 35.000000
410.099430 5.000000
427.045200 6.000000
427.104430 64.000000
428.107390 31.000000
457.804410 8.000000
544.156370 7.000000
560.138490 6.000000
577.137150 7.000000
578.125180 18.000000
578.145810 5.000000
578.932370 7.000000
579.153080 1000.000000

>ms2
113.016990 55.000000
123.040900 50.000000
123.047620 204.000000
127.037520 1000.000000
127.046830 287.000000
128.629560 55.000000
135.037060 169.000000
139.030360 97.000000
139.039990 191.000000
139.048220 97.000000
151.039640 47.000000
163.030260 227.000000
163.048220 249.000000
167.040500 86.000000
177.048200 50.000000
181.038100 102.000000
182.060960 72.000000
194.069500 61.000000
203.060990 55.000000
206.068190 52.000000
229.063600 155.000000
233.042650 94.000000
234.038560 69.000000
243.052410 50.000000
243.065250 50.000000
244.068650 47.000000
245.038470 50.000000
245.049960 193.000000
247.056460 157.000000
247.073460 116.000000
249.091450 86.000000
257.041720 174.000000
257.059570 77.000000
259.055480 50.000000
259.074520 52.000000
261.077910 102.000000
271.045260 180.000000
271.059480 116.000000
271.072940 144.000000
272.075040 135.000000
275.040500 329.000000
275.094090 102.000000
278.077450 50.000000
283.023930 77.000000
283.071410 75.000000
284.052890 298.000000
285.075100 50.000000
287.019930 50.000000
287.052670 384.000000
287.076320 202.000000
288.048710 273.000000
289.075930 116.000000
289.086730 113.000000
291.080870 146.000000
299.038090 75.000000
301.058560 75.000000
302.081630 58.000000
303.082000 58.000000
325.080290 66.000000
409.089870 133.000000
409.115940 105.000000
411.114870 97.000000
427.117950 58.000000
428.043490 83.000000

