>compound PR08936071
>parentmass 161.108
>ionization [M+H]+
>formula C10H12N2
>rt 107.400000
>profile qtof
#smiles_iso C1=CC=C2C(=C1)C(=CN2)CCN
#smiles_can C1=CC=C2C(=C1)C(=CN2)CCN
#inchikey APJYDQYYACXCRM-UHFFFAOYSA-N
#pubchem_id 1150
#mb_accession PR310883

>ms2peaks
106.064410 20.000000
107.059970 62.000000
120.085470 26.000000
122.021540 76.000000
124.042700 24.000000
127.060720 21.000000
130.050080 37.000000
130.060210 36.000000
130.067120 41.000000
130.072860 33.000000
131.066180 65.000000
132.076400 114.000000
132.083680 74.000000
142.063750 27.000000
142.124660 21.000000
143.085050 16.000000
143.959590 18.000000
144.083070 377.000000
145.054720 26.000000
161.105880 391.000000

