>compound PR08293764
>parentmass 187.08658944615385
>ionization [M+H]+
>formula C11H10N2O
>rt 236.660308
>profile qtof
#smiles_iso C1CC2=NC3=CC=CC=C3C(=O)N2C1
#smiles_can C1CC2=NC3=CC=CC=C3C(=O)N2C1
#inchikey VARHXCYGZKSOOO-UHFFFAOYSA-N
#pubchem_id 68261
#mb_accession PR301139,PR301143,PR301147,PR301151,PR301155,PR301159,PR301163,PR301167,PR301171,PR301175,PR301179,PR301183,PR310547

>ms2
77.039730 5.000000
92.049120 8.000000
115.054220 8.000000
116.052360 7.000000
120.044610 7.000000
144.045550 7.000000
144.083390 9.000000
146.057600 7.000000
169.079060 6.000000
185.070570 6.000000
187.086790 1000.000000
187.125520 31.000000

>ms2
187.086990 1000.000000
187.125920 40.000000

>ms2
65.040150 19.000000
68.050100 20.000000
69.046300 9.000000
69.057070 6.000000
77.039340 36.000000
89.041280 8.000000
90.036260 20.000000
91.054180 10.000000
92.050280 85.000000
102.035780 7.000000
104.050990 12.000000
105.033360 8.000000
115.055300 103.000000
116.049720 123.000000
116.059030 17.000000
117.041500 23.000000
117.049150 18.000000
117.055670 12.000000
117.491390 5.000000
118.068980 7.000000
119.038800 7.000000
120.040500 37.000000
120.047320 46.000000
121.052280 5.000000
127.057000 5.000000
128.045850 7.000000
129.037920 10.000000
129.042650 25.000000
130.029500 29.000000
131.055730 7.000000
131.065800 17.000000
132.042770 13.000000
132.047700 28.000000
132.057110 7.000000
132.069660 5.000000
132.080350 10.000000
142.059250 12.000000
142.068010 43.000000
143.058180 14.000000
143.070880 26.000000
144.045240 107.000000
144.081220 95.000000
145.041120 90.000000
145.080380 26.000000
146.061580 91.000000
146.088710 9.000000
147.054320 8.000000
152.053040 6.000000
157.077990 7.000000
158.059830 14.000000
159.053470 17.000000
159.087720 6.000000
161.066190 13.000000
161.073320 16.000000
167.064060 6.000000
168.072650 5.000000
169.070950 24.000000
169.081890 28.000000
170.049100 6.000000
170.058110 33.000000
185.069140 57.000000
187.087100 1000.000000

>ms2
65.039200 89.000000
65.045780 69.000000
66.033120 89.000000
68.052150 93.000000
89.046710 109.000000
90.035040 258.000000
92.043710 190.000000
92.049000 69.000000
92.056880 194.000000
103.046210 73.000000
104.040000 69.000000
115.053410 230.000000
116.054150 133.000000
130.031220 97.000000
130.069890 77.000000
132.040410 73.000000
132.050140 89.000000
132.080310 121.000000
140.045750 282.000000
142.065770 77.000000
144.038760 157.000000
144.049440 97.000000
159.487010 105.000000
168.063400 133.000000
183.063860 73.000000
185.072450 85.000000
187.069430 85.000000
187.088560 1000.000000

>ms2
92.050270 6.000000
115.054410 6.000000
116.050240 9.000000
120.047200 9.000000
144.043900 9.000000
144.081700 12.000000
145.045270 7.000000
146.060670 10.000000
170.059360 6.000000
185.068860 6.000000
187.087100 1000.000000
187.125410 33.000000

>ms2
187.087370 1000.000000
187.126010 38.000000

>ms2
65.037980 16.000000
65.043850 7.000000
68.049580 35.000000
68.055570 6.000000
69.033570 11.000000
77.031380 6.000000
77.039990 62.000000
78.042330 8.000000
89.040600 6.000000
90.027920 6.000000
90.035970 11.000000
92.046570 38.000000
92.051290 45.000000
93.048490 11.000000
93.056250 8.000000
102.034190 14.000000
104.028310 23.000000
104.045090 12.000000
111.049130 6.000000
111.056670 7.000000
115.054380 135.000000
116.049880 152.000000
117.045110 19.000000
117.053150 23.000000
117.068190 11.000000
118.061700 6.000000
119.038250 5.000000
119.058340 6.000000
120.046080 79.000000
121.049780 26.000000
129.043610 51.000000
130.029220 36.000000
130.069600 10.000000
131.029620 8.000000
132.039920 19.000000
132.046600 43.000000
140.051570 14.000000
142.063830 51.000000
143.054690 14.000000
143.069520 17.000000
144.045320 136.000000
144.071990 14.000000
144.082020 92.000000
145.038470 59.000000
145.045810 48.000000
145.071840 8.000000
145.080520 14.000000
145.089720 6.000000
146.046080 16.000000
146.059480 116.000000
147.069240 13.000000
159.055160 11.000000
160.054440 6.000000
160.070910 5.000000
161.072430 40.000000
169.071400 34.000000
169.079240 22.000000
170.060030 61.000000
185.052020 9.000000
185.070920 59.000000
187.086580 1000.000000

>ms2
64.031620 149.000000
66.033370 156.000000
77.040370 172.000000
77.087000 65.000000
89.037260 248.000000
90.037930 160.000000
90.041670 80.000000
92.025250 73.000000
92.053140 439.000000
105.046070 80.000000
116.049390 569.000000
117.051510 80.000000
128.044740 65.000000
130.021500 76.000000
130.069760 88.000000
132.043240 95.000000
132.075940 76.000000
141.056520 195.000000
170.058810 80.000000
171.063580 73.000000
187.085570 1000.000000

>ms2
92.049340 7.000000
115.054180 12.000000
116.052510 7.000000
120.043380 7.000000
144.043580 17.000000
144.079380 11.000000
145.040130 6.000000
146.060060 7.000000
170.062230 5.000000
187.087110 1000.000000
187.125580 36.000000

>ms2
187.087650 1000.000000
187.126280 40.000000

>ms2
65.041570 8.000000
68.047280 11.000000
68.052990 17.000000
77.039180 55.000000
89.040750 16.000000
90.033580 22.000000
91.990330 7.000000
92.050130 138.000000
93.054750 6.000000
102.034870 13.000000
104.024850 18.000000
104.048130 11.000000
105.054950 7.000000
115.042500 7.000000
115.054630 128.000000
116.039930 10.000000
116.049420 124.000000
117.044170 9.000000
117.048940 25.000000
118.069380 12.000000
119.065060 7.000000
120.044670 121.000000
127.060940 5.000000
129.032650 7.000000
129.045820 34.000000
130.024510 8.000000
130.032710 18.000000
130.063660 20.000000
130.069050 9.000000
131.061630 13.000000
132.042020 21.000000
132.049240 24.000000
132.067840 6.000000
132.076510 6.000000
142.065000 44.000000
142.077270 6.000000
143.059950 13.000000
143.068630 19.000000
143.076000 6.000000
144.044940 117.000000
144.081120 77.000000
144.092450 7.000000
145.040250 76.000000
145.074140 6.000000
145.083480 8.000000
145.091690 9.000000
146.043260 9.000000
146.057630 48.000000
146.065690 48.000000
147.057050 7.000000
147.068560 9.000000
159.052890 12.000000
159.062900 8.000000
159.091550 5.000000
160.061450 6.000000
161.070560 10.000000
169.070620 10.000000
169.079030 12.000000
170.060290 49.000000
170.082960 5.000000
171.059390 13.000000
185.072430 85.000000
187.060840 11.000000
187.087390 1000.000000

>ms2
77.038430 244.000000
78.040870 107.000000
80.950200 143.000000
89.037000 202.000000
89.044540 155.000000
90.033050 143.000000
104.026860 268.000000
111.056370 119.000000
115.053600 560.000000
116.044420 143.000000
116.052630 417.000000
117.061150 131.000000
117.066480 131.000000
120.039980 101.000000
120.046590 125.000000
129.051040 452.000000
130.031170 173.000000
131.070220 149.000000
133.874760 107.000000
142.065630 143.000000
144.082430 101.000000
146.062010 125.000000
168.065430 125.000000
185.072660 149.000000
187.075150 179.000000
187.083650 1000.000000

>ms2
65.038700 48.000000
68.049160 63.000000
68.052380 109.000000
68.416020 19.000000
69.030080 19.000000
77.039730 239.000000
86.850390 25.000000
89.040840 44.000000
89.228000 29.000000
90.028920 21.000000
90.040530 23.000000
92.049120 339.000000
93.052600 32.000000
103.037610 17.000000
104.051590 24.000000
110.063800 22.000000
115.054220 356.000000
116.026700 17.000000
116.043990 57.000000
116.052360 302.000000
116.060710 70.000000
117.043290 28.000000
117.048840 18.000000
117.067030 37.000000
117.074750 45.000000
118.067290 23.000000
118.335290 21.000000
119.033480 24.000000
119.055710 37.000000
119.061580 17.000000
120.044610 292.000000
121.045780 19.000000
121.115280 25.000000
127.054160 24.000000
127.241340 18.000000
127.315190 18.000000
129.042330 75.000000
129.051030 31.000000
130.021470 69.000000
130.030810 18.000000
131.034700 47.000000
131.059660 18.000000
132.040560 207.000000
132.079030 23.000000
132.088470 17.000000
133.080540 45.000000
134.215680 25.000000
138.370090 28.000000
139.134020 19.000000
141.475450 25.000000
142.061480 79.000000
143.049410 19.000000
144.010420 17.000000
144.021730 28.000000
144.028790 53.000000
144.045550 295.000000
144.070660 34.000000
144.083390 422.000000
145.024800 25.000000
145.041580 168.000000
145.049800 132.000000
145.086790 24.000000
146.043430 23.000000
146.057600 301.000000
146.065630 80.000000
146.073720 21.000000
147.054890 32.000000
147.062060 26.000000
147.072270 27.000000
149.924190 17.000000
155.821110 20.000000
157.078690 24.000000
157.085690 17.000000
158.057770 20.000000
159.055910 71.000000
159.063860 23.000000
159.089680 20.000000
159.098010 56.000000
160.069430 37.000000
160.077510 20.000000
160.144780 20.000000
161.063570 63.000000
161.077380 18.000000
162.077100 21.000000
162.838560 19.000000
164.267290 17.000000
167.047120 25.000000
167.062410 27.000000
169.066180 78.000000
169.079060 274.000000
169.371310 21.000000
170.057460 154.000000
170.068310 80.000000
170.079610 69.000000
171.059130 37.000000
171.066010 29.000000
171.638030 22.000000
172.036120 23.000000
172.721300 30.000000
173.215420 33.000000
175.475160 36.000000
183.515400 19.000000
183.803820 28.000000
184.847610 18.000000
185.063840 126.000000
185.070570 277.000000
185.229640 29.000000
185.859730 19.000000
186.077390 77.000000
186.939210 37.000000
186.980710 18.000000
187.044540 52.000000
187.055620 48.000000
187.086790 44795.000000
187.125520 1368.000000
187.149690 36.000000
187.163120 54.000000
187.248700 53.000000
187.257220 18.000000

