>compound PR09331806
>parentmass 449.1078379
>ionization [M+H]+
>formula C21H20O11
>rt 267.252960
>profile qtof
#smiles_iso C1=CC(=C(C=C1C2=CC(=O)C3=C(C=C(C=C3O2)O)O)O)O[C@H]4[C@@H]([C@H]([C@@H]([C@H](O4)CO)O)O)O
#smiles_can C1=CC(=C(C=C1C2=CC(=O)C3=C(C=C(C=C3O2)O)O)O)OC4C(C(C(C(O4)CO)O)O)O
#inchikey UHNXUSWGOJMEFO-QNDFHXLGSA-N
#pubchem_id 5319116
#mb_accession PR302117,PR302120,PR302123,PR302126,PR302129,PR302132,PR302135,PR302138,PR302140,PR302142,PR302145,PR302148

>ms2
135.044950 5.000000
153.007580 6.000000
153.020770 15.000000
287.008880 6.000000
287.021420 9.000000
287.054660 1000.000000
288.058560 159.000000
289.062500 22.000000
449.052640 9.000000
449.109650 315.000000

>ms2
287.019500 6.000000
287.054170 182.000000
288.044560 7.000000
288.059170 33.000000
289.051670 6.000000
449.013520 6.000000
449.040370 8.000000
449.060120 19.000000
449.107210 1000.000000

>ms2
153.015150 5.000000
287.018130 10.000000
287.054440 1000.000000
287.104710 6.000000
288.021360 5.000000
288.058960 192.000000
289.062710 32.000000

>ms2
67.018750 27.000000
68.994960 6.000000
69.001300 6.000000
79.058550 6.000000
88.902420 5.000000
89.035860 9.000000
89.042560 11.000000
109.029480 10.000000
110.998400 7.000000
111.008820 10.000000
111.045770 5.000000
117.025140 11.000000
117.035680 14.000000
130.069560 8.000000
133.025480 7.000000
135.044980 159.000000
137.019090 10.000000
137.024120 30.000000
138.023770 11.000000
152.878560 5.000000
153.018890 418.000000
154.018920 29.000000
154.027080 10.000000
157.053050 6.000000
157.062130 6.000000
161.026180 32.000000
173.055980 5.000000
178.988240 7.000000
179.033600 12.000000
181.028260 5.000000
185.064180 18.000000
189.041890 8.000000
195.042590 6.000000
199.032530 13.000000
203.030240 10.000000
212.036000 6.000000
212.055570 8.000000
213.055570 12.000000
214.044240 7.000000
223.045680 8.000000
231.059840 9.000000
241.035610 7.000000
241.051440 43.000000
242.063080 8.000000
245.043110 8.000000
269.037170 34.000000
287.005040 6.000000
287.018370 13.000000
287.055630 1000.000000
288.061710 161.000000
288.085020 7.000000
289.029850 8.000000
289.064850 22.000000

>ms2
153.017870 16.000000
287.015320 11.000000
287.055390 1000.000000
287.102910 5.000000
288.060270 151.000000
289.056640 17.000000
449.059480 8.000000
449.097260 77.000000
449.112000 279.000000

>ms2
287.054930 195.000000
288.057650 26.000000
449.049930 8.000000
449.106750 1000.000000

>ms2
287.012210 25.000000
287.054990 1000.000000
288.058620 198.000000
289.062010 28.000000

>ms2
67.015690 17.000000
67.022350 10.000000
68.998700 11.000000
89.038160 15.000000
103.054570 5.000000
109.025710 6.000000
111.005520 12.000000
115.051800 11.000000
115.057010 6.000000
117.036770 10.000000
117.998970 6.000000
125.028120 8.000000
135.044110 119.000000
136.042570 5.000000
136.049710 5.000000
137.026670 18.000000
145.065410 7.000000
147.042070 10.000000
153.005200 41.000000
153.019130 468.000000
154.018650 34.000000
154.027620 23.000000
161.008100 6.000000
161.021790 47.000000
162.025920 16.000000
173.058270 6.000000
179.033540 19.000000
179.043150 7.000000
180.039230 7.000000
185.053150 6.000000
185.063200 16.000000
203.030030 13.000000
203.043750 6.000000
213.028880 8.000000
213.049910 29.000000
217.046590 8.000000
219.071980 7.000000
228.026310 5.000000
231.058260 8.000000
231.071750 9.000000
240.036380 7.000000
241.027820 7.000000
241.050280 93.000000
245.041430 16.000000
259.015590 5.000000
259.051760 7.000000
259.065370 7.000000
269.035890 14.000000
269.048190 23.000000
270.053410 9.000000
287.016300 11.000000
287.026250 19.000000
287.054380 1000.000000
288.029820 6.000000
288.057950 177.000000
288.073460 26.000000
289.052830 12.000000
289.070160 19.000000

>ms2
153.015690 17.000000
287.023650 10.000000
287.055540 1000.000000
288.060000 185.000000
289.055270 15.000000
289.069270 9.000000
449.041600 5.000000
449.110140 383.000000

>ms2
287.055730 157.000000
288.042540 11.000000
288.059810 21.000000
289.071040 6.000000
449.025150 7.000000
449.060610 8.000000
449.106570 1000.000000

>ms2
286.983220 5.000000
287.010930 9.000000
287.053620 1000.000000
288.054530 148.000000
288.067350 59.000000
289.045620 11.000000
289.059050 14.000000
289.070400 9.000000

>ms2
67.019120 12.000000
68.992030 5.000000
69.001140 17.000000
73.431040 6.000000
89.041630 10.000000
111.004540 10.000000
111.020520 6.000000
117.029580 20.000000
117.035270 25.000000
125.025730 6.000000
128.057270 7.000000
135.039260 91.000000
135.048550 56.000000
136.051030 15.000000
137.021500 57.000000
150.029770 7.000000
152.992970 5.000000
153.017030 375.000000
153.026050 85.000000
153.042240 5.000000
154.021160 40.000000
155.026630 6.000000
155.055740 7.000000
160.996990 5.000000
161.017460 18.000000
161.025500 46.000000
162.032260 6.000000
163.038380 5.000000
171.046880 6.000000
173.061040 6.000000
174.064990 7.000000
175.039900 8.000000
177.062850 5.000000
179.029500 12.000000
184.688980 10.000000
185.671450 7.000000
189.049070 10.000000
195.041990 6.000000
199.033740 6.000000
203.037520 14.000000
213.051280 8.000000
215.610730 5.000000
216.047910 5.000000
219.071290 7.000000
231.059840 8.000000
241.023570 11.000000
241.040070 21.000000
241.051350 38.000000
241.062360 12.000000
242.039150 14.000000
242.052320 9.000000
242.066560 14.000000
245.035640 19.000000
245.050780 12.000000
258.062290 6.000000
259.057890 7.000000
269.036190 9.000000
269.048160 10.000000
270.056180 6.000000
287.004580 12.000000
287.019810 14.000000
287.053590 1000.000000
288.021510 9.000000
288.060330 195.000000
289.063350 18.000000

