>compound PR10202634
>parentmass 549.2112
>ionization [M+H]+
>formula C26H32N2O11
>rt 299.400000
>profile qtof
#smiles_iso C=CC1C2CC(N(C(=O)C2=COC1OC3C(C(C(C(O3)CO)O)O)O)CCC4(C5=CC=CC=C5NC4=O)O)O
#smiles_can C=CC1C2CC(N(C(=O)C2=COC1OC3C(C(C(C(O3)CO)O)O)O)CCC4(C5=CC=CC=C5NC4=O)O)O
#inchikey QPIBCHJEPFSMPX-UHFFFAOYSA-N
#pubchem_id 73240856
#mb_accession PR311108

>ms2peaks
100.153270 16.000000
103.819150 58.000000
105.472800 19.000000
106.055670 36.000000
108.083000 20.000000
123.086170 21.000000
124.035660 102.000000
124.050610 16.000000
124.452350 25.000000
130.058360 19.000000
130.065640 64.000000
130.071210 27.000000
142.049510 30.000000
145.198060 16.000000
145.294820 23.000000
148.056930 28.000000
148.071910 175.000000
148.079410 294.000000
149.076390 38.000000
149.310070 16.000000
152.027690 16.000000
152.113690 21.000000
153.013320 17.000000
154.040180 19.000000
161.082790 17.000000
170.037170 81.000000
170.047820 532.000000
171.035710 16.000000
171.043620 17.000000
171.051680 17.000000
172.057530 18.000000
176.075290 65.000000
177.048000 18.000000
178.090330 33.000000
182.040210 16.000000
182.049070 21.000000
194.075350 20.000000
195.100850 18.000000
196.048680 16.000000
196.065930 16.000000
206.075740 17.000000
206.085830 61.000000
208.092560 19.000000
208.417280 21.000000
210.095980 16.000000
222.066100 34.000000
222.084270 16.000000
223.070370 17.000000
224.050320 313.000000
224.065000 188.000000
224.085940 107.000000
224.098620 70.000000
225.063130 77.000000
225.082780 17.000000
234.075550 34.000000
234.086150 16.000000
240.081300 295.000000
240.094360 222.000000
241.088760 93.000000
242.086930 30.000000
250.096450 21.000000
251.881670 16.000000
252.053910 17.000000
252.072160 209.000000
252.087950 297.000000
252.126280 18.000000
253.061110 18.000000
253.381550 30.000000
254.091490 19.000000
254.104810 17.000000
256.098480 19.000000
265.972810 16.000000
267.108920 16.000000
273.087980 16.000000
274.110290 16.000000
276.092320 16.000000
276.190550 20.000000
281.127200 29.000000
294.065220 21.000000
294.097440 1597.000000
295.087590 25.000000
295.101990 98.000000
295.114560 63.000000
295.995390 16.000000
296.079860 16.000000
296.114720 38.000000
314.564510 25.000000
317.123110 45.000000
318.111720 17.000000
337.910340 23.000000
338.603580 28.000000
369.143590 16.000000
369.163090 21.000000
387.156520 1218.000000
388.114530 19.000000
388.160000 235.000000
388.183110 33.000000
389.164250 18.000000
429.893190 16.000000
455.026950 16.000000
456.146210 70.000000
457.138950 18.000000
458.140350 16.000000
466.080140 20.000000
496.352630 17.000000
547.229680 16.000000
549.169250 66.000000
549.207520 2947.000000

