>compound PR10392429
>parentmass 811.4472
>ionization [M+H]+
>formula C42H66O15
>rt 453.000000
>profile qtof
#smiles_iso CC1(CCC2(CCC3(C(=CCC4C3(CCC5C4(CCC(C5(C)CO)OC6C(C(C(C(O6)C(=O)O)O)OC7C(C(C(C(O7)CO)O)O)O)O)C)C)C2C1)C)C(=O)O)C
#smiles_can CC1(CCC2(CCC3(C(=CCC4C3(CCC5C4(CCC(C5(C)CO)OC6C(C(C(C(O6)C(=O)O)O)OC7C(C(C(C(O7)CO)O)O)O)O)C)C)C2C1)C)C(=O)O)C
#inchikey JDGKHHCYVKBIIT-UHFFFAOYSA-N
#pubchem_id 12442935
#mb_accession PR310666

>ms2peaks
99.041250 22.000000
109.104640 17.000000
127.040920 21.000000
161.144060 19.000000
163.056380 19.000000
163.063580 35.000000
177.165210 37.000000
178.165120 17.000000
187.152860 23.000000
190.160140 20.000000
195.181340 18.000000
201.165020 41.000000
203.172910 18.000000
207.153200 31.000000
207.182790 20.000000
219.172520 22.000000
227.175950 20.000000
229.189990 17.000000
247.187210 25.000000
250.190980 30.000000
259.201140 20.000000
329.229710 19.000000
329.243130 18.000000
369.295440 17.000000
409.344480 119.000000
410.267520 19.000000
410.340210 35.000000
411.359740 29.000000
428.349240 20.000000
437.335450 131.000000
437.370450 41.000000
438.347600 80.000000
439.351470 23.000000
453.314510 31.000000
455.351230 127.000000
455.367190 56.000000
456.370670 37.000000
472.327420 34.000000
474.369080 18.000000
514.728270 17.000000
523.390560 17.000000
567.371030 33.000000
567.396240 21.000000
567.463560 17.000000
568.387330 26.000000
613.365110 18.000000
616.358340 18.000000
631.193600 19.000000
631.362120 18.000000
633.393430 20.000000
649.378170 17.000000
810.367430 21.000000
811.449520 567.000000

