>compound PR10697929
>parentmass 586.2282
>ionization [M+H]+
>formula C30H35NO11
>rt 280.200000
>profile qtof
#smiles_iso COC1=CC=C(C=C1)C2=COC3=CC(=C(C=C3C2=O)OC)OC4C(C(C(C(O4)COC(=O)CC5CCNCC5)O)O)O
#smiles_can COC1=CC=C(C=C1)C2=COC3=CC(=C(C=C3C2=O)OC)OC4C(C(C(C(O4)COC(=O)CC5CCNCC5)O)O)O
#inchikey ZFUBXSYHXUTRFX-UHFFFAOYSA-N
#pubchem_id 139292172
#mb_accession PR310879

>ms2
84.079990 115.000000
84.524510 18.000000
126.089630 20.000000
144.102750 110.000000
162.092680 17.000000
187.072660 17.000000
239.080460 30.000000
243.096620 38.000000
252.135530 18.000000
256.055480 21.000000
270.118290 40.000000
270.139680 40.000000
284.067630 68.000000
288.051360 23.000000
288.119930 18.000000
288.146090 284.000000
288.155910 83.000000
289.147220 73.000000
289.160370 19.000000
290.470180 17.000000
298.366330 19.000000
299.038360 34.000000
299.059690 17.000000
299.093440 4423.000000
299.140960 20.000000
300.096220 920.000000
301.079930 19.000000
301.101140 147.000000
302.104640 18.000000
304.527830 18.000000
305.268370 24.000000
370.257630 27.000000
395.117280 18.000000
396.075710 22.000000
440.452820 20.000000
440.642120 25.000000
482.406340 23.000000
567.373600 23.000000
577.197570 20.000000
585.308350 21.000000
585.397640 17.000000
586.150510 17.000000
586.179990 55.000000
586.231020 5028.000000

