>compound PR10713314
>parentmass 348.1224862153846
>ionization [M]+
>formula C21H18NO4+
>rt 318.135692
>profile qtof
#smiles_iso C[N+]1=C2C(=C3C=CC(=C(C3=C1)OC)OC)C=CC4=CC5=C(C=C42)OCO5
#smiles_can C[N+]1=C2C(=C3C=CC(=C(C3=C1)OC)OC)C=CC4=CC5=C(C=C42)OCO5
#inchikey LLEJIEBFSOEYIV-UHFFFAOYSA-N
#pubchem_id 2703
#mb_accession PR301707,PR301710,PR301713,PR301716,PR301719,PR301722,PR301725,PR301728,PR301731,PR301734,PR301737,PR301740,PR310598

>ms2
232.074950 10.000000
246.087710 17.000000
246.100940 8.000000
260.077880 11.000000
272.070400 6.000000
274.093750 9.000000
275.069430 6.000000
275.098790 5.000000
287.095090 9.000000
287.105010 5.000000
288.071660 6.000000
288.108520 7.000000
290.082340 112.000000
291.074830 9.000000
291.086700 12.000000
291.096560 8.000000
303.085630 10.000000
304.097530 163.000000
305.101780 44.000000
314.078770 11.000000
315.089450 26.000000
316.063840 17.000000
316.100770 38.000000
317.065060 11.000000
317.103450 8.000000
318.076140 79.000000
318.097500 7.000000
319.073390 5.000000
319.084350 16.000000
330.077760 44.000000
330.088230 18.000000
331.086670 15.000000
332.092800 272.000000
333.070310 8.000000
333.099520 170.000000
334.102910 35.000000
348.076870 8.000000
348.123440 1000.000000
348.179230 15.000000

>ms2
333.101290 7.000000
348.076570 6.000000
348.123170 1000.000000
348.176970 26.000000

>ms2
232.077480 15.000000
274.079040 5.000000
275.063080 7.000000
275.088320 7.000000
275.100590 6.000000
276.097440 10.000000
286.088440 6.000000
287.087100 22.000000
287.098910 23.000000
288.085780 5.000000
288.102330 10.000000
289.074950 13.000000
290.081510 298.000000
291.085630 54.000000
292.086610 9.000000
302.079740 5.000000
303.081670 21.000000
303.093410 34.000000
304.066440 10.000000
304.095890 591.000000
305.094270 51.000000
305.104890 101.000000
306.093960 10.000000
306.102660 20.000000
314.084010 7.000000
315.086300 71.000000
316.067570 22.000000
316.093900 123.000000
317.050510 7.000000
317.068910 13.000000
317.093230 11.000000
317.105710 24.000000
318.076750 402.000000
319.079470 83.000000
320.084170 12.000000
330.062840 13.000000
330.076690 26.000000
330.098300 6.000000
331.082240 12.000000
332.029690 8.000000
332.045990 18.000000
332.061830 14.000000
332.091670 1000.000000
333.096500 427.000000
334.069610 9.000000
334.101900 84.000000
348.123900 120.000000
348.135680 30.000000

>ms2
91.591750 8.000000
96.254890 7.000000
99.022930 9.000000
121.803730 7.000000
127.048050 7.000000
130.208740 7.000000
131.051320 17.000000
136.362930 13.000000
145.371170 10.000000
151.054110 7.000000
152.041470 7.000000
155.372680 8.000000
161.042830 10.000000
161.545910 8.000000
163.053100 10.000000
164.063810 18.000000
164.292100 14.000000
165.070590 24.000000
174.045100 25.000000
175.050810 9.000000
175.059660 10.000000
176.064590 93.000000
177.038470 7.000000
177.056590 23.000000
177.072430 32.000000
178.065160 10.000000
178.074890 59.000000
179.059110 7.000000
180.078430 7.000000
181.076720 13.000000
186.966480 7.000000
187.053500 7.000000
187.058780 16.000000
188.065200 14.000000
188.073260 7.000000
189.042860 8.000000
189.058720 23.000000
189.070100 85.000000
190.042890 8.000000
190.063930 62.000000
190.076200 46.000000
191.063550 36.000000
191.076480 39.000000
191.088030 16.000000
191.690890 9.000000
191.747220 12.000000
192.079320 39.000000
194.052730 9.000000
197.827730 7.000000
200.064640 18.000000
201.050250 9.000000
201.067250 11.000000
202.045910 8.000000
202.066650 123.000000
202.080490 33.000000
202.124660 14.000000
203.070850 179.000000
203.534330 11.000000
204.052950 7.000000
204.079930 568.000000
204.586030 8.000000
205.041290 7.000000
205.064640 35.000000
205.084290 125.000000
205.102940 9.000000
205.246780 8.000000
206.089780 23.000000
206.098390 18.000000
207.066020 13.000000
207.084000 13.000000
207.474590 16.000000
207.567580 8.000000
208.159160 8.000000
208.607930 8.000000
214.045440 7.000000
214.064270 142.000000
215.040410 9.000000
215.061720 23.000000
215.076900 71.000000
216.038070 9.000000
216.065370 18.000000
216.078580 90.000000
216.088650 106.000000
216.995510 9.000000
217.047880 20.000000
217.077010 54.000000
217.091220 248.000000
217.110260 15.000000
218.068210 45.000000
218.083970 52.000000
218.096770 239.000000
218.982670 7.000000
219.059660 16.000000
219.069690 40.000000
219.078450 21.000000
219.095000 19.000000
219.104490 27.000000
219.128490 8.000000
220.079120 17.000000
220.099980 7.000000
220.115680 18.000000
220.232620 7.000000
220.336820 7.000000
221.122240 16.000000
222.299350 7.000000
224.627330 9.000000
224.754750 22.000000
225.536240 9.000000
226.066600 25.000000
227.065440 12.000000
227.078290 16.000000
227.087280 7.000000
228.081160 224.000000
228.096820 19.000000
229.003480 7.000000
229.050290 9.000000
229.079470 20.000000
229.096180 24.000000
230.044400 18.000000
230.052110 26.000000
230.064730 102.000000
230.093580 118.000000
230.106610 24.000000
230.602400 9.000000
231.058000 21.000000
231.070950 30.000000
231.078630 20.000000
231.101060 17.000000
231.115190 63.000000
231.745570 8.000000
232.017730 7.000000
232.030080 21.000000
232.044630 21.000000
232.077180 1000.000000
232.102740 13.000000
232.178120 7.000000
232.279270 9.000000
232.328750 8.000000
233.006160 8.000000
233.058060 48.000000
233.080600 241.000000
233.090120 170.000000
233.100740 34.000000
233.449620 11.000000
233.903640 17.000000
234.010480 7.000000
234.064620 9.000000
234.077880 43.000000
234.094220 150.000000
234.227390 12.000000
235.022000 7.000000
235.086940 52.000000
240.568790 12.000000
242.066300 7.000000
242.085370 7.000000
243.059220 28.000000
243.101840 7.000000
243.229310 11.000000
243.379390 7.000000
244.055620 9.000000
244.074190 233.000000
245.053280 17.000000
245.064970 23.000000
245.082260 107.000000
245.304280 7.000000
246.010620 10.000000
246.030000 14.000000
246.043030 9.000000
246.061160 53.000000
246.076570 94.000000
246.091600 502.000000
246.126280 7.000000
247.049130 34.000000
247.061280 58.000000
247.081920 40.000000
247.096830 152.000000
247.109950 59.000000
247.247860 7.000000
248.046690 8.000000
248.108290 133.000000
249.101460 14.000000
249.392030 14.000000
250.702640 11.000000
254.614640 7.000000
254.952770 11.000000
255.069240 13.000000
256.077940 49.000000
257.077610 34.000000
257.093440 14.000000
257.989900 7.000000
258.046810 11.000000
258.081050 56.000000
258.093510 49.000000
259.061980 43.000000
259.090760 29.000000
259.104800 22.000000
260.053340 39.000000
260.067290 306.000000
260.117070 7.000000
261.007350 9.000000
261.053680 11.000000
261.076720 158.000000
261.106260 10.000000
261.194000 8.000000
261.267300 23.000000
261.529540 12.000000
262.078550 45.000000
262.100070 29.000000
263.090610 26.000000
264.771150 9.000000
270.792720 7.000000
271.054320 7.000000
271.066960 15.000000
272.031950 10.000000
272.061190 59.000000
272.079070 124.000000
272.902370 10.000000
273.057040 12.000000
273.071960 59.000000
273.095250 16.000000
274.033970 14.000000
274.046570 67.000000
274.056760 142.000000
274.087130 468.000000
274.664520 7.000000
274.742460 7.000000
274.948580 7.000000
275.011020 11.000000
275.052700 193.000000
275.070710 72.000000
275.084720 55.000000
275.095730 73.000000
275.121610 8.000000
275.463710 9.000000
275.557280 7.000000
275.896910 9.000000
276.053100 30.000000
276.068510 42.000000
276.086640 22.000000
276.103120 46.000000
276.115450 20.000000
277.082670 13.000000
277.105530 10.000000
278.482420 7.000000
280.926120 7.000000
283.928220 7.000000
284.034820 8.000000
285.077550 7.000000
286.067320 7.000000
286.090520 108.000000
286.141720 11.000000
287.032840 8.000000
287.041630 12.000000
287.056120 7.000000
287.072020 7.000000
287.089810 19.000000
287.106510 17.000000
288.035610 7.000000
288.064580 83.000000
288.093260 69.000000
288.110290 17.000000
288.120000 13.000000
288.133730 7.000000
288.373990 11.000000
289.067200 128.000000
289.083800 15.000000
289.102720 19.000000
290.043150 14.000000
290.083440 805.000000
290.109410 13.000000
290.256810 10.000000
290.303920 8.000000
290.516850 10.000000
291.043090 11.000000
291.061400 9.000000
291.088230 226.000000
291.354950 7.000000
292.079190 7.000000
292.095580 34.000000
292.280820 8.000000
294.749240 7.000000
294.875730 7.000000
299.627810 7.000000
300.065340 19.000000
300.084660 8.000000
301.067960 25.000000
301.091250 7.000000
302.052150 8.000000
302.080050 138.000000
302.105160 8.000000
302.503450 7.000000
302.815670 11.000000
303.083070 22.000000
303.113590 10.000000
304.035740 7.000000
304.081330 33.000000
304.094880 162.000000
304.227200 8.000000
304.724790 7.000000
305.076970 14.000000
305.088560 14.000000
305.112370 38.000000
310.380100 7.000000
314.028080 8.000000
314.061000 9.000000
314.084410 26.000000
314.096130 14.000000
315.040740 14.000000
315.062840 7.000000
315.819580 7.000000
316.044010 23.000000
316.060060 58.000000
316.080050 43.000000
316.095120 68.000000
316.109710 15.000000
316.127500 7.000000
317.059080 61.000000
317.070650 72.000000
317.086910 41.000000
317.106990 23.000000
318.015080 7.000000
318.052120 11.000000
318.078460 36.000000
318.105960 8.000000
320.065250 7.000000
320.083860 8.000000
330.037290 9.000000
330.061800 62.000000
330.077820 304.000000
330.111150 9.000000
331.042050 9.000000
331.082860 124.000000
331.112210 7.000000
332.084560 79.000000
332.103760 43.000000
333.084690 7.000000
333.097320 7.000000
333.114840 9.000000
334.094730 9.000000
345.112090 7.000000

>ms2
232.074220 13.000000
246.087740 10.000000
246.101790 5.000000
260.071170 7.000000
261.073820 5.000000
262.090790 7.000000
274.090180 21.000000
275.059170 5.000000
275.094820 11.000000
287.094210 10.000000
288.104190 8.000000
290.081790 114.000000
291.079650 17.000000
291.092100 7.000000
303.084560 16.000000
304.096980 168.000000
305.101350 34.000000
305.117000 7.000000
314.083650 7.000000
315.083650 19.000000
315.098210 8.000000
316.055020 14.000000
316.073640 9.000000
316.098050 35.000000
317.055270 6.000000
317.067870 8.000000
317.109310 12.000000
318.077760 74.000000
319.081020 20.000000
330.074220 27.000000
330.086090 14.000000
332.091740 277.000000
333.097750 190.000000
334.102290 40.000000
348.123440 1000.000000
348.176510 17.000000

>ms2
348.068050 6.000000
348.123050 1000.000000
348.175380 22.000000

>ms2
262.086610 7.000000
275.077000 6.000000
275.090240 6.000000
275.099550 13.000000
276.099550 13.000000
286.091550 9.000000
287.097230 56.000000
288.103520 26.000000
289.068360 6.000000
289.081790 15.000000
290.060240 14.000000
290.083740 221.000000
291.085050 63.000000
302.089290 7.000000
303.092620 37.000000
304.034240 5.000000
304.056150 8.000000
304.098630 528.000000
305.101070 133.000000
306.102170 16.000000
314.080200 9.000000
315.064820 6.000000
315.083830 47.000000
315.102690 28.000000
316.057040 19.000000
316.091580 76.000000
316.102780 49.000000
317.079070 8.000000
317.104100 34.000000
318.076780 360.000000
319.079650 82.000000
319.092470 18.000000
320.075040 5.000000
320.086460 7.000000
330.068600 14.000000
330.085240 36.000000
331.078640 16.000000
332.039610 7.000000
332.059540 10.000000
332.092680 1000.000000
332.201350 5.000000
333.047670 5.000000
333.060360 6.000000
333.097750 404.000000
334.069550 8.000000
334.098210 80.000000
334.118900 20.000000
348.113530 52.000000
348.128170 70.000000

>ms2
118.069440 6.000000
132.632810 5.000000
141.054720 6.000000
144.684270 6.000000
151.054720 45.000000
152.051940 7.000000
152.062840 6.000000
153.073170 9.000000
160.083540 5.000000
161.037810 6.000000
163.032790 7.000000
163.054060 7.000000
163.342040 8.000000
164.055970 6.000000
164.068940 5.000000
165.065220 6.000000
165.071840 7.000000
165.081440 11.000000
168.106580 8.000000
173.279430 5.000000
174.066060 6.000000
175.061650 12.000000
176.062700 80.000000
177.051470 13.000000
177.067890 59.000000
177.080670 19.000000
177.086560 7.000000
178.055020 8.000000
178.064130 22.000000
178.081120 12.000000
179.067350 12.000000
179.088810 9.000000
179.636150 8.000000
185.033260 7.000000
187.053450 20.000000
188.048630 6.000000
188.056300 5.000000
188.066770 7.000000
189.055050 28.000000
189.063840 50.000000
189.074390 34.000000
189.761170 7.000000
189.848820 5.000000
190.050830 11.000000
190.061080 30.000000
191.067170 30.000000
191.082550 20.000000
192.047710 8.000000
192.088810 24.000000
192.124470 9.000000
200.065060 12.000000
201.053130 12.000000
201.071660 29.000000
202.058560 34.000000
202.068660 22.000000
202.079510 10.000000
202.174440 6.000000
202.736650 5.000000
202.771350 5.000000
203.040680 20.000000
203.074250 194.000000
203.091960 11.000000
203.117570 6.000000
204.023620 6.000000
204.036470 8.000000
204.047060 7.000000
204.061750 29.000000
204.080460 564.000000
204.745930 8.000000
205.033280 8.000000
205.066700 57.000000
205.086210 73.000000
205.100430 16.000000
205.196400 7.000000
206.057830 10.000000
206.074550 5.000000
206.096180 15.000000
206.105100 41.000000
207.068880 12.000000
207.080200 5.000000
207.098050 17.000000
207.106260 8.000000
208.073430 9.000000
208.471130 7.000000
210.611220 10.000000
212.974870 6.000000
213.068510 13.000000
214.060560 107.000000
214.073560 67.000000
214.124050 5.000000
215.064220 22.000000
215.077290 93.000000
215.545230 6.000000
216.070910 85.000000
216.083880 172.000000
216.724610 6.000000
217.061340 28.000000
217.089650 175.000000
217.109210 6.000000
217.270690 8.000000
217.324630 14.000000
217.599350 6.000000
217.671540 6.000000
217.689070 6.000000
218.059620 16.000000
218.078830 34.000000
218.096890 284.000000
218.105910 79.000000
218.129990 6.000000
218.157420 7.000000
218.213260 8.000000
219.018300 16.000000
219.050630 8.000000
219.063710 34.000000
219.079820 12.000000
219.095140 35.000000
219.109100 51.000000
220.058010 6.000000
220.065140 10.000000
220.072720 8.000000
220.088100 34.000000
220.105640 12.000000
220.448180 8.000000
221.046140 8.000000
221.079090 9.000000
221.092100 13.000000
221.324650 6.000000
221.937100 12.000000
222.096880 8.000000
226.056290 10.000000
227.070680 26.000000
227.080980 28.000000
227.745120 5.000000
228.057820 27.000000
228.080630 216.000000
228.097640 13.000000
229.043270 7.000000
229.059660 6.000000
229.072270 10.000000
229.088290 94.000000
230.045410 10.000000
230.059840 70.000000
230.079330 45.000000
230.097500 115.000000
231.052080 6.000000
231.072630 102.000000
231.094910 12.000000
231.105010 6.000000
231.114360 6.000000
232.029800 6.000000
232.049620 14.000000
232.075560 1000.000000
232.111660 11.000000
232.118010 6.000000
232.635240 6.000000
232.903440 5.000000
233.047940 6.000000
233.072590 117.000000
233.082310 330.000000
233.824890 7.000000
234.081670 65.000000
234.092880 147.000000
234.175930 8.000000
234.508100 7.000000
235.072490 8.000000
235.085820 23.000000
235.100910 29.000000
235.112200 9.000000
235.180420 11.000000
235.722470 7.000000
236.078780 9.000000
236.628940 6.000000
237.734380 6.000000
237.887760 8.000000
241.085620 7.000000
242.066880 11.000000
242.090150 6.000000
243.067860 29.000000
243.381070 7.000000
244.025470 8.000000
244.054310 16.000000
244.076600 155.000000
244.175930 8.000000
244.652390 5.000000
245.036420 6.000000
245.059480 29.000000
245.070980 44.000000
245.083370 54.000000
245.848820 9.000000
246.059430 8.000000
246.072650 20.000000
246.091020 420.000000
246.125110 9.000000
247.041960 7.000000
247.055210 33.000000
247.062070 82.000000
247.078380 61.000000
247.099470 172.000000
247.348360 7.000000
247.848890 12.000000
248.044010 5.000000
248.055160 6.000000
248.074190 20.000000
248.104580 95.000000
249.110200 6.000000
249.128100 7.000000
250.056990 13.000000
250.755050 6.000000
250.780140 8.000000
251.721880 6.000000
256.078890 38.000000
257.044620 5.000000
257.071080 33.000000
257.086850 22.000000
258.059270 44.000000
258.078160 9.000000
258.092930 24.000000
259.059660 100.000000
259.082550 6.000000
259.105650 7.000000
260.068300 230.000000
260.097720 17.000000
260.111420 15.000000
261.039490 8.000000
261.077150 161.000000
262.055630 6.000000
262.084010 80.000000
262.104550 15.000000
263.092930 37.000000
264.092380 6.000000
269.064240 14.000000
270.071440 6.000000
270.106110 5.000000
271.068050 15.000000
271.078950 8.000000
272.065610 82.000000
272.078550 51.000000
273.067350 41.000000
273.082090 22.000000
273.096250 7.000000
273.838320 7.000000
274.017490 12.000000
274.039220 52.000000
274.049220 37.000000
274.074890 111.000000
274.091000 357.000000
275.036010 41.000000
275.053770 261.000000
275.070310 168.000000
275.091310 154.000000
275.175020 8.000000
276.060150 78.000000
276.097870 68.000000
276.122740 7.000000
276.242610 6.000000
277.028810 6.000000
277.091310 16.000000
277.104250 30.000000
277.168550 6.000000
282.317690 8.000000
284.967470 6.000000
285.070530 8.000000
286.060090 9.000000
286.087100 100.000000
287.016050 5.000000
287.047730 13.000000
287.061710 27.000000
287.079560 33.000000
287.095730 37.000000
288.035310 7.000000
288.067320 116.000000
288.090820 68.000000
288.107700 33.000000
289.033390 9.000000
289.055080 14.000000
289.074950 75.000000
289.083370 34.000000
289.108520 17.000000
289.908020 6.000000
290.080410 823.000000
291.055850 7.000000
291.085820 175.000000
291.125730 7.000000
291.159670 7.000000
291.924960 5.000000
292.613340 10.000000
293.097170 11.000000
299.230010 7.000000
300.041990 6.000000
300.064820 12.000000
300.078340 6.000000
301.014560 6.000000
301.053830 17.000000
301.075230 27.000000
301.959690 8.000000
302.011960 10.000000
302.059390 19.000000
302.069520 67.000000
302.085850 91.000000
302.100010 20.000000
303.047730 14.000000
303.080900 55.000000
303.096950 25.000000
303.171300 8.000000
304.080690 42.000000
304.096680 222.000000
304.115260 51.000000
304.493470 7.000000
305.096010 12.000000
305.114350 12.000000
305.126950 11.000000
306.098940 23.000000
307.880310 11.000000
309.336460 10.000000
312.075810 6.000000
314.041050 7.000000
314.062010 8.000000
314.082520 49.000000
315.041870 13.000000
315.056730 25.000000
315.068330 12.000000
315.090940 12.000000
316.039890 29.000000
316.060490 132.000000
316.094820 49.000000
316.111300 11.000000
317.013310 7.000000
317.053560 35.000000
317.069610 61.000000
317.085880 27.000000
317.103940 8.000000
317.115330 7.000000
317.311100 6.000000
318.067470 38.000000
318.086150 6.000000
319.056150 6.000000
319.086850 19.000000
330.026730 7.000000
330.042450 8.000000
330.062990 99.000000
330.079470 111.000000
330.095210 37.000000
331.078220 26.000000
331.091250 14.000000
332.066100 8.000000
332.094240 110.000000
333.078700 7.000000
333.111660 12.000000
334.083680 9.000000
348.121890 18.000000

>ms2
232.078740 11.000000
246.077190 6.000000
246.096510 10.000000
272.076750 5.000000
274.089570 5.000000
274.099490 6.000000
275.063480 5.000000
275.096950 10.000000
276.090330 5.000000
286.094790 6.000000
287.092410 12.000000
287.105710 8.000000
288.106780 7.000000
289.095430 6.000000
290.072540 37.000000
290.085540 55.000000
290.094020 27.000000
291.084110 21.000000
303.078370 6.000000
304.094670 121.000000
304.107540 69.000000
305.101100 40.000000
306.105650 8.000000
315.087160 23.000000
316.064580 11.000000
316.082670 10.000000
316.092290 23.000000
316.104950 17.000000
317.063050 9.000000
318.054470 7.000000
318.077510 70.000000
319.070310 6.000000
319.082760 15.000000
320.085820 6.000000
330.061130 9.000000
330.077940 35.000000
330.099300 6.000000
331.080320 7.000000
332.083830 130.000000
332.100070 131.000000
333.063290 5.000000
333.095830 177.000000
334.096280 32.000000
334.114590 10.000000
335.101070 6.000000
348.075380 6.000000
348.124110 1000.000000
348.178990 17.000000

>ms2
348.077000 7.000000
348.122070 1000.000000
348.174740 22.000000

>ms2
190.088820 12.000000
274.084990 9.000000
275.092040 18.000000
276.098420 5.000000
286.085110 9.000000
287.093510 49.000000
288.095700 16.000000
288.105650 10.000000
290.081570 245.000000
291.086670 36.000000
303.092860 43.000000
304.057950 14.000000
304.097690 576.000000
305.101410 159.000000
306.093750 7.000000
306.106080 25.000000
314.084110 12.000000
315.090300 80.000000
316.052280 6.000000
316.088810 40.000000
316.102290 72.000000
317.074950 10.000000
317.100770 31.000000
318.078340 335.000000
319.074460 55.000000
319.090090 32.000000
320.088230 13.000000
330.071780 29.000000
330.085970 29.000000
331.080320 9.000000
332.032100 6.000000
332.045010 22.000000
332.091980 1000.000000
333.064360 9.000000
333.099180 429.000000
334.096590 36.000000
334.110780 44.000000
335.113590 10.000000
348.124450 135.000000

>ms2
55.022210 14.000000
74.008750 8.000000
119.055410 7.000000
129.442950 10.000000
133.031190 6.000000
151.054370 5.000000
153.073200 6.000000
154.206120 8.000000
160.049060 9.000000
165.079730 11.000000
175.034700 6.000000
175.056260 6.000000
176.055310 20.000000
176.062990 20.000000
177.046140 11.000000
177.054230 15.000000
177.070070 52.000000
177.741210 7.000000
177.996890 7.000000
178.016820 9.000000
178.049710 8.000000
178.068700 8.000000
178.082860 29.000000
178.650820 5.000000
179.064290 6.000000
179.072450 8.000000
180.048460 9.000000
180.078000 9.000000
180.930180 8.000000
182.606160 8.000000
185.420120 6.000000
186.237440 6.000000
187.048070 5.000000
187.061400 9.000000
189.033020 13.000000
189.055680 15.000000
189.071300 48.000000
189.085250 11.000000
190.059630 33.000000
190.078110 39.000000
190.686720 5.000000
191.072190 52.000000
191.084060 20.000000
191.360290 6.000000
191.926820 6.000000
193.255430 9.000000
197.080260 5.000000
200.056140 7.000000
201.044510 10.000000
201.061600 9.000000
201.077820 15.000000
201.774050 6.000000
202.041840 5.000000
202.051710 25.000000
202.070560 107.000000
202.334750 7.000000
203.040070 7.000000
203.051390 7.000000
203.075120 147.000000
203.929630 5.000000
204.023480 5.000000
204.044270 7.000000
204.080110 414.000000
205.064700 33.000000
205.078000 56.000000
205.091740 85.000000
205.100170 24.000000
205.792470 6.000000
206.082440 10.000000
206.096980 87.000000
206.112880 8.000000
206.159790 7.000000
207.068700 7.000000
207.079910 6.000000
207.091860 6.000000
207.157620 8.000000
207.301970 11.000000
211.324420 12.000000
213.405820 5.000000
214.067050 70.000000
214.950880 7.000000
215.016830 6.000000
215.071720 92.000000
215.080830 36.000000
215.791920 5.000000
216.029190 9.000000
216.038590 7.000000
216.055760 9.000000
216.071260 38.000000
216.082180 171.000000
216.107770 6.000000
216.212040 6.000000
217.047040 5.000000
217.055220 13.000000
217.070770 22.000000
217.087950 204.000000
217.369740 7.000000
217.974440 7.000000
218.007170 18.000000
218.055280 7.000000
218.067990 26.000000
218.096590 250.000000
218.119340 17.000000
219.055420 8.000000
219.066730 11.000000
219.079320 6.000000
219.097060 38.000000
219.114000 6.000000
220.060680 14.000000
220.076420 22.000000
220.097580 9.000000
220.467220 13.000000
221.047710 5.000000
221.075300 12.000000
222.075810 10.000000
222.536530 7.000000
223.061100 8.000000
224.076080 6.000000
224.929230 6.000000
225.066390 10.000000
225.076920 7.000000
226.064940 6.000000
227.051030 6.000000
227.067640 41.000000
227.085600 22.000000
227.109410 13.000000
228.029020 8.000000
228.065340 33.000000
228.072600 76.000000
228.086900 144.000000
228.236980 12.000000
229.055980 7.000000
229.072650 20.000000
229.090760 61.000000
229.103450 12.000000
230.044570 9.000000
230.056270 44.000000
230.064970 39.000000
230.074710 28.000000
230.091690 112.000000
230.108980 43.000000
230.367360 6.000000
230.389500 9.000000
230.933810 7.000000
231.066680 49.000000
231.092800 47.000000
231.107670 37.000000
231.285290 6.000000
231.612170 6.000000
232.042740 11.000000
232.076600 1000.000000
232.107330 18.000000
232.121000 14.000000
232.169970 6.000000
232.275970 9.000000
232.584050 6.000000
233.052170 33.000000
233.085010 406.000000
233.116500 8.000000
233.737810 6.000000
234.035950 10.000000
234.048510 6.000000
234.067830 20.000000
234.091080 154.000000
234.102830 47.000000
235.066040 6.000000
235.091720 26.000000
235.107770 8.000000
235.986360 9.000000
236.099440 6.000000
237.339650 7.000000
237.661000 11.000000
241.074160 10.000000
242.054720 6.000000
242.074520 6.000000
242.123920 6.000000
243.035340 7.000000
243.064100 13.000000
243.073670 5.000000
243.169570 6.000000
244.025420 6.000000
244.058430 29.000000
244.078670 180.000000
244.436750 10.000000
244.971530 6.000000
245.041730 15.000000
245.062150 18.000000
245.075740 46.000000
245.094300 9.000000
245.105220 16.000000
246.053330 10.000000
246.071260 66.000000
246.091250 564.000000
246.115690 8.000000
246.212590 9.000000
247.058910 53.000000
247.071980 38.000000
247.096510 188.000000
247.122830 7.000000
247.135770 7.000000
247.155230 5.000000
247.231380 7.000000
248.063190 28.000000
248.080810 6.000000
248.100850 17.000000
248.115080 36.000000
248.125210 26.000000
248.501530 5.000000
249.040740 9.000000
249.117860 7.000000
250.128510 7.000000
250.147780 6.000000
254.246990 5.000000
255.072420 6.000000
256.035860 6.000000
256.069000 22.000000
256.078310 43.000000
256.093840 6.000000
256.113710 6.000000
257.083560 32.000000
257.092800 22.000000
257.990330 7.000000
258.043240 39.000000
258.090120 41.000000
258.101720 16.000000
259.052640 25.000000
259.063750 63.000000
259.092440 6.000000
260.060640 68.000000
260.071900 319.000000
260.084170 93.000000
260.107570 13.000000
260.179470 8.000000
260.218380 6.000000
260.431060 6.000000
260.845180 6.000000
261.066310 33.000000
261.077850 138.000000
261.648620 7.000000
262.054350 7.000000
262.076630 13.000000
262.089230 65.000000
262.106990 13.000000
263.043300 6.000000
263.062740 6.000000
263.083920 6.000000
263.137850 6.000000
270.049620 17.000000
270.650910 5.000000
271.066530 11.000000
272.073790 127.000000
273.070830 16.000000
273.085480 41.000000
273.655490 5.000000
273.899900 6.000000
274.021360 16.000000
274.049320 70.000000
274.060490 70.000000
274.085820 462.000000
274.122740 6.000000
275.017490 6.000000
275.061430 279.000000
275.081210 78.000000
275.094670 79.000000
275.105930 29.000000
275.180600 5.000000
276.046390 30.000000
276.065190 76.000000
276.083830 20.000000
276.099820 31.000000
276.109280 47.000000
277.071230 6.000000
277.094060 7.000000
277.105290 7.000000
278.674560 5.000000
279.121950 6.000000
284.081360 7.000000
285.041660 6.000000
285.075130 14.000000
286.046170 11.000000
286.089660 56.000000
286.111600 25.000000
286.149140 6.000000
286.330050 5.000000
287.059330 17.000000
287.076230 25.000000
287.096130 46.000000
288.063630 141.000000
288.092620 70.000000
288.105960 53.000000
288.119450 17.000000
288.347900 6.000000
289.038910 10.000000
289.070310 103.000000
289.092990 24.000000
289.116940 5.000000
290.026460 6.000000
290.046750 7.000000
290.080780 724.000000
290.186430 7.000000
290.377840 6.000000
291.064030 18.000000
291.083400 115.000000
292.087070 40.000000
292.103390 8.000000
296.645320 13.000000
297.024230 6.000000
299.599820 9.000000
300.038850 5.000000
300.101960 7.000000
301.069640 6.000000
301.835050 5.000000
302.059200 7.000000
302.079740 93.000000
302.090940 52.000000
302.467320 7.000000
303.051240 7.000000
303.079160 31.000000
303.090450 61.000000
303.166260 5.000000
303.984500 6.000000
304.044920 11.000000
304.092710 147.000000
304.104370 66.000000
305.053990 7.000000
305.090910 29.000000
305.111330 7.000000
306.119810 6.000000
313.800380 6.000000
314.036620 12.000000
314.063750 8.000000
314.089200 27.000000
315.041900 7.000000
315.054050 17.000000
315.082760 24.000000
316.030150 6.000000
316.056760 90.000000
316.075500 52.000000
316.098600 14.000000
316.110750 8.000000
317.065310 59.000000
317.080720 32.000000
318.041260 7.000000
318.074010 11.000000
318.092500 13.000000
318.735020 6.000000
319.069270 7.000000
320.780520 6.000000
330.048770 6.000000
330.076450 291.000000
330.099150 21.000000
331.083980 60.000000
331.589570 7.000000
332.068880 16.000000
332.088070 72.000000
332.102870 31.000000
332.116910 9.000000
332.230900 5.000000
333.078800 11.000000
333.095980 20.000000
333.110020 8.000000
333.589660 5.000000
334.101200 11.000000
343.969270 6.000000
348.120120 13.000000
348.133910 17.000000

>ms2
66.497510 41.000000
115.811070 20.000000
127.404020 22.000000
148.058010 24.000000
153.061260 24.000000
167.104370 17.000000
175.914470 17.000000
177.070080 17.000000
179.143300 18.000000
189.622270 24.000000
190.091640 20.000000
196.871050 32.000000
197.226070 28.000000
197.671390 20.000000
200.799620 25.000000
201.057600 17.000000
201.083680 17.000000
203.082610 31.000000
203.802600 26.000000
204.076260 24.000000
204.086350 25.000000
205.066770 17.000000
205.086750 21.000000
205.092120 39.000000
207.478200 20.000000
207.650590 18.000000
214.011990 20.000000
214.055880 27.000000
216.083820 68.000000
216.685700 24.000000
218.086650 38.000000
218.386280 36.000000
218.546570 17.000000
220.653310 18.000000
227.064960 20.000000
227.077090 19.000000
228.081590 25.000000
228.292790 18.000000
229.095990 35.000000
230.047030 22.000000
230.095370 54.000000
230.103970 25.000000
231.066910 18.000000
231.094220 17.000000
231.103210 17.000000
231.881610 30.000000
232.074950 224.000000
232.118450 19.000000
233.066940 20.000000
233.217440 17.000000
234.097950 38.000000
235.092970 17.000000
236.289810 17.000000
237.991360 19.000000
244.079900 64.000000
245.045210 18.000000
245.082670 39.000000
246.047320 23.000000
246.065630 24.000000
246.087710 379.000000
246.100940 171.000000
246.316830 33.000000
247.073870 59.000000
247.097240 80.000000
247.109910 32.000000
248.094380 19.000000
248.103160 24.000000
248.123400 18.000000
249.117460 25.000000
253.389280 25.000000
254.969270 18.000000
255.827240 20.000000
256.068940 17.000000
257.075780 45.000000
257.092440 41.000000
257.948910 21.000000
258.091160 73.000000
260.077880 229.000000
260.104160 36.000000
260.161800 27.000000
261.064030 23.000000
261.086270 87.000000
262.090940 63.000000
263.091250 33.000000
269.459930 25.000000
270.086910 17.000000
271.343200 25.000000
272.070400 124.000000
272.084320 34.000000
273.030460 26.000000
274.028840 17.000000
274.093750 201.000000
275.015590 17.000000
275.039460 19.000000
275.050290 57.000000
275.069430 121.000000
275.082280 96.000000
275.098790 116.000000
276.038880 18.000000
276.055330 42.000000
276.069950 40.000000
276.094910 56.000000
276.114070 22.000000
276.160400 19.000000
276.269260 43.000000
277.104060 68.000000
277.116880 18.000000
278.112950 22.000000
280.236300 18.000000
280.617830 33.000000
286.068020 48.000000
286.092620 24.000000
287.095090 194.000000
287.105010 111.000000
288.071660 136.000000
288.082920 74.000000
288.108520 154.000000
288.353000 26.000000
289.059050 49.000000
289.072420 73.000000
289.083440 34.000000
289.101870 18.000000
289.113190 20.000000
289.343690 18.000000
289.849400 21.000000
290.045870 86.000000
290.082340 2425.000000
290.155910 17.000000
290.201390 17.000000
290.787540 19.000000
291.074830 194.000000
291.086700 270.000000
291.096560 176.000000
292.085780 87.000000
292.752080 23.000000
293.448670 17.000000
294.013490 21.000000
294.055940 23.000000
294.942170 24.000000
298.559660 59.000000
299.388520 28.000000
300.968750 21.000000
302.060550 23.000000
302.090880 95.000000
302.108430 24.000000
303.060270 22.000000
303.085630 216.000000
303.102050 82.000000
303.923800 22.000000
304.048340 37.000000
304.097530 3538.000000
304.146210 24.000000
304.173220 22.000000
305.101780 959.000000
305.551850 17.000000
306.092190 54.000000
306.198000 20.000000
312.264070 35.000000
314.012600 21.000000
314.078770 240.000000
314.120480 21.000000
314.164220 19.000000
314.991940 20.000000
315.049740 28.000000
315.089450 557.000000
315.114750 34.000000
316.063840 370.000000
316.100770 825.000000
317.035550 17.000000
317.065060 229.000000
317.103450 167.000000
317.120910 29.000000
317.156590 36.000000
317.477600 27.000000
318.005830 21.000000
318.029240 61.000000
318.076140 1709.000000
318.097500 144.000000
318.129360 22.000000
318.249390 41.000000
319.043300 26.000000
319.073390 113.000000
319.084350 357.000000
320.081210 73.000000
320.096370 17.000000
322.778110 17.000000
329.751280 18.000000
330.019680 66.000000
330.077760 951.000000
330.088230 388.000000
330.815920 19.000000
331.056060 24.000000
331.086670 332.000000
332.030120 25.000000
332.051670 56.000000
332.092800 5910.000000
332.130490 25.000000
332.149720 19.000000
332.165710 18.000000
332.246490 17.000000
332.946290 20.000000
333.045260 19.000000
333.070310 175.000000
333.099520 3694.000000
333.263280 54.000000
333.393400 70.000000
333.422490 17.000000
333.487920 20.000000
333.963710 36.000000
334.058410 51.000000
334.102910 756.000000
335.097110 69.000000
335.109220 50.000000
336.114410 17.000000
336.373050 17.000000
340.683200 18.000000
341.751560 26.000000
342.416080 21.000000
343.924470 17.000000
346.326970 17.000000
347.966460 20.000000
348.045750 57.000000
348.059200 81.000000
348.076870 167.000000
348.123440 21717.000000
348.179230 330.000000
348.207000 25.000000
348.290990 17.000000

