>compound PR10216967
>parentmass 235.1447
>ionization [M+H]+
>formula C13H18N2O2
>rt 160.200000
>profile qtof
#smiles_iso C1=CC(=CC=C1C=CC(=O)NCCCCN)O
#smiles_can C1=CC(=CC=C1C=CC(=O)NCCCCN)O
#inchikey CJHDBEPXEKGBDW-UHFFFAOYSA-N
#pubchem_id 133420
#mb_accession PR311078

>ms2
89.101370 17.000000
89.107180 17.000000
90.112500 17.000000
91.057000 17.000000
103.624580 16.000000
116.783310 33.000000
119.049480 189.000000
120.049690 20.000000
122.060450 23.000000
147.045460 858.000000
147.092470 17.000000
148.048370 36.000000
148.061420 23.000000
149.051540 21.000000
218.112950 74.000000
218.128130 78.000000
219.116320 28.000000
219.125110 21.000000
229.160490 18.000000
235.107570 38.000000
235.144560 743.000000

