>compound PR10456690
>parentmass 179.0707
>ionization [M+H]+
>formula C10H10O3
>rt 199.200000
>profile qtof
#smiles_iso COC1=CC=C(C=C1)C=CC(=O)O
#smiles_can COC1=CC=C(C=C1)C=CC(=O)O
#inchikey AFDXODALSZRGIH-UHFFFAOYSA-N
#pubchem_id 13245
#mb_accession PR311092

>ms2
65.038010 31.000000
91.048820 17.000000
119.055500 19.000000
147.043140 51.000000
148.043870 64.000000
161.060990 17.000000
162.066240 22.000000
179.063510 54.000000
179.071350 120.000000

