>compound PR10530079
>parentmass 755.2086
>ionization [M+H]+
>formula C33H38O20
>rt 200.400000
>profile qtof
#smiles_iso CC(CC(=O)O)(CC(=O)OCC1C(C(C(C(O1)OC2=C(OC3=CC(=CC(=C3C2=O)O)OC4C(C(C(C(O4)CO)O)O)O)C5=CC=C(C=C5)O)O)O)O)O
#smiles_can CC(CC(=O)O)(CC(=O)OCC1C(C(C(C(O1)OC2=C(OC3=CC(=CC(=C3C2=O)O)OC4C(C(C(C(O4)CO)O)O)O)C5=CC=C(C=C5)O)O)O)O)O
#inchikey KNBPTHQAIKQFMM-UHFFFAOYSA-N
#pubchem_id 74978041
#mb_accession PR310932

>ms2
287.057280 72.000000
288.061430 69.000000
329.056550 25.000000
396.098970 18.000000
449.109860 64.000000
450.129000 27.000000
754.312990 17.000000
755.198430 20.000000
755.219540 59.000000

