>compound PR10092307
>parentmass 337.1079
>ionization [M+H]+
>formula C12H20N2O7S
>rt 143.400000
>profile qtof
#smiles_iso CC(CSCC(C(=O)O)NC(=O)CCC(C(=O)O)N)C(=O)O
#smiles_can CC(CSCC(C(=O)O)NC(=O)CCC(C(=O)O)N)C(=O)O
#inchikey USEJNLPKVXGAOO-UHFFFAOYSA-N
#pubchem_id 139292095
#mb_accession PR310784

>ms2
106.048510 18.000000
144.046430 22.000000
147.027620 27.000000
162.061310 20.000000
174.009430 17.000000
186.079030 23.000000
188.956330 22.000000
191.052380 16.000000
192.069840 18.000000
208.037160 23.000000
208.062850 88.000000
214.077730 20.000000
282.378750 16.000000
298.980130 18.000000
319.094910 17.000000
322.985020 40.000000
327.126560 28.000000
335.130550 16.000000
337.114500 40.000000

