>compound PR10985398
>parentmass 955.4852
>ionization [M+H]+
>formula C48H74O19
>rt 454.200000
>profile qtof
#smiles_iso CC1C(C(C(C(O1)OC2C(C(C(OC2OC3C(C(C(OC3OC4CCC5(C(C4(C)CO)CCC6(C5C=CC7=C8CC(CC(C8(CCC76C)C)O)(C)C)C)C)C(=O)O)O)O)C(=O)O)O)O)O)O)O
#smiles_can CC1C(C(C(C(O1)OC2C(C(C(OC2OC3C(C(C(OC3OC4CCC5(C(C4(C)CO)CCC6(C5C=CC7=C8CC(CC(C8(CCC76C)C)O)(C)C)C)C)C(=O)O)O)O)C(=O)O)O)O)O)O)O
#inchikey NWEOPKVXZATAQT-UHFFFAOYSA-N
#pubchem_id 139291987
#mb_accession PR310673

>ms2
129.037840 31.000000
159.064730 24.000000
177.172850 19.000000
194.160840 27.000000
226.361690 24.000000
245.186390 36.000000
248.219120 24.000000
257.189090 47.000000
270.070500 24.000000
271.213530 17.000000
275.221470 17.000000
283.667020 20.000000
299.035030 25.000000
305.082980 17.000000
317.059170 20.000000
318.057370 27.000000
381.302460 20.000000
382.334290 30.000000
421.348970 98.000000
422.360440 41.000000
423.352050 19.000000
424.372530 18.000000
439.331240 20.000000
439.358400 323.000000
440.364110 41.000000
458.383090 17.000000
461.366700 35.000000
597.372860 17.000000
598.391110 24.000000
603.409420 17.000000
604.450500 17.000000
615.385680 20.000000
616.396730 17.000000
617.404240 22.000000
637.420100 26.000000
753.223330 19.000000
775.438840 21.000000
779.392700 20.000000
779.442440 18.000000
809.393430 17.000000
809.424930 58.000000
809.451170 87.000000
810.413820 17.000000
810.437810 47.000000
810.482240 17.000000
811.426150 19.000000
811.472900 17.000000
940.308350 18.000000
955.449040 77.000000
955.483890 210.000000
955.529110 18.000000

