>compound PR10344233
>parentmass 153.0415
>ionization [M+H]+
>formula C5H4N4O2
>rt 105.000000
>profile qtof
#smiles_iso C1=NC2=C(N1)C(=O)NC(=O)N2
#smiles_can C1=NC2=C(N1)C(=O)NC(=O)N2
#inchikey LRFVTYWOQMYALW-UHFFFAOYSA-N
#pubchem_id 1188
#mb_accession PR310811

>ms2peaks
82.043650 16.000000
108.045280 34.000000
110.033040 70.000000
111.039340 16.000000
116.929530 27.000000
136.013290 76.000000
136.019350 128.000000
152.069350 18.000000
153.026920 51.000000
153.041380 549.000000

