>compound PR10193588
>parentmass 535.1085
>ionization [M+H]+
>formula C24H22O14
>rt 275.400000
>profile qtof
#smiles_iso C1=CC(=C(C=C1C2=CC(=O)C3=C(C=C(C=C3O2)OC4C(C(C(C(O4)COC(=O)CC(=O)O)O)O)O)O)O)O
#smiles_can C1=CC(=C(C=C1C2=CC(=O)C3=C(C=C(C=C3O2)OC4C(C(C(C(O4)COC(=O)CC(=O)O)O)O)O)O)O)O
#inchikey RNDGJCZQVKFBPI-UHFFFAOYSA-N
#pubchem_id 5858132
#mb_accession PR310958

>ms2peaks
68.987400 17.000000
69.030150 44.000000
69.113240 19.000000
71.049830 24.000000
80.728620 17.000000
81.036150 62.000000
82.037540 17.000000
84.492870 24.000000
85.023870 110.000000
85.030860 171.000000
86.028450 18.000000
86.078220 26.000000
91.038600 41.000000
97.017780 17.000000
97.029230 147.000000
98.026500 23.000000
99.042750 72.000000
99.046970 23.000000
105.016730 78.000000
105.023060 25.000000
109.027310 409.000000
110.035560 41.000000
117.014870 17.000000
117.020900 18.000000
121.030910 21.000000
122.043770 20.000000
125.024890 18.000000
127.039900 761.000000
128.045270 109.000000
129.010120 38.000000
129.017820 87.000000
137.019450 25.000000
144.138090 18.000000
145.040250 32.000000
145.050460 397.000000
145.058780 86.000000
145.166180 30.000000
146.346950 17.000000
147.028470 23.000000
159.009380 17.000000
159.029790 482.000000
160.027560 17.000000
160.035890 18.000000
163.005170 17.000000
165.019870 61.000000
165.026690 40.000000
166.025990 26.000000
168.734530 30.000000
171.632660 18.000000
181.015530 22.000000
185.823170 21.000000
189.042300 24.000000
199.811160 25.000000
201.047150 21.000000
206.748060 20.000000
207.002990 19.000000
208.735520 21.000000
213.040410 21.000000
213.934370 21.000000
230.989520 22.000000
231.044530 56.000000
231.055040 253.000000
231.079560 20.000000
232.055630 26.000000
232.758410 18.000000
235.038390 18.000000
235.546040 22.000000
241.535320 25.000000
248.308790 18.000000
249.056500 17.000000
251.526380 41.000000
255.124570 18.000000
258.041840 18.000000
259.490110 18.000000
263.161070 44.000000
263.287780 25.000000
273.182040 17.000000
281.315220 28.000000
281.475830 17.000000
284.173890 19.000000
286.596950 17.000000
286.912840 20.000000
287.005160 128.000000
287.028750 54.000000
287.055110 17151.000000
287.092740 17.000000
287.105960 71.000000
288.059910 3772.000000
288.085420 17.000000
288.637940 21.000000
289.043330 35.000000
289.060090 489.000000
290.055480 46.000000
290.158080 18.000000
307.288940 17.000000
310.131810 21.000000
311.056150 39.000000
312.729130 17.000000
313.449580 18.000000
329.061800 43.000000
329.080810 89.000000
339.084170 18.000000
353.062840 20.000000
368.845250 20.000000
377.049070 17.000000
380.019130 24.000000
396.081670 29.000000
396.099060 21.000000
398.026580 17.000000
431.106720 35.000000
447.015170 18.000000
449.095790 23.000000
517.107970 52.000000
533.646970 18.000000
534.248050 26.000000
534.745060 17.000000
535.038450 21.000000
535.108220 4642.000000
535.170960 17.000000

