>compound PR10456211
>parentmass 302.19619939999995
>ionization [M+H]+
>formula C15H27NO5
>rt 186.466980
>profile qtof
#smiles_iso CC(C)[C@@](C(C)O)(C(=O)OC[C@H]1CC[N+]2([C@H]1CCC2)[O-])O
#smiles_can CC(C)C(C(C)O)(C(=O)OCC1CC[N+]2(C1CCC2)[O-])O
#inchikey DLNWZIVYKQXLTN-CGYUPCHJSA-N
#pubchem_id 10523
#mb_accession PR300546,PR300551,PR300555,PR300560,PR300564,PR300569,PR300574,PR300578,PR300582,PR300587,PR300592,PR300596

>ms2peaks
83.073630 12.000000
84.080630 13.000000
110.096930 16.000000
122.094920 5.000000
124.112030 31.000000
140.106930 32.000000
141.115430 49.000000
142.119510 5.000000
158.117920 515.000000
158.153820 15.000000
159.121260 50.000000
284.183780 11.000000
302.196380 1000.000000
302.246120 36.000000
302.291780 6.000000

>ms2peaks
158.118000 23.000000
302.197240 1000.000000
302.246770 38.000000
302.292450 6.000000

>ms2peaks
83.074150 23.000000
84.081310 29.000000
110.096320 21.000000
122.096830 17.000000
124.111860 77.000000
140.106410 61.000000
141.115160 113.000000
142.118620 17.000000
158.117660 1000.000000
158.153170 37.000000
159.120910 110.000000
160.121870 10.000000
258.165410 6.000000
284.187530 9.000000
302.196620 46.000000

>ms2peaks
53.235550 7.000000
55.040860 14.000000
55.059020 5.000000
56.224650 7.000000
68.051150 23.000000
69.058510 16.000000
70.024350 6.000000
70.065740 46.000000
70.327770 5.000000
73.068030 6.000000
80.051530 24.000000
81.070270 13.000000
82.055570 6.000000
82.066930 170.000000
82.617290 8.000000
83.055430 5.000000
83.059750 9.000000
83.073540 1000.000000
84.063930 11.000000
84.081010 460.000000
85.080860 14.000000
85.084980 38.000000
85.093150 6.000000
85.266990 5.000000
86.071130 8.000000
87.078880 8.000000
87.840810 7.000000
93.069390 9.000000
94.068690 44.000000
94.775020 6.000000
95.085280 7.000000
96.080860 133.000000
97.077130 5.000000
97.088830 109.000000
98.061100 7.000000
98.090550 10.000000
99.069230 8.000000
100.077770 5.000000
101.177440 8.000000
103.053840 7.000000
107.071840 6.000000
107.089610 6.000000
108.077800 7.000000
108.090760 19.000000
109.070760 6.000000
109.085850 12.000000
110.078830 10.000000
110.097010 527.000000
111.098340 26.000000
111.104780 28.000000
111.150980 5.000000
112.072380 11.000000
113.075950 8.000000
113.085300 70.000000
113.124010 7.000000
114.093910 5.000000
115.585650 6.000000
119.074090 5.000000
120.082840 30.000000
122.073580 7.000000
122.097310 228.000000
123.101780 43.000000
124.112200 549.000000
125.104670 6.000000
125.115320 53.000000
126.673250 5.000000
138.096500 11.000000
140.064250 9.000000
140.073580 5.000000
140.088550 15.000000
140.107620 622.000000
140.856950 7.000000
141.114090 458.000000
142.112730 11.000000
142.121060 28.000000
142.128490 12.000000
143.730300 6.000000
148.341220 7.000000
158.076020 6.000000
158.118410 671.000000
159.120100 82.000000
160.125210 8.000000
178.988100 7.000000
186.113850 5.000000
278.301120 5.000000
302.192200 31.000000
302.202330 46.000000

>ms2peaks
83.074560 15.000000
84.080580 13.000000
110.097200 9.000000
122.096890 8.000000
124.112740 34.000000
140.108900 28.000000
141.114990 52.000000
142.121350 7.000000
158.118040 575.000000
158.153090 19.000000
159.122160 62.000000
160.126140 6.000000
258.168980 11.000000
284.181430 6.000000
302.138060 6.000000
302.196320 1000.000000
302.246060 34.000000
302.292420 5.000000

>ms2peaks
158.117830 28.000000
302.197480 1000.000000
302.246920 38.000000
302.293000 8.000000

>ms2peaks
83.073430 24.000000
84.074620 5.000000
84.081380 26.000000
97.088930 6.000000
110.096680 25.000000
122.096920 20.000000
124.112350 74.000000
125.116390 10.000000
140.107350 55.000000
141.115110 121.000000
142.113600 6.000000
142.120960 17.000000
158.118090 1000.000000
158.153690 38.000000
158.344020 6.000000
159.121580 93.000000
160.123460 8.000000
252.158970 6.000000
258.173460 7.000000
284.187410 7.000000
302.195740 51.000000

>ms2peaks
55.056350 24.000000
68.053580 11.000000
69.153560 10.000000
70.062290 8.000000
70.067980 11.000000
71.047430 13.000000
79.053840 12.000000
80.055180 5.000000
81.053270 9.000000
81.072940 30.000000
82.054960 11.000000
82.065370 61.000000
82.072120 16.000000
83.073120 1000.000000
84.070010 12.000000
84.080690 331.000000
84.663000 6.000000
85.031040 7.000000
85.081450 6.000000
85.087460 20.000000
93.058910 6.000000
94.066290 27.000000
95.077290 14.000000
95.088580 11.000000
96.081810 98.000000
97.068700 13.000000
97.088200 138.000000
97.093370 44.000000
98.062480 7.000000
107.067180 7.000000
108.081760 18.000000
109.089900 28.000000
110.097150 444.000000
110.145320 5.000000
111.089200 9.000000
111.101250 61.000000
112.079040 21.000000
113.082580 25.000000
114.086460 11.000000
120.079830 10.000000
120.088440 19.000000
122.075380 7.000000
122.095270 176.000000
123.095850 6.000000
123.104780 16.000000
124.086960 6.000000
124.112200 476.000000
125.114950 57.000000
140.107270 605.000000
140.630800 5.000000
141.113480 409.000000
142.104310 6.000000
142.120220 44.000000
158.103330 31.000000
158.117800 631.000000
159.113980 35.000000
159.121800 67.000000
160.118260 10.000000
188.923400 7.000000
201.102230 5.000000
302.202270 54.000000

>ms2peaks
83.073080 10.000000
84.081400 13.000000
110.095730 13.000000
122.099210 5.000000
124.112490 28.000000
140.107210 30.000000
141.114070 53.000000
158.117510 527.000000
158.153460 17.000000
159.119980 50.000000
258.173190 5.000000
284.182650 10.000000
302.196040 1000.000000
302.246220 36.000000
302.291840 7.000000

>ms2peaks
158.117510 26.000000
302.197940 1000.000000
302.247220 38.000000
302.293520 8.000000

>ms2peaks
73.065980 5.000000
83.073780 24.000000
84.081540 31.000000
97.089550 5.000000
110.097070 21.000000
122.096920 15.000000
124.112300 71.000000
125.115570 8.000000
140.107100 63.000000
141.115170 101.000000
142.121000 11.000000
158.118390 1000.000000
158.154600 38.000000
158.344800 5.000000
159.121780 103.000000
160.118820 6.000000
160.129070 6.000000
258.166020 7.000000
284.182220 6.000000
302.196040 43.000000

>ms2peaks
55.034600 12.000000
55.044050 31.000000
55.057510 12.000000
67.051320 11.000000
68.046840 15.000000
68.050510 50.000000
69.049190 15.000000
70.062360 18.000000
70.067350 26.000000
71.069140 12.000000
73.064610 5.000000
73.068820 14.000000
79.056300 7.000000
81.017290 5.000000
81.053700 9.000000
81.065730 11.000000
81.073490 12.000000
82.065860 144.000000
83.045430 7.000000
83.073420 1000.000000
83.141200 7.000000
83.512470 10.000000
84.047000 6.000000
84.069270 6.000000
84.080610 432.000000
84.137830 6.000000
85.084530 6.000000
93.070300 8.000000
94.060450 21.000000
94.066640 25.000000
94.072870 7.000000
95.082500 7.000000
96.082520 99.000000
97.089160 120.000000
98.058850 13.000000
98.090150 17.000000
98.101140 11.000000
100.074870 11.000000
105.072330 6.000000
106.065780 12.000000
106.153200 5.000000
108.081010 31.000000
108.087040 17.000000
110.021440 7.000000
110.097220 475.000000
111.085920 6.000000
111.096450 13.000000
111.103070 15.000000
111.592840 5.000000
112.072780 29.000000
113.082360 60.000000
114.217190 6.000000
120.083730 42.000000
122.055470 7.000000
122.080270 12.000000
122.097690 205.000000
123.103560 35.000000
124.113660 538.000000
125.115300 38.000000
125.121660 18.000000
140.075640 9.000000
140.087390 7.000000
140.107570 724.000000
141.113630 422.000000
141.143400 7.000000
142.098270 8.000000
142.116070 27.000000
142.124450 52.000000
150.090840 7.000000
158.117970 690.000000
159.117540 23.000000
159.123780 62.000000
160.127870 11.000000
160.625980 5.000000

