>compound PR11809360
>parentmass 347.2230233
>ionization [M+H]+
>formula C22H26N4
>rt 154.489020
>profile qtof
#smiles_iso CN1CC[C@@]23[C@@H]4NC5=CC=CC=C5[C@@]2([C@@H]1NC6=CC=CC=C36)CCN4C
#smiles_can CN1CCC23C4NC5=CC=CC=C5C2(C1NC6=CC=CC=C36)CCN4C
#inchikey XSYCDVWYEVUDKQ-GXRSIYKFSA-N
#pubchem_id 5392245
#mb_accession PR300238,PR300243,PR300248,PR300253,PR300258,PR300263,PR300268,PR300273,PR300278,PR300283,PR300288,PR300293

>ms2
96.084340 10.000000
120.072880 14.000000
120.081500 8.000000
130.064320 92.000000
130.477520 7.000000
131.069350 16.000000
132.062390 15.000000
132.074830 47.000000
132.085210 75.000000
133.077760 7.000000
139.528310 10.000000
140.045410 8.000000
142.057500 12.000000
144.081450 84.000000
145.087830 6.000000
156.073240 20.000000
156.082760 10.000000
158.080200 7.000000
159.084980 13.000000
160.098110 7.000000
166.381700 10.000000
167.051030 10.000000
168.081970 78.000000
168.092730 7.000000
170.092930 12.000000
172.089780 6.000000
172.097720 12.000000
173.100800 71.000000
173.110210 75.000000
174.103390 13.000000
174.111500 20.000000
175.123550 20.000000
180.081280 34.000000
181.086900 6.000000
183.083240 11.000000
183.094820 11.000000
183.102340 12.000000
185.095790 6.000000
187.120760 31.000000
188.131180 11.000000
193.114260 9.000000
197.113530 7.000000
199.107560 7.000000
199.123170 20.000000
206.076340 10.000000
207.073010 17.000000
207.100490 9.000000
208.113740 12.000000
209.115710 7.000000
210.117160 10.000000
211.102870 9.000000
211.122410 129.000000
215.084750 7.000000
215.154950 7.000000
217.080800 9.000000
217.093640 12.000000
218.077560 8.000000
219.087910 8.000000
219.097790 8.000000
224.130360 8.000000
230.087460 8.000000
231.103470 6.000000
232.090650 38.000000
232.105930 81.000000
233.095550 8.000000
233.108570 104.000000
233.118120 65.000000
236.133820 8.000000
239.359450 7.000000
242.090240 7.000000
244.090760 10.000000
244.102650 13.000000
244.139250 15.000000
245.089370 6.000000
245.111820 7.000000
246.293140 11.000000
247.102860 17.000000
247.113220 32.000000
247.133380 82.000000
248.120190 30.000000
248.137310 11.000000
253.043410 7.000000
254.108090 13.000000
254.157780 7.000000
255.096080 18.000000
256.063510 10.000000
256.092220 6.000000
256.118870 6.000000
257.090940 12.000000
257.104980 23.000000
257.111850 9.000000
257.290590 7.000000
258.114440 25.000000
259.105040 19.000000
259.120090 78.000000
259.129000 75.000000
260.117800 7.000000
260.129550 6.000000
263.093440 12.000000
269.115390 23.000000
270.102870 14.000000
270.117740 8.000000
271.114560 10.000000
272.456630 7.000000
273.065640 13.000000
273.102720 13.000000
273.119080 7.000000
273.136170 41.000000
274.125180 7.000000
274.149170 17.000000
283.120790 9.000000
285.140010 142.000000
285.167940 7.000000
286.085170 9.000000
286.099980 6.000000
286.143310 80.000000
286.314790 7.000000
287.149200 25.000000
288.159240 15.000000
288.458400 6.000000
290.161900 55.000000
290.172520 66.000000
290.693910 7.000000
291.162810 8.000000
304.184600 64.000000
316.179380 291.000000
316.193080 102.000000
317.173770 15.000000
317.187530 61.000000
317.198120 25.000000
319.183960 12.000000
331.938320 6.000000
346.147490 7.000000
346.210780 17.000000
347.199490 23.000000
347.222870 1000.000000
347.383910 6.000000

>ms2
144.077260 9.000000
173.107300 8.000000
175.122470 18.000000
247.129350 5.000000
273.137210 11.000000
285.139470 10.000000
290.166810 21.000000
290.175050 9.000000
291.168120 14.000000
304.186250 6.000000
316.156770 5.000000
316.179410 85.000000
317.184810 29.000000
346.218350 17.000000
347.223330 1000.000000

>ms2
84.077570 28.000000
96.074980 51.000000
96.082090 129.000000
96.088360 83.000000
98.092370 32.000000
109.567820 25.000000
118.062660 19.000000
119.074640 32.000000
128.059560 25.000000
130.064620 590.000000
130.156100 21.000000
131.064070 24.000000
132.062790 23.000000
132.073810 110.000000
132.081740 438.000000
133.079450 39.000000
142.063350 24.000000
143.085710 34.000000
144.079710 542.000000
145.082870 56.000000
155.065290 28.000000
156.083600 24.000000
158.099270 50.000000
159.085660 47.000000
159.094300 23.000000
160.093860 33.000000
168.080900 91.000000
170.076280 23.000000
170.092480 35.000000
170.778470 28.000000
171.092290 21.000000
171.102200 26.000000
171.113080 54.000000
171.933140 22.000000
172.103120 55.000000
172.118260 21.000000
173.107320 683.000000
174.107410 62.000000
174.121800 26.000000
176.024610 23.000000
179.333110 27.000000
180.079790 213.000000
181.083250 23.000000
182.086670 19.000000
182.095230 28.000000
183.103150 28.000000
184.104580 33.000000
185.092800 21.000000
185.110760 60.000000
187.118940 23.000000
196.096590 26.000000
198.106600 27.000000
199.117390 27.000000
199.135440 31.000000
200.127200 47.000000
204.081440 34.000000
208.094940 19.000000
209.111950 28.000000
211.097950 64.000000
211.122800 460.000000
211.194000 34.000000
212.119980 41.000000
217.077730 23.000000
218.071240 28.000000
219.084300 26.000000
220.089260 33.000000
220.122970 23.000000
222.112290 24.000000
223.122650 65.000000
223.142550 21.000000
224.121280 30.000000
231.078140 30.000000
231.086460 49.000000
232.095140 161.000000
232.106610 186.000000
232.978840 99.000000
233.082700 18.000000
233.092820 58.000000
233.113850 399.000000
233.175640 19.000000
234.109130 224.000000
241.094730 24.000000
243.095920 46.000000
243.106050 40.000000
244.074310 30.000000
244.098430 104.000000
245.103930 23.000000
245.116090 46.000000
246.117250 23.000000
247.055760 24.000000
247.068630 22.000000
247.122410 1000.000000
248.122070 178.000000
248.132840 46.000000
249.134540 25.000000
256.088750 24.000000
256.101140 43.000000
256.114070 19.000000
257.081020 25.000000
257.105260 149.000000
257.123170 116.000000
258.103300 58.000000
259.113340 167.000000
259.125610 767.000000
260.110410 75.000000
260.125030 112.000000
260.136900 89.000000
261.115810 19.000000
261.132320 19.000000
268.100490 32.000000
268.110690 32.000000
269.095060 24.000000
269.111760 43.000000
270.119840 246.000000
271.106840 24.000000
271.128750 26.000000
273.097660 19.000000
273.135410 130.000000
273.152400 60.000000
273.919920 19.000000
274.137120 25.000000
274.155980 57.000000
275.143890 24.000000
275.157500 22.000000
283.131810 51.000000
285.106510 34.000000
285.118440 39.000000
285.141720 567.000000
285.761230 27.000000
287.146420 23.000000
288.160800 88.000000
289.151460 21.000000
290.159060 32.000000
290.174590 126.000000
290.197080 19.000000
291.167880 91.000000
304.175450 57.000000
316.170320 87.000000
316.194060 33.000000
317.181980 69.000000
318.517210 44.000000
347.194950 54.000000
347.215700 28.000000
347.233280 43.000000

>ms2
91.051140 79.000000
91.056470 106.000000
103.052200 30.000000
106.061370 40.000000
107.074230 29.000000
115.057960 104.000000
116.381450 29.000000
117.054040 116.000000
117.060690 120.000000
117.072380 77.000000
127.051120 54.000000
128.057950 51.000000
129.031920 29.000000
129.055180 39.000000
129.062190 35.000000
129.074710 42.000000
130.052140 51.000000
130.065060 1000.000000
131.070300 88.000000
132.065480 40.000000
132.080090 355.000000
133.085210 89.000000
140.047300 34.000000
142.061980 37.000000
142.069210 30.000000
143.068820 145.000000
143.078430 131.000000
144.081040 552.000000
145.082090 189.000000
147.382630 34.000000
152.065670 29.000000
156.062120 47.000000
156.073520 35.000000
156.080980 39.000000
157.080800 44.000000
158.082290 72.000000
158.591510 81.000000
159.104840 29.000000
164.654420 30.000000
165.054500 32.000000
165.071500 34.000000
167.066530 79.000000
167.083210 59.000000
168.071720 103.000000
168.086180 125.000000
169.076660 39.000000
170.098050 51.000000
171.094800 106.000000
172.101900 35.000000
173.107640 39.000000
174.613620 47.000000
177.061740 45.000000
179.071840 34.000000
179.080020 64.000000
179.088620 37.000000
180.077190 109.000000
180.088000 184.000000
181.078610 98.000000
183.088300 66.000000
183.101870 39.000000
193.083480 34.000000
194.099470 57.000000
195.098280 120.000000
196.085890 45.000000
197.112720 67.000000
200.136290 40.000000
202.073840 35.000000
204.081420 101.000000
205.094190 123.000000
206.093320 56.000000
207.088130 45.000000
208.101530 54.000000
214.076660 69.000000
214.129380 40.000000
216.082230 39.000000
217.077360 96.000000
217.098820 69.000000
219.032940 39.000000
219.073180 34.000000
219.090870 42.000000
220.103680 34.000000
220.122470 39.000000
227.061130 35.000000
228.086110 57.000000
229.077670 34.000000
229.085360 29.000000
230.100110 30.000000
231.091450 678.000000
231.103620 306.000000
231.118640 39.000000
232.061800 64.000000
232.074680 29.000000
232.098180 759.000000
233.088610 45.000000
233.108340 229.000000
234.089400 45.000000
234.116100 34.000000
242.097560 37.000000
243.079470 146.000000
243.104480 158.000000
244.093320 104.000000
244.103900 152.000000
244.908870 54.000000
245.117950 34.000000
247.095090 29.000000
253.089680 40.000000
255.072770 34.000000
255.091540 167.000000
255.105040 37.000000
256.067380 62.000000
256.087950 64.000000
256.100620 397.000000
257.102780 232.000000
258.107880 212.000000
258.119510 34.000000
259.113400 29.000000
267.107150 71.000000
268.073300 37.000000
268.096070 74.000000
268.116180 69.000000
269.110350 345.000000
270.119780 88.000000
274.133450 141.000000
283.117740 76.000000
285.135680 84.000000

>ms2
70.065030 7.000000
96.079420 17.000000
106.064520 6.000000
118.066490 14.000000
119.150230 6.000000
130.044890 7.000000
130.052900 26.000000
130.063580 92.000000
131.069990 27.000000
132.062730 6.000000
132.080180 125.000000
133.089260 7.000000
142.064850 24.000000
144.071270 16.000000
144.081530 117.000000
145.077480 15.000000
145.084170 14.000000
156.066270 13.000000
156.077900 8.000000
156.085190 9.000000
158.082090 7.000000
167.069560 10.000000
168.080250 36.000000
170.081950 5.000000
170.092480 7.000000
172.092590 21.000000
172.104480 20.000000
173.086350 8.000000
173.098570 67.000000
173.109760 39.000000
174.108370 6.000000
174.659480 5.000000
175.109150 8.000000
175.116880 17.000000
175.127470 29.000000
180.083220 15.000000
181.091750 8.000000
182.063740 21.000000
182.087220 6.000000
183.084300 13.000000
183.093550 37.000000
183.104580 15.000000
184.098370 10.000000
185.098020 11.000000
185.106950 9.000000
187.133260 10.000000
194.639500 7.000000
196.102280 10.000000
197.107570 7.000000
198.111240 7.000000
211.102100 6.000000
211.121280 149.000000
211.129530 56.000000
212.121310 12.000000
212.129230 14.000000
212.887600 7.000000
218.076900 7.000000
219.093980 11.000000
219.102800 7.000000
223.127790 22.000000
230.319560 6.000000
231.090390 32.000000
231.918590 5.000000
232.091160 25.000000
232.105440 51.000000
232.123380 14.000000
232.941940 5.000000
233.103610 62.000000
233.112930 44.000000
234.083360 8.000000
234.108200 16.000000
235.121380 8.000000
243.081710 9.000000
243.094020 12.000000
244.087200 7.000000
244.425640 7.000000
245.091750 13.000000
245.105360 16.000000
245.156220 6.000000
246.119640 10.000000
247.105610 13.000000
247.123400 112.000000
247.135510 23.000000
248.114530 18.000000
248.125270 17.000000
249.124770 9.000000
249.458370 5.000000
250.517200 6.000000
253.084660 5.000000
254.104800 7.000000
256.094850 9.000000
256.111240 7.000000
257.099670 42.000000
258.115570 55.000000
259.093480 5.000000
259.118470 126.000000
259.135960 7.000000
260.122680 55.000000
266.690190 15.000000
269.106780 48.000000
270.116970 43.000000
271.119110 6.000000
273.128390 17.000000
273.145970 38.000000
274.142000 25.000000
284.108640 6.000000
285.084900 9.000000
285.127470 51.000000
285.136810 86.000000
285.151340 17.000000
286.122650 10.000000
286.142360 60.000000
286.157960 6.000000
286.936370 7.000000
287.154880 9.000000
288.150150 10.000000
290.106350 7.000000
290.134550 6.000000
290.165470 196.000000
291.171200 25.000000
304.179750 63.000000
304.190460 18.000000
305.156950 10.000000
316.089260 7.000000
316.155910 24.000000
316.178680 276.000000
317.180540 63.000000
318.162630 7.000000
319.189210 9.000000
322.833310 6.000000
347.140260 16.000000
347.178740 22.000000
347.222960 1000.000000
347.333220 5.000000

>ms2
211.123470 7.000000
285.129210 5.000000
285.143520 10.000000
285.153080 7.000000
290.165410 24.000000
304.182590 22.000000
305.187930 5.000000
316.152590 7.000000
316.172150 32.000000
316.186190 72.000000
317.181880 15.000000
346.201260 6.000000
346.212860 8.000000
347.187740 27.000000
347.224300 1000.000000

>ms2
84.059780 18.000000
84.081040 23.000000
96.077630 71.000000
96.083650 31.000000
98.086670 32.000000
106.064090 23.000000
106.337270 72.000000
117.056390 28.000000
118.066940 49.000000
120.078220 28.000000
129.071110 21.000000
130.055790 47.000000
130.063950 250.000000
131.063810 20.000000
131.082600 28.000000
132.073670 152.000000
132.084410 176.000000
133.074550 26.000000
133.082080 31.000000
133.089680 40.000000
134.105990 24.000000
142.066240 58.000000
143.076970 19.000000
143.202550 18.000000
144.059520 32.000000
144.080700 689.000000
145.072200 21.000000
145.085820 132.000000
145.331010 31.000000
147.090270 18.000000
147.229030 23.000000
156.079150 138.000000
159.093810 32.000000
165.141560 31.000000
167.071380 33.000000
168.073240 27.000000
168.088500 72.000000
169.514510 21.000000
170.098540 113.000000
171.085330 19.000000
171.099440 29.000000
172.085750 33.000000
172.104520 115.000000
173.099760 123.000000
173.111590 650.000000
173.129030 36.000000
174.099410 30.000000
174.110400 23.000000
180.062390 55.000000
180.070760 26.000000
180.078980 18.000000
181.082790 18.000000
182.093370 66.000000
182.101000 41.000000
183.090650 90.000000
183.101260 29.000000
184.099410 32.000000
185.091350 33.000000
185.105330 57.000000
185.111430 58.000000
193.093810 18.000000
193.782360 25.000000
195.091900 36.000000
196.100850 57.000000
209.124050 23.000000
210.111330 26.000000
211.103180 75.000000
211.121260 405.000000
211.136760 73.000000
212.124160 86.000000
216.081300 24.000000
217.083500 27.000000
219.093250 18.000000
222.111850 39.000000
223.125110 111.000000
230.087800 21.000000
231.107700 77.000000
232.076600 18.000000
232.088490 83.000000
232.096440 195.000000
232.114330 118.000000
232.907440 44.000000
233.096510 89.000000
233.110730 234.000000
234.100190 31.000000
234.116210 96.000000
235.137100 40.000000
243.088850 23.000000
243.105580 18.000000
244.088010 62.000000
244.106900 30.000000
245.097430 23.000000
245.117110 43.000000
247.075490 29.000000
247.121510 726.000000
247.141280 53.000000
248.114350 41.000000
248.126710 87.000000
248.141010 102.000000
249.141300 72.000000
255.370830 18.000000
256.099460 72.000000
257.102780 266.000000
258.112670 96.000000
259.047270 31.000000
259.102140 29.000000
259.124330 1000.000000
260.090760 33.000000
260.127440 161.000000
260.140870 40.000000
261.899510 24.000000
268.999510 19.000000
269.108180 92.000000
269.121490 32.000000
269.165920 46.000000
269.813110 18.000000
270.102480 25.000000
270.113490 56.000000
270.125950 34.000000
270.136050 24.000000
271.118680 23.000000
272.112240 26.000000
272.123810 18.000000
272.569760 29.000000
273.139620 250.000000
273.147090 136.000000
274.141600 114.000000
277.727940 29.000000
283.095280 25.000000
283.115600 21.000000
284.086910 21.000000
285.141110 741.000000
285.820070 19.000000
286.140440 71.000000
286.160400 18.000000
287.145110 18.000000
287.159760 78.000000
289.157680 23.000000
290.120570 43.000000
290.155300 17.000000
290.167360 87.000000
291.167270 19.000000
298.331790 19.000000
304.181550 81.000000
305.188390 23.000000
316.125950 21.000000
316.179900 85.000000
316.195130 116.000000
316.206270 44.000000
317.185210 103.000000
347.235570 23.000000

>ms2
77.034030 59.000000
77.039690 29.000000
81.060680 61.000000
91.047260 32.000000
96.077890 38.000000
104.049030 54.000000
104.062580 64.000000
106.062200 112.000000
115.025830 48.000000
115.043930 72.000000
115.052470 136.000000
117.043090 40.000000
117.057750 64.000000
117.068620 34.000000
127.054940 58.000000
128.065980 42.000000
129.057330 37.000000
129.068310 74.000000
130.051770 58.000000
130.063830 1000.000000
131.072360 155.000000
131.078140 58.000000
132.079670 214.000000
142.061770 93.000000
142.068970 50.000000
143.067720 94.000000
144.069520 46.000000
144.080520 224.000000
145.087250 67.000000
147.083250 27.000000
152.061420 35.000000
153.067980 32.000000
154.007160 37.000000
154.060910 40.000000
154.066680 34.000000
156.074130 154.000000
156.088760 35.000000
158.088210 98.000000
158.594090 53.000000
158.604030 109.000000
159.094450 197.000000
165.068340 46.000000
166.047410 45.000000
167.054430 58.000000
167.072620 232.000000
168.071750 69.000000
168.085950 37.000000
170.081890 32.000000
173.097820 42.000000
177.066090 29.000000
180.083590 62.000000
181.023560 40.000000
181.086170 30.000000
184.085950 37.000000
192.074770 43.000000
195.089740 43.000000
195.107070 38.000000
196.091510 35.000000
196.098500 53.000000
204.091480 38.000000
205.083650 102.000000
206.078190 35.000000
206.097120 72.000000
207.067860 32.000000
207.088470 158.000000
208.092470 35.000000
217.088010 53.000000
218.088940 114.000000
219.068180 46.000000
219.090730 82.000000
219.101380 53.000000
230.087360 29.000000
231.091580 504.000000
231.105510 72.000000
232.061130 37.000000
232.069240 40.000000
232.083540 96.000000
232.099470 326.000000
233.023030 38.000000
233.094600 35.000000
233.110030 34.000000
242.092790 37.000000
243.080730 61.000000
243.091550 173.000000
244.099990 38.000000
244.108220 38.000000
245.092580 29.000000
245.105590 72.000000
246.115970 67.000000
247.119080 48.000000
248.118880 101.000000
254.092180 29.000000
254.107650 38.000000
255.088090 130.000000
255.103090 126.000000
256.084410 72.000000
256.094540 61.000000
256.110870 32.000000
257.071900 83.000000
257.098080 149.000000
257.108460 234.000000
258.099000 56.000000
259.122710 32.000000
259.135680 32.000000
261.125790 37.000000
268.095520 32.000000
268.109440 67.000000
269.105160 192.000000
270.097870 53.000000
272.134030 37.000000
281.096310 34.000000
283.100650 38.000000
285.144590 43.000000

>ms2
84.081260 12.000000
96.081160 19.000000
115.047350 6.000000
115.054700 7.000000
120.082860 13.000000
130.063770 110.000000
130.069820 34.000000
131.063280 41.000000
131.071960 15.000000
132.066410 5.000000
132.080140 61.000000
132.089650 17.000000
143.077590 19.000000
144.060330 7.000000
144.074190 42.000000
144.081570 79.000000
145.082460 7.000000
145.089550 11.000000
146.657760 6.000000
147.094350 6.000000
158.075490 8.000000
159.089170 6.000000
160.094710 8.000000
168.067020 10.000000
168.075710 44.000000
168.086460 10.000000
170.090410 11.000000
172.079860 6.000000
172.091580 12.000000
173.104810 168.000000
174.109890 27.000000
175.100510 7.000000
175.109630 22.000000
175.125820 10.000000
175.138260 11.000000
176.126400 9.000000
180.078410 20.000000
181.079940 7.000000
182.086790 7.000000
182.100490 24.000000
183.083390 13.000000
183.094850 32.000000
183.311940 8.000000
185.106140 50.000000
187.121510 5.000000
196.062760 13.000000
196.138230 10.000000
197.095460 6.000000
197.102400 7.000000
199.121660 24.000000
207.095600 9.000000
209.094250 7.000000
209.105830 12.000000
210.112080 15.000000
211.116440 40.000000
211.125180 60.000000
211.231610 8.000000
212.126140 46.000000
215.152790 6.000000
217.089920 7.000000
218.652450 10.000000
223.112490 19.000000
223.121840 18.000000
224.135850 10.000000
228.075990 9.000000
231.037370 5.000000
231.105010 15.000000
232.085020 16.000000
232.097370 89.000000
232.114720 5.000000
233.103530 86.000000
234.102100 7.000000
234.113970 12.000000
241.059940 5.000000
245.313160 7.000000
246.113400 16.000000
247.091260 6.000000
247.111800 50.000000
247.123990 150.000000
248.122280 45.000000
248.633620 5.000000
249.125350 5.000000
254.097600 6.000000
255.085050 19.000000
256.088320 25.000000
256.111080 18.000000
257.103760 49.000000
257.424410 10.000000
258.098330 6.000000
258.112030 6.000000
259.099850 6.000000
259.114500 25.000000
259.126310 84.000000
260.115570 26.000000
260.131590 13.000000
267.079410 7.000000
269.110960 26.000000
270.099730 12.000000
270.114900 41.000000
271.117250 10.000000
272.111080 7.000000
273.134700 43.000000
273.147430 15.000000
274.148250 10.000000
275.147490 8.000000
282.116000 8.000000
285.113250 7.000000
285.138060 163.000000
286.127530 7.000000
286.140080 7.000000
288.128300 13.000000
289.148250 7.000000
290.113740 5.000000
290.128510 10.000000
290.143520 13.000000
290.167210 94.000000
291.153230 6.000000
291.170590 9.000000
304.176940 56.000000
304.195250 14.000000
305.193080 33.000000
307.703220 7.000000
316.128720 7.000000
316.153260 12.000000
316.177310 229.000000
316.188780 78.000000
316.613620 6.000000
317.169980 11.000000
317.187070 53.000000
317.311950 6.000000
324.130580 5.000000
329.150240 10.000000
346.422150 6.000000
346.939880 6.000000
347.167510 5.000000
347.186770 24.000000
347.223630 1000.000000

>ms2
144.078610 6.000000
173.106750 10.000000
175.126660 10.000000
259.127320 11.000000
285.153560 10.000000
290.166020 18.000000
291.171360 8.000000
304.182950 6.000000
316.159390 8.000000
316.181610 78.000000
316.205720 5.000000
317.186890 24.000000
317.202420 5.000000
346.211980 7.000000
347.158870 7.000000
347.175480 10.000000
347.222990 1000.000000

>ms2
69.043020 46.000000
70.068500 66.000000
84.078190 58.000000
96.076300 41.000000
96.084900 127.000000
106.061300 94.000000
106.667020 20.000000
128.049210 28.000000
130.065460 382.000000
130.075350 87.000000
130.955180 25.000000
132.054720 35.000000
132.071520 45.000000
132.081420 381.000000
133.085890 35.000000
142.051150 22.000000
142.061230 70.000000
144.057430 20.000000
144.075780 306.000000
144.082890 323.000000
144.583400 20.000000
145.083360 22.000000
147.095470 63.000000
154.063390 36.000000
156.077260 64.000000
156.087330 20.000000
158.078310 54.000000
159.090030 48.000000
167.084530 35.000000
168.079730 99.000000
169.073990 29.000000
171.085460 22.000000
172.098540 88.000000
173.108290 1000.000000
174.111270 71.000000
175.117650 30.000000
175.125060 33.000000
180.070270 22.000000
180.081010 81.000000
182.103760 63.000000
183.082530 40.000000
183.095050 25.000000
185.100200 23.000000
185.109590 94.000000
194.095540 89.000000
194.322720 42.000000
195.100250 22.000000
196.098430 36.000000
196.108570 30.000000
196.635190 29.000000
199.123670 64.000000
206.084960 24.000000
208.101380 107.000000
209.099550 39.000000
209.106830 28.000000
210.099960 28.000000
211.105330 25.000000
211.124680 402.000000
211.141300 41.000000
212.136200 24.000000
219.087600 86.000000
220.083980 22.000000
223.115450 24.000000
226.134280 40.000000
231.092000 83.000000
232.101380 329.000000
233.108730 617.000000
234.097960 107.000000
234.120160 60.000000
235.042710 61.000000
242.093700 23.000000
244.051700 35.000000
244.095470 34.000000
244.110610 87.000000
245.100520 33.000000
245.113360 101.000000
246.115540 49.000000
247.111480 177.000000
247.124680 759.000000
247.141340 63.000000
248.136200 51.000000
249.132050 39.000000
250.305450 25.000000
256.108490 23.000000
257.107850 65.000000
257.116360 192.000000
258.120940 80.000000
259.121000 654.000000
259.134980 110.000000
260.123600 112.000000
260.143220 40.000000
268.109890 49.000000
269.099910 46.000000
270.100340 53.000000
270.111510 129.000000
271.090150 34.000000
273.115690 24.000000
273.130490 114.000000
273.144470 81.000000
274.139470 49.000000
276.158510 30.000000
284.123350 33.000000
285.129210 302.000000
285.142700 724.000000
286.113490 20.000000
286.129360 119.000000
286.154300 101.000000
288.145080 23.000000
290.103700 20.000000
290.162170 69.000000
290.173580 164.000000
291.164460 30.000000
291.174740 20.000000
291.192200 24.000000
301.171390 35.000000
304.143490 40.000000
305.192780 24.000000
316.172730 175.000000
317.181700 23.000000
347.203090 24.000000
347.226410 82.000000
347.252780 30.000000

>ms2
84.075120 42.000000
94.063260 51.000000
101.040500 30.000000
103.042860 48.000000
106.065330 39.000000
115.056120 67.000000
117.053470 120.000000
117.060050 83.000000
117.071050 189.000000
118.058070 55.000000
118.078290 37.000000
127.052980 104.000000
128.057940 39.000000
129.068970 60.000000
130.059970 225.000000
130.065290 648.000000
131.068010 262.000000
132.064420 35.000000
132.078860 244.000000
133.199580 32.000000
142.069140 71.000000
143.070950 65.000000
143.088710 32.000000
144.070560 90.000000
144.081100 1000.000000
145.088820 51.000000
154.047760 44.000000
155.080900 42.000000
156.083980 74.000000
157.527830 35.000000
158.086980 62.000000
160.102680 41.000000
166.080230 58.000000
167.063920 41.000000
167.079540 42.000000
168.074260 147.000000
168.082840 85.000000
170.085780 57.000000
170.096820 85.000000
171.082240 51.000000
171.097820 173.000000
172.084880 62.000000
177.074600 34.000000
180.089190 58.000000
180.247450 34.000000
181.085750 119.000000
183.082370 35.000000
190.060210 60.000000
193.088760 39.000000
196.093030 46.000000
196.104310 57.000000
199.126360 53.000000
202.076750 32.000000
204.090380 35.000000
205.084670 80.000000
206.081300 58.000000
206.092770 41.000000
215.076190 57.000000
216.078840 37.000000
216.828410 42.000000
217.086400 147.000000
218.066930 35.000000
218.090190 101.000000
218.106020 46.000000
219.079790 51.000000
219.095170 53.000000
227.073750 39.000000
229.079350 42.000000
230.075200 48.000000
231.071790 48.000000
231.089230 218.000000
231.099110 257.000000
232.099640 788.000000
233.057420 34.000000
233.087300 67.000000
233.105900 62.000000
233.112030 166.000000
233.160260 60.000000
241.091160 30.000000
242.088330 122.000000
243.073140 35.000000
243.093780 166.000000
245.106250 122.000000
246.095860 35.000000
247.096450 53.000000
247.112980 97.000000
254.088520 35.000000
255.091930 373.000000
256.088750 140.000000
256.100430 329.000000
256.110810 140.000000
257.107850 241.000000
257.116790 145.000000
258.103940 115.000000
259.093480 80.000000
259.106540 30.000000
259.126400 41.000000
264.079770 58.000000
266.092960 58.000000
268.105160 67.000000
269.109890 573.000000
270.081240 44.000000
270.123780 30.000000
271.140290 41.000000
273.139500 53.000000
281.094360 44.000000
282.057400 50.000000
282.118040 32.000000
283.103940 51.000000
283.119110 37.000000
283.131740 94.000000
298.114110 32.000000
347.211240 32.000000

