>compound PR11383064
>parentmass 220.0834
>ionization [M+H]+
>formula C9H17NOS2
>rt 384.600000
>profile qtof
#smiles_iso CS(=O)CCCCCCCN=C=S
#smiles_can CS(=O)CCCCCCCN=C=S
#inchikey OGYHCBGORZWBPH-UHFFFAOYSA-N
#pubchem_id 9837367
#mb_accession PR310895

>ms2peaks
87.030650 31.000000
95.975490 17.000000
110.089900 19.000000
123.107800 25.000000
156.087370 56.000000
206.597990 20.000000
218.124790 18.000000
220.075100 37.000000
220.082150 98.000000

