>compound PR11393612
>parentmass 451.1234880000001
>ionization [M+H]+
>formula C21H22O11
>rt 208.438020
>profile qtof
#smiles_iso C1[C@H](OC2=C(C1=O)C=CC(=C2O)O[C@H]3[C@@H]([C@H]([C@@H]([C@H](O3)CO)O)O)O)C4=CC(=C(C=C4)O)O
#smiles_can C1C(OC2=C(C1=O)C=CC(=C2O)OC3C(C(C(C(O3)CO)O)O)O)C4=CC(=C(C=C4)O)O
#inchikey DGGOLFCPSUVVHX-RTHJTPBESA-N
#pubchem_id 101781
#mb_accession PR302342,PR302348,PR302354,PR302360,PR302365,PR302371,PR302376,PR302381,PR302386,PR302391,PR302397,PR302402

>ms2peaks
125.028970 31.000000
145.028380 19.000000
153.013260 88.000000
153.024660 22.000000
163.038530 149.000000
164.042690 18.000000
179.032320 36.000000
225.051670 38.000000
235.034230 22.000000
236.883190 43.000000
253.052400 19.000000
271.051570 27.000000
271.063870 25.000000
271.075680 22.000000
272.060090 19.000000
274.040310 33.000000
288.046780 19.000000
288.056400 14.000000
289.046940 60.000000
289.069400 1000.000000
290.063750 41.000000
290.079280 186.000000
291.079710 18.000000
291.093440 15.000000
451.102200 44.000000
451.133850 22.000000

>ms2peaks
274.192410 21.000000
289.014530 21.000000
289.071930 1000.000000
290.073330 260.000000
291.704680 14.000000
451.106840 54.000000
451.125060 118.000000

>ms2peaks
107.012860 57.000000
145.021040 50.000000
153.001800 61.000000
153.018860 352.000000
163.040250 1000.000000
179.031830 103.000000
197.050190 46.000000
197.061450 42.000000
220.069990 68.000000
225.048130 53.000000
227.064220 37.000000
229.051100 37.000000
229.106660 37.000000
235.047180 39.000000
243.055100 53.000000
253.052090 199.000000
254.050260 90.000000
269.565700 39.000000
271.038240 53.000000
271.072020 53.000000
272.056550 59.000000
274.048250 140.000000
275.037230 59.000000
289.038210 44.000000
289.054380 149.000000
289.074220 427.000000
289.084410 210.000000
290.071960 46.000000

>ms2peaks
79.012990 142.000000
107.048770 83.000000
117.037540 439.000000
117.049460 59.000000
125.027780 100.000000
125.035530 180.000000
127.041080 118.000000
135.036700 59.000000
135.043910 242.000000
142.063450 104.000000
145.018420 76.000000
145.027860 201.000000
153.000760 59.000000
153.017440 1000.000000
155.024150 135.000000
156.784840 76.000000
159.047550 59.000000
163.009950 145.000000
163.023180 69.000000
163.033580 97.000000
163.048750 104.000000
169.058880 73.000000
174.186050 66.000000
197.064000 239.000000
215.060360 69.000000

>ms2peaks
79.024310 48.000000
141.063930 40.000000
153.018780 178.000000
163.015520 23.000000
163.037020 614.000000
164.036150 34.000000
225.056490 59.000000
244.073550 29.000000
245.069080 39.000000
247.063400 34.000000
271.065120 92.000000
287.064450 37.000000
289.071530 1000.000000
290.068480 132.000000
406.063750 23.000000
413.964900 23.000000
451.072140 44.000000
451.137630 69.000000

>ms2peaks
287.051450 18.000000
289.073090 1000.000000
290.013180 10.000000
290.044650 11.000000
290.063750 55.000000
290.076020 142.000000
291.066740 28.000000
291.091340 24.000000
292.786900 10.000000
299.628270 12.000000
315.052950 14.000000
450.110080 14.000000
451.079100 23.000000
451.110930 112.000000
451.132110 242.000000

>ms2peaks
111.899620 19.000000
116.960120 26.000000
125.028470 32.000000
128.036180 21.000000
151.643750 25.000000
152.999980 33.000000
153.015060 170.000000
153.023470 182.000000
154.019320 34.000000
161.015640 29.000000
163.039790 1000.000000
164.038420 20.000000
179.040910 132.000000
215.081150 29.000000
225.038120 23.000000
225.052510 72.000000
226.046540 25.000000
226.058180 28.000000
238.575470 23.000000
243.042450 26.000000
243.072510 43.000000
248.029510 28.000000
253.030470 21.000000
253.048980 74.000000
253.059540 34.000000
257.704070 41.000000
271.058380 141.000000
271.077390 32.000000
274.037200 28.000000
274.051060 117.000000
275.413510 24.000000
287.059270 25.000000
289.025510 34.000000
289.062560 309.000000
289.076570 292.000000
290.083890 64.000000
291.055790 42.000000
292.073940 36.000000
356.978150 25.000000

>ms2peaks
54.056600 78.000000
79.019360 58.000000
89.026920 106.000000
89.036100 222.000000
94.864650 96.000000
97.027830 113.000000
111.049420 113.000000
117.031570 99.000000
117.074900 137.000000
117.990370 61.000000
118.039110 205.000000
125.023350 85.000000
129.071580 126.000000
135.044490 1000.000000
135.049320 416.000000
135.061110 113.000000
141.060290 99.000000
145.023060 290.000000
145.032060 300.000000
153.019550 860.000000
153.033690 256.000000
154.030940 106.000000
159.042400 72.000000
160.045210 130.000000
163.034260 126.000000
163.042620 358.000000
164.024370 92.000000
164.611710 99.000000
169.058850 92.000000
170.066270 85.000000
180.041700 68.000000
197.059520 184.000000
215.066510 75.000000
225.047550 58.000000
230.052060 102.000000

>ms2peaks
107.046940 17.000000
145.023270 30.000000
153.007680 38.000000
153.024550 133.000000
161.033360 26.000000
163.029020 60.000000
163.040100 121.000000
163.055250 21.000000
164.042510 24.000000
182.037200 38.000000
197.068240 24.000000
253.051860 45.000000
271.070590 41.000000
272.065490 50.000000
289.002560 41.000000
289.070160 1000.000000
290.069240 112.000000
290.080230 115.000000
291.073790 24.000000
291.088960 38.000000
292.073000 24.000000
451.111240 21.000000
451.128390 69.000000

>ms2peaks
137.057620 15.000000
289.036650 17.000000
289.071410 1000.000000
290.064970 105.000000
290.079990 124.000000
291.065160 15.000000
355.066800 10.000000
420.026210 15.000000
451.089110 35.000000
451.130370 163.000000

>ms2peaks
115.036320 41.000000
120.456050 48.000000
123.006650 48.000000
125.023450 50.000000
136.137470 37.000000
145.028200 169.000000
151.039580 72.000000
153.016190 362.000000
154.973100 45.000000
155.411250 41.000000
163.024230 54.000000
163.039260 820.000000
164.032460 45.000000
179.032240 136.000000
186.756290 37.000000
225.055760 37.000000
235.034120 35.000000
243.059430 89.000000
253.049260 161.000000
253.062990 45.000000
261.541170 64.000000
271.047240 39.000000
271.061770 277.000000
274.044980 62.000000
274.053470 39.000000
276.051270 56.000000
287.041810 48.000000
289.018040 35.000000
289.042080 45.000000
289.070740 1000.000000
289.700260 35.000000
290.018980 41.000000
290.055510 35.000000
290.077210 355.000000
290.173860 35.000000
290.417880 66.000000
291.050630 37.000000

>ms2peaks
79.020840 89.000000
89.039210 143.000000
117.026720 263.000000
117.036380 228.000000
125.021760 429.000000
135.010280 112.000000
135.033370 80.000000
135.043750 768.000000
145.031420 214.000000
153.015470 1000.000000
153.022050 250.000000
163.040880 183.000000
164.040620 116.000000
166.296680 76.000000
169.059780 147.000000
175.474720 112.000000
197.062840 129.000000
253.065800 85.000000
255.989060 89.000000
257.036160 156.000000

