>compound PR11580749
>parentmass 337.1910545
>ionization [M+H]+
>formula C21H24N2O2
>rt 302.293020
>profile qtof
#smiles_iso CCC1=C[C@H]2C[C@]3([C@@H]1N(C2)CCC4=C3NC5=CC=CC=C45)C(=O)OC
#smiles_can CCC1=CC2CC3(C1N(C2)CCC4=C3NC5=CC=CC=C45)C(=O)OC
#inchikey CMKFQVZJOWHHDV-NQZBTDCJSA-N
#pubchem_id 5458190
#mb_accession PR301269,PR301273,PR301277,PR301281,PR301285,PR301289,PR301293,PR301300,PR301304

>ms2peaks
59.013920 5.000000
93.063970 18.000000
93.070840 84.000000
94.073530 10.000000
117.070210 8.000000
133.065700 29.000000
143.072190 11.000000
144.046860 7.000000
144.081270 1000.000000
144.113950 8.000000
145.084270 125.000000
146.088490 11.000000
165.090840 94.000000
166.094970 9.000000
168.092580 5.000000
173.106160 128.000000
174.111280 15.000000
218.099380 5.000000
233.114490 6.000000
235.130340 6.000000
248.136750 7.000000
337.186340 581.000000
337.200230 416.000000
337.238280 15.000000
337.254030 6.000000

>ms2peaks
144.081090 63.000000
165.091400 11.000000
173.107880 26.000000
337.191220 1000.000000
337.243130 30.000000

>ms2peaks
59.012940 6.000000
77.038600 8.000000
91.056010 17.000000
93.070080 223.000000
94.073380 21.000000
117.072290 6.000000
133.065250 56.000000
144.081280 1000.000000
144.114380 7.000000
145.085210 122.000000
146.085450 6.000000
165.092710 52.000000
166.092740 6.000000
168.082280 11.000000
169.086700 7.000000
173.108430 9.000000
219.091630 6.000000
219.108890 10.000000
233.118390 6.000000
234.128270 7.000000
248.147660 13.000000
249.147860 7.000000

>ms2peaks
59.011710 11.000000
76.968980 5.000000
77.038770 83.000000
78.042750 10.000000
79.052530 8.000000
79.131060 5.000000
91.054230 184.000000
91.062350 22.000000
91.248450 5.000000
92.059910 25.000000
93.070560 164.000000
93.677090 5.000000
94.072590 25.000000
94.077220 9.000000
103.054790 31.000000
103.061900 7.000000
105.060840 6.000000
105.070180 67.000000
105.078100 6.000000
106.036970 6.000000
115.054240 79.000000
116.060490 17.000000
117.057440 21.000000
117.067340 69.000000
117.074070 55.000000
118.073890 15.000000
127.050990 45.000000
127.056950 41.000000
128.050690 100.000000
129.044910 7.000000
129.058350 33.000000
130.066880 24.000000
131.063510 10.000000
131.071080 7.000000
133.044050 5.000000
133.067920 27.000000
134.065830 9.000000
142.064580 15.000000
143.059460 8.000000
143.073200 190.000000
144.080580 1000.000000
145.083680 108.000000
154.070980 13.000000
157.087910 5.000000
165.066480 7.000000
165.074130 16.000000
166.061050 8.000000
167.074070 23.000000
168.071270 7.000000
168.078370 16.000000
169.079100 8.000000
176.073810 7.000000
178.066680 9.000000
178.075290 10.000000
180.076260 20.000000
180.084200 27.000000
181.086320 9.000000
189.751450 6.000000
190.066570 7.000000
191.066090 10.000000
192.075940 9.000000
193.085430 13.000000
194.096180 7.000000
195.088230 5.000000
203.065200 5.000000
203.075610 12.000000
204.062240 10.000000
204.079010 114.000000
205.087430 88.000000
206.093780 41.000000
217.091000 60.000000
218.096980 157.000000
218.710620 5.000000
219.079820 8.000000
219.102070 81.000000
219.116850 12.000000
220.079300 12.000000
220.101090 8.000000
220.113130 16.000000
230.082900 6.000000
230.090990 7.000000
231.098560 6.000000
232.073060 11.000000
232.092470 7.000000
232.115860 29.000000
233.113680 9.000000
233.125370 39.000000
235.135740 7.000000
246.100770 10.000000
248.143660 13.000000
337.192170 21.000000

>ms2peaks
93.070370 104.000000
94.072220 11.000000
105.072200 5.000000
130.064060 5.000000
133.064820 28.000000
143.071000 10.000000
144.080980 962.000000
145.084690 111.000000
146.091000 5.000000
165.091280 87.000000
166.091890 9.000000
168.081450 5.000000
173.107270 122.000000
174.110320 13.000000
174.117100 6.000000
205.084580 7.000000
218.097410 7.000000
229.109830 6.000000
305.169040 5.000000
337.190800 1000.000000
337.242980 25.000000

>ms2peaks
144.081120 62.000000
173.108140 32.000000
336.182340 5.000000
337.192410 1000.000000
337.245540 31.000000

>ms2peaks
77.038830 10.000000
91.055460 19.000000
93.070520 217.000000
94.072550 17.000000
105.071890 7.000000
130.066820 6.000000
133.064960 50.000000
143.071350 6.000000
144.080800 1000.000000
144.115750 9.000000
145.084210 134.000000
146.089430 11.000000
165.091050 46.000000
168.082550 6.000000
173.108440 9.000000
219.101530 13.000000
219.111420 7.000000
220.118880 11.000000
248.148910 10.000000

>ms2peaks
77.037810 7.000000
91.055500 12.000000
93.070160 121.000000
105.067570 7.000000
117.070770 9.000000
133.065370 20.000000
144.080730 919.000000
144.114620 6.000000
145.085050 90.000000
146.089870 7.000000
156.080960 5.000000
165.091950 90.000000
166.097090 10.000000
168.084150 9.000000
173.108310 94.000000
174.111940 13.000000
218.100360 9.000000
219.108340 6.000000
220.110670 6.000000
234.126530 6.000000
248.145750 10.000000
308.159480 6.000000
337.191680 1000.000000
337.244140 23.000000

>ms2peaks
144.081100 64.000000
145.085330 7.000000
165.089660 7.000000
173.108670 36.000000
337.190730 1000.000000
337.243160 34.000000

