>compound PR11541829
>parentmass 353.1386
>ionization [M+H]+
>formula C21H20O5
>rt 481.200000
>profile qtof
#smiles_iso CC(=CCC1=C(C2=C(C=C1O)OC=C(C2=O)C3=CC=C(C=C3)OC)O)C
#smiles_can CC(=CCC1=C(C2=C(C=C1O)OC=C(C2=O)C3=CC=C(C=C3)OC)O)C
#inchikey JQNSUDIGIIGIOL-UHFFFAOYSA-N
#pubchem_id 5317478
#mb_accession PR310755

>ms2peaks
69.000630 33.000000
81.035130 20.000000
105.031650 20.000000
107.010090 37.000000
107.047720 21.000000
117.070690 17.000000
129.073900 27.000000
131.049940 23.000000
135.046660 28.000000
137.021320 24.000000
145.061080 36.000000
149.021270 22.000000
151.036250 23.000000
152.066020 20.000000
161.021500 23.000000
161.057460 17.000000
163.005780 17.000000
165.010500 17.000000
165.020200 62.000000
170.082050 18.000000
177.088090 24.000000
180.061510 17.000000
182.075550 29.000000
187.074570 35.000000
205.084820 43.000000
210.059140 39.000000
211.073880 18.000000
214.063260 18.000000
238.063110 17.000000
241.078700 22.000000
243.071110 27.000000
255.074130 17.000000
256.068180 23.000000
265.039180 19.000000
269.078920 17.000000
269.090670 40.000000
270.088440 30.000000
285.079040 20.000000
297.017850 22.000000
297.073210 471.000000
298.082120 173.000000
299.052800 17.000000
299.077640 30.000000
299.087460 29.000000
314.085480 17.000000
321.082950 17.000000
323.091980 23.000000
334.317320 20.000000
351.251190 19.000000
353.136410 1240.000000

