>compound PR11764392
>parentmass 609.2806575076922
>ionization [M+H]+
>formula C33H40N2O9
>rt 367.031077
>profile qtof
#smiles_iso COC1C(CC2CN3CCC4=C(C3CC2C1C(=O)OC)NC5=C4C=CC(=C5)OC)OC(=O)C6=CC(=C(C(=C6)OC)OC)OC
#smiles_can COC1C(CC2CN3CCC4=C(C3CC2C1C(=O)OC)NC5=C4C=CC(=C5)OC)OC(=O)C6=CC(=C(C(=C6)OC)OC)OC
#inchikey QEVHRUUCFGRFIF-UHFFFAOYSA-N
#pubchem_id 5052
#mb_accession PR300983,PR300987,PR300991,PR300995,PR300999,PR301003,PR301007,PR301011,PR301015,PR301019,PR301023,PR301027,PR310648

>ms2
174.091690 95.000000
175.092220 12.000000
192.100970 16.000000
195.065980 172.000000
196.069270 18.000000
224.128920 16.000000
236.128770 33.000000
237.133260 5.000000
365.183140 15.000000
368.149140 5.000000
397.211820 92.000000
398.214050 26.000000
436.193850 12.000000
448.194790 85.000000
449.193660 19.000000
449.208770 10.000000
609.179200 5.000000
609.208130 6.000000
609.280820 1000.000000
609.353760 19.000000

>ms2
609.282290 1000.000000
609.355410 19.000000

>ms2
148.067210 6.000000
148.077840 34.000000
159.066190 6.000000
160.075100 5.000000
161.079730 5.000000
162.087920 8.000000
174.091480 471.000000
175.095090 76.000000
176.107210 33.000000
188.103840 5.000000
192.101960 79.000000
193.100050 7.000000
193.107850 8.000000
195.065370 1000.000000
196.068480 128.000000
197.069820 17.000000
200.111270 13.000000
204.102260 12.000000
212.098910 7.000000
215.117950 14.000000
224.128330 129.000000
225.132890 25.000000
228.119610 6.000000
236.129730 220.000000
237.132370 29.000000
237.143370 8.000000
242.138350 5.000000
254.133470 6.000000
322.143770 7.000000
333.154450 10.000000
334.159550 6.000000
336.162110 20.000000
337.146360 8.000000
348.152770 13.000000
365.155150 7.000000
365.186400 140.000000
366.178340 10.000000
366.192440 46.000000
367.188020 7.000000
368.144260 32.000000
368.159060 21.000000
368.188480 10.000000
397.211610 704.000000
398.149230 7.000000
398.178190 7.000000
398.215240 207.000000
399.219760 29.000000
404.174840 11.000000
413.205930 15.000000
434.177670 5.000000
436.199740 138.000000
437.193600 18.000000
437.211360 29.000000
438.200740 5.000000
448.147740 12.000000
448.195770 724.000000
449.200440 209.000000
450.202580 39.000000
577.260070 24.000000
578.257260 11.000000
609.280460 816.000000

>ms2
79.056170 9.000000
81.070990 6.000000
91.054210 12.000000
94.066850 13.000000
96.059650 9.000000
106.065710 8.000000
109.066560 22.000000
111.044110 19.000000
118.064140 8.000000
120.080840 24.000000
120.088940 7.000000
121.067500 6.000000
121.086530 5.000000
122.031000 6.000000
123.081560 7.000000
124.047420 7.000000
124.053980 17.000000
130.062480 9.000000
130.070800 9.000000
131.066570 9.000000
131.074260 29.000000
132.083220 19.000000
137.059840 11.000000
139.076450 43.000000
142.067170 15.000000
143.058590 5.000000
143.073590 48.000000
144.074260 12.000000
144.081150 38.000000
145.088610 17.000000
147.075640 16.000000
147.084120 6.000000
148.077580 43.000000
149.058870 13.000000
150.092220 6.000000
152.046690 57.000000
153.050750 12.000000
154.067370 5.000000
158.058750 7.000000
159.068270 141.000000
160.076100 65.000000
161.075820 6.000000
161.084960 14.000000
162.092670 18.000000
163.103100 6.000000
167.071690 112.000000
168.073910 12.000000
173.085390 8.000000
174.092180 919.000000
175.093980 146.000000
176.101460 7.000000
184.078700 9.000000
186.092970 17.000000
187.103520 9.000000
188.108570 13.000000
192.096950 37.000000
192.106030 44.000000
193.106290 12.000000
195.032420 8.000000
195.065660 1000.000000
196.069600 123.000000
197.071440 7.000000
197.081820 6.000000
198.093920 12.000000
199.100330 11.000000
200.107590 35.000000
201.099790 7.000000
201.115650 9.000000
204.103350 30.000000
206.116880 6.000000
212.103810 8.000000
212.116610 7.000000
214.115100 7.000000
215.117860 7.000000
223.100170 6.000000
224.127640 29.000000
227.128390 11.000000
236.107960 7.000000
236.129760 85.000000
237.131350 19.000000
238.118440 16.000000
238.129900 7.000000
239.117400 10.000000
239.136110 6.000000
251.115260 12.000000
251.127730 14.000000
253.128390 6.000000
253.143770 8.000000
254.119870 5.000000
260.113530 6.000000
261.111110 7.000000
262.126400 12.000000
263.131900 7.000000
265.127930 7.000000
265.142210 16.000000
266.120940 5.000000
266.145020 7.000000
275.123990 6.000000
276.138370 14.000000
277.132260 7.000000
277.144810 7.000000
290.136140 6.000000
304.136290 8.000000
305.168490 7.000000
336.157810 6.000000
365.166350 5.000000
365.181340 9.000000
365.194370 9.000000
366.190830 13.000000
448.204530 10.000000

>ms2
174.091430 90.000000
175.094680 13.000000
192.103040 20.000000
195.065220 168.000000
196.069490 23.000000
224.128860 16.000000
236.128920 32.000000
365.187070 22.000000
366.184300 5.000000
397.213320 92.000000
398.215550 25.000000
436.198850 14.000000
448.198730 84.000000
449.204070 22.000000
609.221860 10.000000
609.279790 1000.000000
609.353450 16.000000

>ms2
609.204590 10.000000
609.281190 1000.000000
609.354250 17.000000

>ms2
94.067850 6.000000
148.078370 26.000000
160.077510 9.000000
167.069670 6.000000
172.072100 5.000000
174.069090 6.000000
174.092060 470.000000
175.095470 61.000000
176.107070 25.000000
186.092350 7.000000
188.106230 8.000000
190.091350 8.000000
192.102970 94.000000
193.102360 9.000000
195.024220 5.000000
195.065780 1000.000000
196.068480 112.000000
197.073010 12.000000
200.112350 16.000000
201.108510 7.000000
204.102160 17.000000
215.113100 12.000000
215.128310 6.000000
222.110610 12.000000
224.129120 93.000000
225.126140 7.000000
225.137760 12.000000
229.129960 7.000000
236.129060 217.000000
237.119670 8.000000
237.133680 27.000000
238.138280 6.000000
242.141280 5.000000
254.140670 10.000000
290.119230 7.000000
322.155700 7.000000
333.166900 6.000000
336.148990 9.000000
336.162630 15.000000
348.158540 15.000000
348.176180 7.000000
365.185550 142.000000
366.173250 12.000000
366.194340 26.000000
368.151460 45.000000
368.192020 6.000000
369.179080 6.000000
380.191680 8.000000
397.168090 7.000000
397.211610 722.000000
398.216280 189.000000
399.218960 25.000000
404.169070 20.000000
413.203250 16.000000
434.168090 6.000000
436.180850 28.000000
436.196810 118.000000
437.180570 7.000000
437.203550 29.000000
448.123750 9.000000
448.150420 13.000000
448.195980 718.000000
449.199620 214.000000
450.197240 29.000000
450.216710 10.000000
451.210510 8.000000
577.259520 30.000000
578.258540 11.000000
609.197690 16.000000
609.279790 819.000000

>ms2
77.041780 5.000000
91.055040 10.000000
92.058270 5.000000
94.066040 11.000000
96.060150 6.000000
107.048160 5.000000
109.065960 12.000000
111.042750 21.000000
115.050710 7.000000
117.068310 12.000000
118.062650 5.000000
118.071220 5.000000
120.082470 21.000000
121.065370 6.000000
122.039410 12.000000
123.081380 8.000000
124.053240 16.000000
130.065410 10.000000
131.064870 9.000000
131.075590 27.000000
132.072200 5.000000
132.081220 21.000000
133.087910 5.000000
135.079710 5.000000
139.075210 32.000000
140.079280 7.000000
142.063740 9.000000
142.071490 6.000000
143.074280 41.000000
144.079010 34.000000
144.088270 8.000000
145.087780 13.000000
145.096040 6.000000
147.082120 28.000000
148.076660 46.000000
149.054240 6.000000
149.086010 6.000000
152.047960 73.000000
152.058620 11.000000
153.054600 6.000000
159.069610 133.000000
160.076490 52.000000
161.063810 6.000000
161.082020 13.000000
162.092240 7.000000
163.088850 10.000000
163.104750 7.000000
167.071910 99.000000
168.078140 9.000000
169.088230 6.000000
172.076170 12.000000
173.085950 13.000000
174.065870 15.000000
174.092030 988.000000
175.095050 137.000000
176.101760 23.000000
176.112580 8.000000
181.083010 6.000000
184.076170 11.000000
185.084750 7.000000
186.085310 11.000000
186.093150 24.000000
187.100800 9.000000
188.105330 12.000000
188.112290 17.000000
190.088440 7.000000
192.102810 96.000000
193.113110 11.000000
195.066270 1000.000000
195.107670 6.000000
196.069410 117.000000
196.077840 31.000000
197.068530 23.000000
198.081880 5.000000
198.092850 7.000000
198.103490 6.000000
199.099330 13.000000
200.109070 38.000000
201.108290 14.000000
202.088500 6.000000
204.101590 31.000000
206.114590 7.000000
210.090090 5.000000
212.106020 10.000000
214.112300 8.000000
215.118010 13.000000
215.126880 8.000000
222.107820 5.000000
224.108090 15.000000
224.122880 10.000000
224.131900 10.000000
227.120990 13.000000
236.098510 6.000000
236.108890 12.000000
236.128600 77.000000
237.119690 8.000000
237.138280 6.000000
238.115400 8.000000
240.115630 5.000000
247.101930 5.000000
248.101940 10.000000
249.105700 8.000000
250.124450 9.000000
251.121920 14.000000
252.114290 9.000000
253.133730 12.000000
260.108430 11.000000
261.123350 5.000000
262.123900 25.000000
265.136350 9.000000
266.138280 8.000000
273.115020 6.000000
276.134550 11.000000
276.144470 23.000000
277.141300 13.000000
288.145200 11.000000
289.148800 10.000000
305.164950 9.000000
306.163640 7.000000
333.161250 9.000000
348.162750 6.000000
363.173610 8.000000
365.159730 6.000000
365.180790 13.000000
365.194950 11.000000
368.187230 6.000000
397.215120 7.000000
448.195040 11.000000

>ms2
148.077070 5.000000
174.093200 103.000000
175.096440 13.000000
192.102740 16.000000
195.066670 180.000000
196.069050 22.000000
224.128860 18.000000
236.129410 38.000000
237.132610 8.000000
365.185910 18.000000
366.192630 5.000000
368.149480 5.000000
397.212520 103.000000
398.214630 30.000000
436.185460 6.000000
436.200160 11.000000
448.197020 82.000000
449.202210 26.000000
450.204590 6.000000
609.174800 5.000000
609.209530 9.000000
609.283630 1000.000000
609.356990 14.000000

>ms2
609.206480 8.000000
609.282100 1000.000000
609.356020 20.000000

>ms2
148.075590 20.000000
160.074190 10.000000
167.067380 7.000000
174.091780 468.000000
175.084840 15.000000
175.094920 44.000000
176.106480 17.000000
186.093640 7.000000
192.101900 86.000000
193.107730 9.000000
195.065630 1000.000000
195.106520 8.000000
196.067840 116.000000
196.084120 6.000000
197.066940 7.000000
197.079510 9.000000
200.108110 16.000000
204.099520 16.000000
214.111660 5.000000
215.120250 11.000000
222.110150 6.000000
224.103650 8.000000
224.130390 114.000000
225.130740 22.000000
229.136750 9.000000
236.106750 7.000000
236.129550 230.000000
237.133610 36.000000
238.130720 9.000000
242.140690 6.000000
254.132710 9.000000
288.134160 10.000000
333.157140 7.000000
336.157900 20.000000
337.195830 8.000000
348.157620 13.000000
354.171910 7.000000
365.187440 163.000000
366.183140 23.000000
366.195500 14.000000
368.135890 14.000000
368.149900 46.000000
368.175260 19.000000
368.191160 10.000000
369.150240 8.000000
380.189880 7.000000
397.162960 8.000000
397.174990 8.000000
397.211180 718.000000
398.179140 6.000000
398.215640 222.000000
399.191440 6.000000
399.212830 21.000000
399.224950 13.000000
404.179200 10.000000
413.206670 7.000000
413.219480 6.000000
434.159550 6.000000
436.157010 5.000000
436.195770 141.000000
437.201480 37.000000
448.126400 8.000000
448.148590 16.000000
448.195370 728.000000
449.191770 112.000000
449.205810 96.000000
450.202300 40.000000
577.235530 19.000000
577.253600 24.000000
578.245120 10.000000
578.265560 7.000000
609.222840 15.000000
609.279300 847.000000
609.345460 5.000000

>ms2
79.054870 20.000000
81.072390 6.000000
82.065900 6.000000
91.053860 13.000000
94.065280 10.000000
96.058550 7.000000
109.065010 20.000000
111.038760 6.000000
111.045560 14.000000
111.052980 5.000000
115.053460 14.000000
117.065540 6.000000
117.072520 6.000000
118.064470 10.000000
120.080810 13.000000
122.040670 9.000000
123.081700 8.000000
124.050190 11.000000
129.070500 9.000000
130.066020 10.000000
131.072130 34.000000
131.078190 10.000000
132.076350 12.000000
132.083220 17.000000
133.092940 5.000000
139.075530 47.000000
142.066270 23.000000
143.074040 51.000000
144.082260 44.000000
145.093810 5.000000
146.099950 5.000000
147.069110 9.000000
147.082810 16.000000
148.077680 46.000000
152.048110 64.000000
158.064240 7.000000
159.068710 170.000000
160.064220 8.000000
160.076420 65.000000
161.081040 29.000000
162.093770 19.000000
163.075960 5.000000
164.105330 11.000000
167.070690 107.000000
168.073620 16.000000
169.087680 7.000000
172.078920 13.000000
173.082410 16.000000
174.056810 10.000000
174.091720 1000.000000
175.076690 10.000000
175.094790 142.000000
176.075940 6.000000
176.092820 12.000000
176.101960 15.000000
176.113370 8.000000
184.079900 5.000000
185.082500 10.000000
185.090610 5.000000
186.089750 20.000000
187.099700 13.000000
188.108030 23.000000
189.107670 9.000000
190.090000 8.000000
192.082310 5.000000
192.101700 102.000000
193.089140 5.000000
193.106840 10.000000
193.120150 7.000000
195.039600 6.000000
195.065730 945.000000
196.048070 5.000000
196.063690 39.000000
196.070890 89.000000
197.067920 11.000000
197.082370 12.000000
198.094890 7.000000
199.090160 15.000000
199.103500 10.000000
200.107470 35.000000
204.103360 42.000000
210.094420 13.000000
211.097200 12.000000
212.100940 6.000000
212.113940 6.000000
214.107600 9.000000
215.120270 6.000000
222.113720 10.000000
224.104970 8.000000
224.130310 10.000000
226.123550 7.000000
227.121890 15.000000
228.118290 6.000000
236.106410 5.000000
236.128170 106.000000
237.113370 11.000000
238.118700 10.000000
238.133700 5.000000
239.125310 7.000000
248.099690 6.000000
249.117600 9.000000
250.117900 12.000000
251.118290 17.000000
253.134610 10.000000
254.141020 9.000000
260.113770 8.000000
261.102230 7.000000
262.117950 18.000000
263.117920 7.000000
264.136810 7.000000
265.132750 6.000000
265.146940 7.000000
266.141910 12.000000
267.154330 5.000000
273.120120 5.000000
274.131230 8.000000
275.118470 5.000000
275.132570 7.000000
276.136900 14.000000
276.148320 9.000000
277.144040 9.000000
289.145540 6.000000
290.117250 6.000000
290.133240 6.000000
304.134580 7.000000
336.166440 11.000000
338.099270 6.000000
349.150760 5.000000
365.185940 15.000000
366.192600 9.000000
448.199040 13.000000

>ms2
70.064110 24.000000
71.050590 20.000000
79.056820 24.000000
91.050910 18.000000
98.335020 22.000000
106.065610 31.000000
107.066310 23.000000
109.065130 42.000000
111.043370 19.000000
111.052010 22.000000
114.354870 20.000000
117.055940 18.000000
118.066020 18.000000
119.363610 18.000000
120.078360 23.000000
122.122630 17.000000
123.083240 19.000000
130.350620 25.000000
131.043730 18.000000
131.049260 20.000000
132.077210 17.000000
132.086670 35.000000
132.370060 24.000000
133.082050 24.000000
134.064540 17.000000
135.063890 24.000000
137.080960 21.000000
139.078990 61.000000
139.091030 19.000000
142.062380 35.000000
143.059690 20.000000
143.068600 35.000000
144.058290 24.000000
144.079070 21.000000
144.431060 22.000000
147.078480 48.000000
147.087010 18.000000
148.063830 27.000000
148.075670 272.000000
148.566990 19.000000
149.060810 18.000000
149.085980 26.000000
149.156230 22.000000
150.087280 20.000000
152.059650 26.000000
152.688600 22.000000
155.069230 20.000000
156.088030 24.000000
156.120610 17.000000
156.742510 17.000000
158.053420 48.000000
158.086720 22.000000
159.009020 24.000000
159.051680 20.000000
159.062000 41.000000
159.074400 133.000000
159.089650 20.000000
160.050420 24.000000
160.075350 193.000000
160.759980 18.000000
161.096070 18.000000
161.993300 21.000000
162.084550 18.000000
162.091540 43.000000
163.074140 24.000000
163.094960 18.000000
164.107910 23.000000
164.844010 20.000000
165.078230 25.000000
166.084170 89.000000
166.277950 22.000000
167.069340 158.000000
168.080750 28.000000
168.322660 18.000000
169.081340 22.000000
172.076770 17.000000
172.468550 20.000000
173.076540 19.000000
174.043120 20.000000
174.059720 39.000000
174.091690 6101.000000
175.073030 46.000000
175.092220 779.000000
175.254580 24.000000
176.090420 62.000000
176.110150 226.000000
176.943040 18.000000
177.108440 22.000000
178.085280 36.000000
178.093570 18.000000
179.069790 28.000000
179.076570 46.000000
179.214230 21.000000
179.469380 22.000000
180.036930 21.000000
181.086930 22.000000
182.094640 25.000000
184.077840 25.000000
185.082180 20.000000
186.092410 120.000000
187.097630 20.000000
188.104680 130.000000
190.066940 25.000000
190.081380 43.000000
190.107280 17.000000
190.625440 20.000000
192.073430 20.000000
192.100970 1021.000000
192.148960 27.000000
192.587020 25.000000
193.083760 24.000000
193.094450 58.000000
193.109250 122.000000
194.508270 23.000000
194.914170 25.000000
195.012740 25.000000
195.030910 75.000000
195.065980 11056.000000
195.109630 34.000000
196.052540 70.000000
196.069270 1125.000000
196.307500 20.000000
196.890210 17.000000
197.040100 21.000000
197.069320 126.000000
197.079670 52.000000
197.412890 17.000000
197.611330 17.000000
198.076540 46.000000
198.092420 73.000000
198.264720 17.000000
199.100330 40.000000
200.072450 31.000000
200.107740 186.000000
200.121920 31.000000
201.097290 50.000000
201.108950 63.000000
201.378590 24.000000
202.098750 32.000000
202.131770 30.000000
202.327070 18.000000
203.120350 17.000000
203.134810 17.000000
203.688670 23.000000
204.103730 146.000000
205.104580 59.000000
205.114170 22.000000
206.117430 21.000000
206.127930 20.000000
207.096740 25.000000
208.093600 23.000000
209.119000 21.000000
210.084560 20.000000
210.091670 38.000000
211.100480 36.000000
212.109210 49.000000
213.091080 26.000000
213.098460 20.000000
213.723920 18.000000
214.082320 32.000000
214.101790 22.000000
214.112120 57.000000
215.116420 158.000000
215.129590 23.000000
215.294360 18.000000
216.064330 24.000000
219.034230 19.000000
221.000230 18.000000
221.068740 18.000000
222.117000 64.000000
223.117220 17.000000
224.088790 39.000000
224.103810 44.000000
224.128920 1046.000000
224.150590 18.000000
225.037370 26.000000
225.116440 46.000000
225.129810 190.000000
226.113420 20.000000
226.130940 81.000000
227.110750 42.000000
228.120160 86.000000
229.127850 32.000000
229.135830 20.000000
229.709240 19.000000
234.074490 19.000000
235.077550 19.000000
236.026690 18.000000
236.091030 21.000000
236.128770 2105.000000
236.920900 26.000000
236.953930 20.000000
237.111220 86.000000
237.133260 345.000000
238.122450 60.000000
238.131820 112.000000
239.129700 20.000000
239.141940 31.000000
242.144710 41.000000
243.107480 19.000000
244.260670 22.000000
246.096310 21.000000
248.101210 21.000000
249.070530 18.000000
250.124400 21.000000
251.127560 44.000000
252.147110 24.000000
252.568470 25.000000
253.114700 23.000000
253.136570 65.000000
254.138550 102.000000
254.147920 50.000000
255.137070 17.000000
255.355960 17.000000
257.581390 20.000000
260.093020 26.000000
260.108150 52.000000
261.098510 22.000000
261.118650 20.000000
262.118350 60.000000
262.135010 53.000000
264.133330 51.000000
264.795930 21.000000
265.100860 25.000000
265.110780 35.000000
266.124420 33.000000
266.139920 57.000000
267.573520 21.000000
268.153690 17.000000
269.368190 17.000000
271.103790 20.000000
273.114410 25.000000
273.126430 22.000000
274.121150 25.000000
276.117400 36.000000
276.135530 37.000000
276.247890 25.000000
278.529170 17.000000
279.147580 57.000000
280.136690 24.000000
281.149380 20.000000
284.105960 19.000000
284.119690 17.000000
286.144530 19.000000
286.379240 18.000000
288.155820 21.000000
289.143220 72.000000
290.119480 41.000000
291.147710 25.000000
296.904820 17.000000
298.114620 21.000000
300.109220 22.000000
300.233980 41.000000
301.619750 17.000000
304.126890 22.000000
304.150330 28.000000
305.137020 35.000000
305.166840 39.000000
306.104950 25.000000
306.171630 55.000000
307.154210 18.000000
308.158140 23.000000
310.144320 17.000000
312.528560 25.000000
313.713750 18.000000
314.156950 19.000000
316.133330 17.000000
317.152710 17.000000
322.154450 40.000000
323.068510 20.000000
323.153530 20.000000
327.010280 22.000000
327.263980 23.000000
330.973480 29.000000
331.464260 17.000000
331.605770 20.000000
332.912450 18.000000
333.153900 38.000000
334.124330 70.000000
334.149960 28.000000
336.122650 20.000000
336.160000 207.000000
336.835480 37.000000
337.113340 21.000000
337.136660 120.000000
337.163970 42.000000
337.173520 37.000000
338.144200 20.000000
339.129940 17.000000
339.578340 26.000000
340.295560 17.000000
341.190640 17.000000
341.805420 28.000000
347.173490 22.000000
348.123500 33.000000
348.161960 106.000000
349.168910 50.000000
350.155270 22.000000
351.717530 24.000000
352.558350 32.000000
352.877560 19.000000
353.112030 24.000000
353.131840 49.000000
354.127930 20.000000
354.145970 21.000000
354.159910 41.000000
354.183840 24.000000
356.180660 33.000000
358.042390 23.000000
360.953920 26.000000
363.150880 20.000000
363.168400 17.000000
364.168240 18.000000
364.807830 17.000000
365.146790 40.000000
365.183140 972.000000
365.196140 263.000000
365.214780 17.000000
366.155980 51.000000
366.190190 321.000000
367.154360 25.000000
367.197420 57.000000
368.149140 348.000000
368.187680 127.000000
369.150510 127.000000
369.194670 20.000000
369.512790 17.000000
370.163420 21.000000
370.182340 24.000000
370.225310 27.000000
370.710630 18.000000
371.596740 17.000000
375.685420 36.000000
376.095980 18.000000
380.153780 23.000000
380.183780 26.000000
381.168980 18.000000
381.201600 28.000000
382.645020 55.000000
382.739230 17.000000
384.065550 22.000000
386.193180 38.000000
387.215640 17.000000
388.775450 17.000000
390.430390 27.000000
395.199250 47.000000
395.215880 21.000000
396.185910 17.000000
396.688320 18.000000
396.930850 20.000000
396.988460 17.000000
397.106900 17.000000
397.140660 39.000000
397.159180 50.000000
397.179900 111.000000
397.211820 5931.000000
397.261810 17.000000
397.283540 18.000000
397.396550 20.000000
397.470790 26.000000
398.033230 17.000000
398.102140 22.000000
398.159270 44.000000
398.214050 1669.000000
398.241420 62.000000
398.899570 19.000000
398.909270 51.000000
399.223690 239.000000
400.215820 21.000000
402.160030 81.000000
403.780980 25.000000
404.142090 27.000000
404.174380 38.000000
405.174040 47.000000
405.775300 29.000000
407.176360 27.000000
407.869720 37.000000
408.374760 21.000000
408.923800 18.000000
409.433900 17.000000
411.130100 27.000000
412.848480 17.000000
413.210630 88.000000
414.200710 18.000000
415.463620 17.000000
415.523470 18.000000
416.168120 35.000000
417.609190 18.000000
421.562900 24.000000
422.886200 29.000000
425.480740 20.000000
430.788420 22.000000
431.205380 27.000000
433.444890 25.000000
434.173920 63.000000
434.200440 25.000000
435.337800 36.000000
435.438390 26.000000
435.861240 17.000000
435.973270 18.000000
436.002170 20.000000
436.108030 21.000000
436.193850 742.000000
436.206790 308.000000
436.372410 18.000000
437.177730 17.000000
437.199890 123.000000
437.229430 29.000000
437.785640 28.000000
438.153840 27.000000
438.211240 58.000000
440.779080 27.000000
441.097260 17.000000
445.431150 19.000000
448.112000 48.000000
448.150700 125.000000
448.194790 5462.000000
448.236270 29.000000
448.918550 19.000000
449.100010 20.000000
449.148560 40.000000
449.193660 1216.000000
449.208770 641.000000
449.239290 48.000000
450.146550 21.000000
450.189850 72.000000
450.209810 226.000000
451.208470 20.000000
452.206940 33.000000
453.025180 17.000000
465.839940 25.000000
473.284760 17.000000
473.329320 20.000000
483.735960 25.000000
487.505920 30.000000
496.314820 17.000000
498.856780 24.000000
501.528690 21.000000
506.666840 47.000000
508.240300 39.000000
509.123720 19.000000
509.694700 22.000000
516.528810 19.000000
522.968810 20.000000
524.806880 21.000000
529.142330 22.000000
531.782780 18.000000
534.370420 21.000000
534.713750 24.000000
537.126460 20.000000
537.345090 22.000000
540.394350 22.000000
542.861270 22.000000
546.916500 17.000000
557.954100 17.000000
560.221370 39.000000
574.228880 20.000000
574.850280 18.000000
577.231510 42.000000
577.255130 169.000000
578.261110 93.000000
578.283260 25.000000
591.245420 20.000000
591.265010 19.000000
591.290890 21.000000
593.255680 21.000000
593.990840 22.000000
594.878780 22.000000
595.612850 18.000000
598.614810 26.000000
598.676820 17.000000
598.889770 20.000000
598.940800 21.000000
599.692200 18.000000
604.382810 17.000000
606.477540 37.000000
606.865480 21.000000
607.272460 51.000000
607.365110 20.000000
607.843750 17.000000
608.259520 62.000000
608.282650 21.000000
608.328060 29.000000
608.352720 20.000000
608.724120 28.000000
609.088930 36.000000
609.120790 51.000000
609.149780 56.000000
609.179200 328.000000
609.208130 380.000000
609.280820 64202.000000
609.353760 1191.000000
609.459050 19.000000
609.474300 17.000000

