>compound PR11877869
>parentmass 533.1285
>ionization [M+H]+
>formula C25H24O13
>rt 363.600000
>profile qtof
#smiles_iso COC1=CC=C(C=C1)C2=COC3=CC(=CC(=C3C2=O)O)OC4C(C(C(C(O4)COC(=O)CC(=O)O)O)O)O
#smiles_can COC1=CC=C(C=C1)C2=COC3=CC(=CC(=C3C2=O)O)OC4C(C(C(C(O4)COC(=O)CC(=O)O)O)O)O
#inchikey VRCBYTZZZFFKEN-UHFFFAOYSA-N
#pubchem_id 131751062
#mb_accession PR310880

>ms2peaks
152.012190 17.000000
270.049260 17.000000
271.025300 17.000000
285.073970 507.000000
286.073820 37.000000
286.087520 61.000000
287.622890 18.000000
338.150360 29.000000
448.126190 21.000000
495.866850 21.000000
533.122500 159.000000

