>compound PR12196541
>parentmass 417.1180087000002
>ionization [M+H]+
>formula C21H20O9
>rt 196.498980
>profile qtof
#smiles_iso C1=CC(=CC=C1C2=COC3=C(C2=O)C=CC(=C3[C@H]4[C@@H]([C@H]([C@@H]([C@H](O4)CO)O)O)O)O)O
#smiles_can C1=CC(=CC=C1C2=COC3=C(C2=O)C=CC(=C3C4C(C(C(C(O4)CO)O)O)O)O)O
#inchikey HKEAFJYKMMKDOR-VPRICQMDSA-N
#pubchem_id 5281807
#mb_accession PR302151,PR302156,PR302161,PR302166,PR302171,PR302176,PR302181,PR302186,PR302191,PR302196,PR302201,PR302206

>ms2peaks
170.034330 6.000000
195.079820 5.000000
223.086210 6.000000
236.063490 5.000000
239.066410 21.000000
239.077620 6.000000
240.071790 8.000000
240.084110 30.000000
241.078480 5.000000
241.092160 8.000000
252.112110 7.000000
255.076630 5.000000
267.065830 241.000000
268.064850 77.000000
268.077090 91.000000
269.077760 35.000000
270.080870 9.000000
279.070500 30.000000
281.073460 19.000000
281.084720 40.000000
292.073120 16.000000
293.081630 6.000000
295.060490 6.000000
297.075070 383.000000
298.075130 60.000000
298.088960 28.000000
299.070500 13.000000
307.095980 96.000000
307.114750 14.000000
308.099330 15.000000
309.092380 6.000000
311.068940 5.000000
318.583220 5.000000
321.075130 101.000000
322.066470 14.000000
322.081940 12.000000
327.083590 12.000000
333.068360 10.000000
335.089110 34.000000
335.102810 14.000000
345.083800 7.000000
351.076420 43.000000
351.086640 101.000000
352.083440 30.000000
363.056400 8.000000
363.080170 32.000000
363.095490 45.000000
364.087590 15.000000
364.098360 11.000000
365.096250 5.000000
381.098050 105.000000
382.090940 22.000000
382.107510 10.000000
399.073970 8.000000
399.105470 150.000000
400.104310 38.000000
400.116790 16.000000
417.036620 7.000000
417.062960 8.000000
417.116730 1000.000000

>ms2peaks
297.074430 10.000000
351.091000 8.000000
381.097930 6.000000
399.105770 26.000000
417.041290 6.000000
417.067810 10.000000
417.117950 1000.000000
417.174840 10.000000

>ms2peaks
107.049280 9.000000
135.041350 9.000000
145.032840 6.000000
163.036730 10.000000
179.033290 13.000000
237.095430 9.000000
239.061430 8.000000
239.076740 8.000000
240.085770 8.000000
241.091810 6.000000
247.074970 6.000000
255.063370 19.000000
256.072240 7.000000
261.085630 7.000000
267.025700 13.000000
267.066350 716.000000
268.064210 100.000000
268.076420 156.000000
269.068450 33.000000
269.079650 24.000000
270.081700 11.000000
279.064240 108.000000
279.083340 12.000000
280.067810 15.000000
280.077940 10.000000
281.056520 18.000000
281.082460 129.000000
282.063420 7.000000
282.087950 22.000000
283.092620 5.000000
291.068300 9.000000
292.069820 36.000000
293.078670 23.000000
293.091340 12.000000
294.080380 5.000000
295.045870 11.000000
295.068510 13.000000
295.079830 10.000000
296.972530 5.000000
297.013850 5.000000
297.037380 18.000000
297.075930 1000.000000
298.071200 76.000000
298.082640 141.000000
299.088410 24.000000
305.084870 8.000000
306.089230 6.000000
307.029330 5.000000
307.053410 22.000000
307.076080 29.000000
307.099120 280.000000
308.068450 9.000000
308.097530 51.000000
308.113980 8.000000
309.082090 59.000000
309.104740 9.000000
310.074490 13.000000
311.086980 7.000000
311.097930 10.000000
317.083160 17.000000
321.052490 21.000000
321.075130 287.000000
322.072810 34.000000
322.087250 52.000000
323.057100 5.000000
323.086060 17.000000
323.114040 6.000000
325.079650 10.000000
327.073150 5.000000
327.092960 44.000000
328.059510 6.000000
328.078770 8.000000
333.077510 14.000000
334.097230 5.000000
335.067720 10.000000
335.095670 67.000000
336.096830 19.000000
339.075380 15.000000
339.084720 28.000000
345.064360 7.000000
351.038670 6.000000
351.084380 74.000000
351.101200 10.000000
352.095730 17.000000
363.073270 34.000000
363.090030 100.000000
364.072330 12.000000
364.092100 31.000000
381.084010 21.000000
381.103030 52.000000
382.099430 22.000000
399.102810 8.000000
400.104000 7.000000

>ms2peaks
65.035710 7.000000
72.987710 5.000000
77.038620 16.000000
79.057460 6.000000
81.829500 5.000000
91.051440 15.000000
91.058870 8.000000
93.026760 7.000000
94.041710 6.000000
105.026490 21.000000
105.033450 12.000000
105.879190 7.000000
106.290610 7.000000
107.046380 23.000000
107.053210 10.000000
115.043420 5.000000
117.034550 10.000000
118.034540 11.000000
119.046360 12.000000
120.053630 5.000000
121.021300 23.000000
121.028000 73.000000
123.045770 10.000000
124.253160 5.000000
127.047330 7.000000
127.053670 10.000000
128.058140 5.000000
129.063780 17.000000
129.077870 15.000000
131.040970 7.000000
131.051470 7.000000
133.018250 6.000000
133.028410 42.000000
134.038800 21.000000
135.046070 44.000000
137.031980 9.000000
139.056050 10.000000
141.071620 8.000000
141.081600 7.000000
142.044660 8.000000
143.907930 8.000000
144.059040 12.000000
144.064900 11.000000
145.020610 8.000000
145.028630 44.000000
145.063320 10.000000
145.074950 13.000000
146.028820 22.000000
146.040850 6.000000
147.043780 53.000000
147.048900 26.000000
148.989590 5.000000
149.022630 36.000000
149.029480 39.000000
152.052720 8.000000
152.063420 31.000000
152.343260 8.000000
153.074040 68.000000
153.104490 6.000000
153.134350 5.000000
154.083040 7.000000
155.050030 8.000000
155.080660 6.000000
155.089710 35.000000
155.101700 9.000000
156.052920 7.000000
157.032610 8.000000
157.045730 5.000000
157.065400 50.000000
157.074400 12.000000
158.065000 26.000000
159.041060 19.000000
160.049450 28.000000
160.571500 5.000000
161.020420 15.000000
162.026400 10.000000
163.006040 5.000000
163.038530 23.000000
164.054030 5.000000
165.030180 6.000000
165.063980 58.000000
165.071910 153.000000
165.090880 7.000000
166.070370 28.000000
166.079640 29.000000
167.054930 7.000000
167.079530 30.000000
167.086300 71.000000
168.044140 8.000000
168.059140 9.000000
168.082980 7.000000
169.059390 18.000000
169.069950 33.000000
169.095340 6.000000
170.028730 14.000000
170.043720 18.000000
170.071110 18.000000
170.083940 5.000000
171.045840 23.000000
171.071820 12.000000
171.423430 5.000000
172.654210 5.000000
173.060880 17.000000
173.803300 9.000000
175.040570 6.000000
176.059710 8.000000
177.068210 57.000000
178.075450 21.000000
179.018920 11.000000
179.034420 8.000000
179.043210 6.000000
179.083110 23.000000
180.997760 5.000000
181.035870 8.000000
181.055150 16.000000
181.066010 27.000000
182.058790 5.000000
182.072940 16.000000
183.028580 9.000000
183.041810 10.000000
183.065870 20.000000
183.078280 38.000000
183.087650 92.000000
184.077390 7.000000
184.633300 6.000000
185.057390 19.000000
185.074710 9.000000
185.091610 10.000000
186.075790 7.000000
189.018480 5.000000
189.080050 5.000000
190.068850 20.000000
190.080060 9.000000
191.026490 7.000000
191.074280 21.000000
191.089690 7.000000
193.066960 16.000000
194.070280 37.000000
195.022640 10.000000
195.038960 64.000000
195.054320 29.000000
195.068410 5.000000
195.081800 112.000000
196.040710 5.000000
196.077000 10.000000
196.087800 7.000000
196.125140 5.000000
197.040310 8.000000
197.057980 45.000000
197.096950 11.000000
198.069640 26.000000
199.035580 5.000000
199.075700 5.000000
200.047910 13.000000
200.699300 7.000000
200.960080 8.000000
201.071550 6.000000
202.076690 8.000000
205.060490 11.000000
205.103000 7.000000
206.078480 6.000000
207.079060 26.000000
207.088390 7.000000
208.084900 5.000000
209.079240 11.000000
210.054660 15.000000
210.068920 6.000000
211.059360 23.000000
211.082490 65.000000
213.053970 10.000000
215.077550 8.000000
217.073180 5.000000
219.080660 23.000000
221.061890 27.000000
221.093950 6.000000
221.107910 6.000000
222.058640 13.000000
223.054720 13.000000
223.075620 76.000000
224.072630 13.000000
224.084210 22.000000
225.029330 6.000000
225.049440 26.000000
225.086010 32.000000
225.098950 11.000000
226.068310 50.000000
226.096510 9.000000
227.044080 9.000000
227.065080 9.000000
231.073060 12.000000
232.416170 6.000000
233.090380 5.000000
235.078520 20.000000
236.043900 6.000000
236.070330 7.000000
236.079180 9.000000
238.015470 7.000000
238.059770 15.000000
238.073440 5.000000
238.089100 8.000000
238.950960 11.000000
239.006360 5.000000
239.018710 7.000000
239.031310 11.000000
239.070180 1000.000000
239.106140 9.000000
239.417660 6.000000
240.000630 9.000000
240.045040 7.000000
240.076110 484.000000
241.047680 12.000000
241.076350 64.000000
241.088780 40.000000
242.062150 5.000000
242.075350 5.000000
242.090900 12.000000
242.947010 6.000000
243.091490 6.000000
249.097310 28.000000
251.011860 6.000000
251.075560 6.000000
251.110080 7.000000
252.058550 6.000000
252.070560 24.000000
253.041690 7.000000
253.072510 5.000000
253.087480 12.000000
255.078720 6.000000
255.242570 5.000000
261.039030 6.000000
262.053710 5.000000
263.059600 28.000000
263.072780 41.000000
263.098050 6.000000
267.033390 25.000000
267.063350 412.000000
267.204650 7.000000
267.511900 8.000000
268.072570 550.000000
268.354890 5.000000
269.070470 57.000000
269.086550 62.000000
270.076840 11.000000
275.070160 6.000000
276.061830 8.000000
277.085720 5.000000
279.054290 18.000000
279.070710 83.000000
279.090640 8.000000
280.057160 12.000000
280.074650 7.000000
281.069610 33.000000
281.084350 61.000000
282.079130 6.000000
282.092900 12.000000
283.047670 6.000000
283.828860 6.000000
290.093260 11.000000
292.100710 5.000000
293.052730 9.000000
293.070370 9.000000
293.084780 10.000000
294.083710 5.000000
297.066680 26.000000
297.075010 45.000000
297.091090 10.000000
298.081420 14.000000
299.087590 5.000000
305.077730 16.000000
305.098750 15.000000
307.094970 20.000000
308.086850 9.000000
417.105130 8.000000
417.134370 6.000000

>ms2peaks
163.036090 6.000000
164.042970 5.000000
165.064190 6.000000
211.078660 5.000000
223.074040 11.000000
236.076890 6.000000
239.070300 26.000000
240.070140 15.000000
240.082140 19.000000
241.093310 8.000000
267.064820 251.000000
268.071690 132.000000
269.068300 12.000000
269.082760 23.000000
279.046020 8.000000
279.063660 19.000000
279.075350 17.000000
280.064940 6.000000
281.082060 49.000000
281.094090 13.000000
282.088350 14.000000
292.074550 18.000000
293.073150 18.000000
293.089480 7.000000
295.053040 11.000000
295.067470 6.000000
296.075380 6.000000
297.041470 7.000000
297.075620 421.000000
298.079440 102.000000
299.084810 13.000000
299.093380 6.000000
300.076020 6.000000
306.089080 7.000000
307.072360 9.000000
307.096590 80.000000
308.095520 26.000000
309.056370 6.000000
309.072750 9.000000
310.072170 9.000000
311.095640 5.000000
317.088010 6.000000
321.073850 138.000000
322.083130 28.000000
323.092960 10.000000
327.087250 21.000000
328.090330 6.000000
333.066500 11.000000
335.061490 10.000000
335.090790 34.000000
335.105650 9.000000
336.080380 6.000000
339.088440 8.000000
351.062560 9.000000
351.086490 119.000000
352.067440 5.000000
352.087250 17.000000
352.103000 6.000000
363.082490 48.000000
363.097960 23.000000
364.070920 6.000000
364.083680 13.000000
365.096340 5.000000
381.081240 25.000000
381.099520 125.000000
382.081940 7.000000
382.102200 24.000000
383.096560 6.000000
399.105350 178.000000
399.137300 8.000000
400.107700 28.000000
417.016510 7.000000
417.066100 9.000000
417.079470 6.000000
417.116820 1000.000000

>ms2peaks
297.070430 8.000000
351.081210 6.000000
381.095250 10.000000
399.101560 17.000000
399.116270 10.000000
417.064540 10.000000
417.117490 1000.000000
417.176790 12.000000

>ms2peaks
118.040790 6.000000
119.048420 8.000000
149.022400 8.000000
151.037810 8.000000
157.068450 5.000000
179.030990 6.000000
223.077990 19.000000
224.076890 9.000000
237.087690 7.000000
239.071410 9.000000
240.080570 8.000000
251.067950 11.000000
251.110440 14.000000
252.074810 7.000000
265.092500 12.000000
267.015720 8.000000
267.064730 747.000000
268.045470 16.000000
268.071440 236.000000
269.067470 18.000000
269.080930 61.000000
279.050960 12.000000
279.068730 84.000000
280.063290 13.000000
280.072970 14.000000
281.065430 17.000000
281.081880 121.000000
282.079930 11.000000
292.064910 7.000000
292.078060 20.000000
293.049010 6.000000
293.078400 59.000000
295.050420 27.000000
295.065120 38.000000
295.090760 8.000000
296.066130 8.000000
297.045620 12.000000
297.075530 1000.000000
298.078640 148.000000
298.090730 44.000000
299.072300 9.000000
299.088870 17.000000
305.116420 5.000000
306.084810 6.000000
307.055330 14.000000
307.071470 20.000000
307.097020 315.000000
308.092190 22.000000
308.105740 53.000000
309.082700 39.000000
309.128300 5.000000
311.093810 15.000000
321.074860 276.000000
322.064420 12.000000
322.081570 81.000000
323.073820 7.000000
323.091710 23.000000
325.070590 8.000000
327.084590 33.000000
329.095670 6.000000
333.077510 20.000000
333.088620 7.000000
335.062960 7.000000
335.076320 29.000000
335.096770 72.000000
336.080470 6.000000
336.094820 16.000000
339.073520 12.000000
345.074460 13.000000
351.083680 62.000000
352.089810 25.000000
354.113280 8.000000
363.086120 137.000000
364.085750 30.000000
381.067810 8.000000
381.098420 97.000000
382.084590 5.000000
382.106900 13.000000
399.090820 7.000000
399.106690 17.000000

>ms2peaks
67.059410 6.000000
85.028950 5.000000
89.039110 9.000000
91.037960 7.000000
91.054550 41.000000
93.036860 5.000000
94.047940 5.000000
95.010440 22.000000
95.048590 9.000000
103.061800 5.000000
105.033430 23.000000
105.038670 7.000000
105.063640 7.000000
106.042730 10.000000
107.047780 77.000000
115.050010 10.000000
115.058360 7.000000
118.041590 34.000000
119.045960 36.000000
119.059480 5.000000
121.022400 28.000000
121.027730 55.000000
122.026430 6.000000
122.035440 14.000000
122.039850 5.000000
123.043530 12.000000
127.051190 6.000000
127.058470 6.000000
128.068860 7.000000
129.069120 39.000000
129.079380 10.000000
131.046480 24.000000
133.012410 6.000000
133.026150 58.000000
134.036640 11.000000
134.043560 7.000000
135.042220 10.000000
135.052920 7.000000
136.041670 6.000000
136.047840 6.000000
137.029170 7.000000
141.067260 14.000000
141.075490 5.000000
144.055570 24.000000
145.026540 43.000000
145.035420 18.000000
145.060670 13.000000
146.031560 9.000000
147.038590 9.000000
149.012470 8.000000
149.022320 39.000000
151.042860 17.000000
152.059740 10.000000
153.068830 70.000000
155.052190 11.000000
155.075870 31.000000
155.085480 15.000000
157.064900 90.000000
158.034840 6.000000
158.879430 8.000000
161.005550 8.000000
161.024990 34.000000
161.058200 11.000000
162.026150 6.000000
162.756640 7.000000
162.985530 6.000000
163.032180 20.000000
163.041700 39.000000
164.059750 5.000000
165.056580 26.000000
165.071560 114.000000
166.071380 57.000000
166.085210 7.000000
167.031970 5.000000
167.068980 10.000000
167.076280 40.000000
167.086230 36.000000
168.034850 5.000000
168.046510 6.000000
169.059270 16.000000
170.014050 6.000000
170.035920 14.000000
171.051410 8.000000
173.031720 6.000000
173.056960 15.000000
175.037730 5.000000
175.047990 8.000000
176.062700 7.000000
177.067750 17.000000
178.074140 10.000000
178.081390 6.000000
179.023010 5.000000
179.074570 10.000000
179.089490 15.000000
181.054280 18.000000
181.062960 31.000000
182.059430 7.000000
182.072530 14.000000
182.110660 7.000000
183.083570 61.000000
185.057170 15.000000
189.051330 13.000000
189.063100 12.000000
189.083950 14.000000
189.255800 5.000000
190.062480 12.000000
190.084580 10.000000
191.089100 18.000000
193.064190 35.000000
193.072950 15.000000
194.074260 57.000000
195.043670 47.000000
195.062840 7.000000
195.078860 103.000000
196.046980 7.000000
196.059460 9.000000
196.086320 12.000000
197.063310 37.000000
197.101970 9.000000
198.064870 22.000000
200.045350 11.000000
203.093000 5.000000
204.103700 13.000000
205.057010 14.000000
205.072740 16.000000
205.106950 5.000000
206.070100 8.000000
207.074230 10.000000
207.084930 28.000000
208.088100 37.000000
210.052120 6.000000
210.064270 17.000000
210.081800 7.000000
211.035290 5.000000
211.069140 25.000000
211.079820 41.000000
212.081760 23.000000
213.086750 7.000000
215.091170 12.000000
218.058320 6.000000
219.074860 22.000000
219.088090 17.000000
221.047730 5.000000
221.063160 46.000000
221.997010 8.000000
222.065900 29.000000
223.056810 8.000000
223.073970 73.000000
223.083660 19.000000
223.126330 5.000000
224.080280 19.000000
225.048780 13.000000
225.087370 13.000000
225.097980 9.000000
225.368550 5.000000
226.061230 28.000000
226.101620 9.000000
227.073060 6.000000
231.077840 11.000000
233.066360 6.000000
234.072660 10.000000
234.099530 10.000000
235.065600 7.000000
235.087400 15.000000
236.064350 10.000000
236.076110 8.000000
237.091290 21.000000
238.089570 8.000000
239.020050 9.000000
239.029750 10.000000
239.040020 17.000000
239.070420 1000.000000
240.076290 416.000000
241.060620 5.000000
241.079190 75.000000
241.091000 16.000000
242.087250 5.000000
243.076690 9.000000
243.352970 6.000000
247.083630 9.000000
248.082200 12.000000
249.055080 14.000000
249.065170 11.000000
250.043170 5.000000
250.061720 15.000000
251.060970 5.000000
251.099370 7.000000
252.076260 35.000000
252.110170 7.000000
253.071760 8.000000
253.088780 24.000000
257.067080 12.000000
259.901370 7.000000
260.083500 6.000000
262.087890 6.000000
263.075650 49.000000
264.069700 8.000000
264.084440 11.000000
266.063170 6.000000
266.992890 7.000000
267.034000 9.000000
267.066350 452.000000
268.041780 9.000000
268.072940 504.000000
268.484740 6.000000
269.068050 67.000000
269.084260 64.000000
270.074430 6.000000
273.108180 7.000000
275.076510 5.000000
276.076260 5.000000
278.088040 7.000000
279.061130 90.000000
279.079070 9.000000
280.064790 12.000000
281.066740 19.000000
281.079320 80.000000
281.115050 5.000000
282.073970 8.000000
289.081420 5.000000
293.089140 10.000000
295.034520 5.000000
295.110570 7.000000
297.041990 6.000000
297.076900 61.000000
298.087280 16.000000
305.081050 11.000000
307.085420 8.000000
333.058440 6.000000
333.100430 6.000000
363.084990 9.000000

>ms2peaks
146.030330 5.000000
157.062210 6.000000
179.083040 7.000000
195.079700 5.000000
196.082290 6.000000
223.075120 8.000000
236.688770 6.000000
239.069980 25.000000
240.076680 24.000000
240.090470 6.000000
241.090160 8.000000
255.068860 6.000000
267.023160 12.000000
267.065640 287.000000
268.043790 7.000000
268.069790 159.000000
269.057370 7.000000
269.074650 12.000000
279.064060 44.000000
281.072720 15.000000
281.084320 54.000000
289.084660 9.000000
292.060640 5.000000
293.065670 5.000000
293.081150 12.000000
295.060460 22.000000
297.031860 9.000000
297.075680 424.000000
298.080720 91.000000
305.086120 7.000000
306.000150 6.000000
307.054380 11.000000
307.096890 98.000000
307.123080 7.000000
308.083100 5.000000
308.095890 19.000000
309.101590 5.000000
310.084960 7.000000
311.092320 9.000000
321.077580 131.000000
322.036440 6.000000
322.067690 12.000000
322.086460 29.000000
327.090940 5.000000
333.079410 11.000000
335.089320 47.000000
339.091370 6.000000
345.074680 7.000000
351.083800 115.000000
351.100010 28.000000
352.092680 30.000000
353.094120 6.000000
363.075200 23.000000
363.090390 65.000000
364.097320 28.000000
381.095830 105.000000
382.099820 28.000000
384.107600 6.000000
399.106960 163.000000
400.086030 10.000000
400.109190 34.000000
401.113980 7.000000
417.044950 7.000000
417.066710 7.000000
417.118680 1000.000000

>ms2peaks
297.075320 10.000000
351.087250 11.000000
399.109830 23.000000
417.065000 8.000000
417.083100 5.000000
417.117310 1000.000000
417.177920 10.000000

>ms2peaks
107.050900 8.000000
109.026590 6.000000
135.042220 7.000000
161.019780 5.000000
175.033920 12.000000
179.034560 7.000000
211.081410 6.000000
223.043330 6.000000
223.073360 7.000000
226.059520 5.000000
237.097670 6.000000
239.071990 20.000000
240.075840 18.000000
241.079570 13.000000
241.099910 5.000000
251.113970 8.000000
253.082630 6.000000
255.063960 13.000000
267.028590 8.000000
267.064700 913.000000
268.065250 157.000000
268.078340 118.000000
269.043060 6.000000
269.058990 8.000000
269.075350 57.000000
269.087770 17.000000
270.083650 5.000000
279.052950 38.000000
279.070830 84.000000
279.103550 7.000000
280.064240 7.000000
281.070560 67.000000
281.084010 83.000000
281.098910 18.000000
282.077330 34.000000
282.088780 17.000000
289.083710 9.000000
291.063870 16.000000
292.063690 9.000000
292.081540 16.000000
293.079830 50.000000
293.101930 5.000000
294.075440 16.000000
295.059390 33.000000
295.090030 9.000000
297.021270 13.000000
297.042880 15.000000
297.075100 1000.000000
298.076660 229.000000
299.088500 10.000000
305.095250 8.000000
307.055910 16.000000
307.090850 205.000000
307.103090 185.000000
307.121520 15.000000
308.047300 6.000000
308.060970 5.000000
308.098360 71.000000
309.049410 11.000000
309.076140 41.000000
309.096980 19.000000
309.109440 10.000000
310.079040 8.000000
310.096010 10.000000
311.088380 20.000000
317.079650 7.000000
321.029240 7.000000
321.076230 336.000000
322.072690 41.000000
322.084750 39.000000
323.096950 8.000000
327.078740 8.000000
327.092070 20.000000
328.066070 6.000000
328.087100 6.000000
333.076230 16.000000
333.090880 5.000000
334.071260 7.000000
335.078520 32.000000
335.094790 75.000000
336.090910 12.000000
339.057800 7.000000
339.079710 19.000000
339.106810 7.000000
340.083680 5.000000
345.083340 18.000000
351.083070 109.000000
352.090880 19.000000
363.050140 7.000000
363.079530 121.000000
363.093810 57.000000
364.087430 15.000000
364.104490 20.000000
381.071870 7.000000
381.098630 70.000000
381.115600 33.000000
382.101230 28.000000
383.101260 10.000000
399.094570 10.000000
399.117250 6.000000
417.140010 6.000000

>ms2peaks
55.022890 7.000000
57.481700 5.000000
91.050330 26.000000
91.056180 31.000000
93.036500 17.000000
94.040600 6.000000
94.046050 7.000000
95.010760 6.000000
95.056750 8.000000
104.015570 6.000000
104.053410 7.000000
105.033340 29.000000
105.066020 5.000000
106.041770 35.000000
107.048360 72.000000
108.021850 8.000000
108.046220 5.000000
115.051480 16.000000
115.069340 10.000000
117.072700 9.000000
118.029330 9.000000
118.040370 48.000000
119.028990 10.000000
119.047440 48.000000
119.054650 15.000000
120.913710 8.000000
121.010330 9.000000
121.026490 49.000000
121.038670 10.000000
122.029950 10.000000
122.288400 8.000000
128.061360 11.000000
129.059520 7.000000
129.073360 28.000000
131.050090 61.000000
132.049790 5.000000
133.020310 6.000000
133.033130 18.000000
134.025700 6.000000
134.039470 12.000000
135.042660 26.000000
140.039520 10.000000
141.070280 29.000000
142.043980 14.000000
142.049070 7.000000
143.043380 6.000000
144.053650 11.000000
144.060150 23.000000
145.017580 17.000000
145.029050 16.000000
145.037160 17.000000
146.031560 30.000000
147.036150 18.000000
147.047270 8.000000
148.047260 17.000000
149.005770 6.000000
149.013170 14.000000
149.024780 41.000000
152.047060 13.000000
152.062210 60.000000
153.062380 25.000000
153.071580 15.000000
154.065110 6.000000
154.075070 14.000000
155.046750 6.000000
155.067720 6.000000
155.084240 41.000000
155.090210 23.000000
156.090760 8.000000
157.059420 38.000000
157.068730 39.000000
158.029630 8.000000
158.067400 20.000000
158.391100 5.000000
159.059050 8.000000
160.053210 21.000000
161.002270 10.000000
161.010450 7.000000
161.023850 40.000000
161.461300 5.000000
162.012950 6.000000
162.037660 20.000000
163.026780 10.000000
163.040790 5.000000
164.063260 7.000000
165.014160 6.000000
165.042560 8.000000
165.072140 166.000000
166.065370 13.000000
166.078930 31.000000
167.065320 13.000000
167.085270 56.000000
167.091570 21.000000
167.502170 5.000000
168.052350 17.000000
168.087810 11.000000
169.067430 24.000000
169.110400 17.000000
170.062620 10.000000
170.080760 10.000000
170.476010 6.000000
171.040860 16.000000
171.066970 5.000000
173.026060 11.000000
173.049560 7.000000
173.063870 12.000000
174.011430 7.000000
175.039120 8.000000
175.050630 9.000000
175.542940 7.000000
176.062820 17.000000
177.064790 41.000000
177.078980 6.000000
178.073880 28.000000
179.023120 13.000000
179.077580 55.000000
179.089750 9.000000
179.639160 7.000000
180.056240 6.000000
181.054080 15.000000
181.068420 23.000000
181.098560 5.000000
182.043690 6.000000
182.072780 35.000000
183.006880 5.000000
183.029920 6.000000
183.039610 7.000000
183.050640 11.000000
183.070110 26.000000
183.083390 71.000000
183.094440 15.000000
183.682280 9.000000
184.084350 16.000000
185.091780 7.000000
187.053760 5.000000
189.017360 8.000000
189.070860 7.000000
190.070910 24.000000
191.077160 7.000000
191.092240 6.000000
192.011080 5.000000
192.382740 9.000000
193.058980 13.000000
193.069890 33.000000
194.064270 42.000000
194.078610 27.000000
194.089600 6.000000
195.029790 27.000000
195.042650 73.000000
195.050690 21.000000
195.086240 60.000000
196.049800 11.000000
196.056780 14.000000
196.078030 10.000000
196.086610 13.000000
197.048250 12.000000
197.063430 14.000000
197.091250 11.000000
198.033370 6.000000
198.054670 8.000000
198.078370 7.000000
198.211490 5.000000
199.073880 11.000000
201.048050 7.000000
201.079270 7.000000
202.085250 21.000000
203.030210 10.000000
203.088460 14.000000
204.977940 6.000000
205.056400 7.000000
205.068540 13.000000
205.096680 7.000000
206.059710 7.000000
207.079640 44.000000
208.099550 7.000000
209.089660 12.000000
210.057650 20.000000
211.055970 7.000000
211.077220 74.000000
212.077000 30.000000
212.093810 17.000000
213.079640 28.000000
213.092100 8.000000
213.103130 7.000000
215.081150 25.000000
217.280460 7.000000
218.070470 12.000000
219.061570 6.000000
219.086240 23.000000
220.078830 11.000000
220.086140 5.000000
221.047380 8.000000
221.063690 41.000000
221.085770 18.000000
221.599930 6.000000
222.065020 20.000000
223.047550 14.000000
223.065480 14.000000
223.077240 89.000000
223.110380 6.000000
224.067890 6.000000
224.625610 5.000000
225.051790 13.000000
225.068040 13.000000
225.090760 28.000000
225.103000 17.000000
226.053790 9.000000
226.063030 25.000000
226.081600 8.000000
226.097470 14.000000
227.046540 5.000000
227.069210 6.000000
228.079190 8.000000
232.099580 8.000000
233.087070 7.000000
235.068370 22.000000
235.080400 19.000000
236.093600 7.000000
237.048200 6.000000
237.057430 29.000000
237.071820 6.000000
237.079570 8.000000
238.057500 11.000000
238.069320 30.000000
238.092040 6.000000
239.024580 7.000000
239.059040 266.000000
239.070300 1000.000000
239.141100 6.000000
239.661710 5.000000
240.022170 10.000000
240.049640 12.000000
240.077100 615.000000
241.071120 48.000000
241.084090 74.000000
241.216380 7.000000
241.857760 6.000000
242.068010 6.000000
242.086900 48.000000
245.063390 6.000000
247.066710 17.000000
249.051380 10.000000
249.066910 11.000000
251.069810 19.000000
251.113240 23.000000
252.063570 9.000000
252.072300 10.000000
252.111250 10.000000
253.081760 12.000000
256.108370 5.000000
261.088410 6.000000
263.047790 8.000000
263.070010 21.000000
263.079770 33.000000
264.060850 5.000000
264.072660 25.000000
265.094300 13.000000
266.078060 6.000000
266.094120 9.000000
266.727420 6.000000
266.984890 8.000000
267.065640 460.000000
267.075740 166.000000
267.260040 5.000000
268.042020 20.000000
268.059330 171.000000
268.072910 425.000000
268.446690 6.000000
268.477230 7.000000
269.057920 10.000000
269.070650 36.000000
269.084320 49.000000
270.066220 5.000000
270.964080 6.000000
271.094790 6.000000
275.035430 7.000000
275.072810 7.000000
278.057280 6.000000
279.064820 95.000000
279.081390 11.000000
280.022430 6.000000
280.057800 26.000000
280.071870 15.000000
280.084230 13.000000
281.070590 66.000000
281.088230 13.000000
281.126310 7.000000
283.091710 10.000000
289.077480 9.000000
291.074920 6.000000
292.054660 5.000000
293.066500 6.000000
293.081210 18.000000
293.180910 6.000000
295.063420 13.000000
297.064300 38.000000
297.075740 54.000000
297.091000 18.000000
298.070890 30.000000
298.089940 11.000000
303.041960 5.000000
305.065120 8.000000
305.086490 20.000000
305.104160 5.000000
306.086210 6.000000
307.084720 9.000000
307.098080 5.000000
311.075200 6.000000
350.507690 6.000000
351.047610 6.000000
363.413970 6.000000
417.113220 6.000000

