>compound PR12765083
>parentmass 441.13913815384615
>ionization [M+H]+
>formula C20H24O11
>rt 259.824923
>profile qtof
#smiles_iso CC1C(=O)OC2C1(C34C(=O)OC5C3(C2O)C6(C(C5O)C(C)(C)C)C(C(=O)OC6O4)O)O
#smiles_can CC1C(=O)OC2C1(C34C(=O)OC5C3(C2O)C6(C(C5O)C(C)(C)C)C(C(=O)OC6O4)O)O
#inchikey AMOGMTLMADGEOQ-UHFFFAOYSA-N
#pubchem_id 161120
#mb_accession PR303888,PR303891,PR303893,PR303895,PR303897,PR303900,PR303902,PR303905,PR303908,PR303910,PR303912,PR303915,PR310460

>ms2peaks
69.037120 5.000000
79.054270 8.000000
83.012220 11.000000
83.085390 5.000000
95.010320 9.000000
104.183750 5.000000
105.070210 6.000000
109.098840 5.000000
121.075650 6.000000
124.111960 6.000000
128.003520 6.000000
129.070890 7.000000
131.045270 6.000000
135.038530 6.000000
135.079070 9.000000
141.059920 7.000000
144.057710 7.000000
147.046130 6.000000
149.065570 9.000000
156.099620 6.000000
157.038040 8.000000
157.103440 10.000000
159.040890 7.000000
159.084690 5.000000
160.082230 6.000000
167.244660 6.000000
170.109240 6.000000
171.026200 6.000000
171.041380 6.000000
173.059330 14.000000
175.042330 9.000000
175.065460 10.000000
175.072980 10.000000
176.079970 5.000000
177.035780 6.000000
177.053590 80.000000
178.030320 9.000000
178.076710 9.000000
182.081010 8.000000
183.045440 6.000000
187.036820 7.000000
188.033170 7.000000
189.053150 12.000000
189.064090 10.000000
190.096770 6.000000
191.070070 6.000000
193.063430 7.000000
193.084630 7.000000
195.017090 6.000000
195.028410 48.000000
195.063630 6.000000
196.029460 6.000000
196.079280 5.000000
197.034640 7.000000
197.141050 5.000000
199.031800 6.000000
199.049820 5.000000
199.073900 16.000000
201.054340 22.000000
201.096220 7.000000
202.059360 5.000000
202.101880 7.000000
203.070020 9.000000
203.143740 6.000000
203.238370 8.000000
205.050810 48.000000
205.111890 5.000000
209.045390 6.000000
209.055680 8.000000
211.051800 6.000000
211.102070 6.000000
213.060100 6.000000
213.095660 10.000000
215.035200 5.000000
219.031770 6.000000
219.068410 10.000000
220.079500 5.000000
223.107160 7.000000
223.116670 7.000000
225.066300 6.000000
226.041890 6.000000
227.059280 5.000000
227.829760 6.000000
228.069050 8.000000
229.053390 22.000000
230.049070 10.000000
231.066130 10.000000
231.122210 6.000000
231.134670 11.000000
233.045010 35.000000
235.021610 5.000000
235.056960 7.000000
235.077180 6.000000
238.051710 6.000000
241.133610 8.000000
242.082120 5.000000
243.030940 6.000000
246.958100 6.000000
247.046300 6.000000
247.058640 17.000000
247.064270 7.000000
249.037230 6.000000
249.145360 7.000000
250.080110 7.000000
251.053340 90.000000
251.064700 20.000000
252.063190 6.000000
252.103530 6.000000
254.031750 7.000000
257.036870 5.000000
257.105930 6.000000
259.062680 6.000000
261.055450 8.000000
262.608180 6.000000
265.064270 6.000000
268.892360 6.000000
271.216430 9.000000
273.110410 6.000000
275.047150 19.000000
276.121430 6.000000
277.074650 6.000000
279.041410 20.000000
279.050200 6.000000
280.042240 5.000000
280.437710 12.000000
282.065120 6.000000
287.075500 6.000000
287.120030 5.000000
288.123260 6.000000
291.761870 5.000000
293.066440 7.000000
294.143250 7.000000
297.052000 7.000000
297.133510 7.000000
298.061830 6.000000
298.108640 5.000000
303.134920 7.000000
307.041470 56.000000
308.057190 6.000000
309.051360 7.000000
311.069790 8.000000
321.058470 7.000000
321.105930 10.000000
321.129850 20.000000
323.109340 8.000000
323.127960 7.000000
324.725190 6.000000
325.036190 6.000000
325.053620 114.000000
326.062620 7.000000
327.086790 5.000000
331.119290 12.000000
332.028470 7.000000
335.069580 5.000000
339.070920 10.000000
341.104520 5.000000
342.099730 10.000000
349.114530 6.000000
349.137880 6.000000
350.127380 5.000000
353.037840 8.000000
353.053190 40.000000
353.498380 6.000000
359.105040 27.000000
366.131010 7.000000
367.060640 6.000000
367.074430 12.000000
367.122800 8.000000
367.139500 6.000000
377.111760 11.000000
377.133910 6.000000
378.115300 10.000000
378.137940 10.000000
379.105870 6.000000
395.105680 5.000000
395.126860 15.000000
395.141570 19.000000
396.153780 11.000000
405.109710 6.000000
405.127930 7.000000
423.112490 7.000000
423.130860 16.000000
441.063690 6.000000
441.087460 10.000000
441.139160 1000.000000
441.171110 12.000000

>ms2peaks
395.133730 5.000000
396.135250 6.000000
441.137330 1000.000000

>ms2peaks
71.012320 27.000000
83.085930 22.000000
111.047270 36.000000
113.029670 27.000000
115.053210 29.000000
121.064800 27.000000
125.025640 22.000000
126.022930 22.000000
127.033410 62.000000
131.087160 39.000000
135.045680 61.000000
135.057770 22.000000
135.075670 26.000000
137.025100 52.000000
143.034030 32.000000
145.070070 26.000000
145.094890 32.000000
147.087250 26.000000
149.050920 53.000000
149.059720 69.000000
150.061600 35.000000
151.030730 25.000000
151.039870 115.000000
152.416900 25.000000
159.081570 70.000000
162.097150 27.000000
163.034670 34.000000
163.040310 27.000000
163.080760 23.000000
163.116670 31.000000
165.023650 62.000000
167.036900 61.000000
169.044820 26.000000
171.117800 23.000000
175.044750 31.000000
175.071900 35.000000
175.080080 22.000000
176.047070 27.000000
176.073410 32.000000
177.015620 31.000000
177.041260 61.000000
177.049300 97.000000
177.058580 127.000000
178.038130 25.000000
179.023320 23.000000
182.073670 23.000000
184.055600 26.000000
185.051530 78.000000
185.063930 53.000000
186.067500 23.000000
187.044390 74.000000
187.078400 25.000000
187.224170 25.000000
189.053700 58.000000
189.062270 73.000000
189.124360 26.000000
190.073320 48.000000
190.079790 25.000000
191.064870 57.000000
193.065080 32.000000
193.101270 30.000000
195.017960 29.000000
195.028230 30.000000
195.038270 66.000000
195.072570 23.000000
196.107530 31.000000
196.549320 22.000000
200.700410 32.000000
201.048460 53.000000
201.060100 78.000000
201.134520 22.000000
202.063810 34.000000
202.126630 26.000000
203.028080 25.000000
203.057450 25.000000
203.070570 135.000000
204.072250 64.000000
205.050370 344.000000
205.083760 27.000000
206.048900 53.000000
206.066730 23.000000
207.015440 32.000000
207.026860 30.000000
207.057720 97.000000
209.054340 27.000000
211.057190 26.000000
211.076570 34.000000
212.054020 22.000000
213.056030 69.000000
213.068180 26.000000
213.089970 29.000000
213.108920 26.000000
213.123060 23.000000
215.005290 35.000000
216.086960 26.000000
216.120220 22.000000
217.041980 19.000000
217.054310 112.000000
217.533070 25.000000
219.031250 26.000000
219.065540 96.000000
219.102480 27.000000
219.140440 38.000000
220.067230 56.000000
220.862810 29.000000
221.040860 125.000000
221.053710 78.000000
221.980300 22.000000
222.992510 26.000000
223.014220 23.000000
223.030460 23.000000
223.052580 34.000000
223.061740 42.000000
223.070240 22.000000
223.103500 22.000000
223.117480 26.000000
224.067550 25.000000
225.093920 27.000000
225.125690 22.000000
227.147460 27.000000
227.895690 43.000000
229.048740 222.000000
229.081760 27.000000
229.130420 36.000000
230.060230 45.000000
230.114270 27.000000
231.036510 23.000000
231.063100 91.000000
231.074660 22.000000
231.128070 29.000000
231.149550 48.000000
232.068180 27.000000
233.013530 49.000000
233.047500 571.000000
233.078600 40.000000
234.030320 29.000000
234.137130 27.000000
235.070470 22.000000
237.029170 61.000000
237.043210 93.000000
237.092060 27.000000
239.103970 49.000000
240.118470 31.000000
241.116680 25.000000
242.127430 23.000000
243.097060 34.000000
243.132130 22.000000
245.056780 32.000000
245.101000 30.000000
245.127430 23.000000
246.076490 22.000000
247.052170 57.000000
247.062970 279.000000
248.076750 40.000000
248.092620 38.000000
249.071560 53.000000
249.112870 29.000000
251.038410 30.000000
251.052440 147.000000
251.060940 140.000000
252.050140 48.000000
252.066020 66.000000
256.075590 48.000000
257.044710 161.000000
257.055110 70.000000
257.081940 30.000000
257.117830 57.000000
259.057890 26.000000
259.067630 22.000000
259.107360 22.000000
259.123840 26.000000
260.132570 75.000000
261.042630 44.000000
261.105440 31.000000
261.132630 23.000000
262.054570 23.000000
263.045620 62.000000
265.073330 54.000000
265.085140 26.000000
267.094330 34.000000
267.104460 58.000000
269.096370 25.000000
269.120270 36.000000
270.120300 27.000000
274.149350 23.000000
275.054690 54.000000
275.111360 25.000000
275.136930 65.000000
275.145290 27.000000
276.055690 26.000000
276.074520 26.000000
277.074340 27.000000
277.125400 47.000000
279.054290 132.000000
279.165220 22.000000
280.058350 47.000000
285.079530 30.000000
285.111880 74.000000
285.122040 74.000000
286.031250 25.000000
287.121370 75.000000
287.129240 36.000000
287.146640 29.000000
288.126650 38.000000
289.039700 26.000000
289.103940 47.000000
289.871610 25.000000
290.039120 53.000000
290.792390 22.000000
291.050780 25.000000
291.450380 31.000000
293.078980 30.000000
293.141820 29.000000
294.614380 27.000000
295.096530 23.000000
295.106140 22.000000
296.099670 26.000000
299.053040 30.000000
302.072780 29.000000
303.049220 23.000000
303.121150 49.000000
307.042450 612.000000
307.056120 319.000000
307.811520 22.000000
308.049680 279.000000
308.063660 66.000000
309.044010 22.000000
314.131810 26.000000
318.784940 23.000000
321.055210 22.000000
321.136780 54.000000
323.067260 29.000000
325.029390 26.000000
325.056950 1000.000000
326.064910 110.000000
327.065920 40.000000
328.069090 51.000000
332.112820 23.000000
334.128690 26.000000
335.098660 69.000000
339.096250 27.000000
349.134280 96.000000
350.128540 49.000000
352.216400 25.000000
361.127780 38.000000
366.125580 30.000000
367.145260 26.000000
368.134030 32.000000
377.116000 22.000000
395.132720 26.000000
418.162140 34.000000

>ms2peaks
77.037300 132.000000
77.043910 46.000000
79.056310 29.000000
81.034850 22.000000
83.009510 31.000000
83.045900 31.000000
83.051010 56.000000
85.065870 24.000000
91.052890 75.000000
91.060590 25.000000
93.066220 26.000000
94.076670 25.000000
95.051260 35.000000
95.200440 26.000000
97.029020 58.000000
103.054940 152.000000
104.059390 30.000000
105.045230 22.000000
105.071220 236.000000
105.079820 51.000000
107.009360 64.000000
107.046010 89.000000
108.052920 29.000000
109.022910 28.000000
109.029240 26.000000
111.042920 26.000000
111.050610 34.000000
115.046050 39.000000
116.065940 35.000000
119.048550 76.000000
119.079100 28.000000
120.055390 26.000000
121.027860 136.000000
121.065230 63.000000
121.071410 24.000000
121.096760 26.000000
122.027470 22.000000
127.030340 28.000000
127.050980 26.000000
129.065900 26.000000
131.051760 98.000000
131.082140 34.000000
132.051540 39.000000
132.084780 43.000000
133.060590 28.000000
133.066740 55.000000
134.102130 28.000000
136.014850 29.000000
137.020230 31.000000
138.968380 26.000000
139.072340 29.000000
141.072100 28.000000
142.079500 60.000000
143.067140 24.000000
144.811660 24.000000
145.053010 24.000000
145.062160 33.000000
145.072040 22.000000
145.096600 26.000000
146.092640 38.000000
147.011000 39.000000
147.042390 89.000000
147.078430 37.000000
148.046430 55.000000
149.023150 176.000000
149.058260 252.000000
151.038910 26.000000
151.050160 56.000000
153.013210 22.000000
153.050900 26.000000
153.058610 22.000000
156.596070 24.000000
157.067950 29.000000
158.066160 35.000000
159.041990 76.000000
159.065860 22.000000
159.083310 24.000000
159.124530 24.000000
160.050840 43.000000
161.057480 24.000000
161.092960 26.000000
162.061940 26.000000
163.028810 26.000000
163.034710 71.000000
163.049990 29.000000
164.049410 22.000000
165.016480 110.000000
165.029720 42.000000
165.049270 29.000000
165.057140 22.000000
165.064940 22.000000
166.018370 26.000000
167.035260 66.000000
167.217470 25.000000
170.070740 24.000000
172.057160 25.000000
172.089580 22.000000
173.035600 29.000000
173.062120 89.000000
175.038220 106.000000
175.071060 83.000000
176.074710 51.000000
177.021450 24.000000
177.033740 30.000000
177.055390 1000.000000
177.072010 26.000000
178.051280 60.000000
179.041260 31.000000
179.057770 26.000000
179.072110 76.000000
180.091900 29.000000
183.037630 42.000000
183.081330 64.000000
184.098390 43.000000
184.753940 30.000000
185.048840 31.000000
185.137970 28.000000
187.036710 54.000000
187.081910 33.000000
189.062030 50.000000
189.101410 26.000000
191.029720 109.000000
191.048140 22.000000
192.039260 22.000000
193.098790 26.000000
195.027980 464.000000
195.084140 42.000000
195.122830 38.000000
196.021260 48.000000
196.040150 45.000000
196.125750 46.000000
197.085490 26.000000
198.061890 33.000000
198.069810 60.000000
199.073090 26.000000
200.081450 63.000000
201.128130 22.000000
202.057920 22.000000
203.077030 26.000000
205.011290 67.000000
205.061710 41.000000
206.077180 22.000000
207.078780 26.000000
209.099550 26.000000
211.037660 80.000000
211.075440 24.000000
215.028340 24.000000
217.048890 26.000000
217.083400 22.000000
219.026290 26.000000
221.042110 22.000000
222.068790 33.000000
223.118240 41.000000
225.087650 28.000000
228.082150 26.000000
229.045180 29.000000
231.073500 50.000000
232.035860 24.000000
233.010070 33.000000
233.041580 38.000000
238.057800 28.000000
251.060930 22.000000
257.118070 22.000000
262.051180 24.000000
318.611150 26.000000
320.252960 22.000000

>ms2peaks
109.100010 9.000000
111.030600 7.000000
121.024120 7.000000
121.064820 6.000000
123.045270 6.000000
131.082930 6.000000
133.094600 7.000000
143.090640 9.000000
145.074680 7.000000
149.022630 6.000000
149.065550 12.000000
150.074430 6.000000
153.094450 9.000000
154.933530 7.000000
155.039180 10.000000
157.011490 7.000000
157.054080 9.000000
160.087740 7.000000
161.052320 7.000000
161.060330 6.000000
161.066540 8.000000
163.040080 7.000000
163.127140 8.000000
164.073060 6.000000
165.018020 6.000000
171.066620 7.000000
172.076490 8.000000
173.009870 7.000000
173.061510 12.000000
173.138240 6.000000
175.039140 6.000000
175.061290 6.000000
175.077880 11.000000
177.010210 6.000000
177.053340 38.000000
179.036030 20.000000
185.054790 6.000000
185.127620 7.000000
185.147550 7.000000
189.009630 17.000000
189.046520 7.000000
189.062970 7.000000
189.620740 6.000000
190.100050 6.000000
191.021010 6.000000
191.032490 7.000000
191.052550 8.000000
192.037060 8.000000
193.059920 11.000000
195.014650 9.000000
195.028320 45.000000
195.081530 8.000000
196.036870 13.000000
197.107150 6.000000
198.168370 6.000000
201.013280 7.000000
201.097180 8.000000
202.099780 6.000000
203.070360 28.000000
203.077610 11.000000
203.107560 6.000000
204.030270 6.000000
205.039870 10.000000
205.045430 25.000000
207.066390 12.000000
207.157170 6.000000
208.087710 10.000000
209.055920 6.000000
211.074230 16.000000
211.111710 6.000000
212.081760 7.000000
213.092590 9.000000
213.121660 7.000000
213.132350 6.000000
215.027470 11.000000
215.108510 6.000000
215.760350 15.000000
217.092090 8.000000
219.020900 6.000000
219.051990 8.000000
219.065930 29.000000
221.010010 9.000000
221.045500 7.000000
223.025220 7.000000
223.046620 6.000000
223.061870 9.000000
227.110090 18.000000
229.045680 9.000000
230.127200 6.000000
231.035540 6.000000
231.062590 8.000000
233.035830 38.000000
233.048200 52.000000
234.046330 12.000000
237.035770 8.000000
237.074750 7.000000
241.053310 10.000000
241.119770 15.000000
241.129140 7.000000
243.098070 14.000000
245.116740 7.000000
247.026020 6.000000
247.042340 8.000000
247.061020 11.000000
248.070390 19.000000
249.081620 8.000000
251.015440 8.000000
251.048970 12.000000
251.062010 20.000000
251.074010 10.000000
252.072040 11.000000
257.044250 9.000000
257.123500 7.000000
260.127620 6.000000
261.028050 7.000000
261.045410 13.000000
261.062190 6.000000
263.056580 11.000000
265.069580 16.000000
267.063480 6.000000
267.088990 10.000000
267.114590 7.000000
272.145420 6.000000
275.075810 6.000000
275.119810 7.000000
276.064390 13.000000
277.013890 6.000000
279.026950 8.000000
279.056490 19.000000
280.059880 6.000000
281.067540 14.000000
287.120610 6.000000
293.095580 7.000000
294.050170 8.000000
294.065090 6.000000
295.095250 6.000000
295.110900 7.000000
304.053380 7.000000
305.123140 7.000000
307.037630 28.000000
307.052460 51.000000
308.054750 6.000000
308.065090 6.000000
309.044490 8.000000
312.074650 7.000000
314.247160 6.000000
315.104920 6.000000
315.132170 7.000000
318.815520 7.000000
319.127840 9.000000
321.140110 12.000000
323.077150 7.000000
325.050140 97.000000
325.067750 44.000000
325.087400 9.000000
326.052580 6.000000
326.061000 15.000000
327.057980 6.000000
327.073850 12.000000
331.114720 13.000000
333.140840 7.000000
335.077850 12.000000
335.843320 6.000000
339.071200 6.000000
339.086460 6.000000
349.065430 7.000000
349.121090 46.000000
349.135930 11.000000
350.124940 8.000000
353.040500 11.000000
353.058350 13.000000
359.103390 6.000000
361.126890 6.000000
367.046080 6.000000
367.127010 20.000000
367.153020 13.000000
368.152400 7.000000
377.110990 6.000000
377.130950 55.000000
385.069640 8.000000
386.061580 8.000000
389.583770 7.000000
395.107360 6.000000
395.137760 30.000000
396.143890 7.000000
396.161620 6.000000
405.123320 13.000000
413.131260 6.000000
417.749270 6.000000
423.111360 6.000000
423.131230 6.000000
424.120670 8.000000
428.660950 7.000000
441.095210 19.000000
441.129060 396.000000
441.142210 1000.000000

>ms2peaks
395.136660 15.000000
441.090640 13.000000
441.139650 1000.000000

>ms2peaks
57.035160 33.000000
57.071370 25.000000
57.076190 48.000000
71.016500 26.000000
81.074100 30.000000
84.090280 25.000000
95.048760 29.000000
95.086200 29.000000
97.019940 23.000000
97.028850 77.000000
104.726270 31.000000
107.054020 26.000000
107.081470 35.000000
109.032040 25.000000
112.080760 57.000000
113.016270 22.000000
119.044300 50.000000
123.049380 22.000000
125.027560 31.000000
129.069030 23.000000
130.072880 44.000000
131.085460 23.000000
135.055080 52.000000
137.055440 26.000000
138.068660 23.000000
139.041090 34.000000
145.064850 25.000000
147.079910 91.000000
147.172380 27.000000
148.082410 27.000000
149.012680 38.000000
149.062010 55.000000
149.069930 25.000000
155.028810 37.000000
155.036000 43.000000
159.078480 64.000000
161.054500 26.000000
161.062070 25.000000
161.088710 27.000000
161.537860 29.000000
163.043370 64.000000
163.081090 22.000000
165.024540 87.000000
169.066850 22.000000
172.062650 22.000000
172.086910 30.000000
173.049680 34.000000
173.059310 23.000000
174.019000 23.000000
174.106220 27.000000
175.074130 73.000000
176.082660 22.000000
177.055310 467.000000
178.054570 48.000000
179.079440 30.000000
182.112550 22.000000
183.094160 39.000000
185.099400 29.000000
186.092270 26.000000
187.038470 90.000000
187.104400 33.000000
187.111470 25.000000
188.070180 22.000000
188.091840 23.000000
189.001820 72.000000
189.036740 31.000000
189.053620 47.000000
189.061890 50.000000
189.089140 46.000000
190.019910 22.000000
190.103810 59.000000
191.031170 137.000000
191.059340 39.000000
191.089800 27.000000
193.010180 54.000000
193.050160 148.000000
193.097150 26.000000
193.471010 27.000000
194.058120 26.000000
194.080050 37.000000
195.013630 40.000000
195.021360 82.000000
195.029460 129.000000
196.035740 27.000000
196.043470 22.000000
197.129000 26.000000
199.030200 23.000000
199.074910 23.000000
199.112490 74.000000
200.085970 26.000000
201.052460 178.000000
201.062520 50.000000
201.092100 43.000000
201.345840 26.000000
202.053540 46.000000
203.033460 22.000000
203.067960 112.000000
204.060210 23.000000
205.035780 50.000000
205.049150 380.000000
205.061940 25.000000
205.091350 50.000000
206.055370 33.000000
207.063510 48.000000
208.095830 52.000000
211.107940 23.000000
212.111770 26.000000
213.035260 27.000000
213.051270 59.000000
213.062010 27.000000
213.120960 48.000000
214.060790 29.000000
215.038060 27.000000
215.071320 57.000000
217.036390 26.000000
217.056870 47.000000
217.082410 61.000000
217.101000 26.000000
219.033970 144.000000
219.064620 102.000000
219.108140 25.000000
220.035830 31.000000
220.065810 26.000000
220.105650 22.000000
221.047070 134.000000
221.085430 26.000000
222.056410 50.000000
223.057390 89.000000
223.065220 39.000000
227.020290 46.000000
229.046620 103.000000
229.058930 27.000000
230.046170 29.000000
231.060780 97.000000
232.132710 22.000000
232.149720 33.000000
232.991500 48.000000
233.043960 666.000000
233.078020 59.000000
233.113710 23.000000
233.248750 26.000000
234.049270 99.000000
235.048110 69.000000
237.040080 131.000000
237.080950 27.000000
237.217130 27.000000
239.061390 22.000000
239.107440 63.000000
241.128980 22.000000
242.114560 26.000000
243.023360 33.000000
243.097720 33.000000
244.093120 22.000000
245.017820 22.000000
245.080180 59.000000
245.117390 26.000000
246.099260 23.000000
246.123200 23.000000
247.045030 121.000000
247.058140 319.000000
248.063480 26.000000
248.092590 51.000000
248.137770 25.000000
251.025480 60.000000
251.037320 136.000000
251.057300 275.000000
251.105910 22.000000
251.117900 23.000000
252.059420 87.000000
253.057530 27.000000
253.067860 26.000000
257.045170 80.000000
257.058650 25.000000
257.073910 23.000000
257.120360 59.000000
259.063600 52.000000
259.126950 51.000000
261.031100 127.000000
261.042790 171.000000
261.078250 31.000000
262.030910 72.000000
263.045780 70.000000
265.055820 29.000000
265.069460 22.000000
269.069000 48.000000
269.103850 33.000000
269.115940 35.000000
271.023100 29.000000
271.099980 22.000000
272.152190 26.000000
275.049380 73.000000
275.066220 33.000000
275.129030 54.000000
276.840910 34.000000
277.052580 40.000000
277.139130 82.000000
279.052280 131.000000
279.064390 35.000000
280.042180 31.000000
280.061040 48.000000
281.065090 47.000000
283.068630 26.000000
285.024020 39.000000
285.108150 35.000000
285.131230 26.000000
287.128810 47.000000
287.156340 22.000000
289.077240 30.000000
290.050380 31.000000
293.042970 25.000000
293.055300 26.000000
293.098240 23.000000
294.067780 23.000000
294.719940 25.000000
295.091250 23.000000
303.125670 51.000000
304.116090 23.000000
304.131290 26.000000
307.044590 1000.000000
308.043000 87.000000
308.058810 73.000000
309.047520 48.000000
309.069150 74.000000
311.095700 31.000000
313.121520 22.000000
321.054320 38.000000
321.065830 78.000000
321.142700 61.000000
325.015440 25.000000
325.044980 240.000000
325.060940 469.000000
325.111630 30.000000
326.049740 85.000000
326.064880 108.000000
326.081330 27.000000
327.056520 70.000000
327.091490 22.000000
331.128720 60.000000
332.115450 27.000000
336.146150 30.000000
339.152070 23.000000
341.097990 25.000000
342.108340 26.000000
349.126680 25.000000
349.142090 25.000000
351.131870 23.000000
353.050200 68.000000
359.099700 27.000000
359.113310 26.000000
359.123960 23.000000
367.086910 47.000000
367.140080 27.000000
378.093020 22.000000
378.130430 52.000000

>ms2peaks
71.084930 34.000000
77.036650 49.000000
83.010540 60.000000
83.017540 76.000000
83.049610 24.000000
89.040800 26.000000
91.043090 24.000000
91.055030 98.000000
92.059230 24.000000
93.028790 29.000000
93.067680 23.000000
93.073310 62.000000
94.072740 32.000000
95.093690 24.000000
98.153400 80.000000
102.154340 33.000000
103.049740 27.000000
103.056100 121.000000
104.055550 30.000000
105.070560 222.000000
105.987040 24.000000
107.014720 39.000000
107.048600 116.000000
109.029340 29.000000
111.042890 75.000000
115.057630 122.000000
117.069610 27.000000
118.076330 26.000000
119.044530 86.000000
119.084280 50.000000
121.029230 29.000000
121.063270 208.000000
123.045100 132.000000
124.009110 47.000000
125.020550 30.000000
128.062230 76.000000
128.670960 24.000000
129.058850 29.000000
129.070310 67.000000
131.045320 26.000000
131.091080 26.000000
132.049220 24.000000
132.076050 36.000000
133.025420 80.000000
133.066620 155.000000
133.109530 39.000000
134.072140 46.000000
135.035770 24.000000
135.047260 110.000000
135.078690 27.000000
137.026440 149.000000
137.056960 26.000000
137.440830 29.000000
139.033740 24.000000
141.069380 34.000000
141.075350 29.000000
143.049680 77.000000
143.092620 29.000000
144.038210 39.000000
144.053620 24.000000
145.022800 27.000000
145.061040 56.000000
145.068160 36.000000
147.095520 27.000000
148.085460 26.000000
148.987150 33.000000
149.020940 209.000000
149.030120 76.000000
149.058530 175.000000
149.069150 90.000000
149.122890 37.000000
150.015780 27.000000
150.025190 30.000000
150.033400 32.000000
151.004550 33.000000
151.044970 63.000000
153.006930 43.000000
153.020900 27.000000
153.051440 29.000000
156.053190 30.000000
157.071760 53.000000
159.044980 56.000000
159.076370 60.000000
161.023100 24.000000
161.057630 26.000000
162.061870 76.000000
163.013840 39.000000
163.040880 82.000000
163.074280 95.000000
163.083760 30.000000
164.036420 29.000000
164.047580 26.000000
164.681690 24.000000
165.015900 60.000000
165.070680 29.000000
167.031630 73.000000
168.046980 34.000000
169.026930 27.000000
170.070680 44.000000
171.036610 55.000000
171.081830 27.000000
171.188780 24.000000
173.061340 83.000000
174.022770 29.000000
174.098100 24.000000
175.044460 24.000000
175.077000 24.000000
177.015460 56.000000
177.054750 1000.000000
177.097080 27.000000
178.029830 30.000000
178.060880 63.000000
178.068080 30.000000
178.077260 36.000000
180.097080 24.000000
181.403870 32.000000
183.039170 24.000000
183.121540 26.000000
185.060010 36.000000
185.097670 92.000000
187.036410 55.000000
187.111800 24.000000
189.054930 43.000000
189.064900 53.000000
189.091190 26.000000
190.056820 30.000000
191.028400 66.000000
191.039670 53.000000
193.050290 36.000000
195.029850 505.000000
196.038150 56.000000
199.073040 29.000000
199.083980 26.000000
201.023940 27.000000
201.058820 33.000000
201.128310 36.000000
202.034040 39.000000
203.078430 88.000000
204.049220 33.000000
205.021390 24.000000
205.045410 102.000000
207.027500 24.000000
207.060820 43.000000
212.083830 34.000000
212.109630 40.000000
215.036070 82.000000
215.056300 29.000000
215.068500 24.000000
216.075120 33.000000
217.047610 24.000000
219.058720 55.000000
219.072190 29.000000
220.072620 29.000000
221.052810 29.000000
223.063750 33.000000
225.059680 34.000000
225.090300 34.000000
230.046340 24.000000
231.133800 32.000000
243.022350 29.000000
251.007720 34.000000
374.768280 24.000000

>ms2peaks
57.065420 7.000000
97.063510 12.000000
107.087330 10.000000
125.020830 6.000000
129.073170 6.000000
137.020030 7.000000
137.048250 6.000000
137.772600 7.000000
147.078410 6.000000
149.022250 6.000000
151.033110 6.000000
151.110980 6.000000
153.082020 6.000000
155.036670 8.000000
157.103320 6.000000
161.058610 7.000000
163.073430 7.000000
163.115170 7.000000
165.026290 7.000000
165.049850 6.000000
165.057650 6.000000
165.068120 6.000000
173.119770 7.000000
175.034070 7.000000
175.078060 7.000000
177.051940 40.000000
177.059830 24.000000
178.056670 6.000000
179.033650 6.000000
179.118440 6.000000
185.055710 6.000000
187.042220 7.000000
187.108830 6.000000
187.147570 8.000000
189.034480 6.000000
189.057370 7.000000
191.071330 6.000000
191.223510 6.000000
193.046590 11.000000
194.054430 7.000000
195.022660 6.000000
195.034480 27.000000
195.067060 17.000000
195.114550 7.000000
196.035580 6.000000
197.034500 7.000000
197.105800 9.000000
199.147770 10.000000
201.054860 7.000000
203.034300 6.000000
203.056180 8.000000
203.076320 15.000000
205.051320 31.000000
205.071720 6.000000
206.050980 8.000000
207.118940 10.000000
209.028760 8.000000
209.041530 6.000000
211.105010 10.000000
213.134750 6.000000
215.857250 7.000000
218.094650 6.000000
219.065050 7.000000
220.076260 6.000000
221.047150 8.000000
222.038270 8.000000
223.026200 7.000000
223.107120 20.000000
223.119550 6.000000
225.040020 6.000000
229.051510 13.000000
229.088530 10.000000
229.165950 6.000000
231.035190 9.000000
231.053630 6.000000
233.042100 29.000000
233.051990 25.000000
233.086750 6.000000
235.058330 6.000000
237.045230 6.000000
238.046230 10.000000
240.076830 8.000000
241.079420 6.000000
241.126860 12.000000
242.106220 7.000000
243.023610 6.000000
243.091670 9.000000
243.107450 6.000000
245.047990 6.000000
245.115390 6.000000
247.058550 24.000000
247.092730 6.000000
247.134700 7.000000
248.074810 6.000000
249.071910 7.000000
250.074010 7.000000
251.055530 54.000000
251.071610 6.000000
251.103930 6.000000
252.070830 7.000000
252.103850 7.000000
257.053590 7.000000
257.114750 15.000000
259.063900 13.000000
260.133210 7.000000
261.036500 20.000000
263.060700 19.000000
265.073090 10.000000
265.084290 9.000000
266.080510 6.000000
269.115110 6.000000
274.050840 9.000000
274.781490 11.000000
275.060300 24.000000
275.224270 6.000000
275.849270 7.000000
276.067110 8.000000
277.063810 9.000000
277.149320 7.000000
279.050050 6.000000
279.061650 7.000000
282.062900 7.000000
282.076600 7.000000
285.120150 9.000000
286.118900 6.000000
287.113340 7.000000
289.030270 6.000000
290.064360 8.000000
293.073000 20.000000
293.307770 6.000000
294.077480 7.000000
295.072330 7.000000
301.572970 8.000000
303.113070 14.000000
304.021330 13.000000
305.140440 8.000000
306.132420 6.000000
307.041750 51.000000
307.059630 8.000000
308.043850 21.000000
308.055760 14.000000
309.053280 5.000000
309.064820 15.000000
311.077760 6.000000
313.094790 7.000000
316.125460 11.000000
321.049380 6.000000
321.066500 6.000000
321.123900 13.000000
322.057250 6.000000
325.023190 19.000000
325.058590 152.000000
325.648650 6.000000
326.051940 20.000000
326.069520 6.000000
331.109860 6.000000
331.132260 6.000000
332.115450 10.000000
332.139590 19.000000
339.050110 7.000000
339.067230 12.000000
340.112550 11.000000
349.117740 6.000000
349.136050 12.000000
349.151150 7.000000
350.059300 7.000000
353.042940 26.000000
353.064270 31.000000
354.059810 14.000000
356.116300 19.000000
359.116460 24.000000
360.107790 6.000000
366.127200 6.000000
367.103420 12.000000
367.118190 8.000000
367.148620 13.000000
368.074130 6.000000
368.141390 8.000000
369.141540 9.000000
370.149510 6.000000
377.102260 6.000000
377.124850 19.000000
378.143340 13.000000
382.301790 7.000000
383.728550 7.000000
384.364930 6.000000
385.071260 12.000000
395.078250 9.000000
395.139620 55.000000
405.112210 9.000000
405.125430 7.000000
422.407530 6.000000
441.059780 7.000000
441.085270 6.000000
441.138550 1000.000000

>ms2peaks
339.053590 5.000000
353.059140 6.000000
386.866030 5.000000
395.134490 17.000000
441.140960 1000.000000

>ms2peaks
76.583190 25.000000
83.013260 23.000000
90.608360 45.000000
97.019680 25.000000
97.025810 46.000000
108.851720 23.000000
109.028190 32.000000
109.102200 23.000000
111.017600 27.000000
111.082110 52.000000
121.025760 25.000000
121.064140 24.000000
121.070790 22.000000
121.087750 25.000000
128.038440 23.000000
131.083910 38.000000
133.255870 34.000000
135.049880 27.000000
135.078550 28.000000
137.059770 52.000000
147.043060 25.000000
147.082750 24.000000
147.119980 38.000000
148.049710 22.000000
149.019810 24.000000
149.059480 76.000000
150.067170 31.000000
151.044220 80.000000
152.075260 24.000000
153.050740 22.000000
154.053470 64.000000
155.019070 22.000000
155.029480 25.000000
155.037550 73.000000
155.067630 22.000000
156.495100 24.000000
157.028050 27.000000
157.060810 34.000000
157.105060 55.000000
159.085070 25.000000
161.058780 53.000000
161.094910 53.000000
163.079420 28.000000
163.120190 28.000000
164.187450 31.000000
165.019360 118.000000
166.025020 23.000000
167.026400 22.000000
170.108320 22.000000
171.040910 31.000000
171.083190 23.000000
173.017240 23.000000
173.065000 24.000000
175.042270 51.000000
175.070620 120.000000
177.017330 27.000000
177.054530 406.000000
178.057420 60.000000
178.067050 43.000000
179.029850 24.000000
179.061980 29.000000
185.064510 112.000000
185.126080 27.000000
185.134720 25.000000
187.041050 31.000000
187.072160 25.000000
189.012440 25.000000
189.054430 151.000000
189.082020 23.000000
189.135190 28.000000
191.036240 76.000000
191.066600 23.000000
191.103610 29.000000
192.083420 27.000000
193.054470 93.000000
193.091520 23.000000
195.025790 183.000000
195.033680 164.000000
195.065200 102.000000
195.122210 22.000000
196.023510 22.000000
196.033040 23.000000
196.070470 37.000000
198.100540 31.000000
199.098270 32.000000
201.034450 39.000000
201.054670 197.000000
201.130920 57.000000
202.025280 47.000000
202.054550 64.000000
203.003400 25.000000
203.032240 33.000000
203.048780 43.000000
203.062360 66.000000
203.071730 173.000000
203.142820 23.000000
204.073550 25.000000
205.026550 73.000000
205.044250 224.000000
205.052110 109.000000
205.064410 22.000000
205.970580 31.000000
206.035420 27.000000
206.049320 29.000000
207.061550 22.000000
207.071900 46.000000
208.079130 25.000000
209.042370 34.000000
210.096730 28.000000
211.025050 50.000000
211.107790 53.000000
213.050540 41.000000
213.061890 84.000000
213.115940 27.000000
213.126110 55.000000
213.139830 23.000000
214.125230 27.000000
215.040420 22.000000
215.067280 22.000000
216.073880 22.000000
217.050030 108.000000
217.121780 22.000000
219.020250 55.000000
219.053190 79.000000
219.070890 22.000000
219.083340 25.000000
219.134630 22.000000
219.142870 23.000000
220.025990 24.000000
221.047610 50.000000
221.056240 24.000000
222.042080 32.000000
223.044420 22.000000
223.051820 69.000000
223.062530 80.000000
223.100830 25.000000
224.096890 22.000000
227.096860 25.000000
227.105010 32.000000
228.077510 23.000000
229.034700 70.000000
229.054790 170.000000
229.086900 55.000000
229.130360 22.000000
230.041950 27.000000
230.053340 23.000000
231.017200 27.000000
231.060560 220.000000
231.072110 112.000000
232.088620 22.000000
232.130200 37.000000
233.021500 25.000000
233.039700 316.000000
233.049580 220.000000
233.118440 29.000000
233.992980 36.000000
234.123950 25.000000
235.046170 23.000000
235.061130 25.000000
235.105040 31.000000
236.073270 29.000000
237.018280 31.000000
237.030350 50.000000
237.045940 74.000000
237.071850 32.000000
237.781140 41.000000
238.087390 22.000000
239.045500 28.000000
239.095400 22.000000
239.112290 23.000000
241.121860 25.000000
243.073180 43.000000
243.105640 23.000000
243.144580 27.000000
243.488970 28.000000
244.027970 76.000000
245.037950 25.000000
245.047990 59.000000
247.041400 109.000000
247.057530 336.000000
247.071670 154.000000
248.076000 22.000000
249.031780 27.000000
249.058320 25.000000
251.031490 57.000000
251.049580 187.000000
251.062810 309.000000
252.061540 65.000000
252.069640 55.000000
253.125960 28.000000
255.090010 28.000000
257.043880 51.000000
257.073210 23.000000
257.113040 51.000000
257.125640 74.000000
258.055940 22.000000
258.124690 25.000000
259.134860 41.000000
259.148440 24.000000
260.127660 46.000000
261.045620 148.000000
261.074280 43.000000
261.114380 32.000000
263.040010 28.000000
263.089810 31.000000
263.099060 34.000000
265.027470 32.000000
265.058470 27.000000
265.079070 29.000000
265.089570 23.000000
267.101010 83.000000
267.148100 61.000000
269.105070 22.000000
269.113460 25.000000
271.065430 22.000000
273.043640 22.000000
275.048890 93.000000
275.062500 60.000000
275.120510 52.000000
279.043580 137.000000
279.054200 71.000000
279.116820 23.000000
281.078120 22.000000
282.077480 22.000000
284.101840 28.000000
285.036160 59.000000
285.099670 32.000000
285.118710 76.000000
286.070800 25.000000
287.115750 25.000000
287.131260 22.000000
288.676210 22.000000
289.041380 24.000000
289.114470 22.000000
293.006810 25.000000
293.071260 80.000000
293.126340 25.000000
295.088410 34.000000
297.115540 51.000000
303.128660 53.000000
304.117710 38.000000
305.097170 27.000000
307.006160 24.000000
307.043910 1000.000000
307.120880 25.000000
307.131650 32.000000
308.040590 123.000000
308.054080 47.000000
309.039120 27.000000
311.080170 25.000000
312.057280 41.000000
313.095370 62.000000
321.058590 32.000000
321.121860 27.000000
321.141270 24.000000
323.161620 25.000000
325.051940 725.000000
325.068300 293.000000
326.053620 83.000000
327.055790 94.000000
331.113370 50.000000
332.117250 28.000000
333.143710 25.000000
335.054810 28.000000
335.069920 22.000000
335.086520 33.000000
337.065670 24.000000
339.089600 22.000000
349.097870 36.000000
349.119380 48.000000
350.097630 22.000000
351.115780 23.000000
353.017330 22.000000
353.057680 65.000000
359.108610 25.000000
363.075040 32.000000
365.043700 29.000000
367.140050 90.000000
377.122650 56.000000
377.135800 25.000000
405.050900 23.000000
441.148650 25.000000

>ms2peaks
55.051800 38.000000
73.022530 29.000000
79.051920 102.000000
80.725460 31.000000
82.036550 29.000000
83.014440 102.000000
83.051690 35.000000
85.030540 29.000000
91.040200 43.000000
91.045880 73.000000
91.050990 41.000000
91.056950 29.000000
93.032860 81.000000
95.014290 40.000000
95.038790 48.000000
95.079790 29.000000
95.084380 31.000000
102.975040 36.000000
103.041690 40.000000
105.071110 373.000000
107.047140 33.000000
107.053670 47.000000
108.057420 43.000000
109.030620 41.000000
109.062680 35.000000
110.031720 29.000000
111.042240 47.000000
111.047740 36.000000
115.052530 35.000000
115.597170 40.000000
116.058420 31.000000
119.052020 57.000000
120.057530 35.000000
121.028210 121.000000
121.066960 278.000000
122.029860 29.000000
127.051540 48.000000
129.070600 29.000000
130.074510 35.000000
130.942320 31.000000
131.046920 86.000000
131.054000 33.000000
133.032010 93.000000
133.061290 35.000000
133.100200 38.000000
135.010410 47.000000
135.027820 43.000000
135.038670 38.000000
135.046910 121.000000
136.039400 40.000000
137.013790 31.000000
137.019040 38.000000
138.029310 43.000000
139.038600 48.000000
142.073580 29.000000
143.028690 35.000000
143.060230 123.000000
143.080220 29.000000
144.091600 43.000000
145.062580 35.000000
145.105380 43.000000
147.037410 35.000000
147.048950 36.000000
147.078630 73.000000
149.027240 147.000000
149.058990 269.000000
151.033000 33.000000
151.040710 123.000000
153.018310 180.000000
153.056120 73.000000
153.084290 50.000000
155.048030 40.000000
156.050690 52.000000
156.099810 31.000000
157.056730 35.000000
157.093490 31.000000
157.103040 36.000000
159.044020 62.000000
161.023160 29.000000
161.055760 35.000000
161.062840 31.000000
162.029830 33.000000
162.063420 29.000000
163.031620 29.000000
163.039380 31.000000
163.045850 35.000000
163.076400 67.000000
165.018890 157.000000
165.057360 29.000000
165.073140 52.000000
168.089780 71.000000
169.029570 43.000000
170.109740 52.000000
171.076800 35.000000
172.046800 36.000000
173.025940 88.000000
173.049410 29.000000
173.920150 35.000000
175.030990 29.000000
175.048540 41.000000
176.031510 29.000000
177.024550 76.000000
177.032990 54.000000
177.054120 1000.000000
178.052370 62.000000
178.064060 76.000000
179.033340 43.000000
179.079770 33.000000
181.094680 31.000000
182.115620 29.000000
183.075240 29.000000
185.065670 35.000000
187.033770 29.000000
187.042770 64.000000
188.115220 41.000000
190.997770 76.000000
191.045490 45.000000
191.060650 31.000000
191.088200 29.000000
192.039000 133.000000
193.044850 29.000000
193.056080 35.000000
195.025090 228.000000
195.034620 35.000000
196.030270 29.000000
197.022920 36.000000
197.100920 38.000000
200.044660 29.000000
201.089260 35.000000
202.061000 35.000000
203.037570 31.000000
203.110090 38.000000
205.006910 35.000000
205.049060 135.000000
206.051040 33.000000
209.064070 29.000000
211.082350 35.000000
211.106540 35.000000
216.036000 47.000000
217.110150 31.000000
219.063190 29.000000
222.056530 29.000000
223.060620 35.000000
223.122090 33.000000
227.107990 64.000000
229.063370 64.000000
231.064640 36.000000
233.041750 41.000000
240.073530 31.000000
243.018550 31.000000
289.570340 31.000000
441.132450 35.000000

>ms2peaks
69.037120 18.000000
79.054270 30.000000
83.012220 38.000000
83.085390 19.000000
95.010320 31.000000
99.045360 17.000000
104.183750 18.000000
105.070210 21.000000
109.098840 18.000000
115.054970 17.000000
121.075650 21.000000
124.111960 20.000000
128.003520 20.000000
129.070890 23.000000
131.045270 20.000000
135.038530 21.000000
135.079070 31.000000
141.059920 24.000000
144.057710 24.000000
147.046130 21.000000
149.055570 17.000000
149.065570 33.000000
156.099620 22.000000
157.038040 29.000000
157.103440 37.000000
159.040890 24.000000
159.084690 19.000000
160.082230 20.000000
161.052280 17.000000
163.034580 17.000000
167.244660 20.000000
170.109240 20.000000
171.026200 20.000000
171.041380 21.000000
173.059330 48.000000
175.042330 31.000000
175.065460 35.000000
175.072980 35.000000
176.079970 18.000000
177.035780 21.000000
177.053590 281.000000
178.030320 31.000000
178.076710 33.000000
181.010590 17.000000
182.081010 27.000000
183.045440 20.000000
187.036820 24.000000
188.033170 24.000000
189.053150 43.000000
189.064090 35.000000
190.096770 21.000000
191.034810 17.000000
191.070070 20.000000
191.077030 17.000000
193.063430 25.000000
193.084630 23.000000
195.017090 21.000000
195.028410 171.000000
195.063630 20.000000
196.029460 22.000000
196.079280 18.000000
197.034640 23.000000
197.141050 18.000000
199.031800 20.000000
199.049820 18.000000
199.073900 58.000000
201.054340 79.000000
201.096220 23.000000
202.059360 18.000000
202.101880 24.000000
203.070020 32.000000
203.143740 20.000000
203.238370 28.000000
205.050810 168.000000
205.111890 18.000000
207.089690 17.000000
207.098600 17.000000
209.045390 20.000000
209.055680 27.000000
211.051800 20.000000
211.102070 20.000000
213.060100 22.000000
213.095660 37.000000
215.035200 18.000000
217.051350 17.000000
219.031770 20.000000
219.068410 35.000000
220.079500 19.000000
223.107160 23.000000
223.116670 25.000000
225.066300 20.000000
226.041890 21.000000
227.059280 18.000000
227.829760 20.000000
228.069050 29.000000
229.053390 78.000000
230.049070 35.000000
230.133800 17.000000
231.066130 34.000000
231.122210 20.000000
231.134670 39.000000
233.045010 125.000000
234.002550 17.000000
235.021610 18.000000
235.056960 24.000000
235.077180 22.000000
238.051710 20.000000
241.133610 29.000000
242.082120 18.000000
243.030940 21.000000
246.958100 20.000000
247.046300 20.000000
247.058640 61.000000
247.064270 25.000000
249.037230 21.000000
249.145360 23.000000
250.038500 17.000000
250.080110 25.000000
251.053340 319.000000
251.064700 72.000000
252.063190 20.000000
252.103530 20.000000
254.031750 24.000000
257.036870 18.000000
257.105930 22.000000
259.062680 22.000000
259.128080 17.000000
261.055450 27.000000
262.608180 20.000000
265.064270 20.000000
268.892360 20.000000
269.104280 17.000000
271.216430 32.000000
272.130740 17.000000
273.110410 21.000000
275.047150 66.000000
276.121430 20.000000
277.074650 21.000000
279.041410 72.000000
279.050200 22.000000
280.042240 18.000000
280.066530 17.000000
280.437710 43.000000
281.080810 17.000000
282.065120 20.000000
287.075500 20.000000
287.120030 18.000000
287.133940 17.000000
288.123260 22.000000
291.761870 18.000000
293.066440 25.000000
294.143250 23.000000
295.027440 17.000000
297.052000 24.000000
297.133510 25.000000
298.061830 20.000000
298.108640 18.000000
303.134920 26.000000
307.027250 17.000000
307.041470 196.000000
308.057190 20.000000
309.051360 26.000000
311.069790 29.000000
321.058470 24.000000
321.105930 35.000000
321.129850 72.000000
323.109340 29.000000
323.127960 25.000000
324.725190 21.000000
325.036190 20.000000
325.053620 402.000000
326.062620 23.000000
327.086790 19.000000
331.119290 43.000000
332.028470 26.000000
335.069580 19.000000
337.136720 17.000000
339.070920 36.000000
341.104520 19.000000
342.099730 35.000000
349.053310 17.000000
349.114530 21.000000
349.137880 22.000000
350.127380 18.000000
353.037840 28.000000
353.053190 141.000000
353.498380 21.000000
359.105040 94.000000
366.131010 26.000000
367.060640 21.000000
367.074430 44.000000
367.122800 29.000000
367.139500 21.000000
377.111760 40.000000
377.133910 20.000000
378.115300 35.000000
378.137940 35.000000
379.105870 20.000000
395.105680 18.000000
395.126860 53.000000
395.141570 66.000000
396.153780 39.000000
405.109710 20.000000
405.127930 25.000000
423.112490 25.000000
423.130860 58.000000
441.063690 20.000000
441.087460 36.000000
441.139160 3530.000000
441.171110 41.000000

