>compound PR12848282
>parentmass 722.4466
>ionization [M+H]+
>formula C39H63NO11
>rt 279.000000
>profile qtof
#smiles_iso CC1CCC2C(C3C(N2C1)CC4C3(CCC5C4CC=C6C5(CCC(C6)OC7C(C(C(C(O7)CO)O)OC8C(C(C(C(O8)CO)O)O)O)O)C)C)C
#smiles_can CC1CCC2C(C3C(N2C1)CC4C3(CCC5C4CC=C6C5(CCC(C6)OC7C(C(C(C(O7)CO)O)OC8C(C(C(C(O8)CO)O)O)O)O)C)C)C
#inchikey OCVQAFQRXHOFMV-UHFFFAOYSA-N
#pubchem_id 75114729
#mb_accession PR310701

>ms2
84.756610 21.000000
85.030490 17.000000
126.125050 17.000000
150.162810 28.000000
208.776700 20.000000
298.168090 21.000000
324.594570 20.000000
349.200960 20.000000
377.239750 30.000000
381.354430 20.000000
385.052800 21.000000
396.067960 33.000000
409.038330 19.000000
422.253360 18.000000
425.295440 19.000000
425.501740 23.000000
426.461060 22.000000
435.483920 21.000000
473.104280 20.000000
475.196410 21.000000
477.406830 22.000000
486.512600 17.000000
504.591550 17.000000
509.688140 22.000000
523.607240 23.000000
526.468810 24.000000
558.727540 46.000000
662.033510 27.000000
686.488770 19.000000
710.301030 28.000000
720.329770 27.000000
720.505430 17.000000
721.322880 18.000000
721.399170 39.000000
721.423030 19.000000
721.455930 17.000000
721.784060 18.000000
721.853390 18.000000
721.942500 20.000000
722.224490 18.000000
722.286130 17.000000
722.331970 52.000000
722.379330 328.000000
722.446900 19288.000000
722.523560 58.000000
722.549800 26.000000

