>compound PR12641636
>parentmass 168.1025
>ionization [M+H]+
>formula C9H13NO2
>rt 123.600000
>profile qtof
#smiles_iso COC1=C(C=CC(=C1)CCN)O
#smiles_can COC1=C(C=CC(=C1)CCN)O
#inchikey DIVQKHQLANKJQO-UHFFFAOYSA-N
#pubchem_id 1669
#mb_accession PR311158

>ms2
96.043000 24.000000
96.964680 18.000000
119.047510 43.000000
130.964770 17.000000
151.074230 169.000000
152.078250 18.000000
168.075040 31.000000
168.102890 50.000000

