>compound PR12092766
>parentmass 449.1078379
>ionization [M+H]+
>formula C21H20O11
>rt 244.422000
>profile qtof
#smiles_iso C1=CC(=CC=C1C2=CC(=O)C3=C(C(=C(C=C3O2)O[C@H]4[C@@H]([C@H]([C@@H]([C@H](O4)CO)O)O)O)O)O)O
#smiles_can C1=CC(=CC=C1C2=CC(=O)C3=C(C(=C(C=C3O2)OC4C(C(C(C(O4)CO)O)O)O)O)O)O
#inchikey VUGRLRAUZWGZJP-IAAKTDFRSA-N
#pubchem_id 5320623
#mb_accession PR303684,PR303686,PR303688,PR303690,PR303692,PR303694,PR303696,PR303698,PR303700,PR303702,PR303704,PR303706

>ms2
241.052550 8.000000
269.052890 6.000000
287.056670 1000.000000
288.060060 179.000000
289.061710 10.000000
449.111570 172.000000

>ms2
287.055540 408.000000
288.060520 51.000000
289.052190 10.000000
449.046390 6.000000
449.106780 1000.000000

>ms2
287.055570 1000.000000
288.059390 153.000000
289.051510 10.000000
289.065430 20.000000

>ms2
61.006870 5.000000
69.036490 5.000000
85.032610 6.000000
95.012600 34.000000
119.049180 197.000000
121.026850 22.000000
121.065930 5.000000
122.028490 14.000000
122.979380 5.000000
122.992010 12.000000
123.007740 324.000000
124.014820 24.000000
125.014180 5.000000
139.060580 5.000000
151.004210 35.000000
156.356380 5.000000
157.057970 9.000000
157.070760 10.000000
161.055310 10.000000
166.356140 9.000000
167.000750 6.000000
167.051240 6.000000
168.013930 6.000000
169.007720 40.000000
169.016660 119.000000
186.072240 5.000000
200.307820 5.000000
200.899200 5.000000
207.694660 7.000000
213.057020 15.000000
214.314240 7.000000
223.035930 54.000000
227.023030 7.000000
227.033750 33.000000
241.046770 40.000000
241.061450 9.000000
242.057270 14.000000
259.054440 8.000000
269.023770 7.000000
269.043980 64.000000
269.054900 30.000000
270.041260 8.000000
274.221560 7.000000
286.055300 9.000000
286.981080 9.000000
287.056400 1000.000000
287.139920 8.000000
288.026790 6.000000
288.061400 156.000000
289.061490 34.000000

>ms2
119.049910 6.000000
169.014310 10.000000
269.046600 13.000000
287.056180 1000.000000
288.060610 160.000000
289.055300 11.000000
289.067500 18.000000
449.060730 6.000000
449.110350 175.000000

>ms2
287.054660 417.000000
288.061430 46.000000
289.057770 9.000000
449.049680 6.000000
449.107670 1000.000000

>ms2
287.055360 1000.000000
288.059080 180.000000
289.055970 8.000000
289.064390 16.000000

>ms2
68.996790 8.000000
69.028270 9.000000
91.055660 21.000000
95.009960 31.000000
95.017890 8.000000
107.051280 7.000000
119.036110 8.000000
119.043280 41.000000
119.051040 177.000000
120.048100 12.000000
121.029560 48.000000
122.990200 11.000000
123.008260 347.000000
124.004350 9.000000
124.010280 34.000000
131.041980 9.000000
145.075610 8.000000
146.030140 5.000000
147.035200 13.000000
151.002110 36.000000
157.061580 9.000000
157.070860 7.000000
165.463930 14.000000
168.013930 7.000000
169.011550 104.000000
169.022770 38.000000
170.008210 9.000000
170.021470 8.000000
185.056270 7.000000
185.064710 5.000000
195.043950 10.000000
195.051390 17.000000
199.044480 7.000000
200.048450 6.000000
213.046920 12.000000
213.057680 27.000000
217.048540 6.000000
223.037640 20.000000
227.034450 59.000000
228.038210 16.000000
231.075270 7.000000
236.277890 7.000000
241.050050 55.000000
242.046620 17.000000
245.041820 9.000000
259.023040 6.000000
259.053710 15.000000
259.064090 24.000000
265.043400 6.000000
269.042850 148.000000
270.053470 14.000000
271.063960 7.000000
287.056490 1000.000000
288.051910 66.000000
288.063390 131.000000
289.056150 12.000000

>ms2
119.048480 6.000000
241.044170 6.000000
269.039150 5.000000
287.056270 1000.000000
288.058840 169.000000
289.058200 16.000000
289.075650 10.000000
290.054780 6.000000
449.110630 211.000000

>ms2
287.055970 435.000000
288.051450 37.000000
288.061710 52.000000
289.059660 6.000000
449.059880 10.000000
449.107450 1000.000000

>ms2
287.055080 1000.000000
288.059110 187.000000
289.042600 6.000000
289.063170 23.000000

>ms2
78.219010 6.000000
91.057090 42.000000
92.957900 6.000000
95.009150 17.000000
95.016240 21.000000
97.026870 13.000000
99.048440 6.000000
119.048780 292.000000
120.051510 27.000000
121.012500 7.000000
121.027340 50.000000
121.035500 5.000000
122.032850 18.000000
123.008220 391.000000
124.011620 19.000000
125.008710 9.000000
126.007430 10.000000
131.046330 15.000000
134.259460 6.000000
141.016450 10.000000
145.023540 10.000000
145.042660 8.000000
150.994640 9.000000
151.004330 26.000000
153.541150 5.000000
157.058110 19.000000
157.064710 20.000000
158.057600 6.000000
167.048810 9.000000
167.599210 5.000000
168.996920 8.000000
169.010380 139.000000
169.018390 41.000000
170.013150 15.000000
171.037220 23.000000
173.057860 5.000000
174.354600 5.000000
185.048130 9.000000
185.060120 14.000000
195.043660 13.000000
197.064830 8.000000
199.035060 16.000000
201.047900 6.000000
204.847760 6.000000
213.055280 26.000000
221.847530 6.000000
223.043880 9.000000
227.033710 59.000000
241.049160 75.000000
242.053890 14.000000
254.482510 8.000000
258.049220 5.000000
258.065520 6.000000
259.065460 13.000000
269.043460 135.000000
270.035310 6.000000
270.055150 6.000000
286.043460 5.000000
287.024540 13.000000
287.054350 1000.000000
288.046300 25.000000
288.057430 113.000000
288.071750 29.000000
289.057040 17.000000
289.072970 18.000000
300.613890 11.000000
307.326540 7.000000
317.251770 5.000000

