>compound PR12268281
>parentmass 212.0551
>ionization [M+H]+
>formula C9H9NO5
>rt 155.400000
>profile qtof
#smiles_iso COC1=CC2=C(C=C1)N(C(=O)C(O2)O)O
#smiles_can COC1=CC2=C(C=C1)N(C(=O)C(O2)O)O
#inchikey GDNZNIJPBQATCZ-UHFFFAOYSA-N
#pubchem_id 2358
#mb_accession PR311132

>ms2
110.064110 21.000000
111.002320 18.000000
111.039580 16.000000
112.044390 27.000000
122.976700 20.000000
138.045040 18.000000
138.061650 65.000000
139.041960 99.000000
166.039690 25.000000
170.978160 23.000000
171.036610 17.000000
177.030110 27.000000
181.950470 17.000000

