>compound PR12303820
>parentmass 245.0781
>ionization [M+H]+
>formula C9H12N2O6
>rt 108.000000
>profile qtof
#smiles_iso C1=CN(C(=O)NC1=O)C2C(C(C(O2)CO)O)O
#smiles_can C1=CN(C(=O)NC1=O)C2C(C(C(O2)CO)O)O
#inchikey DRTQHJPVMGBUCF-UHFFFAOYSA-N
#pubchem_id 1177
#mb_accession PR310812

>ms2peaks
69.070080 21.000000
84.082970 18.000000
86.089320 33.000000
86.097490 38.000000
96.003300 23.000000
98.065380 35.000000
108.052470 24.000000
111.089850 19.000000
112.047420 16.000000
113.036260 560.000000
114.036000 16.000000
114.090370 20.000000
115.034640 16.000000
120.079720 25.000000
129.068010 23.000000
133.050350 17.000000
137.041890 22.000000
142.931240 35.000000
143.039760 20.000000
146.094360 19.000000
156.058320 21.000000
168.062820 16.000000
171.068710 16.000000
183.112120 18.000000
207.975010 40.000000
227.090000 26.000000
228.145160 19.000000
245.074570 30.000000

