>compound PR12669898
>parentmass 337.1884
>ionization [M+H]+
>formula C16H24N4O4
>rt 196.200000
>profile qtof
#smiles_iso COC1=CC(=CC(=C1O)OC)C=CC(=O)NCCCCN=C(N)N
#smiles_can COC1=CC(=CC(=C1O)OC)C=CC(=O)NCCCCN=C(N)N
#inchikey RMPWIMTWMOPCAR-UHFFFAOYSA-N
#pubchem_id 145994461
#mb_accession PR310735

>ms2peaks
60.057810 20.000000
91.047680 24.000000
113.936040 29.000000
114.103710 43.000000
145.028990 38.000000
147.035980 19.000000
147.044690 33.000000
160.017810 16.000000
173.106740 19.000000
175.036700 75.000000
177.049610 16.000000
177.057450 44.000000
179.072530 16.000000
198.962420 17.000000
207.069440 72.000000
208.069990 86.000000
209.074860 16.000000
320.171050 26.000000
336.147060 22.000000
337.190220 425.000000

