>compound PR12370369
>parentmass 226.0718
>ionization [M+H]+
>formula C10H11NO5
>rt 224.400000
>profile qtof
#smiles_iso COC1=CC2=C(C=C1)N(C(=O)C(O2)O)OC
#smiles_can COC1=CC2=C(C=C1)N(C(=O)C(O2)O)OC
#inchikey XCSFLMDXLJMLBA-UHFFFAOYSA-N
#pubchem_id 11064107
#mb_accession PR311125,PR311126

>ms2peaks
95.041920 20.000000
95.049930 22.000000
99.968670 18.000000
107.037700 18.000000
107.047650 16.000000
110.054990 42.000000
110.063830 110.000000
117.006390 17.000000
122.058450 61.000000
122.063210 18.000000
123.047810 27.000000
125.039650 16.000000
138.050480 51.000000
138.056580 189.000000
139.060010 56.000000
141.960560 16.000000
143.958890 18.000000
155.075240 25.000000
166.051360 467.000000
167.040410 23.000000
167.050580 18.000000
167.057820 27.000000
186.949920 17.000000
194.052250 88.000000
210.059540 42.000000
217.872340 17.000000

>ms2peaks
65.038750 38.000000
95.036250 39.000000
95.052680 26.000000
95.985690 18.000000
107.955940 16.000000
110.049370 23.000000
110.058280 130.000000
110.066700 16.000000
111.042730 44.000000
111.065090 66.000000
120.043060 23.000000
122.059360 60.000000
126.064710 20.000000
134.024770 20.000000
138.056090 386.000000
138.061190 137.000000
139.053730 110.000000
139.076340 20.000000
140.036190 16.000000
140.288130 17.000000
150.058140 21.000000
153.045640 20.000000
153.732510 16.000000
155.063930 51.000000
155.073090 65.000000
166.026170 35.000000
166.051990 635.000000
167.055950 45.000000
167.067460 43.000000
173.140750 27.000000
176.002380 27.000000
176.034160 16.000000
194.064470 30.000000
194.226820 42.000000
226.064380 17.000000
226.086810 18.000000

