>compound PR12039166
>parentmass 349.1191
>ionization [M+H]+
>formula C20H16N2O4
>rt 324.000000
>profile qtof
#smiles_iso CCC1(C2=C(COC1=O)C(=O)N3CC4=CC5=CC=CC=C5N=C4C3=C2)O
#smiles_can CCC1(C2=C(COC1=O)C(=O)N3CC4=CC5=CC=CC=C5N=C4C3=C2)O
#inchikey VSJKWCGYPAHWDS-UHFFFAOYSA-N
#pubchem_id 2538
#mb_accession PR311099

>ms2peaks
107.048520 20.000000
143.080440 16.000000
149.030000 17.000000
155.063430 18.000000
166.052190 16.000000
166.067840 21.000000
167.064880 38.000000
167.084550 22.000000
168.075200 22.000000
177.130220 24.000000
178.067090 20.000000
180.066280 23.000000
180.087660 32.000000
181.075270 137.000000
181.086210 32.000000
182.081340 21.000000
184.092210 18.000000
189.260540 16.000000
191.066670 16.000000
192.069060 17.000000
193.078050 18.000000
194.498790 16.000000
195.098570 17.000000
198.441360 28.000000
198.472030 18.000000
202.068510 18.000000
203.055210 27.000000
204.069900 81.000000
204.079800 22.000000
205.060170 17.000000
205.082920 59.000000
206.090150 32.000000
209.067750 71.000000
216.081270 16.000000
217.074140 38.000000
217.087590 73.000000
217.097630 34.000000
217.108260 20.000000
217.494600 17.000000
218.083920 276.000000
218.107470 16.000000
218.827180 17.000000
219.089580 270.000000
219.111790 17.000000
219.602810 16.000000
220.090040 35.000000
220.097600 31.000000
220.110400 18.000000
220.148860 16.000000
221.100850 36.000000
222.115280 22.000000
222.523700 16.000000
224.755910 20.000000
224.932300 17.000000
228.076130 70.000000
228.097410 18.000000
229.088180 41.000000
230.080220 19.000000
230.092670 68.000000
230.101290 58.000000
231.095760 203.000000
231.108630 54.000000
232.078200 51.000000
232.100040 113.000000
232.109470 187.000000
233.069630 17.000000
233.092270 35.000000
233.107100 84.000000
233.672960 16.000000
234.084170 37.000000
234.113460 18.000000
235.076400 16.000000
241.094160 16.000000
242.067570 16.000000
242.093900 171.000000
242.112010 16.000000
243.039410 36.000000
243.086430 45.000000
243.100310 65.000000
243.107060 133.000000
244.098860 427.000000
244.118770 96.000000
245.080730 48.000000
245.093290 34.000000
245.104800 27.000000
245.114360 71.000000
245.124590 32.000000
246.076280 16.000000
246.115170 108.000000
246.998380 17.000000
247.087170 213.000000
247.125950 109.000000
248.083570 37.000000
248.094670 162.000000
248.128220 26.000000
248.138960 18.000000
249.096910 54.000000
249.141600 17.000000
250.101590 17.000000
250.111600 17.000000
255.091600 57.000000
255.106720 31.000000
256.072750 18.000000
256.103030 70.000000
256.114650 16.000000
257.081360 17.000000
257.104920 132.000000
257.114440 64.000000
257.728120 21.000000
258.083130 22.000000
258.100070 16.000000
258.111720 53.000000
259.070280 16.000000
259.084440 87.000000
259.116790 186.000000
259.133480 73.000000
260.073790 73.000000
260.098940 91.000000
260.124450 109.000000
260.133120 32.000000
260.167970 20.000000
261.110080 83.000000
261.149230 24.000000
262.099580 20.000000
266.092990 38.000000
267.103550 61.000000
267.973690 20.000000
268.092740 17.000000
270.079830 16.000000
270.118500 20.000000
271.078030 35.000000
271.096410 16.000000
272.067600 16.000000
272.083010 121.000000
272.098420 238.000000
272.131990 20.000000
273.069270 46.000000
273.098690 266.000000
273.116610 32.000000
273.232360 18.000000
274.071320 253.000000
274.098910 18.000000
274.115110 92.000000
275.049380 17.000000
275.073150 178.000000
275.084750 139.000000
275.120210 1502.000000
275.151180 32.000000
276.069150 18.000000
276.081970 83.000000
276.095610 19.000000
276.121280 367.000000
277.127320 101.000000
277.147000 17.000000
278.122130 16.000000
283.075260 17.000000
284.089080 73.000000
285.085510 52.000000
285.102600 392.000000
285.511870 18.000000
286.094820 46.000000
286.104060 80.000000
286.120210 47.000000
287.042910 20.000000
287.075160 88.000000
287.121060 2327.000000
288.086850 73.000000
288.118130 533.000000
288.134250 137.000000
289.100620 32.000000
289.114530 17.000000
289.135650 34.000000
290.113860 19.000000
290.124360 16.000000
292.072110 37.000000
299.661070 16.000000
299.830870 17.000000
300.095610 18.000000
301.093630 16.000000
301.107850 30.000000
301.122070 17.000000
302.107210 57.000000
302.586520 16.000000
303.021240 20.000000
303.065160 20.000000
303.114170 9533.000000
303.153870 18.000000
303.243740 20.000000
304.115170 2526.000000
304.147710 17.000000
304.554630 18.000000
305.109380 131.000000
305.126950 384.000000
305.155120 17.000000
305.236150 18.000000
306.123110 25.000000
306.138850 37.000000
307.121340 18.000000
312.613400 16.000000
313.094760 19.000000
313.107180 39.000000
320.078190 33.000000
320.092530 25.000000
321.086270 21.000000
331.090910 68.000000
331.111450 487.000000
331.258940 21.000000
332.115110 162.000000
333.112340 17.000000
347.581760 31.000000

