>compound PR13272190
>parentmass 621.1827
>ionization [M+H]+
>formula C29H32O15
>rt 304.800000
>profile qtof
#smiles_iso CC1C(C(C(C(O1)OC2C(C(C(OC2C3=C(C=C(C4=C3OC(=CC4=O)C5=CC=C(C=C5)O)O)O)CO)O)O)O)O)OC(=O)C
#smiles_can CC1C(C(C(C(O1)OC2C(C(C(OC2C3=C(C=C(C4=C3OC(=CC4=O)C5=CC=C(C=C5)O)O)O)CO)O)O)O)O)OC(=O)C
#inchikey RJQUXMJLUPJNPG-UHFFFAOYSA-N
#pubchem_id 73829969
#mb_accession PR310983

>ms2
69.031570 18.000000
83.056960 18.000000
189.072040 16.000000
198.976260 17.000000
199.043200 98.000000
237.135450 19.000000
251.012360 16.000000
269.130830 22.000000
299.055690 16.000000
310.968750 28.000000
311.046080 21.000000
329.067290 16.000000
330.057190 58.000000
339.064880 20.000000
352.059450 21.000000
352.969210 16.000000
353.033630 21.000000
353.053860 45.000000
353.073760 107.000000
353.115020 16.000000
354.058010 19.000000
371.088500 16.000000
379.079680 99.000000
380.082980 16.000000
396.071930 20.000000
397.077510 54.000000
397.088500 147.000000
397.117100 37.000000
398.108700 16.000000
399.093510 19.000000
415.108610 16.000000
416.109920 16.000000
416.122620 17.000000
432.098140 27.000000
433.109130 555.000000
433.139800 74.000000
433.260100 19.000000
434.088560 20.000000
434.117980 179.000000
452.996430 23.000000
603.184510 16.000000
621.101010 18.000000
621.187260 415.000000

