>compound PR13039766
>parentmass 423.1813
>ionization [M+H]+
>formula C25H26O6
>rt 483.600000
>profile qtof
#smiles_iso CC(=CCC1=C(C(=CC(=C1)C2=COC3=C(C2=O)C(=C(C(=C3)O)CC=C(C)C)O)O)O)C
#smiles_can CC(=CCC1=C(C(=CC(=C1)C2=COC3=C(C2=O)C(=C(C(=C3)O)CC=C(C)C)O)O)O)C
#inchikey QNLGNISMYMFVHP-UHFFFAOYSA-N
#pubchem_id 21591148
#mb_accession PR310764

>ms2
147.044780 20.000000
148.048870 25.000000
203.184890 29.000000
251.270570 21.000000
255.699710 20.000000
311.054290 197.000000
312.042450 21.000000
312.074950 17.000000
317.190890 20.000000
367.111760 37.000000
367.130070 82.000000
368.116580 39.000000
402.624940 23.000000
423.178650 215.000000
423.194310 46.000000
423.363830 47.000000

