>compound PR13831414
>parentmass 757.1974408
>ionization [M+H]+
>formula C36H36O18
>rt 280.375020
>profile qtof
#smiles_iso CC1C(C(C(C(O1)OC2=C(OC3=CC(=CC(=C3C2=O)O)O)C4=CC(=C(C=C4)O)O)OC5C(C(C(C(O5)COC(=O)/C=C/C6=CC=C(C=C6)O)O)O)O)O)O
#smiles_can CC1C(C(C(C(O1)OC2=C(OC3=CC(=CC(=C3C2=O)O)O)C4=CC(=C(C=C4)O)O)OC5C(C(C(C(O5)COC(=O)C=CC6=CC=C(C=C6)O)O)O)O)O)O
#inchikey LSMKTLJKBSXMMR-RUDMXATFSA-N
#pubchem_id 89380295
#mb_accession PR303672,PR303673,PR303674,PR303675,PR303676,PR303677,PR303678,PR303679,PR303680,PR303681,PR303682,PR303683

>ms2
85.026750 8.000000
107.048920 11.000000
111.047060 9.000000
144.146500 7.000000
145.048400 11.000000
147.007750 6.000000
147.021640 5.000000
147.044340 1000.000000
148.047640 123.000000
149.051280 12.000000
149.065380 6.000000
151.044620 21.000000
160.063580 6.000000
161.056880 6.000000
165.055830 241.000000
169.047120 28.000000
169.056630 6.000000
211.070860 6.000000
213.099670 14.000000
215.071590 15.000000
231.102370 7.000000
237.072340 13.000000
239.071230 9.000000
255.095140 6.000000
257.055360 21.000000
257.082520 105.000000
258.085780 9.000000
273.071350 7.000000
275.084840 16.000000
291.090730 112.000000
292.089080 19.000000
293.089840 22.000000
293.103760 36.000000
303.050660 233.000000
304.060180 24.000000
309.096440 279.000000
310.101170 86.000000
311.095150 8.000000
327.041840 6.000000
327.056610 11.000000
341.308990 6.000000
345.042270 8.000000
345.063290 52.000000
346.059780 7.000000
369.071560 9.000000
395.073150 8.000000
401.118560 8.000000
401.133360 9.000000
402.138820 10.000000
413.089540 19.000000
414.102570 10.000000
419.126130 77.000000
419.139130 81.000000
420.132810 6.000000
420.149170 17.000000
421.151210 5.000000
431.084560 17.000000
431.103730 17.000000
437.126010 6.000000
437.143590 39.000000
437.158230 24.000000
438.140930 11.000000
449.095180 39.000000
449.113430 81.000000
450.102840 6.000000
450.118650 10.000000
451.119870 7.000000
453.075230 5.000000
455.137970 7.000000
455.159790 56.000000
456.146910 8.000000
456.161500 16.000000
457.152680 5.000000
608.648190 5.000000
636.133120 8.000000
647.304930 6.000000
653.160030 16.000000
654.148740 7.000000
740.138790 14.000000
757.199040 845.000000
757.268070 8.000000

>ms2
147.043530 21.000000
165.054340 21.000000
257.085390 5.000000
291.095520 13.000000
292.097990 5.000000
293.104490 9.000000
303.039310 19.000000
303.051270 58.000000
304.053160 12.000000
309.094700 91.000000
310.101530 19.000000
419.133120 65.000000
420.126190 14.000000
437.133240 12.000000
437.151670 25.000000
449.089540 6.000000
449.105960 24.000000
455.155670 96.000000
456.150240 17.000000
595.157650 6.000000
653.148010 10.000000
757.088500 6.000000
757.129580 10.000000
757.196960 1000.000000

>ms2
107.050260 6.000000
109.028080 7.000000
111.042590 6.000000
127.031810 6.000000
127.039960 6.000000
129.052320 6.000000
147.013370 5.000000
147.043550 1000.000000
148.046740 106.000000
149.048870 19.000000
149.061480 5.000000
151.038620 26.000000
161.059110 9.000000
165.052900 138.000000
166.059880 28.000000
169.048070 10.000000
213.087770 13.000000
239.066830 5.000000
257.079990 101.000000
258.076350 6.000000
258.086460 12.000000
275.088620 9.000000
291.085420 153.000000
292.083710 11.000000
292.095700 19.000000
293.096500 14.000000
303.048000 140.000000
304.052700 20.000000
309.097200 93.000000
310.093380 9.000000
310.109280 7.000000
345.056580 52.000000
346.066740 6.000000
369.054720 18.000000
401.120360 10.000000
413.079530 18.000000
413.093870 11.000000
414.084110 7.000000
419.138030 5.000000
420.127720 5.000000
431.087980 16.000000
431.104520 12.000000
437.135800 7.000000
449.110570 74.000000
450.110170 14.000000

>ms2
71.051280 9.000000
81.032970 13.000000
97.029350 7.000000
107.047840 7.000000
109.028420 16.000000
119.049580 58.000000
120.048760 5.000000
147.044010 1000.000000
148.047470 125.000000
149.051960 15.000000
151.041050 7.000000
161.060970 15.000000
165.047290 8.000000
165.055080 28.000000
211.078340 5.000000
239.063980 6.000000
257.087070 10.000000
291.071930 5.000000
291.088650 28.000000
292.079860 7.000000
303.042420 34.000000
303.059230 48.000000
304.061250 9.000000
315.050450 24.000000
327.056150 8.000000
341.067020 5.000000
345.062190 64.000000
346.070250 12.000000
353.073150 5.000000
369.053100 7.000000
369.075560 6.000000
395.083770 6.000000
413.082700 9.000000

>ms2
85.018490 5.000000
109.028260 13.000000
110.032990 8.000000
111.045960 7.000000
147.044070 1000.000000
148.047530 117.000000
148.061420 5.000000
149.057240 8.000000
151.039430 37.000000
161.058330 7.000000
165.055660 194.000000
166.055400 6.000000
169.050810 10.000000
173.063670 11.000000
185.101650 5.000000
187.074450 7.000000
189.058380 8.000000
191.065990 7.000000
209.098860 6.000000
211.081910 5.000000
213.062480 7.000000
213.087110 6.000000
225.045100 5.000000
228.060640 6.000000
229.083530 8.000000
229.089800 20.000000
239.071210 25.000000
257.085450 98.000000
258.083740 18.000000
275.092010 36.000000
276.095340 10.000000
291.090390 121.000000
292.089290 10.000000
293.092250 25.000000
293.104370 24.000000
300.893800 7.000000
303.051450 273.000000
304.036560 8.000000
304.051820 17.000000
304.064090 20.000000
305.055970 9.000000
309.097630 257.000000
310.099760 39.000000
311.098940 7.000000
316.050780 13.000000
327.059080 5.000000
338.114040 5.000000
345.032350 8.000000
345.061710 82.000000
346.054870 6.000000
369.065550 7.000000
401.129430 34.000000
402.140620 8.000000
413.082400 30.000000
419.133670 94.000000
420.129150 20.000000
420.147280 10.000000
431.091160 12.000000
437.140200 31.000000
438.151860 10.000000
449.102050 92.000000
450.082210 8.000000
450.121830 19.000000
455.160000 74.000000
456.147400 12.000000
456.169310 13.000000
457.163970 11.000000
485.986570 5.000000
491.104190 7.000000
493.105590 5.000000
504.209140 6.000000
549.470640 6.000000
577.139890 8.000000
595.149170 10.000000
740.157840 7.000000
757.112850 7.000000
757.200870 743.000000

>ms2
147.044130 33.000000
165.051830 12.000000
257.080170 14.000000
275.095980 10.000000
291.084840 27.000000
292.090000 11.000000
303.048220 71.000000
304.056120 14.000000
309.097780 102.000000
310.099610 19.000000
401.114960 6.000000
419.135500 82.000000
420.135890 17.000000
437.140350 16.000000
437.160190 8.000000
438.140140 7.000000
449.103970 19.000000
455.153140 104.000000
456.161220 31.000000
757.116090 6.000000
757.197450 1000.000000

>ms2
107.050770 7.000000
111.044490 10.000000
127.040220 18.000000
147.044070 1000.000000
148.047120 95.000000
149.049940 15.000000
151.039340 14.000000
161.058870 13.000000
165.053100 124.000000
165.060990 44.000000
166.062900 8.000000
169.047270 12.000000
213.092710 10.000000
257.070470 39.000000
257.081670 35.000000
257.090090 44.000000
258.084410 16.000000
275.097110 16.000000
291.085690 105.000000
292.086210 22.000000
293.100340 17.000000
303.050200 125.000000
304.060610 14.000000
309.088900 29.000000
309.100250 66.000000
310.089360 6.000000
327.041750 6.000000
345.056340 47.000000
345.077700 8.000000
346.070650 9.000000
369.063080 5.000000
395.083440 8.000000
401.137510 7.000000
413.082920 31.000000
413.108760 7.000000
414.095370 8.000000
419.138150 5.000000
431.090550 33.000000
432.122040 5.000000
437.158200 5.000000
449.106290 62.000000
450.119510 10.000000

>ms2
69.035060 8.000000
83.049580 8.000000
85.028360 9.000000
97.028190 7.000000
107.048420 8.000000
109.029270 6.000000
119.049100 51.000000
123.045900 6.000000
127.041240 8.000000
147.044720 1000.000000
148.047820 120.000000
149.041470 5.000000
149.055860 9.000000
151.040190 11.000000
152.040880 8.000000
165.053910 33.000000
166.059360 6.000000
185.062530 6.000000
239.072970 6.000000
257.081120 13.000000
291.084110 26.000000
292.096310 7.000000
303.048280 89.000000
304.056340 11.000000
315.042540 18.000000
315.054500 10.000000
316.051030 17.000000
327.046330 7.000000
327.056700 10.000000
345.057830 60.000000
346.072510 13.000000
353.066960 6.000000
369.060640 21.000000
369.074920 5.000000
413.082460 6.000000
757.161070 12.000000
757.200440 83.000000

>ms2
99.045460 6.000000
109.030650 9.000000
111.043910 9.000000
147.020580 14.000000
147.043960 1000.000000
148.048260 136.000000
149.055160 7.000000
151.039630 27.000000
161.057460 10.000000
165.052900 193.000000
166.051450 11.000000
169.048200 7.000000
197.064100 7.000000
211.079410 8.000000
237.072370 6.000000
239.061200 9.000000
255.078320 6.000000
257.068020 11.000000
257.082610 127.000000
258.093780 27.000000
272.366300 5.000000
273.075680 12.000000
275.083710 26.000000
275.097990 25.000000
275.109680 9.000000
291.049100 9.000000
291.085630 133.000000
292.090700 24.000000
293.097230 11.000000
293.111020 8.000000
294.101230 16.000000
303.043300 113.000000
303.052460 182.000000
304.050810 22.000000
309.096740 241.000000
310.100460 62.000000
311.109440 10.000000
313.085020 8.000000
327.048550 7.000000
345.059140 29.000000
370.072080 6.000000
396.080870 10.000000
401.132720 19.000000
413.051180 6.000000
413.068330 9.000000
413.095340 36.000000
419.091030 9.000000
419.132420 90.000000
419.143370 52.000000
420.026400 5.000000
420.137180 37.000000
421.132750 7.000000
431.073490 8.000000
431.092160 19.000000
431.108060 27.000000
437.144740 64.000000
449.097020 47.000000
449.117370 78.000000
450.072510 11.000000
450.100950 29.000000
455.160310 47.000000
456.139950 7.000000
456.155670 12.000000
492.100370 7.000000
547.950990 9.000000
549.103760 6.000000
577.087400 7.000000
653.140140 15.000000
653.168400 18.000000
654.152040 6.000000
739.176570 6.000000
757.198730 636.000000

>ms2
147.044190 14.000000
147.050980 8.000000
165.054110 26.000000
257.080900 6.000000
291.078090 6.000000
291.088040 18.000000
293.097600 15.000000
303.050290 71.000000
304.054780 12.000000
309.096800 100.000000
310.099580 17.000000
419.130280 33.000000
419.143770 18.000000
420.135010 19.000000
437.133730 16.000000
437.149200 23.000000
438.141510 9.000000
449.108980 25.000000
450.110320 6.000000
455.151310 98.000000
456.158260 26.000000
596.157290 5.000000
653.146970 6.000000
757.081790 8.000000
757.144100 10.000000
757.197570 1000.000000

>ms2
71.053250 7.000000
83.052890 6.000000
85.029810 5.000000
107.046230 6.000000
111.039220 7.000000
111.047770 9.000000
127.039190 20.000000
129.055760 8.000000
147.044420 1000.000000
148.030610 7.000000
148.047760 132.000000
151.039200 21.000000
161.057050 10.000000
165.055940 154.000000
166.058170 13.000000
169.042040 6.000000
187.079510 5.000000
197.053560 7.000000
213.092120 13.000000
229.091960 6.000000
257.082000 111.000000
258.087520 9.000000
275.080900 8.000000
275.093660 8.000000
291.080540 45.000000
291.093750 62.000000
292.090360 13.000000
293.099120 16.000000
303.051880 155.000000
304.041050 8.000000
304.058110 19.000000
309.097690 79.000000
310.095920 18.000000
345.055050 29.000000
345.069670 17.000000
346.066890 10.000000
369.065610 22.000000
413.075010 10.000000
413.086300 30.000000
414.097810 8.000000
419.147550 6.000000
431.095460 46.000000
432.091280 6.000000
449.109770 64.000000
450.110260 15.000000

>ms2
81.034890 13.000000
91.055570 6.000000
97.030140 18.000000
107.047580 6.000000
107.053220 6.000000
109.025860 29.000000
109.034210 5.000000
119.043630 16.000000
119.050030 43.000000
120.053670 7.000000
123.041770 7.000000
127.291960 5.000000
147.044530 1000.000000
148.048490 119.000000
149.049030 15.000000
151.040020 16.000000
159.047120 6.000000
161.062970 5.000000
165.053760 36.000000
169.048320 12.000000
185.097730 6.000000
187.074870 6.000000
195.074720 6.000000
215.075040 5.000000
257.076290 6.000000
257.087250 7.000000
291.088840 28.000000
299.052920 6.000000
303.041170 37.000000
303.055050 59.000000
304.070070 9.000000
315.053250 14.000000
327.045500 6.000000
341.066890 9.000000
345.058470 52.000000
345.072240 22.000000
353.076200 6.000000
369.058620 10.000000
413.088680 15.000000

