>compound PR13516539
>parentmass 318.2996
>ionization [M+H]+
>formula C18H39NO3
>rt 473.400000
>profile qtof
#smiles_iso CCCCCCCCCCCCCCC(C(C(CO)N)O)O
#smiles_can CCCCCCCCCCCCCCC(C(C(CO)N)O)O
#inchikey AERBNCYCJBRYDG-UHFFFAOYSA-N
#pubchem_id 248575
#mb_accession PR310831,PR310832

>ms2
74.059030 16.000000
79.052600 29.000000
90.502240 28.000000
113.954080 20.000000
189.161360 31.000000
238.257260 17.000000
282.278290 37.000000
300.279330 41.000000
300.289340 84.000000
318.244660 18.000000
318.298650 495.000000
318.318760 35.000000

>ms2
300.274050 16.000000
318.305150 54.000000

