>compound PR13793813
>parentmass 190.0512
>ionization [M+H]+
>formula C10H7NO3
>rt 186.600000
>profile qtof
#smiles_iso C1=CC=C2C(=C1)C(=O)C=C(N2)C(=O)O
#smiles_can C1=CC=C2C(=C1)C(=O)C=C(N2)C(=O)O
#inchikey HCZHHEIFKROPDY-UHFFFAOYSA-N
#pubchem_id 3845
#mb_accession PR310744

>ms2peaks
79.059640 27.000000
89.034050 25.000000
102.037350 21.000000
105.074390 30.000000
109.064700 16.000000
116.047730 81.000000
126.037140 18.000000
131.086500 25.000000
135.076140 20.000000
144.019290 20.000000
144.044970 554.000000
145.038350 18.000000
145.050050 41.000000
145.059860 16.000000
146.056000 33.000000
146.077910 20.000000
147.119130 25.000000
162.053310 16.000000
172.036540 98.000000
172.046170 19.000000
173.039250 16.000000
175.114470 34.000000
190.046310 218.000000
190.056030 89.000000

