>compound PR14383812
>parentmass 553.1154
>ionization [M+H]+
>formula C31H20O10
>rt 364.200000
>profile qtof
#smiles_iso COC1=C(C=C(C=C1)C2=CC(=O)C3=C(C=C(C=C3O2)O)O)C4=C(C=C(C5=C4OC(=CC5=O)C6=CC=C(C=C6)O)O)O
#smiles_can COC1=C(C=C(C=C1)C2=CC(=O)C3=C(C=C(C=C3O2)O)O)C4=C(C=C(C5=C4OC(=CC5=O)C6=CC=C(C=C6)O)O)O
#inchikey IWEIJEPIYMAGTH-UHFFFAOYSA-N
#pubchem_id 5315459
#mb_accession PR311120

>ms2
121.025130 22.000000
125.321080 23.000000
269.040710 24.000000
291.012300 18.000000
296.071010 22.000000
297.075380 38.000000
298.080960 17.000000
302.905120 27.000000
336.109130 34.000000
343.054810 19.000000
345.062590 17.000000
360.096950 23.000000
363.076810 20.000000
364.087620 17.000000
371.119260 29.000000
384.475830 20.000000
405.085690 70.000000
405.098050 70.000000
405.114290 80.000000
406.098210 76.000000
407.105740 19.000000
413.082400 21.000000
433.059720 20.000000
433.094090 1173.000000
434.075740 38.000000
434.093900 109.000000
434.108890 70.000000
435.101470 20.000000
533.338560 17.000000
553.108580 156.000000

