>compound PR14164677
>parentmass 175.12297452307686
>ionization [M+H]+
>formula C11H14N2
>rt 183.659982
>profile qtof
#smiles_iso CN(C)CC1=CNC2=CC=CC=C21
#smiles_can CN(C)CC1=CNC2=CC=CC=C21
#inchikey OCDGBSUVYYVKQZ-UHFFFAOYSA-N
#pubchem_id 6890
#mb_accession PR300981,PR300985,PR300989,PR300993,PR300997,PR301001,PR301005,PR301009,PR301013,PR301017,PR301021,PR301025,PR310449

>ms2peaks
130.050740 118.000000
130.064450 1000.000000
132.069050 95.000000

>ms2peaks
116.974270 29.000000
130.066930 1000.000000
131.067230 225.000000
131.077100 62.000000
173.117140 28.000000
175.128780 25.000000

>ms2peaks
51.813930 141.000000
103.056470 153.000000
130.065830 1000.000000
130.181320 100.000000

>ms2peaks
130.064030 1000.000000

>ms2peaks
103.054040 56.000000
128.054370 48.000000
130.048130 107.000000
130.065190 1000.000000
131.068280 56.000000
158.955370 56.000000

>ms2peaks
130.065400 1000.000000
131.063030 32.000000
131.071270 45.000000
157.069960 48.000000

>ms2peaks
104.053830 436.000000
130.052520 223.000000
130.063570 1000.000000

>ms2peaks
77.040490 677.000000
130.073530 1000.000000

>ms2peaks
103.054700 75.000000
130.054900 143.000000
130.065720 1000.000000
130.078670 127.000000
131.068310 124.000000
131.077410 85.000000
134.052950 55.000000

>ms2peaks
105.633670 25.000000
130.064250 1000.000000
131.067690 31.000000
132.071790 32.000000
134.963760 28.000000
169.325740 32.000000
173.105180 34.000000
173.112780 35.000000

>ms2peaks
72.939680 144.000000
77.039160 160.000000
130.066990 1000.000000
131.073500 312.000000

>ms2peaks
130.073720 1000.000000

>ms2peaks
130.050740 36.000000
130.064450 304.000000
132.069050 29.000000

