>compound PR14595738
>parentmass 866.4897
>ionization [M+H]+
>formula C45H71NO15
>rt 263.400000
>profile qtof
#smiles_iso CC1CCC2C(C3C(N2C1)CC4C3(CCC5C4C(=O)C=C6C5(CCC(C6)OC7C(C(C(C(O7)CO)OC8C(C(C(C(O8)C)O)O)O)O)OC9C(C(C(C(O9)C)O)O)O)C)C)C
#smiles_can CC1CCC2C(C3C(N2C1)CC4C3(CCC5C4C(=O)C=C6C5(CCC(C6)OC7C(C(C(C(O7)CO)OC8C(C(C(C(O8)C)O)O)O)O)OC9C(C(C(C(O9)C)O)O)O)C)C)C
#inchikey WEVOWEDEHQFZEV-UHFFFAOYSA-N
#pubchem_id 78160058
#mb_accession PR310706,PR310707

>ms2
277.305820 18.000000
410.008510 33.000000
425.145170 25.000000
440.145420 20.000000
476.340580 23.000000
532.133670 23.000000
579.550960 20.000000
647.803830 37.000000
733.555240 33.000000
752.318420 22.000000
831.289790 28.000000
850.486510 51.000000
862.784060 18.000000
866.339720 65.000000
866.398560 94.000000
866.487240 5201.000000
866.533630 242.000000
866.622620 64.000000

>ms2
265.057590 30.000000
352.176540 25.000000
400.957790 30.000000
430.815950 18.000000
431.195040 24.000000
487.086910 17.000000
552.580630 25.000000
593.221620 19.000000
716.316470 18.000000
856.127440 21.000000
864.504880 22.000000
866.346920 17.000000
866.437930 74.000000
866.490600 1970.000000

