>compound PR14757978
>parentmass 179.0702706
>ionization [M+H]+
>formula C10H10O3
>rt 285.799980
>profile qtof
#smiles_iso COC1=C(C=CC(=C1)/C=C/C=O)O
#smiles_can COC1=C(C=CC(=C1)C=CC=O)O
#inchikey DKZBBWMURDFHNE-NSCUHMNNSA-N
#pubchem_id 5280536
#mb_accession PR303343,PR303346,PR303349,PR303352,PR303355,PR303358,PR303361,PR303364,PR303367,PR303370,PR303373,PR303376

>ms2peaks
65.034030 7.000000
65.041730 15.000000
69.502140 13.000000
77.042790 7.000000
79.052170 13.000000
90.055130 7.000000
91.044200 6.000000
91.054200 83.000000
91.061000 9.000000
92.060940 22.000000
96.420750 5.000000
103.051040 7.000000
103.059820 10.000000
105.068510 50.000000
105.328120 6.000000
107.047160 20.000000
107.867280 5.000000
108.053670 14.000000
110.888180 5.000000
115.054160 12.000000
118.035090 10.000000
118.043820 38.000000
119.049940 216.000000
120.048490 7.000000
120.062130 9.000000
121.510360 6.000000
123.040500 11.000000
123.048460 20.000000
131.054200 14.000000
133.065090 82.000000
133.073350 18.000000
135.041240 16.000000
136.042980 6.000000
136.054580 51.000000
137.056880 8.000000
139.950730 7.000000
139.990020 6.000000
142.599780 5.000000
146.030760 26.000000
146.037780 83.000000
147.042720 423.000000
147.049530 149.000000
148.047740 72.000000
150.065610 10.000000
151.043850 7.000000
161.034090 7.000000
161.045380 11.000000
161.060120 344.000000
161.303240 6.000000
162.062670 39.000000
162.074840 7.000000
163.038390 15.000000
163.062960 7.000000
164.050220 10.000000
169.698550 6.000000
178.984250 5.000000
179.071380 1000.000000
179.100720 7.000000
179.112520 7.000000

>ms2peaks
95.048550 6.000000
105.070150 7.000000
118.935660 6.000000
119.043130 9.000000
119.050730 29.000000
123.043100 6.000000
133.064270 29.000000
137.061540 5.000000
147.043880 298.000000
148.049300 42.000000
151.073350 6.000000
161.059880 206.000000
162.054980 6.000000
162.067140 19.000000
179.069920 1000.000000

>ms2peaks
55.023230 30.000000
65.038060 94.000000
77.037990 78.000000
78.046530 43.000000
79.044460 32.000000
79.055030 327.000000
80.073520 40.000000
82.046590 46.000000
89.039640 68.000000
90.046880 148.000000
91.055210 1000.000000
92.060200 117.000000
92.073710 52.000000
94.038790 49.000000
94.045340 62.000000
103.052770 49.000000
104.057960 29.000000
105.065770 56.000000
105.073520 38.000000
107.044620 160.000000
107.052980 210.000000
107.057820 56.000000
110.036030 62.000000
115.049970 68.000000
117.033920 26.000000
117.197760 33.000000
118.041470 479.000000
118.047750 139.000000
119.048250 361.000000
119.293810 33.000000
119.392160 26.000000
119.777020 26.000000
123.035280 33.000000
131.055360 79.000000
135.039960 152.000000
136.036900 32.000000
136.049220 148.000000
136.057370 73.000000
137.053190 43.000000
138.059250 35.000000
145.022260 43.000000
146.032900 64.000000
146.040990 120.000000
147.042390 38.000000
148.045090 46.000000
151.035630 26.000000
151.073810 43.000000
164.046680 55.000000
179.070500 32.000000

>ms2peaks
79.052730 500.000000
91.052890 286.000000
108.056240 429.000000
135.040310 271.000000
147.048170 543.000000
163.035310 429.000000
179.068740 1000.000000

>ms2peaks
55.016010 5.000000
57.805050 5.000000
65.037900 12.000000
69.779160 5.000000
77.037120 15.000000
78.043990 12.000000
79.055160 15.000000
79.059070 14.000000
80.054630 7.000000
82.035130 7.000000
87.567760 7.000000
89.044420 10.000000
90.045680 15.000000
91.040580 10.000000
91.053170 91.000000
91.057670 72.000000
92.027150 7.000000
92.061360 15.000000
94.051790 6.000000
95.049030 7.000000
103.045290 9.000000
103.051640 34.000000
103.059200 5.000000
104.054370 6.000000
105.050990 8.000000
105.064990 26.000000
105.071290 37.000000
106.073270 14.000000
107.040970 6.000000
107.052950 32.000000
109.306590 6.000000
115.051160 24.000000
115.057460 7.000000
116.056380 10.000000
118.034490 13.000000
118.041180 38.000000
118.047350 27.000000
119.050300 260.000000
120.049410 9.000000
120.057470 8.000000
123.045780 18.000000
130.244810 5.000000
131.049240 10.000000
132.054900 9.000000
133.059620 51.000000
133.065890 110.000000
134.069260 5.000000
135.043910 25.000000
135.050920 39.000000
136.009840 12.000000
136.044270 16.000000
136.053650 53.000000
136.059810 14.000000
136.069580 7.000000
137.058520 26.000000
146.035750 104.000000
146.043990 33.000000
147.044430 719.000000
148.048070 18.000000
148.053570 24.000000
149.051360 16.000000
149.056610 5.000000
150.065480 11.000000
150.072710 6.000000
151.031770 13.000000
151.073730 18.000000
151.079570 9.000000
161.031830 9.000000
161.059270 480.000000
161.075380 17.000000
162.022780 6.000000
162.063780 18.000000
162.072200 10.000000
163.043490 9.000000
163.068590 11.000000
163.317090 5.000000
175.261370 11.000000
177.051120 8.000000
178.056470 22.000000
179.039200 17.000000
179.047240 7.000000
179.070940 1000.000000
179.264880 5.000000

>ms2peaks
91.054300 6.000000
105.067790 9.000000
115.054840 8.000000
119.047820 15.000000
119.056240 6.000000
133.064290 31.000000
147.045150 267.000000
148.049180 25.000000
149.048190 11.000000
161.060270 237.000000
161.074230 5.000000
162.061450 28.000000
179.070560 1000.000000

>ms2peaks
77.041270 104.000000
79.056280 187.000000
80.065500 64.000000
89.042790 71.000000
90.045290 83.000000
91.053630 1000.000000
92.020500 35.000000
93.035990 27.000000
94.039300 39.000000
95.051090 38.000000
103.049900 94.000000
107.045740 132.000000
107.053220 144.000000
107.432620 27.000000
108.054970 64.000000
115.042980 36.000000
115.053910 31.000000
116.057220 31.000000
118.020480 42.000000
118.041880 283.000000
118.049800 44.000000
119.053670 355.000000
122.030840 33.000000
123.045340 44.000000
133.062810 141.000000
135.044390 129.000000
135.698500 31.000000
136.044970 41.000000
136.053390 49.000000
136.058550 36.000000
137.053920 42.000000
146.035260 567.000000
147.044050 57.000000
147.050400 49.000000
153.057740 44.000000
161.054690 68.000000
162.036120 28.000000
163.038940 55.000000
179.070210 31.000000

>ms2peaks
77.038190 444.000000
90.050020 514.000000
91.052930 306.000000
107.051730 1000.000000
115.055720 333.000000
118.040120 264.000000

>ms2peaks
55.018790 13.000000
56.022340 7.000000
74.916490 6.000000
77.032360 12.000000
77.040190 7.000000
79.051150 22.000000
79.056830 12.000000
80.050350 7.000000
85.139800 6.000000
89.030280 9.000000
89.036740 12.000000
91.053540 125.000000
92.052880 9.000000
92.058360 6.000000
93.070920 10.000000
95.050770 16.000000
96.027720 8.000000
99.969590 8.000000
103.046190 7.000000
103.057280 7.000000
105.070590 111.000000
106.074100 9.000000
107.043840 8.000000
107.052990 18.000000
108.052900 6.000000
108.057610 11.000000
115.051050 13.000000
118.025710 7.000000
118.039820 55.000000
118.981350 5.000000
119.049550 171.000000
120.049020 11.000000
120.057400 9.000000
121.034760 13.000000
121.388260 7.000000
123.047360 42.000000
130.041000 12.000000
132.055540 8.000000
133.064790 87.000000
134.065440 9.000000
134.071240 6.000000
135.031390 6.000000
135.037400 9.000000
135.047010 20.000000
136.018570 13.000000
136.049820 50.000000
138.060040 9.000000
139.982970 12.000000
141.955840 5.000000
146.033710 122.000000
147.024400 6.000000
147.043500 583.000000
148.046310 68.000000
149.188900 5.000000
151.036070 8.000000
161.058960 423.000000
162.061400 39.000000
162.446960 5.000000
163.064510 17.000000
164.047440 13.000000
177.052930 8.000000
179.038180 5.000000
179.069890 1000.000000

>ms2peaks
55.018680 7.000000
105.069330 8.000000
119.044010 5.000000
119.049930 21.000000
123.042920 9.000000
133.062470 20.000000
147.044100 298.000000
148.046040 20.000000
161.059830 253.000000
162.063100 22.000000
163.038450 7.000000
179.070220 1000.000000

>ms2peaks
55.018420 26.000000
59.634290 30.000000
65.040070 158.000000
65.839570 32.000000
66.044390 41.000000
68.996180 30.000000
77.039020 181.000000
79.054170 346.000000
79.058780 109.000000
80.051790 30.000000
80.062610 61.000000
88.007950 42.000000
89.039400 141.000000
89.045620 32.000000
90.042980 96.000000
90.049000 52.000000
91.055520 1000.000000
91.577270 26.000000
92.057850 156.000000
96.013200 36.000000
97.382370 26.000000
101.037960 32.000000
103.053930 29.000000
107.040440 38.000000
107.049840 442.000000
108.050670 85.000000
108.057550 41.000000
109.031620 33.000000
117.035870 65.000000
118.042560 398.000000
119.037980 32.000000
119.047920 244.000000
120.048850 80.000000
121.033340 76.000000
122.040150 50.000000
135.044080 120.000000
136.049180 269.000000
138.061370 36.000000
146.038670 596.000000
147.038190 38.000000
147.048220 155.000000
150.071790 32.000000
161.051530 32.000000
161.059070 47.000000
163.041530 47.000000
164.056090 35.000000

>ms2peaks
163.037060 1000.000000

