>compound PR14787691
>parentmass 595.1447
>ionization [M+H]+
>formula C30H26O13
>rt 141.000000
>profile qtof
#smiles_iso C1=CC(=CC=C1C=CC(=O)OC2=CC(=C3C(=C2)OC(=C(C3=O)OC4C(C(C(C(O4)CO)O)O)O)C5=CC=C(C=C5)O)O)O
#smiles_can C1=CC(=CC=C1C=CC(=O)OC2=CC(=C3C(=C2)OC(=C(C3=O)OC4C(C(C(C(O4)CO)O)O)O)C5=CC=C(C=C5)O)O)O
#inchikey CAHLQXBTMALBQE-UHFFFAOYSA-N
#pubchem_id 85071404
#mb_accession PR310928

>ms2peaks
127.034000 19.000000
147.036790 19.000000
179.036500 21.000000
213.047700 19.000000
241.061070 20.000000
257.044130 46.000000
257.055940 25.000000
263.052400 18.000000
265.063350 20.000000
273.081630 20.000000
287.055420 21.000000
288.031220 19.000000
292.086850 18.000000
299.060520 19.000000
426.081240 20.000000
433.089780 17.000000
442.767580 17.000000
576.103820 17.000000
595.104370 25.000000
595.140500 173.000000

