>compound PR14784280
>parentmass 384.1441639
>ionization [M+H]+
>formula C21H21NO6
>rt 252.673980
>profile qtof
#smiles_iso CN1CCC2=CC3=C(C=C2[C@@H]1[C@@H]4C5=C(C(=C(C=C5)OC)OC)C(=O)O4)OCO3
#smiles_can CN1CCC2=CC3=C(C=C2C1C4C5=C(C(=C(C=C5)OC)OC)C(=O)O4)OCO3
#inchikey JZUTXVTYJDCMDU-MOPGFXCFSA-N
#pubchem_id 197835
#mb_accession PR301187,PR301194,PR301198,PR301202,PR301206,PR301213,PR301217,PR301221,PR301225,PR301229

>ms2
147.041550 8.000000
149.053130 12.000000
149.065460 12.000000
166.058040 13.000000
175.075130 12.000000
176.059540 9.000000
176.079970 5.000000
177.075380 6.000000
178.034850 6.000000
188.070270 14.000000
189.074430 18.000000
189.963270 6.000000
190.086620 232.000000
191.082500 23.000000
191.088680 63.000000
193.047390 9.000000
199.545780 7.000000
206.068910 5.000000
206.088030 7.000000
207.083390 7.000000
209.720170 6.000000
217.057130 9.000000
218.070690 5.000000
219.091710 6.000000
220.049970 6.000000
222.060760 27.000000
223.076610 6.000000
231.057220 6.000000
234.064100 18.000000
234.597640 5.000000
235.061520 5.000000
235.073530 11.000000
236.088880 8.000000
239.099900 11.000000
247.069920 11.000000
249.030090 7.000000
249.055690 23.000000
249.097180 5.000000
250.050860 11.000000
250.070370 8.000000
251.067960 11.000000
251.077100 16.000000
252.076830 13.000000
253.064250 7.000000
256.022610 7.000000
260.047330 7.000000
261.027860 6.000000
261.037990 5.000000
262.059880 12.000000
264.082610 6.000000
265.082760 65.000000
265.100250 5.000000
266.059940 8.000000
266.088650 8.000000
267.109650 11.000000
275.072330 7.000000
277.098940 7.000000
278.060700 14.000000
278.092650 9.000000
279.038600 5.000000
279.058780 10.000000
279.086300 11.000000
279.812560 6.000000
280.065160 37.000000
280.077880 20.000000
281.066650 6.000000
282.080660 14.000000
291.060390 12.000000
291.071380 17.000000
291.091950 5.000000
292.076320 23.000000
293.031890 6.000000
293.066590 7.000000
293.082030 83.000000
294.072390 6.000000
294.094330 23.000000
294.207400 6.000000
295.097020 68.000000
295.162660 7.000000
296.105470 5.000000
304.062380 7.000000
305.081050 6.000000
307.056980 6.000000
308.071750 6.000000
310.108950 9.000000
311.095210 9.000000
313.108250 5.000000
314.823240 6.000000
320.072300 23.000000
322.095950 9.000000
322.117710 5.000000
323.005340 8.000000
323.051120 6.000000
323.062040 6.000000
323.092380 281.000000
323.213260 6.000000
324.050960 9.000000
324.090030 104.000000
325.082520 7.000000
325.103270 6.000000
335.090970 22.000000
336.081670 5.000000
336.097020 6.000000
337.133060 6.000000
341.101500 6.000000
341.127720 10.000000
366.072570 7.000000
366.117550 7.000000
366.156560 5.000000
366.979520 5.000000
371.252560 5.000000
383.509280 5.000000
384.090420 7.000000
384.113490 17.000000
384.142790 1000.000000

>ms2
135.043780 36.000000
136.053300 14.000000
149.052950 23.000000
149.062100 145.000000
150.072280 19.000000
160.048030 16.000000
162.061420 23.000000
163.039840 19.000000
173.055560 13.000000
174.027530 18.000000
174.044800 15.000000
175.072980 17.000000
175.111600 20.000000
176.061250 23.000000
176.071720 82.000000
176.078380 27.000000
177.054460 22.000000
180.050230 24.000000
188.046190 20.000000
188.070010 28.000000
189.381290 12.000000
190.079880 236.000000
190.088940 657.000000
191.087050 30.000000
191.096770 103.000000
193.037190 14.000000
193.054920 13.000000
193.064650 13.000000
193.839740 14.000000
195.062320 14.000000
206.074830 14.000000
207.079650 27.000000
207.088230 51.000000
209.074600 20.000000
209.105680 15.000000
217.062590 12.000000
217.070660 13.000000
218.070910 17.000000
220.051250 20.000000
222.072690 43.000000
223.072660 20.000000
226.070130 17.000000
227.170560 13.000000
231.077680 22.000000
232.051900 16.000000
233.061220 23.000000
233.078410 14.000000
234.058010 13.000000
234.066670 12.000000
235.081530 34.000000
236.076800 15.000000
237.090930 14.000000
239.115880 19.000000
240.112750 17.000000
243.096760 29.000000
245.063860 23.000000
246.062470 12.000000
247.042760 14.000000
247.078160 39.000000
248.084900 56.000000
249.052890 56.000000
249.086850 39.000000
249.108570 13.000000
250.062390 74.000000
251.067830 14.000000
251.113040 60.000000
252.075040 33.000000
252.956560 18.000000
253.085310 14.000000
254.097110 12.000000
254.107790 15.000000
255.511260 24.000000
257.532590 13.000000
259.075070 41.000000
260.038540 24.000000
260.047180 18.000000
261.050930 17.000000
262.064480 55.000000
263.057770 35.000000
263.069640 55.000000
263.086670 14.000000
264.058140 27.000000
264.076320 17.000000
265.061430 16.000000
265.080470 135.000000
265.091710 257.000000
265.108460 14.000000
266.091770 12.000000
267.065490 18.000000
267.096130 30.000000
267.112120 29.000000
268.111970 18.000000
272.056550 14.000000
274.074280 17.000000
275.061070 40.000000
275.076320 12.000000
275.086060 17.000000
276.049960 22.000000
276.058320 21.000000
277.036620 17.000000
278.053100 27.000000
278.063420 52.000000
278.090090 31.000000
278.138460 14.000000
279.068880 14.000000
279.084200 12.000000
279.109190 36.000000
280.051570 13.000000
280.067080 106.000000
280.094850 21.000000
280.622280 13.000000
281.067140 16.000000
281.083340 27.000000
281.287690 13.000000
282.090580 12.000000
283.053340 16.000000
283.086300 38.000000
283.098910 28.000000
290.070190 13.000000
291.047610 14.000000
291.062620 100.000000
291.078520 17.000000
292.013820 17.000000
292.043670 12.000000
292.060880 24.000000
292.077210 237.000000
293.046330 55.000000
293.083470 1000.000000
293.110930 35.000000
293.176570 15.000000
294.068270 17.000000
294.085570 276.000000
294.104800 24.000000
295.057560 15.000000
295.092220 143.000000
295.101650 95.000000
296.108670 28.000000
297.055110 15.000000
302.054530 43.000000
304.057220 16.000000
304.073940 90.000000
304.986080 12.000000
305.041960 13.000000
305.081670 43.000000
305.099000 38.000000
306.051730 14.000000
307.053500 20.000000
308.066890 134.000000
308.084930 15.000000
308.816590 26.000000
313.108000 14.000000
318.077330 19.000000
319.104190 59.000000
320.049290 14.000000
320.066710 121.000000
320.251500 15.000000
320.810210 13.000000
321.068820 30.000000
322.073790 38.000000
322.089260 23.000000
322.122560 20.000000
322.922910 13.000000
323.094570 855.000000
323.648620 14.000000
324.086760 27.000000
324.102390 211.000000
325.012300 21.000000
325.081940 14.000000
325.103820 28.000000
325.122920 20.000000
326.299650 13.000000
327.116330 14.000000
332.079860 27.000000
333.220670 13.000000
334.107240 17.000000
334.550780 12.000000
335.081360 35.000000
335.106200 44.000000
336.090580 13.000000
337.088990 13.000000
337.108090 16.000000
339.935610 12.000000
349.127720 28.000000
351.083070 15.000000
367.114720 17.000000
384.136200 30.000000
384.152740 16.000000
384.173830 16.000000

>ms2
77.044330 112.000000
91.052610 64.000000
91.057790 34.000000
118.059520 39.000000
119.051480 100.000000
119.060030 66.000000
122.037180 41.000000
126.708070 82.000000
130.067210 62.000000
132.403930 52.000000
133.075060 57.000000
133.081570 41.000000
134.062240 118.000000
135.051900 46.000000
139.050020 39.000000
140.080290 50.000000
149.054690 48.000000
151.056560 105.000000
152.064320 39.000000
153.070280 39.000000
159.033450 43.000000
160.065520 41.000000
162.054670 41.000000
164.058930 130.000000
165.052750 48.000000
165.067990 41.000000
165.076110 80.000000
165.850070 55.000000
166.048030 39.000000
166.071440 123.000000
166.078930 230.000000
167.051730 48.000000
169.030460 55.000000
171.085770 41.000000
174.050480 52.000000
175.050400 43.000000
175.059230 139.000000
175.067920 73.000000
176.056170 137.000000
176.068560 262.000000
177.014420 46.000000
177.062970 141.000000
178.076980 531.000000
179.049930 52.000000
180.171880 52.000000
181.076250 39.000000
188.064710 80.000000
188.071620 93.000000
189.060300 43.000000
189.071580 203.000000
190.068070 82.000000
190.083530 1000.000000
191.056520 43.000000
191.081420 64.000000
191.092760 153.000000
192.046780 75.000000
192.056210 216.000000
193.058620 52.000000
193.069670 175.000000
194.065250 219.000000
194.073760 273.000000
195.077190 139.000000
197.052410 46.000000
200.064320 46.000000
204.021160 55.000000
204.036390 41.000000
204.057140 421.000000
205.055340 141.000000
205.066770 171.000000
205.084670 46.000000
206.050250 62.000000
206.073060 105.000000
207.044310 280.000000
207.073680 89.000000
207.082370 48.000000
207.096370 62.000000
208.039230 55.000000
208.050700 182.000000
208.064300 39.000000
209.059230 41.000000
210.058000 57.000000
212.088530 43.000000
217.072920 71.000000
218.077640 41.000000
219.048780 169.000000
219.085540 98.000000
220.052890 59.000000
220.088680 41.000000
221.048340 103.000000
221.061830 533.000000
221.084780 73.000000
221.932820 46.000000
222.060530 253.000000
222.071090 378.000000
223.060810 114.000000
223.080570 87.000000
224.084580 153.000000
230.062760 77.000000
231.570680 84.000000
232.053910 394.000000
233.029980 43.000000
233.049790 41.000000
233.062090 91.000000
234.043560 39.000000
234.050980 59.000000
234.065640 191.000000
235.049240 84.000000
235.062290 87.000000
235.077010 207.000000
235.087100 123.000000
236.073040 55.000000
237.064510 130.000000
237.073330 48.000000
239.085100 39.000000
244.045210 114.000000
244.062590 59.000000
245.061690 48.000000
247.099140 39.000000
248.026490 82.000000
248.047940 62.000000
249.046010 287.000000
249.059050 196.000000
250.062000 431.000000
251.063370 203.000000
251.081070 155.000000
252.064160 139.000000
252.077550 46.000000
252.230960 62.000000
252.850980 39.000000
260.064970 64.000000
261.064700 171.000000
262.061580 93.000000
263.058170 48.000000
263.070740 48.000000
264.069920 46.000000
265.043240 77.000000
265.061160 109.000000
265.090090 150.000000
266.050600 39.000000
266.058780 55.000000
266.080050 52.000000
267.063110 46.000000
273.054840 71.000000
274.063390 50.000000
276.038480 48.000000
276.069610 50.000000
276.086120 43.000000
277.040530 68.000000
277.056060 64.000000
278.035280 41.000000
278.053920 305.000000
278.088990 43.000000
279.055270 39.000000
279.070220 159.000000
280.069580 98.000000
285.638000 46.000000
289.069340 48.000000
291.058440 93.000000
292.061740 89.000000
293.039310 39.000000
293.076750 96.000000
294.089420 46.000000
294.122500 62.000000
303.066860 112.000000
308.071870 46.000000
308.107270 48.000000

>ms2
123.041280 5.000000
130.027190 5.000000
149.053770 6.000000
149.061830 22.000000
159.064240 6.000000
165.067310 7.000000
166.194700 7.000000
174.050840 6.000000
176.056660 7.000000
176.069900 7.000000
177.070240 5.000000
180.047620 8.000000
181.052550 5.000000
189.070690 6.000000
189.087720 12.000000
190.052290 5.000000
190.085360 244.000000
191.077960 12.000000
191.091670 23.000000
191.101780 5.000000
193.064100 10.000000
194.071720 10.000000
205.062960 5.000000
206.074480 15.000000
206.079680 6.000000
209.079910 14.000000
209.100660 5.000000
215.749180 5.000000
222.064120 23.000000
223.076340 7.000000
224.080230 11.000000
233.049180 5.000000
233.305680 6.000000
234.041640 6.000000
234.082430 15.000000
235.070850 6.000000
237.096420 11.000000
240.112530 5.000000
245.054930 5.000000
247.078460 13.000000
248.057430 7.000000
248.089970 10.000000
249.046160 10.000000
250.044490 14.000000
250.058870 25.000000
250.070270 14.000000
251.059460 12.000000
251.070270 12.000000
251.829900 8.000000
261.043520 10.000000
263.067960 17.000000
264.080350 5.000000
265.044920 12.000000
265.084660 52.000000
265.101040 6.000000
266.098110 18.000000
269.190430 5.000000
276.066890 6.000000
277.046630 16.000000
277.079710 6.000000
278.054020 11.000000
279.069640 16.000000
280.058500 6.000000
280.074280 14.000000
280.089200 6.000000
281.076840 23.000000
281.089810 5.000000
282.064300 8.000000
282.086210 11.000000
285.064330 6.000000
291.067810 5.000000
292.061980 14.000000
292.070860 30.000000
292.087550 11.000000
293.048460 10.000000
293.081630 86.000000
293.092440 36.000000
294.069030 5.000000
294.091460 28.000000
294.106600 6.000000
294.505040 5.000000
295.081570 14.000000
295.096590 47.000000
296.104520 19.000000
297.101990 5.000000
297.114720 10.000000
302.052800 5.000000
303.061770 6.000000
304.049930 6.000000
304.069090 10.000000
304.084140 6.000000
305.048980 8.000000
307.050540 5.000000
307.063810 9.000000
308.060580 16.000000
308.076870 6.000000
310.128140 10.000000
311.081630 9.000000
319.092040 6.000000
320.067050 18.000000
322.072270 6.000000
322.090270 12.000000
323.046170 17.000000
323.067570 14.000000
323.092440 251.000000
323.578060 6.000000
324.090360 67.000000
324.102600 27.000000
325.093480 15.000000
335.092470 37.000000
336.117980 5.000000
337.105620 8.000000
341.087220 7.000000
341.116240 9.000000
348.128480 9.000000
351.113220 7.000000
354.106050 6.000000
366.123350 19.000000
384.095250 6.000000
384.145510 1000.000000

>ms2
190.085680 11.000000
323.093350 5.000000
384.108700 20.000000
384.144930 1000.000000

>ms2
78.409630 128.000000
91.052350 53.000000
94.070040 59.000000
104.060520 78.000000
115.035510 97.000000
131.039960 62.000000
131.070130 78.000000
132.076750 147.000000
132.979290 88.000000
135.031270 84.000000
136.074340 75.000000
146.101500 103.000000
152.061800 91.000000
159.041460 116.000000
160.075330 59.000000
161.053130 69.000000
161.078380 153.000000
162.051570 78.000000
162.091220 56.000000
163.047850 75.000000
165.067320 306.000000
165.074400 266.000000
174.053150 72.000000
175.039370 84.000000
175.063050 56.000000
176.061690 600.000000
176.073700 181.000000
177.053760 78.000000
177.062160 103.000000
178.082720 581.000000
178.734160 78.000000
179.045750 75.000000
179.077090 53.000000
179.096560 84.000000
181.089480 94.000000
187.058690 62.000000
188.059950 228.000000
189.066880 62.000000
189.074870 62.000000
189.083220 62.000000
190.070190 125.000000
190.086580 1000.000000
190.098190 147.000000
192.057100 84.000000
193.047380 59.000000
193.062520 91.000000
193.076510 56.000000
193.507450 56.000000
194.060620 53.000000
194.070140 194.000000
194.077900 144.000000
194.089160 53.000000
195.073900 62.000000
201.087050 53.000000
203.053380 75.000000
204.045200 247.000000
204.063640 250.000000
205.048310 62.000000
205.056470 56.000000
205.068740 262.000000
206.072170 203.000000
207.039120 84.000000
207.050600 122.000000
207.075930 194.000000
207.414830 72.000000
208.043560 53.000000
208.090190 81.000000
209.065730 72.000000
210.049560 88.000000
210.096790 78.000000
216.062150 91.000000
219.051740 56.000000
219.081950 66.000000
220.056590 197.000000
221.025700 62.000000
221.043720 103.000000
221.063660 738.000000
221.101460 53.000000
221.132060 84.000000
221.274950 53.000000
222.018280 106.000000
222.045930 62.000000
222.072160 266.000000
222.082500 78.000000
222.360790 56.000000
223.062300 59.000000
223.073590 194.000000
224.093380 56.000000
225.080310 75.000000
228.065310 59.000000
229.061280 62.000000
232.054760 325.000000
233.054350 475.000000
234.053360 69.000000
234.073000 200.000000
235.039060 231.000000
235.057910 84.000000
235.076740 66.000000
237.047910 66.000000
237.061720 84.000000
238.047710 56.000000
239.066120 69.000000
239.081800 72.000000
239.719880 62.000000
245.057660 66.000000
246.071010 59.000000
248.055400 53.000000
248.077910 75.000000
249.045240 678.000000
249.060730 184.000000
250.038420 84.000000
250.058610 428.000000
250.069990 94.000000
251.055690 125.000000
251.063840 325.000000
251.074190 169.000000
251.577770 62.000000
252.060520 72.000000
254.852080 56.000000
256.066280 62.000000
260.055240 209.000000
260.065830 72.000000
260.196110 69.000000
263.071720 66.000000
263.101960 84.000000
264.058350 78.000000
264.076600 131.000000
265.022830 94.000000
265.040680 91.000000
265.052310 297.000000
265.080170 53.000000
265.096740 78.000000
266.095090 134.000000
273.068150 62.000000
274.052520 72.000000
274.065090 128.000000
274.076840 53.000000
275.069270 153.000000
276.045720 62.000000
277.045810 316.000000
278.054780 188.000000
278.108430 66.000000
279.066190 241.000000
280.063750 56.000000
281.074580 62.000000
283.059020 66.000000
291.066890 69.000000
291.079320 72.000000
292.059140 69.000000
292.076810 56.000000
293.029020 62.000000
295.099400 53.000000
302.056580 88.000000
303.065520 56.000000
305.052280 56.000000
351.295680 75.000000

>ms2
149.060590 12.000000
159.037950 5.000000
160.051180 5.000000
165.052410 7.000000
167.441970 9.000000
176.071560 5.000000
177.076750 8.000000
189.075590 14.000000
190.086840 201.000000
191.077130 7.000000
191.095370 26.000000
192.092680 7.000000
219.087510 6.000000
221.058000 11.000000
222.068570 15.000000
223.069700 7.000000
232.053890 7.000000
235.068450 6.000000
237.088420 5.000000
249.050450 8.000000
249.065990 6.000000
250.022750 5.000000
250.057590 15.000000
250.073820 18.000000
260.060390 6.000000
263.061860 7.000000
265.086980 53.000000
266.079900 13.000000
266.093840 13.000000
267.089080 8.000000
267.101870 5.000000
275.082030 6.000000
277.077510 13.000000
278.055850 17.000000
279.058720 5.000000
279.072810 7.000000
280.076510 16.000000
282.085540 8.000000
290.053990 8.000000
291.058990 9.000000
292.057740 9.000000
292.070500 12.000000
292.087620 6.000000
293.078190 118.000000
294.086940 19.000000
295.094060 45.000000
296.101070 6.000000
297.106230 6.000000
297.118870 6.000000
302.068150 8.000000
304.049320 5.000000
304.065060 7.000000
305.081270 12.000000
307.061680 8.000000
307.096010 8.000000
308.064000 28.000000
320.070680 13.000000
322.069370 6.000000
322.078490 10.000000
322.117220 8.000000
323.044280 9.000000
323.054600 9.000000
323.090520 271.000000
324.095090 73.000000
325.087010 11.000000
325.102630 10.000000
335.087620 63.000000
337.094150 6.000000
341.108250 6.000000
366.135440 6.000000
367.133540 6.000000
384.089660 14.000000
384.142000 1000.000000

>ms2
190.080170 9.000000
190.089290 12.000000
323.089940 10.000000
323.099980 10.000000
384.091800 10.000000
384.146090 1000.000000

>ms2
115.052220 7.000000
119.050290 13.000000
131.050930 14.000000
133.085430 8.000000
135.037600 8.000000
136.050420 8.000000
137.054050 8.000000
139.901000 11.000000
143.045240 7.000000
143.054310 7.000000
148.182770 6.000000
149.058620 59.000000
149.068480 6.000000
150.063570 12.000000
150.068820 6.000000
158.136250 9.000000
159.041490 14.000000
160.052080 6.000000
162.097870 6.000000
163.072890 14.000000
164.048290 19.000000
164.797580 6.000000
166.080630 10.000000
174.064410 8.000000
175.059940 6.000000
175.068760 17.000000
175.078310 7.000000
175.727390 6.000000
176.069990 143.000000
177.047910 8.000000
177.077480 8.000000
178.075870 8.000000
178.564380 8.000000
181.102190 11.000000
182.844440 6.000000
187.042300 6.000000
188.073300 24.000000
188.083270 6.000000
189.075100 14.000000
189.082930 35.000000
189.904220 7.000000
190.087020 986.000000
191.063950 6.000000
191.080750 31.000000
191.089340 102.000000
192.067520 7.000000
192.084350 6.000000
193.051930 9.000000
194.077710 8.000000
195.053760 6.000000
195.064510 12.000000
195.427410 8.000000
205.063580 16.000000
206.076400 8.000000
206.090100 16.000000
206.417110 10.000000
207.073470 8.000000
208.074980 6.000000
209.097920 33.000000
210.103090 12.000000
219.073720 6.000000
219.086230 19.000000
220.080080 7.000000
220.095140 14.000000
221.062670 9.000000
221.102200 6.000000
222.033480 9.000000
222.051930 7.000000
222.070140 25.000000
222.100010 8.000000
223.068070 10.000000
229.210680 8.000000
230.061190 7.000000
232.047380 7.000000
233.049990 7.000000
233.061370 13.000000
234.070370 23.000000
234.177990 8.000000
234.290420 7.000000
235.076100 38.000000
235.636340 9.000000
236.082460 9.000000
236.097460 6.000000
237.067660 6.000000
237.088960 32.000000
237.095370 13.000000
238.097960 9.000000
239.110870 55.000000
240.102740 6.000000
240.114870 7.000000
240.124080 9.000000
245.040800 6.000000
246.061340 7.000000
247.058940 7.000000
247.073290 6.000000
247.083420 16.000000
248.058650 8.000000
248.090770 6.000000
249.048970 7.000000
249.095930 8.000000
250.051210 25.000000
250.059880 61.000000
251.068890 64.000000
252.082810 37.000000
255.104510 9.000000
259.071290 8.000000
260.030210 7.000000
260.054410 24.000000
261.049470 25.000000
262.057830 16.000000
262.069030 12.000000
263.060150 8.000000
263.076900 53.000000
263.559050 7.000000
264.028530 7.000000
264.075840 25.000000
264.092930 9.000000
265.053190 27.000000
265.086520 303.000000
265.105620 19.000000
266.057400 19.000000
266.074070 6.000000
266.085780 13.000000
266.097500 48.000000
267.072810 15.000000
267.085510 16.000000
267.106200 16.000000
267.287020 7.000000
272.045040 7.000000
272.534390 9.000000
273.028080 7.000000
273.058470 6.000000
274.055600 21.000000
274.074800 21.000000
275.047180 7.000000
275.067140 6.000000
275.077700 6.000000
275.564240 7.000000
276.049930 8.000000
276.078310 14.000000
277.046880 52.000000
277.073550 52.000000
277.086430 53.000000
277.104370 7.000000
278.056670 85.000000
278.085390 22.000000
278.094970 27.000000
278.621730 7.000000
278.796050 7.000000
279.062470 38.000000
279.076870 35.000000
279.096950 7.000000
279.110530 6.000000
280.051390 8.000000
280.078860 138.000000
281.088530 21.000000
282.080510 20.000000
282.094670 53.000000
283.076110 7.000000
283.092040 35.000000
283.104640 9.000000
284.779390 7.000000
285.082490 6.000000
285.339260 7.000000
286.512120 6.000000
287.071810 7.000000
287.111820 7.000000
287.834290 6.000000
289.073460 16.000000
290.045320 7.000000
290.069920 13.000000
291.064970 110.000000
292.050290 6.000000
292.071960 208.000000
292.086700 70.000000
293.042540 85.000000
293.081940 1000.000000
294.031920 6.000000
294.051760 8.000000
294.059080 14.000000
294.084840 162.000000
294.096770 63.000000
294.242340 7.000000
295.058140 7.000000
295.077180 40.000000
295.096220 274.000000
296.082520 9.000000
296.098630 14.000000
296.111390 9.000000
296.651550 6.000000
297.118380 16.000000
297.134280 11.000000
300.522370 6.000000
302.056790 54.000000
302.077330 7.000000
303.063780 19.000000
303.073430 7.000000
304.079930 122.000000
305.041380 30.000000
305.063540 13.000000
305.090120 32.000000
305.181370 7.000000
306.087220 29.000000
306.342680 7.000000
307.039980 9.000000
307.059720 38.000000
308.014830 11.000000
308.067840 156.000000
308.098020 11.000000
308.963260 9.000000
309.077150 30.000000
309.114010 20.000000
309.129610 7.000000
310.080080 28.000000
310.117860 8.000000
311.082610 9.000000
311.096800 31.000000
314.292020 6.000000
314.967350 7.000000
316.119450 6.000000
316.661740 8.000000
318.136380 7.000000
319.050990 9.000000
319.096980 7.000000
320.049320 21.000000
320.065610 118.000000
320.085020 14.000000
320.914090 7.000000
321.067080 50.000000
321.081910 21.000000
322.062470 11.000000
322.080170 65.000000
322.091950 27.000000
322.116030 7.000000
323.012570 16.000000
323.053160 8.000000
323.078580 218.000000
323.091130 799.000000
323.119930 12.000000
323.153260 6.000000
323.194210 10.000000
324.095980 206.000000
325.095520 18.000000
325.112000 13.000000
325.121150 7.000000
325.719600 7.000000
330.926910 8.000000
332.077700 10.000000
333.092010 21.000000
334.107820 15.000000
335.072850 38.000000
335.101500 83.000000
336.051730 7.000000
336.067870 6.000000
336.084290 9.000000
336.095980 6.000000
336.111790 12.000000
337.095550 6.000000
337.121890 6.000000
338.073610 7.000000
342.098880 15.000000
348.084320 7.000000
349.126280 6.000000
351.099240 25.000000
351.133700 8.000000
366.142300 10.000000
381.876500 9.000000
384.114930 12.000000
384.141540 6.000000

>ms2
76.026400 30.000000
89.042750 28.000000
91.060120 64.000000
92.057850 36.000000
102.047930 25.000000
102.573760 38.000000
103.051480 31.000000
104.065060 36.000000
119.047590 43.000000
121.012150 52.000000
121.066100 36.000000
122.036190 27.000000
130.044050 56.000000
130.062730 33.000000
130.966320 30.000000
131.032900 56.000000
131.051180 41.000000
131.068210 40.000000
131.075270 33.000000
132.057460 36.000000
132.091780 37.000000
133.028610 27.000000
133.067120 33.000000
135.045820 99.000000
137.026960 30.000000
145.027040 30.000000
146.057010 46.000000
146.990310 36.000000
147.050050 28.000000
149.054490 37.000000
149.065160 46.000000
151.049470 61.000000
152.061220 101.000000
153.069320 36.000000
159.042250 25.000000
159.050810 101.000000
160.057310 36.000000
160.073200 64.000000
161.054900 77.000000
162.093460 40.000000
163.054550 71.000000
163.838380 46.000000
164.055800 28.000000
164.068660 38.000000
165.059160 96.000000
165.068130 321.000000
165.576600 37.000000
166.076710 118.000000
167.086490 83.000000
167.096050 67.000000
168.054410 30.000000
171.079930 25.000000
172.052110 49.000000
174.059110 27.000000
175.063660 127.000000
176.053250 44.000000
176.063350 317.000000
176.072880 216.000000
177.051390 25.000000
177.056960 38.000000
177.072480 413.000000
178.038710 30.000000
178.083160 308.000000
179.053190 37.000000
179.079500 179.000000
179.089320 55.000000
180.040280 36.000000
180.081220 31.000000
180.096860 27.000000
182.068570 80.000000
187.045040 25.000000
188.045470 25.000000
188.068860 136.000000
189.074430 151.000000
189.084230 71.000000
190.070710 178.000000
190.088040 765.000000
191.034300 25.000000
191.044620 72.000000
191.056920 46.000000
191.090640 114.000000
192.055820 104.000000
192.073900 30.000000
192.090620 25.000000
193.039000 25.000000
193.048220 77.000000
193.063750 53.000000
193.077290 118.000000
194.073380 738.000000
194.092250 44.000000
195.036530 31.000000
195.073350 112.000000
195.084840 78.000000
197.093750 27.000000
199.061520 36.000000
202.073060 27.000000
203.036150 25.000000
203.060620 37.000000
203.830250 37.000000
204.031570 31.000000
204.049420 176.000000
204.059040 425.000000
204.073640 46.000000
205.026960 30.000000
205.045760 30.000000
205.062330 448.000000
205.079640 31.000000
206.056430 80.000000
206.067580 84.000000
206.080180 222.000000
207.043240 280.000000
207.056460 67.000000
207.081120 95.000000
207.893490 25.000000
208.055790 61.000000
208.086360 98.000000
208.096970 31.000000
209.057740 86.000000
209.084180 33.000000
209.101720 40.000000
210.067340 34.000000
210.097080 30.000000
217.048520 30.000000
217.060410 72.000000
217.078290 50.000000
218.066820 28.000000
218.077320 89.000000
219.040660 25.000000
219.048420 30.000000
220.054990 254.000000
221.061750 1000.000000
222.067580 701.000000
222.580000 30.000000
223.047290 25.000000
223.059810 28.000000
223.074160 214.000000
223.081630 71.000000
223.213960 30.000000
224.068440 31.000000
225.042180 27.000000
225.655810 25.000000
230.057100 33.000000
232.040510 120.000000
232.054810 346.000000
232.065020 111.000000
233.067020 229.000000
233.083530 37.000000
234.066210 354.000000
234.081330 27.000000
235.038740 135.000000
235.053730 27.000000
235.075130 259.000000
235.988750 31.000000
236.046140 27.000000
236.064330 50.000000
236.089130 31.000000
236.881480 27.000000
237.057910 154.000000
238.044680 67.000000
238.055860 34.000000
238.078540 59.000000
239.055770 75.000000
239.076280 55.000000
239.099150 27.000000
244.049970 33.000000
245.052230 56.000000
245.070720 34.000000
246.052660 24.000000
246.061900 43.000000
247.031780 46.000000
247.073990 30.000000
247.093200 36.000000
248.078570 25.000000
248.091310 33.000000
248.984890 25.000000
249.018860 30.000000
249.040970 68.000000
249.052980 402.000000
249.067870 124.000000
249.912320 30.000000
250.046510 124.000000
250.062730 522.000000
251.041820 61.000000
251.071840 337.000000
251.080320 160.000000
251.175700 28.000000
251.753520 30.000000
252.074480 80.000000
252.088240 93.000000
253.082860 30.000000
253.507350 37.000000
254.053730 25.000000
255.043950 55.000000
258.055080 38.000000
258.077790 34.000000
260.052580 151.000000
260.999570 27.000000
261.048520 132.000000
262.056610 104.000000
262.067660 83.000000
262.097320 33.000000
262.126980 25.000000
263.040190 37.000000
263.067110 64.000000
263.077000 59.000000
264.065120 37.000000
264.074620 27.000000
264.884060 25.000000
265.036250 62.000000
265.053010 129.000000
265.072720 80.000000
265.085300 86.000000
265.099030 101.000000
266.055850 53.000000
267.060670 65.000000
267.110930 27.000000
268.068700 49.000000
274.069400 59.000000
274.077180 28.000000
275.072050 83.000000
276.066070 31.000000
277.031800 31.000000
277.039890 108.000000
277.053070 209.000000
278.055150 243.000000
278.072420 27.000000
279.045170 72.000000
279.066410 161.000000
279.084050 64.000000
280.067540 175.000000
281.057740 33.000000
290.062190 27.000000
291.061100 30.000000
292.074130 151.000000
293.050200 27.000000
293.078090 89.000000
293.123870 25.000000
295.074040 31.000000
295.091430 37.000000
296.472260 28.000000
301.055910 43.000000
302.076900 77.000000
304.077730 33.000000
304.097440 30.000000
307.045650 27.000000
307.096710 33.000000
308.056210 56.000000
308.084110 49.000000
323.492890 41.000000
323.747830 27.000000
332.105960 25.000000

