>compound PR14812407
>parentmass 271.0600999076923
>ionization [M+H]+
>formula C15H10O5
>rt 355.256326
>profile qtof
#smiles_iso C1=CC(=CC=C1C2=COC3=CC(=CC(=C3C2=O)O)O)O
#smiles_can C1=CC(=CC=C1C2=COC3=CC(=CC(=C3C2=O)O)O)O
#inchikey TZBJGXHYKVUXJN-UHFFFAOYSA-N
#pubchem_id 5280961
#mb_accession PR301900,PR301906,PR301912,PR301918,PR301924,PR301930,PR301936,PR301942,PR301948,PR301954,PR301960,PR301966,PR310857

>ms2peaks
91.051910 13.000000
91.056850 10.000000
115.054570 11.000000
119.047840 10.000000
131.050200 6.000000
141.071240 17.000000
145.025420 11.000000
145.034850 6.000000
147.044600 8.000000
149.019270 11.000000
149.025960 18.000000
153.017140 71.000000
159.041310 8.000000
159.047350 6.000000
165.021220 11.000000
169.066210 22.000000
187.042270 7.000000
191.032270 5.000000
197.055910 21.000000
198.069790 7.000000
214.059740 5.000000
215.064940 33.000000
215.076480 29.000000
216.075970 8.000000
243.067110 28.000000
253.043700 11.000000
253.055220 13.000000
271.033170 15.000000
271.059420 1000.000000
271.106660 7.000000

>ms2peaks
271.018680 7.000000
271.060520 1000.000000
271.107060 14.000000

>ms2peaks
55.017080 6.000000
61.284440 12.000000
63.023080 8.000000
67.013770 10.000000
68.994340 34.000000
69.001660 11.000000
69.034420 13.000000
77.036300 7.000000
79.047940 6.000000
81.029140 21.000000
89.038340 20.000000
91.037960 5.000000
91.055100 413.000000
91.080140 6.000000
92.057910 19.000000
92.704260 5.000000
93.035330 8.000000
94.037610 6.000000
95.010550 8.000000
96.661880 9.000000
97.017350 7.000000
97.031520 7.000000
97.953250 5.000000
103.047550 14.000000
105.031340 7.000000
106.039820 10.000000
107.047630 33.000000
109.026390 9.000000
109.420930 10.000000
110.033620 8.000000
111.006330 29.000000
113.016980 6.000000
115.051760 30.000000
116.059510 12.000000
117.033430 8.000000
117.058210 7.000000
117.068250 10.000000
118.040870 5.000000
119.003860 8.000000
119.040380 25.000000
119.049270 80.000000
119.080310 6.000000
120.045880 6.000000
120.051320 11.000000
121.029180 85.000000
122.029150 5.000000
123.009640 6.000000
123.045310 12.000000
124.037880 7.000000
124.333430 5.000000
126.025500 9.000000
126.031610 6.000000
127.042980 15.000000
127.057750 7.000000
128.057890 6.000000
128.660630 5.000000
129.072110 25.000000
129.081860 19.000000
129.987200 7.000000
131.036470 12.000000
131.049960 51.000000
131.071780 10.000000
131.083270 30.000000
132.043210 7.000000
133.027360 16.000000
133.037320 6.000000
135.042830 33.000000
135.777400 9.000000
136.047990 9.000000
137.019490 35.000000
137.207900 6.000000
141.013630 7.000000
141.045870 6.000000
141.068630 271.000000
142.071590 37.000000
142.077640 19.000000
144.051620 31.000000
144.060700 13.000000
145.024520 52.000000
145.031300 88.000000
145.059910 32.000000
145.068220 25.000000
146.023560 6.000000
146.030820 14.000000
146.043030 5.000000
146.073290 5.000000
147.046710 59.000000
147.083690 35.000000
148.050800 22.000000
148.991840 9.000000
149.023680 377.000000
150.026580 42.000000
150.034620 14.000000
151.056180 17.000000
152.059230 35.000000
153.017560 1000.000000
153.065800 6.000000
154.002330 9.000000
154.014830 71.000000
154.024730 35.000000
155.039060 6.000000
155.054630 13.000000
156.049560 6.000000
156.056990 10.000000
157.056870 12.000000
157.065000 10.000000
158.068480 8.000000
159.030260 15.000000
159.043620 118.000000
159.065980 6.000000
159.079410 41.000000
159.084290 19.000000
161.046720 6.000000
161.053500 11.000000
161.063100 10.000000
163.020400 8.000000
163.054660 6.000000
164.104250 8.000000
165.018190 106.000000
165.024370 37.000000
166.024030 20.000000
167.215880 6.000000
168.136540 7.000000
169.059860 141.000000
169.067000 190.000000
170.062610 24.000000
170.075040 11.000000
171.035950 8.000000
171.073470 9.000000
171.084080 10.000000
173.055680 65.000000
173.398770 6.000000
173.997540 5.000000
174.064000 27.000000
174.075650 6.000000
175.072070 50.000000
178.028870 7.000000
178.302000 8.000000
179.043350 8.000000
183.034010 10.000000
183.044310 28.000000
183.163130 6.000000
183.730680 6.000000
184.051480 6.000000
184.335980 7.000000
184.986710 10.000000
185.006240 6.000000
185.028210 5.000000
185.056170 5.000000
187.040050 19.000000
187.048870 7.000000
187.065670 43.000000
187.078770 17.000000
187.087690 21.000000
187.356930 6.000000
188.143020 9.000000
196.056980 6.000000
197.041120 10.000000
197.060350 300.000000
198.062550 40.000000
198.076550 6.000000
199.036850 6.000000
199.188900 7.000000
200.044940 39.000000
201.021580 8.000000
201.047130 26.000000
201.056020 27.000000
202.051070 8.000000
202.061950 11.000000
202.328980 6.000000
203.005490 7.000000
203.066700 12.000000
204.044510 13.000000
207.045640 6.000000
208.050220 7.000000
209.020710 8.000000
211.027880 8.000000
212.051090 8.000000
213.053830 53.000000
213.074710 7.000000
214.063350 8.000000
215.025990 14.000000
215.070400 432.000000
215.084900 48.000000
215.452260 5.000000
216.054750 5.000000
216.070880 81.000000
216.087050 5.000000
219.435850 8.000000
220.517620 6.000000
224.063520 7.000000
225.032780 6.000000
225.053050 28.000000
225.089170 6.000000
226.060490 18.000000
226.074910 12.000000
227.069210 13.000000
227.077260 11.000000
228.035550 20.000000
228.045180 10.000000
229.049180 20.000000
235.042940 7.000000
236.029570 6.000000
241.049730 11.000000
242.054350 20.000000
242.063400 39.000000
243.050520 29.000000
243.064330 161.000000
243.078200 80.000000
244.065370 33.000000
244.077770 32.000000
250.654970 5.000000
252.022230 8.000000
252.991680 7.000000
253.027890 14.000000
253.048170 90.000000
253.067860 6.000000
254.049580 30.000000
254.066590 10.000000
270.728970 5.000000
271.013490 7.000000
271.027340 5.000000
271.059940 466.000000

>ms2peaks
51.016120 44.000000
53.038660 36.000000
65.027830 32.000000
65.037060 214.000000
65.041080 49.000000
67.021490 31.000000
68.990430 24.000000
68.996820 107.000000
69.000770 64.000000
69.028340 37.000000
69.033050 153.000000
81.032450 40.000000
82.027260 40.000000
87.002230 24.000000
89.034860 50.000000
89.040810 43.000000
91.027580 53.000000
91.053120 1000.000000
91.062320 61.000000
92.054910 24.000000
101.035560 31.000000
102.027940 49.000000
103.054810 26.000000
105.032490 69.000000
107.052020 55.000000
108.021740 53.000000
108.049380 24.000000
109.515740 28.000000
110.124500 24.000000
113.038760 25.000000
115.054330 707.000000
116.060700 94.000000
118.035470 37.000000
118.048010 54.000000
119.045940 43.000000
121.019130 26.000000
121.029340 46.000000
123.046840 24.000000
124.047490 33.000000
127.029760 55.000000
127.050970 104.000000
128.058430 117.000000
128.067470 55.000000
129.068600 35.000000
131.045580 64.000000
131.051280 50.000000
131.084720 25.000000
133.026670 51.000000
140.057850 111.000000
140.067760 43.000000
141.074740 191.000000
142.072800 36.000000
143.049470 118.000000
144.052920 69.000000
145.030180 33.000000
145.057770 65.000000
145.067750 42.000000
147.045580 97.000000
149.012730 65.000000
150.039870 36.000000
150.047260 55.000000
151.053700 42.000000
152.058790 141.000000
152.069600 46.000000
153.016460 334.000000
153.025120 108.000000
154.021910 42.000000
155.049420 110.000000
168.036320 24.000000
168.055300 151.000000
168.069700 35.000000
169.053130 40.000000
169.061780 89.000000
170.066090 28.000000
171.043200 35.000000
174.066570 68.000000
184.008650 36.000000
196.050310 36.000000
197.039980 39.000000
198.061970 32.000000
199.040040 86.000000
214.061920 31.000000
215.068680 28.000000

>ms2peaks
91.054440 19.000000
115.054580 6.000000
119.047190 10.000000
141.065320 13.000000
145.025590 5.000000
145.030750 11.000000
147.041200 5.000000
149.022160 21.000000
150.030590 5.000000
153.018160 83.000000
155.040370 6.000000
159.044050 11.000000
169.063780 18.000000
185.058140 6.000000
197.056090 20.000000
215.057940 8.000000
215.070860 47.000000
225.059310 6.000000
243.052870 6.000000
243.066450 30.000000
244.069990 10.000000
253.051390 12.000000
271.025120 9.000000
271.060030 1000.000000
271.105160 10.000000

>ms2peaks
271.025480 6.000000
271.060850 1000.000000
271.107540 14.000000

>ms2peaks
68.025890 6.000000
68.997910 23.000000
69.002710 21.000000
70.038210 10.000000
77.028260 9.000000
77.037830 6.000000
78.044110 8.000000
89.034820 7.000000
89.041050 12.000000
91.053540 182.000000
91.430630 7.000000
92.059940 14.000000
92.188900 5.000000
92.998730 9.000000
94.244140 7.000000
94.993680 8.000000
97.027290 7.000000
105.030700 8.000000
105.037460 13.000000
107.044920 9.000000
107.050200 20.000000
109.022930 11.000000
111.004660 26.000000
111.014370 7.000000
111.038380 6.000000
113.902100 6.000000
114.603710 9.000000
115.055870 72.000000
116.066060 6.000000
116.991610 9.000000
117.031890 13.000000
117.068990 6.000000
117.076250 27.000000
118.040880 6.000000
118.071840 6.000000
119.027760 16.000000
119.044750 74.000000
119.051700 36.000000
121.009550 16.000000
121.026770 87.000000
121.298770 6.000000
122.031300 6.000000
122.875710 7.000000
123.050610 10.000000
124.014680 6.000000
127.060680 7.000000
128.025500 6.000000
128.060850 65.000000
128.322860 7.000000
129.066740 20.000000
129.072510 26.000000
131.045270 65.000000
131.053830 25.000000
131.082790 25.000000
132.090410 7.000000
132.626820 6.000000
133.026720 26.000000
133.037230 6.000000
133.064870 17.000000
133.134280 8.000000
133.932820 7.000000
134.035720 7.000000
134.068630 13.000000
135.035220 7.000000
136.047420 7.000000
137.018110 15.000000
138.026470 6.000000
138.032180 12.000000
141.060240 40.000000
141.070740 236.000000
142.074620 57.000000
144.055970 6.000000
145.028490 153.000000
145.064770 66.000000
146.039230 6.000000
147.038560 6.000000
147.047010 40.000000
147.080220 39.000000
147.088470 6.000000
148.056640 6.000000
148.084930 14.000000
148.987850 8.000000
148.995570 6.000000
149.009410 25.000000
149.022170 245.000000
149.035690 7.000000
150.023130 14.000000
150.033080 8.000000
151.055600 7.000000
153.017960 1000.000000
153.999680 10.000000
154.011760 26.000000
154.019450 62.000000
154.030330 8.000000
154.060670 10.000000
154.940570 11.000000
155.010160 10.000000
155.018340 13.000000
155.028350 8.000000
155.048000 33.000000
155.060460 9.000000
155.322920 5.000000
156.042890 15.000000
156.055850 25.000000
157.013230 5.000000
157.054170 6.000000
157.066330 22.000000
159.040120 60.000000
159.047900 51.000000
159.074550 21.000000
159.081890 31.000000
160.042310 5.000000
160.066670 7.000000
163.042710 7.000000
164.044570 8.000000
164.830960 6.000000
165.016540 94.000000
166.028530 7.000000
168.052000 17.000000
169.042510 8.000000
169.053480 18.000000
169.067110 195.000000
170.064090 34.000000
171.040310 8.000000
171.458800 7.000000
172.215910 8.000000
172.927670 5.000000
173.047100 22.000000
173.055830 18.000000
173.064560 35.000000
174.070160 13.000000
175.074520 21.000000
176.041280 6.000000
178.025300 5.000000
179.051970 18.000000
180.061260 10.000000
181.063340 16.000000
181.083390 12.000000
183.032240 6.000000
183.042450 17.000000
184.051510 15.000000
185.061520 25.000000
187.030440 28.000000
187.042180 7.000000
187.054410 6.000000
187.072400 81.000000
188.072270 19.000000
189.041150 8.000000
189.079190 9.000000
197.039810 31.000000
197.053160 79.000000
197.060990 96.000000
197.069900 54.000000
198.053280 29.000000
198.063580 29.000000
198.073260 23.000000
199.057450 5.000000
199.069230 12.000000
200.041960 72.000000
201.048800 49.000000
201.055950 22.000000
202.066860 7.000000
202.241440 8.000000
203.022540 9.000000
203.038270 13.000000
205.010070 7.000000
207.056630 5.000000
211.029510 7.000000
211.037960 12.000000
213.046170 16.000000
213.056400 32.000000
214.058490 19.000000
214.333830 6.000000
215.029370 6.000000
215.053390 57.000000
215.068630 341.000000
215.092680 6.000000
215.104520 13.000000
215.901690 7.000000
216.029830 8.000000
216.052170 15.000000
216.076490 78.000000
216.105000 6.000000
223.449170 7.000000
225.056640 66.000000
225.075260 8.000000
226.056370 9.000000
227.060010 13.000000
228.041400 20.000000
229.049190 15.000000
230.048160 7.000000
231.189380 6.000000
235.036000 8.000000
236.363560 9.000000
242.044310 7.000000
242.054230 12.000000
243.029910 17.000000
243.063670 232.000000
243.257630 7.000000
243.562710 7.000000
244.066730 94.000000
245.067810 13.000000
245.079900 14.000000
252.039700 7.000000
253.015580 7.000000
253.036960 81.000000
253.053590 174.000000
254.054840 47.000000
255.013640 5.000000
255.061200 5.000000
271.035340 21.000000
271.061160 365.000000
271.077090 47.000000

>ms2peaks
55.019050 41.000000
63.793160 31.000000
65.041450 144.000000
67.024770 41.000000
68.997320 43.000000
69.031360 32.000000
77.038350 57.000000
81.032230 38.000000
89.034390 52.000000
91.012550 40.000000
91.042430 83.000000
91.055120 1000.000000
91.064280 47.000000
93.035300 29.000000
95.015430 29.000000
97.024330 29.000000
97.030430 46.000000
103.049840 31.000000
105.025730 60.000000
105.033380 127.000000
107.038360 38.000000
107.046390 73.000000
107.055180 54.000000
108.024080 46.000000
108.046260 57.000000
115.055300 503.000000
115.064040 76.000000
115.859920 37.000000
116.054690 46.000000
118.042600 46.000000
121.017040 57.000000
121.032140 73.000000
126.044320 50.000000
127.044310 40.000000
127.057020 49.000000
129.066760 49.000000
131.051350 67.000000
131.058400 58.000000
135.043440 38.000000
139.054370 255.000000
141.064830 35.000000
141.073200 110.000000
144.062500 26.000000
146.033110 38.000000
147.043950 41.000000
149.023930 29.000000
150.035920 31.000000
150.046590 81.000000
151.044050 34.000000
151.054020 29.000000
152.050030 35.000000
152.063050 116.000000
153.011540 101.000000
153.021510 165.000000
153.063160 28.000000
154.027920 50.000000
155.048320 81.000000
155.056140 38.000000
157.067920 52.000000
168.057620 54.000000
169.074550 32.000000
179.051350 28.000000
197.061740 29.000000
201.041760 38.000000
207.043330 32.000000
213.049510 58.000000
214.047360 32.000000
252.040540 35.000000
253.048800 29.000000
271.055940 115.000000
271.070830 73.000000

>ms2peaks
91.049750 6.000000
91.055690 10.000000
107.048030 7.000000
111.009000 6.000000
119.047420 8.000000
121.029080 5.000000
131.047390 5.000000
141.072810 8.000000
145.025880 18.000000
149.021590 25.000000
153.018330 81.000000
154.022480 8.000000
159.041350 16.000000
165.020220 14.000000
169.062870 15.000000
187.070560 6.000000
197.058520 24.000000
215.071320 71.000000
216.043110 6.000000
216.071550 13.000000
225.049680 6.000000
243.057620 8.000000
243.065310 16.000000
243.074420 8.000000
253.047390 8.000000
271.021000 11.000000
271.058650 1000.000000
271.106510 13.000000

>ms2peaks
271.059750 1000.000000
271.106450 16.000000

>ms2peaks
65.023510 6.000000
65.036680 16.000000
65.041650 6.000000
67.015920 18.000000
67.019170 7.000000
68.990780 6.000000
68.999040 41.000000
69.038140 7.000000
77.027780 7.000000
79.047840 8.000000
89.038760 8.000000
90.044070 7.000000
91.009480 6.000000
91.019130 17.000000
91.032040 6.000000
91.054130 344.000000
92.057630 33.000000
93.033280 10.000000
95.009760 9.000000
95.016110 17.000000
97.026660 13.000000
103.058620 16.000000
105.032260 9.000000
107.048440 26.000000
108.049930 6.000000
109.033260 6.000000
111.001080 13.000000
111.007770 27.000000
111.016000 6.000000
115.053390 43.000000
116.059270 7.000000
117.029980 7.000000
117.059960 9.000000
117.070580 24.000000
118.037500 11.000000
118.046590 5.000000
119.049260 155.000000
119.087650 7.000000
120.055690 6.000000
121.022790 18.000000
121.028370 68.000000
121.059130 7.000000
123.010510 14.000000
127.038280 5.000000
127.054490 27.000000
127.973950 9.000000
128.054990 10.000000
128.064850 28.000000
129.067580 19.000000
131.044130 22.000000
131.049040 66.000000
131.084520 28.000000
132.049040 12.000000
133.016880 6.000000
133.027450 17.000000
133.060680 6.000000
134.034970 18.000000
134.062650 5.000000
135.019680 6.000000
135.043700 6.000000
137.026690 21.000000
137.036030 8.000000
138.023010 9.000000
141.020870 10.000000
141.044160 6.000000
141.069320 187.000000
142.064580 5.000000
142.074400 10.000000
143.876790 6.000000
144.055850 8.000000
145.003310 7.000000
145.027530 126.000000
145.065230 65.000000
146.029110 17.000000
146.036320 7.000000
146.067580 8.000000
146.089400 8.000000
147.024580 6.000000
147.043030 48.000000
147.080180 32.000000
149.020710 110.000000
149.027590 205.000000
150.031370 40.000000
151.029660 8.000000
152.043520 15.000000
152.068510 11.000000
152.754590 6.000000
152.808500 7.000000
152.995860 18.000000
153.018160 1000.000000
153.068050 7.000000
153.073730 6.000000
154.020720 55.000000
154.030030 10.000000
154.257750 7.000000
155.021640 11.000000
155.038160 6.000000
155.049450 47.000000
156.048870 7.000000
156.589800 6.000000
156.965960 7.000000
157.062040 24.000000
157.700740 5.000000
158.072200 9.000000
159.038590 50.000000
159.046070 81.000000
159.071180 9.000000
159.079730 26.000000
159.090440 9.000000
160.050520 33.000000
160.080370 9.000000
161.053090 9.000000
163.029540 11.000000
163.041670 17.000000
164.041000 16.000000
165.017380 91.000000
165.072370 8.000000
166.562090 7.000000
168.058610 10.000000
169.064420 238.000000
169.084320 8.000000
169.883560 6.000000
170.054440 8.000000
170.072390 34.000000
171.032420 10.000000
172.050580 13.000000
173.031520 6.000000
173.055940 26.000000
173.067060 14.000000
174.054690 15.000000
174.228440 7.000000
175.072880 27.000000
175.952420 6.000000
176.073200 7.000000
179.053820 10.000000
181.053680 11.000000
181.065140 29.000000
183.023470 9.000000
183.043520 35.000000
183.050000 11.000000
184.043850 13.000000
184.054840 5.000000
184.414120 9.000000
185.061650 28.000000
186.039460 7.000000
186.061610 7.000000
187.032170 24.000000
187.039700 18.000000
187.050320 9.000000
187.067460 27.000000
187.077070 45.000000
187.086200 17.000000
188.079320 11.000000
191.033370 5.000000
191.038970 11.000000
197.060940 371.000000
198.044920 7.000000
198.061330 32.000000
199.069020 26.000000
200.045230 43.000000
200.059300 7.000000
201.035780 13.000000
201.047840 9.000000
201.058870 23.000000
203.040890 14.000000
203.068150 7.000000
207.042620 12.000000
210.964430 6.000000
211.042820 19.000000
213.035370 6.000000
213.051700 34.000000
213.059420 18.000000
214.057740 6.000000
214.068620 8.000000
215.044190 19.000000
215.060650 108.000000
215.071230 414.000000
216.059430 9.000000
216.068040 25.000000
216.080140 31.000000
216.098890 10.000000
217.051070 11.000000
219.541050 6.000000
225.021040 9.000000
225.033370 15.000000
225.058690 55.000000
226.059710 39.000000
227.059650 11.000000
227.070080 20.000000
228.042160 22.000000
228.074230 8.000000
229.049740 18.000000
229.062000 6.000000
241.029220 6.000000
241.046910 10.000000
242.051070 20.000000
242.061650 6.000000
243.063200 265.000000
244.037750 7.000000
244.060200 7.000000
244.073560 23.000000
253.053960 222.000000
254.031400 7.000000
254.053540 49.000000
255.062910 7.000000
259.333650 7.000000
270.993380 6.000000
271.025300 11.000000
271.061040 371.000000

>ms2peaks
65.029590 79.000000
65.039020 274.000000
66.040370 42.000000
66.301490 45.000000
67.018840 101.000000
67.146910 32.000000
68.997180 34.000000
69.000900 77.000000
69.033690 71.000000
73.084240 42.000000
77.042700 71.000000
79.021800 48.000000
81.036790 56.000000
81.483240 27.000000
89.036060 32.000000
90.919820 34.000000
91.046070 32.000000
91.054950 835.000000
91.060780 279.000000
91.240040 39.000000
92.055400 51.000000
97.030530 40.000000
101.019220 32.000000
101.037700 63.000000
103.044650 64.000000
103.052290 85.000000
103.059140 34.000000
105.027440 35.000000
105.037770 58.000000
105.069220 27.000000
105.602170 29.000000
107.050020 101.000000
111.003850 47.000000
112.994770 56.000000
115.054240 1000.000000
116.057270 127.000000
117.034540 74.000000
117.070110 43.000000
119.044820 43.000000
119.080210 56.000000
121.023890 197.000000
122.027690 74.000000
123.080900 37.000000
125.020490 58.000000
126.046890 95.000000
127.047900 106.000000
127.055460 175.000000
128.054690 124.000000
130.036640 35.000000
130.077240 50.000000
131.043500 88.000000
131.051640 146.000000
139.045000 30.000000
139.052350 117.000000
140.055540 35.000000
141.067720 308.000000
141.075760 119.000000
141.081710 61.000000
144.044300 93.000000
144.061770 66.000000
145.029620 64.000000
146.031220 56.000000
146.062870 53.000000
150.045460 144.000000
151.052170 77.000000
152.051280 37.000000
152.064710 34.000000
152.925600 27.000000
153.014470 178.000000
153.022320 47.000000
153.065570 69.000000
155.056610 88.000000
156.048860 39.000000
160.047560 39.000000
164.461410 39.000000
168.052350 120.000000
169.056610 66.000000
171.041380 51.000000
172.072080 40.000000
176.732030 32.000000
184.053450 53.000000
195.040850 48.000000
197.058350 74.000000
200.060580 32.000000
208.056700 53.000000

>ms2peaks
55.984390 17.000000
63.009360 28.000000
65.037090 71.000000
65.041650 74.000000
65.112030 18.000000
67.019130 66.000000
67.022930 25.000000
68.016780 27.000000
68.997680 113.000000
69.003140 28.000000
69.032940 36.000000
79.975720 40.000000
83.014310 34.000000
89.037090 24.000000
91.052700 210.000000
91.057850 100.000000
91.987530 27.000000
92.058820 24.000000
93.003680 19.000000
93.032820 41.000000
98.026560 35.000000
109.027700 49.000000
111.004330 54.000000
111.009870 40.000000
115.048650 23.000000
115.057260 26.000000
117.029330 32.000000
117.036750 24.000000
119.025170 33.000000
119.041460 134.000000
119.049740 455.000000
120.047100 28.000000
120.055970 40.000000
121.014960 20.000000
121.027370 104.000000
121.306470 20.000000
121.352500 20.000000
122.025450 19.000000
123.060390 17.000000
123.535250 17.000000
125.022230 56.000000
127.050730 23.000000
128.067460 23.000000
129.070250 39.000000
131.048860 35.000000
132.536010 17.000000
139.052250 17.000000
141.058620 24.000000
141.069370 20.000000
142.070100 32.000000
142.378010 29.000000
145.027600 435.000000
146.032990 54.000000
151.053540 31.000000
152.974780 40.000000
152.997020 65.000000
153.017330 2122.000000
153.996090 18.000000
154.018940 221.000000
154.029920 30.000000
155.020520 48.000000
155.033040 25.000000
155.047970 65.000000
156.250960 17.000000
157.883760 18.000000
159.250270 20.000000
163.035600 56.000000
165.016820 25.000000
166.638690 24.000000
167.374070 27.000000
169.054060 41.000000
169.062550 62.000000
171.443370 24.000000
171.973600 21.000000
173.060290 33.000000
175.120190 21.000000
177.551030 53.000000
177.919770 40.000000
179.051800 32.000000
183.026260 22.000000
185.059390 19.000000
187.039950 26.000000
187.049320 25.000000
187.312330 32.000000
187.665040 27.000000
188.050520 29.000000
188.077290 18.000000
193.369050 29.000000
197.050290 19.000000
197.058670 18.000000
201.062770 20.000000
202.074140 22.000000
203.078400 31.000000
203.086780 18.000000
203.382280 28.000000
204.212390 28.000000
211.045560 31.000000
212.824800 20.000000
213.057500 34.000000
222.752810 17.000000
223.093510 73.000000
224.999440 58.000000
225.050900 81.000000
226.052410 24.000000
228.052000 36.000000
228.079640 19.000000
228.301640 45.000000
229.041410 35.000000
229.052570 148.000000
229.874760 18.000000
230.052340 50.000000
242.064990 18.000000
243.055240 29.000000
243.072910 68.000000
244.080320 21.000000
246.303360 26.000000
250.884250 30.000000
254.181470 18.000000
263.642300 32.000000
265.915500 30.000000
266.421940 18.000000
266.951050 17.000000
270.049770 18.000000
270.849330 23.000000
270.977720 35.000000
270.999570 54.000000
271.028230 285.000000
271.059660 24729.000000
271.108700 265.000000

