>compound PR15678293
>parentmass 206.11755556923077
>ionization [M+H]+
>formula C12H15NO2
>rt 175.867403
>profile qtof
#smiles_iso CC1=NCCC2=CC(=C(C=C12)OC)OC
#smiles_can CC1=NCCC2=CC(=C(C=C12)OC)OC
#inchikey VASUQTGZAPZKFK-UHFFFAOYSA-N
#pubchem_id 22652
#mb_accession PR301399,PR301403,PR301407,PR301411,PR301415,PR301419,PR301423,PR301427,PR301431,PR301434,PR301438,PR301442,PR311168

>ms2peaks
132.080780 22.000000
144.081160 15.000000
145.082080 15.000000
145.088750 53.000000
146.065220 7.000000
146.087710 6.000000
147.069690 6.000000
160.076510 16.000000
161.078340 7.000000
162.091200 95.000000
173.084630 15.000000
174.091400 27.000000
188.071170 7.000000
189.075760 7.000000
190.087520 235.000000
191.093570 120.000000
192.094860 11.000000
206.117610 1000.000000
206.159230 23.000000

>ms2peaks
190.090820 6.000000
191.091200 7.000000
206.118010 1000.000000
206.158280 34.000000

>ms2peaks
91.053660 25.000000
103.055500 6.000000
105.069090 11.000000
115.050040 9.000000
115.056450 6.000000
116.059010 11.000000
117.057440 7.000000
117.066790 12.000000
118.064800 6.000000
119.044670 6.000000
119.050640 18.000000
121.064930 19.000000
127.055440 9.000000
127.060870 6.000000
130.064240 12.000000
131.071620 5.000000
132.080730 82.000000
132.087630 21.000000
133.078660 11.000000
133.087370 26.000000
133.095520 13.000000
144.080860 113.000000
145.063510 9.000000
145.088760 326.000000
146.058070 9.000000
146.086900 22.000000
146.094360 22.000000
147.047550 8.000000
147.065930 25.000000
147.073210 20.000000
148.042760 9.000000
148.071430 11.000000
148.080890 10.000000
149.059070 7.000000
149.073060 5.000000
160.075290 67.000000
161.066250 13.000000
161.083110 121.000000
162.091350 489.000000
163.092860 63.000000
172.078770 6.000000
173.086070 50.000000
174.091480 73.000000
175.064030 7.000000
175.074130 6.000000
175.097780 11.000000
176.059630 7.000000
176.071670 61.000000
177.078320 8.000000
188.049100 7.000000
188.065550 62.000000
188.075450 65.000000
189.072620 16.000000
190.086010 1000.000000
191.092320 264.000000
192.091960 10.000000
192.100980 14.000000
193.103680 6.000000
206.101260 11.000000
206.118390 99.000000

>ms2peaks
60.670580 37.000000
77.030330 98.000000
77.041360 67.000000
90.048360 81.000000
91.052220 114.000000
91.057810 52.000000
93.064240 52.000000
100.673530 37.000000
103.044070 33.000000
103.050310 52.000000
103.055940 48.000000
103.061040 39.000000
107.029220 35.000000
107.043500 46.000000
107.072960 33.000000
115.042530 39.000000
115.054660 285.000000
116.051220 42.000000
116.060130 52.000000
117.056080 189.000000
118.037380 60.000000
118.074900 42.000000
119.072590 118.000000
120.052890 39.000000
120.081230 39.000000
121.067110 156.000000
130.064740 37.000000
131.070140 79.000000
132.047060 35.000000
132.079350 1000.000000
133.064220 87.000000
133.074450 35.000000
133.084010 91.000000
133.091380 75.000000
133.097290 37.000000
134.086980 39.000000
143.047500 39.000000
143.064650 33.000000
143.082020 48.000000
144.041890 56.000000
144.076610 351.000000
144.085370 119.000000
144.094590 33.000000
144.657620 33.000000
145.054750 187.000000
145.082690 119.000000
145.093700 137.000000
146.046660 37.000000
146.055010 104.000000
146.064670 137.000000
146.071230 46.000000
147.038730 56.000000
147.072510 364.000000
148.024220 52.000000
148.039110 44.000000
148.047200 46.000000
159.069660 39.000000
160.069980 256.000000
160.078670 110.000000
160.088290 54.000000
161.078750 314.000000
162.088040 91.000000
162.101060 33.000000
163.092650 66.000000
163.854060 33.000000
172.047350 33.000000
172.069170 40.000000
172.082430 54.000000
174.050350 40.000000
174.059510 48.000000
174.094680 85.000000
175.055820 42.000000
175.064070 118.000000
175.099140 33.000000
186.059840 46.000000
188.063160 118.000000
188.075850 304.000000
190.079650 127.000000
190.086690 453.000000
191.084720 118.000000
191.094160 79.000000
191.362880 75.000000
204.100010 40.000000

>ms2peaks
132.081740 20.000000
144.079330 13.000000
145.088940 48.000000
146.092760 7.000000
147.072570 7.000000
160.072920 12.000000
161.084000 15.000000
162.091570 89.000000
163.098020 6.000000
173.082690 16.000000
174.092880 23.000000
176.073000 9.000000
188.072270 20.000000
190.087040 212.000000
191.093170 104.000000
206.118330 1000.000000
206.158890 25.000000

>ms2peaks
190.086380 7.000000
191.088670 7.000000
206.117690 1000.000000
206.157820 34.000000

>ms2peaks
103.056120 11.000000
105.073550 11.000000
115.054230 38.000000
116.060970 14.000000
117.069630 13.000000
119.047810 19.000000
121.066480 29.000000
127.054230 13.000000
130.064730 17.000000
131.071810 10.000000
132.056200 5.000000
132.080840 123.000000
133.085800 26.000000
134.057480 7.000000
134.099270 6.000000
144.081070 132.000000
145.060580 8.000000
145.089110 372.000000
146.061280 16.000000
146.093370 51.000000
146.100130 14.000000
147.040410 6.000000
147.054630 6.000000
147.067280 52.000000
148.075820 8.000000
149.062670 10.000000
150.067980 5.000000
160.063490 6.000000
160.076750 56.000000
161.059040 6.000000
161.077930 32.000000
161.085130 45.000000
161.095980 11.000000
162.091690 426.000000
163.074200 6.000000
163.095930 55.000000
172.075160 12.000000
173.087310 28.000000
174.062270 8.000000
174.092640 93.000000
175.062040 6.000000
175.093770 8.000000
175.104520 9.000000
176.070400 74.000000
177.072560 6.000000
188.072050 140.000000
189.075710 9.000000
190.048520 6.000000
190.086730 1000.000000
191.067090 8.000000
191.091000 235.000000
192.090620 19.000000
192.106740 9.000000
206.118180 95.000000

>ms2peaks
77.005360 42.000000
77.035590 57.000000
78.045580 35.000000
79.054360 40.000000
91.053730 150.000000
91.058850 67.000000
94.064110 28.000000
104.057690 48.000000
105.068650 85.000000
109.021620 28.000000
115.055930 387.000000
116.058110 67.000000
116.068920 48.000000
117.036450 30.000000
117.049660 30.000000
117.060070 238.000000
118.068460 35.000000
119.049950 188.000000
120.046690 35.000000
121.063840 30.000000
121.071160 37.000000
127.054410 30.000000
128.049800 48.000000
130.064910 118.000000
131.051850 37.000000
131.078490 102.000000
132.058690 28.000000
132.081310 1000.000000
132.093170 42.000000
135.071810 37.000000
144.081390 393.000000
145.064330 32.000000
145.071750 28.000000
145.087910 368.000000
146.053090 40.000000
146.063220 142.000000
147.045240 28.000000
147.058240 60.000000
147.067670 392.000000
147.080090 62.000000
148.033330 40.000000
149.067030 33.000000
151.279420 35.000000
160.075230 202.000000
161.087550 37.000000
162.085480 190.000000
162.100370 60.000000
172.038970 57.000000
173.080110 40.000000
174.059330 115.000000
174.080320 33.000000
174.091310 55.000000
175.070040 53.000000
175.091660 48.000000
176.076550 30.000000
177.072710 40.000000
188.071060 402.000000
190.085650 517.000000
191.100010 37.000000
192.085680 32.000000

>ms2peaks
132.082840 12.000000
144.080860 15.000000
145.088330 36.000000
146.092650 8.000000
160.074080 16.000000
161.084410 14.000000
162.091720 101.000000
163.090210 6.000000
163.097080 8.000000
173.084660 5.000000
174.092510 21.000000
176.065770 6.000000
176.071850 15.000000
188.068390 17.000000
190.086440 219.000000
191.092470 81.000000
191.099180 36.000000
192.097410 15.000000
206.117490 1000.000000
206.157780 30.000000

>ms2peaks
190.088040 7.000000
191.093840 7.000000
206.118010 1000.000000
206.158980 35.000000

>ms2peaks
91.054410 6.000000
115.034820 5.000000
116.067550 7.000000
117.060800 16.000000
117.070770 13.000000
118.063900 5.000000
119.048740 18.000000
121.058940 7.000000
121.065630 23.000000
127.058360 6.000000
130.061310 12.000000
130.069530 5.000000
132.079790 107.000000
133.086940 29.000000
133.092830 9.000000
144.082240 112.000000
145.021840 5.000000
145.061050 17.000000
145.089770 271.000000
145.109390 6.000000
146.060000 10.000000
146.083690 6.000000
146.092670 20.000000
146.099460 16.000000
147.062900 32.000000
147.070820 15.000000
148.035840 10.000000
148.076480 11.000000
160.075700 85.000000
161.083300 131.000000
162.091550 461.000000
162.230100 7.000000
163.076160 6.000000
163.095810 57.000000
172.075210 5.000000
173.082750 34.000000
174.052220 10.000000
174.091540 77.000000
175.068300 12.000000
175.093730 17.000000
176.071260 72.000000
188.069470 158.000000
189.073990 38.000000
190.062960 6.000000
190.087550 1000.000000
191.091400 235.000000
192.082150 14.000000
192.093730 22.000000
192.108030 9.000000
206.110670 25.000000
206.120930 53.000000

>ms2peaks
65.033390 50.000000
77.037060 115.000000
77.042270 50.000000
90.039290 36.000000
91.053210 44.000000
92.054730 50.000000
104.061090 66.000000
105.070570 95.000000
114.048250 50.000000
115.053110 149.000000
116.061320 36.000000
117.059060 499.000000
118.074840 36.000000
118.731620 40.000000
119.047090 40.000000
121.067320 123.000000
130.058410 34.000000
130.071610 87.000000
131.071080 105.000000
132.067000 66.000000
132.081600 1000.000000
133.079240 50.000000
133.085510 111.000000
133.090960 109.000000
134.095980 38.000000
143.060520 58.000000
143.069580 89.000000
144.080020 396.000000
144.087980 87.000000
145.059200 91.000000
145.068940 36.000000
145.081940 34.000000
145.092290 137.000000
146.044690 60.000000
146.055040 62.000000
146.062040 34.000000
146.071040 50.000000
146.094150 34.000000
147.064640 115.000000
148.042390 38.000000
149.060780 50.000000
160.069560 91.000000
160.077990 249.000000
161.094090 52.000000
162.079270 36.000000
162.094210 78.000000
163.098690 40.000000
172.034850 52.000000
174.051280 68.000000
174.080700 36.000000
174.098500 40.000000
175.062270 34.000000
177.068940 78.000000
188.070110 509.000000
190.083540 449.000000
190.096710 163.000000
191.083650 68.000000
192.097460 38.000000
206.112720 85.000000

>ms2peaks
71.612980 22.000000
75.025180 25.000000
91.053260 60.000000
93.073620 50.000000
103.051900 66.000000
105.069820 43.000000
107.048160 33.000000
115.054340 95.000000
115.064450 25.000000
116.054310 38.000000
116.062130 46.000000
117.057970 104.000000
117.076940 21.000000
119.047150 87.000000
119.070760 21.000000
121.061040 21.000000
121.067370 24.000000
121.092000 25.000000
127.053330 38.000000
128.039980 20.000000
130.057300 20.000000
130.071640 20.000000
132.060350 17.000000
132.080780 538.000000
133.076480 18.000000
133.085940 86.000000
133.094210 85.000000
133.989070 18.000000
134.073620 17.000000
134.094960 17.000000
134.100170 22.000000
135.084430 18.000000
142.299220 23.000000
143.049530 23.000000
143.074020 20.000000
144.049880 19.000000
144.069560 60.000000
144.081160 377.000000
144.135960 17.000000
145.082080 356.000000
145.088750 1279.000000
146.021300 20.000000
146.055240 27.000000
146.065220 166.000000
146.087710 144.000000
146.100200 25.000000
147.039350 19.000000
147.069690 148.000000
147.080380 23.000000
148.037220 68.000000
148.054660 38.000000
148.065350 35.000000
149.051120 23.000000
150.067310 55.000000
157.065170 40.000000
157.123430 35.000000
157.162720 19.000000
158.007550 25.000000
159.076780 20.000000
160.076510 381.000000
160.087390 83.000000
161.078340 174.000000
161.088610 78.000000
161.879170 19.000000
162.057980 18.000000
162.091200 2300.000000
163.050080 22.000000
163.085310 96.000000
163.093990 84.000000
163.103180 31.000000
163.238170 27.000000
164.060000 20.000000
164.102970 18.000000
165.099080 18.000000
166.090060 20.000000
173.084630 361.000000
174.050810 40.000000
174.059390 87.000000
174.091400 667.000000
175.057820 18.000000
175.066710 36.000000
175.097000 120.000000
175.253450 18.000000
176.054810 18.000000
176.067170 95.000000
176.078310 118.000000
178.114070 24.000000
178.122280 17.000000
184.990160 17.000000
188.063630 115.000000
188.071170 177.000000
189.075760 166.000000
189.680500 23.000000
190.087520 5720.000000
191.033480 33.000000
191.041660 19.000000
191.056750 21.000000
191.070680 34.000000
191.093570 2920.000000
191.918500 24.000000
191.964860 28.000000
192.081220 19.000000
192.094860 259.000000
192.120860 21.000000
192.194930 17.000000
192.952900 18.000000
193.086590 19.000000
193.106450 17.000000
194.106960 22.000000
204.098050 17.000000
205.095930 27.000000
205.795560 20.000000
206.023160 19.000000
206.074140 61.000000
206.085920 47.000000
206.117610 24335.000000
206.140350 30.000000
206.159230 552.000000
206.287480 34.000000

