>compound PR15928589
>parentmass 471.27411539999986
>ionization [M+H]+
>formula C28H38O6
>rt 409.412040
>profile qtof
#smiles_iso CC1=C(C(=O)O[C@H](C1)[C@@H](C)[C@]2(CC[C@@H]3[C@@]2(CC[C@H]4[C@H]3[C@H]5[C@H](O5)[C@@]6([C@@]4(C(=O)C=CC6)C)O)C)O)C
#smiles_can CC1=C(C(=O)OC(C1)C(C)C2(CCC3C2(CCC4C3C5C(O5)C6(C4(C(=O)C=CC6)C)O)C)O)C
#inchikey FAZIYUIDUNHZRG-PCTWTJKKSA-N
#pubchem_id 21679027
#mb_accession PR303745,PR303748,PR303751,PR303754,PR303757,PR303760,PR303763,PR303766,PR303769,PR303772,PR303775,PR303778

>ms2peaks
68.060530 421.000000
153.096540 351.000000
171.075010 351.000000
181.095050 368.000000
220.093550 386.000000
263.138850 316.000000
283.159880 544.000000
417.253510 474.000000
435.254300 421.000000
471.275390 1000.000000

>ms2peaks
71.623420 54.000000
125.093920 64.000000
211.119460 54.000000
225.101010 67.000000
281.141850 89.000000
299.173860 96.000000
353.234620 67.000000
417.275020 67.000000
471.282040 1000.000000

>ms2peaks
69.038930 321.000000
109.095970 339.000000
159.107680 429.000000
171.079930 839.000000
182.104520 661.000000
187.066600 304.000000
193.102780 1000.000000
194.103390 446.000000
212.083770 321.000000
235.097200 339.000000
237.161030 321.000000
245.129840 357.000000
247.113590 607.000000
249.120350 625.000000
264.146790 304.000000
399.232510 321.000000

>ms2peaks
81.517300 351.000000
121.063090 649.000000
129.063920 1000.000000
130.967910 368.000000
141.072200 509.000000
172.092500 368.000000
180.092390 316.000000
181.098880 316.000000
192.088900 439.000000
208.086640 439.000000
246.134190 474.000000
267.586910 316.000000
277.168240 474.000000

>ms2peaks
67.056090 413.000000
141.068530 493.000000
141.096950 467.000000
155.079250 320.000000
171.113770 333.000000
187.141660 240.000000
199.147860 453.000000
222.099980 387.000000
245.146290 280.000000
246.137450 333.000000
265.162630 547.000000
281.155000 307.000000
282.167050 347.000000
299.152070 240.000000
300.164980 240.000000
336.005400 280.000000
471.245940 280.000000
471.280030 1000.000000

>ms2peaks
198.096850 62.000000
239.172580 59.000000
263.142790 62.000000
313.217010 53.000000
346.224640 59.000000
399.232730 183.000000
418.251980 56.000000
435.238400 84.000000
437.279970 62.000000
439.795380 53.000000
471.108250 75.000000
471.283170 1000.000000
471.306700 53.000000

>ms2peaks
109.060120 593.000000
155.087010 322.000000
169.091960 288.000000
185.099950 288.000000
195.126540 373.000000
202.172100 492.000000
207.093770 424.000000
237.123000 390.000000
249.123980 1000.000000
253.170240 339.000000
262.143040 339.000000
290.164610 288.000000
296.214540 305.000000
399.212590 305.000000

>ms2peaks
91.059350 1000.000000
107.087080 565.000000
121.106580 522.000000
183.083830 587.000000
195.111450 413.000000
219.120650 435.000000

>ms2peaks
121.100140 185.000000
169.096150 185.000000
194.100770 196.000000
245.164860 196.000000
250.863590 217.000000
263.151310 185.000000
273.112850 239.000000
275.147980 196.000000
291.172820 207.000000
449.989690 283.000000
471.267150 717.000000
471.283510 1000.000000

>ms2peaks
68.971720 122.000000
89.504990 107.000000
197.099500 193.000000
263.135130 107.000000
264.154140 86.000000
302.189640 132.000000
357.238130 86.000000
371.227330 91.000000
417.252900 86.000000
418.248080 132.000000
471.270780 1000.000000
471.293120 107.000000

>ms2peaks
67.056820 1000.000000
123.080190 424.000000
149.085210 303.000000
161.094590 258.000000
163.145170 409.000000
171.085600 470.000000
172.080350 333.000000
173.118530 273.000000
191.083630 303.000000
213.132460 803.000000
247.139950 500.000000
248.119710 379.000000
249.037690 303.000000
281.155820 258.000000
281.165890 303.000000
286.002380 364.000000
289.156010 318.000000
293.191440 303.000000
299.163450 500.000000
319.130580 545.000000
344.116580 394.000000

>ms2peaks
131.077820 1000.000000
133.100280 293.000000
158.066010 638.000000
218.108690 310.000000
221.087400 293.000000

