>compound PR15917396
>parentmass 271.0972
>ionization [M+H]+
>formula C16H14O4
>rt 355.200000
>profile qtof
#smiles_iso COC1=CC2=C(C=C1)C3COC4=C(C3O2)C=CC(=C4)O
#smiles_can COC1=CC2=C(C=C1)C3COC4=C(C3O2)C=CC(=C4)O
#inchikey NSRJSISNDPOJOP-UHFFFAOYSA-N
#pubchem_id 623060
#mb_accession PR310747

>ms2
57.229660 17.000000
60.378590 17.000000
65.034740 26.000000
67.053490 20.000000
87.259120 17.000000
92.382390 21.000000
93.032630 21.000000
94.033730 20.000000
107.042270 44.000000
107.051010 101.000000
121.006100 21.000000
121.026440 750.000000
121.071440 30.000000
122.033950 89.000000
122.471350 17.000000
123.041360 101.000000
123.051030 18.000000
134.033950 40.000000
135.038740 23.000000
135.136030 17.000000
147.043200 20.000000
147.050660 21.000000
149.066250 20.000000
151.040150 27.000000
162.029770 73.000000
164.030690 21.000000
166.075970 19.000000
169.056300 23.000000
177.052540 128.000000
177.059720 65.000000
178.056520 24.000000
203.064560 23.000000
211.066130 30.000000
225.087940 18.000000
229.054860 23.000000
229.078280 150.000000
229.088440 419.000000
230.087140 80.000000
230.112990 20.000000
253.076780 17.000000
253.089630 21.000000
254.047550 17.000000
270.631470 18.000000
271.097020 1364.000000

