>compound PR15456722
>parentmass 801.22
>ionization [M+H]+
>formula C38H40O19
>rt 251.400000
>profile qtof
#smiles_iso COC1=C(C=CC(=C1)C=CC(=O)OCC2C(C(C(C(O2)OC3C(C(C(OC3C4=C(C5=C(C=C4O)OC(=CC5=O)C6=CC(=C(C=C6)O)OC)O)CO)O)O)O)O)O)O
#smiles_can COC1=C(C=CC(=C1)C=CC(=O)OCC2C(C(C(C(O2)OC3C(C(C(OC3C4=C(C5=C(C=C4O)OC(=CC5=O)C6=CC(=C(C=C6)O)OC)O)CO)O)O)O)O)O)O
#inchikey DJZOTDSGEBENPL-UHFFFAOYSA-N
#pubchem_id 73829970
#mb_accession PR311030

>ms2peaks
177.054520 367.000000
178.050800 17.000000
178.058850 16.000000
301.066500 41.000000
313.063750 56.000000
313.077880 23.000000
321.065580 16.000000
321.084050 19.000000
321.101780 103.000000
322.098540 45.000000
325.060300 19.000000
339.126190 31.000000
343.067630 94.000000
343.084900 155.000000
344.097350 20.000000
364.080960 18.000000
367.079250 33.000000
368.075740 17.000000
368.093380 24.000000
376.910430 16.000000
397.069950 51.000000
397.092130 30.000000
397.109410 30.000000
409.087400 59.000000
410.112760 20.000000
426.103360 18.000000
427.097290 37.000000
428.579070 17.000000
445.087550 16.000000
445.108890 17.000000
446.119900 17.000000
463.100370 44.000000
463.118350 39.000000
463.135560 28.000000
463.276460 19.000000
464.131590 19.000000
681.172240 17.000000
682.203490 16.000000
800.215760 18.000000
801.223270 832.000000

