>compound PR16241404
>parentmass 443.2428153
>ionization [M+H]+
>formula C26H34O6
>rt 450.481980
>profile qtof
#smiles_iso CC(=O)O[C@@H]1[C@@H]([C@]2(CC[C@H]3[C@H]([C@@]24[C@@H]1O4)CC[C@H]5[C@@]3(CC[C@@H](C5)O)C)C)C6=COC(=O)C=C6
#smiles_can CC(=O)OC1C(C2(CCC3C(C24C1O4)CCC5C3(CCC(C5)O)C)C)C6=COC(=O)C=C6
#inchikey SCULJPGYOQQXTK-OLRINKBESA-N
#pubchem_id 11969542
#mb_accession PR303589,PR303590,PR303591,PR303592,PR303593,PR303594,PR303595,PR303596,PR303597,PR303598,PR303599

>ms2
81.070200 6.000000
91.053730 6.000000
95.083110 8.000000
105.069760 13.000000
107.084790 16.000000
109.028440 8.000000
109.100260 7.000000
119.084300 14.000000
121.101650 7.000000
123.044070 14.000000
131.085400 20.000000
133.101610 13.000000
135.043730 5.000000
135.114440 9.000000
135.119200 5.000000
143.088150 5.000000
145.099700 18.000000
147.116730 15.000000
149.060460 5.000000
149.132720 8.000000
151.038190 36.000000
159.079210 8.000000
159.115630 28.000000
161.058750 5.000000
161.130840 14.000000
163.036970 12.000000
171.115280 11.000000
173.131480 10.000000
175.074770 15.000000
175.151370 6.000000
177.053150 8.000000
187.148120 56.000000
188.155030 8.000000
195.116560 11.000000
199.075360 7.000000
201.093230 8.000000
203.071240 6.000000
203.179020 26.000000
205.159420 6.000000
209.133130 6.000000
213.164780 11.000000
214.170700 7.000000
215.179640 34.000000
216.183210 12.000000
219.117580 5.000000
227.103230 6.000000
251.178240 14.000000
252.190830 6.000000
257.116610 9.000000
269.184570 11.000000
319.205200 7.000000
329.193270 8.000000
337.213130 15.000000
347.199280 34.000000
348.203800 10.000000
365.211850 86.000000
366.213990 27.000000
367.213560 5.000000
383.221010 18.000000
401.237060 25.000000
402.234500 6.000000
443.243100 1000.000000
443.305450 23.000000

>ms2
365.212550 14.000000
443.243840 1000.000000
443.305330 24.000000

>ms2
55.056850 20.000000
55.212770 8.000000
58.400650 7.000000
65.037760 7.000000
65.523040 9.000000
66.234300 7.000000
67.042820 10.000000
67.053620 112.000000
67.059300 47.000000
67.249730 8.000000
68.056850 20.000000
69.071390 36.000000
70.075250 6.000000
71.013590 8.000000
71.753680 6.000000
75.741350 10.000000
77.022580 6.000000
77.030110 7.000000
77.037960 109.000000
79.039810 7.000000
79.054380 288.000000
79.858690 6.000000
80.056780 60.000000
81.031300 41.000000
81.037050 7.000000
81.059390 7.000000
81.070650 236.000000
82.071370 32.000000
83.014340 7.000000
83.041450 14.000000
83.051730 22.000000
83.083720 23.000000
83.090800 13.000000
84.085750 8.000000
85.062770 6.000000
90.108250 9.000000
91.040510 22.000000
91.053830 532.000000
91.604320 6.000000
92.057790 74.000000
92.342830 6.000000
93.032200 12.000000
93.039500 6.000000
93.070040 474.000000
93.578240 8.000000
94.062030 9.000000
94.068760 7.000000
94.076020 24.000000
94.287320 7.000000
95.050240 325.000000
95.085260 331.000000
96.051830 7.000000
96.086190 8.000000
96.748960 6.000000
97.031090 9.000000
97.058010 10.000000
97.068810 13.000000
97.098210 20.000000
97.696170 8.000000
97.772990 11.000000
98.034400 7.000000
98.064640 8.000000
98.069910 9.000000
98.749960 9.000000
101.702800 7.000000
102.050660 10.000000
103.045280 7.000000
103.053710 71.000000
104.988370 6.000000
105.031220 35.000000
105.038830 19.000000
105.048230 7.000000
105.056760 50.000000
105.069140 1000.000000
105.246250 6.000000
106.033040 8.000000
106.072300 94.000000
107.045650 62.000000
107.050910 47.000000
107.069940 14.000000
107.086010 462.000000
107.916470 6.000000
108.032880 12.000000
108.088800 45.000000
108.096970 7.000000
109.008210 6.000000
109.028430 385.000000
109.061940 41.000000
109.089980 18.000000
109.099530 48.000000
109.106450 28.000000
109.114360 7.000000
110.032340 52.000000
110.066840 15.000000
111.006040 10.000000
111.041050 13.000000
111.051060 6.000000
112.047880 9.000000
113.015010 8.000000
113.222340 6.000000
114.868810 7.000000
115.027340 6.000000
115.035120 19.000000
115.054620 109.000000
115.214750 10.000000
116.060560 40.000000
117.038940 8.000000
117.069090 384.000000
117.798530 6.000000
118.078670 29.000000
118.084270 10.000000
118.735650 7.000000
119.049160 49.000000
119.086060 516.000000
119.882160 8.000000
120.088580 48.000000
120.095910 30.000000
120.112910 7.000000
120.907970 7.000000
121.000560 11.000000
121.028780 192.000000
121.062120 92.000000
121.070240 51.000000
121.090500 6.000000
121.101470 119.000000
121.559250 6.000000
122.104900 14.000000
122.848170 9.000000
123.006390 20.000000
123.038890 74.000000
123.044460 146.000000
123.077840 14.000000
124.051060 12.000000
125.018460 33.000000
125.032460 17.000000
125.837710 11.000000
127.049130 14.000000
127.055890 37.000000
127.764430 10.000000
128.061940 281.000000
128.150740 6.000000
128.372500 6.000000
128.567920 7.000000
129.069490 529.000000
129.097490 6.000000
129.525730 6.000000
130.070390 40.000000
130.077290 135.000000
130.089940 6.000000
130.196110 7.000000
131.050540 57.000000
131.065230 14.000000
131.085340 825.000000
131.130370 7.000000
132.052960 7.000000
132.087920 113.000000
132.096600 24.000000
133.024600 9.000000
133.029890 8.000000
133.049470 10.000000
133.064870 113.000000
133.101320 385.000000
134.038070 9.000000
134.063980 6.000000
134.072300 18.000000
134.097380 21.000000
134.108030 28.000000
135.048250 14.000000
135.080610 16.000000
135.098770 15.000000
135.111190 21.000000
135.118350 79.000000
136.049530 8.000000
136.089780 8.000000
136.116350 21.000000
136.128340 8.000000
137.057300 24.000000
137.094830 8.000000
138.025820 6.000000
139.018170 13.000000
139.039830 74.000000
139.057570 8.000000
141.070920 198.000000
141.081380 7.000000
142.071820 65.000000
142.077760 218.000000
142.101520 7.000000
142.174090 9.000000
143.050720 8.000000
143.085910 460.000000
143.365590 7.000000
144.051410 8.000000
144.060650 18.000000
144.067200 7.000000
144.089550 94.000000
144.096680 41.000000
144.325090 6.000000
145.032910 7.000000
145.062650 33.000000
145.070080 17.000000
145.086640 30.000000
145.101750 616.000000
145.113330 24.000000
145.573960 7.000000
146.062530 17.000000
146.073170 6.000000
146.101390 45.000000
146.108170 54.000000
147.046770 24.000000
147.080950 127.000000
147.102940 17.000000
147.117360 200.000000
147.212370 6.000000
148.052080 16.000000
148.077650 11.000000
148.084850 6.000000
148.120380 31.000000
149.020890 66.000000
149.060490 89.000000
149.115970 6.000000
149.136510 52.000000
150.109760 6.000000
150.137860 6.000000
151.038620 255.000000
151.059050 8.000000
151.071350 6.000000
152.050260 27.000000
152.061740 28.000000
152.639940 6.000000
153.036870 8.000000
153.054670 9.000000
153.069920 172.000000
153.843280 8.000000
154.063480 8.000000
154.073210 46.000000
154.080440 83.000000
155.048420 12.000000
155.083820 160.000000
155.092270 58.000000
155.410520 6.000000
156.089110 101.000000
156.107600 10.000000
157.064960 264.000000
157.100830 306.000000
157.121640 6.000000
157.663480 6.000000
158.068760 72.000000
158.103790 89.000000
159.035230 6.000000
159.078320 49.000000
159.087890 13.000000
159.115980 362.000000
160.054150 8.000000
160.064640 6.000000
160.082950 8.000000
160.121580 58.000000
160.133380 9.000000
160.891890 9.000000
160.898740 6.000000
161.051910 20.000000
161.060650 97.000000
161.091490 12.000000
161.099370 9.000000
161.129330 78.000000
161.139650 23.000000
162.113720 8.000000
163.038350 23.000000
163.076000 15.000000
164.716660 8.000000
165.050980 20.000000
165.069050 211.000000
166.077360 211.000000
167.027770 14.000000
167.039380 11.000000
167.084870 236.000000
168.082810 30.000000
168.094040 83.000000
169.038500 8.000000
169.060230 35.000000
169.068240 24.000000
169.099520 227.000000
170.058910 6.000000
170.072560 23.000000
170.089460 13.000000
170.103060 56.000000
170.112340 12.000000
171.071060 13.000000
171.080440 62.000000
171.095410 20.000000
171.117770 82.000000
171.130770 9.000000
172.044850 7.000000
172.081560 31.000000
172.116120 23.000000
172.127880 59.000000
173.054730 10.000000
173.064480 12.000000
173.096360 38.000000
173.132660 106.000000
174.136110 29.000000
174.146960 15.000000
175.041810 17.000000
175.064820 21.000000
175.075420 107.000000
175.114140 19.000000
175.143710 20.000000
175.149780 10.000000
176.062730 8.000000
176.077550 20.000000
176.085460 8.000000
176.641780 7.000000
177.067760 8.000000
177.086730 15.000000
177.094770 7.000000
178.060390 6.000000
178.076170 121.000000
178.507660 6.000000
179.083560 161.000000
179.097200 20.000000
180.093060 105.000000
181.058690 25.000000
181.069500 41.000000
181.098540 178.000000
181.110570 17.000000
181.435820 10.000000
182.058070 6.000000
182.071880 43.000000
182.098250 25.000000
182.106250 23.000000
183.036930 7.000000
183.064350 14.000000
183.077160 48.000000
183.094620 8.000000
183.118740 116.000000
183.310810 6.000000
184.084870 25.000000
184.095600 7.000000
184.102130 6.000000
184.119550 62.000000
184.752140 13.000000
185.063260 29.000000
185.095370 37.000000
185.134190 47.000000
185.140670 23.000000
186.097500 10.000000
186.106170 7.000000
186.135990 13.000000
186.144270 6.000000
187.064160 12.000000
187.073520 53.000000
187.110400 18.000000
187.133730 18.000000
187.148100 246.000000
187.791810 13.000000
188.080540 10.000000
188.115750 7.000000
188.151140 51.000000
188.160540 11.000000
189.061080 10.000000
189.074170 8.000000
189.100800 9.000000
189.155430 8.000000
190.136950 6.000000
191.074840 33.000000
191.089540 45.000000
191.187150 6.000000
192.078720 11.000000
192.087780 45.000000
192.099300 12.000000
193.060030 6.000000
193.070500 9.000000
193.102600 167.000000
194.072510 13.000000
194.087400 8.000000
194.111600 57.000000
195.059480 6.000000
195.073780 27.000000
195.086780 23.000000
195.097490 8.000000
195.110820 36.000000
195.117710 133.000000
196.061900 7.000000
196.080440 8.000000
196.096270 7.000000
196.110120 10.000000
196.120380 13.000000
196.127590 11.000000
197.014970 6.000000
197.059170 9.000000
197.094450 35.000000
197.105150 11.000000
197.133330 42.000000
198.060420 20.000000
198.078230 7.000000
198.098480 7.000000
198.125820 16.000000
199.079510 14.000000
199.109880 7.000000
199.117280 6.000000
199.148190 73.000000
199.187290 8.000000
200.117970 7.000000
200.156890 15.000000
200.162890 6.000000
201.062840 22.000000
201.085040 7.000000
201.098920 13.000000
201.157730 13.000000
202.079960 29.000000
203.064000 17.000000
203.078610 52.000000
203.087980 30.000000
204.004490 8.000000
204.092040 25.000000
204.103650 20.000000
204.775310 8.000000
205.085560 9.000000
205.102040 64.000000
206.059970 7.000000
206.072770 10.000000
206.108750 48.000000
207.015500 7.000000
207.081590 34.000000
207.112170 25.000000
208.090520 16.000000
208.099720 7.000000
208.121900 19.000000
209.059420 7.000000
209.096020 42.000000
209.107360 6.000000
209.129760 30.000000
209.141570 8.000000
210.062260 6.000000
210.085970 6.000000
210.097430 7.000000
210.106600 7.000000
210.139080 24.000000
211.047870 6.000000
211.076780 6.000000
211.103840 15.000000
211.111450 21.000000
211.119980 12.000000
211.151900 16.000000
212.119250 7.000000
212.149250 8.000000
212.154910 17.000000
212.171550 10.000000
213.086610 8.000000
213.131710 10.000000
214.173660 20.000000
215.065640 7.000000
215.151200 17.000000
215.176450 34.000000
215.471910 10.000000
216.100280 18.000000
216.295840 10.000000
217.099790 13.000000
217.110760 7.000000
217.162580 6.000000
218.110720 28.000000
219.084780 14.000000
219.110460 12.000000
219.120250 21.000000
220.087480 10.000000
220.118210 10.000000
220.128450 8.000000
220.137660 7.000000
221.092820 33.000000
221.106480 6.000000
221.136720 21.000000
221.718930 8.000000
222.093860 41.000000
222.134640 14.000000
223.078740 19.000000
223.090700 8.000000
223.103490 7.000000
223.114690 16.000000
223.121480 6.000000
223.142870 21.000000
223.152630 17.000000
224.163090 7.000000
225.081210 11.000000
225.102690 6.000000
225.121090 6.000000
225.167800 12.000000
227.098190 7.000000
227.182850 6.000000
229.097790 32.000000
229.116060 9.000000
230.099140 15.000000
230.117100 10.000000
231.086530 6.000000
231.106610 12.000000
231.117570 16.000000
232.114240 7.000000
232.132630 14.000000
233.069290 6.000000
233.134950 36.000000
234.136170 12.000000
234.933060 7.000000
235.107190 9.000000
235.131840 8.000000
235.142960 8.000000
235.161800 8.000000
236.065190 7.000000
236.077500 6.000000
236.106170 6.000000
237.120380 9.000000
237.164250 18.000000
237.174710 7.000000
238.094300 8.000000
239.136540 9.000000
241.111080 7.000000
241.153270 6.000000
242.117610 23.000000
243.078050 6.000000
243.114350 8.000000
243.125630 15.000000
244.125000 7.000000
245.118070 8.000000
245.131130 10.000000
246.127150 9.000000
247.145690 6.000000
248.155380 7.000000
249.420520 7.000000
250.169480 6.000000
250.182210 10.000000
251.108700 7.000000
251.144390 6.000000
253.092240 8.000000
253.195280 13.000000
254.201710 8.000000
255.087780 16.000000
255.101230 9.000000
255.136050 6.000000
259.116150 12.000000
261.087920 9.000000
261.170410 24.000000
262.130430 30.000000
262.171750 6.000000
263.106990 6.000000
263.182400 7.000000
264.066960 8.000000
264.275760 6.000000
268.126220 6.000000
269.169040 7.000000
269.186160 10.000000
269.194980 6.000000
270.140440 15.000000
271.147980 8.000000
272.146450 17.000000
273.158660 6.000000
275.130920 10.000000
275.143130 6.000000
276.161650 7.000000
277.125180 7.000000
277.163850 6.000000
279.492340 7.000000
286.324220 11.000000
288.151730 6.000000
289.121370 7.000000
289.152800 8.000000
289.161620 8.000000
291.174560 7.000000
292.212370 6.000000
292.223020 7.000000
292.403230 7.000000
295.162570 9.000000
299.133330 6.000000
304.145510 6.000000
305.182010 7.000000
312.190370 7.000000
314.153660 7.000000
315.068240 7.000000
318.153500 17.000000
318.188660 7.000000
330.602020 9.000000
331.789640 6.000000
337.166410 6.000000
338.542940 7.000000
385.121860 6.000000
387.461400 7.000000
388.759400 8.000000
408.806520 6.000000
443.210270 8.000000
443.243440 75.000000

>ms2
105.070080 12.000000
107.086700 13.000000
109.031540 9.000000
109.100120 6.000000
119.082590 6.000000
121.102070 11.000000
123.041040 6.000000
123.046690 7.000000
129.068830 6.000000
131.086910 9.000000
133.097490 5.000000
133.103090 13.000000
135.117490 18.000000
143.086620 14.000000
145.100860 19.000000
147.116780 9.000000
149.128390 5.000000
149.135910 8.000000
151.040660 49.000000
157.065050 6.000000
157.099060 10.000000
159.118770 17.000000
161.132200 12.000000
163.038450 15.000000
171.082700 6.000000
171.114350 7.000000
173.134570 10.000000
175.147890 5.000000
181.099580 6.000000
185.137180 5.000000
187.148800 61.000000
188.147250 8.000000
188.155520 8.000000
195.081160 5.000000
195.119740 6.000000
197.133160 7.000000
199.154220 5.000000
203.179530 27.000000
209.096130 6.000000
213.090850 5.000000
213.165880 8.000000
215.178160 23.000000
215.186130 17.000000
223.111250 6.000000
227.104810 7.000000
239.103150 9.000000
251.188800 5.000000
253.193300 10.000000
257.124850 6.000000
265.125980 5.000000
269.186520 6.000000
319.212770 8.000000
337.221830 11.000000
347.192020 10.000000
347.206790 18.000000
348.212430 6.000000
365.213130 81.000000
366.212770 22.000000
383.220670 14.000000
401.234340 23.000000
402.237490 10.000000
443.243040 1000.000000
443.302550 17.000000

>ms2
365.212490 13.000000
443.244050 1000.000000
443.305240 25.000000

>ms2
57.030890 6.000000
67.053560 40.000000
69.067670 8.000000
69.074850 12.000000
79.050730 15.000000
79.056050 25.000000
81.033230 5.000000
81.069630 184.000000
82.071800 8.000000
83.044870 6.000000
83.079620 8.000000
83.085270 11.000000
91.051010 11.000000
91.056350 39.000000
91.678730 14.000000
93.070410 206.000000
94.074630 14.000000
95.048900 108.000000
95.079210 38.000000
95.086470 182.000000
96.057080 11.000000
96.088720 9.000000
97.065350 13.000000
97.099620 8.000000
102.287730 7.000000
103.050830 7.000000
103.269170 5.000000
104.423970 7.000000
105.059830 15.000000
105.070840 265.000000
106.076190 14.000000
107.044610 16.000000
107.050200 39.000000
107.067770 15.000000
107.086190 302.000000
107.376300 7.000000
108.055080 8.000000
108.085400 12.000000
108.091350 40.000000
109.028820 211.000000
109.063830 18.000000
109.100270 80.000000
110.032500 20.000000
110.102230 15.000000
111.079320 12.000000
111.118180 13.000000
112.048900 5.000000
117.069240 86.000000
119.085650 196.000000
119.097310 6.000000
119.348040 9.000000
120.084300 13.000000
120.090070 27.000000
121.025760 29.000000
121.062750 25.000000
121.069520 31.000000
121.101300 283.000000
121.299830 6.000000
122.031800 7.000000
122.097190 8.000000
122.107050 15.000000
123.008960 5.000000
123.044070 250.000000
123.071620 6.000000
123.080200 26.000000
123.116450 32.000000
124.046330 11.000000
125.023930 22.000000
125.044260 5.000000
125.056750 6.000000
125.065640 5.000000
126.029680 10.000000
127.614140 5.000000
129.070240 43.000000
129.079710 7.000000
129.749110 6.000000
130.076980 8.000000
130.083270 5.000000
131.047120 30.000000
131.086010 259.000000
132.086790 16.000000
132.094670 9.000000
132.104860 6.000000
133.043140 6.000000
133.065160 24.000000
133.101790 367.000000
133.123020 5.000000
133.692870 5.000000
133.700820 6.000000
134.103810 27.000000
134.110780 8.000000
134.439350 5.000000
134.974270 5.000000
135.046590 59.000000
135.082370 19.000000
135.117080 459.000000
136.046310 11.000000
136.119490 42.000000
136.377790 8.000000
137.054930 16.000000
137.062480 40.000000
137.092970 31.000000
137.129040 5.000000
137.349840 10.000000
138.097530 8.000000
139.035220 16.000000
139.043790 10.000000
141.067120 27.000000
141.075620 19.000000
142.069730 8.000000
143.086200 195.000000
144.056670 5.000000
144.082860 11.000000
144.091770 20.000000
145.063660 33.000000
145.072400 18.000000
145.087910 11.000000
145.101070 297.000000
146.106160 44.000000
147.046050 20.000000
147.067860 9.000000
147.081220 62.000000
147.094600 8.000000
147.116790 331.000000
147.896120 5.000000
148.074750 8.000000
148.084500 21.000000
148.120030 46.000000
148.128110 8.000000
149.005650 5.000000
149.024140 80.000000
149.059830 93.000000
149.096590 29.000000
149.117310 14.000000
149.132970 131.000000
150.067550 11.000000
150.138260 22.000000
151.039250 741.000000
151.071230 15.000000
151.110280 25.000000
152.029890 10.000000
152.041760 100.000000
152.088650 10.000000
153.019210 18.000000
153.053450 38.000000
153.859790 6.000000
154.076980 17.000000
155.032650 6.000000
155.085130 84.000000
156.086760 8.000000
156.896880 7.000000
157.063600 125.000000
157.102570 186.000000
158.072330 6.000000
158.099950 7.000000
158.109310 29.000000
159.046430 12.000000
159.067790 8.000000
159.079990 93.000000
159.093720 7.000000
159.117170 485.000000
160.086300 16.000000
160.121350 64.000000
161.057010 44.000000
161.066600 33.000000
161.089400 19.000000
161.100480 31.000000
161.133010 294.000000
162.060010 12.000000
162.097950 15.000000
162.138370 35.000000
163.031220 16.000000
163.041090 92.000000
163.061970 6.000000
163.075970 40.000000
163.111940 5.000000
163.407490 6.000000
164.122790 7.000000
165.048930 47.000000
165.068150 46.000000
165.574230 8.000000
166.078550 11.000000
167.025530 17.000000
167.033230 65.000000
167.068150 16.000000
167.083630 45.000000
167.097550 5.000000
167.110610 5.000000
168.039140 11.000000
168.096440 5.000000
169.042180 9.000000
169.053670 17.000000
169.065980 7.000000
169.087130 16.000000
169.101990 115.000000
170.011920 5.000000
170.067020 9.000000
170.103500 10.000000
170.110630 9.000000
171.079220 86.000000
171.085830 45.000000
171.115920 97.000000
171.123640 43.000000
172.116680 30.000000
172.126080 22.000000
173.057820 48.000000
173.079620 9.000000
173.088090 12.000000
173.098570 46.000000
173.132310 214.000000
174.063450 19.000000
174.097810 7.000000
174.109180 10.000000
174.138060 16.000000
175.027160 6.000000
175.045560 24.000000
175.075130 199.000000
175.111430 15.000000
175.122040 10.000000
175.150270 60.000000
175.159550 14.000000
176.079210 35.000000
176.152540 14.000000
176.166990 10.000000
177.036410 8.000000
177.053880 85.000000
177.090970 35.000000
177.128050 17.000000
177.163160 10.000000
178.049650 7.000000
178.056340 10.000000
178.078490 19.000000
178.165310 5.000000
179.060990 8.000000
179.070720 16.000000
179.088880 22.000000
179.763790 8.000000
180.082980 10.000000
181.045200 11.000000
181.069410 9.000000
181.102780 105.000000
182.104160 26.000000
183.081560 72.000000
183.106230 18.000000
183.117630 107.000000
184.083330 6.000000
184.090040 10.000000
184.117970 16.000000
184.128010 15.000000
185.056340 40.000000
185.099330 69.000000
185.124760 40.000000
185.134160 64.000000
185.150850 5.000000
186.091460 5.000000
186.138020 18.000000
187.075820 42.000000
187.109620 48.000000
187.149030 1000.000000
188.074330 9.000000
188.121170 16.000000
188.136540 9.000000
188.151320 140.000000
189.060790 11.000000
189.091640 34.000000
189.134280 8.000000
189.168200 39.000000
190.090260 6.000000
190.096190 10.000000
190.159590 15.000000
190.175430 5.000000
191.062060 16.000000
191.071820 36.000000
191.084150 13.000000
191.107540 5.000000
193.049260 6.000000
193.101590 72.000000
194.106250 20.000000
195.082230 41.000000
195.117580 121.000000
196.084370 18.000000
196.119550 9.000000
196.130840 14.000000
197.096820 74.000000
197.130710 92.000000
198.097960 21.000000
198.105620 15.000000
198.144240 21.000000
199.062300 8.000000
199.077290 45.000000
199.109020 16.000000
199.116970 15.000000
199.128650 10.000000
199.143740 34.000000
199.153320 54.000000
200.078450 12.000000
200.122740 12.000000
200.149930 10.000000
200.157670 29.000000
201.092560 49.000000
201.118240 5.000000
201.125370 9.000000
201.157040 9.000000
201.171600 22.000000
202.100190 10.000000
202.131470 10.000000
202.179000 8.000000
203.055280 8.000000
203.070690 86.000000
203.135850 5.000000
203.179230 226.000000
204.149060 5.000000
204.173920 11.000000
204.188670 9.000000
205.063350 10.000000
205.084530 69.000000
205.107190 5.000000
205.131960 5.000000
205.160170 49.000000
205.186870 10.000000
206.081820 5.000000
206.097810 8.000000
206.161220 7.000000
206.359700 5.000000
207.079530 11.000000
207.104350 12.000000
207.115540 43.000000
209.095000 51.000000
209.128490 47.000000
209.138600 25.000000
210.097380 21.000000
210.108340 6.000000
210.130580 19.000000
210.143620 12.000000
210.862300 15.000000
211.064450 6.000000
211.077090 12.000000
211.108800 80.000000
211.119340 26.000000
211.145870 86.000000
212.116290 15.000000
212.153460 41.000000
213.091030 46.000000
213.106600 16.000000
213.130170 22.000000
213.146760 6.000000
213.162430 142.000000
214.090900 12.000000
214.100950 6.000000
214.172470 74.000000
215.071300 19.000000
215.099150 18.000000
215.108660 18.000000
215.141100 40.000000
215.156710 17.000000
215.180590 551.000000
216.090900 8.000000
216.139890 9.000000
216.180450 100.000000
216.190720 24.000000
217.081120 12.000000
217.089320 60.000000
217.199710 23.000000
218.078230 8.000000
218.093510 18.000000
219.105820 9.000000
219.120120 27.000000
220.119830 16.000000
221.083210 15.000000
221.098820 27.000000
221.112050 8.000000
221.128830 19.000000
221.140820 9.000000
222.098880 7.000000
222.137920 20.000000
223.080380 29.000000
223.101870 13.000000
223.107860 33.000000
223.117420 18.000000
223.137130 21.000000
223.156300 31.000000
224.081500 8.000000
224.120760 8.000000
224.761930 7.000000
225.076160 5.000000
225.090470 36.000000
225.128300 34.000000
225.143300 15.000000
225.157850 21.000000
225.170820 14.000000
226.097900 14.000000
226.124730 10.000000
226.175570 15.000000
227.074430 11.000000
227.106930 110.000000
227.134380 8.000000
227.150130 29.000000
227.179020 77.000000
228.079380 5.000000
228.100220 10.000000
228.117720 30.000000
228.139050 10.000000
228.185850 13.000000
229.077800 8.000000
229.091380 37.000000
229.115660 44.000000
229.124240 34.000000
229.154530 10.000000
229.167050 13.000000
229.186650 10.000000
230.115630 5.000000
230.141100 6.000000
231.119450 8.000000
231.140810 5.000000
231.179760 10.000000
231.739470 5.000000
233.087540 7.000000
233.103710 9.000000
233.135250 30.000000
233.191440 31.000000
234.100490 8.000000
234.117690 6.000000
235.108280 23.000000
235.146560 39.000000
235.158290 12.000000
236.173220 15.000000
237.094070 87.000000
237.133500 18.000000
237.154160 15.000000
237.166790 40.000000
237.181410 7.000000
238.099720 14.000000
238.134080 14.000000
238.178040 23.000000
239.103090 83.000000
239.114900 48.000000
239.135670 21.000000
239.172120 9.000000
239.185410 6.000000
240.105740 22.000000
240.184710 6.000000
240.622730 6.000000
241.107130 11.000000
241.123790 78.000000
241.152820 6.000000
241.195250 12.000000
242.113680 9.000000
242.125370 14.000000
243.101300 12.000000
243.142230 26.000000
243.175090 14.000000
244.101090 6.000000
245.093900 9.000000
245.134030 50.000000
245.161530 5.000000
246.128130 9.000000
246.139540 11.000000
247.106120 38.000000
247.126240 12.000000
247.162090 9.000000
248.149310 15.000000
249.101070 5.000000
249.123120 24.000000
249.149460 11.000000
250.133740 9.000000
250.163280 5.000000
251.093950 14.000000
251.103670 45.000000
251.138260 7.000000
251.153850 19.000000
251.178420 163.000000
252.105070 9.000000
252.116580 7.000000
252.145160 10.000000
252.158000 5.000000
252.186920 90.000000
253.118210 56.000000
253.160630 16.000000
253.195590 85.000000
254.178100 5.000000
254.198470 29.000000
255.076170 7.000000
255.089290 8.000000
255.103210 76.000000
255.127460 11.000000
255.140110 8.000000
255.166730 8.000000
255.183460 16.000000
255.217540 7.000000
255.701610 13.000000
256.144410 11.000000
256.181120 14.000000
257.120670 95.000000
258.114320 9.000000
258.125700 22.000000
258.142460 15.000000
258.152770 10.000000
259.108370 6.000000
259.117580 6.000000
259.133880 16.000000
259.148320 29.000000
260.133910 14.000000
260.152160 7.000000
260.160460 6.000000
261.136780 10.000000
261.172000 22.000000
262.136260 5.000000
262.173860 5.000000
263.116210 9.000000
263.143740 42.000000
263.179660 10.000000
264.149170 11.000000
265.127080 59.000000
265.435760 5.000000
266.157320 11.000000
267.127990 12.000000
267.139680 16.000000
267.170100 8.000000
267.182370 7.000000
268.135190 6.000000
268.151000 8.000000
268.180180 5.000000
269.115020 8.000000
269.123320 22.000000
269.190490 31.000000
269.658540 5.000000
270.129270 5.000000
270.184600 5.000000
270.197720 18.000000
271.132900 25.000000
271.146270 16.000000
271.210020 10.000000
272.115480 5.000000
272.130370 11.000000
272.147580 6.000000
273.136020 14.000000
273.167790 8.000000
274.133970 13.000000
274.156250 9.000000
275.143460 6.000000
275.154940 6.000000
275.175810 15.000000
277.121000 16.000000
277.136780 9.000000
277.149900 9.000000
277.165070 17.000000
277.187960 27.000000
277.200290 16.000000
278.161010 9.000000
279.138790 15.000000
280.136750 8.000000
281.139130 12.000000
281.154330 17.000000
282.155730 7.000000
282.166200 7.000000
283.134460 20.000000
283.148040 5.000000
283.165860 12.000000
283.177190 10.000000
284.147800 12.000000
287.118320 5.000000
287.186550 41.000000
288.195560 10.000000
289.159970 10.000000
291.138760 29.000000
291.178530 23.000000
291.191620 8.000000
291.206850 14.000000
291.219120 17.000000
292.144130 5.000000
292.179810 9.000000
292.215450 37.000000
293.157680 8.000000
293.194370 5.000000
294.160160 5.000000
295.155240 9.000000
295.175750 13.000000
295.214720 10.000000
296.171050 8.000000
297.145630 16.000000
297.163970 6.000000
297.208650 10.000000
299.153990 10.000000
299.242400 5.000000
300.161930 5.000000
301.144680 6.000000
301.187680 9.000000
301.200440 17.000000
302.159120 9.000000
302.186800 9.000000
304.133330 7.000000
304.178100 8.000000
304.204860 6.000000
305.152250 10.000000
305.168150 14.000000
305.189640 29.000000
306.059540 8.000000
306.158420 5.000000
306.166380 10.000000
306.186000 11.000000
306.199160 12.000000
307.165410 12.000000
309.140780 5.000000
309.156650 8.000000
309.191650 7.000000
309.224330 19.000000
311.178190 18.000000
311.907680 5.000000
312.182920 5.000000
317.156160 5.000000
319.172940 48.000000
319.196990 22.000000
319.213260 70.000000
320.209690 30.000000
320.228790 7.000000
321.193180 23.000000
322.192080 8.000000
322.208950 13.000000
323.158600 14.000000
323.174130 13.000000
323.201630 44.000000
324.149170 5.000000
324.205630 23.000000
325.205540 11.000000
329.182890 10.000000
329.200590 9.000000
331.193910 6.000000
332.174440 16.000000
337.187260 23.000000
337.214940 52.000000
337.225650 31.000000
338.226200 19.000000
339.191070 17.000000
340.217160 9.000000
347.197510 153.000000
347.209870 80.000000
348.205260 48.000000
355.219540 9.000000
355.236180 9.000000
365.197170 45.000000
365.212980 147.000000
366.202270 11.000000
366.220640 32.000000
367.219670 8.000000
383.220610 48.000000
384.215360 11.000000
384.227020 28.000000
401.196200 7.000000
401.235320 209.000000
402.212400 9.000000
402.246730 86.000000
403.240970 8.000000
425.447200 6.000000
442.218690 5.000000
443.228850 11.000000
443.249450 29.000000

>ms2
53.035340 8.000000
53.038100 19.000000
55.052900 16.000000
55.057510 8.000000
57.034470 5.000000
65.037620 7.000000
65.041020 8.000000
67.054210 155.000000
67.844630 6.000000
68.996480 23.000000
68.999710 14.000000
69.034710 7.000000
69.071490 18.000000
69.945670 6.000000
77.037380 112.000000
77.042190 32.000000
78.042220 13.000000
79.051220 72.000000
79.055730 219.000000
80.059600 47.000000
80.064820 9.000000
80.755720 7.000000
81.030040 20.000000
81.069450 214.000000
82.068420 8.000000
82.074090 5.000000
83.018450 9.000000
83.046710 13.000000
83.085700 15.000000
84.087340 15.000000
88.036690 7.000000
88.677210 8.000000
90.995640 10.000000
91.054900 654.000000
92.060100 40.000000
93.028840 6.000000
93.033620 22.000000
93.070500 348.000000
94.074820 41.000000
95.014270 27.000000
95.033610 7.000000
95.040760 14.000000
95.049670 318.000000
95.085950 294.000000
96.053110 27.000000
96.088260 27.000000
96.528080 8.000000
96.561790 6.000000
97.023350 10.000000
97.029910 12.000000
97.066650 27.000000
99.042300 6.000000
103.052190 18.000000
103.056730 34.000000
103.063680 14.000000
103.320260 5.000000
105.028560 7.000000
105.036430 25.000000
105.058010 7.000000
105.070530 1000.000000
105.496770 5.000000
106.072210 82.000000
106.081940 12.000000
106.355990 5.000000
106.577710 6.000000
107.042950 14.000000
107.049800 69.000000
107.085660 393.000000
107.651390 9.000000
108.052110 6.000000
108.088810 49.000000
108.648930 6.000000
109.016430 16.000000
109.028860 456.000000
109.063900 71.000000
109.098060 42.000000
109.104970 40.000000
110.026850 6.000000
110.033370 7.000000
110.063960 5.000000
110.108550 6.000000
111.012700 5.000000
111.045010 28.000000
111.083910 6.000000
111.194620 6.000000
111.289030 6.000000
114.492990 7.000000
115.054430 151.000000
116.061720 40.000000
117.069660 347.000000
118.044190 11.000000
118.063580 6.000000
118.074200 75.000000
118.517620 10.000000
119.046900 24.000000
119.086490 537.000000
120.058800 8.000000
120.087550 65.000000
120.928950 6.000000
121.024930 57.000000
121.032420 42.000000
121.064190 181.000000
121.101780 65.000000
122.068110 8.000000
122.074910 10.000000
122.104370 18.000000
122.298160 8.000000
123.012550 9.000000
123.046230 211.000000
123.060080 9.000000
123.080310 15.000000
123.115860 9.000000
123.122310 13.000000
123.498320 7.000000
123.796860 8.000000
124.045310 14.000000
124.115640 8.000000
125.011160 7.000000
125.019010 9.000000
125.047550 7.000000
125.058300 8.000000
125.072470 10.000000
125.095640 10.000000
126.028790 6.000000
126.781540 10.000000
127.039470 7.000000
127.049880 42.000000
127.056410 18.000000
127.447980 5.000000
128.046160 6.000000
128.063170 197.000000
129.041050 6.000000
129.068940 439.000000
129.172610 5.000000
129.214920 11.000000
130.071670 23.000000
130.079900 116.000000
130.122380 7.000000
131.044300 7.000000
131.051930 39.000000
131.068710 5.000000
131.085970 624.000000
132.050200 13.000000
132.062350 46.000000
132.074830 6.000000
132.087600 42.000000
132.100720 5.000000
132.147550 10.000000
133.028430 25.000000
133.066850 72.000000
133.083270 5.000000
133.101120 267.000000
133.539080 9.000000
134.024250 8.000000
134.043410 6.000000
134.068100 18.000000
134.098360 7.000000
134.109050 9.000000
135.036650 8.000000
135.045680 25.000000
135.061940 8.000000
135.075940 15.000000
135.083310 22.000000
135.108930 16.000000
135.117070 60.000000
135.127610 5.000000
136.047780 6.000000
136.120760 17.000000
137.059460 7.000000
139.041180 44.000000
139.056750 6.000000
140.312990 7.000000
140.423950 9.000000
141.034670 10.000000
141.071370 245.000000
142.077060 204.000000
142.644170 9.000000
143.049610 7.000000
143.085950 399.000000
144.056000 58.000000
144.063000 28.000000
144.091920 161.000000
145.063080 49.000000
145.072070 23.000000
145.101230 505.000000
145.212200 5.000000
146.073260 20.000000
146.105960 46.000000
147.040990 15.000000
147.079640 123.000000
147.115450 191.000000
147.124590 33.000000
147.233510 5.000000
148.048800 17.000000
148.076630 6.000000
148.121430 13.000000
149.024150 95.000000
149.057250 42.000000
149.097320 5.000000
149.104890 14.000000
149.130980 6.000000
150.058500 6.000000
151.017580 6.000000
151.031630 29.000000
151.040100 159.000000
151.072040 14.000000
151.112400 7.000000
151.603120 11.000000
152.041890 20.000000
152.054500 7.000000
152.063080 28.000000
152.111190 8.000000
153.051070 6.000000
153.065480 58.000000
153.070890 143.000000
154.058260 12.000000
154.076100 48.000000
154.086720 17.000000
155.072650 12.000000
155.085910 261.000000
155.998500 6.000000
156.052830 13.000000
156.079930 10.000000
156.090520 26.000000
156.097810 42.000000
157.006650 12.000000
157.064710 201.000000
157.087420 13.000000
157.101590 258.000000
158.064960 15.000000
158.073180 6.000000
158.105900 40.000000
158.122020 9.000000
159.081990 75.000000
159.090010 20.000000
159.117610 380.000000
160.050250 21.000000
160.080800 6.000000
160.089250 7.000000
160.117680 29.000000
160.123030 12.000000
161.044100 8.000000
161.055910 7.000000
161.065350 16.000000
161.073200 6.000000
161.096740 9.000000
161.131040 64.000000
161.144520 17.000000
161.502700 5.000000
162.140010 28.000000
163.089250 6.000000
163.109560 17.000000
164.046490 6.000000
165.035050 8.000000
165.058350 35.000000
165.071620 202.000000
166.057710 11.000000
166.070880 44.000000
166.078350 135.000000
166.300170 7.000000
167.028850 13.000000
167.084880 194.000000
168.080490 23.000000
168.097960 52.000000
168.159770 15.000000
168.451710 5.000000
169.054410 15.000000
169.065110 31.000000
169.100510 91.000000
169.113660 11.000000
170.073320 32.000000
170.092940 6.000000
170.105440 52.000000
170.144940 9.000000
171.050460 9.000000
171.062010 11.000000
171.074970 30.000000
171.085360 64.000000
171.106550 14.000000
171.119400 83.000000
172.088870 13.000000
172.107970 10.000000
172.126110 18.000000
173.057530 50.000000
173.066530 13.000000
173.092270 8.000000
173.102740 22.000000
173.120670 5.000000
173.132110 60.000000
174.059130 5.000000
174.136550 7.000000
174.142810 5.000000
175.040990 11.000000
175.074130 75.000000
175.151260 11.000000
176.068730 18.000000
177.055340 18.000000
177.068590 7.000000
177.087830 8.000000
178.060360 9.000000
178.080150 47.000000
178.099120 6.000000
179.064070 12.000000
179.076900 57.000000
179.085910 97.000000
180.082050 7.000000
180.091540 36.000000
180.103070 6.000000
181.066090 53.000000
181.101260 143.000000
182.065120 8.000000
182.074950 18.000000
182.101170 23.000000
182.108810 48.000000
182.719450 5.000000
183.048740 6.000000
183.076580 8.000000
183.086880 23.000000
183.095600 16.000000
183.113220 89.000000
183.119930 34.000000
184.083680 14.000000
184.091710 14.000000
184.122070 27.000000
184.178040 10.000000
185.054120 21.000000
185.103270 24.000000
185.123250 13.000000
185.134280 71.000000
186.098370 6.000000
186.131530 31.000000
186.146940 10.000000
186.229450 5.000000
186.838680 5.000000
187.077730 28.000000
187.145360 214.000000
187.166690 10.000000
188.110750 8.000000
188.133270 10.000000
188.140750 11.000000
188.158310 16.000000
189.060850 6.000000
190.073070 7.000000
190.083310 29.000000
191.084170 46.000000
191.092990 20.000000
192.091380 80.000000
193.086260 13.000000
193.096690 46.000000
193.106000 38.000000
194.071500 7.000000
194.082700 7.000000
194.090730 5.000000
194.106720 30.000000
194.115480 16.000000
195.083480 53.000000
195.115590 88.000000
196.086360 26.000000
196.123490 40.000000
196.137210 6.000000
197.055540 6.000000
197.092800 17.000000
197.102420 17.000000
197.111020 21.000000
197.124370 12.000000
197.135270 14.000000
197.711010 8.000000
198.091520 6.000000
198.107890 11.000000
198.134720 17.000000
198.147130 20.000000
199.072940 12.000000
199.109860 31.000000
199.120130 7.000000
199.137070 14.000000
199.154020 40.000000
200.068880 8.000000
200.117860 5.000000
200.149520 16.000000
200.155610 30.000000
201.063080 15.000000
201.072750 12.000000
201.089650 16.000000
202.076490 5.000000
202.135390 9.000000
203.075530 51.000000
203.097080 15.000000
204.068040 7.000000
204.094250 53.000000
205.060840 15.000000
205.090790 13.000000
205.106060 47.000000
206.083390 6.000000
206.097560 24.000000
206.108510 6.000000
206.825390 6.000000
207.084750 19.000000
207.118940 68.000000
208.087170 32.000000
208.113920 9.000000
208.133790 7.000000
209.062000 7.000000
209.088820 16.000000
209.099400 41.000000
209.129350 39.000000
209.140610 23.000000
210.102740 13.000000
210.144550 6.000000
210.662550 17.000000
211.071140 6.000000
211.087370 7.000000
211.098630 19.000000
211.115690 23.000000
211.153410 7.000000
212.080870 9.000000
212.117220 6.000000
212.125920 7.000000
212.162870 6.000000
213.087880 8.000000
213.155690 5.000000
213.177510 14.000000
214.166630 14.000000
215.075130 14.000000
215.086700 24.000000
215.102750 9.000000
215.177810 19.000000
216.068190 6.000000
216.087780 11.000000
217.102400 6.000000
218.074490 6.000000
218.095610 8.000000
218.117600 15.000000
219.082080 5.000000
219.121830 18.000000
220.083450 14.000000
220.092090 8.000000
220.124510 24.000000
221.104490 47.000000
221.125630 19.000000
221.137740 32.000000
222.032870 7.000000
222.073120 7.000000
222.104050 15.000000
222.133210 6.000000
222.146090 7.000000
223.104250 8.000000
223.143920 10.000000
223.150700 29.000000
223.167330 9.000000
224.087110 15.000000
224.146820 17.000000
224.165940 6.000000
224.764100 6.000000
225.090160 36.000000
225.131480 17.000000
225.164280 8.000000
226.093000 8.000000
226.146730 5.000000
226.719130 5.000000
227.102330 7.000000
227.116930 6.000000
227.171200 16.000000
228.089950 12.000000
229.085650 7.000000
230.116490 6.000000
231.087020 7.000000
231.122560 12.000000
233.061260 10.000000
233.100570 6.000000
233.123260 11.000000
233.139540 27.000000
234.123690 7.000000
235.119770 17.000000
235.144170 18.000000
235.155060 6.000000
235.167790 11.000000
236.109410 7.000000
237.100190 8.000000
237.136260 5.000000
237.174000 25.000000
238.170030 32.000000
239.087740 6.000000
239.116330 11.000000
239.185700 9.000000
241.129460 6.000000
241.167690 7.000000
242.114940 6.000000
242.166280 11.000000
243.110200 15.000000
244.131210 14.000000
245.133900 5.000000
245.146910 8.000000
246.105650 9.000000
246.140200 11.000000
247.151810 32.000000
247.703320 7.000000
248.123780 14.000000
249.154820 8.000000
249.164980 7.000000
250.141190 6.000000
250.167360 6.000000
250.178090 13.000000
251.156830 6.000000
251.191880 7.000000
252.090330 6.000000
252.109790 5.000000
253.120240 6.000000
253.206680 6.000000
254.106310 9.000000
254.183590 7.000000
255.146100 9.000000
255.178280 11.000000
259.103090 7.000000
259.162450 9.000000
261.165280 7.000000
262.139980 6.000000
262.179990 6.000000
264.150540 7.000000
265.116760 7.000000
267.120510 6.000000
269.080260 7.000000
271.140380 7.000000
271.816410 6.000000
273.136230 5.000000
273.150420 10.000000
274.136080 7.000000
274.168700 5.000000
277.182770 7.000000
279.138790 6.000000
279.406220 8.000000
279.895200 11.000000
283.083440 5.000000
285.011200 5.000000
285.135350 5.000000
285.181400 6.000000
286.168640 6.000000
287.177920 13.000000
288.110350 6.000000
289.158910 6.000000
291.209630 8.000000
292.808900 5.000000
299.131560 5.000000
301.207310 9.000000
320.212680 6.000000
327.235260 14.000000
377.118500 8.000000
391.474460 10.000000
415.624660 7.000000

>ms2
81.070300 8.000000
93.071040 12.000000
95.046900 8.000000
95.084910 7.000000
105.069730 11.000000
107.083750 16.000000
109.029090 8.000000
109.102010 6.000000
119.084960 12.000000
121.102800 12.000000
123.044160 13.000000
131.086720 13.000000
133.068800 6.000000
133.100560 20.000000
135.048650 6.000000
135.116740 24.000000
136.122380 7.000000
137.059010 6.000000
143.084730 11.000000
145.101680 28.000000
147.115190 20.000000
149.022140 6.000000
149.130390 14.000000
151.040560 52.000000
152.042310 6.000000
155.088910 7.000000
157.062040 12.000000
157.104340 6.000000
159.081450 6.000000
159.117490 28.000000
161.132060 10.000000
163.036090 9.000000
163.043520 6.000000
171.117680 6.000000
173.134310 7.000000
175.079420 11.000000
175.151440 7.000000
181.101330 7.000000
183.078450 9.000000
183.120820 6.000000
185.129100 8.000000
187.148850 68.000000
188.153260 6.000000
189.165300 5.000000
193.101750 6.000000
195.116760 7.000000
197.133040 7.000000
199.075000 7.000000
199.149410 9.000000
203.073390 6.000000
203.179840 30.000000
204.188540 7.000000
205.158660 5.000000
209.096340 8.000000
213.161160 10.000000
214.168150 13.000000
215.178990 32.000000
216.185470 7.000000
223.112700 6.000000
227.106080 11.000000
229.118610 5.000000
237.128390 8.000000
237.170730 5.000000
241.125600 9.000000
245.129260 6.000000
251.181470 7.000000
252.188420 7.000000
253.198140 8.000000
257.119020 13.000000
267.136540 6.000000
269.194000 9.000000
301.195530 6.000000
319.208040 14.000000
321.229980 7.000000
323.208340 5.000000
329.191070 5.000000
337.217130 9.000000
347.197110 42.000000
347.213230 9.000000
348.203000 14.000000
365.214230 89.000000
366.214970 26.000000
383.224850 22.000000
401.235020 32.000000
402.225860 5.000000
443.205470 5.000000
443.244140 1000.000000
443.304840 17.000000

>ms2
365.207790 13.000000
443.242130 1000.000000
443.302610 24.000000

>ms2
67.057110 37.000000
68.056830 11.000000
69.071310 7.000000
71.085620 6.000000
79.054630 42.000000
80.059680 6.000000
81.064420 19.000000
81.070220 111.000000
82.072200 23.000000
82.103070 8.000000
83.086830 50.000000
85.098240 12.000000
91.046800 5.000000
91.055870 58.000000
92.060620 13.000000
93.069020 155.000000
93.213210 7.000000
94.074510 6.000000
94.973140 5.000000
95.009700 5.000000
95.039980 14.000000
95.047810 87.000000
95.086000 229.000000
96.092470 20.000000
96.964710 5.000000
97.065150 17.000000
97.102360 23.000000
97.303140 7.000000
98.108180 10.000000
99.046340 7.000000
100.272480 9.000000
100.693100 9.000000
103.056370 14.000000
105.038570 5.000000
105.069530 208.000000
105.084730 5.000000
105.873770 6.000000
106.035110 5.000000
106.073870 34.000000
107.049510 59.000000
107.085330 354.000000
108.087440 49.000000
109.004380 6.000000
109.030030 179.000000
109.062430 10.000000
109.101590 152.000000
110.018390 6.000000
110.028690 23.000000
110.035180 24.000000
110.103000 25.000000
111.042560 6.000000
111.048820 6.000000
112.089650 6.000000
113.305790 7.000000
115.030280 7.000000
117.068340 54.000000
118.078610 6.000000
119.041080 5.000000
119.047770 6.000000
119.072340 11.000000
119.084710 223.000000
120.090790 33.000000
121.022990 11.000000
121.029210 31.000000
121.065180 137.000000
121.084020 10.000000
121.102150 336.000000
122.029130 6.000000
122.069510 8.000000
122.099110 5.000000
122.104730 11.000000
123.029960 6.000000
123.042750 137.000000
123.080800 20.000000
123.114710 19.000000
124.085590 7.000000
125.021030 47.000000
125.030460 10.000000
125.060870 8.000000
125.087060 5.000000
125.095860 5.000000
125.101470 6.000000
127.039030 5.000000
128.063260 16.000000
128.343700 5.000000
129.068210 28.000000
129.074490 14.000000
130.074460 14.000000
131.048020 20.000000
131.054580 6.000000
131.072220 9.000000
131.085890 257.000000
132.088410 28.000000
133.028720 11.000000
133.066060 44.000000
133.101670 392.000000
134.101930 40.000000
135.043910 89.000000
135.075590 26.000000
135.085020 13.000000
135.096950 9.000000
135.116500 389.000000
136.113780 12.000000
136.120800 29.000000
136.132220 8.000000
137.056080 12.000000
137.096970 11.000000
137.128570 6.000000
139.028110 6.000000
139.038360 33.000000
139.152440 8.000000
140.043990 11.000000
141.070560 48.000000
143.051420 13.000000
143.083970 217.000000
144.084050 21.000000
144.573750 8.000000
145.063630 45.000000
145.100280 397.000000
145.915360 10.000000
146.060290 9.000000
146.072920 8.000000
146.105190 58.000000
147.042630 14.000000
147.049530 13.000000
147.063920 5.000000
147.073990 39.000000
147.082550 58.000000
147.117580 357.000000
148.086500 11.000000
148.119320 63.000000
149.000290 6.000000
149.023880 74.000000
149.042050 5.000000
149.059920 143.000000
149.095870 10.000000
149.132020 119.000000
149.139680 31.000000
150.063350 21.000000
150.134030 9.000000
151.037890 768.000000
151.071620 13.000000
151.114720 9.000000
152.026570 6.000000
152.038420 20.000000
152.046620 21.000000
153.045350 16.000000
153.052550 10.000000
153.073390 15.000000
153.430150 7.000000
153.455340 6.000000
154.065810 6.000000
155.035190 7.000000
155.085490 113.000000
155.097720 10.000000
156.069990 6.000000
156.084530 15.000000
156.092100 18.000000
157.065810 117.000000
157.082050 7.000000
157.101030 167.000000
158.066120 10.000000
158.102980 17.000000
158.941440 7.000000
159.044680 18.000000
159.079380 96.000000
159.116330 462.000000
160.114200 9.000000
160.126360 71.000000
160.178920 11.000000
160.273560 6.000000
161.054370 41.000000
161.063720 36.000000
161.088820 13.000000
161.095310 32.000000
161.119350 28.000000
161.132890 230.000000
162.132480 45.000000
163.038020 106.000000
163.066640 7.000000
163.078490 16.000000
163.109190 9.000000
163.117130 11.000000
164.042020 18.000000
165.053380 42.000000
165.066130 18.000000
166.027470 6.000000
166.053910 9.000000
166.075450 6.000000
167.030290 35.000000
167.036850 22.000000
167.074950 14.000000
167.083590 37.000000
167.091480 12.000000
167.822890 5.000000
168.038860 14.000000
168.091140 9.000000
168.122250 7.000000
169.057500 15.000000
169.086910 10.000000
169.101230 88.000000
170.104320 16.000000
170.112930 10.000000
171.079420 100.000000
171.106700 11.000000
171.116030 55.000000
172.080460 14.000000
172.127270 15.000000
173.061400 36.000000
173.071760 7.000000
173.097430 81.000000
173.131130 236.000000
174.063050 21.000000
174.096660 18.000000
174.137130 27.000000
175.056290 6.000000
175.075000 236.000000
175.101820 6.000000
175.108370 13.000000
175.145230 54.000000
176.074040 17.000000
176.085750 6.000000
176.155440 14.000000
176.342820 5.000000
177.033160 5.000000
177.053590 95.000000
177.062790 19.000000
177.088670 23.000000
178.060260 5.000000
178.079320 11.000000
178.818010 7.000000
179.066710 21.000000
179.084430 26.000000
180.071990 6.000000
180.089720 24.000000
180.099730 11.000000
181.050800 24.000000
181.073170 6.000000
181.099780 96.000000
181.788500 7.000000
182.105650 25.000000
183.077240 116.000000
183.109890 42.000000
183.116820 163.000000
184.074390 6.000000
184.083850 11.000000
184.119740 37.000000
185.059520 27.000000
185.098050 46.000000
185.130450 119.000000
185.150920 10.000000
186.102630 12.000000
186.136260 16.000000
186.145870 17.000000
187.076570 72.000000
187.114520 36.000000
187.147480 1000.000000
187.171800 6.000000
188.074570 25.000000
188.151860 129.000000
189.091810 53.000000
189.103930 6.000000
189.130950 18.000000
189.157420 26.000000
189.165250 22.000000
189.208680 6.000000
190.096830 10.000000
191.063190 16.000000
191.071550 19.000000
191.085280 10.000000
191.096740 11.000000
191.105380 5.000000
191.130190 8.000000
191.182970 5.000000
192.068940 6.000000
192.094390 11.000000
193.081650 9.000000
193.099440 61.000000
193.108810 34.000000
194.003910 9.000000
194.071750 6.000000
194.103360 17.000000
195.079450 46.000000
195.108690 46.000000
195.119570 52.000000
196.079560 11.000000
196.121700 17.000000
196.134200 5.000000
196.162840 5.000000
197.095570 83.000000
197.122380 14.000000
197.136310 86.000000
198.102260 13.000000
198.145290 18.000000
199.073410 29.000000
199.083440 11.000000
199.108520 35.000000
199.137080 11.000000
199.150790 91.000000
200.108640 6.000000
200.150190 18.000000
201.048230 10.000000
201.061860 12.000000
201.090640 95.000000
201.117110 11.000000
201.123310 22.000000
201.151250 19.000000
201.161960 21.000000
202.096270 6.000000
202.137130 7.000000
202.171660 9.000000
203.045240 6.000000
203.063430 21.000000
203.072110 83.000000
203.107730 11.000000
203.144900 6.000000
203.179630 149.000000
204.074370 22.000000
204.175140 23.000000
204.272740 8.000000
205.084430 13.000000
205.100360 19.000000
205.150070 17.000000
205.158290 31.000000
206.066770 7.000000
206.101910 7.000000
206.165500 8.000000
207.109920 10.000000
207.116420 21.000000
208.083820 10.000000
208.114790 23.000000
209.096680 66.000000
209.104660 54.000000
209.130660 74.000000
209.144530 19.000000
210.102010 32.000000
210.138630 15.000000
211.075930 17.000000
211.084590 7.000000
211.110050 143.000000
211.147090 63.000000
212.115330 27.000000
212.154010 30.000000
212.163990 5.000000
212.395720 7.000000
212.818340 6.000000
213.092500 88.000000
213.131940 10.000000
213.149030 9.000000
213.163990 87.000000
214.095410 10.000000
214.168050 80.000000
215.068920 29.000000
215.090910 10.000000
215.102750 8.000000
215.111210 10.000000
215.131270 19.000000
215.146820 6.000000
215.180190 467.000000
216.111280 17.000000
216.147810 5.000000
216.179900 55.000000
217.081570 31.000000
217.090710 22.000000
217.121830 20.000000
217.195180 25.000000
218.074620 7.000000
218.111330 17.000000
218.204410 6.000000
219.078400 6.000000
219.117720 57.000000
220.094890 7.000000
220.103010 6.000000
220.125380 13.000000
221.071240 7.000000
221.096630 53.000000
221.128310 6.000000
221.139950 32.000000
222.087720 6.000000
222.131620 12.000000
222.153930 13.000000
223.081310 10.000000
223.102340 14.000000
223.116170 31.000000
223.124100 11.000000
223.145740 10.000000
223.153440 31.000000
223.902280 11.000000
224.076950 18.000000
224.110080 18.000000
224.147610 9.000000
225.081970 16.000000
225.091490 20.000000
225.128160 34.000000
225.158070 25.000000
225.177860 10.000000
226.082180 8.000000
226.158520 5.000000
226.165210 18.000000
227.080090 9.000000
227.109410 144.000000
227.129470 6.000000
227.147870 17.000000
227.171590 13.000000
227.181290 33.000000
228.111630 12.000000
228.151630 8.000000
228.185530 31.000000
229.084270 8.000000
229.098180 7.000000
229.107540 5.000000
229.122240 24.000000
229.134340 7.000000
229.154020 6.000000
229.166320 5.000000
229.196300 7.000000
230.112000 9.000000
230.127080 17.000000
230.136860 6.000000
231.076750 14.000000
231.104630 30.000000
231.115340 22.000000
231.175490 11.000000
231.514100 6.000000
232.081040 10.000000
232.178970 14.000000
233.095020 19.000000
233.129530 40.000000
233.141420 11.000000
233.161610 8.000000
234.096070 6.000000
234.732480 7.000000
235.110350 22.000000
235.137370 16.000000
235.150820 54.000000
236.113170 11.000000
236.150650 18.000000
237.085280 45.000000
237.095640 37.000000
237.114530 16.000000
237.129500 41.000000
237.141570 15.000000
237.165470 65.000000
238.095670 16.000000
238.126050 17.000000
238.168730 17.000000
238.181060 13.000000
239.088590 9.000000
239.105740 109.000000
239.149780 6.000000
239.180630 20.000000
240.104340 41.000000
240.117720 10.000000
241.085710 13.000000
241.110400 14.000000
241.120960 53.000000
241.138050 7.000000
241.159260 17.000000
241.191860 24.000000
242.079500 12.000000
242.121310 15.000000
242.132250 6.000000
243.080110 6.000000
243.101150 5.000000
243.134840 19.000000
244.132890 17.000000
244.162320 7.000000
245.119060 27.000000
245.133590 40.000000
245.193940 7.000000
246.133130 10.000000
246.147690 13.000000
247.114550 14.000000
247.133450 16.000000
247.151520 5.000000
247.167280 12.000000
248.156170 7.000000
249.123700 39.000000
249.158570 12.000000
250.092350 7.000000
250.427900 8.000000
251.102770 46.000000
251.178250 124.000000
252.110240 6.000000
252.165910 13.000000
252.187090 20.000000
252.195100 45.000000
253.098970 7.000000
253.119690 32.000000
253.129840 21.000000
253.142610 9.000000
253.157330 11.000000
253.193920 146.000000
254.128110 9.000000
254.197690 36.000000
254.210600 37.000000
255.085460 5.000000
255.102710 80.000000
255.140200 23.000000
255.172780 26.000000
255.719880 7.000000
256.079710 6.000000
256.104920 15.000000
256.147890 9.000000
256.216160 6.000000
257.096590 7.000000
257.115510 55.000000
257.142030 12.000000
257.155030 7.000000
258.117250 24.000000
259.094450 6.000000
259.115480 18.000000
259.145050 21.000000
259.161650 15.000000
260.091520 6.000000
260.166350 6.000000
261.129330 10.000000
261.164220 16.000000
262.167450 15.000000
263.095790 17.000000
263.137050 8.000000
263.146450 11.000000
263.181640 42.000000
264.142700 13.000000
265.124880 56.000000
265.156190 11.000000
265.166870 11.000000
266.130160 15.000000
266.137330 7.000000
267.117800 7.000000
267.136990 11.000000
267.196990 6.000000
268.644010 6.000000
269.105800 10.000000
269.139040 8.000000
269.156560 11.000000
269.189760 43.000000
270.117920 8.000000
270.162170 5.000000
270.198390 22.000000
271.122890 10.000000
271.135130 15.000000
271.145110 12.000000
271.199650 10.000000
271.262360 6.000000
272.216830 6.000000
273.035280 5.000000
273.123470 6.000000
273.139590 18.000000
273.156190 15.000000
273.169280 13.000000
274.169890 18.000000
275.178250 23.000000
276.136320 10.000000
277.115570 13.000000
277.156220 25.000000
277.200710 40.000000
278.132900 12.000000
278.180510 6.000000
279.136690 17.000000
279.172240 25.000000
279.204990 14.000000
280.130980 6.000000
280.178890 6.000000
281.157930 13.000000
281.190220 8.000000
282.124240 5.000000
282.154850 6.000000
282.220580 6.000000
283.119600 10.000000
283.131260 32.000000
283.148680 11.000000
283.175660 14.000000
284.176450 7.000000
285.153470 9.000000
285.168550 12.000000
286.147090 11.000000
287.146450 10.000000
287.183530 18.000000
288.188810 7.000000
289.157710 5.000000
289.199370 7.000000
290.151030 10.000000
291.133580 18.000000
291.172520 7.000000
291.207550 29.000000
292.130430 9.000000
292.150880 5.000000
292.218540 9.000000
293.147770 23.000000
293.183170 8.000000
295.129610 10.000000
295.164340 19.000000
295.201630 20.000000
295.470120 5.000000
297.152040 14.000000
297.183650 16.000000
299.142730 6.000000
300.186490 7.000000
301.158970 7.000000
301.196320 49.000000
302.187680 9.000000
302.201510 33.000000
303.217470 12.000000
304.146640 8.000000
304.176060 6.000000
305.146510 18.000000
305.160400 9.000000
305.177980 7.000000
305.192380 18.000000
306.154240 17.000000
306.167510 13.000000
306.188870 17.000000
309.147550 15.000000
309.229520 13.000000
310.222560 23.000000
310.551700 13.000000
311.152680 9.000000
313.137540 6.000000
313.185270 8.000000
314.166870 5.000000
319.161710 13.000000
319.207210 72.000000
320.205570 17.000000
320.219760 25.000000
321.139770 5.000000
321.186070 31.000000
321.218440 21.000000
322.191770 8.000000
322.236300 7.000000
323.130860 6.000000
323.168210 17.000000
323.202120 64.000000
324.206090 14.000000
324.559330 5.000000
329.189060 57.000000
330.190800 15.000000
330.208280 11.000000
332.201350 11.000000
337.217590 54.000000
338.144740 9.000000
338.172970 6.000000
338.211640 7.000000
339.193910 6.000000
339.208220 10.000000
341.020290 5.000000
341.894320 7.000000
347.195770 128.000000
347.216610 25.000000
348.197200 25.000000
348.208980 31.000000
355.206670 10.000000
355.232150 6.000000
365.027400 6.000000
365.208400 204.000000
365.230530 21.000000
366.199190 26.000000
366.218690 93.000000
366.957150 6.000000
367.215790 9.000000
383.180480 5.000000
383.193910 6.000000
383.222290 83.000000
384.226100 31.000000
385.226070 18.000000
388.190670 5.000000
395.650940 8.000000
401.212100 47.000000
401.238800 175.000000
402.224120 20.000000
402.235630 43.000000
403.227450 6.000000
403.244900 10.000000
407.222380 6.000000
407.528720 6.000000
408.980100 6.000000
425.232600 9.000000
443.234590 27.000000
443.251400 42.000000

>ms2
53.039800 17.000000
55.018250 38.000000
55.052020 9.000000
62.920800 8.000000
65.037920 19.000000
66.273280 13.000000
67.049550 46.000000
67.054860 198.000000
68.059240 16.000000
68.997460 20.000000
69.033860 22.000000
69.067170 10.000000
69.072780 52.000000
73.031160 8.000000
73.236760 14.000000
76.997930 10.000000
77.019710 12.000000
77.039310 106.000000
77.046390 8.000000
77.058860 8.000000
77.692570 8.000000
79.042170 13.000000
79.054820 257.000000
80.054790 15.000000
80.062330 9.000000
81.034460 19.000000
81.070430 287.000000
81.079700 24.000000
82.063180 9.000000
82.391620 16.000000
83.084590 22.000000
88.594410 7.000000
90.044850 8.000000
91.039740 14.000000
91.052740 648.000000
91.671420 7.000000
92.010860 13.000000
92.052350 17.000000
92.060310 68.000000
93.069470 515.000000
93.079600 24.000000
94.073170 47.000000
95.009350 11.000000
95.021870 18.000000
95.049770 312.000000
95.087570 301.000000
95.142330 14.000000
95.560280 7.000000
96.048990 29.000000
96.054450 9.000000
96.084820 12.000000
96.089020 21.000000
96.094670 7.000000
96.265290 8.000000
97.025450 8.000000
97.029680 7.000000
97.065870 7.000000
97.104110 14.000000
99.042770 10.000000
99.628830 7.000000
100.629580 7.000000
103.054320 43.000000
104.054450 21.000000
105.017480 12.000000
105.032110 63.000000
105.043050 14.000000
105.068980 1000.000000
105.423530 7.000000
106.035390 17.000000
106.043310 8.000000
106.073330 79.000000
106.323950 7.000000
107.048360 183.000000
107.072790 10.000000
107.085810 451.000000
108.052750 34.000000
108.072420 7.000000
108.091520 19.000000
109.015510 12.000000
109.026900 257.000000
109.035330 40.000000
109.066470 83.000000
109.099950 165.000000
109.342580 7.000000
110.031090 31.000000
110.067760 17.000000
110.603650 7.000000
111.036210 21.000000
111.045520 24.000000
111.417260 22.000000
112.455050 15.000000
113.519470 8.000000
115.052600 85.000000
115.060810 9.000000
115.589110 10.000000
116.061110 32.000000
117.032130 12.000000
117.069120 343.000000
118.043880 12.000000
118.071170 42.000000
118.075550 74.000000
118.479970 11.000000
119.049500 37.000000
119.065440 8.000000
119.085080 566.000000
119.285920 7.000000
120.059840 9.000000
120.091300 72.000000
121.012090 19.000000
121.029300 92.000000
121.059760 46.000000
121.064850 118.000000
121.080340 11.000000
121.101850 146.000000
122.026440 8.000000
122.036470 7.000000
122.067700 21.000000
122.106120 17.000000
123.005920 21.000000
123.036670 56.000000
123.045330 122.000000
123.055680 10.000000
123.080810 16.000000
123.115820 19.000000
124.043110 7.000000
124.050000 12.000000
124.510680 8.000000
124.773340 7.000000
125.020610 26.000000
125.062200 7.000000
125.094860 10.000000
126.029210 11.000000
127.054630 95.000000
127.060970 24.000000
128.056720 64.000000
128.064210 228.000000
128.680280 8.000000
128.731320 7.000000
129.037770 8.000000
129.068880 473.000000
130.073550 148.000000
131.045300 22.000000
131.055860 18.000000
131.085970 751.000000
131.603330 7.000000
132.051120 29.000000
132.058460 14.000000
132.088700 41.000000
132.096300 17.000000
133.026280 10.000000
133.051420 10.000000
133.066620 119.000000
133.101440 422.000000
133.500920 7.000000
134.046140 8.000000
134.069440 8.000000
134.102890 17.000000
134.111830 21.000000
135.030810 7.000000
135.037960 9.000000
135.046020 24.000000
135.078510 17.000000
135.117810 147.000000
135.751980 10.000000
136.093410 14.000000
136.129240 7.000000
136.401840 8.000000
137.064120 35.000000
137.097670 22.000000
138.064650 7.000000
139.038820 38.000000
140.040920 11.000000
141.068300 188.000000
141.075620 75.000000
142.073260 94.000000
142.082210 70.000000
143.083890 504.000000
144.086940 36.000000
144.094100 116.000000
144.252990 9.000000
145.053700 34.000000
145.061600 63.000000
145.073000 34.000000
145.082950 29.000000
145.101730 524.000000
145.389500 10.000000
146.094150 8.000000
146.105060 83.000000
146.212080 7.000000
146.247530 8.000000
147.046340 30.000000
147.080690 132.000000
147.115050 206.000000
147.422650 12.000000
148.045010 11.000000
148.082050 37.000000
148.120710 33.000000
149.021320 59.000000
149.031540 12.000000
149.053360 31.000000
149.063110 30.000000
149.094190 13.000000
149.134170 43.000000
149.675920 10.000000
150.032930 10.000000
150.108290 9.000000
151.022170 12.000000
151.037890 207.000000
151.074840 7.000000
151.112690 7.000000
151.249240 7.000000
152.041660 24.000000
152.060930 25.000000
152.070220 8.000000
152.110600 8.000000
152.380690 7.000000
153.007350 13.000000
153.020540 8.000000
153.053010 23.000000
153.068420 160.000000
154.075740 129.000000
155.080780 182.000000
155.088030 214.000000
156.055830 15.000000
156.092530 137.000000
157.035490 7.000000
157.064070 232.000000
157.098600 119.000000
157.106340 75.000000
158.063780 12.000000
158.071910 30.000000
158.083570 7.000000
158.099610 31.000000
158.107650 21.000000
158.114610 9.000000
159.078570 93.000000
159.095840 10.000000
159.118160 409.000000
160.114960 28.000000
160.128040 25.000000
161.058470 36.000000
161.099660 21.000000
161.134800 72.000000
161.812940 10.000000
162.138760 11.000000
164.293870 10.000000
164.801250 11.000000
165.053270 12.000000
165.069780 224.000000
165.088680 9.000000
165.424760 7.000000
165.448650 7.000000
166.059450 12.000000
166.078090 117.000000
167.034100 7.000000
167.041400 9.000000
167.065930 14.000000
167.086520 220.000000
168.049210 7.000000
168.054760 15.000000
168.088350 58.000000
168.096440 110.000000
169.050280 10.000000
169.058150 8.000000
169.071290 7.000000
169.084030 7.000000
169.101010 245.000000
170.079850 10.000000
170.098790 14.000000
170.106410 16.000000
170.115190 25.000000
170.947010 7.000000
171.081070 132.000000
171.101590 7.000000
171.112300 45.000000
171.119050 129.000000
171.289640 7.000000
172.082470 29.000000
172.120620 17.000000
172.130460 19.000000
173.058910 44.000000
173.069920 12.000000
173.087250 33.000000
173.130420 56.000000
174.065080 21.000000
174.099980 15.000000
174.134460 53.000000
175.075810 80.000000
175.083080 20.000000
175.107010 9.000000
175.114580 7.000000
175.148940 14.000000
176.057390 8.000000
176.079180 18.000000
176.115810 8.000000
177.049710 9.000000
177.067550 24.000000
177.934840 10.000000
178.027740 12.000000
178.066820 9.000000
178.079120 120.000000
179.086840 130.000000
179.357180 7.000000
180.086240 29.000000
180.096370 85.000000
181.059080 73.000000
181.070300 48.000000
181.100750 119.000000
181.116210 9.000000
182.107240 73.000000
182.587110 11.000000
183.076350 28.000000
183.087740 10.000000
183.113630 143.000000
184.058180 9.000000
184.082820 50.000000
184.091580 11.000000
184.116930 28.000000
184.266560 14.000000
185.060640 26.000000
185.086650 10.000000
185.093980 47.000000
185.105580 9.000000
185.129580 66.000000
185.140750 16.000000
186.126710 21.000000
186.140380 17.000000
186.240370 7.000000
187.063200 9.000000
187.074710 19.000000
187.114090 44.000000
187.138430 67.000000
187.145740 225.000000
187.152980 79.000000
187.219480 14.000000
188.076200 11.000000
188.086030 8.000000
188.148730 16.000000
189.054900 26.000000
189.091160 9.000000
189.125640 7.000000
190.082050 20.000000
190.566680 12.000000
191.050400 9.000000
191.066670 7.000000
191.081100 32.000000
191.086720 76.000000
192.081910 51.000000
192.093640 18.000000
192.881440 10.000000
193.068920 7.000000
193.101060 135.000000
194.061160 8.000000
194.076570 32.000000
194.102660 88.000000
194.346300 8.000000
194.730130 14.000000
195.075380 49.000000
195.111240 77.000000
195.124470 32.000000
195.170120 9.000000
196.084090 58.000000
196.092130 23.000000
196.108930 8.000000
196.121120 19.000000
196.128890 10.000000
196.544780 7.000000
197.067050 8.000000
197.090330 8.000000
197.127690 85.000000
197.147670 10.000000
198.106050 10.000000
198.136470 7.000000
199.071820 11.000000
199.106220 35.000000
199.142900 56.000000
199.159730 8.000000
200.151150 28.000000
201.091830 9.000000
201.127000 8.000000
202.074740 11.000000
203.063390 7.000000
203.070160 8.000000
203.083910 31.000000
203.092610 28.000000
203.169050 7.000000
203.264630 11.000000
204.092940 10.000000
204.147900 9.000000
205.098530 40.000000
206.087690 8.000000
206.104100 16.000000
206.113420 12.000000
207.105130 7.000000
207.120150 35.000000
207.127500 12.000000
208.090930 64.000000
208.123000 42.000000
209.048800 8.000000
209.059860 12.000000
209.089870 48.000000
209.098040 20.000000
209.137210 57.000000
209.192340 7.000000
210.099850 32.000000
210.147260 7.000000
211.073210 38.000000
211.111250 54.000000
211.142270 21.000000
211.147520 10.000000
212.069950 7.000000
212.153730 8.000000
213.084440 26.000000
213.158280 9.000000
213.175860 9.000000
214.171910 19.000000
215.067050 9.000000
215.082380 10.000000
215.093350 9.000000
215.105670 10.000000
215.185240 26.000000
216.084720 26.000000
216.148040 18.000000
216.185910 20.000000
217.096590 8.000000
217.104840 9.000000
217.114200 7.000000
218.105010 9.000000
218.111940 11.000000
219.076750 15.000000
219.085860 22.000000
219.115070 28.000000
219.128910 13.000000
220.086790 7.000000
220.095200 7.000000
220.117950 19.000000
221.079250 10.000000
221.089110 8.000000
221.122480 7.000000
221.136140 52.000000
222.087740 9.000000
222.099370 9.000000
222.109850 21.000000
222.135990 7.000000
222.143260 8.000000
223.079160 11.000000
223.114850 36.000000
223.147550 23.000000
225.082780 15.000000
225.168470 15.000000
226.100830 7.000000
226.143980 8.000000
226.173840 7.000000
227.094360 10.000000
227.110890 14.000000
228.151340 10.000000
229.104720 17.000000
230.097440 7.000000
230.106550 30.000000
231.078640 12.000000
231.107770 24.000000
231.118270 35.000000
232.109630 8.000000
232.123170 33.000000
233.103470 30.000000
233.120450 8.000000
233.135250 14.000000
234.112660 12.000000
234.134000 7.000000
234.140870 14.000000
235.111880 10.000000
235.140230 8.000000
235.155010 7.000000
236.081590 11.000000
237.083300 9.000000
237.131240 37.000000
237.150650 14.000000
237.163530 18.000000
238.102920 7.000000
239.113490 11.000000
239.168010 12.000000
241.093260 9.000000
241.117480 8.000000
241.130110 31.000000
241.173900 7.000000
242.123490 7.000000
243.085160 9.000000
243.113770 10.000000
244.100740 7.000000
245.100160 7.000000
245.110760 9.000000
245.131180 17.000000
245.432790 8.000000
246.052310 9.000000
247.098800 13.000000
247.120100 8.000000
247.148860 15.000000
249.125760 12.000000
250.095640 9.000000
250.172610 8.000000
251.146530 23.000000
252.147460 8.000000
253.126450 8.000000
253.153900 7.000000
253.191300 33.000000
255.085660 8.000000
255.176760 25.000000
256.123200 11.000000
257.131930 8.000000
258.134610 7.000000
259.144320 20.000000
260.889530 11.000000
261.130650 7.000000
261.159030 8.000000
263.145170 13.000000
265.145480 12.000000
267.130040 12.000000
267.203860 8.000000
269.113980 8.000000
271.107820 7.000000
271.149960 18.000000
273.164000 8.000000
273.182040 9.000000
275.101900 7.000000
275.174930 17.000000
276.145570 7.000000
276.181730 11.000000
277.128970 10.000000
286.567470 14.000000
287.188780 9.000000
289.130580 7.000000
290.164400 8.000000
291.149570 7.000000
296.254580 8.000000
296.381070 8.000000
296.797360 8.000000
302.197690 15.000000
303.133790 7.000000
304.180330 8.000000
317.162230 7.000000
322.185700 8.000000
322.614010 9.000000
330.848600 7.000000
363.151430 10.000000
364.975250 7.000000
365.214840 11.000000
369.032780 7.000000
370.376160 10.000000
370.443420 10.000000
383.109100 15.000000
388.456760 7.000000
396.397640 10.000000
399.624020 10.000000

