>compound PR16754345
>parentmass 275.13901889999994
>ionization [M+H]+
>formula C15H18N2O3
>rt 336.474000
>profile qtof
#smiles_iso CC(C)[C@@H](C(=O)O)NC(=O)CC1=CNC2=CC=CC=C21
#smiles_can CC(C)C(C(=O)O)NC(=O)CC1=CNC2=CC=CC=C21
#inchikey AZEGJHGXTSUPPG-AWEZNQCLSA-N
#pubchem_id 446641
#mb_accession PR304062,PR304063,PR304064,PR304065,PR304066,PR304067,PR304068,PR304069,PR304070,PR304071,PR304072

>ms2
72.081420 83.000000
103.053170 6.000000
118.085620 176.000000
119.087200 11.000000
119.092130 5.000000
130.064620 1000.000000
131.068860 111.000000
158.060880 6.000000
229.133210 377.000000
230.138170 73.000000
231.140990 7.000000
257.129640 52.000000
258.133940 5.000000
274.131930 6.000000
275.141540 347.000000

>ms2
72.082780 24.000000
118.086270 156.000000
119.086480 9.000000
130.064960 175.000000
131.063190 8.000000
131.071140 7.000000
229.134110 649.000000
230.134050 114.000000
231.139970 11.000000
257.126370 132.000000
258.126620 12.000000
258.136440 18.000000
274.135280 11.000000
275.139340 1000.000000

>ms2
72.080260 66.000000
73.084440 6.000000
103.054720 9.000000
118.085490 12.000000
129.052690 5.000000
130.064710 1000.000000
131.067920 110.000000
132.072300 11.000000

>ms2
72.079990 25.000000
77.039280 82.000000
78.039150 7.000000
103.053670 254.000000
104.055290 13.000000
128.049500 55.000000
130.064740 1000.000000
131.066890 85.000000
132.072880 7.000000
275.133240 6.000000

>ms2
72.080190 82.000000
72.084110 29.000000
103.047890 7.000000
103.059690 6.000000
118.086350 190.000000
119.090870 17.000000
128.049500 11.000000
130.064740 1000.000000
131.068180 103.000000
132.070710 7.000000
158.057890 7.000000
229.133100 385.000000
230.134950 58.000000
231.140290 5.000000
257.128690 58.000000
258.137850 7.000000
275.138060 308.000000

>ms2
72.080740 62.000000
103.053470 7.000000
118.084250 6.000000
128.049070 6.000000
130.064650 1000.000000
130.094770 5.000000
131.068450 117.000000

>ms2
72.078630 21.000000
72.083830 16.000000
77.037980 144.000000
77.046710 7.000000
78.042070 15.000000
101.037320 9.000000
102.046530 7.000000
103.038810 8.000000
103.053890 224.000000
104.049130 6.000000
104.060680 7.000000
128.050980 101.000000
129.054180 10.000000
130.027530 6.000000
130.046140 14.000000
130.064220 1000.000000
131.069240 134.000000

>ms2
72.080140 87.000000
73.081070 5.000000
118.085810 203.000000
119.086640 12.000000
128.050750 5.000000
130.064990 1000.000000
131.067920 109.000000
132.074720 9.000000
158.059160 5.000000
229.111540 5.000000
229.133130 359.000000
230.136610 75.000000
231.137560 6.000000
257.128230 62.000000
258.136540 7.000000
275.138760 378.000000

>ms2
72.079770 23.000000
118.086090 145.000000
119.088490 13.000000
130.065160 177.000000
131.067540 12.000000
229.133830 609.000000
230.136230 108.000000
231.137850 6.000000
257.129000 142.000000
258.133850 24.000000
274.128600 7.000000
275.139280 1000.000000
275.186680 6.000000

>ms2
72.081750 67.000000
118.084720 11.000000
130.064610 1000.000000
131.067630 113.000000
132.070600 11.000000

>ms2
72.078210 16.000000
72.081960 12.000000
77.036670 93.000000
77.044200 8.000000
94.198940 8.000000
102.043700 8.000000
102.247780 7.000000
103.054630 172.000000
104.055010 18.000000
104.065690 9.000000
121.986340 5.000000
128.048390 75.000000
129.048520 7.000000
130.064990 1000.000000
131.066600 101.000000
131.078090 9.000000
275.137570 8.000000

