>compound PR16760348
>parentmass 447.1294
>ionization [M+H]+
>formula C22H22O10
>rt 244.800000
>profile qtof
#smiles_iso COC1=C(C(=C2C(=C1)OC(=CC2=O)C3=CC=C(C=C3)O)O)C4C(C(C(C(O4)CO)O)O)O
#smiles_can COC1=C(C(=C2C(=C1)OC(=CC2=O)C3=CC=C(C=C3)O)O)C4C(C(C(C(O4)CO)O)O)O
#inchikey ABRULANJVVJLFI-UHFFFAOYSA-N
#pubchem_id 369636
#mb_accession PR310976

>ms2
50.697460 20.000000
188.771390 27.000000
201.055660 29.000000
211.072110 59.000000
218.634110 18.000000
225.102310 32.000000
229.045300 16.000000
257.040710 22.000000
258.043880 20.000000
258.055600 16.000000
267.058840 50.000000
267.076450 49.000000
269.057800 16.000000
282.049870 20.000000
285.074430 42.000000
286.047490 16.000000
286.058530 18.000000
287.027560 19.000000
287.056820 651.000000
288.055850 70.000000
288.070950 44.000000
288.165680 19.000000
289.066190 17.000000
289.085420 20.000000
297.034760 18.000000
297.046140 21.000000
297.064700 212.000000
297.075200 234.000000
297.086150 204.000000
298.049620 81.000000
298.070980 38.000000
298.090850 43.000000
299.116390 16.000000
306.111480 22.000000
309.073700 76.000000
310.067290 20.000000
319.117920 39.000000
320.109440 21.000000
322.067600 17.000000
322.083370 40.000000
322.964480 22.000000
323.076660 56.000000
323.096220 36.000000
324.093900 30.000000
327.014770 24.000000
327.077610 16.000000
327.096010 56.000000
328.010710 16.000000
328.093290 51.000000
335.094330 38.000000
337.110630 41.000000
346.068120 22.000000
347.089170 41.000000
351.070010 21.000000
351.091920 217.000000
352.066860 16.000000
360.059690 18.000000
363.079350 49.000000
363.104860 60.000000
365.109860 16.000000
369.065730 19.000000
375.075620 80.000000
375.093690 97.000000
376.076660 16.000000
376.104710 17.000000
377.097440 20.000000
381.104580 84.000000
382.120700 17.000000
393.082240 57.000000
393.096410 49.000000
393.115570 16.000000
394.089750 17.000000
394.108340 30.000000
403.069550 16.000000
411.101990 88.000000
412.104610 67.000000
412.910740 19.000000
413.093690 19.000000
429.095920 16.000000
429.118960 89.000000
430.114500 24.000000
430.130650 26.000000
431.120610 20.000000
447.128390 212.000000

