>compound PR16735692
>parentmass 513.1904
>ionization [M+H]+
>formula C26H28N2O9
>rt 304.200000
>profile qtof
#smiles_iso C=CC1C2C=C3C4=C(CCN3C(=O)C2=C(OC1OC5C(C(C(C(O5)CO)O)O)O)O)C6=CC=CC=C6N4
#smiles_can C=CC1C2C=C3C4=C(CCN3C(=O)C2=C(OC1OC5C(C(C(C(O5)CO)O)O)O)O)C6=CC=CC=C6N4
#inchikey QJMQBJILYFAVTF-UHFFFAOYSA-N
#pubchem_id 85104227
#mb_accession PR311105

>ms2peaks
127.039210 20.000000
143.247470 21.000000
152.224530 16.000000
176.060330 17.000000
183.088040 71.000000
186.078380 21.000000
205.067600 24.000000
207.084340 19.000000
208.092360 17.000000
209.401950 16.000000
217.070770 20.000000
217.123250 16.000000
219.140010 18.000000
219.150760 55.000000
233.522890 22.000000
235.087280 469.000000
236.088960 99.000000
236.106570 17.000000
237.098050 17.000000
245.106510 36.000000
245.122070 37.000000
246.105740 26.000000
247.088590 35.000000
248.096240 16.000000
261.053160 17.000000
261.070500 157.000000
262.069430 17.000000
262.115970 16.000000
262.765440 17.000000
262.878140 16.000000
263.024080 17.000000
263.081760 5368.000000
263.125640 30.000000
264.047300 17.000000
264.085170 925.000000
264.466640 16.000000
265.087800 88.000000
265.099180 32.000000
266.095280 18.000000
266.760680 16.000000
273.047330 24.000000
279.057740 17.000000
280.091250 16.000000
281.086910 34.000000
281.103940 37.000000
282.067020 18.000000
282.097290 21.000000
287.127620 16.000000
287.349730 16.000000
288.106230 16.000000
288.117890 18.000000
297.107570 26.000000
308.637700 24.000000
315.111820 88.000000
315.122100 23.000000
333.123810 1288.000000
334.118650 185.000000
334.131620 200.000000
335.136230 17.000000
350.038360 22.000000
351.130490 143.000000
351.148100 101.000000
352.103180 24.000000
352.128330 35.000000
352.149990 54.000000
358.170720 17.000000
368.479950 18.000000
384.903960 17.000000
390.516480 16.000000
442.818270 16.000000
495.131260 16.000000
495.174220 2416.000000
496.149630 70.000000
496.172180 433.000000
496.186710 436.000000
496.754850 20.000000
497.145750 16.000000
497.181270 90.000000
497.200320 47.000000
498.189060 33.000000
508.543370 17.000000
513.089290 17.000000
513.181950 1338.000000

