>compound PR16782216
>parentmass 245.11722066666667
>ionization [M+H]+
>formula C15H16O3
>rt 524.852500
>profile qtof
#smiles_iso CC(=CCC1=C(C=CC2=C1OC(=O)C=C2)OC)C
#smiles_can CC(=CCC1=C(C=CC2=C1OC(=O)C=C2)OC)C
#inchikey MBRLOUHOWLUMFF-UHFFFAOYSA-N
#pubchem_id 10228
#mb_accession PR303505,PR303506,PR303507,PR303508,PR303509,PR310497

>ms2
77.040160 14.000000
103.054850 57.000000
104.059390 5.000000
105.069070 7.000000
131.048800 385.000000
132.052630 42.000000
133.065170 9.000000
159.044130 45.000000
161.059890 30.000000
187.037830 6.000000
189.054720 1000.000000
189.093930 26.000000
190.058870 128.000000
191.061710 10.000000
203.075740 8.000000
245.117610 240.000000

>ms2
77.037160 11.000000
77.041560 18.000000
103.054160 81.000000
105.071050 7.000000
131.048580 388.000000
132.052030 34.000000
132.057170 15.000000
133.063860 13.000000
159.042430 31.000000
161.058820 28.000000
189.054600 1000.000000
189.093320 19.000000
190.058690 116.000000
191.060820 16.000000
245.117720 262.000000

>ms2
189.054310 1000.000000
189.093490 19.000000
190.057970 121.000000
191.059650 12.000000
203.072050 5.000000
245.117130 809.000000
245.161590 10.000000

>ms2
51.020450 16.000000
64.047090 10.000000
64.279080 13.000000
76.028240 9.000000
77.026680 9.000000
77.037930 1000.000000
77.114700 10.000000
78.039720 21.000000
78.043930 33.000000
81.031200 13.000000
89.037990 10.000000
90.043850 57.000000
91.049480 13.000000
91.056750 14.000000
101.037900 12.000000
102.040250 27.000000
102.047850 86.000000
103.055180 727.000000
104.056200 94.000000
105.030190 11.000000
115.053720 21.000000
116.047860 19.000000
116.383920 12.000000
117.028160 18.000000
117.068810 17.000000
118.045980 10.000000
127.056930 10.000000
128.058730 13.000000
128.065770 9.000000
131.013460 14.000000
131.050310 534.000000
131.082090 11.000000
132.045270 9.000000
132.054260 37.000000
133.049150 10.000000
134.030720 19.000000
141.062760 12.000000
145.030470 17.000000
146.036030 26.000000
160.054440 28.000000
189.044800 9.000000
189.063710 30.000000
245.109240 48.000000
245.117400 115.000000

>ms2
63.020900 13.000000
77.005570 28.000000
77.027790 36.000000
77.039070 874.000000
77.054020 10.000000
78.044480 67.000000
89.038410 12.000000
89.045870 12.000000
90.047120 44.000000
102.039860 17.000000
102.045580 80.000000
102.870060 17.000000
103.054950 1000.000000
103.575410 11.000000
103.891430 10.000000
104.058490 34.000000
104.066910 12.000000
115.055380 36.000000
116.062700 12.000000
118.044810 26.000000
118.051030 14.000000
119.046200 13.000000
127.051540 12.000000
128.060670 15.000000
130.073700 15.000000
131.049360 414.000000
131.082750 21.000000
132.054110 59.000000
145.036580 12.000000
146.032780 21.000000
154.078310 20.000000
157.062000 15.000000
161.093170 10.000000
170.079420 15.000000
220.300160 11.000000

>ms2
52.260750 28.000000
67.010830 18.000000
76.197030 18.000000
77.035600 138.000000
77.040160 432.000000
77.818990 17.000000
78.037570 17.000000
79.052620 18.000000
87.580420 27.000000
90.048880 19.000000
91.056180 18.000000
92.575230 35.000000
100.250810 20.000000
102.048130 21.000000
102.996400 17.000000
103.027050 21.000000
103.044670 75.000000
103.054850 1796.000000
103.072670 18.000000
103.090870 49.000000
104.059390 172.000000
105.058930 50.000000
105.069070 225.000000
105.407010 18.000000
106.175270 19.000000
107.800060 18.000000
110.920100 18.000000
112.751240 20.000000
115.053180 51.000000
115.065880 29.000000
116.032320 39.000000
116.056370 20.000000
117.072430 49.000000
118.012630 18.000000
118.073070 17.000000
120.830720 19.000000
121.028760 22.000000
121.062700 25.000000
123.365330 21.000000
125.965560 28.000000
127.049670 20.000000
128.061810 17.000000
130.441560 20.000000
130.894850 21.000000
131.048800 12107.000000
131.944210 41.000000
132.052630 1315.000000
132.850570 39.000000
133.050350 50.000000
133.065170 270.000000
134.051850 22.000000
134.062160 26.000000
134.067930 17.000000
140.095630 19.000000
140.614300 19.000000
141.066100 22.000000
142.503570 17.000000
142.542650 17.000000
145.420170 35.000000
147.042650 50.000000
147.078540 17.000000
148.047880 22.000000
151.539050 21.000000
152.046950 24.000000
156.771880 18.000000
157.069870 20.000000
158.985720 27.000000
159.019380 18.000000
159.044130 1411.000000
160.038500 20.000000
160.049290 130.000000
160.568220 29.000000
160.935100 23.000000
161.059890 950.000000
161.590070 21.000000
162.047530 18.000000
162.064240 83.000000
162.137020 28.000000
162.679230 17.000000
163.055130 22.000000
168.072850 18.000000
172.049590 22.000000
173.098160 34.000000
173.207210 32.000000
183.560180 34.000000
185.046550 17.000000
185.102920 18.000000
186.100970 18.000000
187.037830 187.000000
187.338930 17.000000
188.050900 17.000000
188.691480 45.000000
188.824190 18.000000
188.896450 17.000000
189.054720 31419.000000
189.093930 802.000000
189.305450 52.000000
189.656830 19.000000
189.752660 21.000000
190.058870 4024.000000
190.239010 26.000000
190.995000 21.000000
191.039990 30.000000
191.061710 312.000000
191.074260 50.000000
191.299620 18.000000
191.435130 22.000000
191.457870 25.000000
191.603150 17.000000
191.809950 20.000000
192.060330 40.000000
192.207340 17.000000
192.275270 17.000000
192.530500 17.000000
197.060070 22.000000
201.103330 29.000000
203.061160 54.000000
203.075740 242.000000
205.082810 33.000000
205.490950 26.000000
209.098860 29.000000
213.088810 45.000000
214.097990 18.000000
218.844820 25.000000
228.530730 24.000000
234.898500 24.000000
236.223130 20.000000
236.757780 17.000000
244.116060 34.000000
245.018450 20.000000
245.117610 7528.000000
245.159850 94.000000

