>compound PR16411642
>parentmass 481.09766719999993
>ionization [M+H]+
>formula C21H20O13
>rt 278.361000
>profile qtof
#smiles_iso C1=CC(=C(C=C1C2=C(C(=O)C3=C(O2)C(=C(C=C3O)O)O[C@H]4[C@@H]([C@H]([C@@H]([C@H](O4)CO)O)O)O)O)O)O
#smiles_can C1=CC(=C(C=C1C2=C(C(=O)C3=C(O2)C(=C(C=C3O)O)OC4C(C(C(C(O4)CO)O)O)O)O)O)O
#inchikey SJRXVLUZMMDCNG-KKPQBLLMSA-N
#pubchem_id 5281621
#mb_accession PR301899,PR301905,PR301911,PR301917,PR301923,PR301929,PR301935,PR301941,PR301947,PR301953,PR301959,PR301965

>ms2peaks
137.025250 56.000000
180.994510 43.000000
245.032560 63.000000
274.054050 56.000000
319.043520 1000.000000
320.049220 315.000000
330.485900 38.000000
334.291110 38.000000
358.000890 38.000000
461.135410 38.000000
481.088870 153.000000
481.111850 270.000000

>ms2peaks
317.066930 45.000000
440.018370 47.000000
440.034760 62.000000
442.020110 54.000000
479.118650 30.000000
481.054170 29.000000
481.092470 1000.000000
481.130430 61.000000

>ms2peaks
125.017440 35.000000
169.013530 24.000000
245.036930 23.000000
301.035920 43.000000
309.996250 32.000000
319.040280 1000.000000
319.993770 27.000000
320.045470 141.000000
320.065580 37.000000
321.059420 105.000000
333.406190 19.000000
337.946140 28.000000

>ms2peaks
110.030440 199.000000
137.018720 1000.000000
137.028630 298.000000
139.315460 126.000000
153.021840 258.000000
169.012340 543.000000
169.023090 358.000000
172.046800 159.000000
173.007430 192.000000
213.494950 219.000000
217.036450 219.000000
273.009490 192.000000
273.043460 139.000000
274.028410 225.000000
290.031280 132.000000
301.032350 172.000000
319.054050 172.000000
320.054990 377.000000

>ms2peaks
182.016480 105.000000
245.039830 39.000000
318.912080 53.000000
319.015410 39.000000
319.042330 1000.000000
319.069060 55.000000
319.123810 68.000000
320.026920 59.000000
320.044740 144.000000
320.057830 50.000000
370.932340 53.000000
419.982910 78.000000
438.952480 53.000000
481.093480 715.000000
481.114040 139.000000

>ms2peaks
287.057220 21.000000
318.926760 30.000000
319.037080 32.000000
400.986540 13.000000
437.998960 21.000000
481.025970 17.000000
481.100130 1000.000000

>ms2peaks
191.030140 30.000000
239.016680 41.000000
317.044680 48.000000
317.066440 25.000000
319.045440 1000.000000
319.065770 138.000000
320.046300 180.000000
320.061710 90.000000
320.081300 41.000000
321.043880 43.000000

>ms2peaks
112.018680 215.000000
125.022650 165.000000
138.021650 157.000000
138.028170 149.000000
142.030620 223.000000
153.022050 256.000000
154.024920 165.000000
163.041280 446.000000
169.001070 198.000000
169.015790 1000.000000
171.015320 140.000000
186.010380 174.000000
189.051530 256.000000
199.046220 207.000000
263.057010 190.000000
273.023100 248.000000
273.049160 653.000000
273.066280 240.000000
274.029240 174.000000
301.047210 240.000000
306.903350 174.000000
319.045530 587.000000
319.067470 231.000000
320.056760 273.000000

>ms2peaks
171.046430 55.000000
245.047500 65.000000
301.025330 43.000000
319.032840 373.000000
319.043980 1000.000000
320.052000 388.000000
342.984740 50.000000
400.987730 60.000000
481.094880 494.000000
481.108000 401.000000

>ms2peaks
318.069090 40.000000
319.044370 34.000000
320.062040 41.000000
481.104400 1000.000000

>ms2peaks
137.017930 52.000000
146.834900 21.000000
150.026460 17.000000
153.010160 30.000000
192.079960 21.000000
264.067320 19.000000
301.026980 19.000000
318.974580 20.000000
319.011110 20.000000
319.042880 1000.000000
319.068570 58.000000
320.000610 32.000000
320.037960 29.000000
320.056670 45.000000
322.031830 34.000000
342.002990 32.000000

>ms2peaks
93.033890 102.000000
137.016850 87.000000
137.027050 97.000000
138.026870 180.000000
140.009660 136.000000
169.013090 383.000000
175.042420 136.000000
181.031810 155.000000
182.022400 87.000000
210.115510 97.000000
244.035980 199.000000
245.043910 92.000000
245.057970 141.000000
263.034330 107.000000
273.051640 107.000000
302.048980 92.000000
318.953980 117.000000
319.032010 121.000000
319.054380 1000.000000

