>compound PR17054026
>parentmass 517.1341666666667
>ionization [M+H]+
>formula C25H24O12
>rt 336.200000
>profile qtof
#smiles_iso COC1=CC=C(C=C1)C2=COC3=C(C2=O)C=CC(=C3)OC4C(C(C(C(O4)COC(=O)CC(=O)O)O)O)O
#smiles_can COC1=CC=C(C=C1)C2=COC3=C(C2=O)C=CC(=C3)OC4C(C(C(C(O4)COC(=O)CC(=O)O)O)O)O
#inchikey RDTAGQKYPGLCBK-UHFFFAOYSA-N
#pubchem_id 131750877
#mb_accession PR310874,PR310875,PR310876

>ms2peaks
118.607380 30.000000
202.497570 22.000000
214.097290 20.000000
237.046750 21.000000
241.090240 18.000000
253.032960 35.000000
254.046330 22.000000
268.144560 18.000000
269.052640 17.000000
269.080290 1992.000000
269.237000 21.000000
269.909790 29.000000
270.062900 40.000000
270.085850 373.000000
270.650120 18.000000
271.076170 23.000000
271.087950 18.000000
296.591490 26.000000
517.080080 20.000000
517.131770 692.000000
517.149110 176.000000

>ms2peaks
102.034030 29.000000
105.016940 27.000000
171.116730 17.000000
195.088410 31.000000
269.075650 230.000000
269.090300 81.000000
270.069730 63.000000
289.978300 23.000000
517.127010 134.000000
517.304140 29.000000

>ms2peaks
69.037540 16.000000
84.042680 18.000000
85.029590 53.000000
86.033440 21.000000
87.007770 19.000000
97.028610 16.000000
99.044450 19.000000
105.018140 33.000000
109.029410 102.000000
117.013170 17.000000
127.039180 253.000000
128.040500 27.000000
135.038600 32.000000
145.045320 33.000000
145.050750 79.000000
145.060070 16.000000
146.049440 18.000000
155.085720 17.000000
159.024340 16.000000
159.033630 53.000000
160.032330 17.000000
165.067430 16.000000
167.085910 35.000000
184.538790 16.000000
191.664000 28.000000
195.079910 49.000000
195.094280 28.000000
196.083110 17.000000
207.087540 25.000000
208.163330 22.000000
210.054210 24.000000
211.065960 18.000000
211.075470 19.000000
215.150220 16.000000
223.077840 326.000000
224.063830 26.000000
224.072100 39.000000
224.083400 17.000000
225.089020 16.000000
226.069340 19.000000
228.059590 25.000000
231.046800 19.000000
231.052810 46.000000
237.041440 17.000000
239.057910 50.000000
239.070830 134.000000
240.078220 147.000000
241.073150 31.000000
241.081670 35.000000
241.094310 16.000000
242.343090 20.000000
243.359600 18.000000
251.053190 54.000000
251.067340 149.000000
251.075360 162.000000
252.063580 16.000000
252.076160 104.000000
252.089480 17.000000
253.041470 18.000000
253.083020 37.000000
254.057210 206.000000
255.059570 33.000000
256.062410 16.000000
267.059020 151.000000
267.071660 94.000000
268.071410 102.000000
268.085660 32.000000
268.719730 19.000000
269.054990 22.000000
269.082030 5906.000000
270.085210 1097.000000
270.947050 20.000000
271.083560 122.000000
271.096100 93.000000
272.054380 16.000000
272.104680 45.000000
278.129210 16.000000
279.065890 34.000000
280.066130 34.000000
311.101840 20.000000
326.509220 24.000000
332.563840 20.000000
345.227810 26.000000
372.034420 16.000000
376.583400 19.000000
395.107270 17.000000
395.127500 22.000000
410.925140 18.000000
418.834750 26.000000
481.137540 26.000000
499.132690 23.000000
509.159210 18.000000
515.098750 20.000000
515.117310 35.000000
515.131710 20.000000
516.093140 16.000000
516.112370 55.000000
516.145140 18.000000
516.729920 21.000000

