>compound PR17580501
>parentmass 449.1078378999998
>ionization [M+H]+
>formula C21H20O11
>rt 215.439000
>profile qtof
#smiles_iso C1=CC(=C(C=C1C2=CC(=O)C3=C(O2)C=C(C(=C3O)[C@H]4[C@@H]([C@H]([C@@H]([C@H](O4)CO)O)O)O)O)O)O
#smiles_can C1=CC(=C(C=C1C2=CC(=O)C3=C(O2)C=C(C(=C3O)C4C(C(C(C(O4)CO)O)O)O)O)O)O
#inchikey ODBRNZZJSYPIDI-VJXVFPJBSA-N
#pubchem_id 114776
#mb_accession PR301968,PR301970,PR301972,PR301975,PR301978,PR301981,PR301984,PR301987,PR301990,PR301993,PR301996,PR301999,PR303435,PR303437,PR303439,PR303441,PR303443,PR303445,PR303447,PR303449,PR303451,PR303453,PR303455,PR303457

>ms2
103.037570 9.000000
109.025010 5.000000
133.027710 8.000000
137.027250 13.000000
137.032120 7.000000
162.028880 5.000000
163.044130 5.000000
165.019040 34.000000
166.019390 9.000000
175.035680 6.000000
177.022750 12.000000
187.040570 13.000000
188.046510 6.000000
192.059840 5.000000
203.028730 7.000000
212.043460 9.000000
214.553270 8.000000
215.036100 16.000000
229.013900 9.000000
229.035540 6.000000
243.030080 18.000000
243.896320 5.000000
244.036150 8.000000
245.037200 11.000000
245.052610 7.000000
245.084790 5.000000
247.020390 7.000000
250.046430 5.000000
255.072830 7.000000
262.335510 5.000000
265.065120 12.000000
266.259000 5.000000
267.068120 5.000000
269.043850 22.000000
270.060150 11.000000
270.087550 8.000000
271.063840 7.000000
273.029600 8.000000
281.046630 11.000000
282.781680 6.000000
283.039580 6.000000
283.057950 66.000000
285.052760 5.000000
285.070770 7.000000
286.011570 6.000000
286.043980 20.000000
286.053280 14.000000
287.002010 6.000000
287.036960 5.000000
287.053990 29.000000
287.068120 9.000000
288.059390 21.000000
295.083220 12.000000
297.068450 18.000000
297.079560 36.000000
298.077910 11.000000
298.997960 9.000000
299.053380 958.000000
300.062160 164.000000
301.054720 13.000000
301.065060 10.000000
301.080840 7.000000
302.046600 5.000000
302.073180 5.000000
302.345550 6.000000
303.070860 14.000000
309.076810 6.000000
311.048770 56.000000
311.071040 24.000000
311.094390 16.000000
312.048030 9.000000
313.052550 14.000000
313.065400 8.000000
314.083190 7.000000
321.059570 10.000000
321.084380 24.000000
323.075320 7.000000
324.051300 15.000000
324.067170 16.000000
325.032290 11.000000
325.043300 15.000000
325.072810 212.000000
326.052760 12.000000
326.078060 25.000000
327.057680 12.000000
327.077970 9.000000
329.018010 9.000000
329.065520 596.000000
330.058200 73.000000
330.074620 57.000000
331.066890 11.000000
331.088130 5.000000
337.074740 13.000000
339.048580 9.000000
339.074920 60.000000
339.087980 99.000000
339.103360 22.000000
340.034640 6.000000
340.066010 5.000000
340.086850 29.000000
340.108370 10.000000
341.062810 5.000000
341.079410 7.000000
341.097690 8.000000
347.004970 5.000000
347.045590 5.000000
349.069210 23.000000
350.019620 8.000000
350.074130 23.000000
350.087860 9.000000
352.964320 7.000000
353.067660 392.000000
354.069430 65.000000
355.084350 5.000000
360.161870 6.000000
365.030700 12.000000
365.061770 89.000000
365.078460 28.000000
366.076630 53.000000
367.063390 17.000000
367.079380 12.000000
369.083710 7.000000
369.099790 8.000000
377.050960 43.000000
377.066930 37.000000
377.083530 9.000000
378.008150 6.000000
378.040310 6.000000
378.058870 16.000000
378.072630 29.000000
383.079160 207.000000
384.060030 9.000000
384.078830 32.000000
385.085390 6.000000
394.007660 5.000000
394.089050 5.000000
395.067720 95.000000
395.082430 101.000000
396.045140 5.000000
396.085170 19.000000
396.163240 6.000000
396.948120 10.000000
397.082060 21.000000
411.084930 6.000000
413.053990 15.000000
413.085210 167.000000
414.090700 23.000000
415.094820 14.000000
420.332340 5.000000
430.089170 8.000000
430.475220 5.000000
431.058930 9.000000
431.101100 285.000000
432.075130 19.000000
432.095150 53.000000
447.111330 5.000000
448.096010 6.000000
449.054630 6.000000
449.107270 1000.000000

>ms2
299.051120 14.000000
327.047970 5.000000
329.055630 15.000000
329.066740 45.000000
330.068300 5.000000
353.063050 30.000000
383.075350 70.000000
384.075160 14.000000
395.067290 9.000000
395.083160 12.000000
413.074620 9.000000
413.086000 18.000000
413.100920 9.000000
415.090120 5.000000
431.042820 5.000000
431.094270 121.000000
432.079040 6.000000
432.107240 23.000000
433.109250 6.000000
447.086880 6.000000
449.062470 14.000000
449.105410 1000.000000

>ms2
97.030780 5.000000
119.996980 5.000000
137.021100 9.000000
149.026840 7.000000
177.022930 7.000000
187.033800 9.000000
205.118700 6.000000
247.288790 6.000000
258.083860 6.000000
269.007930 6.000000
271.009190 6.000000
283.062070 35.000000
285.073120 5.000000
286.039790 10.000000
286.049100 8.000000
287.048400 16.000000
287.060090 54.000000
288.058350 17.000000
292.083340 7.000000
297.051210 10.000000
297.072080 52.000000
298.033570 6.000000
298.051450 8.000000
298.083370 11.000000
299.026550 22.000000
299.055910 1000.000000
299.952550 5.000000
300.034550 14.000000
300.058070 160.000000
301.051180 7.000000
301.066930 25.000000
301.077790 15.000000
310.056580 5.000000
311.057190 55.000000
311.086030 6.000000
312.048950 8.000000
312.058960 10.000000
312.079440 19.000000
313.010800 10.000000
313.031460 12.000000
313.080320 13.000000
321.069180 20.000000
321.085940 14.000000
322.080080 9.000000
323.060330 18.000000
324.069520 13.000000
325.031100 12.000000
325.043210 22.000000
325.069210 256.000000
326.049620 31.000000
326.074920 50.000000
327.048800 9.000000
328.066860 8.000000
328.994320 6.000000
329.031250 8.000000
329.069490 555.000000
330.045620 14.000000
330.066800 157.000000
331.061190 7.000000
331.072330 6.000000
337.041840 8.000000
337.074040 28.000000
337.088590 6.000000
337.375920 6.000000
338.080290 7.000000
339.027620 16.000000
339.046660 8.000000
339.085050 229.000000
340.064300 6.000000
340.082860 15.000000
340.099000 24.000000
341.076600 9.000000
341.091740 6.000000
342.086150 5.000000
344.065000 5.000000
349.058440 16.000000
349.072450 45.000000
350.083470 15.000000
351.045140 7.000000
352.999600 5.000000
353.038540 15.000000
353.064030 246.000000
354.015590 6.000000
354.057220 15.000000
354.070560 67.000000
354.093900 5.000000
355.078030 8.000000
365.060910 78.000000
365.075650 63.000000
366.067870 22.000000
366.084110 10.000000
367.074430 18.000000
377.052280 36.000000
377.068600 123.000000
378.065830 7.000000
378.084560 11.000000
383.024840 8.000000
395.008450 6.000000
395.056640 12.000000
395.078740 63.000000
396.068420 8.000000
396.082980 21.000000
396.097560 7.000000
413.069060 7.000000
413.088620 10.000000

>ms2
65.019750 11.000000
68.981230 9.000000
75.958000 7.000000
76.023970 10.000000
77.021000 7.000000
77.042480 11.000000
79.054150 9.000000
81.029690 8.000000
81.035100 29.000000
85.029320 11.000000
89.033290 9.000000
89.044460 7.000000
91.055900 44.000000
92.056700 12.000000
95.050190 41.000000
103.053100 22.000000
107.050050 23.000000
108.053980 16.000000
109.027950 97.000000
111.015110 19.000000
115.020580 11.000000
115.051700 10.000000
117.112110 11.000000
119.055530 8.000000
121.016470 13.000000
121.030570 53.000000
121.037090 17.000000
121.056370 10.000000
122.027590 10.000000
123.006600 55.000000
123.017520 14.000000
123.804080 9.000000
124.009200 8.000000
124.022030 11.000000
125.983260 7.000000
128.063100 9.000000
131.047390 19.000000
133.022420 9.000000
133.031280 21.000000
134.033890 9.000000
134.043660 37.000000
135.003050 15.000000
135.025830 13.000000
135.043170 146.000000
136.045590 44.000000
137.010100 14.000000
137.024150 212.000000
139.038510 11.000000
141.074580 8.000000
145.024350 15.000000
147.043790 10.000000
149.019700 156.000000
149.027310 68.000000
150.031680 23.000000
150.037200 7.000000
153.009830 9.000000
153.072630 9.000000
154.651260 8.000000
156.094390 7.000000
157.061190 14.000000
158.033100 8.000000
159.033370 15.000000
159.039170 37.000000
159.869350 8.000000
161.010790 7.000000
161.021060 31.000000
161.026210 79.000000
162.025380 13.000000
162.987590 8.000000
163.036070 134.000000
164.038210 9.000000
164.044860 7.000000
164.823960 13.000000
164.952730 18.000000
165.018220 1000.000000
166.010040 46.000000
166.025670 25.000000
166.182220 7.000000
167.023910 12.000000
168.026730 8.000000
169.027450 16.000000
169.067780 9.000000
170.306670 7.000000
171.043840 12.000000
171.812530 8.000000
172.149640 7.000000
175.037110 27.000000
176.010960 23.000000
176.044830 11.000000
177.017500 40.000000
177.053600 16.000000
178.022670 26.000000
178.078110 12.000000
178.995940 19.000000
179.011370 13.000000
179.033080 30.000000
179.041150 16.000000
180.029910 29.000000
181.065370 11.000000
182.198300 7.000000
187.036850 50.000000
188.977400 8.000000
189.012440 24.000000
189.022930 23.000000
190.025330 26.000000
190.983050 24.000000
191.007970 8.000000
191.028530 28.000000
191.042590 16.000000
191.092970 11.000000
192.009110 10.000000
195.027300 19.000000
195.082790 11.000000
201.054790 14.000000
202.017930 14.000000
203.036160 42.000000
205.009190 8.000000
205.046230 27.000000
207.079730 11.000000
209.021010 9.000000
212.047390 11.000000
213.085330 13.000000
215.031450 40.000000
216.033720 8.000000
216.050540 9.000000
217.009230 12.000000
219.075790 7.000000
222.078550 11.000000
225.500810 12.000000
226.063310 8.000000
226.986800 13.000000
227.054440 17.000000
229.017290 9.000000
229.052220 7.000000
231.067870 8.000000
233.066100 9.000000
234.065580 20.000000
239.423710 7.000000
240.070770 9.000000
241.040360 19.000000
241.434680 8.000000
243.033370 32.000000
243.058520 9.000000
243.068390 9.000000
244.019970 9.000000
244.060100 14.000000
244.083020 14.000000
245.023680 13.000000
245.046490 54.000000
247.017720 16.000000
247.069060 9.000000
251.075200 22.000000
254.061200 40.000000
254.962920 19.000000
255.062940 35.000000
256.350280 15.000000
258.052670 52.000000
258.082090 11.000000
259.060030 7.000000
259.498840 9.000000
263.077030 17.000000
264.925570 9.000000
265.078980 11.000000
265.534610 22.000000
268.031370 14.000000
268.063750 10.000000
268.080170 10.000000
269.027800 10.000000
269.048000 9.000000
270.015620 9.000000
270.045810 12.000000
270.061710 31.000000
271.056700 16.000000
272.061220 14.000000
272.072330 19.000000
273.080960 23.000000
282.043520 7.000000
283.053740 114.000000
283.065920 53.000000
283.994600 7.000000
284.056920 25.000000
285.032810 22.000000
285.047150 26.000000
286.037380 39.000000
286.052400 61.000000
287.051210 51.000000
287.065520 12.000000
291.061130 7.000000
293.048400 7.000000
295.035980 28.000000
295.068050 64.000000
296.055660 19.000000
296.075560 11.000000
297.046050 13.000000
297.074340 104.000000
297.098270 10.000000
297.118500 8.000000
298.067050 19.000000
299.012940 18.000000
299.032350 61.000000
299.053560 400.000000
299.072660 83.000000
300.044400 42.000000
300.064820 147.000000
300.081670 10.000000
301.048340 9.000000
301.063810 27.000000
301.735380 8.000000
302.069890 7.000000
302.130740 11.000000
309.080440 8.000000
310.052860 19.000000
310.075100 7.000000
310.846040 8.000000
311.044220 21.000000
311.059140 74.000000
311.102260 9.000000
311.695950 8.000000
312.062380 34.000000
312.087800 9.000000
313.029050 12.000000
313.043980 26.000000
313.080930 35.000000
316.039340 10.000000
320.070590 24.000000
322.085750 20.000000
323.034520 8.000000
323.050540 10.000000
324.059270 28.000000
324.079530 8.000000
325.015530 9.000000
325.072810 101.000000
325.091090 29.000000
325.104310 7.000000
326.070470 7.000000
326.085330 40.000000
326.791050 13.000000
329.056730 36.000000
329.073000 44.000000
330.080020 8.000000
337.059230 18.000000
337.077210 16.000000
338.070500 28.000000
339.084590 8.000000
339.099580 12.000000
347.052060 10.000000
349.084350 8.000000
352.057250 9.000000
360.340700 16.000000
363.045380 7.000000
365.076050 11.000000
377.042050 8.000000
393.381470 9.000000
415.489870 7.000000

>ms2
110.030370 7.000000
135.045490 5.000000
137.018010 12.000000
137.029910 5.000000
151.035520 6.000000
161.027450 18.000000
162.999980 5.000000
163.035390 5.000000
163.044220 6.000000
164.994490 6.000000
165.016270 27.000000
166.028930 10.000000
186.027790 7.000000
189.010670 7.000000
195.029920 7.000000
201.013520 5.000000
203.032040 9.000000
205.053390 13.000000
208.481080 9.000000
215.032810 20.000000
237.085110 5.000000
243.029170 20.000000
246.044280 6.000000
247.010770 5.000000
253.083480 6.000000
255.044720 7.000000
255.071980 11.000000
258.057500 7.000000
267.613130 5.000000
270.059200 6.000000
272.070190 6.000000
282.046170 8.000000
282.985170 6.000000
283.050750 31.000000
283.065950 31.000000
284.063570 13.000000
284.080470 12.000000
287.037960 7.000000
287.053920 31.000000
287.062770 10.000000
288.059300 10.000000
296.070470 16.000000
297.073670 55.000000
298.070950 6.000000
299.001500 10.000000
299.018920 26.000000
299.056700 863.000000
300.060390 239.000000
301.062870 22.000000
309.070100 9.000000
311.034940 22.000000
311.057340 60.000000
311.092650 23.000000
312.062380 17.000000
312.996520 5.000000
313.017970 5.000000
313.039890 12.000000
313.068940 20.000000
315.038120 6.000000
322.064510 6.000000
322.079590 11.000000
323.050020 9.000000
323.069430 7.000000
323.672520 7.000000
324.027740 6.000000
324.056210 15.000000
324.067900 15.000000
325.028560 28.000000
325.072630 183.000000
326.061100 15.000000
326.075230 57.000000
327.051910 8.000000
327.078950 6.000000
329.026280 8.000000
329.065000 644.000000
330.006290 6.000000
330.044430 13.000000
330.070530 102.000000
332.055450 7.000000
337.061220 17.000000
337.087190 10.000000
339.043000 7.000000
339.069920 18.000000
339.090060 138.000000
339.486330 8.000000
340.081510 15.000000
340.093660 27.000000
341.090150 8.000000
349.079770 23.000000
350.079560 10.000000
351.032870 6.000000
353.003050 6.000000
353.034330 14.000000
353.064580 332.000000
353.100400 6.000000
354.067930 76.000000
358.554530 5.000000
365.057830 51.000000
365.069430 109.000000
366.066070 10.000000
366.083070 13.000000
367.077880 10.000000
377.026090 8.000000
377.065310 103.000000
377.091580 13.000000
378.061610 39.000000
378.088170 8.000000
379.070430 7.000000
383.075740 188.000000
384.065120 19.000000
384.077240 23.000000
386.089940 6.000000
395.032350 7.000000
395.060730 65.000000
395.081150 118.000000
396.071590 18.000000
396.088620 44.000000
411.048340 5.000000
412.573700 6.000000
413.019290 6.000000
413.085970 202.000000
414.065640 11.000000
414.083040 22.000000
414.095610 18.000000
431.061490 5.000000
431.095060 179.000000
431.108730 68.000000
431.560970 6.000000
432.097470 42.000000
432.111690 25.000000
433.092070 20.000000
437.641630 7.000000
447.099730 5.000000
448.106630 5.000000
448.952390 6.000000
449.054690 22.000000
449.107360 1000.000000

>ms2
299.051300 10.000000
329.051150 8.000000
329.069640 37.000000
330.072270 8.000000
353.065890 39.000000
354.076260 6.000000
383.081240 52.000000
383.099580 11.000000
384.076630 11.000000
384.094390 7.000000
395.082980 15.000000
413.084050 27.000000
413.102840 11.000000
414.092380 9.000000
431.061800 8.000000
431.098660 98.000000
432.092830 20.000000
432.114470 18.000000
433.097690 5.000000
447.079010 8.000000
448.099120 7.000000
449.051060 8.000000
449.108180 1000.000000
449.170620 6.000000

>ms2
103.039150 5.000000
109.025430 9.000000
137.026080 6.000000
163.042650 8.000000
178.024780 7.000000
203.032810 8.000000
230.045550 6.000000
243.030460 10.000000
243.038680 7.000000
257.057830 6.000000
283.062740 38.000000
284.057220 10.000000
286.037510 7.000000
286.049530 22.000000
287.056400 46.000000
288.060360 11.000000
297.075200 43.000000
298.089570 13.000000
298.549900 6.000000
298.987880 10.000000
299.014070 17.000000
299.055970 1000.000000
300.027370 17.000000
300.050870 79.000000
300.064580 84.000000
300.088200 7.000000
301.023560 5.000000
301.067630 17.000000
308.559970 6.000000
309.085170 8.000000
311.054570 69.000000
311.088230 7.000000
311.103390 10.000000
312.093510 7.000000
313.058720 10.000000
313.074310 11.000000
313.087400 5.000000
315.082400 7.000000
322.074400 9.000000
323.060420 6.000000
324.052800 15.000000
324.062870 7.000000
325.033200 35.000000
325.070980 270.000000
326.052310 7.000000
326.081360 37.000000
327.052060 6.000000
328.956880 6.000000
329.031560 18.000000
329.065220 537.000000
329.937590 5.000000
330.065250 60.000000
330.082310 40.000000
331.056150 10.000000
331.071170 6.000000
337.051670 6.000000
337.081120 19.000000
339.052000 17.000000
339.085880 240.000000
340.066960 14.000000
340.091980 12.000000
341.088930 7.000000
342.086240 6.000000
347.053710 15.000000
349.043370 9.000000
349.064970 30.000000
350.072140 6.000000
351.045320 5.000000
352.076480 9.000000
353.048430 38.000000
353.067780 227.000000
354.071960 46.000000
365.004550 6.000000
365.058170 57.000000
365.076480 49.000000
366.048100 9.000000
366.069240 39.000000
366.087950 15.000000
367.060970 13.000000
367.082340 37.000000
368.096560 9.000000
377.006990 6.000000
377.025240 7.000000
377.064450 75.000000
377.086090 22.000000
378.053250 9.000000
378.071900 16.000000
378.082210 6.000000
379.061400 6.000000
379.084140 7.000000
383.067780 15.000000
395.071290 33.000000
395.089450 21.000000
396.069730 20.000000
396.081570 10.000000
413.077180 21.000000
415.087770 5.000000

>ms2
51.332450 12.000000
55.016530 8.000000
55.019820 11.000000
58.711350 7.000000
65.039630 15.000000
67.023700 17.000000
75.212750 7.000000
81.031160 7.000000
85.032300 13.000000
89.207730 8.000000
92.058990 17.000000
92.993030 9.000000
95.045750 8.000000
96.051440 9.000000
103.040760 11.000000
103.049960 9.000000
105.036940 17.000000
107.056120 10.000000
108.014500 16.000000
109.025490 36.000000
109.033330 30.000000
109.065100 24.000000
111.037940 8.000000
115.055580 20.000000
119.047370 22.000000
119.053440 14.000000
121.019590 15.000000
121.030670 50.000000
123.006590 102.000000
123.047230 7.000000
124.007890 10.000000
125.010710 8.000000
131.049040 16.000000
133.027450 17.000000
133.036760 7.000000
134.039960 18.000000
134.995820 13.000000
135.043780 173.000000
136.050520 14.000000
137.023760 318.000000
138.033110 45.000000
143.076980 17.000000
144.055300 9.000000
145.025570 19.000000
146.028630 10.000000
147.039440 12.000000
147.044800 8.000000
148.046600 13.000000
149.022400 99.000000
149.031720 18.000000
150.018200 14.000000
150.029690 8.000000
150.052460 15.000000
153.000490 31.000000
153.029750 12.000000
155.038990 10.000000
158.041730 12.000000
159.041200 20.000000
160.019320 11.000000
160.038890 7.000000
160.055950 10.000000
161.018420 31.000000
161.028120 19.000000
161.045030 17.000000
161.070140 13.000000
162.028380 12.000000
163.029450 53.000000
163.040280 56.000000
164.040370 13.000000
164.998050 14.000000
165.018360 1000.000000
165.039810 9.000000
165.075790 14.000000
166.001850 12.000000
166.020220 87.000000
167.032440 15.000000
167.069200 11.000000
167.081470 10.000000
171.047910 12.000000
172.127850 7.000000
173.022090 25.000000
173.068540 9.000000
175.041670 24.000000
175.059570 13.000000
177.020740 69.000000
177.070050 7.000000
178.367710 7.000000
179.001270 52.000000
179.032810 21.000000
181.059390 12.000000
183.047530 9.000000
185.460300 7.000000
187.034670 27.000000
187.046160 14.000000
187.194310 9.000000
188.044860 16.000000
188.803890 7.000000
188.914410 16.000000
189.002030 8.000000
189.015380 53.000000
189.028060 7.000000
189.054020 11.000000
189.208530 8.000000
190.016850 22.000000
190.784880 8.000000
190.974270 7.000000
191.004730 13.000000
191.026810 65.000000
191.040070 43.000000
194.148960 7.000000
195.030040 24.000000
195.319350 9.000000
197.057820 31.000000
198.063030 7.000000
199.075210 14.000000
199.086650 14.000000
200.038090 9.000000
200.063000 14.000000
201.860060 7.000000
202.045470 8.000000
202.059830 8.000000
203.036620 44.000000
203.088150 9.000000
204.039170 21.000000
205.048460 28.000000
205.064060 10.000000
208.055710 15.000000
211.068120 18.000000
213.096500 15.000000
215.020860 7.000000
215.041700 22.000000
215.051420 16.000000
216.035870 20.000000
216.067060 8.000000
219.022920 10.000000
219.036100 25.000000
219.050600 9.000000
226.066850 7.000000
227.042560 16.000000
229.042250 13.000000
231.016140 13.000000
231.030790 17.000000
231.059390 7.000000
237.060820 23.000000
241.045350 16.000000
241.056670 12.000000
242.013630 9.000000
243.026860 24.000000
243.070800 8.000000
244.029340 36.000000
245.044370 27.000000
245.053630 27.000000
247.065950 7.000000
248.402530 7.000000
249.080920 10.000000
251.068050 7.000000
252.521680 7.000000
253.022660 7.000000
255.051390 8.000000
255.071110 8.000000
257.054440 8.000000
257.072110 9.000000
258.058500 47.000000
263.073120 8.000000
265.037050 10.000000
265.077480 8.000000
269.038390 15.000000
270.039370 7.000000
270.049590 7.000000
270.719480 19.000000
271.012300 19.000000
271.049040 24.000000
271.060940 51.000000
272.048920 16.000000
272.065770 51.000000
276.316310 7.000000
281.046360 8.000000
282.044890 24.000000
282.059170 11.000000
282.086030 11.000000
283.057800 180.000000
283.078950 20.000000
284.050080 14.000000
284.062590 37.000000
285.040370 9.000000
286.033910 48.000000
287.053560 51.000000
287.699010 7.000000
288.047060 7.000000
289.061950 8.000000
293.042850 10.000000
293.067140 8.000000
293.079860 15.000000
295.032810 9.000000
295.051390 48.000000
295.067320 54.000000
296.840390 10.000000
297.043850 18.000000
297.064360 25.000000
297.078400 70.000000
298.069430 15.000000
298.080780 26.000000
298.872680 8.000000
299.021450 14.000000
299.048430 284.000000
299.063170 289.000000
299.246860 7.000000
300.038570 20.000000
300.060240 202.000000
300.074580 83.000000
301.032810 7.000000
301.055270 12.000000
301.068050 20.000000
301.107180 11.000000
302.084960 14.000000
305.083500 31.000000
305.093050 9.000000
307.073820 11.000000
309.030240 15.000000
310.041870 8.000000
310.315120 13.000000
310.769260 10.000000
311.030120 10.000000
311.039860 20.000000
311.055970 75.000000
311.088900 24.000000
311.105220 13.000000
312.052280 21.000000
312.419680 11.000000
313.050510 18.000000
313.079410 18.000000
321.036650 19.000000
321.077300 11.000000
323.040890 7.000000
323.063690 13.000000
323.080170 10.000000
324.052310 9.000000
324.074550 32.000000
325.038450 7.000000
325.066620 24.000000
325.077510 31.000000
326.068240 16.000000
326.095730 10.000000
327.070710 8.000000
329.060360 7.000000
329.078920 25.000000
330.079190 8.000000
336.032230 16.000000
337.055420 17.000000
337.074580 14.000000
338.037660 8.000000
338.078250 8.000000
339.025670 11.000000
339.080510 8.000000
339.096620 17.000000
339.819640 7.000000
341.071900 8.000000
349.054320 7.000000
349.070920 26.000000
378.060240 14.000000
397.699280 20.000000
424.352200 12.000000
444.929720 8.000000
449.107790 11.000000

>ms2
85.033390 12.000000
112.980040 5.000000
135.045550 9.000000
137.017750 7.000000
145.025480 13.000000
149.141780 6.000000
163.029680 6.000000
163.046330 7.000000
165.013140 10.000000
165.019740 13.000000
166.017360 6.000000
175.038500 6.000000
177.012080 21.000000
177.028230 5.000000
179.024260 10.000000
181.034500 7.000000
189.124070 5.000000
190.993230 11.000000
191.007110 7.000000
191.029130 15.000000
191.380950 9.000000
197.060100 7.000000
212.081190 6.000000
213.015230 8.000000
215.035780 13.000000
231.036350 11.000000
245.038880 7.000000
246.030840 5.000000
246.060620 7.000000
255.051130 7.000000
261.028500 9.000000
266.476320 6.000000
266.556370 6.000000
269.042940 6.000000
270.019440 5.000000
271.051540 6.000000
272.417820 5.000000
274.043060 6.000000
283.024540 11.000000
283.055690 50.000000
284.056370 10.000000
286.042600 7.000000
287.056610 46.000000
288.049840 5.000000
293.295530 5.000000
297.044250 12.000000
297.077670 26.000000
297.097290 5.000000
298.080380 11.000000
298.974950 5.000000
299.054290 797.000000
300.025540 6.000000
300.037840 13.000000
300.053130 77.000000
300.065730 76.000000
301.054530 12.000000
301.071690 20.000000
307.065610 5.000000
309.340850 7.000000
311.020320 5.000000
311.049260 60.000000
311.067570 50.000000
311.099240 8.000000
313.063960 9.000000
313.084810 6.000000
314.086460 9.000000
321.067320 11.000000
321.083980 20.000000
323.088170 11.000000
324.059600 32.000000
324.997130 5.000000
325.059600 59.000000
325.075680 99.000000
325.096980 8.000000
326.016600 5.000000
326.068080 8.000000
326.087100 15.000000
326.149630 5.000000
327.051090 7.000000
327.064270 7.000000
329.062990 435.000000
329.074860 161.000000
330.062440 38.000000
330.074680 101.000000
331.063930 7.000000
331.078860 20.000000
336.065460 10.000000
337.061980 21.000000
338.077060 25.000000
339.071660 38.000000
339.089940 116.000000
340.078250 10.000000
340.092190 20.000000
345.460050 9.000000
349.058930 10.000000
349.075320 29.000000
350.069670 8.000000
351.049130 6.000000
351.097320 6.000000
353.013890 6.000000
353.064910 262.000000
354.023530 5.000000
354.063450 44.000000
354.077850 29.000000
355.074130 6.000000
364.997440 6.000000
365.023650 9.000000
365.065830 117.000000
366.043850 7.000000
366.060550 13.000000
367.047790 6.000000
367.077480 15.000000
367.093260 5.000000
375.043820 6.000000
377.038910 14.000000
377.068940 125.000000
378.062470 18.000000
379.067050 6.000000
383.049100 27.000000
383.066740 121.000000
383.081570 92.000000
384.074740 86.000000
385.079590 20.000000
395.044070 6.000000
395.074070 150.000000
396.039890 13.000000
396.080840 26.000000
411.075870 13.000000
413.069980 31.000000
413.088440 183.000000
414.058530 8.000000
414.077640 18.000000
414.099090 6.000000
415.492490 5.000000
417.098570 5.000000
431.093690 226.000000
431.106450 92.000000
431.982450 5.000000
432.085330 22.000000
432.102630 32.000000
432.115910 14.000000
433.096860 9.000000
433.120670 6.000000
447.078370 6.000000
447.100310 20.000000
449.057860 12.000000
449.106110 1000.000000
449.174870 6.000000

>ms2
299.054410 12.000000
329.062010 31.000000
329.073880 19.000000
353.063020 18.000000
353.080290 5.000000
354.061430 6.000000
383.058170 12.000000
383.071530 40.000000
383.086940 18.000000
384.075780 8.000000
385.098910 6.000000
395.063780 6.000000
413.080960 22.000000
414.087400 5.000000
431.098480 100.000000
432.085170 10.000000
432.105320 19.000000
449.062040 8.000000
449.105380 1000.000000

>ms2
85.031680 8.000000
137.019290 11.000000
165.011980 24.000000
165.021070 6.000000
167.034090 6.000000
175.027880 10.000000
188.204360 5.000000
189.006940 8.000000
189.018250 5.000000
210.416630 5.000000
215.027160 10.000000
220.030700 7.000000
242.245530 7.000000
243.084700 6.000000
254.075590 7.000000
269.049320 11.000000
282.065950 6.000000
283.052370 10.000000
283.060150 17.000000
284.058320 11.000000
286.021510 6.000000
286.036710 12.000000
286.058560 7.000000
287.053890 62.000000
287.068570 20.000000
288.056920 15.000000
296.077240 5.000000
297.050690 11.000000
297.067780 15.000000
297.086980 14.000000
298.084290 7.000000
298.173370 6.000000
299.024140 28.000000
299.056760 1000.000000
300.001710 5.000000
300.048800 55.000000
300.061830 182.000000
301.063420 50.000000
302.108340 7.000000
311.035160 10.000000
311.054530 76.000000
311.064850 28.000000
312.057950 18.000000
313.028810 12.000000
313.057130 9.000000
313.081880 20.000000
314.043490 12.000000
321.071170 35.000000
321.091310 5.000000
323.051390 18.000000
324.041410 7.000000
324.051640 8.000000
324.068790 18.000000
325.015690 10.000000
325.032170 21.000000
325.046330 32.000000
325.074100 167.000000
326.071010 28.000000
326.086430 12.000000
327.039830 8.000000
327.056000 15.000000
327.073970 17.000000
328.072600 6.000000
329.004670 10.000000
329.021150 9.000000
329.066770 692.000000
330.045260 12.000000
330.069920 102.000000
331.061610 13.000000
331.071900 15.000000
335.062810 6.000000
337.061860 13.000000
337.079620 10.000000
338.056370 6.000000
339.033420 11.000000
339.075780 78.000000
339.092680 140.000000
339.102840 49.000000
340.069120 18.000000
340.092290 26.000000
340.107640 19.000000
341.082760 21.000000
341.097750 13.000000
349.058200 25.000000
349.074770 40.000000
350.066930 11.000000
351.052340 14.000000
351.073760 5.000000
353.006160 7.000000
353.028720 7.000000
353.057280 119.000000
353.076750 83.000000
354.066130 24.000000
354.094210 11.000000
365.031460 11.000000
365.071990 103.000000
366.068850 22.000000
366.080290 11.000000
367.066190 6.000000
367.080540 11.000000
368.083680 6.000000
377.048490 21.000000
377.069150 193.000000
378.069950 34.000000
383.074620 8.000000
395.057920 20.000000
395.079010 41.000000
395.095030 28.000000
396.080170 13.000000
397.064790 8.000000
397.081540 7.000000
413.083370 10.000000

>ms2
57.974430 11.000000
61.032270 10.000000
73.024060 14.000000
81.038730 8.000000
81.062910 14.000000
85.023700 24.000000
89.040830 13.000000
91.041080 8.000000
91.050380 21.000000
91.054570 9.000000
93.031260 8.000000
95.053460 10.000000
103.032260 9.000000
105.003450 8.000000
105.034120 9.000000
107.010990 22.000000
109.017450 20.000000
109.031060 32.000000
113.295290 10.000000
115.055690 10.000000
117.068500 11.000000
118.039300 10.000000
119.051290 8.000000
121.025280 50.000000
123.009150 41.000000
124.004620 13.000000
124.009890 12.000000
130.996120 9.000000
135.009290 16.000000
135.045320 109.000000
135.261890 15.000000
136.039790 16.000000
136.048460 16.000000
137.023590 193.000000
138.024050 19.000000
138.029560 23.000000
138.054700 14.000000
138.158890 7.000000
145.025300 34.000000
146.040880 9.000000
147.012600 8.000000
147.035480 16.000000
147.043500 16.000000
149.022810 148.000000
149.062740 8.000000
153.011760 22.000000
159.038220 13.000000
159.044630 22.000000
159.051330 13.000000
160.054210 8.000000
160.995480 9.000000
161.018740 44.000000
161.027480 90.000000
161.037900 12.000000
162.998200 16.000000
163.006010 23.000000
163.041210 145.000000
164.042280 10.000000
164.797960 10.000000
164.986980 10.000000
165.002380 34.000000
165.019100 1000.000000
165.069440 10.000000
166.011440 19.000000
166.025010 84.000000
166.567720 9.000000
167.016630 11.000000
167.031570 22.000000
168.089800 16.000000
171.045840 28.000000
173.023860 73.000000
174.032300 9.000000
174.383320 8.000000
175.041000 50.000000
176.001460 7.000000
176.977250 8.000000
176.996520 14.000000
177.013850 32.000000
177.023360 15.000000
177.050990 13.000000
178.029040 8.000000
179.016940 19.000000
179.032760 36.000000
179.044740 11.000000
181.061980 14.000000
186.071060 10.000000
187.039050 103.000000
187.727780 9.000000
188.991560 12.000000
189.015870 12.000000
189.025480 30.000000
189.636310 10.000000
190.010150 10.000000
190.996860 10.000000
191.007250 24.000000
191.035770 45.000000
191.049450 28.000000
193.061160 10.000000
195.084790 9.000000
197.649750 20.000000
199.043230 10.000000
199.062960 13.000000
201.045900 9.000000
202.039290 7.000000
202.337660 8.000000
203.028750 27.000000
203.039370 44.000000
204.375870 7.000000
205.005720 15.000000
205.039930 31.000000
205.057430 8.000000
206.989690 8.000000
209.056400 10.000000
215.024340 29.000000
215.034650 36.000000
215.059830 10.000000
215.069380 9.000000
216.045910 8.000000
216.054660 8.000000
217.027860 14.000000
217.550670 11.000000
217.962920 12.000000
218.056630 9.000000
219.032760 18.000000
222.034410 13.000000
223.069920 8.000000
226.066150 13.000000
227.067920 8.000000
229.046800 8.000000
231.065800 11.000000
239.076290 8.000000
240.069920 16.000000
241.053040 8.000000
243.030120 25.000000
243.045880 19.000000
243.064320 26.000000
244.139650 11.000000
245.046400 48.000000
246.060100 12.000000
249.064210 7.000000
251.031620 14.000000
251.052540 10.000000
254.033600 9.000000
255.065990 38.000000
256.068390 16.000000
258.047090 21.000000
258.064000 34.000000
258.540160 7.000000
261.045750 11.000000
262.638550 12.000000
264.908170 8.000000
265.039950 9.000000
265.088710 10.000000
268.037990 12.000000
269.045870 11.000000
270.002380 7.000000
270.074130 8.000000
270.365750 14.000000
271.058650 21.000000
272.062010 36.000000
272.074860 24.000000
273.067410 10.000000
276.052340 10.000000
277.934970 8.000000
279.061490 17.000000
281.050510 10.000000
282.049440 7.000000
282.060180 14.000000
282.999080 11.000000
283.050600 32.000000
283.062440 152.000000
283.077090 70.000000
283.086580 21.000000
283.155430 29.000000
284.077940 9.000000
285.033570 11.000000
285.065250 10.000000
286.021330 8.000000
286.053160 29.000000
286.064820 24.000000
287.023250 7.000000
287.063200 29.000000
293.039980 15.000000
293.082640 8.000000
294.332340 8.000000
295.041660 8.000000
295.064120 106.000000
295.083560 8.000000
296.054470 8.000000
297.075130 135.000000
297.088440 46.000000
298.071840 9.000000
298.092830 16.000000
299.041200 114.000000
299.058010 513.000000
300.004300 8.000000
300.061830 260.000000
300.090480 42.000000
301.070830 30.000000
302.059840 10.000000
307.397280 12.000000
309.062160 20.000000
309.087950 11.000000
310.044680 9.000000
311.021300 15.000000
311.040740 15.000000
311.051390 27.000000
311.062380 40.000000
311.081820 13.000000
312.048250 10.000000
313.029630 8.000000
313.050350 37.000000
313.075320 33.000000
315.051090 8.000000
321.076900 47.000000
322.181550 8.000000
323.057340 38.000000
324.043060 42.000000
324.064820 31.000000
325.054470 20.000000
325.072510 120.000000
326.065220 21.000000
326.081730 14.000000
327.059300 8.000000
327.094120 19.000000
327.102720 9.000000
329.063600 11.000000
329.075160 13.000000
330.070220 21.000000
335.073120 11.000000
336.060670 16.000000
336.076390 10.000000
337.064330 24.000000
337.081700 11.000000
339.077270 21.000000
340.029390 7.000000
347.046660 8.000000
365.042420 8.000000
377.065700 13.000000
404.006130 13.000000
421.006200 8.000000
444.702760 7.000000
447.083400 9.000000

>ms2
109.029000 15.000000
135.046130 9.000000
137.016860 13.000000
137.024900 52.000000
138.019200 9.000000
149.022920 14.000000
161.025760 22.000000
163.037870 23.000000
164.040530 13.000000
165.010680 11.000000
165.019420 11.000000
166.026460 15.000000
174.504260 11.000000
177.014070 28.000000
179.998960 10.000000
180.443150 11.000000
187.042280 15.000000
188.042680 17.000000
192.038790 18.000000
204.029510 9.000000
213.055650 14.000000
216.990220 15.000000
222.534880 9.000000
229.033910 12.000000
241.686940 17.000000
242.242070 21.000000
243.024480 9.000000
245.047790 14.000000
248.249600 9.000000
249.999070 10.000000
254.040220 13.000000
256.062130 11.000000
258.054320 12.000000
259.898380 10.000000
270.030330 16.000000
270.043670 16.000000
270.063900 23.000000
271.034030 9.000000
272.064640 11.000000
272.079990 16.000000
272.537660 29.000000
283.056730 31.000000
283.067990 53.000000
284.012760 9.000000
284.071290 45.000000
284.532230 12.000000
285.079250 28.000000
287.053380 56.000000
288.044560 15.000000
288.070160 13.000000
291.348140 16.000000
293.171840 13.000000
295.642180 10.000000
297.073790 22.000000
297.084410 25.000000
298.049620 15.000000
298.076020 28.000000
298.090700 23.000000
299.019500 14.000000
299.054020 941.000000
299.225920 9.000000
300.034390 34.000000
300.059600 295.000000
301.033420 16.000000
301.057280 111.000000
301.072270 36.000000
301.373660 9.000000
302.072080 15.000000
311.014070 9.000000
311.052430 59.000000
311.070530 38.000000
311.083560 10.000000
311.376680 11.000000
312.048580 11.000000
312.060390 49.000000
313.041050 9.000000
324.056120 30.000000
324.069700 21.000000
324.704220 30.000000
325.064360 196.000000
325.091160 10.000000
326.068730 23.000000
327.049410 10.000000
327.079250 10.000000
328.051540 33.000000
329.040340 52.000000
329.066190 474.000000
330.055050 39.000000
330.073850 290.000000
331.052400 10.000000
331.062810 11.000000
331.079380 42.000000
332.079770 14.000000
336.053280 15.000000
338.079680 10.000000
339.078770 55.000000
339.093410 71.000000
339.124820 9.000000
340.065980 20.000000
340.094850 73.000000
342.090450 9.000000
350.075350 23.000000
352.258210 10.000000
353.066770 341.000000
353.087620 33.000000
354.043270 10.000000
354.069400 122.000000
355.067750 21.000000
355.080050 26.000000
356.065730 11.000000
365.058230 24.000000
365.077120 9.000000
366.063930 33.000000
366.078670 18.000000
367.046570 9.000000
367.083100 29.000000
367.099610 12.000000
368.078550 28.000000
368.297700 10.000000
370.074550 10.000000
376.050630 12.000000
376.265350 19.000000
377.058410 26.000000
377.070220 77.000000
378.067140 28.000000
380.053070 19.000000
382.060730 29.000000
383.057130 28.000000
383.074860 105.000000
383.231020 9.000000
384.071140 69.000000
384.089840 74.000000
385.085420 18.000000
386.271510 12.000000
395.071660 112.000000
395.098790 24.000000
396.060180 12.000000
396.080570 119.000000
397.083710 10.000000
397.096950 14.000000
399.062500 11.000000
409.991360 12.000000
413.046540 12.000000
413.075380 105.000000
413.109190 11.000000
414.087490 35.000000
414.106410 42.000000
415.087950 18.000000
416.063720 9.000000
423.785000 10.000000
429.090030 16.000000
431.089660 144.000000
431.105870 149.000000
431.115780 56.000000
432.070650 24.000000
432.094090 81.000000
432.155760 10.000000
433.115630 75.000000
433.155850 19.000000
433.934570 9.000000
434.122740 10.000000
448.096370 20.000000
449.067080 12.000000
449.106480 1000.000000

>ms2
328.064880 6.000000
329.069610 36.000000
330.068760 26.000000
331.075650 5.000000
332.082370 9.000000
353.062470 50.000000
354.073000 35.000000
355.076140 7.000000
382.070830 11.000000
383.048430 8.000000
383.079830 64.000000
384.074740 20.000000
384.089840 9.000000
385.074310 7.000000
395.074370 15.000000
396.069980 6.000000
397.094300 6.000000
412.082790 9.000000
413.080840 51.000000
414.089630 12.000000
431.062710 11.000000
431.097530 152.000000
432.100040 46.000000
432.117310 18.000000
433.101230 23.000000
433.117920 6.000000
434.122160 5.000000
441.949490 6.000000
447.092860 8.000000
448.068910 9.000000
448.091370 32.000000
448.110200 19.000000
448.129000 9.000000
448.156920 6.000000
449.053990 5.000000
449.108980 1000.000000

>ms2
57.033860 9.000000
81.035050 15.000000
85.029230 6.000000
87.047700 9.000000
149.023210 8.000000
150.021330 17.000000
165.010010 7.000000
165.023250 29.000000
166.026790 7.000000
179.034850 8.000000
192.034960 11.000000
202.058870 7.000000
211.965030 6.000000
216.036300 6.000000
226.046460 13.000000
242.506450 8.000000
243.022020 11.000000
244.031220 7.000000
249.773700 10.000000
255.066970 10.000000
269.044310 20.000000
269.077790 8.000000
270.048680 23.000000
272.069980 9.000000
281.029630 12.000000
283.053770 30.000000
283.068210 48.000000
284.049380 8.000000
284.068510 28.000000
286.040440 17.000000
286.051270 9.000000
287.016170 8.000000
287.039980 20.000000
287.052860 77.000000
287.068420 64.000000
288.063720 42.000000
288.085690 6.000000
293.079590 7.000000
295.059360 10.000000
297.039250 8.000000
297.077970 42.000000
298.049350 38.000000
298.082030 14.000000
299.015440 8.000000
299.054900 1000.000000
299.999300 23.000000
300.061070 532.000000
301.041900 18.000000
301.063020 66.000000
302.019680 11.000000
309.054350 16.000000
309.083530 10.000000
310.041350 19.000000
311.057310 40.000000
311.090180 7.000000
311.860260 6.000000
312.040650 32.000000
312.063080 19.000000
312.077330 17.000000
312.401370 7.000000
313.061430 39.000000
314.032500 8.000000
314.071010 12.000000
315.522340 8.000000
321.058530 6.000000
321.074650 25.000000
321.102360 9.000000
321.880220 13.000000
323.054930 23.000000
324.053010 7.000000
324.069060 19.000000
325.025090 16.000000
325.040800 11.000000
325.069850 174.000000
325.094790 22.000000
326.056640 6.000000
326.073300 90.000000
326.086520 35.000000
327.096010 7.000000
328.047090 8.000000
328.056950 7.000000
328.563390 7.000000
329.008240 7.000000
329.063630 525.000000
329.238430 7.000000
330.018860 7.000000
330.041750 19.000000
330.068450 234.000000
330.081790 123.000000
330.740080 6.000000
331.052490 7.000000
331.067500 12.000000
331.084500 14.000000
332.058750 6.000000
332.080960 6.000000
336.060240 9.000000
337.072240 21.000000
338.077270 10.000000
339.046230 7.000000
339.060880 37.000000
339.073520 93.000000
339.092380 127.000000
339.551570 6.000000
340.087190 86.000000
341.067900 8.000000
341.081540 17.000000
342.101930 14.000000
343.078030 9.000000
348.067690 10.000000
349.059300 19.000000
349.071930 28.000000
349.087890 6.000000
350.081970 20.000000
350.105590 12.000000
351.025120 6.000000
351.048130 16.000000
351.096340 10.000000
352.012730 8.000000
352.037630 12.000000
353.022520 12.000000
353.036190 14.000000
353.070160 234.000000
353.116390 7.000000
354.032710 13.000000
354.071230 93.000000
355.067260 26.000000
355.085390 6.000000
364.052310 7.000000
365.056460 86.000000
365.078310 36.000000
366.050780 6.000000
366.072420 35.000000
366.089050 10.000000
367.042140 9.000000
367.065460 25.000000
367.086430 15.000000
368.080020 15.000000
374.447570 8.000000
376.045260 6.000000
376.063050 7.000000
377.067200 65.000000
378.073700 58.000000
379.050870 6.000000
379.073120 24.000000
380.085570 7.000000
383.081630 6.000000
383.096190 16.000000
384.056580 6.000000
384.075470 9.000000
390.705660 9.000000
395.035680 7.000000
395.053770 16.000000
395.078920 47.000000
395.093410 15.000000
396.077730 68.000000
397.063690 9.000000
398.084530 14.000000
413.075230 8.000000
413.087550 23.000000
414.075930 15.000000
414.104030 13.000000
415.052550 7.000000

>ms2
68.998440 58.000000
81.034230 67.000000
84.057080 22.000000
92.021140 29.000000
95.050190 31.000000
96.056360 25.000000
97.027780 19.000000
103.035610 19.000000
103.056300 25.000000
106.043240 20.000000
107.051130 41.000000
108.053820 28.000000
109.027270 22.000000
111.001810 26.000000
115.054920 40.000000
121.060970 19.000000
123.008530 41.000000
123.016310 23.000000
124.010170 36.000000
124.016030 36.000000
125.022190 17.000000
131.048170 68.000000
133.024730 17.000000
135.029360 28.000000
135.043820 276.000000
136.041320 22.000000
136.047650 24.000000
137.014480 52.000000
137.026120 243.000000
139.599520 21.000000
141.090360 24.000000
143.398440 28.000000
145.029020 28.000000
147.043010 78.000000
149.007550 16.000000
149.022370 233.000000
149.047560 21.000000
150.021730 27.000000
150.032550 74.000000
150.067280 19.000000
151.036650 53.000000
153.022400 50.000000
153.067400 30.000000
154.022320 42.000000
154.028720 19.000000
157.060710 17.000000
159.036940 41.000000
159.047210 71.000000
161.019620 90.000000
161.029280 23.000000
162.029800 81.000000
163.036070 132.000000
163.048310 19.000000
164.048430 22.000000
164.058210 32.000000
164.156040 16.000000
164.959230 16.000000
164.985210 43.000000
165.001140 21.000000
165.018740 1000.000000
165.058940 25.000000
166.024800 478.000000
166.071030 24.000000
167.034900 28.000000
170.064760 19.000000
173.024490 27.000000
173.061310 28.000000
174.035950 21.000000
176.006530 19.000000
176.027540 36.000000
177.012660 44.000000
177.022160 25.000000
178.025910 35.000000
179.029690 28.000000
179.040500 45.000000
185.056060 35.000000
187.035750 57.000000
187.041560 83.000000
189.008970 19.000000
189.020490 23.000000
190.027510 47.000000
190.215030 19.000000
191.027650 41.000000
191.038440 52.000000
192.003100 40.000000
192.087970 18.000000
194.039490 33.000000
195.071530 18.000000
197.030090 25.000000
202.025760 21.000000
203.034910 74.000000
204.039960 29.000000
204.056850 32.000000
205.048830 31.000000
205.495530 18.000000
208.037450 48.000000
214.681780 38.000000
216.036800 41.000000
225.018980 28.000000
227.023710 23.000000
230.999530 19.000000
231.028990 25.000000
231.056380 22.000000
239.030500 22.000000
243.069150 38.000000
244.036830 23.000000
245.034960 28.000000
247.079740 19.000000
254.052730 32.000000
255.066710 46.000000
256.072780 126.000000
257.061860 22.000000
258.040890 26.000000
259.073820 26.000000
261.055970 24.000000
262.037960 24.000000
263.034030 29.000000
265.057250 48.000000
266.388920 26.000000
269.042140 24.000000
269.075680 26.000000
269.089020 26.000000
270.050810 34.000000
270.060420 19.000000
271.057950 142.000000
272.070100 88.000000
273.043670 24.000000
273.066830 17.000000
273.081820 78.000000
275.064060 80.000000
282.049220 25.000000
283.059140 95.000000
283.078700 18.000000
284.060240 128.000000
284.078030 18.000000
284.088290 23.000000
285.033260 64.000000
286.048130 76.000000
286.057680 37.000000
287.052310 39.000000
288.057770 20.000000
288.064420 45.000000
289.074430 36.000000
293.077760 25.000000
294.088470 19.000000
295.065830 40.000000
295.077300 16.000000
296.052370 17.000000
296.079770 31.000000
297.044250 36.000000
297.082180 176.000000
298.034480 17.000000
298.047940 19.000000
298.066740 24.000000
298.079100 28.000000
298.089870 32.000000
299.032200 23.000000
299.056880 376.000000
300.029050 18.000000
300.041600 79.000000
300.060520 519.000000
300.079250 148.000000
301.051510 37.000000
301.075350 51.000000
301.592130 25.000000
301.819120 17.000000
303.074370 16.000000
308.060640 33.000000
309.055790 22.000000
309.081090 35.000000
311.056400 76.000000
311.089900 73.000000
312.050290 27.000000
313.067500 57.000000
313.097930 20.000000
321.053160 24.000000
321.094020 23.000000
324.067050 61.000000
325.048490 25.000000
325.068480 97.000000
326.076690 17.000000
329.068390 20.000000
330.064540 27.000000
337.050690 17.000000
338.093750 42.000000
339.066530 37.000000
339.080110 119.000000
339.104280 28.000000
340.075260 22.000000
340.113010 38.000000
347.048130 28.000000
347.114470 24.000000
351.059720 37.000000
367.089720 27.000000

>ms2
95.050310 13.000000
137.022140 72.000000
137.027190 21.000000
141.071080 10.000000
147.041110 13.000000
149.025890 13.000000
151.040410 17.000000
161.023640 8.000000
164.041260 14.000000
165.014650 40.000000
165.023570 20.000000
166.024030 51.000000
176.850690 10.000000
177.015290 20.000000
179.036670 8.000000
180.037110 11.000000
180.045750 11.000000
189.013600 8.000000
190.031920 8.000000
191.026870 31.000000
191.063520 14.000000
195.035280 8.000000
196.030260 20.000000
205.044680 20.000000
215.006200 8.000000
215.029500 12.000000
216.158220 8.000000
235.540410 8.000000
245.044110 10.000000
248.088880 7.000000
251.057240 8.000000
255.055950 12.000000
258.045870 23.000000
269.037450 7.000000
270.058260 23.000000
270.077150 11.000000
282.055880 13.000000
283.059170 51.000000
284.056460 30.000000
284.070280 11.000000
285.497410 11.000000
287.055330 39.000000
287.334720 15.000000
288.055420 8.000000
288.069060 30.000000
289.061370 12.000000
294.833500 16.000000
296.058530 30.000000
297.047420 17.000000
297.080990 34.000000
297.236110 9.000000
298.986660 7.000000
299.022060 12.000000
299.031160 27.000000
299.058320 747.000000
299.079320 36.000000
299.091090 8.000000
299.967590 13.000000
300.041350 21.000000
300.062900 387.000000
300.580990 7.000000
301.038730 11.000000
301.056670 26.000000
301.079250 67.000000
302.064180 31.000000
302.073210 9.000000
308.070280 9.000000
310.047240 8.000000
310.075290 23.000000
311.055210 53.000000
311.068120 22.000000
311.090790 30.000000
312.057620 22.000000
312.084690 8.000000
312.098750 13.000000
312.846800 7.000000
313.031650 14.000000
313.067810 10.000000
313.081180 12.000000
317.573180 8.000000
318.292140 11.000000
323.047790 14.000000
323.062590 24.000000
324.084170 17.000000
325.050230 14.000000
325.073640 121.000000
325.094180 14.000000
326.051480 13.000000
326.075740 74.000000
326.095060 24.000000
327.042330 12.000000
327.052220 13.000000
327.084530 19.000000
327.099150 11.000000
328.060910 28.000000
328.577420 7.000000
328.977840 10.000000
329.039370 34.000000
329.055820 139.000000
329.069730 373.000000
329.547240 11.000000
330.051090 56.000000
330.063570 119.000000
330.077300 122.000000
331.042050 23.000000
331.072600 76.000000
333.088230 10.000000
336.345120 15.000000
337.054960 13.000000
337.072720 67.000000
339.087950 202.000000
340.075960 21.000000
340.094390 48.000000
340.109560 13.000000
341.093900 14.000000
347.637240 8.000000
348.899480 10.000000
349.069580 54.000000
350.068180 9.000000
350.925260 8.000000
351.075810 22.000000
351.089840 9.000000
353.065310 316.000000
353.078860 79.000000
353.982790 9.000000
354.054530 17.000000
354.071110 125.000000
354.390080 8.000000
355.078250 57.000000
361.065280 12.000000
365.069310 78.000000
366.058110 55.000000
366.078190 23.000000
367.066500 11.000000
367.082890 35.000000
367.100740 20.000000
368.092830 21.000000
377.062960 145.000000
378.068910 65.000000
382.060460 10.000000
383.052730 9.000000
383.073910 174.000000
383.092190 74.000000
384.066530 29.000000
384.084810 62.000000
384.096340 18.000000
384.832610 9.000000
385.042630 8.000000
385.096070 27.000000
385.869540 7.000000
394.064480 15.000000
394.267210 13.000000
395.039000 9.000000
395.075560 149.000000
395.091670 42.000000
396.063780 48.000000
396.081420 123.000000
396.109500 7.000000
397.083280 8.000000
400.565460 9.000000
400.849060 9.000000
413.087890 129.000000
413.100950 41.000000
414.086670 134.000000
414.110140 22.000000
415.110020 9.000000
419.106960 11.000000
431.023900 11.000000
431.096410 196.000000
431.214170 14.000000
432.056030 7.000000
432.084990 36.000000
432.109990 123.000000
433.104580 47.000000
434.108430 11.000000
434.138150 12.000000
447.088590 27.000000
448.090450 18.000000
448.568630 7.000000
448.977540 18.000000
449.067930 31.000000
449.109440 1000.000000

>ms2
299.039520 8.000000
299.052830 8.000000
300.072140 7.000000
305.715480 7.000000
328.053710 8.000000
329.054930 10.000000
329.068790 28.000000
329.081480 11.000000
330.066470 28.000000
330.081670 5.000000
331.069000 6.000000
353.046260 10.000000
353.065460 19.000000
354.072110 13.000000
375.533200 5.000000
383.064330 25.000000
383.085780 38.000000
384.081270 33.000000
384.102570 5.000000
395.078340 16.000000
396.079860 5.000000
411.079130 6.000000
413.078640 13.000000
413.097080 8.000000
414.074860 14.000000
414.091310 10.000000
431.098240 116.000000
432.103580 59.000000
433.092190 19.000000
434.107760 6.000000
447.099550 9.000000
448.099240 34.000000
449.107480 1000.000000

>ms2
62.590480 6.000000
85.030080 13.000000
109.025700 14.000000
115.243660 6.000000
119.049960 8.000000
134.036070 21.000000
148.053680 7.000000
165.023040 11.000000
169.030120 6.000000
170.030560 13.000000
175.116300 8.000000
178.032210 14.000000
193.667250 7.000000
207.358870 6.000000
208.449690 6.000000
213.025760 6.000000
215.873540 11.000000
216.070390 11.000000
221.052550 7.000000
240.072910 8.000000
243.624330 8.000000
245.037900 7.000000
245.080440 7.000000
246.057910 16.000000
253.044340 7.000000
261.055080 12.000000
263.566470 7.000000
269.034730 12.000000
269.045260 8.000000
270.054690 20.000000
271.059420 8.000000
276.229030 10.000000
279.047030 9.000000
283.051670 26.000000
283.069580 14.000000
284.068420 7.000000
284.086730 13.000000
286.040250 13.000000
287.044010 46.000000
287.069180 34.000000
288.061580 53.000000
289.037020 8.000000
289.065980 6.000000
290.068790 13.000000
295.058140 8.000000
296.083370 8.000000
296.133060 9.000000
297.080720 28.000000
298.037630 9.000000
298.078340 23.000000
298.094180 10.000000
298.988400 6.000000
299.023900 14.000000
299.055390 1000.000000
300.057740 431.000000
300.553440 6.000000
301.061830 17.000000
301.072200 38.000000
302.053130 6.000000
305.068940 9.000000
305.222810 8.000000
308.505070 12.000000
309.851810 9.000000
310.021450 6.000000
310.068180 9.000000
311.041230 47.000000
311.056520 67.000000
311.075780 21.000000
311.096340 28.000000
311.790220 6.000000
312.055420 28.000000
312.070920 8.000000
312.100010 23.000000
313.067960 18.000000
313.084590 7.000000
314.024380 8.000000
314.072880 11.000000
315.038540 10.000000
315.078770 7.000000
320.541200 8.000000
321.075900 16.000000
322.055570 8.000000
322.079130 8.000000
322.101960 6.000000
323.046230 7.000000
323.068300 8.000000
324.040130 11.000000
324.065550 25.000000
324.073640 11.000000
324.579040 6.000000
325.040560 41.000000
325.067260 193.000000
325.078460 92.000000
326.029970 10.000000
326.058560 28.000000
326.077030 118.000000
326.089480 36.000000
327.046570 13.000000
327.062160 13.000000
327.074770 6.000000
328.067690 7.000000
329.024630 7.000000
329.066070 426.000000
330.034300 7.000000
330.067320 377.000000
330.088290 28.000000
331.074220 43.000000
331.088530 31.000000
336.045960 8.000000
336.072810 14.000000
338.073120 17.000000
338.093380 16.000000
339.046780 17.000000
339.072660 88.000000
339.085970 164.000000
340.049740 13.000000
340.085750 42.000000
340.102940 41.000000
341.080600 12.000000
342.086240 19.000000
347.043000 7.000000
348.044340 12.000000
348.386230 6.000000
349.056760 17.000000
349.069400 46.000000
350.071010 16.000000
350.081510 23.000000
352.039280 15.000000
352.102870 10.000000
352.677090 7.000000
353.034700 6.000000
353.065890 155.000000
354.070250 165.000000
354.084230 42.000000
355.063200 9.000000
355.078670 52.000000
364.647430 8.000000
365.056030 39.000000
365.072240 105.000000
366.064610 31.000000
366.080260 8.000000
367.054200 9.000000
367.068210 30.000000
367.092740 52.000000
368.086150 24.000000
368.111420 7.000000
368.774230 6.000000
377.065700 137.000000
378.022220 8.000000
378.059110 7.000000
378.079250 14.000000
383.027980 7.000000
384.083530 14.000000
395.074800 57.000000
395.088560 16.000000
396.071690 12.000000
396.090520 38.000000
398.104980 6.000000
413.072050 7.000000
414.084010 14.000000
431.096620 6.000000

>ms2
80.061180 19.000000
82.046330 32.000000
85.027910 16.000000
92.064740 23.000000
93.032330 17.000000
95.010660 26.000000
95.021550 22.000000
96.054410 16.000000
96.063030 28.000000
96.154790 17.000000
102.303150 21.000000
103.052090 16.000000
104.293850 19.000000
105.031590 85.000000
107.017400 37.000000
109.028780 97.000000
110.035310 21.000000
111.041450 22.000000
117.033560 28.000000
119.054470 19.000000
121.026470 116.000000
121.064870 21.000000
122.039990 101.000000
122.998120 21.000000
123.003750 46.000000
123.013040 28.000000
124.010300 51.000000
125.007930 31.000000
132.055330 19.000000
134.027370 50.000000
134.037480 47.000000
135.041930 310.000000
136.048830 62.000000
137.010040 19.000000
137.024260 339.000000
138.023100 61.000000
138.030410 19.000000
140.042470 28.000000
141.065920 25.000000
143.014140 51.000000
145.061110 18.000000
146.032360 23.000000
146.981320 30.000000
147.027470 35.000000
147.042300 68.000000
148.049840 35.000000
149.020190 137.000000
149.028150 160.000000
150.027440 63.000000
150.035050 30.000000
153.025540 39.000000
154.029600 16.000000
155.092910 16.000000
158.033780 18.000000
159.048720 37.000000
160.051180 24.000000
160.061810 26.000000
161.020840 179.000000
162.018340 17.000000
162.031710 20.000000
162.039000 16.000000
163.026050 41.000000
163.033810 54.000000
163.041030 18.000000
164.015930 34.000000
164.045910 18.000000
164.057050 23.000000
164.994250 41.000000
165.019260 1000.000000
165.995960 28.000000
166.006740 22.000000
166.021800 381.000000
166.043440 38.000000
167.028610 138.000000
167.033800 65.000000
171.420390 27.000000
173.023360 16.000000
175.501940 29.000000
176.066930 27.000000
177.019030 86.000000
177.049500 20.000000
177.059950 28.000000
178.027590 61.000000
179.034550 42.000000
179.077700 20.000000
179.090180 18.000000
179.998900 20.000000
180.007220 28.000000
180.041670 37.000000
180.056590 16.000000
180.076540 17.000000
180.992190 29.000000
181.013290 34.000000
181.070800 28.000000
186.348450 21.000000
187.039490 94.000000
188.043550 34.000000
188.947980 17.000000
189.015780 37.000000
189.022930 61.000000
189.059970 47.000000
190.028020 47.000000
190.071080 17.000000
190.998750 39.000000
191.020050 28.000000
191.030000 55.000000
191.045730 17.000000
191.078930 25.000000
192.009960 22.000000
192.041210 32.000000
193.676300 40.000000
196.038600 60.000000
199.041810 17.000000
202.058120 28.000000
203.036360 60.000000
204.084170 39.000000
206.060870 31.000000
209.065960 39.000000
214.070830 20.000000
215.028270 42.000000
215.038100 47.000000
215.061680 27.000000
215.205430 17.000000
216.046600 30.000000
219.022430 32.000000
225.050870 29.000000
226.057880 47.000000
226.067370 25.000000
228.080340 23.000000
229.012050 20.000000
231.038090 16.000000
232.025700 26.000000
235.077320 33.000000
237.048430 24.000000
238.596050 27.000000
239.034380 36.000000
240.098660 18.000000
240.505250 17.000000
241.051390 17.000000
242.055630 16.000000
243.063570 43.000000
243.074450 15.000000
243.483810 19.000000
244.045870 20.000000
244.073960 25.000000
245.047420 65.000000
247.053070 24.000000
252.073530 24.000000
253.029400 23.000000
254.047420 32.000000
255.072920 18.000000
256.069550 24.000000
258.040890 20.000000
258.048030 52.000000
258.061340 19.000000
259.057220 16.000000
261.207180 27.000000
269.075440 24.000000
270.053160 18.000000
271.047670 18.000000
271.063780 44.000000
271.988830 32.000000
272.071260 35.000000
278.069210 35.000000
281.047640 16.000000
282.091090 40.000000
283.054230 121.000000
283.105130 17.000000
284.052670 65.000000
284.068330 124.000000
284.410890 27.000000
285.068630 21.000000
286.010530 22.000000
286.048550 52.000000
286.060120 37.000000
287.037510 18.000000
287.055510 65.000000
288.065890 39.000000
288.105350 25.000000
289.051390 26.000000
293.037990 52.000000
295.067410 102.000000
296.073210 27.000000
297.070950 69.000000
297.087310 20.000000
298.075230 51.000000
298.347660 16.000000
299.046050 222.000000
299.060360 555.000000
299.079770 57.000000
300.012760 23.000000
300.046020 67.000000
300.066960 497.000000
301.029450 18.000000
301.052890 40.000000
301.068790 201.000000
302.075620 44.000000
303.080960 18.000000
303.215210 28.000000
303.604550 18.000000
308.060270 26.000000
308.070560 30.000000
310.100890 51.000000
311.058960 57.000000
311.094790 22.000000
312.057040 99.000000
312.072330 30.000000
312.106480 20.000000
313.072080 29.000000
313.089420 19.000000
314.065280 17.000000
319.060330 23.000000
321.079620 55.000000
324.055880 22.000000
324.066250 23.000000
325.038420 20.000000
325.074340 238.000000
326.053680 18.000000
326.071380 64.000000
327.083590 56.000000
329.053190 17.000000
329.161900 35.000000
337.056820 27.000000
339.089420 67.000000
340.090790 20.000000
341.117340 26.000000
349.055080 19.000000
353.061100 27.000000
353.074520 17.000000
361.884860 56.000000
368.083190 34.000000

>ms2
57.035400 15.000000
85.028720 22.000000
131.053910 10.000000
137.030720 10.000000
147.040820 16.000000
150.034160 17.000000
164.049730 9.000000
165.012990 19.000000
165.024900 11.000000
168.025150 18.000000
177.021510 18.000000
178.017900 16.000000
182.444840 10.000000
185.160220 21.000000
188.050990 15.000000
191.000930 14.000000
203.027220 11.000000
204.051860 14.000000
212.035690 13.000000
215.026350 15.000000
216.034770 16.000000
220.034870 9.000000
222.043660 9.000000
245.035870 11.000000
258.064330 10.000000
258.917940 13.000000
263.032040 11.000000
265.144840 15.000000
269.044190 13.000000
269.063540 11.000000
270.058590 27.000000
270.093930 12.000000
271.055600 22.000000
271.151460 9.000000
280.072600 9.000000
283.003660 12.000000
283.055080 25.000000
283.070560 48.000000
284.060730 11.000000
286.046360 14.000000
287.024660 19.000000
287.050990 36.000000
287.613650 9.000000
288.050990 24.000000
288.064580 28.000000
290.812530 9.000000
291.573730 18.000000
292.689360 10.000000
295.065730 35.000000
296.066710 13.000000
297.067600 86.000000
297.086270 48.000000
298.052190 23.000000
298.082640 22.000000
299.054410 947.000000
299.082310 22.000000
300.051420 190.000000
300.062100 428.000000
300.118740 10.000000
301.061250 132.000000
301.465000 9.000000
302.083310 9.000000
309.065580 9.000000
311.063630 20.000000
311.086760 11.000000
312.057070 78.000000
313.076050 27.000000
313.095890 9.000000
316.013730 9.000000
316.056120 11.000000
321.077120 12.000000
323.058040 12.000000
323.591400 10.000000
323.900910 15.000000
324.028810 11.000000
324.061580 32.000000
325.039860 21.000000
325.053310 67.000000
325.069400 145.000000
326.060390 19.000000
326.076930 111.000000
326.095670 12.000000
327.027890 19.000000
327.044680 21.000000
327.054720 19.000000
327.071900 11.000000
327.082790 10.000000
327.309140 17.000000
329.026310 9.000000
329.066070 623.000000
330.073880 335.000000
330.242980 9.000000
330.943240 9.000000
331.043700 14.000000
331.062070 23.000000
331.080440 43.000000
332.072630 30.000000
336.177120 10.000000
337.043950 13.000000
337.066530 59.000000
339.005160 12.000000
339.056400 12.000000
339.078430 31.000000
339.096010 124.000000
340.057500 21.000000
340.090480 29.000000
340.112180 9.000000
341.085510 13.000000
341.104890 26.000000
342.092380 9.000000
342.804410 15.000000
346.426510 29.000000
349.056980 22.000000
349.083710 9.000000
351.031430 9.000000
351.054350 12.000000
352.052310 14.000000
352.072850 13.000000
353.060940 316.000000
353.099370 23.000000
354.021360 17.000000
354.044980 15.000000
354.060030 53.000000
354.072750 180.000000
354.083280 94.000000
355.074400 23.000000
356.028350 14.000000
359.004210 9.000000
364.059510 9.000000
365.060700 107.000000
365.075260 26.000000
366.048490 12.000000
366.076690 86.000000
367.062350 34.000000
367.090240 10.000000
368.033360 11.000000
368.091060 11.000000
370.058560 10.000000
377.024960 18.000000
377.058230 92.000000
377.082460 15.000000
377.450100 14.000000
378.042510 11.000000
378.073610 95.000000
379.057710 16.000000
383.049040 9.000000
383.076840 169.000000
383.901610 14.000000
384.075380 130.000000
384.102200 11.000000
385.081730 63.000000
385.113220 9.000000
386.077300 16.000000
388.988980 9.000000
395.057100 46.000000
395.077480 217.000000
396.059910 9.000000
396.081420 100.000000
397.083040 50.000000
413.061370 24.000000
413.085050 125.000000
413.110230 34.000000
414.083980 54.000000
414.505950 19.000000
415.088170 49.000000
426.742490 11.000000
430.089170 9.000000
431.090060 404.000000
431.194370 10.000000
432.069340 39.000000
432.090390 59.000000
432.108340 35.000000
432.127590 10.000000
433.100860 33.000000
433.123320 14.000000
433.360960 16.000000
434.133360 14.000000
446.901150 10.000000
447.379030 10.000000
448.090670 32.000000
448.126530 15.000000
449.077180 48.000000
449.106660 1000.000000

>ms2
299.049350 11.000000
299.059750 14.000000
329.054320 11.000000
329.065860 35.000000
330.072660 10.000000
332.068270 8.000000
353.053040 17.000000
353.071870 13.000000
354.058960 11.000000
354.073760 25.000000
383.072690 70.000000
384.077390 25.000000
384.094020 9.000000
395.077180 29.000000
413.056550 6.000000
413.086120 21.000000
414.086980 11.000000
414.100710 16.000000
430.081330 6.000000
431.094760 95.000000
431.115170 27.000000
432.089260 25.000000
432.108670 49.000000
433.105350 23.000000
447.095490 10.000000
448.099300 44.000000
449.047730 10.000000
449.108520 1000.000000

>ms2
85.028280 21.000000
103.040420 9.000000
109.030470 47.000000
110.034710 7.000000
133.029750 9.000000
137.023570 8.000000
138.024460 16.000000
138.030320 14.000000
149.026890 13.000000
153.012650 12.000000
161.012480 9.000000
179.036240 6.000000
180.034610 8.000000
187.265930 12.000000
195.060150 7.000000
205.058230 24.000000
215.042240 16.000000
216.019810 14.000000
220.812990 10.000000
224.167830 8.000000
230.043820 12.000000
234.947810 9.000000
244.040480 8.000000
247.032090 10.000000
256.073940 43.000000
258.051730 11.000000
267.072750 9.000000
269.026340 6.000000
270.044100 23.000000
270.056240 25.000000
271.067200 11.000000
271.744870 15.000000
272.029450 11.000000
273.911470 6.000000
277.226620 8.000000
277.540280 6.000000
281.092990 12.000000
282.064730 10.000000
283.053710 21.000000
283.069610 22.000000
284.060970 8.000000
284.069460 11.000000
286.040710 16.000000
286.051880 8.000000
286.983460 7.000000
287.038390 16.000000
287.057220 42.000000
287.072780 16.000000
288.055790 9.000000
288.073270 15.000000
295.046660 7.000000
296.983400 6.000000
297.053800 10.000000
297.070770 37.000000
297.082240 16.000000
298.021640 7.000000
298.035030 24.000000
298.077360 28.000000
298.088710 24.000000
298.106170 13.000000
299.025970 21.000000
299.054690 1000.000000
299.382350 9.000000
299.881560 7.000000
299.917420 7.000000
300.023220 25.000000
300.062230 743.000000
301.064880 94.000000
301.084200 6.000000
301.606660 7.000000
302.064000 9.000000
306.240170 6.000000
307.071560 13.000000
307.200530 11.000000
309.375340 7.000000
310.076600 10.000000
311.039310 7.000000
311.059450 36.000000
311.075620 19.000000
311.090150 32.000000
312.056920 36.000000
313.049220 7.000000
313.072240 24.000000
313.092190 7.000000
314.045680 10.000000
314.070890 26.000000
314.088680 11.000000
316.062040 7.000000
321.073820 21.000000
321.085450 28.000000
322.103000 10.000000
323.046330 10.000000
324.069980 36.000000
325.024350 8.000000
325.038240 18.000000
325.070340 252.000000
326.069610 58.000000
326.082180 107.000000
326.096470 34.000000
326.262570 8.000000
327.050350 9.000000
327.066830 7.000000
327.085690 30.000000
328.039090 10.000000
328.054050 7.000000
329.035800 27.000000
329.066710 672.000000
329.142790 12.000000
330.033480 7.000000
330.062500 128.000000
330.074950 394.000000
331.049590 9.000000
331.073030 38.000000
331.086940 31.000000
331.100040 8.000000
332.067570 10.000000
332.078890 9.000000
336.059720 22.000000
336.074040 10.000000
337.070010 7.000000
338.084080 23.000000
338.102050 10.000000
339.055420 9.000000
339.081090 143.000000
339.095340 71.000000
340.089480 143.000000
340.337520 7.000000
341.066860 9.000000
341.083800 16.000000
341.097140 12.000000
341.547240 13.000000
341.822910 6.000000
342.112370 7.000000
346.288270 7.000000
347.067660 6.000000
348.045260 9.000000
349.056670 22.000000
349.070530 24.000000
349.091190 12.000000
350.076050 15.000000
350.095610 12.000000
351.088130 18.000000
352.095460 10.000000
353.042760 15.000000
353.063750 125.000000
353.080230 63.000000
353.936160 9.000000
354.070890 70.000000
354.082760 102.000000
355.052580 9.000000
355.062070 29.000000
355.083470 29.000000
356.035190 9.000000
356.068660 21.000000
365.048190 31.000000
365.069520 187.000000
366.032320 28.000000
366.058650 48.000000
366.076200 43.000000
367.078370 50.000000
368.093170 20.000000
371.065800 21.000000
377.065370 95.000000
377.078280 33.000000
378.080440 44.000000
379.476260 7.000000
380.074770 7.000000
395.068760 62.000000
396.075130 20.000000
396.086730 17.000000
396.972020 7.000000
397.295840 9.000000
413.052000 14.000000
414.080900 15.000000
414.110960 10.000000
415.097410 16.000000

>ms2
68.063500 36.000000
68.994630 75.000000
79.056900 30.000000
81.028180 24.000000
81.034730 25.000000
82.039490 27.000000
84.115430 27.000000
91.057490 27.000000
92.061970 59.000000
93.027030 33.000000
93.035040 58.000000
95.050700 26.000000
104.061350 33.000000
106.039260 41.000000
106.283920 25.000000
109.027000 72.000000
111.047250 60.000000
120.286000 24.000000
121.029670 41.000000
121.061230 33.000000
123.005820 177.000000
123.037380 39.000000
124.015520 51.000000
128.071060 39.000000
134.040010 36.000000
135.034380 70.000000
135.048830 160.000000
137.025190 110.000000
138.030880 57.000000
147.036150 33.000000
148.015380 28.000000
148.049610 21.000000
148.785520 20.000000
148.996200 59.000000
149.013470 114.000000
149.023910 238.000000
150.030930 116.000000
153.017240 60.000000
153.072530 38.000000
154.884490 20.000000
154.961000 20.000000
159.037580 43.000000
160.986500 32.000000
161.020890 46.000000
163.038830 140.000000
164.037380 103.000000
164.046160 73.000000
164.998840 43.000000
165.021160 1000.000000
165.048650 28.000000
166.023850 590.000000
166.159940 23.000000
167.026280 20.000000
168.053820 25.000000
169.028720 30.000000
169.063280 39.000000
171.618740 36.000000
174.328490 21.000000
176.013700 26.000000
177.019730 69.000000
177.062480 45.000000
178.025130 27.000000
179.026020 32.000000
179.039460 44.000000
180.025390 30.000000
185.072280 46.000000
186.066730 21.000000
187.040360 137.000000
188.039640 25.000000
188.050220 69.000000
188.999920 28.000000
189.021670 32.000000
189.058960 28.000000
190.022280 52.000000
190.059130 24.000000
190.992600 32.000000
191.020660 28.000000
191.034040 130.000000
191.043200 28.000000
192.031780 27.000000
194.013370 27.000000
195.007490 33.000000
197.058110 26.000000
203.039370 59.000000
205.050670 27.000000
210.068470 63.000000
213.051880 31.000000
216.039220 34.000000
218.054170 39.000000
224.037990 32.000000
229.017350 43.000000
229.093140 27.000000
230.058380 34.000000
243.050610 25.000000
243.063110 127.000000
244.024310 20.000000
244.062900 32.000000
245.050370 30.000000
245.061660 37.000000
252.066470 50.000000
253.049820 36.000000
253.059840 30.000000
254.062960 41.000000
255.034350 44.000000
255.069050 25.000000
256.067290 40.000000
257.035710 25.000000
258.061680 27.000000
259.062260 25.000000
263.044220 58.000000
266.050380 20.000000
268.089510 25.000000
269.047730 24.000000
270.033290 24.000000
270.049620 57.000000
270.060820 20.000000
271.043490 71.000000
271.053040 58.000000
271.080470 40.000000
271.858670 39.000000
272.051760 26.000000
272.063450 108.000000
272.072050 52.000000
273.036250 28.000000
273.060490 41.000000
273.069000 27.000000
276.068760 30.000000
282.054110 26.000000
283.034610 20.000000
283.055690 273.000000
284.055480 117.000000
284.071690 24.000000
285.025880 31.000000
285.044920 95.000000
285.071350 53.000000
286.044620 37.000000
286.054600 21.000000
287.040280 34.000000
287.051180 77.000000
287.069850 34.000000
294.051390 43.000000
295.020570 34.000000
295.056180 55.000000
296.072140 73.000000
296.820160 26.000000
297.061310 26.000000
297.084660 20.000000
298.063420 25.000000
298.085330 72.000000
298.868320 27.000000
299.046200 474.000000
299.057740 379.000000
300.060970 438.000000
300.081730 31.000000
301.058870 212.000000
301.074010 30.000000
302.069240 36.000000
303.834320 23.000000
309.077880 39.000000
311.054600 124.000000
311.078090 68.000000
312.062530 134.000000
313.064670 47.000000
313.084140 26.000000
321.066100 70.000000
322.082000 39.000000
322.866210 20.000000
323.057530 58.000000
324.041900 24.000000
324.051450 56.000000
324.067690 30.000000
325.055910 30.000000
325.074980 190.000000
326.046170 63.000000
326.080720 50.000000
327.096980 24.000000
329.072360 20.000000
333.597660 24.000000
337.049770 25.000000
337.061460 39.000000
339.067570 41.000000
349.058780 41.000000
373.104370 27.000000
380.448520 21.000000

