>compound PR17131199
>parentmass 463.1245
>ionization [M+H]+
>formula C22H22O11
>rt 223.200000
>profile qtof
#smiles_iso CC1C(C(C(C(O1)OC2=CC(=C3C(=C2)OC(=C(C3=O)O)C4=CC(=C(C=C4)O)OC)O)O)O)O
#smiles_can CC1C(C(C(C(O1)OC2=CC(=C3C(=C2)OC(=C(C3=O)O)C4=CC(=C(C=C4)O)OC)O)O)O)O
#inchikey XLQFMBLUUSGXQY-UHFFFAOYSA-N
#pubchem_id 14310828
#mb_accession PR310910

>ms2peaks
172.012560 21.000000
274.043760 17.000000
275.047550 17.000000
289.033940 27.000000
302.039030 22.000000
317.040280 40.000000
317.068420 310.000000
318.068850 70.000000
463.120270 71.000000

