>compound PR17146733
>parentmass 901.4789
>ionization [M+H]+
>formula C45H72O18
>rt 312.000000
>profile qtof
#smiles_iso CC1C(C(C(C(O1)OC2C(C(C(OC2OCC(C)CCC3=C(C4C(O3)CC5C4(CCC6C5CC=C7C6(C(CC(C7)O)OC8C(C(C(C(O8)CO)O)O)O)C)C)C)CO)O)O)O)O)O
#smiles_can CC1C(C(C(C(O1)OC2C(C(C(OC2OCC(C)CCC3=C(C4C(O3)CC5C4(CCC6C5CC=C7C6(C(CC(C7)O)OC8C(C(C(C(O8)CO)O)O)O)C)C)C)CO)O)O)O)O)O
#inchikey LXYJZECGEIAZOD-UHFFFAOYSA-N
#pubchem_id 139291953
#mb_accession PR310709

>ms2peaks
85.032780 16.000000
127.111850 20.000000
145.045140 18.000000
214.135060 16.000000
251.174710 16.000000
269.188600 21.000000
413.337220 18.000000
431.289830 16.000000
431.324010 16.000000
436.302310 20.000000
447.101290 22.000000
560.276670 19.000000
575.363340 24.000000
592.384460 33.000000
593.364560 74.000000
596.299070 16.000000
721.404600 18.000000
756.427310 18.000000
901.466130 16.000000
901.527280 16.000000

