>compound PR17159822
>parentmass 276.15942
>ionization [M+H]+
>formula C16H21NO3
>rt 189.210462
>profile qtof
#smiles_iso CN1C2CCC1CC(C2)OC(=O)C(C3=CC=CC=C3)O
#smiles_can CN1C2CCC1CC(C2)OC(=O)C(C3=CC=CC=C3)O
#inchikey ZTVIKZXZYLEVOL-UHFFFAOYSA-N
#pubchem_id 3623
#mb_accession PR301741,PR301744,PR301747,PR301750,PR301753,PR301756,PR301759,PR301762,PR301765,PR301768,PR301771,PR301774,PR310558

>ms2peaks
93.070050 54.000000
98.098720 5.000000
107.046330 5.000000
124.111870 204.000000
125.110490 9.000000
125.117490 10.000000
142.122060 123.000000
143.119670 5.000000
143.127330 9.000000
276.115810 7.000000
276.159420 1000.000000
276.206820 31.000000

>ms2peaks
124.112830 9.000000
276.112920 5.000000
276.160400 1000.000000
276.207950 34.000000

>ms2peaks
67.055870 20.000000
68.050150 8.000000
70.064310 7.000000
77.041140 25.000000
82.065830 17.000000
83.075080 19.000000
91.047100 13.000000
91.055560 78.000000
93.070480 534.000000
94.075160 51.000000
95.085010 26.000000
95.091150 17.000000
96.079520 15.000000
98.097030 38.000000
107.049120 18.000000
109.090420 6.000000
122.096700 6.000000
124.113040 1000.000000
125.116580 121.000000
142.104740 5.000000
142.123260 859.000000
143.126500 87.000000
276.161380 191.000000

>ms2peaks
57.060450 24.000000
58.061140 21.000000
58.064730 30.000000
59.261920 25.000000
65.036950 18.000000
67.056400 161.000000
67.943160 16.000000
68.046550 25.000000
68.052850 22.000000
69.056180 28.000000
70.061070 17.000000
70.066970 18.000000
77.030860 30.000000
77.041030 526.000000
78.040360 35.000000
78.556330 17.000000
79.048160 26.000000
79.056010 125.000000
80.064740 19.000000
81.062130 46.000000
81.069340 16.000000
82.062190 94.000000
82.069830 102.000000
82.886750 16.000000
83.060070 21.000000
83.063260 53.000000
83.070400 39.000000
90.895660 19.000000
91.034320 66.000000
91.054460 634.000000
91.212110 17.000000
92.055280 37.000000
92.071140 23.000000
93.060060 34.000000
93.070740 839.000000
93.224090 17.000000
94.062980 100.000000
94.069330 107.000000
94.079670 17.000000
95.067650 41.000000
95.079710 22.000000
95.085050 45.000000
96.076580 35.000000
97.992740 18.000000
98.098040 373.000000
98.263210 16.000000
107.047560 31.000000
108.080170 127.000000
108.088600 22.000000
109.089350 28.000000
124.082160 19.000000
124.105880 131.000000
124.114100 152.000000
125.100170 20.000000
142.084730 32.000000
142.122860 1000.000000
143.123600 107.000000
276.149750 34.000000
276.159480 95.000000

>ms2peaks
91.053410 6.000000
93.069950 59.000000
98.098520 6.000000
124.112330 200.000000
125.115670 20.000000
142.122530 115.000000
143.122120 9.000000
143.128300 7.000000
276.161040 1000.000000
276.208920 32.000000

>ms2peaks
124.113210 12.000000
276.159700 1000.000000
276.207310 35.000000

>ms2peaks
58.065960 11.000000
67.051710 10.000000
67.055810 24.000000
68.051830 7.000000
70.065940 10.000000
77.038840 48.000000
79.052670 10.000000
79.056770 11.000000
82.065030 15.000000
91.055200 102.000000
92.057980 10.000000
93.070760 554.000000
94.073220 37.000000
95.069900 6.000000
95.075060 8.000000
95.087070 45.000000
96.082200 14.000000
98.095870 46.000000
107.049630 18.000000
109.090350 6.000000
124.092850 6.000000
124.112680 1000.000000
125.115770 93.000000
126.117530 5.000000
142.093950 5.000000
142.100460 8.000000
142.123050 855.000000
143.116410 12.000000
143.127230 75.000000
276.160340 164.000000

>ms2peaks
55.018520 28.000000
55.051810 20.000000
57.059440 33.000000
57.510910 18.000000
58.062780 41.000000
65.040700 22.000000
67.053870 206.000000
67.966930 18.000000
68.041660 25.000000
68.051280 59.000000
70.069250 93.000000
77.033390 92.000000
77.039330 514.000000
77.070370 18.000000
78.044570 52.000000
79.055250 282.000000
82.067550 51.000000
83.071300 27.000000
91.042120 21.000000
91.054640 790.000000
91.161380 18.000000
92.057220 29.000000
92.834430 29.000000
93.062570 61.000000
93.071000 593.000000
93.080400 56.000000
94.068840 30.000000
95.070590 18.000000
95.081140 56.000000
95.085560 190.000000
96.079520 75.000000
96.087690 23.000000
98.086720 46.000000
98.097560 335.000000
98.505900 21.000000
105.068920 23.000000
107.040020 26.000000
107.051980 18.000000
108.076940 20.000000
108.087790 63.000000
111.088610 27.000000
124.097910 25.000000
124.113200 213.000000
125.105560 19.000000
125.117580 21.000000
142.104550 28.000000
142.123600 1000.000000
143.109940 43.000000
143.122180 41.000000
143.130050 32.000000
166.088470 32.000000

>ms2peaks
91.053380 8.000000
93.070240 67.000000
124.111960 203.000000
125.115600 19.000000
142.122890 117.000000
143.126590 14.000000
276.159730 1000.000000
276.207790 27.000000

>ms2peaks
124.111630 11.000000
276.159060 1000.000000
276.206570 35.000000
276.354710 5.000000

>ms2peaks
58.065270 9.000000
67.053010 14.000000
67.057670 22.000000
70.063440 5.000000
70.067500 5.000000
77.038270 22.000000
79.051160 5.000000
82.064960 12.000000
83.072600 17.000000
91.052920 59.000000
91.057330 70.000000
93.070480 608.000000
94.070820 14.000000
94.077100 17.000000
95.069560 5.000000
95.079930 10.000000
95.087140 38.000000
96.076260 6.000000
96.082370 14.000000
98.095690 19.000000
98.102330 13.000000
99.100490 6.000000
107.054210 7.000000
107.091910 5.000000
109.088840 7.000000
110.087340 7.000000
111.079730 9.000000
122.093810 5.000000
124.112330 1000.000000
125.115280 87.000000
125.121810 19.000000
126.121860 5.000000
142.097240 5.000000
142.122770 942.000000
143.125760 101.000000
276.156100 111.000000
276.168980 65.000000

>ms2peaks
57.050670 18.000000
58.181460 17.000000
65.040060 20.000000
67.056630 156.000000
68.034260 18.000000
68.049700 27.000000
70.064130 51.000000
77.038830 424.000000
78.046510 30.000000
78.052260 21.000000
79.042410 15.000000
79.053700 168.000000
79.060410 41.000000
80.061320 16.000000
81.050820 28.000000
82.067230 93.000000
83.053260 18.000000
83.075170 38.000000
83.089320 21.000000
91.056280 823.000000
91.994660 16.000000
92.060360 36.000000
92.065960 20.000000
93.069120 510.000000
93.079000 85.000000
94.063740 46.000000
94.069010 23.000000
95.056410 22.000000
95.066940 16.000000
95.075590 74.000000
95.090840 103.000000
96.073380 57.000000
96.081520 133.000000
96.090680 21.000000
98.084530 16.000000
98.096630 246.000000
99.105100 19.000000
107.041450 16.000000
107.054180 49.000000
108.077370 23.000000
109.085150 18.000000
109.092860 26.000000
110.104900 15.000000
111.078170 18.000000
122.093740 26.000000
124.106990 74.000000
124.114480 403.000000
125.116930 64.000000
142.080350 24.000000
142.122940 1000.000000
143.017780 15.000000
143.120640 15.000000
143.127400 41.000000

>ms2peaks
58.398990 20.000000
67.050000 24.000000
67.054920 26.000000
67.058860 22.000000
70.058010 24.000000
70.062980 26.000000
77.022090 24.000000
77.033960 15.000000
77.039800 87.000000
79.054570 104.000000
79.064290 27.000000
81.058430 44.000000
82.061050 24.000000
82.067730 26.000000
83.065990 24.000000
83.072130 49.000000
83.797210 18.000000
89.897610 20.000000
91.038190 19.000000
91.052570 180.000000
91.058580 150.000000
92.054860 21.000000
92.158450 22.000000
93.051860 18.000000
93.070050 1959.000000
93.610000 20.000000
93.998450 20.000000
94.071210 98.000000
94.076720 108.000000
95.074530 26.000000
95.086530 96.000000
96.075680 25.000000
96.080980 20.000000
96.886730 17.000000
97.777070 17.000000
98.087100 25.000000
98.098720 198.000000
107.046330 191.000000
107.075040 27.000000
107.089230 18.000000
107.738780 22.000000
111.081850 22.000000
118.041950 18.000000
122.093800 20.000000
123.712320 19.000000
124.081300 22.000000
124.088150 24.000000
124.095530 45.000000
124.111870 7371.000000
124.528500 17.000000
124.538830 20.000000
124.663300 19.000000
125.101570 17.000000
125.110490 321.000000
125.117490 359.000000
125.714070 20.000000
126.122150 40.000000
126.143540 19.000000
126.780020 25.000000
141.528150 18.000000
142.102510 56.000000
142.122060 4446.000000
143.022520 17.000000
143.075740 18.000000
143.101880 79.000000
143.119670 185.000000
143.127330 315.000000
143.206220 17.000000
143.829250 22.000000
144.122650 20.000000
154.710140 21.000000
160.069500 17.000000
164.845490 21.000000
165.057500 25.000000
165.694290 22.000000
166.037080 24.000000
168.755770 17.000000
194.288300 19.000000
198.431990 28.000000
201.694670 24.000000
230.204940 25.000000
270.739290 21.000000
275.116270 23.000000
275.611880 23.000000
276.080870 33.000000
276.098690 40.000000
276.115810 261.000000
276.159420 36190.000000
276.206820 1104.000000
276.248600 34.000000
276.353940 141.000000

