>compound PR17954948
>parentmass 522.35665
>ionization [M+H]+
>formula C26H52NO7P
>rt 611.100000
>profile qtof
#smiles_iso CCCCCCCCC=CCCCCCCCC(=O)OCC(COP(=O)([O-])OCC[N+](C)(C)C)O
#smiles_can CCCCCCCCC=CCCCCCCCC(=O)OCC(COP(=O)([O-])OCC[N+](C)(C)C)O
#inchikey YAMUFBLWGFFICM-UHFFFAOYSA-N
#pubchem_id 3082003
#mb_accession PR310845,PR310846

>ms2
86.098530 49.000000
104.108030 78.000000
104.660530 16.000000
125.003570 50.000000
169.082990 16.000000
184.048780 17.000000
184.074970 857.000000
185.077970 129.000000
226.012410 17.000000
263.546390 24.000000
282.011840 25.000000
296.029630 19.000000
339.303280 26.000000
401.335910 21.000000
432.947720 16.000000
504.332030 50.000000
504.351870 17.000000
522.341980 240.000000
522.365170 155.000000

>ms2
60.077300 22.000000
67.052560 35.000000
86.096340 100.000000
86.100520 171.000000
104.108220 1004.000000
105.116870 18.000000
119.694790 16.000000
124.994220 49.000000
125.003330 133.000000
153.120770 16.000000
163.012130 33.000000
184.050480 21.000000
184.075970 2548.000000
185.071700 70.000000
186.078050 111.000000
197.241180 40.000000
258.118590 16.000000
333.860470 17.000000
339.295350 89.000000
339.307890 66.000000
436.125610 16.000000
446.252010 17.000000
504.322910 52.000000
504.353120 299.000000
505.331450 16.000000
505.358490 111.000000
506.339260 21.000000
522.186220 16.000000
522.261230 16.000000
522.309080 66.000000
522.355770 5507.000000

