>compound PR17610108
>parentmass 285.0764
>ionization [M+H]+
>formula C16H12O5
>rt 318.000000
>profile qtof
#smiles_iso COC1=C(C=C2C(=C1)C(=O)C(=CO2)C3=CC=C(C=C3)O)O
#smiles_can COC1=C(C=C2C(=C1)C(=O)C(=CO2)C3=CC=C(C=C3)O)O
#inchikey DXYUAIFZCFRPTH-UHFFFAOYSA-N
#pubchem_id 5317750
#mb_accession PR310860

>ms2peaks
69.666690 19.000000
78.045390 20.000000
81.033460 25.000000
89.031980 26.000000
105.033860 25.000000
109.370370 27.000000
118.041150 21.000000
134.034560 36.000000
135.050840 18.000000
136.126160 22.000000
137.023850 71.000000
137.033680 24.000000
141.071230 59.000000
145.025440 22.000000
146.066560 18.000000
155.060300 19.000000
157.055360 26.000000
158.076570 44.000000
162.021090 18.000000
165.912920 17.000000
186.073870 54.000000
197.062650 41.000000
212.061140 24.000000
213.047520 22.000000
213.071370 23.000000
214.059190 130.000000
214.067150 80.000000
225.050980 24.000000
229.069690 18.000000
230.082870 20.000000
230.106490 20.000000
241.046310 29.000000
241.054780 21.000000
242.065840 41.000000
253.053360 20.000000
257.078400 25.000000
257.094180 20.000000
269.029510 18.000000
270.052520 113.000000
285.041410 17.000000
285.075200 1410.000000

