>compound PR18547465
>parentmass 276.1445
>ionization [M-H2O+H]+
>formula C12H23NO7
>rt 119.400000
>profile qtof
#smiles_iso CCC(C)C(C(=O)O)NCC1(C(C(C(O1)CO)O)O)O
#smiles_can CCC(C)C(C(=O)O)NCC1(C(C(C(O1)CO)O)O)O
#inchikey VYGRYVGDPYFVCA-UHFFFAOYSA-N
#pubchem_id 139292115
#mb_accession PR310825

>ms2
71.050870 16.000000
81.034780 16.000000
85.032420 32.000000
86.041330 20.000000
86.096420 199.000000
87.029540 181.000000
88.036300 47.000000
88.040530 47.000000
88.045820 22.000000
89.014270 17.000000
95.084020 16.000000
96.044240 17.000000
96.084070 31.000000
97.024220 39.000000
97.030310 40.000000
97.045640 30.000000
97.054650 26.000000
98.029880 22.000000
98.052150 49.000000
98.057770 15.000000
98.082470 22.000000
98.095950 61.000000
99.041470 27.000000
101.014350 59.000000
109.029130 29.000000
112.029800 30.000000
112.040120 105.000000
114.052490 16.000000
114.058790 33.000000
115.036450 18.000000
115.536700 21.000000
116.103810 24.000000
124.068600 18.000000
127.040340 18.000000
129.053440 33.000000
129.113510 17.000000
132.102040 185.000000
132.109420 40.000000
138.059950 23.000000
138.068330 20.000000
138.093520 24.000000
142.119830 18.000000
143.059510 40.000000
143.069640 30.000000
144.069630 23.000000
144.103410 85.000000
145.040620 25.000000
145.061510 20.000000
145.100270 25.000000
145.108540 17.000000
146.119690 30.000000
156.055370 24.000000
158.124860 20.000000
161.068830 104.000000
164.093520 20.000000
164.105390 31.000000
164.113420 107.000000
166.122600 35.000000
168.102630 20.000000
170.124150 18.000000
174.071910 18.000000
174.114410 25.000000
194.115080 21.000000
194.124360 33.000000
198.106870 21.000000
210.108830 64.000000
210.122670 16.000000
212.128270 247.000000
212.144520 16.000000
213.139370 62.000000
230.110230 23.000000
230.137630 617.000000
231.110980 26.000000
231.141560 75.000000
231.156450 76.000000
232.072660 16.000000
236.920440 17.000000
240.112350 17.000000
241.124510 23.000000
247.911940 22.000000
248.141800 46.000000
248.168380 45.000000
249.153760 25.000000
258.082920 17.000000
258.129430 553.000000
258.139740 347.000000
259.119480 17.000000
259.138490 168.000000
260.134310 27.000000
273.325100 17.000000
276.097200 40.000000
276.118230 55.000000
276.145390 2460.000000

