>compound PR18324403
>parentmass 499.2072
>ionization [M+H]+
>formula C26H30N2O8
>rt 333.600000
>profile qtof
#smiles_iso C=CC1C2CC3C4=C(CCN3C(=O)C2=COC1OC5C(C(C(C(O5)CO)O)O)O)C6=CC=CC=C6N4
#smiles_can C=CC1C2CC3C4=C(CCN3C(=O)C2=COC1OC5C(C(C(C(O5)CO)O)O)O)C6=CC=CC=C6N4
#inchikey LBRPLJCNRZUXLS-UHFFFAOYSA-N
#pubchem_id 5015264
#mb_accession PR311107

>ms2peaks
58.066190 16.000000
58.913300 21.000000
65.518050 20.000000
86.507870 37.000000
92.050900 16.000000
96.043300 16.000000
105.924560 26.000000
121.063560 37.000000
122.071190 16.000000
130.061040 16.000000
138.094830 20.000000
143.955600 17.000000
144.075790 289.000000
144.084700 322.000000
145.082150 19.000000
145.089310 43.000000
146.093800 46.000000
146.101960 16.000000
147.053070 16.000000
149.050080 16.000000
149.062060 83.000000
150.067260 20.000000
154.065290 32.000000
162.114990 25.000000
168.077210 27.000000
169.076870 16.000000
170.083330 20.000000
170.094760 202.000000
170.106740 80.000000
170.390090 33.000000
171.070540 24.000000
171.091740 5396.000000
171.108060 54.000000
172.093770 662.000000
172.110310 21.000000
177.076540 23.000000
179.936630 16.000000
184.075490 18.000000
185.111770 16.000000
194.091190 37.000000
196.108840 20.000000
202.849090 31.000000
203.737990 28.000000
206.898560 16.000000
211.081650 33.000000
213.104550 64.000000
216.930660 17.000000
219.097600 18.000000
223.703520 16.000000
224.095230 16.000000
230.962540 19.000000
232.111800 16.000000
232.966520 16.000000
233.842150 17.000000
237.101040 16.000000
238.088460 48.000000
239.130330 25.000000
242.239520 18.000000
249.102750 16.000000
250.104860 18.000000
251.076930 17.000000
252.128230 16.000000
253.086870 18.000000
255.440950 22.000000
263.239990 22.000000
265.098180 115.000000
265.112700 43.000000
266.093290 46.000000
266.954650 30.000000
267.114380 3449.000000
267.165470 21.000000
267.591340 27.000000
267.633420 33.000000
268.083620 18.000000
268.110810 327.000000
268.126400 223.000000
268.823640 16.000000
269.118040 97.000000
270.608060 22.000000
275.112700 39.000000
291.143100 16.000000
293.157870 16.000000
294.174470 17.000000
294.371340 17.000000
300.005830 22.000000
301.140560 29.000000
303.113680 17.000000
308.159550 20.000000
309.166230 33.000000
309.178250 38.000000
315.514400 16.000000
319.119290 19.000000
319.137850 17.000000
319.156950 38.000000
320.147640 77.000000
320.170100 42.000000
321.679470 16.000000
323.377930 25.000000
337.018860 17.000000
337.102050 22.000000
337.155300 9417.000000
337.195560 16.000000
337.210720 16.000000
337.255580 16.000000
337.517060 28.000000
338.093510 18.000000
338.158870 2521.000000
338.364750 20.000000
339.145900 151.000000
339.169890 255.000000
340.170590 16.000000
341.172450 18.000000
347.124690 18.000000
349.288330 16.000000
350.001830 29.000000
356.133640 23.000000
358.159060 19.000000
363.776640 16.000000
374.791440 18.000000
396.487550 29.000000
401.244200 17.000000
427.147710 17.000000
459.588870 22.000000
481.180210 22.000000
481.197510 16.000000
481.219020 18.000000
482.208370 38.000000
497.154850 16.000000
497.182530 35.000000
497.201810 34.000000
498.184170 24.000000
498.209590 32.000000

