>compound PR18511626
>parentmass 211.1441039692308
>ionization [M+H]+
>formula C11H18N2O2
>rt 241.581231
>profile qtof
#smiles_iso CC(C)CC1C(=O)N2CCCC2C(=O)N1
#smiles_can CC(C)CC1C(=O)N2CCCC2C(=O)N1
#inchikey SZJNCZMRZAUNQT-UHFFFAOYSA-N
#pubchem_id 102892
#mb_accession PR300771,PR300776,PR300781,PR300786,PR300791,PR300796,PR300801,PR300806,PR300811,PR300816,PR300821,PR300826,PR311142

>ms2peaks
58.034240 6.000000
70.066440 94.000000
72.043460 9.000000
86.097720 98.000000
98.061780 57.000000
110.064490 6.000000
114.083350 6.000000
114.090720 26.000000
127.087810 14.000000
138.129550 60.000000
155.076770 5.000000
155.155990 9.000000
166.141360 6.000000
167.129790 6.000000
183.135470 7.000000
183.153020 43.000000
194.119690 8.000000
211.145110 1000.000000

>ms2peaks
70.066930 13.000000
86.097570 44.000000
183.149730 17.000000
211.144650 1000.000000
211.186450 7.000000

>ms2peaks
56.043640 26.000000
56.050910 19.000000
69.069350 27.000000
70.066050 871.000000
71.064700 21.000000
71.073650 28.000000
72.046680 296.000000
72.080250 22.000000
73.050150 41.000000
82.063430 49.000000
83.069320 20.000000
83.794060 25.000000
86.089560 25.000000
86.097560 132.000000
93.055930 32.000000
94.055530 48.000000
94.063540 20.000000
95.077320 21.000000
96.078520 26.000000
98.031010 38.000000
98.050330 63.000000
98.061310 1000.000000
99.061230 23.000000
99.067410 22.000000
110.067730 19.000000
112.026810 27.000000
114.087570 146.000000
114.098000 55.000000
115.098430 34.000000
122.090500 27.000000
123.073330 26.000000
123.095950 32.000000
125.068000 18.000000
126.044650 18.000000
126.074520 38.000000
127.083620 32.000000
135.843540 21.000000
137.069170 19.000000
138.054340 25.000000
138.115040 18.000000
138.128800 521.000000
139.121840 21.000000
151.058120 19.000000
151.124070 21.000000
151.131760 32.000000
152.071380 21.000000
153.062240 26.000000
154.072970 123.000000
154.080020 49.000000
155.076580 22.000000
166.122960 21.000000
169.935750 18.000000
178.116960 20.000000
183.122040 18.000000
183.156620 51.000000
209.125080 29.000000
211.141850 201.000000

>ms2peaks
97.040770 221.000000
98.055980 274.000000
109.042430 284.000000
137.070480 179.000000
153.065230 263.000000
211.151600 1000.000000

>ms2peaks
70.061510 44.000000
70.066640 48.000000
86.097670 60.000000
98.062810 60.000000
99.062760 5.000000
112.031460 5.000000
114.086050 25.000000
114.093480 18.000000
127.084250 16.000000
138.128130 50.000000
139.132580 9.000000
146.556490 7.000000
154.073720 7.000000
155.152450 9.000000
166.118090 7.000000
183.145460 30.000000
194.117370 6.000000
210.997760 5.000000
211.117950 20.000000
211.144990 1000.000000

>ms2peaks
70.066220 9.000000
86.096560 23.000000
86.100950 9.000000
183.150650 7.000000
211.098500 6.000000
211.144780 1000.000000
211.182100 8.000000

>ms2peaks
68.045480 31.000000
70.066020 1000.000000
71.066800 71.000000
71.821560 31.000000
72.043990 167.000000
72.047910 154.000000
74.045820 47.000000
84.086370 27.000000
86.097110 35.000000
86.102230 47.000000
94.063450 28.000000
96.080310 113.000000
98.055920 85.000000
98.061970 385.000000
98.067560 137.000000
99.063480 49.000000
99.711810 28.000000
108.081200 38.000000
112.025300 33.000000
114.096060 71.000000
125.072630 39.000000
126.076020 33.000000
137.070690 44.000000
137.078990 33.000000
138.114580 25.000000
138.130450 333.000000
139.135670 30.000000
154.074770 112.000000
155.075970 35.000000
155.157990 80.000000
182.134410 33.000000
183.144230 39.000000
183.154830 28.000000
183.167240 42.000000
193.256320 27.000000
211.140170 57.000000
211.147570 110.000000

>ms2peaks
211.140840 1000.000000
211.151690 622.000000

>ms2peaks
70.066360 96.000000
71.070690 8.000000
86.091620 26.000000
86.096890 91.000000
96.080740 5.000000
98.060100 58.000000
99.066080 8.000000
114.083320 6.000000
114.091020 36.000000
114.097870 8.000000
115.096020 7.000000
126.076530 6.000000
127.093930 6.000000
138.129260 54.000000
155.159940 7.000000
156.157580 7.000000
166.125410 6.000000
183.141250 17.000000
183.150710 44.000000
184.160110 8.000000
211.144930 1000.000000
211.181460 9.000000

>ms2peaks
86.097310 27.000000
183.146870 8.000000
211.107470 6.000000
211.144960 1000.000000
211.186720 14.000000

>ms2peaks
55.023060 22.000000
69.054800 22.000000
70.053240 21.000000
70.067120 1000.000000
71.053600 19.000000
71.065380 35.000000
71.074270 48.000000
72.045270 280.000000
72.080660 40.000000
73.047900 16.000000
81.075270 19.000000
83.068560 15.000000
84.078080 16.000000
86.096930 147.000000
87.098130 20.000000
95.070080 23.000000
96.039460 25.000000
96.045570 19.000000
96.077060 15.000000
96.081930 56.000000
98.060720 520.000000
99.044440 18.000000
99.067050 18.000000
110.060750 24.000000
112.092220 30.000000
114.065860 15.000000
114.083390 17.000000
114.092650 160.000000
115.095500 37.000000
122.086870 17.000000
127.083120 34.000000
127.093220 15.000000
138.129210 244.000000
139.126820 58.000000
139.137020 34.000000
141.034010 15.000000
141.109300 27.000000
151.125430 24.000000
152.071980 19.000000
153.065230 45.000000
154.042800 19.000000
154.066390 54.000000
154.080140 108.000000
155.072620 17.000000
155.151640 33.000000
182.129750 16.000000
183.139620 31.000000
183.155550 54.000000
194.115890 36.000000
205.580670 21.000000
211.143300 17.000000
211.154130 16.000000

>ms2peaks
70.056950 198.000000
70.067130 208.000000
72.048040 312.000000
98.047500 177.000000
98.059310 240.000000
98.065860 208.000000
108.079220 229.000000
114.092500 208.000000
137.074920 208.000000
164.835710 240.000000
211.130980 188.000000
211.147110 1000.000000

>ms2peaks
57.022400 26.000000
58.034240 46.000000
70.066440 779.000000
71.060480 21.000000
71.070860 17.000000
72.043460 73.000000
73.049280 17.000000
76.181850 20.000000
81.071060 26.000000
82.063720 26.000000
86.077270 19.000000
86.088850 35.000000
86.097720 814.000000
87.105570 41.000000
88.097180 21.000000
97.070990 20.000000
98.045760 24.000000
98.061780 468.000000
98.099490 21.000000
99.072140 20.000000
105.067730 25.000000
109.419880 21.000000
110.064490 49.000000
114.083350 49.000000
114.090720 215.000000
115.097530 22.000000
116.836110 19.000000
124.933880 23.000000
124.969060 27.000000
126.133150 17.000000
127.064500 20.000000
127.087810 112.000000
127.095380 29.000000
127.130000 33.000000
138.129550 500.000000
139.082840 18.000000
139.128770 21.000000
140.592160 24.000000
150.105850 30.000000
152.236250 18.000000
154.075160 17.000000
155.076770 44.000000
155.155990 71.000000
155.524050 27.000000
159.315220 18.000000
160.612270 25.000000
165.137850 20.000000
166.124240 32.000000
166.141360 49.000000
167.129790 51.000000
167.146840 25.000000
168.138820 25.000000
169.103260 17.000000
169.692980 30.000000
183.123250 24.000000
183.135470 60.000000
183.153020 354.000000
184.151310 38.000000
185.386410 18.000000
186.643040 19.000000
194.107680 22.000000
194.119690 68.000000
207.053270 18.000000
210.439220 17.000000
211.107420 23.000000
211.145110 8271.000000
211.167280 28.000000
211.184910 19.000000

