>compound PR18900181
>parentmass 425.1966
>ionization [M+H]+
>formula C25H28O6
>rt 545.400000
>profile qtof
#smiles_iso CC(=CCC1=C(C(=CC(=C1)C2CC(=O)C3=C(C=C(C(=C3O2)CC=C(C)C)O)O)O)O)C
#smiles_can CC(=CCC1=C(C(=CC(=C1)C2CC(=O)C3=C(C=C(C(=C3O2)CC=C(C)C)O)O)O)O)C
#inchikey HCBKENVWCDLQOA-UHFFFAOYSA-N
#pubchem_id 480770
#mb_accession PR310771

>ms2peaks
69.069200 25.000000
123.007610 20.000000
123.043550 18.000000
137.021300 21.000000
139.039980 26.000000
141.070770 23.000000
157.074260 23.000000
158.013020 18.000000
163.023680 17.000000
165.018390 745.000000
166.025450 160.000000
167.024190 17.000000
167.042800 34.000000
167.090360 17.000000
168.838270 17.000000
171.076290 17.000000
171.084980 21.000000
177.086620 18.000000
183.082400 18.000000
191.033620 17.000000
191.042630 23.000000
191.099490 18.000000
193.049840 17.000000
193.056410 53.000000
205.118730 20.000000
221.074750 34.000000
221.087360 22.000000
225.081570 25.000000
229.083860 24.000000
231.094300 18.000000
241.055340 20.000000
247.100220 25.000000
247.110960 29.000000
248.098070 24.000000
257.093540 17.000000
295.052490 17.000000
295.080600 47.000000
298.662480 17.000000
301.107570 21.000000
327.112180 17.000000
335.311430 25.000000
351.113040 43.000000
351.153350 33.000000
364.146360 32.000000
369.102750 25.000000
369.127320 332.000000
369.143250 83.000000
370.083310 21.000000
370.120940 29.000000
370.138180 66.000000
384.134980 24.000000
425.175380 77.000000
425.195950 777.000000
425.238710 25.000000

