>compound PR18545974
>parentmass 937.4787
>ionization [M+H]+
>formula C48H72O18
>rt 477.600000
>profile qtof
#smiles_iso CC1=C(C(=O)CC(O1)OC2CC(CC3C2(CCC4(C3=CCC5C4(CCC6C5(CCC(C6(C)CO)OC7C(C(C(C(O7)C(=O)O)O)O)OC8C(C(C(C(O8)C(=O)O)O)O)O)C)C)C)C)(C)C)O
#smiles_can CC1=C(C(=O)CC(O1)OC2CC(CC3C2(CCC4(C3=CCC5C4(CCC6C5(CCC(C6(C)CO)OC7C(C(C(C(O7)C(=O)O)O)O)OC8C(C(C(C(O8)C(=O)O)O)O)O)C)C)C)C)(C)C)O
#inchikey WDQWPGLHLXQCEK-UHFFFAOYSA-N
#pubchem_id 139292121
#mb_accession PR310672

>ms2
98.048680 41.000000
135.114970 19.000000
141.014250 66.000000
141.020890 39.000000
145.048520 144.000000
149.133390 18.000000
159.028520 77.000000
164.147690 20.000000
177.038710 24.000000
187.142210 17.000000
188.160060 24.000000
189.157410 20.000000
191.183580 20.000000
195.182620 22.000000
201.171130 24.000000
203.167270 27.000000
203.178120 35.000000
205.160260 30.000000
205.202610 34.000000
206.099140 25.000000
208.172970 23.000000
213.160060 27.000000
215.178890 92.000000
217.187670 66.000000
217.198000 63.000000
218.172640 22.000000
218.199780 35.000000
223.166870 17.000000
227.186460 23.000000
229.191210 37.000000
229.208010 21.000000
236.218750 24.000000
241.204540 20.000000
244.207350 23.000000
245.169330 24.000000
255.196790 18.000000
255.214550 23.000000
257.222020 19.000000
259.235990 24.000000
259.250950 17.000000
263.069950 19.000000
271.048710 17.000000
271.244480 23.000000
285.216920 17.000000
297.255340 24.000000
311.276670 17.000000
317.044710 41.000000
325.286870 22.000000
335.065730 19.000000
339.158290 33.000000
340.344210 18.000000
352.178960 21.000000
353.058960 20.000000
365.324250 18.000000
367.463840 35.000000
371.173400 39.000000
379.330840 22.000000
393.336910 27.000000
405.351900 96.000000
406.346160 48.000000
421.357330 24.000000
423.351320 432.000000
423.369870 279.000000
423.391970 22.000000
424.372040 209.000000
425.359440 25.000000
441.371550 41.000000
441.388340 20.000000
442.377810 37.000000
459.322170 21.000000
514.188960 22.000000
518.625120 23.000000
549.374940 23.000000
549.392150 18.000000
551.416990 20.000000
567.392150 85.000000
567.425110 71.000000
568.410890 53.000000
569.373720 21.000000
569.401120 23.000000
581.367190 35.000000
582.361690 33.000000
585.421570 100.000000
586.415100 18.000000
586.431700 17.000000
598.179990 20.000000
599.399720 18.000000
599.711790 23.000000
600.348630 25.000000
600.417240 23.000000
640.149540 17.000000
743.411990 22.000000
743.445130 60.000000
743.488830 18.000000
744.428100 17.000000
761.470400 28.000000
813.657710 18.000000
919.445130 26.000000
924.220520 27.000000
937.272710 28.000000
937.474730 1343.000000
937.555600 17.000000

