>compound PR18994005
>parentmass 561.1601
>ionization [M+H]+
>formula C20H32O18
>rt 328.800000
>profile qtof
#smiles_iso CC(=O)OC1C(C(C(OC1C(=O)O)OC2C(C(OC(C2O)O)CO)O)O)OC3C(C(C(C(O3)CO)O)O)O
#smiles_can CC(=O)OC1C(C(C(OC1C(=O)O)OC2C(C(OC(C2O)O)CO)O)O)OC3C(C(C(C(O3)CO)O)O)O
#inchikey ICLQXMKQSCTZSF-UHFFFAOYSA-N
#pubchem_id 139291888
#mb_accession PR310693

>ms2
97.026960 52.000000
149.039350 23.000000
149.049590 54.000000
162.047970 17.000000
162.056470 18.000000
162.075990 21.000000
174.057300 21.000000
183.052370 20.000000
188.033950 18.000000
201.048200 20.000000
208.057830 20.000000
208.067580 40.000000
209.258960 34.000000
221.059190 17.000000
238.071950 51.000000
238.087590 20.000000
246.046450 27.000000
256.087980 23.000000
270.044400 17.000000
275.101990 16.000000
277.696110 33.000000
314.088170 16.000000
327.069030 19.000000
344.013760 36.000000
354.115200 17.000000
369.099880 20.000000
369.112240 46.000000
374.010860 16.000000
377.117980 20.000000
396.097050 18.000000
399.121340 16.000000
399.240420 17.000000
400.139980 114.000000
401.135350 17.000000
411.122770 30.000000
417.139040 33.000000
465.109560 16.000000
477.110810 21.000000
477.130220 36.000000
478.121250 16.000000
507.122960 20.000000
520.158140 23.000000
525.140200 20.000000
543.152950 37.000000
561.080510 37.000000
561.153870 338.000000
561.180850 162.000000

