>compound PR19217825
>parentmass 234.099
>ionization [M+H]+
>formula C10H19NOS2
>rt 424.200000
>profile qtof
#smiles_iso CS(=O)CCCCCCCCN=C=S
#smiles_can CS(=O)CCCCCCCCN=C=S
#inchikey BCRXKWOQVFKZAG-UHFFFAOYSA-N
#pubchem_id 9794659
#mb_accession PR310887

>ms2peaks
84.061140 17.000000
84.087550 18.000000
93.070990 17.000000
101.044740 23.000000
102.042580 18.000000
103.033150 29.000000
108.076620 18.000000
108.082990 61.000000
110.096250 21.000000
114.038850 89.000000
115.061340 20.000000
123.083520 20.000000
126.113620 20.000000
126.131130 22.000000
161.110280 17.000000
162.107890 20.000000
170.086410 20.000000
170.098750 176.000000
171.107850 17.000000
172.095400 20.000000
178.127140 24.000000
234.097690 581.000000

