>compound PR19038339
>parentmass 307.0975
>ionization [M+H]+
>formula C11H18N2O6S
>rt 107.400000
>profile qtof
#smiles_iso CC=CS(=O)CC(C(=O)O)NC(=O)CCC(C(=O)O)N
#smiles_can CC=CS(=O)CC(C(=O)O)NC(=O)CCC(C(=O)O)N
#inchikey LMNDKWXDMBGGAL-UHFFFAOYSA-N
#pubchem_id 59915712
#mb_accession PR310783

>ms2
68.052890 17.000000
70.441960 16.000000
84.043230 72.000000
84.051910 25.000000
88.038980 118.000000
89.047040 18.000000
96.046810 19.000000
97.031990 37.000000
99.061150 25.000000
109.030650 16.000000
125.068080 45.000000
130.051450 334.000000
131.052370 25.000000
132.056170 58.000000
136.072080 30.000000
145.047090 21.000000
151.029020 26.000000
166.053270 30.000000
166.057530 69.000000
168.064510 39.000000
178.049260 27.000000
178.059080 77.000000
179.057480 24.000000
200.037570 16.000000
204.060120 20.000000
214.071590 111.000000
217.083860 510.000000
218.081790 74.000000
227.500200 24.000000
249.048900 20.000000
253.154040 21.000000
258.771910 17.000000
307.095520 91.000000

