>compound PR19469265
>parentmass 231.1707
>ionization [M+H]+
>formula C11H22N2O3
>rt 153.000000
>profile qtof
#smiles_iso CCC(C)C(C(=O)NC(C(C)C)C(=O)O)N
#smiles_can CCC(C)C(C(=O)NC(C(C)C)C(=O)O)N
#inchikey BCXBIONYYJCSDF-UHFFFAOYSA-N
#pubchem_id 435949
#mb_accession PR311047

>ms2peaks
85.026240 16.000000
86.083890 18.000000
86.098820 218.000000
87.099300 17.000000
143.310590 16.000000
185.163040 20.000000
187.140520 25.000000
213.163020 34.000000
230.156220 20.000000
231.167310 122.000000

