>compound PR19160266
>parentmass 637.2908281
>ionization [M+H]+
>formula C38H40N2O7
>rt 255.280020
>profile qtof
#smiles_iso CN1CCC2=C3[C@@H]1CC4=CC(=C(C=C4)OC)OC5=CC=C(CC6=NCCC7=CC(=C(C=C76)OC3=C(C(=C2OC)OC)OC)OC)C=C5
#smiles_can CN1CCC2=C3C1CC4=CC(=C(C=C4)OC)OC5=CC=C(CC6=NCCC7=CC(=C(C=C76)OC3=C(C(=C2OC)OC)OC)OC)C=C5
#inchikey YWNUNVSMOKMJMG-LJAQVGFWSA-N
#pubchem_id 362568
#mb_accession PR300657,PR300662,PR300667,PR300672,PR300677,PR300682,PR300687,PR300692,PR300697,PR300702,PR300707,PR300712

>ms2
188.071270 6.000000
265.119690 12.000000
323.157560 7.000000
354.161320 6.000000
368.170410 6.000000
370.157650 11.000000
388.189210 7.000000
401.154360 6.000000
402.176790 8.000000
416.199460 14.000000
426.505920 5.000000
431.248870 6.000000
550.242680 9.000000
562.219300 5.000000
576.193360 10.000000
576.207760 17.000000
577.207030 14.000000
577.229190 5.000000
578.235840 5.000000
578.264590 7.000000
579.201290 7.000000
589.238890 8.000000
591.237060 12.000000
592.245000 10.000000
594.277950 5.000000
605.259090 30.000000
606.172060 5.000000
606.257810 48.000000
607.230710 32.000000
607.268860 37.000000
608.243230 12.000000
608.270260 9.000000
609.233520 8.000000
621.261050 20.000000
622.255430 7.000000
637.229920 22.000000
637.293580 1000.000000

>ms2
504.354370 5.000000
637.194270 10.000000
637.225710 21.000000
637.289000 1000.000000

>ms2
177.049840 5.000000
189.119710 5.000000
193.080050 6.000000
195.109700 5.000000
204.109770 6.000000
220.109590 8.000000
221.086550 9.000000
236.084960 12.000000
249.127140 6.000000
263.098450 7.000000
265.119140 9.000000
279.142940 8.000000
282.106870 10.000000
294.075470 7.000000
318.528750 6.000000
324.145170 13.000000
352.269650 6.000000
355.162840 8.000000
371.140440 5.000000
386.134830 6.000000
386.189790 9.000000
387.215270 5.000000
400.215030 7.000000
402.156830 10.000000
403.186160 6.000000
407.154600 5.000000
412.169040 5.000000
416.222990 18.000000
417.200500 5.000000
418.517270 6.000000
424.128690 8.000000
430.182010 8.000000
441.522130 7.000000
455.235440 5.000000
485.206020 5.000000
516.162840 6.000000
517.227420 6.000000
518.099370 6.000000
542.217710 6.000000
546.192380 9.000000
560.120480 5.000000
562.205320 5.000000
565.222170 9.000000
568.219600 6.000000
573.199160 7.000000
574.198850 13.000000
574.237550 9.000000
575.213130 8.000000
575.249390 11.000000
576.197810 30.000000
576.231570 36.000000
576.262080 7.000000
576.284300 6.000000
577.180730 9.000000
577.196960 8.000000
577.218440 7.000000
578.213620 16.000000
580.200560 7.000000
583.985600 6.000000
591.213500 25.000000
591.237550 22.000000
591.275700 14.000000
591.587590 5.000000
592.216670 22.000000
592.236630 17.000000
592.271300 11.000000
594.193050 8.000000
594.261600 21.000000
594.624390 8.000000
596.581120 5.000000
605.246090 34.000000
605.280580 40.000000
606.192690 16.000000
606.221620 20.000000
606.252010 148.000000
606.293640 30.000000
607.208860 9.000000
607.241210 58.000000
607.259090 33.000000
607.287050 18.000000
607.305910 10.000000
607.825560 12.000000
608.225160 18.000000
608.252690 28.000000
608.277040 39.000000
609.255620 16.000000
609.297060 12.000000
621.218990 9.000000
621.251590 14.000000
621.271000 8.000000
622.230350 8.000000
622.263610 10.000000
636.944270 11.000000
637.210140 10.000000
637.243840 52.000000
637.294430 1000.000000

>ms2
70.066750 38.000000
91.048550 54.000000
119.043590 50.000000
143.070500 52.000000
157.019550 58.000000
159.069790 76.000000
163.047580 90.000000
163.090190 54.000000
174.058690 124.000000
174.079090 36.000000
174.089140 50.000000
176.084440 58.000000
178.057630 48.000000
178.076490 62.000000
179.071580 66.000000
180.083880 56.000000
188.072620 74.000000
189.084580 138.000000
189.115020 54.000000
190.093730 62.000000
192.075120 40.000000
192.104950 38.000000
194.072280 40.000000
195.086200 62.000000
196.070600 44.000000
200.064250 44.000000
203.077030 34.000000
204.063750 110.000000
204.075960 44.000000
204.097890 238.000000
204.110890 90.000000
205.079440 52.000000
207.068040 34.000000
207.084960 46.000000
208.102570 38.000000
212.062670 58.000000
218.047670 36.000000
218.059710 54.000000
218.075610 66.000000
218.094010 34.000000
219.092100 52.000000
221.077480 84.000000
221.098860 56.000000
221.123920 36.000000
222.076370 60.000000
222.083450 54.000000
222.101760 54.000000
222.114580 94.000000
223.111650 40.000000
224.087570 56.000000
224.930160 62.000000
227.070190 64.000000
227.113280 90.000000
232.035460 50.000000
232.091420 68.000000
234.078660 56.000000
234.106570 40.000000
235.073700 66.000000
235.086180 52.000000
235.099790 54.000000
235.119460 42.000000
236.104030 42.000000
236.109820 82.000000
236.120790 42.000000
238.087520 48.000000
238.109180 174.000000
239.098070 34.000000
240.104510 54.000000
248.068700 50.000000
248.095230 42.000000
249.089870 52.000000
249.117030 136.000000
250.079300 104.000000
250.206390 50.000000
251.087970 72.000000
252.091920 50.000000
252.110180 90.000000
252.136060 112.000000
252.161380 36.000000
253.120240 48.000000
255.107270 36.000000
257.052950 40.000000
259.108460 84.000000
261.538510 52.000000
262.113710 40.000000
264.085970 56.000000
264.109890 104.000000
265.093350 46.000000
265.116120 42.000000
266.113340 36.000000
279.062070 46.000000
279.103610 78.000000
280.096100 54.000000
280.116420 54.000000
281.065920 34.000000
281.100160 44.000000
282.082150 38.000000
282.095090 36.000000
282.126430 62.000000
283.122560 52.000000
285.137270 72.000000
292.059300 50.000000
293.071320 38.000000
294.111020 52.000000
294.126430 40.000000
297.102840 38.000000
304.134640 34.000000
307.112180 50.000000
310.105440 74.000000
311.120390 40.000000
317.099460 62.000000
323.080810 48.000000
325.095400 50.000000
326.100710 36.000000
327.112950 90.000000
329.137360 52.000000
333.126650 60.000000
335.141880 72.000000
338.130040 36.000000
340.145480 52.000000
342.111360 54.000000
342.128050 50.000000
343.135680 72.000000
347.091460 50.000000
350.169430 34.000000
352.105930 34.000000
352.132930 48.000000
353.085970 34.000000
356.130860 36.000000
357.112180 46.000000
358.135470 54.000000
360.199620 60.000000
364.145480 48.000000
365.109830 48.000000
366.129240 50.000000
368.745210 40.000000
370.136990 315.000000
371.130620 50.000000
371.163570 34.000000
371.194920 46.000000
373.157290 68.000000
373.175990 128.000000
381.105320 48.000000
381.872340 40.000000
382.126770 42.000000
383.112240 34.000000
384.137390 72.000000
385.177490 68.000000
386.166690 212.000000
386.182250 130.000000
387.149780 50.000000
387.168910 180.000000
388.156490 88.000000
389.153050 50.000000
392.144530 44.000000
393.157070 36.000000
394.128270 54.000000
396.141820 50.000000
396.507290 36.000000
399.141050 78.000000
399.169340 44.000000
400.181270 78.000000
400.197570 58.000000
401.150420 42.000000
401.166960 34.000000
403.144290 50.000000
403.173610 70.000000
410.147190 48.000000
411.159120 78.000000
413.135890 46.000000
416.123810 34.000000
416.186520 80.000000
417.145870 42.000000
417.180480 54.000000
417.214110 68.000000
424.147060 70.000000
424.182860 48.000000
432.178620 34.000000
433.185180 50.000000
439.114560 42.000000
439.177520 74.000000
439.199650 80.000000
442.189970 44.000000
447.189880 40.000000
448.174260 38.000000
449.000090 48.000000
449.166500 42.000000
453.143310 38.000000
453.256590 34.000000
454.183440 68.000000
457.160060 92.000000
458.217010 50.000000
459.174530 40.000000
460.165590 40.000000
462.169530 52.000000
467.189300 44.000000
471.191190 46.000000
471.342250 34.000000
472.205350 72.000000
473.157680 42.000000
474.172360 128.000000
476.176670 52.000000
477.213930 102.000000
479.032650 60.000000
480.211030 34.000000
485.185670 74.000000
487.176120 36.000000
489.166230 60.000000
489.202850 34.000000
490.164860 102.000000
490.193450 82.000000
491.168880 42.000000
492.194550 70.000000
494.204160 36.000000
499.206570 52.000000
499.225010 54.000000
500.184750 50.000000
500.251680 80.000000
501.237490 34.000000
502.142700 56.000000
502.170410 56.000000
504.149050 36.000000
504.187070 100.000000
505.145750 56.000000
505.166600 48.000000
506.160220 54.000000
508.202390 40.000000
512.189330 98.000000
514.180300 36.000000
515.150880 58.000000
515.172670 66.000000
515.209410 96.000000
516.247500 58.000000
517.226750 102.000000
518.228150 50.000000
519.163640 36.000000
520.200440 90.000000
521.177190 78.000000
522.212770 54.000000
523.211550 42.000000
526.219670 34.000000
527.219910 58.000000
529.181820 142.000000
529.221500 48.000000
530.141480 34.000000
530.161990 54.000000
530.194270 269.000000
531.188290 106.000000
531.231380 74.000000
532.159970 38.000000
532.186580 190.000000
532.209230 218.000000
532.247310 40.000000
533.181270 253.000000
533.326540 84.000000
533.567690 42.000000
533.600100 50.000000
534.220030 34.000000
535.204470 40.000000
535.228390 108.000000
537.228520 94.000000
540.910340 54.000000
541.185610 74.000000
542.228330 40.000000
543.155090 50.000000
543.181760 58.000000
543.203190 40.000000
544.180540 100.000000
544.202390 66.000000
544.236210 34.000000
545.173650 36.000000
545.196170 128.000000
545.207890 56.000000
545.258420 56.000000
545.405400 42.000000
546.149170 106.000000
546.209720 40.000000
547.197810 134.000000
547.228150 40.000000
548.143680 124.000000
548.166930 88.000000
548.203250 279.000000
549.211430 76.000000
550.219120 40.000000
550.231020 98.000000
551.256040 112.000000
553.198060 94.000000
557.230160 42.000000
559.172240 56.000000
559.200260 176.000000
559.217160 94.000000
559.253230 50.000000
560.160890 40.000000
560.182740 182.000000
560.225950 112.000000
561.188480 42.000000
561.250550 70.000000
562.141110 82.000000
562.193910 92.000000
562.223210 104.000000
562.243470 40.000000
562.764770 34.000000
563.163700 44.000000
563.231260 118.000000
564.124880 62.000000
564.191650 184.000000
564.229980 152.000000
565.195500 46.000000
565.267580 42.000000
566.231260 188.000000
568.282410 64.000000
568.375610 44.000000
572.151980 46.000000
572.206600 54.000000
573.198610 126.000000
574.242920 48.000000
575.155640 36.000000
575.219480 489.000000
576.148680 80.000000
576.180300 230.000000
576.202090 451.000000
576.223940 297.000000
576.261780 80.000000
577.196960 391.000000
577.222840 94.000000
578.193540 134.000000
578.228580 102.000000
578.262700 46.000000
578.484010 54.000000
579.226930 40.000000
580.256710 54.000000
582.763310 52.000000
589.198910 52.000000
589.231140 182.000000
589.267460 42.000000
590.241880 152.000000
591.193540 88.000000
591.211000 128.000000
591.241270 44.000000
591.270450 50.000000
591.293400 56.000000
592.201720 48.000000
592.223820 88.000000
592.282230 118.000000
593.237060 46.000000
605.139830 48.000000
605.229310 34.000000
605.250490 148.000000
606.228520 116.000000
607.209350 34.000000
607.250240 1000.000000
607.310240 62.000000
608.227110 206.000000
608.248780 156.000000
608.268370 146.000000
621.237920 204.000000
621.263060 172.000000
622.219600 36.000000
622.237120 94.000000

>ms2
204.099430 9.000000
234.116490 6.000000
236.132810 5.000000
265.119690 6.000000
304.126650 7.000000
340.859860 6.000000
370.146330 7.000000
402.202820 5.000000
409.175420 5.000000
430.214630 6.000000
536.216060 6.000000
560.216250 7.000000
575.210630 9.000000
576.173280 6.000000
576.187680 14.000000
576.206420 14.000000
576.231510 19.000000
577.213010 17.000000
577.267030 6.000000
590.229130 10.000000
591.228150 14.000000
591.257390 10.000000
605.249880 15.000000
605.274840 13.000000
606.189150 7.000000
606.256900 56.000000
606.292240 6.000000
607.229920 28.000000
607.255980 48.000000
608.255800 20.000000
608.272640 8.000000
621.251160 13.000000
621.279050 9.000000
623.274720 6.000000
637.195800 10.000000
637.244320 53.000000
637.290830 1000.000000

>ms2
637.134280 6.000000
637.232360 11.000000
637.290710 1000.000000

>ms2
190.083970 6.000000
195.110060 5.000000
217.718400 5.000000
218.078450 7.000000
227.113800 6.000000
251.138920 5.000000
265.108310 13.000000
265.119930 6.000000
266.115110 7.000000
278.111300 6.000000
279.092680 6.000000
283.133480 7.000000
285.134770 9.000000
295.142330 5.000000
311.124540 6.000000
324.140110 7.000000
355.162170 9.000000
386.166410 5.000000
401.159760 7.000000
402.163510 15.000000
409.181640 7.000000
416.185420 6.000000
416.198180 6.000000
416.221100 10.000000
457.192320 6.000000
498.201020 5.000000
499.204380 6.000000
532.726140 5.000000
544.175600 5.000000
545.206420 6.000000
561.214230 7.000000
563.202450 9.000000
564.195130 13.000000
564.252080 8.000000
574.223820 6.000000
574.243230 9.000000
575.199340 10.000000
575.275330 7.000000
576.169800 6.000000
576.207760 47.000000
576.226010 15.000000
577.192500 27.000000
577.219060 16.000000
577.237550 9.000000
578.195190 8.000000
578.245610 7.000000
579.221190 7.000000
579.240780 6.000000
590.225400 10.000000
590.243590 6.000000
590.282780 5.000000
591.192440 6.000000
591.219060 37.000000
591.258120 31.000000
592.198850 10.000000
592.221800 11.000000
592.264890 8.000000
594.234500 25.000000
594.271300 12.000000
595.253050 13.000000
605.240780 23.000000
605.271360 107.000000
605.537600 6.000000
606.196960 18.000000
606.253910 203.000000
606.287290 31.000000
607.194760 12.000000
607.238280 78.000000
607.263060 88.000000
608.247560 54.000000
608.274840 21.000000
609.259640 13.000000
621.239930 8.000000
621.268430 26.000000
621.293580 5.000000
622.257690 7.000000
622.303650 9.000000
623.278870 6.000000
637.220030 41.000000
637.294430 1000.000000
637.419310 9.000000
637.457950 6.000000

>ms2
118.061050 70.000000
121.071200 41.000000
146.042860 38.000000
147.046780 43.000000
149.049090 56.000000
151.059720 56.000000
159.067290 32.000000
160.079850 34.000000
163.063350 56.000000
165.089940 32.000000
166.044630 66.000000
167.049260 51.000000
168.068790 39.000000
173.090990 90.000000
176.067140 39.000000
177.089250 41.000000
178.002840 32.000000
178.080780 49.000000
180.086000 49.000000
181.068370 51.000000
182.839490 43.000000
186.079300 55.000000
186.089690 34.000000
187.056080 36.000000
188.072240 325.000000
188.109280 49.000000
189.077100 45.000000
190.068280 41.000000
190.083050 86.000000
191.097140 34.000000
192.056960 56.000000
192.079300 96.000000
192.099210 56.000000
193.079560 88.000000
194.100170 55.000000
197.048110 36.000000
203.045670 162.000000
203.065600 43.000000
204.061780 75.000000
204.073100 118.000000
204.095380 139.000000
205.073210 38.000000
205.096620 47.000000
205.114430 41.000000
207.044420 53.000000
207.076570 56.000000
208.075300 77.000000
209.095640 49.000000
214.108120 41.000000
216.081340 38.000000
217.076570 64.000000
218.086640 107.000000
218.108800 39.000000
219.102330 77.000000
220.059270 41.000000
220.101150 280.000000
221.089480 122.000000
221.101840 71.000000
221.110860 32.000000
222.071950 38.000000
222.092880 66.000000
222.110810 39.000000
223.086730 49.000000
223.101930 64.000000
223.112210 39.000000
224.078380 49.000000
225.077820 39.000000
226.129500 43.000000
227.109120 60.000000
233.089480 53.000000
234.101330 79.000000
234.113450 164.000000
234.124980 32.000000
234.591490 49.000000
235.099850 135.000000
235.112520 47.000000
236.133160 38.000000
237.111480 56.000000
238.107240 124.000000
239.098280 38.000000
248.073850 62.000000
249.087650 47.000000
249.115190 239.000000
249.291260 56.000000
249.944380 32.000000
250.085590 83.000000
250.107210 177.000000
251.074130 56.000000
251.096510 51.000000
251.105990 58.000000
252.123570 447.000000
252.145430 60.000000
253.072650 32.000000
253.126340 60.000000
253.444060 83.000000
254.105550 43.000000
260.099820 38.000000
262.076970 32.000000
263.096040 105.000000
264.034850 38.000000
264.141780 41.000000
265.105830 367.000000
265.116970 126.000000
266.071380 41.000000
266.092930 107.000000
266.126950 71.000000
267.082980 32.000000
267.102690 38.000000
267.136050 64.000000
268.124570 58.000000
269.099090 34.000000
272.139740 32.000000
275.128200 55.000000
277.110630 71.000000
277.137540 49.000000
279.107790 34.000000
279.142090 39.000000
280.096040 47.000000
280.113830 45.000000
280.140200 32.000000
281.101040 45.000000
281.117030 56.000000
281.137700 38.000000
282.273740 71.000000
286.094910 38.000000
292.132840 32.000000
293.091670 47.000000
293.102870 32.000000
293.281190 32.000000
294.126460 51.000000
299.137700 47.000000
300.140470 73.000000
306.415220 73.000000
309.110930 211.000000
310.110380 70.000000
311.118320 45.000000
314.152470 64.000000
316.099150 38.000000
320.104430 39.000000
324.129940 38.000000
324.148040 47.000000
325.128360 38.000000
328.138180 43.000000
329.170900 68.000000
330.144900 62.000000
332.123410 96.000000
334.130370 43.000000
337.090880 64.000000
337.106540 32.000000
337.143860 38.000000
338.968440 32.000000
342.148160 83.000000
343.135500 34.000000
343.146360 55.000000
343.733400 47.000000
345.143860 39.000000
346.583280 77.000000
350.123410 36.000000
351.131290 53.000000
352.092650 49.000000
352.127040 38.000000
352.147640 154.000000
353.124080 39.000000
353.142460 53.000000
353.154850 32.000000
354.152370 39.000000
354.208340 51.000000
355.109070 60.000000
356.110110 32.000000
356.122250 38.000000
356.159760 55.000000
357.131440 81.000000
358.137360 70.000000
358.175260 51.000000
358.189880 39.000000
359.208040 60.000000
360.168640 47.000000
360.957340 36.000000
364.116790 39.000000
367.166440 120.000000
368.087620 41.000000
368.169590 41.000000
368.212620 32.000000
369.112550 73.000000
369.131990 32.000000
369.161530 68.000000
370.141270 417.000000
370.168760 139.000000
370.300510 32.000000
370.661930 39.000000
371.144380 314.000000
372.151920 141.000000
374.178280 34.000000
378.102570 58.000000
378.170010 58.000000
381.136990 115.000000
384.160310 45.000000
384.186610 58.000000
385.121890 58.000000
385.141970 38.000000
386.133640 148.000000
386.146970 124.000000
386.174530 205.000000
387.134370 39.000000
387.183530 58.000000
388.143160 32.000000
388.158970 128.000000
389.149350 45.000000
390.148410 90.000000
390.185120 45.000000
394.250030 32.000000
395.148320 73.000000
395.170070 51.000000
396.133120 38.000000
396.161470 86.000000
396.176700 90.000000
398.204930 51.000000
400.105960 43.000000
400.153630 90.000000
401.134000 47.000000
401.168790 68.000000
402.171020 102.000000
402.196040 45.000000
403.136230 53.000000
407.172270 38.000000
408.155180 105.000000
409.165470 58.000000
411.121190 41.000000
411.146360 49.000000
412.013580 90.000000
414.151340 38.000000
415.168210 38.000000
416.170500 49.000000
416.184970 39.000000
418.208160 68.000000
421.180050 64.000000
422.120510 41.000000
422.141450 68.000000
424.155180 56.000000
427.143890 43.000000
430.208800 49.000000
432.174710 92.000000
433.566530 47.000000
434.977750 56.000000
436.162750 38.000000
437.613560 45.000000
438.154630 62.000000
440.163210 105.000000
441.179570 32.000000
441.197170 68.000000
442.151250 32.000000
446.231020 47.000000
447.195130 56.000000
449.197630 34.000000
450.228060 34.000000
453.135380 34.000000
454.184690 55.000000
455.175140 47.000000
457.098210 68.000000
461.136140 45.000000
462.170470 111.000000
462.956940 66.000000
465.178740 47.000000
466.206390 51.000000
468.197880 43.000000
469.159150 56.000000
469.179350 85.000000
470.183290 38.000000
471.202360 70.000000
472.208950 36.000000
473.185000 94.000000
474.195040 49.000000
474.238040 49.000000
475.165560 38.000000
479.144040 32.000000
485.193850 38.000000
486.150670 195.000000
486.177700 113.000000
487.170500 132.000000
488.157680 32.000000
488.186160 55.000000
489.081240 49.000000
490.148410 71.000000
491.136810 56.000000
492.184720 36.000000
493.221650 34.000000
495.250460 51.000000
497.154450 53.000000
499.182590 32.000000
499.222990 182.000000
499.247920 62.000000
500.174990 32.000000
500.196840 53.000000
500.226780 34.000000
501.200230 49.000000
501.243010 34.000000
502.174800 47.000000
503.152740 62.000000
504.137730 83.000000
504.175050 122.000000
505.173370 83.000000
505.193910 32.000000
506.152770 92.000000
509.128270 51.000000
512.220340 45.000000
513.147030 66.000000
513.169190 34.000000
513.186460 32.000000
514.162960 77.000000
514.190670 64.000000
514.212830 51.000000
515.175600 39.000000
515.218750 43.000000
516.182560 60.000000
516.216670 39.000000
517.161500 43.000000
517.196840 115.000000
517.217040 47.000000
518.162600 152.000000
518.185790 177.000000
519.190550 85.000000
520.159850 51.000000
520.200320 41.000000
521.203740 100.000000
522.227910 41.000000
523.364810 32.000000
528.172730 34.000000
529.171140 36.000000
529.208800 32.000000
530.155580 38.000000
530.188540 128.000000
531.160770 83.000000
531.183590 47.000000
531.211910 73.000000
532.172610 66.000000
533.150390 34.000000
533.184510 75.000000
533.203550 51.000000
534.153930 38.000000
534.197630 141.000000
535.175780 38.000000
535.203920 36.000000
535.232300 43.000000
535.720210 45.000000
536.203370 38.000000
536.233950 38.000000
536.709900 56.000000
541.223390 36.000000
542.138120 38.000000
542.192260 75.000000
542.228090 32.000000
543.162660 47.000000
543.181760 47.000000
543.243710 32.000000
543.713130 45.000000
543.740840 34.000000
544.157040 45.000000
544.183410 51.000000
544.240840 32.000000
545.196290 180.000000
545.215090 51.000000
546.162050 47.000000
546.192320 148.000000
546.218380 70.000000
546.242740 81.000000
547.215150 41.000000
548.188600 113.000000
548.208370 397.000000
548.516780 45.000000
549.171450 88.000000
549.210510 107.000000
549.224790 43.000000
550.143550 49.000000
551.179690 47.000000
556.190550 43.000000
557.220210 36.000000
558.191530 38.000000
558.206240 43.000000
558.221440 53.000000
559.179380 90.000000
559.198180 105.000000
559.223210 209.000000
559.691160 32.000000
559.766420 56.000000
560.120060 38.000000
560.174380 115.000000
560.204100 209.000000
560.233090 143.000000
561.178830 132.000000
561.205570 357.000000
561.253110 47.000000
562.182860 158.000000
562.216550 226.000000
563.174260 55.000000
563.202270 90.000000
563.251950 70.000000
564.034550 38.000000
564.106320 60.000000
564.161380 55.000000
564.201900 190.000000
564.218810 79.000000
564.457280 70.000000
565.191100 105.000000
565.291630 51.000000
565.666260 32.000000
566.175050 45.000000
566.227360 70.000000
566.274600 38.000000
568.274230 73.000000
572.187810 34.000000
572.213680 81.000000
573.217410 38.000000
574.191350 239.000000
574.212340 103.000000
574.283510 36.000000
575.156860 36.000000
575.181270 32.000000
575.209840 295.000000
575.244630 115.000000
576.123840 103.000000
576.166080 81.000000
576.202330 1000.000000
576.241640 370.000000
577.156860 77.000000
577.210690 793.000000
578.203250 73.000000
578.236210 43.000000
578.694460 51.000000
579.140560 47.000000
580.246950 58.000000
589.225460 128.000000
589.262390 53.000000
590.211430 133.000000
591.126280 41.000000
591.171200 32.000000
591.195860 77.000000
591.220890 71.000000
591.251040 222.000000
592.197270 39.000000
592.222600 241.000000
592.251650 38.000000
593.227970 38.000000
593.262570 51.000000
593.277710 36.000000
593.721250 38.000000
594.238460 43.000000
604.217900 66.000000
604.263060 36.000000
604.549800 55.000000
605.239140 55.000000
606.226140 39.000000
607.235780 921.000000
607.268550 145.000000
607.289730 32.000000
608.238160 130.000000
608.268370 56.000000
609.233950 66.000000
609.252750 36.000000
610.495910 32.000000
619.920590 32.000000
621.263180 132.000000
622.269100 180.000000
637.306880 36.000000

>ms2
205.082610 5.000000
252.121920 5.000000
265.114900 17.000000
326.131740 5.000000
384.048070 6.000000
386.180880 6.000000
402.162570 7.000000
533.205260 5.000000
545.176760 5.000000
559.211850 5.000000
564.195740 7.000000
575.223750 28.000000
576.194640 44.000000
577.199160 29.000000
580.262880 7.000000
590.210330 16.000000
590.245300 5.000000
591.230590 23.000000
591.254820 13.000000
592.208250 6.000000
592.250850 15.000000
594.254520 6.000000
595.248660 8.000000
605.269230 22.000000
606.225280 13.000000
606.259770 35.000000
607.198790 6.000000
607.233830 15.000000
607.254270 48.000000
608.238710 16.000000
608.255740 22.000000
609.243160 6.000000
621.255980 11.000000
621.282170 5.000000
636.304750 5.000000
637.189510 16.000000
637.217160 12.000000
637.290410 1000.000000

>ms2
637.206480 8.000000
637.238830 8.000000
637.290950 1000.000000

>ms2
233.077930 6.000000
236.090740 9.000000
236.672330 6.000000
249.132710 5.000000
265.101100 14.000000
265.116000 9.000000
280.136470 7.000000
347.508180 6.000000
367.157230 9.000000
384.168000 9.000000
387.175320 5.000000
387.197240 8.000000
399.103210 5.000000
400.203700 6.000000
401.154240 8.000000
401.208950 6.000000
402.153720 10.000000
402.216490 5.000000
416.194920 8.000000
416.217380 9.000000
417.183590 7.000000
417.217350 5.000000
429.145940 6.000000
443.184140 5.000000
521.164920 7.000000
528.149960 6.000000
540.185970 6.000000
543.680420 7.000000
549.217410 8.000000
549.264770 9.000000
561.227480 6.000000
562.238530 6.000000
563.197080 9.000000
564.089970 7.000000
572.214360 6.000000
573.240230 5.000000
574.205200 8.000000
575.215700 7.000000
575.259030 9.000000
576.167600 7.000000
576.210630 78.000000
576.254520 8.000000
577.201780 49.000000
579.255980 9.000000
579.924010 7.000000
590.221070 17.000000
591.205380 17.000000
591.247560 51.000000
592.212770 13.000000
592.254820 27.000000
593.232970 7.000000
594.242740 20.000000
595.244080 9.000000
596.232180 5.000000
605.201900 8.000000
605.253110 63.000000
605.285710 21.000000
606.209900 14.000000
606.253600 177.000000
607.187010 6.000000
607.234500 75.000000
607.262450 111.000000
607.461490 11.000000
608.207150 16.000000
608.242610 28.000000
608.263730 26.000000
609.060910 5.000000
609.247010 8.000000
621.252140 15.000000
622.257930 13.000000
622.282410 13.000000
623.270810 11.000000
637.183780 9.000000
637.218510 19.000000
637.292850 1000.000000

>ms2
105.035990 52.000000
119.048250 103.000000
121.074330 72.000000
134.074460 54.000000
150.067290 50.000000
156.047070 89.000000
161.098430 66.000000
162.085190 40.000000
162.095400 42.000000
174.102290 40.000000
175.093350 50.000000
176.074140 46.000000
177.661160 42.000000
178.055040 42.000000
178.081480 38.000000
179.062990 93.000000
180.071780 82.000000
181.079070 44.000000
186.064670 87.000000
187.054780 36.000000
188.074280 52.000000
188.081390 60.000000
190.082700 173.000000
190.112900 40.000000
191.063450 56.000000
191.070430 72.000000
192.094390 48.000000
195.083440 82.000000
195.098500 36.000000
203.093140 72.000000
204.065020 123.000000
204.103440 153.000000
204.114230 56.000000
205.087370 34.000000
205.100480 56.000000
206.055760 58.000000
206.086360 40.000000
206.242750 42.000000
213.114780 34.000000
217.106930 68.000000
219.076320 68.000000
219.085740 93.000000
219.097630 40.000000
220.057190 40.000000
220.068340 46.000000
220.084660 48.000000
220.107130 40.000000
220.708660 34.000000
221.097790 40.000000
221.116710 56.000000
224.108250 48.000000
225.090150 143.000000
232.072750 52.000000
234.100710 121.000000
234.112660 235.000000
234.122500 54.000000
235.077190 34.000000
235.102480 56.000000
236.094680 42.000000
236.129060 60.000000
237.091140 60.000000
237.098890 34.000000
238.105120 322.000000
247.065550 36.000000
247.098650 121.000000
249.103520 42.000000
249.116230 78.000000
249.143370 101.000000
250.079440 38.000000
250.121190 129.000000
251.077640 121.000000
251.093580 111.000000
251.107420 64.000000
252.083480 50.000000
252.111720 358.000000
252.129140 272.000000
252.145980 60.000000
253.144550 54.000000
254.118160 34.000000
258.087710 42.000000
261.116700 38.000000
263.097750 44.000000
263.107420 40.000000
263.123050 93.000000
264.097690 38.000000
264.143280 42.000000
265.104340 221.000000
265.120150 91.000000
266.117610 101.000000
266.130890 42.000000
267.108520 167.000000
268.087800 82.000000
276.080470 64.000000
279.070800 56.000000
280.159970 48.000000
281.105960 52.000000
281.119600 34.000000
283.113250 38.000000
288.082460 80.000000
288.415710 85.000000
289.121890 42.000000
292.108890 103.000000
292.130070 64.000000
293.094540 40.000000
293.116090 34.000000
294.129330 34.000000
295.117860 64.000000
296.104890 34.000000
297.136230 48.000000
298.143280 60.000000
302.077820 48.000000
307.084720 34.000000
307.145870 34.000000
308.089420 34.000000
311.039030 36.000000
311.128300 34.000000
311.141020 40.000000
314.149380 40.000000
316.118470 38.000000
320.796720 54.000000
323.127320 46.000000
324.119110 50.000000
326.100070 44.000000
330.101530 38.000000
333.142030 46.000000
337.165770 40.000000
339.148620 34.000000
342.124390 64.000000
343.150630 109.000000
346.985960 34.000000
349.116180 34.000000
350.145290 42.000000
350.681790 42.000000
352.079040 48.000000
352.117920 121.000000
353.115420 40.000000
354.177610 34.000000
355.106020 58.000000
356.168150 103.000000
358.038820 34.000000
358.151030 40.000000
358.185090 36.000000
359.123350 40.000000
363.123140 48.000000
368.144960 34.000000
368.164950 93.000000
370.139890 282.000000
370.181640 87.000000
371.134860 44.000000
371.155980 105.000000
372.148560 60.000000
372.160920 123.000000
374.743710 54.000000
375.163150 80.000000
376.119960 52.000000
379.142460 40.000000
381.150600 74.000000
382.128690 95.000000
382.154570 48.000000
385.123050 74.000000
386.132660 127.000000
386.152340 276.000000
386.189300 83.000000
387.138000 111.000000
387.182680 40.000000
388.145570 87.000000
388.164120 177.000000
391.172910 52.000000
393.104550 50.000000
393.156890 66.000000
394.106540 34.000000
395.169710 48.000000
396.167050 66.000000
398.144740 48.000000
400.119260 40.000000
400.145900 34.000000
401.152400 42.000000
401.180600 42.000000
402.146850 44.000000
403.159000 36.000000
403.175540 66.000000
403.291410 34.000000
409.187530 36.000000
410.133090 42.000000
410.157650 46.000000
411.194700 56.000000
412.153590 34.000000
412.199460 34.000000
416.208100 52.000000
417.212430 34.000000
418.196080 42.000000
419.176210 42.000000
420.134580 163.000000
423.207370 74.000000
430.190370 42.000000
436.142580 50.000000
436.181090 42.000000
438.170380 44.000000
440.211730 42.000000
441.151030 52.000000
441.195830 78.000000
443.135990 38.000000
447.165770 58.000000
448.203890 62.000000
450.215240 58.000000
454.118350 34.000000
454.195130 93.000000
455.196290 46.000000
456.181880 72.000000
456.209380 48.000000
457.605960 36.000000
460.172730 66.000000
460.190340 111.000000
466.219510 56.000000
468.149050 54.000000
471.194670 40.000000
474.161830 40.000000
475.021790 34.000000
476.187530 44.000000
477.183290 40.000000
478.157840 42.000000
479.207280 50.000000
483.186830 40.000000
484.209500 42.000000
485.154480 38.000000
485.176640 42.000000
488.188140 40.000000
491.176090 40.000000
491.806980 46.000000
493.202360 36.000000
495.187320 50.000000
499.208010 46.000000
499.239230 193.000000
500.148220 50.000000
500.206180 40.000000
501.148960 54.000000
502.134280 38.000000
503.689850 38.000000
504.153630 34.000000
504.172000 83.000000
504.189120 137.000000
504.222560 34.000000
505.082670 60.000000
505.175320 95.000000
505.208280 50.000000
506.153260 205.000000
506.196900 56.000000
506.239690 66.000000
507.121340 44.000000
507.155820 48.000000
508.187290 42.000000
511.194120 62.000000
512.161070 40.000000
513.194270 42.000000
513.331670 36.000000
514.149660 38.000000
515.147890 85.000000
516.192990 38.000000
516.211300 119.000000
517.187930 66.000000
518.124390 34.000000
518.170410 147.000000
518.208070 105.000000
519.171200 36.000000
520.217410 38.000000
521.198120 42.000000
521.219300 109.000000
525.176390 38.000000
526.194520 54.000000
527.197690 68.000000
528.172360 34.000000
528.261900 34.000000
529.215210 95.000000
530.170230 44.000000
530.187380 44.000000
530.224790 38.000000
531.143980 36.000000
531.185360 85.000000
531.211550 58.000000
531.231870 36.000000
532.113950 40.000000
532.152650 85.000000
532.186160 40.000000
533.178890 83.000000
533.203120 157.000000
533.230290 44.000000
533.264590 76.000000
534.195430 213.000000
534.237120 48.000000
535.181700 56.000000
535.244260 82.000000
536.586790 36.000000
537.178280 60.000000
538.154660 62.000000
538.199340 52.000000
539.183650 48.000000
539.861690 66.000000
540.377990 50.000000
540.689880 36.000000
542.144710 54.000000
543.186340 36.000000
543.197570 72.000000
543.242250 34.000000
543.261290 66.000000
544.182070 117.000000
545.168760 95.000000
545.207400 167.000000
545.242130 82.000000
545.942320 52.000000
546.145320 105.000000
546.168210 42.000000
546.191220 127.000000
546.565860 40.000000
547.165590 185.000000
547.188960 62.000000
547.263550 50.000000
548.185490 87.000000
548.212160 304.000000
549.200070 171.000000
549.220830 76.000000
549.755860 36.000000
550.016240 34.000000
550.213380 85.000000
552.188720 48.000000
552.205140 36.000000
558.160950 38.000000
558.199650 66.000000
559.147460 46.000000
559.172360 123.000000
559.199950 223.000000
560.168820 40.000000
560.210020 149.000000
561.167050 161.000000
561.192260 121.000000
561.208310 147.000000
561.232670 93.000000
562.175110 203.000000
562.218570 157.000000
562.242980 46.000000
563.153690 80.000000
563.217830 145.000000
563.238710 60.000000
563.600520 56.000000
564.113280 42.000000
564.176700 40.000000
564.206970 227.000000
564.255620 42.000000
565.185360 40.000000
565.212770 131.000000
566.225770 56.000000
566.273010 74.000000
567.208560 48.000000
572.180420 34.000000
572.212340 40.000000
573.213500 48.000000
574.195130 99.000000
574.208680 50.000000
575.192320 133.000000
575.220890 388.000000
575.245300 52.000000
575.292360 40.000000
576.157780 34.000000
576.176270 87.000000
576.206050 855.000000
576.234560 207.000000
577.166380 48.000000
577.203490 268.000000
577.220340 260.000000
577.274050 56.000000
578.140320 44.000000
578.194520 76.000000
578.217770 219.000000
579.200990 44.000000
580.407530 50.000000
590.235290 125.000000
590.955810 60.000000
591.154790 44.000000
591.204350 34.000000
591.236020 334.000000
591.265140 109.000000
592.064090 70.000000
592.208190 36.000000
593.216060 34.000000
593.263370 50.000000
596.350100 34.000000
603.255860 40.000000
605.299130 36.000000
607.244930 1000.000000
607.315370 101.000000
607.595640 38.000000
607.968990 34.000000
608.249210 314.000000
608.473880 40.000000
609.155210 40.000000
609.256230 48.000000
621.250850 139.000000
621.267030 40.000000
622.259520 42.000000
623.255370 34.000000

