>compound PR19960521
>parentmass 267.1379565846154
>ionization [M+H]+
>formula C18H18O2
>rt 517.733538
>profile qtof
#smiles_iso C=CCC1=CC(=C(C=C1)O)C2=CC(=C(C=C2)O)CC=C
#smiles_can C=CCC1=CC(=C(C=C1)O)C2=CC(=C(C=C2)O)CC=C
#inchikey FVYXIJYOAGAUQK-UHFFFAOYSA-N
#pubchem_id 72303
#mb_accession PR303626,PR303627,PR303628,PR303629,PR303630,PR303631,PR303632,PR303633,PR303634,PR303635,PR303636,PR303637,PR310519

>ms2
96.516550 108.000000
103.060940 62.000000
130.072630 69.000000
146.072780 108.000000
152.068310 65.000000
154.071520 92.000000
155.081250 69.000000
165.068370 65.000000
168.082600 82.000000
169.067230 92.000000
178.079560 72.000000
179.082530 78.000000
181.061040 65.000000
185.088150 56.000000
193.077700 95.000000
193.103910 59.000000
195.076720 59.000000
197.063030 134.000000
197.094710 62.000000
207.001820 78.000000
207.073760 69.000000
209.054960 56.000000
210.072890 85.000000
218.083150 82.000000
226.087710 131.000000
226.099610 82.000000
226.109190 56.000000
227.107240 75.000000
237.096390 82.000000
238.087100 65.000000
238.527540 56.000000
239.107820 824.000000
240.106450 59.000000
241.113620 56.000000
266.132050 1000.000000
267.129670 288.000000
267.141540 500.000000

>ms2
119.080420 31.000000
147.118190 33.000000
192.098040 26.000000
211.077420 104.000000
223.107470 37.000000
227.103930 97.000000
228.113100 25.000000
239.105800 112.000000
239.219220 26.000000
240.101610 26.000000
240.110110 27.000000
249.129100 25.000000
260.079220 39.000000
265.113130 21.000000
266.112340 64.000000
266.130890 408.000000
266.158750 25.000000
267.099610 21.000000
267.108580 22.000000
267.138670 1000.000000

>ms2
105.070350 68.000000
116.061900 71.000000
135.068820 83.000000
142.077330 58.000000
144.067280 129.000000
157.062520 55.000000
166.077560 148.000000
167.081020 52.000000
171.065490 77.000000
178.078220 114.000000
179.090970 120.000000
182.069550 135.000000
184.044510 111.000000
190.076900 65.000000
191.088210 83.000000
193.055660 62.000000
193.064730 80.000000
193.097180 268.000000
195.086720 77.000000
197.058230 1000.000000
197.091350 89.000000
198.064380 129.000000
198.076160 80.000000
207.075500 58.000000
207.081730 151.000000
208.089340 65.000000
209.098180 157.000000
210.060040 86.000000
210.072660 55.000000
211.069920 98.000000
211.080060 255.000000
215.075710 142.000000
216.093150 71.000000
217.097000 71.000000
223.085140 55.000000
224.077270 105.000000
224.090440 55.000000
227.088620 123.000000
235.073850 62.000000
239.097400 71.000000
239.120420 102.000000
251.112270 77.000000

>ms2
112.018420 1000.000000
115.052190 277.000000
128.059040 554.000000
130.069760 369.000000
131.023300 385.000000
139.043850 415.000000
141.071530 446.000000
143.049360 354.000000
153.059690 431.000000
155.089370 323.000000
163.058200 323.000000
164.062670 277.000000
165.071290 323.000000
166.075490 538.000000
170.061540 308.000000
177.066500 308.000000
182.066280 308.000000
182.074740 554.000000
195.094120 323.000000
215.086120 354.000000
227.079030 369.000000
265.134770 369.000000

>ms2
108.056110 95.000000
133.063600 95.000000
142.080950 91.000000
145.076780 125.000000
153.068980 78.000000
155.089490 99.000000
165.064180 108.000000
166.071660 73.000000
166.080370 91.000000
168.060680 73.000000
169.065410 95.000000
170.066940 73.000000
171.090350 73.000000
178.080730 86.000000
183.083450 99.000000
196.083680 246.000000
196.682330 78.000000
197.058550 384.000000
197.074230 91.000000
198.054240 86.000000
198.063750 103.000000
203.090610 134.000000
204.102010 91.000000
207.065950 112.000000
207.083800 73.000000
209.094800 116.000000
210.068830 82.000000
210.099590 194.000000
211.073990 259.000000
212.086780 129.000000
216.088870 86.000000
219.071790 78.000000
223.083500 78.000000
225.088620 302.000000
226.093780 341.000000
228.079860 73.000000
237.104640 86.000000
238.092060 108.000000
239.101530 517.000000
239.113560 276.000000
247.121250 82.000000
248.119450 73.000000
266.130100 1000.000000
267.135040 905.000000
267.146910 224.000000

>ms2
133.067920 35.000000
205.155940 20.000000
211.076920 25.000000
226.085950 29.000000
226.095720 52.000000
226.109070 23.000000
227.093950 22.000000
233.087720 28.000000
237.098880 26.000000
238.095570 26.000000
239.093030 79.000000
239.108060 99.000000
239.121480 22.000000
240.116780 23.000000
249.134060 24.000000
265.113530 25.000000
266.105260 61.000000
266.125310 327.000000
266.138430 214.000000
266.160710 23.000000
267.136470 1000.000000

>ms2
91.058180 214.000000
93.066910 107.000000
105.076340 88.000000
133.070950 73.000000
143.086000 88.000000
151.051560 118.000000
155.078750 69.000000
156.085680 69.000000
157.063320 76.000000
165.071620 260.000000
166.073580 149.000000
168.053670 84.000000
169.065320 84.000000
169.091890 76.000000
170.072480 302.000000
171.652390 92.000000
171.999270 76.000000
182.072280 80.000000
183.081560 454.000000
183.112930 69.000000
184.058620 149.000000
185.059490 95.000000
189.071790 92.000000
191.085040 115.000000
193.057080 73.000000
193.069950 107.000000
195.075970 65.000000
195.083660 111.000000
196.042210 76.000000
196.083340 69.000000
196.092740 76.000000
197.032030 95.000000
197.058210 1000.000000
197.066530 347.000000
197.443310 65.000000
198.058200 160.000000
198.070880 412.000000
205.103000 141.000000
207.078660 378.000000
207.088840 145.000000
209.099270 69.000000
211.082640 229.000000
218.070500 80.000000
223.066120 115.000000
226.093870 95.000000
226.104810 99.000000
227.110600 103.000000
233.085780 65.000000
237.088810 313.000000
237.097320 115.000000

>ms2
115.054360 756.000000
115.060210 211.000000
116.060080 222.000000
119.031810 267.000000
128.064790 222.000000
141.061720 267.000000
141.072300 744.000000
152.067060 200.000000
164.063110 244.000000
165.062500 300.000000
165.075150 222.000000
166.071720 189.000000
178.081570 1000.000000
181.056150 278.000000
181.065610 522.000000
183.079250 200.000000
189.068390 267.000000
197.051970 222.000000
198.061400 189.000000

>ms2
112.014160 61.000000
129.122330 101.000000
131.037800 65.000000
133.064420 72.000000
141.068850 65.000000
154.084110 79.000000
161.767580 72.000000
165.075180 72.000000
168.052890 68.000000
168.079280 76.000000
181.065630 162.000000
183.060490 72.000000
183.075940 72.000000
185.062160 129.000000
193.069790 79.000000
193.970730 79.000000
194.062550 76.000000
197.055680 241.000000
197.069120 126.000000
198.098310 76.000000
202.079130 83.000000
207.083620 72.000000
211.073170 65.000000
211.082810 86.000000
211.108250 76.000000
218.067200 90.000000
221.053450 86.000000
223.107150 61.000000
223.116470 61.000000
224.084000 137.000000
225.083440 212.000000
225.097520 65.000000
225.217800 94.000000
226.097790 335.000000
226.113160 112.000000
227.099150 65.000000
233.098420 86.000000
237.076810 61.000000
237.098820 79.000000
239.116700 205.000000
250.134260 97.000000
251.107120 61.000000
265.130650 68.000000
266.107670 144.000000
266.131230 335.000000
266.142820 86.000000
267.086400 79.000000
267.141390 1000.000000

>ms2
127.105740 38.000000
184.162510 15.000000
197.054530 25.000000
209.182430 19.000000
211.074940 36.000000
211.113690 32.000000
224.083850 40.000000
225.094940 17.000000
225.918530 20.000000
226.091840 162.000000
226.104640 71.000000
227.100390 16.000000
237.084350 31.000000
237.133320 21.000000
239.102310 254.000000
240.105380 16.000000
246.716230 15.000000
249.112960 22.000000
251.105940 43.000000
262.077300 17.000000
265.106350 16.000000
265.124150 32.000000
266.107510 47.000000
266.127320 700.000000
267.089840 15.000000
267.137240 1000.000000

>ms2
101.072640 115.000000
119.040630 96.000000
125.094480 82.000000
125.880810 120.000000
129.067060 139.000000
133.040370 120.000000
133.060840 87.000000
141.063390 125.000000
141.076920 139.000000
155.042850 303.000000
165.061260 106.000000
165.077450 115.000000
168.058620 96.000000
168.093050 87.000000
169.055360 115.000000
169.061950 96.000000
169.104780 120.000000
170.061200 106.000000
170.067310 130.000000
170.074660 82.000000
170.661150 144.000000
172.777980 82.000000
177.078800 106.000000
178.073620 115.000000
178.079790 221.000000
179.079060 87.000000
180.084290 115.000000
180.094410 101.000000
181.072680 188.000000
182.074200 197.000000
183.085740 111.000000
194.081050 139.000000
197.059110 1000.000000
197.092330 87.000000
198.049150 202.000000
198.057940 87.000000
198.073410 139.000000
198.099030 101.000000
207.079210 356.000000
210.063320 245.000000
210.852100 106.000000
211.081310 87.000000
215.090580 115.000000
217.094130 115.000000
218.073360 216.000000
219.075520 87.000000
221.093260 82.000000
222.091020 96.000000
224.074510 264.000000
226.098190 356.000000
249.131410 163.000000
266.119380 111.000000
266.141300 96.000000

>ms2
50.059700 173.000000
127.034000 245.000000
128.060700 276.000000
141.056030 520.000000
142.072070 194.000000
152.057790 500.000000
153.073260 1000.000000
154.071440 173.000000
165.073350 612.000000
181.073700 204.000000
191.084260 204.000000
192.096570 194.000000
197.056750 184.000000
198.051900 184.000000
215.102340 184.000000
216.089370 367.000000

>ms2
96.516550 33.000000
103.060940 19.000000
130.072630 21.000000
146.072780 33.000000
152.068310 20.000000
154.071520 28.000000
155.081250 21.000000
165.068370 20.000000
168.082600 25.000000
169.067230 28.000000
178.079560 22.000000
179.082530 24.000000
181.061040 20.000000
185.088150 17.000000
193.077700 29.000000
193.103910 18.000000
195.076720 18.000000
197.063030 41.000000
197.094710 19.000000
207.001820 24.000000
207.073760 21.000000
209.054960 17.000000
210.072890 26.000000
218.083150 25.000000
226.087710 40.000000
226.099610 25.000000
226.109190 17.000000
227.107240 23.000000
237.096390 25.000000
238.087100 20.000000
238.527540 17.000000
239.107820 252.000000
240.106450 18.000000
241.113620 17.000000
266.132050 306.000000
267.129670 88.000000
267.141540 153.000000

