>compound PR19404906
>parentmass 419.0967246999999
>ionization [M]+
>formula C20H19O10+
>rt 180.825000
>profile qtof
#smiles_iso C1[C@@H](C(C([C@@H](O1)OC2=CC3=C(C=C(C=C3[O+]=C2C4=CC(=C(C=C4)O)O)O)O)O)O)O
#smiles_can C1C(C(C(C(O1)OC2=CC3=C(C=C(C=C3[O+]=C2C4=CC(=C(C=C4)O)O)O)O)O)O)O
#inchikey KUCVMQMKRICXJC-VLNXYBQZSA-O
#pubchem_id 137832350
#mb_accession PR303202,PR303207,PR303212,PR303217,PR303222,PR303227,PR303232,PR303237,PR303242,PR303247,PR303251,PR303256

>ms2peaks
137.014590 7.000000
149.016600 8.000000
185.041240 6.000000
185.066470 12.000000
195.044110 5.000000
196.041550 6.000000
213.064010 8.000000
213.073520 6.000000
242.042570 6.000000
286.047000 9.000000
286.955810 8.000000
287.017670 7.000000
287.055880 1000.000000
287.675050 6.000000
288.043240 42.000000
288.060390 143.000000
289.054290 12.000000
289.069180 20.000000
299.433110 9.000000
340.203460 7.000000
419.096560 299.000000

>ms2peaks
150.538560 7.000000
283.244570 6.000000
286.058040 8.000000
287.035310 42.000000
287.053770 230.000000
288.041470 6.000000
288.051880 31.000000
419.049290 27.000000
419.096370 1000.000000

>ms2peaks
165.021620 6.000000
213.059770 12.000000
287.000820 20.000000
287.020200 13.000000
287.054900 1000.000000
288.057430 163.000000
288.080200 6.000000
289.043240 7.000000
289.053800 7.000000
289.069120 15.000000

>ms2peaks
65.038030 45.000000
68.995560 30.000000
73.018580 36.000000
79.052820 44.000000
82.037350 23.000000
107.084950 23.000000
109.019230 58.000000
109.028970 79.000000
115.055560 38.000000
117.067380 48.000000
121.019750 21.000000
121.025940 44.000000
123.043600 48.000000
128.054700 31.000000
128.067260 45.000000
129.063520 102.000000
129.079120 36.000000
130.060440 25.000000
134.474720 23.000000
137.019300 270.000000
137.028610 25.000000
138.030580 36.000000
139.052090 41.000000
141.071930 35.000000
141.079860 26.000000
143.033710 46.000000
143.052780 46.000000
147.027660 34.000000
147.047810 152.000000
149.023240 38.000000
157.066060 130.000000
157.684680 21.000000
160.036450 25.000000
161.068470 28.000000
162.016430 33.000000
165.008350 24.000000
165.023850 58.000000
167.041210 23.000000
167.051270 29.000000
171.042250 84.000000
173.053970 33.000000
173.063710 21.000000
175.021360 34.000000
175.028780 29.000000
175.040650 39.000000
177.015880 21.000000
178.024890 21.000000
184.774250 35.000000
185.060130 149.000000
187.037830 25.000000
190.056670 41.000000
199.040070 34.000000
200.040500 38.000000
202.068250 23.000000
203.068940 31.000000
205.050490 34.000000
211.466370 30.000000
212.038020 49.000000
213.031920 35.000000
213.053130 324.000000
214.060760 34.000000
216.028610 21.000000
216.046490 29.000000
222.847580 29.000000
223.036360 36.000000
223.285710 41.000000
224.044190 30.000000
230.061940 38.000000
231.046890 35.000000
231.060870 73.000000
231.070820 39.000000
241.002900 28.000000
241.047320 56.000000
242.049030 51.000000
242.818410 33.000000
243.056900 35.000000
243.069840 26.000000
244.068370 21.000000
251.023220 26.000000
259.024780 34.000000
269.032680 28.000000
287.055730 1000.000000
287.086300 63.000000
288.049870 25.000000
288.070950 68.000000

>ms2peaks
109.026360 8.000000
137.016420 6.000000
137.026430 6.000000
138.018620 8.000000
151.036800 7.000000
163.037640 7.000000
175.047550 7.000000
185.056080 14.000000
213.061550 6.000000
216.036990 6.000000
218.067290 6.000000
231.064640 6.000000
241.043610 9.000000
242.060840 6.000000
245.042890 5.000000
246.049580 6.000000
258.037140 8.000000
269.060060 6.000000
286.106050 6.000000
287.012820 24.000000
287.032320 43.000000
287.054870 1000.000000
287.092380 11.000000
287.956020 6.000000
288.056550 179.000000
289.058590 8.000000
289.067200 10.000000
359.208370 5.000000
380.982360 7.000000
419.077210 44.000000
419.098510 203.000000

>ms2peaks
287.054290 303.000000
288.054690 40.000000
288.073090 24.000000
289.050320 13.000000
289.067050 11.000000
419.033230 6.000000
419.051210 21.000000
419.098850 1000.000000

>ms2peaks
189.057210 5.000000
214.060970 8.000000
287.023380 41.000000
287.056820 1000.000000
287.090180 8.000000
288.050480 69.000000
288.061650 107.000000
288.083160 8.000000
289.057280 11.000000
290.079770 5.000000

>ms2peaks
94.037100 25.000000
96.052400 28.000000
96.960430 49.000000
105.072010 52.000000
109.028720 35.000000
109.036900 64.000000
110.030290 36.000000
121.028240 149.000000
124.041560 28.000000
127.043860 27.000000
127.054410 27.000000
129.072420 44.000000
131.422780 28.000000
137.004910 40.000000
137.011140 105.000000
137.018540 217.000000
137.028050 210.000000
138.014010 40.000000
141.082900 86.000000
142.043010 27.000000
143.047040 180.000000
146.066940 31.000000
149.014570 27.000000
149.026030 27.000000
150.018510 37.000000
157.066600 65.000000
157.079410 47.000000
159.083800 29.000000
161.061420 86.000000
164.048430 28.000000
164.995710 29.000000
166.097700 32.000000
167.050050 41.000000
168.058820 47.000000
171.049100 81.000000
172.045070 35.000000
173.053070 27.000000
175.012860 33.000000
175.029220 23.000000
184.056750 60.000000
185.063430 57.000000
186.067210 33.000000
188.046510 39.000000
189.057160 44.000000
201.046200 28.000000
201.052900 35.000000
204.074920 24.000000
205.059230 27.000000
213.042110 47.000000
213.054110 134.000000
213.062840 86.000000
214.059020 32.000000
216.031220 57.000000
216.047820 43.000000
218.048430 64.000000
231.062960 48.000000
231.072890 93.000000
232.066590 29.000000
241.045580 140.000000
242.041120 23.000000
242.049670 28.000000
253.050460 27.000000
269.039700 32.000000
287.024750 32.000000
287.058750 1000.000000
288.022550 32.000000
288.056760 137.000000
288.085050 47.000000
290.376160 27.000000

>ms2peaks
162.061290 10.000000
185.060320 5.000000
195.047680 10.000000
199.034100 8.000000
213.059250 10.000000
214.066890 12.000000
241.048980 12.000000
244.062730 7.000000
286.052120 9.000000
286.977780 9.000000
287.003080 9.000000
287.015620 17.000000
287.055600 1000.000000
288.058140 253.000000
289.057400 36.000000
289.069670 14.000000
295.359650 9.000000
340.502380 10.000000
346.212620 6.000000
418.468990 6.000000
419.056550 7.000000
419.089780 151.000000
419.109010 119.000000

>ms2peaks
286.072970 5.000000
287.056300 251.000000
288.057460 68.000000
289.064210 15.000000
419.050690 17.000000
419.098450 1000.000000

>ms2peaks
197.064850 7.000000
286.839390 5.000000
287.007690 8.000000
287.054050 1000.000000
288.043790 49.000000
288.061460 134.000000
289.061860 26.000000

>ms2peaks
65.039010 24.000000
90.694290 23.000000
97.029570 47.000000
103.050930 24.000000
106.039410 19.000000
107.013090 24.000000
109.028510 61.000000
115.052860 60.000000
121.025340 105.000000
122.037680 30.000000
127.841260 23.000000
128.060990 19.000000
129.069020 37.000000
132.051970 25.000000
136.998840 28.000000
137.024290 116.000000
139.054470 47.000000
141.069890 78.000000
143.037060 17.000000
143.055920 18.000000
144.043430 28.000000
145.040540 32.000000
150.033340 16.000000
155.046950 45.000000
157.051440 24.000000
157.062810 58.000000
158.461940 32.000000
163.041260 19.000000
165.011140 26.000000
168.049390 73.000000
168.061190 37.000000
171.032240 31.000000
171.051790 25.000000
172.057270 24.000000
173.061840 26.000000
175.032380 33.000000
175.073650 23.000000
177.013430 38.000000
177.046890 27.000000
183.037480 27.000000
184.049800 84.000000
184.055070 33.000000
185.053540 28.000000
185.065580 105.000000
186.062090 33.000000
189.051940 34.000000
195.018620 17.000000
195.044160 21.000000
195.052870 20.000000
197.060440 19.000000
200.044970 16.000000
202.065750 40.000000
209.266620 25.000000
212.045820 20.000000
213.056060 190.000000
213.069980 23.000000
216.031680 29.000000
224.057020 38.000000
231.036270 44.000000
231.060470 160.000000
241.048070 63.000000
241.304530 23.000000
242.047240 48.000000
242.059040 20.000000
243.035280 20.000000
243.051130 32.000000
258.053280 24.000000
286.960020 30.000000
287.032710 115.000000
287.054870 1000.000000
287.094820 39.000000
288.039550 26.000000
288.055390 70.000000
288.071690 129.000000
289.054320 21.000000
289.105770 16.000000

