>compound PR19103590
>parentmass 179.03388509999994
>ionization [M+H]+
>formula C9H6O4
>rt 172.284000
>profile qtof
#smiles_iso C1=CC(=O)OC2=CC(=C(C=C21)O)O
#smiles_can C1=CC(=O)OC2=CC(=C(C=C21)O)O
#inchikey ILEDWLMCKZNDJK-UHFFFAOYSA-N
#pubchem_id 5281416
#mb_accession PR303106,PR303107,PR303108,PR303109,PR303110,PR303111,PR303112,PR303113,PR303114,PR303115,PR303116

>ms2
70.000970 7.000000
77.031520 8.000000
77.040600 19.000000
105.034610 35.000000
117.031300 26.000000
123.043210 247.000000
123.526050 6.000000
133.029210 141.000000
135.043700 17.000000
136.723660 5.000000
137.499420 8.000000
150.039280 7.000000
150.970630 9.000000
151.031280 37.000000
151.041140 67.000000
178.031300 7.000000
178.042530 8.000000
179.003400 26.000000
179.033970 1000.000000

>ms2
123.044320 9.000000
137.971630 7.000000
150.110720 6.000000
151.041920 12.000000
153.042830 6.000000
178.031780 6.000000
178.991740 9.000000
179.012360 10.000000
179.033520 1000.000000

>ms2
76.990910 62.000000
77.038120 235.000000
79.053910 116.000000
96.054240 40.000000
96.939070 53.000000
103.994780 31.000000
105.025540 42.000000
105.036530 215.000000
123.043090 1000.000000
123.052180 160.000000
124.044690 64.000000
133.027100 94.000000
179.037020 86.000000

>ms2
68.997610 1000.000000
77.037640 732.000000
78.046390 561.000000
79.014850 488.000000

>ms2
79.681240 5.000000
89.038030 7.000000
92.441920 6.000000
94.044200 5.000000
105.028170 9.000000
105.036000 20.000000
109.027720 5.000000
123.030720 12.000000
123.044020 123.000000
123.814230 7.000000
124.048260 21.000000
133.029710 91.000000
134.037640 7.000000
135.043950 26.000000
135.258540 5.000000
135.628880 5.000000
151.026370 14.000000
151.038220 47.000000
151.049620 12.000000
152.048360 8.000000
161.034840 15.000000
178.025590 21.000000
178.135420 6.000000
178.991410 5.000000
179.035260 1000.000000
179.062520 6.000000

>ms2
135.045390 6.000000
179.001650 5.000000
179.033430 1000.000000

>ms2
67.045680 31.000000
67.056990 27.000000
67.344760 27.000000
68.055280 52.000000
77.039240 120.000000
77.044940 49.000000
78.047070 52.000000
105.030430 86.000000
105.036350 67.000000
107.057800 65.000000
117.037630 72.000000
121.027050 72.000000
123.021960 30.000000
123.042760 1000.000000
123.048160 351.000000
123.172200 24.000000
124.046410 29.000000
124.052360 90.000000
125.054360 34.000000
132.018720 41.000000
132.954380 37.000000
133.018840 164.000000
133.026870 173.000000
133.035960 71.000000
134.027680 35.000000
135.046010 49.000000
151.040820 60.000000
178.544710 23.000000
179.031620 61.000000

>ms2
77.033280 6.000000
77.037030 8.000000
89.035980 13.000000
105.031350 8.000000
105.035450 21.000000
109.024840 6.000000
117.029760 6.000000
123.043690 120.000000
123.051390 45.000000
124.053320 8.000000
133.028900 146.000000
134.031800 20.000000
135.048140 5.000000
150.026730 10.000000
151.019130 7.000000
151.041020 34.000000
151.352920 6.000000
178.927080 7.000000
178.996810 6.000000
179.016310 21.000000
179.032150 1000.000000

>ms2
133.031280 8.000000
150.029750 9.000000
151.042890 6.000000
178.024860 11.000000
179.004270 11.000000
179.034100 1000.000000

>ms2
50.779450 32.000000
77.033620 118.000000
77.039590 297.000000
77.072070 21.000000
83.011390 53.000000
95.045760 33.000000
105.022180 41.000000
105.034810 170.000000
107.542910 28.000000
123.044360 1000.000000
133.020280 45.000000
133.030180 124.000000
134.036730 65.000000
149.029020 31.000000
150.026210 27.000000
151.045470 27.000000
179.038500 64.000000

>ms2
123.048170 1000.000000

