>compound PR19142196
>parentmass 374.1089
>ionization [M+H]+
>formula C15H19NO10
>rt 131.400000
>profile qtof
#smiles_iso COC1=CC2=C(C=C1)NC(C(O2)OC3C(C(C(C(O3)C(=O)O)O)O)O)O
#smiles_can COC1=CC2=C(C=C1)NC(C(O2)OC3C(C(C(C(O3)C(=O)O)O)O)O)O
#inchikey UJMUKMDTAKPTHE-UHFFFAOYSA-N
#pubchem_id 139292087
#mb_accession PR311127

>ms2peaks
124.039820 33.000000
139.062640 20.000000
152.907210 26.000000
180.073000 18.000000
198.070800 18.000000
209.963460 16.000000
216.983730 18.000000
297.035280 16.000000

