>compound PR19861794
>parentmass 352.1537863333333
>ionization [M]+
>formula C21H22NO4+
>rt 297.332315
>profile qtof
#smiles_iso COC1=C(C2=C[N+]3=C(C=C2C=C1)C4=CC(=C(C=C4CC3)OC)OC)OC
#smiles_can COC1=C(C2=C[N+]3=C(C=C2C=C1)C4=CC(=C(C=C4CC3)OC)OC)OC
#inchikey QUCQEUCGKKTEBI-UHFFFAOYSA-N
#pubchem_id 19009
#mb_accession PR300601,PR300606,PR300611,PR300616,PR300621,PR300626,PR300630,PR300635,PR300640,PR300645,PR300650,PR310599

>ms2
264.103580 9.000000
275.099000 8.000000
276.106230 6.000000
278.084630 24.000000
279.086210 10.000000
291.123540 12.000000
292.099210 63.000000
293.104890 34.000000
294.113680 86.000000
295.118800 12.000000
304.097630 15.000000
305.102110 8.000000
307.117740 5.000000
308.129360 150.000000
309.132200 40.000000
318.073940 6.000000
320.092190 50.000000
320.127140 45.000000
321.100650 32.000000
321.133060 6.000000
322.109920 66.000000
323.112580 17.000000
334.108830 10.000000
336.125210 239.000000
337.131440 196.000000
338.121090 7.000000
338.136320 34.000000
339.143400 5.000000
352.095400 8.000000
352.154600 1000.000000
352.208500 30.000000

>ms2
337.129640 6.000000
352.155580 1000.000000
352.209560 34.000000

>ms2
264.101930 15.000000
275.099210 8.000000
278.080140 12.000000
279.090090 7.000000
279.121980 7.000000
291.101200 7.000000
291.126920 71.000000
292.097900 79.000000
292.133850 9.000000
293.103420 59.000000
294.078280 5.000000
294.113040 156.000000
295.115940 31.000000
304.095210 11.000000
305.111970 11.000000
307.120670 36.000000
308.089080 8.000000
308.128810 657.000000
309.131930 149.000000
310.131870 20.000000
320.079160 11.000000
320.093690 38.000000
320.128270 190.000000
321.089170 21.000000
321.101320 64.000000
321.136320 38.000000
322.108670 333.000000
323.112980 80.000000
324.111570 14.000000
334.110380 30.000000
335.118650 5.000000
336.080750 13.000000
336.123080 1000.000000
336.175720 9.000000
337.128570 437.000000
338.133480 97.000000
339.137020 14.000000
352.157260 120.000000

>ms2
191.072630 7.000000
204.082580 21.000000
205.053240 9.000000
206.059950 6.000000
217.085720 13.000000
218.099210 8.000000
219.057830 5.000000
219.067750 8.000000
220.053890 5.000000
220.070140 32.000000
220.080320 44.000000
221.067520 7.000000
221.080810 7.000000
221.090710 9.000000
222.083370 10.000000
222.092060 16.000000
229.090810 7.000000
230.100230 6.000000
231.106580 6.000000
232.077900 37.000000
233.081940 148.000000
234.057270 6.000000
234.092090 123.000000
235.059130 33.000000
235.070050 27.000000
235.099410 59.000000
235.107300 30.000000
236.071370 14.000000
236.101850 12.000000
236.112980 11.000000
245.081390 5.000000
246.090940 72.000000
247.099820 65.000000
248.053830 8.000000
248.060870 11.000000
248.073930 30.000000
248.106890 19.000000
249.077240 119.000000
250.054210 27.000000
250.086520 276.000000
251.073000 8.000000
251.091640 48.000000
251.996700 6.000000
252.097230 7.000000
258.099790 9.000000
259.092190 15.000000
259.103790 12.000000
260.075500 40.000000
260.096500 5.000000
261.065950 5.000000
261.075320 19.000000
261.087520 18.000000
262.050630 8.000000
262.087710 165.000000
263.056520 27.000000
263.093200 121.000000
264.060880 14.000000
264.099950 113.000000
264.111020 31.000000
265.112820 22.000000
272.070800 11.000000
273.066560 12.000000
273.079500 24.000000
274.085140 31.000000
274.096800 8.000000
275.062990 8.000000
275.096280 137.000000
276.055600 25.000000
276.071690 30.000000
276.100620 92.000000
277.064210 26.000000
277.076660 60.000000
277.101680 17.000000
278.046880 20.000000
278.082180 1000.000000
278.121090 6.000000
279.047150 6.000000
279.087710 352.000000
280.069310 9.000000
280.088440 62.000000
281.088680 18.000000
288.068120 8.000000
289.063390 13.000000
289.078580 23.000000
290.051150 6.000000
290.081450 216.000000
291.078030 38.000000
291.090240 40.000000
291.105930 9.000000
292.060330 11.000000
292.097840 678.000000
293.056300 6.000000
293.083800 27.000000
293.101140 151.000000
294.084320 11.000000
294.114320 212.000000
295.112240 39.000000
295.126220 13.000000
296.121830 12.000000
302.078980 15.000000
303.085510 10.000000
304.088530 88.000000
304.099760 222.000000
305.070590 8.000000
305.094670 45.000000
305.107090 36.000000
306.080840 35.000000
306.102840 15.000000
308.073460 5.000000
308.128170 28.000000
316.066740 9.000000
318.076840 400.000000
319.041110 7.000000
319.052520 7.000000
319.069850 28.000000
319.082760 83.000000
320.062470 19.000000
320.092960 616.000000
320.129330 32.000000
321.074460 20.000000
321.095950 162.000000
322.088260 8.000000
322.105160 39.000000
334.084080 5.000000
334.107670 33.000000
334.122920 11.000000
335.121370 10.000000
336.121310 35.000000
337.131870 7.000000

>ms2
250.090210 6.000000
263.092010 8.000000
264.104400 6.000000
275.093410 6.000000
276.100430 6.000000
278.076870 16.000000
278.088840 6.000000
279.084530 10.000000
291.094700 5.000000
291.128850 13.000000
292.096410 69.000000
293.105160 24.000000
294.111540 76.000000
295.118130 11.000000
304.096410 12.000000
305.094970 5.000000
307.120000 8.000000
308.127990 148.000000
309.133030 33.000000
320.090580 38.000000
320.126370 42.000000
321.093200 23.000000
321.105590 16.000000
321.133090 5.000000
322.106140 75.000000
323.113280 16.000000
334.101870 13.000000
336.123140 231.000000
337.128630 189.000000
338.130860 36.000000
352.107940 8.000000
352.154480 1000.000000
352.207980 29.000000

>ms2
337.129940 5.000000
352.155180 1000.000000
352.209230 33.000000

>ms2
263.100460 6.000000
264.102050 15.000000
278.078400 8.000000
279.095180 5.000000
291.124240 67.000000
292.098180 84.000000
292.134800 16.000000
293.104280 49.000000
293.116760 13.000000
294.112670 162.000000
295.112340 22.000000
295.127900 8.000000
296.117860 5.000000
304.094180 15.000000
305.104130 6.000000
307.094510 6.000000
307.110960 13.000000
307.123230 29.000000
308.086580 6.000000
308.128910 635.000000
309.131130 137.000000
310.134430 15.000000
310.144710 9.000000
320.088200 33.000000
320.117580 70.000000
320.129670 144.000000
321.079320 7.000000
321.096950 37.000000
321.109740 19.000000
321.133760 44.000000
322.108730 288.000000
323.112000 66.000000
324.111570 10.000000
334.106930 16.000000
334.121250 13.000000
336.061800 6.000000
336.075650 10.000000
336.123540 1000.000000
336.177060 11.000000
337.129430 457.000000
338.133180 72.000000
339.137790 18.000000
352.154420 123.000000

>ms2
147.044220 6.000000
204.083650 21.000000
205.052340 6.000000
205.083420 7.000000
205.092800 6.000000
217.081600 8.000000
217.094800 15.000000
218.099550 8.000000
219.063720 8.000000
219.106570 6.000000
220.068160 29.000000
220.076480 54.000000
221.070190 7.000000
221.077650 16.000000
221.087770 25.000000
222.099290 11.000000
231.106090 5.000000
232.076450 40.000000
232.090210 6.000000
233.084530 137.000000
234.073120 9.000000
234.091520 102.000000
235.058560 18.000000
235.072630 32.000000
235.099080 73.000000
236.062940 5.000000
236.100680 8.000000
246.086240 22.000000
246.094850 51.000000
247.051970 6.000000
247.091520 21.000000
247.101430 33.000000
248.068760 36.000000
248.086590 13.000000
248.110690 10.000000
249.079060 117.000000
249.106350 6.000000
250.050570 11.000000
250.087880 245.000000
251.070430 11.000000
251.091640 38.000000
258.094300 9.000000
259.100160 14.000000
260.075260 23.000000
260.102840 14.000000
261.066620 8.000000
261.081600 32.000000
262.052920 7.000000
262.087400 133.000000
263.056210 13.000000
263.068270 10.000000
263.095340 105.000000
264.077670 19.000000
264.101320 120.000000
264.112980 30.000000
265.106140 31.000000
273.068300 10.000000
273.083950 18.000000
274.082490 40.000000
274.100040 11.000000
275.054140 6.000000
275.068910 7.000000
275.082490 25.000000
275.095520 96.000000
275.114070 13.000000
276.050660 24.000000
276.068330 49.000000
276.099730 106.000000
277.059540 9.000000
277.069270 25.000000
277.082180 19.000000
277.092350 15.000000
277.107240 7.000000
278.046540 13.000000
278.081630 1000.000000
279.089570 314.000000
280.086700 47.000000
280.103640 9.000000
288.060460 6.000000
288.080720 6.000000
289.076930 23.000000
289.096890 9.000000
290.081120 164.000000
290.099210 21.000000
291.087830 89.000000
292.053130 7.000000
292.098050 590.000000
293.063050 7.000000
293.074070 9.000000
293.100280 134.000000
294.112700 185.000000
295.102720 20.000000
295.119810 41.000000
302.066740 9.000000
302.081210 13.000000
302.091310 11.000000
303.076050 7.000000
303.103090 5.000000
304.098450 263.000000
305.065800 12.000000
305.086670 20.000000
305.102020 53.000000
306.077270 13.000000
306.100950 5.000000
307.094910 6.000000
308.125030 22.000000
309.131160 6.000000
316.066860 9.000000
317.068600 6.000000
318.077480 324.000000
318.090270 93.000000
319.065860 21.000000
319.080780 96.000000
320.062190 23.000000
320.093410 560.000000
320.131260 18.000000
321.098140 156.000000
321.137330 6.000000
322.093540 19.000000
322.110720 12.000000
334.089080 6.000000
334.106410 37.000000
336.113830 26.000000
336.133390 11.000000
337.135800 6.000000

>ms2
250.090320 6.000000
264.102050 16.000000
275.101840 7.000000
278.082860 23.000000
279.089720 15.000000
291.122500 15.000000
292.095760 61.000000
293.103670 23.000000
294.112980 74.000000
304.103060 11.000000
307.124660 5.000000
308.129210 156.000000
309.132870 35.000000
320.094910 55.000000
320.119510 20.000000
320.131960 26.000000
321.097410 29.000000
321.140230 5.000000
322.107820 68.000000
323.112090 19.000000
334.110050 12.000000
336.122740 214.000000
337.130710 177.000000
338.123810 14.000000
338.138550 24.000000
352.155360 1000.000000
352.209560 33.000000

>ms2
337.132480 8.000000
352.103550 6.000000
352.154390 1000.000000
352.208860 34.000000

>ms2
183.985760 5.000000
192.080370 8.000000
204.085420 9.000000
205.093770 6.000000
206.094650 7.000000
207.072370 5.000000
217.085560 11.000000
218.101140 26.000000
219.105680 8.000000
220.064870 11.000000
220.079740 57.000000
221.083830 27.000000
222.091920 21.000000
223.068470 5.000000
232.059070 7.000000
232.074600 20.000000
232.082820 17.000000
233.064820 10.000000
233.083210 141.000000
234.083620 39.000000
234.094830 75.000000
235.057020 33.000000
235.069180 15.000000
235.086940 33.000000
235.105300 34.000000
236.059880 7.000000
236.071640 14.000000
236.103990 14.000000
237.108640 5.000000
246.087200 30.000000
246.100460 32.000000
247.053100 8.000000
247.071960 7.000000
247.101150 56.000000
248.059100 12.000000
248.069470 20.000000
248.077640 10.000000
248.091310 9.000000
248.105220 12.000000
249.063890 20.000000
249.085080 81.000000
250.037410 6.000000
250.056060 15.000000
250.087720 323.000000
251.079940 16.000000
251.093800 49.000000
252.092940 5.000000
259.105320 21.000000
260.059020 7.000000
260.072080 19.000000
260.082640 21.000000
261.076810 19.000000
261.091770 20.000000
262.078190 66.000000
262.092930 85.000000
263.055080 29.000000
263.068570 12.000000
263.081180 24.000000
263.092990 77.000000
263.108800 25.000000
264.064210 13.000000
264.088010 43.000000
264.105870 119.000000
265.090850 8.000000
265.110990 36.000000
272.068970 7.000000
273.072630 10.000000
273.087220 14.000000
274.081970 14.000000
274.091920 25.000000
275.099550 94.000000
276.034270 12.000000
276.051180 18.000000
276.064000 46.000000
276.100830 88.000000
277.072910 67.000000
277.090670 15.000000
277.113310 10.000000
278.013280 6.000000
278.034060 6.000000
278.050660 12.000000
278.082150 1000.000000
279.022130 5.000000
279.087310 288.000000
280.080230 22.000000
280.094180 45.000000
288.066070 11.000000
288.079010 6.000000
289.056520 6.000000
289.075620 15.000000
290.065490 24.000000
290.079900 153.000000
290.092530 62.000000
291.081670 36.000000
291.097560 35.000000
291.260890 6.000000
292.030670 5.000000
292.091280 376.000000
292.104680 280.000000
293.080960 20.000000
293.093440 55.000000
293.109860 65.000000
294.071040 5.000000
294.087100 10.000000
294.113400 202.000000
294.128660 31.000000
295.115300 22.000000
295.127840 12.000000
302.072480 6.000000
302.084260 28.000000
303.061000 6.000000
304.097500 269.000000
305.098600 77.000000
305.114780 14.000000
306.073910 18.000000
306.088840 10.000000
306.104130 9.000000
307.075290 8.000000
308.103730 6.000000
308.131350 13.000000
309.123290 7.000000
316.071080 5.000000
318.032350 8.000000
318.073490 264.000000
318.087920 100.000000
319.073790 44.000000
319.087490 59.000000
320.033480 9.000000
320.084080 206.000000
320.097200 322.000000
321.101170 91.000000
322.091030 8.000000
322.105870 11.000000
322.118470 5.000000
334.100830 17.000000
334.111540 28.000000
334.124910 8.000000
335.120940 5.000000
336.130190 40.000000
337.132870 7.000000

>ms2
56.564960 20.000000
62.781820 32.000000
72.740110 37.000000
96.657250 20.000000
122.867260 21.000000
143.568480 18.000000
153.034470 52.000000
157.473370 22.000000
175.404890 17.000000
179.916140 27.000000
183.789150 34.000000
187.186840 67.000000
192.615280 39.000000
192.697080 18.000000
206.369460 56.000000
206.961840 17.000000
208.400670 40.000000
208.950330 33.000000
209.527880 17.000000
211.023450 19.000000
214.379200 20.000000
216.291500 45.000000
217.035490 29.000000
217.107300 22.000000
217.330410 22.000000
218.046750 52.000000
220.076260 61.000000
220.870500 24.000000
221.086360 23.000000
224.242070 26.000000
225.538800 34.000000
225.641920 28.000000
226.744740 25.000000
227.407990 17.000000
227.815610 17.000000
227.916500 27.000000
228.291600 20.000000
228.417860 33.000000
229.914430 31.000000
231.608150 27.000000
231.869950 23.000000
232.070890 36.000000
233.043180 31.000000
233.083450 128.000000
233.092300 51.000000
233.201510 18.000000
234.086530 185.000000
234.101930 51.000000
234.200380 17.000000
234.538700 30.000000
234.968950 18.000000
235.082810 24.000000
235.096500 159.000000
235.116410 21.000000
235.861630 39.000000
237.430740 27.000000
238.269840 17.000000
239.965380 23.000000
240.533620 21.000000
241.615080 22.000000
242.334110 18.000000
244.913090 21.000000
245.121280 53.000000
245.195800 17.000000
245.894940 23.000000
246.094910 43.000000
246.106320 48.000000
247.092760 210.000000
247.100970 162.000000
248.071750 17.000000
248.110600 44.000000
249.076630 71.000000
249.084950 88.000000
249.102250 25.000000
250.031170 52.000000
250.045880 17.000000
250.055070 21.000000
250.069610 63.000000
250.083390 186.000000
250.091690 125.000000
251.088270 47.000000
251.103420 65.000000
252.094280 20.000000
252.112230 33.000000
254.236470 54.000000
256.007810 30.000000
258.610600 26.000000
259.035400 38.000000
259.073330 20.000000
259.103760 47.000000
260.080140 25.000000
260.102170 37.000000
261.088170 43.000000
262.080780 44.000000
262.102230 72.000000
263.089320 112.000000
263.096310 214.000000
263.125580 44.000000
263.816160 18.000000
264.082240 120.000000
264.103580 579.000000
265.071960 25.000000
265.093810 24.000000
265.104160 139.000000
265.132390 33.000000
265.609740 18.000000
266.117920 19.000000
266.450900 18.000000
267.116580 36.000000
271.219420 20.000000
271.268430 49.000000
273.066190 28.000000
273.079280 22.000000
274.027070 19.000000
274.087250 101.000000
274.096950 25.000000
275.047640 45.000000
275.087340 204.000000
275.099000 547.000000
275.549500 24.000000
276.053830 26.000000
276.076750 21.000000
276.094670 213.000000
276.106230 421.000000
276.581910 29.000000
277.074160 46.000000
277.099610 95.000000
277.120850 58.000000
278.031710 22.000000
278.063020 78.000000
278.084630 1570.000000
278.125460 24.000000
278.285130 18.000000
278.514650 20.000000
278.875090 51.000000
278.940000 20.000000
279.045840 27.000000
279.063020 27.000000
279.086210 654.000000
279.101680 98.000000
279.124570 62.000000
279.338200 20.000000
279.454710 24.000000
280.089080 49.000000
280.137660 146.000000
284.200040 19.000000
285.145750 20.000000
285.570400 23.000000
286.800990 18.000000
287.078740 22.000000
289.243290 20.000000
290.073000 155.000000
290.090090 72.000000
290.115600 54.000000
290.738950 27.000000
291.090090 204.000000
291.123540 803.000000
291.140080 165.000000
291.198970 24.000000
291.508820 21.000000
291.647490 20.000000
291.801640 33.000000
292.056950 85.000000
292.099210 4173.000000
292.134520 135.000000
292.172060 25.000000
292.399540 17.000000
293.052830 45.000000
293.104890 2230.000000
293.141630 23.000000
293.492460 19.000000
294.056950 25.000000
294.072270 107.000000
294.113680 5667.000000
294.173550 18.000000
295.075930 50.000000
295.118800 779.000000
295.278780 25.000000
295.518190 30.000000
295.585450 25.000000
296.122710 155.000000
296.243260 24.000000
297.213070 19.000000
297.947080 17.000000
298.924410 24.000000
302.723630 46.000000
303.178650 35.000000
303.200200 30.000000
303.564300 49.000000
304.017150 19.000000
304.061830 35.000000
304.070100 74.000000
304.097630 993.000000
304.845670 17.000000
305.041320 21.000000
305.102110 545.000000
305.638490 18.000000
305.857390 61.000000
306.076870 152.000000
306.091310 134.000000
306.111330 69.000000
306.126340 17.000000
306.522220 20.000000
306.887210 38.000000
307.044250 76.000000
307.075740 71.000000
307.108340 124.000000
307.117740 358.000000
307.133240 93.000000
307.339940 27.000000
307.969120 30.000000
308.056000 58.000000
308.067810 50.000000
308.096040 118.000000
308.129360 9946.000000
308.173650 17.000000
308.339570 23.000000
308.543820 17.000000
308.721560 25.000000
308.773860 21.000000
308.796020 25.000000
309.066960 38.000000
309.093750 26.000000
309.132200 2655.000000
309.171390 20.000000
309.190730 20.000000
309.298070 18.000000
309.399960 17.000000
309.510160 40.000000
309.730070 18.000000
310.086850 44.000000
310.100340 58.000000
310.124820 124.000000
310.140010 138.000000
310.643010 30.000000
311.135470 20.000000
311.147250 30.000000
314.016820 17.000000
315.057770 23.000000
315.979430 25.000000
316.764010 17.000000
317.244200 18.000000
317.865080 23.000000
318.053620 48.000000
318.073940 367.000000
318.088010 84.000000
318.390590 17.000000
318.672210 25.000000
318.711910 17.000000
319.050960 41.000000
319.065460 105.000000
319.095280 95.000000
319.124110 113.000000
319.355010 22.000000
319.418980 28.000000
319.815580 20.000000
320.006380 20.000000
320.031770 50.000000
320.057890 158.000000
320.092190 3323.000000
320.127140 2992.000000
320.242490 20.000000
320.726260 24.000000
321.009280 18.000000
321.054690 19.000000
321.078400 169.000000
321.100650 2119.000000
321.133060 373.000000
321.145360 269.000000
321.730010 21.000000
321.810120 19.000000
321.877440 46.000000
321.921020 21.000000
321.989870 37.000000
322.057950 42.000000
322.068240 75.000000
322.109920 4348.000000
322.133060 52.000000
322.160000 44.000000
322.224910 17.000000
322.654880 21.000000
322.819760 32.000000
322.855100 20.000000
323.061980 30.000000
323.083740 45.000000
323.112580 1144.000000
323.220920 19.000000
323.951600 20.000000
324.089540 20.000000
324.104950 46.000000
324.118260 69.000000
325.116640 24.000000
325.616730 17.000000
326.533050 31.000000
326.766080 17.000000
327.603120 23.000000
327.917570 42.000000
329.327090 22.000000
329.605680 17.000000
332.177460 22.000000
333.364470 17.000000
333.552460 18.000000
334.081330 18.000000
334.099090 273.000000
334.108830 692.000000
334.204650 23.000000
335.104100 31.000000
335.118010 87.000000
335.131560 51.000000
335.378540 18.000000
335.408450 18.000000
335.523860 20.000000
335.778320 26.000000
336.020230 25.000000
336.064150 49.000000
336.091550 192.000000
336.125210 15791.000000
336.183070 139.000000
336.245730 41.000000
336.393220 23.000000
336.412870 19.000000
336.427670 26.000000
336.724460 20.000000
336.934600 28.000000
337.079620 147.000000
337.131440 12973.000000
337.184840 228.000000
337.268830 17.000000
337.656010 27.000000
337.855440 20.000000
337.929440 58.000000
337.983550 20.000000
338.063960 25.000000
338.098050 66.000000
338.121090 494.000000
338.136320 2227.000000
339.125430 65.000000
339.143400 345.000000
339.655610 17.000000
339.776460 19.000000
340.136690 149.000000
340.150730 44.000000
340.556730 23.000000
340.661440 20.000000
342.868930 17.000000
342.970730 17.000000
343.414250 17.000000
344.059510 26.000000
344.807620 17.000000
345.301850 23.000000
345.340610 22.000000
345.442350 21.000000
346.081700 19.000000
346.953700 71.000000
347.403780 17.000000
347.590420 20.000000
347.873080 17.000000
349.026150 28.000000
349.982850 21.000000
350.385040 17.000000
350.936520 17.000000
351.592560 19.000000
351.731290 20.000000
351.905300 44.000000
351.986510 25.000000
352.030520 20.000000
352.073460 32.000000
352.095400 500.000000
352.126250 71.000000
352.154600 66164.000000
352.208500 1952.000000
352.256410 151.000000
352.275940 22.000000
352.299100 42.000000
352.311610 61.000000
352.329680 17.000000

