>compound PR19021876
>parentmass 417.11763333333334
>ionization [M+H]+
>formula C21H20O9
>rt 270.600000
>profile qtof
#smiles_iso C1=CC(=CC=C1C2=COC3=C(C2=O)C=CC(=C3)OC4C(C(C(C(O4)CO)O)O)O)O
#smiles_can C1=CC(=CC=C1C2=COC3=C(C2=O)C=CC(=C3)OC4C(C(C(C(O4)CO)O)O)O)O
#inchikey KYQZWONCHDNPDP-UHFFFAOYSA-N
#pubchem_id 4183640
#mb_accession PR310862,PR310863,PR310864

>ms2
137.021550 21.000000
137.031160 34.000000
152.664020 17.000000
159.086690 17.000000
166.039290 19.000000
181.068450 53.000000
189.122910 46.000000
199.069700 17.000000
200.087040 20.000000
202.130360 17.000000
216.497680 21.000000
227.063290 17.000000
254.060820 27.000000
255.019070 21.000000
255.064160 2142.000000
255.086500 52.000000
256.056920 59.000000
256.071410 218.000000
271.093140 17.000000
361.180600 17.000000
373.060240 20.000000
395.424590 28.000000
417.102050 40.000000
417.120420 280.000000
417.135100 113.000000

>ms2
97.029050 23.000000
115.039020 18.000000
127.045300 56.000000
137.025700 18.000000
137.031100 17.000000
145.035000 30.000000
147.043780 18.000000
149.017490 17.000000
153.045900 30.000000
181.066890 23.000000
182.062930 20.000000
195.080840 24.000000
199.072190 115.000000
223.067580 28.000000
239.013820 17.000000
240.128370 17.000000
255.018980 18.000000
255.039730 44.000000
255.065370 2559.000000
255.120830 25.000000
256.062930 282.000000
256.078030 98.000000
257.063750 28.000000
257.071660 39.000000
264.076170 27.000000
279.057800 58.000000
297.064880 64.000000
297.077450 19.000000
311.024750 21.000000
383.182770 17.000000
398.939270 24.000000
417.119510 868.000000

>ms2
199.080020 16.000000
209.061860 19.000000
210.069930 18.000000
255.067610 968.000000
255.088730 58.000000
256.055690 16.000000
256.066410 52.000000
256.160580 16.000000

