>compound PR19485135
>parentmass 757.2191
>ionization [M+H]+
>formula C33H40O20
>rt 217.200000
>profile qtof
#smiles_iso CC1C(C(C(C(O1)OC2=CC(=C3C(=C2)OC(=C(C3=O)OC4C(C(C(C(O4)COC5C(C(C(C(O5)CO)O)O)O)O)O)O)C6=CC=C(C=C6)O)O)O)O)O
#smiles_can CC1C(C(C(C(O1)OC2=CC(=C3C(=C2)OC(=C(C3=O)OC4C(C(C(C(O4)COC5C(C(C(C(O5)CO)O)O)O)O)O)O)C6=CC=C(C=C6)O)O)O)O)O
#inchikey QFSDWLPMRWDFID-UHFFFAOYSA-N
#pubchem_id 74428193
#mb_accession PR310935

>ms2peaks
71.042470 18.000000
85.024880 60.000000
129.057010 27.000000
145.024340 18.000000
145.047200 30.000000
147.065350 17.000000
159.071980 30.000000
172.068070 23.000000
177.831830 27.000000
197.429810 17.000000
225.075100 18.000000
232.088670 17.000000
244.070420 23.000000
287.026980 46.000000
287.056030 2032.000000
288.055760 222.000000
288.066860 119.000000
289.055210 37.000000
289.067690 20.000000
309.121770 17.000000
396.074860 19.000000
411.260680 20.000000
433.112180 20.000000
434.095520 18.000000
434.111420 19.000000
449.109590 171.000000
449.140290 17.000000
450.106600 46.000000
451.115910 21.000000
452.909610 30.000000
457.115660 21.000000
475.107180 25.000000
559.755370 20.000000
595.124150 22.000000
595.166870 126.000000
596.176450 56.000000
611.172970 42.000000
757.193480 68.000000
757.220580 138.000000
757.242490 68.000000

