>compound PR20695420
>parentmass 611.1594
>ionization [M+H]+
>formula C27H30O16
>rt 206.400000
>profile qtof
#smiles_iso C1=CC(=C(C=C1C2=CC(=O)C3=C(O2)C=C(C(=C3O)C4C(C(C(C(O4)CO)O)O)OC5C(C(C(C(O5)CO)O)O)O)O)O)O
#smiles_can C1=CC(=C(C=C1C2=CC(=O)C3=C(O2)C=C(C(=C3O)C4C(C(C(C(O4)CO)O)O)OC5C(C(C(C(O5)CO)O)O)O)O)O)O
#inchikey QWAZWXOCSOFIPS-UHFFFAOYSA-N
#pubchem_id 13846903
#mb_accession PR310981

>ms2peaks
85.028150 16.000000
103.042530 20.000000
109.039770 18.000000
127.031090 19.000000
127.045010 52.000000
129.044370 20.000000
137.025800 29.000000
197.062640 21.000000
200.283110 24.000000
209.913150 23.000000
211.258330 18.000000
224.279910 18.000000
227.925290 21.000000
235.247060 56.000000
237.577820 25.000000
240.368640 23.000000
243.024540 19.000000
256.075320 20.000000
263.056580 16.000000
265.111240 16.000000
269.044620 25.000000
270.036290 18.000000
278.028750 21.000000
283.037930 21.000000
283.047820 46.000000
283.066470 20.000000
284.060490 17.000000
287.040070 54.000000
287.058690 149.000000
288.061400 17.000000
293.119900 65.000000
295.046230 51.000000
295.130860 16.000000
297.063630 19.000000
297.077550 20.000000
297.089170 30.000000
298.053040 18.000000
298.971560 17.000000
299.024660 60.000000
299.056610 2659.000000
300.013490 21.000000
300.053310 410.000000
300.066440 289.000000
300.083280 40.000000
300.218140 23.000000
301.052220 17.000000
302.068700 25.000000
306.117460 21.000000
311.045650 54.000000
311.059300 126.000000
312.882870 18.000000
313.060300 37.000000
313.074770 19.000000
316.003690 44.000000
321.073000 16.000000
322.792140 21.000000
323.066040 18.000000
324.064790 24.000000
324.993620 28.000000
325.015590 16.000000
325.027830 18.000000
325.051420 52.000000
325.075290 262.000000
326.049500 30.000000
326.070770 40.000000
326.100340 27.000000
326.426730 16.000000
327.031620 34.000000
327.055510 16.000000
327.078060 22.000000
327.940670 22.000000
328.047640 21.000000
328.066470 17.000000
329.027500 78.000000
329.065830 3318.000000
329.420720 17.000000
329.647190 27.000000
329.901030 18.000000
330.007840 17.000000
330.018490 23.000000
330.066960 980.000000
330.085910 112.000000
331.068730 53.000000
331.094020 16.000000
331.466490 30.000000
339.049930 16.000000
339.083220 409.000000
340.070740 76.000000
340.098510 17.000000
340.638640 20.000000
341.038570 20.000000
341.083920 23.000000
341.114410 24.000000
349.059420 30.000000
349.074430 17.000000
351.075130 20.000000
352.013370 16.000000
353.000760 17.000000
353.019780 49.000000
353.067750 1911.000000
354.030550 39.000000
354.068080 455.000000
354.085600 64.000000
355.069000 36.000000
355.081420 80.000000
355.098940 25.000000
356.074220 18.000000
356.086640 17.000000
365.028840 83.000000
365.072810 206.000000
366.018710 32.000000
366.053380 68.000000
366.079800 70.000000
367.059360 17.000000
367.081820 123.000000
367.129970 16.000000
368.063810 16.000000
368.075530 22.000000
368.099180 17.000000
368.489870 20.000000
370.052000 37.000000
373.284210 26.000000
377.064670 386.000000
377.079650 86.000000
378.070500 155.000000
378.091220 19.000000
382.068880 16.000000
383.077300 1240.000000
384.079160 357.000000
384.392550 24.000000
385.066650 16.000000
385.080410 49.000000
385.093350 21.000000
386.063200 16.000000
386.079320 35.000000
394.065190 16.000000
394.995820 17.000000
395.032650 17.000000
395.078550 838.000000
396.074710 207.000000
396.995640 16.000000
397.081330 20.000000
397.729520 30.000000
400.514010 19.000000
407.906800 17.000000
412.831480 16.000000
413.076170 241.000000
413.093380 436.000000
413.164030 16.000000
413.950960 56.000000
414.018740 38.000000
414.089660 343.000000
415.094150 58.000000
416.093930 44.000000
425.458620 30.000000
431.020660 34.000000
431.064060 70.000000
431.084690 410.000000
431.100800 588.000000
432.061250 27.000000
432.081270 57.000000
432.100220 271.000000
432.121310 39.000000
432.992920 18.000000
433.089900 16.000000
433.107600 36.000000
434.111600 27.000000
436.394380 26.000000
447.085170 84.000000
448.093200 20.000000
448.117310 27.000000
448.691930 21.000000
449.024440 16.000000
449.036380 65.000000
449.070040 96.000000
449.107670 4141.000000
449.158940 17.000000
450.035610 17.000000
450.063170 68.000000
450.114810 1043.000000
451.034850 19.000000
451.100280 104.000000
451.119140 180.000000
451.143250 16.000000
452.100370 43.000000
452.133940 23.000000
472.609890 20.000000
491.096620 39.000000
493.680390 28.000000
543.712890 18.000000
566.026250 16.000000
567.800780 31.000000
575.122680 21.000000
593.154170 49.000000
593.919250 32.000000
593.949710 20.000000
594.151610 17.000000
609.033140 16.000000
609.124020 18.000000
609.575380 18.000000
609.924440 20.000000
610.158870 18.000000
611.024480 16.000000
611.065000 71.000000
611.103940 112.000000
611.161500 8457.000000
611.207340 22.000000

