>compound PR20737812
>parentmass 913.5144
>ionization [M+H]+
>formula C47H76O17
>rt 436.800000
>profile qtof
#smiles_iso CC1C(C(C(C(O1)OC2C(C(COC2OC3C(C(C(OC3OC4CCC5(C(C4(C)CO)CCC6(C5CC=C7C6(CCC8(C7CC(CC8O)(C)C)C)C)C)C)C(=O)O)O)O)O)O)O)O)O
#smiles_can CC1C(C(C(C(O1)OC2C(C(COC2OC3C(C(C(OC3OC4CCC5(C(C4(C)CO)CCC6(C5CC=C7C6(CCC8(C7CC(CC8O)(C)C)C)C)C)C)C(=O)O)O)O)O)O)O)O)O
#inchikey IBZLICPLPYSFNZ-UHFFFAOYSA-N
#pubchem_id 13326381
#mb_accession PR310669

>ms2
52.925420 22.000000
63.968220 23.000000
66.145110 19.000000
67.499980 17.000000
69.638240 19.000000
85.022200 24.000000
85.657300 22.000000
89.843510 24.000000
93.013070 23.000000
97.023980 17.000000
97.033580 18.000000
103.027820 17.000000
106.612170 17.000000
111.043910 69.000000
117.050500 17.000000
122.276870 19.000000
124.077100 27.000000
125.933790 18.000000
129.059230 26.000000
132.041340 30.000000
135.043350 19.000000
135.115520 18.000000
141.009370 18.000000
141.017380 17.000000
141.025310 27.000000
142.022600 17.000000
147.065460 118.000000
149.124510 28.000000
159.029280 35.000000
159.035080 24.000000
160.096080 25.000000
161.042160 18.000000
163.138550 17.000000
163.152450 18.000000
165.051970 24.000000
165.078290 46.000000
169.325260 20.000000
173.132540 19.000000
175.106410 17.000000
175.141480 17.000000
175.150770 25.000000
176.039120 17.000000
177.033680 23.000000
177.164980 110.000000
179.029480 21.000000
179.138150 25.000000
179.178150 23.000000
181.151580 24.000000
182.967000 17.000000
187.060900 39.000000
187.147780 50.000000
188.938160 33.000000
189.156720 18.000000
189.166080 74.000000
191.175990 68.000000
192.180240 24.000000
193.149610 17.000000
195.180950 37.000000
199.016430 28.000000
201.162570 19.000000
202.171920 25.000000
203.164520 20.000000
203.180880 154.000000
203.187870 54.000000
204.156340 21.000000
204.185610 18.000000
205.162780 36.000000
207.161900 17.000000
207.175420 71.000000
208.184200 26.000000
213.034770 27.000000
213.166920 18.000000
217.043760 19.000000
217.155690 22.000000
217.188250 42.000000
217.201840 38.000000
219.063670 20.000000
219.092970 35.000000
219.164260 18.000000
219.904880 17.000000
221.197430 43.000000
222.198530 20.000000
225.014070 20.000000
225.071530 23.000000
226.075590 35.000000
227.186540 20.000000
229.194690 29.000000
229.204680 37.000000
231.050980 29.000000
231.058460 29.000000
231.209840 23.000000
232.214170 21.000000
233.179060 22.000000
233.192030 20.000000
234.981120 22.000000
235.204570 22.000000
235.216520 17.000000
236.221020 44.000000
241.074140 19.000000
241.191250 23.000000
245.061740 17.000000
245.196620 17.000000
247.200910 18.000000
247.213090 17.000000
255.057170 48.000000
257.231050 48.000000
266.240020 18.000000
269.232210 22.000000
273.059050 58.000000
275.228550 17.000000
275.241210 18.000000
279.089110 43.000000
279.116120 81.000000
283.247130 25.000000
289.947270 23.000000
295.225070 27.000000
297.881840 17.000000
301.249820 22.000000
301.562620 22.000000
305.092130 96.000000
306.092410 64.000000
311.285640 24.000000
312.356690 26.000000
315.262540 29.000000
315.286250 25.000000
320.829410 17.000000
322.984800 36.000000
323.094150 98.000000
324.081180 17.000000
324.093990 20.000000
325.294530 22.000000
329.252320 33.000000
329.290280 32.000000
333.278260 18.000000
341.104100 28.000000
346.725160 18.000000
348.059200 17.000000
365.309420 36.000000
368.290370 25.000000
369.321260 19.000000
381.312680 19.000000
383.215240 20.000000
383.325560 17.000000
383.337950 20.000000
393.361110 18.000000
401.111940 38.000000
401.594790 17.000000
405.336520 82.000000
405.359620 72.000000
405.382420 20.000000
406.344300 38.000000
406.365360 22.000000
409.226410 33.000000
421.343020 26.000000
423.365450 1046.000000
424.346440 75.000000
424.368040 437.000000
425.384160 20.000000
426.242280 27.000000
426.582790 18.000000
433.256380 26.000000
437.145480 18.000000
437.162630 18.000000
437.344820 18.000000
438.131680 30.000000
439.348940 30.000000
440.361110 21.000000
441.185300 18.000000
441.220860 17.000000
441.372500 2014.000000
442.347320 89.000000
442.364930 298.000000
442.381160 436.000000
443.380040 126.000000
443.406520 20.000000
444.328670 20.000000
444.387390 41.000000
449.373960 18.000000
455.133300 87.000000
456.151980 34.000000
457.144590 20.000000
458.269710 17.000000
459.363280 24.000000
459.383640 91.000000
459.403440 98.000000
460.357480 17.000000
460.399780 53.000000
477.379790 17.000000
497.947450 31.000000
523.196840 20.000000
533.398800 21.000000
538.400090 25.000000
551.435120 73.000000
555.401730 22.000000
564.390690 20.000000
569.405940 20.000000
569.435730 19.000000
570.422360 41.000000
581.381770 107.000000
581.407710 58.000000
582.367860 41.000000
582.411320 32.000000
590.909550 17.000000
591.442020 41.000000
592.437680 17.000000
599.390380 774.000000
600.242860 19.000000
600.324280 18.000000
600.368710 134.000000
600.403260 192.000000
601.381470 17.000000
601.407470 61.000000
603.505920 19.000000
605.357600 20.000000
605.442020 367.000000
606.420040 17.000000
606.456420 64.000000
607.433230 17.000000
607.460880 42.000000
617.363040 35.000000
617.410950 471.000000
617.429440 115.000000
618.238100 17.000000
618.414180 277.000000
619.419010 17.000000
620.297790 20.000000
631.708680 18.000000
635.406620 245.000000
635.431150 214.000000
636.412780 126.000000
636.441040 37.000000
637.426450 51.000000
638.369380 23.000000
638.440550 18.000000
668.139340 24.000000
701.465520 24.000000
713.430970 39.000000
719.021850 17.000000
720.458980 18.000000
721.480960 18.000000
727.463440 22.000000
728.418640 17.000000
732.439270 25.000000
737.465150 19.000000
737.483520 74.000000
737.509580 21.000000
738.465450 34.000000
738.498540 98.000000
738.531740 20.000000
745.468020 18.000000
749.444150 24.000000
763.435670 50.000000
763.464780 137.000000
763.485840 23.000000
764.096440 22.000000
764.468690 18.000000
765.494870 27.000000
766.812560 18.000000
767.269100 18.000000
767.435300 132.000000
767.464780 239.000000
768.454960 132.000000
768.509280 17.000000
769.473140 64.000000
778.136780 30.000000
781.476010 354.000000
781.537410 17.000000
782.471980 106.000000
782.506100 38.000000
841.212950 20.000000
878.685670 33.000000
895.465330 18.000000
895.505980 37.000000
896.493530 45.000000
913.414550 20.000000
913.504760 1018.000000
913.548100 250.000000

