>compound PR20165678
>parentmass 413.2070985
>ionization [M+H]+
>formula C23H28N2O5
>rt 229.348020
>profile qtof
#smiles_iso COC/C=C/1\CN2[C@H]3CC45C2C[C@H]1[C@@H]3COC4=NC6=C5C(=C(C=C6OC)OC)OC
#smiles_can COCC=C1CN2C3CC1C4C2CC35C6=C(C(=CC(=C6OC)OC)OC)N=C5OC4
#inchikey RIMDDIPKIZTBHU-KPDHXFAYSA-N
#pubchem_id 6441560
#mb_accession PR300121,PR300126,PR300130,PR300135,PR300140,PR300145,PR300150,PR300155,PR300160,PR300165,PR300170,PR300175

>ms2
218.040970 10.000000
233.069440 33.000000
234.073620 6.000000
248.091030 21.000000
273.085600 9.000000
337.115630 5.000000
351.127380 7.000000
351.142460 6.000000
353.145290 9.000000
365.159850 7.000000
366.157750 14.000000
367.165010 31.000000
368.159120 7.000000
383.158170 26.000000
397.173460 9.000000
398.182190 27.000000
399.187650 7.000000
413.135560 7.000000
413.205900 1000.000000
413.265350 18.000000

>ms2
413.158660 9.000000
413.206820 1000.000000
413.266080 25.000000

>ms2
82.068250 8.000000
91.052760 6.000000
93.069940 7.000000
95.070590 7.000000
97.084870 5.000000
106.060370 8.000000
106.065120 18.000000
106.070980 9.000000
107.083820 6.000000
118.065900 6.000000
119.075200 22.000000
120.079770 19.000000
120.085850 9.000000
121.093000 6.000000
131.077240 9.000000
132.079500 13.000000
132.085740 7.000000
134.095640 16.000000
136.078670 5.000000
138.094560 12.000000
144.082640 12.000000
146.091490 8.000000
146.098040 30.000000
150.088240 6.000000
151.092130 6.000000
151.102580 6.000000
152.107650 17.000000
158.095630 14.000000
161.087800 7.000000
164.106810 15.000000
166.122740 9.000000
176.106830 5.000000
177.119280 5.000000
178.123640 13.000000
184.076610 7.000000
190.086940 7.000000
205.073320 6.000000
206.079190 18.000000
207.052350 12.000000
216.065410 6.000000
218.044590 27.000000
218.057630 11.000000
219.051180 8.000000
219.087070 7.000000
220.063000 10.000000
220.097580 38.000000
221.067290 7.000000
230.083500 7.000000
231.082600 14.000000
232.064540 17.000000
232.084210 6.000000
233.068390 192.000000
234.069460 34.000000
234.082670 14.000000
235.069560 9.000000
235.083080 15.000000
236.083510 8.000000
244.083160 6.000000
245.039660 12.000000
245.057190 34.000000
245.092000 9.000000
246.065750 16.000000
246.101610 6.000000
246.109950 11.000000
247.081890 5.000000
248.091950 123.000000
249.085010 11.000000
249.096860 13.000000
250.100360 16.000000
250.118410 6.000000
256.063810 8.000000
257.054500 7.000000
258.073970 5.000000
258.092320 6.000000
259.072880 23.000000
260.076290 44.000000
260.088230 27.000000
261.087740 42.000000
261.103850 6.000000
262.098540 21.000000
270.081570 7.000000
271.089420 6.000000
272.089540 15.000000
273.089260 83.000000
273.113770 5.000000
274.092740 21.000000
275.096010 17.000000
280.100890 7.000000
282.065400 10.000000
282.081700 7.000000
284.088350 7.000000
286.100560 5.000000
286.114870 12.000000
287.094360 7.000000
287.113040 7.000000
292.120970 5.000000
295.075930 6.000000
295.120640 5.000000
296.087190 6.000000
297.082310 9.000000
297.095060 9.000000
301.125150 8.000000
306.074100 6.000000
307.112120 9.000000
309.102200 7.000000
310.102910 14.000000
310.137330 6.000000
311.109410 6.000000
313.116360 6.000000
319.106480 6.000000
321.089780 6.000000
321.103970 11.000000
321.131380 6.000000
322.096560 8.000000
322.114010 9.000000
322.141200 6.000000
323.095180 16.000000
323.107540 9.000000
323.127530 13.000000
323.146480 14.000000
324.115540 16.000000
324.154270 14.000000
324.178830 6.000000
325.106200 7.000000
325.120030 8.000000
325.134610 7.000000
326.116790 8.000000
327.135710 9.000000
333.117370 15.000000
334.102050 10.000000
334.115330 7.000000
335.105960 15.000000
335.139860 7.000000
336.111110 15.000000
336.126890 6.000000
337.100430 6.000000
337.118230 35.000000
338.125730 10.000000
338.144780 7.000000
338.172670 8.000000
339.130890 6.000000
339.146420 9.000000
340.125920 8.000000
348.118530 6.000000
349.145510 12.000000
349.156620 11.000000
350.142300 8.000000
351.130800 117.000000
351.146000 38.000000
352.133210 28.000000
353.124110 17.000000
353.147830 80.000000
353.163210 21.000000
354.153470 16.000000
354.165440 15.000000
355.167110 41.000000
356.161070 15.000000
356.182620 10.000000
356.193910 12.000000
359.167450 7.000000
365.142670 28.000000
365.152950 58.000000
366.150020 69.000000
366.163360 66.000000
367.118190 6.000000
367.164640 304.000000
368.157930 31.000000
368.173610 42.000000
369.134120 5.000000
369.148470 10.000000
369.174740 23.000000
369.192200 7.000000
370.179230 13.000000
370.193700 21.000000
381.160860 7.000000
381.190490 16.000000
382.182950 6.000000
383.114750 6.000000
383.159640 219.000000
384.165470 60.000000
397.177830 66.000000
398.183380 171.000000
399.189330 43.000000
400.184540 7.000000
413.136570 8.000000
413.162320 12.000000
413.206820 1000.000000

>ms2
66.036490 12.000000
67.047970 8.000000
67.053820 25.000000
70.066040 7.000000
77.034320 12.000000
77.038590 18.000000
77.046040 20.000000
78.033420 11.000000
79.047610 13.000000
79.054830 91.000000
80.046300 13.000000
80.056920 35.000000
80.065520 9.000000
81.027680 12.000000
81.071910 24.000000
82.066170 19.000000
82.103290 6.000000
83.067780 7.000000
85.063030 11.000000
91.053660 230.000000
91.715630 8.000000
92.051120 27.000000
92.060070 32.000000
92.906350 12.000000
93.055250 58.000000
93.064890 7.000000
93.072450 56.000000
94.032730 12.000000
94.054640 6.000000
94.065700 41.000000
95.029470 8.000000
95.052220 11.000000
95.845510 10.000000
99.046430 6.000000
99.685060 13.000000
102.033640 6.000000
103.038620 9.000000
103.057980 48.000000
104.036470 10.000000
104.050340 12.000000
104.056790 30.000000
105.060220 39.000000
105.069790 119.000000
106.054570 44.000000
106.065400 260.000000
106.082630 17.000000
106.272770 8.000000
107.046100 9.000000
107.063330 22.000000
107.071490 126.000000
107.085620 80.000000
108.073290 8.000000
108.081270 38.000000
108.087760 10.000000
109.049750 10.000000
109.063440 35.000000
109.069240 15.000000
110.058380 13.000000
111.065480 10.000000
115.055210 23.000000
116.041450 15.000000
116.054290 6.000000
116.059800 12.000000
117.053860 45.000000
117.061460 35.000000
117.069760 36.000000
118.024500 11.000000
118.065220 116.000000
119.048520 45.000000
119.054030 19.000000
119.070340 45.000000
119.077220 31.000000
119.087270 10.000000
120.044950 10.000000
120.081900 421.000000
121.051520 15.000000
121.078980 22.000000
121.087260 10.000000
122.050700 23.000000
122.061950 12.000000
122.093070 10.000000
123.074040 34.000000
123.082740 18.000000
123.089320 18.000000
124.073910 8.000000
125.919530 7.000000
126.613810 9.000000
127.056210 33.000000
128.057570 35.000000
128.295850 9.000000
129.055680 7.000000
129.061770 9.000000
129.068470 14.000000
130.063230 149.000000
130.069560 56.000000
131.042390 20.000000
131.049580 13.000000
131.075090 34.000000
131.551540 7.000000
132.038480 19.000000
132.047030 11.000000
132.072690 49.000000
132.082000 174.000000
132.368790 7.000000
133.036540 13.000000
133.050030 18.000000
133.062610 8.000000
133.076870 23.000000
133.083820 63.000000
133.092560 20.000000
134.051040 22.000000
134.061940 30.000000
134.090470 32.000000
134.097930 60.000000
135.038510 7.000000
135.064160 12.000000
135.069240 8.000000
135.097900 18.000000
137.081570 12.000000
138.087070 17.000000
139.050090 9.000000
140.046570 6.000000
141.046570 18.000000
141.056320 20.000000
141.277980 10.000000
142.063020 10.000000
143.068850 31.000000
143.076370 48.000000
143.087280 9.000000
144.055830 17.000000
144.082930 48.000000
145.028430 8.000000
145.054380 36.000000
145.062530 23.000000
145.074220 9.000000
145.088100 29.000000
145.106450 9.000000
145.975510 8.000000
146.024250 7.000000
146.057650 71.000000
146.067690 22.000000
146.074860 7.000000
146.090480 59.000000
146.099270 110.000000
147.041630 7.000000
147.066180 34.000000
147.100110 12.000000
148.034210 32.000000
148.047210 14.000000
148.070370 17.000000
148.079240 7.000000
148.108750 29.000000
148.355300 9.000000
149.039750 8.000000
149.044140 20.000000
149.087010 21.000000
150.093730 21.000000
150.099580 11.000000
151.105610 10.000000
152.040150 17.000000
152.103360 17.000000
152.113110 20.000000
153.105740 10.000000
154.060490 7.000000
155.061650 19.000000
155.069850 11.000000
155.097960 7.000000
156.044680 10.000000
156.057360 7.000000
156.070400 20.000000
156.741180 8.000000
157.049220 9.000000
157.084180 53.000000
157.096980 14.000000
158.032170 8.000000
158.042340 10.000000
158.053480 11.000000
158.059430 33.000000
158.081830 12.000000
158.090640 49.000000
158.106690 19.000000
158.838180 9.000000
159.021450 7.000000
159.028470 10.000000
159.064990 16.000000
159.072910 7.000000
159.085940 10.000000
159.105420 9.000000
160.029660 8.000000
160.037960 31.000000
160.055850 18.000000
160.066100 17.000000
160.070650 8.000000
160.094240 13.000000
160.106920 16.000000
160.115360 8.000000
161.048100 39.000000
161.060820 15.000000
161.072970 23.000000
161.085370 43.000000
161.121480 8.000000
162.006820 9.000000
162.028670 9.000000
162.035260 7.000000
162.053560 206.000000
162.092880 20.000000
163.043470 21.000000
163.057070 36.000000
163.069290 7.000000
164.033430 29.000000
164.063370 14.000000
164.100140 9.000000
164.110290 15.000000
164.994090 7.000000
165.053280 10.000000
165.078840 16.000000
165.108030 19.000000
166.040250 19.000000
166.088460 11.000000
166.123320 16.000000
167.073350 16.000000
167.085480 9.000000
168.068100 9.000000
168.078980 9.000000
169.065540 9.000000
169.073650 8.000000
170.046310 17.000000
170.078350 14.000000
171.064330 30.000000
172.034650 9.000000
172.042300 41.000000
173.031360 9.000000
173.043620 20.000000
173.054440 9.000000
173.076220 7.000000
174.049730 80.000000
174.061220 29.000000
174.094380 25.000000
175.005400 10.000000
175.022000 17.000000
175.050770 18.000000
175.066390 18.000000
175.078550 8.000000
175.097000 8.000000
176.017290 10.000000
176.026630 28.000000
176.057950 20.000000
176.072480 127.000000
176.113850 17.000000
177.045430 12.000000
177.079330 43.000000
177.122860 17.000000
177.891720 7.000000
177.999530 10.000000
178.030080 12.000000
178.044080 33.000000
178.055530 31.000000
178.081160 12.000000
178.125600 10.000000
179.055950 10.000000
179.077330 8.000000
180.026660 28.000000
180.065060 8.000000
180.071490 11.000000
181.060750 10.000000
181.067260 7.000000
181.082690 20.000000
182.054350 11.000000
182.078400 8.000000
182.090680 29.000000
182.108380 16.000000
182.948650 8.000000
183.047300 16.000000
183.066270 50.000000
183.076460 12.000000
184.332370 6.000000
184.874680 6.000000
185.040040 22.000000
185.066500 26.000000
185.076520 14.000000
185.086210 8.000000
185.721080 14.000000
186.045010 46.000000
186.078480 9.000000
187.034530 12.000000
187.052020 9.000000
187.061040 13.000000
187.303210 6.000000
188.032650 26.000000
188.061340 101.000000
188.075210 48.000000
188.084520 17.000000
188.099320 7.000000
189.020110 7.000000
189.044530 29.000000
189.054730 10.000000
189.075820 16.000000
189.093280 7.000000
190.026400 12.000000
190.038130 82.000000
190.051680 316.000000
190.083630 32.000000
191.029330 6.000000
191.042250 13.000000
191.055220 89.000000
191.075790 16.000000
191.510220 11.000000
192.026610 60.000000
192.043460 9.000000
192.062160 46.000000
192.074070 27.000000
192.094180 17.000000
193.069430 26.000000
193.082140 14.000000
193.092880 7.000000
194.047500 10.000000
194.095930 27.000000
196.075840 9.000000
197.072720 10.000000
197.082520 10.000000
197.091890 6.000000
198.059480 39.000000
198.071660 12.000000
199.043010 19.000000
199.060820 28.000000
199.085780 12.000000
199.729260 7.000000
199.820130 13.000000
199.973970 9.000000
200.029190 28.000000
200.044340 16.000000
200.053910 27.000000
200.064150 31.000000
200.074840 27.000000
200.100460 10.000000
201.023330 8.000000
201.030060 7.000000
201.051830 9.000000
201.068220 53.000000
201.796480 14.000000
202.035110 39.000000
202.045520 53.000000
202.075730 8.000000
202.089950 14.000000
202.311630 10.000000
203.024000 23.000000
203.039810 20.000000
203.059370 36.000000
203.080540 38.000000
203.093900 14.000000
203.103730 14.000000
203.130840 12.000000
204.022750 21.000000
204.068880 114.000000
204.079250 58.000000
205.027220 6.000000
205.037250 9.000000
205.065310 43.000000
205.075350 17.000000
205.082760 9.000000
205.239000 7.000000
206.046170 32.000000
206.056580 35.000000
206.067260 12.000000
206.083310 29.000000
206.091480 60.000000
206.104520 14.000000
207.047410 19.000000
207.054670 8.000000
207.084700 25.000000
207.108440 12.000000
207.607240 22.000000
208.079740 15.000000
208.114940 7.000000
209.072860 16.000000
209.099500 13.000000
210.053330 7.000000
210.077180 25.000000
210.192730 10.000000
211.032970 9.000000
211.053650 17.000000
211.062880 11.000000
211.089720 15.000000
211.107360 7.000000
212.050930 8.000000
212.067280 61.000000
212.077060 21.000000
212.093720 22.000000
213.050480 7.000000
213.061600 17.000000
213.070760 15.000000
213.089260 6.000000
214.036870 9.000000
214.049210 15.000000
214.060810 8.000000
214.073440 29.000000
214.086690 28.000000
215.041170 41.000000
215.051150 28.000000
215.063060 15.000000
215.084580 7.000000
215.092440 7.000000
216.023330 7.000000
216.041370 11.000000
216.058550 9.000000
216.070940 71.000000
216.086350 11.000000
216.104680 6.000000
217.026060 19.000000
217.036190 28.000000
217.047100 51.000000
217.063340 120.000000
217.075620 48.000000
218.011510 10.000000
218.044010 1000.000000
218.060840 69.000000
218.082380 8.000000
218.093980 17.000000
218.747160 11.000000
219.033080 12.000000
219.047910 90.000000
219.071660 8.000000
219.087910 15.000000
219.101780 7.000000
220.058700 82.000000
220.070720 19.000000
220.093400 6.000000
220.100890 11.000000
221.059810 19.000000
221.085020 40.000000
221.113680 10.000000
221.839250 9.000000
222.062380 28.000000
222.074460 15.000000
222.095350 11.000000
223.088350 17.000000
224.062160 30.000000
224.098330 7.000000
224.627880 6.000000
225.054440 7.000000
225.066960 10.000000
225.102020 18.000000
225.975250 7.000000
226.028240 13.000000
226.042830 23.000000
226.078030 21.000000
226.086700 14.000000
227.044690 9.000000
227.057720 30.000000
227.091480 51.000000
228.037090 12.000000
228.062100 61.000000
228.077000 20.000000
228.094220 17.000000
228.101580 24.000000
229.034710 14.000000
229.043930 17.000000
229.058640 55.000000
229.067340 51.000000
229.081210 15.000000
230.024370 8.000000
230.048290 66.000000
230.071760 68.000000
230.085920 23.000000
231.036640 60.000000
231.051390 38.000000
231.062730 50.000000
231.078450 43.000000
231.752470 6.000000
231.845700 9.000000
232.057250 253.000000
232.083480 72.000000
232.096980 13.000000
232.363250 9.000000
233.031010 16.000000
233.055740 65.000000
233.065310 198.000000
234.017040 10.000000
234.075520 68.000000
234.100950 19.000000
234.123260 9.000000
235.059830 8.000000
235.076900 17.000000
235.087950 7.000000
235.104370 31.000000
235.119160 16.000000
236.055920 14.000000
236.073760 17.000000
236.102250 7.000000
236.129170 9.000000
237.056500 42.000000
237.084010 12.000000
237.101900 30.000000
237.115390 24.000000
237.122450 16.000000
237.231410 7.000000
238.054780 32.000000
238.077590 59.000000
238.089170 13.000000
238.112460 7.000000
239.059280 46.000000
239.106510 19.000000
240.023480 6.000000
240.064510 35.000000
240.104600 28.000000
240.120410 12.000000
240.772280 7.000000
241.038390 7.000000
241.049960 11.000000
241.068050 9.000000
241.101910 7.000000
242.029980 10.000000
242.069640 8.000000
242.088880 32.000000
243.036120 29.000000
243.048130 50.000000
243.084090 17.000000
243.112430 8.000000
244.031750 30.000000
244.052470 85.000000
244.066970 23.000000
244.078410 34.000000
244.098680 14.000000
245.055210 86.000000
245.065380 30.000000
245.087430 6.000000
245.109830 32.000000
245.122880 15.000000
245.985600 12.000000
246.029190 16.000000
246.058070 25.000000
246.073120 67.000000
246.086430 17.000000
246.521610 9.000000
247.062330 21.000000
247.086290 35.000000
247.109800 6.000000
247.124570 20.000000
248.068480 10.000000
248.078340 27.000000
248.093720 11.000000
249.062070 8.000000
249.091770 15.000000
250.068280 15.000000
250.076630 48.000000
250.087860 10.000000
250.120970 7.000000
250.541230 10.000000
251.088670 12.000000
251.106450 17.000000
251.117580 20.000000
252.007930 9.000000
252.054750 49.000000
252.126860 9.000000
252.803360 6.000000
253.049590 16.000000
253.067870 33.000000
253.083420 10.000000
253.096530 27.000000
253.109150 14.000000
254.031750 7.000000
254.080510 39.000000
254.103550 8.000000
255.069500 8.000000
255.084980 16.000000
255.117310 9.000000
255.448900 10.000000
256.058380 30.000000
256.070650 6.000000
256.101170 24.000000
257.050900 22.000000
257.061070 32.000000
258.064730 23.000000
258.076630 36.000000
258.101560 31.000000
259.043550 10.000000
259.066740 33.000000
259.078740 35.000000
259.093170 32.000000
259.546880 7.000000
260.054750 9.000000
260.069730 13.000000
260.084470 27.000000
260.115330 13.000000
261.068730 14.000000
261.086580 29.000000
261.106960 17.000000
261.872800 8.000000
262.087400 42.000000
262.104740 19.000000
263.038450 10.000000
263.049530 7.000000
263.069580 12.000000
263.087890 17.000000
263.098210 11.000000
263.113650 7.000000
263.607480 10.000000
264.047580 9.000000
264.070980 7.000000
264.081570 26.000000
264.097560 51.000000
265.077420 19.000000
265.099270 20.000000
265.114530 9.000000
265.683410 9.000000
266.071560 32.000000
266.102290 17.000000
266.124600 19.000000
267.060060 45.000000
267.087620 10.000000
267.308320 15.000000
268.073240 12.000000
268.090390 12.000000
268.121120 16.000000
268.188350 7.000000
268.453520 7.000000
269.059200 36.000000
269.077610 6.000000
269.100800 10.000000
269.137970 9.000000
269.995000 7.000000
270.071590 28.000000
270.088930 10.000000
270.097050 16.000000
270.337650 8.000000
270.566190 8.000000
271.045720 12.000000
271.073120 11.000000
271.108640 7.000000
271.937590 9.000000
272.059200 10.000000
272.076200 12.000000
272.092900 12.000000
272.130310 10.000000
273.089570 45.000000
274.079830 7.000000
275.048800 7.000000
275.088530 27.000000
275.114840 10.000000
276.055300 25.000000
276.077640 8.000000
276.102140 11.000000
276.124880 6.000000
277.064000 9.000000
277.079930 32.000000
277.135440 7.000000
278.028530 10.000000
278.074100 29.000000
278.088710 27.000000
278.121890 16.000000
279.071350 8.000000
279.090480 16.000000
279.105220 8.000000
279.116610 17.000000
279.128110 18.000000
280.038730 8.000000
280.097960 79.000000
280.886720 7.000000
281.059970 81.000000
281.094240 20.000000
281.111180 6.000000
281.371730 9.000000
281.914950 6.000000
282.040800 25.000000
282.062680 81.000000
282.102260 32.000000
283.075230 76.000000
283.092800 13.000000
283.108310 7.000000
284.073760 17.000000
284.092740 7.000000
285.116550 14.000000
285.126040 9.000000
286.035280 11.000000
286.079070 12.000000
286.088010 8.000000
287.062040 11.000000
287.077550 9.000000
287.095340 8.000000
287.101960 18.000000
288.100860 19.000000
288.138310 9.000000
289.091710 9.000000
289.106290 17.000000
290.044620 22.000000
290.079100 37.000000
290.103420 20.000000
290.116270 9.000000
291.041500 7.000000
291.080260 23.000000
291.096040 53.000000
291.108640 13.000000
291.568700 8.000000
292.072940 26.000000
292.089750 31.000000
292.108550 24.000000
292.123440 9.000000
293.061610 28.000000
293.078220 45.000000
293.089570 61.000000
293.121280 11.000000
294.053560 18.000000
294.071170 8.000000
294.086490 37.000000
294.104580 35.000000
294.124180 39.000000
294.149480 7.000000
295.058140 54.000000
295.071500 145.000000
295.084530 49.000000
295.108730 23.000000
295.128360 20.000000
296.068300 45.000000
296.082090 49.000000
296.108950 23.000000
296.124240 15.000000
296.252930 9.000000
296.678130 8.000000
297.084690 22.000000
297.099880 31.000000
298.091800 28.000000
299.099300 27.000000
300.082150 7.000000
301.097500 12.000000
302.082460 22.000000
303.082950 22.000000
303.154750 10.000000
304.065950 21.000000
304.097960 15.000000
304.110690 9.000000
304.137910 21.000000
304.985290 10.000000
305.061430 10.000000
305.072140 8.000000
305.089810 12.000000
305.102200 14.000000
305.117920 8.000000
306.049040 13.000000
306.071010 60.000000
306.094020 6.000000
306.108640 22.000000
306.121090 14.000000
306.137390 10.000000
307.032990 10.000000
307.059690 37.000000
307.075740 48.000000
307.104520 78.000000
307.120270 39.000000
307.140780 9.000000
307.162930 7.000000
307.334590 7.000000
307.397830 7.000000
307.969420 9.000000
308.035520 18.000000
308.083470 82.000000
308.115720 44.000000
308.132320 13.000000
309.087550 72.000000
309.115910 19.000000
309.134060 9.000000
310.085140 12.000000
310.097140 13.000000
310.122220 18.000000
311.099910 10.000000
311.143950 12.000000
312.038480 12.000000
313.075200 6.000000
313.118040 23.000000
313.131320 7.000000
313.151340 17.000000
314.133510 12.000000
315.902190 8.000000
317.082920 8.000000
317.107210 9.000000
317.119480 10.000000
318.080570 7.000000
318.100310 11.000000
318.110960 10.000000
318.150180 7.000000
319.041230 7.000000
319.074770 38.000000
319.103180 9.000000
319.123470 17.000000
319.135530 9.000000
319.163790 12.000000
320.074490 15.000000
320.091130 7.000000
320.111600 22.000000
321.080230 126.000000
321.098510 30.000000
321.124540 49.000000
322.079350 10.000000
322.093660 55.000000
322.106290 31.000000
322.144780 7.000000
323.051910 24.000000
323.088620 58.000000
323.104190 81.000000
323.134430 19.000000
323.144290 15.000000
324.067840 10.000000
324.093600 14.000000
324.105770 62.000000
324.118620 42.000000
324.135830 19.000000
324.149080 9.000000
325.100980 27.000000
325.122830 39.000000
325.163420 9.000000
326.127500 8.000000
326.179320 10.000000
332.100800 9.000000
332.128810 7.000000
333.075810 13.000000
334.097840 31.000000
334.128970 9.000000
334.931210 7.000000
335.003270 16.000000
335.033140 18.000000
335.061070 16.000000
335.070770 33.000000
335.102630 291.000000
335.817470 7.000000
336.002590 9.000000
336.088380 12.000000
336.111760 147.000000
337.076200 14.000000
337.088780 10.000000
337.110500 66.000000
337.120880 161.000000
337.152040 20.000000
338.118990 85.000000
338.128880 31.000000
338.146480 7.000000
339.090060 10.000000
339.130100 7.000000
339.140960 8.000000
340.161190 15.000000
341.116760 8.000000
348.144100 11.000000
349.118440 19.000000
349.131740 34.000000
350.105680 12.000000
350.136900 23.000000
350.154240 7.000000
351.081760 12.000000
351.101380 10.000000
351.133850 69.000000
351.149140 25.000000
352.092380 8.000000
353.093110 15.000000
353.131620 21.000000
353.145170 44.000000
354.145170 9.000000
354.371580 9.000000
355.124630 25.000000
355.145080 9.000000
355.162600 9.000000
355.174010 8.000000
356.156770 10.000000
356.787960 6.000000
365.139130 20.000000
365.151980 41.000000
366.118990 8.000000
366.134090 9.000000
366.147710 11.000000
367.130310 15.000000
367.161440 43.000000
368.164400 30.000000
369.136690 18.000000
369.167880 7.000000
373.544040 12.000000
379.628720 7.000000
383.158600 36.000000
398.173890 7.000000
398.209350 14.000000
404.569060 6.000000
413.212710 41.000000

>ms2
120.078870 5.000000
218.040220 8.000000
218.050520 10.000000
233.067610 25.000000
234.074630 10.000000
245.056820 7.000000
248.092410 18.000000
259.072140 6.000000
260.080660 9.000000
261.097230 5.000000
273.091710 7.000000
351.137940 15.000000
353.138850 5.000000
353.153170 9.000000
355.166470 6.000000
356.173830 5.000000
365.152070 17.000000
366.155880 22.000000
367.165340 34.000000
368.167660 6.000000
383.159970 29.000000
397.177730 12.000000
398.185970 24.000000
413.146670 12.000000
413.205900 1000.000000
413.265560 20.000000

>ms2
413.207150 1000.000000
413.267030 24.000000

>ms2
82.064530 7.000000
91.054950 7.000000
94.064150 6.000000
97.088090 6.000000
106.067700 17.000000
107.073620 12.000000
107.091260 5.000000
119.073110 29.000000
120.079220 28.000000
120.085080 7.000000
123.080680 8.000000
131.076690 5.000000
132.080460 31.000000
133.086200 16.000000
134.093600 16.000000
134.100690 11.000000
138.095230 14.000000
144.082580 6.000000
145.086060 7.000000
146.096710 38.000000
147.098460 6.000000
151.090090 7.000000
151.099170 9.000000
152.106380 25.000000
158.089540 12.000000
158.096650 7.000000
159.102620 5.000000
160.074720 6.000000
161.077700 9.000000
162.057800 5.000000
164.108440 22.000000
165.106630 7.000000
166.124510 11.000000
189.073900 5.000000
190.121090 5.000000
192.069240 6.000000
203.092410 6.000000
205.072680 12.000000
206.077070 17.000000
207.050660 6.000000
218.036390 12.000000
218.047780 24.000000
219.042650 5.000000
219.083970 8.000000
220.065220 8.000000
220.099520 33.000000
221.068980 7.000000
222.087800 9.000000
230.068240 12.000000
230.089860 6.000000
231.079730 15.000000
232.055820 19.000000
232.069990 14.000000
233.070890 188.000000
234.072800 34.000000
234.082610 24.000000
234.115420 7.000000
235.080990 25.000000
236.077820 9.000000
236.089370 6.000000
244.061140 17.000000
245.049190 10.000000
245.059310 12.000000
245.089460 28.000000
246.066500 20.000000
246.078400 5.000000
246.092100 5.000000
246.104020 13.000000
246.115710 9.000000
247.061140 7.000000
247.086320 11.000000
248.067660 6.000000
248.092410 131.000000
249.094820 30.000000
250.109760 8.000000
256.054380 6.000000
258.075900 8.000000
258.090270 6.000000
259.077480 15.000000
260.068540 24.000000
260.080630 70.000000
261.083100 24.000000
261.096740 13.000000
262.095580 14.000000
262.107450 12.000000
262.119900 5.000000
263.093630 7.000000
269.099640 5.000000
270.078950 7.000000
271.080570 6.000000
272.094970 19.000000
273.084810 44.000000
273.099120 8.000000
274.088620 14.000000
274.101870 12.000000
281.095610 6.000000
282.072450 7.000000
286.102910 6.000000
287.099000 5.000000
289.109860 6.000000
293.090180 5.000000
295.086700 7.000000
297.083770 6.000000
297.109380 8.000000
306.112820 15.000000
306.123200 5.000000
307.076690 6.000000
308.094270 14.000000
308.120790 6.000000
309.090330 16.000000
310.094540 6.000000
311.099850 17.000000
311.118530 11.000000
312.126280 9.000000
319.095250 9.000000
321.108280 7.000000
322.109990 13.000000
323.106480 16.000000
323.131680 30.000000
323.157470 9.000000
324.134520 9.000000
324.153260 6.000000
325.119050 32.000000
325.152710 6.000000
326.128390 6.000000
333.114840 6.000000
333.129970 8.000000
334.102050 17.000000
335.101320 9.000000
335.115750 8.000000
336.107090 17.000000
337.117860 17.000000
337.131260 12.000000
337.146090 10.000000
338.126280 22.000000
338.177830 6.000000
339.126250 12.000000
339.144680 11.000000
339.163760 8.000000
340.126590 6.000000
349.136930 5.000000
349.155300 17.000000
350.117710 8.000000
351.113100 15.000000
351.136200 117.000000
352.136930 36.000000
352.155330 9.000000
353.142150 101.000000
353.160030 35.000000
354.150090 20.000000
354.167970 11.000000
355.156190 37.000000
355.174160 15.000000
356.176940 29.000000
357.124790 7.000000
357.183200 11.000000
359.156800 10.000000
365.122130 11.000000
365.142880 46.000000
365.157100 56.000000
366.118350 5.000000
366.156590 164.000000
367.100070 8.000000
367.164250 333.000000
368.137910 6.000000
368.167850 71.000000
368.192840 5.000000
369.140010 6.000000
369.158690 6.000000
369.176030 9.000000
369.193330 7.000000
370.169920 7.000000
370.187320 30.000000
371.188140 16.000000
381.178860 9.000000
382.195980 13.000000
383.093930 6.000000
383.159940 216.000000
384.160890 56.000000
384.177730 21.000000
385.150020 11.000000
385.170590 5.000000
397.170780 51.000000
397.185880 55.000000
398.182680 207.000000
399.172420 11.000000
399.184170 24.000000
399.198790 10.000000
413.145080 10.000000
413.207760 1000.000000

>ms2
65.027660 9.000000
67.054650 8.000000
67.722790 7.000000
67.924160 8.000000
71.052130 19.000000
77.032000 15.000000
77.036550 30.000000
77.042280 9.000000
78.043570 15.000000
79.054260 143.000000
80.053960 24.000000
81.048090 12.000000
81.062800 17.000000
81.070040 10.000000
81.217070 7.000000
82.036450 9.000000
86.617170 6.000000
91.040760 10.000000
91.053400 180.000000
91.467930 8.000000
92.039400 6.000000
92.052880 17.000000
92.068710 11.000000
92.529010 10.000000
93.038050 8.000000
93.056060 67.000000
93.070440 26.000000
94.063900 33.000000
95.050220 36.000000
98.056840 16.000000
100.074590 9.000000
103.034400 7.000000
103.053960 26.000000
103.060050 26.000000
104.012410 7.000000
104.044330 10.000000
104.056890 18.000000
104.063000 9.000000
105.042370 8.000000
105.069650 157.000000
106.036100 14.000000
106.065440 377.000000
106.081990 13.000000
107.058710 10.000000
107.071500 118.000000
107.086040 26.000000
108.080140 45.000000
109.061360 32.000000
109.069010 9.000000
109.081560 8.000000
110.030460 6.000000
110.060560 11.000000
110.072080 9.000000
111.078270 10.000000
115.053210 53.000000
116.039340 6.000000
116.046340 23.000000
117.052690 17.000000
117.057700 69.000000
117.066380 51.000000
117.074200 27.000000
117.079630 13.000000
118.041820 12.000000
118.057760 21.000000
118.065620 81.000000
119.044490 8.000000
119.063050 15.000000
119.074780 74.000000
119.086200 32.000000
120.046460 8.000000
120.063460 20.000000
120.078440 391.000000
120.091590 12.000000
121.050030 14.000000
121.083050 37.000000
121.092870 12.000000
121.103080 8.000000
121.220300 9.000000
122.082370 11.000000
122.091360 10.000000
122.508260 8.000000
123.076550 30.000000
123.085460 27.000000
124.080730 24.000000
125.020710 8.000000
127.011900 15.000000
127.038890 8.000000
127.050510 18.000000
128.053150 29.000000
128.059560 10.000000
129.067150 18.000000
130.056350 29.000000
130.065080 105.000000
131.037830 6.000000
131.044970 20.000000
131.057940 11.000000
131.069090 40.000000
131.076520 60.000000
131.082030 26.000000
132.025450 9.000000
132.036090 20.000000
132.043270 26.000000
132.051730 6.000000
132.064650 21.000000
132.079480 203.000000
132.098450 14.000000
133.027160 10.000000
133.054080 29.000000
133.066510 42.000000
133.084820 64.000000
133.724840 7.000000
134.024890 14.000000
134.033400 9.000000
134.047490 12.000000
134.060550 85.000000
134.087370 15.000000
134.097310 66.000000
134.567180 7.000000
134.742510 10.000000
135.038180 6.000000
135.066180 11.000000
135.097790 12.000000
136.036610 20.000000
136.069350 32.000000
136.765230 9.000000
137.054500 8.000000
137.086930 7.000000
137.095860 22.000000
137.105970 20.000000
137.704880 6.000000
138.089680 47.000000
139.055100 18.000000
139.093280 12.000000
140.052550 8.000000
140.104710 16.000000
141.067430 35.000000
142.051930 8.000000
142.068340 18.000000
143.061100 18.000000
143.073780 46.000000
144.032960 7.000000
144.045260 8.000000
144.065950 33.000000
144.081150 89.000000
145.050640 17.000000
145.057620 32.000000
145.066500 12.000000
145.071790 8.000000
145.085490 82.000000
145.662170 8.000000
146.024980 11.000000
146.034040 8.000000
146.040830 14.000000
146.049550 15.000000
146.059720 92.000000
146.066620 42.000000
146.094160 150.000000
146.100490 75.000000
146.108340 21.000000
146.571870 10.000000
147.017900 6.000000
147.026790 11.000000
147.032820 11.000000
147.045270 9.000000
147.060580 12.000000
147.071090 8.000000
147.098970 42.000000
147.539460 8.000000
148.032070 18.000000
148.039550 69.000000
148.056400 28.000000
148.073350 38.000000
148.085510 15.000000
148.105740 10.000000
148.113540 8.000000
149.049550 18.000000
149.069490 11.000000
149.086470 26.000000
149.094510 6.000000
149.117020 9.000000
149.965270 8.000000
150.091810 25.000000
151.036320 9.000000
151.099350 9.000000
152.047130 6.000000
152.074940 8.000000
152.108020 74.000000
152.368030 15.000000
153.046020 27.000000
153.077030 10.000000
154.051590 8.000000
154.066510 37.000000
154.685040 8.000000
155.059300 19.000000
155.065990 17.000000
155.073150 18.000000
156.035450 17.000000
156.081630 82.000000
157.088410 36.000000
158.030840 11.000000
158.056780 15.000000
158.085220 18.000000
158.096510 48.000000
159.025010 18.000000
159.038960 21.000000
159.059020 12.000000
159.067610 9.000000
159.079650 8.000000
159.109100 8.000000
160.020870 9.000000
160.039260 55.000000
160.047930 14.000000
160.074660 60.000000
160.111570 24.000000
160.288800 7.000000
161.016160 13.000000
161.036510 33.000000
161.051060 31.000000
161.079860 27.000000
161.087130 23.000000
161.115650 11.000000
161.347240 12.000000
161.907880 13.000000
162.039600 11.000000
162.048600 55.000000
162.056050 138.000000
162.066180 22.000000
162.085740 11.000000
162.915390 7.000000
163.055440 42.000000
163.072080 8.000000
164.040370 18.000000
164.065410 31.000000
164.076570 17.000000
164.094800 28.000000
164.108410 16.000000
164.593200 9.000000
165.037950 14.000000
165.074780 18.000000
165.103240 12.000000
165.109680 15.000000
166.038380 6.000000
166.071060 8.000000
166.084750 11.000000
166.117520 8.000000
167.070850 6.000000
168.056030 17.000000
168.068220 25.000000
168.083560 12.000000
169.051760 12.000000
169.087340 9.000000
170.053150 16.000000
170.060550 43.000000
170.072600 7.000000
170.100590 18.000000
171.050870 51.000000
171.059940 14.000000
171.071140 20.000000
172.036190 73.000000
172.073380 29.000000
172.114400 20.000000
172.604130 8.000000
173.029100 9.000000
173.042390 14.000000
173.087940 34.000000
173.120570 8.000000
174.047150 22.000000
174.057140 44.000000
174.066390 18.000000
174.326100 14.000000
175.028080 18.000000
175.063420 50.000000
175.085920 8.000000
175.115830 8.000000
176.006120 11.000000
176.034680 29.000000
176.051500 8.000000
176.069820 172.000000
176.077410 48.000000
176.099720 11.000000
176.154360 8.000000
176.479710 7.000000
176.572860 8.000000
177.034450 12.000000
177.045030 32.000000
177.054640 14.000000
177.072480 94.000000
177.081950 15.000000
178.044480 21.000000
178.055240 39.000000
178.071720 10.000000
178.082760 8.000000
178.124130 26.000000
179.049350 12.000000
179.068160 15.000000
179.920330 10.000000
180.024990 21.000000
180.078750 16.000000
180.313630 8.000000
180.460820 8.000000
180.931960 15.000000
181.051500 11.000000
181.065720 9.000000
181.076930 15.000000
181.087880 26.000000
181.211780 18.000000
181.305590 6.000000
182.033630 9.000000
182.047380 11.000000
182.074770 17.000000
182.089390 24.000000
182.106110 8.000000
182.147060 8.000000
183.056170 18.000000
183.070340 28.000000
183.405590 10.000000
184.063960 36.000000
184.073870 8.000000
184.189730 20.000000
184.808400 7.000000
184.953550 15.000000
185.030180 19.000000
185.053920 45.000000
185.069700 38.000000
186.010360 20.000000
186.058980 58.000000
186.071000 18.000000
186.091570 16.000000
187.025770 11.000000
187.052780 44.000000
187.061230 34.000000
187.076100 11.000000
188.022900 23.000000
188.033000 17.000000
188.045200 9.000000
188.059360 10.000000
188.068420 24.000000
188.075470 17.000000
189.018100 15.000000
189.041600 41.000000
189.053420 46.000000
189.063750 26.000000
189.080610 64.000000
189.106540 12.000000
189.409320 8.000000
190.026500 20.000000
190.048570 577.000000
190.073930 9.000000
190.116790 6.000000
190.181370 8.000000
190.824660 8.000000
191.048490 39.000000
191.058320 99.000000
191.077090 18.000000
191.090210 36.000000
192.000500 29.000000
192.028690 127.000000
192.059520 46.000000
192.069890 28.000000
192.083720 32.000000
192.223680 8.000000
193.465480 12.000000
194.046460 23.000000
194.064540 12.000000
194.084230 9.000000
194.104190 16.000000
195.069080 12.000000
195.076490 18.000000
195.088870 15.000000
195.100660 35.000000
196.075730 9.000000
197.034380 19.000000
197.043140 7.000000
197.083110 34.000000
198.056000 30.000000
198.076260 19.000000
198.085020 7.000000
198.098820 8.000000
198.122240 14.000000
198.986600 7.000000
199.025120 7.000000
199.039430 18.000000
199.050660 39.000000
199.063230 42.000000
199.086790 62.000000
199.593150 11.000000
200.030180 9.000000
200.041690 6.000000
200.055040 20.000000
200.064380 64.000000
200.076450 8.000000
200.305080 8.000000
201.018890 27.000000
201.031400 20.000000
201.044770 12.000000
201.067460 8.000000
201.100720 12.000000
202.025380 7.000000
202.043080 79.000000
202.053090 66.000000
202.079300 27.000000
202.096270 36.000000
202.992200 7.000000
203.021480 78.000000
203.027600 30.000000
203.043520 35.000000
203.051940 26.000000
203.061200 17.000000
203.090680 9.000000
203.100710 10.000000
204.031420 31.000000
204.049640 8.000000
204.060680 80.000000
204.069850 106.000000
204.098570 11.000000
204.255080 7.000000
204.886520 8.000000
205.032790 9.000000
205.068330 65.000000
205.078220 94.000000
205.106170 7.000000
206.037050 7.000000
206.048690 38.000000
206.067090 8.000000
206.082200 44.000000
206.097140 21.000000
207.035870 8.000000
207.054140 58.000000
207.066940 12.000000
207.087250 13.000000
207.113300 40.000000
208.045650 9.000000
208.058140 15.000000
208.079790 16.000000
208.110090 19.000000
208.744750 12.000000
209.068880 18.000000
209.092610 23.000000
209.105090 9.000000
210.056030 10.000000
210.068370 12.000000
210.085390 37.000000
210.099690 12.000000
211.055690 22.000000
211.063870 21.000000
211.122700 11.000000
212.055310 22.000000
212.073230 47.000000
212.087340 14.000000
212.105710 12.000000
212.347760 17.000000
212.961360 7.000000
213.030720 8.000000
213.041670 35.000000
213.068240 63.000000
214.036090 29.000000
214.057690 8.000000
214.078670 8.000000
214.087510 15.000000
214.659940 6.000000
215.022420 17.000000
215.039600 45.000000
215.059310 70.000000
215.070510 28.000000
215.084900 10.000000
215.093580 9.000000
216.026500 12.000000
216.042140 18.000000
216.062060 232.000000
216.081800 35.000000
216.093490 21.000000
216.110200 10.000000
216.420650 9.000000
216.989270 11.000000
217.037670 80.000000
217.053130 83.000000
217.062560 301.000000
217.782490 7.000000
218.044050 1000.000000
218.061160 95.000000
218.079730 50.000000
218.101550 11.000000
219.038330 65.000000
219.049360 140.000000
219.067690 8.000000
219.077670 8.000000
219.089840 8.000000
219.104400 9.000000
220.035930 23.000000
220.053410 26.000000
220.061690 47.000000
220.082550 36.000000
220.095780 15.000000
220.143920 9.000000
220.293610 6.000000
221.064410 35.000000
221.093370 41.000000
222.080030 17.000000
222.092710 27.000000
222.132250 14.000000
223.065280 32.000000
223.091710 20.000000
223.101520 20.000000
224.035840 11.000000
224.066510 24.000000
224.084930 7.000000
224.094300 11.000000
225.052430 14.000000
226.040740 13.000000
226.052730 23.000000
226.070470 28.000000
226.083390 40.000000
226.099270 8.000000
226.470170 11.000000
227.034760 9.000000
227.044590 8.000000
227.080230 47.000000
227.091980 24.000000
227.117860 14.000000
227.837510 8.000000
228.063460 139.000000
228.084950 15.000000
228.090910 6.000000
228.107270 12.000000
229.062930 86.000000
229.125120 17.000000
229.971570 8.000000
230.051670 47.000000
230.071560 110.000000
230.081310 38.000000
230.118470 20.000000
230.985310 19.000000
231.036150 33.000000
231.046050 76.000000
231.067290 34.000000
231.102100 25.000000
232.017040 6.000000
232.023830 11.000000
232.037980 32.000000
232.055020 137.000000
232.062910 119.000000
232.082350 7.000000
232.096730 33.000000
232.796840 6.000000
232.981340 8.000000
233.045530 32.000000
233.066670 244.000000
233.085560 23.000000
233.105290 8.000000
234.052250 9.000000
234.065730 59.000000
234.084470 64.000000
234.099780 18.000000
234.186830 8.000000
235.052280 20.000000
235.064740 37.000000
235.082060 23.000000
235.102750 24.000000
235.122020 8.000000
236.020740 9.000000
236.050830 9.000000
236.063570 53.000000
236.072190 15.000000
236.092330 16.000000
237.058610 31.000000
237.075880 36.000000
237.093610 22.000000
237.106900 16.000000
237.121980 15.000000
237.133940 7.000000
237.409010 9.000000
238.049480 22.000000
238.070360 41.000000
238.089230 30.000000
238.112660 8.000000
238.286000 10.000000
238.360520 8.000000
239.055450 14.000000
239.082690 15.000000
239.094300 11.000000
239.117690 8.000000
240.037370 9.000000
240.059330 24.000000
240.071300 30.000000
240.103260 12.000000
241.043230 14.000000
241.064900 53.000000
241.090770 12.000000
241.774350 13.000000
242.040240 46.000000
242.058350 8.000000
242.070110 32.000000
242.081730 23.000000
242.327290 6.000000
243.015990 9.000000
243.041350 123.000000
243.065370 8.000000
243.076750 15.000000
243.101850 9.000000
244.042690 37.000000
244.055690 120.000000
244.068950 50.000000
244.090410 12.000000
244.100360 9.000000
245.020220 8.000000
245.041560 46.000000
245.055100 164.000000
245.088460 42.000000
246.032320 19.000000
246.052600 9.000000
246.059450 24.000000
246.070680 18.000000
246.090970 44.000000
246.810840 7.000000
247.054630 12.000000
247.064540 22.000000
247.080150 35.000000
247.100220 6.000000
247.135620 6.000000
248.081210 27.000000
248.102160 21.000000
248.114530 6.000000
248.129590 7.000000
248.975370 11.000000
249.074280 22.000000
249.084380 13.000000
249.100220 30.000000
249.111420 13.000000
250.061770 7.000000
250.097340 9.000000
250.134200 25.000000
250.362610 7.000000
250.939410 14.000000
251.020540 9.000000
251.046170 7.000000
251.060350 25.000000
251.081570 39.000000
251.103180 13.000000
251.185390 13.000000
252.020020 8.000000
252.056120 51.000000
252.074940 13.000000
252.107570 24.000000
253.047150 21.000000
253.065670 30.000000
253.081470 43.000000
253.097270 10.000000
254.031490 9.000000
254.051190 12.000000
254.064740 18.000000
254.076350 52.000000
254.105070 9.000000
254.125930 12.000000
254.267550 9.000000
255.046860 13.000000
255.069320 13.000000
255.092410 21.000000
255.402150 7.000000
256.043330 11.000000
256.057010 24.000000
256.071260 19.000000
256.085780 26.000000
257.034180 6.000000
257.055020 72.000000
257.076870 14.000000
257.116360 6.000000
258.041110 13.000000
258.066350 105.000000
258.077730 39.000000
258.088560 15.000000
258.114290 10.000000
258.798770 6.000000
259.049770 8.000000
259.070650 88.000000
259.086980 44.000000
259.109860 47.000000
260.052800 11.000000
260.074580 9.000000
260.084930 20.000000
260.103850 15.000000
260.114350 11.000000
261.050570 11.000000
261.074580 15.000000
261.092250 37.000000
261.108060 16.000000
261.127380 15.000000
261.285460 9.000000
261.415920 9.000000
261.998260 6.000000
262.047730 27.000000
262.058010 10.000000
262.077820 8.000000
262.089840 19.000000
262.108800 65.000000
262.130830 7.000000
262.595860 10.000000
262.853640 7.000000
263.075320 28.000000
263.099210 7.000000
263.120570 24.000000
264.069030 8.000000
264.081730 8.000000
264.103030 42.000000
264.169040 6.000000
265.055790 12.000000
265.068970 77.000000
265.099950 20.000000
265.114110 14.000000
265.146940 8.000000
265.176540 9.000000
266.047270 10.000000
266.076390 33.000000
266.110410 49.000000
266.639220 6.000000
267.045590 17.000000
267.073580 43.000000
267.090000 34.000000
267.331150 8.000000
268.053650 7.000000
268.104220 45.000000
268.135010 29.000000
268.252290 8.000000
268.998230 9.000000
269.053070 28.000000
269.060610 57.000000
269.075470 50.000000
269.096370 52.000000
269.121730 7.000000
270.034550 8.000000
270.047970 7.000000
270.064270 32.000000
270.084140 34.000000
271.061800 8.000000
272.070190 9.000000
272.401370 7.000000
273.042570 24.000000
273.077090 15.000000
273.090940 47.000000
273.107910 19.000000
274.077670 23.000000
274.089390 17.000000
274.101780 8.000000
275.044370 14.000000
275.081390 30.000000
275.092620 40.000000
275.116940 15.000000
276.064700 13.000000
276.088780 35.000000
276.103420 42.000000
277.057220 14.000000
277.072600 17.000000
277.085910 19.000000
277.107450 23.000000
277.138490 9.000000
278.057310 13.000000
278.075380 38.000000
278.085660 42.000000
278.102050 14.000000
278.115690 33.000000
278.143620 7.000000
278.158540 10.000000
279.067290 64.000000
279.088010 32.000000
279.130520 12.000000
280.053220 26.000000
280.076720 37.000000
280.094790 28.000000
280.113950 38.000000
281.051570 107.000000
281.064300 32.000000
281.092710 28.000000
281.109280 10.000000
281.135650 8.000000
282.035100 6.000000
282.053920 21.000000
282.065830 31.000000
282.077180 64.000000
282.102630 38.000000
283.063420 6.000000
283.079860 50.000000
283.866240 8.000000
284.067750 8.000000
284.082670 34.000000
285.104860 14.000000
285.495670 9.000000
287.112730 12.000000
288.062770 9.000000
288.091190 11.000000
288.110020 27.000000
289.095730 8.000000
290.060150 8.000000
290.073330 35.000000
290.085210 15.000000
290.099060 20.000000
290.112640 14.000000
291.066310 35.000000
291.089750 38.000000
291.113830 22.000000
292.065340 8.000000
292.082980 38.000000
292.100650 14.000000
292.113070 18.000000
292.148160 8.000000
293.037170 12.000000
293.050780 47.000000
293.064420 18.000000
293.093290 32.000000
293.106720 25.000000
293.313720 7.000000
294.064450 28.000000
294.079470 59.000000
294.107760 42.000000
294.157620 13.000000
295.019530 6.000000
295.052950 30.000000
295.073090 207.000000
295.102510 90.000000
295.114500 35.000000
295.133640 8.000000
295.145630 20.000000
296.051880 16.000000
296.085170 92.000000
296.103970 7.000000
296.128300 8.000000
296.142240 12.000000
297.068510 14.000000
297.086910 29.000000
297.104030 6.000000
297.119690 8.000000
298.088500 29.000000
299.083920 8.000000
299.103760 9.000000
300.112580 12.000000
300.127560 9.000000
301.102570 9.000000
301.114410 15.000000
301.783970 7.000000
302.020390 7.000000
302.103550 9.000000
302.112120 19.000000
302.400450 9.000000
303.076230 45.000000
303.095980 14.000000
303.122650 18.000000
304.067410 22.000000
304.086820 37.000000
304.114230 8.000000
305.085420 6.000000
305.101070 32.000000
305.130430 31.000000
306.068970 8.000000
306.086730 40.000000
306.100040 19.000000
306.115780 10.000000
306.126370 16.000000
307.032960 8.000000
307.065280 91.000000
307.087800 33.000000
307.106900 63.000000
307.117650 45.000000
307.146700 7.000000
307.162450 15.000000
308.057590 22.000000
308.068020 62.000000
308.084410 56.000000
308.093690 30.000000
308.115690 44.000000
308.129300 26.000000
308.143400 17.000000
308.203610 11.000000
309.009220 11.000000
309.079070 108.000000
309.111210 27.000000
309.155150 15.000000
309.792760 8.000000
310.085540 35.000000
310.112090 31.000000
310.132480 31.000000
311.099090 35.000000
311.124570 9.000000
311.363220 12.000000
311.917510 16.000000
312.112790 15.000000
313.093660 8.000000
313.125580 19.000000
314.102910 8.000000
315.130860 12.000000
316.127590 8.000000
317.059270 10.000000
317.084290 25.000000
317.097780 12.000000
318.083620 25.000000
318.097810 23.000000
319.055970 10.000000
319.076840 9.000000
319.093990 27.000000
319.111720 31.000000
320.067720 7.000000
320.084470 29.000000
320.108920 7.000000
320.126530 8.000000
320.162750 20.000000
321.024750 14.000000
321.050450 7.000000
321.076970 65.000000
321.091060 67.000000
321.128390 32.000000
321.237670 6.000000
322.087490 65.000000
322.100650 68.000000
322.140530 16.000000
323.035920 9.000000
323.089320 41.000000
323.102600 132.000000
323.126370 15.000000
323.141270 23.000000
323.153230 17.000000
324.080870 11.000000
324.097230 30.000000
324.111390 36.000000
324.131200 9.000000
324.830630 9.000000
325.121550 33.000000
326.085020 7.000000
326.918330 8.000000
328.144740 7.000000
332.072330 8.000000
332.091520 8.000000
333.076870 14.000000
333.115940 25.000000
334.086880 10.000000
334.104710 15.000000
334.119380 42.000000
335.101530 394.000000
335.129580 11.000000
336.080470 24.000000
336.111820 124.000000
337.087430 48.000000
337.107150 78.000000
337.123930 60.000000
338.103940 6.000000
338.123140 44.000000
339.124300 8.000000
339.146790 12.000000
340.131260 9.000000
340.164830 8.000000
346.020510 6.000000
346.100770 6.000000
349.099520 8.000000
350.132290 18.000000
350.157260 9.000000
351.104280 23.000000
351.128080 77.000000
351.142150 61.000000
351.784640 15.000000
352.088290 8.000000
352.101350 19.000000
352.118190 15.000000
352.139370 45.000000
352.152340 16.000000
352.435180 9.000000
353.097110 18.000000
353.111210 27.000000
353.145360 28.000000
354.164370 11.000000
354.598390 20.000000
355.118160 23.000000
355.135220 7.000000
355.160740 21.000000
356.180940 11.000000
357.172150 12.000000
357.716710 7.000000
357.750640 11.000000
360.132930 8.000000
365.125950 12.000000
365.148190 26.000000
365.161190 22.000000
366.156520 19.000000
367.106600 13.000000
367.130890 26.000000
367.143070 53.000000
367.158260 19.000000
367.174470 16.000000
368.122620 8.000000
368.170720 9.000000
369.185940 10.000000
370.144650 9.000000
381.181520 6.000000
383.088650 8.000000
383.112210 7.000000
383.147000 16.000000
383.163420 40.000000
384.165530 16.000000
397.168030 18.000000
413.179780 10.000000
413.215970 9.000000

>ms2
120.080440 5.000000
132.078630 5.000000
146.095500 6.000000
218.044080 11.000000
233.058170 11.000000
233.069550 24.000000
234.077190 6.000000
245.053590 6.000000
248.090120 17.000000
261.084690 5.000000
273.084530 9.000000
325.118990 5.000000
337.115660 7.000000
351.135620 14.000000
353.144380 9.000000
353.157560 10.000000
365.151550 13.000000
366.156560 16.000000
367.158810 21.000000
367.172760 16.000000
368.173220 6.000000
383.159550 30.000000
397.175630 6.000000
398.182830 21.000000
398.197140 9.000000
399.184050 7.000000
413.149720 11.000000
413.207400 1000.000000
413.265960 23.000000

>ms2
413.146850 11.000000
413.207180 1000.000000
413.266820 27.000000

>ms2
82.065160 7.000000
91.052850 5.000000
106.064600 21.000000
107.070700 8.000000
109.063580 6.000000
119.073540 17.000000
120.080860 24.000000
132.071560 9.000000
132.083920 24.000000
134.096280 20.000000
135.098080 6.000000
138.092410 10.000000
138.098460 12.000000
144.082610 6.000000
145.086270 5.000000
146.095200 39.000000
150.093060 6.000000
151.100300 8.000000
152.104510 22.000000
158.095810 14.000000
159.110340 6.000000
164.108510 23.000000
165.113140 5.000000
166.087480 7.000000
166.118360 8.000000
166.125090 9.000000
167.132900 6.000000
178.118560 9.000000
190.054380 6.000000
192.067860 10.000000
192.099610 5.000000
192.107760 6.000000
204.070920 6.000000
205.062580 5.000000
206.083600 18.000000
207.047240 7.000000
207.087690 6.000000
213.073680 6.000000
218.045070 22.000000
219.079190 5.000000
220.060330 12.000000
220.092190 24.000000
220.103030 24.000000
221.065870 11.000000
222.077320 16.000000
228.073700 11.000000
230.074130 7.000000
230.091670 8.000000
231.072370 8.000000
232.065400 6.000000
233.069600 197.000000
234.073360 57.000000
234.117650 6.000000
235.090420 8.000000
236.090420 10.000000
243.069960 5.000000
244.058960 5.000000
244.082570 7.000000
245.057100 59.000000
245.088380 11.000000
245.101560 7.000000
246.073940 19.000000
246.099700 7.000000
248.092290 113.000000
249.099400 20.000000
250.104350 7.000000
250.116590 5.000000
256.059330 7.000000
258.099520 6.000000
258.109410 5.000000
259.068970 13.000000
259.080230 11.000000
260.070950 22.000000
260.084350 37.000000
261.079350 18.000000
261.091090 17.000000
262.109010 12.000000
271.088680 25.000000
272.080510 9.000000
272.093480 10.000000
273.082000 31.000000
273.094910 23.000000
274.096220 25.000000
276.123600 6.000000
277.142400 7.000000
282.063200 6.000000
282.081910 7.000000
284.094880 6.000000
286.105990 20.000000
287.104000 7.000000
287.116910 6.000000
295.061490 5.000000
295.079770 5.000000
295.109280 7.000000
297.079350 5.000000
298.107880 5.000000
306.103450 8.000000
307.136020 5.000000
308.128140 6.000000
310.116000 9.000000
310.140290 6.000000
311.102020 15.000000
313.123020 11.000000
314.121030 6.000000
319.108760 7.000000
321.120640 9.000000
322.108950 7.000000
322.123960 6.000000
323.096410 8.000000
323.118260 19.000000
323.137940 12.000000
323.154910 6.000000
324.121120 12.000000
324.163940 11.000000
325.116180 15.000000
325.130740 10.000000
325.149600 9.000000
326.119350 8.000000
333.113830 6.000000
333.128810 7.000000
334.105410 21.000000
334.120360 8.000000
335.112670 9.000000
335.124360 7.000000
336.103970 7.000000
336.117280 6.000000
337.121400 33.000000
337.155580 7.000000
338.125090 22.000000
338.148830 8.000000
338.170750 9.000000
339.130130 17.000000
339.146970 9.000000
339.171020 9.000000
340.122560 5.000000
340.141660 6.000000
347.142520 7.000000
348.131560 7.000000
349.145690 11.000000
349.157410 7.000000
350.127780 8.000000
351.125490 42.000000
351.140350 68.000000
352.133640 13.000000
352.147130 26.000000
353.148960 106.000000
354.140050 9.000000
354.159390 18.000000
355.131770 5.000000
355.166470 42.000000
356.170590 10.000000
356.183690 12.000000
356.205230 6.000000
357.186710 6.000000
365.153990 78.000000
366.157500 121.000000
366.180330 7.000000
367.166290 294.000000
368.136990 6.000000
368.151180 26.000000
368.175720 41.000000
369.131470 6.000000
369.181210 29.000000
369.198670 6.000000
370.146180 6.000000
370.164950 6.000000
370.192470 35.000000
371.169190 6.000000
381.170500 11.000000
381.190190 10.000000
382.185850 6.000000
383.130520 12.000000
383.162320 204.000000
384.158510 45.000000
384.181400 6.000000
385.168180 10.000000
397.177000 70.000000
398.145900 8.000000
398.184720 200.000000
399.171260 11.000000
399.192350 39.000000
400.200260 7.000000
413.155580 24.000000
413.207550 1000.000000

>ms2
56.048560 6.000000
60.045420 10.000000
61.242070 14.000000
67.047360 14.000000
67.052870 26.000000
68.021640 8.000000
71.046780 6.000000
71.052670 18.000000
72.055350 18.000000
73.065010 6.000000
77.039660 74.000000
78.045530 13.000000
79.050060 45.000000
79.053710 108.000000
80.049650 19.000000
80.058310 20.000000
81.032980 6.000000
81.051830 8.000000
82.035980 10.000000
84.047460 9.000000
88.722940 7.000000
91.055280 191.000000
92.042430 6.000000
92.051860 44.000000
92.061350 22.000000
93.045360 6.000000
93.057440 129.000000
93.069140 17.000000
94.032970 5.000000
94.064090 18.000000
94.076540 5.000000
95.047560 6.000000
95.082900 24.000000
96.083320 20.000000
97.062550 9.000000
98.093810 14.000000
98.552940 6.000000
102.029820 10.000000
103.052830 20.000000
103.552410 11.000000
104.044180 21.000000
104.068050 6.000000
104.693370 14.000000
105.055310 10.000000
105.067730 58.000000
105.072940 55.000000
106.044370 8.000000
106.063320 189.000000
106.069330 104.000000
107.049730 15.000000
107.066350 18.000000
107.075810 56.000000
107.083950 40.000000
107.091220 8.000000
107.891300 7.000000
108.034520 6.000000
108.043980 10.000000
108.071420 8.000000
108.080300 74.000000
109.066990 48.000000
109.082370 9.000000
110.060260 18.000000
110.261600 6.000000
111.078530 7.000000
115.022800 13.000000
115.055270 83.000000
116.049990 57.000000
117.056850 139.000000
117.068240 42.000000
117.075000 30.000000
118.052560 30.000000
118.066420 111.000000
119.058360 12.000000
119.068660 57.000000
119.075260 51.000000
119.083690 24.000000
120.038180 8.000000
120.058820 7.000000
120.075570 160.000000
120.081870 321.000000
121.049320 20.000000
121.065160 10.000000
121.075510 25.000000
121.089730 36.000000
122.040310 13.000000
122.052600 20.000000
122.061730 7.000000
123.070110 6.000000
123.080960 55.000000
123.505440 6.000000
124.078380 33.000000
125.083010 8.000000
126.092250 22.000000
126.764470 7.000000
127.058460 7.000000
127.141940 8.000000
128.050980 20.000000
129.057360 8.000000
129.072600 38.000000
129.941880 19.000000
130.037520 6.000000
130.050660 6.000000
130.066280 124.000000
130.409580 7.000000
130.486950 6.000000
130.871990 5.000000
131.049820 6.000000
131.067570 62.000000
131.075840 40.000000
131.086090 20.000000
132.033190 25.000000
132.041750 51.000000
132.078280 291.000000
132.379710 6.000000
133.010420 9.000000
133.042940 26.000000
133.051220 28.000000
133.060470 22.000000
133.072650 7.000000
133.090470 96.000000
134.053960 59.000000
134.064640 68.000000
134.090440 36.000000
134.098740 55.000000
135.024250 14.000000
135.048030 12.000000
135.064510 22.000000
135.094620 17.000000
135.105260 5.000000
135.456310 6.000000
136.049240 9.000000
136.069850 14.000000
136.079180 14.000000
136.111360 6.000000
137.041350 9.000000
137.087020 22.000000
137.111040 9.000000
138.039230 10.000000
138.084000 11.000000
138.089750 7.000000
138.099440 5.000000
138.178910 5.000000
141.055950 20.000000
142.067490 21.000000
143.041530 7.000000
143.069000 30.000000
143.075900 27.000000
143.080860 15.000000
144.051910 26.000000
144.070980 19.000000
144.080280 108.000000
145.035200 10.000000
145.048840 58.000000
145.059780 5.000000
145.086090 66.000000
145.938720 6.000000
146.060350 77.000000
146.071580 8.000000
146.095350 216.000000
146.200710 5.000000
147.028850 39.000000
147.043460 10.000000
147.050580 8.000000
147.065170 54.000000
147.094640 6.000000
147.105330 5.000000
148.035130 30.000000
148.044200 37.000000
148.062640 25.000000
148.073730 27.000000
148.082090 27.000000
148.089260 13.000000
148.184140 5.000000
148.274060 7.000000
148.400970 5.000000
148.934770 8.000000
149.025220 10.000000
149.044100 16.000000
149.061040 16.000000
149.085860 23.000000
149.431750 6.000000
150.045670 8.000000
150.055710 32.000000
150.089460 13.000000
151.040950 9.000000
151.095700 10.000000
151.828220 5.000000
152.073320 13.000000
152.106080 44.000000
152.115980 15.000000
153.015610 9.000000
153.073070 26.000000
153.083860 10.000000
153.112530 13.000000
153.116910 5.000000
154.037200 12.000000
154.067520 18.000000
155.031770 5.000000
155.064420 7.000000
155.079210 8.000000
156.050860 16.000000
156.063000 7.000000
156.078990 25.000000
157.064990 9.000000
157.084320 24.000000
157.091460 22.000000
158.053770 29.000000
158.058110 12.000000
158.074280 8.000000
158.092710 52.000000
158.100950 53.000000
159.019850 12.000000
159.036580 9.000000
159.064180 25.000000
159.073200 12.000000
159.093230 6.000000
159.109310 7.000000
160.042530 45.000000
160.053680 11.000000
160.074010 93.000000
160.110090 25.000000
160.241730 6.000000
161.036410 34.000000
161.046190 28.000000
161.058850 34.000000
161.081310 42.000000
161.091170 20.000000
161.118760 7.000000
161.266820 7.000000
161.472530 7.000000
161.973140 8.000000
162.036130 7.000000
162.054440 295.000000
162.069820 6.000000
162.087040 32.000000
162.316910 8.000000
163.027950 8.000000
163.051560 5.000000
163.059510 21.000000
163.066590 15.000000
163.083400 13.000000
163.093540 6.000000
163.464510 11.000000
164.019960 6.000000
164.031420 22.000000
164.066190 59.000000
164.104600 58.000000
164.112930 38.000000
165.019070 9.000000
165.035710 12.000000
165.112750 22.000000
165.998260 14.000000
166.009460 10.000000
166.054500 10.000000
166.117780 19.000000
166.130740 7.000000
167.068150 15.000000
168.080540 6.000000
168.242080 5.000000
169.009510 7.000000
169.021420 6.000000
169.042050 7.000000
169.055400 12.000000
169.068710 10.000000
170.032550 7.000000
170.065280 33.000000
170.096570 26.000000
170.884900 7.000000
171.014010 11.000000
171.032670 9.000000
171.052760 50.000000
171.065730 19.000000
171.075700 12.000000
171.106260 12.000000
172.037200 39.000000
172.050800 8.000000
172.061580 5.000000
172.074720 12.000000
173.043640 26.000000
173.053100 40.000000
173.070980 24.000000
173.085040 20.000000
173.115980 14.000000
174.021360 12.000000
174.040250 9.000000
174.052980 71.000000
174.067720 20.000000
174.084300 15.000000
174.091290 9.000000
175.029220 7.000000
175.040700 9.000000
175.053340 6.000000
175.069500 33.000000
175.087330 6.000000
175.404740 6.000000
175.587600 18.000000
176.034060 48.000000
176.054640 15.000000
176.071810 137.000000
176.099660 18.000000
176.110240 15.000000
176.513550 8.000000
176.769120 11.000000
177.006010 11.000000
177.038740 8.000000
177.049530 9.000000
177.054890 17.000000
177.070800 13.000000
177.080750 38.000000
177.197970 6.000000
178.003720 7.000000
178.053280 50.000000
178.070830 18.000000
178.085970 24.000000
178.094910 21.000000
179.051860 14.000000
179.060380 31.000000
179.100360 6.000000
179.125320 7.000000
179.397890 9.000000
180.053220 6.000000
180.076340 5.000000
180.087550 7.000000
181.051970 7.000000
181.074540 6.000000
181.093890 8.000000
181.993380 6.000000
182.047810 10.000000
182.065900 26.000000
182.073850 12.000000
182.096480 14.000000
182.257710 7.000000
183.043150 5.000000
183.063690 26.000000
183.070310 27.000000
183.113110 7.000000
183.585370 23.000000
184.046620 8.000000
184.067150 17.000000
184.077040 6.000000
184.085690 6.000000
184.585710 6.000000
185.027630 8.000000
185.041500 25.000000
185.051880 24.000000
185.073100 37.000000
185.086350 9.000000
185.462270 8.000000
186.054460 66.000000
186.090070 11.000000
186.827640 7.000000
187.026200 5.000000
187.040950 6.000000
187.055100 26.000000
187.070650 23.000000
187.081600 7.000000
187.124390 10.000000
187.650680 5.000000
188.032360 46.000000
188.049260 19.000000
188.070760 64.000000
188.088470 6.000000
188.102520 11.000000
188.773510 7.000000
189.045300 42.000000
189.064870 25.000000
189.073700 24.000000
189.081220 27.000000
189.201130 5.000000
190.016310 18.000000
190.049130 595.000000
190.074920 6.000000
190.085370 17.000000
190.961650 5.000000
191.049380 57.000000
191.062610 77.000000
191.070360 31.000000
191.091870 13.000000
191.101970 21.000000
191.323700 7.000000
192.029080 46.000000
192.038060 22.000000
192.049470 21.000000
192.065120 9.000000
192.074520 9.000000
192.098820 7.000000
192.111360 5.000000
193.010220 8.000000
193.029020 10.000000
193.038600 10.000000
193.070470 34.000000
194.053360 23.000000
194.093810 7.000000
195.032840 8.000000
195.060150 9.000000
195.076690 15.000000
195.093140 9.000000
195.113770 8.000000
196.033680 6.000000
196.077900 18.000000
196.256500 6.000000
196.802290 5.000000
197.043590 13.000000
197.078220 66.000000
197.112590 7.000000
198.045930 36.000000
198.055980 29.000000
198.094820 8.000000
199.047350 67.000000
199.065570 47.000000
199.078600 18.000000
199.117100 12.000000
199.518650 6.000000
200.034350 18.000000
200.043930 49.000000
200.068970 65.000000
200.080930 14.000000
200.098590 8.000000
200.135570 6.000000
200.888110 5.000000
201.021500 7.000000
201.042270 57.000000
201.056760 7.000000
201.076610 7.000000
202.042080 107.000000
202.051100 61.000000
202.086170 27.000000
203.013850 40.000000
203.022640 25.000000
203.036530 14.000000
203.044430 17.000000
203.057510 5.000000
203.069270 15.000000
203.095540 13.000000
204.003370 6.000000
204.022080 26.000000
204.036930 28.000000
204.066960 228.000000
204.085600 7.000000
204.207170 6.000000
204.927860 6.000000
204.986480 7.000000
205.035570 13.000000
205.066420 98.000000
205.075230 83.000000
205.089980 20.000000
205.108080 10.000000
206.042140 96.000000
206.063770 19.000000
206.075240 56.000000
206.087370 35.000000
206.098880 10.000000
206.109970 8.000000
206.388690 23.000000
206.792100 5.000000
206.997860 15.000000
207.043730 19.000000
207.101170 31.000000
208.030060 11.000000
208.044570 6.000000
208.061550 38.000000
208.076600 29.000000
208.097780 26.000000
208.116650 10.000000
209.041350 10.000000
209.069060 21.000000
209.085940 18.000000
209.120410 35.000000
209.558790 6.000000
210.057650 23.000000
210.084240 58.000000
210.102620 6.000000
210.113460 7.000000
211.056850 51.000000
211.090610 17.000000
211.994670 5.000000
212.053300 20.000000
212.067610 32.000000
212.075900 61.000000
212.098980 6.000000
213.038650 22.000000
213.046140 15.000000
213.060380 12.000000
213.071470 17.000000
213.079850 17.000000
214.044510 10.000000
214.057530 20.000000
214.069930 32.000000
214.080170 27.000000
215.005620 12.000000
215.024630 11.000000
215.041930 114.000000
215.054890 49.000000
215.065580 9.000000
216.005920 9.000000
216.023710 6.000000
216.050840 113.000000
216.068300 167.000000
216.089750 7.000000
216.100950 9.000000
216.143300 6.000000
216.788390 7.000000
217.031270 33.000000
217.041350 108.000000
217.061040 94.000000
217.074940 55.000000
217.088620 9.000000
217.109180 16.000000
217.684230 6.000000
217.990220 21.000000
218.003220 6.000000
218.016020 13.000000
218.028030 73.000000
218.043870 1000.000000
218.077700 12.000000
218.085880 7.000000
218.772200 6.000000
218.903820 9.000000
218.966020 5.000000
219.033070 21.000000
219.047840 159.000000
219.074910 23.000000
219.085820 40.000000
219.098190 14.000000
219.107760 20.000000
219.118610 8.000000
219.208820 10.000000
220.028260 10.000000
220.046940 58.000000
220.061830 64.000000
220.093340 15.000000
221.025760 8.000000
221.053760 10.000000
221.070100 49.000000
221.084730 39.000000
221.109020 9.000000
222.051540 22.000000
222.062590 33.000000
222.074690 11.000000
222.089900 23.000000
222.157100 9.000000
222.530650 8.000000
223.063190 17.000000
223.143480 6.000000
224.018230 5.000000
224.036560 7.000000
224.061340 13.000000
224.100200 7.000000
225.036000 10.000000
225.050090 6.000000
225.070020 18.000000
225.080460 28.000000
225.102890 21.000000
226.022840 16.000000
226.035170 9.000000
226.056030 14.000000
226.073320 16.000000
226.083220 45.000000
226.107380 23.000000
227.054340 6.000000
227.075010 19.000000
227.085100 14.000000
228.063020 119.000000
228.072620 29.000000
228.089550 6.000000
229.048900 49.000000
229.062880 51.000000
229.074600 22.000000
229.092510 8.000000
230.042480 10.000000
230.054350 25.000000
230.066440 33.000000
230.078400 38.000000
230.095400 8.000000
230.111980 15.000000
231.006970 13.000000
231.031780 31.000000
231.042210 83.000000
231.064320 45.000000
231.081510 13.000000
231.096150 6.000000
231.108290 8.000000
232.047130 91.000000
232.065660 218.000000
232.086590 7.000000
232.110920 8.000000
232.435350 5.000000
233.013090 6.000000
233.039140 9.000000
233.065610 282.000000
233.098600 18.000000
233.258240 6.000000
234.055160 15.000000
234.074200 80.000000
234.088440 32.000000
234.102540 15.000000
235.011950 17.000000
235.062620 26.000000
235.075230 12.000000
235.088380 7.000000
235.096120 8.000000
235.109920 18.000000
235.203700 6.000000
235.552340 14.000000
235.613480 6.000000
236.073030 10.000000
236.093200 23.000000
236.112110 19.000000
237.059650 31.000000
237.082230 50.000000
237.102630 17.000000
237.117260 18.000000
238.044910 7.000000
238.056300 11.000000
238.069310 44.000000
238.080630 45.000000
238.102110 9.000000
238.117610 15.000000
238.268490 7.000000
239.060030 29.000000
239.080310 52.000000
240.055360 17.000000
240.068980 25.000000
240.100480 6.000000
240.112880 20.000000
241.013000 8.000000
241.029270 7.000000
241.042140 17.000000
241.066350 73.000000
241.077850 61.000000
241.106690 30.000000
242.044390 20.000000
242.060560 21.000000
242.072860 55.000000
242.095960 7.000000
243.024690 8.000000
243.040040 37.000000
243.053300 28.000000
243.069930 6.000000
243.076680 12.000000
243.090450 28.000000
244.026380 11.000000
244.050750 85.000000
244.066740 42.000000
244.080050 19.000000
244.101750 20.000000
245.026920 6.000000
245.047710 111.000000
245.060350 57.000000
245.089280 27.000000
245.106380 11.000000
245.115300 15.000000
245.126630 8.000000
246.017810 8.000000
246.053680 63.000000
246.083630 53.000000
246.103580 39.000000
246.127080 13.000000
246.194850 7.000000
247.055180 7.000000
247.068390 7.000000
247.084920 36.000000
247.106810 8.000000
247.152150 7.000000
248.069990 24.000000
248.086260 35.000000
248.104610 39.000000
249.109540 16.000000
249.168200 10.000000
249.971970 7.000000
250.045530 26.000000
250.068340 20.000000
250.078400 50.000000
250.094860 7.000000
250.130860 10.000000
251.046780 21.000000
251.083450 35.000000
251.095630 6.000000
252.055190 34.000000
252.071230 23.000000
252.084780 22.000000
252.100460 26.000000
252.122440 15.000000
252.131990 21.000000
253.069150 77.000000
253.081480 9.000000
253.110380 25.000000
253.142640 13.000000
253.161870 9.000000
254.044220 7.000000
254.059160 17.000000
254.085110 32.000000
254.306090 6.000000
255.064420 30.000000
255.077590 56.000000
255.115910 8.000000
256.032070 17.000000
256.061860 44.000000
256.077000 20.000000
256.097470 7.000000
257.044890 14.000000
257.058140 61.000000
257.072050 47.000000
257.082640 39.000000
257.100130 10.000000
258.062870 65.000000
258.078190 6.000000
258.091310 6.000000
258.111790 15.000000
258.607700 7.000000
259.073730 69.000000
259.089230 9.000000
259.110140 24.000000
260.038570 11.000000
260.067290 9.000000
260.075040 18.000000
260.088780 27.000000
260.110050 19.000000
260.133610 26.000000
261.049500 8.000000
261.060940 26.000000
261.081600 28.000000
261.095150 18.000000
261.119080 12.000000
261.397460 6.000000
262.032440 6.000000
262.059080 15.000000
262.085020 15.000000
262.110170 16.000000
263.046510 7.000000
263.075070 26.000000
263.091370 15.000000
263.105900 21.000000
263.120970 31.000000
264.040470 14.000000
264.056850 23.000000
264.070160 16.000000
264.086880 44.000000
264.116670 11.000000
265.047550 17.000000
265.063320 27.000000
265.076840 15.000000
265.088290 22.000000
265.098270 9.000000
265.114870 6.000000
265.138670 16.000000
266.062350 37.000000
266.086520 16.000000
266.107970 18.000000
267.076080 52.000000
267.093230 31.000000
268.038360 10.000000
268.075470 7.000000
268.090480 13.000000
269.055480 44.000000
269.071010 7.000000
269.090580 24.000000
269.124730 9.000000
269.395940 6.000000
269.813350 5.000000
270.006230 10.000000
270.071590 19.000000
270.094970 6.000000
271.065090 33.000000
271.083590 39.000000
271.109130 17.000000
271.351680 5.000000
272.077880 26.000000
272.091740 19.000000
272.458650 5.000000
273.041900 14.000000
273.051910 10.000000
273.086880 64.000000
273.347320 12.000000
273.733400 5.000000
274.061890 17.000000
274.077550 18.000000
274.090730 10.000000
274.101680 13.000000
274.171600 8.000000
275.079100 5.000000
275.090580 14.000000
275.119600 25.000000
276.058870 15.000000
276.070650 5.000000
276.107180 30.000000
277.063320 17.000000
277.080200 19.000000
277.091890 13.000000
277.107910 9.000000
278.039180 11.000000
278.056340 7.000000
278.078580 62.000000
278.093020 16.000000
278.111630 46.000000
279.040410 7.000000
279.058290 15.000000
279.074650 40.000000
279.087620 16.000000
279.100980 29.000000
279.112920 30.000000
279.131680 12.000000
280.026640 8.000000
280.040590 8.000000
280.057770 37.000000
280.078030 35.000000
280.100340 60.000000
280.110870 16.000000
280.137080 19.000000
280.385710 10.000000
281.048800 23.000000
281.062190 65.000000
281.089940 49.000000
281.107330 16.000000
281.124360 17.000000
282.063290 88.000000
282.080990 29.000000
282.114810 17.000000
282.126650 9.000000
282.743620 10.000000
282.784150 9.000000
283.043670 18.000000
283.066250 75.000000
283.081790 53.000000
283.108860 7.000000
284.075960 17.000000
284.094850 32.000000
284.103520 16.000000
284.162510 9.000000
285.090000 22.000000
286.095120 18.000000
287.090480 9.000000
288.083860 16.000000
288.096860 22.000000
288.110350 25.000000
288.126460 10.000000
288.141660 6.000000
289.084230 9.000000
289.103000 39.000000
289.124180 8.000000
290.064700 14.000000
290.080510 30.000000
290.095730 9.000000
290.125340 22.000000
291.072450 11.000000
291.087430 55.000000
291.103120 17.000000
291.119780 8.000000
292.040010 6.000000
292.057890 44.000000
292.084900 45.000000
292.120240 14.000000
292.155430 5.000000
293.052340 43.000000
293.069850 50.000000
293.088750 60.000000
293.101530 26.000000
293.115480 18.000000
293.143710 28.000000
294.025180 14.000000
294.047450 17.000000
294.063110 43.000000
294.082430 29.000000
294.108310 32.000000
294.132540 7.000000
295.046570 20.000000
295.069580 120.000000
295.090000 20.000000
295.098910 16.000000
295.124180 18.000000
296.064580 13.000000
296.091920 26.000000
296.108610 12.000000
296.124730 8.000000
296.399900 6.000000
296.470060 7.000000
297.040650 6.000000
297.090090 90.000000
297.124760 9.000000
297.143280 13.000000
298.071620 13.000000
298.096160 5.000000
298.113160 6.000000
298.131710 15.000000
299.028990 7.000000
300.225980 10.000000
301.049900 8.000000
301.095340 8.000000
301.105870 12.000000
301.118500 6.000000
301.131590 8.000000
301.508210 8.000000
301.586240 7.000000
302.099430 7.000000
303.123840 17.000000
303.154420 10.000000
304.046780 13.000000
304.086550 43.000000
304.102510 16.000000
304.114930 6.000000
305.054600 7.000000
305.088710 11.000000
305.103180 43.000000
305.145320 20.000000
305.168330 5.000000
306.081820 15.000000
306.103970 51.000000
306.122830 17.000000
306.143680 12.000000
307.073520 164.000000
307.108280 118.000000
307.137510 9.000000
307.158810 11.000000
308.049930 7.000000
308.077090 89.000000
308.102970 59.000000
308.125790 30.000000
308.154360 13.000000
308.784360 8.000000
308.810610 16.000000
308.881470 8.000000
309.075780 40.000000
309.089940 111.000000
309.123600 32.000000
309.195590 9.000000
309.440160 7.000000
309.825810 5.000000
310.019530 7.000000
310.052860 9.000000
310.080930 19.000000
310.097870 18.000000
310.140990 8.000000
310.164550 6.000000
311.095000 12.000000
311.106110 7.000000
311.945860 8.000000
313.077580 6.000000
313.116030 38.000000
313.133180 7.000000
313.394130 8.000000
314.135800 22.000000
314.671660 12.000000
314.731690 6.000000
316.101590 7.000000
316.226100 5.000000
318.066590 7.000000
318.085020 6.000000
318.094480 9.000000
319.048280 10.000000
319.075230 19.000000
319.087250 37.000000
319.100490 21.000000
319.119320 37.000000
319.141020 7.000000
319.155980 7.000000
319.981570 7.000000
320.073060 12.000000
320.108830 30.000000
321.041840 18.000000
321.079380 92.000000
321.093960 80.000000
321.152070 10.000000
322.075900 24.000000
322.092990 30.000000
322.117740 13.000000
322.138150 23.000000
322.152800 10.000000
322.828460 10.000000
323.045230 6.000000
323.101070 167.000000
323.137420 26.000000
323.150700 7.000000
324.082460 17.000000
324.103850 24.000000
324.118070 28.000000
324.174650 24.000000
324.353330 6.000000
324.503630 6.000000
325.059110 6.000000
325.076900 6.000000
325.106870 8.000000
325.122190 27.000000
325.136320 8.000000
326.142210 5.000000
326.466920 8.000000
327.114750 7.000000
327.136780 9.000000
329.501460 6.000000
332.096190 8.000000
332.119380 7.000000
333.090670 8.000000
333.115110 9.000000
333.327090 21.000000
334.035000 6.000000
334.087310 14.000000
334.105650 8.000000
334.113890 16.000000
334.131840 7.000000
335.060910 6.000000
335.086700 50.000000
335.103150 319.000000
335.131740 24.000000
335.542180 10.000000
336.083500 19.000000
336.097990 48.000000
336.114500 26.000000
336.129610 8.000000
336.139590 6.000000
336.169890 10.000000
337.033230 5.000000
337.117950 189.000000
337.145900 7.000000
337.175690 7.000000
337.862180 12.000000
337.995060 10.000000
338.060850 9.000000
338.109830 8.000000
338.125890 14.000000
338.142360 9.000000
339.047490 12.000000
339.080900 6.000000
339.098750 9.000000
339.127230 26.000000
340.120180 6.000000
341.097560 9.000000
341.146670 6.000000
342.074520 12.000000
343.137360 6.000000
349.122340 18.000000
350.104310 10.000000
350.118040 9.000000
350.133090 17.000000
351.065800 14.000000
351.097470 6.000000
351.127500 44.000000
351.139040 47.000000
351.156430 14.000000
351.346010 6.000000
351.491760 6.000000
352.110050 15.000000
352.124690 30.000000
352.162020 11.000000
352.933200 8.000000
353.113920 43.000000
353.141200 16.000000
353.161440 7.000000
354.137360 7.000000
354.153810 32.000000
355.124480 8.000000
355.158080 30.000000
355.174770 7.000000
355.375150 5.000000
356.132750 7.000000
356.201170 7.000000
365.140200 19.000000
365.158750 35.000000
366.158110 15.000000
367.120910 6.000000
367.159700 70.000000
367.195530 11.000000
369.124820 17.000000
381.134310 5.000000
381.161930 7.000000
383.162810 32.000000
383.174870 9.000000
384.176060 5.000000
386.170780 6.000000
397.164180 12.000000
397.181000 6.000000
399.204100 10.000000
413.184600 16.000000
413.221340 5.000000

