>compound PR20544292
>parentmass 261.1443
>ionization [M+H]+
>formula C11H20N2O5
>rt 118.800000
>profile qtof
#smiles_iso CCC(C)C(C(=O)NC(CCC(=O)O)C(=O)O)N
#smiles_can CCC(C)C(C(=O)NC(CCC(=O)O)C(=O)O)N
#inchikey KTGFOCFYOZQVRJ-UHFFFAOYSA-N
#pubchem_id 18218218
#mb_accession PR311044

>ms2peaks
86.097340 125.000000
114.052470 21.000000
129.098590 17.000000
130.051150 21.000000
144.103210 31.000000
148.059800 175.000000
198.109340 23.000000
228.120300 28.000000
228.128300 27.000000
246.139390 38.000000
261.144530 224.000000

