>compound PR20602967
>parentmass 391.1387441
>ionization [M+H]+
>formula C20H22O8
>rt 242.973000
>profile qtof
#smiles_iso C1=CC(=CC=C1/C=C/C2=CC(=CC(=C2)O[C@H]3C([C@H]([C@@H](C(O3)CO)O)O)O)O)O
#smiles_can C1=CC(=CC=C1C=CC2=CC(=CC(=C2)OC3C(C(C(C(O3)CO)O)O)O)O)O
#inchikey HSTZMXCBWJGKHG-GHHIHIOFSA-N
#pubchem_id 71752015
#mb_accession PR304229,PR304231,PR304233,PR304235,PR304237,PR304239,PR304241,PR304243,PR304245,PR304247,PR304249,PR304251

>ms2
91.054710 22.000000
107.043310 19.000000
111.040570 50.000000
119.045690 39.000000
127.034190 19.000000
135.043870 26.000000
135.057330 19.000000
143.578220 20.000000
164.282330 29.000000
173.094590 29.000000
181.065080 31.000000
183.078830 54.000000
195.084930 19.000000
199.075940 25.000000
202.081040 18.000000
209.052570 25.000000
211.078930 53.000000
213.053210 22.000000
227.066380 18.000000
227.078840 22.000000
228.077870 265.000000
229.086030 1000.000000
230.083020 104.000000
230.098180 43.000000
232.098630 21.000000
241.090850 41.000000
253.086290 66.000000
271.095090 59.000000
271.106480 21.000000
295.094420 29.000000
319.086520 22.000000
355.097050 21.000000
355.127440 20.000000
390.129970 19.000000
391.159060 19.000000

>ms2
145.051210 12.000000
199.071200 13.000000
228.073670 128.000000
228.082900 191.000000
229.064820 14.000000
229.086110 1000.000000
229.132220 12.000000
229.174710 12.000000
230.081010 35.000000
230.091780 102.000000
230.273350 11.000000
231.091420 14.000000
255.065430 12.000000
256.056640 13.000000
257.074370 17.000000
271.084320 11.000000
283.096340 12.000000
295.093050 11.000000
295.107090 11.000000
296.095460 12.000000
296.162410 16.000000
297.110840 18.000000
325.100490 12.000000
337.111600 15.000000
355.124660 12.000000
373.126160 54.000000
373.147710 14.000000
390.132510 146.000000
391.133510 175.000000
391.159030 26.000000

>ms2
71.018390 79.000000
86.028040 107.000000
91.051960 110.000000
107.048840 465.000000
111.039790 46.000000
119.041480 56.000000
119.047260 64.000000
120.056540 46.000000
121.027820 61.000000
123.050000 74.000000
130.053470 69.000000
135.044080 734.000000
136.054640 59.000000
141.065000 43.000000
141.074720 102.000000
149.028720 46.000000
157.068650 51.000000
165.066850 54.000000
166.078060 56.000000
171.043170 51.000000
173.094090 74.000000
183.081020 51.000000
188.084240 51.000000
193.051820 64.000000
193.059920 90.000000
193.071840 51.000000
199.068080 46.000000
199.083240 43.000000
201.097870 49.000000
210.030850 49.000000
210.057660 72.000000
211.064420 56.000000
211.078380 223.000000
213.058040 51.000000
213.085020 51.000000
225.089160 46.000000
227.065580 240.000000
228.059430 51.000000
228.073030 396.000000
228.089250 207.000000
229.063610 66.000000
229.086810 1000.000000
230.074550 54.000000
230.089520 136.000000
231.069870 51.000000
236.079730 97.000000
241.098710 51.000000
294.094060 74.000000

>ms2
57.034350 175.000000
77.036150 147.000000
79.056300 113.000000
91.053340 158.000000
107.049420 1000.000000
120.057760 124.000000
121.028240 107.000000
127.044490 96.000000
135.048370 243.000000
141.070470 136.000000
157.060500 192.000000
165.071530 927.000000
166.074200 102.000000
168.052950 373.000000
171.052830 102.000000
181.006940 96.000000
181.062930 164.000000
181.985440 124.000000
182.055790 141.000000
183.084030 395.000000
185.058430 136.000000
199.076800 362.000000
209.060350 107.000000
213.046650 147.000000
227.065370 243.000000

>ms2
107.045680 51.000000
119.040620 19.000000
119.052910 19.000000
123.038340 20.000000
129.080260 22.000000
135.045580 18.000000
141.066680 36.000000
144.066040 21.000000
147.063230 43.000000
147.075700 23.000000
157.059430 36.000000
165.065720 19.000000
181.058300 24.000000
183.089110 19.000000
193.053330 22.000000
194.077470 20.000000
210.065380 38.000000
211.058690 27.000000
211.073880 21.000000
212.083270 42.000000
227.061140 25.000000
227.076900 63.000000
228.053420 18.000000
228.067490 123.000000
228.081210 224.000000
229.086530 1000.000000
230.088010 129.000000
230.103500 26.000000
231.088700 23.000000
241.085560 39.000000
271.089140 21.000000
272.105560 21.000000
279.076780 19.000000
295.084110 30.000000
295.108430 20.000000
319.100040 19.000000
355.135010 19.000000
391.145940 38.000000

>ms2
145.061510 16.000000
154.188900 10.000000
161.861760 11.000000
211.078770 17.000000
227.216200 11.000000
228.075530 220.000000
228.090550 47.000000
229.085070 1000.000000
230.087450 164.000000
236.261290 12.000000
241.075160 15.000000
242.077180 12.000000
242.086780 15.000000
244.631180 14.000000
249.416750 12.000000
250.225360 10.000000
271.087190 11.000000
271.103330 21.000000
272.105620 10.000000
295.086000 71.000000
295.094570 28.000000
295.111910 14.000000
313.121950 20.000000
325.110900 24.000000
337.111050 12.000000
355.113040 41.000000
355.124150 14.000000
357.120570 14.000000
374.115970 11.000000
375.133910 13.000000
390.127290 82.000000
390.147710 37.000000
391.134520 64.000000
391.147000 87.000000

>ms2
53.040520 77.000000
57.030810 47.000000
85.026730 88.000000
85.931100 38.000000
91.056730 45.000000
97.027040 45.000000
101.026030 38.000000
107.052380 120.000000
111.045700 77.000000
117.029350 45.000000
119.040160 81.000000
119.046270 144.000000
120.060910 41.000000
129.047740 45.000000
135.039960 309.000000
135.048900 167.000000
136.045900 269.000000
137.059220 43.000000
138.233600 63.000000
141.070710 79.000000
154.064540 45.000000
155.087460 38.000000
160.057420 38.000000
165.056110 47.000000
171.030170 59.000000
173.063600 41.000000
182.072660 43.000000
183.073790 43.000000
183.086410 54.000000
193.063960 41.000000
194.065230 43.000000
199.077580 54.000000
199.851910 63.000000
201.085980 38.000000
211.068630 212.000000
211.080510 84.000000
213.039630 47.000000
225.089320 95.000000
226.067200 38.000000
227.066510 45.000000
227.076070 65.000000
227.083830 45.000000
228.073330 275.000000
228.083560 169.000000
229.083800 1000.000000
230.095060 133.000000
235.074260 38.000000
265.082920 93.000000

>ms2
91.057370 134.000000
97.023680 220.000000
107.048010 1000.000000
109.031750 97.000000
115.051370 151.000000
119.051280 124.000000
121.060330 102.000000
127.058810 118.000000
128.058300 108.000000
129.075230 124.000000
131.054570 177.000000
139.060790 91.000000
141.063660 151.000000
146.062010 113.000000
153.064250 102.000000
158.069080 108.000000
164.060210 151.000000
164.773900 91.000000
165.057460 108.000000
165.067540 231.000000
165.080660 113.000000
171.044480 97.000000
173.055220 108.000000
181.027650 156.000000
181.069410 108.000000
193.073330 108.000000
199.076250 210.000000
209.054980 102.000000
211.071870 118.000000

>ms2
71.009000 20.000000
73.026900 29.000000
107.049000 54.000000
111.047550 22.000000
119.039710 20.000000
127.034400 58.000000
135.042740 102.000000
135.048930 57.000000
136.051450 22.000000
137.057530 25.000000
156.091030 21.000000
166.069730 19.000000
173.066130 25.000000
183.072850 25.000000
186.061400 23.000000
187.071210 24.000000
193.069700 23.000000
199.069090 27.000000
199.077620 42.000000
201.055910 34.000000
210.072330 28.000000
211.046450 18.000000
211.077290 46.000000
211.092910 36.000000
226.575060 25.000000
228.077330 471.000000
229.058200 20.000000
229.086810 1000.000000
230.090190 51.000000
235.074330 20.000000
241.086210 18.000000
253.080800 64.000000
257.092740 24.000000
293.079380 20.000000
295.080470 22.000000
295.101750 22.000000
327.109160 27.000000
327.144930 18.000000
338.109040 22.000000
390.129970 48.000000
391.143430 32.000000

>ms2
127.036360 11.000000
177.052080 12.000000
191.074620 15.000000
201.049290 12.000000
228.061140 14.000000
228.080670 258.000000
228.979840 10.000000
229.051900 11.000000
229.086290 1000.000000
230.074200 10.000000
230.087910 97.000000
230.100200 49.000000
230.553010 16.000000
231.089390 29.000000
253.091460 10.000000
254.087690 13.000000
265.082820 10.000000
295.099400 23.000000
296.094090 17.000000
355.093140 23.000000
355.117100 37.000000
355.132540 11.000000
373.123080 37.000000
388.577550 11.000000
390.133150 110.000000
391.110930 44.000000
391.140500 126.000000

>ms2
68.996450 71.000000
70.256640 82.000000
81.033000 46.000000
85.027280 285.000000
91.039080 65.000000
95.048680 54.000000
97.026960 82.000000
107.047970 185.000000
108.052980 245.000000
119.048070 326.000000
119.055210 84.000000
131.048600 46.000000
135.042310 649.000000
136.050030 68.000000
137.054350 73.000000
153.072280 49.000000
156.122910 62.000000
159.041660 82.000000
171.042820 54.000000
172.047940 62.000000
173.058910 62.000000
182.072510 106.000000
183.075530 114.000000
183.088880 122.000000
185.454240 46.000000
186.070510 52.000000
193.065050 95.000000
194.077260 49.000000
207.064500 49.000000
207.080720 79.000000
210.065350 174.000000
211.063870 52.000000
211.074020 136.000000
213.058330 152.000000
225.086470 46.000000
227.068310 103.000000
228.077120 473.000000
229.086150 1000.000000
230.096600 46.000000
240.250850 60.000000
249.089020 54.000000
265.080930 84.000000
295.111270 52.000000
319.089390 54.000000

>ms2
61.032790 234.000000
68.995750 140.000000
85.030950 105.000000
91.046500 187.000000
97.028060 99.000000
107.048420 1000.000000
107.055500 421.000000
108.054880 298.000000
119.047690 105.000000
129.075910 152.000000
129.871830 135.000000
131.045530 117.000000
136.049710 181.000000
144.052000 135.000000
145.071240 105.000000
155.088640 135.000000
159.088330 158.000000
164.050450 117.000000
165.063250 99.000000
165.068910 333.000000
166.639160 111.000000
167.764450 240.000000
176.057940 140.000000
178.079510 117.000000
181.065780 298.000000
183.075130 123.000000
185.057940 111.000000
186.067110 129.000000
192.060390 117.000000
199.085110 152.000000
209.052580 123.000000
211.081470 140.000000
228.098630 199.000000

