>compound PR20384135
>parentmass 209.0808353
>ionization [M+H]+
>formula C11H12O4
>rt 375.328980
>profile qtof
#smiles_iso COC1=CC(=CC(=C1)/C=C/C(=O)O)OC
#smiles_can COC1=CC(=CC(=C1)C=CC(=O)O)OC
#inchikey VLSRUFWCGBMYDJ-ONEGZZNKSA-N
#pubchem_id 5324677
#mb_accession PR302412,PR302418,PR302424,PR302430,PR302436,PR302442,PR302448,PR302454,PR302460,PR302466,PR302472,PR302478

>ms2
89.022440 15.000000
90.042300 17.000000
91.041180 11.000000
91.051690 17.000000
91.057990 15.000000
97.206840 14.000000
105.030480 22.000000
105.059780 12.000000
105.066530 11.000000
118.040450 19.000000
119.053100 35.000000
120.056960 82.000000
121.056540 11.000000
133.031300 55.000000
133.039020 16.000000
133.065860 29.000000
135.077320 19.000000
137.059110 15.000000
139.070470 15.000000
139.094440 12.000000
147.043370 17.000000
148.044540 138.000000
148.052840 255.000000
148.065050 27.000000
149.052460 16.000000
149.062260 20.000000
150.069030 14.000000
161.059010 16.000000
163.054950 11.000000
163.067470 41.000000
163.076540 105.000000
163.090070 43.000000
164.079710 16.000000
165.045870 46.000000
165.092270 12.000000
167.069850 69.000000
176.033040 12.000000
176.049410 36.000000
177.055830 18.000000
191.046250 17.000000
191.071060 1000.000000
191.089280 34.000000
192.071720 97.000000
193.074840 48.000000
194.071790 20.000000
207.060760 27.000000
207.069230 14.000000
208.070270 11.000000
208.088520 15.000000
209.077610 426.000000

>ms2
68.995930 10.000000
103.059070 5.000000
126.967990 6.000000
129.952560 6.000000
135.081380 8.000000
148.058720 8.000000
161.062610 6.000000
162.843780 5.000000
163.078660 19.000000
164.086590 10.000000
165.049760 10.000000
165.091860 7.000000
167.068950 10.000000
167.076970 7.000000
175.035460 7.000000
179.073870 12.000000
181.083920 5.000000
184.870190 7.000000
191.036700 5.000000
191.070360 1000.000000
191.908770 5.000000
192.071850 128.000000
193.077560 7.000000
197.455220 5.000000
208.072130 39.000000
208.081540 40.000000
208.908910 5.000000
209.049770 17.000000
209.081330 616.000000
209.162630 5.000000

>ms2
79.049480 41.000000
81.119510 32.000000
91.056930 172.000000
91.248430 41.000000
92.057450 62.000000
92.070270 84.000000
103.053540 31.000000
103.058230 115.000000
105.030900 71.000000
105.034310 32.000000
108.057560 54.000000
117.030590 37.000000
119.037320 32.000000
119.049110 192.000000
119.065250 84.000000
119.071780 39.000000
120.049520 32.000000
120.056570 156.000000
122.064770 41.000000
131.048720 32.000000
132.060820 68.000000
133.029690 242.000000
133.062470 67.000000
135.076660 39.000000
137.060210 39.000000
137.066800 32.000000
138.062790 68.000000
139.067810 44.000000
139.076190 54.000000
144.015270 41.000000
148.052290 1000.000000
149.055830 58.000000
149.063920 109.000000
150.359090 28.000000
151.041560 83.000000
151.072370 42.000000
155.470720 36.000000
163.076510 32.000000
165.054720 41.000000
191.074080 34.000000
207.062620 32.000000

>ms2
107.011310 702.000000
119.050320 1000.000000
134.037770 362.000000

>ms2
78.028690 16.000000
90.048420 13.000000
91.053310 44.000000
92.024420 13.000000
103.033000 19.000000
103.047290 14.000000
104.061060 19.000000
104.074270 13.000000
105.028360 15.000000
105.035490 13.000000
106.073950 18.000000
107.045630 13.000000
107.083820 13.000000
119.046840 11.000000
122.075990 13.000000
125.061780 13.000000
132.028590 13.000000
133.022900 49.000000
135.077790 39.000000
137.057690 33.000000
148.052080 373.000000
149.056750 52.000000
151.039570 11.000000
153.051470 23.000000
158.036420 23.000000
159.038310 20.000000
163.067140 15.000000
163.078770 186.000000
164.059270 14.000000
164.076250 15.000000
164.090440 11.000000
167.054000 13.000000
167.071590 32.000000
168.075450 14.000000
171.145080 17.000000
176.037110 37.000000
177.048810 13.000000
177.056610 19.000000
180.067900 15.000000
190.092620 29.000000
191.050430 23.000000
191.070530 1000.000000
192.042360 18.000000
192.070680 196.000000
208.070770 13.000000
209.064970 69.000000
209.082530 418.000000

>ms2
118.959070 9.000000
121.097620 7.000000
128.907710 7.000000
128.952530 7.000000
129.485990 8.000000
141.982190 9.000000
147.051480 7.000000
148.058110 9.000000
149.062990 13.000000
167.053280 13.000000
167.062880 33.000000
167.071870 24.000000
167.081220 6.000000
170.530460 6.000000
177.052410 7.000000
190.831670 7.000000
191.068850 967.000000
192.068510 63.000000
192.077290 46.000000
192.086500 25.000000
192.899730 8.000000
193.074010 8.000000
207.064560 8.000000
208.070850 29.000000
208.081590 22.000000
208.398210 7.000000
209.043470 8.000000
209.080580 1000.000000

>ms2
55.520040 52.000000
79.057430 47.000000
81.068080 96.000000
89.036410 94.000000
91.052190 246.000000
91.060240 153.000000
96.053650 70.000000
96.062900 61.000000
102.046030 66.000000
103.050450 61.000000
105.033420 77.000000
107.004010 40.000000
107.030310 87.000000
107.047770 96.000000
107.053350 94.000000
109.024120 40.000000
109.062090 87.000000
109.069010 66.000000
118.039710 171.000000
119.049150 249.000000
120.047120 49.000000
120.058300 143.000000
120.064870 56.000000
121.024160 54.000000
121.057360 85.000000
124.050440 49.000000
124.056010 68.000000
133.028550 286.000000
134.039760 42.000000
137.063030 82.000000
138.061480 59.000000
147.043320 80.000000
148.034450 92.000000
148.052140 1000.000000
149.054350 85.000000
149.063480 59.000000
163.074300 103.000000
163.082000 80.000000
164.077300 49.000000
176.053300 52.000000
177.057280 82.000000
191.076290 52.000000

>ms2
77.017040 291.000000
79.052960 380.000000
90.043590 342.000000
105.033290 494.000000
120.055550 291.000000
133.029370 1000.000000

>ms2
55.016730 18.000000
91.045750 23.000000
91.055110 16.000000
92.064380 17.000000
105.032330 15.000000
117.030630 16.000000
119.046640 72.000000
120.053260 23.000000
120.062930 14.000000
125.060130 13.000000
133.032070 16.000000
133.064090 17.000000
135.078550 45.000000
137.061770 33.000000
138.063420 28.000000
148.013310 22.000000
148.048050 205.000000
148.057940 80.000000
149.054930 12.000000
150.063320 12.000000
161.047240 18.000000
162.071750 31.000000
163.062030 43.000000
163.073290 119.000000
163.086120 19.000000
164.082350 12.000000
167.073590 13.000000
168.921970 16.000000
169.077500 18.000000
176.053820 14.000000
177.051960 16.000000
177.061360 23.000000
179.072530 28.000000
190.983660 22.000000
191.048370 18.000000
191.069630 1000.000000
192.071960 158.000000
192.089340 22.000000
193.068100 15.000000
193.079180 13.000000
208.079730 12.000000
209.063630 21.000000
209.080720 495.000000

>ms2
79.057040 13.000000
135.079480 17.000000
164.082470 19.000000
165.098450 13.000000
166.087490 11.000000
167.066160 18.000000
189.623290 8.000000
191.020600 13.000000
191.035680 13.000000
191.051960 11.000000
191.069460 1000.000000
192.073530 63.000000
192.080310 29.000000
193.087010 10.000000
207.057620 12.000000
208.021970 11.000000
208.051760 14.000000
208.066510 64.000000
208.075960 31.000000
209.063480 31.000000
209.080460 671.000000

>ms2
63.023100 52.000000
69.001560 55.000000
77.037620 342.000000
79.047560 31.000000
79.052390 61.000000
86.055600 71.000000
89.035240 94.000000
89.829700 42.000000
90.044190 42.000000
91.046710 218.000000
91.053670 354.000000
92.055200 71.000000
94.292790 40.000000
102.250770 36.000000
103.056110 75.000000
105.034370 67.000000
105.069630 122.000000
117.074310 82.000000
118.042080 57.000000
119.047500 520.000000
120.056810 394.000000
121.055600 151.000000
124.054070 130.000000
132.051990 38.000000
132.065200 84.000000
133.025760 813.000000
133.063000 107.000000
135.040310 46.000000
136.270740 38.000000
137.059510 36.000000
138.058400 50.000000
139.069500 80.000000
147.044770 69.000000
148.051790 1000.000000
149.054000 189.000000
152.046680 69.000000
163.040010 99.000000
163.070050 96.000000
164.078630 69.000000
166.053770 59.000000

>ms2
89.041430 774.000000
91.053240 1000.000000
106.036380 491.000000

