>compound PR20766419
>parentmass 473.36253649999986
>ionization [M+H]+
>formula C30H48O4
>rt 586.303980
>profile qtof
#smiles_iso C[C@@]12CC[C@@H]3[C@@]([C@H]1CC=C4[C@]2(CC[C@@]5([C@H]4CC(CC5)(C)C)C(=O)O)C)(C[C@H]([C@@H](C3(C)C)O)O)C
#smiles_can CC1(CCC2(CCC3(C(=CCC4C3(CCC5C4(CC(C(C5(C)C)O)O)C)C)C2C1)C)C(=O)O)C
#inchikey MDZKJHQSJHYOHJ-LLICELPBSA-N
#pubchem_id 73659
#mb_accession PR303806,PR303808,PR303811,PR303814,PR303818,PR303821,PR303824,PR303828,PR303831,PR303834,PR303837,PR303839

>ms2
71.069630 77.000000
107.082490 64.000000
121.104650 87.000000
123.105260 77.000000
133.105150 151.000000
135.116500 64.000000
137.132340 55.000000
147.115880 74.000000
147.121460 58.000000
149.128630 58.000000
161.135330 196.000000
163.147930 141.000000
164.155030 77.000000
173.127980 61.000000
175.134430 74.000000
175.147630 64.000000
177.164720 145.000000
178.158540 87.000000
185.133410 64.000000
187.148540 129.000000
189.162800 103.000000
189.168700 212.000000
191.183560 119.000000
192.193160 64.000000
193.160870 116.000000
201.168980 58.000000
203.168780 90.000000
203.179000 264.000000
203.190460 103.000000
204.180510 77.000000
204.191300 71.000000
205.153900 61.000000
205.167360 119.000000
205.197190 116.000000
206.154480 64.000000
207.172910 196.000000
207.185870 119.000000
208.180570 132.000000
216.178790 68.000000
222.194050 74.000000
231.175320 90.000000
233.192490 68.000000
247.160460 55.000000
267.172730 64.000000
324.280580 77.000000
349.284330 80.000000
375.467220 71.000000
381.342620 71.000000
391.331820 68.000000
392.339080 183.000000
409.330630 190.000000
409.347720 1000.000000
409.359470 283.000000
410.345340 170.000000
410.361330 299.000000
410.378910 55.000000
411.328610 61.000000
411.368590 158.000000
412.348940 93.000000
427.363310 122.000000
437.328860 376.000000
437.351990 141.000000
438.345060 58.000000
439.320470 58.000000
439.351380 64.000000
439.369450 71.000000
455.337130 116.000000
455.364350 145.000000
473.345920 322.000000
473.368070 617.000000

>ms2
149.128690 28.000000
163.154790 16.000000
190.167620 13.000000
203.177700 22.000000
204.193450 19.000000
205.150760 13.000000
205.162370 16.000000
207.172130 92.000000
208.181300 32.000000
220.291780 24.000000
221.152830 17.000000
241.165370 17.000000
248.181810 17.000000
317.660710 20.000000
353.012510 22.000000
372.588260 16.000000
391.339170 13.000000
409.287140 13.000000
409.333950 124.000000
409.351040 352.000000
410.345760 46.000000
410.362120 19.000000
411.336610 36.000000
427.388490 14.000000
428.355830 17.000000
429.383030 18.000000
437.314910 17.000000
437.337310 32.000000
437.356630 41.000000
438.338170 47.000000
438.375790 24.000000
447.205720 14.000000
449.008030 14.000000
455.345310 198.000000
455.392760 13.000000
456.332210 18.000000
456.353030 50.000000
473.360410 1000.000000
473.384250 162.000000

>ms2
81.064020 40.000000
81.075020 47.000000
95.088210 72.000000
95.091300 36.000000
97.089090 40.000000
105.063560 36.000000
105.524930 57.000000
107.086690 83.000000
119.084910 91.000000
121.099660 45.000000
133.104160 36.000000
135.100080 38.000000
135.109020 45.000000
136.114400 45.000000
142.049270 42.000000
147.113880 38.000000
149.124160 49.000000
150.143190 42.000000
151.152850 36.000000
153.088550 40.000000
153.098740 36.000000
157.092620 38.000000
159.104080 72.000000
161.127580 42.000000
161.136600 85.000000
162.138150 49.000000
163.103580 42.000000
163.111570 38.000000
163.119340 45.000000
163.145430 47.000000
163.151050 110.000000
164.124620 45.000000
165.119520 36.000000
175.134920 38.000000
175.149980 127.000000
176.155460 51.000000
177.123760 42.000000
177.155430 38.000000
177.169200 176.000000
178.159930 47.000000
179.140430 42.000000
179.169020 40.000000
187.110840 36.000000
187.149440 138.000000
187.212540 87.000000
187.331410 38.000000
189.155010 166.000000
189.168110 178.000000
190.160190 47.000000
191.178280 38.000000
191.186170 36.000000
191.386780 36.000000
192.178920 53.000000
192.192230 49.000000
201.161380 38.000000
201.170820 159.000000
203.138490 45.000000
203.165590 76.000000
203.179720 1000.000000
204.140030 45.000000
204.179290 170.000000
205.151150 219.000000
205.166600 180.000000
206.160830 38.000000
207.173230 121.000000
207.179660 40.000000
208.182880 38.000000
211.138400 51.000000
213.171110 102.000000
215.163300 36.000000
219.140590 36.000000
219.170620 136.000000
219.204350 42.000000
221.192460 57.000000
227.179810 36.000000
229.204150 49.000000
230.200180 47.000000
248.688770 49.000000
249.174070 57.000000
249.192410 42.000000
252.195950 40.000000
255.212190 53.000000
266.694000 53.000000
271.110810 38.000000
325.281920 38.000000
353.290070 64.000000
367.348210 36.000000
381.363100 117.000000
384.369110 49.000000
409.338350 193.000000
409.354100 83.000000
410.335510 49.000000
410.350560 79.000000

>ms2
67.052280 121.000000
81.067080 106.000000
93.071020 232.000000
95.078350 101.000000
105.066130 283.000000
105.073170 172.000000
106.080280 96.000000
107.080720 308.000000
107.089050 232.000000
109.104730 101.000000
119.086600 545.000000
121.100890 86.000000
121.108800 101.000000
122.092930 136.000000
125.100720 167.000000
133.096130 273.000000
133.114730 86.000000
134.109710 141.000000
135.115420 182.000000
136.119080 258.000000
138.139280 126.000000
145.090880 111.000000
145.105130 429.000000
147.118410 1000.000000
149.083630 136.000000
159.106860 126.000000
161.131480 217.000000
163.151110 101.000000
164.081050 106.000000
173.129610 91.000000
174.139630 91.000000
175.148650 273.000000
177.130140 86.000000
177.164840 232.000000
189.162430 172.000000
201.154620 86.000000
203.185500 86.000000
204.191770 141.000000
205.156020 96.000000
216.182910 212.000000

>ms2
97.091870 38.000000
107.086380 131.000000
119.082730 77.000000
123.119670 38.000000
133.101120 40.000000
133.107250 51.000000
135.117200 38.000000
147.112410 73.000000
151.136730 49.000000
160.105580 66.000000
163.141390 84.000000
163.150570 55.000000
164.151900 46.000000
171.111770 46.000000
175.145720 58.000000
177.157640 46.000000
177.167720 40.000000
189.147400 38.000000
189.158520 53.000000
189.169740 119.000000
190.162520 40.000000
191.176900 60.000000
201.165500 97.000000
203.169890 153.000000
203.179230 414.000000
203.191740 71.000000
204.183200 97.000000
205.160980 290.000000
206.164630 44.000000
207.174130 206.000000
220.126510 53.000000
223.168240 40.000000
229.197430 44.000000
235.164220 60.000000
235.213560 62.000000
243.215990 49.000000
249.186690 91.000000
259.314700 46.000000
321.250790 42.000000
381.371670 55.000000
383.374450 44.000000
389.309970 73.000000
391.345580 64.000000
392.331150 53.000000
409.264250 73.000000
409.345890 1000.000000
409.361080 206.000000
410.334470 84.000000
410.351560 219.000000
411.365780 80.000000
412.340420 40.000000
412.362520 122.000000
425.352080 51.000000
427.356630 142.000000
429.349910 44.000000
430.341890 40.000000
437.347260 204.000000
438.054320 53.000000
438.339080 46.000000
438.358700 44.000000
455.338130 144.000000
455.358030 133.000000
456.348180 124.000000
457.358280 55.000000
458.710940 38.000000
473.368380 489.000000

>ms2
163.276280 18.000000
189.160430 13.000000
189.165990 21.000000
203.188490 18.000000
207.177260 54.000000
207.192490 16.000000
229.187420 15.000000
250.186780 40.000000
260.189120 12.000000
391.341090 14.000000
394.356450 12.000000
409.298190 13.000000
409.318940 19.000000
409.350430 312.000000
410.334690 12.000000
410.353240 53.000000
410.368470 47.000000
412.254790 20.000000
412.354060 14.000000
424.053770 14.000000
427.341520 16.000000
427.361390 26.000000
428.387850 30.000000
430.362000 14.000000
437.307500 18.000000
437.333590 141.000000
438.195400 12.000000
438.319820 15.000000
438.348720 108.000000
439.348790 15.000000
455.345400 139.000000
455.363830 110.000000
455.553860 16.000000
456.331820 13.000000
456.358430 156.000000
471.328250 12.000000
473.296880 21.000000
473.309360 14.000000
473.363070 1000.000000

>ms2
79.058780 70.000000
95.084230 74.000000
105.065730 33.000000
107.078520 136.000000
121.106290 39.000000
135.119610 120.000000
149.137800 117.000000
154.092710 41.000000
159.111770 35.000000
159.119170 54.000000
163.108430 35.000000
163.144350 62.000000
163.153180 91.000000
167.116380 33.000000
171.124890 49.000000
173.129150 83.000000
175.146300 37.000000
177.156280 41.000000
177.173570 49.000000
178.149190 56.000000
178.168290 76.000000
179.141970 33.000000
187.142320 89.000000
187.151550 140.000000
187.158600 37.000000
189.162960 249.000000
189.174870 33.000000
189.359770 33.000000
190.173800 41.000000
191.146530 89.000000
191.183470 33.000000
201.159420 33.000000
203.162000 183.000000
203.179730 1000.000000
204.168590 33.000000
204.189030 165.000000
205.159560 652.000000
205.182280 41.000000
206.146260 41.000000
207.170640 33.000000
207.179930 72.000000
212.154390 33.000000
213.159960 43.000000
215.170910 91.000000
217.197070 54.000000
219.170300 35.000000
220.184040 43.000000
221.196590 33.000000
223.158520 35.000000
223.183670 39.000000
226.175520 39.000000
228.174420 43.000000
229.203950 70.000000
230.197830 43.000000
231.176320 33.000000
246.179580 62.000000
249.179780 33.000000
249.218800 39.000000
251.171950 39.000000
251.189790 45.000000
266.205510 35.000000
349.290560 52.000000
353.248990 39.000000
381.349370 39.000000
391.329590 43.000000
392.350920 43.000000
409.317020 39.000000
409.345860 76.000000
411.325230 45.000000
425.326080 39.000000
427.373960 37.000000
438.335970 33.000000

>ms2
69.070710 126.000000
95.086340 335.000000
105.068150 621.000000
107.084430 83.000000
108.091240 218.000000
109.101280 92.000000
117.068630 102.000000
119.086260 1000.000000
121.103710 160.000000
122.107110 223.000000
131.085910 92.000000
133.098800 262.000000
133.108400 83.000000
135.039400 97.000000
141.073040 136.000000
145.090710 83.000000
145.102650 558.000000
145.112850 107.000000
147.119420 544.000000
148.083590 92.000000
150.128110 87.000000
158.113980 83.000000
159.117250 189.000000
161.135700 393.000000
165.126950 107.000000
177.123060 83.000000
177.168000 282.000000
187.143690 194.000000
189.166030 199.000000
201.163440 175.000000
203.175000 170.000000
203.185810 87.000000
213.158220 214.000000

>ms2
67.044850 78.000000
77.755290 59.000000
93.070380 70.000000
107.087210 75.000000
109.105690 84.000000
119.088360 123.000000
121.106250 56.000000
135.121750 73.000000
147.110050 101.000000
147.118640 201.000000
163.110240 47.000000
163.154820 89.000000
167.133120 56.000000
175.149780 196.000000
177.164920 126.000000
187.150410 128.000000
189.152250 162.000000
189.165160 137.000000
189.175640 56.000000
190.162830 70.000000
192.184840 61.000000
193.123490 56.000000
193.187670 61.000000
201.159530 179.000000
202.175800 50.000000
202.786220 56.000000
203.181900 693.000000
204.187760 59.000000
205.163710 103.000000
207.156110 67.000000
207.175900 302.000000
208.183820 53.000000
219.184570 103.000000
221.189360 64.000000
229.200680 67.000000
231.171840 67.000000
231.202640 70.000000
232.221010 87.000000
233.185620 56.000000
235.174220 70.000000
241.203410 56.000000
247.163590 59.000000
249.175050 56.000000
249.185460 61.000000
271.229770 47.000000
293.209840 61.000000
295.250550 70.000000
329.125430 56.000000
409.325650 103.000000
409.348110 1000.000000
409.373720 56.000000
410.353850 251.000000
411.361450 64.000000
427.351410 53.000000
427.364200 78.000000
429.367400 61.000000
437.331790 145.000000
437.348630 142.000000
438.356690 56.000000
439.303530 56.000000
455.335630 128.000000
458.377690 47.000000
473.367220 358.000000

>ms2
163.138050 23.000000
189.149610 26.000000
189.165080 50.000000
205.144240 17.000000
207.179290 161.000000
208.174150 17.000000
208.182800 29.000000
209.162460 19.000000
249.181180 22.000000
293.218810 20.000000
314.170840 28.000000
320.308140 19.000000
403.783480 19.000000
409.312440 26.000000
409.347990 466.000000
410.343170 61.000000
411.359800 19.000000
424.247340 17.000000
427.341090 17.000000
427.380160 43.000000
437.292970 19.000000
437.335450 79.000000
437.348880 60.000000
437.369510 27.000000
438.354800 19.000000
439.365480 17.000000
455.346070 302.000000
456.088990 23.000000
456.363920 30.000000
457.358460 67.000000
473.316440 23.000000
473.361600 1000.000000

>ms2
93.070960 43.000000
95.083210 105.000000
98.071590 69.000000
107.084920 48.000000
109.102370 61.000000
109.113910 46.000000
119.087690 105.000000
120.205550 56.000000
121.083920 56.000000
123.116670 46.000000
129.609790 51.000000
133.102450 186.000000
135.081440 64.000000
147.111590 54.000000
147.121730 77.000000
148.114700 54.000000
149.133960 107.000000
151.142970 61.000000
161.133620 46.000000
161.138310 82.000000
163.122150 61.000000
166.091420 51.000000
169.127440 48.000000
173.135040 64.000000
175.146680 97.000000
177.121150 48.000000
177.129240 54.000000
177.166690 163.000000
177.174760 89.000000
178.165450 48.000000
181.360410 51.000000
185.097660 46.000000
187.148900 61.000000
189.155000 181.000000
189.165280 403.000000
189.177600 115.000000
191.177920 54.000000
191.188420 46.000000
201.159610 43.000000
201.168380 133.000000
201.281590 69.000000
202.167790 48.000000
203.004300 56.000000
203.178380 1000.000000
204.163130 43.000000
204.186140 51.000000
205.158070 329.000000
205.190490 61.000000
207.179570 51.000000
213.165310 61.000000
217.195300 46.000000
218.207370 51.000000
219.183520 56.000000
219.208450 46.000000
245.191020 51.000000
249.146930 74.000000
261.221920 54.000000
321.260680 74.000000
321.278320 43.000000
339.260830 54.000000
367.304780 59.000000
391.326510 43.000000
391.346410 51.000000
409.348210 105.000000
410.339390 46.000000
427.364930 51.000000
427.382630 66.000000
428.373050 43.000000
437.345640 97.000000

>ms2
81.069830 138.000000
84.086850 113.000000
94.072170 138.000000
95.083710 805.000000
105.067600 107.000000
105.074300 560.000000
106.076610 220.000000
107.086440 296.000000
108.090700 107.000000
111.119900 126.000000
119.081160 239.000000
119.086580 1000.000000
121.102390 673.000000
131.077970 151.000000
133.100950 579.000000
133.106810 340.000000
134.102600 113.000000
135.113480 447.000000
137.100970 126.000000
145.100810 509.000000
147.121730 126.000000
149.064090 107.000000
149.128850 151.000000
149.139360 138.000000
154.331360 258.000000
159.113950 145.000000
161.116380 201.000000
161.136290 151.000000
163.107530 138.000000
163.153080 327.000000
169.103700 176.000000
171.117430 132.000000
173.131300 289.000000
173.136890 119.000000
174.145550 107.000000
175.141240 289.000000
176.155090 132.000000
177.155850 107.000000
178.170330 119.000000
186.141300 113.000000
187.149200 289.000000
189.162170 107.000000
201.160340 126.000000
205.160370 107.000000
206.168990 189.000000
231.181780 107.000000

