>compound PR20909634
>parentmass 364.15378630769226
>ionization [M]+
>formula C22H22NO4+
>rt 315.964615
>profile qtof
#smiles_iso CC1=C2C=C(C(=CC2=CC3=[N+]1C=CC4=CC(=C(C=C43)OC)OC)OC)OC
#smiles_can CC1=C2C=C(C(=CC2=CC3=[N+]1C=CC4=CC(=C(C=C43)OC)OC)OC)OC
#inchikey GOEJQGGEIVSVOK-UHFFFAOYSA-N
#pubchem_id 23307
#mb_accession PR300658,PR300663,PR300668,PR300673,PR300678,PR300683,PR300688,PR300693,PR300698,PR300703,PR300708,PR300713,PR310615

>ms2
247.100630 9.000000
275.092410 6.000000
276.103180 17.000000
291.119450 9.000000
291.140750 6.000000
304.097020 71.000000
305.104610 23.000000
306.110500 8.000000
319.125460 11.000000
320.127380 101.000000
321.121860 10.000000
321.134950 16.000000
332.094570 51.000000
333.097470 22.000000
333.110110 7.000000
348.123200 268.000000
349.127140 112.000000
350.129030 18.000000
364.103180 9.000000
364.154300 1000.000000
364.209410 25.000000

>ms2
364.101900 7.000000
364.153780 1000.000000
364.208370 26.000000

>ms2
276.096980 6.000000
276.110380 10.000000
291.114470 10.000000
291.126430 24.000000
303.126220 20.000000
303.135100 11.000000
304.096890 42.000000
304.120820 10.000000
305.104030 35.000000
306.110780 13.000000
319.110990 15.000000
319.125030 40.000000
320.127930 452.000000
321.131680 132.000000
322.122100 6.000000
322.136990 23.000000
332.078370 11.000000
332.089510 22.000000
332.101680 15.000000
333.086880 15.000000
333.107760 8.000000
334.097690 12.000000
334.115600 11.000000
348.070430 6.000000
348.090420 6.000000
348.123170 1000.000000
348.170900 12.000000
349.128360 432.000000
350.132140 96.000000
351.135890 7.000000
364.153870 386.000000

>ms2
183.067520 7.000000
192.213840 5.000000
204.077700 6.000000
205.083100 9.000000
216.076260 8.000000
217.088940 24.000000
218.081470 10.000000
218.096210 25.000000
219.097690 10.000000
219.108050 8.000000
220.105800 15.000000
228.090180 9.000000
229.089460 9.000000
230.096570 47.000000
231.085590 6.000000
231.103260 18.000000
231.110120 6.000000
233.080920 16.000000
234.092250 6.000000
241.081770 8.000000
244.077180 11.000000
245.076350 6.000000
245.085950 5.000000
246.082150 32.000000
246.097730 65.000000
247.099470 314.000000
248.102480 131.000000
248.125060 19.000000
249.073900 11.000000
249.100880 6.000000
249.113270 6.000000
256.081150 5.000000
258.093630 55.000000
259.090060 26.000000
259.100160 46.000000
259.111850 12.000000
260.102170 23.000000
260.120090 9.000000
261.076450 13.000000
261.107300 11.000000
262.089780 12.000000
270.083980 6.000000
272.105190 5.000000
273.085480 13.000000
274.069550 35.000000
274.086700 89.000000
275.071140 8.000000
275.087680 72.000000
275.096830 127.000000
276.062930 6.000000
276.102200 310.000000
276.126890 7.000000
277.107600 123.000000
286.089540 60.000000
286.103330 14.000000
287.065700 6.000000
287.094880 94.000000
288.096980 28.000000
288.109380 21.000000
289.081240 7.000000
290.084590 5.000000
290.109010 10.000000
291.099610 6.000000
291.118740 11.000000
291.129240 12.000000
292.141600 8.000000
302.077390 101.000000
302.093440 35.000000
302.123020 9.000000
303.077880 27.000000
303.089080 45.000000
304.058810 17.000000
304.096740 1000.000000
305.060300 9.000000
305.101410 340.000000
306.090640 11.000000
306.104340 18.000000
306.117340 8.000000
316.094970 10.000000
317.087890 9.000000
320.121490 9.000000
320.136260 9.000000
321.132840 9.000000
330.050600 6.000000
330.065580 31.000000
330.080540 34.000000
331.074280 9.000000
331.103700 12.000000
332.048070 16.000000
332.091800 906.000000
333.084900 124.000000
333.102230 150.000000
334.083710 7.000000
334.095520 18.000000
334.111080 20.000000
336.396910 6.000000
348.124180 72.000000
348.137420 32.000000
349.124510 13.000000
349.136230 9.000000

>ms2
247.106510 7.000000
276.104740 18.000000
277.108430 6.000000
291.129790 9.000000
304.098910 73.000000
305.082520 5.000000
305.104860 18.000000
306.108120 7.000000
319.116820 10.000000
320.128880 101.000000
321.135190 27.000000
332.089510 44.000000
333.086700 9.000000
333.101560 26.000000
334.101070 6.000000
348.123050 271.000000
349.130310 112.000000
350.129150 19.000000
350.142400 7.000000
364.100770 10.000000
364.154240 1000.000000
364.208310 27.000000

>ms2
364.094880 6.000000
364.153230 1000.000000
364.208710 31.000000

>ms2
247.102420 6.000000
276.103330 12.000000
291.124760 26.000000
292.133300 8.000000
303.119510 9.000000
303.129000 16.000000
304.096010 50.000000
304.129640 7.000000
305.096010 20.000000
305.107790 19.000000
306.113800 8.000000
319.118160 34.000000
319.129090 25.000000
320.130040 374.000000
321.130650 111.000000
322.129610 9.000000
332.094210 35.000000
333.085780 6.000000
333.104520 23.000000
334.098020 6.000000
334.115020 8.000000
348.079960 5.000000
348.124110 1000.000000
348.180270 7.000000
349.129060 399.000000
350.132810 75.000000
351.137420 12.000000
364.155330 368.000000

>ms2
204.083560 6.000000
211.056320 7.000000
216.080120 12.000000
217.085630 22.000000
218.095920 23.000000
219.103700 13.000000
228.079390 20.000000
229.076800 6.000000
229.088380 13.000000
230.082700 7.000000
230.097530 22.000000
231.097640 18.000000
233.073520 5.000000
233.085460 16.000000
241.089160 6.000000
245.083010 10.000000
246.085390 35.000000
246.093830 67.000000
247.043660 6.000000
247.066120 7.000000
247.099520 285.000000
248.104980 110.000000
249.106900 7.000000
249.116270 13.000000
258.091670 70.000000
259.097320 52.000000
260.102020 22.000000
261.077210 28.000000
261.112270 6.000000
262.081940 25.000000
270.087800 7.000000
274.085750 91.000000
274.098050 32.000000
275.070310 8.000000
275.091770 171.000000
275.195830 6.000000
276.069270 11.000000
276.103610 241.000000
277.105930 85.000000
277.126950 6.000000
278.104460 13.000000
286.081240 39.000000
286.095340 39.000000
287.087100 46.000000
287.096770 51.000000
288.103360 43.000000
289.103240 9.000000
290.091160 6.000000
290.111510 11.000000
291.122220 14.000000
302.079160 96.000000
302.098660 15.000000
303.079620 34.000000
303.091800 67.000000
303.125310 7.000000
304.038970 10.000000
304.096710 1000.000000
305.103060 267.000000
306.085330 11.000000
306.109620 37.000000
307.103790 8.000000
316.097140 11.000000
320.129490 23.000000
330.074280 50.000000
332.024900 7.000000
332.089570 898.000000
333.053800 6.000000
333.095150 253.000000
334.068790 6.000000
334.094330 42.000000
346.114140 5.000000
348.123350 105.000000
349.108640 6.000000
349.132930 7.000000

>ms2
247.095860 7.000000
275.095060 7.000000
276.104060 23.000000
291.128940 11.000000
304.096340 45.000000
304.106600 25.000000
305.094790 10.000000
305.109410 16.000000
319.126950 7.000000
320.129880 97.000000
321.135740 23.000000
332.086550 25.000000
332.100070 43.000000
332.109800 13.000000
333.090330 13.000000
333.101260 19.000000
334.102910 7.000000
348.123470 286.000000
349.130130 108.000000
350.129300 19.000000
350.145970 10.000000
351.139830 6.000000
364.105440 10.000000
364.152830 1000.000000
364.209630 24.000000

>ms2
364.096800 6.000000
364.152770 1000.000000
364.208740 30.000000

>ms2
276.099950 6.000000
277.114110 7.000000
291.126130 24.000000
291.137630 8.000000
292.125580 5.000000
303.122340 20.000000
304.098910 59.000000
304.122220 7.000000
305.094480 16.000000
305.109590 26.000000
319.102200 9.000000
319.122160 41.000000
320.129640 412.000000
321.134430 123.000000
322.132570 15.000000
332.090390 33.000000
332.107390 7.000000
333.088990 18.000000
333.104920 23.000000
334.091770 5.000000
334.104980 11.000000
335.108890 6.000000
348.074770 8.000000
348.124690 1000.000000
348.174130 7.000000
349.129300 400.000000
350.120300 17.000000
350.134640 70.000000
364.156370 372.000000

>ms2
202.073390 5.000000
204.084990 7.000000
205.091540 7.000000
206.959060 7.000000
217.082310 12.000000
217.094640 17.000000
218.096500 23.000000
219.093660 5.000000
220.084960 6.000000
221.087110 6.000000
228.081250 27.000000
229.088030 13.000000
230.092470 30.000000
230.104610 9.000000
231.087910 5.000000
231.101010 9.000000
231.116560 7.000000
233.088870 18.000000
234.103710 6.000000
242.108410 9.000000
246.076450 11.000000
246.092300 68.000000
247.065830 7.000000
247.078930 14.000000
247.101580 294.000000
248.108550 134.000000
249.115480 11.000000
257.080230 12.000000
258.073180 7.000000
258.086640 17.000000
258.096410 22.000000
258.106540 8.000000
259.093260 39.000000
259.107180 20.000000
260.105320 45.000000
261.077300 23.000000
261.109160 7.000000
262.079220 21.000000
273.085050 9.000000
274.086000 92.000000
274.095610 30.000000
275.095180 194.000000
276.102080 308.000000
277.092500 25.000000
277.108000 81.000000
278.103790 6.000000
286.085540 78.000000
286.108460 5.000000
287.073760 7.000000
287.096220 79.000000
288.084810 9.000000
288.099060 35.000000
291.131200 8.000000
291.144130 6.000000
292.124540 5.000000
292.138370 7.000000
302.063200 11.000000
302.083160 96.000000
303.063080 7.000000
303.086910 68.000000
304.064970 17.000000
304.098110 1000.000000
305.050450 7.000000
305.073210 13.000000
305.102870 299.000000
306.091890 12.000000
306.110200 23.000000
306.119420 10.000000
307.109620 11.000000
316.103180 6.000000
318.072850 6.000000
318.133150 5.000000
320.137970 11.000000
321.131680 5.000000
330.077240 44.000000
331.074710 14.000000
331.088650 7.000000
332.045500 17.000000
332.092530 860.000000
332.149840 10.000000
333.096710 295.000000
334.101170 19.000000
348.102050 6.000000
348.121250 57.000000
348.133480 28.000000
349.127590 28.000000

>ms2
113.025050 26.000000
118.076850 28.000000
121.654670 41.000000
123.572330 25.000000
137.973160 23.000000
161.043560 24.000000
194.075910 18.000000
200.081600 17.000000
204.801150 17.000000
210.413470 28.000000
214.821230 25.000000
216.086780 33.000000
216.977970 18.000000
218.046310 18.000000
219.802640 25.000000
222.251500 25.000000
224.316670 28.000000
224.908510 18.000000
228.091640 29.000000
230.100270 20.000000
233.083570 20.000000
235.860120 20.000000
241.384950 17.000000
242.097790 22.000000
246.103180 25.000000
247.064510 31.000000
247.100630 356.000000
248.105830 42.000000
249.242520 18.000000
250.862030 27.000000
250.978790 21.000000
259.099120 27.000000
259.109310 30.000000
260.086150 26.000000
260.100770 40.000000
261.104710 17.000000
261.127720 17.000000
262.091550 47.000000
273.072300 20.000000
273.082790 17.000000
274.076350 28.000000
274.086980 49.000000
274.094540 21.000000
275.078460 45.000000
275.092410 249.000000
276.076900 17.000000
276.103180 710.000000
276.432560 34.000000
277.088010 22.000000
277.101140 49.000000
277.109410 116.000000
277.121610 25.000000
277.158910 28.000000
277.447110 37.000000
278.105990 18.000000
278.123990 37.000000
279.124850 20.000000
283.285890 21.000000
284.334810 24.000000
285.876220 34.000000
286.958100 53.000000
287.071720 21.000000
287.097780 126.000000
288.090270 23.000000
288.113340 56.000000
289.083620 36.000000
289.099330 20.000000
289.119840 19.000000
289.833740 27.000000
290.099670 30.000000
290.118770 30.000000
291.096130 17.000000
291.119450 371.000000
291.140750 232.000000
292.120360 63.000000
292.131680 111.000000
293.121430 20.000000
293.790070 24.000000
296.551880 24.000000
300.910770 38.000000
302.076350 31.000000
302.090580 34.000000
302.123500 18.000000
303.069310 38.000000
303.093780 191.000000
303.125950 197.000000
303.142490 63.000000
304.020080 38.000000
304.050200 30.000000
304.097020 2934.000000
304.137360 100.000000
304.671780 26.000000
304.965730 36.000000
305.063690 37.000000
305.080960 159.000000
305.104610 958.000000
305.131350 19.000000
305.351680 24.000000
305.424990 22.000000
306.074310 40.000000
306.089110 158.000000
306.110500 332.000000
306.128750 32.000000
306.162170 20.000000
306.392240 18.000000
306.428160 18.000000
307.097320 25.000000
307.110080 101.000000
307.123170 29.000000
307.599790 40.000000
308.774020 17.000000
313.947170 35.000000
314.489590 18.000000
316.061370 25.000000
316.087160 21.000000
317.109190 30.000000
318.076970 44.000000
318.111150 61.000000
319.048340 31.000000
319.075840 33.000000
319.125460 446.000000
319.596830 20.000000
320.022090 39.000000
320.042330 21.000000
320.084080 101.000000
320.101070 98.000000
320.127380 4153.000000
320.379030 18.000000
320.424900 21.000000
321.102600 45.000000
321.121860 432.000000
321.134950 680.000000
321.172000 22.000000
321.555080 48.000000
321.862790 22.000000
322.100520 25.000000
322.126010 88.000000
322.140260 29.000000
322.157560 49.000000
323.632290 29.000000
324.910830 27.000000
325.388180 19.000000
325.425780 18.000000
326.108550 35.000000
327.349330 29.000000
330.074920 62.000000
330.089080 26.000000
331.954160 19.000000
332.016200 33.000000
332.065730 45.000000
332.094570 2084.000000
332.155430 24.000000
332.927920 20.000000
333.028110 23.000000
333.069730 67.000000
333.097470 922.000000
333.110110 282.000000
333.189700 36.000000
333.691380 39.000000
333.837620 24.000000
333.874820 20.000000
334.075840 17.000000
334.094090 169.000000
334.112790 201.000000
335.095790 23.000000
335.119420 28.000000
337.618590 17.000000
342.160610 27.000000
342.750790 31.000000
343.330410 18.000000
344.067020 17.000000
344.280700 21.000000
344.321140 25.000000
344.842830 18.000000
346.104640 24.000000
346.120090 23.000000
346.878110 24.000000
347.102540 22.000000
347.675840 18.000000
347.815400 31.000000
348.004090 18.000000
348.034520 20.000000
348.046450 51.000000
348.080110 131.000000
348.123200 11066.000000
348.160250 41.000000
348.174710 17.000000
348.201570 19.000000
348.231600 20.000000
348.312350 20.000000
348.749630 20.000000
348.804230 34.000000
349.041630 42.000000
349.074620 24.000000
349.127140 4634.000000
349.190190 41.000000
349.293550 18.000000
349.818730 17.000000
350.129030 739.000000
350.153500 53.000000
350.383640 29.000000
350.657230 19.000000
350.929320 20.000000
351.132320 194.000000
351.481320 19.000000
352.899660 27.000000
357.171420 18.000000
357.881500 18.000000
358.905000 22.000000
361.021060 17.000000
361.471800 17.000000
361.509120 24.000000
362.270200 17.000000
362.565830 20.000000
362.695530 22.000000
363.032590 37.000000
363.666630 27.000000
363.919590 17.000000
364.071260 46.000000
364.080260 77.000000
364.103180 381.000000
364.154300 41229.000000
364.209410 1034.000000
364.259250 17.000000
364.274380 17.000000

