>compound PR21989094
>parentmass 339.1588
>ionization [M+H]+
>formula C21H22O4
>rt 486.000000
>profile qtof
#smiles_iso CC(C)(C=C)C1=C(C=C(C(=C1)C=CC(=O)C2=CC=C(C=C2)O)OC)O
#smiles_can CC(C)(C=C)C1=C(C=C(C(=C1)C=CC(=O)C2=CC=C(C=C2)O)OC)O
#inchikey KAZSKMJFUPEHHW-UHFFFAOYSA-N
#pubchem_id 3923
#mb_accession PR311095

>ms2peaks
69.064040 20.000000
69.068840 70.000000
79.052700 24.000000
91.057790 22.000000
93.034390 122.000000
93.064340 19.000000
94.186140 20.000000
103.908440 17.000000
107.045780 126.000000
107.054980 60.000000
108.062840 32.000000
119.046910 21.000000
120.995750 18.000000
121.028440 4636.000000
122.030560 423.000000
122.041610 37.000000
123.043300 97.000000
129.067600 20.000000
133.066790 39.000000
134.033420 22.000000
135.029600 26.000000
136.040050 18.000000
141.064220 18.000000
147.000600 21.000000
147.042660 100.000000
147.048740 39.000000
148.044630 18.000000
148.052550 25.000000
148.079530 18.000000
149.018590 21.000000
149.057800 22.000000
149.063020 20.000000
151.022980 17.000000
153.026350 20.000000
157.067990 18.000000
159.048080 24.000000
159.080990 75.000000
160.085210 22.000000
161.054030 31.000000
165.056590 21.000000
167.089780 18.000000
169.671300 20.000000
171.086930 22.000000
173.088270 20.000000
175.076810 83.000000
176.867030 20.000000
177.034360 28.000000
177.054960 63.000000
177.093520 53.000000
181.061980 24.000000
187.069980 65.000000
188.079500 25.000000
189.050960 20.000000
189.087740 52.000000
189.095060 49.000000
191.107800 89.000000
192.064530 17.000000
192.105830 24.000000
196.092010 18.000000
199.078410 17.000000
201.063770 19.000000
202.104540 26.000000
202.986650 25.000000
203.063420 25.000000
203.075870 37.000000
203.085710 36.000000
203.103560 22.000000
203.368390 20.000000
205.073260 17.000000
207.713120 17.000000
209.134400 19.000000
210.070430 17.000000
211.074070 22.000000
213.067490 20.000000
215.063920 46.000000
215.075380 103.000000
216.069640 50.000000
216.079860 45.000000
219.099300 169.000000
219.134920 22.000000
219.147480 69.000000
223.078030 24.000000
224.074250 30.000000
225.086150 61.000000
226.092560 17.000000
227.074630 55.000000
227.115250 43.000000
227.124740 23.000000
229.085940 560.000000
230.093770 159.000000
231.083110 20.000000
233.250030 17.000000
234.069370 27.000000
235.141400 18.000000
237.058910 26.000000
238.074830 17.000000
238.129410 18.000000
241.093250 38.000000
245.117370 467.000000
245.134610 26.000000
246.115330 52.000000
246.122040 23.000000
251.079250 17.000000
251.114040 18.000000
253.083720 17.000000
255.071880 20.000000
255.088240 20.000000
255.097430 27.000000
255.112200 28.000000
255.799590 17.000000
256.624760 19.000000
265.075810 22.000000
267.062190 18.000000
268.118840 19.000000
271.078740 25.000000
271.099790 638.000000
272.088750 48.000000
272.099370 84.000000
283.051640 18.000000
283.086940 34.000000
283.101200 82.000000
284.077760 35.000000
284.098450 19.000000
290.731080 17.000000
291.090730 21.000000
297.115260 104.000000
297.146640 845.000000
298.152770 256.000000
299.112700 22.000000
299.135860 18.000000
299.157290 18.000000
300.164400 28.000000
307.137820 18.000000
308.143280 22.000000
312.166410 18.000000
324.137480 18.000000
332.611050 24.000000
338.106540 17.000000
339.096530 17.000000
339.117340 109.000000
339.159580 9471.000000
339.211090 49.000000
339.220890 17.000000
339.330440 17.000000

