>compound PR21258185
>parentmass 588.353094
>ionization [M+H]+
>formula C33H49NO8
>rt 240.571020
>profile qtof
#smiles_iso CC1C[C@@H]2[C@H](C([C@]3(O2)CCC4C5CC=C6C[C@H](CCC6(C5C(=O)C4=C3C)C)O[C@H]7C(C([C@@H](C(O7)CO)O)O)O)C)NC1
#smiles_can CC1CC2C(C(C3(O2)CCC4C5CC=C6CC(CCC6(C5C(=O)C4=C3C)C)OC7C(C(C(C(O7)CO)O)O)O)C)NC1
#inchikey HYDDDNUKNMMWBD-WJWSUNTISA-N
#pubchem_id 37361
#mb_accession PR300924,PR300929,PR300934,PR300939,PR300944,PR300949,PR300954,PR300959,PR300964,PR300969,PR300974,PR300979

>ms2peaks
114.091930 11.000000
126.126890 5.000000
149.095470 9.000000
295.205440 6.000000
588.286320 5.000000
588.353580 1000.000000
588.425480 18.000000

>ms2peaks
588.286010 6.000000
588.354920 1000.000000
588.427490 22.000000

>ms2peaks
84.082390 7.000000
109.100300 5.000000
114.092670 27.000000
126.128920 12.000000
149.097760 16.000000
295.199890 6.000000
295.212770 9.000000
570.347110 15.000000
588.281490 7.000000
588.299800 7.000000
588.355960 1000.000000
588.427670 16.000000

>ms2peaks
55.049050 5.000000
55.053100 7.000000
55.060100 11.000000
57.034190 26.000000
57.058610 5.000000
57.067410 7.000000
58.033760 10.000000
59.046660 6.000000
59.054940 5.000000
61.028030 9.000000
67.040890 9.000000
67.055180 200.000000
68.060130 5.000000
69.028550 6.000000
69.033870 24.000000
69.057870 7.000000
69.071260 20.000000
70.061610 31.000000
70.447270 5.000000
71.051640 15.000000
71.827930 5.000000
72.042690 8.000000
73.026570 6.000000
73.135110 8.000000
77.032170 9.000000
77.036290 5.000000
79.054530 46.000000
79.060020 27.000000
80.049950 11.000000
81.035580 40.000000
81.057170 9.000000
81.070750 213.000000
82.065890 11.000000
82.071240 6.000000
82.713830 5.000000
82.848060 5.000000
83.041620 7.000000
83.049800 38.000000
84.081830 357.000000
85.029480 171.000000
85.065060 181.000000
85.069460 58.000000
85.085470 29.000000
85.610150 5.000000
86.019230 6.000000
86.029050 5.000000
86.032210 13.000000
86.065280 7.000000
87.042710 24.000000
87.552230 5.000000
89.026840 6.000000
91.036540 10.000000
91.043170 7.000000
91.055500 60.000000
93.070310 149.000000
94.068850 38.000000
95.052750 6.000000
95.085410 95.000000
95.517130 5.000000
96.081250 82.000000
96.089220 36.000000
97.027730 48.000000
97.034260 18.000000
97.045070 5.000000
97.062280 18.000000
97.661870 7.000000
98.033730 15.000000
98.097960 71.000000
99.047400 12.000000
100.078320 7.000000
101.020670 6.000000
102.091400 50.000000
103.035580 6.000000
105.059140 29.000000
105.070340 165.000000
105.080300 15.000000
106.072210 18.000000
106.077940 12.000000
106.201930 9.000000
107.048840 13.000000
107.056080 7.000000
107.087530 237.000000
107.132240 5.000000
108.072620 7.000000
108.085250 19.000000
108.095830 6.000000
109.027210 13.000000
109.081030 5.000000
109.102020 655.000000
110.092060 5.000000
110.098400 27.000000
110.103650 65.000000
111.080490 7.000000
111.085740 5.000000
112.066280 21.000000
112.075790 102.000000
113.078950 21.000000
113.965400 6.000000
114.071530 8.000000
114.091480 1000.000000
115.056850 7.000000
115.092800 46.000000
115.099240 44.000000
115.835530 11.000000
116.101330 5.000000
117.067140 16.000000
117.074960 29.000000
119.048360 5.000000
119.074970 8.000000
119.087690 206.000000
120.086460 20.000000
120.093410 7.000000
120.999440 9.000000
121.062530 42.000000
121.072860 5.000000
121.101940 396.000000
122.090860 18.000000
122.103630 33.000000
122.108600 10.000000
123.104330 5.000000
123.115130 14.000000
124.089740 7.000000
124.106510 13.000000
124.111460 27.000000
125.096240 29.000000
125.101870 8.000000
125.114940 5.000000
126.090300 6.000000
126.127460 58.000000
126.136150 11.000000
127.039830 65.000000
127.050810 9.000000
127.196190 14.000000
128.063000 7.000000
129.069030 25.000000
129.076070 8.000000
131.067500 6.000000
131.076840 10.000000
131.085690 128.000000
131.099780 7.000000
132.087520 19.000000
133.100720 136.000000
134.099730 9.000000
134.200390 7.000000
135.119130 29.000000
136.112780 11.000000
136.130920 5.000000
137.098850 7.000000
137.401210 7.000000
138.129520 5.000000
140.108640 50.000000
140.543490 5.000000
141.065960 7.000000
141.118040 6.000000
142.073330 11.000000
142.080000 7.000000
142.089950 5.000000
143.085280 116.000000
143.243030 6.000000
144.052310 5.000000
144.085890 16.000000
145.065230 44.000000
145.102110 294.000000
146.055830 5.000000
146.105790 61.000000
146.290560 6.000000
147.081450 103.000000
147.117030 115.000000
148.071010 7.000000
148.088070 5.000000
148.111270 8.000000
149.077220 6.000000
149.097050 461.000000
149.138180 7.000000
150.093960 13.000000
150.099610 12.000000
150.106160 17.000000
152.142040 15.000000
153.068620 8.000000
153.074690 5.000000
153.126110 5.000000
154.070360 7.000000
155.083310 88.000000
155.132220 5.000000
156.087720 25.000000
157.056300 6.000000
157.067280 12.000000
157.101060 219.000000
158.066350 18.000000
158.072910 15.000000
158.097850 5.000000
158.102860 14.000000
158.111270 21.000000
159.078640 18.000000
159.086380 21.000000
159.116170 111.000000
159.123340 32.000000
159.955370 5.000000
160.075010 12.000000
160.117690 17.000000
161.088100 20.000000
161.096800 43.000000
161.121380 7.000000
162.091310 6.000000
162.123700 8.000000
163.111820 12.000000
165.065670 20.000000
165.095760 5.000000
167.063740 6.000000
167.083150 21.000000
169.077730 6.000000
169.105290 33.000000
170.109830 28.000000
171.082400 33.000000
171.103320 9.000000
171.119770 81.000000
172.087920 19.000000
172.114070 20.000000
172.127150 12.000000
173.085040 24.000000
173.100660 94.000000
173.130480 13.000000
173.141630 23.000000
174.111100 10.000000
174.131650 11.000000
174.141720 6.000000
175.113950 124.000000
176.074280 7.000000
176.115920 12.000000
177.095630 14.000000
177.125820 7.000000
177.134890 19.000000
179.087100 18.000000
180.084090 11.000000
180.099110 14.000000
181.096360 58.000000
181.114070 13.000000
182.103120 16.000000
182.110820 12.000000
183.068940 5.000000
183.080960 26.000000
183.104750 9.000000
183.116820 91.000000
184.090190 9.000000
184.116290 18.000000
184.406080 6.000000
185.089020 24.000000
185.098360 33.000000
185.127210 19.000000
185.138660 25.000000
186.099520 15.000000
186.129410 6.000000
187.112350 127.000000
187.142730 9.000000
187.153730 14.000000
188.122560 12.000000
189.114840 5.000000
189.125810 27.000000
189.145810 5.000000
190.168870 5.000000
191.055830 6.000000
191.108780 8.000000
191.157710 8.000000
193.083180 6.000000
193.094620 14.000000
193.106960 21.000000
194.106510 38.000000
195.082030 6.000000
195.108920 37.000000
195.120450 50.000000
196.100690 5.000000
196.117550 19.000000
196.130660 16.000000
197.076020 6.000000
197.098400 25.000000
197.115020 5.000000
197.130000 38.000000
197.138520 21.000000
198.091450 6.000000
198.101960 27.000000
198.113340 11.000000
199.094350 11.000000
199.114840 36.000000
199.146360 72.000000
199.162660 10.000000
200.124800 16.000000
201.127470 39.000000
201.159130 5.000000
202.123540 7.000000
205.101910 5.000000
206.099460 6.000000
206.108230 6.000000
207.118940 56.000000
208.115630 32.000000
208.172850 12.000000
209.095720 11.000000
209.109360 17.000000
209.130770 61.000000
209.144150 8.000000
210.118330 6.000000
210.135830 14.000000
210.147770 7.000000
210.216230 8.000000
211.107990 12.000000
211.119460 16.000000
211.141850 38.000000
211.154330 29.000000
212.111680 6.000000
212.129930 5.000000
212.147050 19.000000
212.163970 5.000000
213.126110 86.000000
213.153670 6.000000
213.168180 38.000000
214.161900 6.000000
215.104660 6.000000
215.147380 5.000000
215.654820 7.000000
216.089460 6.000000
216.133270 7.000000
216.146580 6.000000
216.174910 7.000000
217.153990 6.000000
218.106690 26.000000
218.584240 8.000000
219.109210 9.000000
220.109210 5.000000
220.122120 7.000000
221.119840 5.000000
221.133100 41.000000
222.127490 8.000000
222.138180 12.000000
222.147350 6.000000
223.112340 19.000000
223.125490 7.000000
223.146700 43.000000
224.423490 5.000000
225.130770 25.000000
226.128570 12.000000
226.164920 5.000000
226.174500 19.000000
227.138290 37.000000
227.179170 6.000000
228.150280 6.000000
228.175890 7.000000
229.178710 5.000000
231.114330 11.000000
231.130390 6.000000
232.117710 8.000000
232.130750 6.000000
233.124340 9.000000
233.133940 32.000000
234.157560 7.000000
235.134690 12.000000
235.153720 47.000000
236.145320 19.000000
237.121980 5.000000
237.134490 20.000000
237.158330 5.000000
237.167600 7.000000
238.138170 5.000000
238.173050 11.000000
239.146640 18.000000
239.173800 18.000000
240.138470 6.000000
240.182800 6.000000
241.129650 7.000000
242.194530 8.000000
242.282530 7.000000
243.119430 9.000000
243.130870 11.000000
243.141830 7.000000
244.188080 6.000000
246.140720 6.000000
247.143650 17.000000
247.152110 11.000000
248.164930 15.000000
249.173170 6.000000
251.145140 11.000000
251.172650 10.000000
252.180570 10.000000
253.189100 17.000000
253.325870 6.000000
254.170760 5.000000
254.182210 6.000000
256.176150 6.000000
258.150540 6.000000
259.105590 5.000000
259.151950 11.000000
260.152590 13.000000
261.149230 9.000000
261.164030 15.000000
262.162080 5.000000
262.181730 15.000000
262.190610 10.000000
263.143980 7.000000
263.170900 13.000000
263.183870 16.000000
264.815950 6.000000
265.147550 5.000000
265.157930 11.000000
266.153320 5.000000
266.164790 5.000000
266.182340 10.000000
266.209930 5.000000
267.164730 6.000000
267.175260 5.000000
267.211240 10.000000
267.218960 32.000000
268.105220 7.000000
269.182680 7.000000
273.131710 7.000000
273.168270 21.000000
275.159970 9.000000
275.176970 34.000000
276.183230 36.000000
277.166170 15.000000
277.194640 56.000000
278.186370 11.000000
280.186860 10.000000
282.131500 5.000000
287.186740 9.000000
289.178380 7.000000
289.190770 9.000000
290.763490 7.000000
291.998990 5.000000
293.173740 8.000000
293.187560 12.000000
293.280000 8.000000
294.187380 5.000000
295.184110 10.000000
295.193450 35.000000
295.208860 11.000000
296.213840 24.000000
297.177400 5.000000
298.167660 5.000000
298.180110 5.000000
299.165650 10.000000
299.180240 10.000000
300.178860 5.000000
301.197270 24.000000
311.178740 5.000000
311.196440 9.000000
311.213900 6.000000
311.222930 7.000000
312.182370 6.000000
313.184840 5.000000
313.220490 10.000000
314.206630 5.000000
315.211090 21.000000
326.190160 12.000000
328.293240 8.000000
331.208160 12.000000
335.196780 5.000000
343.243680 18.000000
344.220340 5.000000
344.239040 9.000000
344.823880 7.000000
348.275270 9.000000
349.258880 7.000000
351.169310 7.000000
358.247470 5.000000
367.943480 6.000000
373.250340 5.000000
390.278780 5.000000
391.267550 6.000000
391.292080 10.000000
402.275510 6.000000
424.078280 6.000000
424.296600 7.000000
426.297240 10.000000
471.177610 6.000000
473.260960 7.000000
482.247710 6.000000
494.238950 5.000000
526.281190 9.000000
528.280880 6.000000
533.470700 8.000000
568.240230 6.000000
570.293330 5.000000
570.347410 25.000000
570.367000 6.000000
571.343870 5.000000
572.301330 5.000000
588.288700 7.000000
588.350830 49.000000
588.384030 17.000000

>ms2peaks
109.101350 8.000000
114.091120 15.000000
126.127170 5.000000
149.097150 11.000000
570.343810 7.000000
588.282290 6.000000
588.351870 1000.000000
588.424680 17.000000

>ms2peaks
588.280700 7.000000
588.355410 1000.000000
588.425540 22.000000

>ms2peaks
109.101980 12.000000
114.091470 32.000000
126.131810 5.000000
149.095080 12.000000
295.204650 14.000000
570.337890 10.000000
571.351320 6.000000
588.266480 8.000000
588.351620 1000.000000
588.421810 13.000000

>ms2peaks
51.712820 6.000000
54.036770 11.000000
55.018260 8.000000
55.049530 5.000000
56.051070 7.000000
57.030720 12.000000
57.072880 12.000000
61.026420 6.000000
66.613760 6.000000
67.044150 6.000000
67.054540 289.000000
68.055430 9.000000
68.061000 25.000000
68.479230 6.000000
69.034650 43.000000
69.066730 5.000000
70.056560 6.000000
70.063140 39.000000
70.397290 5.000000
70.519300 5.000000
70.958230 5.000000
71.049450 11.000000
72.039510 6.000000
72.045700 15.000000
73.030330 26.000000
78.046560 7.000000
79.038760 6.000000
79.043650 8.000000
79.056830 54.000000
80.048910 7.000000
80.064820 12.000000
81.036440 68.000000
81.055910 8.000000
81.064380 22.000000
81.071960 208.000000
82.038200 5.000000
82.068940 31.000000
82.078590 12.000000
83.048060 53.000000
83.054120 25.000000
84.082470 276.000000
85.025770 54.000000
85.029880 81.000000
85.065190 198.000000
85.083860 34.000000
86.030920 6.000000
86.036210 5.000000
87.028270 6.000000
87.044820 24.000000
88.644880 6.000000
90.769010 6.000000
91.041410 11.000000
91.055270 101.000000
92.055040 9.000000
93.068740 161.000000
93.082050 5.000000
94.059900 7.000000
94.069920 41.000000
94.077700 17.000000
94.921130 6.000000
95.079220 17.000000
95.086810 117.000000
96.071260 7.000000
96.080340 91.000000
96.093640 13.000000
96.675420 7.000000
97.029290 54.000000
97.064160 5.000000
97.072590 7.000000
97.092440 6.000000
98.030620 18.000000
98.058460 5.000000
98.089340 23.000000
98.099330 16.000000
99.031130 13.000000
99.043990 27.000000
99.082720 24.000000
100.080910 8.000000
102.091090 78.000000
103.037860 7.000000
103.051540 9.000000
105.068190 102.000000
105.072900 154.000000
106.073720 13.000000
106.108510 6.000000
107.054130 26.000000
107.076760 32.000000
107.086740 148.000000
108.057630 6.000000
108.072450 6.000000
108.082020 12.000000
108.088640 34.000000
109.031390 31.000000
109.064050 6.000000
109.101700 748.000000
110.096310 8.000000
110.105380 47.000000
110.786670 6.000000
111.078780 13.000000
111.099010 9.000000
112.066100 8.000000
112.076860 67.000000
112.085130 19.000000
112.630800 5.000000
113.076870 12.000000
113.083630 6.000000
113.283830 5.000000
114.053830 5.000000
114.074070 31.000000
114.092100 1000.000000
115.045830 5.000000
115.054700 5.000000
115.091200 61.000000
115.096620 22.000000
117.070660 58.000000
118.097600 6.000000
118.136030 9.000000
119.046040 5.000000
119.076000 12.000000
119.087120 119.000000
119.432690 7.000000
120.087550 14.000000
120.095520 10.000000
121.061980 8.000000
121.068800 14.000000
121.101520 368.000000
121.765220 6.000000
122.065610 11.000000
122.098950 32.000000
122.294110 5.000000
123.081200 13.000000
123.103480 14.000000
123.119350 12.000000
124.088200 12.000000
124.104300 8.000000
124.114310 50.000000
124.120120 11.000000
125.095340 8.000000
125.102440 6.000000
125.693860 7.000000
126.093080 6.000000
126.106820 5.000000
126.116700 21.000000
126.124300 58.000000
126.136020 26.000000
127.034900 21.000000
127.042520 20.000000
127.055940 5.000000
127.122280 5.000000
127.130520 12.000000
128.042240 21.000000
128.061510 6.000000
129.065380 38.000000
131.053300 28.000000
131.086490 183.000000
132.086300 6.000000
133.066670 11.000000
133.101870 157.000000
134.073520 6.000000
134.104390 16.000000
135.076020 7.000000
135.084470 22.000000
135.101360 8.000000
135.117920 33.000000
136.085480 6.000000
136.121280 7.000000
137.049300 5.000000
137.092740 6.000000
137.099790 25.000000
137.114010 7.000000
137.123580 6.000000
138.103070 6.000000
139.112930 8.000000
140.106170 33.000000
141.072300 5.000000
141.113140 13.000000
142.077790 14.000000
142.123380 7.000000
143.086690 55.000000
143.095520 15.000000
143.511860 5.000000
144.089130 14.000000
144.096500 5.000000
145.061800 20.000000
145.098340 292.000000
145.107480 47.000000
146.048340 5.000000
146.070650 10.000000
146.104320 54.000000
146.115450 31.000000
147.069200 6.000000
147.081970 56.000000
147.115070 82.000000
147.373790 8.000000
147.881930 9.000000
148.088230 7.000000
148.108380 7.000000
148.116330 20.000000
149.096830 484.000000
149.118210 9.000000
149.125850 7.000000
149.133530 7.000000
149.375930 7.000000
150.097630 34.000000
150.103610 35.000000
150.131380 5.000000
151.101240 6.000000
151.115810 6.000000
151.486280 8.000000
153.064480 6.000000
153.072250 7.000000
153.147050 13.000000
154.079090 6.000000
155.068730 5.000000
155.076230 11.000000
155.081630 24.000000
155.089890 20.000000
156.088170 6.000000
156.094510 5.000000
157.010190 6.000000
157.103680 208.000000
158.096620 12.000000
158.110700 15.000000
159.083130 45.000000
159.094910 6.000000
159.117770 167.000000
159.634160 5.000000
160.088750 16.000000
160.117830 24.000000
160.395770 5.000000
160.711240 5.000000
161.090070 8.000000
162.102840 5.000000
162.125170 20.000000
162.136050 5.000000
163.072530 20.000000
163.109950 5.000000
163.149430 7.000000
163.205670 8.000000
164.086300 10.000000
164.132430 12.000000
164.152890 14.000000
165.077930 6.000000
165.125920 7.000000
167.079960 6.000000
167.090680 19.000000
168.092070 5.000000
168.103870 6.000000
169.101650 80.000000
169.107100 27.000000
170.109710 6.000000
170.672550 5.000000
171.063100 6.000000
171.082580 36.000000
171.087620 13.000000
171.116560 95.000000
171.129320 7.000000
172.079850 17.000000
172.088820 19.000000
172.121170 24.000000
173.089810 51.000000
173.100040 55.000000
173.125110 15.000000
173.135560 60.000000
174.095380 15.000000
174.108640 6.000000
174.128020 8.000000
175.100270 18.000000
175.113070 107.000000
175.149800 12.000000
176.119770 5.000000
176.153090 12.000000
176.694900 8.000000
178.070140 14.000000
178.079410 12.000000
178.156200 6.000000
179.080800 27.000000
179.092030 22.000000
180.075450 6.000000
180.099320 6.000000
181.093310 13.000000
181.101990 15.000000
182.105350 37.000000
183.084110 12.000000
183.096710 22.000000
183.116710 37.000000
183.127010 6.000000
184.092060 9.000000
184.123260 5.000000
185.088440 21.000000
185.097690 64.000000
185.117800 7.000000
185.127870 25.000000
185.135440 31.000000
186.104900 6.000000
186.141160 5.000000
187.088810 5.000000
187.103000 44.000000
187.114230 117.000000
187.152570 12.000000
188.016450 5.000000
188.108310 14.000000
188.118970 35.000000
189.092480 7.000000
189.110370 12.000000
189.129410 32.000000
190.118150 6.000000
190.135640 5.000000
192.087540 5.000000
192.100220 6.000000
193.103780 16.000000
194.097780 14.000000
194.112950 7.000000
194.154050 8.000000
194.950260 6.000000
195.115630 59.000000
195.165210 7.000000
195.556370 6.000000
196.124890 8.000000
196.151860 6.000000
197.080380 7.000000
197.096920 10.000000
197.124890 12.000000
197.135530 38.000000
198.091340 7.000000
198.109240 25.000000
198.128660 6.000000
198.139660 24.000000
199.082060 7.000000
199.097750 7.000000
199.107570 25.000000
199.134200 6.000000
199.148130 51.000000
200.109820 6.000000
200.118120 8.000000
201.125660 42.000000
201.133740 23.000000
202.134460 20.000000
203.084460 5.000000
203.137650 22.000000
204.095750 5.000000
204.144680 5.000000
205.083390 5.000000
205.094860 13.000000
205.105930 18.000000
205.123840 8.000000
206.110960 5.000000
206.582140 5.000000
207.113170 15.000000
207.122770 28.000000
207.474790 7.000000
208.127030 34.000000
209.071010 7.000000
209.091600 6.000000
209.127880 24.000000
209.136920 44.000000
210.139800 22.000000
211.111850 35.000000
211.131200 15.000000
211.149120 37.000000
212.110180 12.000000
212.121490 17.000000
213.114290 11.000000
213.127170 98.000000
213.161610 19.000000
213.172200 19.000000
214.131060 27.000000
215.132250 7.000000
215.149480 7.000000
215.177250 11.000000
216.909520 5.000000
217.114550 5.000000
219.113340 20.000000
219.124270 6.000000
219.561110 6.000000
220.111540 6.000000
220.119830 5.000000
220.131840 20.000000
221.125980 20.000000
221.138000 16.000000
222.124650 7.000000
222.133210 18.000000
223.113340 14.000000
223.146620 42.000000
223.159060 8.000000
223.973940 5.000000
224.141740 6.000000
224.164310 28.000000
225.128360 11.000000
225.164490 38.000000
226.141830 7.000000
226.155730 8.000000
226.203410 7.000000
227.139340 40.000000
228.132420 5.000000
228.166470 14.000000
229.120090 7.000000
229.162900 5.000000
230.152040 7.000000
231.127110 22.000000
231.147870 8.000000
232.112700 5.000000
232.121060 6.000000
232.131480 5.000000
232.146190 14.000000
233.131160 36.000000
234.132930 15.000000
234.141360 22.000000
234.151600 6.000000
234.872700 5.000000
235.117740 8.000000
235.142360 10.000000
235.152850 33.000000
237.133030 11.000000
237.147380 15.000000
237.167240 29.000000
237.911870 9.000000
238.154190 9.000000
239.137830 5.000000
240.145980 11.000000
241.134370 11.000000
241.173860 7.000000
243.110490 8.000000
243.120210 5.000000
244.123380 8.000000
244.160540 7.000000
244.173420 9.000000
245.125660 19.000000
245.156850 6.000000
246.104250 10.000000
247.149380 31.000000
248.146940 5.000000
248.160750 12.000000
249.131870 8.000000
249.149290 8.000000
249.161000 5.000000
249.174040 12.000000
250.139140 14.000000
250.168170 22.000000
251.145290 39.000000
251.167470 10.000000
251.180830 21.000000
252.153340 17.000000
253.155490 16.000000
253.169540 6.000000
253.199330 8.000000
254.160490 27.000000
255.180070 26.000000
257.184940 7.000000
259.146730 14.000000
259.170200 7.000000
260.157010 8.000000
261.124180 12.000000
261.162480 19.000000
262.166660 13.000000
262.185360 7.000000
263.181060 8.000000
264.782440 6.000000
265.161530 15.000000
265.193910 19.000000
266.185360 6.000000
267.115480 6.000000
267.169310 20.000000
267.184230 6.000000
267.197110 8.000000
267.212250 13.000000
268.172940 6.000000
269.160610 9.000000
269.226380 6.000000
270.198390 8.000000
272.155400 5.000000
272.174220 8.000000
273.161990 6.000000
273.713990 8.000000
274.170530 14.000000
274.187740 7.000000
275.134250 9.000000
275.180390 30.000000
275.195130 5.000000
276.176880 8.000000
276.186400 7.000000
276.198940 6.000000
276.303590 9.000000
277.133180 6.000000
277.195890 127.000000
278.163360 19.000000
278.183350 25.000000
278.202610 8.000000
278.226530 8.000000
280.166080 6.000000
280.176700 6.000000
282.197390 6.000000
283.117070 6.000000
283.157500 8.000000
285.142090 8.000000
285.160890 37.000000
285.172060 12.000000
288.147740 5.000000
289.185880 18.000000
289.208370 5.000000
290.149480 6.000000
290.176570 8.000000
291.187190 11.000000
291.205780 6.000000
292.165950 7.000000
292.193510 8.000000
293.187070 14.000000
293.197170 15.000000
294.184020 7.000000
294.198880 16.000000
295.185850 5.000000
295.200680 23.000000
295.212830 67.000000
295.225400 21.000000
296.201810 6.000000
296.214390 25.000000
298.170870 15.000000
299.167330 10.000000
300.190280 6.000000
301.201480 6.000000
303.169250 5.000000
303.202390 7.000000
304.216060 13.000000
315.163360 6.000000
315.208590 12.000000
317.194520 13.000000
317.235470 12.000000
318.191350 5.000000
319.186100 25.000000
325.204350 6.000000
329.226990 6.000000
331.209900 6.000000
331.259190 6.000000
332.193480 5.000000
334.260560 13.000000
336.259800 5.000000
336.924350 5.000000
341.227330 19.000000
342.207980 6.000000
342.218510 5.000000
344.197200 5.000000
345.248930 15.000000
349.176760 6.000000
355.244540 6.000000
362.278500 5.000000
363.276580 6.000000
365.209410 6.000000
373.265870 6.000000
374.247070 6.000000
375.268950 5.000000
381.277160 5.000000
390.228360 10.000000
390.280910 5.000000
391.245510 7.000000
408.270020 6.000000
408.298610 5.000000
443.239960 8.000000
446.791470 8.000000
467.820680 9.000000
470.269040 5.000000
486.244630 13.000000
499.267090 6.000000
512.312190 8.000000
514.278440 6.000000
525.579280 6.000000
526.292600 8.000000
527.297180 10.000000
530.326780 7.000000
540.278690 7.000000
541.315920 6.000000
558.290470 7.000000
568.323910 13.000000
570.342160 58.000000
570.379390 10.000000
571.367430 18.000000
572.370610 6.000000
573.310360 5.000000
588.339360 28.000000
588.378110 17.000000

>ms2peaks
109.102200 9.000000
114.091050 14.000000
126.128620 5.000000
149.093990 9.000000
295.205110 6.000000
588.286620 9.000000
588.353330 1000.000000
588.424800 20.000000

>ms2peaks
588.273500 6.000000
588.352170 1000.000000
588.425290 19.000000

>ms2peaks
84.081750 6.000000
102.090510 5.000000
109.101390 14.000000
114.091720 26.000000
126.127300 9.000000
149.097380 17.000000
295.206120 16.000000
570.341190 15.000000
588.255740 6.000000
588.278380 10.000000
588.352660 1000.000000
588.423710 18.000000

>ms2peaks
53.039620 6.000000
55.052310 7.000000
57.068420 7.000000
57.072760 10.000000
57.491900 6.000000
61.032950 18.000000
63.806530 7.000000
65.793670 5.000000
67.022460 10.000000
67.047190 21.000000
67.054070 92.000000
67.058260 132.000000
67.070930 6.000000
68.052040 17.000000
68.055760 11.000000
69.020590 7.000000
69.034320 48.000000
69.041040 8.000000
69.061840 6.000000
69.069840 6.000000
69.076180 17.000000
70.063040 5.000000
70.067520 13.000000
71.041340 12.000000
72.047700 11.000000
74.029870 7.000000
74.679380 5.000000
79.052580 51.000000
79.061250 7.000000
80.053780 11.000000
81.030090 11.000000
81.033770 31.000000
81.069520 103.000000
81.074130 110.000000
82.065680 8.000000
82.075000 19.000000
83.050710 38.000000
83.080990 10.000000
83.089150 12.000000
84.053750 8.000000
84.081520 260.000000
85.021040 14.000000
85.030460 77.000000
85.052700 9.000000
85.064880 152.000000
85.070330 86.000000
85.083770 41.000000
85.090670 17.000000
85.097780 8.000000
85.361900 5.000000
86.031440 7.000000
86.076150 14.000000
86.086290 5.000000
86.097090 5.000000
87.041980 32.000000
91.038280 12.000000
91.052270 41.000000
91.057660 41.000000
92.021190 9.000000
92.059970 12.000000
92.211690 10.000000
93.055940 5.000000
93.071710 169.000000
93.491210 7.000000
93.594250 6.000000
94.074240 26.000000
95.050950 8.000000
95.062750 8.000000
95.072240 8.000000
95.087140 53.000000
95.092570 19.000000
95.572710 5.000000
96.077800 65.000000
96.086090 116.000000
97.009390 5.000000
97.025500 32.000000
97.032080 58.000000
97.037860 14.000000
97.063450 20.000000
97.076420 9.000000
97.082450 7.000000
97.662030 5.000000
98.011630 5.000000
98.038440 9.000000
98.101570 29.000000
99.032350 8.000000
99.038830 7.000000
99.044330 7.000000
99.080320 13.000000
99.097910 7.000000
100.074840 24.000000
100.113740 6.000000
101.026700 9.000000
101.060220 7.000000
101.074410 11.000000
102.089510 51.000000
102.101900 5.000000
103.036060 6.000000
103.042130 6.000000
103.111630 9.000000
104.066670 6.000000
105.060560 8.000000
105.072530 160.000000
106.073310 34.000000
106.338660 6.000000
107.086470 149.000000
107.094850 20.000000
108.092280 23.000000
108.096430 9.000000
109.028630 27.000000
109.064030 8.000000
109.100820 666.000000
109.107620 166.000000
109.164440 5.000000
110.093930 19.000000
110.107320 53.000000
110.309140 11.000000
111.083650 20.000000
112.075760 166.000000
112.922930 6.000000
113.080710 30.000000
114.092200 1000.000000
114.546260 5.000000
115.056850 7.000000
115.092770 97.000000
115.105270 20.000000
115.856480 8.000000
116.086580 11.000000
116.097620 5.000000
117.072170 59.000000
118.097240 6.000000
119.086970 157.000000
119.093210 33.000000
119.893930 5.000000
120.083760 14.000000
120.091190 6.000000
121.068630 27.000000
121.084660 18.000000
121.099820 289.000000
121.106260 281.000000
122.088300 6.000000
122.099770 20.000000
122.105940 20.000000
122.526910 7.000000
122.824230 5.000000
123.064800 14.000000
123.075840 15.000000
123.083690 7.000000
123.113070 6.000000
123.122900 11.000000
124.085410 10.000000
124.110870 37.000000
124.488380 6.000000
124.525830 5.000000
125.100320 28.000000
125.120880 6.000000
126.087460 11.000000
126.113880 6.000000
126.121110 23.000000
126.131000 83.000000
126.163540 7.000000
126.331610 5.000000
127.040070 85.000000
127.967260 9.000000
128.051040 8.000000
128.144420 8.000000
129.068510 32.000000
129.077030 9.000000
130.072300 5.000000
131.086170 110.000000
131.095640 15.000000
132.079410 5.000000
132.095170 5.000000
133.056020 12.000000
133.087100 6.000000
133.102970 100.000000
133.903410 5.000000
134.081100 8.000000
134.116710 6.000000
135.110090 8.000000
135.122620 5.000000
140.101680 22.000000
140.110630 37.000000
141.117680 7.000000
142.079220 16.000000
143.077670 26.000000
143.085300 105.000000
144.087880 54.000000
144.662230 9.000000
144.851350 7.000000
145.049360 8.000000
145.060290 8.000000
145.069690 19.000000
145.081600 5.000000
145.101810 304.000000
146.103680 21.000000
146.111130 6.000000
147.071670 11.000000
147.078720 27.000000
147.088680 27.000000
147.113910 89.000000
147.124590 46.000000
148.081020 7.000000
148.106480 6.000000
148.123610 23.000000
149.028880 5.000000
149.046220 7.000000
149.068440 14.000000
149.078200 11.000000
149.096790 458.000000
149.113780 20.000000
150.087360 9.000000
150.099240 52.000000
150.114290 21.000000
150.127320 7.000000
151.071400 5.000000
151.114760 7.000000
151.213560 6.000000
152.112140 8.000000
152.142590 16.000000
152.152280 9.000000
152.877720 6.000000
154.084240 8.000000
154.091920 5.000000
154.132710 5.000000
155.089630 45.000000
156.087200 5.000000
156.095540 11.000000
157.049260 5.000000
157.070420 13.000000
157.101390 188.000000
157.111150 32.000000
157.285840 6.000000
158.105180 20.000000
158.118350 6.000000
158.997500 12.000000
159.061680 5.000000
159.074660 15.000000
159.084990 39.000000
159.113010 81.000000
159.120270 35.000000
160.112500 7.000000
160.119960 12.000000
161.092160 16.000000
161.136380 9.000000
161.242160 6.000000
162.085110 5.000000
162.123870 8.000000
162.131870 5.000000
163.080140 9.000000
163.105450 18.000000
163.116730 9.000000
163.144560 9.000000
164.036180 8.000000
164.154190 14.000000
165.123600 5.000000
165.154560 6.000000
166.079510 7.000000
167.079010 7.000000
167.085660 6.000000
167.099210 8.000000
168.083110 7.000000
168.097580 10.000000
169.065720 13.000000
169.076320 6.000000
169.098080 80.000000
169.113310 13.000000
170.108290 38.000000
170.117340 9.000000
171.078020 10.000000
171.092800 20.000000
171.111480 107.000000
171.121190 55.000000
171.127880 20.000000
172.119260 26.000000
173.086880 37.000000
173.102430 64.000000
173.127400 53.000000
173.141100 13.000000
174.105710 5.000000
174.119000 6.000000
174.127930 5.000000
174.856120 9.000000
175.079250 8.000000
175.108340 68.000000
175.121630 45.000000
175.160280 5.000000
176.099040 6.000000
176.112170 30.000000
176.140530 13.000000
177.129680 10.000000
177.141310 16.000000
178.169040 7.000000
178.944840 5.000000
179.080580 34.000000
179.090710 9.000000
180.098210 8.000000
180.319460 10.000000
181.099000 64.000000
181.111160 40.000000
182.075470 6.000000
182.114170 27.000000
183.078170 11.000000
183.111010 38.000000
183.118560 70.000000
183.134000 20.000000
184.084550 17.000000
184.122860 29.000000
185.088710 13.000000
185.099500 32.000000
185.131480 15.000000
185.137480 44.000000
186.094160 6.000000
186.138980 6.000000
186.148770 8.000000
187.088580 17.000000
187.114960 114.000000
187.144260 17.000000
188.105030 6.000000
188.113650 8.000000
188.128300 11.000000
188.150070 6.000000
188.865420 9.000000
189.121350 21.000000
189.131290 28.000000
189.156130 7.000000
190.096070 7.000000
190.166410 5.000000
191.095660 18.000000
191.112150 6.000000
193.087460 14.000000
193.102770 23.000000
194.068830 8.000000
194.117340 5.000000
194.124190 7.000000
195.068510 20.000000
195.084140 8.000000
195.099840 7.000000
195.118760 55.000000
195.133670 11.000000
196.085310 17.000000
196.112590 5.000000
196.133360 17.000000
197.085560 12.000000
197.097810 32.000000
197.107790 13.000000
197.129120 53.000000
197.140440 5.000000
197.154020 15.000000
198.105800 47.000000
198.139130 40.000000
198.849820 7.000000
199.089690 7.000000
199.111400 31.000000
199.121020 23.000000
199.135600 7.000000
199.146410 34.000000
199.157650 48.000000
200.107620 7.000000
200.118090 7.000000
200.150450 6.000000
201.120610 30.000000
201.128980 42.000000
202.158690 7.000000
204.987840 10.000000
205.094330 11.000000
205.108170 7.000000
206.103730 13.000000
207.122160 26.000000
207.136110 8.000000
207.872680 5.000000
208.118410 6.000000
208.178800 7.000000
209.092040 5.000000
209.104140 8.000000
209.131180 69.000000
209.146450 52.000000
210.106160 8.000000
210.140030 8.000000
211.094350 6.000000
211.112400 46.000000
211.124160 6.000000
211.141890 33.000000
211.151920 25.000000
211.160490 26.000000
212.016510 6.000000
212.121250 6.000000
212.143600 29.000000
212.158450 7.000000
212.171540 11.000000
213.093900 7.000000
213.106540 11.000000
213.129710 78.000000
213.137340 29.000000
213.165120 11.000000
213.171950 7.000000
214.129930 10.000000
214.155270 5.000000
214.167620 5.000000
215.103530 5.000000
215.140980 10.000000
215.148540 10.000000
216.148570 5.000000
216.187470 6.000000
218.101870 6.000000
218.113190 8.000000
219.116560 33.000000
219.132100 11.000000
220.121260 28.000000
221.114170 6.000000
221.129270 12.000000
221.140440 25.000000
222.136930 8.000000
222.150090 26.000000
223.092420 7.000000
223.104950 6.000000
223.120530 7.000000
223.136760 6.000000
223.148880 32.000000
223.157470 11.000000
224.145160 5.000000
225.120790 12.000000
225.129580 6.000000
225.163530 26.000000
226.128390 7.000000
226.165270 6.000000
226.288190 6.000000
227.123290 5.000000
227.149770 30.000000
228.138950 6.000000
228.152730 26.000000
231.140580 7.000000
233.114140 5.000000
233.127400 19.000000
233.140930 37.000000
234.130310 6.000000
234.146180 8.000000
235.146470 67.000000
235.158540 16.000000
235.240480 6.000000
236.152540 14.000000
237.155430 53.000000
237.172620 22.000000
238.133220 6.000000
239.147090 45.000000
239.163240 20.000000
239.175900 13.000000
240.107600 8.000000
240.149120 9.000000
240.192280 8.000000
242.166350 9.000000
242.188220 5.000000
242.596850 7.000000
243.116100 7.000000
243.135590 6.000000
243.148930 8.000000
244.112660 16.000000
244.125750 9.000000
244.148330 6.000000
244.173920 6.000000
245.130000 8.000000
245.139210 12.000000
246.115390 7.000000
246.126980 21.000000
246.145000 20.000000
247.143950 7.000000
247.155900 34.000000
248.117510 9.000000
248.138520 6.000000
248.156490 26.000000
248.179430 8.000000
249.119640 6.000000
249.134080 7.000000
249.163390 14.000000
249.176150 16.000000
251.139040 5.000000
251.151750 11.000000
251.177870 18.000000
251.192610 14.000000
252.141770 7.000000
252.153440 8.000000
252.173540 5.000000
252.190550 7.000000
252.655910 6.000000
253.147770 12.000000
253.163100 6.000000
253.193630 9.000000
255.120300 6.000000
255.182750 8.000000
256.137020 8.000000
256.168300 8.000000
258.139070 11.000000
258.156070 12.000000
259.148560 18.000000
259.485020 5.000000
259.689330 5.000000
259.974000 6.000000
260.152340 18.000000
261.139770 7.000000
261.162750 32.000000
262.174260 12.000000
262.187470 8.000000
263.009090 6.000000
263.135990 6.000000
263.168150 9.000000
263.180330 7.000000
264.139500 7.000000
264.196320 6.000000
265.167570 36.000000
265.192750 20.000000
265.199740 7.000000
266.163700 6.000000
267.168430 8.000000
268.221070 14.000000
269.119510 5.000000
269.139310 6.000000
269.179960 5.000000
269.191560 6.000000
270.148220 14.000000
270.194760 5.000000
270.392240 6.000000
271.204220 6.000000
272.161590 5.000000
273.132690 7.000000
273.166810 6.000000
274.171300 5.000000
274.186860 9.000000
275.168210 15.000000
275.183320 22.000000
275.195190 23.000000
276.180880 7.000000
276.208070 5.000000
277.157680 5.000000
277.166960 5.000000
277.187560 63.000000
277.218750 8.000000
278.185330 26.000000
278.197600 8.000000
278.215450 32.000000
279.177950 5.000000
279.217500 11.000000
280.191380 7.000000
280.803410 5.000000
281.181550 5.000000
283.206480 5.000000
284.152650 11.000000
284.163730 13.000000
284.181610 6.000000
284.210510 8.000000
285.161250 5.000000
287.194310 7.000000
288.185760 6.000000
289.194150 12.000000
290.183810 8.000000
290.204930 8.000000
292.198940 9.000000
293.173890 7.000000
293.196080 9.000000
295.209110 50.000000
296.161290 6.000000
297.216460 11.000000
298.161130 6.000000
298.175420 6.000000
298.185670 7.000000
299.158260 6.000000
299.186980 13.000000
302.215820 5.000000
303.167880 8.000000
303.188750 6.000000
303.206790 6.000000
303.221830 5.000000
304.204800 6.000000
310.223420 6.000000
311.176270 5.000000
312.197660 10.000000
313.185520 6.000000
314.187870 9.000000
314.206450 6.000000
317.189060 5.000000
319.789730 8.000000
322.230500 5.000000
331.209660 5.000000
331.232970 6.000000
333.216920 6.000000
333.234950 13.000000
339.322910 11.000000
340.219820 5.000000
345.215270 6.000000
352.239350 6.000000
355.257750 7.000000
361.234410 7.000000
362.108090 11.000000
363.201390 7.000000
375.254790 5.000000
376.253300 5.000000
376.284850 6.000000
377.675690 5.000000
380.296690 5.000000
391.289700 8.000000
394.279570 7.000000
408.293460 6.000000
408.306000 9.000000
409.280120 5.000000
409.545350 8.000000
420.801790 6.000000
461.240600 5.000000
474.245300 6.000000
497.272890 5.000000
500.219360 6.000000
509.280210 6.000000
511.263180 13.000000
526.236820 6.000000
528.304140 6.000000
531.289670 6.000000
540.313170 11.000000
541.260070 6.000000
541.316650 8.000000
552.369380 5.000000
555.358520 7.000000
567.199950 7.000000
568.305540 6.000000
568.355590 8.000000
570.306820 8.000000
570.336610 7.000000
570.366390 26.000000
571.344540 16.000000
572.340520 8.000000
588.324400 8.000000
588.362730 99.000000

