>compound PR21502768
>parentmass 941.5114
>ionization [M+H]+
>formula C48H76O18
>rt 457.200000
>profile qtof
#smiles_iso CC1C(C(C(C(O1)OC2C(C(C(OC2OC3C(C(C(OC3OC4CCC5(C(C4(C)CO)CCC6(C5CC=C7C6(CCC8(C7CC(CC8=O)(C)C)C)C)C)C)C(=O)O)O)O)CO)O)O)O)O)O
#smiles_can CC1C(C(C(C(O1)OC2C(C(C(OC2OC3C(C(C(OC3OC4CCC5(C(C4(C)CO)CCC6(C5CC=C7C6(CCC8(C7CC(CC8=O)(C)C)C)C)C)C)C(=O)O)O)O)CO)O)O)O)O)O
#inchikey CROUPKILZUPLQA-UHFFFAOYSA-N
#pubchem_id 15608214
#mb_accession PR310674

>ms2
83.050090 22.000000
98.389130 28.000000
111.045500 59.000000
113.091710 23.000000
118.680690 33.000000
121.099240 20.000000
129.050420 22.000000
131.065250 21.000000
135.109130 23.000000
135.126390 17.000000
141.023240 40.000000
145.049840 40.000000
147.058040 22.000000
147.070820 38.000000
149.622920 22.000000
159.033840 46.000000
163.062480 24.000000
163.069930 15.000000
165.070140 17.000000
165.080800 17.000000
175.146160 23.000000
177.037490 41.000000
177.163530 47.000000
184.125670 18.000000
187.153340 17.000000
189.162660 44.000000
193.159440 54.000000
195.165240 17.000000
201.026290 21.000000
202.163850 33.000000
203.180880 46.000000
204.119890 27.000000
204.192730 22.000000
205.161210 17.000000
207.176960 60.000000
215.174800 27.000000
215.193190 23.000000
217.201050 75.000000
219.168090 20.000000
221.194430 57.000000
230.197220 17.000000
231.086210 37.000000
231.160690 17.000000
232.182500 17.000000
243.223600 19.000000
245.191060 154.000000
245.791610 20.000000
246.186340 20.000000
246.201680 86.000000
255.083470 22.000000
255.214190 21.000000
257.058290 24.000000
257.192840 24.000000
259.200810 60.000000
260.223850 17.000000
261.224210 18.000000
269.063080 32.000000
269.228670 18.000000
271.207310 19.000000
272.204680 25.000000
273.189210 20.000000
273.225280 40.000000
287.076290 17.000000
291.118260 18.000000
293.220210 21.000000
295.243650 23.000000
299.239110 18.000000
305.081150 64.000000
306.099880 41.000000
310.125850 18.000000
311.105900 20.000000
313.229250 23.000000
321.083160 21.000000
323.091710 21.000000
323.105070 29.000000
324.107570 38.000000
325.245270 20.000000
339.090180 66.000000
352.183810 17.000000
365.290310 18.000000
366.204410 20.000000
381.310390 17.000000
381.327360 38.000000
382.268620 18.000000
382.318970 18.000000
404.331910 20.000000
404.352450 19.000000
404.636410 28.000000
406.322020 19.000000
409.337520 18.000000
421.298950 43.000000
421.347470 420.000000
421.370820 46.000000
422.341000 44.000000
422.355010 56.000000
423.353270 53.000000
423.377080 18.000000
430.058380 18.000000
439.101840 39.000000
439.259580 21.000000
439.328490 80.000000
439.355010 976.000000
439.380370 173.000000
440.356870 229.000000
440.378690 158.000000
441.330290 17.000000
441.364070 37.000000
443.589900 24.000000
451.352110 18.000000
457.364560 109.000000
458.368040 88.000000
458.390530 34.000000
485.139280 21.000000
485.159850 20.000000
529.304750 18.000000
545.362850 22.000000
550.297610 26.000000
567.403260 18.000000
579.361390 18.000000
586.449710 17.000000
588.624330 25.000000
597.343990 29.000000
597.377080 203.000000
597.393130 225.000000
598.388920 228.000000
599.369870 20.000000
603.402040 33.000000
603.440250 49.000000
615.365360 17.000000
615.403560 97.000000
616.396120 105.000000
616.408810 44.000000
617.387020 37.000000
622.446590 17.000000
633.352780 19.000000
633.396420 122.000000
633.418210 34.000000
634.393490 21.000000
634.422850 18.000000
635.391420 24.000000
635.409120 17.000000
650.452940 20.000000
671.944210 27.000000
725.432070 18.000000
761.434450 17.000000
762.451050 20.000000
763.427370 18.000000
763.451840 22.000000
767.451170 20.000000
779.436160 20.000000
779.482300 24.000000
780.441770 35.000000
780.463750 21.000000
780.496340 17.000000
795.456480 293.000000
796.428160 23.000000
796.486150 96.000000
797.451970 21.000000
797.475160 17.000000
836.395630 18.000000
845.716370 28.000000
850.031860 20.000000
941.370670 23.000000
941.513730 2333.000000

