>compound PR21541172
>parentmass 575.2235364
>ionization [M+H]+
>formula C28H34N2O11
>rt 247.953000
>profile qtof
#smiles_iso COC(=O)C1=CO[C@H]([C@@H]([C@@H]1C[C@H]2C3=C(C[C@H](N2)C(=O)O)C4=CC=CC=C4N3)C=C)O[C@H]5[C@@H]([C@H]([C@@H]([C@H](O5)CO)O)O)O
#smiles_can COC(=O)C1=COC(C(C1CC2C3=C(CC(N2)C(=O)O)C4=CC=CC=C4N3)C=C)OC5C(C(C(C(O5)CO)O)O)O
#inchikey LHKZIVMTXZLOTP-RMKGEEGASA-N
#pubchem_id 10483216
#mb_accession PR300240,PR300245,PR300250,PR300255,PR300260,PR300265,PR300270,PR300275,PR300280,PR300285,PR300290,PR300295

>ms2
130.065280 15.000000
139.039490 6.000000
144.080640 36.000000
146.061870 14.000000
158.096600 9.000000
165.053700 41.000000
168.080700 22.000000
169.078600 19.000000
188.071010 106.000000
189.074710 15.000000
200.068510 13.000000
201.077850 5.000000
210.088610 5.000000
214.088410 20.000000
215.083390 20.000000
217.095840 10.000000
230.099040 5.000000
231.111110 14.000000
238.087050 24.000000
239.093320 10.000000
248.068510 11.000000
250.079730 8.000000
265.097470 9.000000
266.097470 6.000000
270.112580 8.000000
272.104460 9.000000
280.136960 6.000000
290.111790 8.000000
290.122590 7.000000
293.095920 7.000000
293.129790 19.000000
295.085780 9.000000
308.123990 15.000000
311.104430 36.000000
312.106600 8.000000
318.099090 6.000000
318.111820 7.000000
322.142400 19.000000
325.117740 6.000000
326.116550 8.000000
327.112150 15.000000
328.106750 6.000000
335.140110 35.000000
340.155210 24.000000
341.149720 6.000000
341.164310 6.000000
343.129270 59.000000
344.128450 14.000000
346.110230 14.000000
363.132600 17.000000
364.117650 11.000000
364.132970 10.000000
378.136570 27.000000
378.150050 8.000000
379.139770 6.000000
381.147220 41.000000
382.151730 9.000000
395.161130 76.000000
396.147640 110.000000
397.146760 30.000000
398.156430 6.000000
413.170170 191.000000
414.174560 58.000000
415.169650 7.000000
558.201420 43.000000
559.205140 14.000000
575.146790 9.000000
575.223630 1000.000000
575.293700 17.000000

>ms2
395.159550 6.000000
413.169860 34.000000
414.171600 7.000000
575.159730 7.000000
575.224180 1000.000000
575.294490 18.000000

>ms2
74.022410 5.000000
85.027380 38.000000
86.032880 9.000000
87.039930 8.000000
87.047380 11.000000
97.026690 31.000000
97.034020 5.000000
106.066220 6.000000
107.048220 22.000000
108.050250 5.000000
109.028170 13.000000
123.049260 15.000000
124.045300 8.000000
126.053040 7.000000
126.058570 6.000000
127.040160 46.000000
128.038350 12.000000
130.064000 146.000000
132.076080 11.000000
132.085940 8.000000
139.036910 70.000000
139.042920 21.000000
140.045200 7.000000
140.076030 6.000000
144.081100 186.000000
145.030440 8.000000
145.047590 35.000000
145.085070 35.000000
146.052410 14.000000
146.061250 50.000000
147.065410 10.000000
149.060930 10.000000
150.059330 11.000000
151.036540 35.000000
153.056790 7.000000
154.068760 7.000000
156.078690 34.000000
156.086790 14.000000
158.059830 6.000000
158.096600 75.000000
159.031010 6.000000
159.043670 23.000000
159.090010 9.000000
159.097320 7.000000
163.046330 6.000000
164.696460 5.000000
165.053990 322.000000
166.051650 26.000000
166.061140 9.000000
166.086760 7.000000
167.069400 35.000000
168.082640 23.000000
169.076200 87.000000
169.088090 10.000000
170.064150 19.000000
170.081820 11.000000
170.095200 16.000000
171.093380 5.000000
174.057970 8.000000
174.105470 10.000000
175.040530 10.000000
176.066250 9.000000
176.074450 14.000000
177.038910 13.000000
177.057220 31.000000
179.060470 6.000000
179.072950 5.000000
180.078610 37.000000
180.095140 14.000000
181.080760 6.000000
182.023610 7.000000
182.093930 8.000000
183.066670 24.000000
184.068600 10.000000
184.105480 7.000000
186.057660 9.000000
186.089430 8.000000
188.018740 8.000000
188.036910 14.000000
188.070360 1000.000000
189.058590 11.000000
189.074050 131.000000
191.060940 11.000000
191.071180 13.000000
192.071200 8.000000
194.070650 14.000000
194.089020 7.000000
196.077330 15.000000
198.047420 6.000000
198.130950 6.000000
200.069850 178.000000
201.071690 17.000000
202.089020 39.000000
203.082180 14.000000
204.082470 5.000000
205.089420 13.000000
205.101100 6.000000
206.092500 5.000000
206.104170 6.000000
208.078250 29.000000
208.095690 37.000000
208.113630 13.000000
209.075820 19.000000
209.084820 5.000000
210.077360 5.000000
210.092250 23.000000
210.100540 10.000000
212.071550 7.000000
214.086470 142.000000
215.080350 136.000000
215.089800 39.000000
216.072650 13.000000
216.082810 25.000000
216.098010 13.000000
217.095370 55.000000
218.053860 13.000000
218.083220 9.000000
218.097630 10.000000
218.108000 6.000000
219.041150 6.000000
219.104220 6.000000
220.087780 10.000000
220.107420 23.000000
220.122360 7.000000
221.116460 5.000000
222.079670 9.000000
222.096890 6.000000
222.126330 6.000000
224.065440 29.000000
224.080930 6.000000
224.106700 5.000000
225.075700 16.000000
226.076570 6.000000
226.101210 52.000000
226.113330 33.000000
227.115620 8.000000
231.081760 8.000000
231.095490 9.000000
231.115770 128.000000
232.061680 6.000000
232.109800 10.000000
232.122710 8.000000
234.075500 16.000000
234.091550 7.000000
234.127110 16.000000
235.066480 9.000000
236.069180 23.000000
238.087310 141.000000
238.105070 11.000000
238.126890 29.000000
239.021180 6.000000
239.086850 42.000000
239.105150 5.000000
239.116930 7.000000
240.107300 29.000000
241.099730 25.000000
244.095630 6.000000
244.116030 10.000000
245.124800 6.000000
247.061330 10.000000
247.088070 8.000000
247.115260 7.000000
248.066800 79.000000
248.107910 19.000000
249.067670 29.000000
249.085310 10.000000
250.077900 24.000000
250.094920 22.000000
250.364530 6.000000
251.058090 7.000000
251.085630 7.000000
252.103410 55.000000
253.101360 9.000000
254.091350 8.000000
254.099410 18.000000
254.117290 5.000000
254.127530 8.000000
255.088590 6.000000
255.108150 9.000000
256.098630 13.000000
256.884190 5.000000
258.086610 7.000000
258.100520 5.000000
259.105590 7.000000
260.106080 16.000000
262.120540 67.000000
263.083590 11.000000
263.127380 6.000000
264.088500 9.000000
264.102290 22.000000
264.141270 13.000000
265.073000 8.000000
265.098630 125.000000
265.116850 7.000000
265.135280 8.000000
266.081820 8.000000
266.094790 29.000000
266.111790 6.000000
266.123200 17.000000
267.060760 6.000000
267.100040 14.000000
267.123630 10.000000
268.103490 15.000000
268.111270 6.000000
269.092860 10.000000
269.104680 6.000000
270.109530 93.000000
272.075870 6.000000
272.104640 47.000000
272.114620 22.000000
273.083100 6.000000
273.108280 14.000000
274.083860 8.000000
274.110110 9.000000
274.119900 10.000000
274.134740 11.000000
275.087490 11.000000
276.063720 16.000000
276.096890 10.000000
276.110440 20.000000
277.090610 7.000000
279.091130 7.000000
279.120360 12.000000
280.097720 21.000000
280.130340 53.000000
280.932400 5.000000
281.088170 5.000000
281.106290 7.000000
281.130740 8.000000
282.075130 11.000000
282.093780 12.000000
282.105930 17.000000
283.097020 5.000000
283.117980 14.000000
283.142270 8.000000
284.079010 11.000000
284.111570 23.000000
286.070560 6.000000
286.090240 7.000000
288.110350 5.000000
289.106990 17.000000
289.114410 7.000000
289.130830 7.000000
290.095460 7.000000
290.119020 149.000000
291.117830 32.000000
292.082150 6.000000
292.106780 5.000000
292.130890 10.000000
293.074010 11.000000
293.088500 13.000000
293.107940 33.000000
293.123720 65.000000
293.135830 68.000000
294.052280 8.000000
294.068760 24.000000
294.083470 23.000000
294.097110 21.000000
294.119810 36.000000
294.138520 21.000000
294.158330 11.000000
295.075990 58.000000
295.088530 75.000000
295.146760 18.000000
296.085970 34.000000
296.103300 5.000000
298.105320 17.000000
299.106410 16.000000
299.129760 6.000000
300.073760 7.000000
300.100280 81.000000
300.113920 33.000000
301.095520 6.000000
301.107540 15.000000
302.098570 9.000000
302.114440 5.000000
304.096100 26.000000
304.134490 13.000000
306.083590 5.000000
306.104740 8.000000
306.119780 9.000000
307.128810 7.000000
307.142820 23.000000
308.092440 14.000000
308.129670 127.000000
309.092290 10.000000
309.105830 27.000000
309.122500 19.000000
309.136900 22.000000
310.101440 6.000000
310.116240 9.000000
310.135190 6.000000
311.049130 6.000000
311.065430 6.000000
311.102330 311.000000
311.136050 18.000000
312.096620 22.000000
312.107030 47.000000
312.122380 10.000000
313.098110 5.000000
313.119540 14.000000
314.121090 13.000000
317.128510 50.000000
318.066930 9.000000
318.109860 72.000000
318.123810 15.000000
319.105740 17.000000
319.121860 11.000000
319.142940 13.000000
320.131560 24.000000
321.131230 6.000000
322.119320 19.000000
322.145450 125.000000
323.137180 27.000000
323.152440 17.000000
325.115600 36.000000
325.130740 12.000000
326.095730 74.000000
326.111880 40.000000
327.110050 97.000000
327.134520 16.000000
328.088500 10.000000
328.103450 31.000000
328.140960 10.000000
329.107700 14.000000
332.117550 14.000000
335.138730 320.000000
336.122680 55.000000
336.151890 42.000000
337.132170 5.000000
337.150510 7.000000
338.143490 31.000000
339.138730 9.000000
340.152860 136.000000
340.163180 43.000000
341.149780 29.000000
341.169220 6.000000
342.152980 8.000000
343.057920 6.000000
343.103180 17.000000
343.127040 190.000000
344.124050 23.000000
344.142640 17.000000
345.127040 17.000000
346.105740 126.000000
346.123930 17.000000
347.112980 24.000000
349.135590 8.000000
350.136630 27.000000
350.146240 14.000000
351.175780 20.000000
353.129940 7.000000
353.148100 6.000000
353.158510 10.000000
360.125820 20.000000
363.134280 110.000000
364.095950 19.000000
364.113680 74.000000
364.128750 42.000000
364.157650 8.000000
365.114560 14.000000
365.129150 23.000000
365.145260 11.000000
365.652560 6.000000
366.116390 11.000000
367.166140 18.000000
367.181270 13.000000
377.145900 14.000000
378.096440 8.000000
378.123660 78.000000
378.136200 230.000000
379.136350 60.000000
379.153590 12.000000
380.137210 12.000000
381.143890 140.000000
382.149290 20.000000
395.161470 331.000000
396.085630 9.000000
396.107030 24.000000
396.145750 709.000000
397.110410 10.000000
397.138550 103.000000
397.156040 104.000000
398.136510 8.000000
398.156340 13.000000
402.132020 6.000000
413.114140 8.000000
413.168000 181.000000
414.141050 17.000000
414.158750 21.000000
414.180110 58.000000
415.162080 7.000000
434.171910 6.000000
455.149690 5.000000
456.176910 9.000000
474.140440 6.000000
494.183530 9.000000
531.770450 6.000000
558.197810 101.000000
559.189700 35.000000
559.221740 11.000000
560.209780 9.000000
575.217590 19.000000
575.237300 11.000000

>ms2
55.006030 10.000000
55.012710 11.000000
61.029060 33.000000
66.048280 9.000000
67.053890 10.000000
68.050250 5.000000
68.995860 6.000000
69.022430 17.000000
69.029440 21.000000
69.032780 47.000000
73.024990 7.000000
74.019260 8.000000
74.024290 11.000000
76.891460 5.000000
77.044560 10.000000
79.040910 7.000000
79.053480 21.000000
81.030030 13.000000
81.033840 38.000000
82.937710 5.000000
83.014250 19.000000
83.050250 7.000000
84.044760 15.000000
85.026990 186.000000
86.026280 7.000000
86.034340 19.000000
86.165890 6.000000
87.041710 8.000000
88.044140 10.000000
89.047170 6.000000
91.052320 24.000000
93.029850 15.000000
93.061840 6.000000
93.067140 10.000000
93.245180 6.000000
94.044740 14.000000
94.984090 8.000000
95.035320 10.000000
95.046970 61.000000
95.783740 6.000000
97.006940 10.000000
97.027850 123.000000
98.025950 8.000000
98.030390 10.000000
98.035540 8.000000
99.043520 43.000000
99.049530 13.000000
103.053500 45.000000
105.028250 15.000000
105.063020 7.000000
106.065900 17.000000
107.036610 11.000000
107.049160 49.000000
108.049520 24.000000
108.078800 15.000000
108.999790 8.000000
109.027160 70.000000
109.062580 16.000000
109.071270 8.000000
109.922400 5.000000
112.053050 7.000000
113.058820 6.000000
114.053170 5.000000
115.020980 5.000000
115.029730 6.000000
115.037400 11.000000
115.050250 15.000000
115.970210 6.000000
117.053500 11.000000
117.058810 11.000000
118.062450 192.000000
118.074420 16.000000
119.047550 28.000000
119.062660 5.000000
119.084020 6.000000
120.046510 7.000000
121.036010 6.000000
121.063570 42.000000
121.731640 6.000000
123.043510 82.000000
123.050380 21.000000
123.078060 6.000000
125.026270 11.000000
125.051400 8.000000
125.597920 7.000000
127.004970 6.000000
127.040020 54.000000
128.055280 8.000000
129.028150 8.000000
129.069460 48.000000
130.040280 7.000000
130.064060 507.000000
130.855970 5.000000
131.046230 57.000000
131.065400 44.000000
131.073840 9.000000
132.040920 5.000000
132.047760 9.000000
132.073730 6.000000
132.081990 28.000000
133.025680 30.000000
133.031720 27.000000
133.049220 6.000000
133.061650 18.000000
133.075130 9.000000
135.042850 60.000000
135.053050 6.000000
136.078770 9.000000
137.055020 15.000000
137.059830 31.000000
138.046980 7.000000
138.057160 5.000000
138.089900 11.000000
139.032170 16.000000
139.042010 47.000000
139.097560 7.000000
141.075940 6.000000
142.050340 9.000000
142.066830 14.000000
143.065720 32.000000
143.077420 40.000000
143.126330 7.000000
144.042180 9.000000
144.080840 821.000000
144.666350 7.000000
144.717160 7.000000
145.048490 54.000000
145.057800 18.000000
145.076610 30.000000
145.087400 47.000000
145.530430 8.000000
145.959980 7.000000
146.022540 8.000000
146.030360 6.000000
146.058500 1000.000000
146.094740 6.000000
147.046110 6.000000
147.056960 64.000000
147.067060 41.000000
148.039340 22.000000
148.055740 6.000000
148.068540 12.000000
148.080610 23.000000
148.229680 11.000000
149.026280 34.000000
149.064610 21.000000
149.077820 6.000000
149.372960 6.000000
149.462860 5.000000
150.033020 8.000000
150.052280 12.000000
150.907120 10.000000
150.970370 11.000000
151.017290 5.000000
151.037950 73.000000
151.046130 22.000000
151.056870 6.000000
151.975070 7.000000
152.045610 6.000000
152.069270 14.000000
152.126460 5.000000
153.050700 5.000000
153.062100 14.000000
153.669650 6.000000
154.037920 5.000000
154.062520 212.000000
154.195690 13.000000
155.046940 26.000000
155.073000 34.000000
155.611500 7.000000
156.047160 8.000000
156.079160 139.000000
157.063600 10.000000
157.075620 9.000000
157.086030 35.000000
158.057430 28.000000
158.063510 21.000000
158.077480 16.000000
158.092850 251.000000
158.099780 119.000000
159.039980 64.000000
159.050380 16.000000
159.076340 8.000000
159.097690 24.000000
160.039180 7.000000
160.050990 10.000000
160.075270 49.000000
160.086670 12.000000
160.107800 10.000000
161.184170 6.000000
164.067730 5.000000
164.075270 9.000000
165.025630 12.000000
165.039110 32.000000
165.053790 589.000000
165.076490 6.000000
166.042360 6.000000
166.054750 48.000000
166.060880 83.000000
166.080230 24.000000
166.092000 6.000000
166.993700 7.000000
167.068470 240.000000
167.077650 50.000000
167.225360 7.000000
167.593340 6.000000
167.871380 7.000000
168.080520 937.000000
168.162110 8.000000
169.042630 12.000000
169.056210 15.000000
169.076250 590.000000
170.006270 6.000000
170.044270 6.000000
170.059490 161.000000
170.082260 80.000000
170.095630 23.000000
170.103160 20.000000
170.220760 6.000000
170.471680 5.000000
171.059910 9.000000
171.069060 8.000000
171.079030 15.000000
171.094880 34.000000
171.480320 6.000000
172.077130 15.000000
172.111340 13.000000
172.709880 8.000000
173.019360 11.000000
173.056900 8.000000
173.073790 5.000000
174.065350 8.000000
175.046300 7.000000
175.059400 9.000000
175.082470 5.000000
176.031400 5.000000
176.068600 16.000000
176.078570 10.000000
176.701830 7.000000
176.860370 9.000000
177.037280 5.000000
177.053920 19.000000
178.046010 20.000000
178.067320 7.000000
178.077450 6.000000
179.082780 15.000000
180.080570 348.000000
180.786320 7.000000
181.083330 138.000000
182.061840 34.000000
182.073650 34.000000
182.095200 614.000000
183.063540 40.000000
183.080050 19.000000
183.096660 124.000000
183.105640 27.000000
184.069810 33.000000
184.079410 13.000000
184.109700 13.000000
185.028410 5.000000
185.066270 27.000000
185.105470 10.000000
185.438630 5.000000
185.504150 5.000000
186.090150 14.000000
186.123140 7.000000
186.710690 7.000000
187.058670 7.000000
187.365650 5.000000
187.966260 5.000000
188.027190 9.000000
188.070570 573.000000
189.050080 6.000000
189.064730 25.000000
189.078380 23.000000
189.475170 6.000000
190.063350 5.000000
190.076840 9.000000
190.086010 9.000000
190.102860 5.000000
191.052630 6.000000
191.064000 21.000000
191.071620 76.000000
192.080700 137.000000
192.089660 38.000000
192.736860 6.000000
193.086120 109.000000
193.100600 17.000000
194.051180 7.000000
194.062100 13.000000
194.073930 11.000000
194.092220 124.000000
194.103820 64.000000
194.130330 5.000000
195.053040 6.000000
195.061400 5.000000
195.073670 19.000000
195.084460 12.000000
195.093720 21.000000
195.106000 10.000000
195.997990 8.000000
196.060500 19.000000
196.069980 28.000000
196.079790 68.000000
196.106720 26.000000
197.047230 8.000000
197.073000 33.000000
197.089900 26.000000
197.105270 17.000000
197.113690 7.000000
197.797560 7.000000
198.050810 6.000000
198.081310 8.000000
198.091980 6.000000
198.099620 8.000000
198.119890 5.000000
198.691160 9.000000
200.069950 193.000000
201.060180 7.000000
201.072140 11.000000
201.080920 17.000000
202.053630 10.000000
202.080660 15.000000
202.088970 10.000000
203.074420 25.000000
203.090300 8.000000
204.055910 8.000000
204.079640 125.000000
205.080870 77.000000
205.090670 50.000000
205.104400 7.000000
206.054030 17.000000
206.079280 13.000000
206.092740 93.000000
206.100220 41.000000
207.050350 12.000000
207.059620 9.000000
207.079270 16.000000
207.099880 58.000000
208.054580 6.000000
208.071370 133.000000
208.087890 33.000000
208.093860 20.000000
208.112380 67.000000
209.071430 9.000000
209.087330 43.000000
209.110380 12.000000
210.039570 26.000000
210.065280 21.000000
210.090670 312.000000
210.116500 21.000000
210.128680 15.000000
211.063980 11.000000
211.089390 39.000000
211.228160 5.000000
212.076280 24.000000
212.108520 9.000000
213.068510 21.000000
213.081440 28.000000
213.291200 7.000000
214.086320 59.000000
214.787990 5.000000
215.083630 146.000000
216.047010 12.000000
216.073100 49.000000
216.090550 15.000000
216.981980 6.000000
217.042110 7.000000
217.069460 8.000000
217.078840 12.000000
217.089520 47.000000
217.099380 40.000000
218.034740 7.000000
218.087840 30.000000
218.096560 63.000000
219.031190 8.000000
219.057480 11.000000
219.084270 29.000000
219.103880 82.000000
219.112170 27.000000
220.054310 33.000000
220.074430 142.000000
220.086620 70.000000
220.114350 197.000000
221.027730 7.000000
221.058260 6.000000
221.082660 158.000000
221.105440 62.000000
221.119020 53.000000
222.051730 21.000000
222.085360 77.000000
222.093980 176.000000
222.118530 28.000000
223.055950 11.000000
223.073670 8.000000
223.088760 33.000000
223.103270 34.000000
223.121340 18.000000
224.060270 31.000000
224.069580 83.000000
224.080050 38.000000
224.095250 23.000000
224.111710 7.000000
224.536830 6.000000
225.071750 65.000000
225.093870 19.000000
225.121700 8.000000
225.129060 8.000000
226.083370 29.000000
226.110610 8.000000
227.081940 13.000000
227.745500 11.000000
228.075290 6.000000
228.086030 5.000000
228.097630 7.000000
229.084760 17.000000
229.100980 10.000000
230.043240 6.000000
230.094240 97.000000
230.105090 19.000000
231.059560 8.000000
231.091600 15.000000
231.104600 67.000000
231.119160 11.000000
232.043580 9.000000
232.064560 15.000000
232.076370 71.000000
232.113010 92.000000
233.055530 8.000000
233.078450 32.000000
233.097030 13.000000
233.106140 19.000000
233.115520 32.000000
233.390270 6.000000
234.081180 19.000000
234.090090 32.000000
234.125180 86.000000
234.135070 33.000000
235.058870 18.000000
235.070800 37.000000
235.084210 7.000000
235.117830 10.000000
235.132860 27.000000
235.924680 7.000000
236.064060 47.000000
236.073390 69.000000
236.101820 17.000000
236.116300 6.000000
236.144610 5.000000
236.152470 6.000000
237.073430 40.000000
237.091370 31.000000
237.105880 34.000000
238.037690 8.000000
238.086410 428.000000
238.114010 7.000000
238.124650 10.000000
238.201570 5.000000
239.025700 8.000000
239.077650 45.000000
239.090700 88.000000
239.107390 10.000000
239.132080 9.000000
240.042450 7.000000
240.075990 14.000000
240.096830 17.000000
240.119810 9.000000
241.086610 34.000000
241.106430 6.000000
241.117370 15.000000
242.077270 6.000000
242.104140 20.000000
243.098040 42.000000
244.075840 19.000000
244.106950 116.000000
244.119460 104.000000
244.255890 6.000000
245.071870 5.000000
245.085560 7.000000
245.108580 63.000000
245.126860 7.000000
246.037260 6.000000
246.045900 10.000000
246.059910 8.000000
246.079650 18.000000
246.089070 31.000000
246.102010 16.000000
246.113010 10.000000
247.039780 13.000000
247.080700 36.000000
247.091670 13.000000
247.106830 23.000000
247.126560 41.000000
248.038150 12.000000
248.066130 207.000000
248.077670 127.000000
248.106670 102.000000
248.128720 17.000000
249.074360 61.000000
249.097840 12.000000
249.106540 14.000000
249.116270 14.000000
249.142520 12.000000
250.053560 22.000000
250.078430 73.000000
250.087600 293.000000
250.122960 33.000000
251.072240 21.000000
251.088810 20.000000
251.104610 25.000000
251.118900 5.000000
252.090900 47.000000
252.107800 12.000000
252.532150 6.000000
253.044340 10.000000
253.079790 6.000000
253.124400 10.000000
254.086840 62.000000
254.109020 42.000000
255.080690 7.000000
255.099320 28.000000
255.109510 25.000000
255.705470 6.000000
256.075260 9.000000
256.096770 21.000000
256.107060 17.000000
257.076720 30.000000
257.086730 20.000000
257.099210 13.000000
258.065950 6.000000
258.075470 10.000000
258.098050 37.000000
258.116120 8.000000
259.066160 6.000000
259.085020 9.000000
259.106110 32.000000
260.068240 12.000000
260.098180 29.000000
260.109160 15.000000
261.058840 9.000000
261.085080 10.000000
261.105900 15.000000
261.124600 8.000000
262.066190 6.000000
262.085300 27.000000
262.100280 7.000000
262.120910 120.000000
263.081270 43.000000
263.096440 21.000000
263.119350 20.000000
264.057160 16.000000
264.070280 8.000000
264.085450 24.000000
264.110660 36.000000
264.143950 12.000000
265.085910 38.000000
265.098510 190.000000
265.108370 64.000000
265.135190 16.000000
266.001800 8.000000
266.051910 25.000000
266.080900 87.000000
266.107060 57.000000
266.116210 19.000000
267.082670 33.000000
267.119080 6.000000
267.132290 7.000000
269.066070 6.000000
269.075590 7.000000
269.088040 6.000000
269.105710 12.000000
269.713650 6.000000
270.090640 22.000000
270.103640 22.000000
271.095580 40.000000
271.114320 6.000000
271.131200 6.000000
271.991390 6.000000
272.072690 10.000000
272.102020 115.000000
272.114990 72.000000
272.130520 15.000000
272.632630 6.000000
273.067660 19.000000
273.099700 25.000000
273.113070 29.000000
273.125150 14.000000
273.138550 6.000000
273.453340 8.000000
274.093110 12.000000
274.114350 22.000000
274.127690 9.000000
275.081330 13.000000
275.101320 42.000000
275.111910 15.000000
276.069370 24.000000
276.097560 65.000000
276.838260 5.000000
277.067720 20.000000
278.074400 19.000000
278.096710 6.000000
278.128810 27.000000
278.235110 10.000000
279.109280 7.000000
279.125790 6.000000
280.103970 11.000000
280.146910 6.000000
281.092290 8.000000
282.087740 51.000000
282.958190 6.000000
283.082150 6.000000
283.094880 11.000000
283.107640 26.000000
284.099980 8.000000
284.109830 15.000000
285.085910 9.000000
285.107730 11.000000
285.118680 15.000000
286.061040 9.000000
286.085850 31.000000
287.076050 6.000000
287.096280 22.000000
288.081670 6.000000
288.104030 5.000000
288.596280 5.000000
289.059390 19.000000
289.097380 7.000000
289.125270 22.000000
290.097410 17.000000
290.112340 28.000000
290.127140 13.000000
291.126370 30.000000
292.132170 5.000000
293.108030 30.000000
294.069700 17.000000
294.087070 6.000000
294.102230 8.000000
294.125550 8.000000
295.067080 19.000000
295.080230 11.000000
295.094330 20.000000
298.072630 6.000000
298.109740 6.000000
298.964630 5.000000
299.106900 6.000000
300.093780 23.000000
300.108030 35.000000
300.121890 8.000000
301.187740 9.000000
302.066650 8.000000
302.089870 14.000000
302.123780 6.000000
303.108670 21.000000
304.085570 10.000000
304.109530 5.000000
304.124510 8.000000
304.145390 5.000000
307.141110 8.000000
308.093140 7.000000
308.111150 9.000000
308.125060 19.000000
308.139680 6.000000
309.083250 15.000000
310.086730 10.000000
314.087490 6.000000
316.146910 7.000000
317.094180 7.000000
317.126400 14.000000
317.145110 6.000000
318.078770 17.000000
318.098080 15.000000
318.107880 18.000000
318.125400 11.000000
319.119570 5.000000
319.146790 9.000000
321.114990 7.000000
322.150970 14.000000
323.127410 12.000000
325.119020 15.000000
326.099030 7.000000
328.089940 12.000000
329.094450 8.000000
332.123630 7.000000
332.145840 6.000000
333.123840 6.000000
340.156370 10.000000
343.125490 7.000000
358.558470 9.000000
360.118990 7.000000
374.144990 6.000000
377.130920 6.000000
392.907650 7.000000
407.353760 6.000000
432.067380 7.000000
444.097170 11.000000
539.091430 13.000000
552.438900 6.000000
575.176700 15.000000
575.236390 8.000000

>ms2
130.057720 6.000000
130.066280 13.000000
139.040800 7.000000
144.081340 25.000000
146.061000 12.000000
156.080200 6.000000
158.096940 11.000000
165.053790 40.000000
168.076710 11.000000
168.086690 5.000000
169.076680 17.000000
188.069780 95.000000
189.073550 11.000000
191.070790 5.000000
200.070600 13.000000
208.097660 6.000000
210.095760 6.000000
214.086820 13.000000
215.081990 25.000000
220.107070 7.000000
221.083740 6.000000
231.112520 16.000000
238.085360 28.000000
248.069240 14.000000
249.074540 8.000000
250.088010 8.000000
265.096500 16.000000
266.083470 5.000000
266.106140 5.000000
270.114560 5.000000
272.111420 8.000000
290.117950 14.000000
291.130860 5.000000
293.090360 5.000000
293.130220 7.000000
294.079190 6.000000
295.076780 8.000000
300.103000 8.000000
302.118500 5.000000
306.118930 7.000000
308.126800 15.000000
311.087100 6.000000
311.104640 18.000000
311.115690 7.000000
312.108700 12.000000
313.117400 6.000000
318.124540 6.000000
322.143590 27.000000
325.118840 8.000000
326.104830 8.000000
327.113070 10.000000
335.139530 22.000000
336.139890 7.000000
340.153750 26.000000
341.155610 9.000000
343.125490 45.000000
343.138060 20.000000
344.133390 12.000000
346.099910 7.000000
346.113590 6.000000
363.133940 14.000000
364.128390 15.000000
378.124690 9.000000
378.136810 26.000000
379.135650 9.000000
381.139740 32.000000
381.154790 17.000000
382.144960 11.000000
395.159300 71.000000
396.146420 94.000000
397.149900 24.000000
413.169130 204.000000
414.173490 65.000000
558.186950 25.000000
558.205080 19.000000
559.193240 9.000000
575.127750 5.000000
575.158390 13.000000
575.224370 1000.000000
575.296570 17.000000

>ms2
343.126500 5.000000
395.161530 7.000000
413.171260 36.000000
414.180270 7.000000
575.157960 7.000000
575.225710 1000.000000
575.296810 20.000000

>ms2
81.033170 14.000000
81.075240 6.000000
85.027840 56.000000
87.043010 8.000000
91.042350 7.000000
97.028760 28.000000
103.041740 9.000000
106.072430 5.000000
107.050390 14.000000
109.025670 15.000000
109.030160 6.000000
115.039580 6.000000
118.063490 10.000000
123.044170 25.000000
124.044370 9.000000
124.074620 9.000000
127.039360 44.000000
130.064990 166.000000
131.074980 7.000000
132.044560 6.000000
132.081390 13.000000
133.085540 12.000000
135.046980 5.000000
136.043660 7.000000
138.057140 6.000000
139.038280 68.000000
140.042760 6.000000
140.063770 5.000000
141.053620 9.000000
144.062480 7.000000
144.080860 221.000000
145.049060 24.000000
145.055880 11.000000
145.070280 7.000000
145.085560 23.000000
146.062560 69.000000
146.087910 7.000000
151.036900 40.000000
151.045410 16.000000
152.039720 6.000000
153.056340 9.000000
154.064760 7.000000
154.479250 5.000000
155.071730 9.000000
156.079640 53.000000
157.085530 13.000000
158.089310 25.000000
158.096760 64.000000
159.042560 29.000000
159.094570 12.000000
160.074050 7.000000
161.055940 9.000000
163.040120 10.000000
164.068530 7.000000
165.023300 7.000000
165.040620 9.000000
165.055740 314.000000
166.057540 43.000000
167.060150 7.000000
167.072910 14.000000
168.080630 67.000000
169.054210 9.000000
169.077290 129.000000
170.058850 6.000000
170.077560 17.000000
170.091290 25.000000
171.074980 5.000000
175.070970 6.000000
176.068450 14.000000
176.374560 5.000000
177.057190 30.000000
180.081040 34.000000
180.105160 13.000000
181.083830 7.000000
182.044820 5.000000
182.095340 24.000000
183.061000 16.000000
183.079270 8.000000
184.075010 8.000000
185.103380 5.000000
185.110720 7.000000
188.054400 21.000000
188.070570 1000.000000
189.054080 7.000000
189.075320 134.000000
190.071590 10.000000
190.083010 12.000000
191.069170 30.000000
193.093870 7.000000
194.076460 6.000000
195.078170 9.000000
195.095020 6.000000
196.075100 7.000000
197.080750 7.000000
197.117660 9.000000
198.072400 6.000000
198.083820 9.000000
200.069380 133.000000
201.075010 23.000000
202.076900 18.000000
202.085750 24.000000
203.088900 9.000000
204.065020 8.000000
204.089040 8.000000
205.094760 30.000000
206.060360 6.000000
206.098570 19.000000
207.074140 5.000000
208.067440 9.000000
208.076140 17.000000
208.097700 31.000000
208.112030 17.000000
209.083340 18.000000
209.100330 10.000000
210.086820 27.000000
210.099470 6.000000
212.068710 8.000000
213.080800 23.000000
214.085890 201.000000
215.057080 5.000000
215.067720 23.000000
215.082780 139.000000
216.068270 5.000000
216.106570 5.000000
217.078800 8.000000
217.097640 48.000000
218.045850 7.000000
218.069890 6.000000
218.089570 9.000000
218.104890 6.000000
219.076890 6.000000
220.074910 6.000000
220.090560 6.000000
220.111770 27.000000
221.072850 7.000000
221.088470 7.000000
221.108440 12.000000
222.108020 10.000000
224.064990 17.000000
224.077900 11.000000
224.091050 5.000000
225.074480 23.000000
225.717760 6.000000
226.080180 16.000000
226.096440 6.000000
226.108410 29.000000
229.089810 10.000000
230.090740 7.000000
231.113190 89.000000
232.105530 11.000000
232.118500 29.000000
234.093200 11.000000
234.123700 19.000000
234.133620 7.000000
235.065890 15.000000
236.075710 16.000000
237.095890 13.000000
238.085190 161.000000
238.113040 16.000000
238.126800 6.000000
239.088390 53.000000
239.103330 8.000000
239.122160 5.000000
239.134490 6.000000
240.101580 9.000000
241.097990 6.000000
242.104570 8.000000
244.114760 61.000000
246.090520 11.000000
246.129200 14.000000
247.119860 10.000000
247.138050 11.000000
248.069170 56.000000
248.081820 32.000000
248.110990 8.000000
249.068450 9.000000
249.082790 13.000000
249.104800 7.000000
250.071850 13.000000
250.086110 12.000000
250.120410 9.000000
251.069790 6.000000
251.080840 13.000000
251.093750 18.000000
252.097730 25.000000
253.106610 7.000000
254.060900 8.000000
254.087430 23.000000
254.098310 7.000000
255.074230 6.000000
256.081910 8.000000
257.082640 7.000000
258.095520 5.000000
259.108670 7.000000
260.110870 9.000000
262.087250 12.000000
262.104580 5.000000
262.122470 55.000000
262.137120 8.000000
263.071290 8.000000
263.086670 13.000000
263.118190 7.000000
264.101350 17.000000
264.138310 26.000000
264.152440 5.000000
265.095860 143.000000
265.112000 17.000000
265.133850 6.000000
265.147800 13.000000
266.081630 17.000000
266.107640 31.000000
266.118960 20.000000
267.081360 9.000000
267.115260 34.000000
268.095090 11.000000
269.117370 5.000000
270.079650 8.000000
270.114260 67.000000
272.089360 12.000000
272.104250 42.000000
272.115330 32.000000
273.094700 5.000000
273.111910 22.000000
273.144680 7.000000
274.087920 13.000000
274.107030 18.000000
274.118040 11.000000
274.131070 5.000000
275.129120 8.000000
276.063420 12.000000
276.105870 34.000000
277.079350 14.000000
278.076140 8.000000
278.095460 9.000000
278.109530 6.000000
279.087830 8.000000
279.121640 5.000000
280.093380 9.000000
280.138980 41.000000
281.099520 13.000000
281.113430 8.000000
282.097500 28.000000
283.087070 6.000000
283.104950 14.000000
286.080350 9.000000
288.113010 7.000000
289.104000 10.000000
289.122070 8.000000
289.141970 7.000000
290.120000 119.000000
290.130680 35.000000
291.107670 13.000000
291.124940 22.000000
291.533230 5.000000
292.103850 13.000000
293.094330 50.000000
293.128720 124.000000
294.059880 6.000000
294.075380 66.000000
294.111420 17.000000
294.135680 55.000000
295.083310 114.000000
295.126890 13.000000
295.142850 9.000000
295.156250 9.000000
296.077970 10.000000
296.096830 17.000000
298.110170 13.000000
299.109130 11.000000
299.137570 6.000000
300.102570 87.000000
301.079250 6.000000
301.101100 30.000000
301.126860 7.000000
302.098600 7.000000
302.123350 13.000000
303.122010 6.000000
304.105040 14.000000
304.117890 11.000000
304.136470 21.000000
305.137330 8.000000
306.099550 7.000000
306.111050 7.000000
307.110020 13.000000
308.115480 55.000000
308.129240 125.000000
309.078430 17.000000
309.104740 21.000000
309.131070 13.000000
310.077330 6.000000
310.134740 7.000000
311.072050 12.000000
311.103060 344.000000
311.144100 28.000000
312.096980 30.000000
312.107570 25.000000
312.118770 21.000000
312.152500 9.000000
313.098420 6.000000
313.111050 23.000000
313.135930 6.000000
317.112180 5.000000
317.133000 42.000000
318.054840 6.000000
318.082000 9.000000
318.110930 74.000000
318.124730 23.000000
319.109250 17.000000
319.120270 13.000000
319.134160 12.000000
319.154880 7.000000
320.124390 21.000000
320.141140 10.000000
321.142430 15.000000
322.141420 184.000000
322.154020 65.000000
323.147920 42.000000
324.119350 6.000000
324.131070 12.000000
324.147490 7.000000
325.103640 12.000000
325.120450 67.000000
326.094020 30.000000
326.109100 84.000000
326.130710 9.000000
327.088470 10.000000
327.110840 49.000000
327.130370 30.000000
328.096370 13.000000
328.112060 24.000000
328.123960 13.000000
329.113460 16.000000
332.119510 13.000000
332.137210 10.000000
335.081270 5.000000
335.138550 281.000000
336.119930 47.000000
336.144260 56.000000
337.131320 17.000000
338.141850 10.000000
340.130950 15.000000
340.156070 143.000000
341.134640 7.000000
341.151090 13.000000
341.164670 13.000000
341.175690 6.000000
342.154050 11.000000
343.076750 7.000000
343.100890 7.000000
343.131440 224.000000
344.114960 9.000000
344.128630 30.000000
344.141820 17.000000
345.126040 17.000000
346.105990 113.000000
347.101680 14.000000
347.112370 25.000000
347.126430 6.000000
348.117250 7.000000
349.143590 5.000000
350.128170 15.000000
350.145540 18.000000
351.149570 16.000000
352.156710 7.000000
353.137910 10.000000
360.119870 28.000000
360.130550 12.000000
361.128810 10.000000
363.098450 5.000000
363.135560 130.000000
364.068760 9.000000
364.102230 28.000000
364.120510 115.000000
364.145450 28.000000
365.122100 46.000000
367.166870 29.000000
368.154240 6.000000
368.174160 9.000000
369.117580 6.000000
369.180150 6.000000
375.127230 5.000000
377.144500 18.000000
377.158020 5.000000
378.092830 9.000000
378.135960 217.000000
379.137050 56.000000
379.152280 12.000000
381.119320 18.000000
381.145510 115.000000
382.122160 10.000000
382.147250 24.000000
382.164460 11.000000
395.124480 7.000000
395.161870 260.000000
396.068820 8.000000
396.091950 16.000000
396.145360 682.000000
396.172240 33.000000
397.148830 242.000000
398.144740 22.000000
398.158200 13.000000
413.140380 22.000000
413.171330 182.000000
413.202580 14.000000
414.172270 38.000000
415.173070 6.000000
455.180510 5.000000
558.159420 6.000000
558.179630 25.000000
558.202760 57.000000
558.228030 10.000000
559.202700 25.000000
575.219240 8.000000
575.240600 23.000000

>ms2
52.837040 6.000000
55.018300 8.000000
59.010820 5.000000
61.028260 18.000000
61.810180 6.000000
69.032310 41.000000
69.040460 8.000000
70.041310 11.000000
71.013530 11.000000
71.046260 11.000000
73.029250 9.000000
74.021830 9.000000
77.039680 21.000000
79.052590 25.000000
79.059820 5.000000
81.024510 7.000000
81.034950 39.000000
83.016650 8.000000
84.042580 12.000000
85.017550 9.000000
85.028780 276.000000
85.058420 6.000000
86.031160 7.000000
87.018450 6.000000
87.039350 9.000000
91.050110 6.000000
91.059920 25.000000
93.071070 9.000000
94.045130 9.000000
95.049420 72.000000
95.060050 10.000000
97.013300 7.000000
97.030000 190.000000
97.056490 10.000000
99.036840 13.000000
99.043590 32.000000
99.050970 17.000000
99.990190 5.000000
101.026550 8.000000
103.038600 26.000000
103.054650 66.000000
105.030750 13.000000
105.038600 16.000000
105.069150 7.000000
106.064340 29.000000
106.073030 13.000000
107.047650 26.000000
107.052850 12.000000
107.573910 5.000000
108.078720 32.000000
109.020830 13.000000
109.029510 71.000000
109.075330 7.000000
110.032420 10.000000
110.072250 30.000000
111.040730 15.000000
115.043210 11.000000
115.058560 8.000000
116.046200 6.000000
117.038700 7.000000
117.050790 12.000000
117.056060 27.000000
117.067360 48.000000
117.121430 10.000000
118.063770 239.000000
118.081510 7.000000
118.466070 8.000000
119.070640 6.000000
121.062030 46.000000
121.072270 8.000000
122.071940 13.000000
123.025380 6.000000
123.044430 67.000000
123.049800 38.000000
124.034990 9.000000
124.044270 6.000000
126.051930 30.000000
126.058090 13.000000
126.264830 6.000000
127.034420 48.000000
127.041350 56.000000
127.050720 13.000000
127.550910 6.000000
128.032320 6.000000
128.044590 9.000000
129.028000 10.000000
129.071580 14.000000
129.865310 10.000000
130.011410 8.000000
130.021850 7.000000
130.038960 9.000000
130.047350 14.000000
130.065550 358.000000
130.864850 11.000000
131.044750 47.000000
131.052990 24.000000
131.071760 48.000000
131.080930 7.000000
132.082210 16.000000
132.092700 9.000000
133.016740 23.000000
133.029910 38.000000
133.061230 10.000000
134.066010 7.000000
135.042560 30.000000
136.034350 5.000000
137.030140 5.000000
137.048770 7.000000
137.055770 19.000000
137.063340 41.000000
138.008450 21.000000
138.063800 8.000000
138.089220 11.000000
138.383240 5.000000
139.019970 10.000000
139.038770 62.000000
139.067090 14.000000
140.044940 7.000000
140.066680 13.000000
140.075870 46.000000
141.080860 21.000000
141.530690 6.000000
142.016850 9.000000
142.046010 11.000000
142.062940 33.000000
142.679610 7.000000
143.051380 6.000000
143.063610 13.000000
143.076000 86.000000
143.624790 7.000000
144.041890 12.000000
144.081790 817.000000
144.983930 6.000000
145.048000 18.000000
145.063770 7.000000
145.083330 119.000000
145.099850 11.000000
145.127010 6.000000
146.040150 7.000000
146.060420 1000.000000
147.040970 21.000000
147.062350 134.000000
147.072660 41.000000
147.945020 5.000000
148.040300 11.000000
148.050510 6.000000
148.069410 15.000000
148.077470 15.000000
148.998660 6.000000
149.018140 6.000000
149.070980 12.000000
149.092940 6.000000
150.056410 11.000000
151.038150 66.000000
151.045760 29.000000
151.995330 6.000000
152.046780 17.000000
152.487700 8.000000
153.051710 6.000000
153.094190 7.000000
153.644470 6.000000
153.989520 6.000000
154.045260 9.000000
154.064790 263.000000
155.049480 15.000000
155.070920 37.000000
155.076980 33.000000
155.088870 12.000000
156.030940 9.000000
156.049560 8.000000
156.067340 26.000000
156.080580 210.000000
157.091260 19.000000
157.101840 6.000000
158.019350 6.000000
158.057020 30.000000
158.070240 12.000000
158.096980 280.000000
159.026780 5.000000
159.036740 17.000000
159.044800 49.000000
159.055650 6.000000
159.095960 38.000000
159.476010 5.000000
160.049290 12.000000
160.058500 18.000000
160.069980 12.000000
160.076550 12.000000
160.108080 6.000000
160.500270 6.000000
161.053920 9.000000
161.566890 5.000000
162.059780 14.000000
163.020900 7.000000
163.038990 7.000000
164.036850 5.000000
164.068730 9.000000
164.074940 11.000000
165.011750 19.000000
165.029220 16.000000
165.054520 806.000000
165.070940 14.000000
165.264250 6.000000
166.063100 63.000000
166.193620 7.000000
167.051970 7.000000
167.071730 284.000000
168.055130 30.000000
168.080920 997.000000
168.671190 5.000000
169.031940 7.000000
169.079830 600.000000
169.117190 12.000000
169.865800 9.000000
170.059360 128.000000
170.079960 70.000000
170.091640 76.000000
170.103440 20.000000
171.066120 5.000000
171.092790 6.000000
171.107450 8.000000
172.061780 30.000000
172.074980 13.000000
172.087140 13.000000
172.631810 6.000000
173.059710 6.000000
173.075840 15.000000
173.089280 7.000000
173.906810 6.000000
174.052230 8.000000
174.089900 7.000000
174.874920 10.000000
175.031460 7.000000
176.034560 10.000000
176.052460 11.000000
176.069120 13.000000
176.078160 13.000000
177.055690 15.000000
177.069120 12.000000
178.051320 7.000000
178.072050 6.000000
178.548320 6.000000
178.953250 6.000000
179.064060 21.000000
179.075940 32.000000
180.078120 207.000000
180.087680 149.000000
181.076490 48.000000
181.087600 49.000000
181.096130 15.000000
181.381180 6.000000
181.428740 8.000000
182.052340 12.000000
182.062210 39.000000
182.074040 18.000000
182.095290 366.000000
182.104780 90.000000
182.971910 6.000000
183.049240 6.000000
183.065840 15.000000
183.074420 23.000000
183.089070 28.000000
183.101870 82.000000
183.117260 17.000000
184.059270 21.000000
184.074490 50.000000
184.097530 12.000000
184.116780 9.000000
184.947110 11.000000
185.079850 7.000000
185.111480 11.000000
186.055160 10.000000
186.079970 11.000000
186.102540 8.000000
187.077790 6.000000
188.021670 13.000000
188.071620 609.000000
189.056150 18.000000
189.077040 54.000000
189.127380 8.000000
190.058670 13.000000
190.076280 9.000000
190.924150 9.000000
191.024600 6.000000
191.071460 31.000000
192.045580 7.000000
192.069500 45.000000
192.080180 101.000000
192.090010 44.000000
193.087330 45.000000
193.097730 8.000000
194.045670 6.000000
194.061660 26.000000
194.080470 34.000000
194.098050 129.000000
195.047580 6.000000
195.054530 6.000000
195.071750 47.000000
195.083080 24.000000
195.101070 73.000000
196.071300 67.000000
196.079360 67.000000
196.093700 8.000000
196.106140 21.000000
197.067690 16.000000
197.077610 15.000000
197.113560 6.000000
198.048230 9.000000
198.056090 8.000000
198.086010 15.000000
199.065770 8.000000
200.048980 6.000000
200.070980 117.000000
200.079350 30.000000
201.071430 12.000000
202.090680 5.000000
203.005070 5.000000
203.072740 16.000000
204.042890 10.000000
204.075680 62.000000
204.085970 106.000000
205.028410 12.000000
205.063430 7.000000
205.080510 73.000000
205.094330 114.000000
206.066890 10.000000
206.080920 31.000000
206.094570 156.000000
206.105000 59.000000
207.066040 13.000000
207.076980 10.000000
207.086240 14.000000
207.100170 14.000000
207.111210 10.000000
208.061510 29.000000
208.079470 149.000000
208.104170 7.000000
208.117020 32.000000
209.058980 5.000000
209.075070 27.000000
209.084630 14.000000
209.110320 19.000000
209.115780 7.000000
210.047880 18.000000
210.066190 7.000000
210.092800 258.000000
210.128600 18.000000
211.094880 75.000000
211.105740 20.000000
212.065580 21.000000
212.112550 11.000000
213.066190 18.000000
213.073610 12.000000
213.086530 38.000000
214.080250 30.000000
214.091740 81.000000
215.035520 14.000000
215.074840 21.000000
215.086320 86.000000
215.191590 8.000000
216.039870 8.000000
216.060640 6.000000
216.080960 58.000000
216.100160 21.000000
217.064960 12.000000
217.088550 55.000000
218.044530 8.000000
218.056370 16.000000
218.065630 5.000000
218.097670 129.000000
219.096440 82.000000
219.106750 35.000000
219.116530 7.000000
219.988800 8.000000
220.054140 14.000000
220.077550 311.000000
220.114350 183.000000
221.057910 16.000000
221.084880 137.000000
221.103070 35.000000
221.119450 22.000000
222.027010 6.000000
222.045120 8.000000
222.068330 9.000000
222.087300 81.000000
222.098330 48.000000
222.118520 19.000000
223.051900 7.000000
223.063810 26.000000
223.094740 44.000000
223.122450 8.000000
224.059940 20.000000
224.070920 112.000000
224.109070 35.000000
224.846710 9.000000
225.064670 7.000000
225.079120 45.000000
225.096440 7.000000
225.107670 13.000000
226.074660 7.000000
226.090450 57.000000
226.114780 10.000000
227.097310 42.000000
228.073380 17.000000
228.107650 9.000000
229.076430 13.000000
229.094350 40.000000
229.117870 9.000000
230.017090 7.000000
230.052370 18.000000
230.089970 73.000000
230.101870 81.000000
230.741620 7.000000
231.086010 8.000000
231.102400 43.000000
231.115650 7.000000
232.077740 26.000000
232.100880 27.000000
232.111710 38.000000
233.074430 17.000000
233.086760 28.000000
233.097820 9.000000
233.116650 16.000000
233.585370 9.000000
234.046110 6.000000
234.064910 6.000000
234.092730 96.000000
234.118610 37.000000
234.131290 77.000000
235.038600 9.000000
235.054930 20.000000
235.061600 50.000000
235.087660 20.000000
235.104920 13.000000
235.126480 11.000000
236.051860 10.000000
236.064700 20.000000
236.076320 27.000000
236.105030 50.000000
236.141650 8.000000
237.078720 16.000000
237.096130 40.000000
237.113370 6.000000
237.930910 6.000000
238.002140 7.000000
238.058620 8.000000
238.078110 133.000000
238.089200 333.000000
238.122220 17.000000
239.080960 54.000000
239.096080 102.000000
239.122190 8.000000
240.076110 6.000000
240.091690 25.000000
240.103260 72.000000
240.113390 18.000000
241.081300 11.000000
241.106960 18.000000
242.087480 7.000000
242.103200 6.000000
242.917740 5.000000
243.076280 7.000000
243.096010 21.000000
243.103410 47.000000
244.068150 6.000000
244.086210 23.000000
244.112240 241.000000
244.133210 14.000000
245.108840 51.000000
245.126070 33.000000
246.025310 7.000000
246.046510 23.000000
246.066710 8.000000
246.088420 36.000000
246.108490 24.000000
246.128450 42.000000
247.058300 25.000000
247.069730 16.000000
247.089140 31.000000
247.108700 23.000000
247.119860 57.000000
247.131970 20.000000
247.272060 7.000000
247.531940 5.000000
247.607540 8.000000
248.071670 303.000000
248.106380 59.000000
248.134050 23.000000
248.471120 6.000000
249.052170 15.000000
249.068240 49.000000
249.078060 84.000000
249.112470 23.000000
249.894180 5.000000
250.054890 14.000000
250.084670 209.000000
250.094090 117.000000
250.121690 14.000000
251.077470 25.000000
251.087940 101.000000
251.105760 27.000000
251.948870 7.000000
252.094910 30.000000
252.105960 49.000000
252.117290 26.000000
252.145540 15.000000
253.087480 12.000000
253.114990 47.000000
253.128070 5.000000
254.083130 30.000000
254.102770 60.000000
254.117840 11.000000
255.069490 7.000000
255.097240 11.000000
255.109770 21.000000
255.159470 8.000000
256.069060 10.000000
256.089230 6.000000
256.101990 15.000000
256.112880 18.000000
256.126280 12.000000
257.085750 43.000000
257.097470 18.000000
258.067870 11.000000
258.094020 60.000000
258.116550 18.000000
259.034150 6.000000
259.074650 5.000000
259.099030 70.000000
260.050870 11.000000
260.077850 7.000000
260.107850 46.000000
261.071620 13.000000
261.087650 17.000000
261.114650 23.000000
261.124080 31.000000
262.066890 16.000000
262.086850 16.000000
262.102290 33.000000
262.129670 71.000000
263.076870 100.000000
263.089290 55.000000
263.100740 40.000000
263.124050 58.000000
263.167270 9.000000
264.101870 14.000000
264.140960 14.000000
265.063960 18.000000
265.086610 41.000000
265.097870 107.000000
265.107030 126.000000
265.961820 8.000000
266.081300 191.000000
266.106810 12.000000
267.090210 47.000000
267.256040 8.000000
267.847660 5.000000
267.932100 8.000000
268.118160 16.000000
270.078890 9.000000
270.097810 25.000000
270.115480 6.000000
271.095460 29.000000
271.108000 46.000000
271.122220 17.000000
272.054570 6.000000
272.076230 29.000000
272.110900 132.000000
273.098300 13.000000
273.108280 41.000000
273.132840 30.000000
274.080870 11.000000
274.103420 40.000000
274.126620 32.000000
275.082890 12.000000
275.098210 22.000000
275.122440 18.000000
276.070040 29.000000
276.092380 21.000000
276.100190 55.000000
276.113430 22.000000
276.123350 7.000000
276.143590 8.000000
277.067990 16.000000
277.094330 7.000000
278.087520 44.000000
278.108640 8.000000
279.120850 13.000000
280.088620 24.000000
280.106050 10.000000
280.138210 13.000000
281.091490 8.000000
281.123500 6.000000
282.097170 18.000000
282.118230 5.000000
282.585880 5.000000
283.016820 13.000000
283.097350 53.000000
284.061710 5.000000
284.095430 23.000000
284.114110 7.000000
284.140840 9.000000
285.083310 24.000000
285.111760 13.000000
285.124050 7.000000
285.239870 6.000000
285.368160 6.000000
285.445740 7.000000
286.071750 8.000000
286.088780 45.000000
286.098300 20.000000
286.854310 13.000000
288.064210 8.000000
288.093960 11.000000
288.106540 13.000000
289.139830 10.000000
289.740480 8.000000
290.117520 92.000000
290.138000 14.000000
291.084900 5.000000
291.103210 12.000000
291.119840 23.000000
291.304720 9.000000
293.085210 26.000000
293.110470 30.000000
293.130000 12.000000
294.070340 11.000000
294.088010 29.000000
294.146120 9.000000
295.093960 40.000000
295.133940 6.000000
296.068700 5.000000
296.092290 12.000000
296.670780 10.000000
298.078280 8.000000
299.087800 8.000000
299.098240 8.000000
300.051120 8.000000
300.098600 25.000000
300.110380 22.000000
300.121150 12.000000
300.337370 8.000000
301.085720 8.000000
301.102750 7.000000
301.120940 17.000000
301.708620 7.000000
302.078250 6.000000
302.097930 12.000000
302.112700 5.000000
302.554930 11.000000
304.101900 9.000000
304.126710 6.000000
305.144620 6.000000
306.114930 13.000000
307.109990 6.000000
308.137570 14.000000
308.840910 9.000000
309.063420 7.000000
309.141910 8.000000
310.099670 10.000000
311.085750 18.000000
311.112210 11.000000
314.096470 7.000000
314.124450 6.000000
316.092770 6.000000
316.102020 7.000000
316.116670 11.000000
317.094180 8.000000
317.112430 8.000000
317.130620 13.000000
317.147580 16.000000
318.057430 9.000000
318.100680 11.000000
318.123630 39.000000
319.114780 9.000000
319.128140 8.000000
322.903320 6.000000
325.129120 13.000000
326.105990 8.000000
326.123990 9.000000
327.076750 7.000000
327.109710 7.000000
328.056640 7.000000
328.092530 13.000000
331.088470 8.000000
332.115690 10.000000
334.085750 9.000000
335.140140 9.000000
335.152070 6.000000
336.107600 8.000000
339.144900 14.000000
342.057220 7.000000
346.090420 10.000000
346.102970 7.000000
347.104890 11.000000
360.125760 7.000000
363.134430 10.000000
365.090090 10.000000
378.140260 12.000000
380.413020 7.000000
401.838590 11.000000
404.462680 5.000000
439.601810 10.000000
466.517400 10.000000
483.896240 16.000000
495.463010 13.000000
511.502530 6.000000
526.037960 5.000000
575.233280 26.000000

>ms2
127.040670 6.000000
130.065750 12.000000
144.079610 27.000000
146.060040 12.000000
158.094740 6.000000
165.054150 40.000000
169.076390 16.000000
188.070420 88.000000
189.071300 11.000000
189.080950 7.000000
200.069980 11.000000
214.083980 12.000000
215.082050 20.000000
217.091960 10.000000
226.104600 8.000000
231.113480 14.000000
238.085830 30.000000
239.089630 8.000000
248.075640 7.000000
265.099090 16.000000
266.100370 6.000000
272.105900 7.000000
280.131960 6.000000
290.116060 15.000000
293.100280 7.000000
293.128480 15.000000
294.080510 5.000000
295.074800 6.000000
300.105830 6.000000
308.129090 10.000000
311.102450 27.000000
312.103420 5.000000
318.108550 7.000000
322.143980 22.000000
325.121550 7.000000
326.106110 6.000000
327.121280 9.000000
335.138640 28.000000
336.141140 5.000000
340.155210 27.000000
343.112760 7.000000
343.129970 45.000000
344.127620 5.000000
346.100740 7.000000
363.131710 13.000000
364.106080 6.000000
364.124510 10.000000
378.136960 24.000000
379.136200 6.000000
381.144470 38.000000
395.159850 64.000000
396.109500 5.000000
396.147090 85.000000
397.147250 23.000000
413.171020 147.000000
414.155670 12.000000
414.175780 40.000000
415.184660 7.000000
558.177920 8.000000
558.204960 35.000000
559.201110 11.000000
575.133670 5.000000
575.167240 13.000000
575.224730 1000.000000
575.295530 15.000000

>ms2
395.163390 10.000000
413.169890 34.000000
414.174840 9.000000
575.150390 11.000000
575.224370 1000.000000
575.296080 22.000000

>ms2
66.854600 5.000000
69.033920 9.000000
71.011040 6.000000
85.026820 47.000000
86.032970 7.000000
87.043440 11.000000
97.024610 6.000000
97.031250 9.000000
103.041420 6.000000
105.046940 5.000000
105.069660 6.000000
106.053280 8.000000
106.064110 6.000000
107.046970 12.000000
109.026800 6.000000
109.059940 5.000000
115.033040 9.000000
118.061360 6.000000
123.046850 11.000000
123.053440 5.000000
124.044730 7.000000
126.049710 9.000000
126.057450 6.000000
127.038820 53.000000
128.035950 8.000000
130.059340 42.000000
130.065350 139.000000
131.050740 8.000000
131.068070 6.000000
132.068010 9.000000
132.075500 9.000000
132.087280 13.000000
133.026660 7.000000
133.087740 12.000000
137.055130 7.000000
139.035160 40.000000
139.043230 32.000000
140.051090 6.000000
142.067840 7.000000
144.080730 275.000000
145.050980 37.000000
145.081410 38.000000
146.050280 12.000000
146.061970 78.000000
147.057540 12.000000
149.057010 7.000000
150.065000 10.000000
151.037780 44.000000
151.044430 13.000000
153.052050 5.000000
153.064160 7.000000
154.065930 9.000000
155.075910 9.000000
156.073430 20.000000
156.083300 45.000000
157.084880 14.000000
158.095500 122.000000
159.032880 7.000000
159.048550 19.000000
159.095000 18.000000
159.102950 10.000000
160.046080 11.000000
163.039840 6.000000
163.072070 7.000000
164.075470 7.000000
165.028410 7.000000
165.035480 12.000000
165.054230 402.000000
166.057830 49.000000
166.068470 9.000000
166.086010 7.000000
167.067670 6.000000
167.074400 19.000000
168.081850 75.000000
169.064580 11.000000
169.073960 54.000000
169.080830 59.000000
169.093860 6.000000
170.065900 10.000000
170.081650 14.000000
170.093840 11.000000
171.080310 9.000000
171.094210 7.000000
172.077880 6.000000
176.068710 25.000000
176.077870 11.000000
177.049760 9.000000
177.060210 30.000000
178.057040 10.000000
178.080720 11.000000
180.071990 10.000000
180.079090 18.000000
180.090390 9.000000
180.108580 8.000000
181.093200 7.000000
182.050960 5.000000
182.080380 7.000000
182.094940 9.000000
183.062530 24.000000
183.094160 9.000000
184.072160 6.000000
185.110370 6.000000
188.021970 17.000000
188.041140 26.000000
188.070980 1000.000000
189.054140 12.000000
189.065340 33.000000
189.076340 110.000000
190.065490 6.000000
190.083300 28.000000
190.096020 8.000000
191.070370 36.000000
192.068330 7.000000
193.084520 7.000000
194.076170 6.000000
194.093120 28.000000
194.100860 9.000000
195.086530 10.000000
196.069110 16.000000
196.113080 7.000000
197.072250 9.000000
197.111270 6.000000
198.080080 7.000000
200.034210 5.000000
200.070950 165.000000
201.050720 7.000000
201.076930 16.000000
202.074080 9.000000
202.087250 9.000000
203.028780 6.000000
203.080250 6.000000
204.077160 6.000000
205.090380 16.000000
205.101790 9.000000
206.106800 12.000000
207.103130 5.000000
208.066510 8.000000
208.075040 5.000000
208.092860 18.000000
208.104510 6.000000
208.117460 12.000000
209.085590 14.000000
209.506420 6.000000
210.081890 7.000000
210.092070 23.000000
211.091090 8.000000
212.070160 15.000000
213.082320 18.000000
214.085720 168.000000
215.053100 7.000000
215.075520 68.000000
215.086490 119.000000
215.105100 6.000000
216.088590 13.000000
217.089690 21.000000
217.100310 34.000000
218.054920 10.000000
218.068650 8.000000
219.090900 8.000000
219.099690 6.000000
220.070770 8.000000
220.097810 6.000000
220.113780 17.000000
221.114730 15.000000
222.089310 15.000000
223.098130 6.000000
224.073030 14.000000
225.074690 22.000000
226.083420 9.000000
226.092880 21.000000
226.109950 10.000000
227.098940 8.000000
229.086030 6.000000
230.083540 9.000000
230.092000 8.000000
230.323070 6.000000
231.102170 49.000000
231.112920 55.000000
231.122340 37.000000
232.103590 8.000000
232.115340 21.000000
232.124740 8.000000
233.119600 5.000000
234.079450 20.000000
234.116530 7.000000
234.127120 10.000000
234.144530 8.000000
235.066420 8.000000
235.092610 5.000000
235.128200 5.000000
236.066420 5.000000
237.071350 7.000000
237.081590 11.000000
237.138550 7.000000
238.087080 220.000000
238.121700 17.000000
238.133410 10.000000
239.086040 22.000000
239.098110 20.000000
239.122760 6.000000
240.087720 11.000000
240.104870 9.000000
240.128190 5.000000
241.095080 14.000000
241.105900 8.000000
241.138500 5.000000
243.076510 6.000000
243.087750 6.000000
244.109020 28.000000
244.120330 13.000000
245.116490 9.000000
245.127460 5.000000
245.695180 5.000000
246.126530 21.000000
247.060180 5.000000
247.119610 7.000000
248.069670 79.000000
248.098280 13.000000
248.111820 13.000000
249.067720 8.000000
249.085850 5.000000
249.106990 6.000000
249.142010 9.000000
250.068130 12.000000
250.087510 37.000000
250.115160 6.000000
251.091060 19.000000
251.101590 6.000000
252.086700 16.000000
252.106840 33.000000
253.051210 6.000000
253.105610 12.000000
253.121080 7.000000
254.082980 20.000000
254.554630 6.000000
255.089550 6.000000
255.103740 6.000000
255.112950 7.000000
258.081570 6.000000
259.104310 9.000000
260.120450 8.000000
262.108730 11.000000
262.117310 29.000000
262.130040 29.000000
264.108400 11.000000
264.143430 12.000000
264.155730 7.000000
265.094540 74.000000
265.104460 58.000000
266.071350 14.000000
266.098180 46.000000
266.117830 18.000000
267.073390 5.000000
267.086820 9.000000
267.100740 14.000000
267.122470 23.000000
267.140110 7.000000
269.100740 6.000000
270.087710 10.000000
270.113800 21.000000
270.125270 6.000000
271.111020 20.000000
272.094060 21.000000
272.108120 75.000000
272.121920 12.000000
272.135830 5.000000
273.105500 13.000000
273.121950 10.000000
274.115880 11.000000
274.132900 16.000000
276.052120 10.000000
276.100830 30.000000
276.117830 6.000000
277.063960 10.000000
277.109310 5.000000
278.066160 5.000000
278.113460 11.000000
280.092500 11.000000
280.112880 8.000000
280.133450 64.000000
281.094240 8.000000
281.104980 10.000000
281.527800 5.000000
282.065700 5.000000
282.096800 37.000000
282.153690 6.000000
283.103120 6.000000
284.104280 31.000000
284.120610 5.000000
286.091310 19.000000
288.103270 6.000000
289.124300 14.000000
290.058750 6.000000
290.087550 10.000000
290.115510 162.000000
290.140170 9.000000
291.094510 11.000000
291.121090 27.000000
291.146030 5.000000
292.104520 6.000000
292.125430 30.000000
293.041500 6.000000
293.094300 71.000000
293.126430 112.000000
293.139770 42.000000
294.063080 21.000000
294.079990 65.000000
294.124300 33.000000
294.140230 18.000000
294.151700 14.000000
295.040010 6.000000
295.081270 97.000000
295.118710 6.000000
295.141420 11.000000
295.156890 5.000000
296.090210 17.000000
296.127470 15.000000
296.148770 6.000000
297.095670 7.000000
297.120700 5.000000
298.104280 11.000000
299.107120 7.000000
299.122440 7.000000
299.134860 9.000000
300.103390 98.000000
300.134460 6.000000
301.091250 13.000000
301.111080 19.000000
302.069980 5.000000
302.107730 28.000000
302.125670 6.000000
303.116700 9.000000
304.092960 9.000000
304.129360 24.000000
305.091770 9.000000
305.136050 7.000000
306.107180 6.000000
308.085300 11.000000
308.117890 43.000000
308.131900 97.000000
309.101230 18.000000
309.133360 52.000000
309.149600 16.000000
310.088990 11.000000
310.107270 8.000000
311.059600 10.000000
311.102170 356.000000
311.135590 17.000000
312.081880 6.000000
312.105960 54.000000
312.158390 7.000000
313.114440 43.000000
314.110690 8.000000
314.127440 5.000000
315.129030 7.000000
317.118650 18.000000
317.139860 10.000000
318.111330 132.000000
318.122380 36.000000
319.110530 22.000000
320.121490 11.000000
320.150510 10.000000
321.092710 6.000000
321.137910 13.000000
322.105260 7.000000
322.132660 63.000000
322.145900 109.000000
323.127590 9.000000
323.144650 40.000000
324.115450 9.000000
324.148070 9.000000
325.100980 22.000000
325.117430 35.000000
325.134920 7.000000
326.083440 14.000000
326.104310 88.000000
326.131870 7.000000
327.082180 6.000000
327.100220 25.000000
327.116180 50.000000
327.133820 34.000000
328.089780 31.000000
328.118770 30.000000
328.136750 6.000000
329.093050 6.000000
329.108220 5.000000
329.130100 5.000000
330.126890 6.000000
331.139560 8.000000
332.124660 23.000000
333.129550 6.000000
333.157560 6.000000
335.137360 273.000000
335.149440 71.000000
336.091770 7.000000
336.117000 40.000000
336.142120 69.000000
337.133420 9.000000
338.130430 24.000000
339.133450 5.000000
339.144710 5.000000
340.131960 12.000000
340.154790 152.000000
341.127230 5.000000
341.160130 38.000000
342.152470 11.000000
342.170100 9.000000
343.119380 59.000000
343.137300 124.000000
344.029790 8.000000
344.115910 23.000000
344.141200 16.000000
345.120180 21.000000
346.089200 21.000000
346.106140 77.000000
346.123080 42.000000
347.100650 6.000000
347.117460 18.000000
350.116030 10.000000
350.137330 14.000000
350.153380 6.000000
351.174800 8.000000
352.192660 6.000000
359.125270 6.000000
360.116060 20.000000
360.131810 19.000000
363.097630 5.000000
363.129120 134.000000
363.157410 17.000000
364.082950 12.000000
364.121150 159.000000
365.118190 22.000000
365.142330 9.000000
367.140780 5.000000
367.168030 25.000000
368.161070 6.000000
377.142580 8.000000
377.160490 13.000000
378.132080 281.000000
379.131320 85.000000
379.146000 35.000000
380.129300 7.000000
381.134640 78.000000
381.150180 51.000000
382.130400 13.000000
382.146970 16.000000
382.159450 10.000000
382.174010 9.000000
383.158910 6.000000
384.831910 5.000000
395.103790 7.000000
395.158660 298.000000
396.081180 16.000000
396.104770 13.000000
396.144650 839.000000
396.197540 7.000000
397.146150 197.000000
398.134830 10.000000
398.152280 17.000000
398.164860 12.000000
406.150700 6.000000
413.128660 7.000000
413.167270 216.000000
413.196320 26.000000
414.178070 57.000000
415.181460 12.000000
443.571900 5.000000
456.127110 5.000000
483.196870 6.000000
503.207340 7.000000
558.171450 24.000000
558.198550 89.000000
558.233640 19.000000
559.188170 16.000000
559.202760 42.000000
575.209840 8.000000
575.235170 12.000000

>ms2
55.013710 8.000000
58.933570 12.000000
61.027700 8.000000
63.382110 7.000000
67.055170 6.000000
68.283930 7.000000
68.554790 6.000000
69.016400 7.000000
69.023010 14.000000
69.034940 61.000000
69.060540 8.000000
69.065510 9.000000
69.433580 12.000000
71.047270 7.000000
73.027820 32.000000
77.039010 16.000000
77.932590 7.000000
79.050420 27.000000
80.052020 11.000000
81.016480 10.000000
81.031750 52.000000
81.039550 17.000000
81.076120 11.000000
82.037250 31.000000
82.066760 6.000000
84.041500 6.000000
84.046760 9.000000
84.486310 7.000000
84.912350 6.000000
85.027440 257.000000
85.809770 6.000000
87.035560 7.000000
87.041010 12.000000
91.041240 20.000000
91.050160 24.000000
91.058110 24.000000
92.051060 7.000000
93.031020 7.000000
93.045870 6.000000
93.069960 25.000000
94.045640 9.000000
94.996340 9.000000
95.046280 65.000000
96.090230 8.000000
97.020860 33.000000
97.029410 115.000000
99.041050 8.000000
101.022040 7.000000
101.345350 6.000000
102.048970 9.000000
103.046760 7.000000
103.054790 42.000000
103.059780 11.000000
105.032720 22.000000
105.058130 11.000000
105.069510 21.000000
106.063900 33.000000
107.011860 8.000000
107.050050 8.000000
108.039740 8.000000
108.050740 17.000000
108.084670 6.000000
109.017030 12.000000
109.029560 123.000000
109.063840 41.000000
110.090960 9.000000
111.039130 10.000000
111.070580 7.000000
115.038670 39.000000
115.052440 8.000000
116.044150 7.000000
117.050700 24.000000
117.061310 28.000000
118.050420 14.000000
118.061680 97.000000
118.068710 83.000000
118.739990 9.000000
119.083020 7.000000
119.651540 6.000000
120.043560 7.000000
121.028550 14.000000
121.061640 48.000000
121.068480 21.000000
123.027370 12.000000
123.043790 107.000000
123.293550 6.000000
124.037650 23.000000
124.056420 22.000000
127.027320 15.000000
127.041290 77.000000
127.060220 24.000000
127.080410 13.000000
128.051670 19.000000
128.560300 7.000000
129.053220 15.000000
129.058700 19.000000
129.071240 70.000000
130.063630 518.000000
130.077380 26.000000
131.049180 51.000000
131.066280 91.000000
131.075330 32.000000
132.066910 8.000000
132.080640 51.000000
133.026550 67.000000
133.062240 29.000000
134.154750 12.000000
135.035960 9.000000
135.043440 43.000000
136.043960 16.000000
137.060440 51.000000
138.018160 15.000000
139.037400 64.000000
139.045240 22.000000
139.071320 7.000000
140.072190 29.000000
141.049640 7.000000
141.064880 23.000000
141.076600 10.000000
142.057300 6.000000
142.066380 16.000000
142.074310 19.000000
142.789830 6.000000
143.049440 11.000000
143.059660 7.000000
143.070250 78.000000
143.414280 7.000000
144.040420 12.000000
144.059020 14.000000
144.081220 980.000000
144.114760 9.000000
145.046750 21.000000
145.063050 7.000000
145.076220 25.000000
145.084460 94.000000
145.736660 8.000000
146.025830 14.000000
146.034450 24.000000
146.060580 982.000000
147.044240 65.000000
147.061130 111.000000
147.916110 6.000000
148.050450 7.000000
148.071140 15.000000
148.080510 16.000000
148.573140 6.000000
149.050060 7.000000
149.058520 20.000000
150.024020 14.000000
150.056200 22.000000
151.038940 96.000000
151.572070 6.000000
152.043700 11.000000
152.073390 18.000000
152.109540 7.000000
153.059710 36.000000
154.064820 270.000000
155.035160 6.000000
155.058140 6.000000
155.067470 39.000000
155.074740 52.000000
156.027970 7.000000
156.045820 15.000000
156.068040 33.000000
156.078570 293.000000
157.062650 17.000000
157.077730 24.000000
157.093840 16.000000
157.126300 7.000000
158.057400 18.000000
158.095640 335.000000
159.038640 13.000000
159.046940 57.000000
159.079270 6.000000
159.095260 99.000000
159.107410 12.000000
160.049560 15.000000
160.060680 6.000000
160.077620 44.000000
160.693920 7.000000
161.057910 7.000000
161.077210 13.000000
163.086490 7.000000
164.034120 11.000000
164.046190 7.000000
164.986570 7.000000
165.025440 24.000000
165.054310 761.000000
165.128310 6.000000
166.006640 11.000000
166.026310 12.000000
166.044130 12.000000
166.057690 97.000000
166.074080 23.000000
166.678300 6.000000
166.820820 6.000000
166.942540 9.000000
167.001420 6.000000
167.072940 260.000000
167.273130 6.000000
168.035480 7.000000
168.052280 6.000000
168.081180 1000.000000
169.033040 6.000000
169.053790 7.000000
169.076640 759.000000
169.265900 6.000000
170.043640 13.000000
170.057980 139.000000
170.068210 52.000000
170.078610 132.000000
170.098720 75.000000
171.068360 21.000000
171.089480 34.000000
171.110470 9.000000
172.060470 9.000000
172.074940 94.000000
172.092300 6.000000
172.118680 8.000000
172.745290 6.000000
173.072010 17.000000
173.113100 9.000000
174.045180 16.000000
175.027110 7.000000
175.041610 11.000000
176.047900 7.000000
176.060700 9.000000
176.071500 30.000000
176.164180 6.000000
177.053210 30.000000
178.064880 6.000000
178.078770 16.000000
178.192490 6.000000
178.405640 7.000000
179.073820 13.000000
179.090930 6.000000
179.765000 9.000000
180.073780 117.000000
180.083910 252.000000
180.184420 6.000000
181.050950 6.000000
181.079120 73.000000
181.094820 58.000000
182.026090 6.000000
182.037750 6.000000
182.055880 44.000000
182.066480 70.000000
182.095340 484.000000
182.114180 6.000000
183.041950 16.000000
183.053330 11.000000
183.069850 60.000000
183.098160 98.000000
183.499130 6.000000
183.989970 12.000000
184.061750 26.000000
184.076170 46.000000
184.090070 26.000000
184.107220 14.000000
184.119830 7.000000
185.063280 10.000000
185.078890 12.000000
185.103990 8.000000
186.089570 17.000000
186.116170 7.000000
187.060810 9.000000
187.078290 7.000000
188.008190 9.000000
188.040500 8.000000
188.070470 632.000000
188.090260 15.000000
188.240970 9.000000
188.291430 6.000000
188.394100 8.000000
189.049330 28.000000
189.075040 166.000000
190.065930 22.000000
190.078610 13.000000
190.089070 9.000000
190.812120 7.000000
191.066560 46.000000
191.074370 37.000000
191.092930 8.000000
192.030080 9.000000
192.047810 21.000000
192.064930 31.000000
192.077770 190.000000
193.055480 9.000000
193.084760 141.000000
193.093400 28.000000
194.053330 16.000000
194.059860 54.000000
194.094440 162.000000
194.104640 30.000000
195.069060 30.000000
195.090550 39.000000
195.102720 16.000000
195.167020 9.000000
196.072050 53.000000
196.078770 110.000000
196.119280 9.000000
197.061770 9.000000
197.078080 54.000000
197.089920 42.000000
197.108030 6.000000
197.746870 6.000000
198.068760 9.000000
198.090060 25.000000
198.097380 7.000000
198.718140 8.000000
199.058260 17.000000
199.074860 11.000000
200.043120 7.000000
200.052140 11.000000
200.066680 133.000000
200.077910 56.000000
200.098220 10.000000
201.066440 8.000000
201.080700 7.000000
202.071090 8.000000
202.082840 26.000000
202.093950 12.000000
203.069340 8.000000
203.078800 17.000000
203.087840 10.000000
204.057880 7.000000
204.080570 107.000000
204.095750 35.000000
204.106160 14.000000
205.068100 12.000000
205.088320 117.000000
205.110600 6.000000
206.072460 19.000000
206.080990 60.000000
206.097930 179.000000
207.064250 6.000000
207.072170 6.000000
207.096630 49.000000
207.120010 6.000000
208.055270 18.000000
208.075100 159.000000
208.087810 31.000000
208.102650 36.000000
208.117360 64.000000
208.128890 17.000000
209.081680 56.000000
209.101320 17.000000
210.054690 10.000000
210.088910 461.000000
210.128050 33.000000
211.058670 24.000000
211.082610 14.000000
211.096600 111.000000
211.140150 18.000000
212.063250 30.000000
212.082020 14.000000
212.105680 19.000000
213.077590 71.000000
213.092860 6.000000
214.083540 125.000000
214.092330 34.000000
215.056730 7.000000
215.079610 97.000000
215.090810 32.000000
216.088000 7.000000
216.100050 24.000000
216.497310 6.000000
217.056430 15.000000
217.078000 28.000000
217.091640 90.000000
217.884700 9.000000
218.080870 14.000000
218.096620 115.000000
218.107420 23.000000
218.896940 10.000000
219.085210 64.000000
219.099000 105.000000
219.815870 6.000000
220.050550 22.000000
220.075820 356.000000
220.108430 148.000000
220.117720 135.000000
221.041460 11.000000
221.062760 33.000000
221.083300 193.000000
221.107210 27.000000
221.115400 90.000000
221.128310 13.000000
221.498500 8.000000
222.060500 12.000000
222.076870 64.000000
222.092830 118.000000
222.118420 8.000000
223.046390 6.000000
223.058990 10.000000
223.091510 14.000000
223.109280 31.000000
224.072860 125.000000
224.099260 7.000000
224.135800 8.000000
224.150970 6.000000
225.065020 13.000000
225.080510 77.000000
225.107940 9.000000
226.080310 20.000000
226.091720 51.000000
226.269820 11.000000
227.082150 8.000000
227.095720 8.000000
227.103780 8.000000
228.092680 13.000000
229.079860 8.000000
229.086360 19.000000
229.981610 7.000000
230.050190 8.000000
230.074720 9.000000
230.087280 76.000000
230.099400 91.000000
231.082440 6.000000
231.102260 70.000000
231.112790 29.000000
231.156340 8.000000
232.048540 11.000000
232.065160 7.000000
232.076200 50.000000
232.113370 100.000000
232.135180 11.000000
233.071350 31.000000
233.084520 53.000000
233.095170 14.000000
233.114060 12.000000
233.131760 9.000000
233.247910 12.000000
233.504640 8.000000
233.575000 11.000000
234.092440 108.000000
234.123490 90.000000
234.380420 9.000000
235.042680 6.000000
235.054180 28.000000
235.070720 36.000000
235.083400 16.000000
235.103610 11.000000
235.131440 47.000000
235.275180 7.000000
236.062670 43.000000
236.078020 49.000000
236.103060 34.000000
236.115220 7.000000
236.146320 8.000000
236.211930 6.000000
237.057880 6.000000
237.077970 75.000000
237.104950 60.000000
237.119670 11.000000
238.051420 13.000000
238.064650 38.000000
238.082690 446.000000
238.090580 249.000000
238.108180 20.000000
238.119980 18.000000
239.053210 10.000000
239.075530 28.000000
239.087190 109.000000
239.097180 79.000000
239.119690 12.000000
240.085110 19.000000
240.102520 39.000000
241.088590 54.000000
242.057830 7.000000
242.071620 7.000000
242.085490 18.000000
242.121460 13.000000
242.177310 7.000000
242.525420 12.000000
243.081630 7.000000
243.105380 43.000000
243.121780 22.000000
244.066120 16.000000
244.096600 44.000000
244.114640 287.000000
244.707290 22.000000
245.081280 7.000000
245.099380 26.000000
245.124250 112.000000
245.827820 7.000000
246.056560 48.000000
246.070510 10.000000
246.087520 37.000000
246.099380 47.000000
246.110630 26.000000
246.126880 27.000000
246.138820 21.000000
246.190200 6.000000
247.071230 23.000000
247.083310 40.000000
247.101380 79.000000
247.120730 8.000000
247.136720 28.000000
247.653550 10.000000
248.045560 8.000000
248.069720 228.000000
248.090740 14.000000
248.109990 89.000000
248.147810 12.000000
248.713750 6.000000
249.072480 107.000000
249.084960 87.000000
249.096250 34.000000
249.112120 36.000000
249.145280 13.000000
249.652210 8.000000
249.960400 10.000000
249.998730 8.000000
250.048980 7.000000
250.078370 91.000000
250.090090 207.000000
250.106890 8.000000
250.123900 18.000000
250.245770 6.000000
251.055620 6.000000
251.079860 34.000000
251.094130 111.000000
251.112170 13.000000
252.086170 38.000000
252.097520 25.000000
252.108140 21.000000
252.116100 17.000000
252.138610 7.000000
252.155320 15.000000
253.062500 11.000000
253.086610 14.000000
254.090560 86.000000
254.105700 24.000000
254.128480 17.000000
255.088620 15.000000
255.103820 65.000000
256.072750 26.000000
256.104280 33.000000
256.118740 8.000000
257.066470 9.000000
257.086940 67.000000
257.115110 8.000000
257.124600 9.000000
258.066990 22.000000
258.085880 36.000000
258.097840 45.000000
259.018070 9.000000
259.063630 15.000000
259.083400 15.000000
259.096220 58.000000
259.107450 21.000000
259.123690 12.000000
260.059690 14.000000
260.104100 73.000000
260.126530 16.000000
261.073460 14.000000
261.082790 13.000000
261.097260 13.000000
261.126590 7.000000
262.073330 7.000000
262.086980 40.000000
262.093600 15.000000
262.124850 137.000000
262.210420 7.000000
263.076390 109.000000
263.121310 8.000000
263.160160 6.000000
264.081270 9.000000
264.122560 31.000000
264.137050 42.000000
264.530700 7.000000
265.079160 20.000000
265.097750 196.000000
266.085210 130.000000
266.107880 45.000000
266.148470 8.000000
267.079100 20.000000
267.095730 28.000000
267.122920 9.000000
268.093660 6.000000
269.092960 13.000000
270.086640 21.000000
270.123630 29.000000
271.046420 7.000000
271.092830 59.000000
271.104190 34.000000
271.130980 11.000000
271.173400 9.000000
271.977330 6.000000
272.085660 20.000000
272.106350 144.000000
272.989500 7.000000
273.051480 8.000000
273.066410 13.000000
273.091550 17.000000
273.114990 60.000000
273.970860 6.000000
274.077760 23.000000
274.094600 21.000000
274.122130 47.000000
275.060030 7.000000
275.077360 18.000000
275.090790 9.000000
275.116150 44.000000
275.963320 10.000000
276.035830 12.000000
276.058200 8.000000
276.066440 7.000000
276.101840 45.000000
276.111880 18.000000
277.041990 7.000000
277.074310 56.000000
277.093290 11.000000
278.078520 20.000000
278.089600 18.000000
278.105560 10.000000
279.075870 15.000000
279.086400 9.000000
279.106780 9.000000
279.117130 13.000000
280.088620 7.000000
280.107940 9.000000
280.122680 9.000000
280.139890 9.000000
281.099240 20.000000
281.134120 9.000000
281.495240 6.000000
282.075070 14.000000
282.098330 51.000000
282.116030 7.000000
283.097350 18.000000
284.097560 20.000000
284.112640 9.000000
285.073640 17.000000
285.099670 13.000000
285.111570 6.000000
286.061650 8.000000
286.083500 14.000000
286.096070 17.000000
287.019040 11.000000
287.073270 8.000000
287.089480 17.000000
288.097380 30.000000
288.214940 7.000000
289.092860 23.000000
289.111880 10.000000
289.139680 20.000000
290.107240 74.000000
290.123690 61.000000
291.089080 41.000000
291.102140 10.000000
292.076900 6.000000
292.096740 12.000000
292.122770 15.000000
292.774170 7.000000
293.074070 11.000000
293.097660 26.000000
293.133030 28.000000
293.407170 7.000000
294.061550 15.000000
294.082700 29.000000
294.109070 13.000000
294.122680 10.000000
294.142000 7.000000
295.053830 8.000000
295.080900 64.000000
295.117100 8.000000
295.134250 6.000000
296.086430 13.000000
296.140440 8.000000
298.091130 11.000000
298.122560 7.000000
299.077030 7.000000
299.103000 17.000000
299.121670 15.000000
299.732700 6.000000
300.058200 7.000000
300.081360 15.000000
300.104800 70.000000
301.112400 8.000000
302.116820 9.000000
302.130100 10.000000
302.144780 16.000000
303.120420 12.000000
304.089140 21.000000
304.106480 45.000000
304.130490 26.000000
304.142300 30.000000
305.112730 10.000000
305.129670 20.000000
306.121550 6.000000
308.091490 12.000000
308.118100 6.000000
309.098050 18.000000
309.121730 9.000000
310.086910 13.000000
310.162480 8.000000
311.099950 15.000000
313.075500 15.000000
313.867340 6.000000
315.119290 9.000000
316.096890 12.000000
317.127200 18.000000
317.775630 6.000000
318.081120 7.000000
318.119780 59.000000
319.122590 24.000000
320.100430 6.000000
322.114990 11.000000
322.146480 7.000000
323.111480 18.000000
323.244870 11.000000
324.145900 7.000000
325.087490 9.000000
325.100770 7.000000
325.117400 9.000000
326.084660 7.000000
332.126130 13.000000
333.118930 11.000000
333.135680 21.000000
333.445590 6.000000
335.157870 8.000000
336.077180 8.000000
336.140530 6.000000
342.105380 13.000000
347.101410 10.000000
350.150210 7.000000
359.702360 9.000000
361.136600 9.000000
365.172850 10.000000
366.110350 10.000000
378.118770 8.000000
378.130430 10.000000
378.309510 7.000000
382.163420 8.000000
396.144930 7.000000
403.275730 8.000000
421.598180 7.000000
453.583680 14.000000
455.856660 13.000000
456.084140 13.000000
478.086060 12.000000
552.341920 19.000000
567.961670 7.000000
575.224980 289.000000

