>compound PR21073335
>parentmass 741.22488
>ionization [M+H]+
>formula C33H40O19
>rt 204.000000
>profile qtof
#smiles_iso CC1C(C(C(C(O1)OCC2C(C(C(C(O2)OC3=C(OC4=CC(=CC(=C4C3=O)O)OC5C(C(C(C(O5)C)O)O)O)C6=CC=C(C=C6)O)O)O)O)O)O)O
#smiles_can CC1C(C(C(C(O1)OCC2C(C(C(C(O2)OC3=C(OC4=CC(=CC(=C4C3=O)O)OC5C(C(C(C(O5)C)O)O)O)C6=CC=C(C=C6)O)O)O)O)O)O)O
#inchikey PEFASEPMJYRQBW-UHFFFAOYSA-N
#pubchem_id 5351997
#mb_accession PR310470,PR310933

>ms2
71.054690 25.000000
99.041400 68.000000
106.646260 30.000000
111.043830 24.000000
127.034570 55.000000
127.049900 30.000000
128.035950 20.000000
129.046620 133.000000
129.057890 53.000000
130.059370 34.000000
147.056380 24.000000
147.072390 58.000000
163.077300 24.000000
165.085800 30.000000
182.902790 26.000000
197.012620 17.000000
199.058700 28.000000
228.082640 17.000000
266.079410 44.000000
270.622770 24.000000
273.103550 23.000000
286.981660 19.000000
287.016170 17.000000
287.052800 4626.000000
287.987950 26.000000
288.033330 96.000000
288.061220 762.000000
288.947140 20.000000
289.037230 20.000000
289.044280 35.000000
289.059540 122.000000
290.025910 20.000000
295.213590 24.000000
300.837190 17.000000
312.064790 24.000000
329.059080 44.000000
353.064120 21.000000
356.144840 26.000000
357.155940 20.000000
367.013090 33.000000
368.838900 17.000000
412.215420 43.000000
415.103120 24.000000
433.036830 18.000000
433.099760 1622.000000
433.116150 1409.000000
433.130460 964.000000
433.377500 21.000000
433.602390 17.000000
434.097260 189.000000
434.117890 945.000000
434.143800 208.000000
435.111940 60.000000
435.134830 42.000000
436.106690 22.000000
436.128450 57.000000
445.070560 17.000000
449.094060 34.000000
449.126890 20.000000
453.410340 21.000000
579.153990 60.000000
579.189090 51.000000
580.174380 24.000000
581.340150 25.000000
583.618230 27.000000
595.152590 641.000000
595.179500 731.000000
596.092650 25.000000
596.153320 334.000000
596.203980 182.000000
596.853820 22.000000
597.151730 129.000000
597.176450 86.000000
645.163090 17.000000
741.156370 49.000000
741.200560 770.000000
741.243900 957.000000

>ms2
85.028520 78.000000
103.040440 18.000000
147.066680 27.000000
256.176450 18.000000
287.055050 895.000000
287.187990 20.000000
288.044040 49.000000
288.060420 236.000000
288.679290 21.000000
289.058840 66.000000
361.579930 27.000000
433.078280 17.000000
433.112430 436.000000
433.132690 116.000000
434.122070 116.000000
435.111940 20.000000
435.127560 33.000000
435.140810 33.000000
436.126280 20.000000
449.108800 20.000000
499.116460 17.000000
579.191960 19.000000
595.171330 165.000000
596.151490 40.000000
596.192440 25.000000
597.172360 17.000000
609.864810 18.000000
741.194820 57.000000
741.226990 127.000000
741.251340 119.000000

