>compound PR22760189
>parentmass 233.14986666666667
>ionization [M+H]+
>formula C10H20N2O4
>rt 134.800000
>profile qtof
#smiles_iso CC(C)CC(C(=O)O)NC(=O)C(C(C)O)N
#smiles_can CC(C)CC(C(=O)O)NC(=O)C(C(C)O)N
#inchikey BQBCIBCLXBKYHW-UHFFFAOYSA-N
#pubchem_id 4420322
#mb_accession PR311038,PR311039,PR311040

>ms2peaks
70.063460 17.000000
74.061710 41.000000
86.016860 17.000000
86.097820 131.000000
87.100580 27.000000
141.098880 18.000000
163.104740 29.000000
187.100450 20.000000
188.098080 17.000000
215.140410 18.000000
217.146150 17.000000
232.147320 28.000000
233.143480 43.000000

>ms2peaks
74.060740 17.000000
84.049450 18.000000
132.096920 17.000000
133.218230 18.000000
187.153030 17.000000
188.200180 20.000000
233.151290 34.000000

>ms2peaks
74.065490 20.000000
86.091390 17.000000
86.097840 55.000000
132.094730 23.000000
132.102080 65.000000
176.925920 22.000000
187.145630 46.000000
215.143630 36.000000
233.150150 210.000000

