>compound PR22446937
>parentmass 415.1387441
>ionization [M+H]+
>formula C22H22O8
>rt 375.681000
>profile qtof
#smiles_iso COC1=CC(=CC(=C1OC)OC)[C@H]2[C@@H]3[C@H](COC3=O)[C@H](C4=CC5=C(C=C24)OCO5)O
#smiles_can COC1=CC(=CC(=C1OC)OC)C2C3C(COC3=O)C(C4=CC5=C(C=C24)OCO5)O
#inchikey YJGVMLPVUAXIQN-XVVDYKMHSA-N
#pubchem_id 10607
#mb_accession PR303982,PR303983,PR303984,PR303985,PR303986,PR303987,PR303988,PR303989,PR303990,PR303991,PR303992,PR303993

>ms2
77.037090 8.000000
79.177290 9.000000
85.028060 11.000000
98.031000 10.000000
109.068680 9.000000
115.055150 15.000000
117.068150 44.000000
117.075060 16.000000
117.270390 6.000000
123.036620 8.000000
123.043130 6.000000
125.060150 17.000000
125.222660 6.000000
127.050610 9.000000
128.054410 6.000000
131.036480 8.000000
131.047320 15.000000
132.053880 9.000000
133.065410 13.000000
133.585330 7.000000
135.037980 23.000000
135.043430 29.000000
135.050370 9.000000
138.033950 9.000000
138.068700 9.000000
143.046260 31.000000
143.056120 13.000000
145.064500 220.000000
146.068910 51.000000
147.041640 23.000000
147.068970 12.000000
149.028590 20.000000
151.035340 21.000000
152.042800 13.000000
153.029340 7.000000
153.050700 24.000000
155.048340 7.000000
155.058790 7.000000
155.945040 10.000000
159.979290 8.000000
160.048310 26.000000
161.058820 47.000000
161.786850 9.000000
166.063720 8.000000
168.086960 15.000000
169.078670 44.000000
169.087620 31.000000
170.084790 8.000000
171.049590 32.000000
172.047700 6.000000
172.058910 13.000000
173.047560 14.000000
173.059690 154.000000
173.926900 9.000000
174.054690 7.000000
174.064160 24.000000
174.129810 8.000000
175.045460 6.000000
175.073940 18.000000
175.085220 11.000000
177.051220 9.000000
181.082260 34.000000
182.089860 7.000000
185.033360 7.000000
185.059220 445.000000
185.078080 12.000000
186.066390 91.000000
186.187710 6.000000
187.066510 8.000000
187.082000 6.000000
188.029500 6.000000
188.039050 8.000000
189.047670 50.000000
189.059050 35.000000
189.536580 6.000000
189.964600 7.000000
190.064500 29.000000
195.063670 19.000000
196.068590 16.000000
197.054860 8.000000
198.083280 8.000000
200.042720 6.000000
200.056400 6.000000
201.025070 8.000000
201.051970 74.000000
202.067110 7.000000
203.070760 88.000000
203.084960 15.000000
204.071750 18.000000
205.067520 7.000000
210.065630 6.000000
215.035830 6.000000
215.088960 8.000000
218.964920 7.000000
219.052260 15.000000
219.068590 122.000000
219.178590 10.000000
220.064670 24.000000
220.074780 12.000000
226.083310 13.000000
227.071530 7.000000
228.031450 6.000000
228.975100 7.000000
229.025090 17.000000
229.051830 372.000000
230.051680 41.000000
232.106810 8.000000
233.057910 14.000000
235.071700 7.000000
235.082720 7.000000
237.031890 7.000000
238.061450 20.000000
239.050950 6.000000
239.060320 9.000000
239.074720 11.000000
240.099150 6.000000
246.049150 7.000000
247.060360 738.000000
247.080840 13.000000
248.063020 104.000000
248.091250 9.000000
249.061610 36.000000
249.077760 26.000000
250.061190 8.000000
251.078740 7.000000
252.098880 7.000000
254.064320 13.000000
255.061340 13.000000
259.086760 17.000000
260.083040 15.000000
261.098970 8.000000
261.208680 7.000000
262.071080 7.000000
263.075470 8.000000
263.084660 16.000000
264.093780 7.000000
264.111570 7.000000
265.040620 8.000000
267.051360 7.000000
267.071290 15.000000
269.080780 26.000000
270.095760 7.000000
272.076450 6.000000
275.049800 9.000000
275.069610 7.000000
275.090150 9.000000
276.074550 20.000000
276.100950 20.000000
277.081700 16.000000
277.202120 9.000000
278.097530 19.000000
279.059360 9.000000
280.087650 9.000000
281.075740 6.000000
282.062590 8.000000
282.088070 218.000000
282.104950 28.000000
282.116030 8.000000
282.229640 6.000000
282.782710 8.000000
283.034670 6.000000
283.059510 9.000000
283.074130 23.000000
283.091310 58.000000
284.067840 7.000000
284.101990 7.000000
289.091580 30.000000
290.092560 24.000000
290.114260 7.000000
291.056400 6.000000
291.073580 6.000000
291.096560 13.000000
292.074890 22.000000
292.905820 9.000000
297.074550 18.000000
297.087130 15.000000
297.769840 7.000000
298.077880 27.000000
298.087520 26.000000
299.093900 26.000000
303.066010 28.000000
304.059390 11.000000
304.077510 9.000000
305.080930 19.000000
305.847200 6.000000
306.074460 22.000000
306.092190 84.000000
307.074890 11.000000
307.097500 36.000000
307.111210 7.000000
308.100860 25.000000
309.066680 7.000000
309.088040 7.000000
312.092710 38.000000
312.109440 14.000000
312.122620 6.000000
312.734990 6.000000
313.084140 17.000000
313.102720 157.000000
313.115080 96.000000
314.103090 29.000000
314.119230 23.000000
319.084470 6.000000
319.096620 9.000000
319.119380 21.000000
320.041720 7.000000
320.064700 6.000000
320.106630 24.000000
320.126500 8.000000
321.073850 16.000000
321.100460 16.000000
321.125400 7.000000
322.090520 7.000000
322.111480 31.000000
322.126800 14.000000
323.088990 17.000000
323.103150 8.000000
323.121580 9.000000
324.104640 6.000000
324.122620 9.000000
329.112950 8.000000
329.699340 6.000000
332.069980 14.000000
333.076630 19.000000
334.060210 12.000000
334.078430 10.000000
335.056850 9.000000
335.085450 11.000000
335.108060 6.000000
336.087190 21.000000
336.103970 26.000000
337.066220 6.000000
337.090850 7.000000
337.106810 23.000000
337.210110 6.000000
337.622380 7.000000
337.672550 12.000000
338.084960 14.000000
338.130400 12.000000
339.116880 9.000000
340.116150 6.000000
340.358890 6.000000
345.328770 6.000000
347.103210 7.000000
348.074280 7.000000
348.091400 7.000000
348.103030 7.000000
348.119110 8.000000
348.157840 8.000000
349.071690 19.000000
349.107330 12.000000
351.105740 12.000000
351.126620 37.000000
352.123630 26.000000
352.133150 16.000000
353.143010 20.000000
354.105220 8.000000
355.109380 13.000000
355.137150 31.000000
356.126740 6.000000
364.103090 6.000000
364.115720 6.000000
365.087740 6.000000
366.063140 8.000000
366.101320 32.000000
367.085210 6.000000
367.105650 25.000000
367.680450 6.000000
373.124790 9.000000
376.501710 7.000000
379.112850 21.000000
379.125340 43.000000
380.121220 37.000000
381.088810 6.000000
381.106930 10.000000
383.107360 8.000000
386.144470 7.000000
397.095490 17.000000
397.129430 1000.000000
397.221500 13.000000
398.130950 250.000000
399.099910 6.000000
399.117740 18.000000
399.140660 8.000000
400.117490 9.000000
400.955050 6.000000
414.096190 7.000000
414.121280 123.000000
414.136320 147.000000
415.096740 23.000000
415.116490 25.000000
415.137700 148.000000

>ms2
169.081830 12.000000
169.089080 11.000000
169.096120 8.000000
185.057560 42.000000
185.069380 7.000000
229.049560 196.000000
230.051040 45.000000
247.059860 443.000000
248.062320 58.000000
249.066620 6.000000
313.101930 15.000000
355.123630 6.000000
397.074680 14.000000
397.127140 1000.000000
398.131230 251.000000
399.133420 57.000000
400.135380 7.000000
414.129550 337.000000
415.136050 237.000000

>ms2
85.028400 21.000000
103.056860 20.000000
104.055790 9.000000
108.045780 14.000000
108.056100 9.000000
109.030300 14.000000
115.051540 28.000000
115.057650 33.000000
117.057120 8.000000
117.064480 35.000000
117.071040 99.000000
118.074890 18.000000
119.029360 9.000000
119.043980 14.000000
120.004650 9.000000
122.034930 28.000000
122.042300 15.000000
125.060020 12.000000
126.064240 24.000000
127.057290 12.000000
129.069110 21.000000
131.049470 34.000000
132.798840 9.000000
133.060760 9.000000
133.067050 34.000000
135.039470 52.000000
135.047150 61.000000
135.056810 15.000000
136.046780 16.000000
138.070920 13.000000
141.085710 14.000000
141.243620 9.000000
143.041660 18.000000
143.052470 87.000000
144.052110 31.000000
144.567930 9.000000
145.050830 9.000000
145.062330 302.000000
145.069430 166.000000
146.069020 39.000000
147.047780 33.000000
147.079820 11.000000
151.039250 36.000000
153.052870 78.000000
153.394440 8.000000
154.055770 36.000000
154.062880 41.000000
155.048080 15.000000
156.055530 23.000000
159.038070 12.000000
159.046600 8.000000
159.061390 17.000000
160.048750 9.000000
161.054140 80.000000
161.062230 57.000000
167.062000 10.000000
168.076870 73.000000
169.049070 7.000000
169.085370 31.000000
169.094130 9.000000
170.080370 9.000000
171.042020 9.000000
171.052410 27.000000
172.051560 15.000000
173.041310 13.000000
173.063390 322.000000
174.060210 15.000000
174.066960 21.000000
174.076870 23.000000
175.048800 13.000000
175.076350 224.000000
176.066640 13.000000
176.083600 21.000000
177.051250 19.000000
177.060580 11.000000
178.049450 9.000000
181.090270 9.000000
181.158460 8.000000
183.058910 11.000000
183.081340 7.000000
184.059890 10.000000
185.059020 1000.000000
185.166310 7.000000
185.795880 24.000000
186.062090 161.000000
187.045000 8.000000
187.052930 16.000000
188.029910 11.000000
188.046330 28.000000
188.056870 7.000000
188.427570 15.000000
189.037630 27.000000
189.052110 151.000000
189.060350 84.000000
190.044050 19.000000
190.058900 36.000000
190.070280 31.000000
190.203310 8.000000
191.063640 39.000000
193.043720 10.000000
193.059910 22.000000
194.900480 8.000000
195.069380 99.000000
195.106960 8.000000
198.086270 11.000000
198.095200 8.000000
198.449950 10.000000
199.035050 22.000000
199.043260 33.000000
200.043580 10.000000
201.052200 112.000000
201.062790 41.000000
202.050310 30.000000
202.065000 24.000000
202.591030 7.000000
203.070340 70.000000
204.064640 17.000000
208.069900 40.000000
211.059460 8.000000
211.073230 11.000000
212.084210 8.000000
213.118670 14.000000
214.107210 15.000000
215.039410 27.000000
217.048720 8.000000
218.057450 9.000000
219.005690 9.000000
219.050020 15.000000
219.065870 101.000000
219.104390 10.000000
220.066820 7.000000
220.078280 8.000000
221.072140 15.000000
228.956020 9.000000
229.049130 273.000000
230.040220 47.000000
230.055400 35.000000
230.064990 10.000000
231.063260 8.000000
232.054460 31.000000
235.073720 10.000000
235.113690 10.000000
236.081530 11.000000
236.896820 9.000000
237.050450 12.000000
239.069960 36.000000
241.089280 11.000000
246.048810 8.000000
247.055360 72.000000
247.063960 151.000000
248.058380 7.000000
248.078370 27.000000
249.084350 13.000000
250.053180 27.000000
251.065700 11.000000
253.033140 15.000000
254.056350 24.000000
256.067840 9.000000
256.141510 17.000000
256.436490 7.000000
257.090360 16.000000
259.067990 9.000000
259.081240 22.000000
260.040160 11.000000
260.109740 16.000000
261.048030 12.000000
261.064970 13.000000
261.076510 11.000000
262.067260 8.000000
263.078580 28.000000
264.066100 8.000000
264.086270 12.000000
266.067320 11.000000
267.053960 8.000000
267.069920 36.000000
268.087590 12.000000
268.150700 13.000000
269.082240 36.000000
271.060700 9.000000
271.088710 12.000000
274.060490 9.000000
274.078670 20.000000
275.063630 13.000000
275.094570 18.000000
276.073700 39.000000
277.077090 9.000000
277.096620 12.000000
279.102110 20.000000
280.080350 21.000000
281.073360 12.000000
282.088440 431.000000
282.105900 71.000000
283.056980 127.000000
283.082550 59.000000
283.099090 42.000000
284.058690 12.000000
284.078830 16.000000
285.105590 19.000000
285.267270 7.000000
288.066410 18.000000
288.087710 13.000000
289.086090 38.000000
289.106110 8.000000
290.060060 10.000000
290.084630 12.000000
290.100890 68.000000
291.057590 10.000000
291.070860 9.000000
291.098020 30.000000
291.114290 28.000000
292.063660 14.000000
292.115300 20.000000
293.082430 7.000000
293.118590 21.000000
294.100370 9.000000
294.123840 9.000000
295.053040 9.000000
295.093480 16.000000
295.115360 9.000000
297.064060 24.000000
297.084050 17.000000
297.922610 7.000000
298.069700 51.000000
298.088410 70.000000
299.068540 8.000000
299.079440 11.000000
299.093110 10.000000
300.098970 12.000000
303.101990 24.000000
304.060760 8.000000
304.068600 24.000000
304.081180 16.000000
305.057500 17.000000
305.075410 57.000000
306.059450 16.000000
306.085540 151.000000
307.057740 10.000000
307.078920 50.000000
307.092530 133.000000
307.111300 29.000000
308.070400 8.000000
308.096920 26.000000
308.112270 24.000000
309.080840 25.000000
310.059660 7.000000
310.117430 30.000000
310.131840 11.000000
312.055660 9.000000
312.092290 83.000000
312.112550 27.000000
313.092470 54.000000
313.115780 28.000000
313.124880 27.000000
314.077700 14.000000
314.118410 8.000000
316.071780 9.000000
319.081180 10.000000
319.109590 33.000000
320.062500 13.000000
320.095370 45.000000
320.112520 99.000000
321.073270 28.000000
321.089230 16.000000
321.111510 100.000000
322.061070 7.000000
322.079130 16.000000
322.104490 25.000000
322.116120 89.000000
323.080750 9.000000
323.101440 49.000000
323.899540 7.000000
324.059910 14.000000
324.101840 19.000000
325.034420 9.000000
325.108490 24.000000
325.252320 8.000000
329.090550 18.000000
329.116640 9.000000
330.082550 7.000000
330.112920 9.000000
333.067320 9.000000
333.077880 14.000000
334.071530 9.000000
334.093320 10.000000
335.087550 8.000000
335.096950 17.000000
336.088290 29.000000
336.101260 43.000000
337.067630 9.000000
337.105930 74.000000
338.113010 7.000000
338.124820 15.000000
339.090880 29.000000
339.111820 20.000000
339.132170 11.000000
341.097630 9.000000
347.074070 11.000000
348.092070 39.000000
349.039890 9.000000
349.057310 9.000000
349.080050 48.000000
349.105680 32.000000
350.072300 10.000000
351.088230 15.000000
351.107360 37.000000
351.129790 67.000000
352.087280 8.000000
352.132450 39.000000
353.095490 12.000000
354.096920 27.000000
355.108730 18.000000
364.072080 21.000000
364.091950 46.000000
365.090970 12.000000
366.094060 12.000000
366.104800 16.000000
367.112850 22.000000
368.080140 9.000000
369.166690 12.000000
379.100040 9.000000
382.114960 12.000000
384.102720 7.000000
397.128750 9.000000

>ms2
73.051040 36.000000
77.039680 38.000000
91.054360 44.000000
93.031670 52.000000
94.451750 28.000000
96.057050 23.000000
96.772740 22.000000
102.046960 36.000000
103.055480 26.000000
105.034130 26.000000
105.069530 29.000000
105.076790 106.000000
111.048450 58.000000
115.053550 766.000000
115.448170 23.000000
116.038260 23.000000
116.055200 24.000000
116.060130 79.000000
116.128140 22.000000
117.066380 434.000000
117.073000 370.000000
117.385600 23.000000
117.652990 23.000000
118.072430 200.000000
120.094350 46.000000
121.027850 140.000000
122.031110 54.000000
122.038880 74.000000
123.046600 56.000000
126.047320 26.000000
126.062870 40.000000
127.051250 228.000000
127.057690 149.000000
127.613780 29.000000
128.048140 41.000000
128.058590 125.000000
129.069440 188.000000
129.135210 22.000000
130.065350 23.000000
130.073780 85.000000
131.045460 69.000000
131.050400 177.000000
132.049100 35.000000
133.065520 100.000000
134.031750 76.000000
135.042130 152.000000
135.047820 145.000000
136.043410 44.000000
136.054790 56.000000
138.073700 31.000000
139.052340 29.000000
140.058550 26.000000
141.036440 42.000000
143.045060 99.000000
143.055480 52.000000
144.060130 23.000000
145.063000 411.000000
146.065460 193.000000
147.044770 42.000000
147.066410 37.000000
150.028750 28.000000
151.038910 31.000000
153.069530 23.000000
155.041180 67.000000
155.046480 178.000000
155.054550 49.000000
158.068650 36.000000
159.035030 36.000000
159.054580 32.000000
160.056660 106.000000
161.055310 50.000000
161.063980 52.000000
163.070430 22.000000
165.075670 22.000000
166.073560 28.000000
168.081700 40.000000
169.054280 28.000000
171.045360 117.000000
172.051910 105.000000
173.059880 93.000000
175.039090 50.000000
175.058620 23.000000
178.085660 31.000000
179.085190 58.000000
181.069850 95.000000
181.087690 60.000000
184.050450 23.000000
185.060610 1000.000000
185.192200 32.000000
186.052230 52.000000
186.058350 86.000000
186.070770 56.000000
187.040820 108.000000
188.042470 51.000000
188.052090 49.000000
189.078110 36.000000
189.739760 26.000000
190.076890 22.000000
191.085310 29.000000
192.059830 61.000000
193.059950 35.000000
193.072770 67.000000
194.061430 52.000000
196.043080 49.000000
197.057220 33.000000
199.041790 26.000000
199.071850 55.000000
200.050640 31.000000
200.064790 35.000000
202.077420 42.000000
204.061660 28.000000
204.094300 38.000000
205.050400 29.000000
206.074390 31.000000
207.084840 45.000000
209.054670 82.000000
210.065480 88.000000
211.071440 23.000000
217.054110 52.000000
217.066790 74.000000
218.055160 35.000000
218.074980 23.000000
219.079540 54.000000
221.054920 38.000000
221.107350 23.000000
222.064420 38.000000
222.097150 37.000000
224.039080 36.000000
224.049510 22.000000
224.083510 90.000000
225.054640 151.000000
226.061170 60.000000
226.070360 50.000000
228.036960 22.000000
229.043780 31.000000
229.066860 22.000000
231.081420 27.000000
233.079250 40.000000
234.067890 59.000000
235.036500 28.000000
235.080730 132.000000
236.039510 32.000000
236.499760 23.000000
237.050380 52.000000
237.061160 31.000000
237.091720 23.000000
238.060750 22.000000
239.041470 44.000000
239.069890 219.000000
240.033890 44.000000
240.065290 79.000000
240.082820 78.000000
245.057740 29.000000
245.067780 59.000000
246.051680 35.000000
246.074650 63.000000
247.060210 65.000000
247.072310 93.000000
248.078720 133.000000
248.875690 23.000000
249.062180 74.000000
249.087980 29.000000
250.059600 37.000000
251.028380 32.000000
253.071520 31.000000
254.056470 192.000000
254.092820 31.000000
255.046480 29.000000
255.064450 95.000000
256.063810 69.000000
259.057340 81.000000
260.064030 26.000000
261.053280 32.000000
261.989290 23.000000
262.057740 77.000000
262.066040 105.000000
263.063840 69.000000
263.092860 37.000000
263.103360 27.000000
264.072880 72.000000
267.033630 26.000000
267.060640 117.000000
267.074950 70.000000
267.111660 27.000000
268.061580 82.000000
268.081210 63.000000
269.085170 23.000000
270.055730 46.000000
273.060030 26.000000
274.047090 38.000000
275.064450 128.000000
275.092290 24.000000
276.073460 29.000000
277.054410 64.000000
277.089170 35.000000
277.101870 54.000000
279.056300 23.000000
279.066890 108.000000
281.093140 26.000000
282.079620 52.000000
283.050420 63.000000
283.068150 28.000000
285.080140 46.000000
289.048800 52.000000
289.090970 41.000000
289.193910 32.000000
290.074430 27.000000
291.052860 81.000000
291.064480 77.000000
292.081180 124.000000
293.080380 27.000000
293.090730 26.000000
304.079250 36.000000
305.049840 31.000000
305.105320 22.000000
307.060000 28.000000
313.099400 22.000000
315.046880 26.000000
317.081180 23.000000
319.072970 44.000000
320.067900 24.000000
321.071590 41.000000
338.097960 26.000000
393.275270 24.000000

>ms2
85.031140 16.000000
91.053550 13.000000
105.072240 5.000000
108.049900 12.000000
115.051910 22.000000
117.067670 61.000000
117.079350 6.000000
118.072620 11.000000
122.035680 13.000000
123.030400 9.000000
126.211490 7.000000
127.045240 6.000000
131.036160 6.000000
131.047420 11.000000
132.056900 7.000000
133.070130 21.000000
134.065980 6.000000
135.043430 43.000000
136.056850 9.000000
138.066440 5.000000
139.072130 7.000000
143.047160 24.000000
143.059080 5.000000
145.058490 35.000000
145.065250 156.000000
145.076390 14.000000
145.204010 7.000000
146.070080 16.000000
147.046720 9.000000
148.051070 6.000000
151.035230 15.000000
151.086670 7.000000
153.052250 14.000000
154.051420 5.000000
154.061520 5.000000
155.047850 6.000000
159.044430 11.000000
159.484470 6.000000
161.050160 7.000000
161.060880 34.000000
162.030900 6.000000
165.074200 9.000000
166.060650 7.000000
166.069410 9.000000
167.070590 7.000000
169.073790 11.000000
169.085300 80.000000
170.083470 10.000000
172.057330 12.000000
172.203400 7.000000
173.056340 48.000000
175.035920 13.000000
175.053540 11.000000
175.061610 8.000000
175.077190 40.000000
176.050780 6.000000
176.078020 13.000000
177.060060 10.000000
177.087550 6.000000
181.053410 12.000000
181.093780 7.000000
181.562230 5.000000
182.083370 6.000000
182.090470 9.000000
184.388430 6.000000
185.059540 550.000000
185.082090 8.000000
186.063250 58.000000
187.044450 17.000000
187.062420 15.000000
188.047730 44.000000
189.032470 8.000000
189.049220 38.000000
189.059360 40.000000
189.065630 14.000000
190.058070 16.000000
191.896350 9.000000
193.972850 8.000000
195.068980 30.000000
196.068940 6.000000
199.034850 14.000000
200.039980 6.000000
200.049940 12.000000
201.055050 93.000000
202.062670 12.000000
203.051060 5.000000
203.063260 14.000000
203.073780 38.000000
204.077240 10.000000
205.050160 6.000000
208.063800 7.000000
209.076720 6.000000
215.036830 7.000000
219.052430 11.000000
219.068510 87.000000
220.071950 36.000000
220.090790 8.000000
221.631840 6.000000
223.068450 6.000000
225.054150 6.000000
226.077190 16.000000
226.089890 6.000000
229.049730 368.000000
229.290940 7.000000
230.044680 14.000000
230.052800 11.000000
231.054860 7.000000
234.105740 10.000000
236.080380 7.000000
237.051210 7.000000
237.106800 6.000000
238.056500 20.000000
239.066640 28.000000
240.043010 8.000000
240.076770 8.000000
241.105770 8.000000
243.766240 5.000000
247.060930 783.000000
247.089080 14.000000
248.065640 97.000000
249.043520 9.000000
250.040240 6.000000
253.085850 7.000000
253.098280 7.000000
255.066350 6.000000
256.071290 6.000000
259.056460 5.000000
262.088900 7.000000
262.099180 15.000000
262.107880 10.000000
262.467070 8.000000
263.065400 17.000000
263.077610 8.000000
263.103580 10.000000
265.041900 5.000000
267.068910 35.000000
267.091860 5.000000
269.078920 11.000000
270.086460 5.000000
274.065920 7.000000
275.038090 6.000000
276.068970 14.000000
276.083740 14.000000
277.083860 40.000000
277.096040 14.000000
278.098660 6.000000
279.058230 9.000000
281.909150 7.000000
282.062230 10.000000
282.091220 193.000000
283.023160 6.000000
283.061280 31.000000
283.088320 6.000000
283.108890 11.000000
284.071290 13.000000
289.078670 5.000000
289.089260 13.000000
290.092900 15.000000
291.049350 11.000000
291.064850 39.000000
291.085300 7.000000
291.517910 5.000000
292.081510 22.000000
292.118530 15.000000
293.074920 12.000000
295.062230 5.000000
296.063450 5.000000
296.100070 15.000000
297.377750 6.000000
298.051510 7.000000
298.068540 18.000000
298.084050 24.000000
299.083860 7.000000
300.083740 11.000000
303.064360 13.000000
305.068420 7.000000
305.085970 23.000000
306.068240 15.000000
306.084690 35.000000
306.095670 37.000000
307.072240 15.000000
307.093230 23.000000
308.109410 8.000000
309.085170 7.000000
309.097410 5.000000
309.122500 6.000000
310.077120 7.000000
312.097470 39.000000
313.046480 7.000000
313.092740 23.000000
313.109950 184.000000
313.153840 5.000000
314.085880 7.000000
314.120940 15.000000
318.069310 7.000000
319.083470 9.000000
319.098510 13.000000
320.061160 6.000000
320.079250 13.000000
320.100100 13.000000
321.070340 15.000000
321.103490 18.000000
321.120060 38.000000
321.184110 8.000000
322.084500 6.000000
322.118710 27.000000
323.103790 11.000000
323.118130 5.000000
326.116030 9.000000
329.108950 17.000000
333.084140 10.000000
333.122220 5.000000
334.077150 8.000000
335.081090 6.000000
335.090640 6.000000
336.097140 17.000000
337.089050 5.000000
337.108250 12.000000
338.098790 6.000000
347.097140 9.000000
348.091830 7.000000
348.109530 26.000000
349.066130 10.000000
349.094730 5.000000
349.115970 10.000000
350.073330 13.000000
350.343840 7.000000
351.125120 131.000000
352.100040 7.000000
352.118010 18.000000
352.131350 10.000000
353.142430 11.000000
354.101140 7.000000
354.115330 5.000000
355.074740 5.000000
355.124360 14.000000
355.138580 6.000000
356.114500 7.000000
364.085270 7.000000
365.081390 5.000000
365.106780 17.000000
366.110530 13.000000
366.123170 8.000000
369.132050 7.000000
369.143770 6.000000
369.192170 5.000000
370.138610 14.000000
378.091250 7.000000
379.122680 92.000000
380.108250 12.000000
380.136780 16.000000
381.108640 7.000000
382.099120 5.000000
383.106900 8.000000
396.701420 9.000000
397.073820 7.000000
397.129210 1000.000000
397.173890 9.000000
398.132170 220.000000
399.121920 50.000000
399.142490 15.000000
400.135310 6.000000
400.155700 5.000000
400.323730 5.000000
403.675540 5.000000
404.621370 8.000000
414.124970 146.000000
414.137540 183.000000
415.091090 7.000000
415.114320 21.000000
415.130680 87.000000
415.140590 137.000000

>ms2
169.086810 41.000000
185.049330 9.000000
185.060650 25.000000
229.019040 6.000000
229.050520 251.000000
230.055340 41.000000
247.060150 445.000000
248.067640 62.000000
249.065930 10.000000
313.110320 11.000000
314.113430 6.000000
355.109590 9.000000
379.114620 8.000000
379.126800 6.000000
397.074160 5.000000
397.128690 1000.000000
398.123050 82.000000
398.137210 211.000000
399.133670 58.000000
414.133000 290.000000
415.136570 280.000000

>ms2
85.028500 33.000000
93.033690 7.000000
108.751270 7.000000
115.055710 6.000000
117.070660 136.000000
122.035000 19.000000
122.041740 12.000000
129.072420 16.000000
131.047500 20.000000
132.050080 6.000000
133.062030 47.000000
133.072310 12.000000
134.067990 18.000000
135.033660 5.000000
135.046140 77.000000
136.044510 11.000000
138.066510 17.000000
139.054810 5.000000
143.050930 64.000000
144.055880 16.000000
145.042280 6.000000
145.064610 301.000000
146.065110 16.000000
147.044710 16.000000
147.082210 11.000000
147.845290 9.000000
148.041990 5.000000
148.050930 8.000000
149.058440 8.000000
151.037580 9.000000
152.051130 11.000000
153.055480 50.000000
154.054060 8.000000
154.068190 11.000000
155.051610 23.000000
156.054150 8.000000
159.042860 11.000000
159.052030 5.000000
161.052120 17.000000
161.062130 41.000000
162.065720 6.000000
164.042560 7.000000
166.055360 5.000000
168.076570 45.000000
169.049350 6.000000
169.082690 34.000000
170.095640 7.000000
171.042470 13.000000
171.049410 11.000000
171.090520 5.000000
172.051010 5.000000
172.058990 10.000000
173.059950 220.000000
174.056730 16.000000
174.072400 12.000000
174.920700 6.000000
175.074970 127.000000
175.084300 20.000000
177.054140 8.000000
178.560520 6.000000
179.057390 6.000000
181.070070 5.000000
181.079730 19.000000
181.087390 36.000000
183.056610 6.000000
184.766490 6.000000
185.059620 1000.000000
185.618030 7.000000
186.043400 13.000000
186.063020 139.000000
186.113020 5.000000
187.039750 15.000000
187.055250 6.000000
187.065290 14.000000
188.052430 49.000000
189.040410 20.000000
189.055310 124.000000
190.054080 18.000000
190.064450 5.000000
191.198730 7.000000
192.383730 6.000000
195.056930 12.000000
195.066500 43.000000
195.104200 6.000000
196.066390 11.000000
198.085820 5.000000
199.042370 16.000000
200.044100 12.000000
200.056530 7.000000
201.046250 41.000000
201.058440 84.000000
201.105030 5.000000
202.056020 32.000000
203.073350 53.000000
204.048490 7.000000
205.857930 17.000000
219.066930 112.000000
219.082530 13.000000
219.166520 9.000000
220.068820 30.000000
221.092540 5.000000
225.082350 11.000000
227.033480 7.000000
228.037920 9.000000
229.036420 28.000000
229.053050 195.000000
229.077480 5.000000
230.039780 5.000000
230.059050 25.000000
231.062730 6.000000
231.545230 10.000000
233.053150 6.000000
233.075440 5.000000
237.895830 7.000000
239.055730 11.000000
239.068760 29.000000
239.078260 14.000000
240.066820 7.000000
246.068530 8.000000
247.063710 86.000000
248.063290 15.000000
248.082580 5.000000
251.071640 8.000000
254.050740 12.000000
255.062040 15.000000
255.069810 9.000000
260.063570 8.000000
262.047670 7.000000
262.063420 5.000000
265.083950 12.000000
266.025120 11.000000
266.053190 8.000000
269.084410 12.000000
269.096160 11.000000
274.065920 10.000000
275.074950 25.000000
275.095340 21.000000
276.089200 9.000000
277.084200 19.000000
277.095120 32.000000
281.684690 6.000000
282.059750 14.000000
282.088900 298.000000
283.062040 52.000000
283.092590 120.000000
284.061740 16.000000
284.078520 17.000000
285.066740 10.000000
285.110260 5.000000
288.407620 7.000000
289.082920 15.000000
290.093230 40.000000
291.107540 41.000000
292.063900 16.000000
293.080570 10.000000
293.097080 13.000000
293.114040 15.000000
294.075740 7.000000
296.950040 10.000000
297.065770 16.000000
297.075960 69.000000
298.080510 85.000000
298.090640 41.000000
299.082610 10.000000
299.093840 11.000000
301.109070 6.000000
302.066740 5.000000
303.074370 8.000000
303.099730 11.000000
304.057620 12.000000
305.070310 26.000000
305.080810 74.000000
306.082210 62.000000
306.099950 23.000000
307.097660 54.000000
308.107300 27.000000
309.074830 28.000000
309.111600 7.000000
311.094240 6.000000
312.100650 71.000000
313.099460 27.000000
313.117030 26.000000
314.100070 15.000000
314.122160 7.000000
319.075320 6.000000
319.088230 24.000000
319.103820 14.000000
319.119320 7.000000
319.444670 5.000000
320.103120 81.000000
320.118470 21.000000
321.083340 21.000000
321.108580 67.000000
322.067140 7.000000
322.111660 36.000000
323.088290 21.000000
323.121490 5.000000
324.061160 9.000000
324.103640 10.000000
325.018490 5.000000
325.109310 20.000000
327.122010 8.000000
333.072200 27.000000
333.097990 5.000000
334.088130 25.000000
335.047610 6.000000
335.094060 35.000000
336.103850 13.000000
337.098820 15.000000
338.111360 23.000000
338.128940 7.000000
339.081300 8.000000
339.122650 12.000000
340.087100 8.000000
341.102230 10.000000
346.096950 6.000000
347.101440 5.000000
348.081450 7.000000
348.096590 24.000000
349.061160 19.000000
349.073150 29.000000
349.112610 8.000000
351.124110 48.000000
352.090210 5.000000
352.115050 16.000000
353.107240 5.000000
354.105100 16.000000
355.116820 10.000000
363.076140 8.000000
365.094020 5.000000
365.112520 7.000000
366.104890 12.000000
366.125030 9.000000
368.071810 6.000000
369.132540 5.000000
379.113040 17.000000
381.107640 13.000000
384.238950 7.000000
397.136260 5.000000
399.118100 6.000000

>ms2
65.043720 24.000000
78.354120 21.000000
79.052790 33.000000
91.052430 25.000000
91.057500 39.000000
93.033310 44.000000
103.053070 67.000000
105.038430 24.000000
105.071820 89.000000
109.027000 26.000000
110.035290 35.000000
115.052630 737.000000
115.062870 81.000000
116.052050 74.000000
116.062900 124.000000
116.865760 28.000000
117.034090 46.000000
117.069660 1000.000000
118.038840 26.000000
118.067890 35.000000
118.075850 37.000000
119.081750 25.000000
121.027660 99.000000
122.033680 91.000000
122.040700 67.000000
123.047030 54.000000
125.059160 60.000000
127.053490 323.000000
128.059810 221.000000
128.072660 43.000000
128.575640 35.000000
130.042820 94.000000
131.049220 416.000000
131.064440 24.000000
132.533910 20.000000
133.063420 130.000000
133.075000 39.000000
134.043690 22.000000
135.037930 113.000000
135.044460 282.000000
136.049320 30.000000
137.052930 26.000000
138.062870 35.000000
139.052340 33.000000
139.079480 22.000000
143.046770 220.000000
144.045990 24.000000
144.053700 73.000000
144.907070 26.000000
145.065690 446.000000
145.078230 24.000000
146.064530 43.000000
147.055590 25.000000
147.068020 32.000000
148.042620 24.000000
148.049990 25.000000
148.606950 28.000000
149.025070 20.000000
149.055100 30.000000
150.028640 58.000000
151.038240 60.000000
152.062870 20.000000
153.071700 110.000000
155.050160 169.000000
156.051710 31.000000
157.069790 24.000000
159.033230 67.000000
159.045470 65.000000
160.058360 45.000000
162.053860 34.000000
163.060360 24.000000
164.061370 52.000000
165.071560 78.000000
166.041500 21.000000
167.082460 24.000000
168.073290 27.000000
169.061740 28.000000
169.080250 38.000000
171.039490 203.000000
172.054810 22.000000
173.052140 39.000000
173.063080 33.000000
174.058750 38.000000
175.057630 27.000000
176.065340 24.000000
177.074890 55.000000
178.076080 24.000000
178.989670 20.000000
180.048680 21.000000
180.063580 21.000000
180.102690 67.000000
181.061980 64.000000
181.092700 28.000000
184.086690 33.000000
185.057530 849.000000
185.642470 24.000000
186.056270 35.000000
186.067200 60.000000
187.036830 61.000000
188.044170 54.000000
188.055620 37.000000
189.060610 156.000000
189.079380 31.000000
190.079760 26.000000
190.087970 41.000000
191.073680 54.000000
192.056730 30.000000
193.079150 20.000000
194.081480 32.000000
195.043440 31.000000
196.062230 33.000000
197.054990 33.000000
198.064190 20.000000
198.071260 30.000000
199.046740 25.000000
200.052080 66.000000
201.056270 20.000000
201.067050 21.000000
204.049760 24.000000
204.091110 30.000000
205.062290 67.000000
205.077640 30.000000
206.059370 21.000000
207.054350 20.000000
207.094360 33.000000
208.047640 39.000000
208.091320 21.000000
209.061110 77.000000
210.059620 47.000000
210.069730 107.000000
211.043810 38.000000
211.075090 53.000000
212.048740 20.000000
212.057010 28.000000
213.043270 34.000000
217.062850 41.000000
217.088330 24.000000
218.073440 55.000000
219.081530 51.000000
220.100570 20.000000
221.065640 61.000000
221.089510 30.000000
221.102140 33.000000
222.063170 20.000000
223.072720 53.000000
224.050450 77.000000
225.045440 99.000000
225.056210 76.000000
226.061230 63.000000
227.929980 34.000000
229.044530 55.000000
230.931460 21.000000
231.079620 47.000000
233.045840 60.000000
233.057500 111.000000
233.075580 47.000000
234.096210 20.000000
235.066820 68.000000
235.087950 53.000000
236.074780 144.000000
236.087590 51.000000
237.061330 79.000000
237.378810 27.000000
238.065380 26.000000
239.072110 336.000000
239.083740 45.000000
240.066940 20.000000
240.083740 90.000000
241.047150 37.000000
241.056080 41.000000
241.080920 59.000000
241.309810 33.000000
247.074980 149.000000
247.085220 33.000000
248.087780 34.000000
248.281340 22.000000
249.062180 25.000000
249.084630 30.000000
250.080890 46.000000
251.032240 35.000000
251.068740 24.000000
251.118760 58.000000
252.035950 25.000000
252.074660 22.000000
253.026290 61.000000
253.052140 98.000000
254.048430 91.000000
254.060090 22.000000
255.056050 40.000000
255.068920 97.000000
256.328220 21.000000
257.963590 24.000000
259.072480 48.000000
261.058440 32.000000
261.094790 26.000000
261.961850 24.000000
262.046810 39.000000
262.064120 106.000000
263.062870 89.000000
263.078770 94.000000
263.102600 20.000000
263.109830 63.000000
264.039670 20.000000
264.075740 31.000000
266.053410 38.000000
267.050660 25.000000
267.065550 151.000000
268.061340 30.000000
269.062160 52.000000
269.075960 24.000000
269.100980 24.000000
270.072140 27.000000
273.099550 21.000000
275.054720 76.000000
275.074860 104.000000
276.059390 68.000000
276.080410 27.000000
277.044130 32.000000
277.096770 30.000000
278.040220 31.000000
278.069270 91.000000
278.083280 53.000000
278.920810 22.000000
279.071140 25.000000
280.039340 50.000000
281.098450 25.000000
281.114620 25.000000
282.059480 35.000000
282.077150 32.000000
282.097290 87.000000
283.055660 34.000000
283.070370 93.000000
287.078030 25.000000
289.052950 60.000000
289.108150 31.000000
289.268550 32.000000
290.084500 91.000000
290.099240 27.000000
291.052760 70.000000
291.073610 24.000000
292.072510 28.000000
293.052520 20.000000
293.101560 26.000000
294.049320 25.000000
294.097410 20.000000
294.680020 24.000000
295.066830 26.000000
305.079650 164.000000
307.095520 24.000000
308.068630 20.000000
309.077940 37.000000
317.849910 32.000000
323.099210 25.000000
332.084290 27.000000
338.103000 27.000000
339.086520 22.000000
346.079410 21.000000
365.815980 61.000000

>ms2
85.027660 17.000000
103.056890 8.000000
115.054940 25.000000
117.068090 35.000000
117.398070 7.000000
118.074650 11.000000
119.053730 5.000000
122.012870 7.000000
122.035800 26.000000
125.060010 8.000000
131.049850 29.000000
133.060990 9.000000
134.031850 8.000000
135.043290 77.000000
136.039400 11.000000
136.048710 7.000000
137.051560 10.000000
138.066420 5.000000
143.050020 16.000000
144.576170 9.000000
145.063980 98.000000
146.065340 16.000000
146.072830 23.000000
147.043300 17.000000
147.079420 10.000000
150.047940 11.000000
151.038800 7.000000
155.048510 11.000000
159.044330 10.000000
160.050630 27.000000
161.059280 15.000000
163.047940 19.000000
165.053120 14.000000
166.845870 10.000000
167.065990 6.000000
167.079730 6.000000
168.074370 20.000000
168.080570 25.000000
168.887280 7.000000
169.085280 121.000000
170.093110 24.000000
171.032590 11.000000
171.046710 6.000000
172.042480 7.000000
173.057910 47.000000
173.071320 16.000000
174.050600 8.000000
175.076400 66.000000
176.079030 7.000000
177.057390 6.000000
179.862150 10.000000
181.088940 32.000000
183.710740 6.000000
184.342320 9.000000
184.983520 9.000000
185.060850 386.000000
185.108810 6.000000
186.063860 66.000000
186.075090 10.000000
187.029020 8.000000
187.037660 8.000000
187.045700 8.000000
187.054520 6.000000
188.043030 42.000000
188.060580 8.000000
189.053860 94.000000
191.070820 6.000000
192.069500 9.000000
193.039090 8.000000
193.052730 8.000000
193.070210 8.000000
195.067180 38.000000
196.070450 8.000000
198.091110 5.000000
199.041600 18.000000
200.042920 10.000000
201.048400 8.000000
201.061260 36.000000
202.059490 8.000000
202.067950 23.000000
203.068830 36.000000
204.066730 19.000000
204.078780 12.000000
208.057800 5.000000
213.054870 5.000000
219.061690 54.000000
219.071000 55.000000
219.085740 9.000000
220.035580 6.000000
220.065170 8.000000
221.083220 12.000000
224.059710 8.000000
225.043440 11.000000
226.058230 8.000000
226.085160 6.000000
226.094390 8.000000
229.048550 219.000000
230.004300 7.000000
230.048140 47.000000
230.059910 14.000000
232.091640 5.000000
233.073040 9.000000
237.056590 7.000000
238.057110 8.000000
239.035510 5.000000
239.072970 23.000000
240.071240 6.000000
240.899140 6.000000
243.744430 7.000000
246.069600 8.000000
247.018420 8.000000
247.059880 716.000000
248.064420 69.000000
249.052540 6.000000
249.066560 18.000000
249.929290 5.000000
251.031980 9.000000
251.062730 9.000000
251.111510 7.000000
252.038930 9.000000
253.084150 10.000000
253.106280 6.000000
254.046260 12.000000
255.063860 15.000000
256.064790 5.000000
258.827610 6.000000
260.081630 5.000000
261.051970 6.000000
263.070310 17.000000
267.061920 25.000000
267.074310 36.000000
268.058780 8.000000
268.077640 8.000000
270.957790 6.000000
273.059200 8.000000
275.087550 13.000000
275.314120 6.000000
276.071470 6.000000
276.088470 7.000000
277.090060 7.000000
278.085170 6.000000
279.061920 18.000000
279.100860 10.000000
280.067350 6.000000
281.083340 8.000000
282.088900 133.000000
283.062040 60.000000
283.084870 13.000000
283.101650 24.000000
284.064210 19.000000
285.101810 6.000000
286.080600 9.000000
288.077300 9.000000
290.084690 15.000000
290.102540 9.000000
291.070620 6.000000
291.082760 8.000000
291.101470 8.000000
292.038150 10.000000
292.077820 19.000000
293.068820 16.000000
295.056730 7.000000
297.067170 14.000000
297.084900 7.000000
297.107240 6.000000
298.080020 82.000000
299.049290 7.000000
299.077420 10.000000
299.091640 9.000000
300.064000 6.000000
300.083710 7.000000
305.074620 40.000000
306.090580 62.000000
307.091610 22.000000
309.096440 6.000000
310.096470 6.000000
311.073060 7.000000
311.530120 8.000000
312.090700 5.000000
312.106170 20.000000
313.067630 6.000000
313.101410 155.000000
313.116150 48.000000
313.461910 5.000000
314.110440 13.000000
317.091740 6.000000
318.036830 8.000000
319.101560 21.000000
320.100400 22.000000
320.110260 22.000000
321.070250 8.000000
321.108640 60.000000
321.123930 12.000000
322.080960 7.000000
322.108760 35.000000
322.133390 13.000000
323.091130 20.000000
323.110470 14.000000
324.086240 5.000000
326.111790 6.000000
329.102840 10.000000
333.074950 29.000000
335.092380 6.000000
336.111240 9.000000
337.096890 7.000000
337.111720 20.000000
338.106410 23.000000
339.098330 5.000000
339.117550 5.000000
339.807160 7.000000
340.101960 6.000000
341.076020 8.000000
347.091370 14.000000
348.067500 6.000000
348.092620 7.000000
348.108730 23.000000
349.060610 9.000000
349.101750 9.000000
351.090550 22.000000
351.117950 70.000000
352.067320 13.000000
352.095890 14.000000
352.130680 6.000000
353.111050 5.000000
353.138400 14.000000
354.102510 15.000000
355.113340 29.000000
359.091980 6.000000
364.090670 15.000000
365.095520 6.000000
366.090610 9.000000
366.109770 15.000000
366.274780 5.000000
367.082180 9.000000
367.125000 8.000000
369.139620 7.000000
377.099270 10.000000
378.681760 8.000000
379.103090 8.000000
379.123750 26.000000
380.106200 11.000000
380.122070 8.000000
382.111150 11.000000
383.112000 6.000000
395.110140 6.000000
396.117550 18.000000
397.093260 30.000000
397.127410 1000.000000
397.242190 6.000000
398.128780 207.000000
398.822270 10.000000
399.110780 22.000000
399.128660 60.000000
399.144290 25.000000
401.150630 7.000000
413.953520 7.000000
414.129520 288.000000
414.942020 6.000000
415.118590 27.000000
415.138950 147.000000
415.252350 7.000000

>ms2
148.329030 7.000000
169.084170 23.000000
169.092530 9.000000
170.085710 7.000000
185.057220 17.000000
185.064620 12.000000
195.068330 5.000000
229.049270 196.000000
230.050280 28.000000
230.065090 11.000000
247.061050 483.000000
248.064010 50.000000
313.109160 46.000000
356.129300 7.000000
365.213990 5.000000
379.117860 12.000000
396.123630 6.000000
397.128170 1000.000000
398.134770 223.000000
399.131810 60.000000
400.140960 7.000000
414.085940 5.000000
414.130890 397.000000
415.100800 6.000000
415.137330 206.000000

>ms2
69.036210 10.000000
85.029420 45.000000
91.053060 24.000000
106.905800 10.000000
110.040210 12.000000
115.053230 48.000000
117.066830 122.000000
117.071910 149.000000
118.072710 10.000000
120.086520 12.000000
122.034290 38.000000
123.046860 38.000000
129.066160 18.000000
131.051790 27.000000
131.831410 9.000000
133.066960 20.000000
134.008380 9.000000
135.042570 75.000000
136.048690 13.000000
138.065840 24.000000
139.070220 15.000000
143.047700 64.000000
144.050810 24.000000
145.046280 12.000000
145.066060 571.000000
146.069990 77.000000
146.077530 25.000000
147.040540 75.000000
147.051380 17.000000
147.082790 10.000000
149.015590 25.000000
151.038990 57.000000
152.041890 24.000000
153.050450 124.000000
154.060470 30.000000
154.069990 12.000000
155.043230 25.000000
155.054440 9.000000
155.073520 11.000000
158.020890 13.000000
159.043620 75.000000
160.043750 15.000000
160.053090 10.000000
160.087860 16.000000
161.060410 122.000000
161.071380 10.000000
162.071150 10.000000
163.037200 20.000000
165.267760 11.000000
166.022860 12.000000
166.057830 32.000000
167.066350 21.000000
167.077090 28.000000
168.073380 30.000000
168.081250 46.000000
169.079420 11.000000
169.089460 66.000000
171.040150 33.000000
172.044750 13.000000
172.704940 10.000000
173.061370 237.000000
174.057590 10.000000
174.070600 25.000000
174.849270 9.000000
175.043610 27.000000
175.074390 288.000000
176.089420 19.000000
177.057270 10.000000
177.080690 9.000000
179.030290 15.000000
179.877030 10.000000
181.086230 29.000000
184.045210 9.000000
184.053670 10.000000
185.059890 1000.000000
186.059880 88.000000
186.069560 77.000000
187.041460 31.000000
188.047960 150.000000
188.137390 9.000000
189.053280 228.000000
190.056720 53.000000
191.032200 13.000000
191.055130 12.000000
191.076190 9.000000
192.076200 10.000000
192.995910 10.000000
193.041500 10.000000
193.508190 10.000000
194.049260 12.000000
195.053620 30.000000
195.064990 58.000000
195.073430 28.000000
196.069110 49.000000
197.062350 17.000000
198.088590 14.000000
199.031190 34.000000
199.043610 50.000000
200.047330 19.000000
200.129880 13.000000
201.032820 9.000000
201.054610 165.000000
202.064130 70.000000
203.068850 46.000000
203.079100 28.000000
204.213040 9.000000
205.073470 9.000000
205.823500 9.000000
207.103610 15.000000
211.928270 11.000000
213.061900 12.000000
216.248110 12.000000
218.380710 9.000000
218.420910 11.000000
219.049670 20.000000
219.065050 203.000000
220.057160 15.000000
220.068180 18.000000
220.078190 30.000000
222.098510 11.000000
224.080470 18.000000
225.034940 11.000000
227.359250 10.000000
229.028630 12.000000
229.041960 89.000000
229.050960 268.000000
230.050580 38.000000
231.060030 21.000000
232.098850 12.000000
236.071520 10.000000
237.055160 15.000000
239.064090 39.000000
239.075850 17.000000
241.053250 9.000000
241.088560 15.000000
246.056500 11.000000
247.044690 31.000000
247.059190 124.000000
248.061940 50.000000
248.080870 13.000000
248.098790 14.000000
249.094040 35.000000
251.040540 12.000000
252.075790 17.000000
253.080310 17.000000
254.053250 16.000000
255.077190 12.000000
259.073550 23.000000
260.075680 14.000000
261.076510 12.000000
263.062290 15.000000
263.071440 14.000000
263.107450 10.000000
267.065160 62.000000
268.068850 16.000000
269.076260 22.000000
269.130000 12.000000
270.055880 27.000000
270.070130 11.000000
274.062680 9.000000
274.073030 9.000000
275.069490 41.000000
275.097020 61.000000
276.072020 15.000000
277.046940 10.000000
277.090180 19.000000
278.047700 14.000000
278.092590 34.000000
279.061890 10.000000
279.074490 23.000000
282.078800 176.000000
282.090730 586.000000
283.018400 27.000000
283.051570 40.000000
283.063600 129.000000
283.086670 22.000000
283.101440 41.000000
283.116970 9.000000
284.054320 11.000000
284.100430 22.000000
285.063320 15.000000
285.957280 12.000000
288.812650 12.000000
289.082670 28.000000
289.090880 53.000000
290.089450 90.000000
290.106870 9.000000
291.068480 61.000000
291.104890 80.000000
292.045440 10.000000
292.069550 27.000000
292.083890 9.000000
292.105930 20.000000
293.087220 13.000000
293.120420 10.000000
294.126070 13.000000
295.067440 9.000000
295.099210 28.000000
297.070130 46.000000
297.080900 46.000000
298.086060 239.000000
299.059780 10.000000
299.075870 24.000000
299.093140 60.000000
300.097690 11.000000
304.068790 20.000000
304.081300 10.000000
305.081910 55.000000
305.096160 9.000000
305.127870 14.000000
306.050870 12.000000
306.077360 84.000000
306.093020 132.000000
306.402100 11.000000
307.092560 142.000000
307.110990 12.000000
307.329710 9.000000
308.087370 14.000000
308.103670 32.000000
309.075160 26.000000
309.100590 18.000000
309.125820 9.000000
310.072200 18.000000
311.082280 13.000000
311.136960 15.000000
312.069610 9.000000
312.095370 88.000000
313.070830 11.000000
313.088010 31.000000
313.102260 79.000000
314.112700 10.000000
314.120180 19.000000
315.064000 13.000000
316.119630 14.000000
317.084440 11.000000
319.086360 42.000000
319.102630 29.000000
320.075010 31.000000
320.098630 133.000000
320.116180 65.000000
321.052730 14.000000
321.080470 64.000000
321.112370 123.000000
321.134890 13.000000
322.071590 81.000000
322.108700 28.000000
322.127930 76.000000
323.074130 11.000000
323.096770 30.000000
323.122100 22.000000
323.133510 9.000000
324.097320 10.000000
325.077850 12.000000
325.100680 33.000000
325.827360 12.000000
327.119690 27.000000
328.984920 13.000000
329.103090 51.000000
333.058620 10.000000
333.069730 20.000000
334.081390 43.000000
335.095150 72.000000
336.104370 68.000000
337.098750 28.000000
337.117920 50.000000
338.090450 18.000000
338.103610 24.000000
338.121190 15.000000
339.120820 11.000000
341.150940 10.000000
344.547090 9.000000
346.075930 16.000000
347.076170 24.000000
347.083980 12.000000
348.102970 57.000000
348.794040 9.000000
349.072630 55.000000
349.103490 18.000000
349.639370 10.000000
350.061800 19.000000
351.098270 33.000000
351.127780 29.000000
352.138180 14.000000
354.103330 63.000000
356.114320 17.000000
356.126280 28.000000
364.068210 16.000000
364.107510 31.000000
365.084200 13.000000
365.103610 10.000000
365.119720 17.000000
366.102630 47.000000
366.119320 10.000000
367.101810 9.000000
367.120510 9.000000
369.143680 49.000000
371.134160 9.000000
379.113130 11.000000
400.320950 13.000000
415.092990 32.000000
415.127410 16.000000

>ms2
67.056600 18.000000
77.035680 25.000000
78.045060 32.000000
79.047940 27.000000
79.055020 85.000000
91.052400 37.000000
93.033760 68.000000
96.054860 46.000000
103.045010 27.000000
103.055560 37.000000
105.068030 58.000000
105.073230 50.000000
110.031480 42.000000
110.228720 26.000000
114.041540 44.000000
115.054660 823.000000
115.557530 30.000000
115.956020 21.000000
116.055400 75.000000
116.062230 70.000000
117.037920 25.000000
117.057560 29.000000
117.069480 694.000000
118.040920 64.000000
119.050250 50.000000
121.031520 19.000000
122.029470 63.000000
122.035420 152.000000
123.040790 58.000000
123.048720 18.000000
124.044890 20.000000
127.055240 603.000000
128.064610 144.000000
129.060270 25.000000
129.070240 142.000000
130.036560 18.000000
130.050670 23.000000
131.048770 189.000000
135.043820 227.000000
135.103960 30.000000
135.432920 26.000000
136.045470 27.000000
138.060490 37.000000
141.023990 21.000000
143.033280 22.000000
143.044690 49.000000
143.060100 21.000000
145.045180 28.000000
145.064250 289.000000
145.072800 128.000000
146.067690 37.000000
150.032030 31.000000
151.031940 25.000000
151.039440 63.000000
152.043730 26.000000
153.057860 26.000000
153.064640 48.000000
155.048690 224.000000
155.060030 22.000000
155.071690 26.000000
156.047960 57.000000
157.062360 29.000000
159.041850 102.000000
161.059600 41.000000
163.036900 23.000000
165.049300 21.000000
165.072740 21.000000
167.056020 23.000000
170.490750 23.000000
171.045430 34.000000
172.053600 27.000000
173.054460 102.000000
174.061250 31.000000
175.042370 19.000000
176.073330 138.000000
177.046170 36.000000
177.056140 22.000000
179.080280 22.000000
181.070340 18.000000
181.083050 26.000000
181.103320 31.000000
182.069270 19.000000
184.044650 32.000000
185.012080 19.000000
185.058030 1000.000000
186.064880 103.000000
187.032390 78.000000
187.043760 27.000000
188.032550 26.000000
188.047210 128.000000
189.047350 61.000000
189.075640 19.000000
189.194290 21.000000
191.081050 74.000000
192.090810 22.000000
193.058910 22.000000
194.066090 32.000000
195.073780 38.000000
196.058260 48.000000
198.061830 22.000000
201.029880 18.000000
201.056370 55.000000
201.079190 21.000000
202.078610 22.000000
203.086290 18.000000
205.073900 21.000000
206.080370 18.000000
207.071470 20.000000
208.095730 21.000000
209.026400 19.000000
209.059940 37.000000
210.071620 35.000000
211.032900 42.000000
211.066930 19.000000
211.079610 68.000000
212.036160 35.000000
214.066350 30.000000
217.059690 46.000000
218.960480 26.000000
219.076930 87.000000
219.090620 20.000000
221.070570 53.000000
221.086120 32.000000
222.082210 27.000000
223.036760 30.000000
223.078600 35.000000
224.044310 86.000000
224.055620 20.000000
225.056610 46.000000
226.054080 49.000000
226.072240 36.000000
229.037050 45.000000
231.039520 31.000000
231.072140 22.000000
231.080960 39.000000
233.059250 38.000000
234.070020 67.000000
235.078570 26.000000
237.057690 69.000000
237.067230 23.000000
237.088990 22.000000
238.062850 86.000000
239.055420 63.000000
239.068120 179.000000
240.038410 46.000000
240.152190 18.000000
241.037750 22.000000
241.092640 19.000000
242.049150 18.000000
244.074490 30.000000
245.057300 21.000000
246.060850 21.000000
247.061870 34.000000
247.083620 31.000000
248.075470 32.000000
249.055730 152.000000
250.050830 23.000000
250.063130 19.000000
251.036830 63.000000
251.067930 26.000000
251.670720 19.000000
252.035630 45.000000
252.431950 18.000000
253.085740 18.000000
254.056110 76.000000
254.092680 18.000000
257.087400 27.000000
259.084140 84.000000
260.024410 28.000000
260.078090 19.000000
261.046300 37.000000
261.059510 31.000000
262.041260 22.000000
262.063450 29.000000
262.081240 37.000000
262.660950 18.000000
263.076020 93.000000
265.045040 55.000000
267.067050 95.000000
267.079500 38.000000
267.104000 39.000000
269.063540 21.000000
275.068820 84.000000
276.084010 47.000000
277.058590 37.000000
277.083130 70.000000
277.098390 36.000000
277.793980 25.000000
278.062900 21.000000
278.093630 22.000000
280.062470 21.000000
281.066280 25.000000
282.049160 42.000000
282.071040 20.000000
282.081940 65.000000
282.096710 43.000000
283.064940 166.000000
287.073430 42.000000
289.092650 21.000000
289.103760 18.000000
290.058590 34.000000
290.308780 21.000000
291.056490 37.000000
291.076200 21.000000
291.100860 23.000000
292.068700 30.000000
293.525210 18.000000
294.073430 22.000000
295.537540 23.000000
301.037690 19.000000
303.074550 31.000000
304.069400 21.000000
305.081300 115.000000
305.092800 29.000000
306.096310 27.000000
320.106050 34.000000
321.070530 19.000000
322.066440 23.000000
322.083890 21.000000

