>compound PR22487175
>parentmass 225.07574990769237
>ionization [M+H]+
>formula C11H12O5
>rt 252.394191
>profile qtof
#smiles_iso COC1=CC(=CC(=C1O)OC)/C=C/C(=O)O
#smiles_can COC1=CC(=CC(=C1O)OC)C=CC(=O)O
#inchikey PCMORTLOPMLEFB-ONEGZZNKSA-N
#pubchem_id 637775
#mb_accession PR303342,PR303345,PR303348,PR303351,PR303354,PR303357,PR303360,PR303363,PR303366,PR303369,PR303372,PR303375,PR311176

>ms2
91.054390 297.000000
93.032820 87.000000
118.041560 151.000000
119.046080 228.000000
145.928590 132.000000
146.033480 105.000000
147.044780 233.000000
148.043850 91.000000
149.030560 82.000000
170.603330 78.000000
175.043700 256.000000
176.050310 87.000000
186.953460 242.000000
190.927550 91.000000
192.042390 306.000000
195.929570 183.000000
197.048900 187.000000
207.062450 845.000000
208.057800 123.000000
208.073060 119.000000
209.046950 96.000000
224.068410 1000.000000

>ms2
140.995700 22.000000
147.046170 14.000000
175.029310 45.000000
175.043410 50.000000
176.044220 26.000000
179.035110 14.000000
182.979400 14.000000
183.060320 26.000000
206.972470 16.000000
207.034290 14.000000
207.066570 1000.000000
208.048360 17.000000
208.068450 73.000000
208.075060 21.000000
209.041090 11.000000
209.592010 11.000000
224.047360 23.000000
224.066620 370.000000
224.075850 147.000000
225.056110 11.000000
225.075780 187.000000

>ms2
79.050000 459.000000
89.041280 255.000000
91.056660 796.000000
95.044460 214.000000
100.928710 296.000000
105.030650 327.000000
109.375850 194.000000
116.033200 286.000000
117.037350 265.000000
118.042790 235.000000
119.051910 184.000000
121.026370 245.000000
134.018220 276.000000
135.055310 184.000000
147.042270 347.000000
149.027280 1000.000000
177.016270 429.000000
209.035190 204.000000

>ms2
91.053180 1000.000000
120.013420 674.000000
121.033250 488.000000
149.021850 558.000000

>ms2
83.046650 34.000000
91.054450 152.000000
94.974770 27.000000
118.041790 58.000000
119.043660 40.000000
119.048000 126.000000
119.059440 53.000000
120.048100 32.000000
120.976500 29.000000
121.027690 36.000000
122.040250 79.000000
132.020100 58.000000
133.031850 52.000000
134.030960 34.000000
141.003430 39.000000
141.961460 102.000000
147.034090 31.000000
147.044050 37.000000
148.045870 116.000000
150.034810 34.000000
175.033360 165.000000
175.045810 29.000000
176.040250 71.000000
183.061680 40.000000
192.037000 89.000000
207.063980 1000.000000
209.034620 107.000000
209.041050 37.000000
210.045210 48.000000
224.067840 213.000000
225.086070 94.000000

>ms2
136.061070 21.000000
141.944780 14.000000
142.125440 13.000000
169.894870 17.000000
175.039580 204.000000
175.056260 17.000000
178.074160 20.000000
181.046110 36.000000
183.063890 35.000000
186.960680 28.000000
193.056900 23.000000
206.984130 15.000000
207.062880 1000.000000
207.078800 256.000000
207.546800 26.000000
208.062380 35.000000
208.076770 40.000000
209.031490 12.000000
213.849460 11.000000
224.067780 455.000000
224.079700 53.000000
224.938460 17.000000
225.055250 14.000000
225.077700 132.000000

>ms2
66.037480 183.000000
77.034380 258.000000
77.042340 473.000000
91.049940 1000.000000
91.056230 634.000000
92.022640 323.000000
93.023540 237.000000
96.032680 419.000000
98.941340 398.000000
119.051990 581.000000
120.023290 247.000000
120.058970 419.000000
121.025440 280.000000
127.046310 462.000000
135.044160 355.000000
135.055790 280.000000
136.056400 237.000000
145.021670 484.000000
147.050460 688.000000
148.039660 290.000000
149.022830 301.000000
150.022690 323.000000
161.029140 237.000000
174.029530 333.000000
175.045010 269.000000
181.049470 323.000000
182.055710 527.000000

>ms2
118.038490 1000.000000
118.046620 586.000000

>ms2
91.058740 97.000000
101.038780 151.000000
105.028910 116.000000
118.036840 33.000000
119.019360 33.000000
119.052460 45.000000
120.054510 132.000000
121.027980 78.000000
132.020100 58.000000
132.050720 58.000000
136.056950 48.000000
138.977010 54.000000
140.972500 70.000000
147.043080 93.000000
149.021190 54.000000
153.057010 78.000000
155.067280 58.000000
164.044490 47.000000
172.547230 76.000000
174.030210 33.000000
175.012050 45.000000
175.036760 264.000000
176.039150 35.000000
176.047120 76.000000
177.054570 39.000000
182.966640 39.000000
192.045720 62.000000
207.046810 176.000000
207.065220 1000.000000
208.069120 149.000000
209.039600 81.000000
224.067260 324.000000
224.080810 122.000000
225.074300 79.000000
225.093290 122.000000

>ms2
141.957700 22.000000
142.955900 16.000000
143.308640 14.000000
148.197780 46.000000
148.644970 23.000000
156.636670 14.000000
163.046860 19.000000
175.025310 22.000000
175.037410 188.000000
175.045820 43.000000
182.989520 32.000000
183.068860 21.000000
184.491730 17.000000
184.984020 19.000000
192.015810 26.000000
193.053760 45.000000
194.060360 42.000000
196.059360 17.000000
196.069670 15.000000
197.052870 26.000000
207.037400 17.000000
207.064560 1000.000000
207.128420 15.000000
208.069400 191.000000
223.059970 34.000000
224.038850 31.000000
224.068500 584.000000
225.049130 29.000000
225.068130 143.000000
225.078640 126.000000

>ms2
67.051930 287.000000
77.040570 383.000000
89.036670 168.000000
91.053050 605.000000
91.057930 1000.000000
92.056470 180.000000
93.026180 144.000000
93.932500 126.000000
97.974820 216.000000
101.036200 150.000000
108.060300 162.000000
111.043190 120.000000
117.033250 174.000000
118.042050 162.000000
118.049350 102.000000
119.049860 275.000000
120.051770 114.000000
122.033650 210.000000
133.027850 96.000000
133.034450 132.000000
133.411540 198.000000
138.034450 144.000000
147.048920 132.000000
149.023240 234.000000
149.032650 198.000000
150.008360 186.000000

>ms2
65.031060 1000.000000
104.025330 870.000000

>ms2
91.054390 65.000000
93.032820 19.000000
118.041560 33.000000
119.046080 50.000000
145.928590 29.000000
146.033480 23.000000
147.044780 51.000000
148.043850 20.000000
149.030560 18.000000
170.603330 17.000000
175.043700 56.000000
176.050310 19.000000
186.953460 53.000000
190.927550 20.000000
192.042390 67.000000
195.929570 40.000000
197.048900 41.000000
207.062450 185.000000
208.057800 27.000000
208.073060 26.000000
209.046950 21.000000
224.068410 219.000000

