>compound PR22479502
>parentmass 295.1804898
>ionization [M+H]+
>formula C19H22N2O
>rt 214.543980
>profile qtof
#smiles_iso C/C=C/1\CN2[C@H]3C[C@H]1[C@@H]([C@@H]2CC4=C3NC5=CC=CC=C45)CO
#smiles_can CC=C1CN2C3CC1C(C2CC4=C3NC5=CC=CC=C45)CO
#inchikey VXTDUGOBAOLMED-CPEJFPLXSA-N
#pubchem_id 44584550
#mb_accession PR300060,PR300065,PR300070,PR300075,PR300080,PR300085,PR300090,PR300095,PR300100,PR300105,PR300110,PR300115

>ms2peaks
108.080670 25.000000
120.082430 6.000000
122.096150 12.000000
129.070080 10.000000
130.066540 18.000000
131.073530 11.000000
132.081970 7.000000
134.098360 10.000000
138.091450 39.000000
143.074370 9.000000
144.080660 51.000000
145.084030 8.000000
146.095180 23.000000
156.080600 50.000000
157.087720 17.000000
158.095730 32.000000
164.108630 7.000000
167.075120 8.000000
168.076280 17.000000
168.085890 18.000000
170.095090 22.000000
180.082550 8.000000
181.083590 7.000000
193.086270 7.000000
194.099080 15.000000
195.104830 6.000000
204.081700 10.000000
205.087620 5.000000
206.094760 10.000000
207.097670 11.000000
207.106770 8.000000
208.111510 11.000000
217.089370 11.000000
218.092440 10.000000
218.101200 5.000000
219.099980 8.000000
220.112520 9.000000
222.126970 27.000000
230.095320 7.000000
231.100590 7.000000
231.114650 5.000000
232.113510 5.000000
234.112400 6.000000
234.128560 8.000000
235.126650 10.000000
247.120800 9.000000
248.141970 15.000000
260.135960 5.000000
260.144590 15.000000
261.136960 6.000000
263.158290 10.000000
265.171170 24.000000
277.170900 72.000000
278.153230 5.000000
278.166110 14.000000
295.180540 1000.000000
295.229710 28.000000

>ms2peaks
277.171420 8.000000
295.181090 1000.000000
295.230500 35.000000

>ms2peaks
51.283250 9.000000
55.051160 15.000000
79.053280 18.000000
81.055810 9.000000
81.069460 35.000000
82.063000 10.000000
84.076770 14.000000
84.083950 9.000000
86.063480 6.000000
91.054000 54.000000
91.061200 8.000000
92.051650 7.000000
92.059550 22.000000
93.056110 14.000000
93.067800 57.000000
93.073780 12.000000
94.063250 15.000000
94.073570 17.000000
96.080450 6.000000
96.084720 15.000000
97.083720 5.000000
103.052440 10.000000
105.070120 10.000000
105.074580 9.000000
106.053460 7.000000
106.064520 36.000000
107.074520 15.000000
107.087370 5.000000
107.263030 7.000000
108.034610 9.000000
108.080310 553.000000
109.065110 26.000000
109.076730 23.000000
109.085790 39.000000
109.098680 10.000000
110.059140 7.000000
110.092720 29.000000
110.101390 11.000000
111.079910 43.000000
112.073590 10.000000
112.083680 7.000000
115.019100 5.000000
115.049280 12.000000
115.056080 25.000000
116.057140 6.000000
117.056760 57.000000
117.067610 22.000000
117.837450 5.000000
118.051540 6.000000
118.064960 149.000000
119.060560 9.000000
119.072000 16.000000
119.084010 18.000000
120.057670 10.000000
120.069020 10.000000
120.082280 174.000000
120.092250 16.000000
120.579790 8.000000
121.055160 10.000000
121.064690 6.000000
121.087040 158.000000
121.099590 5.000000
122.085480 18.000000
122.096190 182.000000
123.068130 28.000000
123.103530 22.000000
124.115590 17.000000
127.052630 25.000000
128.049350 5.000000
128.060760 62.000000
129.020510 5.000000
129.055280 5.000000
129.070250 270.000000
130.049790 25.000000
130.066650 313.000000
131.072490 200.000000
131.086580 38.000000
132.045750 6.000000
132.081090 91.000000
133.082150 17.000000
133.100650 14.000000
134.073230 5.000000
134.091550 99.000000
134.098940 96.000000
135.079240 17.000000
135.097610 41.000000
136.075560 25.000000
136.110400 24.000000
137.082090 9.000000
137.113600 10.000000
137.124560 6.000000
138.075200 24.000000
138.090940 625.000000
139.089770 16.000000
139.095790 34.000000
140.099590 24.000000
140.105420 18.000000
140.114380 7.000000
141.063930 6.000000
141.071870 6.000000
141.091130 5.000000
142.083510 12.000000
143.071140 136.000000
143.088680 31.000000
144.058350 22.000000
144.080170 1000.000000
145.069820 18.000000
145.084900 98.000000
146.083360 16.000000
146.097370 351.000000
147.100800 69.000000
148.045610 5.000000
148.086690 8.000000
148.106480 48.000000
148.118030 13.000000
148.935550 5.000000
150.091720 5.000000
150.130860 5.000000
150.744740 6.000000
152.058840 9.000000
152.074830 5.000000
152.098800 5.000000
152.109910 33.000000
152.703770 5.000000
153.066010 24.000000
154.068660 18.000000
155.060210 25.000000
155.074170 76.000000
156.048220 5.000000
156.055150 10.000000
156.079880 943.000000
157.059510 8.000000
157.068760 19.000000
157.085720 282.000000
158.060530 12.000000
158.085450 77.000000
158.097030 457.000000
159.096360 95.000000
159.106870 26.000000
159.311390 8.000000
160.072710 9.000000
160.114460 35.000000
161.076390 6.000000
161.129010 9.000000
161.555970 5.000000
164.106930 72.000000
165.066990 6.000000
166.062330 6.000000
166.077480 5.000000
166.122510 13.000000
166.136800 8.000000
167.074310 133.000000
168.059890 7.000000
168.081890 700.000000
169.071500 19.000000
169.084880 138.000000
170.045070 6.000000
170.072340 29.000000
170.097340 444.000000
171.087520 25.000000
171.096250 91.000000
171.108990 12.000000
172.103640 31.000000
173.113390 7.000000
173.811520 5.000000
179.087780 13.000000
180.080550 156.000000
181.061480 7.000000
181.085560 83.000000
181.097530 26.000000
182.070740 6.000000
182.087480 54.000000
182.098630 89.000000
182.127990 6.000000
183.074170 7.000000
183.096880 13.000000
183.106550 16.000000
184.087740 6.000000
184.103900 6.000000
184.112920 13.000000
186.118000 6.000000
186.151980 11.000000
187.093810 10.000000
187.101490 9.000000
190.336070 6.000000
191.067540 8.000000
191.078640 28.000000
191.087740 7.000000
191.469860 5.000000
192.055590 6.000000
192.072450 8.000000
192.084090 39.000000
192.097960 8.000000
192.512310 8.000000
193.059480 15.000000
193.076020 49.000000
193.088130 158.000000
194.066850 14.000000
194.077100 8.000000
194.093230 161.000000
194.101530 145.000000
195.075650 6.000000
195.101530 192.000000
195.118590 11.000000
196.099660 25.000000
196.110410 157.000000
197.106110 17.000000
197.116580 10.000000
199.144010 7.000000
201.265000 6.000000
203.084630 12.000000
204.070360 16.000000
204.081450 61.000000
204.090380 33.000000
205.058210 8.000000
205.090940 88.000000
205.106890 5.000000
206.069520 21.000000
206.094850 141.000000
206.673310 5.000000
207.084530 20.000000
207.101650 245.000000
208.111540 233.000000
208.137330 5.000000
209.105070 20.000000
209.118090 23.000000
209.127580 19.000000
210.082490 5.000000
210.103030 9.000000
210.112050 11.000000
210.127500 44.000000
211.092360 12.000000
212.374100 5.000000
215.114720 7.000000
216.069790 5.000000
216.092100 6.000000
217.066120 9.000000
217.088810 109.000000
218.096470 234.000000
219.071010 12.000000
219.094540 99.000000
219.107530 66.000000
220.070830 7.000000
220.087680 24.000000
220.110120 109.000000
220.116790 39.000000
220.207060 5.000000
221.101820 17.000000
221.117160 72.000000
222.077840 7.000000
222.095110 22.000000
222.126790 421.000000
222.170070 6.000000
223.129960 59.000000
223.144230 8.000000
224.078840 5.000000
224.092650 5.000000
224.104160 12.000000
224.126360 11.000000
224.140730 29.000000
224.151980 6.000000
226.125310 95.000000
226.137600 31.000000
227.126460 11.000000
229.069950 5.000000
229.083070 9.000000
229.103670 9.000000
230.084370 22.000000
230.100600 97.000000
231.067180 7.000000
231.082430 13.000000
231.103520 165.000000
232.111370 155.000000
233.054980 6.000000
233.105620 127.000000
233.114850 119.000000
233.144320 8.000000
234.070600 9.000000
234.101260 50.000000
234.113420 44.000000
234.128390 105.000000
234.158630 5.000000
235.104660 11.000000
235.122650 151.000000
235.292190 12.000000
236.127640 84.000000
236.149580 42.000000
237.129730 31.000000
237.161060 5.000000
238.129560 18.000000
239.109880 5.000000
239.154330 6.000000
241.133830 12.000000
242.109100 15.000000
243.102750 9.000000
243.125990 6.000000
244.102370 24.000000
244.113080 91.000000
245.087590 8.000000
245.120620 204.000000
246.044600 7.000000
246.101970 5.000000
246.115370 22.000000
246.127660 46.000000
246.147310 6.000000
247.115200 86.000000
247.126620 182.000000
248.103040 8.000000
248.129350 104.000000
248.143710 91.000000
248.695040 8.000000
248.905810 5.000000
249.118160 24.000000
249.139500 226.000000
250.119420 8.000000
250.146560 43.000000
250.164430 22.000000
251.088760 6.000000
251.118530 49.000000
252.128890 8.000000
258.129460 15.000000
259.118960 15.000000
259.139680 13.000000
260.141750 139.000000
260.160710 11.000000
261.139680 133.000000
262.134490 22.000000
262.148830 151.000000
262.942200 5.000000
263.115050 15.000000
263.132260 26.000000
263.154970 229.000000
264.127530 6.000000
264.156160 57.000000
264.170140 44.000000
265.136840 23.000000
265.170380 125.000000
266.142060 22.000000
266.151490 19.000000
267.154020 9.000000
267.168610 6.000000
268.158540 5.000000
274.137600 6.000000
275.136540 6.000000
275.152980 13.000000
277.169530 292.000000
278.142060 7.000000
278.159390 39.000000
278.173460 87.000000
279.149720 37.000000
279.181430 9.000000
280.162570 18.000000
281.164610 8.000000
289.701450 7.000000
293.149200 7.000000
293.176420 8.000000
295.157500 27.000000
295.181880 257.000000

>ms2peaks
65.037500 18.000000
67.052930 46.000000
71.055670 19.000000
74.573210 10.000000
77.036170 47.000000
77.042140 52.000000
78.042390 14.000000
79.054310 99.000000
80.049780 23.000000
80.054990 27.000000
80.167870 15.000000
81.049530 25.000000
81.066240 10.000000
85.088710 16.000000
87.950580 20.000000
89.615170 10.000000
90.044890 13.000000
90.053540 32.000000
91.055720 186.000000
91.095410 15.000000
92.051610 38.000000
92.059910 13.000000
93.017730 12.000000
93.033080 10.000000
93.057430 242.000000
93.069330 33.000000
94.039770 22.000000
94.051910 21.000000
94.065810 43.000000
94.073200 43.000000
95.057240 10.000000
101.043790 18.000000
102.046570 14.000000
103.044820 18.000000
103.054240 49.000000
104.047490 25.000000
105.060710 21.000000
105.071680 37.000000
106.047270 27.000000
106.059570 115.000000
106.071880 89.000000
107.072730 45.000000
108.078340 261.000000
108.083750 131.000000
109.082270 80.000000
109.093980 15.000000
115.041050 35.000000
115.054890 141.000000
116.049820 34.000000
116.056890 44.000000
116.069410 26.000000
117.059270 166.000000
117.070000 90.000000
118.050350 9.000000
118.062400 33.000000
118.071240 27.000000
119.069950 90.000000
119.084790 11.000000
120.045710 24.000000
120.082510 180.000000
120.741920 13.000000
121.084350 31.000000
121.090900 55.000000
122.056690 14.000000
122.087040 8.000000
122.093950 66.000000
122.100960 15.000000
123.060240 24.000000
123.070680 113.000000
123.086370 17.000000
127.039960 17.000000
127.050670 46.000000
127.058530 136.000000
128.050310 182.000000
128.061220 543.000000
128.622190 14.000000
128.796980 9.000000
129.050900 48.000000
129.070720 601.000000
130.064380 476.000000
130.072920 99.000000
131.054930 26.000000
131.071410 279.000000
131.078380 77.000000
132.065140 11.000000
132.080670 59.000000
133.053760 13.000000
134.088260 32.000000
134.098790 21.000000
136.070480 33.000000
136.079250 9.000000
137.073960 43.000000
137.083760 10.000000
138.055620 10.000000
138.089750 26.000000
138.096500 16.000000
139.052030 34.000000
139.059970 51.000000
139.098680 9.000000
140.047970 19.000000
140.063290 23.000000
141.052410 11.000000
141.067570 50.000000
141.075330 48.000000
142.054660 21.000000
142.065480 40.000000
142.367750 11.000000
143.038800 9.000000
143.054670 12.000000
143.067210 114.000000
143.075580 335.000000
143.126110 10.000000
144.064090 15.000000
144.080760 594.000000
145.067950 18.000000
145.083220 46.000000
145.556990 14.000000
146.083860 9.000000
146.094960 34.000000
146.101390 29.000000
147.105470 9.000000
151.060650 28.000000
152.047180 14.000000
152.064040 37.000000
153.052800 17.000000
153.075680 19.000000
154.039400 10.000000
154.051930 15.000000
154.066620 434.000000
155.061050 59.000000
155.072280 105.000000
155.079790 55.000000
156.057310 21.000000
156.080690 502.000000
157.081480 30.000000
157.088240 40.000000
158.082150 14.000000
158.096650 105.000000
158.107680 10.000000
159.083070 19.000000
159.566130 9.000000
162.079790 9.000000
162.996030 12.000000
164.061250 12.000000
164.097790 11.000000
165.036410 12.000000
165.060810 15.000000
165.071170 108.000000
165.080640 39.000000
165.918520 13.000000
166.034700 11.000000
166.057530 26.000000
166.071840 60.000000
166.081670 25.000000
167.034760 33.000000
167.059560 100.000000
167.073460 1000.000000
167.194840 9.000000
168.042740 11.000000
168.054840 12.000000
168.079850 530.000000
168.658510 13.000000
169.083150 72.000000
169.091830 18.000000
170.078670 13.000000
170.089750 33.000000
170.098800 26.000000
170.630920 14.000000
171.088180 9.000000
171.102540 13.000000
174.089250 13.000000
175.057050 15.000000
177.064930 30.000000
177.078460 21.000000
178.063290 18.000000
178.073010 89.000000
178.082980 43.000000
179.050340 17.000000
179.067520 53.000000
179.080340 126.000000
180.058010 12.000000
180.079990 290.000000
180.086900 230.000000
180.184840 9.000000
181.066410 9.000000
181.090610 111.000000
182.091380 103.000000
183.090850 13.000000
183.103260 11.000000
184.103910 15.000000
185.916430 11.000000
189.063630 13.000000
190.067670 9.000000
190.079330 47.000000
190.184270 17.000000
190.799120 14.000000
191.073670 312.000000
191.091660 24.000000
192.042660 12.000000
192.074950 132.000000
192.085480 87.000000
192.091050 37.000000
193.072100 10.000000
193.089780 454.000000
194.088420 108.000000
194.100850 270.000000
195.077880 12.000000
195.097930 215.000000
195.108870 76.000000
196.095990 11.000000
196.108290 35.000000
197.455320 10.000000
201.061360 22.000000
202.063670 16.000000
202.078310 49.000000
203.062940 10.000000
203.069760 29.000000
203.086870 26.000000
204.020070 11.000000
204.082200 575.000000
205.068410 37.000000
205.085800 84.000000
205.095840 91.000000
206.036150 10.000000
206.049300 10.000000
206.065280 10.000000
206.075610 46.000000
206.090590 262.000000
206.101380 214.000000
206.941860 10.000000
207.041610 14.000000
207.083500 38.000000
207.094220 71.000000
207.105360 114.000000
208.096730 45.000000
208.109390 21.000000
208.339200 9.000000
209.109070 25.000000
210.104050 9.000000
211.138930 14.000000
213.426240 10.000000
215.080280 50.000000
215.091920 19.000000
215.120970 9.000000
216.075210 91.000000
216.089740 28.000000
217.069240 53.000000
217.088470 472.000000
217.099640 91.000000
217.167630 12.000000
217.256290 14.000000
217.737630 9.000000
217.873860 27.000000
218.096630 312.000000
218.820010 9.000000
219.056030 13.000000
219.088000 90.000000
219.096600 98.000000
219.107240 77.000000
220.018110 9.000000
220.087220 12.000000
220.098040 58.000000
220.108120 108.000000
221.065700 14.000000
221.113400 36.000000
221.125730 36.000000
222.119090 51.000000
222.137800 18.000000
222.548140 12.000000
223.118100 10.000000
223.124280 20.000000
226.080320 11.000000
227.083790 31.000000
228.080180 85.000000
229.074570 9.000000
229.089430 77.000000
229.098110 38.000000
230.050280 17.000000
230.097460 286.000000
231.089220 32.000000
231.103230 214.000000
232.057270 13.000000
232.079360 22.000000
232.099470 203.000000
232.114120 54.000000
232.129140 12.000000
233.107380 153.000000
233.123890 59.000000
234.056660 10.000000
234.099290 17.000000
234.131420 15.000000
235.113950 27.000000
235.128950 38.000000
237.099730 20.000000
242.053160 14.000000
242.087070 44.000000
242.101960 26.000000
243.081540 25.000000
243.101470 42.000000
244.087170 12.000000
244.106640 76.000000
244.114780 108.000000
244.124760 43.000000
245.092380 13.000000
245.103710 26.000000
245.117550 71.000000
245.132350 16.000000
246.107960 40.000000
246.126100 24.000000
246.140900 21.000000
247.094960 10.000000
247.128560 148.000000
248.097690 10.000000
248.121030 16.000000
248.131010 14.000000
249.140300 13.000000
252.965670 13.000000
258.138550 13.000000
259.141140 9.000000
260.133330 19.000000
261.107570 18.000000
261.129270 88.000000
261.148250 14.000000
262.135650 10.000000
263.161680 13.000000
265.121280 10.000000
266.201660 13.000000
271.606320 15.000000

>ms2peaks
108.080390 31.000000
119.085980 5.000000
120.081570 12.000000
121.087730 8.000000
122.096280 11.000000
129.068340 15.000000
130.064740 22.000000
131.068730 5.000000
131.075730 7.000000
132.082120 7.000000
134.094860 10.000000
138.090700 41.000000
143.075550 5.000000
144.081180 55.000000
145.083820 7.000000
146.094730 28.000000
156.079820 37.000000
157.087550 22.000000
158.096120 28.000000
167.068830 5.000000
168.079960 25.000000
170.097350 30.000000
180.075200 6.000000
180.085300 9.000000
182.090030 6.000000
193.078810 7.000000
193.090940 6.000000
194.097430 15.000000
195.098790 8.000000
204.081390 6.000000
206.094790 12.000000
207.090940 9.000000
207.105040 10.000000
208.109950 12.000000
208.118160 5.000000
217.092070 6.000000
218.098530 9.000000
219.093840 7.000000
219.106280 6.000000
220.112030 7.000000
222.118680 10.000000
222.128460 24.000000
230.100280 9.000000
231.099620 10.000000
232.102580 6.000000
232.114590 7.000000
233.104220 8.000000
234.115650 10.000000
235.124370 17.000000
236.140430 5.000000
244.112060 8.000000
245.117840 11.000000
246.124190 8.000000
247.129700 11.000000
248.144300 8.000000
249.142590 9.000000
260.142000 22.000000
262.145570 5.000000
263.158110 9.000000
264.152220 6.000000
265.168950 21.000000
277.169740 57.000000
278.164610 23.000000
279.157170 5.000000
295.136900 6.000000
295.181030 1000.000000
295.230220 30.000000

>ms2peaks
277.170870 11.000000
295.129180 7.000000
295.179320 1000.000000
295.228550 32.000000

>ms2peaks
51.237250 5.000000
55.054160 20.000000
56.056310 7.000000
58.054810 8.000000
67.052540 19.000000
69.071560 5.000000
77.039010 21.000000
79.053940 45.000000
80.049360 21.000000
81.072190 8.000000
82.059720 15.000000
83.077710 6.000000
84.043080 8.000000
84.077580 29.000000
85.083940 5.000000
86.059670 10.000000
91.044620 9.000000
91.051220 56.000000
92.051530 18.000000
93.057920 60.000000
93.069360 77.000000
93.076740 16.000000
93.375440 8.000000
94.060710 17.000000
94.073170 28.000000
95.071200 7.000000
95.083560 13.000000
96.077820 20.000000
96.083980 15.000000
102.038940 6.000000
103.053540 21.000000
105.060980 7.000000
105.069920 24.000000
106.060680 18.000000
106.071790 15.000000
107.076610 13.000000
107.088380 26.000000
107.747410 5.000000
107.982250 6.000000
108.066440 45.000000
108.080170 599.000000
108.150870 6.000000
109.062190 15.000000
109.084860 22.000000
110.094820 80.000000
111.081410 30.000000
112.111080 7.000000
115.045150 7.000000
115.051360 16.000000
115.057850 6.000000
117.056230 47.000000
117.064440 66.000000
117.072760 19.000000
118.047340 6.000000
118.066820 110.000000
119.066070 15.000000
119.075120 10.000000
119.086230 15.000000
119.090900 29.000000
120.041690 6.000000
120.054200 6.000000
120.064550 9.000000
120.080850 210.000000
120.677640 7.000000
121.087890 169.000000
121.093780 41.000000
121.183260 7.000000
122.079330 18.000000
122.096530 251.000000
123.067070 11.000000
123.081890 12.000000
123.100460 20.000000
124.064630 6.000000
124.113590 16.000000
126.090450 12.000000
126.759420 8.000000
127.042820 5.000000
127.052420 16.000000
127.059600 11.000000
128.024730 5.000000
128.061340 15.000000
128.069430 16.000000
128.102580 6.000000
129.056210 5.000000
129.069560 235.000000
130.064610 270.000000
131.040080 15.000000
131.068570 129.000000
131.077770 60.000000
131.091630 5.000000
132.064680 8.000000
132.080200 138.000000
132.954560 6.000000
133.082570 16.000000
133.090580 10.000000
133.099550 9.000000
134.069850 7.000000
134.081860 16.000000
134.091770 79.000000
134.099140 100.000000
135.093340 25.000000
135.101290 54.000000
135.700850 11.000000
136.077800 15.000000
136.108150 8.000000
137.097610 7.000000
138.061130 7.000000
138.090680 640.000000
138.220140 8.000000
139.092610 60.000000
140.107740 44.000000
140.323180 6.000000
141.056170 6.000000
141.104830 7.000000
142.052290 17.000000
143.061740 10.000000
143.072750 93.000000
143.088290 17.000000
144.036640 6.000000
144.079960 1000.000000
144.181640 10.000000
145.082720 137.000000
145.088490 51.000000
146.074450 7.000000
146.094540 365.000000
147.098980 36.000000
147.111040 14.000000
148.076540 7.000000
148.112560 37.000000
150.126330 6.000000
152.107410 61.000000
153.062500 10.000000
153.070760 8.000000
154.063430 86.000000
155.073350 97.000000
156.079850 852.000000
157.062760 11.000000
157.086110 228.000000
157.094530 61.000000
158.096890 457.000000
158.838780 5.000000
158.857060 6.000000
159.092010 17.000000
159.100830 55.000000
160.092850 15.000000
160.110810 33.000000
161.093690 6.000000
162.010850 5.000000
164.093230 11.000000
164.105680 45.000000
165.108990 20.000000
166.063370 13.000000
166.074940 19.000000
166.152300 6.000000
167.068470 76.000000
167.078200 56.000000
167.090000 12.000000
168.046230 15.000000
168.079900 597.000000
169.059050 15.000000
169.078520 77.000000
169.089190 67.000000
170.083180 45.000000
170.095980 432.000000
171.100560 79.000000
171.114870 11.000000
172.071760 5.000000
172.083680 7.000000
173.118640 7.000000
178.123020 6.000000
179.084960 20.000000
179.122880 8.000000
179.935100 6.000000
180.055130 14.000000
180.081740 173.000000
181.081650 35.000000
181.091000 70.000000
182.068660 9.000000
182.078110 16.000000
182.088290 44.000000
182.098450 66.000000
183.089450 39.000000
183.102490 13.000000
184.066830 12.000000
184.076190 6.000000
184.092060 10.000000
184.104020 20.000000
184.115910 30.000000
185.084500 9.000000
185.099090 9.000000
185.113420 9.000000
186.110280 6.000000
187.645490 7.000000
191.060460 13.000000
191.068680 16.000000
191.078450 14.000000
191.089160 8.000000
192.035830 5.000000
192.071880 10.000000
193.064790 13.000000
193.088880 194.000000
194.095980 279.000000
194.117320 12.000000
195.078220 7.000000
195.096970 95.000000
195.104400 106.000000
196.093260 26.000000
196.107910 174.000000
196.115650 57.000000
196.123780 15.000000
197.109050 39.000000
198.083690 5.000000
198.110470 6.000000
198.118090 6.000000
198.124890 5.000000
201.079910 7.000000
201.109330 6.000000
201.331940 6.000000
204.064910 7.000000
204.078920 89.000000
205.065990 10.000000
205.086810 63.000000
205.099580 7.000000
206.053010 11.000000
206.063430 6.000000
206.080950 37.000000
206.096220 180.000000
207.065020 5.000000
207.079620 12.000000
207.099370 202.000000
207.109830 66.000000
207.152820 8.000000
207.197710 6.000000
208.072510 11.000000
208.088730 21.000000
208.104520 78.000000
208.114690 113.000000
209.082960 28.000000
209.100230 21.000000
209.120620 43.000000
210.089000 11.000000
210.104130 10.000000
210.112920 14.000000
210.127760 47.000000
210.142930 6.000000
211.103520 9.000000
211.124800 8.000000
212.105220 6.000000
213.719700 7.000000
215.823150 7.000000
216.099460 9.000000
217.073170 18.000000
217.086700 68.000000
217.095230 92.000000
218.095630 169.000000
218.199650 5.000000
219.101140 206.000000
219.611620 9.000000
220.096180 24.000000
220.110290 111.000000
221.103380 51.000000
221.117390 41.000000
221.133190 21.000000
222.084090 8.000000
222.127010 353.000000
222.613560 7.000000
222.944960 5.000000
223.113680 15.000000
223.133680 39.000000
224.105970 33.000000
224.119110 8.000000
224.134840 39.000000
226.110180 18.000000
226.123430 109.000000
227.079970 7.000000
227.109220 9.000000
227.129040 13.000000
228.116330 15.000000
228.911560 5.000000
229.102580 8.000000
230.071410 6.000000
230.088550 52.000000
230.100270 87.000000
231.104490 276.000000
232.094420 28.000000
232.110760 208.000000
233.094450 17.000000
233.114120 213.000000
234.081890 5.000000
234.095900 11.000000
234.111890 78.000000
234.127270 155.000000
235.113750 72.000000
235.123900 256.000000
235.145110 8.000000
236.105820 8.000000
236.122990 64.000000
236.139220 70.000000
237.096650 8.000000
237.127490 10.000000
237.137240 36.000000
239.154050 6.000000
243.260010 13.000000
244.105320 94.000000
244.116130 82.000000
245.091580 11.000000
245.111500 98.000000
245.122380 213.000000
245.140990 6.000000
246.084870 6.000000
246.103380 15.000000
246.119540 34.000000
246.130330 46.000000
247.091780 17.000000
247.110240 54.000000
247.120470 129.000000
247.130420 121.000000
248.098050 6.000000
248.136380 227.000000
249.120190 16.000000
249.141510 192.000000
250.115690 9.000000
250.139140 58.000000
250.153000 22.000000
250.167180 11.000000
251.111910 47.000000
251.134480 5.000000
251.157530 7.000000
252.073930 10.000000
252.132290 11.000000
253.175480 7.000000
257.115020 10.000000
258.122500 29.000000
259.122560 7.000000
259.145810 16.000000
260.106900 15.000000
260.131350 38.000000
260.140780 101.000000
261.138310 193.000000
261.163300 10.000000
262.139950 62.000000
262.155880 52.000000
263.137120 34.000000
263.152890 183.000000
264.129300 15.000000
264.154880 88.000000
265.125890 10.000000
265.155730 28.000000
265.172210 114.000000
266.121280 9.000000
266.142060 14.000000
266.345860 6.000000
267.150850 15.000000
267.178710 10.000000
268.063690 6.000000
272.587310 8.000000
275.132750 7.000000
275.160160 6.000000
275.253630 6.000000
277.140590 43.000000
277.165740 244.000000
277.177460 101.000000
278.136540 28.000000
278.157140 54.000000
278.176970 62.000000
279.149810 41.000000
279.164180 12.000000
279.177250 18.000000
280.151120 11.000000
280.172940 5.000000
286.765080 5.000000
293.162990 27.000000
295.148320 17.000000
295.173650 140.000000
295.184050 183.000000

>ms2peaks
50.275090 11.000000
56.053820 14.000000
63.025830 14.000000
67.047940 12.000000
67.054740 10.000000
69.031200 14.000000
77.037480 90.000000
77.043790 66.000000
78.036900 12.000000
79.049160 12.000000
79.055300 14.000000
80.050990 17.000000
80.059220 15.000000
81.053350 41.000000
81.071010 18.000000
83.073950 16.000000
83.083660 19.000000
83.241970 25.000000
89.039060 43.000000
90.036050 14.000000
90.040340 16.000000
90.051830 18.000000
91.053700 158.000000
92.054070 108.000000
92.851840 12.000000
93.048000 69.000000
93.059330 178.000000
93.069790 78.000000
94.054220 17.000000
94.064100 98.000000
95.068920 11.000000
100.071500 10.000000
103.047160 20.000000
103.057050 113.000000
104.042940 40.000000
105.069340 39.000000
106.058250 24.000000
106.065770 101.000000
107.073160 75.000000
107.086490 12.000000
108.065540 16.000000
108.075330 132.000000
108.081670 393.000000
109.077670 14.000000
109.090100 14.000000
110.060840 16.000000
115.047180 43.000000
115.055990 70.000000
116.051170 23.000000
116.059310 11.000000
116.067490 12.000000
117.044010 23.000000
117.057060 155.000000
117.067890 152.000000
118.062420 135.000000
118.069080 51.000000
118.135660 10.000000
118.353750 14.000000
119.042960 18.000000
119.063750 34.000000
119.072500 75.000000
120.077970 204.000000
121.083470 80.000000
121.094150 22.000000
122.057540 14.000000
122.062450 13.000000
122.089140 15.000000
122.098110 15.000000
123.060750 17.000000
123.068990 82.000000
125.671620 10.000000
126.043670 30.000000
126.091190 20.000000
126.419330 14.000000
127.025170 36.000000
127.054610 210.000000
128.051320 164.000000
128.059950 350.000000
128.066570 310.000000
129.039440 24.000000
129.058360 89.000000
129.070590 457.000000
130.032790 27.000000
130.064540 798.000000
130.081020 18.000000
130.632430 11.000000
131.070220 387.000000
131.079640 72.000000
132.081070 85.000000
132.092040 11.000000
133.443560 12.000000
134.098280 73.000000
135.162340 12.000000
135.552440 10.000000
136.079090 34.000000
137.085530 25.000000
138.039110 10.000000
138.079040 35.000000
138.092450 73.000000
139.054460 47.000000
139.096440 12.000000
140.090320 14.000000
141.039550 12.000000
141.055190 16.000000
141.062380 31.000000
141.076070 31.000000
142.061260 12.000000
142.068470 50.000000
142.077130 14.000000
142.319890 19.000000
143.053090 16.000000
143.072530 430.000000
143.614900 12.000000
143.785870 10.000000
144.048570 18.000000
144.067230 22.000000
144.080080 464.000000
144.220700 10.000000
144.732930 11.000000
144.838070 14.000000
145.073240 12.000000
145.078920 20.000000
146.067600 19.000000
146.092710 82.000000
147.082810 10.000000
147.103610 12.000000
150.085920 12.000000
150.924790 16.000000
152.061170 156.000000
152.739720 10.000000
153.005980 11.000000
153.073520 10.000000
154.039780 11.000000
154.064790 381.000000
155.064830 63.000000
155.071370 204.000000
155.904190 20.000000
156.073350 242.000000
156.082380 530.000000
156.290360 22.000000
157.076810 23.000000
157.087400 75.000000
157.127840 10.000000
157.947420 13.000000
158.094190 41.000000
164.055620 31.000000
164.073350 14.000000
164.882710 21.000000
165.052610 15.000000
165.065490 76.000000
165.072570 47.000000
165.080030 16.000000
166.056820 20.000000
166.064410 53.000000
166.080200 18.000000
166.094880 12.000000
167.072460 1000.000000
167.111420 23.000000
168.022770 23.000000
168.054530 27.000000
168.079800 620.000000
169.077650 86.000000
169.085270 140.000000
170.096220 52.000000
171.110050 12.000000
177.069750 12.000000
178.041170 16.000000
178.066820 37.000000
178.080930 53.000000
178.722400 12.000000
179.058580 19.000000
179.074970 48.000000
179.629470 17.000000
180.031490 14.000000
180.048950 14.000000
180.057160 27.000000
180.079410 454.000000
181.061950 12.000000
181.077770 57.000000
181.087040 104.000000
182.061750 29.000000
182.086460 41.000000
182.102490 26.000000
182.818700 10.000000
183.081130 20.000000
183.099010 16.000000
184.091690 28.000000
184.104430 14.000000
187.059010 14.000000
189.074830 23.000000
189.254550 10.000000
190.065950 17.000000
190.079060 24.000000
191.057680 12.000000
191.072920 254.000000
191.081220 60.000000
191.102630 12.000000
192.043170 20.000000
192.061710 12.000000
192.082610 323.000000
192.099840 16.000000
193.072650 53.000000
193.087160 395.000000
193.101560 49.000000
194.096300 405.000000
195.073670 14.000000
195.091400 80.000000
195.109160 146.000000
195.575670 11.000000
196.078740 12.000000
196.110400 24.000000
201.050350 12.000000
202.077000 68.000000
202.147510 20.000000
202.948670 12.000000
203.060290 18.000000
203.087570 45.000000
203.591510 12.000000
204.056120 36.000000
204.080860 302.000000
205.065700 41.000000
205.080670 246.000000
205.090820 143.000000
206.048600 12.000000
206.091430 284.000000
206.100400 165.000000
207.091570 173.000000
207.104660 219.000000
207.116040 23.000000
208.113880 43.000000
209.109710 28.000000
209.126220 30.000000
214.067180 10.000000
216.071990 40.000000
216.083650 108.000000
216.101120 20.000000
217.068360 20.000000
217.092210 384.000000
217.099930 113.000000
218.073500 11.000000
218.094390 300.000000
218.161500 14.000000
219.087540 108.000000
219.105410 54.000000
219.166640 32.000000
220.097370 70.000000
220.112080 25.000000
220.136030 18.000000
221.095320 17.000000
221.107330 45.000000
222.132550 75.000000
223.138810 15.000000
224.108430 15.000000
226.077300 29.000000
228.069850 68.000000
228.085370 111.000000
229.069090 12.000000
229.084240 19.000000
229.112210 14.000000
229.741410 11.000000
230.085510 71.000000
230.095990 306.000000
230.110950 27.000000
230.415190 13.000000
231.064360 10.000000
231.089130 37.000000
231.099350 149.000000
231.115830 27.000000
231.417080 11.000000
231.540680 11.000000
232.095400 68.000000
232.108860 133.000000
232.270100 11.000000
233.112230 105.000000
233.120270 79.000000
234.117950 41.000000
234.126010 27.000000
235.117650 40.000000
236.121460 34.000000
241.080900 13.000000
241.094210 40.000000
242.060150 15.000000
242.072910 14.000000
242.095790 64.000000
243.094180 127.000000
244.091630 12.000000
244.102420 50.000000
244.110640 137.000000
244.340530 15.000000
245.100160 37.000000
245.116790 36.000000
246.110280 24.000000
246.123000 27.000000
246.131240 19.000000
247.109650 14.000000
247.122390 53.000000
248.128160 89.000000
249.137150 25.000000
259.136350 15.000000
260.127960 12.000000
261.123470 12.000000
261.138090 12.000000
261.148800 33.000000
262.144500 14.000000
262.161500 20.000000
263.152830 12.000000
279.161190 24.000000
295.167510 32.000000
295.181300 136.000000

>ms2peaks
108.079510 29.000000
110.092220 6.000000
120.079900 11.000000
122.091620 8.000000
129.067670 6.000000
129.073580 7.000000
130.059140 7.000000
131.069320 7.000000
134.091350 5.000000
134.098220 6.000000
138.092030 36.000000
140.106350 5.000000
143.068040 5.000000
144.079700 62.000000
145.083720 6.000000
146.090820 15.000000
146.096790 27.000000
152.109800 6.000000
156.079590 28.000000
156.087830 10.000000
157.086670 12.000000
158.097090 22.000000
164.108610 10.000000
168.076740 11.000000
168.084300 19.000000
169.083950 9.000000
170.091540 12.000000
170.101210 17.000000
180.074360 5.000000
181.091260 7.000000
183.092880 5.000000
193.087140 14.000000
194.094100 17.000000
195.103940 7.000000
206.090550 12.000000
207.099560 9.000000
208.111470 13.000000
217.081730 6.000000
218.095810 11.000000
219.094060 6.000000
220.117030 6.000000
222.124370 12.000000
222.136640 17.000000
223.131710 7.000000
230.094090 13.000000
231.107060 9.000000
233.124310 6.000000
234.134000 8.000000
235.115950 8.000000
245.123690 10.000000
247.125340 13.000000
248.121540 5.000000
248.140810 19.000000
249.151760 8.000000
260.138090 10.000000
260.148680 9.000000
261.140410 8.000000
263.149900 9.000000
265.164090 6.000000
265.173890 19.000000
266.150760 7.000000
277.168670 82.000000
278.163850 11.000000
278.176210 12.000000
295.133240 6.000000
295.181210 1000.000000
295.230930 29.000000

>ms2peaks
277.172580 10.000000
295.123840 5.000000
295.180820 1000.000000
295.230470 33.000000

>ms2peaks
54.850720 5.000000
55.055550 5.000000
62.654880 6.000000
68.047330 11.000000
77.041710 11.000000
79.051990 34.000000
81.066070 26.000000
82.054540 5.000000
84.079490 25.000000
91.050070 23.000000
91.055490 54.000000
92.046360 7.000000
92.061470 5.000000
93.051000 7.000000
93.059170 38.000000
93.071880 80.000000
93.487460 6.000000
94.067990 27.000000
95.083800 10.000000
96.085950 7.000000
97.090970 7.000000
100.071560 6.000000
103.056330 18.000000
105.069530 25.000000
106.064380 22.000000
106.070850 13.000000
107.075740 26.000000
108.066330 19.000000
108.079870 475.000000
109.071090 12.000000
109.078280 13.000000
109.085010 41.000000
110.050750 5.000000
110.096790 68.000000
111.063260 9.000000
111.077500 6.000000
111.083890 8.000000
111.097760 21.000000
112.079050 8.000000
114.976470 5.000000
115.051190 14.000000
116.044450 6.000000
116.054190 8.000000
117.060170 64.000000
117.073880 37.000000
118.052280 6.000000
118.065480 74.000000
118.296230 8.000000
119.071330 15.000000
119.083610 36.000000
119.091290 8.000000
120.064780 9.000000
120.080020 175.000000
120.521700 9.000000
121.087760 136.000000
122.065810 10.000000
122.080960 6.000000
122.097320 197.000000
123.071220 21.000000
123.095630 6.000000
124.074880 5.000000
124.113600 11.000000
126.088660 5.000000
127.050220 9.000000
127.058630 5.000000
128.038100 7.000000
128.053010 22.000000
128.061310 51.000000
129.068740 368.000000
130.049260 10.000000
130.065280 335.000000
131.056520 7.000000
131.071930 230.000000
132.079930 102.000000
132.093950 8.000000
132.118560 8.000000
133.082320 11.000000
133.087450 5.000000
134.095840 237.000000
135.085620 9.000000
135.101910 53.000000
135.110470 15.000000
136.022520 6.000000
136.077940 8.000000
136.097750 5.000000
136.112660 5.000000
137.087140 6.000000
138.050340 7.000000
138.065960 5.000000
138.090810 683.000000
139.090840 25.000000
139.096730 25.000000
140.102010 20.000000
140.108340 25.000000
141.072950 8.000000
141.080020 5.000000
141.109410 6.000000
141.512860 5.000000
142.066240 37.000000
142.078660 14.000000
143.058870 9.000000
143.074050 155.000000
143.089860 26.000000
144.080550 1000.000000
145.067140 18.000000
145.085940 120.000000
145.092500 30.000000
146.095930 351.000000
146.123580 7.000000
147.100200 26.000000
148.106870 24.000000
148.112110 48.000000
149.084410 6.000000
150.093200 10.000000
151.095350 10.000000
151.930310 8.000000
152.064090 5.000000
152.100300 7.000000
152.109340 26.000000
153.063450 15.000000
154.064580 34.000000
154.811510 7.000000
155.074510 63.000000
155.089950 13.000000
156.050400 5.000000
156.080280 873.000000
157.037780 6.000000
157.061290 13.000000
157.086380 334.000000
158.080600 20.000000
158.096940 490.000000
159.091570 21.000000
159.100460 41.000000
160.074110 10.000000
160.099180 8.000000
160.111770 16.000000
162.088260 9.000000
164.107160 86.000000
164.119140 10.000000
165.113830 7.000000
166.082980 6.000000
167.054400 6.000000
167.071910 114.000000
167.086460 10.000000
168.056240 18.000000
168.080600 524.000000
169.041500 7.000000
169.081740 156.000000
169.090420 35.000000
170.070680 14.000000
170.095670 355.000000
170.238490 5.000000
171.081910 5.000000
171.099150 89.000000
171.110150 15.000000
171.693820 9.000000
172.109500 33.000000
172.120360 9.000000
173.807050 5.000000
177.618730 5.000000
179.087590 17.000000
180.070080 33.000000
180.082090 202.000000
180.100710 10.000000
181.085970 91.000000
181.094500 29.000000
181.102750 12.000000
182.064120 7.000000
182.080860 24.000000
182.089400 19.000000
182.100310 71.000000
182.445040 7.000000
183.084340 10.000000
183.097060 45.000000
184.076140 10.000000
184.093960 7.000000
184.107120 30.000000
184.115620 17.000000
185.097270 6.000000
186.096830 21.000000
190.989360 5.000000
191.074890 15.000000
192.069550 21.000000
192.083920 55.000000
193.005430 7.000000
193.068470 7.000000
193.088440 160.000000
193.102110 17.000000
194.072240 5.000000
194.096360 253.000000
195.081670 24.000000
195.101010 179.000000
195.117740 14.000000
196.070760 6.000000
196.110690 162.000000
197.106030 11.000000
197.115570 26.000000
198.139080 8.000000
202.113680 8.000000
202.121410 5.000000
204.082440 63.000000
205.089260 97.000000
206.082790 46.000000
206.095700 232.000000
206.398420 5.000000
207.075270 31.000000
207.103330 290.000000
208.084170 19.000000
208.099300 36.000000
208.111270 250.000000
209.112560 19.000000
209.122940 22.000000
210.109940 13.000000
210.123670 37.000000
210.344730 14.000000
211.085070 6.000000
211.095290 6.000000
211.133030 8.000000
211.142530 8.000000
212.084980 6.000000
212.098360 11.000000
216.073610 5.000000
217.089920 105.000000
218.086530 53.000000
218.095630 122.000000
218.353550 10.000000
219.088500 61.000000
219.102280 132.000000
219.123610 10.000000
220.094850 20.000000
220.107800 84.000000
220.119090 62.000000
221.050130 6.000000
221.097430 15.000000
221.110400 101.000000
221.123950 35.000000
222.102390 18.000000
222.127560 472.000000
223.097020 8.000000
223.119600 61.000000
223.134990 75.000000
224.101870 21.000000
224.114290 16.000000
224.136900 67.000000
224.158620 18.000000
225.098590 7.000000
225.107500 13.000000
225.146100 12.000000
226.124600 147.000000
227.123090 27.000000
229.098980 6.000000
229.272600 6.000000
230.096800 162.000000
231.063480 8.000000
231.089260 27.000000
231.101290 129.000000
231.110490 79.000000
232.089550 15.000000
232.108600 97.000000
232.117900 39.000000
232.199260 5.000000
233.084210 8.000000
233.106290 90.000000
233.117830 112.000000
233.136900 5.000000
234.108930 32.000000
234.126460 164.000000
235.112640 34.000000
235.125750 153.000000
236.118060 18.000000
236.131580 75.000000
236.151290 29.000000
237.114670 10.000000
237.139790 44.000000
237.153980 8.000000
238.107270 5.000000
238.121980 5.000000
238.139710 17.000000
238.444140 6.000000
239.115940 7.000000
243.200260 7.000000
244.089540 14.000000
244.103880 47.000000
244.118230 72.000000
245.074190 6.000000
245.118640 226.000000
246.065000 6.000000
246.108280 15.000000
246.126130 102.000000
246.146210 7.000000
247.121600 142.000000
247.139760 23.000000
248.077700 7.000000
248.092990 10.000000
248.103900 11.000000
248.118590 31.000000
248.135130 231.000000
249.136580 119.000000
250.147340 27.000000
250.167420 21.000000
251.113650 45.000000
251.128130 16.000000
251.154680 20.000000
252.124570 7.000000
254.184710 7.000000
258.106350 5.000000
258.126100 14.000000
259.131440 7.000000
260.114010 6.000000
260.144560 186.000000
261.130770 49.000000
261.142180 141.000000
261.160800 16.000000
261.299900 5.000000
262.128970 30.000000
262.142700 38.000000
262.151030 27.000000
262.168550 7.000000
262.684390 9.000000
263.135380 33.000000
263.153720 226.000000
264.153020 77.000000
264.170720 38.000000
265.137270 12.000000
265.161220 76.000000
265.174560 31.000000
265.187290 19.000000
266.133910 34.000000
266.171300 24.000000
267.146450 7.000000
268.136900 6.000000
275.137080 6.000000
275.152470 23.000000
277.137540 7.000000
277.171140 349.000000
278.155670 56.000000
278.170100 84.000000
278.194850 11.000000
279.141630 15.000000
279.150600 11.000000
280.151760 12.000000
280.168670 5.000000
293.168460 11.000000
294.162320 7.000000
295.175930 160.000000
295.188930 99.000000
295.225860 5.000000

>ms2peaks
65.037670 13.000000
65.041050 15.000000
71.238850 11.000000
73.754600 16.000000
77.040340 146.000000
78.035660 26.000000
79.052780 57.000000
80.037310 21.000000
80.047620 23.000000
80.054060 13.000000
81.069650 12.000000
82.062480 21.000000
86.060640 15.000000
90.040600 17.000000
91.048250 59.000000
91.056200 170.000000
92.052530 26.000000
92.060990 14.000000
93.051220 16.000000
93.058530 254.000000
93.070040 13.000000
94.058450 27.000000
94.064390 31.000000
96.475820 10.000000
103.054990 65.000000
104.058010 14.000000
105.055070 12.000000
105.072880 49.000000
106.061520 108.000000
106.070140 26.000000
107.070560 63.000000
107.076050 59.000000
107.082280 27.000000
108.054280 20.000000
108.074800 74.000000
108.080940 296.000000
109.049130 21.000000
109.067020 24.000000
109.088700 26.000000
115.053960 178.000000
116.051280 66.000000
116.059990 69.000000
117.057010 353.000000
117.067050 41.000000
117.076540 26.000000
118.038240 16.000000
118.048510 20.000000
118.065860 74.000000
119.062160 10.000000
119.079310 16.000000
119.086410 22.000000
120.082180 112.000000
120.882780 16.000000
121.071700 13.000000
121.079160 18.000000
121.087590 38.000000
121.093200 33.000000
122.091540 21.000000
122.097100 42.000000
122.152500 18.000000
122.644070 11.000000
123.058110 21.000000
123.066740 61.000000
126.039460 16.000000
127.053940 70.000000
127.059770 78.000000
128.048750 185.000000
128.061290 528.000000
128.098690 10.000000
129.005310 23.000000
129.054000 58.000000
129.068770 729.000000
130.064620 674.000000
131.054430 12.000000
131.067930 127.000000
131.074280 113.000000
132.080580 154.000000
133.083360 15.000000
134.094970 38.000000
135.091190 14.000000
136.073960 21.000000
136.083720 12.000000
136.978490 15.000000
137.082020 21.000000
138.067700 13.000000
138.090840 164.000000
138.101750 13.000000
139.052520 10.000000
140.050140 29.000000
140.470750 13.000000
140.802570 18.000000
141.053500 9.000000
141.069380 20.000000
142.073070 40.000000
143.053150 15.000000
143.073430 578.000000
144.058240 21.000000
144.080630 568.000000
144.872530 9.000000
145.085830 71.000000
146.089650 54.000000
146.097290 29.000000
150.091350 16.000000
151.049800 29.000000
152.054050 23.000000
152.061130 110.000000
153.062100 13.000000
153.074620 52.000000
154.052320 53.000000
154.063400 205.000000
154.075300 47.000000
154.881640 13.000000
155.052030 10.000000
155.062300 49.000000
155.072420 211.000000
156.066740 53.000000
156.082200 487.000000
156.556580 9.000000
157.084560 116.000000
157.092190 20.000000
158.070620 16.000000
158.094920 127.000000
159.094010 11.000000
164.061050 18.000000
165.037370 15.000000
165.068980 160.000000
166.066060 89.000000
166.080250 10.000000
166.993610 12.000000
167.050430 32.000000
167.073210 1000.000000
167.089510 18.000000
167.395830 10.000000
167.607910 14.000000
168.040990 15.000000
168.081620 707.000000
168.095890 18.000000
169.058180 10.000000
169.065930 25.000000
169.080400 100.000000
169.087680 23.000000
169.811610 13.000000
170.059620 15.000000
170.084060 25.000000
170.102130 20.000000
171.103970 20.000000
172.096100 25.000000
176.060240 15.000000
176.069030 34.000000
176.516080 9.000000
178.052630 9.000000
178.062700 35.000000
178.073410 71.000000
179.050800 12.000000
179.073000 120.000000
179.091430 27.000000
180.046880 15.000000
180.073090 110.000000
180.082950 323.000000
180.094220 58.000000
181.084630 182.000000
182.086350 27.000000
182.098950 38.000000
183.044750 19.000000
183.070500 13.000000
183.078610 18.000000
185.063110 10.000000
187.211790 16.000000
189.057690 19.000000
189.069210 42.000000
189.570160 9.000000
190.072360 44.000000
190.080980 23.000000
191.054810 19.000000
191.075410 234.000000
191.083630 63.000000
191.094700 15.000000
191.524610 9.000000
192.068270 34.000000
192.080860 314.000000
193.079480 79.000000
193.089130 282.000000
193.099690 53.000000
193.388120 22.000000
194.087910 157.000000
194.098180 270.000000
194.383990 11.000000
195.090350 71.000000
195.106050 129.000000
196.108920 22.000000
196.313690 10.000000
196.377520 13.000000
197.095310 11.000000
202.075440 77.000000
202.090440 20.000000
203.060330 15.000000
203.074780 65.000000
203.086430 21.000000
204.063080 25.000000
204.080990 448.000000
205.078400 146.000000
205.090410 320.000000
205.954190 9.000000
206.059190 10.000000
206.069780 32.000000
206.088240 239.000000
206.098180 307.000000
207.057190 13.000000
207.096980 213.000000
207.109210 30.000000
207.363910 20.000000
208.092030 23.000000
208.113910 44.000000
209.096850 24.000000
209.111300 10.000000
209.848070 10.000000
210.121260 18.000000
214.055970 10.000000
215.900330 9.000000
216.062620 9.000000
216.079360 151.000000
217.062480 18.000000
217.082440 107.000000
217.091950 305.000000
217.210420 11.000000
218.054310 19.000000
218.061480 12.000000
218.081360 60.000000
218.095050 221.000000
219.042690 14.000000
219.085080 116.000000
219.097700 158.000000
219.111760 12.000000
219.146130 13.000000
220.089660 65.000000
220.103150 111.000000
220.123050 53.000000
221.101260 24.000000
221.112010 9.000000
221.864000 15.000000
227.063370 15.000000
227.926910 13.000000
228.079530 74.000000
229.072810 15.000000
229.090820 81.000000
230.079740 41.000000
230.097120 287.000000
230.108380 43.000000
230.657420 9.000000
231.081220 32.000000
231.091490 42.000000
231.104570 101.000000
231.118770 18.000000
232.098880 113.000000
232.108990 104.000000
232.120670 51.000000
233.093030 16.000000
233.106120 66.000000
233.122150 35.000000
234.089070 16.000000
234.103610 57.000000
234.124360 27.000000
234.580080 9.000000
235.121720 36.000000
236.130860 18.000000
239.596120 9.000000
241.090360 33.000000
242.082790 22.000000
242.099300 84.000000
242.109530 22.000000
243.098240 20.000000
243.107910 42.000000
243.131390 18.000000
244.047870 9.000000
244.103850 110.000000
244.118000 150.000000
245.103910 21.000000
245.125060 27.000000
246.065430 20.000000
246.121430 27.000000
247.116640 98.000000
247.127560 80.000000
247.139330 11.000000
248.136930 11.000000
249.118010 12.000000
249.166440 9.000000
250.149720 21.000000
258.125090 9.000000
258.134700 15.000000
261.095980 12.000000
261.138890 56.000000
262.141570 17.000000
263.125640 20.000000
263.147710 38.000000
290.164860 14.000000

