>compound PR22162848
>parentmass 248.1393533
>ionization [M+H]+
>formula C13H17N3O2
>rt 130.719000
>profile qtof
#smiles_iso C1[C@@H]2CN(C[C@H]1C3=CC=CC(=O)N3C2)CC(=O)N
#smiles_can C1C2CN(CC1C3=CC=CC(=O)N3C2)CC(=O)N
#inchikey MRVHCCZFXHOQOT-ZJUUUORDSA-N
#pubchem_id 15939882
#mb_accession PR301267,PR301271,PR301275,PR301279,PR301283,PR301287,PR301291,PR301295,PR301298,PR301302,PR301306,PR301309

>ms2
73.079370 7.000000
101.072410 85.000000
102.076000 11.000000
146.060070 6.000000
160.075030 26.000000
203.118590 248.000000
204.122940 33.000000
248.139800 1000.000000
248.184390 14.000000

>ms2
101.072000 14.000000
203.117720 49.000000
248.139720 1000.000000
248.184840 23.000000

>ms2
58.065860 84.000000
58.072350 11.000000
59.072400 10.000000
70.063630 24.000000
70.071300 9.000000
73.076760 71.000000
74.065670 9.000000
74.084270 15.000000
79.056620 9.000000
82.065380 17.000000
85.046240 9.000000
91.052450 13.000000
94.065940 37.000000
94.073590 10.000000
95.069900 9.000000
95.078600 18.000000
101.032940 22.000000
101.053570 19.000000
101.071980 761.000000
102.065800 21.000000
102.074310 65.000000
103.335720 9.000000
104.053420 13.000000
105.068840 10.000000
108.044850 8.000000
108.082490 54.000000
109.087500 8.000000
115.055600 10.000000
117.062890 10.000000
117.071780 10.000000
118.059680 14.000000
121.050700 9.000000
122.058280 13.000000
122.065880 8.000000
123.087370 12.000000
130.052930 8.000000
130.071260 22.000000
132.046340 61.000000
132.081390 20.000000
133.050670 13.000000
134.055390 15.000000
134.064440 22.000000
135.072720 9.000000
139.086140 11.000000
142.055560 8.000000
144.069890 8.000000
144.079040 9.000000
146.056180 116.000000
146.065120 119.000000
146.108370 12.000000
147.056440 9.000000
147.063840 31.000000
148.066330 10.000000
148.073900 23.000000
151.084180 8.000000
153.102810 28.000000
154.052150 9.000000
154.062900 28.000000
158.063640 16.000000
160.047590 12.000000
160.057560 14.000000
160.077330 477.000000
161.076480 71.000000
162.069700 10.000000
162.087280 9.000000
162.094800 22.000000
171.071780 13.000000
172.076660 39.000000
174.085020 17.000000
175.083500 9.000000
187.087070 8.000000
200.784190 10.000000
203.085740 8.000000
203.119280 1000.000000
203.145610 10.000000
204.110610 17.000000
204.121480 78.000000
205.121380 17.000000
205.130360 24.000000
248.107560 9.000000
248.140410 227.000000

>ms2
58.063030 215.000000
58.071390 121.000000
77.042220 121.000000
94.064250 181.000000
101.072190 134.000000
103.055480 134.000000
104.046650 141.000000
104.057590 148.000000
105.058140 168.000000
108.083470 356.000000
111.069420 121.000000
115.047330 134.000000
116.052440 430.000000
117.058500 658.000000
118.059760 121.000000
118.073610 275.000000
122.057910 161.000000
141.049550 121.000000
146.047450 181.000000
146.060380 396.000000
147.068210 114.000000
148.077300 268.000000
159.070890 128.000000
161.074430 114.000000
164.093840 195.000000
187.080830 201.000000
188.091340 134.000000
248.093340 121.000000
248.130390 517.000000
248.140810 1000.000000

>ms2
58.065750 10.000000
73.076160 6.000000
101.071250 111.000000
146.055880 8.000000
146.063340 6.000000
160.066500 13.000000
160.078160 11.000000
191.117030 6.000000
203.117750 218.000000
204.121870 31.000000
248.138670 1000.000000
248.184220 22.000000

>ms2
101.070120 7.000000
203.117690 36.000000
204.120000 5.000000
248.139240 1000.000000
248.184250 30.000000

>ms2
57.980450 7.000000
58.066790 105.000000
58.073640 22.000000
58.517720 7.000000
59.065660 8.000000
70.066220 15.000000
73.049290 10.000000
73.076490 137.000000
73.080220 74.000000
74.073360 8.000000
74.083340 16.000000
80.050670 8.000000
82.067760 17.000000
82.074320 12.000000
84.042240 9.000000
84.050900 9.000000
85.674470 7.000000
93.059430 16.000000
94.066640 56.000000
95.078840 12.000000
96.033900 9.000000
96.082540 16.000000
101.043410 7.000000
101.071620 982.000000
101.781230 9.000000
102.073710 35.000000
102.078460 12.000000
108.075810 29.000000
108.082710 28.000000
110.062540 9.000000
117.051570 12.000000
117.066470 19.000000
118.063020 9.000000
122.062680 31.000000
123.093970 8.000000
127.055810 9.000000
129.069780 9.000000
130.055500 8.000000
131.074970 17.000000
132.050720 9.000000
132.076660 9.000000
133.051880 29.000000
133.063110 11.000000
134.059230 32.000000
134.093700 9.000000
135.066240 11.000000
142.063670 67.000000
143.047100 10.000000
144.079970 7.000000
144.092270 19.000000
145.045640 12.000000
146.041050 8.000000
146.054610 41.000000
146.061420 149.000000
147.057370 7.000000
147.069820 7.000000
148.076200 50.000000
150.127790 7.000000
151.088170 25.000000
152.087480 9.000000
154.066960 8.000000
158.064790 9.000000
159.070010 9.000000
160.075440 314.000000
161.073720 73.000000
161.087860 25.000000
161.156140 12.000000
161.396090 7.000000
162.086380 38.000000
162.096390 10.000000
163.082120 11.000000
163.095400 9.000000
170.152620 7.000000
172.078110 16.000000
173.069020 21.000000
175.089840 10.000000
175.098970 18.000000
187.090150 7.000000
188.125850 10.000000
200.195100 7.000000
201.071230 8.000000
201.093720 11.000000
202.091200 13.000000
203.088210 8.000000
203.119520 1000.000000
203.938630 9.000000
204.124250 61.000000
204.133680 39.000000
205.136750 15.000000
248.142640 276.000000

>ms2
58.068570 613.000000
58.644550 107.000000
73.076140 119.000000
90.047300 107.000000
92.045540 107.000000
92.058860 143.000000
93.055730 101.000000
101.068730 232.000000
102.032230 137.000000
103.060370 113.000000
104.047270 220.000000
104.053500 113.000000
105.055620 125.000000
108.047070 161.000000
108.082370 268.000000
112.365410 119.000000
115.052190 208.000000
115.060980 131.000000
116.044130 119.000000
117.051450 173.000000
117.060220 119.000000
123.062000 131.000000
132.041920 149.000000
134.045640 125.000000
146.050000 107.000000
146.065110 375.000000
146.075320 113.000000
147.061450 250.000000
157.072620 143.000000
160.071810 476.000000
160.084850 190.000000
248.141940 1000.000000

>ms2
58.065160 6.000000
101.070720 87.000000
146.056440 8.000000
160.076250 33.000000
203.118240 234.000000
204.121220 28.000000
248.139720 1000.000000
248.185170 19.000000

>ms2
203.117980 40.000000
204.123670 5.000000
248.140080 1000.000000
248.184190 28.000000

>ms2
52.900960 8.000000
58.051470 8.000000
58.055060 6.000000
58.066350 176.000000
73.070850 13.000000
73.080310 49.000000
74.076720 7.000000
82.064770 35.000000
86.978480 9.000000
94.055590 9.000000
94.065200 36.000000
94.071370 27.000000
97.136530 8.000000
101.054460 19.000000
101.071760 1000.000000
102.061750 6.000000
102.071690 18.000000
104.040490 11.000000
106.079280 8.000000
108.066410 8.000000
108.077050 21.000000
109.082950 6.000000
110.058720 17.000000
112.456360 9.000000
113.564660 8.000000
117.059500 16.000000
122.059590 19.000000
127.055330 12.000000
127.080740 7.000000
128.064120 9.000000
130.066380 11.000000
132.046690 17.000000
132.060320 15.000000
132.085040 7.000000
134.058380 34.000000
139.096500 9.000000
141.487460 8.000000
144.089260 24.000000
146.050980 7.000000
146.060580 90.000000
146.070240 19.000000
147.048420 7.000000
147.061290 37.000000
147.069870 18.000000
148.075160 68.000000
148.084140 16.000000
151.083860 8.000000
153.098040 7.000000
153.107300 8.000000
154.062960 16.000000
157.482250 9.000000
158.059190 8.000000
158.065990 9.000000
159.053120 8.000000
160.056660 7.000000
160.075120 416.000000
160.949710 11.000000
161.078520 100.000000
176.086430 7.000000
187.085570 12.000000
191.108690 9.000000
203.095140 17.000000
203.118470 853.000000
204.121150 145.000000
204.131770 40.000000
212.204860 6.000000
213.105910 8.000000
248.115110 15.000000
248.138520 85.000000
248.152480 14.000000

>ms2
58.064200 207.000000
58.071990 402.000000
59.074650 439.000000
77.035710 256.000000
79.060430 244.000000
80.454750 402.000000
81.072430 207.000000
89.042750 305.000000
107.083500 256.000000
115.054070 220.000000
115.060720 256.000000
116.058220 244.000000
117.053410 232.000000
118.054020 366.000000
130.063980 244.000000
134.057170 220.000000
142.061970 232.000000
144.080030 293.000000
146.055190 329.000000
147.057130 268.000000
152.098850 268.000000
160.080490 1000.000000
172.079220 220.000000
248.135500 610.000000

