>compound PR22256977
>parentmass 213.1249
>ionization [M+H]+
>formula C10H16N2O3
>rt 109.200000
>profile qtof
#smiles_iso C1CC(NC1)C(=O)N2CCCC2C(=O)O
#smiles_can C1CC(NC1)C(=O)N2CCCC2C(=O)O
#inchikey RWCOTTLHDJWHRS-UHFFFAOYSA-N
#pubchem_id 263469
#mb_accession PR311035

>ms2peaks
70.065890 64.000000
70.070960 21.000000
70.792330 16.000000
87.048100 20.000000
116.069810 20.000000
131.997060 18.000000
141.098690 20.000000
152.072680 16.000000
155.082780 19.000000
173.090060 23.000000
213.123830 444.000000

