>compound PR23679806
>parentmass 414.3366561000002
>ionization [M+H]+
>formula C27H43NO2
>rt 296.787000
>profile qtof
#smiles_iso C[C@H]1CCC(=NC1)[C@@H](C)[C@H]2CC[C@@H]3[C@@]2(CC[C@H]4[C@H]3CC(=O)[C@@H]5[C@@]4(CC[C@@H](C5)O)C)C
#smiles_can CC1CCC(=NC1)C(C)C2CCC3C2(CCC4C3CC(=O)C5C4(CCC(C5)O)C)C
#inchikey QAGPPGDCPAPQLW-HAQROMNMSA-N
#pubchem_id 11875904
#mb_accession PR301402,PR301406,PR301410,PR301414,PR301418,PR301422,PR301426,PR301430,PR301433,PR301437,PR301441,PR301445

>ms2
98.095670 9.000000
126.126830 17.000000
149.132280 10.000000
414.337100 1000.000000
414.396000 32.000000

>ms2
414.337860 1000.000000
414.397490 32.000000

>ms2
98.097250 18.000000
126.127910 24.000000
149.133830 12.000000
414.337490 1000.000000
414.396730 26.000000

>ms2
55.056620 7.000000
56.049880 10.000000
67.054630 152.000000
69.067220 33.000000
69.071850 34.000000
69.074690 14.000000
70.060840 11.000000
70.066340 27.000000
70.073150 5.000000
71.081590 5.000000
76.948390 7.000000
77.039400 38.000000
78.042350 7.000000
79.054990 309.000000
80.041840 5.000000
80.054450 16.000000
80.060710 28.000000
81.059850 10.000000
81.070680 416.000000
82.066810 6.000000
82.076930 17.000000
83.087890 50.000000
84.082030 68.000000
85.071460 5.000000
91.054960 254.000000
92.058360 35.000000
93.071110 1000.000000
94.072790 57.000000
95.048570 27.000000
95.071240 6.000000
95.086300 393.000000
96.067020 5.000000
96.080810 52.000000
96.087020 28.000000
96.091870 32.000000
97.064480 80.000000
97.074130 13.000000
97.086830 20.000000
98.071310 8.000000
98.080060 8.000000
98.096860 470.000000
99.078380 7.000000
99.094860 6.000000
99.102150 30.000000
99.108290 7.000000
103.054280 12.000000
103.058650 5.000000
105.033900 5.000000
105.069450 294.000000
106.073390 25.000000
107.049940 82.000000
107.086490 784.000000
107.233630 5.000000
108.089140 80.000000
109.063070 10.000000
109.069660 8.000000
109.085010 5.000000
109.102360 170.000000
109.110420 19.000000
110.070310 5.000000
110.097970 112.000000
111.074930 5.000000
111.080450 23.000000
111.105130 17.000000
112.113100 103.000000
113.115620 23.000000
113.120710 6.000000
113.252370 5.000000
115.058550 7.000000
117.070010 80.000000
119.070190 7.000000
119.084160 135.000000
120.087900 10.000000
120.093650 5.000000
121.065350 79.000000
121.087430 10.000000
121.101450 391.000000
122.071120 15.000000
122.099750 23.000000
122.105910 23.000000
123.070230 9.000000
123.081290 55.000000
123.120780 16.000000
124.112280 80.000000
125.063410 10.000000
125.102790 18.000000
125.120460 94.000000
126.106990 12.000000
126.128140 623.000000
127.131070 105.000000
128.062130 7.000000
128.138690 6.000000
129.069050 26.000000
130.071760 15.000000
130.085390 8.000000
131.073090 7.000000
131.085570 101.000000
131.091780 30.000000
132.080490 10.000000
132.087200 18.000000
132.094830 10.000000
133.099040 96.000000
133.104830 55.000000
134.106960 21.000000
135.078640 42.000000
135.117250 209.000000
136.083650 10.000000
136.112760 15.000000
136.119430 20.000000
136.127140 21.000000
137.060550 5.000000
137.093520 9.000000
137.099870 6.000000
137.127670 8.000000
138.128130 30.000000
141.077970 7.000000
142.077640 50.000000
143.079130 20.000000
143.088680 69.000000
143.583510 7.000000
144.093580 24.000000
145.101520 130.000000
145.832550 5.000000
146.070830 9.000000
147.071520 8.000000
147.081420 12.000000
147.089750 10.000000
147.118180 136.000000
148.119420 19.000000
149.100830 19.000000
149.117000 18.000000
149.131480 383.000000
150.115230 7.000000
150.130140 105.000000
150.141750 18.000000
151.139210 10.000000
152.123580 9.000000
152.141050 53.000000
153.128810 8.000000
153.145460 17.000000
153.302630 5.000000
153.889510 5.000000
155.081130 24.000000
155.092360 8.000000
156.090320 5.000000
157.098920 38.000000
157.106690 23.000000
157.117130 5.000000
158.111130 11.000000
159.083300 6.000000
159.120330 67.000000
160.122470 9.000000
161.095690 46.000000
161.131590 30.000000
162.103530 7.000000
162.133160 7.000000
163.150440 25.000000
166.080380 5.000000
166.168150 5.000000
167.087430 8.000000
167.162260 8.000000
169.101820 7.000000
171.112060 17.000000
171.119840 21.000000
172.078120 5.000000
172.123430 8.000000
173.122540 7.000000
173.133360 26.000000
173.145870 11.000000
175.100630 8.000000
175.114290 25.000000
177.122740 8.000000
177.132000 5.000000
181.102810 13.000000
183.123230 15.000000
185.128450 8.000000
187.141740 9.000000
187.154220 13.000000
188.146850 6.000000
189.127610 6.000000
189.162480 10.000000
194.118210 7.000000
195.109800 6.000000
196.132130 10.000000
197.131740 16.000000
197.144490 10.000000
199.108800 6.000000
199.156740 10.000000
200.154820 12.000000
209.118520 8.000000
209.126750 7.000000
211.141650 13.000000
213.157760 6.000000
215.141490 17.000000
227.152400 5.000000
238.168750 9.000000
253.208070 13.000000
273.350800 7.000000
396.323760 5.000000
396.336090 5.000000
397.319980 6.000000
414.289120 17.000000
414.333220 224.000000
414.348210 98.000000

>ms2
98.097310 9.000000
126.127420 18.000000
149.132600 10.000000
414.337550 1000.000000
414.396640 28.000000

>ms2
414.338320 1000.000000
414.397400 32.000000
414.450810 6.000000

>ms2
95.086520 5.000000
98.096980 16.000000
126.127750 27.000000
149.133130 15.000000
414.336360 1000.000000
414.395450 26.000000

>ms2
55.048630 11.000000
55.055400 17.000000
55.059570 7.000000
56.051510 8.000000
67.054930 182.000000
68.054450 9.000000
69.070460 72.000000
70.066240 40.000000
70.070090 13.000000
77.038540 52.000000
78.049740 5.000000
79.055520 391.000000
80.053320 18.000000
80.058170 25.000000
81.035960 16.000000
81.070570 489.000000
82.072920 20.000000
83.051380 16.000000
83.087370 64.000000
84.082240 71.000000
85.088350 8.000000
91.042760 8.000000
91.054990 216.000000
92.052400 7.000000
92.057410 10.000000
93.052610 6.000000
93.056420 13.000000
93.070720 1000.000000
94.068940 31.000000
94.075860 52.000000
95.042260 9.000000
95.049020 11.000000
95.053920 12.000000
95.086980 435.000000
96.083960 146.000000
97.066550 63.000000
97.089920 11.000000
97.104280 13.000000
98.069010 8.000000
98.098180 428.000000
99.098680 21.000000
103.052840 8.000000
105.071300 285.000000
106.064320 6.000000
106.075240 15.000000
107.035440 7.000000
107.050260 51.000000
107.068270 7.000000
107.086650 750.000000
108.091260 116.000000
109.064290 29.000000
109.091700 27.000000
109.102000 153.000000
110.072800 6.000000
110.098300 138.000000
111.076420 14.000000
111.085110 9.000000
111.097930 18.000000
112.113490 85.000000
113.110350 6.000000
115.055230 5.000000
117.049300 8.000000
117.070470 36.000000
118.127040 8.000000
118.957470 6.000000
119.086550 150.000000
119.364450 5.000000
120.089890 13.000000
121.048980 7.000000
121.066610 62.000000
121.079530 5.000000
121.102390 385.000000
122.097720 31.000000
123.081190 51.000000
123.114460 6.000000
124.113460 112.000000
125.060190 28.000000
125.121060 105.000000
126.068440 6.000000
126.114640 14.000000
126.128570 847.000000
127.131420 70.000000
127.142210 6.000000
128.062240 11.000000
129.069750 51.000000
129.075760 15.000000
129.128130 6.000000
130.076660 22.000000
131.071560 7.000000
131.086040 132.000000
132.084490 6.000000
132.092510 7.000000
133.023800 7.000000
133.068240 7.000000
133.101070 126.000000
134.099120 7.000000
134.106020 12.000000
135.081150 23.000000
135.118770 267.000000
135.130980 6.000000
136.086380 10.000000
136.107320 8.000000
136.116700 21.000000
136.126100 23.000000
137.121150 12.000000
137.644970 5.000000
138.128390 21.000000
139.071560 11.000000
141.066990 7.000000
141.075150 8.000000
142.078090 22.000000
143.086880 104.000000
144.094380 7.000000
145.064770 7.000000
145.074070 11.000000
145.099200 110.000000
146.071790 6.000000
146.107500 13.000000
147.072650 6.000000
147.088360 13.000000
147.118940 104.000000
148.083850 10.000000
148.123990 15.000000
149.095170 37.000000
149.133090 379.000000
149.151730 8.000000
150.098300 11.000000
150.115680 7.000000
150.129270 133.000000
150.140560 21.000000
151.130630 15.000000
151.136220 8.000000
152.142960 65.000000
152.151790 17.000000
154.081970 6.000000
155.087520 32.000000
156.082370 7.000000
156.098460 6.000000
157.090730 5.000000
157.103090 51.000000
158.103930 14.000000
159.075730 12.000000
159.117950 63.000000
160.085100 7.000000
160.122970 5.000000
161.062520 7.000000
161.097240 40.000000
161.118850 8.000000
161.131940 20.000000
162.128540 7.000000
163.110870 15.000000
163.147780 23.000000
164.114060 7.000000
166.157490 17.000000
167.084090 8.000000
169.095500 7.000000
170.115070 8.000000
171.117340 46.000000
173.092380 15.000000
173.119310 12.000000
173.132550 39.000000
175.111630 44.000000
177.106690 5.000000
182.110280 6.000000
183.114650 23.000000
184.128880 8.000000
185.128080 6.000000
185.140530 6.000000
187.146120 32.000000
188.149540 7.000000
190.161320 5.000000
196.124830 10.000000
197.130720 18.000000
197.137970 14.000000
197.147140 5.000000
199.110990 7.000000
199.150380 11.000000
205.166720 7.000000
211.153180 24.000000
212.152150 8.000000
214.167220 8.000000
215.146380 8.000000
221.131990 6.000000
225.164400 9.000000
229.168370 8.000000
253.004850 6.000000
276.262080 6.000000
277.194790 6.000000
384.287990 10.000000
414.323060 88.000000
414.340000 185.000000
414.352840 59.000000

>ms2
98.097050 9.000000
126.127550 11.000000
149.132580 10.000000
414.337890 1000.000000
414.396970 29.000000

>ms2
414.336180 1000.000000
414.395110 32.000000

>ms2
98.097470 20.000000
126.128080 24.000000
149.132950 14.000000
414.273930 6.000000
414.337680 1000.000000
414.396820 27.000000

>ms2
55.050800 7.000000
55.057830 10.000000
58.072370 8.000000
67.055210 198.000000
69.070180 75.000000
70.067690 53.000000
77.037800 62.000000
79.052150 134.000000
79.056230 264.000000
80.059530 14.000000
81.029910 7.000000
81.057170 6.000000
81.070760 422.000000
82.069370 16.000000
82.075940 7.000000
83.051490 5.000000
83.084920 46.000000
84.081310 90.000000
91.054880 248.000000
92.056300 27.000000
92.064290 8.000000
93.056630 6.000000
93.070380 1000.000000
94.067570 34.000000
94.075100 40.000000
95.051040 46.000000
95.086170 430.000000
96.070180 8.000000
96.077780 18.000000
96.084940 79.000000
97.065860 58.000000
97.099590 12.000000
98.097180 431.000000
99.094580 13.000000
99.100940 36.000000
103.054210 29.000000
105.040390 7.000000
105.054130 5.000000
105.070300 239.000000
106.073640 15.000000
106.081500 7.000000
107.045730 37.000000
107.050940 47.000000
107.068180 6.000000
107.086060 763.000000
107.112060 8.000000
108.056900 9.000000
108.090680 71.000000
109.062550 30.000000
109.071820 8.000000
109.087630 17.000000
109.101180 165.000000
110.094640 43.000000
110.100810 74.000000
110.110070 5.000000
111.080620 14.000000
111.101680 12.000000
111.106780 12.000000
112.109250 86.000000
112.116970 37.000000
113.110570 8.000000
115.059900 6.000000
116.064030 8.000000
117.069110 59.000000
117.076160 23.000000
118.075860 8.000000
119.085830 171.000000
120.089630 8.000000
121.064030 76.000000
121.102070 363.000000
122.064830 9.000000
122.072770 7.000000
122.103260 29.000000
122.113460 8.000000
123.075120 15.000000
123.083180 12.000000
123.118640 28.000000
124.112190 102.000000
125.059540 17.000000
125.119260 83.000000
126.108160 10.000000
126.128680 648.000000
127.122140 17.000000
127.129300 58.000000
127.138680 8.000000
128.061370 7.000000
129.065700 11.000000
129.075120 47.000000
131.068470 8.000000
131.085650 107.000000
132.093150 33.000000
133.101010 136.000000
134.107100 19.000000
135.078750 17.000000
135.085130 20.000000
135.117610 228.000000
136.086490 5.000000
136.109940 9.000000
136.120710 38.000000
137.100110 7.000000
137.113070 7.000000
137.123370 6.000000
137.131010 5.000000
138.125810 25.000000
138.135960 16.000000
141.070500 11.000000
142.078930 15.000000
143.086460 72.000000
144.096210 21.000000
145.058960 6.000000
145.082320 7.000000
145.089570 21.000000
145.100980 109.000000
146.072480 10.000000
146.103290 28.000000
147.077760 15.000000
147.085800 9.000000
147.095600 5.000000
147.117920 140.000000
148.118640 24.000000
149.089190 14.000000
149.132290 465.000000
150.111540 6.000000
150.131270 103.000000
151.128570 6.000000
152.124920 6.000000
152.145130 58.000000
155.082720 38.000000
157.102280 58.000000
158.109970 16.000000
159.094060 10.000000
159.115620 75.000000
160.124790 11.000000
161.096510 69.000000
161.117870 7.000000
161.134860 40.000000
162.139600 7.000000
163.114240 6.000000
163.151760 8.000000
164.117490 18.000000
166.164310 7.000000
167.085010 9.000000
168.095790 7.000000
169.102540 15.000000
170.108380 7.000000
171.112230 17.000000
171.121440 12.000000
173.094800 5.000000
173.127900 16.000000
173.136470 14.000000
173.147720 5.000000
175.114040 17.000000
175.146090 10.000000
176.117100 9.000000
177.125150 6.000000
181.095090 11.000000
182.106580 6.000000
183.113310 16.000000
183.119490 7.000000
185.123140 7.000000
185.132900 26.000000
187.148090 22.000000
188.155440 9.000000
197.132780 29.000000
199.139570 6.000000
199.151660 16.000000
199.165370 7.000000
201.164440 14.000000
207.124400 5.000000
210.144210 8.000000
211.142290 10.000000
211.153310 6.000000
212.149920 8.000000
215.140300 7.000000
230.167980 6.000000
243.173280 15.000000
253.186520 6.000000
258.164000 5.000000
316.265840 5.000000
343.245420 8.000000
414.336240 318.000000

