>compound PR23109256
>parentmass 339.20670449999994
>ionization [M+H]+
>formula C21H26N2O2
>rt 235.387980
>profile qtof
#smiles_iso COC(=O)[C@@H]1C[C@]23CCCN4C2[C@@]5([C@]1(CC3)NC6=CC=CC=C65)CC4
#smiles_can COC(=O)C1CC23CCCN4C2C5(C1(CC3)NC6=CC=CC=C65)CC4
#inchikey IYLRRIUNGGQRTN-GKCDKPGPSA-N
#pubchem_id 160525
#mb_accession PR300179,PR300184,PR300189,PR300194,PR300199,PR300204,PR300209,PR300214,PR300219,PR300224,PR300229,PR300234

>ms2
96.080050 6.000000
156.084140 5.000000
168.081270 9.000000
196.112930 20.000000
197.107280 54.000000
198.105610 6.000000
208.111390 10.000000
209.109790 6.000000
222.128690 8.000000
225.137360 58.000000
226.140340 13.000000
339.150910 6.000000
339.205570 1000.000000
339.259370 14.000000

>ms2
339.163270 8.000000
339.205720 1000.000000
339.258850 23.000000

>ms2
110.090570 5.000000
110.099640 11.000000
122.097560 6.000000
144.077360 5.000000
168.080860 10.000000
180.075130 8.000000
180.085330 5.000000
182.096510 12.000000
183.100660 7.000000
194.094350 5.000000
196.112780 44.000000
197.107100 145.000000
198.102980 9.000000
198.112120 17.000000
198.122570 5.000000
202.084630 9.000000
208.108920 11.000000
208.119110 10.000000
214.091090 7.000000
222.125290 9.000000
223.119480 18.000000
223.129750 6.000000
224.129550 6.000000
225.108170 5.000000
225.139160 237.000000
226.134450 23.000000
226.145940 22.000000
227.147370 6.000000
234.138460 7.000000
236.139300 10.000000
250.153350 5.000000
251.156740 17.000000
262.114990 6.000000
279.148380 13.000000
279.174070 10.000000
307.174380 20.000000
307.185790 7.000000
310.187840 6.000000
339.152860 5.000000
339.166780 14.000000
339.206540 1000.000000

>ms2
55.056720 16.000000
67.057480 24.000000
69.066940 17.000000
70.063820 40.000000
70.068830 14.000000
77.039030 16.000000
79.045480 10.000000
79.049070 21.000000
79.055820 38.000000
81.067090 8.000000
82.065450 15.000000
82.073400 12.000000
87.045370 173.000000
91.052450 19.000000
93.065510 31.000000
93.073080 9.000000
94.055010 9.000000
94.064690 19.000000
96.063860 11.000000
96.075700 33.000000
96.080180 124.000000
97.083710 11.000000
103.045250 8.000000
103.054410 9.000000
105.066700 12.000000
106.822090 8.000000
107.071850 14.000000
108.070920 10.000000
108.078160 24.000000
108.084140 10.000000
109.090030 8.000000
109.116180 24.000000
109.827190 9.000000
110.096770 152.000000
110.104390 32.000000
110.639880 8.000000
111.102890 10.000000
115.049520 26.000000
115.060500 48.000000
115.205380 15.000000
116.036910 20.000000
116.052060 15.000000
117.050940 14.000000
117.057600 10.000000
117.072060 46.000000
118.060500 12.000000
118.066350 15.000000
119.051860 23.000000
120.077400 20.000000
121.087550 14.000000
122.082410 15.000000
122.096600 37.000000
124.105420 13.000000
125.099330 20.000000
127.056470 36.000000
127.061960 10.000000
128.034260 16.000000
128.044480 15.000000
128.060170 12.000000
128.066970 35.000000
129.049130 11.000000
129.059280 19.000000
129.070280 59.000000
130.037860 11.000000
130.065410 406.000000
130.352860 8.000000
130.993840 11.000000
131.072300 18.000000
132.078110 10.000000
132.132110 11.000000
134.086790 10.000000
134.097030 93.000000
135.079210 14.000000
136.073620 10.000000
136.086980 9.000000
136.094100 9.000000
139.051960 11.000000
140.054120 18.000000
140.060930 12.000000
142.065140 242.000000
142.896650 9.000000
143.071530 70.000000
143.079480 68.000000
144.061110 11.000000
144.070250 19.000000
144.081740 133.000000
144.093460 14.000000
144.292160 11.000000
145.073500 9.000000
145.089460 12.000000
146.068450 9.000000
146.093150 9.000000
148.062910 13.000000
148.077160 12.000000
150.080380 15.000000
150.092740 13.000000
150.103700 12.000000
151.053330 16.000000
152.110410 12.000000
153.050370 24.000000
154.042590 28.000000
154.066010 258.000000
155.061690 39.000000
155.075290 64.000000
156.048800 40.000000
156.077270 89.000000
156.088700 11.000000
156.479930 8.000000
157.073200 32.000000
157.086730 68.000000
157.097380 33.000000
158.091320 29.000000
159.161160 8.000000
160.071620 17.000000
160.086090 33.000000
161.084490 11.000000
162.089920 33.000000
163.057130 9.000000
163.185180 16.000000
163.230850 9.000000
165.072970 43.000000
165.085650 12.000000
166.060900 21.000000
166.077910 23.000000
167.050840 12.000000
167.067150 149.000000
167.074710 303.000000
168.059360 18.000000
168.081910 518.000000
168.691410 11.000000
169.074710 19.000000
169.083440 65.000000
169.515960 11.000000
170.052840 61.000000
170.066710 16.000000
170.080150 27.000000
170.096540 282.000000
171.062180 14.000000
171.088750 12.000000
171.102780 55.000000
171.163350 21.000000
171.235490 8.000000
171.257600 8.000000
172.080000 32.000000
172.086210 8.000000
172.113890 13.000000
174.088500 14.000000
175.916170 10.000000
176.061950 8.000000
178.059910 9.000000
178.074070 33.000000
179.079070 93.000000
180.038060 16.000000
180.057830 10.000000
180.083590 598.000000
180.096120 51.000000
181.062810 20.000000
181.069720 16.000000
181.090470 155.000000
182.052220 16.000000
182.067600 11.000000
182.084370 74.000000
182.094250 137.000000
182.103270 76.000000
183.069750 30.000000
183.097060 126.000000
183.106900 26.000000
184.098680 11.000000
184.108370 34.000000
184.178680 9.000000
185.100740 18.000000
186.094480 36.000000
188.662250 8.000000
189.076080 21.000000
190.072080 8.000000
191.075160 45.000000
192.081050 61.000000
193.082340 97.000000
193.092480 163.000000
193.105590 10.000000
193.125900 10.000000
194.076130 12.000000
194.096010 252.000000
195.066380 11.000000
195.075260 12.000000
195.100880 277.000000
196.094300 68.000000
196.115310 526.000000
196.131910 13.000000
196.739670 14.000000
197.039410 9.000000
197.073240 8.000000
197.107760 1000.000000
197.124330 27.000000
198.102810 42.000000
198.113710 163.000000
198.128280 14.000000
201.908740 11.000000
202.073290 17.000000
202.081300 74.000000
202.944750 10.000000
203.267360 15.000000
204.060750 15.000000
204.075990 27.000000
204.088010 43.000000
205.076710 15.000000
205.087220 45.000000
205.095140 14.000000
205.340230 11.000000
206.076750 12.000000
206.095570 109.000000
206.113080 9.000000
207.063170 19.000000
207.074910 12.000000
207.098590 56.000000
207.106310 65.000000
207.120770 32.000000
208.053800 11.000000
208.065090 11.000000
208.077410 43.000000
208.098880 118.000000
208.108870 136.000000
208.117720 134.000000
209.066960 11.000000
209.076340 9.000000
209.087270 12.000000
209.112370 213.000000
209.612340 8.000000
209.879700 8.000000
210.080220 14.000000
210.104860 57.000000
210.118040 141.000000
210.129590 63.000000
211.096020 11.000000
211.122680 18.000000
214.094650 11.000000
216.069550 11.000000
217.089780 8.000000
217.099150 10.000000
218.075530 11.000000
218.092970 102.000000
218.121400 8.000000
219.082810 9.000000
219.093700 32.000000
219.108570 21.000000
219.122300 28.000000
220.047040 15.000000
220.077150 21.000000
220.116490 101.000000
221.051480 8.000000
221.094310 9.000000
221.108510 71.000000
221.121630 51.000000
221.141880 8.000000
222.087230 9.000000
222.117020 49.000000
222.126620 17.000000
223.120130 209.000000
224.108030 10.000000
224.129290 36.000000
224.141490 32.000000
225.005830 8.000000
225.115890 9.000000
225.133330 103.000000
225.142240 324.000000
226.109330 11.000000
226.136830 56.000000
227.140690 11.000000
228.091610 10.000000
228.101330 11.000000
229.357910 10.000000
230.104830 8.000000
231.111680 10.000000
232.090610 11.000000
232.109940 21.000000
232.413820 8.000000
233.103500 12.000000
233.119490 31.000000
233.129530 24.000000
234.082980 9.000000
234.118000 19.000000
234.133380 58.000000
234.159150 12.000000
235.114820 50.000000
235.126130 94.000000
235.699980 8.000000
236.099110 12.000000
236.124210 39.000000
236.133220 49.000000
236.151340 17.000000
237.146530 21.000000
237.618710 10.000000
238.089600 32.000000
238.131520 21.000000
238.145070 21.000000
238.178100 11.000000
238.415730 8.000000
245.081010 11.000000
246.087070 9.000000
246.116680 14.000000
247.133880 10.000000
248.124210 21.000000
248.141750 39.000000
249.102430 25.000000
249.117680 8.000000
249.128360 18.000000
250.113140 28.000000
250.127610 14.000000
251.152880 14.000000
251.160610 26.000000
255.848450 26.000000
260.143590 12.000000
261.108920 8.000000
262.138580 13.000000
263.114530 13.000000
263.129730 8.000000
263.153290 10.000000
264.133580 13.000000
265.135350 10.000000
266.724550 8.000000
277.172850 11.000000
278.150820 15.000000
279.141270 32.000000
279.150020 9.000000
280.190060 14.000000
282.158110 15.000000
308.155300 9.000000
308.183810 12.000000
311.141850 9.000000
323.167080 9.000000
339.186000 11.000000
339.203980 67.000000
339.221310 28.000000

>ms2
180.080630 8.000000
194.096370 7.000000
196.104260 7.000000
196.116530 6.000000
197.107360 49.000000
225.137880 63.000000
226.141860 9.000000
234.126280 5.000000
251.155060 10.000000
307.171020 5.000000
339.159790 5.000000
339.206180 1000.000000
339.259830 16.000000

>ms2
338.194150 6.000000
339.164730 10.000000
339.207280 1000.000000
339.260860 22.000000

>ms2
87.045540 8.000000
96.081770 6.000000
110.097040 5.000000
124.109910 7.000000
156.084490 9.000000
168.081300 5.000000
182.091050 10.000000
183.106170 8.000000
194.095410 18.000000
196.112410 50.000000
197.107220 168.000000
198.111880 25.000000
202.086530 10.000000
208.112140 23.000000
208.119860 8.000000
209.119110 5.000000
221.115590 7.000000
222.117690 6.000000
222.129760 11.000000
223.126110 15.000000
224.128620 11.000000
225.103290 7.000000
225.139500 263.000000
226.142820 50.000000
234.120860 9.000000
234.131870 13.000000
236.144210 9.000000
237.141040 8.000000
251.155120 18.000000
252.163770 9.000000
264.153870 5.000000
279.149900 11.000000
282.145900 7.000000
307.180850 14.000000
308.155550 6.000000
308.167600 5.000000
311.172240 13.000000
339.148100 8.000000
339.162690 20.000000
339.207090 1000.000000
339.236020 7.000000

>ms2
55.004510 14.000000
56.119140 8.000000
56.911290 7.000000
58.065560 7.000000
58.068560 8.000000
67.054630 17.000000
67.529520 12.000000
68.048170 20.000000
70.064460 31.000000
72.081040 9.000000
77.035270 18.000000
77.040870 18.000000
78.040890 9.000000
79.057300 24.000000
79.681680 7.000000
80.047810 12.000000
81.072120 11.000000
81.083470 22.000000
82.057940 29.000000
84.084270 12.000000
87.043920 96.000000
87.049480 19.000000
87.690960 9.000000
91.053430 30.000000
93.053390 12.000000
93.065290 40.000000
94.060780 15.000000
94.065960 59.000000
94.073860 22.000000
95.069540 9.000000
95.086760 37.000000
95.093600 9.000000
96.069770 7.000000
96.080990 254.000000
97.085230 24.000000
98.093890 16.000000
103.056720 43.000000
106.067700 37.000000
108.080860 29.000000
109.090680 8.000000
109.490050 9.000000
110.073890 11.000000
110.092830 97.000000
110.098850 69.000000
111.040020 12.000000
114.041610 10.000000
114.101940 11.000000
114.985690 22.000000
115.051920 61.000000
116.050930 9.000000
117.066360 10.000000
117.072970 15.000000
117.561460 11.000000
118.063770 25.000000
118.071550 23.000000
119.076420 11.000000
119.083590 10.000000
120.081070 20.000000
121.072800 11.000000
122.061740 24.000000
122.096240 31.000000
122.103200 12.000000
123.103520 33.000000
124.104250 11.000000
124.112560 38.000000
127.049530 38.000000
127.056680 10.000000
128.045590 9.000000
128.052720 25.000000
128.062500 24.000000
129.055190 20.000000
129.067020 68.000000
129.076580 25.000000
130.065870 343.000000
130.738650 15.000000
131.064880 26.000000
131.070180 60.000000
131.085680 10.000000
132.078230 10.000000
133.069960 17.000000
134.099350 29.000000
135.075450 11.000000
136.072630 9.000000
136.101320 11.000000
139.053470 8.000000
141.038540 8.000000
141.065980 57.000000
142.066060 177.000000
143.062520 19.000000
143.075620 51.000000
143.085250 11.000000
144.057340 11.000000
144.075530 48.000000
144.082790 98.000000
144.088170 33.000000
145.072340 11.000000
145.083360 11.000000
146.099400 8.000000
148.070070 43.000000
148.078860 19.000000
152.054440 17.000000
152.062820 13.000000
152.107530 20.000000
153.053570 15.000000
153.069410 18.000000
154.056140 49.000000
154.061920 141.000000
154.072810 38.000000
154.843510 9.000000
155.065630 14.000000
155.075270 11.000000
156.041460 27.000000
156.070500 22.000000
156.080810 112.000000
157.087110 128.000000
157.100190 7.000000
158.058400 29.000000
158.088850 52.000000
159.913160 7.000000
160.074970 30.000000
165.075910 8.000000
166.079640 17.000000
167.048310 8.000000
167.072420 258.000000
167.090870 15.000000
168.065670 17.000000
168.080290 260.000000
168.173480 7.000000
168.590450 7.000000
169.053210 9.000000
169.074250 15.000000
169.085510 162.000000
169.825560 7.000000
170.030410 14.000000
170.060670 139.000000
170.090260 97.000000
170.099460 70.000000
170.123790 17.000000
171.060390 24.000000
171.068820 17.000000
171.102080 66.000000
172.076420 44.000000
172.110150 8.000000
174.085330 28.000000
174.092760 13.000000
178.064220 12.000000
179.065580 25.000000
180.035390 7.000000
180.081180 408.000000
180.642230 15.000000
181.045580 13.000000
181.067570 19.000000
181.083220 100.000000
181.090740 61.000000
181.101460 20.000000
182.056720 30.000000
182.076460 26.000000
182.094010 305.000000
182.108930 44.000000
182.472260 9.000000
183.082240 10.000000
183.095790 83.000000
183.104350 42.000000
183.113780 16.000000
184.094350 9.000000
184.104290 13.000000
184.113390 26.000000
188.071180 37.000000
189.081330 12.000000
189.564880 16.000000
191.074970 9.000000
192.070310 35.000000
192.083180 93.000000
192.105830 8.000000
193.067410 12.000000
193.085880 93.000000
193.096650 37.000000
194.057830 11.000000
194.096150 431.000000
194.113390 14.000000
195.066910 7.000000
195.091290 80.000000
195.100750 99.000000
195.114970 18.000000
196.051220 8.000000
196.070830 14.000000
196.080340 14.000000
196.111830 436.000000
196.334430 10.000000
197.066620 21.000000
197.078480 11.000000
197.107300 1000.000000
198.091720 23.000000
198.110110 216.000000
198.129650 22.000000
199.114610 14.000000
200.042570 9.000000
202.062090 11.000000
202.091720 34.000000
204.082610 125.000000
204.097110 25.000000
205.063840 8.000000
205.084090 93.000000
205.091890 73.000000
205.108030 21.000000
205.802340 9.000000
206.059070 26.000000
206.082610 22.000000
206.093720 149.000000
207.073180 20.000000
207.089890 35.000000
207.106280 71.000000
207.116030 18.000000
208.092210 10.000000
208.113050 214.000000
208.127580 27.000000
208.272140 11.000000
209.088070 29.000000
209.107360 98.000000
209.117370 92.000000
210.092470 9.000000
210.112180 68.000000
210.122180 112.000000
216.102550 25.000000
216.671450 13.000000
217.079800 19.000000
217.088090 29.000000
218.077000 11.000000
218.098340 109.000000
218.273610 8.000000
219.049060 8.000000
219.080260 11.000000
219.102260 135.000000
219.114320 52.000000
220.064120 23.000000
220.074740 18.000000
220.113690 125.000000
221.082140 9.000000
221.102330 17.000000
221.119950 83.000000
222.074830 8.000000
222.083420 10.000000
222.108320 11.000000
222.125260 77.000000
223.100080 20.000000
223.122160 201.000000
223.163540 16.000000
223.878510 8.000000
224.126070 103.000000
224.144240 7.000000
224.336380 8.000000
225.100750 9.000000
225.119060 47.000000
225.141630 286.000000
226.079820 9.000000
226.144850 12.000000
226.154460 22.000000
227.146700 11.000000
228.088410 11.000000
228.098910 9.000000
231.093600 10.000000
232.109130 8.000000
233.118760 49.000000
233.127940 18.000000
234.097240 39.000000
234.110720 10.000000
234.132600 26.000000
235.091960 25.000000
235.116060 16.000000
235.127850 24.000000
235.143420 22.000000
236.109120 26.000000
236.130940 63.000000
236.148680 20.000000
237.132520 27.000000
237.145450 50.000000
237.163820 13.000000
237.175090 16.000000
238.068480 8.000000
238.152390 28.000000
241.100520 10.000000
244.110430 11.000000
245.118410 14.000000
245.308550 8.000000
246.078920 13.000000
246.129120 11.000000
247.139280 9.000000
248.105470 15.000000
249.111360 8.000000
249.131500 10.000000
250.107970 17.000000
250.150910 9.000000
251.112060 13.000000
251.125180 9.000000
251.161990 61.000000
257.110660 8.000000
258.125700 7.000000
259.137270 17.000000
261.139100 9.000000
262.232640 10.000000
263.150020 11.000000
264.137790 8.000000
265.175750 9.000000
273.111330 9.000000
273.137330 12.000000
274.131650 9.000000
278.128570 13.000000
278.146150 15.000000
279.191130 17.000000
280.088410 8.000000
283.150420 8.000000
306.463870 19.000000
310.152950 8.000000
311.142180 10.000000
333.097020 7.000000
339.200870 34.000000
339.219330 24.000000

>ms2
196.110640 24.000000
197.105440 60.000000
198.111620 6.000000
208.111220 8.000000
222.127940 8.000000
225.137950 67.000000
226.140170 15.000000
339.148740 6.000000
339.165310 7.000000
339.205750 1000.000000
339.259120 18.000000

>ms2
339.153560 10.000000
339.205320 1000.000000
339.258940 25.000000

>ms2
87.044510 9.000000
96.080670 5.000000
110.095000 10.000000
122.094400 7.000000
124.111110 7.000000
130.065340 6.000000
144.074460 6.000000
168.078830 6.000000
172.078310 6.000000
180.079100 6.000000
182.116360 5.000000
194.092530 8.000000
195.097380 8.000000
196.110290 52.000000
197.088170 5.000000
197.107990 150.000000
198.105650 11.000000
198.115020 14.000000
202.086580 12.000000
208.109510 20.000000
221.128570 6.000000
222.126190 13.000000
222.138660 6.000000
223.121430 14.000000
224.128040 14.000000
225.097960 7.000000
225.114460 6.000000
225.139110 247.000000
226.142990 56.000000
234.131120 8.000000
236.138170 20.000000
251.150770 15.000000
251.162960 9.000000
252.154460 7.000000
253.169980 5.000000
279.145630 12.000000
279.162080 6.000000
279.187960 10.000000
280.154420 6.000000
289.170590 6.000000
294.153930 6.000000
307.185700 11.000000
308.162290 6.000000
339.141510 7.000000
339.164000 10.000000
339.180540 10.000000
339.207030 1000.000000

>ms2
55.055650 22.000000
58.065050 18.000000
67.044820 10.000000
67.051380 28.000000
69.072030 13.000000
70.065870 11.000000
79.043340 23.000000
79.054070 42.000000
80.049140 11.000000
81.057590 10.000000
82.064380 17.000000
83.073690 19.000000
84.081240 18.000000
87.043970 65.000000
87.111180 10.000000
88.051510 17.000000
93.053320 9.000000
93.063110 16.000000
93.068960 26.000000
93.072940 7.000000
94.062440 11.000000
94.066570 8.000000
96.042370 11.000000
96.081770 150.000000
97.085180 7.000000
98.091190 14.000000
98.097790 9.000000
101.033480 14.000000
105.068570 10.000000
106.066990 48.000000
107.065670 44.000000
108.070480 26.000000
108.079970 67.000000
109.068180 18.000000
109.085730 22.000000
110.095160 269.000000
111.097980 9.000000
112.495670 12.000000
115.017970 13.000000
115.048610 50.000000
115.053860 96.000000
116.060090 9.000000
117.074620 10.000000
117.518260 9.000000
118.066080 9.000000
118.135700 9.000000
119.055400 12.000000
120.017620 10.000000
120.074020 10.000000
120.081670 44.000000
121.065060 9.000000
122.061800 13.000000
122.094580 82.000000
124.111570 39.000000
127.049550 10.000000
127.056510 11.000000
128.029140 7.000000
128.046750 10.000000
128.061390 90.000000
129.067180 46.000000
130.063860 213.000000
131.054690 18.000000
131.068630 35.000000
131.078890 22.000000
132.077910 8.000000
134.093960 21.000000
136.071230 14.000000
136.076770 21.000000
136.109420 15.000000
137.083560 10.000000
138.128160 10.000000
140.290820 13.000000
141.032470 16.000000
141.066970 11.000000
141.075380 9.000000
142.060170 104.000000
142.066790 124.000000
142.075790 40.000000
143.073140 59.000000
143.082920 31.000000
144.080000 241.000000
145.052280 8.000000
145.078220 9.000000
146.109070 18.000000
150.090970 9.000000
152.056530 9.000000
152.100600 10.000000
152.801380 16.000000
153.067120 19.000000
153.077070 11.000000
154.040660 13.000000
154.064700 119.000000
155.052050 12.000000
155.061610 36.000000
155.070040 67.000000
155.079590 15.000000
156.036540 13.000000
156.048260 59.000000
156.065480 13.000000
156.077320 82.000000
156.086290 100.000000
156.093080 55.000000
156.551510 9.000000
157.029220 9.000000
157.042450 14.000000
157.064640 14.000000
157.083400 123.000000
157.088820 59.000000
157.443920 10.000000
158.055340 9.000000
158.086140 20.000000
158.096220 19.000000
159.103180 14.000000
160.076750 10.000000
164.087010 12.000000
165.060330 9.000000
165.590530 8.000000
166.055690 27.000000
166.064710 9.000000
166.074600 9.000000
167.070020 246.000000
168.053730 10.000000
168.076890 327.000000
169.070430 20.000000
169.086590 73.000000
169.617890 8.000000
170.047840 32.000000
170.062010 84.000000
170.080540 42.000000
170.095170 198.000000
170.748860 12.000000
171.067120 11.000000
171.078400 13.000000
171.091400 10.000000
171.099350 33.000000
171.106550 16.000000
172.068440 30.000000
172.078510 8.000000
172.361660 9.000000
174.093950 14.000000
177.056630 11.000000
178.061020 10.000000
178.077190 9.000000
179.071010 10.000000
179.077880 23.000000
179.087750 15.000000
180.043400 10.000000
180.078580 531.000000
180.095630 10.000000
181.067860 20.000000
181.082550 219.000000
181.091960 72.000000
181.361920 13.000000
182.044450 16.000000
182.095900 263.000000
182.110520 15.000000
183.079150 12.000000
183.086900 10.000000
183.099960 23.000000
183.107940 22.000000
183.339520 11.000000
184.099410 12.000000
185.102940 15.000000
185.375750 7.000000
186.090060 9.000000
187.045640 7.000000
187.097820 15.000000
190.051150 16.000000
190.065030 13.000000
190.071880 12.000000
190.933330 7.000000
191.028630 8.000000
191.065980 16.000000
191.075840 29.000000
191.088810 18.000000
192.083450 107.000000
193.086700 104.000000
194.068340 10.000000
194.081790 66.000000
194.096210 408.000000
194.104870 108.000000
194.461610 13.000000
194.970080 9.000000
195.059250 10.000000
195.087650 96.000000
195.098910 196.000000
195.289470 7.000000
196.083110 27.000000
196.106610 180.000000
196.115690 262.000000
197.064560 13.000000
197.080630 39.000000
197.107090 1000.000000
197.132110 14.000000
198.085010 31.000000
198.110550 157.000000
198.150730 15.000000
198.257400 10.000000
199.096250 13.000000
199.105580 9.000000
202.075960 7.000000
202.083340 9.000000
202.095440 9.000000
203.080490 9.000000
203.090620 15.000000
204.072010 37.000000
204.081480 79.000000
205.076640 22.000000
205.088100 83.000000
205.097810 22.000000
206.060170 33.000000
206.071210 32.000000
206.090180 92.000000
206.097810 145.000000
207.070530 27.000000
207.089690 9.000000
207.104480 51.000000
208.094330 30.000000
208.112840 346.000000
209.046170 11.000000
209.073170 10.000000
209.099440 48.000000
209.112170 104.000000
209.121050 63.000000
210.038440 11.000000
210.109650 115.000000
210.123750 32.000000
211.103210 22.000000
211.118290 45.000000
211.128780 14.000000
212.084500 21.000000
214.088150 7.000000
214.097270 18.000000
217.064580 24.000000
217.082960 19.000000
217.094250 41.000000
218.058410 13.000000
218.073680 10.000000
218.098680 133.000000
219.099430 120.000000
220.068390 15.000000
220.109920 168.000000
221.074010 35.000000
221.084580 67.000000
221.096890 24.000000
221.109050 30.000000
221.118380 60.000000
221.128450 22.000000
222.077290 10.000000
222.114410 54.000000
222.126710 78.000000
223.100400 23.000000
223.120120 248.000000
223.138370 25.000000
224.103030 29.000000
224.114970 21.000000
224.129530 61.000000
224.140780 10.000000
224.174730 17.000000
225.101990 14.000000
225.137370 359.000000
226.134830 17.000000
226.145250 51.000000
226.927900 7.000000
230.089570 16.000000
230.101090 15.000000
232.117750 17.000000
233.035130 10.000000
233.299970 9.000000
234.084370 33.000000
234.122500 161.000000
234.150920 10.000000
235.050610 7.000000
235.095180 12.000000
235.109330 30.000000
235.119230 51.000000
235.128460 50.000000
235.163680 12.000000
236.112050 39.000000
236.123080 58.000000
236.137390 57.000000
237.098220 8.000000
237.121110 24.000000
237.135130 63.000000
237.149350 10.000000
238.083890 48.000000
238.132050 11.000000
238.150730 15.000000
239.929440 11.000000
242.094560 8.000000
243.077210 10.000000
244.950200 9.000000
245.117570 25.000000
246.107590 7.000000
246.117100 8.000000
246.130280 35.000000
248.130830 12.000000
249.092270 10.000000
249.105710 18.000000
249.153490 16.000000
250.081190 11.000000
250.162550 17.000000
251.108490 7.000000
251.128200 42.000000
251.150410 7.000000
251.163700 19.000000
252.178270 9.000000
253.172410 8.000000
253.184740 11.000000
256.139400 11.000000
257.107700 8.000000
261.130920 29.000000
262.120700 22.000000
263.126650 12.000000
264.015350 11.000000
264.133180 8.000000
265.878600 14.000000
267.164760 8.000000
269.134770 8.000000
273.137450 10.000000
276.829440 8.000000
277.128270 14.000000
278.129910 11.000000
278.139340 13.000000
281.139160 8.000000
289.179810 14.000000
294.132350 28.000000
295.148800 14.000000
308.168330 8.000000
308.184720 22.000000
323.172850 8.000000
339.181060 11.000000
339.206510 110.000000

