>compound PR23276705
>parentmass 623.1264
>ionization [M+H]+
>formula C27H26O17
>rt 243.000000
>profile qtof
#smiles_iso C1=CC(=CC=C1C2=CC(=O)C3=C(C=C(C=C3O2)OC4C(C(C(C(O4)C(=O)O)O)O)OC5C(C(C(C(O5)C(=O)O)O)O)O)O)O
#smiles_can C1=CC(=CC=C1C2=CC(=O)C3=C(C=C(C=C3O2)OC4C(C(C(C(O4)C(=O)O)O)O)OC5C(C(C(C(O5)C(=O)O)O)O)O)O)O
#inchikey SJFTVAAHLRFBST-UHFFFAOYSA-N
#pubchem_id 74977517
#mb_accession PR310964

>ms2peaks
85.032140 19.000000
120.081330 25.000000
141.015730 20.000000
271.060970 2502.000000
272.055660 93.000000
272.067840 186.000000
273.059450 65.000000
273.068450 65.000000
275.065610 20.000000
287.052400 20.000000
305.222500 20.000000
332.355130 18.000000
447.094940 77.000000
447.107210 33.000000
448.129760 20.000000
449.090060 17.000000
542.317440 17.000000
567.293640 23.000000
613.751530 20.000000
623.062990 18.000000
623.125120 1661.000000

