>compound PR23523056
>parentmass 449.10729
>ionization [M]+
>formula C21H21O11+
>rt 174.600000
>profile qtof
#smiles_iso C1=CC(=C(C=C1C2=[O+]C3=CC(=CC(=C3C=C2OC4C(C(C(C(O4)CO)O)O)O)O)O)O)O
#smiles_can C1=CC(=C(C=C1C2=[O+]C3=CC(=CC(=C3C=C2OC4C(C(C(C(O4)CO)O)O)O)O)O)O)O
#inchikey RKWHWFONKJEUEF-UHFFFAOYSA-O
#pubchem_id 4481259
#mb_accession PR311136

>ms2peaks
109.020960 22.000000
121.029950 21.000000
137.024050 24.000000
143.049380 30.000000
153.115390 17.000000
157.046940 40.000000
157.065030 22.000000
164.048920 21.000000
171.039810 20.000000
179.451800 17.000000
180.514310 26.000000
182.760560 20.000000
184.051160 24.000000
213.044620 82.000000
229.750090 30.000000
229.940860 20.000000
231.029100 21.000000
241.043640 29.000000
258.043490 17.000000
259.060460 19.000000
269.051360 28.000000
285.030060 20.000000
285.683690 19.000000
286.666660 18.000000
286.841830 30.000000
286.953280 18.000000
286.990880 24.000000
287.005860 84.000000
287.055110 8792.000000
287.125580 25.000000
287.169430 19.000000
287.259340 22.000000
287.776180 17.000000
288.030820 82.000000
288.059750 1638.000000
289.029910 64.000000
289.051910 44.000000
289.061280 83.000000
289.459080 17.000000
290.814640 22.000000
291.265080 17.000000
292.017240 18.000000
297.796480 17.000000
300.590150 18.000000
335.551540 17.000000
374.270840 19.000000
388.451540 18.000000
440.262150 17.000000
449.067810 73.000000
449.110530 2163.000000

