>compound PR23106229
>parentmass 577.3766
>ionization [M-H2O+H]+
>formula C33H54O9
>rt 394.800000
>profile qtof
#smiles_iso CC1C2C(CC3C2(CCC4C3CC=C5C4(CCC(C5)O)C)C)OC1(CCC(C)COC6C(C(C(C(O6)CO)O)O)O)O
#smiles_can CC1C2C(CC3C2(CCC4C3CC=C5C4(CCC(C5)O)C)C)OC1(CCC(C)COC6C(C(C(C(O6)CO)O)O)O)O
#inchikey DFVRTHJUFCVHTR-UHFFFAOYSA-N
#pubchem_id 85039906
#mb_accession PR310698

>ms2
107.086240 27.000000
109.065310 16.000000
115.085350 19.000000
115.186180 17.000000
149.125790 27.000000
167.113200 23.000000
175.113650 16.000000
225.165790 17.000000
235.145580 62.000000
253.208680 20.000000
271.210080 126.000000
272.221040 20.000000
350.442870 33.000000
383.513150 33.000000
415.289890 17.000000
415.310820 47.000000
415.326390 49.000000
416.208130 50.000000
416.328950 39.000000
577.366460 231.000000
577.434810 16.000000

