>compound PR23268303
>parentmass 441.3724
>ionization [M+H]+
>formula C30H48O2
>rt 624.000000
>profile qtof
#smiles_iso CC1(CC2C3=CCC4C5(CCC(C(C5CCC4(C3(CCC2(C=C1)C)C)C)(C)CO)O)C)C
#smiles_can CC1(CC2C3=CCC4C5(CCC(C(C5CCC4(C3(CCC2(C=C1)C)C)C)(C)CO)O)C)C
#inchikey VNGUCOGHCJHFID-UHFFFAOYSA-N
#pubchem_id 12442855
#mb_accession PR310658

>ms2peaks
57.067340 21.000000
95.076750 19.000000
95.084880 37.000000
97.100590 20.000000
107.612610 18.000000
109.096730 27.000000
131.195390 17.000000
133.095310 21.000000
139.109090 17.000000
147.109440 20.000000
151.118530 22.000000
158.109010 24.000000
163.151890 17.000000
173.132660 21.000000
177.129680 19.000000
187.139500 20.000000
187.155990 24.000000
195.176700 103.000000
199.147710 35.000000
201.161010 37.000000
201.173430 18.000000
203.177050 57.000000
204.181490 18.000000
207.179990 22.000000
213.155080 18.000000
215.168180 24.000000
215.185500 18.000000
217.194410 17.000000
217.203060 23.000000
219.158280 18.000000
221.190510 48.000000
227.174580 50.000000
243.214280 19.000000
246.229690 21.000000
247.192930 18.000000
269.226900 21.000000
305.806340 21.000000
335.286530 18.000000
365.317810 20.000000
369.290250 17.000000
371.294400 24.000000
405.362030 20.000000
411.354740 18.000000
422.149480 17.000000
423.353060 105.000000
423.370270 78.000000
423.386690 23.000000
423.890660 18.000000
439.344450 22.000000
441.313110 20.000000
441.373050 326.000000

