>compound PR24088908
>parentmass 481.09783500000003
>ionization [M+H]+
>formula C21H20O13
>rt 262.800000
>profile qtof
#smiles_iso C1=CC(=C(C=C1C2=C(C(=O)C3=C(O2)C(=C(C=C3O)O)OC4C(C(C(C(O4)CO)O)O)O)O)O)O
#smiles_can C1=CC(=C(C=C1C2=C(C(=O)C3=C(O2)C(=C(C=C3O)O)OC4C(C(C(C(O4)CO)O)O)O)O)O)O
#inchikey SJRXVLUZMMDCNG-UHFFFAOYSA-N
#pubchem_id 5949214
#mb_accession PR310464,PR310909

>ms2
137.025250 25.000000
180.994510 19.000000
245.032560 28.000000
274.054050 25.000000
319.043520 444.000000
320.049220 140.000000
330.485900 17.000000
334.291110 17.000000
358.000890 17.000000
461.135410 17.000000
481.088870 68.000000
481.111850 120.000000

>ms2
61.026580 18.000000
85.016240 18.000000
85.029500 48.000000
91.040680 22.000000
97.030810 17.000000
109.027650 22.000000
111.007390 33.000000
111.042810 22.000000
127.042000 20.000000
145.057880 17.000000
153.020490 34.000000
179.026340 17.000000
189.019210 20.000000
195.035420 18.000000
195.938610 25.000000
217.042820 41.000000
222.428410 28.000000
226.177920 30.000000
234.019840 20.000000
245.040990 22.000000
247.772890 32.000000
255.032550 19.000000
263.055660 20.000000
263.065310 17.000000
273.041260 40.000000
274.041930 44.000000
290.043090 23.000000
292.057220 18.000000
301.008540 19.000000
301.042570 38.000000
302.380430 19.000000
319.007510 17.000000
319.043820 2767.000000
319.083980 25.000000
320.038880 172.000000
320.052800 278.000000
320.108550 17.000000
320.921750 20.000000
321.020660 17.000000
321.042420 21.000000
321.057220 19.000000
322.041690 18.000000
336.610050 24.000000
397.061550 20.000000
398.056150 18.000000
481.099760 839.000000

