>compound PR24233984
>parentmass 269.0808759714286
>ionization [M+H]+
>formula C16H12O4
>rt 403.595177
>profile qtof
#smiles_iso COC1=CC=C(C=C1)C2=COC3=C(C2=O)C=CC(=C3)O
#smiles_can COC1=CC=C(C=C1)C2=COC3=C(C2=O)C=CC(=C3)O
#inchikey HKQYGTCOTHHOMP-UHFFFAOYSA-N
#pubchem_id 5280378
#mb_accession PR302803,PR302808,PR302813,PR302818,PR302823,PR302828,PR302833,PR302838,PR302843,PR302848,PR302853,PR302858,PR310858,PR310859

>ms2peaks
107.045110 6.000000
107.050480 8.000000
118.042240 25.000000
136.015370 14.000000
137.020050 11.000000
141.071110 7.000000
152.062360 11.000000
153.069530 9.000000
156.056870 16.000000
163.037570 5.000000
169.064130 19.000000
170.072020 14.000000
180.060490 7.000000
181.065160 32.000000
197.058990 76.000000
198.057560 8.000000
198.068770 16.000000
213.089200 49.000000
213.099790 13.000000
214.097930 6.000000
225.054460 39.000000
226.061770 55.000000
227.061540 9.000000
237.055150 61.000000
238.061110 12.000000
253.048860 75.000000
254.057820 68.000000
255.063840 9.000000
269.045070 6.000000
269.081510 1000.000000
269.128970 28.000000

>ms2peaks
269.081240 1000.000000
269.128570 33.000000

>ms2peaks
68.996210 6.000000
79.055220 19.000000
81.035940 10.000000
90.046430 9.000000
103.054510 15.000000
104.278040 7.000000
105.039090 6.000000
105.068220 11.000000
105.083340 5.000000
107.037920 11.000000
107.048680 121.000000
108.013450 20.000000
108.022560 45.000000
115.273410 6.000000
118.040990 401.000000
119.040020 16.000000
119.048390 12.000000
120.060130 10.000000
128.068070 5.000000
129.069930 35.000000
132.020320 7.000000
133.004930 5.000000
133.020580 12.000000
133.029420 26.000000
133.064270 81.000000
136.015910 230.000000
137.022640 218.000000
138.021640 11.000000
138.030620 6.000000
141.048930 9.000000
141.069790 33.000000
142.078510 14.000000
143.086640 8.000000
144.057620 5.000000
147.039170 7.000000
147.047820 8.000000
148.047700 20.000000
151.040070 9.000000
151.051470 19.000000
152.061770 57.000000
153.069550 76.000000
153.082810 5.000000
154.068700 11.000000
154.076770 10.000000
155.047910 8.000000
155.082840 11.000000
156.056840 139.000000
157.062930 52.000000
158.058620 9.000000
158.073530 85.000000
163.038700 14.000000
165.056610 7.000000
165.073430 28.000000
166.069760 11.000000
167.029790 5.000000
167.080410 9.000000
168.046710 10.000000
168.058930 7.000000
169.054030 9.000000
169.067500 101.000000
170.047210 5.000000
170.054440 10.000000
170.072940 135.000000
171.077000 28.000000
172.087280 8.000000
173.090910 5.000000
180.056720 34.000000
180.066700 6.000000
181.042820 11.000000
181.063720 230.000000
182.061950 26.000000
182.072420 105.000000
183.074080 9.000000
184.050140 50.000000
184.060040 24.000000
185.050370 9.000000
185.104740 7.000000
195.069120 13.000000
195.080980 61.000000
196.045810 33.000000
196.053570 29.000000
196.065960 11.000000
196.089430 7.000000
197.019810 8.000000
197.059040 679.000000
198.065840 363.000000
199.069030 76.000000
200.037220 6.000000
200.048070 11.000000
201.050060 14.000000
208.056460 10.000000
209.057820 50.000000
209.071610 6.000000
210.041840 6.000000
210.062120 11.000000
210.072590 19.000000
211.033160 6.000000
211.069560 6.000000
213.089830 474.000000
214.084000 25.000000
214.096880 64.000000
214.111470 8.000000
215.084630 6.000000
215.093380 6.000000
223.082630 8.000000
223.311260 6.000000
225.023450 7.000000
225.033660 24.000000
225.054930 379.000000
226.031360 15.000000
226.061870 679.000000
227.068560 129.000000
228.056350 8.000000
228.071170 7.000000
237.016490 6.000000
237.056110 508.000000
237.930920 5.000000
238.012820 7.000000
238.051250 37.000000
238.059860 104.000000
239.033420 5.000000
239.065250 16.000000
240.065480 7.000000
241.082700 10.000000
252.070800 7.000000
253.011440 13.000000
253.049510 1000.000000
254.020200 5.000000
254.056090 515.000000
255.063480 73.000000
269.058350 8.000000
269.081120 433.000000

>ms2peaks
61.040950 11.000000
65.037610 11.000000
66.962480 7.000000
68.995190 27.000000
69.004240 9.000000
77.040250 82.000000
78.045490 20.000000
79.054120 20.000000
80.021410 19.000000
81.016200 8.000000
81.035060 64.000000
85.597810 9.000000
89.030200 28.000000
89.037710 68.000000
89.044080 10.000000
89.864630 7.000000
90.046100 208.000000
90.054300 26.000000
90.829350 6.000000
91.052940 48.000000
92.058500 10.000000
95.012120 7.000000
103.056590 18.000000
104.049900 19.000000
105.069340 9.000000
106.044010 13.000000
108.013250 27.000000
108.020980 26.000000
109.022160 14.000000
109.028870 7.000000
112.018530 9.000000
113.039760 7.000000
114.042020 9.000000
115.052400 363.000000
116.030930 14.000000
116.055380 26.000000
116.061840 22.000000
118.024760 10.000000
118.042470 147.000000
119.012310 8.000000
119.019110 15.000000
119.042890 9.000000
120.912860 7.000000
120.994440 9.000000
121.020870 14.000000
121.028340 13.000000
126.047920 14.000000
127.050980 47.000000
127.059760 13.000000
128.048680 15.000000
128.058880 93.000000
128.065090 94.000000
129.067810 94.000000
131.042570 12.000000
131.048280 25.000000
133.028200 23.000000
133.037630 10.000000
133.063570 12.000000
133.072450 19.000000
133.414260 7.000000
136.017930 7.000000
136.066250 8.000000
137.008270 18.000000
137.025570 66.000000
138.027330 21.000000
138.044850 6.000000
139.053790 102.000000
140.054790 16.000000
140.062410 41.000000
141.039830 13.000000
141.069840 715.000000
141.256040 7.000000
142.040240 6.000000
142.074490 52.000000
143.076600 11.000000
144.044570 9.000000
144.050350 12.000000
144.059430 35.000000
145.058560 9.000000
147.041410 10.000000
150.041630 10.000000
150.047040 31.000000
151.031310 26.000000
151.043910 38.000000
151.054700 143.000000
152.043080 7.000000
152.060640 382.000000
152.070980 46.000000
152.409360 8.000000
153.065140 201.000000
153.075070 47.000000
154.077330 21.000000
154.084370 9.000000
155.047810 24.000000
155.055480 8.000000
156.038700 18.000000
156.059940 47.000000
157.057720 22.000000
157.071870 9.000000
158.067060 7.000000
158.075150 10.000000
163.050960 7.000000
163.065190 14.000000
163.522830 16.000000
165.072950 15.000000
166.076130 9.000000
168.052050 61.000000
168.060000 47.000000
168.071810 21.000000
169.033430 20.000000
169.055070 96.000000
169.064450 418.000000
169.151960 6.000000
169.487290 6.000000
170.028000 9.000000
170.052350 12.000000
170.072770 146.000000
170.956880 11.000000
171.034910 16.000000
171.049150 15.000000
171.067320 24.000000
171.074860 22.000000
172.048460 23.000000
179.013090 6.000000
179.046020 9.000000
179.052580 19.000000
181.047330 18.000000
181.062590 239.000000
181.072710 98.000000
181.334030 8.000000
182.066510 56.000000
183.027210 12.000000
183.045500 39.000000
184.054930 7.000000
185.054050 9.000000
187.038770 8.000000
194.073870 13.000000
195.080920 25.000000
196.041150 17.000000
196.055190 143.000000
197.039760 47.000000
197.060580 1000.000000
197.084180 14.000000
198.047940 7.000000
198.059590 55.000000
198.069020 43.000000
198.532170 7.000000
199.060760 19.000000
199.073210 12.000000
200.034530 10.000000
200.041670 24.000000
209.058400 15.000000
211.040730 27.000000
213.092900 9.000000
224.041170 9.000000
224.051510 7.000000
225.052780 278.000000
226.053190 46.000000
226.065230 25.000000
226.909740 9.000000
227.739700 6.000000
232.446260 17.000000
235.005280 11.000000
237.059140 46.000000
237.065690 21.000000
247.033260 9.000000
252.049990 8.000000
252.942600 9.000000
253.050640 101.000000
253.289340 11.000000
253.536930 6.000000
254.050340 15.000000
255.046550 13.000000
269.075500 94.000000

>ms2peaks
107.048770 13.000000
118.041500 31.000000
136.014770 15.000000
137.023350 9.000000
141.067950 11.000000
152.058880 8.000000
169.065700 18.000000
170.068630 10.000000
181.059600 19.000000
181.067120 7.000000
182.068570 14.000000
197.057340 57.000000
197.068760 10.000000
198.062040 20.000000
198.073930 8.000000
213.091480 51.000000
214.095050 8.000000
225.055540 38.000000
226.059590 45.000000
226.070770 8.000000
227.069890 5.000000
237.045290 18.000000
237.053740 59.000000
238.057310 14.000000
253.049190 78.000000
254.058000 72.000000
255.061100 10.000000
269.080750 1000.000000
269.128140 29.000000

>ms2peaks
269.081300 1000.000000
269.128780 32.000000
269.274080 5.000000

>ms2peaks
68.995850 11.000000
71.014060 5.000000
77.037790 5.000000
77.044430 7.000000
81.040100 7.000000
90.043480 17.000000
103.057300 21.000000
104.023540 6.000000
105.063550 8.000000
105.072090 16.000000
107.029820 11.000000
107.048810 171.000000
108.020640 43.000000
109.028400 11.000000
118.038220 188.000000
118.044190 198.000000
119.040030 13.000000
119.046790 25.000000
119.052220 16.000000
120.016460 6.000000
121.029150 17.000000
128.059400 16.000000
129.069500 16.000000
131.046840 13.000000
133.027950 9.000000
133.063810 114.000000
133.075500 7.000000
135.040600 15.000000
136.010410 101.000000
136.018250 90.000000
137.020680 188.000000
138.020690 7.000000
141.037830 8.000000
141.057280 6.000000
141.067790 18.000000
142.063160 7.000000
142.085070 6.000000
143.073700 8.000000
144.060930 6.000000
144.519780 5.000000
147.039470 7.000000
148.054050 5.000000
151.050200 5.000000
152.063430 77.000000
153.065320 53.000000
154.075530 17.000000
155.045090 10.000000
155.053890 6.000000
155.085450 28.000000
156.053530 117.000000
156.060070 45.000000
156.069870 7.000000
156.981170 6.000000
157.061160 47.000000
157.070400 31.000000
157.093930 5.000000
158.069030 43.000000
158.079790 17.000000
159.071400 5.000000
159.081300 13.000000
163.039930 35.000000
164.685580 5.000000
165.068880 35.000000
166.074460 9.000000
167.074430 7.000000
167.806000 5.000000
169.063890 141.000000
170.070340 176.000000
170.080690 30.000000
171.078200 56.000000
172.084980 5.000000
175.036410 14.000000
176.042390 5.000000
180.043410 7.000000
180.058580 52.000000
181.065870 319.000000
182.065400 42.000000
182.073720 164.000000
183.077470 58.000000
184.051770 45.000000
184.081530 5.000000
185.057800 8.000000
185.101100 15.000000
186.068500 10.000000
195.040280 7.000000
195.075150 36.000000
195.086000 24.000000
196.031970 6.000000
196.045430 38.000000
196.059080 9.000000
196.074890 15.000000
196.088490 13.000000
196.584500 7.000000
197.021160 9.000000
197.039150 25.000000
197.059600 816.000000
198.019930 10.000000
198.066880 366.000000
199.056690 9.000000
199.067730 34.000000
199.077470 38.000000
200.040700 20.000000
200.055130 6.000000
201.038910 7.000000
208.041750 6.000000
208.049710 15.000000
208.059220 9.000000
209.061680 63.000000
210.067670 43.000000
211.031590 9.000000
211.047210 7.000000
211.070280 20.000000
212.049880 6.000000
212.081800 16.000000
213.016880 5.000000
213.064150 15.000000
213.089660 502.000000
214.093660 111.000000
214.115690 6.000000
215.098850 13.000000
225.031040 13.000000
225.054750 481.000000
225.079620 5.000000
225.982390 5.000000
226.026810 13.000000
226.060500 696.000000
227.028400 7.000000
227.044780 6.000000
227.061740 37.000000
227.069530 88.000000
228.071530 6.000000
236.972440 5.000000
237.014500 8.000000
237.054760 775.000000
238.035400 8.000000
238.057450 186.000000
239.059840 16.000000
239.074910 16.000000
251.067860 11.000000
253.014370 20.000000
253.050050 1000.000000
254.054600 294.000000
254.064210 214.000000
254.825940 6.000000
255.039630 13.000000
255.061000 94.000000
255.074370 16.000000
256.060970 11.000000
269.081300 408.000000

>ms2peaks
63.025880 12.000000
65.034030 39.000000
65.040280 7.000000
66.152200 9.000000
68.999830 7.000000
73.557600 14.000000
77.036700 37.000000
78.039060 37.000000
80.020500 32.000000
80.031580 10.000000
80.991800 7.000000
81.023990 11.000000
81.028340 20.000000
81.035830 9.000000
81.168790 6.000000
89.037540 123.000000
89.631800 7.000000
90.034380 20.000000
90.045420 151.000000
90.049780 67.000000
91.026370 9.000000
91.049760 19.000000
92.022660 19.000000
93.026920 22.000000
94.743320 7.000000
96.280670 7.000000
101.032720 11.000000
102.049420 22.000000
103.043330 12.000000
103.051090 10.000000
105.036900 7.000000
106.034190 12.000000
107.044970 17.000000
107.053470 7.000000
108.005550 13.000000
108.014340 10.000000
108.021920 45.000000
108.025800 20.000000
109.025020 14.000000
115.031900 9.000000
115.039440 9.000000
115.052250 291.000000
115.058870 137.000000
115.143880 9.000000
116.060300 40.000000
117.033240 13.000000
118.033860 49.000000
118.042100 77.000000
118.047310 42.000000
119.042050 28.000000
119.763250 7.000000
120.016740 10.000000
121.026500 36.000000
126.041530 7.000000
126.061420 14.000000
127.053280 57.000000
127.061170 29.000000
127.900880 10.000000
128.058790 162.000000
129.065430 71.000000
129.076130 20.000000
131.045500 9.000000
133.068010 29.000000
136.010240 9.000000
137.008870 11.000000
137.018980 23.000000
137.028410 46.000000
139.023450 23.000000
139.056440 30.000000
139.065410 9.000000
139.892430 7.000000
140.043270 7.000000
140.064220 19.000000
140.333190 7.000000
141.030000 6.000000
141.056900 47.000000
141.071720 569.000000
141.275380 7.000000
142.039810 9.000000
142.066480 61.000000
142.074330 58.000000
142.090270 9.000000
142.187090 7.000000
143.040240 11.000000
143.754530 9.000000
144.013210 7.000000
144.050720 33.000000
144.059800 33.000000
144.081190 13.000000
145.065380 19.000000
146.049960 9.000000
147.068680 9.000000
151.053190 54.000000
151.061260 32.000000
151.420300 12.000000
152.035320 9.000000
152.055620 240.000000
152.065800 265.000000
152.071720 85.000000
152.497710 8.000000
153.026260 6.000000
153.045180 13.000000
153.066640 172.000000
153.085830 26.000000
153.713230 7.000000
154.068680 26.000000
155.012040 11.000000
155.045090 15.000000
155.058060 10.000000
156.051030 39.000000
156.063930 26.000000
156.639310 6.000000
157.050580 9.000000
157.069840 8.000000
158.028810 9.000000
158.079570 36.000000
159.063460 12.000000
165.061220 21.000000
165.075470 16.000000
167.048550 20.000000
168.014390 11.000000
168.028310 9.000000
168.054780 59.000000
168.065370 29.000000
168.338390 8.000000
169.008820 13.000000
169.031860 7.000000
169.047060 30.000000
169.056840 221.000000
169.066450 366.000000
169.085310 10.000000
170.030940 7.000000
170.055800 14.000000
170.070240 135.000000
170.087110 12.000000
171.038470 13.000000
171.045210 29.000000
172.045580 10.000000
172.058170 7.000000
173.053440 7.000000
176.049120 9.000000
177.717350 9.000000
179.053830 44.000000
179.062440 12.000000
180.030460 7.000000
180.050350 8.000000
180.060290 10.000000
181.056030 96.000000
181.069610 96.000000
181.090960 7.000000
181.471790 21.000000
182.050960 14.000000
182.068310 26.000000
183.047240 11.000000
183.071530 13.000000
184.052250 22.000000
185.070160 14.000000
187.029600 15.000000
195.084690 9.000000
196.011860 8.000000
196.046750 39.000000
196.060960 35.000000
197.040910 75.000000
197.058550 1000.000000
197.587420 8.000000
198.057940 78.000000
198.066770 62.000000
199.039380 9.000000
199.068080 24.000000
199.997340 7.000000
200.022860 11.000000
200.042620 35.000000
200.059770 13.000000
200.071610 11.000000
201.059040 11.000000
201.817700 6.000000
202.226230 7.000000
207.538360 10.000000
208.036120 14.000000
208.069530 8.000000
209.052730 21.000000
209.064640 8.000000
209.076430 16.000000
210.053970 7.000000
210.065050 7.000000
211.032820 24.000000
211.048080 32.000000
213.019650 7.000000
219.027300 10.000000
219.049870 10.000000
224.078670 13.000000
225.035030 15.000000
225.052900 137.000000
225.063770 75.000000
225.299070 7.000000
226.063710 112.000000
226.097500 7.000000
227.047330 9.000000
229.184230 7.000000
235.026760 7.000000
237.054400 44.000000
238.024950 6.000000
253.000930 11.000000
253.022110 17.000000
253.041140 107.000000
253.052380 54.000000
253.064540 19.000000
254.047790 20.000000
269.050990 21.000000
269.070400 27.000000
269.080170 20.000000
269.094640 17.000000

>ms2peaks
107.050740 10.000000
118.040950 37.000000
133.062810 10.000000
136.015490 16.000000
137.023300 11.000000
152.060390 5.000000
152.068310 7.000000
153.072240 7.000000
156.056090 8.000000
169.064190 14.000000
170.073350 18.000000
181.064320 20.000000
182.066710 6.000000
182.078670 7.000000
197.059630 84.000000
198.063660 15.000000
198.072650 11.000000
213.090820 53.000000
225.055150 36.000000
226.060730 43.000000
237.054350 64.000000
238.057720 9.000000
253.050350 85.000000
254.058300 63.000000
255.069490 5.000000
269.034000 6.000000
269.080320 1000.000000
269.128850 27.000000

>ms2peaks
269.038180 7.000000
269.080540 1000.000000
269.127690 33.000000
269.273930 5.000000

>ms2peaks
65.041210 5.000000
68.997410 5.000000
79.055730 11.000000
90.045270 20.000000
90.052770 5.000000
91.059460 5.000000
105.036670 12.000000
105.067010 15.000000
105.072320 13.000000
106.073840 6.000000
107.035560 8.000000
107.048560 128.000000
107.064640 5.000000
108.013260 13.000000
108.020170 47.000000
108.049230 5.000000
115.049790 6.000000
118.025960 20.000000
118.040670 375.000000
119.024640 7.000000
119.045600 39.000000
120.017260 11.000000
121.026500 15.000000
123.039850 6.000000
124.046730 6.000000
127.051810 6.000000
128.061190 12.000000
129.061860 9.000000
129.072240 32.000000
130.073140 20.000000
132.017230 5.000000
132.057420 12.000000
132.063540 7.000000
133.019230 8.000000
133.030460 32.000000
133.054980 14.000000
133.066150 79.000000
134.071880 7.000000
135.044360 11.000000
135.054630 6.000000
135.990300 6.000000
136.015200 225.000000
136.671770 5.000000
137.022230 229.000000
138.021870 18.000000
138.030360 17.000000
141.068590 34.000000
141.078290 7.000000
142.043560 6.000000
142.071430 8.000000
145.060150 7.000000
145.068850 12.000000
147.044910 8.000000
151.054380 9.000000
152.050490 7.000000
152.062970 97.000000
153.069460 98.000000
154.072890 17.000000
156.041080 11.000000
156.057590 152.000000
157.055560 22.000000
157.065250 40.000000
157.074540 7.000000
158.068850 29.000000
158.077420 28.000000
159.077590 21.000000
163.037960 53.000000
165.071040 82.000000
166.071320 11.000000
167.092770 5.000000
168.052120 7.000000
169.065660 92.000000
170.037050 7.000000
170.071990 225.000000
171.043500 5.000000
171.072570 23.000000
171.080250 38.000000
172.054570 7.000000
176.051470 8.000000
180.054200 19.000000
180.062880 20.000000
181.049360 16.000000
181.064800 303.000000
182.065780 69.000000
182.075360 129.000000
183.032100 6.000000
183.047500 6.000000
183.066380 11.000000
183.075840 40.000000
184.051240 36.000000
185.059750 15.000000
185.088990 12.000000
186.061280 18.000000
193.056960 8.000000
195.080840 64.000000
196.050380 34.000000
196.062030 24.000000
196.086900 12.000000
196.097430 9.000000
197.016650 7.000000
197.027970 12.000000
197.059920 878.000000
197.096280 6.000000
198.032200 7.000000
198.066220 505.000000
199.055400 11.000000
199.070720 76.000000
200.048630 44.000000
200.070530 5.000000
201.056140 7.000000
202.054640 5.000000
202.989520 5.000000
208.035310 13.000000
208.052780 8.000000
209.050420 15.000000
209.059300 60.000000
210.066310 8.000000
210.073380 7.000000
211.073760 18.000000
212.038410 6.000000
212.072360 14.000000
212.083710 7.000000
213.090850 559.000000
213.108610 18.000000
214.094010 93.000000
215.098130 7.000000
224.054630 6.000000
224.912510 7.000000
225.032760 17.000000
225.054470 391.000000
226.024250 5.000000
226.062580 867.000000
227.066500 117.000000
228.065400 25.000000
228.080830 6.000000
236.041960 13.000000
237.009220 9.000000
237.021150 11.000000
237.054350 857.000000
238.059370 131.000000
239.053440 5.000000
239.065260 8.000000
241.084470 14.000000
243.777310 5.000000
252.683670 7.000000
253.018950 44.000000
253.051060 1000.000000
254.056590 590.000000
255.032210 6.000000
255.060440 64.000000
256.046390 5.000000
256.065800 14.000000
269.052310 12.000000
269.081020 450.000000

>ms2peaks
51.019160 6.000000
53.035300 5.000000
65.038510 7.000000
65.939200 5.000000
68.993880 15.000000
70.000960 8.000000
70.351870 5.000000
77.000760 5.000000
77.038570 61.000000
79.054220 10.000000
80.015730 10.000000
80.021670 29.000000
81.033090 23.000000
89.029010 9.000000
89.038200 142.000000
90.025490 15.000000
90.039430 15.000000
90.047620 208.000000
91.041330 8.000000
91.045830 5.000000
91.054460 17.000000
92.024390 17.000000
92.033850 7.000000
92.527810 5.000000
93.031690 9.000000
95.012450 5.000000
99.913060 7.000000
102.044770 11.000000
103.054710 39.000000
105.030620 15.000000
107.046150 36.000000
108.020890 42.000000
109.032450 9.000000
114.050160 5.000000
115.030100 7.000000
115.040950 11.000000
115.053710 337.000000
115.654110 5.000000
116.058070 57.000000
116.615140 7.000000
117.032640 27.000000
117.073430 5.000000
118.041040 152.000000
118.771030 6.000000
119.039020 5.000000
119.048850 17.000000
120.022190 11.000000
120.059550 18.000000
121.067780 7.000000
123.357860 9.000000
125.753460 8.000000
126.046170 6.000000
127.040930 7.000000
127.054790 62.000000
128.049910 9.000000
128.061280 79.000000
128.068880 81.000000
129.066860 90.000000
131.060300 12.000000
133.058650 7.000000
133.073200 14.000000
134.030580 10.000000
135.041050 9.000000
136.014620 20.000000
137.012370 5.000000
137.022710 114.000000
139.041410 7.000000
139.050750 47.000000
139.056840 42.000000
140.062960 53.000000
140.282320 10.000000
140.977600 6.000000
141.005580 7.000000
141.038530 16.000000
141.053680 29.000000
141.069700 582.000000
142.074300 134.000000
143.050310 25.000000
144.032030 10.000000
144.050690 20.000000
144.059480 27.000000
145.063630 19.000000
146.036700 8.000000
146.057370 6.000000
147.039630 15.000000
151.030650 7.000000
151.043460 36.000000
151.056020 156.000000
152.044340 12.000000
152.062270 361.000000
153.051390 8.000000
153.069870 192.000000
153.271620 14.000000
154.072630 47.000000
155.045270 26.000000
155.054350 38.000000
156.048460 19.000000
156.060060 37.000000
157.060410 20.000000
157.069630 5.000000
158.058400 13.000000
158.071670 6.000000
161.826390 9.000000
163.059560 5.000000
164.059720 5.000000
165.042710 6.000000
165.059480 5.000000
165.069320 25.000000
167.046140 11.000000
168.038330 14.000000
168.056820 135.000000
169.028960 5.000000
169.045140 7.000000
169.064070 469.000000
170.057330 12.000000
170.071060 103.000000
170.209560 9.000000
171.021130 6.000000
171.044680 76.000000
171.069350 11.000000
171.077650 17.000000
172.078310 5.000000
179.045700 60.000000
180.060560 16.000000
181.017550 7.000000
181.054640 54.000000
181.064620 110.000000
181.070940 58.000000
182.059590 8.000000
182.066440 27.000000
182.072940 13.000000
184.051360 10.000000
184.654300 9.000000
185.051860 8.000000
185.063200 9.000000
186.079130 5.000000
187.016220 7.000000
187.040040 12.000000
192.063520 6.000000
192.121050 10.000000
195.045430 12.000000
195.086820 6.000000
196.045210 29.000000
196.055020 50.000000
196.065660 7.000000
197.027790 35.000000
197.058730 1000.000000
198.038930 5.000000
198.055650 36.000000
198.065170 102.000000
198.080540 12.000000
199.064560 6.000000
199.072720 10.000000
200.048570 26.000000
208.047910 5.000000
209.053270 23.000000
209.064040 29.000000
209.074520 10.000000
210.055130 6.000000
211.024440 5.000000
211.049100 9.000000
212.070710 12.000000
213.086400 15.000000
213.095340 7.000000
224.021240 6.000000
224.045720 5.000000
225.035490 10.000000
225.055620 260.000000
226.050400 20.000000
226.060210 44.000000
227.055950 6.000000
235.041240 16.000000
237.053820 44.000000
238.062520 14.000000
241.745530 7.000000
253.045870 53.000000
253.059070 44.000000
253.068190 11.000000
254.044050 12.000000
254.058560 7.000000

>ms2peaks
55.018530 24.000000
65.044060 23.000000
68.995680 27.000000
77.005880 30.000000
77.034900 42.000000
77.043630 51.000000
78.043970 17.000000
79.056760 91.000000
79.449110 35.000000
79.908220 18.000000
81.034760 22.000000
82.004940 22.000000
90.046910 176.000000
91.052050 53.000000
92.023100 36.000000
93.038830 19.000000
95.016750 26.000000
101.039240 23.000000
103.050220 26.000000
103.060920 20.000000
103.844820 23.000000
104.031190 25.000000
104.450900 17.000000
105.073140 20.000000
107.045110 273.000000
107.050480 326.000000
108.016250 187.000000
108.025520 25.000000
108.046860 22.000000
108.552060 22.000000
108.847920 52.000000
109.029710 23.000000
110.021260 22.000000
110.032850 36.000000
111.016170 29.000000
115.045950 32.000000
115.056200 70.000000
116.057800 64.000000
116.562020 33.000000
116.635940 17.000000
118.021300 75.000000
118.042240 1074.000000
119.043620 167.000000
119.057140 20.000000
120.035290 29.000000
120.584200 21.000000
121.032190 17.000000
123.045300 20.000000
127.055330 35.000000
127.796170 23.000000
128.060090 165.000000
128.685620 18.000000
129.064010 29.000000
129.836230 18.000000
130.073410 62.000000
131.054290 48.000000
132.054060 44.000000
132.869400 18.000000
133.026350 45.000000
133.032810 58.000000
133.064560 125.000000
133.106770 18.000000
134.073620 78.000000
135.041520 83.000000
136.003910 24.000000
136.015370 597.000000
137.020050 483.000000
137.028200 173.000000
138.028550 51.000000
139.058870 28.000000
140.595320 17.000000
141.059250 25.000000
141.071110 314.000000
142.073170 46.000000
143.078960 23.000000
144.059740 101.000000
146.251070 17.000000
147.043850 59.000000
148.051530 32.000000
148.768550 20.000000
151.036590 35.000000
151.054290 54.000000
152.047490 67.000000
152.062360 483.000000
153.047810 28.000000
153.069530 406.000000
155.054050 46.000000
155.086550 22.000000
155.421980 23.000000
156.056870 674.000000
157.044460 23.000000
157.059460 49.000000
157.069820 36.000000
157.107280 28.000000
157.755170 17.000000
158.063770 64.000000
158.075030 178.000000
159.047320 63.000000
159.073810 28.000000
159.828000 20.000000
161.620880 21.000000
163.031620 79.000000
163.037570 232.000000
163.054730 31.000000
163.513380 38.000000
165.059950 98.000000
165.078080 130.000000
166.078030 23.000000
167.053440 54.000000
167.077960 40.000000
167.088940 34.000000
167.804870 19.000000
168.051420 41.000000
168.059560 51.000000
168.088810 30.000000
169.064130 814.000000
170.040150 26.000000
170.072020 596.000000
171.036130 51.000000
171.065260 33.000000
171.077440 148.000000
171.956150 44.000000
172.051320 17.000000
172.930270 18.000000
173.983280 21.000000
174.268370 25.000000
175.024170 31.000000
175.855440 38.000000
176.035720 41.000000
176.049710 56.000000
177.936600 18.000000
179.052490 44.000000
180.035520 33.000000
180.045060 91.000000
180.060490 279.000000
181.065160 1387.000000
181.100600 32.000000
182.064710 204.000000
182.074550 123.000000
182.291080 17.000000
183.037870 25.000000
183.050800 35.000000
183.060680 21.000000
184.048290 84.000000
184.059370 118.000000
185.060910 45.000000
185.091310 68.000000
185.802890 19.000000
186.324740 17.000000
186.338490 30.000000
189.504320 26.000000
192.463440 22.000000
193.763020 34.000000
194.361300 26.000000
195.079760 171.000000
195.092120 58.000000
195.398640 20.000000
196.039760 38.000000
196.051360 132.000000
196.061650 39.000000
196.088420 27.000000
196.303970 18.000000
197.012130 47.000000
197.023620 30.000000
197.058990 3245.000000
197.219010 18.000000
197.696270 17.000000
198.027970 18.000000
198.057560 351.000000
198.068770 677.000000
198.779370 18.000000
199.071060 209.000000
199.077450 87.000000
199.351460 33.000000
199.423110 19.000000
200.050610 70.000000
200.665630 21.000000
201.021700 20.000000
201.050690 17.000000
201.085160 20.000000
207.042240 22.000000
208.036770 19.000000
208.052280 63.000000
209.054550 54.000000
209.062910 82.000000
209.070980 62.000000
210.062360 21.000000
211.041920 20.000000
212.044160 46.000000
212.078220 44.000000
213.017580 17.000000
213.066210 43.000000
213.089200 2115.000000
213.099790 560.000000
213.523410 18.000000
213.896550 29.000000
214.087540 196.000000
214.097930 266.000000
215.105930 59.000000
215.157580 38.000000
216.995290 27.000000
217.267460 27.000000
218.275880 20.000000
219.047440 22.000000
222.614440 25.000000
224.047640 18.000000
224.070420 23.000000
225.011060 26.000000
225.054460 1677.000000
225.201390 32.000000
225.385040 18.000000
226.014110 46.000000
226.031340 160.000000
226.061770 2373.000000
226.098920 42.000000
227.061540 366.000000
227.073260 128.000000
228.069440 60.000000
228.406330 19.000000
235.024410 28.000000
237.019010 37.000000
237.055150 2608.000000
238.050090 190.000000
238.061110 532.000000
238.084870 28.000000
238.621090 31.000000
238.915420 36.000000
239.054460 29.000000
239.063690 47.000000
239.075520 33.000000
239.352110 19.000000
240.054700 23.000000
240.113890 20.000000
241.070940 25.000000
241.082570 110.000000
241.131130 33.000000
244.886050 26.000000
249.198170 17.000000
251.668120 18.000000
252.092900 44.000000
252.989090 23.000000
253.011200 40.000000
253.048860 3205.000000
253.072740 82.000000
253.900040 56.000000
254.008700 44.000000
254.028900 48.000000
254.057820 2898.000000
255.045030 103.000000
255.063840 383.000000
255.445480 17.000000
255.860890 22.000000
256.049040 20.000000
256.063170 42.000000
256.719510 20.000000
257.079470 20.000000
259.392360 27.000000
264.039030 17.000000
264.954280 17.000000
266.912930 17.000000
267.026670 17.000000
267.381380 17.000000
267.464750 19.000000
268.077180 149.000000
268.449770 17.000000
269.002140 65.000000
269.014770 32.000000
269.045070 278.000000
269.081510 42817.000000
269.128970 1210.000000
269.160400 28.000000
269.277010 122.000000

>ms2peaks
78.042330 16.000000
98.507760 17.000000
114.762890 24.000000
140.993320 16.000000
144.922640 17.000000
146.416700 17.000000
149.020460 16.000000
152.053160 24.000000
153.069320 17.000000
156.812990 23.000000
165.062670 16.000000
167.093030 22.000000
177.072370 16.000000
179.079180 19.000000
181.061920 19.000000
182.071040 17.000000
195.070620 18.000000
197.053090 17.000000
198.061680 59.000000
208.042880 17.000000
221.758040 21.000000
223.073960 20.000000
223.086440 16.000000
226.069930 33.000000
238.060900 16.000000
241.085590 17.000000
251.059810 20.000000
253.047670 25.000000
254.039930 17.000000
254.059280 151.000000
254.071820 35.000000
255.058810 65.000000
255.070180 33.000000

