>compound PR24107815
>parentmass 771.1978
>ionization [M+H]+
>formula C33H38O21
>rt 280.800000
>profile qtof
#smiles_iso C1=CC(=CC=C1C2=C(C(=O)C3=C(O2)C=C(C(=C3O)C4C(C(C(C(O4)CO)O)O)O)O)C5C(C(C(C(O5)CO)O)O)O)OC6C(C(C(C(O6)C(=O)O)O)O)O
#smiles_can C1=CC(=CC=C1C2=C(C(=O)C3=C(O2)C=C(C(=C3O)C4C(C(C(C(O4)CO)O)O)O)O)C5C(C(C(C(O5)CO)O)O)O)OC6C(C(C(C(O6)C(=O)O)O)O)O
#inchikey MKNZYNHECYGLOH-UHFFFAOYSA-N
#pubchem_id 131833385
#mb_accession PR310995

>ms2
92.180260 25.000000
95.053570 24.000000
107.054730 17.000000
147.051470 19.000000
149.064940 20.000000
149.721080 17.000000
154.828900 20.000000
166.097990 26.000000
193.047450 64.000000
197.753270 23.000000
206.050830 19.000000
216.079130 24.000000
217.048600 129.000000
234.261020 19.000000
235.063630 21.000000
241.046370 23.000000
241.057970 41.000000
251.094590 67.000000
253.263580 27.000000
257.081390 17.000000
259.058530 105.000000
259.068330 62.000000
260.056700 22.000000
274.097080 22.000000
278.074890 22.000000
283.061830 91.000000
283.075650 17.000000
284.057400 37.000000
287.053280 18.000000
301.048550 17.000000
301.072810 83.000000
301.315890 18.000000
304.798280 20.000000
315.103330 37.000000
317.091490 17.000000
318.699830 18.000000
323.092070 17.000000
324.084010 43.000000
325.051640 24.000000
325.073730 39.000000
325.292480 21.000000
326.068390 41.000000
328.047360 20.000000
338.104220 22.000000
338.118740 44.000000
339.083890 21.000000
341.101260 72.000000
342.088780 17.000000
343.073120 51.000000
343.084780 21.000000
344.088780 21.000000
350.200650 27.000000
354.099180 20.000000
359.107060 57.000000
363.056670 43.000000
365.081120 35.000000
365.096980 74.000000
366.103910 43.000000
367.073300 58.000000
367.092620 17.000000
368.097080 33.000000
375.061460 35.000000
379.102450 18.000000
379.123810 17.000000
381.118500 48.000000
383.086360 32.000000
383.105960 131.000000
384.108220 20.000000
384.122560 20.000000
389.089360 17.000000
389.103300 34.000000
389.121580 19.000000
391.097750 17.000000
397.118350 25.000000
398.142460 19.000000
405.087490 59.000000
407.113070 204.000000
419.770810 39.000000
425.132200 20.000000
425.145260 24.000000
426.113100 18.000000
427.121920 28.000000
429.085210 62.000000
431.104580 24.000000
431.123140 75.000000
435.118230 26.000000
443.701200 17.000000
445.125000 19.000000
447.078580 20.000000
449.115110 70.000000
449.131770 17.000000
449.231450 21.000000
450.108030 36.000000
450.137390 23.000000
453.143100 28.000000
455.126400 18.000000
459.117250 17.000000
464.997960 19.000000
465.103330 23.000000
473.094570 20.000000
473.123140 41.000000
490.119690 42.000000
491.137850 22.000000
505.103450 19.000000
505.126160 17.000000
510.161160 29.000000
511.085720 20.000000
511.114620 76.000000
511.137120 20.000000
517.140750 26.000000
525.138790 18.000000
529.116880 34.000000
529.142520 64.000000
529.176640 18.000000
530.107240 54.000000
530.162480 18.000000
533.092530 17.000000
533.120850 19.000000
535.158020 27.000000
547.108520 28.000000
547.137570 90.000000
547.168580 36.000000
548.130490 78.000000
549.157230 17.000000
551.114500 23.000000
551.176760 23.000000
553.140320 41.000000
559.128170 24.000000
565.153810 105.000000
566.164670 42.000000
567.183040 23.000000
569.116760 18.000000
571.138980 57.000000
571.167540 22.000000
572.161190 40.000000
577.127320 20.000000
577.145510 21.000000
583.162410 17.000000
595.135250 91.000000
596.101140 19.000000
596.147520 35.000000
613.098880 45.000000
613.147890 88.000000
614.136110 17.000000
614.181700 25.000000
650.156430 20.000000
663.130000 21.000000
681.141660 24.000000
682.138120 17.000000
699.157960 17.000000
700.152100 45.000000
717.124390 24.000000
717.166440 109.000000
717.203490 22.000000
718.157040 20.000000
735.171630 107.000000
735.202210 44.000000
735.224430 21.000000
736.068120 19.000000
736.090270 21.000000
736.169620 18.000000
736.193730 74.000000
738.178530 40.000000
753.148380 24.000000
753.191350 91.000000
754.194210 83.000000
771.095150 17.000000
771.204530 839.000000

