>compound PR24823299
>parentmass 181.04937
>ionization [M+H]+
>formula C9H8O4
>rt 211.800000
>profile qtof
#smiles_iso C1=CC(=C(C=C1C=CC(=O)O)O)O
#smiles_can C1=CC(=C(C=C1C=CC(=O)O)O)O
#inchikey QAIPRVGONGVQAS-UHFFFAOYSA-N
#pubchem_id 2518
#mb_accession PR311117,PR311118

>ms2
89.037340 25.000000
97.968360 26.000000
107.035620 26.000000
117.029530 87.000000
117.043090 29.000000
133.019030 34.000000
133.026660 27.000000
134.039170 25.000000
135.044280 147.000000
145.027940 37.000000
163.018740 21.000000
163.034970 193.000000
163.042130 138.000000
164.044340 22.000000
180.044420 36.000000
181.042890 23.000000

>ms2
135.038770 53.000000
141.051440 62.000000
145.022140 30.000000
163.036990 115.000000
180.034060 26.000000

