>compound PR24089682
>parentmass 354.13359926153856
>ionization [M+H]+
>formula C20H19NO5
>rt 271.614452
>profile qtof
#smiles_iso CN1CC2=C(C=CC3=C2OCO3)[C@@H]4[C@H]1C5=CC6=C(C=C5C[C@@H]4O)OCO6
#smiles_can CN1CC2=C(C=CC3=C2OCO3)C4C1C5=CC6=C(C=C5CC4O)OCO6
#inchikey GHKISGDRQRSCII-ZOCIIQOWSA-N
#pubchem_id 197810
#mb_accession PR300878,PR300882,PR300886,PR300890,PR300894,PR300897,PR300901,PR300905,PR300909,PR300913,PR300917,PR300920,PR301778,PR301780,PR301783,PR301786,PR301789,PR301791,PR301794,PR301797,PR301800,PR301803,PR301806,PR301809,PR310604,PR310605

>ms2peaks
135.041610 29.000000
135.047350 18.000000
136.045170 6.000000
143.046250 10.000000
146.058360 5.000000
159.044480 11.000000
161.059540 28.000000
163.027710 7.000000
163.039630 43.000000
173.057710 8.000000
176.073620 9.000000
178.082210 8.000000
188.070420 18.000000
189.069640 131.000000
190.075420 21.000000
205.064560 6.000000
205.075090 5.000000
207.078700 24.000000
217.063600 76.000000
218.070040 22.000000
219.075070 12.000000
235.073120 17.000000
237.090620 15.000000
238.103330 8.000000
245.067550 8.000000
246.056230 6.000000
247.075740 306.000000
248.079180 74.000000
248.096760 6.000000
249.081510 9.000000
263.067630 7.000000
265.067380 5.000000
265.079620 8.000000
265.093290 11.000000
266.087340 5.000000
275.071230 646.000000
276.076750 150.000000
277.080140 27.000000
293.080810 20.000000
295.097900 21.000000
296.098630 17.000000
305.080960 153.000000
306.081940 28.000000
306.093440 6.000000
307.095580 8.000000
323.055820 9.000000
323.091920 201.000000
324.096560 34.000000
336.110810 17.000000
336.125060 35.000000
354.086060 7.000000
354.133700 1000.000000
354.184360 22.000000

>ms2peaks
275.072570 15.000000
305.079280 20.000000
305.090390 6.000000
323.086090 14.000000
323.098970 15.000000
324.103180 6.000000
354.079350 5.000000
354.133820 1000.000000
354.187900 19.000000

>ms2peaks
131.052760 7.000000
135.044690 91.000000
136.041560 8.000000
136.049790 13.000000
143.042050 6.000000
143.050050 8.000000
149.059880 11.000000
159.044770 8.000000
161.056960 17.000000
161.065600 23.000000
163.040420 86.000000
164.045060 9.000000
173.062190 10.000000
175.043050 10.000000
176.073670 31.000000
179.086730 7.000000
187.036770 8.000000
188.072980 40.000000
189.070860 74.000000
190.066280 5.000000
190.076160 7.000000
191.081410 13.000000
207.064090 7.000000
207.082860 17.000000
217.066060 117.000000
218.073490 17.000000
219.085540 7.000000
235.071210 18.000000
235.081450 15.000000
236.075490 5.000000
236.086850 6.000000
237.090870 70.000000
238.101030 8.000000
245.062450 35.000000
245.076050 5.000000
246.061780 5.000000
246.071440 6.000000
247.040700 8.000000
247.076320 555.000000
248.080570 121.000000
249.079190 9.000000
249.089660 8.000000
263.063230 7.000000
263.077820 6.000000
265.077940 18.000000
265.087650 47.000000
265.102780 10.000000
266.089170 8.000000
267.078950 6.000000
275.027770 8.000000
275.071690 1000.000000
276.074160 205.000000
276.085630 45.000000
277.069030 6.000000
277.083620 22.000000
278.096680 5.000000
293.065400 5.000000
293.082120 30.000000
294.083220 9.000000
295.093840 25.000000
295.112700 6.000000
296.099980 9.000000
303.065580 6.000000
305.079380 33.000000
305.094510 16.000000
306.080810 9.000000
323.096650 26.000000
323.111540 7.000000
336.116670 11.000000
336.144170 8.000000
354.143010 9.000000

>ms2peaks
77.037610 11.000000
79.050660 6.000000
79.058830 7.000000
103.044990 7.000000
103.053650 10.000000
105.033920 5.000000
115.051860 5.000000
127.590840 6.000000
130.067980 6.000000
131.052370 14.000000
135.046450 53.000000
146.061310 8.000000
147.046950 6.000000
152.059680 8.000000
158.057430 11.000000
161.059920 8.000000
163.038040 14.000000
163.053940 13.000000
165.068130 6.000000
176.058960 13.000000
177.076600 11.000000
178.076600 76.000000
179.086270 49.000000
180.084850 8.000000
187.060730 5.000000
188.044390 5.000000
188.059800 20.000000
188.068420 19.000000
189.070160 1000.000000
190.074140 234.000000
191.085750 38.000000
192.055150 6.000000
192.062870 6.000000
192.076250 6.000000
201.069020 14.000000
202.073960 6.000000
205.060490 18.000000
205.073850 11.000000
206.055070 5.000000
206.068540 8.000000
207.082370 33.000000
209.055450 10.000000
217.065570 173.000000
218.067320 52.000000
219.079210 15.000000
220.090820 6.000000
235.079070 8.000000
236.073590 11.000000
237.083370 7.000000
246.069030 44.000000
247.075040 135.000000
248.076540 26.000000
250.049790 5.000000
250.067830 5.000000
262.068050 6.000000
275.071660 24.000000
276.078370 7.000000

>ms2peaks
135.044560 47.000000
143.048750 6.000000
159.049700 7.000000
161.058760 8.000000
161.064330 12.000000
163.038910 33.000000
173.059830 14.000000
179.085050 20.000000
188.067670 15.000000
189.069080 124.000000
190.075350 29.000000
191.088070 7.000000
205.065430 6.000000
207.081670 12.000000
217.066830 64.000000
218.070620 13.000000
219.079500 15.000000
235.073270 19.000000
236.082820 8.000000
237.088440 24.000000
245.059140 10.000000
246.067290 6.000000
247.075680 248.000000
248.080980 50.000000
248.090770 13.000000
249.089000 18.000000
263.071080 11.000000
265.083250 18.000000
266.093480 7.000000
275.070800 494.000000
276.074460 102.000000
277.072020 11.000000
293.079990 16.000000
293.087620 8.000000
294.081970 5.000000
295.093350 27.000000
296.101470 13.000000
305.080320 158.000000
306.084660 30.000000
307.082180 6.000000
323.091310 153.000000
324.094120 39.000000
336.125240 47.000000
337.133970 5.000000
354.134520 1000.000000
354.190340 7.000000

>ms2peaks
275.072660 19.000000
305.081790 21.000000
323.093540 32.000000
324.099730 8.000000
354.133420 1000.000000
354.187230 19.000000

>ms2peaks
131.051250 8.000000
135.044820 99.000000
136.049270 19.000000
143.047740 8.000000
143.055420 6.000000
159.043900 13.000000
161.060410 32.000000
162.065730 7.000000
163.038300 81.000000
164.041900 7.000000
173.057600 16.000000
176.073670 10.000000
188.071580 49.000000
189.068770 88.000000
190.067430 5.000000
207.077320 11.000000
217.067120 116.000000
218.074910 17.000000
219.079900 11.000000
235.079160 34.000000
236.079640 10.000000
237.092100 48.000000
245.049730 5.000000
245.065380 35.000000
246.069260 7.000000
247.018230 5.000000
247.036620 8.000000
247.076200 524.000000
248.077650 121.000000
249.083100 11.000000
263.071380 13.000000
265.081570 34.000000
265.092100 26.000000
266.057220 6.000000
266.090820 26.000000
275.040650 14.000000
275.070860 1000.000000
276.042480 5.000000
276.075230 249.000000
277.076320 25.000000
278.060670 7.000000
293.079560 18.000000
293.092770 6.000000
294.084110 7.000000
295.083860 8.000000
295.101170 31.000000
296.103850 7.000000
305.086430 35.000000
306.085780 8.000000
323.088870 26.000000
324.103910 9.000000
336.123630 14.000000
354.138640 8.000000

>ms2peaks
77.039170 7.000000
79.054240 6.000000
103.052760 15.000000
103.058200 6.000000
118.069790 8.000000
131.050990 9.000000
135.044660 39.000000
152.066560 7.000000
159.047520 10.000000
160.073680 8.000000
163.039260 24.000000
163.056500 11.000000
165.070970 11.000000
177.069690 32.000000
178.062590 6.000000
178.078380 56.000000
179.072460 13.000000
179.085910 26.000000
179.097600 6.000000
180.091130 12.000000
187.056550 9.000000
188.059230 9.000000
188.068950 23.000000
189.040340 6.000000
189.070890 1000.000000
190.067950 72.000000
190.076290 182.000000
191.083720 44.000000
192.091170 5.000000
201.067410 13.000000
202.081100 7.000000
205.060840 16.000000
205.069640 14.000000
207.073490 9.000000
207.083180 34.000000
217.067060 160.000000
218.065600 26.000000
218.078050 20.000000
219.068270 6.000000
219.079970 10.000000
219.088810 5.000000
220.085690 7.000000
221.062610 6.000000
235.071240 15.000000
237.090770 17.000000
246.071370 36.000000
247.076510 151.000000
248.080380 22.000000
275.069210 29.000000
275.082000 17.000000
276.065340 8.000000
276.085880 5.000000

>ms2peaks
135.045750 67.000000
136.051440 5.000000
143.049510 7.000000
161.061610 10.000000
161.069580 8.000000
163.039900 42.000000
176.075520 6.000000
179.085490 10.000000
188.068680 28.000000
189.069560 131.000000
190.071690 18.000000
190.079470 8.000000
191.084610 7.000000
207.079650 11.000000
209.058330 7.000000
217.064700 97.000000
218.069320 13.000000
219.082600 6.000000
235.070420 9.000000
235.083720 18.000000
237.091230 20.000000
245.063480 16.000000
247.076480 270.000000
248.078090 55.000000
248.092320 13.000000
249.084980 12.000000
265.074400 6.000000
265.088990 28.000000
275.026640 6.000000
275.039730 7.000000
275.070560 580.000000
276.073670 139.000000
277.077090 11.000000
277.090580 7.000000
293.081760 12.000000
295.097170 52.000000
295.108670 14.000000
296.094210 6.000000
305.081480 123.000000
306.086400 25.000000
323.091340 179.000000
324.091710 34.000000
336.122310 32.000000
336.133820 10.000000
337.131960 9.000000
354.088040 12.000000
354.133910 1000.000000
354.185820 13.000000

>ms2peaks
275.075230 9.000000
305.077730 16.000000
305.091520 7.000000
323.091830 27.000000
354.133090 1000.000000
354.187290 21.000000

>ms2peaks
135.043760 77.000000
135.049990 18.000000
136.050130 11.000000
143.049500 12.000000
144.056580 7.000000
149.054630 5.000000
159.047930 14.000000
161.055050 23.000000
161.063420 13.000000
163.040040 78.000000
173.060640 23.000000
176.066880 11.000000
176.073210 10.000000
187.035430 7.000000
188.068390 33.000000
188.078280 15.000000
189.072740 97.000000
190.075040 10.000000
207.059950 6.000000
207.081650 15.000000
217.060530 48.000000
217.070330 43.000000
218.059630 10.000000
218.069850 15.000000
219.079180 10.000000
235.070590 10.000000
235.079620 26.000000
236.077650 6.000000
237.089690 41.000000
238.099240 11.000000
245.057100 26.000000
245.068730 15.000000
246.056960 8.000000
246.069410 6.000000
247.076100 563.000000
248.080570 132.000000
249.076970 9.000000
249.094960 15.000000
263.075320 5.000000
265.070280 15.000000
265.078190 19.000000
265.089810 41.000000
266.085240 8.000000
266.096830 7.000000
275.014130 7.000000
275.071440 1000.000000
276.044160 8.000000
276.075040 237.000000
276.108460 6.000000
277.070280 12.000000
277.081910 20.000000
293.081360 28.000000
294.081820 6.000000
295.082730 6.000000
295.098080 29.000000
305.073030 15.000000
305.089390 20.000000
306.086120 5.000000
323.086360 20.000000
323.099150 16.000000
323.112210 12.000000
336.123570 18.000000
336.136720 6.000000
354.133580 8.000000

>ms2peaks
55.020140 5.000000
77.036980 8.000000
79.056290 15.000000
103.050130 6.000000
103.057280 12.000000
115.052280 6.000000
118.065620 7.000000
130.067720 14.000000
131.050770 13.000000
135.046160 35.000000
145.053020 7.000000
159.044170 8.000000
163.038680 10.000000
163.055740 5.000000
165.072510 14.000000
176.060030 8.000000
177.070920 25.000000
178.067090 8.000000
178.079070 68.000000
179.085850 58.000000
180.088970 11.000000
188.060390 20.000000
188.067980 40.000000
188.081940 7.000000
189.070890 1000.000000
190.075700 253.000000
191.073060 11.000000
191.080600 21.000000
191.091290 24.000000
201.068790 13.000000
205.067090 32.000000
206.074860 6.000000
207.074600 8.000000
207.087390 12.000000
208.090410 10.000000
217.049190 13.000000
217.067050 184.000000
218.063200 15.000000
218.074950 32.000000
219.060700 6.000000
219.077930 25.000000
219.086900 9.000000
222.064320 7.000000
235.085780 11.000000
237.097080 8.000000
246.069700 46.000000
247.077770 110.000000
248.083830 14.000000
275.060090 6.000000
275.074680 34.000000
276.080200 9.000000

>ms2peaks
135.045000 53.000000
136.047240 9.000000
159.043690 11.000000
161.057860 8.000000
161.065340 6.000000
163.040270 27.000000
173.060500 15.000000
176.070310 7.000000
179.088040 11.000000
188.073850 34.000000
189.072360 127.000000
190.077640 14.000000
207.085210 17.000000
217.067260 112.000000
218.064830 13.000000
218.075060 10.000000
235.073900 18.000000
237.093260 26.000000
245.051790 7.000000
245.063480 10.000000
247.077150 273.000000
248.080540 51.000000
265.086850 24.000000
275.071530 524.000000
276.074040 131.000000
277.078860 24.000000
293.083620 15.000000
295.096100 41.000000
296.092830 5.000000
296.108280 5.000000
305.081120 146.000000
306.089510 26.000000
307.100490 8.000000
323.092290 166.000000
324.094760 45.000000
336.119170 20.000000
336.134310 8.000000
354.135100 1000.000000
354.189970 26.000000

>ms2peaks
275.073300 17.000000
305.082030 22.000000
306.086330 5.000000
323.091190 28.000000
324.094330 10.000000
354.133580 1000.000000
354.188170 29.000000

>ms2peaks
131.051620 6.000000
135.045210 101.000000
136.050660 6.000000
143.054310 11.000000
159.047450 12.000000
161.060200 35.000000
163.039690 81.000000
164.047990 6.000000
173.051280 5.000000
173.060070 13.000000
176.078870 7.000000
179.088440 13.000000
187.039540 9.000000
188.072600 46.000000
189.070920 58.000000
190.079540 15.000000
207.069180 5.000000
207.080220 20.000000
207.089570 8.000000
217.068850 111.000000
218.065160 15.000000
218.078280 14.000000
219.070540 5.000000
219.079800 10.000000
235.079590 38.000000
237.092380 55.000000
238.100940 9.000000
245.060680 26.000000
246.049850 6.000000
246.069430 15.000000
247.028590 7.000000
247.078430 527.000000
248.081630 104.000000
249.085720 7.000000
249.096120 8.000000
263.072050 11.000000
264.079350 5.000000
265.087370 57.000000
266.082760 8.000000
266.096830 14.000000
275.072720 1000.000000
276.075530 224.000000
277.072810 19.000000
277.085020 20.000000
278.058620 5.000000
293.072850 13.000000
293.087310 17.000000
295.091890 19.000000
295.107030 23.000000
296.101470 6.000000
305.076480 28.000000
305.094640 13.000000
306.083860 9.000000
323.084810 12.000000
323.101960 20.000000
336.112060 9.000000
336.124690 16.000000
337.131260 5.000000

>ms2peaks
77.037110 7.000000
79.052280 6.000000
103.054780 16.000000
105.030330 7.000000
115.057930 8.000000
118.064990 10.000000
131.048450 27.000000
135.043840 34.000000
159.044040 7.000000
160.078220 10.000000
161.055280 9.000000
163.035000 16.000000
163.045430 10.000000
163.054230 14.000000
165.068160 14.000000
166.075590 8.000000
176.064880 7.000000
177.060000 6.000000
177.071410 20.000000
178.070370 28.000000
178.077880 71.000000
179.086720 69.000000
180.089200 10.000000
188.067470 55.000000
189.070020 1000.000000
190.074130 234.000000
191.074340 11.000000
191.084180 32.000000
191.093630 15.000000
192.085680 11.000000
201.072340 14.000000
205.070890 21.000000
207.081410 20.000000
207.092770 8.000000
217.065320 181.000000
218.071430 74.000000
219.062330 8.000000
219.073850 6.000000
219.086820 12.000000
221.054310 8.000000
222.070370 9.000000
235.072430 11.000000
237.087940 14.000000
245.054640 7.000000
246.048100 8.000000
246.068310 38.000000
246.082500 6.000000
247.071140 65.000000
247.083590 63.000000
248.068450 20.000000
275.070920 23.000000
276.080720 8.000000

>ms2peaks
135.036540 10.000000
135.044540 47.000000
136.051270 6.000000
159.045170 11.000000
161.058910 7.000000
163.025890 6.000000
163.036510 16.000000
163.045070 17.000000
173.062230 9.000000
176.069400 6.000000
188.070800 14.000000
189.071400 113.000000
190.078160 18.000000
191.082120 8.000000
205.070880 6.000000
207.085590 8.000000
217.065400 92.000000
218.068980 12.000000
219.083210 9.000000
235.068120 7.000000
235.082950 14.000000
236.083390 6.000000
237.098270 12.000000
245.052120 8.000000
245.064880 12.000000
247.077040 255.000000
248.078050 35.000000
248.088680 17.000000
249.080000 6.000000
249.092130 7.000000
265.092010 23.000000
266.075680 6.000000
275.020200 5.000000
275.045010 6.000000
275.070980 522.000000
276.076570 102.000000
277.081210 20.000000
293.084140 14.000000
295.097320 40.000000
296.092620 5.000000
296.104430 6.000000
305.081180 126.000000
306.087590 30.000000
323.093780 148.000000
324.089780 15.000000
324.100680 25.000000
336.125310 28.000000
354.089510 9.000000
354.134740 1000.000000
354.188540 28.000000

>ms2peaks
275.071660 17.000000
305.082550 29.000000
306.082670 7.000000
323.093290 33.000000
354.134220 1000.000000
354.187930 28.000000

>ms2peaks
131.050890 6.000000
135.045090 81.000000
136.046920 12.000000
143.050230 8.000000
149.063580 11.000000
159.044630 17.000000
161.061130 32.000000
163.039470 82.000000
164.046590 7.000000
173.061710 14.000000
176.071870 23.000000
179.086640 8.000000
187.042800 5.000000
188.072750 50.000000
189.071950 83.000000
190.073760 11.000000
191.087400 5.000000
207.083660 15.000000
217.065380 104.000000
218.072040 23.000000
219.086060 8.000000
235.075200 42.000000
236.085540 7.000000
237.090740 50.000000
245.061780 46.000000
246.069780 7.000000
247.022480 6.000000
247.041430 5.000000
247.076900 560.000000
248.080660 127.000000
249.090700 10.000000
263.074160 18.000000
265.087650 70.000000
266.091000 10.000000
275.018310 5.000000
275.071470 1000.000000
275.119170 7.000000
276.075160 235.000000
277.065890 8.000000
277.083650 25.000000
279.073180 5.000000
293.078220 16.000000
293.090970 9.000000
294.086210 7.000000
295.096340 41.000000
305.074460 18.000000
305.086700 22.000000
307.093380 7.000000
323.088130 17.000000
323.098270 15.000000
324.096980 5.000000
336.118130 14.000000
336.131990 5.000000

>ms2peaks
79.054570 10.000000
103.055330 22.000000
115.055820 7.000000
118.068130 7.000000
130.063110 6.000000
131.053880 6.000000
135.043560 36.000000
149.063740 6.000000
160.077330 6.000000
163.041090 39.000000
163.054520 6.000000
176.063630 12.000000
177.068480 14.000000
178.076860 82.000000
179.073870 12.000000
179.085100 57.000000
186.059020 6.000000
187.058810 8.000000
188.057530 14.000000
188.066280 31.000000
188.079700 10.000000
189.070340 1000.000000
190.074980 226.000000
191.067760 7.000000
191.083150 38.000000
191.091450 12.000000
192.101470 6.000000
201.069920 14.000000
205.066090 23.000000
206.070470 9.000000
207.079130 32.000000
217.065430 173.000000
218.069290 59.000000
219.073210 7.000000
219.081680 15.000000
222.059770 7.000000
222.072940 13.000000
235.078630 14.000000
237.086200 6.000000
245.060000 9.000000
246.060240 11.000000
246.068680 25.000000
247.076770 115.000000
248.078540 15.000000
275.055540 6.000000
275.070770 29.000000
275.080230 12.000000
276.081020 7.000000

>ms2peaks
135.045780 61.000000
136.047780 7.000000
161.060500 19.000000
163.035290 14.000000
163.042890 22.000000
173.062880 9.000000
176.073030 6.000000
177.075590 6.000000
178.079350 6.000000
179.082500 8.000000
188.067830 8.000000
188.075940 15.000000
189.072270 127.000000
190.069530 14.000000
190.079530 7.000000
191.082060 11.000000
205.063370 6.000000
207.078840 14.000000
217.065230 93.000000
218.065460 9.000000
218.075070 5.000000
219.077380 5.000000
235.073850 17.000000
235.081450 6.000000
237.092010 27.000000
245.060940 11.000000
247.075900 239.000000
248.079970 48.000000
249.087450 6.000000
265.087680 27.000000
266.087520 5.000000
275.070890 563.000000
276.052370 6.000000
276.073970 118.000000
277.077580 11.000000
277.087740 10.000000
293.089260 9.000000
295.097140 37.000000
296.097660 8.000000
305.081390 136.000000
306.084720 28.000000
307.086790 9.000000
323.092100 159.000000
324.095950 32.000000
325.102390 8.000000
336.115390 20.000000
336.133240 10.000000
354.133090 1000.000000
354.186250 21.000000

>ms2peaks
275.070470 18.000000
305.082890 25.000000
306.089510 5.000000
323.091190 29.000000
324.095150 8.000000
336.121370 7.000000
354.134160 1000.000000
354.188600 29.000000

>ms2peaks
131.051710 9.000000
135.043400 96.000000
136.048190 8.000000
143.052980 8.000000
149.064010 6.000000
159.044160 10.000000
161.060560 33.000000
162.060240 5.000000
163.039930 81.000000
164.039980 6.000000
173.062180 18.000000
176.069060 13.000000
176.077450 7.000000
179.088500 8.000000
188.069200 42.000000
188.076580 14.000000
189.070940 78.000000
190.074770 21.000000
191.080690 7.000000
207.076640 7.000000
207.083650 18.000000
217.065900 127.000000
218.072240 18.000000
219.082440 6.000000
235.075470 29.000000
235.086870 6.000000
236.081990 5.000000
237.091870 40.000000
245.061420 30.000000
246.060650 10.000000
247.036380 5.000000
247.076140 547.000000
248.078800 107.000000
249.074680 6.000000
249.085590 20.000000
263.075290 11.000000
265.086120 52.000000
266.097290 15.000000
275.070590 1000.000000
276.074580 229.000000
277.075160 31.000000
278.088410 6.000000
293.083070 29.000000
295.095860 37.000000
296.096010 7.000000
305.079900 39.000000
306.075290 6.000000
323.092500 38.000000
324.092590 8.000000
336.122830 14.000000

>ms2peaks
77.038800 6.000000
79.055740 8.000000
103.055590 17.000000
115.057850 11.000000
117.059970 5.000000
118.066540 12.000000
131.050050 13.000000
132.080250 6.000000
135.046080 37.000000
159.041990 6.000000
159.048680 9.000000
160.078050 11.000000
163.035840 9.000000
163.048950 18.000000
176.066800 15.000000
177.069170 24.000000
178.078080 70.000000
179.086300 74.000000
180.089920 12.000000
188.067170 43.000000
189.043240 14.000000
189.070270 1000.000000
189.104340 5.000000
190.074660 192.000000
191.075380 25.000000
191.086810 29.000000
201.072970 12.000000
205.067540 32.000000
206.067120 8.000000
206.074370 5.000000
207.081570 35.000000
209.068950 5.000000
217.064970 155.000000
218.070650 58.000000
219.076520 30.000000
222.068450 6.000000
223.076110 6.000000
235.076770 17.000000
236.075790 5.000000
237.090380 14.000000
246.068970 53.000000
247.074950 117.000000
248.069340 7.000000
248.083020 9.000000
263.067200 6.000000
275.070190 42.000000
276.075100 6.000000
276.088130 5.000000

>ms2peaks
79.058440 19.000000
87.673910 20.000000
118.066410 20.000000
131.049190 57.000000
132.048840 25.000000
133.028440 21.000000
135.030230 43.000000
135.041610 405.000000
135.047350 249.000000
136.037380 20.000000
136.045170 83.000000
139.165570 18.000000
143.036540 25.000000
143.046250 140.000000
144.054170 17.000000
146.058360 75.000000
147.039150 22.000000
147.060390 18.000000
147.076050 17.000000
148.046830 24.000000
148.055390 19.000000
149.020540 20.000000
149.053040 24.000000
151.038220 57.000000
151.048070 17.000000
151.906220 23.000000
159.044480 153.000000
160.076510 37.000000
161.059540 392.000000
163.018360 27.000000
163.027710 93.000000
163.039630 593.000000
164.038890 44.000000
165.517720 20.000000
166.084170 18.000000
172.051510 21.000000
173.057710 117.000000
173.067600 65.000000
174.062640 25.000000
174.070540 23.000000
175.039000 18.000000
175.062620 26.000000
176.064440 40.000000
176.073620 125.000000
176.128200 17.000000
177.548930 20.000000
178.072540 21.000000
178.082210 105.000000
179.082060 60.000000
179.092860 44.000000
180.081360 45.000000
180.090680 28.000000
187.031810 39.000000
188.039310 44.000000
188.070420 249.000000
189.049800 19.000000
189.069640 1814.000000
190.075420 289.000000
191.076540 38.000000
191.082870 69.000000
191.096330 54.000000
192.052470 17.000000
196.656750 35.000000
198.366760 25.000000
198.641660 18.000000
200.048480 17.000000
201.056900 19.000000
202.632460 20.000000
202.946700 18.000000
204.507060 17.000000
204.940050 20.000000
205.064560 83.000000
205.075090 72.000000
206.068210 54.000000
206.987290 17.000000
207.078700 335.000000
207.096220 35.000000
207.936280 28.000000
208.080730 38.000000
208.636350 17.000000
209.067020 18.000000
210.694320 20.000000
211.769210 24.000000
216.999970 19.000000
217.036040 20.000000
217.063600 1055.000000
217.897520 25.000000
218.070040 304.000000
218.080060 68.000000
218.298970 18.000000
219.075070 168.000000
219.088870 61.000000
220.700300 49.000000
221.088360 24.000000
222.076840 47.000000
226.596390 31.000000
228.737690 33.000000
230.061800 19.000000
233.054170 20.000000
234.045390 20.000000
235.073120 241.000000
235.085820 53.000000
236.075330 40.000000
236.093110 42.000000
237.090620 214.000000
238.068920 18.000000
238.080860 30.000000
238.103330 104.000000
240.085020 25.000000
240.100880 21.000000
244.093460 17.000000
244.659710 21.000000
244.834610 34.000000
245.035220 18.000000
245.047300 17.000000
245.067550 107.000000
246.056230 79.000000
246.068570 28.000000
247.024370 17.000000
247.048100 34.000000
247.075740 4234.000000
247.442490 23.000000
247.757190 18.000000
247.797610 18.000000
248.038960 39.000000
248.048920 18.000000
248.079180 1019.000000
248.096760 84.000000
248.148070 17.000000
248.215640 17.000000
248.288970 33.000000
249.067490 19.000000
249.081510 130.000000
250.069410 20.000000
251.067140 24.000000
251.080030 19.000000
255.342420 27.000000
257.501890 17.000000
258.348720 18.000000
263.038240 33.000000
263.056340 51.000000
263.067630 102.000000
265.067380 75.000000
265.079620 113.000000
265.093290 151.000000
265.149410 17.000000
265.502500 20.000000
266.087340 76.000000
266.104950 36.000000
267.066620 29.000000
270.627990 20.000000
273.492190 24.000000
274.306340 38.000000
275.041110 26.000000
275.071230 8948.000000
275.123020 18.000000
275.578950 42.000000
275.993500 17.000000
276.076750 2070.000000
276.282140 25.000000
277.065490 69.000000
277.080140 376.000000
277.132230 35.000000
277.968780 23.000000
278.058200 54.000000
278.115230 19.000000
278.941990 17.000000
279.068390 19.000000
279.086060 31.000000
279.113010 33.000000
280.079860 31.000000
281.070680 21.000000
286.026760 25.000000
288.073580 20.000000
292.079560 17.000000
293.063320 38.000000
293.080810 275.000000
294.077700 20.000000
294.086940 17.000000
295.066530 25.000000
295.097900 287.000000
296.098630 240.000000
296.597530 20.000000
297.091250 39.000000
297.267970 21.000000
297.733730 17.000000
297.980770 19.000000
302.871460 20.000000
303.066650 50.000000
305.080960 2118.000000
306.040310 32.000000
306.081940 391.000000
306.093440 79.000000
306.224490 43.000000
306.296330 17.000000
306.563260 24.000000
307.067320 25.000000
307.095580 110.000000
307.109920 63.000000
307.127660 22.000000
307.809230 38.000000
308.081420 40.000000
308.097960 60.000000
308.124600 18.000000
319.064730 19.000000
321.078120 30.000000
323.055820 121.000000
323.091920 2789.000000
324.096560 477.000000
324.126830 24.000000
325.118440 36.000000
325.696990 31.000000
326.106450 17.000000
333.161040 21.000000
335.121580 28.000000
336.068570 21.000000
336.110810 240.000000
336.125060 482.000000
337.126740 69.000000
338.136960 21.000000
345.303500 21.000000
352.113740 18.000000
352.131590 34.000000
353.115390 28.000000
353.129520 39.000000
353.796720 22.000000
354.067140 18.000000
354.086060 98.000000
354.133700 13845.000000
354.184360 300.000000
354.220120 17.000000

>ms2peaks
79.053260 40.000000
93.077420 33.000000
103.058750 17.000000
115.052470 20.000000
115.059120 19.000000
116.059670 24.000000
118.062330 20.000000
118.072360 45.000000
119.061800 17.000000
123.044130 17.000000
131.051940 25.000000
131.079570 22.000000
134.031100 19.000000
134.992080 19.000000
135.022890 19.000000
135.045000 1206.000000
135.060710 50.000000
136.047240 202.000000
137.046300 39.000000
143.046950 22.000000
143.053300 47.000000
143.061360 33.000000
144.057130 19.000000
146.062440 74.000000
147.044200 52.000000
149.021120 18.000000
149.028670 57.000000
149.038530 17.000000
149.057340 96.000000
149.841110 20.000000
151.005460 31.000000
151.025990 21.000000
151.584140 27.000000
153.058820 18.000000
158.069150 28.000000
159.043690 260.000000
159.050890 65.000000
159.987240 18.000000
160.048020 77.000000
161.057860 181.000000
161.065340 134.000000
162.066670 50.000000
162.486890 18.000000
163.027080 69.000000
163.040270 619.000000
164.042950 85.000000
164.493760 29.000000
165.070570 26.000000
165.409840 21.000000
168.058350 25.000000
169.072270 22.000000
172.051910 27.000000
173.043330 26.000000
173.060500 350.000000
173.364350 40.000000
174.045870 18.000000
174.059860 25.000000
175.038640 35.000000
175.069430 52.000000
175.075590 22.000000
175.264720 28.000000
176.050080 20.000000
176.070310 159.000000
176.082580 34.000000
177.258970 29.000000
178.081970 75.000000
179.069180 20.000000
179.088040 247.000000
180.064650 25.000000
180.088090 80.000000
181.097560 21.000000
182.436920 52.000000
184.387830 20.000000
186.994230 18.000000
187.027010 22.000000
187.038220 19.000000
187.047670 44.000000
188.045730 20.000000
188.056780 61.000000
188.073850 770.000000
189.043550 43.000000
189.072360 2905.000000
189.094790 31.000000
190.044370 20.000000
190.053180 27.000000
190.077640 329.000000
190.471620 27.000000
190.591230 25.000000
191.070070 25.000000
191.082120 98.000000
191.092610 48.000000
192.091690 21.000000
193.063480 17.000000
197.933000 17.000000
200.125400 20.000000
201.051280 34.000000
201.072480 21.000000
201.089220 17.000000
202.078770 20.000000
202.097260 21.000000
203.992340 25.000000
205.061950 31.000000
205.068920 101.000000
205.685180 20.000000
206.043400 17.000000
207.061080 17.000000
207.085210 398.000000
208.084120 77.000000
209.053440 23.000000
209.064030 61.000000
209.094770 20.000000
209.130460 20.000000
210.060390 19.000000
211.654370 20.000000
211.920140 27.000000
216.897660 30.000000
217.014420 18.000000
217.027920 97.000000
217.067260 2563.000000
217.479660 21.000000
217.983120 27.000000
218.013950 20.000000
218.064830 288.000000
218.075060 222.000000
218.282940 21.000000
218.445590 21.000000
218.638810 25.000000
219.067780 96.000000
219.080250 91.000000
220.037020 24.000000
220.088360 57.000000
220.099720 34.000000
221.665340 20.000000
222.023700 17.000000
222.060060 24.000000
222.081390 24.000000
223.064330 17.000000
223.078450 41.000000
224.506210 37.000000
228.039870 19.000000
232.977020 21.000000
233.066280 41.000000
235.056960 18.000000
235.073900 408.000000
235.096650 32.000000
235.608780 35.000000
235.792620 23.000000
236.065870 26.000000
236.082460 60.000000
237.053010 20.000000
237.069610 74.000000
237.093260 600.000000
237.129750 17.000000
238.077800 39.000000
238.085570 45.000000
238.109270 20.000000
244.736770 20.000000
244.982970 23.000000
245.051790 156.000000
245.063480 222.000000
245.079210 56.000000
245.513380 20.000000
245.835750 28.000000
246.057130 39.000000
246.076460 106.000000
246.391010 17.000000
246.988530 20.000000
247.032650 43.000000
247.077150 6243.000000
247.122390 47.000000
247.187070 25.000000
247.347290 25.000000
247.919070 18.000000
248.035020 29.000000
248.080540 1172.000000
248.164140 17.000000
248.264720 18.000000
249.035220 35.000000
249.075940 88.000000
249.089890 62.000000
249.097430 70.000000
249.109210 47.000000
249.186830 17.000000
250.053330 22.000000
250.078960 19.000000
250.731610 24.000000
252.055770 25.000000
254.804340 25.000000
256.071840 17.000000
256.405790 24.000000
260.747770 24.000000
261.623170 21.000000
262.056000 17.000000
263.061130 36.000000
263.076870 64.000000
263.362180 23.000000
264.073910 19.000000
264.082520 56.000000
265.047850 20.000000
265.086850 551.000000
266.085170 92.000000
266.099300 79.000000
267.063420 28.000000
267.092590 37.000000
267.885830 18.000000
269.811950 32.000000
270.450010 20.000000
270.736820 26.000000
270.763400 23.000000
272.095610 25.000000
273.267850 21.000000
273.553590 18.000000
273.672760 24.000000
273.831210 18.000000
274.069120 22.000000
274.250400 20.000000
274.974300 23.000000
274.984160 19.000000
275.014310 28.000000
275.027340 97.000000
275.040800 64.000000
275.071530 11974.000000
275.120420 42.000000
275.548190 17.000000
275.754940 37.000000
276.039830 46.000000
276.074040 3004.000000
276.112640 42.000000
276.316190 20.000000
276.346980 23.000000
276.414790 20.000000
277.030180 18.000000
277.053990 35.000000
277.078860 559.000000
278.054530 18.000000
278.069950 88.000000
278.088650 18.000000
278.224400 17.000000
279.052490 30.000000
279.067780 38.000000
279.810090 17.000000
282.134770 18.000000
286.652470 37.000000
287.359890 33.000000
288.196440 17.000000
292.079160 20.000000
293.066310 69.000000
293.083620 340.000000
293.451840 28.000000
294.081510 66.000000
294.104400 20.000000
295.096100 942.000000
295.294950 18.000000
296.041320 22.000000
296.077670 67.000000
296.092830 120.000000
296.108280 115.000000
297.104980 20.000000
300.411040 18.000000
303.067780 97.000000
303.203700 29.000000
304.017940 18.000000
304.067960 18.000000
304.611600 29.000000
305.053190 55.000000
305.081120 3341.000000
306.041140 20.000000
306.089510 588.000000
306.241150 18.000000
307.079410 40.000000
307.100490 173.000000
308.094420 46.000000
309.095370 50.000000
312.917820 18.000000
317.704710 18.000000
319.104160 26.000000
320.066470 23.000000
320.097440 20.000000
321.055420 17.000000
323.050420 72.000000
323.092290 3787.000000
323.128970 20.000000
323.261080 24.000000
324.043030 26.000000
324.055150 41.000000
324.094760 1027.000000
324.124450 25.000000
324.321290 24.000000
325.088500 45.000000
325.101010 110.000000
329.379240 18.000000
333.223940 17.000000
334.106020 28.000000
334.128140 53.000000
336.080170 33.000000
336.098540 38.000000
336.119170 449.000000
336.134310 183.000000
336.158170 20.000000
337.123440 109.000000
337.143310 54.000000
338.114870 40.000000
340.596410 27.000000
341.430420 18.000000
346.331120 21.000000
352.055240 18.000000
352.123570 22.000000
352.248230 20.000000
353.075990 17.000000
353.114590 45.000000
354.046080 21.000000
354.076930 42.000000
354.092440 100.000000
354.135100 22853.000000
354.189970 596.000000
354.250150 58.000000

