>compound PR24067643
>parentmass 393.09687935384625
>ionization [M+H]+
>formula C22H16O7
>rt 529.329212
>profile qtof
#smiles_iso CCOC1C2=C(C=C3C=CC4=C(C3=C2C5=CC6=C(C=C5)OCO6)OCO4)C(=O)O1
#smiles_can CCOC1C2=C(C=C3C=CC4=C(C3=C2C5=CC6=C(C=C5)OCO6)OCO4)C(=O)O1
#inchikey JJXCEOLNFSCNNE-UHFFFAOYSA-N
#pubchem_id 398934
#mb_accession PR303946,PR303947,PR303948,PR303949,PR303950,PR303951,PR303952,PR303953,PR303954,PR303955,PR303956,PR303957,PR310444

>ms2peaks
177.061750 6.000000
177.079270 5.000000
189.077190 6.000000
205.066100 167.000000
205.080630 5.000000
206.068220 36.000000
233.060240 127.000000
234.053220 10.000000
234.064990 21.000000
235.063140 8.000000
246.064940 8.000000
261.029270 6.000000
261.055360 277.000000
262.058530 63.000000
263.065700 9.000000
289.051540 115.000000
290.054570 33.000000
290.067960 8.000000
291.055690 16.000000
291.069060 28.000000
304.077580 9.000000
317.044130 301.000000
318.049650 74.000000
319.055330 6.000000
319.066310 7.000000
320.079470 9.000000
347.055080 1000.000000
348.057770 282.000000
349.043460 12.000000
349.059880 31.000000
363.057830 6.000000
392.090820 91.000000
393.093780 144.000000

>ms2peaks
347.054930 1000.000000
348.058690 228.000000
349.060880 23.000000
392.088960 154.000000
393.057370 6.000000
393.097170 393.000000

>ms2peaks
177.073010 7.000000
205.062840 117.000000
205.072630 40.000000
206.068920 22.000000
207.074260 13.000000
217.057630 17.000000
218.070720 7.000000
233.058840 288.000000
234.063050 55.000000
234.070820 19.000000
235.068180 9.000000
245.063610 7.000000
246.063060 12.000000
246.074910 11.000000
247.062820 7.000000
247.081770 16.000000
260.050510 18.000000
260.993130 6.000000
261.005950 8.000000
261.019620 12.000000
261.054720 782.000000
262.060030 201.000000
262.466160 7.000000
263.043950 8.000000
263.066740 37.000000
264.054990 6.000000
274.052920 17.000000
274.066680 7.000000
289.016110 10.000000
289.050810 520.000000
290.054990 155.000000
291.065190 121.000000
292.073760 23.000000
303.052060 6.000000
303.067570 13.000000
304.071620 14.000000
305.048490 13.000000
317.006410 15.000000
317.045070 1000.000000
317.990110 7.000000
318.048400 215.000000
319.049930 32.000000
319.062260 41.000000
320.058350 16.000000
333.039610 9.000000
345.048030 8.000000
347.022770 5.000000
347.054320 219.000000
348.031490 5.000000
348.057560 30.000000
349.068820 8.000000

>ms2peaks
151.052750 58.000000
152.054260 15.000000
175.054960 69.000000
176.063130 465.000000
176.116270 5.000000
176.126570 8.000000
177.042620 8.000000
177.070040 387.000000
178.068020 22.000000
178.076770 27.000000
179.084640 9.000000
187.042510 5.000000
187.055210 13.000000
187.063060 14.000000
187.968200 5.000000
188.056690 23.000000
189.067000 53.000000
189.080510 15.000000
189.087780 6.000000
190.067230 12.000000
190.080140 16.000000
191.041530 13.000000
191.060210 7.000000
203.043720 34.000000
203.054870 24.000000
204.058380 25.000000
205.036070 19.000000
205.064760 1000.000000
205.099290 5.000000
206.067430 93.000000
206.077700 47.000000
206.539610 6.000000
207.063710 14.000000
215.054200 7.000000
217.071120 14.000000
220.038160 5.000000
220.045140 10.000000
232.038240 9.000000
232.058180 9.000000
232.070790 5.000000
233.033170 12.000000
233.054700 221.000000
233.065410 188.000000
234.064010 45.000000
235.079350 7.000000
243.054240 9.000000
245.067660 8.000000
246.064770 15.000000
249.060520 8.000000
261.055480 131.000000
262.058110 39.000000
262.077150 13.000000
262.094670 6.000000
275.023190 5.000000
276.039670 12.000000
288.046810 5.000000
289.048680 8.000000

>ms2peaks
176.065980 9.000000
177.072910 8.000000
177.079540 6.000000
204.058270 6.000000
205.065260 121.000000
206.072920 34.000000
232.054810 8.000000
233.060750 140.000000
234.065510 23.000000
246.064770 7.000000
247.070190 5.000000
248.081270 6.000000
261.055360 265.000000
262.057800 47.000000
262.072110 12.000000
263.075870 11.000000
289.049100 134.000000
290.043580 15.000000
290.056000 32.000000
291.060000 19.000000
303.062930 5.000000
317.045720 307.000000
318.034970 18.000000
318.047300 46.000000
319.061160 12.000000
320.066130 7.000000
333.041350 5.000000
347.013210 7.000000
347.055240 1000.000000
348.058530 246.000000
349.053740 34.000000
349.081540 5.000000
363.044650 7.000000
364.090730 6.000000
392.088900 79.000000
393.097230 150.000000

>ms2peaks
347.056000 1000.000000
347.106320 7.000000
348.059660 226.000000
349.062710 27.000000
375.080720 7.000000
392.090360 125.000000
393.098050 383.000000

>ms2peaks
205.047840 10.000000
205.065230 119.000000
205.082410 5.000000
206.059310 9.000000
206.073790 29.000000
215.056580 8.000000
232.046220 9.000000
233.061360 285.000000
233.084200 8.000000
234.065090 47.000000
235.066300 7.000000
235.086460 8.000000
246.061370 18.000000
246.070430 14.000000
261.016390 11.000000
261.053710 859.000000
262.055390 100.000000
262.066440 62.000000
263.057160 15.000000
263.068420 14.000000
274.060210 7.000000
275.060120 20.000000
288.036220 9.000000
289.047910 485.000000
290.046630 46.000000
290.059510 109.000000
291.055880 34.000000
291.066470 70.000000
291.081020 17.000000
292.056760 8.000000
292.064760 18.000000
293.071720 5.000000
303.067380 10.000000
304.067540 14.000000
304.086330 6.000000
305.042790 14.000000
317.004550 6.000000
317.044100 1000.000000
318.038940 74.000000
318.050260 208.000000
319.055690 45.000000
320.053040 12.000000
333.035280 8.000000
333.052920 6.000000
347.049350 101.000000
347.062560 131.000000
348.058870 43.000000
349.057590 11.000000

>ms2peaks
151.032490 5.000000
151.052640 85.000000
163.044070 7.000000
163.052030 6.000000
168.176500 5.000000
175.055010 53.000000
176.060960 378.000000
177.043880 7.000000
177.068860 426.000000
178.024320 11.000000
178.069760 25.000000
178.078960 32.000000
187.054030 14.000000
188.060390 16.000000
189.061890 23.000000
189.070910 27.000000
190.079790 19.000000
191.046910 8.000000
195.391750 5.000000
203.042940 39.000000
203.051760 21.000000
204.045640 14.000000
204.056870 34.000000
204.070970 7.000000
205.030930 7.000000
205.064450 1000.000000
205.873950 6.000000
206.052780 14.000000
206.069340 125.000000
206.077450 56.000000
207.067090 11.000000
215.046520 20.000000
216.051420 18.000000
219.050200 7.000000
232.046660 33.000000
233.031940 7.000000
233.061220 338.000000
234.067290 83.000000
235.070110 5.000000
245.059020 9.000000
247.041820 10.000000
247.073180 7.000000
248.045290 6.000000
260.051700 16.000000
261.054900 128.000000
262.056610 14.000000
262.064970 10.000000
275.033780 13.000000
276.028660 7.000000
276.043270 19.000000
289.041230 17.000000

>ms2peaks
177.069750 29.000000
189.070590 8.000000
204.053340 6.000000
205.062820 140.000000
206.067600 27.000000
233.059310 118.000000
233.616670 5.000000
234.056780 9.000000
234.068010 22.000000
246.072860 5.000000
261.031130 6.000000
261.053860 229.000000
262.047610 29.000000
262.059110 42.000000
263.062770 11.000000
289.048680 124.000000
290.045590 12.000000
290.057160 30.000000
291.063320 22.000000
292.076840 7.000000
304.062620 5.000000
304.079410 9.000000
317.010710 5.000000
317.045290 302.000000
318.045750 68.000000
318.061340 19.000000
319.051360 13.000000
319.067660 11.000000
320.068360 10.000000
347.013000 6.000000
347.055360 1000.000000
347.103360 7.000000
348.058410 267.000000
349.042210 10.000000
349.070500 30.000000
392.080470 23.000000
392.094820 85.000000
393.088620 68.000000
393.107090 65.000000

>ms2peaks
347.054110 1000.000000
348.056850 244.000000
349.061710 39.000000
350.063840 7.000000
392.087280 165.000000
393.095280 443.000000

>ms2peaks
177.067580 9.000000
190.068890 7.000000
205.034970 5.000000
205.057220 51.000000
205.065920 108.000000
206.076320 8.000000
207.070540 7.000000
216.055830 6.000000
216.821270 5.000000
218.072940 9.000000
232.058240 10.000000
233.059740 300.000000
234.053540 18.000000
234.065280 49.000000
234.266330 5.000000
245.060230 13.000000
246.053390 5.000000
246.066960 31.000000
247.034770 6.000000
250.006910 5.000000
250.853820 6.000000
261.026790 14.000000
261.055360 880.000000
261.086400 5.000000
262.016690 5.000000
262.058140 135.000000
262.072050 34.000000
263.064760 30.000000
263.080780 7.000000
264.069090 6.000000
273.057830 14.000000
274.049190 6.000000
275.067470 8.000000
276.041080 8.000000
276.983730 5.000000
288.046050 5.000000
289.014370 5.000000
289.050840 577.000000
290.050840 115.000000
290.065280 52.000000
291.045440 13.000000
291.065830 117.000000
291.097110 7.000000
292.054020 5.000000
292.070830 17.000000
293.039430 5.000000
303.059810 10.000000
303.074890 5.000000
304.061610 7.000000
304.083440 5.000000
307.063690 5.000000
317.010280 12.000000
317.045140 1000.000000
318.040370 67.000000
318.056980 138.000000
319.044370 25.000000
319.056790 23.000000
319.069210 27.000000
320.061980 12.000000
333.030330 8.000000
336.069460 13.000000
345.030700 7.000000
347.052800 157.000000
347.063810 92.000000
347.085510 6.000000
348.058140 16.000000
349.068120 10.000000
364.075900 9.000000
364.092860 15.000000

>ms2peaks
151.050610 42.000000
151.058030 45.000000
152.056060 7.000000
168.176180 6.000000
169.020100 5.000000
175.054500 46.000000
176.037060 13.000000
176.062390 470.000000
176.106670 7.000000
176.261430 6.000000
177.049940 11.000000
177.068440 351.000000
178.063000 9.000000
178.075090 64.000000
179.079380 7.000000
187.053410 15.000000
187.060700 7.000000
188.061490 7.000000
189.071060 53.000000
190.072420 20.000000
190.080980 13.000000
191.044300 6.000000
191.089510 5.000000
192.073030 5.000000
203.050060 45.000000
204.054030 74.000000
205.036440 6.000000
205.065290 1000.000000
205.745270 5.000000
206.037260 9.000000
206.069180 172.000000
207.074040 12.000000
216.062590 6.000000
217.060820 5.000000
218.069490 8.000000
223.574160 7.000000
231.040020 27.000000
232.055150 23.000000
233.030750 7.000000
233.059980 353.000000
234.065320 72.000000
235.058820 8.000000
235.069810 12.000000
243.980990 6.000000
245.068760 6.000000
246.079900 7.000000
249.058110 7.000000
259.029360 9.000000
260.055940 12.000000
261.048860 27.000000
261.060970 52.000000
262.056790 11.000000
262.067260 9.000000
275.032320 15.000000
289.047940 20.000000
290.032750 6.000000
290.057620 16.000000

>ms2peaks
111.460460 28.000000
112.934720 21.000000
140.843570 28.000000
145.757130 33.000000
151.061610 19.000000
155.788160 23.000000
164.957110 20.000000
165.743090 17.000000
176.063290 59.000000
177.061750 78.000000
177.079270 70.000000
178.072590 48.000000
178.257810 20.000000
183.393540 20.000000
184.649750 17.000000
188.431820 18.000000
189.067900 52.000000
189.077190 81.000000
189.088840 22.000000
189.950850 27.000000
190.035480 20.000000
190.075240 17.000000
192.051510 28.000000
197.873790 24.000000
199.710160 28.000000
204.690220 33.000000
205.045760 30.000000
205.066100 2326.000000
205.080630 71.000000
205.494430 17.000000
205.676090 24.000000
205.855500 19.000000
206.068220 498.000000
206.137570 20.000000
207.054370 18.000000
207.085540 51.000000
215.080870 18.000000
217.069850 67.000000
218.070270 53.000000
218.079280 39.000000
219.785600 31.000000
229.900210 26.000000
232.051940 69.000000
232.061480 32.000000
233.021350 20.000000
233.037400 61.000000
233.060240 1770.000000
234.053220 134.000000
234.064990 296.000000
235.063140 115.000000
235.077730 20.000000
235.087250 23.000000
236.073460 17.000000
236.888490 28.000000
238.797670 22.000000
241.423070 20.000000
243.040970 19.000000
244.050430 20.000000
245.051570 26.000000
246.064940 111.000000
246.080870 20.000000
247.049530 25.000000
248.033460 20.000000
249.065950 31.000000
251.159450 20.000000
257.053890 34.000000
260.031740 18.000000
260.043180 49.000000
260.053410 44.000000
260.677190 20.000000
261.005770 55.000000
261.029270 77.000000
261.055360 3862.000000
261.086300 21.000000
261.745420 32.000000
262.058530 879.000000
262.088470 27.000000
263.065700 124.000000
263.090640 45.000000
263.170500 25.000000
264.052640 20.000000
264.063900 21.000000
266.664490 25.000000
268.653530 26.000000
270.428010 18.000000
274.079440 22.000000
274.102630 17.000000
274.678770 21.000000
275.058620 25.000000
276.034790 35.000000
276.043820 21.000000
276.076170 30.000000
277.048370 28.000000
279.618070 25.000000
285.068210 25.000000
285.334960 29.000000
289.013310 17.000000
289.051540 1599.000000
290.054570 456.000000
290.067960 117.000000
290.349270 24.000000
291.034700 17.000000
291.055690 219.000000
291.069060 392.000000
291.911530 21.000000
292.054870 17.000000
292.066800 65.000000
293.066530 19.000000
297.639190 30.000000
299.918670 21.000000
303.065830 28.000000
303.084560 21.000000
303.313690 22.000000
304.061890 20.000000
304.077580 122.000000
305.043610 65.000000
305.079860 45.000000
305.230010 18.000000
306.042180 37.000000
308.686430 33.000000
309.074580 24.000000
316.780850 20.000000
316.990570 36.000000
317.001770 54.000000
317.044130 4198.000000
317.131160 17.000000
317.589420 18.000000
317.811950 27.000000
318.049650 1036.000000
318.465000 18.000000
318.629760 23.000000
319.055330 87.000000
319.066310 91.000000
320.023990 30.000000
320.050540 48.000000
320.079470 123.000000
321.043910 32.000000
321.073330 20.000000
322.056760 32.000000
325.600220 31.000000
329.458160 68.000000
330.147280 23.000000
331.046540 57.000000
332.057500 35.000000
332.930660 20.000000
333.035430 21.000000
335.058500 21.000000
339.086210 20.000000
345.024540 36.000000
346.001400 17.000000
346.443180 21.000000
346.555820 28.000000
346.885160 17.000000
346.938230 21.000000
346.967070 30.000000
347.011350 23.000000
347.055080 13946.000000
347.094450 19.000000
347.108670 57.000000
348.057770 3935.000000
348.212770 21.000000
349.043460 167.000000
349.059880 439.000000
350.048250 64.000000
353.168880 25.000000
353.279140 19.000000
354.976840 26.000000
355.710850 21.000000
363.042660 44.000000
363.057830 78.000000
364.087250 68.000000
364.104130 21.000000
376.088960 26.000000
376.101620 27.000000
392.090820 1270.000000
393.093780 2009.000000

