>compound PR24915966
>parentmass 565.1551820000001
>ionization [M+H]+
>formula C26H28O14
>rt 213.033000
>profile qtof
#smiles_iso C1=CC(=CC=C1C2=CC(=O)C3=C(C(=C(C(=C3O2)C4[C@@H]([C@H]([C@@H](O4)CO)O)O)O)C5[C@@H]([C@H]([C@@H]([C@H](O5)CO)O)O)O)O)O
#smiles_can C1=CC(=CC=C1C2=CC(=O)C3=C(C(=C(C(=C3O2)C4C(C(C(O4)CO)O)O)O)C5C(C(C(C(O5)CO)O)O)O)O)O
#inchikey TUIJPUWSXVFWSH-FBMRRHFKSA-N
#pubchem_id 131750832
#mb_accession PR303320,PR303322,PR303324,PR303326,PR303327,PR303329,PR303331,PR303333,PR303334,PR303336,PR303338,PR303340

>ms2peaks
103.040120 6.000000
121.028180 12.000000
192.062450 12.000000
203.031770 7.000000
214.789520 7.000000
223.187420 5.000000
227.030060 7.000000
234.610140 6.000000
237.037400 7.000000
255.024640 6.000000
268.082490 5.000000
283.061830 8.000000
286.579320 7.000000
294.049680 13.000000
295.061890 88.000000
296.060300 15.000000
301.078490 8.000000
307.031430 9.000000
307.053860 13.000000
307.074280 33.000000
308.068880 26.000000
308.081210 8.000000
309.066350 6.000000
309.084930 6.000000
314.059170 6.000000
321.072080 47.000000
322.084200 18.000000
324.083620 9.000000
325.058530 29.000000
325.068570 29.000000
325.080690 61.000000
326.084410 11.000000
329.072910 7.000000
333.062100 5.000000
333.086400 9.000000
334.082670 25.000000
335.082120 5.000000
336.081090 6.000000
337.059940 34.000000
337.074040 49.000000
337.090090 7.000000
338.065920 10.000000
338.078670 13.000000
338.090760 6.000000
339.058200 6.000000
339.078830 11.000000
340.085110 9.000000
345.074370 8.000000
345.098600 6.000000
345.691380 8.000000
347.107420 5.000000
349.069950 50.000000
349.084590 49.000000
350.069920 14.000000
351.086030 42.000000
354.065950 5.000000
354.311340 5.000000
355.070890 23.000000
355.870420 6.000000
356.030490 7.000000
356.086180 6.000000
359.090420 15.000000
361.071960 34.000000
361.105130 13.000000
362.082400 19.000000
363.073300 45.000000
363.087550 42.000000
364.088990 11.000000
365.086640 7.000000
367.071470 8.000000
367.088810 5.000000
367.195400 7.000000
368.086120 6.000000
373.049770 6.000000
373.070800 21.000000
373.088500 6.000000
373.110410 17.000000
375.071750 15.000000
376.082580 6.000000
377.056430 12.000000
377.072390 5.000000
377.109190 6.000000
379.044770 7.000000
379.072750 96.000000
379.092650 52.000000
380.041260 6.000000
380.078460 31.000000
380.093320 16.000000
381.081360 14.000000
382.516690 10.000000
385.076140 8.000000
387.084720 12.000000
387.107030 8.000000
391.071870 65.000000
391.086880 96.000000
392.080750 44.000000
393.099950 7.000000
394.094540 6.000000
397.086580 45.000000
398.100130 10.000000
399.074190 7.000000
399.089600 16.000000
401.121700 6.000000
402.096680 8.000000
403.059600 8.000000
403.085110 15.000000
404.092380 5.000000
405.063050 7.000000
405.536220 6.000000
407.070530 14.000000
407.109440 7.000000
409.059940 10.000000
409.089660 190.000000
409.102080 87.000000
410.087460 41.000000
411.094940 17.000000
411.497960 5.000000
415.080440 31.000000
415.112610 17.000000
416.072690 13.000000
417.035060 5.000000
421.074550 21.000000
421.107540 8.000000
427.095890 181.000000
427.115360 51.000000
427.173830 6.000000
428.082180 8.000000
428.106380 64.000000
428.129430 25.000000
429.102540 40.000000
433.091890 28.000000
434.104980 25.000000
439.100560 27.000000
445.070190 8.000000
445.101750 66.000000
446.499760 6.000000
447.135990 6.000000
451.110470 29.000000
451.127720 5.000000
452.102390 8.000000
457.102970 54.000000
457.117890 33.000000
458.086880 18.000000
458.130100 9.000000
459.097630 8.000000
463.078490 6.000000
463.101750 40.000000
463.125950 11.000000
464.089170 6.000000
464.116550 15.000000
465.063170 5.000000
469.108700 11.000000
470.141480 11.000000
475.103880 31.000000
475.122440 14.000000
476.117680 14.000000
476.149050 6.000000
481.086180 13.000000
481.115110 71.000000
482.069980 6.000000
482.108950 28.000000
482.139530 10.000000
483.119840 11.000000
484.125270 11.000000
493.015230 6.000000
493.099760 26.000000
493.114380 39.000000
495.107540 5.000000
499.108030 13.000000
499.124330 30.000000
499.139010 26.000000
500.089320 6.000000
500.114750 5.000000
500.135440 29.000000
510.985930 7.000000
511.063690 7.000000
511.124970 167.000000
512.127930 47.000000
529.134700 143.000000
529.159000 22.000000
530.114440 13.000000
530.139890 42.000000
531.144900 12.000000
547.146360 233.000000
548.071840 7.000000
548.141600 68.000000
549.148320 11.000000
549.244810 5.000000
565.104680 8.000000
565.155210 1000.000000

>ms2peaks
409.097930 9.000000
427.095890 17.000000
427.110780 8.000000
481.122710 5.000000
500.119960 7.000000
511.108760 8.000000
511.136720 14.000000
529.135860 37.000000
530.131530 9.000000
530.149410 7.000000
531.144960 6.000000
547.119260 18.000000
547.148620 58.000000
547.175600 7.000000
548.145810 16.000000
565.156620 1000.000000

>ms2peaks
103.241840 11.000000
121.030530 17.000000
129.803570 17.000000
184.426530 13.000000
217.908200 21.000000
218.869980 10.000000
245.012510 13.000000
245.047590 19.000000
253.991230 14.000000
255.034130 21.000000
273.058320 13.000000
274.358580 22.000000
277.661040 25.000000
291.302890 15.000000
294.060790 23.000000
295.056790 172.000000
295.068330 196.000000
295.545440 10.000000
296.035000 18.000000
296.061740 70.000000
301.077910 14.000000
301.641300 14.000000
307.032960 15.000000
307.048550 79.000000
307.064910 117.000000
308.059970 69.000000
309.043150 15.000000
309.081300 35.000000
317.071500 25.000000
319.056980 10.000000
320.067660 21.000000
321.070190 38.000000
321.082210 27.000000
321.622410 10.000000
322.049190 11.000000
322.067380 16.000000
322.555210 10.000000
323.046780 19.000000
323.068940 35.000000
324.068600 13.000000
325.048400 44.000000
325.072140 649.000000
326.064450 41.000000
326.077580 57.000000
326.092100 11.000000
326.479770 26.000000
327.075710 11.000000
329.087160 19.000000
331.028260 23.000000
331.073430 10.000000
332.062470 18.000000
333.083740 25.000000
333.957790 12.000000
334.050960 38.000000
335.078400 14.000000
335.098080 34.000000
336.110930 19.000000
337.067720 545.000000
337.992650 13.000000
338.065730 61.000000
338.081540 94.000000
339.076930 28.000000
340.925960 11.000000
342.092100 12.000000
343.276550 19.000000
345.070590 22.000000
345.090640 14.000000
347.095520 14.000000
347.109310 23.000000
349.033390 17.000000
349.056400 272.000000
349.074190 523.000000
349.973880 10.000000
350.062260 38.000000
350.078550 150.000000
351.089870 115.000000
351.115540 15.000000
352.049870 14.000000
352.077060 25.000000
352.101720 23.000000
353.061070 10.000000
353.073180 25.000000
353.100740 13.000000
354.086850 10.000000
355.061460 15.000000
355.085270 99.000000
356.074740 11.000000
357.082730 12.000000
358.063200 11.000000
360.012700 13.000000
361.072480 374.000000
362.054260 10.000000
362.073730 26.000000
363.044040 14.000000
363.071930 47.000000
363.088680 105.000000
364.075810 16.000000
364.089450 26.000000
364.444340 17.000000
365.062650 14.000000
365.090760 15.000000
365.102540 29.000000
366.083190 14.000000
367.067020 19.000000
367.086240 34.000000
368.067230 12.000000
373.072270 182.000000
373.103030 39.000000
373.271270 14.000000
374.056580 17.000000
374.070160 73.000000
374.086880 38.000000
374.284880 13.000000
375.064090 11.000000
375.079830 45.000000
375.672580 11.000000
376.083310 22.000000
378.985410 19.000000
379.012570 15.000000
379.028110 10.000000
379.048130 43.000000
379.080960 652.000000
380.066350 54.000000
380.090940 96.000000
381.091610 56.000000
383.113920 16.000000
384.258210 10.000000
385.088710 13.000000
385.104770 14.000000
387.077610 10.000000
389.061610 18.000000
390.055790 12.000000
390.077580 14.000000
390.099820 18.000000
391.028200 11.000000
391.045590 15.000000
391.082090 942.000000
391.204220 15.000000
391.265260 15.000000
391.942930 21.000000
392.010250 17.000000
392.074680 107.000000
392.091090 172.000000
393.096130 69.000000
393.216860 15.000000
393.575410 10.000000
395.791440 11.000000
397.086700 129.000000
397.111970 15.000000
400.066070 11.000000
401.110870 29.000000
401.231900 13.000000
402.113280 19.000000
402.509920 22.000000
403.061520 44.000000
403.079440 110.000000
403.102940 11.000000
404.083650 24.000000
405.094270 51.000000
407.362370 10.000000
409.089900 1000.000000
409.269320 12.000000
410.030550 16.000000
410.084660 162.000000
410.101750 86.000000
410.154450 10.000000
411.099030 54.000000
412.097290 17.000000
415.077270 121.000000
415.104460 11.000000
415.171750 25.000000
416.077120 11.000000
416.093810 39.000000
417.091160 15.000000
417.104980 21.000000
417.117070 21.000000
419.090550 10.000000
419.137940 14.000000
420.084380 13.000000
420.111660 34.000000
420.126800 16.000000
420.286290 10.000000
421.073550 45.000000
421.095030 102.000000
422.085360 19.000000
422.103940 41.000000
423.104710 10.000000
427.051610 19.000000
427.072570 29.000000
427.099150 456.000000
427.110840 186.000000
427.241880 12.000000
428.090730 134.000000
428.118500 43.000000
429.074130 14.000000
429.099550 100.000000
430.110020 12.000000
433.048770 11.000000
433.069730 76.000000
433.092770 76.000000
433.106080 89.000000
433.999240 10.000000
434.058620 21.000000
434.094850 92.000000
434.115360 22.000000
434.890350 17.000000
435.094420 39.000000
436.094970 17.000000
437.087980 14.000000
437.121830 17.000000
439.085080 34.000000
439.103580 66.000000
440.036560 14.000000
440.098540 20.000000
440.115450 24.000000
441.117370 16.000000
441.405640 12.000000
444.452910 19.000000
445.073150 103.000000
445.095090 66.000000
445.117100 87.000000
446.074460 16.000000
446.094600 15.000000
446.105160 27.000000
446.182950 11.000000
447.095460 23.000000
447.116880 23.000000
448.108400 14.000000
451.060730 14.000000
451.084900 14.000000
451.110720 47.000000
457.062650 10.000000
457.092250 143.000000
457.125820 11.000000
458.093140 37.000000
458.107790 30.000000
459.099240 15.000000
459.119200 16.000000
463.043910 20.000000
463.074010 30.000000
463.111180 126.000000
463.132970 19.000000
463.251650 11.000000
463.841580 11.000000
464.103270 22.000000
466.237340 14.000000
467.333890 15.000000
469.100920 26.000000
471.523740 13.000000
472.242160 20.000000
475.077120 9.000000
475.092800 41.000000
475.113280 81.000000
476.078060 14.000000
476.094670 10.000000
476.111880 17.000000
477.076170 11.000000
478.104770 10.000000
481.058410 31.000000
481.104220 174.000000
481.126740 113.000000
481.880800 33.000000
482.107330 27.000000
482.129790 30.000000
483.093440 11.000000
488.563780 10.000000
493.095520 16.000000
493.118990 115.000000
493.142850 19.000000
494.103820 26.000000
494.131440 14.000000
499.081330 10.000000
499.100490 40.000000
499.131200 27.000000
509.895600 10.000000
511.102140 21.000000
511.128690 182.000000
511.287320 11.000000
512.116700 16.000000
512.146420 12.000000
513.120540 26.000000
523.890750 11.000000
529.146060 34.000000
530.140200 11.000000
531.130980 11.000000
532.155580 18.000000
533.425110 10.000000

>ms2peaks
81.033100 31.000000
85.029770 39.000000
90.825110 34.000000
97.024620 20.000000
98.030360 30.000000
103.053190 26.000000
103.058060 22.000000
108.763010 28.000000
119.051750 78.000000
121.022080 121.000000
121.028290 359.000000
122.032830 38.000000
132.015060 23.000000
133.059140 27.000000
135.007580 21.000000
135.044190 37.000000
137.072220 25.000000
145.030640 52.000000
147.039860 23.000000
148.052860 20.000000
150.029130 27.000000
151.028340 27.000000
157.061280 50.000000
159.043300 27.000000
159.049030 47.000000
161.014600 50.000000
161.021940 24.000000
162.023540 33.000000
163.043320 40.000000
167.053670 22.000000
171.049730 50.000000
173.013470 36.000000
173.023330 63.000000
175.037540 37.000000
176.015060 27.000000
176.049290 26.000000
181.422610 26.000000
183.039200 29.000000
185.021940 36.000000
185.058550 24.000000
187.039630 29.000000
188.954440 22.000000
189.007190 24.000000
189.013430 62.000000
189.025360 96.000000
189.054310 73.000000
190.023570 65.000000
190.357790 52.000000
191.031660 21.000000
191.039580 25.000000
199.039180 20.000000
199.054460 33.000000
199.078780 21.000000
201.067580 27.000000
203.036320 243.000000
204.032960 39.000000
204.041500 26.000000
205.011290 20.000000
205.050640 60.000000
211.041960 25.000000
211.073440 20.000000
211.782360 25.000000
212.044510 26.000000
215.032300 191.000000
219.025310 83.000000
221.071320 22.000000
221.111220 49.000000
223.035340 18.000000
223.077760 38.000000
224.366470 36.000000
227.034330 59.000000
229.051060 164.000000
231.035840 25.000000
233.030610 29.000000
237.047680 40.000000
239.027860 51.000000
239.074420 58.000000
241.094330 63.000000
243.032440 56.000000
244.033290 25.000000
245.045060 18.000000
246.045460 36.000000
249.055920 33.000000
251.071840 29.000000
251.086580 38.000000
253.056320 28.000000
254.062390 29.000000
255.036350 33.000000
255.072330 50.000000
258.045410 30.000000
259.080440 20.000000
265.065460 39.000000
266.043120 20.000000
266.058200 26.000000
266.100400 28.000000
268.090390 24.000000
269.083310 23.000000
270.942410 27.000000
271.042570 23.000000
271.060000 22.000000
273.024780 23.000000
275.063320 25.000000
279.057560 47.000000
281.048580 23.000000
281.058650 26.000000
282.037350 29.000000
283.024630 36.000000
283.061070 172.000000
284.064880 28.000000
287.080050 22.000000
289.073970 24.000000
290.088930 31.000000
291.042940 25.000000
292.067900 27.000000
293.071380 22.000000
293.087520 25.000000
294.047450 97.000000
294.057040 100.000000
295.021880 21.000000
295.037810 54.000000
295.062320 1000.000000
295.097050 66.000000
295.425900 37.000000
296.064210 309.000000
296.101990 26.000000
297.054080 90.000000
297.072850 127.000000
297.085690 78.000000
298.161870 22.000000
299.060520 24.000000
302.056270 20.000000
303.866880 18.000000
304.062440 28.000000
305.068390 31.000000
306.057100 29.000000
307.058440 769.000000
307.081700 47.000000
308.060880 339.000000
308.078460 287.000000
309.039520 38.000000
309.064180 102.000000
309.073300 105.000000
309.100980 33.000000
310.039920 42.000000
310.070340 73.000000
310.093230 25.000000
312.671880 18.000000
313.052190 26.000000
313.070250 50.000000
313.083560 37.000000
313.881930 36.000000
314.082090 26.000000
318.071530 53.000000
318.397520 29.000000
319.049870 25.000000
319.065890 66.000000
319.082860 36.000000
320.064580 77.000000
321.039640 27.000000
321.067260 256.000000
321.080260 508.000000
322.032140 40.000000
322.083500 296.000000
322.377690 51.000000
323.047700 38.000000
323.060490 33.000000
323.076260 48.000000
323.093540 123.000000
324.057920 59.000000
324.085080 29.000000
324.099400 27.000000
324.287540 22.000000
325.016420 29.000000
325.066500 345.000000
325.077550 84.000000
326.073640 46.000000
326.089320 26.000000
327.047150 27.000000
328.071720 24.000000
328.086120 25.000000
328.887450 18.000000
329.082610 26.000000
329.121460 39.000000
330.077390 27.000000
330.088470 39.000000
331.043460 21.000000
331.058900 50.000000
332.086790 25.000000
333.063690 185.000000
333.078550 151.000000
334.072170 137.000000
334.092560 91.000000
335.084010 211.000000
335.104000 140.000000
336.053590 23.000000
336.069550 22.000000
336.099820 26.000000
337.065950 242.000000
337.079470 138.000000
338.074680 71.000000
339.048100 30.000000
339.081120 24.000000
339.104160 91.000000
339.949250 20.000000
340.075710 26.000000
340.148740 25.000000
345.056030 46.000000
345.072050 157.000000
345.088260 157.000000
346.078830 55.000000
347.081090 113.000000
347.093380 33.000000
347.170470 29.000000
347.353490 20.000000
348.054440 23.000000
348.067200 23.000000
348.090210 23.000000
348.109860 68.000000
349.060240 168.000000
349.075780 154.000000
350.980290 30.000000
351.076450 145.000000
351.089810 282.000000
351.115230 22.000000
352.087370 55.000000
352.473820 23.000000
353.100950 30.000000
356.105260 38.000000
359.091550 40.000000
359.125610 49.000000
359.828920 23.000000
361.065430 255.000000
361.115020 97.000000
362.064510 50.000000
363.035640 25.000000
363.060850 22.000000
363.080810 148.000000
363.098360 72.000000
364.095980 74.000000
365.083950 53.000000
367.068240 48.000000
367.090420 58.000000
367.621800 48.000000
368.078580 22.000000
369.069370 26.000000
372.101010 22.000000
373.074580 88.000000
373.088500 31.000000
373.108610 31.000000
374.064390 59.000000
374.945010 18.000000
375.048000 25.000000
375.071200 25.000000
375.087280 18.000000
375.106110 45.000000
376.043300 22.000000
376.084170 29.000000
377.071660 33.000000
378.977480 23.000000
379.064000 20.000000
379.074340 24.000000
380.085210 18.000000
385.068480 18.000000
387.065950 30.000000
387.090670 33.000000
389.047490 22.000000
389.104860 68.000000
391.035250 37.000000
391.058260 25.000000
391.096740 35.000000
392.111630 33.000000
394.078220 47.000000
396.118190 26.000000
396.502140 20.000000
399.053770 47.000000
399.090390 49.000000
401.103330 20.000000
401.120730 24.000000
403.061740 30.000000
405.095030 27.000000
415.086700 50.000000
415.095640 22.000000
420.087310 29.000000
423.109470 22.000000
429.098300 34.000000
429.122560 28.000000
445.119260 18.000000
446.074040 24.000000
546.030330 23.000000
565.113770 27.000000

>ms2peaks
85.015100 10.000000
91.040400 5.000000
103.038220 6.000000
121.028840 8.000000
121.039580 9.000000
179.047790 8.000000
189.031080 8.000000
217.047200 6.000000
260.608490 6.000000
270.026670 6.000000
285.658540 7.000000
288.107030 6.000000
293.086330 8.000000
294.054230 7.000000
295.034940 5.000000
295.050110 26.000000
295.066440 47.000000
296.017330 7.000000
296.044310 8.000000
296.061950 21.000000
297.062130 6.000000
297.078220 14.000000
304.074620 8.000000
304.735260 6.000000
307.043790 5.000000
307.061650 43.000000
308.061190 17.000000
309.077640 11.000000
314.541900 5.000000
319.068910 8.000000
321.060790 8.000000
321.082400 37.000000
322.072850 5.000000
322.082150 7.000000
323.105990 7.000000
325.050170 12.000000
325.065220 50.000000
325.077000 74.000000
326.066500 11.000000
326.082700 11.000000
329.081570 12.000000
333.093780 11.000000
334.069340 9.000000
334.080840 6.000000
335.067110 15.000000
335.099300 22.000000
336.067500 15.000000
336.097350 5.000000
337.068240 52.000000
337.082490 33.000000
339.079500 11.000000
340.098050 5.000000
345.072570 22.000000
348.068630 5.000000
348.393100 7.000000
349.052060 14.000000
349.072780 86.000000
350.078860 42.000000
351.070160 9.000000
351.092560 33.000000
353.258940 6.000000
353.686980 7.000000
355.078770 14.000000
356.096860 5.000000
361.051670 7.000000
361.073730 40.000000
361.120030 13.000000
361.232790 8.000000
362.062650 8.000000
362.082820 15.000000
363.079500 26.000000
363.099460 41.000000
364.093230 6.000000
367.083770 10.000000
368.085750 5.000000
369.538360 8.000000
373.047180 5.000000
373.075590 21.000000
373.096070 12.000000
374.039790 6.000000
374.089810 14.000000
375.072020 13.000000
375.091800 18.000000
379.064850 26.000000
379.080780 88.000000
380.075350 35.000000
380.088560 13.000000
380.939880 6.000000
381.059840 6.000000
381.076200 8.000000
385.104890 11.000000
387.066070 7.000000
387.084470 6.000000
387.115140 6.000000
391.021940 8.000000
391.043060 7.000000
391.084140 193.000000
392.078060 53.000000
392.098050 16.000000
393.098660 7.000000
397.090330 10.000000
399.099880 9.000000
403.090940 35.000000
404.083040 8.000000
409.091860 191.000000
409.119380 9.000000
410.090820 16.000000
410.103270 8.000000
411.108340 11.000000
415.083310 22.000000
417.096890 14.000000
421.085360 30.000000
421.096620 17.000000
421.117710 6.000000
422.084110 6.000000
427.060790 10.000000
427.105160 309.000000
428.056300 8.000000
428.087430 40.000000
428.100490 45.000000
429.027160 5.000000
429.085540 20.000000
429.107270 22.000000
430.771090 7.000000
433.081700 40.000000
433.114470 11.000000
434.101320 8.000000
439.102970 9.000000
445.046940 6.000000
445.086090 37.000000
445.107910 39.000000
446.109100 11.000000
447.101380 5.000000
451.095030 9.000000
451.117520 11.000000
457.097600 15.000000
457.112370 24.000000
463.065030 9.000000
463.090550 27.000000
463.115840 17.000000
464.103520 11.000000
469.095890 8.000000
469.122920 5.000000
475.051790 6.000000
475.076750 10.000000
475.100280 12.000000
475.126310 30.000000
476.080020 6.000000
476.115330 10.000000
481.097050 27.000000
481.121340 62.000000
482.121000 24.000000
487.109440 6.000000
492.997440 7.000000
493.104890 40.000000
494.140350 6.000000
499.100770 18.000000
499.130770 66.000000
500.105870 14.000000
500.121640 15.000000
501.140590 6.000000
511.049800 8.000000
511.074490 7.000000
511.111360 124.000000
511.131530 68.000000
511.999450 5.000000
512.067930 5.000000
512.117190 35.000000
512.137760 42.000000
513.128420 17.000000
518.911800 7.000000
529.100160 15.000000
529.143250 54.000000
530.129270 19.000000
530.146060 23.000000
530.175540 5.000000
531.135500 6.000000
531.152770 9.000000
532.130860 5.000000
532.149720 10.000000
547.020390 9.000000
547.094300 10.000000
547.143860 139.000000
548.126340 10.000000
548.163210 35.000000
549.121520 10.000000
550.142640 11.000000
565.066100 6.000000
565.110960 11.000000
565.156190 1000.000000

>ms2peaks
379.088350 5.000000
427.102660 17.000000
445.116940 8.000000
457.114780 6.000000
481.103060 8.000000
499.123350 13.000000
511.131930 8.000000
529.129940 26.000000
530.148070 7.000000
547.148010 100.000000
548.145260 33.000000
548.164310 9.000000
549.179930 5.000000
565.044980 6.000000
565.065120 12.000000
565.094120 13.000000
565.157710 1000.000000

>ms2peaks
73.031170 9.000000
95.108520 11.000000
121.027500 28.000000
161.021150 14.000000
186.455020 32.000000
225.197040 18.000000
243.065230 10.000000
247.405470 26.000000
262.851930 15.000000
283.067470 31.000000
293.591980 11.000000
294.054290 11.000000
295.020840 18.000000
295.037600 9.000000
295.059720 339.000000
295.082820 20.000000
296.067440 46.000000
296.076510 14.000000
296.432130 17.000000
297.040040 10.000000
298.078160 10.000000
305.334410 14.000000
307.055390 46.000000
307.065980 88.000000
307.078280 38.000000
308.058320 27.000000
308.070100 28.000000
309.021300 9.000000
313.069550 25.000000
317.087520 9.000000
319.056180 24.000000
321.074310 40.000000
321.367340 12.000000
322.079650 11.000000
323.062590 12.000000
324.745570 16.000000
325.037600 31.000000
325.068570 392.000000
325.079620 141.000000
326.068050 75.000000
326.080080 59.000000
327.060490 18.000000
327.279540 13.000000
328.831210 14.000000
329.072330 15.000000
330.086270 11.000000
330.980190 9.000000
331.572970 10.000000
333.073730 34.000000
334.082700 9.000000
335.101230 53.000000
336.083770 9.000000
337.036590 9.000000
337.071530 173.000000
337.088990 46.000000
338.058930 29.000000
338.072050 76.000000
338.090210 11.000000
339.092010 15.000000
340.083470 10.000000
341.076200 13.000000
341.089870 10.000000
343.078340 14.000000
345.076390 73.000000
346.071380 13.000000
347.089050 10.000000
348.063630 30.000000
348.897980 15.000000
349.068910 435.000000
350.043210 21.000000
350.069520 60.000000
351.067230 10.000000
351.088840 11.000000
351.111510 12.000000
352.054410 11.000000
352.089290 14.000000
352.104430 20.000000
353.114960 16.000000
353.469060 9.000000
353.522490 11.000000
355.080050 47.000000
356.081850 18.000000
360.602080 12.000000
361.033780 11.000000
361.063050 106.000000
361.077910 165.000000
361.484770 10.000000
362.066160 41.000000
362.086000 34.000000
362.972660 9.000000
363.009670 12.000000
363.069820 33.000000
363.090390 79.000000
363.100890 25.000000
363.143190 9.000000
364.069240 27.000000
364.086670 24.000000
365.067380 12.000000
365.096440 24.000000
366.252110 15.000000
367.069400 20.000000
367.080230 58.000000
373.020200 9.000000
373.067720 115.000000
373.086700 37.000000
374.073120 15.000000
374.086000 22.000000
374.100680 14.000000
375.052670 13.000000
375.074950 51.000000
375.096800 16.000000
377.047240 12.000000
377.061340 13.000000
377.109220 24.000000
378.099000 15.000000
378.981960 9.000000
379.020570 15.000000
379.076600 538.000000
379.092380 309.000000
380.082400 169.000000
381.086670 41.000000
381.211640 14.000000
381.780850 9.000000
383.693970 19.000000
385.083530 11.000000
387.072480 18.000000
387.090150 14.000000
389.076750 28.000000
390.117190 23.000000
390.365880 9.000000
390.984950 9.000000
391.010280 9.000000
391.025150 11.000000
391.078460 1000.000000
392.074980 177.000000
392.097320 123.000000
393.083130 73.000000
393.103670 14.000000
395.073030 38.000000
395.085240 16.000000
397.064880 14.000000
397.095980 99.000000
397.109100 30.000000
398.087340 41.000000
398.112640 28.000000
398.771510 10.000000
401.090450 44.000000
401.118470 12.000000
402.090580 21.000000
403.076230 207.000000
404.081600 27.000000
404.105100 10.000000
405.034940 10.000000
405.077880 35.000000
405.101680 30.000000
406.110930 22.000000
407.068360 14.000000
409.002110 19.000000
409.033660 19.000000
409.047610 24.000000
409.080900 303.000000
409.100890 304.000000
409.736050 9.000000
410.029330 15.000000
410.050080 15.000000
410.099030 208.000000
410.120240 16.000000
411.101900 66.000000
413.097020 11.000000
415.040410 14.000000
415.074190 16.000000
415.087340 16.000000
415.108150 20.000000
416.095030 17.000000
417.093480 49.000000
417.110690 22.000000
418.098450 12.000000
418.157350 9.000000
418.994140 11.000000
419.097720 9.000000
419.118320 13.000000
420.092130 14.000000
420.127590 13.000000
421.073430 34.000000
421.093110 146.000000
421.110110 29.000000
422.095120 20.000000
422.112210 12.000000
424.090420 11.000000
427.061610 23.000000
427.098820 420.000000
427.123720 151.000000
428.079860 52.000000
428.098450 88.000000
428.115200 55.000000
429.072480 52.000000
429.094640 74.000000
429.127870 15.000000
430.076450 11.000000
430.283260 9.000000
431.061370 13.000000
433.051820 11.000000
433.070370 28.000000
433.092830 229.000000
434.078060 34.000000
434.102660 45.000000
435.014470 9.000000
435.103730 60.000000
436.108700 13.000000
436.883510 18.000000
437.140380 10.000000
439.102750 42.000000
441.038300 18.000000
442.114990 9.000000
442.997500 11.000000
445.066620 47.000000
445.092010 160.000000
445.112640 39.000000
446.060300 33.000000
446.084810 20.000000
446.107640 12.000000
446.125060 26.000000
447.046570 11.000000
447.101870 12.000000
447.120270 24.000000
451.074830 15.000000
451.096770 83.000000
451.129940 43.000000
452.091610 16.000000
452.107330 19.000000
457.088070 55.000000
457.105130 127.000000
458.067470 12.000000
458.091430 36.000000
458.116090 10.000000
459.093020 10.000000
459.118320 9.000000
463.078610 9.000000
463.104250 30.000000
463.121250 26.000000
464.095400 49.000000
464.119080 16.000000
465.100680 9.000000
467.104520 15.000000
469.119720 20.000000
470.012910 10.000000
470.118900 16.000000
475.088200 104.000000
475.106200 64.000000
475.121090 49.000000
476.025480 9.000000
476.088170 18.000000
476.737920 12.000000
481.110600 363.000000
481.148680 10.000000
482.067600 26.000000
482.096070 29.000000
482.121800 33.000000
493.082400 9.000000
493.118100 131.000000
493.139590 20.000000
493.845950 9.000000
494.115940 58.000000
494.147670 29.000000
495.132320 12.000000
499.089080 9.000000
499.110530 30.000000
499.133240 28.000000
500.148930 9.000000
500.392580 10.000000
511.104520 64.000000
511.131290 62.000000
511.504120 14.000000
512.049380 11.000000
512.095890 12.000000
512.126040 63.000000
529.126340 20.000000
529.339420 10.000000
530.129820 12.000000
530.153560 12.000000
547.140010 11.000000

>ms2peaks
85.024060 21.000000
93.037480 24.000000
93.072460 27.000000
97.065170 25.000000
103.039200 22.000000
115.053990 23.000000
115.060060 19.000000
117.050000 13.000000
119.042470 21.000000
119.050540 86.000000
121.008410 24.000000
121.017780 26.000000
121.026130 163.000000
121.034170 89.000000
122.027260 24.000000
122.031850 70.000000
123.033380 16.000000
125.194970 22.000000
135.038120 18.000000
135.062090 14.000000
137.022860 17.000000
145.024350 37.000000
145.031630 72.000000
146.606350 12.000000
147.026050 23.000000
152.064740 29.000000
155.042220 19.000000
155.049640 21.000000
157.024810 16.000000
159.052690 15.000000
163.037170 13.000000
173.016100 54.000000
173.029050 21.000000
173.057620 33.000000
174.022170 25.000000
175.039170 50.000000
177.016110 67.000000
177.024770 39.000000
177.042830 16.000000
179.085540 29.000000
186.033110 30.000000
187.032070 27.000000
187.043140 31.000000
189.022370 91.000000
189.050990 16.000000
190.022280 15.000000
190.358760 14.000000
191.043850 16.000000
198.155590 19.000000
199.035510 54.000000
201.021730 35.000000
203.024200 17.000000
203.036300 99.000000
204.045000 46.000000
205.045010 51.000000
207.030700 18.000000
209.058320 40.000000
210.141270 14.000000
210.916200 23.000000
211.043080 31.000000
211.329620 19.000000
213.010450 25.000000
213.062880 27.000000
215.042760 35.000000
216.037520 15.000000
217.042980 14.000000
217.053530 34.000000
218.024200 16.000000
219.022290 12.000000
221.046780 16.000000
221.063130 21.000000
225.050130 16.000000
226.881450 21.000000
227.031620 26.000000
227.037610 14.000000
228.071560 19.000000
228.495880 15.000000
229.006520 15.000000
229.040300 34.000000
231.044110 19.000000
232.037770 26.000000
233.057100 20.000000
237.047790 13.000000
239.075420 21.000000
240.063770 12.000000
241.044160 20.000000
241.053300 46.000000
243.010500 21.000000
243.569080 18.000000
245.042630 31.000000
245.051860 27.000000
251.037170 20.000000
253.029710 14.000000
253.053680 23.000000
253.089100 16.000000
255.010730 14.000000
255.039600 26.000000
255.052090 15.000000
256.044310 21.000000
257.034300 34.000000
257.050050 51.000000
258.040860 14.000000
259.053650 25.000000
259.060790 12.000000
259.077270 41.000000
261.087010 14.000000
263.078030 20.000000
264.075230 37.000000
267.028080 33.000000
267.067690 44.000000
268.066680 12.000000
268.080510 68.000000
269.053280 58.000000
270.083650 15.000000
271.056640 16.000000
273.043370 28.000000
276.062810 13.000000
278.015930 31.000000
279.060060 43.000000
279.073760 17.000000
279.152650 17.000000
280.061830 39.000000
280.077510 19.000000
280.209080 15.000000
281.042020 13.000000
281.082120 16.000000
283.059270 111.000000
284.059780 43.000000
284.074710 15.000000
284.509640 14.000000
285.046810 25.000000
285.060760 26.000000
286.985140 21.000000
289.093750 61.000000
293.082370 96.000000
294.027830 19.000000
294.046390 98.000000
294.056850 74.000000
294.083920 19.000000
295.061680 1000.000000
295.093630 37.000000
295.111330 24.000000
295.914640 12.000000
296.029110 20.000000
296.058590 79.000000
296.073490 101.000000
297.038390 20.000000
297.058500 19.000000
297.077330 52.000000
297.086760 56.000000
298.090790 18.000000
299.084350 22.000000
303.084260 24.000000
304.064940 13.000000
304.079990 16.000000
305.069120 12.000000
305.082150 32.000000
306.088870 15.000000
307.032620 89.000000
307.055570 271.000000
307.068020 186.000000
307.103150 29.000000
307.863460 14.000000
308.067380 403.000000
308.089570 16.000000
309.067320 107.000000
309.076390 245.000000
310.074190 19.000000
310.094640 52.000000
311.092440 14.000000
312.078000 21.000000
313.054870 29.000000
313.080440 19.000000
315.061950 21.000000
316.062380 29.000000
317.076020 71.000000
317.098820 21.000000
318.093140 16.000000
319.045440 34.000000
319.067870 61.000000
320.040950 16.000000
320.070980 96.000000
321.076170 986.000000
321.256500 13.000000
322.027860 14.000000
322.050020 42.000000
322.078340 91.000000
322.093140 169.000000
322.267060 15.000000
323.058780 31.000000
323.087550 97.000000
323.099640 69.000000
324.039790 20.000000
324.049590 18.000000
324.089020 15.000000
324.103390 21.000000
325.002170 15.000000
325.051730 29.000000
325.071040 339.000000
326.071380 46.000000
327.076350 52.000000
330.077730 14.000000
331.066890 14.000000
331.109680 17.000000
332.026090 26.000000
333.007420 18.000000
333.054960 49.000000
333.072970 101.000000
333.085570 128.000000
333.106020 29.000000
334.058870 13.000000
334.079860 126.000000
335.022640 16.000000
335.053070 14.000000
335.074310 109.000000
335.099730 86.000000
335.114870 34.000000
336.050480 36.000000
336.083040 24.000000
336.105740 32.000000
337.026210 18.000000
337.051820 70.000000
337.066740 127.000000
337.084010 49.000000
337.108830 14.000000
338.082760 76.000000
338.105070 36.000000
339.079500 58.000000
339.097470 39.000000
341.273040 12.000000
342.094390 14.000000
342.571840 13.000000
343.093960 16.000000
344.058440 21.000000
345.047610 34.000000
345.069670 215.000000
346.082950 113.000000
346.102140 21.000000
346.398650 24.000000
347.077090 16.000000
347.093960 153.000000
347.645540 18.000000
348.093020 15.000000
348.110020 15.000000
349.044560 44.000000
349.073000 291.000000
350.076200 22.000000
350.087980 12.000000
351.035950 20.000000
351.068910 71.000000
351.086090 141.000000
352.083190 34.000000
352.100160 16.000000
353.064150 19.000000
353.099550 20.000000
353.115600 21.000000
355.083440 13.000000
357.074920 15.000000
357.109010 16.000000
358.026700 12.000000
358.087830 13.000000
359.086150 18.000000
359.096950 26.000000
361.072390 127.000000
362.047970 13.000000
362.061740 22.000000
362.084810 25.000000
363.076690 49.000000
363.096890 55.000000
363.326450 13.000000
364.080200 26.000000
365.100160 16.000000
366.109710 16.000000
367.065550 14.000000
367.096680 15.000000
368.092500 13.000000
369.084290 13.000000
373.055150 38.000000
373.076480 97.000000
373.110380 66.000000
374.087340 41.000000
374.114470 14.000000
375.054990 33.000000
375.089480 77.000000
376.087890 31.000000
376.109710 13.000000
377.082520 14.000000
378.073150 19.000000
379.086910 78.000000
380.084840 51.000000
385.070160 18.000000
387.092440 32.000000
388.088870 14.000000
388.715000 24.000000
389.103360 39.000000
391.057460 26.000000
391.084750 90.000000
391.106020 30.000000
392.076140 34.000000
392.096220 34.000000
393.054810 15.000000
393.253660 33.000000
399.076870 32.000000
399.098110 12.000000
401.109440 29.000000
401.266300 13.000000
403.070740 14.000000
403.100220 34.000000
405.099430 25.000000
405.119450 23.000000
406.081600 22.000000
406.118960 38.000000
406.163760 12.000000
408.092100 26.000000
409.072540 12.000000
411.101870 16.000000
415.071350 56.000000
416.087190 22.000000
420.120210 16.000000
425.120540 18.000000
427.111450 30.000000
429.089450 12.000000
429.106570 12.000000
431.309200 20.000000
433.091830 12.000000
445.086790 19.000000
447.098880 21.000000
563.771300 14.000000

>ms2peaks
145.024060 5.000000
177.030620 6.000000
189.022310 21.000000
191.041350 6.000000
218.342240 9.000000
226.879810 7.000000
241.906280 8.000000
243.035230 6.000000
267.070980 9.000000
277.042970 5.000000
281.056340 6.000000
283.054810 5.000000
283.064850 9.000000
295.035130 5.000000
295.053710 41.000000
295.070560 51.000000
296.064910 13.000000
301.073060 6.000000
307.057830 83.000000
307.069920 31.000000
307.096010 6.000000
307.124150 7.000000
308.066220 24.000000
309.039520 5.000000
309.066130 7.000000
313.083920 18.000000
313.097080 5.000000
319.062590 10.000000
320.070860 5.000000
321.074800 48.000000
322.072910 6.000000
322.099820 6.000000
322.658020 6.000000
323.094940 11.000000
325.019410 11.000000
325.065340 86.000000
325.077730 67.000000
326.075440 44.000000
328.022920 7.000000
333.035770 8.000000
335.083370 11.000000
335.098050 30.000000
335.113590 18.000000
336.072540 5.000000
337.048070 9.000000
337.070530 104.000000
337.082030 47.000000
338.058990 5.000000
338.082670 14.000000
339.093080 9.000000
340.096410 6.000000
343.076870 5.000000
345.043640 5.000000
345.057430 5.000000
345.085450 16.000000
345.853090 6.000000
346.099850 5.000000
347.098880 6.000000
349.053280 9.000000
349.071260 75.000000
349.085850 15.000000
350.058870 11.000000
350.073000 43.000000
351.055630 16.000000
351.088260 27.000000
355.082120 19.000000
356.067140 5.000000
356.078250 18.000000
361.069790 65.000000
362.040530 5.000000
362.117950 7.000000
363.065860 13.000000
363.079530 22.000000
363.091610 21.000000
364.096130 15.000000
365.083920 7.000000
367.081090 11.000000
373.070500 35.000000
373.104430 7.000000
374.077700 11.000000
375.061070 5.000000
375.081090 17.000000
377.066470 6.000000
377.415800 6.000000
379.049930 5.000000
379.069490 43.000000
379.081360 131.000000
379.095920 60.000000
380.074160 13.000000
380.091860 36.000000
385.071960 8.000000
387.089940 6.000000
389.101260 5.000000
391.044280 11.000000
391.061220 34.000000
391.080570 143.000000
391.122340 5.000000
392.085210 58.000000
393.086820 5.000000
397.079010 5.000000
397.102080 17.000000
398.091370 15.000000
401.059170 5.000000
403.055510 21.000000
403.081670 9.000000
404.081210 9.000000
405.097870 14.000000
407.060910 6.000000
407.085850 8.000000
409.055300 9.000000
409.089540 173.000000
410.097560 72.000000
411.099880 8.000000
412.099910 12.000000
415.083920 17.000000
415.108030 7.000000
416.084750 5.000000
416.102140 10.000000
417.087740 7.000000
421.095490 25.000000
427.101680 260.000000
428.078950 24.000000
428.109340 68.000000
429.107540 19.000000
433.090970 31.000000
439.095860 16.000000
440.113920 11.000000
445.088380 59.000000
445.108150 51.000000
451.107790 25.000000
457.090760 28.000000
457.108550 33.000000
457.123020 17.000000
458.107820 13.000000
458.126070 22.000000
463.096950 18.000000
466.118160 6.000000
466.478090 6.000000
475.096680 28.000000
475.119350 35.000000
475.139250 9.000000
475.552860 5.000000
476.079350 13.000000
476.095610 13.000000
476.113010 9.000000
476.133940 18.000000
481.076260 8.000000
481.115880 75.000000
482.139040 18.000000
493.075870 8.000000
493.106170 35.000000
494.108760 20.000000
499.120670 62.000000
499.142910 26.000000
500.088100 11.000000
500.137730 43.000000
501.098360 6.000000
511.092530 13.000000
511.113650 46.000000
511.130830 52.000000
511.290710 6.000000
512.073490 12.000000
512.132260 52.000000
529.103880 21.000000
529.119380 79.000000
529.145940 42.000000
530.131840 58.000000
531.140930 5.000000
547.010930 5.000000
547.138670 225.000000
547.705750 7.000000
548.117070 13.000000
548.145390 36.000000
549.145870 23.000000
550.131410 6.000000
556.711730 6.000000
564.794310 5.000000
565.053160 5.000000
565.107670 15.000000
565.155400 1000.000000

>ms2peaks
409.096620 8.000000
427.099730 23.000000
428.102230 17.000000
428.114780 6.000000
475.138850 5.000000
499.104250 6.000000
499.137420 6.000000
500.132750 10.000000
511.121250 30.000000
529.095700 5.000000
529.118960 12.000000
529.140560 17.000000
530.146120 9.000000
547.141050 74.000000
548.131160 11.000000
549.157170 5.000000
565.076110 10.000000
565.106750 13.000000
565.155700 1000.000000

>ms2peaks
218.801210 13.000000
234.763290 11.000000
261.600430 16.000000
283.054960 25.000000
284.070770 8.000000
288.300810 23.000000
291.072050 9.000000
294.061550 12.000000
295.053990 205.000000
295.071350 66.000000
295.084170 12.000000
296.047850 20.000000
296.065400 10.000000
297.032260 11.000000
297.062710 11.000000
299.107120 9.000000
301.078860 10.000000
302.532870 8.000000
305.230380 11.000000
307.031250 43.000000
307.060360 194.000000
308.065190 71.000000
309.063900 13.000000
309.077150 17.000000
310.061770 12.000000
315.583650 18.000000
316.711120 14.000000
319.057800 27.000000
321.037260 11.000000
321.068330 22.000000
323.069400 14.000000
323.079860 14.000000
325.040130 24.000000
325.063810 290.000000
325.076480 273.000000
326.039950 14.000000
326.052120 42.000000
326.078280 60.000000
327.066130 24.000000
327.081600 12.000000
329.049620 12.000000
329.083190 29.000000
331.063630 11.000000
332.178830 8.000000
332.192630 9.000000
333.061340 10.000000
333.085690 15.000000
335.070770 32.000000
335.102480 13.000000
336.041050 17.000000
336.059690 24.000000
337.071140 278.000000
338.071990 39.000000
338.091950 22.000000
339.072660 32.000000
344.056950 8.000000
345.080140 27.000000
345.090120 38.000000
345.101590 25.000000
347.088010 13.000000
347.101900 13.000000
349.067020 317.000000
349.081790 123.000000
350.052120 9.000000
350.068850 60.000000
350.080990 78.000000
350.983280 28.000000
351.040220 17.000000
351.072510 19.000000
351.092350 44.000000
353.045590 11.000000
353.084200 8.000000
354.099700 11.000000
354.554110 8.000000
355.061220 26.000000
355.079500 51.000000
355.097870 13.000000
356.090790 28.000000
357.078550 9.000000
358.091060 12.000000
359.053250 21.000000
361.073460 136.000000
361.094240 15.000000
362.043980 10.000000
362.063110 29.000000
362.083620 40.000000
363.069850 27.000000
363.082180 52.000000
363.104520 12.000000
364.092740 36.000000
365.072910 15.000000
365.087770 31.000000
366.066440 12.000000
367.080900 61.000000
368.071900 13.000000
368.085420 13.000000
370.923370 14.000000
373.021180 11.000000
373.064300 16.000000
373.079710 21.000000
373.093380 28.000000
374.070680 23.000000
375.058530 17.000000
375.072880 14.000000
375.098820 16.000000
375.729860 9.000000
378.784580 11.000000
379.037290 8.000000
379.051670 44.000000
379.080750 791.000000
379.697510 10.000000
380.073970 29.000000
380.090520 157.000000
381.079680 33.000000
381.101930 14.000000
382.096440 10.000000
385.073120 50.000000
387.071810 12.000000
389.085510 18.000000
390.058470 17.000000
390.111080 12.000000
391.008640 12.000000
391.038480 58.000000
391.079040 698.000000
391.546050 11.000000
392.084050 178.000000
393.046360 13.000000
393.094850 39.000000
395.606410 8.000000
397.079220 34.000000
397.096830 131.000000
398.089020 12.000000
398.105160 17.000000
398.217620 11.000000
398.912780 9.000000
399.126280 8.000000
400.254090 12.000000
401.048160 14.000000
401.093900 37.000000
402.103850 18.000000
402.643800 10.000000
403.060180 37.000000
403.082610 104.000000
404.085330 93.000000
405.059540 10.000000
405.081300 29.000000
405.097870 29.000000
405.116420 14.000000
406.115630 9.000000
406.252470 10.000000
406.315120 17.000000
409.023250 10.000000
409.088990 1000.000000
410.061340 11.000000
410.084200 76.000000
410.108400 77.000000
410.830930 12.000000
411.078280 21.000000
411.104280 9.000000
412.097930 30.000000
415.068850 54.000000
415.082610 137.000000
415.102140 24.000000
415.124330 22.000000
416.090210 20.000000
417.014710 20.000000
417.100620 46.000000
419.094600 8.000000
419.109160 21.000000
420.092620 28.000000
420.122410 26.000000
421.061650 8.000000
421.093140 109.000000
422.099850 42.000000
423.420380 8.000000
426.351040 16.000000
427.066220 10.000000
427.091090 211.000000
427.109190 319.000000
428.064940 19.000000
428.085360 50.000000
428.103240 134.000000
428.127990 8.000000
429.079010 55.000000
429.105260 16.000000
430.102690 16.000000
431.100560 15.000000
431.131290 14.000000
433.091190 186.000000
433.125890 11.000000
434.081570 25.000000
434.098210 46.000000
435.099580 12.000000
435.114720 15.000000
436.119080 10.000000
437.108120 9.000000
437.125310 10.000000
437.984440 10.000000
438.089360 13.000000
438.115690 10.000000
439.076660 12.000000
439.095980 32.000000
439.109010 21.000000
440.101260 25.000000
445.074860 87.000000
445.091220 133.000000
445.118440 46.000000
446.084560 37.000000
447.111300 20.000000
451.057280 13.000000
451.095640 29.000000
451.108250 37.000000
452.067350 22.000000
457.057430 20.000000
457.090730 76.000000
457.114810 50.000000
457.133330 12.000000
458.076420 8.000000
458.101720 24.000000
463.100890 158.000000
463.125000 34.000000
463.153200 9.000000
463.197240 10.000000
464.109040 53.000000
464.129000 12.000000
465.102330 25.000000
466.105800 25.000000
469.101810 28.000000
469.123900 23.000000
470.101530 12.000000
475.096800 34.000000
475.109950 81.000000
475.146000 10.000000
476.108670 64.000000
478.108920 13.000000
480.284120 12.000000
481.064640 13.000000
481.086550 28.000000
481.117800 277.000000
482.102600 21.000000
482.115690 18.000000
482.498020 10.000000
483.131960 13.000000
484.126770 12.000000
493.116150 99.000000
493.136050 41.000000
494.069400 19.000000
494.111970 31.000000
495.120300 19.000000
499.121860 63.000000
499.276210 8.000000
511.111450 80.000000
511.137300 99.000000
511.183470 8.000000
512.141240 45.000000
529.150880 35.000000
530.147950 11.000000
565.172300 8.000000

>ms2peaks
68.996670 28.000000
85.028720 30.000000
120.053450 18.000000
121.026790 56.000000
121.034160 56.000000
139.056550 22.000000
143.053860 33.000000
145.026920 45.000000
145.036760 35.000000
155.046070 22.000000
159.041790 40.000000
161.025050 26.000000
163.037780 27.000000
165.016140 24.000000
171.047530 34.000000
173.012040 28.000000
173.021790 29.000000
175.040830 51.000000
177.015560 32.000000
185.023820 18.000000
187.037310 59.000000
189.016950 51.000000
189.023620 171.000000
191.019740 24.000000
191.027800 17.000000
193.044110 44.000000
197.021820 20.000000
197.055050 19.000000
198.062790 18.000000
199.043120 23.000000
199.316960 20.000000
201.013790 29.000000
201.045880 25.000000
202.927380 26.000000
203.033250 137.000000
204.038800 15.000000
207.025800 16.000000
210.028210 18.000000
211.036680 15.000000
213.016110 17.000000
213.063170 49.000000
215.028850 36.000000
215.038770 50.000000
217.048710 22.000000
218.057750 22.000000
228.035710 62.000000
230.058880 31.000000
230.984180 20.000000
231.011580 36.000000
233.045880 33.000000
233.054500 38.000000
239.021640 19.000000
239.036100 40.000000
239.072390 48.000000
243.032030 34.000000
244.331770 21.000000
248.022320 19.000000
253.082180 15.000000
255.031620 21.000000
255.060120 28.000000
255.073520 26.000000
257.026520 28.000000
257.045040 15.000000
257.065550 36.000000
259.056120 20.000000
261.620120 34.000000
263.054930 15.000000
265.046230 31.000000
268.069980 23.000000
269.074950 46.000000
271.062230 37.000000
273.036800 33.000000
279.040710 17.000000
279.071110 37.000000
280.066860 20.000000
280.075260 59.000000
281.033540 16.000000
281.064480 45.000000
281.077120 46.000000
283.065770 94.000000
283.079350 25.000000
285.044830 23.000000
288.067900 15.000000
291.069400 51.000000
292.057890 29.000000
292.073360 52.000000
292.995730 22.000000
293.084260 78.000000
293.093720 41.000000
294.041840 108.000000
294.057560 45.000000
294.075230 22.000000
294.100220 15.000000
294.552890 22.000000
295.061190 1000.000000
296.056790 55.000000
296.069090 71.000000
297.055690 13.000000
297.071780 108.000000
297.087340 80.000000
298.074830 40.000000
298.087220 28.000000
301.078670 18.000000
303.060390 15.000000
305.082180 20.000000
307.050080 103.000000
307.063420 271.000000
307.102420 45.000000
308.049470 50.000000
308.072110 386.000000
308.093510 26.000000
309.025820 23.000000
309.073820 221.000000
310.052670 17.000000
310.075650 39.000000
310.086330 113.000000
313.070430 17.000000
315.065640 33.000000
317.085570 21.000000
318.092680 19.000000
319.056610 128.000000
319.079160 24.000000
320.067960 84.000000
320.079070 33.000000
320.113890 40.000000
320.127110 15.000000
321.044250 18.000000
321.060520 23.000000
321.080260 458.000000
321.542360 17.000000
322.069060 42.000000
322.084230 143.000000
322.101930 49.000000
323.060880 23.000000
323.076260 22.000000
323.095120 47.000000
324.096920 18.000000
324.285740 18.000000
325.072780 329.000000
325.084870 85.000000
325.290040 15.000000
325.348820 15.000000
326.070430 89.000000
330.090060 28.000000
331.061490 23.000000
331.082950 20.000000
332.094450 21.000000
333.061400 21.000000
333.078950 240.000000
334.065890 52.000000
334.081600 96.000000
335.024600 17.000000
335.079500 46.000000
335.096340 135.000000
336.058590 72.000000
336.081300 17.000000
337.067600 166.000000
337.077420 102.000000
337.099460 15.000000
337.375310 20.000000
338.068180 43.000000
338.084690 31.000000
339.085480 88.000000
341.054260 29.000000
342.104430 26.000000
343.096340 27.000000
344.731200 15.000000
345.063200 19.000000
345.078490 24.000000
345.105410 21.000000
345.244900 18.000000
347.061280 15.000000
347.086670 100.000000
348.095090 40.000000
349.067810 238.000000
349.095370 22.000000
350.083400 32.000000
350.100920 25.000000
351.078520 91.000000
351.090420 58.000000
353.086490 48.000000
355.085270 35.000000
356.082920 17.000000
357.066380 16.000000
358.095150 22.000000
359.083440 17.000000
359.095060 16.000000
359.370730 22.000000
360.064330 28.000000
360.090730 21.000000
361.056180 24.000000
361.078060 143.000000
361.113190 15.000000
362.075500 29.000000
363.064790 22.000000
363.080140 107.000000
363.102330 21.000000
363.122650 20.000000
365.063930 19.000000
366.073390 28.000000
367.072390 19.000000
368.108340 19.000000
369.078060 22.000000
372.982030 22.000000
373.066310 77.000000
374.079830 26.000000
374.119110 23.000000
375.068630 57.000000
375.084410 24.000000
375.101680 23.000000
375.652560 16.000000
376.077030 22.000000
376.088960 22.000000
377.063570 43.000000
377.085630 41.000000
377.104490 25.000000
379.078190 80.000000
380.095210 35.000000
382.769130 15.000000
387.070190 32.000000
387.104890 15.000000
389.092220 26.000000
390.118130 24.000000
391.072420 98.000000
391.094760 58.000000
392.095400 15.000000
393.590390 31.000000
395.442290 15.000000
399.096040 24.000000
403.079130 25.000000
403.094820 52.000000
405.091430 30.000000
408.940000 27.000000
409.079470 23.000000
415.060820 28.000000
415.079830 74.000000
416.099300 16.000000
429.091190 22.000000
429.117770 32.000000
430.106870 20.000000
433.091740 21.000000
439.089320 23.000000
457.087010 26.000000

