>compound PR25378659
>parentmass 455.14891489999997
>ionization [M+H]+
>formula C28H22O6
>rt 348.433020
>profile qtof
#smiles_iso C1=CC(=CC=C1/C=C/C2=C3[C@H]([C@@H](OC3=CC(=C2)O)C4=CC=C(C=C4)O)C5=CC(=CC(=C5)O)O)O
#smiles_can C1=CC(=CC=C1C=CC2=C3C(C(OC3=CC(=C2)O)C4=CC=C(C=C4)O)C5=CC(=CC(=C5)O)O)O
#inchikey FQWLMRXWKZGLFI-YVYUXZJTSA-N
#pubchem_id 5281728
#mb_accession PR304252,PR304254,PR304256,PR304258,PR304260,PR304262,PR304264,PR304266,PR304268,PR304270,PR304272,PR304274

>ms2
107.049460 163.000000
108.052350 10.000000
119.050830 7.000000
123.044600 6.000000
133.030290 8.000000
137.018110 6.000000
141.067250 5.000000
145.067400 8.000000
157.062640 17.000000
168.741290 8.000000
169.061890 5.000000
169.070820 10.000000
171.044460 9.000000
181.064290 41.000000
197.055860 24.000000
197.067570 7.000000
199.074770 160.000000
200.074340 7.000000
200.084930 5.000000
209.057540 8.000000
211.069870 10.000000
211.082310 13.000000
213.056500 8.000000
215.071040 221.000000
216.061190 6.000000
216.077770 38.000000
217.076160 5.000000
221.062940 10.000000
223.071520 11.000000
225.055020 8.000000
227.073330 57.000000
228.074360 9.000000
233.060990 7.000000
239.067920 95.000000
239.090880 7.000000
240.070140 10.000000
241.050250 5.000000
241.085160 5.000000
241.099990 6.000000
242.835480 5.000000
243.063280 5.000000
243.075810 6.000000
250.057390 6.000000
251.070040 26.000000
252.067290 7.000000
252.080350 9.000000
255.064650 56.000000
256.076840 8.000000
264.065220 5.000000
267.057340 20.000000
267.073610 14.000000
269.091520 6.000000
272.083280 6.000000
277.091220 6.000000
289.093960 8.000000
301.091890 6.000000
302.090000 7.000000
302.104580 6.000000
303.105930 8.000000
313.084720 7.000000
314.084930 6.000000
315.102260 10.000000
317.111880 5.000000
326.096710 5.000000
329.071990 10.000000
330.095610 5.000000
331.084200 14.000000
332.105650 35.000000
333.098360 7.000000
333.116300 9.000000
343.093410 33.000000
344.110500 9.000000
345.103670 12.000000
345.116420 14.000000
346.109950 8.000000
347.093870 21.000000
348.086240 9.000000
348.102290 23.000000
349.077330 13.000000
349.105960 129.000000
349.119930 34.000000
350.103580 23.000000
350.119050 8.000000
360.097990 9.000000
361.084170 11.000000
361.106320 54.000000
361.120300 29.000000
362.104310 13.000000
437.127320 9.000000
438.146880 14.000000
454.121220 6.000000
454.141110 25.000000
455.095920 13.000000
455.148650 1000.000000

>ms2
345.117860 5.000000
349.106540 30.000000
350.115020 10.000000
361.108550 15.000000
454.142270 24.000000
455.092250 10.000000
455.147710 1000.000000

>ms2
70.481320 5.000000
93.030990 7.000000
97.902210 8.000000
106.980510 6.000000
107.048960 1000.000000
108.039660 12.000000
108.049390 40.000000
108.056930 13.000000
109.028650 10.000000
119.049290 23.000000
120.051830 5.000000
121.021900 26.000000
121.031430 7.000000
121.062930 10.000000
123.044690 46.000000
124.042650 7.000000
124.054520 15.000000
128.018040 6.000000
129.075010 5.000000
131.047590 13.000000
132.050770 6.000000
133.026700 66.000000
134.250660 5.000000
135.041350 14.000000
137.005630 5.000000
137.021300 91.000000
137.027160 39.000000
138.018220 5.000000
145.061630 10.000000
147.031750 5.000000
147.043560 13.000000
147.075470 11.000000
149.016010 7.000000
153.072220 10.000000
154.075070 5.000000
157.060930 15.000000
157.068740 12.000000
158.058960 5.000000
158.068160 24.000000
158.213590 5.000000
160.813570 7.000000
162.203600 7.000000
165.065750 7.000000
165.078370 6.000000
169.067670 25.000000
169.074160 11.000000
171.090040 7.000000
172.071470 6.000000
174.067170 11.000000
175.047930 6.000000
179.182910 9.000000
180.356220 8.000000
181.023860 5.000000
181.057370 26.000000
181.068480 30.000000
182.057570 6.000000
182.068510 8.000000
183.079970 10.000000
184.057390 6.000000
184.084850 9.000000
185.065920 5.000000
187.075000 31.000000
187.624830 5.000000
195.074200 11.000000
195.085950 5.000000
197.028470 5.000000
197.058300 99.000000
197.072330 5.000000
198.056660 21.000000
198.069900 6.000000
199.075350 484.000000
200.038990 5.000000
200.057680 7.000000
200.083080 69.000000
200.358630 7.000000
201.076350 6.000000
201.086040 10.000000
203.087600 10.000000
206.076110 8.000000
209.051910 5.000000
209.061600 23.000000
210.069120 15.000000
211.079540 14.000000
213.034090 5.000000
213.049900 16.000000
213.059740 18.000000
215.034190 8.000000
215.043470 19.000000
215.069890 781.000000
215.095140 6.000000
216.076860 126.000000
217.076140 10.000000
217.083600 7.000000
218.076680 5.000000
222.095230 14.000000
223.066850 17.000000
223.077870 26.000000
224.079300 7.000000
225.056840 47.000000
226.059950 17.000000
227.053390 11.000000
227.070450 230.000000
228.076050 95.000000
229.080580 26.000000
231.085540 11.000000
233.058990 28.000000
233.097340 6.000000
235.074860 25.000000
237.050740 6.000000
237.924510 8.000000
239.034100 6.000000
239.069180 430.000000
240.054960 12.000000
240.067810 21.000000
240.077760 51.000000
241.043300 17.000000
241.056140 10.000000
241.084560 6.000000
242.044890 7.000000
242.064640 23.000000
242.087230 7.000000
243.034990 7.000000
243.066270 26.000000
246.567080 6.000000
247.049770 5.000000
247.074690 21.000000
247.087300 10.000000
248.070760 5.000000
249.043780 6.000000
249.080350 5.000000
249.096420 6.000000
250.070010 17.000000
251.046460 7.000000
251.070630 147.000000
252.063250 16.000000
252.083240 44.000000
253.055470 10.000000
253.075410 12.000000
253.094740 10.000000
254.046980 10.000000
254.061190 35.000000
255.066850 218.000000
255.091230 6.000000
256.065830 25.000000
256.075320 14.000000
256.088470 6.000000
257.106050 12.000000
260.073520 19.000000
261.087860 33.000000
261.096370 23.000000
263.100250 6.000000
264.071290 13.000000
265.079680 12.000000
267.067750 104.000000
267.092470 5.000000
268.071930 23.000000
269.087770 14.000000
269.101290 8.000000
270.685670 6.000000
271.072970 7.000000
272.091830 7.000000
273.085660 32.000000
273.098300 22.000000
274.055850 5.000000
274.097500 7.000000
275.091130 6.000000
275.104640 18.000000
276.078740 19.000000
277.088440 21.000000
285.051540 5.000000
285.089480 16.000000
287.070920 7.000000
287.101530 25.000000
288.077510 7.000000
289.084080 22.000000
289.102020 22.000000
290.095790 16.000000
291.088440 5.000000
291.112460 5.000000
292.110500 16.000000
293.085050 6.000000
293.126590 6.000000
297.093930 26.000000
297.106350 7.000000
298.101380 7.000000
300.073090 12.000000
301.078700 18.000000
301.101750 17.000000
302.092440 10.000000
303.118350 8.000000
303.449650 6.000000
307.091460 15.000000
308.087860 6.000000
308.107790 7.000000
313.085750 42.000000
314.097230 6.000000
315.087310 30.000000
315.104160 77.000000
316.105870 10.000000
316.126920 5.000000
317.083920 41.000000
317.099300 12.000000
317.140530 9.000000
319.101230 18.000000
320.097470 5.000000
325.073970 26.000000
325.092530 31.000000
326.081210 28.000000
326.617860 5.000000
327.076540 6.000000
327.093990 11.000000
328.112120 6.000000
329.069310 28.000000
329.085330 18.000000
329.097050 18.000000
330.080810 29.000000
330.096040 5.000000
331.088100 32.000000
331.103300 51.000000
331.122040 16.000000
332.065120 16.000000
332.101010 146.000000
332.122620 13.000000
333.061980 6.000000
333.099330 15.000000
333.106930 34.000000
333.120180 17.000000
334.111050 10.000000
334.127260 5.000000
343.082950 29.000000
343.097380 71.000000
344.101560 42.000000
345.081450 5.000000
345.111540 23.000000
345.133790 6.000000
346.103120 8.000000
346.458890 5.000000
347.083010 17.000000
347.093260 17.000000
347.106990 9.000000
348.045260 6.000000
348.090940 11.000000
349.086610 12.000000
349.106140 62.000000
349.119230 54.000000
350.106990 17.000000
350.124690 6.000000
360.102390 14.000000
361.104220 25.000000
361.119750 33.000000
362.108060 14.000000
362.126830 7.000000
363.147030 6.000000
367.135710 15.000000
371.138430 11.000000
374.114780 7.000000
376.101720 9.000000
385.973720 5.000000
391.132110 20.000000
391.141780 8.000000
392.132390 8.000000
397.105800 5.000000
401.108150 6.000000
409.160190 7.000000
438.149960 5.000000

>ms2
66.039920 8.000000
67.058150 7.000000
68.993760 23.000000
69.000790 9.000000
77.038620 9.000000
79.055000 10.000000
85.027540 10.000000
91.051730 7.000000
91.293870 6.000000
93.036060 9.000000
94.043790 8.000000
96.050180 7.000000
103.053210 14.000000
105.027150 6.000000
105.037410 9.000000
106.557150 6.000000
107.022160 9.000000
107.033140 10.000000
107.049200 1000.000000
108.049240 25.000000
108.053410 14.000000
108.430500 6.000000
109.030010 23.000000
110.498790 7.000000
115.043790 17.000000
115.051940 36.000000
115.057400 17.000000
116.056820 7.000000
117.068050 6.000000
119.041510 16.000000
119.046860 9.000000
119.055820 9.000000
120.057530 10.000000
121.031850 22.000000
122.067760 7.000000
123.036260 8.000000
123.042340 10.000000
123.049760 6.000000
127.053250 29.000000
127.314300 9.000000
128.060240 44.000000
128.071300 7.000000
130.073410 14.000000
131.040660 16.000000
131.049510 92.000000
131.084430 13.000000
132.578900 7.000000
133.023760 75.000000
133.034680 11.000000
133.059460 7.000000
135.044420 15.000000
137.020810 42.000000
139.029590 14.000000
139.052670 20.000000
141.068040 179.000000
142.072450 24.000000
142.081050 12.000000
143.047010 20.000000
143.073360 8.000000
143.080460 21.000000
145.065290 28.000000
147.041080 30.000000
147.051070 9.000000
147.079990 28.000000
148.051790 7.000000
151.056500 47.000000
152.055280 32.000000
152.063710 97.000000
153.040100 19.000000
153.051680 13.000000
153.069660 281.000000
154.069760 44.000000
155.049580 19.000000
155.073720 9.000000
155.081190 16.000000
156.058380 12.000000
156.657140 15.000000
157.059680 53.000000
157.069460 80.000000
158.060260 7.000000
165.068410 156.000000
165.081280 12.000000
166.073410 16.000000
167.037450 9.000000
167.053390 9.000000
167.080000 14.000000
167.098210 7.000000
168.053630 15.000000
168.061800 16.000000
169.015640 9.000000
169.045500 12.000000
169.063580 215.000000
169.079960 15.000000
170.067540 21.000000
171.023830 8.000000
171.035350 9.000000
171.047300 6.000000
171.064320 7.000000
171.072940 7.000000
171.084840 9.000000
171.982590 17.000000
172.041790 9.000000
173.068150 19.000000
174.062710 14.000000
174.071260 13.000000
174.090290 10.000000
176.042450 7.000000
179.047030 11.000000
179.082690 7.000000
180.333540 6.000000
181.037960 7.000000
181.049060 23.000000
181.064190 320.000000
182.042190 7.000000
182.063890 60.000000
182.072750 58.000000
183.073840 20.000000
183.085460 8.000000
184.039510 7.000000
184.054350 23.000000
185.047040 21.000000
185.055970 15.000000
185.071760 6.000000
187.075200 9.000000
189.007930 10.000000
189.062290 17.000000
190.080030 7.000000
191.085570 6.000000
191.093230 12.000000
193.002440 8.000000
193.048630 7.000000
193.061980 58.000000
194.067140 38.000000
194.363720 7.000000
195.075330 17.000000
195.084010 23.000000
197.058120 237.000000
197.088230 7.000000
197.962650 9.000000
198.061950 56.000000
198.949100 6.000000
199.070020 65.000000
199.078410 39.000000
200.075790 7.000000
201.049160 9.000000
201.061690 8.000000
202.071760 23.000000
202.081040 40.000000
203.079450 18.000000
204.091550 7.000000
205.056580 9.000000
205.066890 26.000000
206.069640 17.000000
207.071370 19.000000
207.084260 7.000000
208.049040 9.000000
208.085860 12.000000
209.058900 66.000000
209.084850 7.000000
210.069380 57.000000
211.064440 27.000000
211.077560 18.000000
211.095570 9.000000
213.039470 7.000000
213.055530 9.000000
214.079530 7.000000
215.064930 32.000000
215.079850 29.000000
215.092500 7.000000
216.076780 18.000000
216.092850 14.000000
217.072620 14.000000
217.279920 6.000000
218.067840 7.000000
219.078780 10.000000
219.086330 14.000000
219.102430 7.000000
220.077410 18.000000
220.090230 7.000000
220.097310 8.000000
221.053570 24.000000
221.082030 7.000000
221.986010 15.000000
222.062900 18.000000
222.074800 9.000000
222.082960 7.000000
222.105410 9.000000
223.060910 11.000000
223.075440 26.000000
223.085300 9.000000
223.915570 9.000000
224.005490 7.000000
224.062640 14.000000
225.036440 7.000000
225.055800 10.000000
225.085880 9.000000
226.059400 19.000000
226.071560 48.000000
226.083420 20.000000
227.034060 8.000000
227.066600 68.000000
227.084120 9.000000
227.131990 10.000000
228.075940 21.000000
228.089070 20.000000
228.651660 7.000000
229.086120 15.000000
229.097000 25.000000
231.070220 16.000000
231.089200 10.000000
231.100480 7.000000
232.077090 18.000000
232.083880 7.000000
233.059720 9.000000
233.995510 7.000000
234.061200 7.000000
234.080090 19.000000
235.083400 17.000000
236.033100 10.000000
237.054820 17.000000
237.066930 7.000000
238.063350 7.000000
239.067250 113.000000
239.084960 42.000000
240.056530 8.000000
240.072430 6.000000
240.083740 31.000000
240.100270 7.000000
241.037400 16.000000
241.052440 7.000000
241.065120 7.000000
241.075700 6.000000
241.104030 7.000000
242.078430 14.000000
243.086200 45.000000
244.086490 7.000000
244.097080 7.000000
245.094530 31.000000
246.075070 9.000000
246.108920 6.000000
247.079270 6.000000
249.050920 9.000000
249.095470 9.000000
250.043660 9.000000
250.063020 37.000000
251.078810 24.000000
252.061980 9.000000
252.073720 9.000000
252.089420 27.000000
252.106110 7.000000
253.040210 14.000000
253.060590 17.000000
253.077840 10.000000
253.094530 9.000000
254.058650 7.000000
255.054640 18.000000
255.064870 9.000000
255.078120 7.000000
255.101550 8.000000
256.084140 13.000000
257.092100 17.000000
257.108580 7.000000
258.063260 15.000000
258.087310 6.000000
258.107180 7.000000
259.062070 7.000000
259.074460 7.000000
259.094360 7.000000
261.096920 41.000000
262.064180 11.000000
264.074980 7.000000
264.084560 14.000000
267.079380 7.000000
268.079590 10.000000
268.094420 8.000000
269.083130 9.000000
269.097630 14.000000
271.083890 6.000000
272.064420 7.000000
273.080260 19.000000
273.094790 33.000000
276.074340 27.000000
279.082430 28.000000
280.092740 22.000000
282.078090 7.000000
282.108430 14.000000
284.066930 11.000000
284.089630 8.000000
285.080350 21.000000
285.097080 9.000000
286.097900 9.000000
286.114620 8.000000
287.073850 10.000000
287.101590 7.000000
288.075200 7.000000
288.091370 15.000000
288.106510 9.000000
288.117650 7.000000
289.078120 6.000000
289.092040 15.000000
291.096070 7.000000
297.083040 22.000000
297.094820 26.000000
298.096620 7.000000
300.080170 9.000000
301.055660 7.000000
301.083040 9.000000
301.090790 17.000000
302.100560 7.000000
304.082400 7.000000
307.083470 15.000000
308.080080 9.000000
309.077640 7.000000
310.098210 7.000000
313.073240 20.000000
313.084140 16.000000
313.105410 9.000000
314.075810 8.000000
314.093930 6.000000
315.105830 24.000000
315.114620 7.000000
316.106810 10.000000
317.094760 14.000000
318.092350 8.000000
323.893800 7.000000
325.082640 6.000000
326.104250 16.000000
329.083370 23.000000
330.103550 12.000000
331.093350 24.000000
331.112820 7.000000
332.079560 20.000000
336.110110 8.000000
342.097900 6.000000
343.091000 9.000000
345.071380 7.000000
347.088010 7.000000
347.115420 19.000000
347.439000 8.000000
355.126920 7.000000
356.108860 9.000000
356.120970 6.000000
361.123750 9.000000
369.087620 7.000000
371.098020 9.000000
373.129090 6.000000
376.095520 7.000000
383.089480 7.000000
389.095370 6.000000
430.226100 7.000000
438.789670 7.000000

>ms2
107.045670 32.000000
107.051120 115.000000
108.052450 12.000000
121.029430 6.000000
123.043660 22.000000
133.032090 9.000000
137.025710 16.000000
147.081100 6.000000
153.067860 11.000000
166.078000 7.000000
169.065700 20.000000
177.073070 5.000000
181.066910 20.000000
185.056950 10.000000
197.051420 9.000000
197.060410 34.000000
198.058410 9.000000
198.066670 7.000000
199.076580 141.000000
200.075000 13.000000
200.086440 5.000000
209.065550 6.000000
215.070860 198.000000
216.069610 14.000000
216.079060 16.000000
223.064970 6.000000
223.083250 10.000000
225.057210 6.000000
225.065190 5.000000
227.071430 71.000000
228.065670 6.000000
228.075670 17.000000
228.093690 7.000000
229.091430 7.000000
234.065230 6.000000
235.075670 6.000000
239.057530 11.000000
239.070040 54.000000
239.084090 6.000000
240.083040 13.000000
241.050600 16.000000
251.063060 10.000000
251.075320 24.000000
252.075850 17.000000
254.049550 5.000000
255.061400 36.000000
255.077930 8.000000
267.063320 9.000000
268.061130 8.000000
286.100250 6.000000
287.109190 7.000000
289.082820 7.000000
291.105620 9.000000
297.093440 8.000000
300.099760 7.000000
315.091670 9.000000
315.114410 10.000000
329.079380 6.000000
331.094120 24.000000
331.108150 8.000000
332.089900 13.000000
332.105380 8.000000
333.112950 13.000000
333.127900 6.000000
343.093350 44.000000
343.116670 9.000000
344.099120 7.000000
344.115720 16.000000
345.095550 5.000000
345.110930 9.000000
345.123200 7.000000
347.092930 10.000000
349.095150 40.000000
349.109650 112.000000
350.093750 9.000000
350.110690 33.000000
350.129240 7.000000
361.091950 22.000000
361.109070 76.000000
362.107090 25.000000
437.124110 13.000000
437.141050 20.000000
438.150480 7.000000
454.132630 20.000000
454.154540 5.000000
455.148800 1000.000000

>ms2
199.075880 6.000000
215.073300 9.000000
349.106690 31.000000
350.107540 5.000000
350.119750 5.000000
361.111570 7.000000
454.141690 23.000000
455.086300 7.000000
455.148770 1000.000000
455.211270 6.000000

>ms2
107.048900 1000.000000
108.052140 48.000000
108.571770 5.000000
109.049640 5.000000
109.060470 5.000000
111.044000 8.000000
118.574950 6.000000
119.049500 27.000000
120.052240 9.000000
121.001590 6.000000
121.024540 6.000000
121.032620 5.000000
121.055150 5.000000
121.069240 9.000000
123.020130 11.000000
123.041750 19.000000
123.046620 20.000000
124.046780 12.000000
126.255380 5.000000
133.027340 49.000000
133.032360 24.000000
134.028980 5.000000
137.023700 115.000000
138.027210 9.000000
141.071230 10.000000
143.088230 8.000000
145.063490 27.000000
147.069180 9.000000
147.080720 27.000000
153.029050 5.000000
153.065380 18.000000
154.068600 8.000000
157.063390 30.000000
158.026760 6.000000
158.074360 5.000000
159.086640 6.000000
165.064290 9.000000
169.062770 58.000000
171.048230 11.000000
171.079240 21.000000
171.088380 13.000000
172.050450 6.000000
173.060560 18.000000
175.034970 10.000000
177.067080 7.000000
181.019870 5.000000
181.040010 8.000000
181.064350 121.000000
182.069110 6.000000
182.079500 12.000000
183.082930 13.000000
184.051130 8.000000
185.054290 19.000000
187.075940 29.000000
187.090520 6.000000
196.444580 5.000000
197.037190 6.000000
197.059600 128.000000
197.079380 7.000000
198.065280 14.000000
199.052890 8.000000
199.075040 554.000000
199.922840 6.000000
200.046460 8.000000
200.077930 58.000000
206.074170 6.000000
209.005950 6.000000
209.062000 12.000000
211.066130 13.000000
211.075440 18.000000
213.050960 9.000000
213.104190 7.000000
215.037380 6.000000
215.048800 6.000000
215.070180 768.000000
216.065320 29.000000
216.075060 86.000000
216.123960 10.000000
217.075260 25.000000
219.077030 14.000000
222.063220 11.000000
222.072530 9.000000
223.076900 39.000000
225.053700 19.000000
225.061020 11.000000
226.066240 41.000000
227.071350 330.000000
228.073670 127.000000
229.072810 13.000000
229.087100 34.000000
229.099730 5.000000
231.103560 6.000000
233.052520 6.000000
233.090410 12.000000
233.104060 8.000000
234.067750 17.000000
234.076190 6.000000
235.077940 26.000000
237.047360 10.000000
238.060640 18.000000
238.096440 5.000000
239.038890 9.000000
239.069200 459.000000
240.068050 57.000000
240.079120 59.000000
241.050190 50.000000
241.089400 18.000000
242.058410 8.000000
243.065580 34.000000
243.087200 6.000000
245.088610 5.000000
245.098790 15.000000
247.089600 5.000000
247.419400 5.000000
249.052120 17.000000
249.062180 11.000000
251.060940 38.000000
251.069760 100.000000
252.075350 49.000000
254.052340 9.000000
255.054730 55.000000
255.067210 241.000000
256.065730 32.000000
256.077270 22.000000
256.760500 6.000000
257.071350 5.000000
257.103520 11.000000
260.082490 5.000000
261.094970 6.000000
262.096100 5.000000
263.065670 13.000000
265.057100 16.000000
265.075100 6.000000
265.097690 5.000000
267.064610 65.000000
268.061890 9.000000
269.037050 10.000000
269.074100 8.000000
271.072810 7.000000
272.098020 5.000000
273.086240 15.000000
275.088840 9.000000
275.102020 18.000000
277.077270 10.000000
277.093260 19.000000
280.680820 5.000000
285.079380 6.000000
285.105040 8.000000
287.073820 8.000000
287.108280 21.000000
289.054380 5.000000
289.073580 13.000000
289.080930 29.000000
291.090030 19.000000
291.102140 34.000000
292.098720 8.000000
297.055210 5.000000
297.083470 10.000000
297.097170 35.000000
298.077760 12.000000
299.078220 14.000000
299.111020 6.000000
300.072690 9.000000
301.086940 9.000000
301.103030 8.000000
303.096740 10.000000
303.109800 8.000000
304.113490 6.000000
305.066930 6.000000
306.100130 5.000000
307.073880 30.000000
307.092740 9.000000
313.082240 14.000000
314.089360 9.000000
315.076480 18.000000
315.096130 56.000000
315.113590 18.000000
316.087920 8.000000
316.100370 30.000000
316.123110 10.000000
317.086150 46.000000
317.105500 14.000000
317.113950 5.000000
317.803920 5.000000
318.074100 6.000000
318.110810 7.000000
319.078060 10.000000
319.095580 8.000000
325.089260 55.000000
325.108400 6.000000
326.093290 13.000000
327.094270 24.000000
329.012820 8.000000
329.050630 8.000000
329.076750 41.000000
329.089810 26.000000
329.102450 8.000000
330.082120 11.000000
331.090450 10.000000
331.107450 44.000000
332.106320 132.000000
332.129000 8.000000
333.080080 5.000000
333.102170 32.000000
333.115970 36.000000
334.077270 6.000000
334.110690 19.000000
335.113340 7.000000
335.136080 5.000000
339.094240 8.000000
343.094640 129.000000
343.113710 25.000000
344.102230 29.000000
344.112340 15.000000
345.110080 6.000000
345.128630 10.000000
346.131380 11.000000
347.078430 13.000000
347.094420 31.000000
348.105130 35.000000
349.098510 42.000000
349.109160 94.000000
350.108090 12.000000
350.121120 18.000000
359.070070 5.000000
361.100250 54.000000
362.114960 8.000000
363.078310 5.000000
366.124080 5.000000
391.135680 26.000000
419.132660 6.000000
421.140320 5.000000
421.577850 7.000000
438.132840 8.000000

>ms2
53.038560 7.000000
55.017540 6.000000
67.054230 15.000000
67.060780 10.000000
68.995950 8.000000
69.003640 8.000000
71.018210 10.000000
76.609120 9.000000
77.036170 15.000000
77.040870 52.000000
79.053460 6.000000
91.052090 40.000000
91.058380 27.000000
92.057400 8.000000
93.032950 10.000000
93.040140 7.000000
97.367120 7.000000
103.051840 18.000000
105.035650 64.000000
105.043420 20.000000
107.025080 12.000000
107.032030 11.000000
107.048820 1000.000000
107.074690 7.000000
107.235830 7.000000
107.414880 6.000000
108.051350 34.000000
108.742250 6.000000
109.014020 11.000000
109.027430 21.000000
109.588970 6.000000
114.046110 7.000000
115.053110 50.000000
115.827770 7.000000
116.063310 6.000000
116.420810 7.000000
117.070530 20.000000
119.047330 6.000000
119.083710 7.000000
121.064000 13.000000
122.037570 9.000000
123.043370 87.000000
124.045350 7.000000
127.045520 6.000000
127.054810 8.000000
127.061330 24.000000
128.038990 7.000000
128.061860 53.000000
129.069730 20.000000
130.068890 7.000000
131.048750 63.000000
132.054570 15.000000
133.027210 115.000000
133.065930 6.000000
134.033050 11.000000
134.042620 9.000000
134.060590 7.000000
137.025100 16.000000
138.030500 7.000000
138.507080 8.000000
139.052410 16.000000
141.070880 200.000000
143.037190 6.000000
143.051240 9.000000
143.072080 15.000000
143.085450 58.000000
144.047520 7.000000
144.059660 17.000000
144.069490 8.000000
144.091630 7.000000
145.065220 22.000000
146.940190 7.000000
147.039380 11.000000
147.045680 37.000000
147.058580 6.000000
148.056140 6.000000
151.041400 6.000000
151.048920 7.000000
151.057400 18.000000
152.047620 29.000000
152.064560 134.000000
153.068650 323.000000
154.063950 7.000000
154.082900 8.000000
154.353230 6.000000
155.079510 15.000000
157.044970 7.000000
157.066820 93.000000
158.067980 6.000000
159.048950 7.000000
159.077550 17.000000
159.090530 7.000000
160.083150 7.000000
161.419170 6.000000
163.035200 7.000000
164.061020 6.000000
165.069660 174.000000
166.070940 8.000000
166.079800 21.000000
166.275740 10.000000
167.046710 6.000000
167.085910 15.000000
167.094210 7.000000
168.053160 26.000000
168.063710 13.000000
168.087550 8.000000
169.036030 7.000000
169.064880 136.000000
170.040620 9.000000
170.063450 16.000000
170.071910 66.000000
171.045260 6.000000
171.054200 6.000000
171.068500 28.000000
171.079150 68.000000
172.051760 7.000000
173.053880 19.000000
173.064420 7.000000
173.938710 9.000000
176.078610 7.000000
177.069050 28.000000
177.078460 6.000000
179.077360 8.000000
179.084410 14.000000
180.082180 8.000000
181.033520 9.000000
181.064190 486.000000
182.053380 6.000000
182.070400 123.000000
183.048680 7.000000
183.079480 22.000000
183.087430 8.000000
184.044360 10.000000
184.053190 28.000000
184.064730 9.000000
184.087620 8.000000
185.052840 6.000000
185.063950 7.000000
186.062730 27.000000
187.076000 35.000000
189.066090 12.000000
189.073900 11.000000
190.078540 9.000000
191.074720 6.000000
193.049410 6.000000
193.068120 32.000000
194.061980 7.000000
194.076400 9.000000
194.087390 10.000000
195.026020 6.000000
195.041350 6.000000
195.079860 44.000000
195.946330 10.000000
196.076030 30.000000
196.086430 6.000000
197.059740 255.000000
198.050430 6.000000
198.067020 80.000000
199.042420 6.000000
199.071550 102.000000
200.076580 41.000000
201.073470 7.000000
202.067780 7.000000
202.082810 21.000000
203.078450 6.000000
203.088870 16.000000
204.057420 6.000000
205.051320 7.000000
205.065440 29.000000
206.052980 13.000000
206.073790 30.000000
206.107760 6.000000
207.065810 6.000000
207.078480 7.000000
208.060180 8.000000
209.060940 35.000000
209.107880 7.000000
210.066600 50.000000
211.075650 65.000000
212.078740 7.000000
212.085650 7.000000
213.051970 27.000000
214.051680 11.000000
214.062300 6.000000
215.071550 56.000000
215.093810 32.000000
216.073100 7.000000
216.087100 15.000000
216.100020 8.000000
216.260480 8.000000
217.096590 7.000000
217.105640 7.000000
217.894320 6.000000
218.065050 8.000000
218.074490 7.000000
219.079120 7.000000
219.091380 6.000000
219.388110 6.000000
221.060940 42.000000
221.072040 10.000000
222.063750 6.000000
223.074540 48.000000
223.088970 5.000000
224.074540 12.000000
224.089950 6.000000
225.051770 15.000000
225.063670 13.000000
226.027210 8.000000
226.066300 8.000000
226.080460 28.000000
227.061920 19.000000
227.070500 78.000000
228.076100 12.000000
228.089450 26.000000
229.067950 7.000000
230.032960 10.000000
230.074370 23.000000
231.075560 12.000000
231.087130 42.000000
231.150500 6.000000
232.072130 8.000000
232.083650 24.000000
232.156080 7.000000
233.063870 12.000000
233.083130 8.000000
233.101670 7.000000
233.752120 6.000000
234.049450 7.000000
234.093000 10.000000
235.076750 9.000000
235.136990 6.000000
236.084260 20.000000
237.036540 7.000000
237.060590 6.000000
237.098400 6.000000
238.051680 7.000000
238.070690 10.000000
239.035520 9.000000
239.058240 48.000000
239.077300 135.000000
239.092480 7.000000
239.689180 6.000000
240.078740 33.000000
240.096370 20.000000
241.038710 20.000000
241.056090 28.000000
241.066820 13.000000
241.085910 7.000000
241.098620 9.000000
242.030410 6.000000
242.059480 8.000000
242.071990 7.000000
242.106950 9.000000
243.064090 13.000000
243.083390 28.000000
244.089920 62.000000
245.061330 6.000000
245.089970 6.000000
245.096470 15.000000
245.109220 10.000000
246.061420 6.000000
246.093720 6.000000
246.106630 7.000000
247.070680 47.000000
247.081990 44.000000
250.059460 9.000000
250.071120 7.000000
250.079300 10.000000
251.039490 6.000000
251.074310 10.000000
252.073260 34.000000
252.094330 29.000000
253.037320 6.000000
253.051010 13.000000
253.074220 12.000000
253.095140 6.000000
255.061840 41.000000
255.076280 19.000000
255.088620 20.000000
256.077120 13.000000
256.090000 6.000000
256.103360 8.000000
257.092860 12.000000
257.106170 10.000000
258.061370 8.000000
258.078160 8.000000
258.970790 6.000000
259.101650 14.000000
261.069980 9.000000
261.078920 8.000000
261.096280 22.000000
262.097810 6.000000
263.066380 18.000000
264.076020 7.000000
264.096160 6.000000
265.090270 6.000000
266.065160 9.000000
267.077300 7.000000
267.086850 6.000000
268.068150 11.000000
268.083980 6.000000
268.104100 10.000000
269.097350 30.000000
270.102200 15.000000
271.044890 6.000000
271.083860 29.000000
272.081150 34.000000
272.090970 12.000000
272.442440 7.000000
273.080140 8.000000
273.099330 27.000000
274.056640 10.000000
274.105650 7.000000
276.081390 14.000000
277.074680 6.000000
277.541230 7.000000
279.056090 9.000000
279.091250 6.000000
279.228880 6.000000
280.083280 27.000000
280.128020 8.000000
281.111050 6.000000
284.083980 6.000000
284.097600 7.000000
285.084900 6.000000
285.609560 6.000000
287.043790 6.000000
287.063900 6.000000
287.087370 14.000000
287.102750 7.000000
288.057250 7.000000
288.098970 7.000000
289.083190 21.000000
290.092500 7.000000
292.080080 6.000000
293.094300 11.000000
295.082120 19.000000
296.097990 9.000000
297.080140 7.000000
297.101780 7.000000
298.094570 35.000000
299.062290 10.000000
299.071780 6.000000
299.108250 8.000000
300.074770 17.000000
301.079350 15.000000
303.072110 7.000000
303.117310 7.000000
306.067930 7.000000
308.078830 6.000000
309.099330 6.000000
311.077940 6.000000
311.141660 12.000000
313.079130 37.000000
313.096010 24.000000
314.076350 23.000000
314.118620 7.000000
315.101930 66.000000
316.073610 6.000000
316.111050 7.000000
317.086850 6.000000
318.093410 26.000000
319.095280 6.000000
319.109920 6.000000
323.101010 20.000000
323.116730 13.000000
324.124450 8.000000
325.072300 7.000000
326.061220 6.000000
327.105100 8.000000
327.127810 7.000000
328.094730 7.000000
329.095830 8.000000
330.087430 6.000000
330.098450 6.000000
331.107330 45.000000
332.098330 7.000000
332.109500 15.000000
333.141330 7.000000
334.094850 13.000000
334.129940 8.000000
343.121980 6.000000
344.129580 9.000000
347.090300 7.000000
347.109990 7.000000
353.120970 6.000000
358.111570 7.000000
365.113130 6.000000
372.108610 14.000000
372.120300 10.000000
373.126370 7.000000
383.110080 6.000000
399.805360 6.000000
419.778410 27.000000

>ms2
107.049190 128.000000
108.050180 8.000000
123.043340 8.000000
133.025850 30.000000
137.021800 14.000000
141.067060 6.000000
153.069270 7.000000
169.063600 15.000000
171.077380 6.000000
181.060420 14.000000
182.063670 5.000000
187.078840 9.000000
197.061650 18.000000
198.060410 10.000000
199.075960 101.000000
200.072510 7.000000
209.067140 5.000000
211.071120 11.000000
212.075040 5.000000
213.055790 5.000000
215.051390 8.000000
215.070430 189.000000
216.074360 33.000000
226.059600 8.000000
227.068590 45.000000
228.073840 6.000000
228.081210 7.000000
239.072280 87.000000
240.074830 22.000000
241.047620 19.000000
243.066450 5.000000
247.071530 5.000000
251.056530 7.000000
251.072070 57.000000
252.078430 8.000000
253.053960 6.000000
255.061580 51.000000
267.066190 12.000000
285.102600 5.000000
297.088440 8.000000
313.075290 6.000000
319.103700 5.000000
320.105710 6.000000
329.087130 7.000000
331.094510 25.000000
332.098420 30.000000
334.088290 5.000000
343.092900 46.000000
344.087650 10.000000
345.106140 26.000000
345.122890 14.000000
347.093540 24.000000
348.104340 11.000000
349.103550 154.000000
350.102170 28.000000
350.117070 26.000000
361.105260 90.000000
362.101350 7.000000
362.116300 8.000000
437.129550 13.000000
437.143920 19.000000
438.136630 10.000000
454.136780 10.000000
454.154270 7.000000
455.146330 1000.000000

>ms2
349.095000 5.000000
349.111420 19.000000
350.114560 10.000000
361.105620 8.000000
454.139620 14.000000
455.150330 1000.000000

>ms2
68.984050 7.000000
69.747890 5.000000
74.939450 15.000000
91.296130 6.000000
106.322750 11.000000
107.048990 1000.000000
108.042950 7.000000
108.052960 29.000000
109.025810 6.000000
109.035610 12.000000
111.297520 6.000000
119.051030 27.000000
120.053390 11.000000
121.028270 27.000000
121.061260 7.000000
123.043810 52.000000
127.401740 6.000000
128.056930 5.000000
131.045170 6.000000
131.054340 6.000000
132.058330 6.000000
133.023540 31.000000
133.031130 74.000000
134.080310 7.000000
137.011900 12.000000
137.023380 92.000000
142.569120 5.000000
144.048610 6.000000
144.078400 6.000000
144.090180 7.000000
145.060360 6.000000
145.067280 7.000000
146.068980 5.000000
147.043240 12.000000
147.070630 6.000000
147.078080 13.000000
148.054290 5.000000
153.066800 7.000000
153.588410 7.000000
155.088960 8.000000
157.065730 40.000000
159.037630 6.000000
159.081890 22.000000
166.081500 6.000000
169.066620 38.000000
170.063460 21.000000
171.079240 41.000000
173.066830 7.000000
173.450070 5.000000
174.066600 6.000000
175.035930 8.000000
181.064220 56.000000
183.075700 13.000000
183.889140 7.000000
185.037800 7.000000
185.062970 16.000000
187.063570 15.000000
187.073270 12.000000
187.080200 9.000000
188.075230 12.000000
189.060790 6.000000
195.078750 29.000000
195.091510 5.000000
197.049500 31.000000
197.062500 184.000000
198.062930 41.000000
199.075230 441.000000
200.064540 8.000000
200.076870 29.000000
201.057660 5.000000
202.083110 7.000000
205.008640 11.000000
205.056850 6.000000
205.070010 5.000000
207.079150 10.000000
209.052150 22.000000
209.063510 28.000000
210.043470 9.000000
210.062960 16.000000
210.076720 9.000000
211.034770 7.000000
211.072480 25.000000
211.083450 41.000000
211.371200 6.000000
213.047090 20.000000
213.059360 13.000000
213.084380 6.000000
215.039370 6.000000
215.070790 778.000000
215.199340 12.000000
216.070850 63.000000
216.080670 40.000000
217.042430 5.000000
217.070160 10.000000
221.058270 5.000000
221.095570 5.000000
222.066540 7.000000
223.076340 43.000000
224.063020 6.000000
224.086140 6.000000
225.041960 6.000000
225.058430 15.000000
226.055440 10.000000
226.067180 11.000000
227.070080 322.000000
228.068620 48.000000
228.076400 60.000000
228.089430 15.000000
229.058580 7.000000
229.086840 13.000000
230.078990 11.000000
231.066020 11.000000
231.076390 6.000000
233.071380 11.000000
234.060640 7.000000
234.075240 6.000000
238.056370 25.000000
238.072080 5.000000
239.046250 19.000000
239.068700 422.000000
239.079380 94.000000
239.100430 7.000000
240.050140 6.000000
240.075680 80.000000
241.050600 69.000000
241.073460 6.000000
241.108990 11.000000
242.052440 5.000000
243.069140 21.000000
243.191300 5.000000
244.088240 7.000000
244.882370 6.000000
245.086380 5.000000
246.114230 8.000000
247.079670 11.000000
247.106580 6.000000
247.118130 14.000000
249.054570 24.000000
250.039180 6.000000
250.057720 43.000000
250.111050 5.000000
251.062740 37.000000
251.072190 134.000000
252.073170 53.000000
252.086580 15.000000
252.760890 7.000000
253.037640 5.000000
253.056490 18.000000
254.059300 12.000000
255.059950 167.000000
255.082900 18.000000
256.052640 6.000000
256.074490 37.000000
256.087130 6.000000
257.070560 5.000000
257.104860 6.000000
259.111790 7.000000
260.080540 13.000000
261.081820 5.000000
262.094880 6.000000
263.109380 6.000000
265.083190 17.000000
267.064640 108.000000
268.069490 8.000000
269.097350 19.000000
270.084630 5.000000
271.078310 9.000000
272.068940 9.000000
273.106600 12.000000
274.094540 5.000000
275.102390 16.000000
276.107210 6.000000
277.080750 20.000000
278.080200 7.000000
279.079440 7.000000
279.093480 6.000000
281.090390 5.000000
283.071840 5.000000
283.084690 7.000000
285.078400 6.000000
287.094360 7.000000
287.113830 25.000000
288.072050 5.000000
289.044460 5.000000
289.075560 12.000000
289.088200 64.000000
290.099330 6.000000
291.092530 5.000000
291.105960 27.000000
292.051790 5.000000
292.084170 7.000000
292.114900 5.000000
293.077850 8.000000
293.105100 9.000000
295.692230 6.000000
296.083470 8.000000
297.088530 49.000000
298.086060 12.000000
299.063780 6.000000
299.085910 6.000000
299.110810 27.000000
300.071720 19.000000
301.084560 46.000000
301.107150 7.000000
303.078520 5.000000
304.067930 5.000000
304.130070 6.000000
305.079680 5.000000
305.089290 5.000000
308.092130 11.000000
309.101720 6.000000
310.092410 6.000000
313.074370 9.000000
313.087400 16.000000
313.112300 6.000000
314.097320 5.000000
315.093990 24.000000
315.107420 62.000000
316.030270 6.000000
316.055940 11.000000
316.098940 33.000000
317.057500 5.000000
317.076570 10.000000
317.088260 7.000000
317.111720 15.000000
318.066130 12.000000
318.095060 19.000000
319.097440 11.000000
321.100430 7.000000
325.091310 93.000000
326.010010 5.000000
326.082890 15.000000
326.098020 15.000000
326.111390 7.000000
327.105900 25.000000
329.077940 25.000000
329.090180 51.000000
330.083560 26.000000
330.106350 6.000000
331.083190 25.000000
331.097960 31.000000
332.092320 46.000000
332.109740 118.000000
333.085050 10.000000
333.117650 61.000000
334.084380 18.000000
334.120570 17.000000
335.080170 6.000000
336.127200 6.000000
338.149110 6.000000
343.092070 105.000000
343.115420 11.000000
343.576420 9.000000
344.098210 25.000000
344.109250 20.000000
345.098660 8.000000
345.109280 11.000000
346.098140 10.000000
346.111210 12.000000
347.073760 7.000000
347.088620 30.000000
347.104430 9.000000
348.077700 8.000000
348.101170 22.000000
348.117980 18.000000
349.097780 29.000000
349.116000 50.000000
349.150120 5.000000
350.109890 45.000000
352.127960 10.000000
355.140410 5.000000
359.586360 6.000000
360.094850 7.000000
360.109280 12.000000
361.092560 9.000000
361.110900 41.000000
362.106290 21.000000
362.122770 18.000000
363.107670 5.000000
366.120730 14.000000
367.136440 10.000000
372.099730 5.000000
378.106320 6.000000
391.116240 5.000000
392.131960 13.000000
392.148740 7.000000
395.127010 7.000000
395.138920 6.000000
402.052250 5.000000
409.126920 6.000000
418.147370 7.000000
420.132350 15.000000
420.142700 5.000000
438.154050 7.000000

>ms2
56.541860 11.000000
56.605220 8.000000
65.032910 9.000000
68.960470 9.000000
68.995770 8.000000
69.000770 9.000000
73.404970 8.000000
77.034530 23.000000
77.040520 14.000000
79.052810 21.000000
81.019710 12.000000
91.050290 15.000000
91.282370 8.000000
93.038540 8.000000
93.072750 9.000000
94.044000 11.000000
105.027260 19.000000
107.022610 8.000000
107.033300 23.000000
107.048610 1000.000000
107.219500 8.000000
107.983630 8.000000
108.049480 27.000000
108.056720 47.000000
108.908640 8.000000
109.050590 17.000000
115.052220 15.000000
117.068810 8.000000
119.046740 16.000000
119.052440 30.000000
120.049290 9.000000
120.078660 8.000000
121.027080 74.000000
123.004410 8.000000
123.041580 29.000000
123.049930 9.000000
126.039300 8.000000
127.053340 30.000000
128.054410 38.000000
128.064410 8.000000
129.069020 8.000000
131.046340 15.000000
131.057800 9.000000
132.094420 10.000000
133.024020 22.000000
133.030290 25.000000
133.052000 8.000000
133.124650 11.000000
134.029130 12.000000
137.022580 28.000000
137.031400 7.000000
139.486720 8.000000
140.052280 8.000000
141.061230 23.000000
141.071960 137.000000
142.067000 22.000000
142.076640 13.000000
143.090590 9.000000
144.055730 11.000000
144.061750 8.000000
145.061390 21.000000
147.040590 19.000000
147.079880 23.000000
148.048170 10.000000
151.042690 11.000000
151.058650 33.000000
152.031010 12.000000
152.058670 65.000000
152.066500 61.000000
153.068630 201.000000
154.067520 13.000000
154.077130 15.000000
155.041290 9.000000
155.053340 19.000000
155.081590 16.000000
157.043320 11.000000
157.063450 107.000000
158.067670 20.000000
159.040240 8.000000
159.082370 8.000000
160.053910 9.000000
165.052690 10.000000
165.068220 69.000000
166.063710 9.000000
166.071670 17.000000
167.080550 9.000000
168.057280 48.000000
169.011800 9.000000
169.046510 15.000000
169.065050 187.000000
170.061570 12.000000
171.045490 52.000000
171.082030 24.000000
172.056120 8.000000
175.069260 9.000000
176.064470 31.000000
177.064360 32.000000
177.078020 8.000000
178.016720 10.000000
179.077940 19.000000
180.052320 12.000000
181.065890 294.000000
181.082980 12.000000
182.059590 13.000000
182.071730 95.000000
182.084870 11.000000
183.074630 46.000000
183.082950 35.000000
184.040740 9.000000
184.054000 52.000000
185.062290 29.000000
187.066670 26.000000
187.072430 10.000000
190.077840 19.000000
191.531560 9.000000
193.053800 16.000000
195.044310 8.000000
195.073350 33.000000
195.085820 23.000000
196.073790 19.000000
197.045150 13.000000
197.060520 227.000000
197.086910 19.000000
198.050770 9.000000
198.066860 17.000000
199.064590 27.000000
199.075870 84.000000
200.065230 11.000000
200.082790 33.000000
201.071010 11.000000
201.079090 14.000000
202.070270 12.000000
202.078520 20.000000
203.080920 20.000000
204.094040 13.000000
205.054490 17.000000
205.074510 8.000000
207.075810 21.000000
208.086470 9.000000
209.046970 11.000000
209.058620 19.000000
209.067600 8.000000
210.067630 46.000000
211.056790 10.000000
211.072130 15.000000
211.468510 10.000000
212.079130 24.000000
213.049030 21.000000
213.058170 19.000000
214.052570 8.000000
214.061770 10.000000
215.064330 17.000000
215.084380 26.000000
216.080230 11.000000
217.093400 9.000000
217.102330 11.000000
218.072220 23.000000
218.080320 18.000000
218.813550 11.000000
219.072050 32.000000
220.050460 9.000000
220.090550 8.000000
221.056820 19.000000
221.068970 23.000000
222.060120 11.000000
223.033770 8.000000
223.068830 53.000000
224.086360 9.000000
225.050610 9.000000
225.092060 10.000000
226.062000 36.000000
226.076930 77.000000
227.039730 8.000000
227.071730 76.000000
227.092000 11.000000
227.156680 8.000000
228.098530 8.000000
229.093920 8.000000
230.093990 8.000000
231.085480 30.000000
232.105700 11.000000
232.845540 9.000000
233.044950 8.000000
233.096450 15.000000
234.058820 12.000000
234.067610 11.000000
235.067600 8.000000
235.081740 26.000000
236.086850 12.000000
237.048140 8.000000
237.056960 32.000000
237.091510 9.000000
238.060620 9.000000
238.079570 8.000000
238.096250 8.000000
238.433240 8.000000
239.067960 98.000000
239.082610 61.000000
240.080800 79.000000
240.096890 11.000000
240.110810 11.000000
241.043960 8.000000
241.083210 16.000000
241.115780 11.000000
242.061710 14.000000
242.091290 8.000000
242.203510 11.000000
243.078140 12.000000
243.114260 18.000000
244.089250 28.000000
245.095110 62.000000
246.099460 10.000000
247.076400 10.000000
247.103030 8.000000
248.076370 11.000000
249.043990 9.000000
249.096440 9.000000
250.065090 46.000000
250.195360 9.000000
251.064070 10.000000
251.078050 17.000000
252.093660 17.000000
253.097030 18.000000
255.070590 28.000000
255.087100 17.000000
256.065310 11.000000
257.089140 16.000000
257.803990 8.000000
258.087680 8.000000
258.343110 8.000000
259.112340 27.000000
260.084780 32.000000
260.113070 8.000000
261.089510 27.000000
264.064450 8.000000
266.104370 8.000000
267.071010 19.000000
268.089660 31.000000
269.096860 8.000000
269.117920 8.000000
270.098300 8.000000
270.112520 11.000000
271.081020 8.000000
272.081240 17.000000
272.096370 8.000000
273.086180 9.000000
273.099370 9.000000
273.407440 12.000000
274.063390 19.000000
274.092190 17.000000
274.739750 8.000000
276.076900 20.000000
277.074830 12.000000
279.068390 9.000000
279.095950 19.000000
281.096560 9.000000
281.103640 16.000000
282.072660 9.000000
282.101840 9.000000
282.854310 9.000000
283.054020 16.000000
284.081570 15.000000
285.088260 19.000000
286.031400 14.000000
287.119540 10.000000
288.087860 8.000000
288.115570 8.000000
289.093290 16.000000
289.106350 10.000000
290.081540 8.000000
290.092680 15.000000
295.079440 8.000000
297.058620 9.000000
297.073580 56.000000
297.093660 34.000000
298.082210 9.000000
299.094210 9.000000
300.083040 19.000000
301.082180 16.000000
302.074280 8.000000
302.109070 8.000000
303.106750 8.000000
305.067380 13.000000
307.066770 8.000000
311.077000 11.000000
313.083470 57.000000
313.100100 13.000000
314.091550 8.000000
315.094910 32.000000
315.113340 9.000000
324.039550 11.000000
324.079560 12.000000
325.086580 8.000000
329.063110 13.000000
329.088230 16.000000
331.080080 21.000000
331.715180 11.000000
333.933470 8.000000
337.123050 11.000000
342.099760 15.000000
346.108830 12.000000
347.093960 19.000000
348.089390 8.000000
349.109440 12.000000
357.853820 8.000000
371.114690 22.000000
371.144230 8.000000
372.108220 11.000000

