>compound PR25582500
>parentmass 593.1864820307691
>ionization [M+H]+
>formula C28H32O14
>rt 315.476326
>profile qtof
#smiles_iso C[C@H]1[C@@H]([C@H]([C@H]([C@@H](O1)O[C@@H]2[C@H]([C@@H]([C@H](O[C@H]2OC3=CC(=C4C(=C3)OC(=CC4=O)C5=CC=C(C=C5)OC)O)CO)O)O)O)O)O
#smiles_can CC1C(C(C(C(O1)OC2C(C(C(OC2OC3=CC(=C4C(=C3)OC(=CC4=O)C5=CC=C(C=C5)OC)O)CO)O)O)O)O)O
#inchikey MLWDGPFGTFOLRJ-CUVHLRMHSA-N
#pubchem_id 5317385
#mb_accession PR302696,PR302701,PR302706,PR302711,PR302716,PR302721,PR302726,PR302731,PR302736,PR302741,PR302746,PR302751,PR310480

>ms2peaks
270.050780 8.000000
285.075620 1000.000000
285.124510 12.000000
286.030910 6.000000
286.078800 183.000000
287.081850 34.000000
447.129270 13.000000
593.127690 6.000000
593.188350 297.000000

>ms2peaks
285.075560 155.000000
286.078120 17.000000
286.093170 6.000000
287.083010 6.000000
447.130250 9.000000
593.089360 7.000000
593.109130 10.000000
593.133060 13.000000
593.187190 1000.000000

>ms2peaks
285.022000 10.000000
285.075900 1000.000000
285.123660 10.000000
286.078740 175.000000
287.083400 27.000000

>ms2peaks
133.063800 6.000000
153.009510 5.000000
153.018920 13.000000
242.057500 146.000000
243.061830 36.000000
244.064510 6.000000
270.051640 186.000000
271.047390 12.000000
271.060210 20.000000
285.030400 8.000000
285.047580 8.000000
285.075990 1000.000000
286.080110 188.000000
287.081880 30.000000

>ms2peaks
270.057040 6.000000
285.035000 9.000000
285.076140 1000.000000
285.125580 11.000000
286.079770 174.000000
287.081050 17.000000
287.091090 10.000000
447.128540 11.000000
593.123290 7.000000
593.186100 308.000000

>ms2peaks
285.074490 163.000000
286.074550 8.000000
286.085210 13.000000
447.128780 17.000000
593.120790 24.000000
593.187130 1000.000000

>ms2peaks
285.018710 5.000000
285.074710 1000.000000
285.121920 11.000000
286.077940 184.000000
287.078400 26.000000

>ms2peaks
133.064320 18.000000
153.017730 20.000000
242.024610 8.000000
242.057860 148.000000
243.059230 11.000000
243.071090 6.000000
270.051790 203.000000
271.057800 35.000000
285.038330 12.000000
285.075530 1000.000000
286.080720 163.000000
287.083370 18.000000

>ms2peaks
270.043580 12.000000
285.074340 1000.000000
285.122530 10.000000
286.077550 195.000000
287.067750 9.000000
287.081510 26.000000
447.119600 8.000000
447.137120 11.000000
593.188350 342.000000

>ms2peaks
285.075560 154.000000
286.077060 21.000000
447.127660 12.000000
593.097170 7.000000
593.127500 22.000000
593.187320 1000.000000

>ms2peaks
285.036350 12.000000
285.075810 1000.000000
285.123750 14.000000
286.078340 174.000000
287.083770 28.000000

>ms2peaks
153.012190 6.000000
153.018490 15.000000
242.057890 143.000000
243.060900 27.000000
270.052370 211.000000
271.055820 28.000000
272.058720 9.000000
285.032620 14.000000
285.076630 1000.000000
286.079620 182.000000
287.072940 12.000000
287.085330 10.000000
593.183840 20.000000

>ms2peaks
57.652730 18.000000
57.676920 23.000000
57.689680 17.000000
57.914630 25.000000
57.961890 17.000000
61.646720 23.000000
70.269200 20.000000
81.547650 25.000000
85.026220 49.000000
87.551650 17.000000
87.699220 25.000000
103.032940 27.000000
129.050230 22.000000
147.068730 30.000000
153.017330 44.000000
156.391890 17.000000
176.705540 17.000000
181.715470 29.000000
189.154860 20.000000
195.562650 33.000000
225.934010 33.000000
230.897280 17.000000
242.056150 20.000000
242.070600 29.000000
243.074280 22.000000
244.058720 24.000000
244.077900 21.000000
261.726840 23.000000
270.050780 262.000000
270.062900 125.000000
271.055910 27.000000
282.468230 17.000000
284.732030 20.000000
284.818570 17.000000
284.894840 27.000000
284.994540 20.000000
285.024080 125.000000
285.035830 120.000000
285.075620 30925.000000
285.124510 379.000000
285.202000 21.000000
285.283140 24.000000
285.540710 17.000000
285.583130 18.000000
286.030910 172.000000
286.078800 5654.000000
286.502960 19.000000
286.561830 17.000000
286.644810 21.000000
287.081850 1042.000000
287.327700 22.000000
288.077270 25.000000
288.095090 49.000000
288.157990 22.000000
288.967070 17.000000
289.085420 50.000000
290.669740 44.000000
292.068420 28.000000
293.525880 20.000000
293.575680 18.000000
298.115970 18.000000
303.567750 20.000000
319.948430 18.000000
327.085300 113.000000
327.102330 17.000000
333.276090 20.000000
349.507480 24.000000
351.078640 27.000000
352.272340 53.000000
398.657500 22.000000
404.715030 35.000000
411.382260 29.000000
417.011960 43.000000
419.841190 31.000000
425.713470 18.000000
430.934940 21.000000
431.063690 42.000000
431.148590 37.000000
432.138920 22.000000
432.537960 18.000000
447.092440 25.000000
447.129270 390.000000
448.107090 23.000000
448.127110 24.000000
448.144870 67.000000
468.009980 27.000000
480.450710 20.000000
509.883820 17.000000
575.150150 20.000000
582.660030 20.000000
592.575560 18.000000
592.680420 20.000000
592.989690 20.000000
593.084900 45.000000
593.127690 174.000000
593.188350 9174.000000
593.246950 55.000000

