>compound PR25061756
>parentmass 599.196
>ionization [M+H]+
>formula C27H34O15
>rt 240.600000
>profile qtof
#smiles_iso C1=CC(=CC=C1CCC(=O)C2=C(C(=C(C(=C2O)C3C(C(C(C(O3)CO)O)O)O)O)C4C(C(C(C(O4)CO)O)O)O)O)O
#smiles_can C1=CC(=CC=C1CCC(=O)C2=C(C(=C(C(=C2O)C3C(C(C(C(O3)CO)O)O)O)O)C4C(C(C(C(O4)CO)O)O)O)O)O
#inchikey WAWHTTXPRUWFCZ-UHFFFAOYSA-N
#pubchem_id 74819290
#mb_accession PR311096

>ms2
149.063510 23.000000
175.034440 20.000000
181.051760 45.000000
217.043090 20.000000
224.058440 20.000000
235.061110 58.000000
239.065290 19.000000
259.116820 22.000000
287.080470 27.000000
291.031490 18.000000
291.046230 20.000000
302.057280 23.000000
303.721250 17.000000
305.057370 18.000000
311.064670 24.000000
317.098140 33.000000
353.094850 17.000000
383.118740 43.000000
395.115630 43.000000
399.667140 28.000000
407.110200 45.000000
413.101960 19.000000
414.134950 20.000000
419.112700 17.000000
419.126950 29.000000
420.103520 18.000000
429.118320 18.000000
431.103210 20.000000
431.119050 18.000000
432.065340 25.000000
432.114620 17.000000
443.140140 21.000000
461.158390 35.000000
462.139280 21.000000
479.129490 20.000000
479.157530 46.000000
479.172270 17.000000
480.129240 24.000000
491.135100 46.000000
491.152100 24.000000
515.151490 19.000000
515.174560 17.000000
527.143190 31.000000
563.184570 184.000000
564.161500 35.000000
581.179810 57.000000
599.187810 136.000000

