>compound PR25605654
>parentmass 316.28535
>ionization [M+H]+
>formula C18H37NO3
>rt 446.700000
>profile qtof
#smiles_iso CCCCCCCCCC=CCCCC(C(C(CO)N)O)O
#smiles_can CCCCCCCCCC=CCCCC(C(C(CO)N)O)O
#inchikey CQKNELOTFUSOTP-UHFFFAOYSA-N
#pubchem_id 25203815
#mb_accession PR310829,PR310830

>ms2peaks
53.441070 53.000000
58.443890 22.000000
60.037400 31.000000
60.042080 58.000000
60.048340 36.000000
67.054000 28.000000
68.051280 17.000000
83.086720 26.000000
90.054820 20.000000
94.063670 20.000000
94.071710 17.000000
97.101420 22.000000
109.099300 16.000000
110.108320 17.000000
124.011470 21.000000
140.100010 17.000000
154.165330 37.000000
183.014530 24.000000
193.197270 18.000000
212.233120 103.000000
213.241090 19.000000
236.226590 35.000000
237.237170 17.000000
242.246400 45.000000
242.252900 19.000000
250.235750 16.000000
250.254970 159.000000
252.254490 29.000000
254.261700 18.000000
262.257690 22.000000
263.239040 16.000000
269.243900 20.000000
280.238400 16.000000
280.266270 79.000000
281.284030 17.000000
283.432430 23.000000
298.246580 35.000000
298.277890 160.000000
298.292910 51.000000
299.248110 22.000000
299.275850 17.000000
299.291840 20.000000
316.217710 23.000000
316.257570 41.000000
316.285860 5098.000000
316.342320 32.000000

>ms2peaks
60.043900 24.000000
110.101940 27.000000
121.101090 17.000000
126.089680 19.000000
280.263370 18.000000
298.273410 18.000000
298.281280 33.000000
299.176330 23.000000
316.242100 20.000000
316.288330 183.000000

