>compound PR25352111
>parentmass 449.1078379
>ionization [M+H]+
>formula C21H20O11
>rt 261.970980
>profile qtof
#smiles_iso C[C@H]1[C@@H]([C@H]([C@H]([C@@H](O1)OC2=C(OC3=CC(=CC(=C3C2=O)O)O)C4=CC(=C(C=C4)O)O)O)O)O
#smiles_can CC1C(C(C(C(O1)OC2=C(OC3=CC(=CC(=C3C2=O)O)O)C4=CC(=C(C=C4)O)O)O)O)O
#inchikey OXGUCUVFOIWWQJ-HQBVPOQASA-N
#pubchem_id 5280459
#mb_accession PR302072,PR302076,PR302079,PR302083,PR302087,PR302091,PR302094,PR302098,PR302101,PR302105,PR302109,PR302113

>ms2
85.011320 33.000000
85.029490 102.000000
112.154510 28.000000
129.054870 58.000000
229.043730 24.000000
287.055570 55.000000
287.062770 26.000000
303.018190 34.000000
303.050960 1000.000000
304.042790 72.000000
304.061370 90.000000
305.046780 39.000000
314.197300 38.000000
316.052430 51.000000
369.057160 25.000000
449.048830 33.000000
449.109500 33.000000

>ms2
85.024410 24.000000
85.028880 24.000000
129.047640 19.000000
129.054570 62.000000
147.072450 41.000000
287.062320 24.000000
303.019500 28.000000
303.048650 1000.000000
303.067200 49.000000
304.026580 16.000000
304.037870 41.000000
304.059080 139.000000
305.051240 22.000000
305.072690 18.000000
449.104280 174.000000

>ms2
85.026960 66.000000
111.051960 43.000000
137.024810 32.000000
153.010650 32.000000
303.016110 34.000000
303.050780 1000.000000
304.044860 119.000000
304.058140 43.000000
315.041170 32.000000
341.064700 31.000000
395.061310 46.000000

>ms2
60.532400 245.000000
68.996310 585.000000
69.997520 213.000000
88.051090 543.000000
111.006690 245.000000
127.041680 255.000000
137.020630 181.000000
173.052260 1000.000000
183.041210 223.000000
183.048200 202.000000
191.027560 181.000000
229.032230 255.000000
229.043430 266.000000
258.038330 298.000000
270.322600 298.000000
274.053960 394.000000
303.034450 234.000000
303.054200 351.000000

>ms2
71.040990 33.000000
71.052880 19.000000
84.828610 18.000000
85.020720 27.000000
85.030120 73.000000
129.051570 99.000000
147.054980 20.000000
147.067430 18.000000
191.037280 20.000000
201.044160 22.000000
202.058070 29.000000
229.045290 38.000000
285.031920 23.000000
302.961180 23.000000
303.047790 1000.000000
303.064420 165.000000
304.027830 22.000000
304.053040 53.000000
305.049500 36.000000
308.159300 23.000000
345.067960 22.000000
432.107120 26.000000
449.094390 41.000000
449.105620 97.000000

>ms2
129.047560 24.000000
129.054290 55.000000
137.576230 14.000000
146.870620 17.000000
147.050630 14.000000
147.063920 37.000000
147.081330 13.000000
302.976470 32.000000
302.989230 13.000000
303.020200 20.000000
303.050080 1000.000000
304.056090 110.000000
305.036190 14.000000
305.050510 15.000000
407.087370 24.000000
413.062290 22.000000
431.082180 23.000000
449.107570 79.000000

>ms2
57.035030 67.000000
71.044900 129.000000
71.049500 46.000000
85.031130 59.000000
87.070950 36.000000
197.805400 36.000000
229.044940 63.000000
248.801040 48.000000
258.061580 59.000000
302.992800 46.000000
303.032010 149.000000
303.048650 1000.000000
303.071870 95.000000
304.033690 113.000000
304.048030 91.000000
342.064450 34.000000
345.071040 36.000000
346.064640 48.000000

>ms2
69.000500 256.000000
81.031230 279.000000
85.026850 256.000000
113.041790 244.000000
129.058230 256.000000
137.016560 384.000000
153.013840 291.000000
157.062240 198.000000
173.040650 581.000000
183.043750 302.000000
229.058960 1000.000000
230.059510 233.000000
257.030090 326.000000
273.035340 221.000000
274.037510 279.000000
285.027560 302.000000
304.048000 512.000000

>ms2
71.047970 18.000000
72.639310 18.000000
85.030650 26.000000
125.463800 23.000000
129.035780 21.000000
129.059860 63.000000
137.021000 15.000000
153.014570 20.000000
153.021100 22.000000
165.016040 33.000000
257.033170 59.000000
257.051030 23.000000
258.031460 20.000000
287.049070 51.000000
302.886690 19.000000
303.025760 53.000000
303.049620 1000.000000
304.023680 32.000000
304.048070 133.000000
304.065310 38.000000
304.077090 30.000000
305.046750 18.000000
305.066070 62.000000
323.054410 23.000000
341.401860 22.000000
370.083100 21.000000
395.099550 23.000000
413.075870 22.000000

>ms2
71.676980 14.000000
86.034500 25.000000
129.042530 17.000000
147.066710 54.000000
287.061520 23.000000
303.002660 14.000000
303.048250 1000.000000
304.013920 15.000000
304.042480 80.000000
304.061370 258.000000
305.063930 18.000000
329.155940 23.000000
355.721950 14.000000
413.081790 13.000000
413.095790 19.000000
449.080020 44.000000
449.097690 107.000000
449.115660 208.000000

>ms2
71.050730 82.000000
229.046630 44.000000
288.050870 29.000000
303.028350 69.000000
303.042570 417.000000
303.053830 1000.000000
303.074800 82.000000
304.044830 46.000000
304.058380 157.000000
304.074280 34.000000
305.048070 33.000000
395.101960 34.000000

>ms2
71.048020 283.000000
137.053830 367.000000
153.015300 883.000000
161.058230 400.000000
166.021850 333.000000
177.057830 317.000000
185.058500 350.000000
201.023790 1000.000000
201.050540 367.000000
229.040130 517.000000
229.051800 483.000000
257.043760 500.000000
274.040160 283.000000
283.052610 383.000000
304.058530 450.000000
341.054260 400.000000

