>compound PR25269125
>parentmass 209.10732443076918
>ionization [M+H]+
>formula C14H12N2
>rt 208.007095
>profile qtof
#smiles_iso CC1=NC2=C(C=C1)C=CC3=C2N=C(C=C3)C
#smiles_can CC1=NC2=C(C=C1)C=CC3=C2N=C(C=C3)C
#inchikey IYRGXJIJGHOCFS-UHFFFAOYSA-N
#pubchem_id 65237
#mb_accession PR301447,PR301451,PR301455,PR301459,PR301463,PR301467,PR301471,PR301475,PR301479,PR301483,PR301487,PR301491,PR310552

>ms2peaks
167.073720 13.000000
181.095580 6.000000
182.096220 7.000000
192.078020 8.000000
193.076020 18.000000
194.083970 21.000000
206.084060 6.000000
207.089720 31.000000
208.100080 71.000000
209.108090 1000.000000
209.149060 27.000000

>ms2peaks
209.107910 1000.000000
209.148910 35.000000

>ms2peaks
141.071610 15.000000
143.075820 9.000000
151.057390 6.000000
152.049480 7.000000
153.061490 6.000000
156.084010 8.000000
166.064010 10.000000
166.073880 8.000000
167.073240 97.000000
168.066280 11.000000
168.077900 39.000000
168.085950 10.000000
180.072100 8.000000
180.082610 25.000000
181.087830 42.000000
182.084180 18.000000
182.098010 42.000000
183.094830 13.000000
191.077470 14.000000
192.072600 31.000000
192.085370 28.000000
193.076520 143.000000
194.084640 127.000000
195.089310 25.000000
206.085400 10.000000
207.091870 217.000000
208.099930 451.000000
209.108140 1000.000000

>ms2peaks
75.021160 26.000000
77.036970 19.000000
89.036830 18.000000
89.041240 20.000000
97.450490 45.000000
102.054050 18.000000
113.034760 19.000000
114.047940 47.000000
115.053380 147.000000
116.048460 97.000000
117.054710 18.000000
125.040360 24.000000
125.046120 16.000000
126.041970 25.000000
126.048920 26.000000
127.052640 42.000000
127.063710 23.000000
128.049160 80.000000
128.062820 18.000000
138.044480 21.000000
139.026050 26.000000
139.041610 19.000000
139.056790 174.000000
140.053090 64.000000
140.067980 69.000000
141.058900 23.000000
142.055150 27.000000
142.067150 22.000000
143.067750 83.000000
143.074250 67.000000
144.076520 81.000000
145.055360 19.000000
151.053020 30.000000
152.045490 17.000000
152.062580 18.000000
153.033830 22.000000
153.043690 20.000000
153.059140 93.000000
153.070760 71.000000
156.081600 20.000000
163.047470 22.000000
164.051530 52.000000
164.070040 20.000000
165.061250 107.000000
165.076920 28.000000
166.055920 77.000000
166.065630 324.000000
166.071990 110.000000
167.031620 51.000000
167.050930 32.000000
167.063310 111.000000
167.076280 40.000000
167.084990 17.000000
168.066250 61.000000
168.075700 69.000000
168.085300 33.000000
174.554370 21.000000
177.038860 18.000000
178.064330 44.000000
178.071370 30.000000
179.076340 17.000000
180.081180 267.000000
180.101550 34.000000
181.067410 24.000000
181.088000 126.000000
182.073590 24.000000
182.082730 85.000000
182.091200 50.000000
182.101260 24.000000
183.085590 19.000000
189.048160 18.000000
191.062230 71.000000
191.078750 17.000000
192.073870 376.000000
192.143720 17.000000
193.055360 20.000000
193.072740 159.000000
193.081710 225.000000
194.061750 29.000000
194.082290 114.000000
195.081950 17.000000
198.466050 17.000000
205.067520 46.000000
206.070040 19.000000
206.083450 320.000000
206.099530 19.000000
206.231890 17.000000
206.243550 17.000000
207.064300 19.000000
207.090240 1000.000000
208.068790 21.000000
208.093380 108.000000
208.105590 215.000000
209.108290 238.000000

>ms2peaks
167.074360 18.000000
168.079740 5.000000
180.079650 6.000000
182.092040 10.000000
192.078670 7.000000
193.077710 21.000000
194.083860 26.000000
207.093260 37.000000
208.098650 57.000000
208.105790 23.000000
209.108320 1000.000000
209.148830 32.000000

>ms2peaks
209.108490 1000.000000
209.149730 38.000000

>ms2peaks
128.063960 6.000000
139.055160 6.000000
140.046130 5.000000
140.063780 8.000000
141.067310 11.000000
143.061020 5.000000
143.074680 12.000000
153.052260 5.000000
156.081860 7.000000
165.069690 6.000000
166.068180 15.000000
167.073120 87.000000
168.066450 14.000000
168.077870 22.000000
168.087070 5.000000
180.074580 7.000000
180.084370 17.000000
181.073260 7.000000
181.087400 57.000000
182.081220 16.000000
182.094070 39.000000
182.110670 6.000000
183.087010 6.000000
183.097840 13.000000
191.071990 19.000000
192.068280 25.000000
192.081220 37.000000
192.093220 7.000000
193.075650 136.000000
193.095540 7.000000
194.083360 145.000000
195.088300 19.000000
206.088850 15.000000
207.092010 211.000000
208.099900 442.000000
209.080110 6.000000
209.107800 1000.000000
209.146820 5.000000

>ms2peaks
78.039720 23.000000
89.040080 47.000000
90.044230 16.000000
100.027710 26.000000
102.040760 21.000000
105.070010 20.000000
114.047190 51.000000
115.051640 16.000000
115.058360 23.000000
116.054660 19.000000
116.072470 23.000000
123.013950 16.000000
125.039940 25.000000
126.034190 42.000000
127.055560 38.000000
128.046650 20.000000
131.073300 20.000000
138.801390 17.000000
139.049240 58.000000
139.056920 76.000000
139.999160 26.000000
140.033020 19.000000
140.042570 16.000000
140.055510 106.000000
141.039630 25.000000
141.050190 41.000000
141.057890 49.000000
142.050420 17.000000
142.065950 78.000000
142.073040 47.000000
143.072400 23.000000
150.035780 17.000000
151.038220 19.000000
152.053240 21.000000
152.066380 42.000000
153.048050 45.000000
153.063050 33.000000
154.064640 19.000000
155.070220 17.000000
156.242800 16.000000
164.040970 20.000000
164.068280 27.000000
165.057170 19.000000
165.073260 16.000000
166.051390 36.000000
166.064290 309.000000
167.019200 21.000000
167.058090 44.000000
167.071750 108.000000
167.087860 18.000000
168.053860 126.000000
168.073290 57.000000
168.083600 65.000000
168.094740 23.000000
169.090910 28.000000
171.089630 41.000000
177.039760 18.000000
178.045760 17.000000
178.076000 39.000000
179.057630 16.000000
179.076510 28.000000
180.082530 357.000000
181.059050 21.000000
181.077360 138.000000
181.090870 157.000000
182.084610 70.000000
182.095890 39.000000
182.110470 20.000000
183.079850 22.000000
183.097630 17.000000
191.047850 20.000000
191.057560 67.000000
192.061220 107.000000
192.072360 238.000000
193.039920 47.000000
193.052660 16.000000
193.069790 107.000000
193.078840 188.000000
194.077530 18.000000
194.089160 135.000000
195.093800 18.000000
195.957630 16.000000
204.066090 24.000000
205.069980 37.000000
206.081450 223.000000
206.098590 64.000000
207.070620 24.000000
207.091750 1000.000000
208.073090 18.000000
208.092300 200.000000
208.101870 128.000000
209.100980 123.000000
209.112290 90.000000

>ms2peaks
167.071270 13.000000
168.069380 7.000000
181.091190 10.000000
182.092800 8.000000
193.077300 26.000000
194.085750 22.000000
207.093310 31.000000
208.100010 61.000000
209.107680 1000.000000
209.148620 35.000000

>ms2peaks
209.108690 1000.000000
209.149950 36.000000

>ms2peaks
115.052820 6.000000
141.071900 11.000000
142.067840 7.000000
143.074100 11.000000
165.062840 5.000000
166.069840 18.000000
167.072690 81.000000
168.068540 17.000000
168.084350 20.000000
169.079700 7.000000
180.079300 18.000000
181.078990 14.000000
181.089510 49.000000
182.083420 29.000000
182.096080 50.000000
183.101500 11.000000
191.072200 9.000000
192.064880 11.000000
192.079820 42.000000
193.077390 158.000000
194.083530 148.000000
195.085300 18.000000
206.085170 20.000000
207.092090 217.000000
208.074940 6.000000
208.099490 445.000000
209.072220 8.000000
209.107560 1000.000000

>ms2peaks
77.037990 59.000000
113.039020 35.000000
114.048160 28.000000
115.054870 214.000000
116.039640 23.000000
116.063760 43.000000
125.010530 27.000000
126.037730 47.000000
126.043170 27.000000
127.041060 23.000000
127.049150 47.000000
127.054920 23.000000
129.059950 27.000000
130.068660 32.000000
131.077930 46.000000
137.039410 27.000000
138.030620 27.000000
138.044830 58.000000
138.052090 25.000000
139.046370 75.000000
139.052670 207.000000
139.058980 104.000000
140.039600 63.000000
140.050320 242.000000
140.062560 36.000000
141.059770 104.000000
141.068410 31.000000
141.076930 24.000000
141.553570 32.000000
141.635700 23.000000
142.054930 23.000000
142.064680 23.000000
143.072690 210.000000
144.067470 24.000000
144.080980 44.000000
150.028020 37.000000
151.594790 28.000000
152.043370 29.000000
152.058060 293.000000
152.068760 63.000000
153.068440 134.000000
154.048630 27.000000
154.067890 59.000000
155.068600 141.000000
156.082460 66.000000
158.089970 23.000000
159.694370 23.000000
164.046650 150.000000
164.573530 28.000000
165.049530 64.000000
165.058520 103.000000
165.068010 27.000000
166.017960 28.000000
166.050250 23.000000
166.061980 76.000000
166.071320 94.000000
167.039060 64.000000
167.048690 27.000000
167.060710 94.000000
167.073870 317.000000
168.069890 299.000000
168.084300 23.000000
171.055340 23.000000
177.032410 29.000000
177.042910 56.000000
178.062590 27.000000
179.061860 79.000000
180.054550 32.000000
180.066800 51.000000
180.078510 319.000000
180.086360 115.000000
181.067840 36.000000
181.083050 92.000000
181.090330 206.000000
182.089750 276.000000
182.096830 84.000000
191.053800 23.000000
191.060710 32.000000
191.077930 111.000000
192.068730 246.000000
192.081050 35.000000
193.062710 68.000000
193.072910 78.000000
193.083240 170.000000
194.078770 201.000000
194.100480 23.000000
195.080440 28.000000
205.064610 54.000000
205.075730 87.000000
206.038710 36.000000
206.056240 24.000000
206.070250 76.000000
206.088150 348.000000
207.029560 32.000000
207.064870 31.000000
207.077650 190.000000
207.093220 1000.000000
207.111890 64.000000
208.084590 86.000000
208.102920 482.000000
209.056090 33.000000
209.098590 178.000000

>ms2peaks
60.242560 18.000000
79.387170 17.000000
107.334840 38.000000
114.049670 23.000000
115.058200 76.000000
117.059260 21.000000
123.794650 37.000000
125.043010 17.000000
128.065890 61.000000
129.071330 24.000000
131.077740 18.000000
131.334840 17.000000
132.227510 33.000000
138.047850 27.000000
139.057330 107.000000
139.069080 35.000000
139.670030 18.000000
140.051800 101.000000
140.061600 35.000000
141.064960 43.000000
142.071810 89.000000
143.070770 193.000000
144.200090 19.000000
145.127850 23.000000
145.942550 37.000000
146.325820 21.000000
151.051380 21.000000
151.061360 22.000000
152.053910 19.000000
153.067960 41.000000
153.779560 20.000000
154.062590 19.000000
154.068980 22.000000
156.072620 18.000000
156.087230 21.000000
157.084520 52.000000
164.057800 20.000000
165.120850 20.000000
166.065220 115.000000
166.074170 18.000000
167.026170 20.000000
167.073720 580.000000
167.662920 36.000000
168.069060 143.000000
168.080630 173.000000
169.067200 17.000000
169.075530 35.000000
169.083400 21.000000
169.096500 26.000000
176.028630 19.000000
177.111940 32.000000
178.051710 24.000000
178.068590 21.000000
180.068740 107.000000
180.079700 136.000000
181.051860 27.000000
181.062970 32.000000
181.083470 159.000000
181.095580 244.000000
181.344600 26.000000
182.058180 18.000000
182.081560 194.000000
182.096220 325.000000
182.110000 20.000000
182.800840 17.000000
183.088330 68.000000
184.097890 17.000000
184.125640 34.000000
186.856900 41.000000
190.064800 30.000000
191.052340 26.000000
191.061110 18.000000
191.074940 140.000000
191.080780 64.000000
192.058730 25.000000
192.068970 131.000000
192.078020 361.000000
193.044130 19.000000
193.054570 39.000000
193.076020 787.000000
194.083970 913.000000
195.089050 142.000000
201.112790 24.000000
205.069240 23.000000
205.079740 67.000000
205.163680 19.000000
205.232280 22.000000
206.026320 28.000000
206.084060 280.000000
206.101240 24.000000
206.611370 19.000000
207.054900 23.000000
207.089720 1356.000000
207.182950 18.000000
207.203280 23.000000
207.491740 17.000000
207.595470 18.000000
207.725830 20.000000
207.956250 29.000000
208.064350 22.000000
208.075120 51.000000
208.100080 3131.000000
208.126540 18.000000
208.139910 41.000000
208.149840 69.000000
208.173750 18.000000
208.468290 19.000000
208.539320 19.000000
208.573870 18.000000
208.645450 17.000000
209.037950 33.000000
209.053530 20.000000
209.065020 92.000000
209.072680 90.000000
209.108090 43949.000000
209.149060 1180.000000
209.243120 17.000000
209.257830 23.000000
209.280690 70.000000

