>compound PR26954961
>parentmass 823.4112292000002
>ionization [M+H]+
>formula C42H62O16
>rt 420.312857
>profile qtof
#smiles_iso CC1(C2CCC3(C(C2(CCC1OC4C(C(C(C(O4)C(=O)O)O)O)OC5C(C(C(C(O5)C(=O)O)O)O)O)C)C(=O)C=C6C3(CCC7(C6CC(CC7)(C)C(=O)O)C)C)C)C
#smiles_can CC1(C2CCC3(C(C2(CCC1OC4C(C(C(C(O4)C(=O)O)O)O)OC5C(C(C(C(O5)C(=O)O)O)O)O)C)C(=O)C=C6C3(CCC7(C6CC(CC7)(C)C(=O)O)C)C)C)C
#inchikey LPLVUJXQOOQHMX-UHFFFAOYSA-N
#pubchem_id 3495
#mb_accession PR304290,PR304294,PR304298,PR304302,PR304306,PR304310,PR304314,PR304316,PR304318,PR304321,PR304325,PR304329,PR310402,PR310661

>ms2peaks
189.166350 13.000000
235.170030 9.000000
301.220610 5.000000
407.335420 10.000000
435.326320 19.000000
453.297610 11.000000
453.337100 1000.000000
454.297240 5.000000
454.341490 361.000000
455.340670 77.000000
471.347660 42.000000
472.346370 10.000000
472.366330 8.000000
647.377930 91.000000
647.401370 28.000000
648.371640 15.000000
648.397460 28.000000
823.354000 9.000000
823.413450 289.000000

>ms2peaks
453.335330 641.000000
454.335660 192.000000
454.349240 83.000000
455.335080 30.000000
455.360690 10.000000
456.365260 5.000000
471.316650 5.000000
471.335970 14.000000
471.351320 13.000000
472.351870 9.000000
472.366060 6.000000
647.326290 8.000000
647.372130 95.000000
647.393740 48.000000
648.367550 27.000000
648.392580 41.000000
649.374820 22.000000
823.316470 6.000000
823.347110 10.000000
823.408750 1000.000000

>ms2peaks
141.019240 6.000000
235.178340 12.000000
408.329740 7.000000
435.319060 19.000000
453.290440 16.000000
453.335910 1000.000000
454.292360 6.000000
454.334440 208.000000
454.351040 132.000000
455.309140 7.000000
455.333160 25.000000
455.353970 31.000000
455.371030 10.000000
456.353060 10.000000
471.344480 33.000000
471.364470 16.000000
472.334230 7.000000
472.353970 13.000000
647.404600 7.000000

>ms2peaks
55.055600 12.000000
69.036830 18.000000
69.367260 12.000000
81.066170 15.000000
81.073030 13.000000
86.878640 13.000000
95.074880 30.000000
95.085160 81.000000
96.090160 42.000000
99.106090 12.000000
105.055890 15.000000
105.066280 45.000000
107.086260 43.000000
107.093390 19.000000
109.101290 123.000000
111.118560 12.000000
114.027790 12.000000
119.070940 14.000000
119.077700 14.000000
119.086370 89.000000
121.064160 29.000000
121.102560 15.000000
123.076500 14.000000
123.085100 32.000000
123.109650 28.000000
123.118120 45.000000
124.118450 14.000000
125.059460 12.000000
131.919390 20.000000
133.572970 15.000000
135.082490 43.000000
135.113800 27.000000
138.130290 13.000000
141.019730 58.000000
145.107090 19.000000
147.074220 13.000000
147.106550 26.000000
147.120800 26.000000
149.095630 12.000000
149.131710 99.000000
149.139180 39.000000
150.136440 19.000000
151.105450 15.000000
153.089770 15.000000
158.102800 12.000000
158.612810 12.000000
159.025630 15.000000
159.082370 15.000000
159.120800 58.000000
161.124970 23.000000
161.132720 77.000000
162.137790 13.000000
163.099500 17.000000
163.111690 27.000000
163.145740 25.000000
167.112350 12.000000
173.131840 58.000000
173.141590 14.000000
175.109040 15.000000
175.146840 166.000000
177.153990 25.000000
177.167070 58.000000
182.111150 13.000000
183.129970 20.000000
184.121610 12.000000
185.133640 37.000000
186.134670 15.000000
186.145770 32.000000
187.141160 15.000000
187.148700 18.000000
187.156050 15.000000
188.620670 15.000000
189.153200 37.000000
189.167450 272.000000
190.167220 33.000000
191.171140 16.000000
191.186720 41.000000
192.184590 64.000000
197.134510 27.000000
199.146420 15.000000
199.156690 15.000000
200.112150 14.000000
200.146880 15.000000
200.156270 22.000000
201.155720 12.000000
201.165990 26.000000
202.166410 39.000000
203.121780 13.000000
203.148860 20.000000
203.180650 14.000000
205.169050 15.000000
206.038820 21.000000
207.140960 28.000000
209.199680 16.000000
211.153460 12.000000
211.162310 15.000000
213.149140 20.000000
213.170750 47.000000
215.138890 29.000000
215.154750 13.000000
215.177900 15.000000
215.745560 12.000000
216.145680 14.000000
216.182790 18.000000
217.120680 31.000000
217.154910 210.000000
217.170550 52.000000
218.159130 13.000000
218.167650 18.000000
219.155460 12.000000
219.174770 77.000000
219.184660 50.000000
221.138320 27.000000
222.158950 15.000000
225.161590 43.000000
227.183330 46.000000
231.171800 61.000000
231.194560 20.000000
233.180890 15.000000
233.189010 16.000000
235.165730 117.000000
235.177990 84.000000
235.185590 31.000000
236.168980 17.000000
237.169510 14.000000
237.178800 33.000000
241.185560 12.000000
241.195010 28.000000
241.465480 20.000000
242.197170 15.000000
243.127900 15.000000
243.172180 28.000000
245.144650 13.000000
245.154650 48.000000
245.187820 76.000000
246.287520 14.000000
247.162610 13.000000
249.184360 18.000000
254.205320 15.000000
255.178390 27.000000
255.196700 16.000000
255.204680 15.000000
256.186130 15.000000
256.212590 12.000000
256.221100 19.000000
257.186000 12.000000
258.162410 19.000000
259.169460 27.000000
260.604130 12.000000
261.132930 12.000000
261.194730 15.000000
262.155490 16.000000
263.167140 12.000000
267.210390 44.000000
268.207920 15.000000
268.217380 18.000000
269.186800 15.000000
269.236910 15.000000
270.215000 12.000000
271.211670 15.000000
272.221620 18.000000
273.161220 19.000000
273.194210 53.000000
274.174770 15.000000
274.185330 14.000000
274.220580 15.000000
275.201720 13.000000
277.229710 12.000000
281.228550 15.000000
283.162540 15.000000
283.196530 12.000000
283.245240 17.000000
285.180080 13.000000
285.217770 28.000000
285.228520 17.000000
286.216980 15.000000
286.237150 30.000000
287.200200 18.000000
287.217500 15.000000
288.196350 45.000000
289.178620 14.000000
290.192290 13.000000
291.192350 13.000000
294.228910 13.000000
297.216280 14.000000
300.495510 12.000000
301.166410 14.000000
303.189210 48.000000
304.197200 15.000000
307.224980 15.000000
311.198240 13.000000
311.229280 13.000000
311.246120 12.000000
312.244290 15.000000
313.198880 18.000000
313.223720 37.000000
317.183070 13.000000
317.217220 25.000000
317.237370 15.000000
318.213810 13.000000
323.243710 28.000000
329.250580 12.000000
331.244050 20.000000
333.286930 13.000000
337.218510 18.000000
337.251980 14.000000
338.222170 12.000000
339.236210 30.000000
339.280460 12.000000
342.230680 28.000000
343.230930 14.000000
347.271820 27.000000
348.284000 12.000000
351.230900 61.000000
351.305540 20.000000
353.235810 14.000000
357.242800 100.000000
358.225770 31.000000
363.290410 26.000000
369.258700 12.000000
371.121090 12.000000
371.259400 16.000000
371.324070 15.000000
375.040860 20.000000
379.266510 12.000000
379.353970 12.000000
380.275150 15.000000
383.195800 15.000000
383.262150 15.000000
383.276790 13.000000
385.259400 12.000000
389.276700 28.000000
389.298580 18.000000
389.323060 95.000000
390.341250 13.000000
394.276180 26.000000
395.285220 15.000000
398.268770 12.000000
407.287020 12.000000
407.314510 60.000000
407.336210 99.000000
408.301700 15.000000
408.341710 27.000000
409.330930 13.000000
411.287750 13.000000
417.480440 12.000000
425.348140 12.000000
435.268800 21.000000
435.303440 27.000000
435.324190 125.000000
435.353880 18.000000
436.320920 61.000000
436.351410 25.000000
446.348450 12.000000
453.338380 1000.000000
454.341670 289.000000
454.578460 15.000000
455.332240 28.000000
455.355680 26.000000
456.338620 14.000000
469.679810 22.000000
471.334500 18.000000
471.360870 15.000000
586.463130 15.000000

>ms2peaks
159.032910 7.000000
177.165420 8.000000
189.158970 8.000000
217.150150 6.000000
217.165040 12.000000
235.167880 11.000000
235.176850 6.000000
267.220460 5.000000
301.215940 5.000000
407.324400 6.000000
417.316860 8.000000
435.321900 23.000000
436.323730 12.000000
436.334320 6.000000
453.336270 1000.000000
454.339600 370.000000
454.383640 7.000000
455.297420 6.000000
455.343020 49.000000
456.330780 6.000000
456.355990 7.000000
471.324710 7.000000
471.341920 21.000000
471.358030 14.000000
472.345280 8.000000
472.358890 9.000000
647.350650 14.000000
647.379520 95.000000
648.362490 15.000000
648.390320 14.000000
823.410890 160.000000
823.460330 10.000000

>ms2peaks
257.930110 5.000000
317.306210 5.000000
453.287600 16.000000
453.335940 814.000000
454.323580 100.000000
454.343600 186.000000
455.262630 5.000000
455.334230 21.000000
455.352780 19.000000
455.365880 14.000000
456.341060 10.000000
471.340940 34.000000
485.786320 6.000000
556.680300 6.000000
627.267880 6.000000
647.360470 65.000000
647.382930 167.000000
648.358090 11.000000
648.404110 67.000000
649.394410 14.000000
650.417600 10.000000
823.412350 1000.000000

>ms2peaks
235.165370 12.000000
435.324620 8.000000
435.349000 9.000000
453.283810 14.000000
453.337950 1000.000000
454.339480 286.000000
455.336820 41.000000
455.355740 15.000000
471.323550 7.000000
471.339750 23.000000
471.355470 21.000000
472.347990 9.000000

>ms2peaks
81.066330 11.000000
83.053470 11.000000
83.087970 19.000000
93.071080 17.000000
95.050160 11.000000
95.084930 129.000000
97.067730 11.000000
99.078480 11.000000
105.060420 15.000000
107.075170 19.000000
107.086290 45.000000
109.066170 11.000000
109.101260 36.000000
110.103260 12.000000
119.080430 11.000000
119.092650 43.000000
121.067150 11.000000
121.101880 85.000000
121.236280 12.000000
123.078620 13.000000
123.117050 84.000000
124.122570 22.000000
125.054820 11.000000
125.096160 11.000000
133.091660 11.000000
135.077150 11.000000
135.104110 16.000000
135.117940 90.000000
136.127960 17.000000
137.093810 11.000000
139.110180 37.000000
141.013210 11.000000
141.019490 24.000000
141.098630 14.000000
141.735020 13.000000
142.122700 11.000000
145.100330 24.000000
147.111240 16.000000
147.118680 78.000000
149.098080 13.000000
149.122670 19.000000
149.134770 190.000000
150.127490 12.000000
150.134340 13.000000
151.106700 11.000000
151.139510 11.000000
152.569120 12.000000
157.099260 11.000000
157.106950 49.000000
159.108670 44.000000
161.092640 17.000000
161.106220 26.000000
161.130390 58.000000
162.140810 14.000000
163.118390 11.000000
163.147710 22.000000
163.155490 12.000000
163.168700 15.000000
165.090070 12.000000
171.118820 11.000000
173.096760 12.000000
173.126360 11.000000
175.097310 12.000000
175.107590 11.000000
175.115880 37.000000
175.141140 37.000000
175.154190 40.000000
177.134630 14.000000
177.161480 83.000000
178.162430 12.000000
178.174420 36.000000
180.868500 11.000000
181.152600 18.000000
183.031860 11.000000
185.137280 11.000000
187.139050 28.000000
187.147230 39.000000
187.158080 14.000000
188.120040 11.000000
189.133820 11.000000
189.155380 69.000000
189.165040 108.000000
190.161270 35.000000
190.174070 20.000000
190.227330 11.000000
190.952060 11.000000
191.179670 34.000000
192.180790 12.000000
197.136870 12.000000
199.147170 14.000000
200.162340 11.000000
201.123760 25.000000
201.162200 12.000000
202.175890 14.000000
203.117660 12.000000
203.135910 32.000000
203.152710 12.000000
204.150360 11.000000
205.155930 29.000000
205.196410 12.000000
206.161040 13.000000
207.146900 24.000000
211.114960 11.000000
213.161250 11.000000
213.172120 11.000000
214.171550 15.000000
214.801770 16.000000
215.149580 11.000000
215.171110 20.000000
215.184950 13.000000
216.185700 22.000000
217.109420 35.000000
217.155060 124.000000
217.163910 114.000000
217.177380 11.000000
218.154790 11.000000
218.173260 45.000000
219.173720 42.000000
225.161880 29.000000
225.170880 11.000000
227.179350 26.000000
228.168950 12.000000
229.194400 25.000000
231.173970 21.000000
232.172840 24.000000
233.164670 12.000000
233.181990 15.000000
234.201610 11.000000
234.966520 17.000000
235.156040 28.000000
235.165800 83.000000
235.174480 74.000000
236.165890 37.000000
238.179120 13.000000
240.171400 13.000000
240.187270 11.000000
241.161130 37.000000
241.188900 29.000000
241.200560 25.000000
241.224610 14.000000
242.168150 14.000000
243.167070 12.000000
244.177190 14.000000
245.159120 12.000000
245.180070 22.000000
245.194440 11.000000
247.182420 12.000000
253.170680 11.000000
253.195620 12.000000
254.206340 11.000000
257.184880 11.000000
257.199830 45.000000
259.171570 12.000000
259.202790 14.000000
260.178620 12.000000
261.146580 15.000000
261.159450 27.000000
261.175110 12.000000
265.203920 17.000000
266.203430 13.000000
267.205200 73.000000
267.223630 12.000000
268.214900 12.000000
271.158780 12.000000
271.195800 31.000000
271.209690 40.000000
276.209320 16.000000
279.197660 11.000000
279.216860 12.000000
283.198640 11.000000
285.029570 12.000000
285.217800 76.000000
286.222630 12.000000
286.231320 17.000000
289.176790 22.000000
293.223210 13.000000
295.218510 14.000000
299.189000 14.000000
299.199250 17.000000
301.178280 11.000000
301.209530 11.000000
301.220790 11.000000
303.186490 12.000000
305.210970 14.000000
309.265010 14.000000
311.219510 27.000000
311.237520 11.000000
313.221770 11.000000
315.176640 11.000000
316.243960 12.000000
318.171050 11.000000
323.238830 35.000000
324.250760 11.000000
327.278560 11.000000
330.206630 16.000000
331.206050 12.000000
335.257170 11.000000
338.279240 13.000000
339.231290 16.000000
341.244810 11.000000
343.217160 37.000000
343.229640 13.000000
353.244660 11.000000
355.216890 15.000000
355.241820 27.000000
356.208620 12.000000
357.233890 24.000000
357.248410 11.000000
358.242800 12.000000
358.254330 13.000000
365.315770 24.000000
366.187680 11.000000
366.238250 12.000000
369.255980 11.000000
370.262630 14.000000
379.275790 11.000000
383.255650 12.000000
389.304350 11.000000
389.327970 42.000000
390.318420 11.000000
392.280700 11.000000
393.303530 11.000000
393.327970 11.000000
394.309510 11.000000
397.286500 24.000000
407.336940 157.000000
408.329130 20.000000
408.344420 37.000000
409.388490 11.000000
411.276310 14.000000
433.652950 21.000000
435.327060 153.000000
435.351350 12.000000
436.325010 59.000000
438.355900 12.000000
453.290100 13.000000
453.335910 1000.000000
453.375920 33.000000
454.315190 37.000000
454.347410 118.000000
454.368320 37.000000
455.311160 16.000000
455.348020 96.000000
471.346130 11.000000
471.356870 29.000000
472.356870 11.000000
574.289060 15.000000
698.282290 11.000000

>ms2peaks
141.016860 9.000000
189.164000 18.000000
217.161560 10.000000
235.171450 17.000000
275.219120 6.000000
407.342130 8.000000
435.326750 22.000000
453.293880 7.000000
453.335540 1000.000000
454.283630 7.000000
454.339780 329.000000
455.321530 9.000000
455.338040 14.000000
455.354460 13.000000
471.348210 25.000000
471.362300 8.000000
472.343840 9.000000
647.377560 93.000000
647.398380 20.000000
648.354980 6.000000
648.388610 29.000000
823.381770 34.000000
823.404360 85.000000
823.435550 53.000000

>ms2peaks
299.992800 5.000000
352.097170 5.000000
453.173490 5.000000
453.293210 11.000000
453.338200 1000.000000
454.341830 214.000000
455.330990 18.000000
455.350250 26.000000
456.359010 11.000000
471.333250 16.000000
471.354250 20.000000
472.347530 11.000000
647.373050 210.000000
647.404360 34.000000
647.430790 7.000000
648.336670 10.000000
648.379390 100.000000
649.389650 12.000000
802.352480 7.000000
823.219120 12.000000
823.262390 5.000000
823.323000 15.000000
823.396550 495.000000
823.420960 695.000000

>ms2peaks
141.015850 5.000000
235.166950 9.000000
389.322450 6.000000
407.332520 9.000000
407.345610 5.000000
435.324770 18.000000
453.288020 7.000000
453.336180 1000.000000
454.340730 369.000000
455.344670 43.000000
471.344850 17.000000
471.364410 8.000000
472.349580 8.000000
472.367520 8.000000
647.368040 6.000000
647.393070 8.000000
648.375370 6.000000

>ms2peaks
69.069780 13.000000
71.079680 14.000000
82.074780 14.000000
85.065290 25.000000
95.083920 99.000000
97.031780 15.000000
105.068000 17.000000
107.083600 86.000000
109.096500 13.000000
109.104450 80.000000
111.083500 14.000000
111.110690 14.000000
111.121520 12.000000
119.079180 12.000000
120.085410 14.000000
121.092510 27.000000
121.099710 50.000000
122.064060 14.000000
123.109000 19.000000
124.083120 18.000000
124.116830 16.000000
125.064940 12.000000
133.102050 90.000000
135.075870 32.000000
135.084170 14.000000
135.116060 97.000000
137.133210 15.000000
139.105240 12.000000
141.013730 15.000000
141.095060 14.000000
144.810420 14.000000
145.091000 13.000000
147.092760 14.000000
147.112900 72.000000
149.131940 84.000000
150.444120 21.000000
151.230610 12.000000
159.098920 12.000000
159.109360 12.000000
159.119370 31.000000
160.052860 16.000000
161.095580 16.000000
161.130140 69.000000
163.119780 14.000000
163.150830 12.000000
165.121290 14.000000
167.142720 14.000000
171.117340 16.000000
173.097380 12.000000
173.133000 37.000000
174.099720 19.000000
174.130200 14.000000
175.114400 14.000000
175.123500 17.000000
175.144030 148.000000
175.152630 54.000000
175.290440 13.000000
175.499630 25.000000
176.109570 12.000000
176.160980 15.000000
177.040040 51.000000
177.163160 93.000000
177.172740 22.000000
178.158740 17.000000
180.104200 14.000000
183.117770 14.000000
185.036880 16.000000
185.132250 20.000000
187.146800 46.000000
187.153610 12.000000
189.153090 30.000000
189.166060 164.000000
190.167140 24.000000
191.140990 44.000000
191.167180 28.000000
191.177430 37.000000
192.178180 17.000000
197.126040 26.000000
199.149370 29.000000
200.151640 26.000000
201.159620 36.000000
201.169450 22.000000
202.157090 14.000000
203.137160 45.000000
203.155040 25.000000
203.172940 42.000000
203.185170 14.000000
204.140460 12.000000
205.158920 13.000000
207.142970 14.000000
209.137850 12.000000
211.158140 12.000000
213.163890 71.000000
215.128390 12.000000
215.149480 12.000000
215.159840 61.000000
215.173450 14.000000
215.191530 15.000000
217.144820 20.000000
217.159030 143.000000
217.171520 14.000000
217.196720 17.000000
218.153490 25.000000
218.172820 12.000000
219.165650 38.000000
219.176900 65.000000
221.149080 25.000000
222.154340 14.000000
225.158450 25.000000
225.174910 12.000000
227.186740 48.000000
228.169770 12.000000
229.153290 14.000000
229.200060 25.000000
230.164600 12.000000
231.139620 14.000000
231.155840 12.000000
231.170790 29.000000
231.180150 68.000000
231.199690 23.000000
232.174440 16.000000
233.189160 12.000000
234.186920 14.000000
235.166600 110.000000
235.180100 39.000000
236.160920 23.000000
236.176320 12.000000
237.161820 12.000000
239.187030 12.000000
241.188840 19.000000
241.198870 35.000000
241.412930 14.000000
242.214810 15.000000
245.151670 86.000000
245.179400 13.000000
246.162140 17.000000
246.193040 12.000000
248.054720 14.000000
252.178500 12.000000
254.204190 25.000000
255.173020 12.000000
255.217240 14.000000
256.181820 12.000000
256.202210 12.000000
256.218600 14.000000
257.194790 27.000000
259.173310 14.000000
259.186680 16.000000
260.179840 12.000000
261.155490 14.000000
262.834810 12.000000
265.188900 12.000000
266.301540 16.000000
266.349300 14.000000
267.205840 29.000000
268.214510 17.000000
269.227600 23.000000
269.238950 13.000000
271.197390 24.000000
271.209530 47.000000
272.213650 14.000000
273.171480 29.000000
273.188510 27.000000
275.163940 13.000000
277.180240 28.000000
279.218050 27.000000
283.212220 14.000000
284.204220 12.000000
285.203090 12.000000
285.223020 93.000000
286.196260 14.000000
286.229580 35.000000
287.228120 12.000000
289.173770 13.000000
289.180790 32.000000
291.181490 13.000000
291.195920 14.000000
293.227230 48.000000
295.211150 16.000000
297.190310 13.000000
299.199310 29.000000
300.203580 14.000000
301.215060 16.000000
302.227970 14.000000
303.187530 27.000000
303.210750 12.000000
306.236790 16.000000
309.256160 12.000000
311.210210 15.000000
312.908970 12.000000
313.210110 22.000000
313.218350 12.000000
314.213200 12.000000
314.227080 12.000000
315.222020 32.000000
317.204530 12.000000
319.233860 16.000000
320.243650 16.000000
323.228360 12.000000
323.254090 15.000000
324.233700 14.000000
325.220890 23.000000
325.236600 15.000000
326.222560 12.000000
327.232570 14.000000
327.258510 12.000000
329.234280 12.000000
330.219120 12.000000
331.231200 15.000000
333.934080 12.000000
337.224700 12.000000
338.228730 17.000000
339.233860 25.000000
339.262510 14.000000
340.230900 12.000000
340.252380 13.000000
341.212010 14.000000
341.253630 12.000000
343.226530 14.000000
344.226590 12.000000
347.271480 13.000000
349.251530 16.000000
349.291810 20.000000
351.204040 12.000000
351.256440 12.000000
351.277890 18.000000
352.237920 12.000000
357.168150 12.000000
357.246460 35.000000
357.265170 14.000000
358.233430 12.000000
358.255680 12.000000
363.277680 18.000000
364.301940 14.000000
365.261690 12.000000
365.329900 14.000000
367.259030 14.000000
369.216920 18.000000
369.231170 38.000000
370.250090 14.000000
375.266510 14.000000
379.270320 12.000000
380.271970 14.000000
380.320770 12.000000
382.654140 14.000000
383.247830 41.000000
383.266780 23.000000
384.256530 29.000000
385.263550 12.000000
389.299100 30.000000
389.311130 48.000000
389.333100 29.000000
393.322390 12.000000
407.286190 12.000000
407.316740 26.000000
407.331570 41.000000
407.344480 29.000000
408.314940 29.000000
409.337070 26.000000
409.411530 14.000000
410.335540 12.000000
411.285520 26.000000
411.305080 14.000000
412.319340 14.000000
425.315190 17.000000
427.328830 16.000000
435.306400 81.000000
435.322360 66.000000
435.340390 29.000000
435.354800 14.000000
436.318240 28.000000
436.339600 41.000000
452.816740 12.000000
453.277310 32.000000
453.335110 1000.000000
453.390380 17.000000
454.297520 20.000000
454.335690 356.000000
455.340820 29.000000
456.355380 12.000000
668.860530 12.000000

>ms2peaks
95.083210 18.000000
96.299770 17.000000
121.101460 20.000000
123.113650 18.000000
131.091520 18.000000
141.016540 17.000000
147.116420 20.000000
149.127690 18.000000
157.087450 20.000000
160.120700 24.000000
163.146120 17.000000
165.115200 31.000000
165.132190 24.000000
167.044820 21.000000
175.148100 18.000000
175.165830 30.000000
176.151470 24.000000
182.338200 20.000000
186.526670 37.000000
187.148420 19.000000
189.166350 138.000000
192.187150 20.000000
201.166810 40.000000
205.153820 17.000000
210.159210 24.000000
214.160900 20.000000
217.161120 43.000000
217.171780 20.000000
217.190060 19.000000
218.165370 17.000000
220.177960 20.000000
221.155580 17.000000
231.166020 43.000000
231.180860 23.000000
235.156720 34.000000
235.170030 94.000000
235.184600 23.000000
236.179080 35.000000
239.215360 17.000000
241.191060 17.000000
244.223210 20.000000
244.803760 20.000000
245.191420 44.000000
246.219360 19.000000
248.162750 19.000000
249.075520 33.000000
254.959500 31.000000
261.156160 44.000000
263.050420 25.000000
263.165070 40.000000
267.004730 17.000000
267.210300 20.000000
267.218630 17.000000
268.430970 17.000000
271.171300 21.000000
271.212520 20.000000
273.179410 34.000000
273.226680 19.000000
276.203520 18.000000
279.219090 20.000000
283.203830 40.000000
284.196170 22.000000
285.213290 18.000000
286.186000 17.000000
289.173650 37.000000
289.194430 18.000000
292.196840 18.000000
297.212920 20.000000
301.220610 58.000000
302.853000 45.000000
303.054600 21.000000
303.193600 17.000000
305.957820 29.000000
307.235990 18.000000
312.242920 17.000000
313.227630 19.000000
315.963960 22.000000
317.200900 18.000000
323.236820 17.000000
333.253880 20.000000
342.631990 28.000000
353.062010 24.000000
365.324860 17.000000
369.239870 18.000000
369.271550 18.000000
370.246460 20.000000
379.275020 22.000000
389.306340 20.000000
389.320620 51.000000
395.306270 18.000000
400.317230 17.000000
407.335420 103.000000
408.334660 33.000000
409.351650 18.000000
409.694030 26.000000
411.274840 18.000000
411.344730 17.000000
419.938450 20.000000
429.126770 18.000000
432.246610 25.000000
435.326320 199.000000
435.353150 18.000000
436.302400 19.000000
436.328700 20.000000
440.149350 17.000000
453.266540 17.000000
453.297610 119.000000
453.337100 10592.000000
453.438080 18.000000
453.549590 20.000000
453.968380 24.000000
454.297240 55.000000
454.341490 3825.000000
455.294920 19.000000
455.340670 811.000000
455.570010 17.000000
456.330110 17.000000
464.810210 35.000000
471.318360 33.000000
471.347660 448.000000
472.346370 101.000000
472.366330 90.000000
473.350770 20.000000
473.490020 18.000000
474.363190 27.000000
474.642330 36.000000
499.802890 18.000000
500.607210 20.000000
506.478030 17.000000
557.411740 24.000000
580.582340 20.000000
647.308840 17.000000
647.328980 31.000000
647.377930 962.000000
647.401370 293.000000
648.314030 21.000000
648.371640 163.000000
648.397460 299.000000
649.366880 17.000000
649.387150 20.000000
651.400510 18.000000
716.399900 21.000000
817.635860 19.000000
823.221740 17.000000
823.354000 91.000000
823.413450 3063.000000

>ms2peaks
217.154950 36.000000
263.175540 18.000000
269.076690 30.000000
270.085240 18.000000
334.261050 27.000000
339.223110 24.000000
344.427000 17.000000
366.131530 19.000000
407.331270 19.000000
408.327640 17.000000
426.367610 23.000000
435.309050 21.000000
435.335910 18.000000
436.342830 21.000000
437.326630 22.000000
452.945680 21.000000
453.289250 23.000000
453.340180 1169.000000
454.240230 26.000000
454.340970 525.000000
455.339600 84.000000
455.354860 38.000000
471.348910 55.000000
472.353300 18.000000
609.593020 18.000000
629.396910 18.000000
632.365970 17.000000
647.384950 101.000000
648.378660 64.000000
648.411500 21.000000
649.346010 19.000000
649.387820 23.000000
650.947880 17.000000
822.267520 20.000000
823.363220 86.000000
823.421020 246.000000

