>compound PR26509184
>parentmass 580.3347
>ionization [M+H]+
>formula C27H49NO12
>rt 287.400000
>profile qtof
#smiles_iso CCCCCCCCCCCCC(C(C(COC1C(C(C(C(O1)CC(C(=O)O)C(=O)O)O)O)O)NC(=O)C)O)O
#smiles_can CCCCCCCCCCCCC(C(C(COC1C(C(C(C(O1)CC(C(=O)O)C(=O)O)O)O)O)NC(=O)C)O)O
#inchikey TZNOUJCNSUIBIN-UHFFFAOYSA-N
#pubchem_id 139292080
#mb_accession PR310847

>ms2
93.069930 22.000000
157.049510 16.000000
188.122340 16.000000
210.228180 18.000000
243.660290 33.000000
279.198910 66.000000
296.245330 16.000000
296.263120 23.000000
314.237550 17.000000
314.268430 71.000000
314.288420 17.000000
315.276520 35.000000
332.260470 16.000000
332.286710 55.000000
332.298220 31.000000
333.282780 33.000000
340.582370 18.000000
464.565280 33.000000
518.099610 19.000000
536.353330 16.000000
538.336360 16.000000
579.144840 16.000000
580.329280 651.000000

