>compound PR26152864
>parentmass 355.1176148
>ionization [M+H]+
>formula C20H18O6
>rt 507.348000
>profile qtof
#smiles_iso CC(=O)OC1=CC=C(C=C1)/C=C/C2=CC(=CC(=C2)OC(=O)C)OC(=O)C
#smiles_can CC(=O)OC1=CC=C(C=C1)C=CC2=CC(=CC(=C2)OC(=O)C)OC(=O)C
#inchikey PDAYUJSOJIMKIS-SNAWJCMRSA-N
#pubchem_id 5962587
#mb_accession PR304181,PR304183,PR304185,PR304187,PR304189,PR304191,PR304193,PR304195,PR304197,PR304199,PR304201,PR304203

>ms2peaks
91.054890 10.000000
107.049790 67.000000
111.043190 11.000000
112.047560 5.000000
119.049380 47.000000
121.027620 11.000000
135.032120 6.000000
135.044660 160.000000
136.044270 10.000000
136.052190 10.000000
145.065430 11.000000
165.065670 14.000000
166.079060 6.000000
183.077640 31.000000
193.066450 8.000000
211.076430 32.000000
212.085240 7.000000
228.068250 8.000000
228.078080 29.000000
229.086040 551.000000
230.090000 74.000000
231.095080 16.000000
270.078190 6.000000
270.087830 14.000000
271.096470 1000.000000
271.142700 6.000000
272.101840 201.000000
273.102450 31.000000
312.098360 28.000000
313.106290 487.000000
314.110110 111.000000
315.117680 13.000000
355.117710 65.000000

>ms2peaks
271.095760 419.000000
272.099760 66.000000
273.096950 5.000000
312.097500 48.000000
313.106290 1000.000000
313.157780 10.000000
314.110530 218.000000
315.109010 24.000000
354.109100 12.000000
355.117370 217.000000

>ms2peaks
91.054410 23.000000
95.046620 7.000000
107.049130 67.000000
108.051600 6.000000
111.042110 16.000000
119.048760 107.000000
120.051920 16.000000
135.044010 305.000000
136.038390 9.000000
136.047640 32.000000
136.056000 7.000000
145.067310 8.000000
165.070630 15.000000
183.079040 30.000000
187.073210 10.000000
193.061810 21.000000
201.089520 13.000000
211.074690 79.000000
212.077130 12.000000
227.072330 5.000000
228.076930 81.000000
229.043000 6.000000
229.086170 1000.000000
230.089360 194.000000
231.091570 21.000000
253.089070 10.000000
271.073910 6.000000
271.096280 138.000000
272.100890 37.000000

>ms2peaks
68.991900 6.000000
69.000350 5.000000
77.032480 10.000000
77.038810 30.000000
79.054050 35.000000
79.061370 7.000000
91.053880 383.000000
92.057410 52.000000
93.059460 7.000000
95.048140 10.000000
107.031530 7.000000
107.049060 1000.000000
108.048830 43.000000
108.054080 82.000000
109.022410 11.000000
109.030860 29.000000
111.041440 17.000000
111.048380 9.000000
115.054360 45.000000
116.055660 6.000000
117.032970 14.000000
117.070270 8.000000
119.046550 136.000000
120.058060 190.000000
121.029170 95.000000
121.065850 9.000000
122.029090 16.000000
122.070650 16.000000
123.045600 53.000000
127.046970 9.000000
127.055020 5.000000
128.063030 20.000000
129.068560 38.000000
129.079060 9.000000
131.051060 16.000000
131.080370 12.000000
133.066930 27.000000
135.043760 254.000000
136.051800 77.000000
139.052730 6.000000
141.062930 21.000000
141.071140 70.000000
142.075640 10.000000
143.047270 9.000000
143.081040 11.000000
145.061580 23.000000
145.067890 14.000000
147.040590 18.000000
151.058330 6.000000
152.060290 13.000000
153.068950 90.000000
153.076280 24.000000
154.072250 37.000000
154.081100 18.000000
155.083600 103.000000
155.099090 6.000000
156.090650 7.000000
157.054150 6.000000
157.064330 19.000000
157.073840 12.000000
158.076970 13.000000
159.086550 19.000000
160.050670 11.000000
164.067290 7.000000
165.064820 219.000000
165.072590 229.000000
166.075780 118.000000
167.071690 8.000000
167.080180 8.000000
168.047530 8.000000
168.060520 20.000000
169.061280 7.000000
173.060490 14.000000
178.077560 7.000000
181.065090 56.000000
182.071320 35.000000
183.080720 80.000000
187.070300 8.000000
190.079760 8.000000
193.060730 23.000000
193.069490 17.000000
195.074050 5.000000
197.036510 6.000000
197.050380 7.000000
199.071490 8.000000
199.086240 12.000000
209.058910 12.000000
210.058000 7.000000
210.070910 9.000000
211.069120 31.000000
212.076250 35.000000
214.054170 8.000000
227.061780 7.000000
227.072310 12.000000
228.074810 22.000000
229.074980 11.000000
229.084050 6.000000
235.081790 8.000000

>ms2peaks
91.053960 14.000000
107.049450 64.000000
111.043560 9.000000
119.049740 41.000000
120.054700 6.000000
135.043930 179.000000
136.043690 18.000000
141.072860 6.000000
145.059450 6.000000
153.068830 6.000000
155.089750 6.000000
165.065610 22.000000
165.072570 11.000000
183.071210 8.000000
183.082630 20.000000
193.063960 8.000000
194.063900 5.000000
211.073840 17.000000
211.084120 12.000000
212.074740 9.000000
228.084080 20.000000
229.054870 8.000000
229.084870 523.000000
230.088090 79.000000
230.096010 37.000000
231.092190 12.000000
270.090360 17.000000
271.096190 1000.000000
271.142580 9.000000
272.100370 207.000000
273.103120 23.000000
312.098750 34.000000
313.066740 6.000000
313.107150 471.000000
314.112210 80.000000
355.119350 61.000000

>ms2peaks
271.090940 258.000000
271.102510 169.000000
272.099430 80.000000
273.107180 7.000000
312.094970 25.000000
312.110500 20.000000
313.106140 1000.000000
313.153290 7.000000
314.109740 218.000000
315.112820 27.000000
315.132110 6.000000
354.099670 10.000000
355.116030 221.000000

>ms2peaks
91.055270 11.000000
95.050590 6.000000
107.048950 62.000000
111.044370 19.000000
119.048970 92.000000
120.051540 5.000000
120.058310 5.000000
123.042180 8.000000
135.043590 321.000000
136.047990 36.000000
137.054370 5.000000
145.060810 5.000000
145.068040 7.000000
149.061740 6.000000
165.068980 21.000000
177.054700 13.000000
183.078640 34.000000
187.075870 9.000000
193.065290 11.000000
201.092970 6.000000
211.076310 71.000000
227.068150 8.000000
228.077500 59.000000
229.085710 1000.000000
230.089630 170.000000
231.091480 16.000000
253.088640 6.000000
271.095550 157.000000
272.099670 37.000000

>ms2peaks
77.034380 11.000000
77.038090 31.000000
77.044770 8.000000
79.051300 8.000000
79.055810 18.000000
80.988690 8.000000
83.055460 6.000000
90.996560 6.000000
91.051180 110.000000
91.055460 230.000000
92.059910 20.000000
93.031340 17.000000
93.065440 8.000000
95.046840 10.000000
103.053920 13.000000
107.025960 18.000000
107.031490 5.000000
107.049220 1000.000000
108.051190 55.000000
109.026180 11.000000
110.031840 9.000000
110.039050 7.000000
111.043540 20.000000
115.054220 33.000000
117.070760 5.000000
119.031680 5.000000
119.048850 127.000000
120.056000 134.000000
121.027080 36.000000
121.059960 18.000000
122.027490 6.000000
123.043450 38.000000
124.045320 7.000000
127.052220 26.000000
128.063740 15.000000
129.069340 22.000000
131.047790 6.000000
132.058700 7.000000
133.033690 6.000000
134.033330 6.000000
135.042430 185.000000
136.050800 113.000000
139.055890 7.000000
141.066510 43.000000
141.072340 33.000000
142.075900 6.000000
144.051410 6.000000
144.059880 12.000000
145.068250 17.000000
146.065090 7.000000
150.369670 6.000000
151.051270 7.000000
152.061040 18.000000
153.069340 68.000000
153.078770 9.000000
154.068700 13.000000
154.074250 34.000000
155.081500 68.000000
155.090590 22.000000
156.081270 6.000000
157.062440 31.000000
158.073670 11.000000
161.057310 9.000000
164.049090 8.000000
165.043730 14.000000
165.069180 324.000000
166.052030 12.000000
166.072600 73.000000
167.075160 8.000000
168.032850 6.000000
168.052110 17.000000
168.062360 13.000000
169.065870 17.000000
172.085340 6.000000
173.059390 22.000000
181.065200 53.000000
182.068510 7.000000
182.076950 15.000000
183.078740 49.000000
183.090300 11.000000
184.078110 7.000000
184.087430 7.000000
186.072330 10.000000
193.053620 6.000000
193.067810 29.000000
194.072540 16.000000
199.074250 12.000000
209.057980 8.000000
209.065660 6.000000
210.063980 25.000000
211.062990 16.000000
211.076230 25.000000
212.072570 13.000000
212.080780 9.000000
212.092540 6.000000
214.059780 10.000000
225.085890 5.000000
227.065780 15.000000
228.069950 9.000000
228.082660 7.000000
229.087720 15.000000
261.413420 6.000000

>ms2peaks
91.053990 10.000000
107.041690 10.000000
107.049450 30.000000
111.042770 8.000000
119.048350 36.000000
120.056960 7.000000
135.043910 137.000000
136.043090 6.000000
136.050870 21.000000
155.085070 5.000000
165.068820 28.000000
183.074950 9.000000
183.082890 13.000000
193.065670 18.000000
210.067020 5.000000
211.074330 43.000000
228.077970 34.000000
229.086060 491.000000
230.088880 76.000000
231.091140 14.000000
270.089230 9.000000
271.097230 1000.000000
271.143830 12.000000
272.100100 164.000000
273.104520 24.000000
312.096890 24.000000
313.106510 452.000000
314.109920 104.000000
315.111570 11.000000
354.108640 5.000000
355.115910 55.000000

>ms2peaks
271.096740 386.000000
272.101010 76.000000
273.102020 9.000000
312.086580 12.000000
312.099580 45.000000
313.107570 1000.000000
313.158690 16.000000
314.110630 191.000000
315.111630 31.000000
354.101500 5.000000
355.117340 194.000000

>ms2peaks
91.051290 7.000000
107.048720 54.000000
111.039680 5.000000
111.046620 10.000000
119.048390 90.000000
120.052890 16.000000
135.043560 313.000000
136.047300 35.000000
145.061460 8.000000
145.068470 7.000000
157.066270 7.000000
165.070820 9.000000
177.051650 9.000000
183.081280 32.000000
187.073320 8.000000
193.063810 21.000000
201.092450 7.000000
211.075870 68.000000
212.079610 13.000000
228.077000 59.000000
229.085680 1000.000000
230.088840 168.000000
231.093150 16.000000
253.085540 7.000000
271.095640 125.000000
272.100490 32.000000

>ms2peaks
67.052830 7.000000
68.995410 6.000000
77.038350 43.000000
77.042530 11.000000
79.049190 11.000000
79.054760 31.000000
91.054820 301.000000
92.059230 15.000000
93.033520 19.000000
94.035350 7.000000
95.047170 7.000000
105.069110 10.000000
106.758390 6.000000
107.048880 1000.000000
108.048670 30.000000
108.053630 92.000000
109.030650 16.000000
111.039610 23.000000
111.045160 17.000000
115.032800 5.000000
115.052900 23.000000
116.061490 7.000000
117.069930 8.000000
119.049900 130.000000
120.057360 136.000000
121.027100 95.000000
121.059440 22.000000
122.025330 6.000000
123.038710 17.000000
123.045430 35.000000
127.054160 15.000000
128.061100 9.000000
129.066360 31.000000
131.050090 15.000000
131.086200 14.000000
132.060930 6.000000
133.064650 10.000000
134.031950 6.000000
134.046080 6.000000
135.039090 48.000000
135.045440 160.000000
136.031490 7.000000
136.051710 112.000000
137.016650 7.000000
141.070820 69.000000
142.073440 12.000000
143.049040 7.000000
143.239670 5.000000
144.058290 9.000000
145.060880 42.000000
145.067200 15.000000
145.099120 6.000000
146.068210 8.000000
149.057570 6.000000
152.061570 8.000000
152.067570 9.000000
152.076030 5.000000
153.069380 119.000000
154.075500 39.000000
155.085740 82.000000
156.081730 5.000000
156.087570 16.000000
157.067410 29.000000
158.070360 10.000000
159.079570 9.000000
160.050220 15.000000
161.058170 19.000000
161.094360 8.000000
165.070300 382.000000
166.070510 46.000000
166.079640 26.000000
168.057070 41.000000
169.058530 16.000000
169.066470 6.000000
171.036850 8.000000
178.073620 6.000000
181.061550 53.000000
181.071550 25.000000
182.065400 13.000000
182.075680 15.000000
183.069320 15.000000
183.080950 63.000000
186.069730 7.000000
187.068270 7.000000
193.060900 11.000000
193.068500 12.000000
193.082140 7.000000
194.072420 13.000000
197.055450 9.000000
197.063400 13.000000
199.074620 24.000000
200.074540 6.000000
210.061720 12.000000
211.064960 15.000000
211.074360 39.000000
212.083400 9.000000
213.046390 12.000000
214.052150 5.000000
227.069700 34.000000

