>compound PR26754142
>parentmass 759.2714
>ionization [M+H]+
>formula C34H46O19
>rt 230.400000
>profile qtof
#smiles_iso CC=C1C(C(=COC1OC2C(C(C(C(O2)CO)O)O)O)C(=O)OC)CC(=O)OCC3C(C(C(C(O3)OC4=C(C=C(C=C4OC)C=CCO)OC)O)O)O
#smiles_can CC=C1C(C(=COC1OC2C(C(C(C(O2)CO)O)O)O)C(=O)OC)CC(=O)OCC3C(C(C(C(O3)OC4=C(C=C(C=C4OC)C=CCO)OC)O)O)O
#inchikey UUUCHDSMSNBEBE-UHFFFAOYSA-N
#pubchem_id 76534737
#mb_accession PR310743

>ms2
107.049070 56.000000
107.054820 16.000000
108.650710 20.000000
109.028930 60.000000
119.079810 32.000000
127.036490 22.000000
135.039930 35.000000
139.040800 52.000000
145.038350 20.000000
149.030360 19.000000
149.068080 20.000000
151.035580 16.000000
159.045440 17.000000
161.994900 26.000000
165.052670 98.000000
165.058840 110.000000
166.054210 89.000000
166.063250 62.000000
166.210680 17.000000
167.069240 32.000000
167.082430 16.000000
168.071820 53.000000
177.053570 65.000000
177.061860 122.000000
177.311840 17.000000
178.055730 18.000000
179.076200 17.000000
181.093870 18.000000
186.755570 23.000000
195.066190 20.000000
195.075930 28.000000
199.080290 16.000000
209.062150 17.000000
209.083560 988.000000
210.086470 117.000000
210.102080 17.000000
211.081970 16.000000
227.085420 343.000000
227.099410 35.000000
229.099960 44.000000
250.108830 26.000000
295.109680 20.000000
301.101200 17.000000
303.096680 22.000000
322.097140 24.000000
340.111050 17.000000
354.134860 18.000000
371.021480 20.000000
371.112270 16.000000
371.138550 42.000000
371.151950 16.000000
389.135500 16.000000
458.741270 17.000000
493.658080 16.000000
495.163910 27.000000
515.159670 20.000000
527.188660 16.000000
533.172360 33.000000
534.160400 17.000000
565.196590 32.000000
566.179570 17.000000
571.194950 18.000000
579.175420 17.000000
579.224790 32.000000
580.190430 19.000000
580.221500 18.000000
580.244570 17.000000
581.230900 20.000000
597.204350 16.000000
597.236450 63.000000
598.217410 35.000000
660.200010 16.000000
679.183290 17.000000
709.198910 18.000000
741.258730 33.000000
759.210690 16.000000

