>compound PR26268468
>parentmass 595.2021322
>ionization [M+H]+
>formula C28H34O14
>rt 324.919980
>profile qtof
#smiles_iso CC1[C@@H]([C@@H](C([C@@H](O1)OC2[C@@H]([C@@H](C(O[C@H]2OC3=CC(=C(C(=C3)O)C(=O)/C=C/C4=CC=C(C=C4)OC)O)CO)O)O)O)O)O
#smiles_can CC1C(C(C(C(O1)OC2C(C(C(OC2OC3=CC(=C(C(=C3)O)C(=O)C=CC4=CC=C(C=C4)OC)O)CO)O)O)O)O)O
#inchikey HWRDCYOHJBCWGW-SMJLESKMSA-N
#pubchem_id 24211943
#mb_accession PR302074,PR302081,PR302085,PR302089,PR302096,PR302103,PR302107,PR302111,PR302115

>ms2
71.051440 25.000000
75.043660 11.000000
81.364780 7.000000
85.026720 42.000000
85.032930 15.000000
123.787750 9.000000
129.053450 119.000000
130.391780 7.000000
147.058650 12.000000
151.100520 9.000000
153.013960 106.000000
153.025890 64.000000
154.020200 38.000000
161.056630 22.000000
162.064320 10.000000
177.026460 7.000000
179.028500 28.000000
191.023350 8.000000
195.027770 62.000000
196.028850 12.000000
207.029450 9.000000
217.150860 9.000000
219.025310 25.000000
219.041110 8.000000
245.047030 12.000000
246.040220 13.000000
261.009370 11.000000
261.044430 9.000000
262.045290 9.000000
263.049070 34.000000
263.064090 8.000000
264.070010 10.000000
281.065670 15.000000
287.046330 9.000000
287.058990 7.000000
287.090880 1000.000000
288.099790 196.000000
288.121120 9.000000
289.082210 14.000000
289.100100 25.000000
290.101560 15.000000
297.047850 9.000000
297.062990 21.000000
299.063020 7.000000
300.070400 12.000000
312.103850 19.000000
329.075500 13.000000
329.099550 66.000000
329.117100 18.000000
329.856690 8.000000
330.107970 17.000000
353.090090 9.000000
353.107760 28.000000
365.108180 10.000000
371.139040 20.000000
372.080840 12.000000
379.106230 13.000000
395.102390 15.000000
397.106320 10.000000
397.124240 64.000000
397.149230 11.000000
397.178920 11.000000
398.128230 32.000000
400.133150 8.000000
407.106510 10.000000
413.124180 32.000000
415.135440 47.000000
415.151920 37.000000
416.122920 9.000000
416.142790 9.000000
427.142180 21.000000
431.126130 22.000000
431.142210 39.000000
432.148470 13.000000
433.110200 8.000000
433.148560 206.000000
433.910920 7.000000
434.143190 41.000000
434.162170 10.000000
435.165340 7.000000
444.131990 27.000000
449.112400 17.000000
449.148380 182.000000
450.135710 32.000000
453.061520 11.000000
453.783020 9.000000
473.159390 24.000000
475.169530 9.000000
476.117800 11.000000
541.146360 12.000000
541.177550 25.000000
545.123470 8.000000
559.174380 11.000000
559.201720 9.000000
577.198550 25.000000
595.121090 8.000000
595.208560 192.000000

>ms2
71.021770 16.000000
71.049260 86.000000
75.046780 30.000000
85.026790 70.000000
85.038960 11.000000
86.032950 18.000000
99.046860 17.000000
109.063250 16.000000
111.040910 17.000000
124.008230 14.000000
127.033600 11.000000
127.184070 18.000000
129.054200 82.000000
137.056460 21.000000
152.994630 23.000000
153.017730 229.000000
154.019960 13.000000
161.057190 117.000000
177.049090 21.000000
179.028180 15.000000
179.040710 11.000000
195.028440 120.000000
195.041290 24.000000
196.052600 21.000000
197.026000 14.000000
217.049910 23.000000
219.018590 32.000000
220.032730 11.000000
227.035080 11.000000
231.017610 12.000000
245.035800 12.000000
245.045960 28.000000
257.850310 14.000000
261.045230 28.000000
263.036680 32.000000
263.048550 96.000000
263.061550 63.000000
270.085720 25.000000
273.043430 21.000000
279.035000 14.000000
281.065920 12.000000
287.010770 10.000000
287.092070 1000.000000
288.036410 13.000000
288.090580 66.000000
288.101470 35.000000
289.073670 12.000000
289.091490 23.000000
289.105470 21.000000
297.059690 23.000000
299.087070 60.000000
299.098420 26.000000
300.105710 18.000000
305.076900 23.000000
311.074710 15.000000
311.112460 14.000000
314.864070 14.000000
329.066220 18.000000
329.105930 22.000000
330.109220 15.000000
352.434630 14.000000
353.077240 21.000000
353.100860 38.000000
365.108340 16.000000
368.132660 18.000000
379.120670 25.000000
381.105680 20.000000
389.078370 29.000000
397.117370 23.000000
398.137480 12.000000
413.123290 22.000000
413.137240 24.000000
415.160520 12.000000
449.147830 12.000000
457.154300 17.000000

>ms2
58.037980 25.000000
69.032680 53.000000
71.049510 43.000000
75.035090 20.000000
85.027630 107.000000
97.030080 28.000000
127.039090 28.000000
129.054520 26.000000
133.059160 24.000000
135.038830 107.000000
139.387210 20.000000
149.028340 25.000000
151.037800 83.000000
153.017720 1000.000000
154.019390 64.000000
161.032460 24.000000
161.059570 324.000000
161.070010 44.000000
162.062760 52.000000
163.029830 20.000000
165.007250 24.000000
165.015120 21.000000
166.020260 44.000000
177.011960 33.000000
179.029710 33.000000
181.050960 18.000000
189.016370 23.000000
190.993650 22.000000
191.040310 21.000000
192.016740 39.000000
195.014570 42.000000
195.028640 131.000000
196.030500 28.000000
203.037170 38.000000
203.072750 45.000000
207.023210 25.000000
217.044570 17.000000
219.024950 55.000000
220.032030 30.000000
231.026790 23.000000
231.037450 18.000000
231.814680 19.000000
245.039730 21.000000
245.049000 32.000000
257.047060 40.000000
259.075380 20.000000
287.080230 63.000000
288.090210 93.000000
289.098210 23.000000

>ms2
72.927830 11.000000
73.029170 17.000000
83.048030 14.000000
85.017210 35.000000
85.027730 48.000000
85.034100 11.000000
129.046570 12.000000
135.077330 20.000000
147.063780 15.000000
147.070970 43.000000
149.064240 18.000000
153.021160 121.000000
161.061540 113.000000
164.344920 11.000000
164.975850 14.000000
165.013990 15.000000
179.036620 11.000000
194.944050 20.000000
195.026950 66.000000
195.037260 15.000000
196.038910 11.000000
203.038220 17.000000
205.021090 10.000000
219.028350 39.000000
243.031450 12.000000
243.075270 11.000000
245.045610 13.000000
246.026120 12.000000
263.052250 12.000000
263.063720 34.000000
281.037870 18.000000
281.061130 35.000000
286.394930 12.000000
287.089900 1000.000000
287.690430 11.000000
288.053380 16.000000
288.076900 23.000000
288.094790 131.000000
288.108830 36.000000
288.701290 16.000000
288.736970 10.000000
289.101960 17.000000
297.055630 12.000000
299.085420 33.000000
311.098300 14.000000
323.069640 20.000000
329.066410 10.000000
329.100430 55.000000
338.118380 22.000000
353.090030 16.000000
353.110080 35.000000
354.097720 29.000000
355.124270 12.000000
355.176640 17.000000
358.981570 12.000000
377.100070 15.000000
389.089840 18.000000
396.119720 12.000000
396.241880 12.000000
397.112180 18.000000
398.130000 18.000000
398.140010 10.000000
403.692500 22.000000
413.119690 10.000000
415.119020 16.000000
415.144990 59.000000
415.389770 12.000000
416.134740 41.000000
431.117280 10.000000
431.144040 41.000000
432.121370 19.000000
432.143130 17.000000
433.090060 13.000000
433.143550 209.000000
433.166410 54.000000
434.123720 17.000000
436.168550 11.000000
449.145290 174.000000
450.152040 12.000000
450.168300 12.000000
455.147160 17.000000
456.137210 12.000000
461.118930 10.000000
473.145660 18.000000
473.160370 14.000000
475.157440 25.000000
541.181760 14.000000
560.161500 14.000000
595.166930 34.000000
595.199460 238.000000

>ms2
69.036830 26.000000
71.047330 18.000000
71.055060 17.000000
85.029430 121.000000
101.017430 17.000000
109.032390 10.000000
111.049240 20.000000
129.054820 57.000000
135.082400 18.000000
147.071150 17.000000
152.988390 13.000000
153.001020 12.000000
153.016620 213.000000
154.016220 16.000000
154.758800 13.000000
161.041280 11.000000
161.055790 27.000000
162.060380 11.000000
179.036900 12.000000
183.054610 11.000000
187.909090 18.000000
195.027080 129.000000
196.042250 16.000000
207.029970 30.000000
207.065640 10.000000
213.152420 17.000000
219.021070 37.000000
219.032040 12.000000
220.026630 14.000000
227.655440 18.000000
233.038890 11.000000
235.062640 16.000000
237.037220 42.000000
240.264370 11.000000
243.035060 36.000000
245.040600 39.000000
257.044250 12.000000
261.028350 14.000000
261.035370 42.000000
263.050350 163.000000
263.065980 44.000000
264.062380 12.000000
264.074100 22.000000
265.033050 10.000000
271.048490 16.000000
273.039490 23.000000
279.059300 10.000000
281.081300 13.000000
282.071990 18.000000
287.026250 13.000000
287.050540 22.000000
287.092130 1000.000000
287.431090 13.000000
288.002440 23.000000
288.093260 193.000000
289.033110 10.000000
289.095490 44.000000
289.105440 28.000000
297.079990 18.000000
299.071140 20.000000
299.086120 29.000000
299.113460 17.000000
303.074100 11.000000
306.074250 14.000000
312.096920 23.000000
321.084170 11.000000
324.116300 13.000000
325.088710 14.000000
325.103880 18.000000
329.095150 9.000000
329.114470 14.000000
337.116210 11.000000
347.080410 18.000000
353.088750 19.000000
353.105740 47.000000
363.085570 13.000000
365.103490 42.000000
366.106290 20.000000
378.089080 9.000000
380.122890 13.000000
390.071320 11.000000
395.109160 28.000000
396.336270 11.000000
407.114440 18.000000
413.146940 9.000000
456.116030 19.000000
475.149900 18.000000

>ms2
71.046360 10.000000
72.064960 9.000000
85.026380 21.000000
112.191420 14.000000
129.052280 44.000000
141.052750 16.000000
147.039730 10.000000
147.059420 26.000000
153.018190 40.000000
161.042830 10.000000
161.057750 44.000000
164.498780 20.000000
177.026250 15.000000
179.025270 14.000000
189.008700 16.000000
189.053920 27.000000
191.038990 9.000000
195.032010 137.000000
196.032620 12.000000
205.899890 11.000000
218.057210 13.000000
219.028780 38.000000
231.019810 9.000000
231.037280 14.000000
243.025180 11.000000
245.045530 27.000000
246.035690 15.000000
246.046510 16.000000
246.057510 11.000000
261.028410 11.000000
261.049190 28.000000
263.055050 26.000000
264.062990 16.000000
265.070310 13.000000
281.062990 38.000000
281.073460 19.000000
283.506500 8.000000
287.091430 1000.000000
288.064670 9.000000
288.096100 177.000000
289.104890 13.000000
290.146150 8.000000
292.084200 16.000000
297.039030 11.000000
299.081670 40.000000
309.114260 9.000000
311.090240 9.000000
313.101260 11.000000
315.050350 11.000000
323.093570 18.000000
329.081120 9.000000
329.095030 24.000000
329.114990 20.000000
330.072330 10.000000
330.100070 19.000000
331.114110 12.000000
339.071010 9.000000
353.104160 37.000000
354.092040 12.000000
359.046810 9.000000
379.119780 31.000000
395.125640 15.000000
397.131620 108.000000
398.136380 10.000000
399.119660 10.000000
414.114930 12.000000
415.118560 19.000000
415.145360 116.000000
415.964690 8.000000
416.140350 58.000000
417.144960 10.000000
422.139620 10.000000
425.094970 11.000000
428.129850 10.000000
431.118350 45.000000
432.104860 13.000000
433.105960 37.000000
433.145690 173.000000
433.173460 24.000000
434.126310 21.000000
434.151090 42.000000
434.164460 21.000000
435.150940 19.000000
444.092470 9.000000
449.077330 23.000000
449.112850 41.000000
449.143010 117.000000
450.114870 12.000000
450.142490 46.000000
451.498470 12.000000
452.159300 9.000000
461.140080 13.000000
469.297850 12.000000
473.137300 11.000000
475.143430 13.000000
524.156310 11.000000
541.174870 20.000000
542.174320 9.000000
559.154600 8.000000
559.169370 16.000000
559.194400 9.000000
560.168950 9.000000
577.197940 9.000000
578.191160 10.000000
595.210140 222.000000
595.238160 24.000000

>ms2
129.053960 48.000000
163.056020 34.000000
255.583890 11.000000
268.536830 12.000000
281.069310 24.000000
287.067570 26.000000
287.090940 748.000000
287.112880 62.000000
288.071560 24.000000
288.093660 60.000000
288.104610 35.000000
288.123660 12.000000
289.076200 35.000000
289.099400 12.000000
290.098660 15.000000
291.105380 18.000000
305.059360 20.000000
309.122860 20.000000
314.107760 16.000000
329.065700 13.000000
329.100220 62.000000
330.074010 18.000000
330.108760 16.000000
330.120300 18.000000
331.107820 15.000000
340.857670 13.000000
353.086330 11.000000
353.101260 54.000000
353.119810 24.000000
394.031220 11.000000
394.894010 19.000000
397.116270 51.000000
397.130550 47.000000
398.133820 35.000000
403.653810 13.000000
406.582430 16.000000
407.093750 15.000000
413.125640 13.000000
415.080510 14.000000
415.105740 14.000000
415.124020 68.000000
415.138210 79.000000
415.154820 49.000000
416.124450 12.000000
416.148650 11.000000
431.131900 285.000000
432.139250 40.000000
433.033910 24.000000
433.063900 16.000000
433.079930 12.000000
433.149780 1000.000000
434.128910 56.000000
434.154600 264.000000
434.179350 10.000000
435.126830 30.000000
435.144410 36.000000
435.170620 47.000000
436.152190 14.000000
449.097050 18.000000
449.125400 165.000000
449.146090 519.000000
450.138760 90.000000
450.155790 54.000000
451.156920 50.000000
457.155000 35.000000
458.148320 12.000000
464.147130 14.000000
473.133640 11.000000
473.159060 30.000000
474.153380 16.000000
475.168150 24.000000
491.131410 16.000000
492.151820 18.000000
498.154510 18.000000
516.311770 16.000000
541.168270 62.000000
542.183110 16.000000
559.166080 66.000000
559.212040 12.000000
561.196840 13.000000
577.166690 16.000000
577.198490 13.000000
578.136720 43.000000
578.190060 12.000000
595.135620 23.000000
595.166870 65.000000
595.204220 864.000000

>ms2
66.803540 20.000000
71.048710 39.000000
85.028350 102.000000
85.466590 9.000000
87.031850 10.000000
111.042410 10.000000
126.069150 12.000000
129.051160 38.000000
129.060270 17.000000
130.060470 16.000000
135.075410 38.000000
137.061250 17.000000
139.038890 9.000000
147.068020 19.000000
152.970600 9.000000
153.005260 12.000000
153.018550 176.000000
153.065280 9.000000
161.043290 22.000000
161.053310 96.000000
161.064040 33.000000
162.067930 22.000000
165.024800 14.000000
177.002880 19.000000
179.025910 8.000000
195.024380 70.000000
195.032710 43.000000
196.035980 18.000000
219.006840 20.000000
219.021620 9.000000
219.028880 30.000000
221.055880 9.000000
243.025420 12.000000
245.039670 36.000000
245.053180 27.000000
247.043850 13.000000
250.383070 10.000000
256.173070 9.000000
261.028930 14.000000
261.037170 11.000000
263.038180 10.000000
263.054320 68.000000
263.070860 10.000000
273.041500 13.000000
273.052190 17.000000
279.058440 11.000000
281.061190 10.000000
282.067260 20.000000
286.850400 8.000000
286.961150 11.000000
287.044740 11.000000
287.056240 15.000000
287.089390 1000.000000
287.124050 8.000000
287.995330 19.000000
288.043790 8.000000
288.093080 117.000000
289.060910 12.000000
289.087430 22.000000
299.069060 10.000000
299.095950 40.000000
300.103210 8.000000
311.058010 13.000000
311.095250 13.000000
325.110080 10.000000
329.073210 12.000000
329.093870 20.000000
329.108980 23.000000
330.104370 16.000000
339.069460 18.000000
340.088930 12.000000
353.064270 12.000000
353.081760 20.000000
353.102570 69.000000
353.121250 7.000000
354.104890 32.000000
357.116420 8.000000
365.087620 21.000000
365.105710 24.000000
366.080020 33.000000
371.086000 12.000000
378.120450 18.000000
379.122340 11.000000
398.274440 9.000000
398.584170 16.000000
413.136810 9.000000
414.114810 8.000000
416.143100 20.000000
449.157840 11.000000
450.142700 11.000000

>ms2
71.048860 33.000000
71.054160 69.000000
85.032520 335.000000
86.027450 42.000000
86.035070 40.000000
95.042920 51.000000
103.036520 55.000000
105.060790 118.000000
133.067950 49.000000
135.044390 104.000000
137.065380 60.000000
139.142090 40.000000
153.018010 1000.000000
154.025440 47.000000
156.098790 33.000000
157.030210 53.000000
161.047590 56.000000
161.061140 275.000000
162.062790 42.000000
165.009780 77.000000
165.016190 78.000000
165.025380 126.000000
175.079060 42.000000
176.011460 60.000000
177.016970 58.000000
177.022420 129.000000
177.137130 36.000000
179.025330 80.000000
189.019740 55.000000
191.034810 75.000000
195.033800 293.000000
196.037250 46.000000
198.090770 31.000000
203.029330 33.000000
217.053530 47.000000
219.020030 56.000000
219.026900 102.000000
243.032290 35.000000
245.043930 84.000000
263.046110 47.000000
287.063690 62.000000
287.093380 80.000000
288.096860 87.000000
297.075900 38.000000
311.064300 38.000000
337.111940 36.000000

