>compound PR26750779
>parentmass 187.08658944615385
>ionization [M+H]+
>formula C11H10N2O
>rt 331.585883
>profile qtof
#smiles_iso C1CNC(=O)C2=C1C3=CC=CC=C3N2
#smiles_can C1CNC(=O)C2=C1C3=CC=CC=C3N2
#inchikey FZHZQHNKCPJTNQ-UHFFFAOYSA-N
#pubchem_id 87371
#mb_accession PR301092,PR301096,PR301100,PR301104,PR301108,PR301112,PR301116,PR301120,PR301124,PR301128,PR301132,PR301136,PR310510

>ms2peaks
115.054500 56.000000
116.048320 6.000000
117.057210 32.000000
118.061670 7.000000
127.050810 8.000000
130.065780 74.000000
131.065490 8.000000
131.070880 16.000000
132.081050 243.000000
133.079820 8.000000
133.088300 21.000000
142.064620 77.000000
143.070620 13.000000
144.078720 43.000000
145.074370 5.000000
145.085280 6.000000
157.077090 11.000000
157.084960 6.000000
158.059750 21.000000
158.084850 54.000000
159.092850 348.000000
160.095350 35.000000
169.064410 7.000000
169.076350 21.000000
170.061980 15.000000
187.087540 1000.000000
187.126920 20.000000

>ms2peaks
132.081340 15.000000
144.082440 9.000000
159.092530 74.000000
160.096210 9.000000
187.087070 1000.000000
187.125870 30.000000

>ms2peaks
71.149010 14.000000
72.606640 7.000000
82.045370 8.000000
82.054990 17.000000
89.033550 6.000000
89.038700 29.000000
89.556920 8.000000
90.040720 9.000000
91.055000 15.000000
93.052650 6.000000
93.061490 14.000000
97.122870 7.000000
102.045590 6.000000
103.057480 37.000000
104.052210 15.000000
104.060780 9.000000
105.070520 76.000000
112.286800 6.000000
114.041540 11.000000
115.054990 716.000000
115.169100 8.000000
116.049180 83.000000
116.058690 52.000000
117.058110 717.000000
118.057880 19.000000
118.065570 52.000000
118.221900 11.000000
119.071050 7.000000
119.076520 8.000000
127.031210 11.000000
127.038150 8.000000
127.057340 86.000000
128.047490 34.000000
128.058290 20.000000
129.050290 17.000000
129.059880 41.000000
130.065990 813.000000
130.185100 9.000000
131.062610 25.000000
131.071330 146.000000
131.085280 7.000000
131.884310 6.000000
132.043550 7.000000
132.055950 9.000000
132.081250 1000.000000
133.083510 110.000000
133.105010 7.000000
134.111920 6.000000
134.724000 6.000000
135.279830 7.000000
140.053670 90.000000
141.050250 9.000000
141.057540 17.000000
141.972630 8.000000
142.031300 8.000000
142.064910 424.000000
143.067760 147.000000
143.076080 75.000000
143.086840 8.000000
144.038390 10.000000
144.079710 164.000000
146.089580 8.000000
147.389800 7.000000
152.050600 13.000000
154.038440 9.000000
155.566480 6.000000
157.060940 15.000000
157.076540 33.000000
157.084380 16.000000
158.046630 6.000000
158.062760 71.000000
158.083530 338.000000
159.059560 15.000000
159.087230 158.000000
159.097550 132.000000
160.090240 29.000000
160.100890 17.000000
161.061000 7.000000
161.511860 7.000000
168.068560 8.000000
169.067630 20.000000
169.080220 51.000000
170.051970 11.000000
170.064870 33.000000
170.072080 13.000000
170.086290 23.000000
170.136050 8.000000
187.079700 35.000000
187.090300 37.000000

>ms2peaks
77.038520 77.000000
91.055980 69.000000
102.043520 85.000000
103.043270 97.000000
103.054820 69.000000
113.031110 73.000000
115.054350 1000.000000
116.046190 105.000000
116.057450 73.000000
117.056590 174.000000
128.053420 73.000000
129.053300 109.000000
130.063710 413.000000
130.074110 69.000000
131.070140 97.000000
141.061610 73.000000
142.067090 85.000000
144.077870 73.000000
187.068120 81.000000
187.084960 146.000000
187.092930 247.000000

>ms2peaks
115.040020 6.000000
115.056720 44.000000
117.058800 38.000000
117.075130 8.000000
118.064840 14.000000
130.066390 69.000000
131.072110 9.000000
132.080260 227.000000
133.083980 10.000000
140.044240 5.000000
140.052660 5.000000
142.054170 5.000000
142.066850 94.000000
143.074720 18.000000
144.079220 45.000000
144.084590 30.000000
145.088040 10.000000
158.064160 19.000000
158.083040 67.000000
159.075910 8.000000
159.092210 317.000000
160.096240 39.000000
169.075640 14.000000
170.057860 12.000000
187.053470 8.000000
187.086760 1000.000000

>ms2peaks
132.079100 7.000000
144.082170 13.000000
159.092880 71.000000
160.096280 12.000000
187.086790 1000.000000
187.126040 25.000000

>ms2peaks
56.054390 12.000000
77.037380 20.000000
78.040330 22.000000
89.036600 27.000000
89.042000 14.000000
91.042440 10.000000
91.047980 12.000000
91.055680 65.000000
95.165710 25.000000
100.996440 10.000000
101.033200 9.000000
103.055600 60.000000
105.068420 22.000000
110.062200 10.000000
113.489470 9.000000
115.032650 9.000000
115.055270 695.000000
116.036220 17.000000
116.049630 87.000000
116.056930 19.000000
116.067190 64.000000
117.057270 660.000000
117.077240 11.000000
117.459940 10.000000
117.511650 13.000000
117.559870 15.000000
118.051310 9.000000
118.063830 18.000000
119.066960 8.000000
119.073250 24.000000
127.052510 69.000000
128.042480 10.000000
128.052490 22.000000
128.064910 26.000000
128.151400 9.000000
129.053760 49.000000
129.059190 30.000000
129.705780 18.000000
130.049030 17.000000
130.066530 968.000000
130.959530 9.000000
131.068480 130.000000
131.078670 25.000000
132.029390 9.000000
132.081710 1000.000000
132.907780 13.000000
133.078320 42.000000
133.085450 80.000000
133.094960 9.000000
133.681590 9.000000
140.045060 20.000000
141.061710 9.000000
142.065200 407.000000
143.042560 10.000000
143.061130 21.000000
143.073140 215.000000
143.290010 10.000000
144.060090 18.000000
144.076540 60.000000
144.084090 92.000000
144.386890 12.000000
145.086000 18.000000
146.251880 9.000000
154.455720 9.000000
156.069500 16.000000
157.067780 22.000000
157.076310 41.000000
157.084430 9.000000
158.049210 9.000000
158.060870 71.000000
158.084870 420.000000
159.075010 16.000000
159.093050 155.000000
159.105240 11.000000
160.079730 15.000000
160.095990 43.000000
168.071010 22.000000
169.068800 21.000000
169.073810 35.000000
169.085490 11.000000
170.058990 62.000000
187.088240 30.000000

>ms2peaks
77.040180 276.000000
89.037250 181.000000
90.406690 81.000000
113.027610 90.000000
113.038450 95.000000
115.044190 90.000000
115.058080 1000.000000
116.047420 353.000000
116.059470 357.000000
117.019690 95.000000
117.058420 443.000000
118.055870 81.000000
127.054840 163.000000
128.051960 90.000000
130.065580 982.000000
131.065630 222.000000
132.084630 244.000000
132.177670 118.000000
141.063250 81.000000
142.060760 100.000000
143.069230 181.000000
144.072590 109.000000
156.072370 95.000000
158.080320 90.000000
159.087980 77.000000
187.090030 176.000000

>ms2peaks
115.054150 38.000000
116.052410 13.000000
117.056970 48.000000
117.069020 9.000000
128.044800 8.000000
130.060500 18.000000
130.067150 48.000000
131.071200 6.000000
132.081220 199.000000
133.084440 19.000000
140.046720 7.000000
142.066130 80.000000
143.061020 5.000000
143.074250 17.000000
144.067440 6.000000
144.080760 53.000000
145.083440 8.000000
157.075240 12.000000
158.059250 20.000000
158.083740 53.000000
159.059540 5.000000
159.092010 305.000000
160.095200 33.000000
169.074580 13.000000
170.060850 14.000000
187.086760 1000.000000
187.125120 19.000000

>ms2peaks
132.077590 7.000000
132.084010 6.000000
144.079640 10.000000
159.090850 80.000000
160.094440 7.000000
187.086720 1000.000000
187.125110 32.000000

>ms2peaks
56.051060 8.000000
77.040120 23.000000
81.047940 6.000000
89.039900 30.000000
89.042950 12.000000
90.040050 9.000000
90.048270 32.000000
91.058050 34.000000
91.567860 8.000000
93.057090 21.000000
103.039050 6.000000
103.054200 121.000000
104.051760 10.000000
104.055730 16.000000
105.054070 6.000000
105.070400 64.000000
105.079800 6.000000
106.069800 15.000000
106.084950 9.000000
106.103860 7.000000
115.033380 7.000000
115.050540 210.000000
115.055760 541.000000
115.099220 7.000000
115.919650 6.000000
116.039790 16.000000
116.045710 37.000000
116.052260 81.000000
116.058160 41.000000
116.064430 12.000000
117.047280 29.000000
117.059230 520.000000
117.071730 69.000000
118.059680 51.000000
120.557530 7.000000
121.449780 7.000000
125.694280 6.000000
127.053820 34.000000
128.045060 50.000000
128.054860 19.000000
128.063810 9.000000
129.054260 13.000000
129.061020 37.000000
129.540040 6.000000
130.023090 7.000000
130.028410 9.000000
130.066100 1000.000000
130.483370 9.000000
131.040500 10.000000
131.062820 20.000000
131.069140 44.000000
131.075000 66.000000
132.032180 9.000000
132.067060 41.000000
132.081890 891.000000
133.077160 38.000000
133.085020 65.000000
133.090420 21.000000
137.673570 8.000000
140.051710 123.000000
141.028120 6.000000
141.042470 8.000000
141.641660 7.000000
142.065090 472.000000
143.060330 20.000000
143.071960 173.000000
144.071610 26.000000
144.080780 179.000000
145.078720 8.000000
145.085140 13.000000
145.298520 7.000000
149.917590 6.000000
152.600480 15.000000
157.050770 7.000000
157.063580 6.000000
157.076890 117.000000
158.052320 28.000000
158.064300 80.000000
158.083440 279.000000
158.139680 6.000000
159.064330 8.000000
159.091570 252.000000
159.109390 7.000000
160.074480 9.000000
160.080920 8.000000
160.095410 28.000000
160.109180 6.000000
161.097020 21.000000
167.059980 8.000000
169.071150 37.000000
169.081670 44.000000
169.979430 7.000000
170.047850 6.000000
170.059200 32.000000
170.066820 18.000000
187.075560 15.000000
187.085940 57.000000
187.094770 36.000000

>ms2peaks
65.046690 71.000000
88.018070 44.000000
89.038880 54.000000
101.035490 51.000000
103.052950 142.000000
103.058780 213.000000
104.058440 76.000000
112.031200 59.000000
113.038530 66.000000
115.055540 1000.000000
116.045100 61.000000
116.050280 123.000000
116.060750 105.000000
117.046080 47.000000
117.053210 142.000000
117.059640 304.000000
127.047200 56.000000
128.054990 44.000000
129.033330 54.000000
129.057170 44.000000
130.062900 613.000000
130.076810 71.000000
131.065480 76.000000
132.079970 206.000000
132.086930 56.000000
140.048650 47.000000
141.050550 49.000000
142.067050 174.000000
157.077480 51.000000
157.086330 54.000000
158.085630 49.000000
168.068920 47.000000
178.768220 42.000000
187.089770 380.000000

>ms2peaks
77.040700 30.000000
78.040940 21.000000
80.518660 22.000000
91.054410 18.000000
93.053330 20.000000
102.044940 42.000000
103.030850 17.000000
103.059710 70.000000
105.069970 30.000000
105.075930 26.000000
115.054500 842.000000
116.041790 26.000000
116.048320 92.000000
116.055850 45.000000
116.315010 17.000000
117.042290 34.000000
117.057210 486.000000
117.067090 58.000000
117.079880 19.000000
118.061670 98.000000
118.073730 17.000000
118.118780 18.000000
126.786350 27.000000
127.050810 126.000000
128.045010 64.000000
129.056670 43.000000
130.036150 52.000000
130.050840 29.000000
130.065780 1117.000000
130.752900 17.000000
131.065490 116.000000
131.070880 234.000000
132.040540 19.000000
132.052350 17.000000
132.081050 3655.000000
132.261610 19.000000
132.640820 20.000000
133.070270 26.000000
133.079820 126.000000
133.088300 316.000000
136.445560 17.000000
137.695860 19.000000
140.039980 19.000000
140.047840 48.000000
140.055560 49.000000
140.156280 20.000000
142.064620 1149.000000
143.060900 26.000000
143.070620 199.000000
143.076800 61.000000
144.078720 644.000000
144.093930 18.000000
145.074370 81.000000
145.085280 88.000000
145.896930 17.000000
146.084630 23.000000
150.111080 35.000000
154.370450 17.000000
154.513500 18.000000
156.068150 20.000000
157.055920 18.000000
157.077090 172.000000
157.084960 97.000000
157.236100 39.000000
158.059750 310.000000
158.084850 806.000000
158.105420 24.000000
159.000110 20.000000
159.026990 37.000000
159.053560 18.000000
159.059520 24.000000
159.073150 56.000000
159.092850 5219.000000
159.732240 17.000000
160.070800 63.000000
160.095350 533.000000
160.216310 22.000000
166.798310 18.000000
167.066130 27.000000
169.045170 17.000000
169.064410 112.000000
169.076350 321.000000
170.061980 231.000000
170.078890 17.000000
171.065050 43.000000
181.821700 20.000000
186.081530 53.000000
186.983840 18.000000
187.036240 50.000000
187.058430 54.000000
187.087540 15018.000000
187.113330 17.000000
187.126920 300.000000
187.211270 17.000000

