>compound PR26667842
>parentmass 579.1708320999999
>ionization [M+H]+
>formula C27H30O14
>rt 230.232000
>profile qtof
#smiles_iso C[C@H]1[C@@H]([C@H]([C@H]([C@@H](O1)O[C@@H]2[C@H]([C@@H]([C@H](O[C@H]2C3=C(C=C(C4=C3OC(=CC4=O)C5=CC=C(C=C5)O)O)O)CO)O)O)O)O)O
#smiles_can CC1C(C(C(C(O1)OC2C(C(C(OC2C3=C(C=C(C4=C3OC(=CC4=O)C5=CC=C(C=C5)O)O)O)CO)O)O)O)O)O
#inchikey LYGPBZVKGHHTIE-HUBYJIGHSA-N
#pubchem_id 5282151
#mb_accession PR302479,PR302490,PR302496,PR302502,PR302508,PR302514,PR302520,PR302526,PR302532,PR302537,PR302543

>ms2
121.024250 8.000000
243.026540 9.000000
271.059110 19.000000
283.040740 17.000000
283.062010 116.000000
284.060910 22.000000
284.070220 18.000000
295.057830 42.000000
296.074580 6.000000
297.079860 11.000000
309.072360 14.000000
311.050780 10.000000
313.002780 8.000000
313.026120 5.000000
313.073670 260.000000
314.068600 42.000000
314.086210 31.000000
315.077580 12.000000
323.046720 5.000000
323.063660 6.000000
323.081630 13.000000
323.096070 22.000000
324.099790 9.000000
325.068820 16.000000
337.062560 29.000000
337.074550 53.000000
338.067050 13.000000
338.082700 9.000000
343.068020 7.000000
343.084230 11.000000
351.089540 38.000000
352.089540 13.000000
353.097990 6.000000
367.073760 29.000000
367.087590 33.000000
368.078610 5.000000
368.097260 12.000000
379.054380 9.000000
379.080600 60.000000
380.089780 15.000000
381.090820 6.000000
397.088320 116.000000
398.072240 6.000000
398.090480 16.000000
398.100890 29.000000
399.096770 6.000000
415.104250 145.000000
416.104160 59.000000
433.048340 5.000000
433.070680 20.000000
433.112460 560.000000
434.117490 118.000000
435.122280 24.000000
579.121640 32.000000
579.172550 1000.000000

>ms2
81.035250 6.000000
103.038760 11.000000
129.052950 8.000000
217.044460 16.000000
217.055110 6.000000
218.056580 5.000000
243.027330 10.000000
259.063420 5.000000
266.938780 7.000000
271.051760 13.000000
271.061950 30.000000
271.075960 17.000000
272.053830 10.000000
283.012880 8.000000
283.035060 7.000000
283.059480 273.000000
283.453460 6.000000
283.946200 5.000000
284.046140 7.000000
284.062500 44.000000
293.640350 6.000000
295.010620 8.000000
295.063050 61.000000
296.062070 47.000000
297.047390 9.000000
297.080110 13.000000
299.065610 7.000000
307.053530 13.000000
311.030980 6.000000
311.059020 13.000000
313.029390 6.000000
313.070280 797.000000
314.041290 6.000000
314.066650 46.000000
314.083860 93.000000
315.082430 11.000000
316.083620 8.000000
323.045140 8.000000
323.082980 19.000000
323.096680 38.000000
324.094600 14.000000
325.044160 8.000000
325.076020 13.000000
327.055510 6.000000
329.450620 6.000000
333.075320 8.000000
335.056030 5.000000
337.025090 5.000000
337.044530 15.000000
337.071440 296.000000
337.096860 13.000000
338.066280 33.000000
338.089390 9.000000
339.050540 5.000000
343.080540 74.000000
343.096160 33.000000
344.060180 5.000000
344.086820 23.000000
345.104370 5.000000
349.080930 6.000000
351.073850 44.000000
351.095000 20.000000
352.080660 8.000000
352.100460 18.000000
353.099950 6.000000
355.061980 20.000000
355.079320 19.000000
361.073090 13.000000
362.065550 5.000000
367.045470 22.000000
367.083620 338.000000
368.078920 44.000000
368.113770 7.000000
369.094880 11.000000
378.989840 5.000000
379.050720 10.000000
379.082210 157.000000
379.110570 17.000000
380.069000 21.000000
380.082700 19.000000
380.094270 25.000000
380.114690 6.000000
396.986880 6.000000
397.038540 8.000000
397.091340 564.000000
397.123720 8.000000
398.002040 6.000000
398.056030 18.000000
398.089420 78.000000
398.103640 72.000000
398.126010 7.000000
399.095000 19.000000
399.126160 6.000000
399.722870 5.000000
400.115510 5.000000
404.469880 5.000000
409.705260 10.000000
415.033330 10.000000
415.059540 25.000000
415.105100 738.000000
415.804930 5.000000
415.987760 6.000000
416.041840 6.000000
416.077880 13.000000
416.104160 162.000000
416.120420 78.000000
417.082460 5.000000
417.107640 21.000000
417.125180 10.000000
433.035860 18.000000
433.113860 1000.000000
434.121520 252.000000
435.097900 7.000000
435.127900 33.000000
443.090670 6.000000
459.109440 8.000000

>ms2
54.771060 5.000000
85.027440 8.000000
109.030370 6.000000
117.597990 5.000000
119.048750 8.000000
121.028470 81.000000
122.029800 5.000000
123.042980 7.000000
145.063350 13.000000
147.040130 6.000000
147.050510 9.000000
153.016540 14.000000
159.039930 6.000000
159.607910 7.000000
161.019120 6.000000
162.011800 7.000000
163.036580 15.000000
164.029540 8.000000
165.023270 26.000000
165.029710 7.000000
167.022750 9.000000
169.877850 8.000000
171.044660 7.000000
177.026780 23.000000
187.040190 7.000000
189.054990 22.000000
190.999370 6.000000
191.038710 15.000000
193.046230 13.000000
194.046300 7.000000
195.023120 6.000000
196.090060 6.000000
197.058300 7.000000
197.067840 5.000000
203.067790 13.000000
210.069310 6.000000
213.052230 8.000000
214.939150 6.000000
215.031720 10.000000
215.051570 8.000000
215.070210 8.000000
216.046890 6.000000
217.030990 12.000000
217.053040 48.000000
219.022840 6.000000
227.069030 6.000000
227.079180 5.000000
229.049000 6.000000
231.068790 14.000000
232.076340 7.000000
233.236470 6.000000
235.058780 8.000000
238.060930 6.000000
241.053670 32.000000
243.027830 59.000000
243.066510 41.000000
243.073670 22.000000
244.016010 8.000000
244.070630 7.000000
245.025960 6.000000
252.070590 6.000000
255.059910 17.000000
256.075650 56.000000
257.080720 20.000000
259.064270 16.000000
261.033630 6.000000
261.280460 6.000000
262.033110 6.000000
264.075350 9.000000
264.728970 9.000000
265.034940 6.000000
266.065060 6.000000
267.066010 9.000000
271.058650 68.000000
272.054320 6.000000
279.053710 6.000000
281.065160 7.000000
281.083040 5.000000
282.975430 12.000000
283.014430 25.000000
283.027920 16.000000
283.060360 1000.000000
283.961360 9.000000
284.004430 7.000000
284.026120 13.000000
284.066590 680.000000
284.155610 6.000000
285.060060 27.000000
285.074770 88.000000
286.072510 21.000000
287.079930 5.000000
292.069730 6.000000
293.082760 5.000000
295.060000 224.000000
295.090300 9.000000
295.102510 7.000000
296.054320 5.000000
296.073430 15.000000
297.049770 19.000000
297.069210 125.000000
297.082370 65.000000
297.094760 22.000000
298.077120 36.000000
302.855190 6.000000
308.067810 62.000000
309.074430 113.000000
310.081510 22.000000
311.048830 13.000000
311.112550 7.000000
311.197080 8.000000
312.065670 9.000000
313.012330 7.000000
313.023800 8.000000
313.040890 30.000000
313.071750 899.000000
313.104550 7.000000
314.041320 8.000000
314.065700 57.000000
314.078250 112.000000
315.059110 15.000000
315.084630 29.000000
317.052700 5.000000
322.088230 17.000000
322.189850 5.000000
323.059360 42.000000
323.092830 363.000000
324.080990 14.000000
324.094540 28.000000
324.105320 22.000000
325.074740 43.000000
326.069640 18.000000
327.080810 38.000000
328.086580 16.000000
335.085300 10.000000
337.063020 89.000000
337.075620 163.000000
338.057950 11.000000
338.073090 47.000000
339.085330 17.000000
340.051420 5.000000
340.082240 9.000000
341.064180 11.000000
343.084350 10.000000
349.062440 12.000000
349.077760 6.000000
350.068450 5.000000
350.826140 6.000000
351.064910 9.000000
351.084810 25.000000
352.067990 6.000000
352.087710 8.000000
355.069120 10.000000
355.088470 12.000000
367.060000 10.000000
367.083220 34.000000
368.090520 12.000000
379.079930 29.000000
397.061980 12.000000
397.096440 64.000000
415.114410 6.000000
415.127170 7.000000
535.068180 6.000000

>ms2
217.053920 11.000000
243.024400 9.000000
271.037720 8.000000
271.060330 29.000000
283.059140 115.000000
283.080990 6.000000
284.065310 39.000000
295.056950 30.000000
297.067870 8.000000
311.055020 6.000000
313.039180 5.000000
313.070590 245.000000
314.041530 6.000000
314.071960 91.000000
315.090000 9.000000
323.088710 24.000000
324.088070 8.000000
325.059020 5.000000
337.070530 100.000000
338.081210 13.000000
343.071660 16.000000
349.083980 7.000000
351.089480 32.000000
352.092130 9.000000
355.089260 7.000000
367.079160 55.000000
368.084440 9.000000
379.073390 21.000000
379.086610 19.000000
380.089080 12.000000
397.090880 153.000000
398.095670 34.000000
399.094760 13.000000
415.099610 163.000000
416.098420 29.000000
416.116910 11.000000
433.072330 20.000000
433.112950 481.000000
434.108890 125.000000
434.134340 8.000000
435.122560 32.000000
435.137080 7.000000
579.095520 10.000000
579.171450 1000.000000

>ms2
433.109830 51.000000
433.126800 15.000000
434.121640 9.000000
579.107730 28.000000
579.173580 1000.000000

>ms2
86.032550 9.000000
129.049120 6.000000
129.055340 16.000000
130.058590 5.000000
217.046890 14.000000
243.024150 18.000000
259.050320 8.000000
259.062710 13.000000
271.031490 6.000000
271.050350 27.000000
271.065670 49.000000
272.054320 6.000000
272.069790 9.000000
283.057980 281.000000
284.061520 61.000000
285.061980 9.000000
294.977050 6.000000
295.057770 63.000000
295.067690 39.000000
295.560880 6.000000
296.055540 20.000000
299.043210 8.000000
307.064940 17.000000
311.045380 7.000000
311.061130 21.000000
312.061980 6.000000
313.023650 22.000000
313.068050 747.000000
314.039000 10.000000
314.072660 184.000000
314.093690 11.000000
315.078090 30.000000
323.062650 8.000000
323.090180 57.000000
324.056730 7.000000
324.068390 9.000000
325.016110 5.000000
325.067320 10.000000
325.085630 6.000000
327.080350 5.000000
337.033690 18.000000
337.060550 89.000000
337.074860 100.000000
337.095980 12.000000
338.047270 10.000000
338.069950 40.000000
343.077480 88.000000
344.086330 13.000000
349.066010 6.000000
351.066530 12.000000
351.087550 103.000000
352.096160 30.000000
352.109470 6.000000
352.165220 9.000000
355.074980 7.000000
355.091980 24.000000
361.067840 12.000000
362.070220 13.000000
366.982640 6.000000
367.047610 11.000000
367.080050 350.000000
368.064030 17.000000
368.086520 58.000000
369.062710 6.000000
369.084690 18.000000
369.100890 9.000000
379.042300 5.000000
379.082640 195.000000
380.082180 35.000000
380.091670 16.000000
381.088320 15.000000
397.034390 8.000000
397.061920 32.000000
397.090060 580.000000
398.028470 8.000000
398.096130 147.000000
399.074620 6.000000
399.095950 8.000000
400.093660 6.000000
400.106260 8.000000
415.004030 11.000000
415.034760 16.000000
415.101560 759.000000
416.037600 11.000000
416.056210 14.000000
416.106260 234.000000
417.040830 7.000000
417.105350 39.000000
417.125610 17.000000
418.097530 13.000000
432.972170 7.000000
432.991730 6.000000
433.040990 5.000000
433.058930 8.000000
433.113160 1000.000000
434.118380 255.000000
435.094450 12.000000
435.116850 33.000000
435.139100 10.000000
474.090390 5.000000
579.141480 9.000000
579.181950 7.000000

>ms2
65.039100 7.000000
71.054070 7.000000
85.025340 6.000000
103.018340 6.000000
107.044540 5.000000
109.032520 9.000000
119.052880 14.000000
121.026770 101.000000
139.038700 7.000000
145.028370 10.000000
147.034130 5.000000
153.016660 24.000000
157.063660 6.000000
159.053190 6.000000
160.019330 6.000000
163.038020 11.000000
165.018430 30.000000
173.017120 5.000000
173.053470 6.000000
177.019330 19.000000
177.046750 7.000000
183.041920 6.000000
185.043470 5.000000
187.041820 10.000000
189.058530 9.000000
190.026570 7.000000
191.025630 5.000000
195.023320 15.000000
205.010820 8.000000
205.052920 29.000000
213.058880 20.000000
215.036010 21.000000
217.002990 7.000000
217.036610 5.000000
217.052520 74.000000
218.056690 9.000000
218.067870 8.000000
219.051610 7.000000
225.057110 8.000000
227.073010 8.000000
228.073910 12.000000
229.047210 13.000000
231.040770 9.000000
232.075970 5.000000
235.056340 5.000000
235.074330 5.000000
236.076540 9.000000
241.051570 18.000000
243.032730 36.000000
243.070050 22.000000
244.024430 10.000000
247.041730 6.000000
248.540770 5.000000
249.039720 6.000000
250.034300 6.000000
252.709340 5.000000
254.054660 6.000000
255.057430 5.000000
255.070540 9.000000
256.043580 5.000000
256.065800 13.000000
256.075380 22.000000
256.490140 7.000000
257.073790 13.000000
259.061000 10.000000
261.033570 12.000000
262.064330 6.000000
266.055180 16.000000
266.466250 5.000000
267.062770 11.000000
271.054050 35.000000
271.067380 38.000000
272.062160 17.000000
279.071170 10.000000
282.873200 5.000000
283.015170 12.000000
283.032960 45.000000
283.062160 896.000000
283.563390 6.000000
284.011870 8.000000
284.035890 31.000000
284.069820 440.000000
285.068510 82.000000
285.081540 42.000000
286.071080 18.000000
291.060670 5.000000
292.068080 7.000000
293.079990 18.000000
295.058560 160.000000
295.103240 7.000000
296.057400 35.000000
296.078000 10.000000
296.218290 5.000000
297.032930 8.000000
297.077300 201.000000
298.083680 61.000000
299.104370 5.000000
305.085820 9.000000
307.055050 19.000000
308.066410 63.000000
309.074580 70.000000
309.091310 26.000000
310.076660 8.000000
310.086760 11.000000
311.057310 24.000000
311.082760 7.000000
312.065340 13.000000
313.016270 6.000000
313.027680 12.000000
313.046080 64.000000
313.071470 1000.000000
313.579830 8.000000
314.076080 219.000000
315.077730 20.000000
321.033940 9.000000
321.077970 10.000000
323.049410 27.000000
323.060700 20.000000
323.091250 282.000000
324.073360 8.000000
324.082820 21.000000
324.097110 53.000000
325.057680 20.000000
325.068600 25.000000
325.088440 37.000000
326.057010 8.000000
326.107240 5.000000
327.069550 11.000000
327.082120 18.000000
335.052610 11.000000
335.091130 9.000000
336.060760 14.000000
337.040410 11.000000
337.065430 98.000000
337.079710 99.000000
338.067020 27.000000
338.092620 10.000000
343.081760 32.000000
350.081180 7.000000
351.076750 15.000000
351.089630 23.000000
352.159150 5.000000
355.079160 6.000000
367.051180 6.000000
367.083340 26.000000
379.080200 28.000000
381.094730 7.000000
397.062440 7.000000
397.086580 9.000000
397.105740 24.000000
398.094180 17.000000

>ms2
217.052080 11.000000
243.031490 18.000000
244.036090 7.000000
271.059630 18.000000
272.050050 5.000000
273.075500 6.000000
283.059080 74.000000
283.072080 28.000000
284.059200 13.000000
284.070680 14.000000
295.047150 11.000000
295.058010 17.000000
295.069550 12.000000
296.071870 16.000000
297.078370 8.000000
309.077610 8.000000
313.055820 68.000000
313.074620 216.000000
314.061000 20.000000
314.079650 32.000000
315.088650 5.000000
320.083770 5.000000
323.084930 14.000000
323.095580 35.000000
324.095860 18.000000
325.073360 21.000000
337.067440 69.000000
337.086240 29.000000
338.064090 11.000000
338.079320 20.000000
343.078340 19.000000
343.094090 18.000000
344.085020 8.000000
349.069580 10.000000
351.084990 34.000000
352.093600 7.000000
355.066190 5.000000
355.083010 8.000000
367.046540 5.000000
367.063390 14.000000
367.085140 110.000000
368.082090 16.000000
379.056370 11.000000
379.076390 40.000000
380.073390 5.000000
397.055180 5.000000
397.088040 119.000000
397.101650 58.000000
398.087400 25.000000
398.108580 11.000000
415.088350 77.000000
415.107940 156.000000
416.094270 19.000000
416.114650 27.000000
416.128910 8.000000
433.056150 6.000000
433.114990 601.000000
434.077580 15.000000
434.117030 155.000000
435.110020 29.000000
435.141880 8.000000
460.113680 6.000000
579.091370 11.000000
579.117000 14.000000
579.173710 1000.000000
579.222170 5.000000

>ms2
433.114290 39.000000
434.121060 12.000000
579.084720 8.000000
579.110900 9.000000
579.172300 1000.000000

>ms2
55.019280 5.000000
71.047950 6.000000
85.029340 7.000000
119.046660 6.000000
121.022960 6.000000
150.586240 6.000000
217.033690 9.000000
217.044830 11.000000
237.945800 7.000000
243.030380 25.000000
244.075210 7.000000
260.201630 6.000000
271.055080 35.000000
271.066770 34.000000
272.058110 7.000000
272.070650 16.000000
273.742400 6.000000
276.599610 6.000000
283.014860 6.000000
283.050380 59.000000
283.062130 217.000000
284.033540 14.000000
284.057530 27.000000
284.068600 36.000000
285.067140 9.000000
295.037050 10.000000
295.055480 35.000000
295.067170 58.000000
295.082460 11.000000
296.060420 32.000000
297.067750 17.000000
305.066620 9.000000
307.053470 12.000000
307.067660 11.000000
311.065030 21.000000
312.071500 7.000000
313.026520 12.000000
313.068120 704.000000
313.080570 233.000000
314.071410 129.000000
314.086150 58.000000
315.080050 23.000000
316.067780 6.000000
323.021670 6.000000
323.091520 48.000000
323.108340 13.000000
324.057800 15.000000
324.070220 17.000000
324.084840 9.000000
325.013240 5.000000
325.060910 11.000000
325.082000 25.000000
326.075320 6.000000
337.010860 9.000000
337.038300 8.000000
337.069760 245.000000
337.928650 6.000000
338.042940 7.000000
338.070680 54.000000
339.072170 10.000000
341.072240 6.000000
343.080630 112.000000
343.096620 19.000000
344.083280 27.000000
345.081240 9.000000
349.064000 7.000000
349.082860 6.000000
351.047030 16.000000
351.072240 42.000000
351.087830 66.000000
351.125850 6.000000
352.076200 26.000000
352.096370 11.000000
355.067960 8.000000
355.080110 35.000000
355.107450 5.000000
356.090030 14.000000
357.089970 6.000000
367.083590 359.000000
368.062500 19.000000
368.079500 62.000000
369.077970 18.000000
369.095030 7.000000
377.820710 5.000000
379.082790 274.000000
380.061220 16.000000
380.081090 25.000000
380.108520 8.000000
381.078770 8.000000
381.107670 5.000000
396.983610 6.000000
397.013090 10.000000
397.049320 23.000000
397.081210 245.000000
397.097410 490.000000
398.082150 75.000000
398.100770 112.000000
399.050420 6.000000
399.099670 25.000000
410.026180 9.000000
415.097630 672.000000
415.112550 329.000000
415.975740 11.000000
416.039400 12.000000
416.092590 97.000000
416.109590 130.000000
417.090550 11.000000
417.112150 36.000000
433.036160 8.000000
433.051760 7.000000
433.109950 1000.000000
433.128480 188.000000
433.172330 6.000000
434.096620 63.000000
434.115780 190.000000
435.115840 52.000000
435.139070 11.000000
459.120640 9.000000
579.139950 11.000000
579.161070 16.000000
579.187260 18.000000
579.204710 14.000000

>ms2
79.020370 5.000000
83.016200 8.000000
85.025790 6.000000
119.038970 5.000000
119.048490 8.000000
121.028490 108.000000
122.031360 6.000000
122.041880 6.000000
149.026960 9.000000
153.022250 28.000000
161.054550 12.000000
165.009630 5.000000
165.017590 18.000000
168.039920 8.000000
177.010970 11.000000
177.058110 7.000000
179.028490 6.000000
181.050060 6.000000
182.069470 9.000000
187.037890 10.000000
189.054950 9.000000
189.062440 6.000000
195.017240 5.000000
195.029860 22.000000
199.046360 6.000000
200.042560 5.000000
203.030850 5.000000
205.061740 5.000000
212.080060 6.000000
213.056690 21.000000
214.217450 7.000000
215.020220 8.000000
215.033100 31.000000
217.023680 7.000000
217.050400 47.000000
219.030060 32.000000
227.071670 16.000000
228.072710 8.000000
229.050720 10.000000
231.007540 7.000000
231.074940 7.000000
239.005360 6.000000
239.069790 7.000000
241.052490 40.000000
242.047790 6.000000
243.024750 27.000000
243.035690 27.000000
243.057770 22.000000
243.066160 32.000000
244.039050 13.000000
255.040800 7.000000
255.059680 20.000000
255.071580 14.000000
256.019130 8.000000
256.053410 5.000000
256.070800 44.000000
256.085140 11.000000
257.054140 6.000000
257.079220 11.000000
259.062590 36.000000
261.064450 5.000000
266.043820 5.000000
267.055600 10.000000
267.066350 13.000000
267.076140 12.000000
268.075810 10.000000
270.048740 14.000000
271.060360 109.000000
271.082120 8.000000
271.653200 7.000000
272.046720 9.000000
272.072420 11.000000
279.055600 9.000000
280.068660 13.000000
280.091800 7.000000
281.464750 10.000000
283.023160 10.000000
283.059020 857.000000
284.041440 27.000000
284.068150 584.000000
285.047210 6.000000
285.069760 174.000000
292.305180 6.000000
295.057980 200.000000
295.067410 93.000000
295.089840 7.000000
296.053890 12.000000
296.067810 44.000000
296.092800 6.000000
297.025270 11.000000
297.060670 58.000000
297.074740 266.000000
298.079770 18.000000
298.090820 10.000000
305.053500 7.000000
306.077670 7.000000
306.828860 10.000000
307.058410 8.000000
307.070340 5.000000
308.068880 37.000000
308.082580 10.000000
309.050690 8.000000
309.078800 65.000000
310.072570 12.000000
310.088620 8.000000
311.058230 21.000000
312.108280 8.000000
313.027370 25.000000
313.045040 48.000000
313.070430 1000.000000
313.102690 7.000000
313.126370 11.000000
314.042110 8.000000
314.075560 154.000000
314.102260 9.000000
314.530490 7.000000
315.074190 49.000000
316.072450 6.000000
320.065340 8.000000
321.080320 16.000000
322.090550 5.000000
323.038820 19.000000
323.058380 36.000000
323.086820 201.000000
323.103060 77.000000
324.057740 12.000000
324.082240 49.000000
324.098720 45.000000
325.064760 33.000000
325.080020 6.000000
326.080140 20.000000
327.089140 16.000000
327.103390 6.000000
328.077030 10.000000
333.076200 9.000000
336.095210 9.000000
337.033600 17.000000
337.050720 45.000000
337.072110 236.000000
337.175350 6.000000
338.062100 20.000000
338.079410 25.000000
338.100460 6.000000
339.075710 10.000000
339.089020 11.000000
341.057710 10.000000
343.081300 49.000000
349.071750 20.000000
350.066190 11.000000
351.088170 43.000000
355.085210 6.000000
356.085820 10.000000
358.082430 5.000000
361.052000 8.000000
361.074890 5.000000
367.071720 19.000000
367.091770 8.000000
367.109950 9.000000
369.097810 6.000000
379.078640 36.000000
381.089050 5.000000
397.086790 15.000000
397.097930 33.000000
398.098300 11.000000

