>compound PR26051760
>parentmass 507.1133172
>ionization [M+H]+
>formula C23H22O13
>rt 265.153980
>profile qtof
#smiles_iso CC(=O)OC[C@@H]1[C@H]([C@@H]([C@H]([C@@H](O1)OC2=C(OC3=CC(=CC(=C3C2=O)O)O)C4=CC(=C(C=C4)O)O)O)O)O
#smiles_can CC(=O)OCC1C(C(C(C(O1)OC2=C(OC3=CC(=CC(=C3C2=O)O)O)C4=CC(=C(C=C4)O)O)O)O)O
#inchikey IGLUNMMNDNWZOA-LNNZMUSMSA-N
#pubchem_id 10006384
#mb_accession PR302073,PR302077,PR302080,PR302084,PR302088,PR302092,PR302095,PR302099,PR302102,PR302106,PR302110,PR302114

>ms2peaks
69.031940 7.000000
69.037140 8.000000
81.029750 15.000000
81.035540 10.000000
81.040510 6.000000
97.030120 5.000000
109.020930 5.000000
109.028340 31.000000
121.012700 5.000000
127.031510 9.000000
127.038420 41.000000
137.020250 6.000000
153.024800 5.000000
187.060090 67.000000
188.059220 7.000000
205.065350 9.000000
257.041870 6.000000
303.007750 31.000000
303.049040 1000.000000
303.076050 5.000000
304.053650 221.000000
305.045500 24.000000
306.064360 7.000000
330.798160 5.000000
345.063390 8.000000
507.116670 145.000000

>ms2peaks
127.036750 19.000000
145.049470 10.000000
187.059370 27.000000
188.060930 13.000000
205.063400 14.000000
270.272370 6.000000
303.050140 1000.000000
304.013460 5.000000
304.037510 39.000000
304.056490 211.000000
305.007080 5.000000
305.059080 13.000000
306.054260 11.000000
453.068510 7.000000
507.055390 11.000000
507.112980 869.000000

>ms2peaks
53.035480 6.000000
69.034130 9.000000
73.028190 7.000000
81.032940 13.000000
97.028500 19.000000
99.044500 10.000000
100.052810 5.000000
109.028590 34.000000
110.031330 6.000000
127.017120 6.000000
127.037570 15.000000
139.036470 7.000000
153.010830 6.000000
187.059620 31.000000
195.028470 5.000000
229.049100 7.000000
302.976350 6.000000
303.013430 12.000000
303.049260 1000.000000
304.043210 49.000000
304.063140 54.000000
304.080290 7.000000
305.043950 10.000000
305.055330 7.000000
305.072570 11.000000
327.057160 5.000000
341.053960 8.000000
345.074310 5.000000

>ms2peaks
69.032710 29.000000
69.038020 23.000000
81.035120 138.000000
83.682300 21.000000
85.027170 55.000000
87.050460 37.000000
93.035090 31.000000
97.020200 29.000000
97.025950 61.000000
97.036380 56.000000
105.064920 25.000000
107.012410 24.000000
109.019840 19.000000
109.026760 64.000000
109.032230 25.000000
111.008870 41.000000
117.067570 30.000000
121.024440 102.000000
123.040470 75.000000
127.037920 33.000000
130.074070 34.000000
131.042630 25.000000
137.018590 107.000000
137.025730 170.000000
145.060940 24.000000
149.031770 48.000000
152.946690 38.000000
152.981000 23.000000
153.016680 461.000000
153.036130 21.000000
155.054600 58.000000
157.060850 29.000000
165.019320 110.000000
166.024950 83.000000
166.034550 23.000000
167.008500 31.000000
173.053330 33.000000
183.933230 37.000000
184.049480 24.000000
184.055940 24.000000
185.783650 22.000000
187.032550 38.000000
190.053590 24.000000
191.024690 39.000000
195.024400 38.000000
195.036700 42.000000
201.047880 46.000000
201.057510 264.000000
203.057390 33.000000
205.000890 31.000000
211.037950 26.000000
211.046780 101.000000
212.047090 37.000000
215.039050 26.000000
218.052860 28.000000
218.065140 31.000000
228.041200 104.000000
229.041530 89.000000
229.056180 180.000000
230.029600 21.000000
230.055020 46.000000
230.069690 40.000000
232.033250 31.000000
232.049290 40.000000
243.026210 23.000000
246.071300 44.000000
248.062960 76.000000
256.041500 30.000000
256.694730 52.000000
257.008150 23.000000
257.028080 24.000000
257.037930 85.000000
257.050960 34.000000
258.055790 31.000000
274.048770 124.000000
274.060270 172.000000
285.012020 32.000000
285.029390 29.000000
285.045140 57.000000
302.738070 23.000000
303.001500 23.000000
303.012050 45.000000
303.053040 1000.000000
303.186650 19.000000
304.041110 123.000000
304.061980 192.000000
305.066470 31.000000
305.080720 31.000000

>ms2peaks
81.038410 7.000000
99.045640 8.000000
109.026300 32.000000
127.036890 29.000000
153.013080 10.000000
187.042600 7.000000
187.058320 31.000000
205.064730 7.000000
205.073720 6.000000
229.051440 14.000000
247.063710 10.000000
303.013210 14.000000
303.048800 1000.000000
304.038940 50.000000
304.058260 159.000000
305.049710 48.000000
305.063540 9.000000
341.074830 7.000000
507.065950 6.000000
507.117770 183.000000

>ms2peaks
145.056090 7.000000
174.866070 5.000000
187.032330 6.000000
187.057300 25.000000
205.057050 5.000000
205.077100 11.000000
297.292270 6.000000
302.957950 6.000000
303.050140 958.000000
303.918460 11.000000
304.026860 13.000000
304.055110 163.000000
305.058870 42.000000
306.944340 8.000000
345.059660 9.000000
345.073240 6.000000
469.991270 6.000000
471.086180 6.000000
507.018250 5.000000
507.059270 8.000000
507.112090 1000.000000

>ms2peaks
69.035880 10.000000
71.050190 9.000000
81.021400 6.000000
81.035570 15.000000
86.025390 7.000000
97.028310 12.000000
99.049260 9.000000
109.027370 62.000000
111.033310 8.000000
127.036590 32.000000
127.043900 16.000000
128.044130 6.000000
137.020610 8.000000
145.049090 13.000000
165.015110 5.000000
187.054750 33.000000
187.064010 29.000000
285.040310 6.000000
302.954250 6.000000
303.000820 6.000000
303.012910 13.000000
303.050870 1000.000000
304.047520 84.000000
304.060000 93.000000
305.027740 7.000000
305.046510 7.000000
305.057800 20.000000
345.081940 6.000000
381.053530 5.000000
507.228360 6.000000

>ms2peaks
57.037280 32.000000
81.032060 147.000000
85.025320 61.000000
93.029610 28.000000
93.034740 60.000000
97.021950 45.000000
97.028050 33.000000
97.034100 44.000000
99.041770 45.000000
105.018580 26.000000
109.021160 34.000000
109.030810 62.000000
110.032040 35.000000
111.007830 48.000000
121.025700 162.000000
121.035190 78.000000
126.030980 42.000000
127.034510 53.000000
129.070970 29.000000
131.032010 24.000000
137.021360 230.000000
137.028370 171.000000
138.032350 22.000000
145.028150 49.000000
145.058240 27.000000
149.020020 144.000000
149.032150 55.000000
153.016270 350.000000
154.015300 26.000000
154.022980 21.000000
155.047810 32.000000
155.055530 56.000000
163.039030 83.000000
164.045200 31.000000
165.018740 244.000000
165.977490 34.000000
166.004730 47.000000
166.025960 54.000000
167.024090 26.000000
172.051480 23.000000
173.060640 91.000000
177.014560 21.000000
183.049240 26.000000
187.026700 37.000000
191.070400 35.000000
192.049390 40.000000
201.043850 73.000000
201.057590 67.000000
203.280090 22.000000
204.024110 31.000000
205.045380 21.000000
205.056880 37.000000
207.042450 26.000000
211.002400 29.000000
219.062650 50.000000
221.063450 35.000000
226.409970 21.000000
228.951860 35.000000
229.038330 121.000000
229.048070 386.000000
229.060780 67.000000
230.040080 33.000000
230.053910 40.000000
230.063080 87.000000
231.055830 35.000000
232.035840 32.000000
247.053970 77.000000
247.072370 31.000000
256.984950 29.000000
257.017330 38.000000
257.033420 67.000000
257.045350 197.000000
257.064330 27.000000
258.045590 34.000000
274.038760 59.000000
274.138670 31.000000
276.059420 24.000000
284.977810 22.000000
285.023470 24.000000
285.036930 82.000000
285.059880 28.000000
302.976070 56.000000
303.009980 47.000000
303.022280 21.000000
303.053010 1000.000000
303.079380 21.000000
304.058720 103.000000
305.066280 37.000000
305.212520 22.000000
306.033910 43.000000
311.056580 28.000000
384.787260 26.000000

>ms2peaks
69.036800 9.000000
81.032900 11.000000
85.025720 6.000000
109.027500 26.000000
127.035980 15.000000
127.043960 10.000000
128.042770 11.000000
153.017410 7.000000
187.049220 10.000000
187.061310 58.000000
188.062930 5.000000
205.069850 5.000000
229.040370 6.000000
303.016270 10.000000
303.048890 1000.000000
304.052090 154.000000
304.076540 7.000000
305.050720 15.000000
305.070620 6.000000
339.058960 8.000000
345.068570 5.000000
353.319980 6.000000
411.070770 6.000000
507.074770 13.000000
507.105470 81.000000
507.121400 76.000000

>ms2peaks
109.028860 9.000000
187.043840 7.000000
187.053070 9.000000
187.062840 18.000000
205.069320 6.000000
205.077930 7.000000
230.019910 7.000000
276.233520 6.000000
303.012270 21.000000
303.050510 1000.000000
304.021420 7.000000
304.052220 159.000000
305.026490 10.000000
305.054350 58.000000
315.505370 10.000000
325.280910 5.000000
433.591490 6.000000
507.050720 17.000000
507.113460 882.000000

>ms2peaks
69.033260 9.000000
71.048790 6.000000
81.033680 33.000000
85.023470 6.000000
87.047600 5.000000
97.022420 7.000000
98.028410 5.000000
99.044590 10.000000
99.051080 5.000000
109.028430 57.000000
110.034250 8.000000
115.042070 7.000000
121.024490 7.000000
127.039840 28.000000
127.047950 5.000000
128.041120 9.000000
137.024920 5.000000
145.052250 12.000000
187.061810 35.000000
188.070910 10.000000
247.063640 5.000000
284.082180 6.000000
302.999660 8.000000
303.050510 1000.000000
304.037630 27.000000
304.052000 102.000000
304.066130 56.000000
305.037660 6.000000
305.052250 21.000000

>ms2peaks
69.037690 73.000000
70.038970 42.000000
81.033300 187.000000
83.051090 28.000000
85.022530 42.000000
85.030130 78.000000
97.029170 65.000000
99.041630 34.000000
109.019100 47.000000
109.030610 92.000000
110.043840 32.000000
110.998760 35.000000
111.006170 74.000000
115.041350 34.000000
118.075860 55.000000
119.049740 24.000000
121.020530 31.000000
123.046330 48.000000
127.036680 50.000000
127.053990 38.000000
131.050670 35.000000
137.018860 100.000000
137.030270 62.000000
138.030430 50.000000
153.014760 226.000000
153.025890 44.000000
154.022770 38.000000
155.035050 52.000000
159.041410 32.000000
161.061330 24.000000
163.036330 32.000000
165.016890 168.000000
167.022570 38.000000
170.028120 36.000000
173.057970 81.000000
175.043300 57.000000
177.055950 35.000000
183.046140 48.000000
190.025390 43.000000
195.029400 105.000000
195.037030 51.000000
195.047330 28.000000
201.038860 30.000000
201.055420 58.000000
205.012890 30.000000
213.050320 23.000000
215.034060 34.000000
218.031040 34.000000
219.067230 27.000000
220.025040 35.000000
228.041200 75.000000
229.037290 151.000000
229.050690 160.000000
230.051250 28.000000
231.054110 24.000000
233.049840 23.000000
243.186550 38.000000
247.041930 28.000000
247.060360 24.000000
248.077740 24.000000
257.039640 101.000000
257.052430 46.000000
258.890720 46.000000
260.399080 27.000000
274.060360 28.000000
275.036160 38.000000
284.998020 24.000000
285.035030 31.000000
285.049620 31.000000
303.012480 67.000000
303.052980 1000.000000
303.128850 23.000000
303.152440 47.000000
304.022130 39.000000
304.063660 69.000000
305.039790 30.000000
305.052370 39.000000
323.052430 27.000000
328.072570 77.000000
345.056460 44.000000
395.550170 27.000000

