>compound PR26450700
>parentmass 449.1078379
>ionization [M+H]+
>formula C21H20O11
>rt 245.340000
>profile qtof
#smiles_iso C1=CC(=C(C=C1C2=CC(=O)C3=C(C=C(C=C3O2)O[C@H]4[C@@H]([C@H]([C@@H]([C@H](O4)CO)O)O)O)O)O)O
#smiles_can C1=CC(=C(C=C1C2=CC(=O)C3=C(C=C(C=C3O2)OC4C(C(C(C(O4)CO)O)O)O)O)O)O
#inchikey PEFNSGRTCBGNAN-QNDFHXLGSA-N
#pubchem_id 5280637
#mb_accession PR302004,PR302010,PR302016,PR302022,PR302028,PR302034,PR302040,PR302046,PR302051,PR302057,PR302063,PR302069

>ms2peaks
153.017380 10.000000
286.036320 5.000000
286.998230 7.000000
287.055240 1000.000000
288.035060 9.000000
288.057950 157.000000
289.059840 30.000000
449.105530 152.000000
449.143400 5.000000

>ms2peaks
286.042330 6.000000
287.032780 13.000000
287.056790 308.000000
288.053990 38.000000
288.067050 30.000000
289.065520 6.000000
448.994110 8.000000
449.038020 5.000000
449.064580 23.000000
449.108340 1000.000000

>ms2peaks
153.012740 7.000000
258.044100 8.000000
287.008670 20.000000
287.023070 25.000000
287.055790 1000.000000
288.057590 213.000000
289.065770 18.000000

>ms2peaks
66.984150 6.000000
67.019100 18.000000
68.022610 9.000000
68.982220 11.000000
68.995670 12.000000
81.030830 7.000000
85.028690 10.000000
89.036670 15.000000
107.049950 5.000000
107.056160 8.000000
109.033370 14.000000
111.000770 15.000000
111.045810 5.000000
115.053020 17.000000
117.019080 5.000000
117.032150 44.000000
123.997600 10.000000
128.058400 10.000000
130.078630 5.000000
135.006970 8.000000
135.045350 112.000000
136.045810 17.000000
137.008620 17.000000
137.021900 24.000000
137.032760 10.000000
139.052230 9.000000
151.038880 5.000000
153.017910 457.000000
154.008620 6.000000
154.674300 5.000000
155.028260 5.000000
161.023800 31.000000
167.044920 12.000000
169.058410 7.000000
170.031880 9.000000
177.054900 7.000000
179.037230 15.000000
182.774410 7.000000
185.009660 5.000000
185.066530 20.000000
196.336460 8.000000
197.060650 7.000000
202.048000 5.000000
203.035260 6.000000
213.046840 6.000000
213.055660 7.000000
213.069180 7.000000
213.331160 10.000000
218.062760 5.000000
219.033280 5.000000
219.057570 8.000000
222.117870 5.000000
222.355850 9.000000
230.055100 8.000000
231.056300 14.000000
231.072490 14.000000
240.044770 6.000000
241.039470 13.000000
241.049060 53.000000
241.071440 8.000000
243.444380 8.000000
245.048460 14.000000
245.064270 5.000000
257.031590 6.000000
257.330140 5.000000
258.049960 5.000000
258.060520 7.000000
259.065220 9.000000
269.020870 5.000000
269.057890 8.000000
286.753080 6.000000
287.007390 6.000000
287.055180 1000.000000
287.117610 10.000000
288.031160 10.000000
288.058590 181.000000
288.075870 8.000000
289.059420 30.000000
289.072390 9.000000
433.519620 12.000000

>ms2peaks
153.017500 27.000000
286.051790 6.000000
287.024510 27.000000
287.055390 1000.000000
288.030880 10.000000
288.057590 149.000000
289.059750 10.000000
289.070710 8.000000
449.108370 208.000000

>ms2peaks
287.022710 12.000000
287.055540 430.000000
288.027440 6.000000
288.054570 51.000000
288.066530 18.000000
289.066410 11.000000
449.041050 21.000000
449.068180 15.000000
449.107910 1000.000000

>ms2peaks
286.036560 6.000000
287.012880 11.000000
287.054440 1000.000000
288.058780 171.000000
289.055730 32.000000
289.071810 14.000000

>ms2peaks
67.018600 33.000000
68.998510 14.000000
79.016310 6.000000
79.056060 8.000000
84.459630 6.000000
86.792330 7.000000
88.486560 6.000000
89.033040 7.000000
89.041440 18.000000
93.031050 6.000000
101.111480 12.000000
107.046650 6.000000
107.054280 7.000000
111.001500 7.000000
111.008710 25.000000
111.047540 6.000000
115.054300 9.000000
117.034220 48.000000
118.039230 7.000000
125.022560 11.000000
131.046330 11.000000
133.033370 8.000000
133.065810 6.000000
135.022510 13.000000
135.041760 139.000000
135.644320 6.000000
136.045880 5.000000
136.981580 7.000000
137.023960 59.000000
138.025970 7.000000
152.997850 16.000000
153.013550 175.000000
153.022350 209.000000
153.034970 12.000000
154.020800 37.000000
154.032620 8.000000
158.018830 7.000000
159.243130 9.000000
161.011780 8.000000
161.027440 65.000000
163.023120 8.000000
171.045520 7.000000
177.017530 7.000000
178.059230 6.000000
179.028350 7.000000
183.049560 8.000000
185.049580 13.000000
185.062480 20.000000
191.061390 7.000000
195.054630 7.000000
199.779130 7.000000
203.038680 6.000000
203.072420 7.000000
204.033230 6.000000
204.053630 5.000000
213.048930 25.000000
213.062730 6.000000
214.058700 12.000000
223.048720 10.000000
227.031860 17.000000
229.054120 8.000000
231.067230 5.000000
232.066100 6.000000
241.028410 7.000000
241.043330 45.000000
241.052140 30.000000
241.065890 29.000000
242.054600 9.000000
242.068050 8.000000
243.052490 13.000000
246.040020 6.000000
253.101330 8.000000
258.054410 23.000000
269.047550 24.000000
270.048550 7.000000
271.044400 6.000000
274.040860 12.000000
286.049350 5.000000
286.063320 7.000000
287.007450 17.000000
287.029720 17.000000
287.056270 1000.000000
287.087190 8.000000
288.063600 170.000000
289.057770 9.000000
289.072300 19.000000
289.096440 10.000000
291.431400 7.000000
449.113650 16.000000

>ms2peaks
153.016660 31.000000
241.055790 6.000000
286.048370 5.000000
287.018550 11.000000
287.055850 1000.000000
288.060550 162.000000
289.061070 23.000000
289.078340 15.000000
290.063450 5.000000
449.108460 269.000000

>ms2peaks
286.046050 7.000000
287.024990 16.000000
287.054170 323.000000
288.060580 59.000000
289.057530 9.000000
449.044650 10.000000
449.107210 1000.000000

>ms2peaks
287.015170 13.000000
287.054660 1000.000000
288.058290 181.000000
289.056980 22.000000

>ms2peaks
54.108560 5.000000
64.690940 12.000000
67.018510 22.000000
68.144040 6.000000
68.997760 11.000000
107.060410 6.000000
109.028040 13.000000
111.007730 20.000000
111.041150 8.000000
112.006490 14.000000
117.033500 16.000000
125.022690 8.000000
125.029370 5.000000
128.003570 6.000000
135.026280 12.000000
135.042710 143.000000
135.051960 23.000000
135.061770 17.000000
136.051760 14.000000
137.012340 6.000000
137.024900 14.000000
137.031200 8.000000
137.046840 5.000000
138.689290 5.000000
139.059140 5.000000
144.325210 7.000000
147.039250 26.000000
149.027100 8.000000
152.992980 5.000000
153.017720 451.000000
153.150130 6.000000
154.019100 6.000000
155.040410 6.000000
155.048930 8.000000
157.055360 10.000000
159.301930 11.000000
161.022090 28.000000
161.028750 30.000000
161.059890 5.000000
167.047970 12.000000
171.043700 5.000000
179.037980 15.000000
183.642200 6.000000
185.055590 16.000000
185.072450 7.000000
186.051700 5.000000
189.047530 7.000000
190.069700 8.000000
195.048680 7.000000
196.869090 7.000000
199.039640 7.000000
201.053020 10.000000
202.043610 6.000000
202.927750 7.000000
203.047560 14.000000
213.048070 17.000000
213.061610 5.000000
213.090040 9.000000
219.066250 17.000000
223.042980 7.000000
227.042480 7.000000
229.049090 10.000000
240.040010 6.000000
241.050510 43.000000
242.073180 6.000000
243.038300 5.000000
244.032990 18.000000
245.036830 15.000000
246.068650 5.000000
258.054600 13.000000
269.036530 5.000000
270.038300 8.000000
270.058440 9.000000
286.058840 5.000000
286.974240 6.000000
287.018980 9.000000
287.055390 1000.000000
287.209690 10.000000
288.056060 117.000000
288.071170 26.000000
288.105320 6.000000
289.055600 21.000000
289.069210 19.000000

