>compound PR26935573
>parentmass 214.1073844
>ionization [M+H]+
>formula C10H15NO4
>rt 146.122020
>profile qtof
#smiles_iso CC(=C)[C@H]1CN[C@@H]([C@H]1CC(=O)O)C(=O)O
#smiles_can CC(=C)C1CNC(C1CC(=O)O)C(=O)O
#inchikey VLSMHEGGTFMBBZ-OOZYFLPDSA-N
#pubchem_id 10255
#mb_accession PR300654,PR300659,PR300664,PR300669,PR300674,PR300679,PR300684,PR300689,PR300694,PR300699,PR300704,PR300709

>ms2peaks
74.024090 33.000000
79.054380 11.000000
80.044760 13.000000
80.050950 78.000000
81.056690 7.000000
81.072010 22.000000
84.044680 7.000000
85.063910 6.000000
93.070770 24.000000
94.068010 5.000000
95.085140 52.000000
96.092200 5.000000
99.080780 7.000000
105.074650 5.000000
107.087320 22.000000
108.042530 6.000000
108.081310 40.000000
109.062930 5.000000
109.070340 5.000000
109.085180 14.000000
110.099140 7.000000
112.038480 15.000000
122.096760 361.000000
123.077900 12.000000
123.099940 37.000000
124.114360 11.000000
126.050580 40.000000
126.057530 42.000000
150.091480 110.000000
154.087160 62.000000
168.074190 5.000000
168.102620 418.000000
169.103840 36.000000
186.117080 11.000000
196.099150 79.000000
197.096210 7.000000
214.068040 8.000000
214.107940 1000.000000
214.149610 22.000000

>ms2peaks
122.097110 34.000000
126.054740 10.000000
150.091720 15.000000
154.084990 20.000000
168.102390 146.000000
169.106490 19.000000
196.098070 34.000000
214.107570 1000.000000
214.149080 33.000000

>ms2peaks
52.498840 7.000000
53.038730 12.000000
53.043590 12.000000
55.013240 5.000000
67.033180 7.000000
67.044000 5.000000
67.052670 14.000000
67.056570 13.000000
68.047130 47.000000
68.054950 7.000000
69.034770 5.000000
70.062820 5.000000
73.894740 9.000000
74.014270 9.000000
74.024170 64.000000
77.037970 30.000000
77.715780 7.000000
79.054580 52.000000
79.171280 6.000000
80.050830 408.000000
80.176670 6.000000
81.028850 5.000000
81.051840 12.000000
81.056640 14.000000
81.063210 18.000000
81.070400 35.000000
81.075690 31.000000
82.029900 7.000000
82.060960 8.000000
82.066610 12.000000
82.073270 12.000000
83.070180 8.000000
85.027810 15.000000
85.066290 6.000000
85.072240 11.000000
85.304080 6.000000
85.351830 11.000000
85.756940 6.000000
85.778720 10.000000
88.039050 5.000000
88.044230 6.000000
90.994350 6.000000
91.052560 49.000000
91.058130 40.000000
92.048450 5.000000
93.061360 15.000000
93.069340 84.000000
94.023090 9.000000
94.032510 6.000000
94.045610 5.000000
94.064600 96.000000
94.069230 87.000000
95.071550 20.000000
95.085400 197.000000
96.040780 6.000000
96.078900 12.000000
96.090300 24.000000
96.427300 7.000000
97.059140 10.000000
97.069180 9.000000
97.090250 7.000000
98.065550 5.000000
98.099880 12.000000
99.083150 29.000000
100.090000 5.000000
100.581900 5.000000
102.226320 6.000000
103.050190 7.000000
105.062100 12.000000
105.071310 112.000000
105.214410 5.000000
106.072910 16.000000
107.070350 77.000000
107.076870 66.000000
107.086030 31.000000
107.498430 6.000000
107.864430 5.000000
108.045230 18.000000
108.050410 16.000000
108.058750 6.000000
108.080600 248.000000
109.018040 6.000000
109.060930 67.000000
109.068060 43.000000
109.080750 21.000000
109.086580 60.000000
110.023060 8.000000
110.062790 7.000000
110.067870 12.000000
110.080230 11.000000
110.096560 26.000000
111.082470 8.000000
111.102280 5.000000
111.823920 10.000000
112.039540 32.000000
115.231680 5.000000
117.055500 11.000000
117.061820 12.000000
119.051780 6.000000
119.072710 7.000000
120.071560 7.000000
120.085570 7.000000
121.066650 7.000000
121.071140 13.000000
121.087630 19.000000
122.068220 9.000000
122.081750 14.000000
122.096710 1000.000000
122.539680 5.000000
123.062530 6.000000
123.082530 19.000000
123.098630 43.000000
123.923610 6.000000
124.082520 8.000000
124.387630 6.000000
126.056860 55.000000
130.063350 9.000000
130.966430 9.000000
133.067600 12.000000
134.095080 5.000000
136.076190 21.000000
138.058560 10.000000
138.093870 9.000000
140.102660 5.000000
145.055080 10.000000
150.092680 93.000000
151.082700 5.000000
151.100310 19.000000
153.082150 6.000000
154.091350 18.000000
160.067760 6.000000
160.076370 10.000000
162.436260 7.000000
166.079440 7.000000
168.096130 35.000000
168.103350 41.000000
189.387310 9.000000
214.089690 7.000000
214.105330 30.000000
214.118120 8.000000

>ms2peaks
67.051590 143.000000
77.038730 151.000000
80.441070 151.000000
82.074900 143.000000
91.049350 341.000000
91.055380 230.000000
93.060360 611.000000
94.063760 373.000000
107.070370 532.000000
108.056720 262.000000
108.081780 373.000000
109.063420 317.000000
112.079570 167.000000
115.050870 238.000000
120.044460 135.000000
121.089300 222.000000
133.055240 230.000000
214.091660 238.000000
214.112290 1000.000000

>ms2peaks
74.024370 31.000000
80.049310 80.000000
81.062330 6.000000
81.069430 35.000000
84.045520 14.000000
88.040610 11.000000
93.063820 5.000000
93.074550 9.000000
95.086860 56.000000
96.081410 11.000000
96.090110 6.000000
105.068620 21.000000
106.063130 7.000000
107.071430 17.000000
107.084410 10.000000
108.078120 8.000000
108.085410 29.000000
109.063740 10.000000
109.089340 24.000000
110.094900 6.000000
110.102490 6.000000
112.038800 32.000000
121.063370 9.000000
122.096440 351.000000
123.074330 7.000000
123.084210 18.000000
123.094920 27.000000
123.101130 30.000000
126.049380 20.000000
126.057530 57.000000
127.058730 7.000000
133.068390 10.000000
140.104840 6.000000
141.086760 7.000000
150.091290 87.000000
151.104570 6.000000
152.104810 8.000000
154.085600 60.000000
155.087450 6.000000
168.101550 451.000000
169.104660 50.000000
169.118040 6.000000
178.086410 8.000000
186.113110 5.000000
196.096690 61.000000
197.101350 14.000000
214.107540 1000.000000
214.150070 16.000000

>ms2peaks
74.025680 5.000000
122.096670 38.000000
126.053960 9.000000
150.091430 14.000000
154.086880 21.000000
168.102010 158.000000
169.104570 21.000000
196.097090 41.000000
197.103640 6.000000
214.107530 1000.000000
214.148500 33.000000

>ms2peaks
54.852660 6.000000
55.986010 6.000000
56.492360 8.000000
66.050230 6.000000
66.121990 6.000000
67.014880 12.000000
67.052940 36.000000
67.058460 21.000000
67.061760 8.000000
68.048680 26.000000
69.073660 5.000000
73.940200 8.000000
74.020250 46.000000
74.029080 6.000000
74.034970 9.000000
77.042040 11.000000
79.052350 31.000000
79.057540 63.000000
80.021590 8.000000
80.044140 118.000000
80.051380 394.000000
80.187020 7.000000
80.346250 6.000000
80.783440 7.000000
80.979040 5.000000
81.048420 6.000000
81.052860 14.000000
81.069160 178.000000
81.076160 19.000000
82.060810 11.000000
82.070720 22.000000
82.528450 5.000000
83.081570 8.000000
84.014640 5.000000
84.043650 7.000000
85.029410 28.000000
88.037930 12.000000
88.043170 20.000000
91.051320 47.000000
91.058410 25.000000
91.064450 9.000000
93.070220 106.000000
94.027460 28.000000
94.038300 7.000000
94.048970 7.000000
94.058530 19.000000
94.064810 51.000000
94.069430 39.000000
94.082020 14.000000
95.028370 6.000000
95.042090 6.000000
95.068030 10.000000
95.082140 73.000000
95.087140 114.000000
96.043580 7.000000
96.076740 11.000000
97.047490 6.000000
97.066350 21.000000
98.062360 5.000000
98.068800 8.000000
99.078550 65.000000
99.448760 6.000000
103.055950 23.000000
105.064060 35.000000
105.074190 71.000000
106.061650 6.000000
106.068440 33.000000
106.078230 32.000000
107.050930 7.000000
107.063040 26.000000
107.074070 202.000000
107.086400 48.000000
107.096190 7.000000
108.041220 7.000000
108.049380 12.000000
108.079570 172.000000
108.085170 84.000000
109.059780 41.000000
109.069950 59.000000
109.081060 38.000000
109.087870 69.000000
109.095910 22.000000
110.022980 7.000000
110.082570 7.000000
110.093210 18.000000
112.041520 70.000000
113.045850 7.000000
115.050750 7.000000
117.053400 12.000000
118.035940 9.000000
118.049590 10.000000
119.051740 14.000000
119.788080 6.000000
120.037510 9.000000
120.048520 7.000000
121.045460 6.000000
121.056580 13.000000
121.064290 11.000000
121.070340 22.000000
122.097050 1000.000000
122.298390 7.000000
123.061660 10.000000
123.073740 34.000000
123.100060 99.000000
123.111010 14.000000
124.087780 10.000000
124.117130 6.000000
126.046840 6.000000
126.057820 6.000000
126.074580 6.000000
134.061870 5.000000
135.060530 6.000000
136.811720 6.000000
138.062350 7.000000
138.546680 7.000000
139.024520 9.000000
139.092480 10.000000
140.100570 9.000000
148.068970 8.000000
150.078780 25.000000
150.091190 43.000000
150.097560 25.000000
151.068150 6.000000
151.103850 10.000000
154.088040 7.000000
154.095020 6.000000
168.093280 38.000000
168.107570 93.000000
169.104100 8.000000

>ms2peaks
67.054430 126.000000
77.038540 185.000000
79.049320 146.000000
79.054780 245.000000
80.049510 1000.000000
80.055140 318.000000
82.030710 113.000000
93.054690 192.000000
93.072360 166.000000
94.065180 682.000000
94.393840 139.000000
106.064330 166.000000
108.085700 351.000000
120.044220 113.000000
122.095320 358.000000
122.102300 166.000000
150.093170 179.000000
154.081880 205.000000
163.413990 119.000000
214.108640 258.000000

>ms2peaks
67.052200 9.000000
74.020790 11.000000
74.024930 28.000000
79.054710 9.000000
80.046290 31.000000
80.050870 41.000000
81.066440 12.000000
84.044240 7.000000
91.050120 6.000000
91.057830 7.000000
93.064380 8.000000
93.071930 13.000000
94.060340 7.000000
94.065700 8.000000
95.081130 10.000000
95.089540 32.000000
105.069000 11.000000
107.072310 12.000000
107.081730 8.000000
108.074520 5.000000
108.081460 30.000000
109.065560 9.000000
109.087940 14.000000
110.095150 12.000000
112.038370 12.000000
121.065680 11.000000
122.083830 10.000000
122.097290 304.000000
123.079500 36.000000
123.100690 28.000000
124.087040 8.000000
126.054790 40.000000
150.092480 96.000000
151.097210 13.000000
154.085080 34.000000
168.101700 320.000000
169.102310 42.000000
186.118420 9.000000
196.097410 44.000000
196.108400 13.000000
197.102920 11.000000
214.084300 6.000000
214.108920 1000.000000
214.149930 21.000000
214.158050 8.000000

>ms2peaks
122.096730 40.000000
123.080810 6.000000
126.055470 11.000000
150.090960 22.000000
154.086720 17.000000
168.102220 127.000000
169.104540 21.000000
196.096970 43.000000
197.099840 5.000000
214.108050 1000.000000
214.149930 30.000000

>ms2peaks
53.038850 8.000000
55.057530 8.000000
67.053960 46.000000
67.059780 28.000000
68.049720 35.000000
68.060840 6.000000
69.035940 7.000000
70.027790 12.000000
71.444710 7.000000
74.024590 59.000000
77.039810 27.000000
78.032070 7.000000
78.035350 11.000000
79.055200 78.000000
80.038280 14.000000
80.050250 428.000000
80.062910 13.000000
81.037640 6.000000
81.048740 10.000000
81.058110 25.000000
81.071230 99.000000
81.076760 22.000000
82.032170 17.000000
83.052120 7.000000
84.037910 9.000000
84.047680 7.000000
84.055170 6.000000
85.027430 8.000000
85.032320 10.000000
85.063240 14.000000
88.035950 12.000000
91.055240 66.000000
92.047940 6.000000
92.059280 12.000000
93.041960 11.000000
93.059460 39.000000
93.071370 126.000000
94.028230 14.000000
94.064310 89.000000
94.069210 20.000000
95.051770 9.000000
95.084610 292.000000
96.040600 6.000000
96.061660 10.000000
96.084690 5.000000
96.090340 12.000000
97.058770 14.000000
97.067510 23.000000
99.075610 15.000000
99.083550 30.000000
100.037480 6.000000
100.084450 7.000000
105.071250 79.000000
106.060950 12.000000
106.066830 8.000000
106.079150 16.000000
107.050160 7.000000
107.061780 10.000000
107.070590 57.000000
107.076290 121.000000
107.089940 28.000000
108.042960 38.000000
108.046700 17.000000
108.063370 16.000000
108.079030 208.000000
108.087010 60.000000
108.954540 6.000000
109.064830 44.000000
109.070880 35.000000
109.088260 114.000000
110.087510 6.000000
110.095360 6.000000
110.100520 6.000000
111.043290 12.000000
111.818980 6.000000
112.040120 75.000000
115.453460 7.000000
117.058400 9.000000
119.051580 24.000000
120.041120 10.000000
120.047200 6.000000
120.080700 24.000000
120.089160 13.000000
121.051430 19.000000
121.066250 36.000000
121.086010 20.000000
122.060710 6.000000
122.069790 6.000000
122.077590 21.000000
122.096650 1000.000000
123.079690 28.000000
123.098180 84.000000
123.107020 14.000000
125.060710 5.000000
125.985290 9.000000
126.048280 14.000000
126.058080 38.000000
127.059880 8.000000
132.043750 8.000000
132.075330 16.000000
133.064680 20.000000
134.071900 8.000000
135.072940 17.000000
136.076710 13.000000
138.059230 6.000000
139.076640 8.000000
140.107030 8.000000
150.078090 10.000000
150.090680 181.000000
151.050280 6.000000
151.096020 10.000000
152.083310 9.000000
154.083100 6.000000
154.097610 7.000000
156.099840 9.000000
166.085880 20.000000
168.090760 12.000000
168.104720 76.000000
169.108090 10.000000
191.282040 5.000000
207.051450 6.000000

>ms2peaks
65.042400 259.000000
67.051020 180.000000
74.026250 245.000000
75.025020 180.000000
79.052010 237.000000
79.056920 525.000000
80.050240 1000.000000
80.057260 194.000000
80.639340 194.000000
81.047420 187.000000
91.058980 331.000000
93.056790 144.000000
94.063130 388.000000
96.033110 158.000000
107.077360 144.000000
108.081050 993.000000
120.046130 201.000000
122.089650 230.000000
122.097890 353.000000
123.103580 137.000000
132.074870 273.000000
168.098630 345.000000
214.094410 410.000000
214.107940 374.000000
214.123700 151.000000

