>compound PR27722552
>parentmass 222.11246981538463
>ionization [M+H]+
>formula C12H15NO3
>rt 199.715982
>profile qtof
#smiles_iso CN1CCC2=CC3=C(C(=C2C1)OC)OCO3
#smiles_can CN1CCC2=CC3=C(C(=C2C1)OC)OCO3
#inchikey XXANNZJIZQTCBP-UHFFFAOYSA-N
#pubchem_id 3646
#mb_accession PR300923,PR300928,PR300933,PR300938,PR300943,PR300948,PR300953,PR300958,PR300963,PR300968,PR300973,PR300978,PR310427

>ms2
91.055620 8.000000
93.068770 6.000000
119.050960 7.000000
121.063910 7.000000
132.086640 5.000000
133.066180 13.000000
134.059860 6.000000
135.081090 9.000000
149.068180 6.000000
160.075360 8.000000
161.060390 6.000000
163.073460 12.000000
164.106930 15.000000
165.055940 20.000000
166.064290 6.000000
179.071110 202.000000
180.076450 14.000000
191.065720 7.000000
191.073900 16.000000
192.102290 9.000000
193.086900 92.000000
194.093830 17.000000
205.088550 9.000000
220.100970 6.000000
222.084990 10.000000
222.113800 1000.000000
222.154540 16.000000

>ms2
179.071260 33.000000
193.087600 30.000000
222.112810 1000.000000
222.154530 27.000000

>ms2
65.039200 33.000000
77.040400 178.000000
77.047200 16.000000
78.041910 18.000000
78.052600 26.000000
79.056720 162.000000
80.061290 18.000000
81.075170 26.000000
83.045020 20.000000
87.857060 27.000000
90.043080 16.000000
91.026770 21.000000
91.039190 25.000000
91.048340 106.000000
91.053260 193.000000
91.058360 143.000000
91.173310 16.000000
92.058590 19.000000
93.035430 16.000000
93.071690 244.000000
94.061710 20.000000
95.092810 15.000000
97.064460 16.000000
103.054500 20.000000
105.035510 17.000000
105.052950 21.000000
105.061490 27.000000
105.071060 254.000000
106.036910 18.000000
107.049030 17.000000
107.085440 43.000000
108.015890 24.000000
108.043140 15.000000
108.053900 17.000000
108.063220 38.000000
115.051540 102.000000
117.060700 112.000000
117.072060 19.000000
119.052960 20.000000
120.057820 61.000000
120.082000 42.000000
121.050190 42.000000
121.062290 39.000000
121.068120 88.000000
121.073460 28.000000
121.091620 18.000000
121.097160 32.000000
123.064450 36.000000
123.076680 65.000000
123.087230 32.000000
127.228940 15.000000
128.057390 16.000000
130.055800 20.000000
131.049970 75.000000
132.070540 22.000000
132.077590 46.000000
132.086790 22.000000
133.063600 180.000000
133.073360 21.000000
133.083660 15.000000
134.062330 120.000000
134.107600 17.000000
135.064870 15.000000
135.083070 178.000000
135.088790 64.000000
136.087600 48.000000
137.080840 20.000000
138.068360 16.000000
144.095060 23.000000
145.053830 16.000000
146.035310 62.000000
146.056820 22.000000
146.095110 21.000000
147.067690 15.000000
148.052600 120.000000
148.066680 146.000000
148.075940 29.000000
149.039670 15.000000
149.049650 36.000000
149.060910 141.000000
149.078900 16.000000
149.091830 55.000000
149.393330 17.000000
150.069490 41.000000
150.077840 31.000000
151.025270 16.000000
151.034360 35.000000
160.054990 35.000000
160.074840 84.000000
161.058760 17.000000
161.073320 41.000000
161.091450 62.000000
161.334660 16.000000
162.055510 81.000000
163.041470 18.000000
163.077470 30.000000
164.032680 16.000000
164.044490 39.000000
164.055760 73.000000
164.070830 68.000000
164.086940 18.000000
164.106000 135.000000
164.373440 15.000000
165.040510 25.000000
165.053020 38.000000
166.061870 122.000000
175.063630 17.000000
175.076890 17.000000
175.088900 16.000000
176.019500 19.000000
176.070590 15.000000
177.057500 23.000000
177.071990 16.000000
177.079380 15.000000
177.092090 16.000000
178.052860 50.000000
178.062590 80.000000
178.080220 17.000000
178.692260 18.000000
179.034550 37.000000
179.072240 1000.000000
180.069890 61.000000
180.077070 56.000000
189.079420 21.000000
190.065050 43.000000
190.095580 35.000000
191.066010 15.000000
191.093960 50.000000
191.106230 43.000000
192.077440 16.000000
192.091420 21.000000
193.068500 17.000000
193.085240 186.000000
193.098710 63.000000
194.089360 55.000000
195.092420 15.000000
195.101000 23.000000
205.090560 24.000000
206.079320 17.000000
207.079850 16.000000
207.092480 54.000000
207.100050 31.000000
222.102860 88.000000
222.115430 199.000000

>ms2
78.045850 353.000000
79.056890 329.000000
91.050090 906.000000
91.056280 1000.000000
104.049730 200.000000
105.035170 365.000000
106.063190 259.000000
107.046930 212.000000
115.061320 200.000000
117.054280 565.000000
121.061520 247.000000
131.071030 353.000000
134.037550 271.000000
134.049500 306.000000
135.068180 259.000000
135.082290 294.000000
136.059300 235.000000
137.063030 247.000000
146.031020 200.000000
148.081300 247.000000
160.085010 200.000000
222.106810 776.000000

>ms2
93.067060 6.000000
105.074820 6.000000
121.064380 13.000000
133.060120 7.000000
135.079860 12.000000
149.056380 6.000000
149.062700 6.000000
149.080950 6.000000
160.079330 6.000000
163.070650 9.000000
164.092360 5.000000
164.109100 17.000000
165.047450 6.000000
165.054060 18.000000
165.060470 6.000000
166.058670 6.000000
175.073970 5.000000
179.070010 184.000000
180.073010 23.000000
191.070690 17.000000
192.065870 5.000000
192.101930 28.000000
193.084870 124.000000
194.090970 25.000000
205.092500 8.000000
222.113390 1000.000000
222.155260 18.000000

>ms2
179.071820 34.000000
192.107510 5.000000
193.085800 18.000000
193.094410 7.000000
194.095230 5.000000
222.113860 1000.000000
222.156560 25.000000

>ms2
66.050300 14.000000
77.036960 58.000000
77.041350 80.000000
77.045040 27.000000
77.799710 18.000000
78.042550 30.000000
78.049100 19.000000
79.055370 33.000000
80.064310 14.000000
81.058010 18.000000
83.054700 14.000000
84.053970 14.000000
91.051300 152.000000
91.057410 96.000000
92.062260 19.000000
93.064270 67.000000
93.071470 293.000000
94.016200 17.000000
94.066700 15.000000
94.077720 18.000000
95.087170 14.000000
103.055340 71.000000
103.060790 25.000000
104.051410 14.000000
105.029850 19.000000
105.071130 111.000000
105.079120 14.000000
105.250370 15.000000
105.908450 15.000000
106.031810 13.000000
106.059200 13.000000
106.067010 36.000000
107.045680 33.000000
107.051860 74.000000
108.052620 18.000000
109.067020 19.000000
109.073630 27.000000
109.087300 17.000000
113.242930 34.000000
115.053250 45.000000
115.061720 15.000000
117.054280 17.000000
117.063120 13.000000
117.074290 15.000000
118.032990 17.000000
118.043740 42.000000
118.059010 23.000000
119.008300 20.000000
119.048230 48.000000
119.057590 22.000000
119.066600 13.000000
119.094890 18.000000
119.805950 14.000000
120.048990 32.000000
120.056040 42.000000
120.080070 17.000000
121.025870 14.000000
121.064030 145.000000
121.071330 61.000000
122.061260 30.000000
122.068780 62.000000
123.078540 28.000000
123.085410 20.000000
124.077720 14.000000
129.070310 13.000000
130.064870 17.000000
131.049510 21.000000
131.077090 19.000000
131.995060 21.000000
132.079130 39.000000
132.088270 36.000000
133.043110 15.000000
133.063610 134.000000
133.073990 15.000000
133.083270 13.000000
134.033250 34.000000
134.045610 64.000000
134.061940 103.000000
134.068650 48.000000
135.037700 13.000000
135.044860 14.000000
135.071530 73.000000
135.081100 313.000000
136.047930 23.000000
136.074110 14.000000
136.081670 24.000000
136.090820 25.000000
137.066640 13.000000
144.087400 19.000000
146.034180 13.000000
146.066910 20.000000
147.024950 18.000000
147.042370 17.000000
147.066710 36.000000
147.082200 13.000000
147.903460 18.000000
148.041370 15.000000
148.049150 31.000000
148.059040 18.000000
148.072850 63.000000
148.082900 30.000000
148.879320 14.000000
149.048920 15.000000
149.058940 119.000000
149.071610 15.000000
149.084060 33.000000
149.093230 34.000000
150.042510 24.000000
150.085240 14.000000
151.040010 37.000000
151.075100 64.000000
151.086330 27.000000
158.303590 16.000000
160.075930 73.000000
160.091060 21.000000
161.022160 17.000000
161.060440 51.000000
161.091280 17.000000
162.046310 13.000000
162.055020 64.000000
162.076680 30.000000
162.090910 20.000000
163.035800 16.000000
163.042920 13.000000
163.053270 14.000000
163.073030 83.000000
163.087590 21.000000
164.030640 31.000000
164.041900 165.000000
164.054600 56.000000
164.077730 19.000000
164.105260 114.000000
164.123660 19.000000
165.047640 81.000000
165.061720 99.000000
165.088150 14.000000
165.109210 24.000000
166.058060 74.000000
166.068910 17.000000
166.082840 17.000000
167.060520 14.000000
171.456340 15.000000
174.055850 17.000000
174.079850 13.000000
175.064180 24.000000
175.073620 36.000000
176.072530 27.000000
177.052260 16.000000
177.077500 18.000000
178.057850 14.000000
178.065720 32.000000
178.079380 13.000000
179.050260 36.000000
179.069890 1000.000000
180.061900 49.000000
180.073960 55.000000
180.771240 13.000000
191.071760 58.000000
191.083710 27.000000
191.088930 14.000000
191.103810 15.000000
192.071120 25.000000
192.112200 15.000000
193.073260 18.000000
193.084790 142.000000
193.097380 112.000000
193.132970 15.000000
194.083480 27.000000
194.098980 67.000000
206.080230 18.000000
207.093610 28.000000
220.100200 20.000000
222.097750 17.000000
222.108400 14.000000

>ms2
77.036520 120.000000
77.042210 352.000000
78.046230 310.000000
91.046680 190.000000
92.066180 120.000000
105.027350 148.000000
107.068080 211.000000
111.301890 120.000000
112.249700 141.000000
118.066350 148.000000
120.086600 120.000000
130.052730 148.000000
134.055620 176.000000
134.858960 127.000000
146.065430 169.000000
149.080960 120.000000
161.044430 120.000000
205.052150 120.000000
222.114120 1000.000000

>ms2
91.054880 5.000000
105.068320 6.000000
121.063080 8.000000
133.057600 5.000000
133.064420 7.000000
135.085920 14.000000
151.073560 5.000000
164.106310 11.000000
164.115020 10.000000
165.053270 10.000000
179.066990 116.000000
179.076310 85.000000
180.063740 6.000000
180.075160 17.000000
191.062130 11.000000
191.074920 13.000000
191.090450 5.000000
192.103180 18.000000
193.086880 132.000000
194.080400 5.000000
205.089580 9.000000
206.087690 7.000000
207.085530 6.000000
207.095410 6.000000
220.093260 5.000000
222.112900 1000.000000
222.156520 19.000000

>ms2
179.066350 16.000000
179.074580 18.000000
193.081910 15.000000
193.092850 13.000000
222.113040 1000.000000
222.155240 25.000000

>ms2
67.052130 24.000000
77.040900 149.000000
79.049420 14.000000
79.054840 47.000000
79.059070 20.000000
81.034260 20.000000
81.069980 36.000000
91.043910 17.000000
91.055420 337.000000
91.924570 13.000000
92.026790 13.000000
92.062100 15.000000
93.068940 245.000000
94.063510 16.000000
94.067500 17.000000
94.075550 13.000000
98.309280 14.000000
103.057490 93.000000
105.063120 42.000000
105.068380 36.000000
105.076570 84.000000
106.064730 14.000000
106.931040 15.000000
107.049060 14.000000
107.082450 16.000000
108.061260 51.000000
115.040530 19.000000
115.052110 53.000000
115.057530 51.000000
116.053430 21.000000
117.047570 19.000000
117.053260 20.000000
117.058440 15.000000
117.069620 16.000000
118.039470 42.000000
119.028150 16.000000
119.049930 69.000000
120.058090 34.000000
120.075360 17.000000
120.084470 13.000000
121.064800 160.000000
121.072310 63.000000
121.087360 61.000000
122.063180 36.000000
122.085970 13.000000
123.079190 38.000000
124.083660 24.000000
126.894200 21.000000
127.068470 26.000000
129.067760 13.000000
130.695480 15.000000
131.048830 17.000000
131.072360 16.000000
131.080260 20.000000
131.524990 15.000000
132.050220 36.000000
132.072280 21.000000
132.077770 35.000000
133.064410 128.000000
133.071320 31.000000
133.083680 14.000000
134.037810 79.000000
134.057400 34.000000
134.063140 111.000000
134.071110 21.000000
134.102490 19.000000
135.043350 52.000000
135.065510 39.000000
135.082080 190.000000
135.100650 16.000000
136.041890 19.000000
136.053670 69.000000
136.084490 55.000000
144.026230 17.000000
144.084560 17.000000
145.035320 25.000000
145.056290 13.000000
145.068130 38.000000
146.031450 17.000000
146.045640 14.000000
146.066010 13.000000
147.044600 16.000000
147.081940 13.000000
147.087550 19.000000
148.054930 34.000000
148.077640 48.000000
149.054340 165.000000
149.084560 179.000000
150.030720 35.000000
150.089920 36.000000
151.025700 26.000000
151.039810 57.000000
151.074780 13.000000
151.081300 20.000000
153.050900 20.000000
160.057680 14.000000
160.067370 20.000000
160.081360 24.000000
161.078450 17.000000
162.054120 50.000000
162.095690 16.000000
163.037400 17.000000
163.073360 17.000000
164.047290 48.000000
164.057170 21.000000
164.100390 31.000000
164.108950 119.000000
165.032320 17.000000
165.051390 51.000000
165.059430 40.000000
165.119060 21.000000
166.066310 83.000000
166.081160 16.000000
167.060230 14.000000
175.054080 20.000000
175.068630 18.000000
176.047900 15.000000
176.071000 29.000000
177.061160 20.000000
177.072460 18.000000
177.081650 29.000000
178.060030 103.000000
178.077650 48.000000
178.086200 36.000000
179.057370 70.000000
179.071590 1000.000000
179.279890 15.000000
180.073940 94.000000
180.082890 32.000000
189.381820 16.000000
190.093600 21.000000
191.093370 32.000000
191.102040 15.000000
192.039580 15.000000
192.067870 17.000000
192.096210 18.000000
192.104930 32.000000
193.084320 199.000000
193.093930 57.000000
194.089200 21.000000
194.097780 16.000000
205.086520 20.000000
206.076970 56.000000
207.079570 15.000000
207.094070 30.000000
208.102680 16.000000
222.119750 77.000000

>ms2
77.034350 224.000000
91.055140 388.000000
94.064800 224.000000
107.052850 172.000000
120.043300 198.000000
163.039460 198.000000
165.104800 164.000000
222.107940 1000.000000

>ms2
55.022020 34.000000
77.038540 22.000000
83.049460 17.000000
91.046460 20.000000
91.055620 115.000000
92.025340 20.000000
92.029740 18.000000
93.062230 45.000000
93.068770 99.000000
97.066580 23.000000
102.505060 26.000000
103.052840 19.000000
105.072740 72.000000
106.065580 37.000000
107.088490 30.000000
108.053860 17.000000
108.060960 37.000000
108.879650 26.000000
115.049620 20.000000
117.065510 22.000000
119.050960 103.000000
120.073000 18.000000
120.087010 17.000000
121.034050 38.000000
121.063910 101.000000
121.072650 54.000000
126.092030 65.000000
127.256520 23.000000
129.072740 17.000000
131.294160 20.000000
132.074800 32.000000
132.086640 84.000000
133.029340 60.000000
133.049070 24.000000
133.066180 203.000000
134.059860 85.000000
134.071690 17.000000
134.095290 26.000000
135.039470 35.000000
135.081090 135.000000
136.071750 17.000000
138.067350 17.000000
140.033280 18.000000
141.242950 18.000000
145.045960 18.000000
145.705380 20.000000
146.036560 24.000000
147.038040 26.000000
147.059720 19.000000
147.069670 19.000000
148.055760 36.000000
148.076340 21.000000
149.061330 73.000000
149.068180 98.000000
149.087070 42.000000
150.087360 20.000000
152.053510 18.000000
159.047120 18.000000
160.064850 19.000000
160.075360 124.000000
161.060390 87.000000
161.079120 22.000000
161.090070 43.000000
162.045410 27.000000
162.058580 57.000000
162.066640 21.000000
162.087050 39.000000
162.095730 19.000000
163.073460 190.000000
164.047740 67.000000
164.086940 22.000000
164.100490 66.000000
164.106930 223.000000
164.120240 22.000000
165.042360 23.000000
165.055940 306.000000
165.068570 20.000000
165.088130 30.000000
166.053240 22.000000
166.064290 85.000000
169.850810 17.000000
175.071910 68.000000
175.081800 26.000000
176.069670 31.000000
177.076420 21.000000
178.055050 31.000000
178.065520 51.000000
178.830800 19.000000
178.981480 20.000000
179.030590 17.000000
179.071110 3094.000000
179.091540 44.000000
179.172910 25.000000
180.066220 76.000000
180.076450 208.000000
180.088620 50.000000
180.364970 32.000000
181.086940 20.000000
183.872120 20.000000
189.499250 18.000000
190.089000 28.000000
191.065720 107.000000
191.073900 250.000000
191.100480 20.000000
192.070710 39.000000
192.102290 139.000000
193.065080 17.000000
193.086900 1407.000000
193.111340 24.000000
194.072220 23.000000
194.093830 254.000000
194.112150 17.000000
195.102430 21.000000
205.061720 20.000000
205.088550 144.000000
205.327560 23.000000
206.063420 22.000000
206.082230 20.000000
206.094420 28.000000
207.065090 25.000000
207.081680 62.000000
207.091400 23.000000
218.634020 18.000000
220.088240 25.000000
220.100970 85.000000
221.707720 20.000000
221.890290 19.000000
221.926800 43.000000
222.008390 21.000000
222.042740 19.000000
222.084990 150.000000
222.113800 15288.000000
222.154540 243.000000
222.201420 17.000000

