>compound PR27930625
>parentmass 182.0455
>ionization [M+H]+
>formula C8H7NO4
>rt 109.800000
>profile qtof
#smiles_iso C1=CC=C2C(=C1)N(C(=O)C(O2)O)O
#smiles_can C1=CC=C2C(=C1)N(C(=O)C(O2)O)O
#inchikey COVOPZQGJGUPEY-UHFFFAOYSA-N
#pubchem_id 28495
#mb_accession PR311130

>ms2
66.034680 20.000000
80.043520 16.000000
80.051080 85.000000
90.031190 17.000000
91.053720 31.000000
92.058090 39.000000
95.050900 21.000000
98.966330 30.000000
108.016680 25.000000
108.032360 23.000000
108.045260 407.000000
109.039100 66.000000
109.047700 17.000000
110.260350 17.000000
118.029400 16.000000
119.049970 71.000000
120.128580 16.000000
123.042880 87.000000
136.040820 1675.000000
136.071750 130.000000
136.080110 77.000000
136.272480 22.000000
137.042560 161.000000
137.079320 44.000000
137.169720 16.000000
138.050140 18.000000
141.962920 18.000000
146.931430 19.000000
147.043200 16.000000
148.052260 16.000000
154.049970 26.000000
154.057890 35.000000
164.034740 1378.000000
164.068360 42.000000
165.035450 36.000000
165.052020 80.000000
165.058930 69.000000
165.073430 24.000000
166.046170 25.000000
166.084690 16.000000
166.993120 16.000000
179.821640 25.000000
182.046650 950.000000
182.080660 40.000000

