>compound PR27232790
>parentmass 207.06518576999997
>ionization [M+H]+
>formula C11H10O4
>rt 300.049464
>profile qtof
#smiles_iso COC1=C(C=C2C(=C1)C=CC(=O)O2)OC
#smiles_can COC1=C(C=C2C(=C1)C=CC(=O)O2)OC
#inchikey GUAFOGOEJLSQBT-UHFFFAOYSA-N
#pubchem_id 8417
#mb_accession PR303600,PR303601,PR303602,PR303603,PR303604,PR303605,PR303606,PR303607,PR303608,PR311074

>ms2
79.054710 6.000000
91.054050 13.000000
107.049350 41.000000
108.057570 10.000000
121.065090 7.000000
134.033950 5.000000
135.044920 19.000000
136.051190 19.000000
146.035350 29.000000
147.040910 8.000000
148.050610 28.000000
151.074920 157.000000
152.076970 13.000000
162.027210 6.000000
163.037600 33.000000
163.043990 30.000000
164.047240 11.000000
179.069820 55.000000
191.021090 10.000000
191.034000 80.000000
192.039830 63.000000
193.042620 6.000000
206.058490 28.000000
207.065000 1000.000000
207.106160 19.000000

>ms2
206.057390 25.000000
207.065170 1000.000000
207.106810 28.000000

>ms2
74.027230 5.000000
77.036580 38.000000
77.040820 34.000000
78.040040 10.000000
78.046920 28.000000
79.055340 29.000000
80.061000 16.000000
88.888550 13.000000
89.035620 31.000000
89.045070 8.000000
90.029740 7.000000
90.046060 138.000000
91.054370 270.000000
92.053910 6.000000
93.028400 10.000000
102.047740 90.000000
103.055420 8.000000
105.031340 43.000000
106.039750 92.000000
106.048390 11.000000
106.970230 7.000000
107.034450 21.000000
107.049310 689.000000
107.893330 8.000000
108.056110 177.000000
109.057940 14.000000
117.033890 57.000000
118.037700 103.000000
118.043350 93.000000
118.969590 6.000000
119.047260 126.000000
119.207200 5.000000
120.059270 9.000000
121.023640 26.000000
121.035400 17.000000
121.064030 112.000000
122.040100 5.000000
123.077800 5.000000
129.029270 14.000000
129.034580 7.000000
129.242000 5.000000
133.026320 115.000000
133.036710 12.000000
134.026900 7.000000
134.036480 62.000000
134.048890 5.000000
134.757950 7.000000
135.026280 10.000000
135.043170 315.000000
136.051740 198.000000
137.054290 19.000000
137.059330 12.000000
145.007460 6.000000
145.027280 103.000000
145.039410 8.000000
145.994900 5.000000
146.035450 391.000000
147.033840 48.000000
147.043810 115.000000
147.066350 6.000000
148.030700 5.000000
148.051270 195.000000
149.026280 12.000000
149.055280 22.000000
150.895650 6.000000
151.075680 1000.000000
151.799930 5.000000
152.058170 9.000000
152.076780 82.000000
153.069900 6.000000
161.017170 9.000000
162.022350 20.000000
162.031570 65.000000
163.039860 647.000000
163.082430 7.000000
164.039120 63.000000
164.048430 30.000000
165.041890 9.000000
165.056370 5.000000
165.247770 8.000000
173.021640 39.000000
173.032560 12.000000
174.030090 68.000000
175.028210 6.000000
175.042970 25.000000
179.069230 40.000000
179.080020 16.000000
180.072660 8.000000
189.016890 29.000000
189.027210 5.000000
190.993580 5.000000
191.006760 9.000000
191.034190 915.000000
192.037480 214.000000
207.062990 64.000000

>ms2
90.046050 5.000000
91.050660 5.000000
91.055420 12.000000
107.048110 31.000000
108.055390 10.000000
118.038470 8.000000
119.047080 9.000000
121.065890 16.000000
135.041810 7.000000
136.052410 26.000000
145.025310 8.000000
146.036640 33.000000
147.040660 10.000000
148.051250 31.000000
151.074490 137.000000
152.077870 15.000000
152.085630 7.000000
163.039230 63.000000
164.043580 9.000000
174.032750 6.000000
179.069900 42.000000
191.033750 74.000000
192.030000 7.000000
192.043950 32.000000
193.045210 5.000000
206.058350 18.000000
207.064830 1000.000000
207.106160 21.000000

>ms2
206.057210 19.000000
207.064850 1000.000000
207.105420 31.000000

>ms2
65.037450 6.000000
68.995000 12.000000
77.028240 6.000000
77.037850 48.000000
78.046610 30.000000
79.051740 19.000000
79.056720 15.000000
80.058170 25.000000
80.064850 16.000000
89.040360 45.000000
89.143650 5.000000
90.039050 15.000000
90.046190 87.000000
91.054000 328.000000
92.015100 6.000000
92.057790 14.000000
94.045100 9.000000
94.839470 7.000000
95.086570 6.000000
102.042840 30.000000
102.047390 80.000000
103.051220 10.000000
104.011730 6.000000
105.036040 25.000000
106.037980 44.000000
106.043890 26.000000
107.035670 11.000000
107.048770 741.000000
108.026270 8.000000
108.043000 11.000000
108.056330 175.000000
108.067660 5.000000
109.059080 18.000000
117.032470 78.000000
118.037570 40.000000
118.043730 75.000000
118.053690 5.000000
118.739280 10.000000
119.047540 84.000000
119.058670 6.000000
120.021390 8.000000
120.046070 6.000000
120.050150 15.000000
121.025470 39.000000
121.032550 8.000000
121.065120 146.000000
122.036270 5.000000
122.070110 17.000000
123.083310 9.000000
128.024060 8.000000
129.038380 8.000000
131.043870 6.000000
132.708100 6.000000
133.027920 150.000000
134.035100 134.000000
134.059840 7.000000
135.041600 151.000000
135.049240 105.000000
136.050670 194.000000
137.030560 5.000000
137.049560 19.000000
137.059330 16.000000
145.029280 145.000000
146.014220 9.000000
146.037220 447.000000
147.043960 138.000000
148.050980 205.000000
149.011220 8.000000
149.022170 11.000000
149.053120 12.000000
150.055940 9.000000
151.075530 966.000000
152.067280 14.000000
152.078770 109.000000
153.078050 10.000000
153.084350 18.000000
161.024410 14.000000
162.028700 76.000000
162.041440 21.000000
162.345400 6.000000
163.038760 678.000000
163.067080 5.000000
163.076370 8.000000
164.042400 103.000000
165.040680 7.000000
167.440890 10.000000
173.021840 36.000000
173.034290 8.000000
174.029970 13.000000
174.041990 11.000000
176.468020 5.000000
178.724330 7.000000
179.072040 41.000000
189.011630 8.000000
189.023860 8.000000
191.034150 1000.000000
192.038940 153.000000
193.041340 12.000000
193.049450 9.000000
207.066060 67.000000

>ms2
77.039190 309.000000
77.046960 31.000000
78.041630 26.000000
78.049930 68.000000
78.249680 29.000000
89.030560 56.000000
89.038600 182.000000
89.045320 31.000000
90.036730 37.000000
90.045590 225.000000
90.052760 40.000000
91.031230 32.000000
91.054230 62.000000
92.028030 39.000000
94.034320 46.000000
101.040180 51.000000
105.036540 117.000000
106.038700 71.000000
107.005360 28.000000
107.048690 1000.000000
108.049450 66.000000
108.056720 34.000000
117.026860 88.000000
118.044650 56.000000
119.046710 35.000000
121.022230 34.000000
121.026690 86.000000
124.614460 29.000000
133.025790 108.000000
134.033750 177.000000
134.042300 35.000000
135.036870 59.000000
135.046460 167.000000
136.050450 31.000000
145.023910 76.000000
145.030810 37.000000
146.035610 54.000000
147.028960 46.000000
148.030940 43.000000
148.055650 26.000000
151.072220 31.000000
152.081310 26.000000
162.013030 39.000000
164.039430 35.000000
173.028580 34.000000
175.030550 35.000000
178.022060 66.000000
191.023160 28.000000
191.037350 106.000000

>ms2
91.051860 9.000000
91.057290 6.000000
107.048420 28.000000
121.061780 8.000000
121.068860 8.000000
135.042650 19.000000
136.050350 34.000000
145.022030 10.000000
146.036060 30.000000
147.041290 8.000000
148.052000 25.000000
151.075420 140.000000
152.075880 9.000000
152.085390 7.000000
162.032290 6.000000
163.035750 42.000000
163.042720 11.000000
164.042830 7.000000
174.028520 7.000000
178.055800 5.000000
179.069350 55.000000
191.033970 74.000000
192.040540 48.000000
206.058330 20.000000
207.065600 1000.000000
207.107600 15.000000

>ms2
179.068510 6.000000
206.056270 24.000000
207.065640 1000.000000
207.106480 27.000000

>ms2
77.041500 57.000000
78.046950 48.000000
79.054710 136.000000
80.061740 24.000000
89.039240 95.000000
90.048750 112.000000
91.039310 24.000000
91.054050 297.000000
102.046870 28.000000
103.041500 33.000000
104.054790 37.000000
105.034100 57.000000
106.040210 18.000000
106.047870 21.000000
107.049350 925.000000
107.061660 14.000000
108.045940 18.000000
108.057570 230.000000
109.057120 19.000000
117.025120 20.000000
117.032390 18.000000
117.524090 28.000000
118.034490 17.000000
118.041450 42.000000
118.317960 29.000000
119.045480 46.000000
119.050310 109.000000
119.061720 18.000000
120.054370 21.000000
120.061160 18.000000
121.025380 64.000000
121.042560 20.000000
121.053380 27.000000
121.065090 171.000000
121.153080 22.000000
122.036170 17.000000
122.072560 27.000000
123.077190 24.000000
124.087650 27.000000
124.855360 17.000000
127.698410 25.000000
128.028320 21.000000
129.032710 62.000000
131.640200 28.000000
132.795350 26.000000
133.007800 20.000000
133.025270 35.000000
134.033950 123.000000
134.043430 19.000000
135.027980 58.000000
135.044920 437.000000
135.053600 68.000000
135.626070 44.000000
135.975300 37.000000
136.051190 444.000000
136.061980 59.000000
137.047590 27.000000
137.061890 17.000000
138.062620 19.000000
142.280790 22.000000
143.957280 24.000000
145.025540 80.000000
146.035350 663.000000
147.040910 185.000000
147.053040 26.000000
147.405810 21.000000
148.032040 20.000000
148.050610 643.000000
149.040940 41.000000
149.057040 17.000000
149.063250 20.000000
150.056140 18.000000
151.049760 22.000000
151.074920 3577.000000
151.120130 40.000000
151.611940 20.000000
152.076970 290.000000
152.085330 84.000000
153.078220 70.000000
153.090260 45.000000
155.217610 17.000000
156.570430 20.000000
156.653700 21.000000
156.871460 17.000000
156.904660 20.000000
158.136280 20.000000
158.959440 17.000000
161.302920 22.000000
162.008060 17.000000
162.027210 128.000000
162.037720 101.000000
163.037600 746.000000
163.043990 682.000000
163.064390 20.000000
163.073430 58.000000
163.093480 31.000000
164.030210 20.000000
164.047240 242.000000
165.035370 20.000000
165.046630 37.000000
173.022900 39.000000
173.431410 29.000000
174.034470 65.000000
175.022520 27.000000
175.029950 22.000000
175.040770 42.000000
175.048320 21.000000
176.048460 24.000000
178.055890 25.000000
178.063420 108.000000
179.069820 1247.000000
179.788530 21.000000
181.077480 57.000000
189.265980 46.000000
191.021090 217.000000
191.034000 1832.000000
191.066930 17.000000
191.279170 28.000000
192.039830 1444.000000
192.166050 21.000000
193.026820 19.000000
193.042620 145.000000
203.035390 18.000000
203.943240 20.000000
204.090000 21.000000
205.709210 20.000000
206.035160 20.000000
206.058490 629.000000
206.164050 20.000000
206.243730 20.000000
206.790480 18.000000
207.034740 19.000000
207.065000 22831.000000
207.106160 428.000000

