>compound PR27899049
>parentmass 919.2459
>ionization [M+H]+
>formula C42H46O23
>rt 268.800000
>profile qtof
#smiles_iso CC1C(C(C(C(O1)OC2=C(OC3=CC(=CC(=C3C2=O)O)OC4C(C(C(C(O4)CO)O)O)O)C5=CC(=C(C=C5)O)O)OC6C(C(C(C(O6)COC(=O)C=CC7=CC=C(C=C7)O)O)O)O)O)O
#smiles_can CC1C(C(C(C(O1)OC2=C(OC3=CC(=CC(=C3C2=O)O)OC4C(C(C(C(O4)CO)O)O)O)C5=CC(=C(C=C5)O)O)OC6C(C(C(C(O6)COC(=O)C=CC7=CC=C(C=C7)O)O)O)O)O)O
#inchikey SHRUKDVTMUBNTL-UHFFFAOYSA-N
#pubchem_id 74978215
#mb_accession PR310939

>ms2
99.036130 16.000000
167.031860 77.000000
177.052290 115.000000
177.064730 20.000000
179.062070 17.000000
274.054630 21.000000
291.074100 17.000000
291.088070 34.000000
292.084010 17.000000
303.021940 24.000000
303.055420 226.000000
304.046780 23.000000
306.071750 21.000000
309.099240 57.000000
311.099000 48.000000
316.050930 50.000000
323.113770 20.000000
345.057190 16.000000
381.075990 20.000000
400.339080 17.000000
455.154850 52.000000
465.098750 62.000000
466.106080 21.000000
489.112880 23.000000
611.144170 16.000000
917.360960 19.000000
919.194400 37.000000
919.220760 34.000000
919.264650 68.000000

