>compound PR28580868
>parentmass 370.2012848
>ionization [M+H]+
>formula C22H27NO4
>rt 291.864000
>profile qtof
#smiles_iso C[C@@H]1[C@@H]2C3=CC(=C(C=C3CCN2CC4=C1C=CC(=C4OC)OC)OC)OC
#smiles_can CC1C2C3=CC(=C(C=C3CCN2CC4=C1C=CC(=C4OC)OC)OC)OC
#inchikey VRSRXLJTYQVOHC-YEJXKQKISA-N
#pubchem_id 101301
#mb_accession PR301091,PR301095,PR301099,PR301103,PR301107,PR301111,PR301115,PR301119,PR301123,PR301127,PR301131,PR301135

>ms2
133.065960 8.000000
135.083600 5.000000
136.051450 15.000000
150.068250 33.000000
151.075290 22.000000
165.091090 112.000000
166.095370 7.000000
176.068890 10.000000
176.077650 5.000000
177.074570 11.000000
177.086180 10.000000
179.105580 18.000000
190.082150 11.000000
190.093200 5.000000
192.102870 210.000000
193.105620 33.000000
204.095950 5.000000
204.105930 7.000000
205.110030 26.000000
206.114270 8.000000
218.116760 8.000000
322.142520 7.000000
354.170500 17.000000
355.173030 11.000000
355.186340 7.000000
370.201690 1000.000000
370.257080 31.000000

>ms2
370.201200 1000.000000
370.256650 33.000000

>ms2
105.068110 8.000000
105.072560 15.000000
119.084370 7.000000
121.063190 9.000000
133.064350 23.000000
134.065610 6.000000
134.073910 8.000000
135.042540 9.000000
135.081480 15.000000
136.051820 43.000000
137.060700 7.000000
138.069630 8.000000
147.080890 11.000000
148.070740 7.000000
148.080550 9.000000
150.067720 172.000000
151.059780 5.000000
151.075740 119.000000
152.074020 10.000000
159.070080 7.000000
164.083940 44.000000
165.091160 599.000000
166.096310 75.000000
167.095900 7.000000
176.071150 30.000000
177.081850 51.000000
178.077880 5.000000
179.107910 81.000000
180.110150 13.000000
188.108050 7.000000
189.086780 17.000000
190.086140 74.000000
191.093250 13.000000
192.102480 1000.000000
192.139330 8.000000
193.104890 124.000000
194.110410 10.000000
203.107590 13.000000
204.102650 62.000000
205.109620 103.000000
206.116070 54.000000
207.117600 9.000000
218.119080 35.000000
219.126020 10.000000
293.125090 11.000000
295.137660 6.000000
307.127080 8.000000
308.127930 8.000000
308.145900 8.000000
311.129000 9.000000
312.159790 11.000000
322.147280 68.000000
323.123900 20.000000
323.150390 23.000000
324.133240 5.000000
324.147220 6.000000
324.163450 7.000000
325.139770 5.000000
325.168240 7.000000
326.166470 18.000000
326.184200 14.000000
327.180420 7.000000
336.164980 5.000000
338.157010 9.000000
338.173920 6.000000
339.182190 6.000000
340.144930 12.000000
340.155360 26.000000
341.169590 6.000000
354.168150 95.000000
355.176240 73.000000
356.173860 14.000000
368.176880 6.000000
370.201690 274.000000

>ms2
77.016910 5.000000
77.042230 15.000000
78.046970 5.000000
79.051720 27.000000
79.057160 22.000000
91.031490 6.000000
91.051160 42.000000
91.057480 24.000000
92.054800 10.000000
93.067860 21.000000
103.054060 57.000000
104.057410 11.000000
104.063000 32.000000
105.070480 140.000000
106.039090 12.000000
107.050010 71.000000
107.085620 18.000000
108.058490 16.000000
109.029280 5.000000
109.057730 6.000000
109.066260 8.000000
115.050640 7.000000
115.056420 21.000000
117.062890 6.000000
117.067720 15.000000
117.079140 6.000000
118.036770 13.000000
118.046570 29.000000
118.057420 6.000000
118.064490 9.000000
118.072200 8.000000
119.048010 29.000000
119.052960 16.000000
119.083440 15.000000
120.049550 7.000000
120.055180 23.000000
120.066320 9.000000
120.084080 5.000000
121.054370 6.000000
121.065080 130.000000
122.064930 14.000000
122.070640 15.000000
122.077190 12.000000
124.049800 6.000000
128.063390 9.000000
130.063080 41.000000
131.051240 53.000000
131.072970 344.000000
132.054370 17.000000
132.077300 44.000000
132.959550 5.000000
133.031390 8.000000
133.051480 18.000000
133.065990 86.000000
134.070570 85.000000
134.078860 26.000000
135.043840 194.000000
135.069900 16.000000
135.079710 57.000000
136.051670 91.000000
137.097140 8.000000
138.063200 10.000000
143.056810 6.000000
143.070130 6.000000
143.081330 5.000000
144.052930 9.000000
145.063480 20.000000
145.088300 11.000000
146.056590 17.000000
146.064590 31.000000
146.073560 36.000000
147.039610 11.000000
147.065920 88.000000
147.076680 48.000000
148.042400 11.000000
148.053730 18.000000
148.075940 517.000000
149.048480 5.000000
149.061570 87.000000
149.078370 69.000000
150.067020 278.000000
150.080170 25.000000
151.057240 8.000000
151.072140 67.000000
151.080180 34.000000
152.077480 8.000000
153.619870 5.000000
157.056490 11.000000
158.061520 10.000000
159.067980 116.000000
159.075790 25.000000
160.042340 8.000000
160.074870 121.000000
160.089070 26.000000
161.056490 13.000000
161.082820 46.000000
162.041730 9.000000
162.054960 11.000000
162.063670 17.000000
162.086350 10.000000
162.094650 16.000000
163.074660 21.000000
164.083970 35.000000
165.083340 50.000000
165.090910 170.000000
166.094270 16.000000
171.073360 6.000000
172.065960 6.000000
172.074040 9.000000
173.081790 7.000000
174.056760 71.000000
174.091770 11.000000
175.052230 7.000000
175.091920 6.000000
176.030910 6.000000
176.070600 1000.000000
176.107620 8.000000
177.052780 10.000000
177.078060 579.000000
178.064300 8.000000
178.076390 34.000000
178.086440 38.000000
178.101870 7.000000
179.099960 6.000000
188.067900 25.000000
188.077650 42.000000
189.079100 26.000000
189.092090 8.000000
190.069260 12.000000
190.086230 163.000000
190.094800 47.000000
191.090120 28.000000
192.064060 6.000000
192.079540 11.000000
192.101500 753.000000
193.104830 107.000000
193.118800 9.000000
202.086490 48.000000
203.086030 6.000000
203.095440 15.000000
204.094730 25.000000
204.101030 14.000000
205.105330 15.000000
205.117400 9.000000
208.095630 7.000000
215.091580 6.000000
218.071010 6.000000
219.078110 9.000000
219.086620 14.000000
220.080750 9.000000
220.096020 6.000000
221.069530 7.000000
221.086470 9.000000
222.101880 6.000000
231.083920 17.000000
233.095490 19.000000
234.069930 6.000000
234.099210 14.000000
236.076420 11.000000
237.079320 10.000000
237.091720 8.000000
239.100250 6.000000
240.078060 6.000000
245.092410 6.000000
247.110530 8.000000
248.093490 9.000000
249.094040 21.000000
249.115020 5.000000
250.086720 28.000000
250.103840 10.000000
251.058300 5.000000
251.068330 6.000000
251.102080 14.000000
251.111040 8.000000
252.070940 9.000000
254.089940 6.000000
254.113600 7.000000
260.083500 5.000000
261.086790 7.000000
262.100160 11.000000
263.091740 11.000000
263.107090 16.000000
263.120150 12.000000
264.079350 7.000000
264.092010 8.000000
264.110840 44.000000
264.140290 5.000000
265.082460 27.000000
265.109010 7.000000
266.079250 6.000000
266.093540 5.000000
267.118650 10.000000
268.095860 7.000000
268.123410 5.000000
276.103450 10.000000
276.121120 10.000000
277.089660 11.000000
277.102260 12.000000
277.115720 12.000000
277.122710 5.000000
278.052280 5.000000
278.085170 29.000000
278.102940 15.000000
278.121950 7.000000
279.098790 12.000000
280.091580 19.000000
280.111720 13.000000
280.134640 6.000000
281.060880 10.000000
281.082460 6.000000
281.110380 9.000000
281.121640 7.000000
282.115330 12.000000
284.162720 6.000000
288.107330 14.000000
288.118470 5.000000
290.134860 8.000000
291.087550 5.000000
291.104490 9.000000
292.097750 37.000000
294.104460 15.000000
294.117310 18.000000
295.076660 7.000000
295.141050 6.000000
296.088710 13.000000
296.121430 12.000000
296.135100 15.000000
297.138950 13.000000
306.096130 12.000000
306.110870 14.000000
306.126010 14.000000
307.102910 9.000000
307.116880 13.000000
307.131710 22.000000
308.131590 8.000000
309.064390 5.000000
309.094760 7.000000
309.113100 6.000000
309.139100 6.000000
310.129790 5.000000
310.143920 5.000000
310.153020 6.000000
312.153690 10.000000
320.122470 5.000000
321.126620 5.000000
322.113340 9.000000
322.138150 7.000000
322.157560 13.000000
323.124480 9.000000
324.127990 9.000000
325.131590 14.000000
338.143950 10.000000
338.156650 9.000000
339.138640 5.000000
340.160890 5.000000
370.197110 9.000000

>ms2
133.064990 7.000000
136.052250 9.000000
148.076450 8.000000
150.067320 35.000000
151.075200 25.000000
164.083970 11.000000
165.091920 126.000000
166.089750 7.000000
166.096730 8.000000
176.071590 18.000000
177.076420 12.000000
177.084960 11.000000
179.104340 15.000000
179.111920 6.000000
190.086560 20.000000
192.102450 213.000000
193.106160 30.000000
204.103180 14.000000
205.109650 23.000000
206.119830 12.000000
218.115710 11.000000
322.139530 5.000000
322.156100 6.000000
323.124940 5.000000
326.177220 5.000000
340.153560 7.000000
354.172790 18.000000
355.177000 15.000000
370.202120 1000.000000
370.257720 31.000000

>ms2
370.202420 1000.000000
370.257630 32.000000

>ms2
105.071610 25.000000
133.064940 28.000000
134.072220 12.000000
135.041820 6.000000
135.081530 16.000000
136.051420 55.000000
137.058120 6.000000
147.078410 16.000000
148.086230 8.000000
150.067050 149.000000
151.075040 114.000000
152.078830 13.000000
164.083160 45.000000
165.090990 572.000000
166.094530 72.000000
167.100940 6.000000
172.086410 7.000000
176.071520 23.000000
177.078230 59.000000
177.092860 7.000000
178.083020 9.000000
179.107740 78.000000
180.110090 16.000000
188.081050 7.000000
188.107770 7.000000
189.081220 17.000000
190.086620 62.000000
191.091230 13.000000
192.101750 1000.000000
192.141200 14.000000
193.106060 137.000000
194.107220 12.000000
203.096420 8.000000
203.109300 8.000000
204.101270 54.000000
205.108950 113.000000
206.115750 55.000000
207.114810 6.000000
218.117860 30.000000
218.126270 8.000000
219.122830 13.000000
293.118290 6.000000
294.121490 5.000000
307.136690 7.000000
308.132840 18.000000
309.142300 5.000000
311.127690 6.000000
312.164030 14.000000
322.146420 63.000000
323.130220 18.000000
323.146090 16.000000
324.134190 9.000000
324.156890 10.000000
325.140260 8.000000
325.170200 9.000000
326.169860 14.000000
326.182800 11.000000
336.155270 6.000000
338.177490 15.000000
340.151980 45.000000
341.153660 10.000000
354.168580 113.000000
355.166170 27.000000
355.181060 39.000000
356.177150 10.000000
368.190310 7.000000
370.200710 253.000000

>ms2
77.039270 13.000000
78.043850 5.000000
78.049130 8.000000
79.053670 50.000000
79.059060 13.000000
80.059630 5.000000
91.050100 37.000000
91.057110 45.000000
92.057430 11.000000
92.063520 14.000000
93.072520 18.000000
94.041060 5.000000
94.074230 5.000000
103.050770 23.000000
103.056990 60.000000
104.050680 8.000000
104.060600 22.000000
104.068420 6.000000
105.070560 125.000000
107.039890 10.000000
107.047330 45.000000
107.052120 38.000000
108.041950 6.000000
108.054920 25.000000
109.063060 7.000000
115.051290 11.000000
115.057380 26.000000
116.057820 8.000000
117.067570 34.000000
117.075730 5.000000
118.040770 20.000000
118.045560 7.000000
118.066420 22.000000
119.049010 32.000000
119.075480 6.000000
119.084400 10.000000
120.057230 41.000000
120.083600 6.000000
121.064270 129.000000
122.069930 33.000000
123.042360 5.000000
124.049620 12.000000
128.059950 15.000000
129.070020 5.000000
130.062160 35.000000
131.038560 7.000000
131.044340 17.000000
131.057510 28.000000
131.072570 367.000000
132.051700 13.000000
132.062970 17.000000
132.078720 52.000000
133.048030 10.000000
133.064330 102.000000
133.075500 17.000000
134.052020 8.000000
134.070690 96.000000
135.043990 149.000000
135.080000 51.000000
136.048230 89.000000
136.056850 33.000000
137.057240 10.000000
138.057770 6.000000
138.067280 8.000000
140.063490 5.000000
143.046370 7.000000
143.078780 5.000000
144.084730 6.000000
145.055500 15.000000
145.068420 19.000000
145.089680 9.000000
146.061810 53.000000
146.075640 8.000000
147.043140 8.000000
147.054980 6.000000
147.068880 102.000000
148.038670 8.000000
148.050130 14.000000
148.058090 22.000000
148.075780 481.000000
149.059970 56.000000
149.075580 20.000000
149.082470 37.000000
150.067700 281.000000
151.057740 6.000000
151.072890 127.000000
152.081680 10.000000
157.062320 11.000000
158.059020 6.000000
158.071550 6.000000
158.097200 8.000000
159.041690 13.000000
159.068700 137.000000
159.083370 8.000000
160.044750 7.000000
160.074200 90.000000
160.099980 6.000000
161.058110 8.000000
161.065340 15.000000
161.079910 54.000000
161.089660 9.000000
162.054340 23.000000
162.071090 10.000000
162.088120 32.000000
162.096180 15.000000
163.074660 15.000000
163.084490 9.000000
164.077160 20.000000
164.088530 28.000000
164.107350 7.000000
165.092150 188.000000
166.004590 6.000000
166.089540 8.000000
166.096470 14.000000
168.079470 5.000000
171.061260 6.000000
171.071980 7.000000
171.082760 7.000000
172.082730 6.000000
173.059910 9.000000
173.081420 9.000000
174.057480 71.000000
174.072910 8.000000
174.088870 24.000000
174.097810 13.000000
175.051730 13.000000
175.062940 26.000000
175.078990 22.000000
175.834670 5.000000
176.070590 1000.000000
177.077240 487.000000
177.095020 24.000000
178.068250 13.000000
178.084580 63.000000
179.080230 6.000000
179.093310 5.000000
183.093750 6.000000
186.090580 5.000000
187.100050 6.000000
188.072690 24.000000
188.086060 9.000000
188.106700 5.000000
189.078980 29.000000
190.073440 18.000000
190.086690 186.000000
190.095580 54.000000
191.089660 52.000000
191.102200 6.000000
192.077910 6.000000
192.102260 821.000000
193.079160 5.000000
193.086760 11.000000
193.103000 72.000000
193.121350 7.000000
194.076610 9.000000
194.107280 20.000000
202.082670 35.000000
202.096050 7.000000
203.087220 15.000000
204.098750 55.000000
205.111050 19.000000
206.113160 8.000000
208.084790 9.000000
209.096330 6.000000
215.088970 13.000000
216.086670 6.000000
216.100710 9.000000
220.071380 8.000000
220.094010 9.000000
221.094970 22.000000
222.097500 13.000000
222.118880 5.000000
231.069290 7.000000
231.085400 15.000000
233.083920 7.000000
233.094450 15.000000
233.111770 6.000000
233.348940 6.000000
234.106350 12.000000
235.075680 9.000000
235.100020 9.000000
237.085780 11.000000
237.117510 10.000000
238.086010 9.000000
239.090180 6.000000
239.102050 6.000000
240.098010 5.000000
245.085050 8.000000
247.110090 10.000000
248.082230 7.000000
248.116200 19.000000
249.076140 11.000000
249.100160 5.000000
249.113510 8.000000
250.086810 25.000000
250.106000 5.000000
251.095660 8.000000
252.091020 6.000000
252.103390 9.000000
253.122830 7.000000
261.083470 6.000000
261.091950 11.000000
261.110200 5.000000
262.085210 7.000000
262.098910 9.000000
263.104130 15.000000
263.115300 5.000000
263.134030 5.000000
264.107390 23.000000
264.119050 7.000000
265.074520 12.000000
265.089360 10.000000
265.097960 11.000000
265.117070 9.000000
266.075870 6.000000
267.107450 9.000000
268.129820 5.000000
275.108150 7.000000
276.063390 6.000000
276.099640 14.000000
276.128750 6.000000
277.081050 10.000000
277.091980 11.000000
277.129670 12.000000
278.084720 24.000000
278.113530 19.000000
278.136870 9.000000
278.144680 6.000000
278.169530 6.000000
279.084290 6.000000
279.093600 6.000000
279.122250 8.000000
280.111020 13.000000
280.127690 8.000000
281.096440 8.000000
281.107180 19.000000
281.144200 7.000000
282.092410 6.000000
282.110720 11.000000
288.093960 19.000000
288.112760 10.000000
289.092500 5.000000
289.110410 8.000000
290.117950 6.000000
291.080080 8.000000
292.086610 9.000000
292.098050 18.000000
292.130890 11.000000
293.091980 8.000000
294.075010 8.000000
294.112000 19.000000
295.079280 6.000000
295.105410 7.000000
296.107120 13.000000
296.128940 10.000000
296.137880 20.000000
297.134860 10.000000
304.101290 6.000000
306.107030 44.000000
306.124020 18.000000
306.136020 7.000000
307.103450 9.000000
307.117430 20.000000
307.129000 10.000000
308.117680 16.000000
309.117950 11.000000
310.135680 6.000000
311.152440 6.000000
312.153470 5.000000
312.168090 7.000000
320.132900 7.000000
321.133790 5.000000
322.157170 19.000000
323.148470 7.000000
324.125120 23.000000
325.105410 8.000000
325.124210 11.000000
326.174260 6.000000
338.134520 7.000000
338.145260 7.000000
338.156890 6.000000
339.135930 7.000000
339.156430 5.000000

>ms2
105.072620 5.000000
136.051740 11.000000
148.076390 7.000000
150.067340 39.000000
151.075790 25.000000
164.081300 8.000000
165.091340 123.000000
166.094350 19.000000
176.070660 20.000000
177.078740 21.000000
179.106190 18.000000
190.086980 16.000000
192.101940 221.000000
193.104460 29.000000
204.101260 15.000000
205.109910 25.000000
206.115510 12.000000
218.117340 9.000000
322.143340 13.000000
340.151490 6.000000
354.170840 17.000000
355.177730 13.000000
368.179870 6.000000
370.200100 1000.000000
370.255520 34.000000

>ms2
370.201720 1000.000000
370.256900 35.000000

>ms2
105.069360 16.000000
119.086670 6.000000
121.066120 6.000000
133.065020 26.000000
134.072080 12.000000
135.042940 10.000000
135.080220 20.000000
136.052140 51.000000
138.066300 8.000000
138.072750 5.000000
147.080290 16.000000
148.073760 14.000000
148.082490 5.000000
150.067760 157.000000
151.074570 121.000000
152.078290 13.000000
159.070480 6.000000
164.083300 46.000000
165.090650 576.000000
166.094280 78.000000
167.101260 8.000000
176.070010 28.000000
177.077820 50.000000
177.091480 8.000000
179.105350 75.000000
180.111310 12.000000
189.089720 8.000000
190.086350 61.000000
191.091550 14.000000
192.068980 5.000000
192.101780 1000.000000
192.141250 16.000000
193.104900 139.000000
194.108960 9.000000
203.108410 10.000000
204.101940 48.000000
205.108950 103.000000
206.116170 59.000000
207.122570 7.000000
218.117780 42.000000
219.121260 14.000000
293.109190 5.000000
295.134120 6.000000
307.132690 16.000000
308.120360 5.000000
308.132510 11.000000
308.145690 6.000000
309.132540 6.000000
312.160800 8.000000
322.144960 58.000000
323.129670 14.000000
323.146300 21.000000
324.130580 7.000000
324.155580 11.000000
325.127260 6.000000
325.162380 15.000000
326.155270 6.000000
326.176120 26.000000
327.183200 6.000000
338.145450 5.000000
338.163850 12.000000
338.175810 6.000000
340.152500 33.000000
341.157350 14.000000
352.148440 5.000000
354.168240 102.000000
355.174500 60.000000
356.181790 7.000000
370.200010 248.000000

>ms2
77.039370 22.000000
78.047510 12.000000
79.055790 61.000000
90.044300 7.000000
91.054730 79.000000
92.061530 18.000000
93.070610 8.000000
95.048930 8.000000
102.045430 7.000000
103.054970 69.000000
104.059460 47.000000
105.059300 12.000000
105.070780 112.000000
106.038640 6.000000
106.045560 8.000000
106.070270 12.000000
107.050710 80.000000
108.051630 6.000000
108.057420 9.000000
109.063840 6.000000
115.053470 18.000000
116.049400 6.000000
116.057850 12.000000
117.060580 8.000000
117.071200 35.000000
118.041310 18.000000
118.066280 34.000000
118.078440 9.000000
119.043160 7.000000
119.049340 25.000000
119.061800 6.000000
119.074490 21.000000
119.089430 8.000000
120.057270 41.000000
120.064920 9.000000
121.064140 120.000000
122.068670 8.000000
122.077220 21.000000
127.053680 7.000000
128.064100 9.000000
129.070140 12.000000
130.065000 28.000000
131.047030 32.000000
131.055160 28.000000
131.073010 330.000000
132.054200 15.000000
132.066470 25.000000
132.078660 47.000000
133.047290 7.000000
133.054960 38.000000
133.064160 134.000000
134.055130 21.000000
134.070510 133.000000
135.044140 181.000000
135.079820 54.000000
135.087270 19.000000
136.037370 7.000000
136.051900 109.000000
136.076130 9.000000
137.049870 7.000000
137.059250 14.000000
138.056140 5.000000
138.064620 6.000000
138.070510 9.000000
142.071720 5.000000
144.054780 7.000000
145.064150 23.000000
145.090820 10.000000
146.062120 66.000000
146.078050 6.000000
147.065310 40.000000
147.071210 84.000000
148.031360 6.000000
148.049240 29.000000
148.075760 506.000000
149.059200 74.000000
149.078230 61.000000
149.097760 15.000000
150.067290 313.000000
151.067280 32.000000
151.074980 88.000000
152.075290 9.000000
152.083560 7.000000
156.084790 11.000000
157.095990 5.000000
158.059230 10.000000
159.041790 5.000000
159.067430 121.000000
160.047790 9.000000
160.065900 34.000000
160.076450 115.000000
161.057370 30.000000
161.081150 75.000000
162.047330 10.000000
162.060240 11.000000
162.085750 15.000000
162.093060 13.000000
162.098330 8.000000
163.062560 10.000000
163.072430 18.000000
163.083080 6.000000
164.082260 27.000000
164.092090 10.000000
165.069380 6.000000
165.091350 183.000000
166.092510 35.000000
167.075420 5.000000
171.062740 7.000000
172.065540 5.000000
172.074940 13.000000
173.058380 14.000000
173.077120 11.000000
173.088410 8.000000
174.049840 21.000000
174.056270 49.000000
174.069340 7.000000
174.088290 14.000000
174.097180 13.000000
175.054550 7.000000
175.063100 9.000000
175.076480 10.000000
176.070620 1000.000000
176.109310 6.000000
177.078030 553.000000
177.100590 8.000000
178.067310 5.000000
178.081560 62.000000
179.074620 5.000000
179.084460 8.000000
179.110960 7.000000
186.088520 7.000000
188.060120 6.000000
188.071990 33.000000
188.082340 11.000000
189.077210 31.000000
190.086330 208.000000
191.087020 11.000000
191.098340 17.000000
192.102260 734.000000
193.104580 105.000000
195.072690 8.000000
202.082720 22.000000
203.087010 9.000000
204.091630 14.000000
204.108090 24.000000
205.097900 9.000000
205.107990 11.000000
205.117900 10.000000
207.085530 5.000000
208.079930 8.000000
218.071330 6.000000
218.117430 6.000000
219.077010 15.000000
220.077850 9.000000
220.094070 10.000000
221.093990 10.000000
221.103200 14.000000
222.104680 14.000000
223.103990 7.000000
224.075990 5.000000
225.080640 5.000000
232.098340 10.000000
233.098460 11.000000
234.092470 15.000000
234.109130 8.000000
235.065350 7.000000
235.074620 12.000000
235.098680 8.000000
236.072710 8.000000
236.089000 15.000000
237.093550 11.000000
237.114760 8.000000
238.063170 6.000000
238.077150 6.000000
238.092910 6.000000
239.098860 9.000000
245.085110 6.000000
246.086610 10.000000
246.108510 8.000000
247.073720 12.000000
247.106610 5.000000
247.116380 7.000000
248.095210 11.000000
248.112210 6.000000
249.062190 9.000000
249.084140 29.000000
249.095660 10.000000
250.093840 24.000000
250.118670 7.000000
251.100830 13.000000
251.113910 5.000000
252.082550 12.000000
252.104200 9.000000
253.092300 7.000000
254.087590 9.000000
260.116150 7.000000
261.082030 9.000000
261.096220 11.000000
262.089170 9.000000
262.098600 10.000000
263.062530 6.000000
263.080350 5.000000
263.100430 29.000000
264.075410 9.000000
264.097020 15.000000
264.110050 15.000000
265.103820 22.000000
265.114170 8.000000
266.106380 8.000000
266.124510 8.000000
267.112880 15.000000
268.139800 5.000000
276.109190 10.000000
277.092800 7.000000
277.107640 5.000000
278.082980 20.000000
278.095250 22.000000
278.118650 31.000000
279.082890 7.000000
279.100920 13.000000
279.120180 6.000000
279.130650 6.000000
280.106720 10.000000
280.126070 7.000000
280.143770 10.000000
281.076810 12.000000
281.099980 5.000000
281.115480 13.000000
282.096010 19.000000
282.121000 7.000000
290.124240 9.000000
291.081120 8.000000
292.088620 15.000000
292.106320 13.000000
293.101840 15.000000
293.114750 21.000000
294.075350 7.000000
294.110900 12.000000
295.094330 9.000000
295.113220 5.000000
296.088780 10.000000
296.125150 11.000000
296.142120 6.000000
297.114290 8.000000
306.113250 46.000000
307.094270 5.000000
307.122410 12.000000
308.086240 10.000000
308.134160 15.000000
309.097960 10.000000
309.111720 7.000000
310.102260 5.000000
310.125180 9.000000
310.145080 15.000000
320.126160 9.000000
322.108980 6.000000
322.140990 21.000000
324.114320 25.000000
324.132780 16.000000
325.119050 5.000000
325.136750 11.000000
338.145230 21.000000
354.172970 7.000000
370.194430 9.000000

