>compound PR28648805
>parentmass 285.07573205714294
>ionization [M+H]+
>formula C16H12O5
>rt 435.053126
>profile qtof
#smiles_iso COC1=CC=C(C=C1)C2=CC(=O)C3=C(C=C(C=C3O2)O)O
#smiles_can COC1=CC=C(C=C1)C2=CC(=O)C3=C(C=C(C=C3O2)O)O
#inchikey DANYIYRPLHHOCZ-UHFFFAOYSA-N
#pubchem_id 5280442
#mb_accession PR302119,PR302122,PR302125,PR302128,PR302131,PR302134,PR302137,PR302139,PR302141,PR302144,PR302147,PR302150,PR310476,PR310943

>ms2
133.060760 13.000000
153.018130 64.000000
241.048750 10.000000
242.056340 325.000000
243.060300 59.000000
244.065770 7.000000
270.051510 115.000000
271.052190 16.000000
285.074130 1000.000000
285.122440 21.000000

>ms2
285.028590 6.000000
285.042480 5.000000
285.076420 1000.000000
285.125610 24.000000

>ms2
133.063890 26.000000
135.044080 9.000000
153.016710 84.000000
154.019380 9.000000
159.032550 6.000000
159.044170 6.000000
242.017760 13.000000
242.057220 1000.000000
242.102600 7.000000
243.060880 171.000000
244.064560 14.000000
244.073010 6.000000
270.025910 7.000000
270.052760 322.000000
271.032040 7.000000
271.056920 55.000000
272.054900 7.000000
285.076660 270.000000

>ms2
67.017940 22.000000
69.032760 28.000000
69.037220 5.000000
81.034530 7.000000
83.015090 7.000000
88.030510 6.000000
89.040460 8.000000
90.045910 39.000000
92.021730 9.000000
92.027550 7.000000
96.023520 6.000000
97.017630 7.000000
97.023980 18.000000
97.030830 11.000000
105.037410 12.000000
107.047420 10.000000
111.006290 6.000000
111.016250 9.000000
115.054940 7.000000
116.027760 5.000000
116.061100 6.000000
121.029750 5.000000
124.016320 26.000000
125.027790 9.000000
126.047330 9.000000
127.052920 5.000000
128.062610 6.000000
129.065980 19.000000
133.034550 9.000000
133.057740 6.000000
135.000720 9.000000
136.014270 14.000000
139.050320 6.000000
143.051470 8.000000
146.055300 6.000000
152.962540 6.000000
152.982990 8.000000
152.998280 19.000000
153.018300 1000.000000
154.023390 97.000000
155.025540 11.000000
157.056730 7.000000
159.042760 5.000000
168.057770 22.000000
195.044740 8.000000
197.063670 15.000000
199.036000 5.000000
203.024440 18.000000
203.039050 23.000000
213.040770 15.000000
213.056840 62.000000
214.051360 12.000000
214.068740 9.000000
223.040130 10.000000
227.027790 6.000000
241.032500 7.000000
241.051880 63.000000
241.065370 16.000000
242.059600 370.000000
243.060010 25.000000
285.065770 9.000000
285.078250 14.000000

>ms2
133.063130 10.000000
153.018740 62.000000
154.026700 7.000000
241.049350 10.000000
242.056610 321.000000
243.048630 7.000000
243.062240 38.000000
270.044710 38.000000
270.053250 86.000000
271.054750 14.000000
285.018980 6.000000
285.034730 11.000000
285.075530 1000.000000
285.123440 20.000000

>ms2
285.036320 9.000000
285.075260 1000.000000
285.123690 27.000000

>ms2
133.065140 44.000000
153.017750 81.000000
159.045460 6.000000
214.063290 7.000000
241.047910 10.000000
242.002350 5.000000
242.020900 11.000000
242.056730 1000.000000
242.096440 9.000000
243.057390 135.000000
243.066250 54.000000
244.063030 26.000000
270.052000 364.000000
271.057710 71.000000
272.048860 6.000000
272.058650 9.000000
285.075780 233.000000

>ms2
67.017040 19.000000
67.024380 7.000000
68.997330 20.000000
69.034310 12.000000
77.040270 9.000000
83.007140 6.000000
83.013310 22.000000
89.036380 6.000000
89.043620 21.000000
90.045990 63.000000
91.054030 10.000000
92.025050 10.000000
93.027810 5.000000
93.036250 15.000000
96.002910 7.000000
97.028460 47.000000
103.055140 6.000000
105.033230 6.000000
111.001590 6.000000
111.007370 9.000000
116.048970 6.000000
116.061120 6.000000
117.071400 6.000000
118.038540 7.000000
118.045220 9.000000
119.051220 8.000000
124.011020 9.000000
124.020190 17.000000
124.024530 8.000000
125.020040 10.000000
127.012750 5.000000
127.054280 11.000000
128.064190 11.000000
129.031450 6.000000
133.064710 13.000000
134.037090 8.000000
139.057050 36.000000
140.064480 12.000000
141.069920 11.000000
144.056960 5.000000
150.031020 6.000000
152.009840 33.000000
153.018370 1000.000000
154.016590 30.000000
154.023820 54.000000
159.766830 5.000000
160.056050 6.000000
167.048030 12.000000
167.058110 6.000000
169.062350 8.000000
171.045030 7.000000
185.057480 17.000000
185.071320 6.000000
192.043610 7.000000
196.047410 6.000000
199.030610 5.000000
199.038410 7.000000
203.025590 16.000000
203.034820 24.000000
203.043400 15.000000
213.055980 86.000000
214.064640 26.000000
216.042450 17.000000
217.056170 6.000000
240.043400 5.000000
241.018160 6.000000
241.037120 20.000000
241.050320 45.000000
241.061580 25.000000
242.035480 41.000000
242.058650 260.000000
243.061420 38.000000
244.050400 6.000000
244.071990 8.000000

>ms2
133.063930 11.000000
153.017520 60.000000
154.023060 5.000000
213.056530 6.000000
241.050510 9.000000
242.057130 299.000000
243.056350 28.000000
243.068770 19.000000
244.066010 7.000000
270.052730 112.000000
271.056270 21.000000
285.025790 5.000000
285.075590 1000.000000
285.124940 20.000000

>ms2
285.034730 8.000000
285.075990 1000.000000
285.124180 22.000000

>ms2
133.056200 8.000000
133.064740 35.000000
135.044170 6.000000
153.004520 6.000000
153.018600 88.000000
154.023060 8.000000
241.051970 11.000000
242.026170 5.000000
242.058180 1000.000000
242.103610 12.000000
243.039670 7.000000
243.061720 166.000000
244.063160 12.000000
244.072200 11.000000
270.053470 318.000000
271.056120 58.000000
272.056580 8.000000
285.076140 254.000000

>ms2
67.013640 10.000000
67.019260 11.000000
67.145400 5.000000
68.975780 6.000000
68.995640 17.000000
68.999630 6.000000
69.038380 11.000000
77.038320 5.000000
79.015650 8.000000
79.054740 7.000000
82.997730 7.000000
84.011860 7.000000
89.035390 14.000000
90.042540 20.000000
90.046780 7.000000
91.062140 7.000000
92.024480 11.000000
95.013060 6.000000
97.028340 27.000000
103.054570 17.000000
106.028100 9.000000
106.042760 6.000000
108.022030 15.000000
111.004010 9.000000
111.013820 9.000000
114.044900 7.000000
115.058390 7.000000
116.031870 13.000000
117.024800 6.000000
117.064660 8.000000
117.072500 7.000000
124.004860 6.000000
124.012760 25.000000
124.021060 22.000000
125.025580 7.000000
127.052760 10.000000
128.063460 18.000000
129.066440 8.000000
131.042450 14.000000
133.060100 6.000000
137.019210 9.000000
139.053020 32.000000
139.062810 7.000000
140.063520 14.000000
144.059650 6.000000
145.069750 5.000000
146.078870 5.000000
152.007580 15.000000
152.021990 9.000000
152.993840 15.000000
153.018280 1000.000000
153.984210 5.000000
154.022420 66.000000
155.017140 7.000000
158.066910 9.000000
168.060650 8.000000
171.039760 33.000000
173.061390 10.000000
174.077350 6.000000
185.068680 11.000000
186.059860 6.000000
186.070470 9.000000
192.008910 6.000000
196.050370 12.000000
199.045680 6.000000
200.031540 5.000000
203.016980 5.000000
203.030930 40.000000
204.058700 6.000000
213.042950 10.000000
213.053990 35.000000
214.069110 12.000000
215.055010 11.000000
216.033140 9.000000
216.042710 9.000000
217.052310 5.000000
241.040080 31.000000
241.053450 63.000000
242.038130 33.000000
242.058030 322.000000
243.052460 19.000000
243.062190 41.000000
244.062150 11.000000
285.067870 19.000000
285.082760 12.000000

>ms2
67.018140 25.000000
69.000210 43.000000
79.051410 28.000000
92.047420 34.000000
103.051160 46.000000
103.054630 21.000000
104.859380 17.000000
105.071080 21.000000
108.054740 28.000000
111.008960 20.000000
115.052030 35.000000
118.037860 25.000000
119.047140 68.000000
122.032070 17.000000
124.011540 29.000000
127.051070 17.000000
127.056990 24.000000
130.032170 36.000000
133.038090 20.000000
133.044160 20.000000
133.060760 417.000000
133.066770 114.000000
134.070600 29.000000
134.183780 18.000000
135.032780 25.000000
142.729030 26.000000
145.057450 26.000000
145.288190 17.000000
148.053150 39.000000
150.030170 36.000000
152.010220 47.000000
152.130840 22.000000
153.018130 2063.000000
154.022050 112.000000
154.171040 20.000000
155.028170 19.000000
155.635640 22.000000
156.020810 21.000000
156.344770 34.000000
157.054750 26.000000
158.028780 29.000000
159.041520 43.000000
159.082930 26.000000
160.038480 33.000000
160.121660 30.000000
160.724810 29.000000
162.716860 18.000000
168.060380 46.000000
173.095400 20.000000
174.185940 25.000000
175.066300 30.000000
177.055470 82.000000
185.049300 51.000000
186.095700 28.000000
186.720430 31.000000
200.029920 18.000000
201.049960 45.000000
202.059420 18.000000
205.282840 22.000000
205.912730 18.000000
208.290470 21.000000
208.474490 23.000000
213.038960 60.000000
213.051530 64.000000
213.061200 22.000000
213.563060 22.000000
214.061420 55.000000
215.057800 26.000000
215.168670 20.000000
216.037830 39.000000
223.395580 25.000000
224.032120 20.000000
224.690920 22.000000
228.043400 30.000000
229.042040 29.000000
229.476380 20.000000
239.076200 28.000000
240.072920 20.000000
241.023760 43.000000
241.048750 326.000000
241.088710 21.000000
241.654890 17.000000
241.937680 48.000000
242.000140 24.000000
242.022050 111.000000
242.056340 10454.000000
242.100220 70.000000
242.655560 29.000000
242.978930 18.000000
243.060300 1900.000000
243.133030 24.000000
243.226930 20.000000
243.354250 34.000000
243.422440 21.000000
244.045390 18.000000
244.065770 226.000000
245.070250 22.000000
248.883190 18.000000
255.060130 37.000000
256.200650 21.000000
269.600010 17.000000
269.960420 18.000000
269.989780 26.000000
270.010990 129.000000
270.024840 46.000000
270.051510 3696.000000
270.308350 18.000000
270.611300 38.000000
271.033200 48.000000
271.052190 530.000000
271.066680 135.000000
272.048100 19.000000
272.071410 33.000000
273.515380 26.000000
274.659910 34.000000
280.421660 21.000000
281.985500 17.000000
283.521760 32.000000
283.640690 20.000000
284.068020 27.000000
284.858860 28.000000
284.917300 44.000000
285.011870 100.000000
285.037600 116.000000
285.074130 32210.000000
285.122440 685.000000
285.172880 17.000000
285.218750 21.000000

>ms2
79.020810 20.000000
104.117100 20.000000
106.006160 66.000000
107.044080 20.000000
123.035010 25.000000
157.079280 24.000000
160.045970 21.000000
168.054410 18.000000
178.118480 24.000000
183.078170 19.000000
193.072830 20.000000
196.052960 19.000000
197.068370 20.000000
209.057720 21.000000
211.080600 21.000000
214.998750 22.000000
225.047930 46.000000
229.088350 21.000000
240.070860 21.000000
241.042760 17.000000
242.057160 26.000000
265.659610 29.000000
270.150240 33.000000
283.210660 18.000000
285.076080 550.000000
285.092590 86.000000

