>compound PR28896426
>parentmass 193.1336
>ionization [M+H]+
>formula C11H16N2O
>rt 162.600000
>profile qtof
#smiles_iso C1=CC=C(C=C1)C(=O)NCCCCN
#smiles_can C1=CC=C(C=C1)C(=O)NCCCCN
#inchikey VMQHGBUSMBFWHN-UHFFFAOYSA-N
#pubchem_id 79772
#mb_accession PR310796

>ms2peaks
105.019030 20.000000
105.032970 536.000000
106.037540 68.000000
109.031540 21.000000
126.128700 20.000000
134.053150 15.000000
134.060940 47.000000
145.034560 17.000000
176.107530 591.000000
176.119060 52.000000
177.060620 19.000000
177.117890 91.000000
193.131670 389.000000

