>compound PR29965550
>parentmass 121.0645
>ionization [M+H-NH3]+
>formula C8H11NO
>rt 109.800000
>profile qtof
#smiles_iso C1=CC(=CC=C1CCN)O
#smiles_can C1=CC(=CC=C1CCN)O
#inchikey DZGWFCGJZKJUFP-UHFFFAOYSA-N
#pubchem_id 5610
#mb_accession PR311153

>ms2peaks
77.037590 78.000000
91.050560 82.000000
91.060850 85.000000
91.495210 21.000000
92.048590 20.000000
93.063320 41.000000
93.069730 87.000000
93.077170 22.000000
102.040650 45.000000
103.051060 55.000000
103.058670 47.000000
121.049560 43.000000
121.062180 1099.000000
121.071290 167.000000

