>compound PR29493373
>parentmass 229.08592069999997
>ionization [M+H]+
>formula C14H12O3
>rt 300.262020
>profile qtof
#smiles_iso C1=CC(=CC=C1/C=C/C2=CC(=CC(=C2)O)O)O
#smiles_can C1=CC(=CC=C1C=CC2=CC(=CC(=C2)O)O)O
#inchikey LUKBXSAWLPMMSZ-OWOJBTEDSA-N
#pubchem_id 445154
#mb_accession PR302554,PR302560,PR302566,PR302572,PR302578,PR302584,PR302590,PR302596,PR302602,PR302608,PR302614,PR302620

>ms2peaks
79.050700 33.000000
91.053960 62.000000
91.060250 38.000000
107.036330 21.000000
107.045540 110.000000
107.051140 172.000000
108.058120 12.000000
108.605420 9.000000
109.026880 9.000000
110.036580 17.000000
111.042820 18.000000
115.028930 11.000000
116.052920 27.000000
119.044670 44.000000
119.050550 52.000000
119.057540 15.000000
120.046580 11.000000
120.053490 38.000000
120.060420 35.000000
120.339840 8.000000
121.034820 12.000000
121.067770 10.000000
123.040090 8.000000
123.047340 13.000000
129.050000 10.000000
131.055820 14.000000
134.968780 9.000000
135.012050 8.000000
135.043660 293.000000
136.048280 70.000000
141.060420 8.000000
141.069470 8.000000
142.070070 15.000000
144.049990 8.000000
145.065990 8.000000
152.068920 11.000000
153.057070 14.000000
153.074910 11.000000
156.064060 14.000000
157.060040 8.000000
158.066800 8.000000
159.079610 11.000000
164.055070 18.000000
164.061690 44.000000
165.052550 12.000000
165.063130 40.000000
165.069890 33.000000
165.078640 11.000000
166.067000 25.000000
172.070800 18.000000
172.801620 11.000000
174.100680 8.000000
181.053300 12.000000
181.061600 11.000000
181.072910 9.000000
182.065430 28.000000
183.047040 9.000000
183.077500 72.000000
184.081010 43.000000
184.094590 15.000000
185.066590 19.000000
186.062730 8.000000
186.075640 11.000000
186.951140 13.000000
193.066740 33.000000
197.050250 11.000000
199.068050 31.000000
201.006500 13.000000
201.079650 13.000000
210.051470 15.000000
210.067210 11.000000
211.070220 28.000000
211.077480 21.000000
213.957110 10.000000
227.063510 10.000000
227.070130 18.000000
228.060180 9.000000
228.082920 91.000000
228.482390 8.000000
228.589070 10.000000
228.823580 11.000000
228.991410 10.000000
229.010530 11.000000
229.087220 1000.000000

>ms2peaks
107.045570 7.000000
111.044530 5.000000
119.051660 19.000000
135.044710 70.000000
136.050540 10.000000
183.077680 14.000000
211.077380 26.000000
228.067120 9.000000
228.080760 82.000000
229.036470 6.000000
229.054930 8.000000
229.087140 1000.000000

>ms2peaks
66.045790 51.000000
77.035140 37.000000
78.040350 45.000000
78.584630 33.000000
79.048640 25.000000
90.948720 25.000000
91.052780 221.000000
91.997300 34.000000
97.023640 69.000000
107.029110 54.000000
107.041330 152.000000
107.049130 1000.000000
108.055370 140.000000
109.031950 31.000000
111.043520 94.000000
115.053980 49.000000
117.036420 36.000000
119.049500 193.000000
120.039520 25.000000
120.056050 137.000000
121.031030 55.000000
128.064180 107.000000
129.066670 51.000000
129.076750 51.000000
131.028110 67.000000
131.087550 49.000000
133.064670 52.000000
135.042760 148.000000
136.050450 51.000000
136.064650 40.000000
137.023270 76.000000
141.068450 236.000000
142.068710 52.000000
143.978670 49.000000
144.064320 31.000000
148.048230 25.000000
152.053240 40.000000
152.063370 45.000000
153.065990 118.000000
153.072800 179.000000
154.087130 37.000000
155.073170 57.000000
155.085250 70.000000
155.093860 25.000000
157.065810 37.000000
164.062120 85.000000
165.032100 37.000000
165.052340 33.000000
165.070760 824.000000
165.083530 69.000000
166.037980 36.000000
166.057570 57.000000
166.066790 119.000000
166.081390 33.000000
167.066510 25.000000
167.076810 39.000000
168.941650 28.000000
169.060870 48.000000
169.069120 33.000000
175.064010 45.000000
181.066060 212.000000
182.071530 172.000000
194.060870 30.000000
194.076140 37.000000
197.059560 69.000000
210.074390 28.000000
214.064470 27.000000
227.063400 99.000000
229.084210 25.000000

>ms2peaks
65.037830 511.000000
77.040220 436.000000
105.074810 287.000000
107.053530 287.000000
139.049930 266.000000
151.051560 723.000000
152.059450 1000.000000
153.070110 202.000000
163.023130 255.000000
165.078540 351.000000
181.067700 383.000000
182.074190 266.000000

>ms2peaks
77.036910 37.000000
82.538120 16.000000
91.050170 21.000000
91.053960 58.000000
92.060640 15.000000
95.016950 8.000000
95.044970 15.000000
105.031210 12.000000
106.964470 8.000000
107.037630 9.000000
107.047330 230.000000
107.299780 9.000000
108.047000 10.000000
109.024090 15.000000
109.028240 29.000000
119.032810 10.000000
119.047580 97.000000
120.058970 16.000000
120.064030 14.000000
121.029150 47.000000
121.060940 18.000000
127.055380 15.000000
129.076260 14.000000
131.048540 11.000000
133.063830 12.000000
134.026690 10.000000
135.020490 14.000000
135.044140 291.000000
136.043460 23.000000
136.783360 11.000000
137.048840 10.000000
141.063570 8.000000
141.069240 9.000000
142.692210 10.000000
145.065860 38.000000
147.044020 15.000000
148.024400 11.000000
151.048220 21.000000
151.055860 15.000000
152.062120 12.000000
153.065050 71.000000
154.073500 13.000000
155.094060 9.000000
157.057970 46.000000
159.073990 13.000000
160.087300 11.000000
163.047670 8.000000
164.067640 8.000000
165.054550 11.000000
165.070310 64.000000
166.067000 13.000000
169.074520 8.000000
171.043730 11.000000
171.078930 11.000000
181.050230 10.000000
181.061340 19.000000
181.071880 16.000000
183.071960 33.000000
183.079270 74.000000
184.091380 9.000000
186.953860 9.000000
191.974810 8.000000
193.051510 11.000000
193.067750 22.000000
196.049760 9.000000
199.068300 12.000000
199.085540 13.000000
210.066440 14.000000
211.061490 27.000000
211.075640 47.000000
213.052150 19.000000
214.070430 8.000000
215.067730 8.000000
226.678070 8.000000
227.081500 21.000000
228.049800 11.000000
228.076780 53.000000
229.085400 1000.000000
229.140110 8.000000

>ms2peaks
111.046650 5.000000
119.048320 8.000000
135.043270 68.000000
136.048710 21.000000
162.688160 6.000000
183.085340 8.000000
193.069640 7.000000
211.066590 6.000000
211.074680 6.000000
228.081150 52.000000
228.091190 20.000000
229.085420 1000.000000

>ms2peaks
51.518030 45.000000
65.040530 28.000000
77.035730 123.000000
77.041240 75.000000
79.046940 34.000000
82.040820 64.000000
91.016940 31.000000
91.053750 299.000000
91.059200 269.000000
99.306760 126.000000
103.056710 36.000000
105.034260 31.000000
107.048950 964.000000
107.877030 30.000000
108.049750 110.000000
108.055630 39.000000
110.979970 28.000000
111.553630 31.000000
115.052220 103.000000
115.546560 36.000000
118.042990 79.000000
118.070280 33.000000
119.044880 151.000000
120.041850 30.000000
120.054730 182.000000
120.062610 39.000000
123.037300 40.000000
127.056690 51.000000
127.062650 48.000000
128.060870 93.000000
129.072310 31.000000
130.082500 28.000000
133.030140 28.000000
134.038220 40.000000
135.043050 30.000000
135.049060 37.000000
136.052700 95.000000
141.049670 34.000000
141.064250 34.000000
141.071790 62.000000
145.056290 34.000000
151.047520 54.000000
152.059360 48.000000
153.065930 95.000000
154.069560 39.000000
155.085310 64.000000
165.050670 37.000000
165.070950 1000.000000
166.064580 39.000000
166.075530 117.000000
168.069640 28.000000
171.056920 48.000000
181.050780 42.000000
181.059110 168.000000
181.067990 138.000000
182.073750 67.000000
183.081210 40.000000
195.081150 26.000000
199.065280 26.000000
201.101500 56.000000
210.057500 33.000000
211.069060 92.000000

>ms2peaks
77.045810 141.000000
91.049460 180.000000
91.053760 164.000000
101.041110 320.000000
111.910390 250.000000
115.052820 492.000000
115.058910 164.000000
119.051320 297.000000
129.037320 156.000000
131.072420 383.000000
139.047070 188.000000
152.061040 1000.000000
156.049610 195.000000
156.143110 133.000000
157.170290 156.000000
164.054950 164.000000
164.067200 758.000000
168.057400 188.000000
181.031370 188.000000
182.075040 188.000000

>ms2peaks
77.039680 14.000000
79.054710 10.000000
91.036480 9.000000
91.049030 14.000000
91.057030 33.000000
95.051870 25.000000
103.966030 9.000000
107.046960 204.000000
108.046910 18.000000
109.056940 7.000000
111.044510 21.000000
117.063300 11.000000
118.043480 10.000000
119.040190 28.000000
119.049580 121.000000
120.048390 7.000000
120.055050 12.000000
120.061680 11.000000
121.032840 7.000000
124.047130 14.000000
128.061370 13.000000
133.071520 17.000000
135.026490 11.000000
135.043780 306.000000
136.034620 18.000000
136.044780 56.000000
136.054410 9.000000
137.020290 16.000000
140.059800 8.000000
141.070820 25.000000
141.986630 7.000000
144.071230 12.000000
145.063060 8.000000
148.954010 10.000000
153.058010 9.000000
153.066570 25.000000
153.076870 16.000000
153.334120 13.000000
155.076420 9.000000
158.068830 7.000000
159.080960 11.000000
164.062260 9.000000
165.068040 158.000000
165.406950 7.000000
166.078000 14.000000
168.056920 29.000000
168.508190 8.000000
171.033080 7.000000
173.054120 9.000000
173.063490 10.000000
181.067000 47.000000
181.079740 8.000000
182.067580 13.000000
183.065440 8.000000
183.082790 60.000000
193.067830 17.000000
198.058910 12.000000
199.082530 10.000000
200.453580 8.000000
201.082720 7.000000
209.040710 9.000000
210.068730 8.000000
211.074510 40.000000
211.458530 9.000000
212.076080 8.000000
212.088420 16.000000
214.241740 8.000000
227.050400 9.000000
227.068050 43.000000
228.081100 121.000000
229.050370 18.000000
229.083630 1000.000000
229.128140 9.000000
229.138080 13.000000

>ms2peaks
119.046490 15.000000
119.055120 14.000000
120.051510 5.000000
135.044080 106.000000
136.050020 5.000000
173.195390 6.000000
211.074750 14.000000
228.078030 112.000000
229.048390 6.000000
229.055150 12.000000
229.085100 1000.000000

>ms2peaks
63.023340 48.000000
67.044270 41.000000
77.039140 132.000000
77.381130 29.000000
79.050090 81.000000
79.055310 29.000000
81.032760 34.000000
81.036940 41.000000
89.040330 30.000000
91.021600 44.000000
91.049020 96.000000
91.054000 285.000000
94.043740 33.000000
95.233630 25.000000
97.965150 52.000000
105.070310 33.000000
107.048520 1000.000000
108.050290 25.000000
108.061270 66.000000
108.696220 36.000000
115.058360 111.000000
119.048910 28.000000
120.054380 59.000000
120.063500 39.000000
121.028680 98.000000
123.042880 45.000000
127.051950 40.000000
128.056560 28.000000
129.072780 44.000000
131.045550 28.000000
131.083890 25.000000
135.045960 59.000000
136.034960 69.000000
136.041960 41.000000
136.053960 88.000000
137.038960 30.000000
141.069200 171.000000
141.976460 45.000000
144.058850 34.000000
145.067830 23.000000
145.075360 62.000000
152.064410 113.000000
152.076800 33.000000
153.074680 429.000000
155.084320 83.000000
155.097060 28.000000
157.060780 70.000000
157.068210 132.000000
159.047380 26.000000
159.083660 30.000000
161.422330 45.000000
165.068700 755.000000
165.075070 298.000000
165.438670 25.000000
166.064740 41.000000
166.076250 120.000000
167.126660 26.000000
168.356170 28.000000
169.054260 45.000000
173.061680 89.000000
181.063140 169.000000
181.075730 28.000000
182.050450 70.000000
182.073900 62.000000
183.076110 70.000000
184.085070 28.000000
186.064300 41.000000
187.072420 34.000000
193.054140 32.000000
194.067860 25.000000
196.055440 25.000000
197.064470 50.000000
199.074490 34.000000
199.088970 28.000000
209.070760 39.000000
210.065510 37.000000
211.074170 56.000000
212.074110 47.000000
214.065930 72.000000
227.066930 65.000000

>ms2peaks
77.030960 1000.000000
77.039230 322.000000
77.043360 563.000000
91.866000 195.000000
104.066140 529.000000
115.053430 448.000000
116.058990 276.000000
127.051670 287.000000
139.048540 322.000000
153.063100 356.000000
157.073650 310.000000
164.059660 207.000000
227.056900 230.000000
228.083590 230.000000
229.079040 414.000000

