>compound PR29338601
>parentmass 130.05055
>ionization [M+H]+
>formula C5H7NO3
>rt 100.500000
>profile qtof
#smiles_iso C1CC(=O)NC1C(=O)O
#smiles_can C1CC(=O)NC1C(=O)O
#inchikey ODHCTXKNWHHXJC-UHFFFAOYSA-N
#pubchem_id 499
#mb_accession PR311147,PR311148

>ms2peaks
68.997250 50.000000
84.044620 222.000000
84.078990 21.000000
85.049550 19.000000
130.031250 18.000000
130.047710 35.000000
130.090440 20.000000

>ms2peaks
84.046290 469.000000
85.044850 22.000000
85.050270 25.000000
86.047650 16.000000
89.042860 25.000000
112.012800 17.000000
129.021840 27.000000
130.051060 172.000000

