>compound PR29624256
>parentmass 595.2021322
>ionization [M+H]+
>formula C28H34O14
>rt 324.921000
>profile qtof
#smiles_iso C[C@H]1[C@@H]([C@H]([C@H]([C@@H](O1)O[C@@H]2[C@H]([C@@H]([C@H](O[C@H]2OC3=CC(=C4C(=O)C[C@H](OC4=C3)C5=CC=C(C=C5)OC)O)CO)O)O)O)O)O
#smiles_can CC1C(C(C(C(O1)OC2C(C(C(OC2OC3=CC(=C4C(=O)CC(OC4=C3)C5=CC=C(C=C5)OC)O)CO)O)O)O)O)O
#inchikey NLAWPKPYBMEWIR-SKYQDXIQSA-N
#pubchem_id 442456
#mb_accession PR302118,PR302121,PR302124,PR302127,PR302130,PR302133,PR302136,PR302143,PR302146,PR302149

>ms2
63.043990 19.000000
71.047870 15.000000
85.007460 13.000000
85.030240 20.000000
85.049660 14.000000
145.050780 10.000000
147.064560 17.000000
153.014830 111.000000
154.024220 38.000000
161.063050 11.000000
162.066800 13.000000
165.005940 13.000000
179.074580 17.000000
195.028140 57.000000
204.037110 13.000000
208.066820 12.000000
215.030870 13.000000
219.024220 61.000000
221.031200 11.000000
223.680480 17.000000
231.035490 10.000000
243.023410 14.000000
245.025540 12.000000
245.044950 38.000000
246.507900 11.000000
247.041230 12.000000
263.056790 74.000000
264.058410 26.000000
283.067080 15.000000
286.679050 12.000000
287.092440 1000.000000
288.068880 21.000000
288.092590 124.000000
289.094540 12.000000
291.158810 10.000000
299.082820 13.000000
299.093510 15.000000
311.078520 30.000000
311.101290 30.000000
312.093140 14.000000
322.067440 21.000000
323.092190 15.000000
325.113190 17.000000
329.087250 77.000000
329.106320 63.000000
335.590270 12.000000
352.111150 11.000000
353.100310 14.000000
354.093780 11.000000
354.120330 23.000000
365.104280 10.000000
366.085750 25.000000
366.122070 11.000000
369.094420 13.000000
397.129550 94.000000
397.147610 18.000000
398.147370 12.000000
415.112950 58.000000
415.144780 80.000000
431.108800 11.000000
431.118770 29.000000
431.138490 33.000000
432.109620 11.000000
433.054720 15.000000
433.110230 17.000000
433.129940 45.000000
433.152190 239.000000
434.147550 93.000000
439.156770 11.000000
449.118160 17.000000
449.139400 74.000000
449.162350 10.000000
450.133150 10.000000
450.157750 20.000000
473.155910 10.000000
475.160340 20.000000
479.097440 10.000000
491.114410 10.000000
541.171510 31.000000
577.194340 24.000000
595.173520 14.000000
595.198300 116.000000
595.215520 88.000000

>ms2
97.033200 14.000000
147.058850 14.000000
167.943100 10.000000
173.038880 20.000000
281.066440 35.000000
287.089630 497.000000
288.091190 95.000000
289.102510 13.000000
295.125090 14.000000
329.094940 89.000000
329.103390 31.000000
330.098690 18.000000
396.991970 12.000000
397.104280 20.000000
397.119960 71.000000
397.137660 33.000000
398.148860 16.000000
413.119870 21.000000
414.131350 19.000000
415.139250 119.000000
416.137760 55.000000
416.155520 35.000000
417.125670 29.000000
417.156620 11.000000
431.124730 112.000000
431.150450 16.000000
432.103910 12.000000
432.153690 15.000000
433.069850 11.000000
433.150450 852.000000
434.138490 90.000000
434.160520 117.000000
435.146880 11.000000
435.171690 45.000000
445.153530 16.000000
449.097660 16.000000
449.139040 302.000000
449.159390 53.000000
450.150880 31.000000
450.223790 17.000000
451.178990 10.000000
473.160460 16.000000
474.134770 22.000000
475.177280 19.000000
482.178990 18.000000
491.165620 18.000000
492.137270 16.000000
497.134000 12.000000
500.164060 25.000000
525.122190 13.000000
559.155270 23.000000
559.177370 44.000000
561.663450 16.000000
577.198850 31.000000
578.170350 11.000000
579.175540 17.000000
595.074400 10.000000
595.156800 47.000000
595.201480 1000.000000

>ms2
71.042900 13.000000
85.015270 25.000000
85.027680 92.000000
85.033700 21.000000
121.063640 17.000000
129.050030 33.000000
129.059680 28.000000
135.085080 31.000000
146.137860 20.000000
147.066710 21.000000
153.006200 17.000000
153.019170 254.000000
161.059250 40.000000
177.016970 23.000000
179.031420 19.000000
179.039400 13.000000
191.040530 18.000000
194.998400 23.000000
195.027130 115.000000
196.033360 77.000000
219.013960 16.000000
219.035190 64.000000
245.043880 49.000000
261.006070 27.000000
261.031280 16.000000
263.050020 139.000000
263.065770 16.000000
264.045440 20.000000
264.062040 13.000000
281.062160 17.000000
282.063900 26.000000
287.090850 1000.000000
288.091610 28.000000
288.106990 16.000000
289.105070 26.000000
299.057010 27.000000
299.082920 43.000000
300.095000 39.000000
305.073390 20.000000
311.086210 36.000000
313.099240 29.000000
329.102810 43.000000
329.774540 16.000000
339.071440 16.000000
353.097600 70.000000
353.111020 26.000000
354.101530 14.000000
359.073390 23.000000
363.077970 30.000000
379.108150 15.000000
379.127930 40.000000
395.131770 14.000000
397.133970 13.000000
398.080870 40.000000
415.127690 32.000000
446.124630 24.000000
494.672300 15.000000

>ms2
57.033140 37.000000
61.071840 29.000000
107.058850 51.000000
109.025340 25.000000
133.062470 47.000000
135.040950 98.000000
142.681580 31.000000
153.016980 1000.000000
154.021160 43.000000
161.057300 409.000000
161.069750 48.000000
162.065720 44.000000
163.065060 43.000000
165.014790 136.000000
165.028180 31.000000
174.078250 25.000000
175.002290 34.000000
175.066180 48.000000
177.019670 79.000000
189.017730 40.000000
191.035920 31.000000
195.021330 174.000000
196.025120 35.000000
196.036800 29.000000
196.262280 26.000000
201.035870 56.000000
201.056580 29.000000
203.032030 40.000000
203.047470 78.000000
203.066150 25.000000
204.041080 56.000000
204.831240 25.000000
217.050250 53.000000
218.058360 53.000000
218.991300 47.000000
219.030590 54.000000
229.050160 38.000000
231.032610 67.000000
245.040830 29.000000
287.085480 79.000000
287.104430 66.000000
335.093930 26.000000

>ms2
57.035030 18.000000
85.021120 33.000000
129.053960 74.000000
136.078540 45.000000
147.062520 33.000000
153.015500 108.000000
153.022230 69.000000
154.018890 16.000000
161.049220 21.000000
178.995320 17.000000
179.033800 13.000000
185.941180 12.000000
195.026750 114.000000
195.033950 75.000000
196.036820 18.000000
213.017300 22.000000
217.040150 14.000000
218.949050 13.000000
219.001600 19.000000
219.024110 14.000000
219.034320 14.000000
220.036160 29.000000
231.034520 33.000000
241.165560 15.000000
241.499310 12.000000
243.026580 20.000000
245.050950 41.000000
249.038100 14.000000
263.013790 18.000000
263.025850 66.000000
263.061830 95.000000
273.045140 19.000000
279.047490 20.000000
287.044340 23.000000
287.091550 1000.000000
288.070500 23.000000
288.093410 155.000000
288.105410 84.000000
289.094120 13.000000
298.072780 15.000000
298.992680 21.000000
299.094020 18.000000
299.109770 12.000000
300.101440 12.000000
311.078950 46.000000
311.098630 18.000000
312.086790 13.000000
322.069090 15.000000
323.069240 19.000000
329.101200 105.000000
331.118500 23.000000
341.040340 14.000000
341.064450 23.000000
353.077030 13.000000
353.104950 32.000000
353.120510 54.000000
354.109220 15.000000
371.960270 12.000000
379.141690 16.000000
383.112090 39.000000
386.338810 16.000000
395.105010 30.000000
397.090940 19.000000
397.114260 42.000000
397.140320 45.000000
398.136080 18.000000
398.151580 28.000000
407.049100 15.000000
413.109990 18.000000
415.126740 16.000000
415.142790 50.000000
415.167970 17.000000
416.139800 48.000000
426.975190 12.000000
431.085510 16.000000
433.055910 30.000000
433.113130 45.000000
433.128270 87.000000
433.150050 156.000000
434.135740 28.000000
435.159520 40.000000
439.153200 12.000000
449.146450 94.000000
449.171840 15.000000
450.129880 20.000000
450.144590 20.000000
457.159520 18.000000
463.129210 16.000000
475.108220 21.000000
475.143860 21.000000
475.166260 13.000000
476.186190 32.000000
492.157990 16.000000
505.143430 16.000000
511.139860 15.000000
519.606020 17.000000
541.177120 13.000000
559.179990 31.000000
560.170720 16.000000
577.198730 13.000000
595.159730 14.000000
595.203670 276.000000

>ms2
85.026590 29.000000
129.052920 43.000000
147.070560 15.000000
265.542970 32.000000
273.098420 27.000000
281.057980 16.000000
282.050510 18.000000
287.060420 27.000000
287.092860 633.000000
288.091770 95.000000
288.103820 73.000000
297.063720 16.000000
309.110410 29.000000
309.124880 20.000000
311.077420 29.000000
312.092830 17.000000
329.102600 63.000000
351.889040 18.000000
353.093600 15.000000
378.622710 13.000000
395.101070 18.000000
397.120850 42.000000
397.132810 56.000000
397.154050 12.000000
414.019870 12.000000
415.121670 30.000000
415.143860 117.000000
416.127590 13.000000
416.141360 28.000000
417.149720 16.000000
419.415040 13.000000
429.644230 14.000000
431.090700 17.000000
431.127930 77.000000
431.147160 15.000000
432.137300 28.000000
432.158600 21.000000
433.065060 18.000000
433.116060 33.000000
433.132290 138.000000
433.157900 717.000000
434.135310 30.000000
434.157590 174.000000
435.011990 21.000000
435.153140 81.000000
436.162020 27.000000
449.039860 18.000000
449.136780 270.000000
449.151340 224.000000
450.107910 56.000000
450.123840 41.000000
450.150360 66.000000
451.137150 21.000000
451.160000 15.000000
454.591490 18.000000
455.149960 26.000000
457.156860 13.000000
473.159550 28.000000
475.153140 15.000000
492.861850 15.000000
515.153810 15.000000
523.167240 13.000000
537.066830 20.000000
542.192020 15.000000
543.175600 17.000000
544.178530 25.000000
559.124150 18.000000
559.176760 65.000000
559.201840 15.000000
568.682010 21.000000
577.185000 55.000000
591.975520 13.000000
595.169740 95.000000
595.203920 1000.000000

>ms2
69.032230 18.000000
71.050190 20.000000
84.800760 17.000000
85.018390 35.000000
85.027920 68.000000
87.040680 20.000000
129.050980 78.000000
129.057160 40.000000
147.060640 18.000000
148.069260 20.000000
152.987840 19.000000
153.003020 19.000000
153.019850 156.000000
154.024000 68.000000
161.064030 32.000000
165.018360 20.000000
172.731220 18.000000
177.009610 30.000000
177.016100 31.000000
179.014240 20.000000
179.034010 37.000000
180.026960 16.000000
181.016220 13.000000
192.009640 18.000000
192.760890 12.000000
195.022870 37.000000
195.032120 102.000000
196.019850 18.000000
196.028930 22.000000
196.038060 19.000000
201.020290 22.000000
207.069320 20.000000
218.999340 18.000000
219.021090 37.000000
219.032330 81.000000
220.034940 39.000000
231.033110 31.000000
235.019300 35.000000
245.029210 25.000000
245.044430 18.000000
246.041000 20.000000
247.031330 21.000000
249.031400 18.000000
258.050900 13.000000
261.049710 13.000000
262.033690 13.000000
263.053040 54.000000
263.064670 78.000000
264.066100 71.000000
269.079040 15.000000
271.069850 20.000000
280.050080 16.000000
281.069640 84.000000
285.023620 13.000000
287.042940 20.000000
287.065640 57.000000
287.091190 1000.000000
288.088930 140.000000
288.101720 95.000000
289.086820 15.000000
290.804320 14.000000
293.066440 12.000000
297.052280 16.000000
299.094150 143.000000
300.036320 14.000000
300.089170 12.000000
300.103670 57.000000
305.070500 52.000000
311.087950 16.000000
313.098210 15.000000
329.101620 21.000000
329.120360 21.000000
330.074710 17.000000
330.100680 15.000000
353.091000 56.000000
353.106540 15.000000
354.104100 32.000000
361.777530 18.000000
365.089480 14.000000
365.103580 14.000000
365.118010 23.000000
366.282320 14.000000
368.139710 25.000000
371.076290 18.000000
380.143620 12.000000
384.112610 20.000000
397.131590 19.000000
414.127590 15.000000
416.127870 14.000000
431.119080 18.000000
432.143680 49.000000
434.147000 22.000000
434.163820 12.000000
491.463750 28.000000

>ms2
85.029600 26.000000
127.040790 18.000000
129.017990 20.000000
129.050140 14.000000
147.063160 22.000000
195.031620 11.000000
249.000140 10.000000
257.098300 25.000000
275.874820 12.000000
287.071200 117.000000
287.090940 529.000000
287.108890 30.000000
288.091090 63.000000
288.099180 99.000000
289.115910 25.000000
309.119020 12.000000
311.083190 20.000000
313.488980 10.000000
323.071410 22.000000
329.105770 21.000000
330.101530 60.000000
349.346740 12.000000
353.116150 39.000000
383.067350 15.000000
397.124940 30.000000
407.091280 19.000000
415.132750 131.000000
415.158420 21.000000
416.119510 32.000000
416.139740 34.000000
416.157010 20.000000
417.147340 14.000000
431.095610 17.000000
431.127410 150.000000
431.152340 30.000000
431.233460 17.000000
431.963470 11.000000
432.077060 18.000000
432.124850 18.000000
432.139860 76.000000
433.050450 11.000000
433.148160 722.000000
434.143620 57.000000
434.162570 101.000000
434.184910 12.000000
435.158600 25.000000
436.154570 59.000000
448.543580 11.000000
449.146820 494.000000
450.144470 67.000000
450.158050 69.000000
457.130980 15.000000
457.146610 15.000000
473.143400 10.000000
475.155730 17.000000
524.160280 20.000000
541.170960 62.000000
542.189330 10.000000
544.173890 17.000000
559.142640 44.000000
559.187500 34.000000
560.215580 17.000000
577.179020 40.000000
577.194520 28.000000
594.522710 14.000000
594.683110 14.000000
595.126280 31.000000
595.202640 1000.000000

>ms2
51.762670 25.000000
62.893060 15.000000
69.035610 23.000000
71.048320 157.000000
75.044700 19.000000
84.984760 15.000000
85.026500 87.000000
129.052920 104.000000
129.062040 31.000000
135.081600 25.000000
153.017870 212.000000
154.024570 67.000000
161.057340 35.000000
161.066380 35.000000
177.050960 15.000000
179.041820 18.000000
195.022320 104.000000
195.034040 84.000000
197.023860 14.000000
219.017300 35.000000
219.030440 132.000000
231.036590 14.000000
242.954030 13.000000
245.010350 20.000000
245.044200 47.000000
249.051560 13.000000
259.057220 12.000000
261.048650 14.000000
263.052640 211.000000
263.069090 24.000000
264.052760 18.000000
285.045040 19.000000
286.624390 22.000000
287.040740 24.000000
287.081480 341.000000
287.093480 1000.000000
288.091580 317.000000
288.112610 19.000000
290.095920 15.000000
291.059140 13.000000
297.051880 21.000000
299.093570 62.000000
300.098750 20.000000
311.081450 21.000000
311.105290 31.000000
323.058230 17.000000
323.082120 16.000000
327.056980 17.000000
329.068940 15.000000
329.083620 12.000000
329.100890 78.000000
330.067170 27.000000
353.094790 39.000000
353.113280 65.000000
354.106690 15.000000
365.087400 12.000000
379.109590 35.000000
379.129550 20.000000
385.074310 21.000000
395.129270 17.000000
397.132720 23.000000
398.144620 13.000000
415.139190 25.000000
419.113710 13.000000
446.144590 15.000000
525.105290 21.000000

>ms2
67.017910 111.000000
68.020360 57.000000
69.035960 87.000000
71.045030 45.000000
85.025020 31.000000
85.031890 35.000000
97.024120 50.000000
97.028470 31.000000
109.059750 47.000000
122.063260 29.000000
127.042180 78.000000
129.051860 43.000000
135.042300 151.000000
135.082240 38.000000
148.058210 61.000000
149.021180 128.000000
152.999270 36.000000
153.008670 285.000000
153.019170 1000.000000
153.051480 36.000000
154.015200 47.000000
161.041400 36.000000
161.046540 102.000000
161.060620 540.000000
162.061950 35.000000
165.024280 35.000000
175.033290 50.000000
177.030880 29.000000
179.029530 29.000000
187.039030 35.000000
188.044140 121.000000
191.026140 36.000000
191.035320 36.000000
195.014880 73.000000
195.032590 356.000000
203.030700 199.000000
203.044170 109.000000
215.107620 43.000000
217.045440 43.000000
217.173840 29.000000
219.029250 47.000000
220.034100 43.000000
220.047870 35.000000
225.047330 31.000000
231.020750 42.000000
243.033710 48.000000
245.042420 62.000000
245.053090 147.000000
245.083920 38.000000
246.059840 36.000000
269.043060 57.000000
283.069640 29.000000
287.086670 279.000000
287.100800 118.000000
288.040830 36.000000
288.091160 38.000000
289.088100 62.000000

