>compound PR29037703
>parentmass 773.2141
>ionization [M+H]+
>formula C33H40O21
>rt 203.400000
>profile qtof
#smiles_iso CC1C(C(C(C(O1)OCC2C(C(C(C(O2)OC3=C(OC4=CC(=CC(=C4C3=O)O)OC5C(C(C(C(O5)CO)O)O)O)C6=CC(=C(C=C6)O)O)O)O)O)O)O)O
#smiles_can CC1C(C(C(C(O1)OCC2C(C(C(C(O2)OC3=C(OC4=CC(=CC(=C4C3=O)O)OC5C(C(C(C(O5)CO)O)O)O)C6=CC(=C(C=C6)O)O)O)O)O)O)O)O
#inchikey SPUFXPFDJYNCFD-UHFFFAOYSA-N
#pubchem_id 13942388
#mb_accession PR310937

>ms2peaks
55.038210 17.000000
60.579820 20.000000
62.171110 24.000000
71.049510 18.000000
71.054160 20.000000
83.046140 32.000000
85.029760 140.000000
85.033960 37.000000
85.935980 25.000000
86.028240 18.000000
97.027820 18.000000
104.042670 21.000000
111.041280 18.000000
111.048800 18.000000
115.648030 22.000000
127.037990 98.000000
129.053310 525.000000
130.057600 50.000000
145.036090 20.000000
145.048340 85.000000
146.958570 38.000000
147.065440 431.000000
148.062130 21.000000
153.556960 21.000000
163.060750 76.000000
163.070400 66.000000
168.086070 17.000000
174.464190 21.000000
188.187550 22.000000
190.088780 35.000000
194.401610 18.000000
195.076370 19.000000
203.048540 25.000000
207.085400 27.000000
211.058700 20.000000
212.175050 25.000000
217.061310 26.000000
217.661870 19.000000
225.078220 24.000000
226.083240 31.000000
231.087590 29.000000
235.631090 23.000000
243.089580 17.000000
255.086880 187.000000
257.090000 23.000000
270.923220 21.000000
273.091220 43.000000
273.106480 72.000000
274.099640 17.000000
288.196590 18.000000
298.188630 23.000000
302.965270 31.000000
302.981780 56.000000
303.006160 90.000000
303.017000 80.000000
303.049560 15734.000000
303.096190 62.000000
303.815520 18.000000
303.991210 27.000000
304.001740 23.000000
304.053770 3448.000000
304.265080 18.000000
304.665800 17.000000
304.944640 24.000000
305.056210 418.000000
305.459320 22.000000
306.057310 93.000000
309.121520 264.000000
310.116120 65.000000
310.128330 24.000000
312.131380 20.000000
313.130620 18.000000
315.032500 26.000000
318.396880 23.000000
319.155460 28.000000
325.091770 22.000000
325.119450 20.000000
327.049710 20.000000
341.411070 20.000000
343.284970 20.000000
345.057860 89.000000
346.062530 19.000000
355.085940 18.000000
358.002010 20.000000
369.070530 19.000000
371.768550 17.000000
372.172030 21.000000
377.435910 17.000000
398.986820 21.000000
413.089970 18.000000
431.480770 20.000000
434.727510 31.000000
435.152340 20.000000
447.087280 39.000000
448.082730 17.000000
449.109070 165.000000
449.136750 44.000000
450.092410 97.000000
450.113890 49.000000
450.133670 19.000000
455.063750 20.000000
465.040740 18.000000
465.054500 21.000000
465.105440 1235.000000
466.066710 17.000000
466.107360 261.000000
466.131960 90.000000
467.105740 27.000000
467.119450 23.000000
468.080870 24.000000
468.118620 17.000000
471.142700 20.000000
471.165950 79.000000
473.169130 18.000000
474.180420 23.000000
489.091310 22.000000
492.195190 17.000000
496.202700 17.000000
501.736660 27.000000
507.116520 18.000000
546.820310 20.000000
569.418820 20.000000
579.704410 41.000000
588.422670 17.000000
593.160220 20.000000
604.277890 20.000000
611.157900 625.000000
611.182920 88.000000
612.127690 34.000000
612.169310 335.000000
613.162960 79.000000
613.186340 34.000000
627.116150 20.000000
627.161130 388.000000
627.198730 18.000000
628.151730 96.000000
628.170100 31.000000
629.141300 17.000000
629.167050 38.000000
644.756530 51.000000
680.965090 31.000000
773.137390 92.000000
773.214600 3564.000000

