>compound PR29466100
>parentmass 535.1453
>ionization [M+H]+
>formula C25H26O13
>rt 233.400000
>profile qtof
#smiles_iso C1C(C(C(C(O1)C2=C(C(=C3C(=C2O)C(=O)C=C(O3)C4=CC=C(C=C4)O)C5C(C(C(CO5)O)O)O)O)O)O)O
#smiles_can C1C(C(C(C(O1)C2=C(C(=C3C(=C2O)C(=O)C=C(O3)C4=CC=C(C=C4)O)C5C(C(C(CO5)O)O)O)O)O)O)O
#inchikey LDVNKZYMYPZDAI-UHFFFAOYSA-N
#pubchem_id 14427338
#mb_accession PR310988

>ms2
121.026180 17.000000
189.025150 16.000000
199.038190 20.000000
203.033490 16.000000
213.021510 30.000000
228.042890 16.000000
235.364840 18.000000
244.066410 18.000000
246.048610 16.000000
258.412810 21.000000
266.055270 17.000000
285.019960 17.000000
294.091060 17.000000
295.059330 57.000000
295.069850 114.000000
296.055910 38.000000
298.056920 48.000000
307.042910 22.000000
307.051060 44.000000
307.067290 60.000000
308.040440 17.000000
309.057770 17.000000
309.079380 34.000000
309.779600 73.000000
310.100590 30.000000
313.073120 38.000000
315.377410 23.000000
317.099180 19.000000
320.068210 23.000000
321.074220 93.000000
321.090420 28.000000
322.056120 16.000000
322.078490 16.000000
323.047300 20.000000
323.089020 22.000000
324.101380 16.000000
325.063020 38.000000
325.088170 60.000000
326.079160 16.000000
330.078030 17.000000
331.364650 28.000000
333.036990 20.000000
333.062990 17.000000
333.080470 18.000000
335.068270 41.000000
335.094210 47.000000
335.109040 19.000000
335.607940 28.000000
336.057160 25.000000
337.059750 84.000000
337.090210 20.000000
339.083950 74.000000
340.094420 23.000000
342.097410 21.000000
345.084140 55.000000
347.102390 20.000000
348.064510 18.000000
348.115110 16.000000
349.064940 132.000000
349.080840 64.000000
349.294070 25.000000
350.004120 16.000000
350.065730 84.000000
351.071900 50.000000
351.104830 29.000000
352.094510 18.000000
354.126040 36.000000
357.074710 27.000000
361.050380 59.000000
361.072940 86.000000
362.055940 33.000000
362.079250 69.000000
363.082920 57.000000
363.099090 33.000000
364.089870 25.000000
364.113280 23.000000
365.055050 16.000000
365.109650 17.000000
367.102750 19.000000
368.079990 57.000000
370.092500 16.000000
373.054840 19.000000
373.082120 16.000000
374.074950 17.000000
375.069610 40.000000
375.099060 20.000000
376.088380 17.000000
377.049220 19.000000
379.062650 52.000000
379.084410 268.000000
380.087190 33.000000
382.088620 17.000000
382.109830 21.000000
385.061250 21.000000
387.048710 19.000000
387.086790 20.000000
390.073880 17.000000
391.081850 235.000000
391.113280 16.000000
392.016200 17.000000
392.079320 59.000000
392.099460 75.000000
393.076600 20.000000
393.090030 60.000000
395.060850 17.000000
397.076600 33.000000
397.099430 79.000000
398.101750 33.000000
399.121520 18.000000
400.867310 21.000000
403.083400 49.000000
404.089390 64.000000
405.104950 40.000000
406.083340 20.000000
407.261960 16.000000
408.668880 20.000000
409.058620 45.000000
409.094240 105.000000
409.110140 54.000000
410.085330 66.000000
410.102870 18.000000
411.082790 22.000000
415.076420 31.000000
415.093350 111.000000
416.122440 16.000000
417.096620 101.000000
418.091310 17.000000
423.126920 23.000000
427.089110 51.000000
427.116210 164.000000
428.103360 137.000000
433.087490 266.000000
433.113490 60.000000
434.065190 23.000000
434.088780 77.000000
435.119320 16.000000
443.029850 24.000000
445.099150 67.000000
445.119420 87.000000
446.102170 39.000000
446.128020 20.000000
447.106020 20.000000
447.213590 16.000000
451.095000 193.000000
452.101320 21.000000
452.124970 44.000000
453.107790 20.000000
463.095640 118.000000
464.114170 27.000000
464.129030 20.000000
468.927090 33.000000
469.019930 23.000000
469.109680 386.000000
469.140530 61.000000
470.066530 17.000000
470.107300 31.000000
470.132870 35.000000
470.150270 25.000000
471.118900 24.000000
476.976290 18.000000
481.085240 73.000000
481.104430 153.000000
481.125950 199.000000
482.108580 116.000000
483.097810 39.000000
483.114990 24.000000
498.026400 16.000000
499.126400 585.000000
500.117800 52.000000
500.149350 49.000000
501.076900 17.000000
501.122340 22.000000
501.167570 18.000000
502.125000 35.000000
511.482300 20.000000
517.120000 246.000000
517.141780 253.000000
517.173400 18.000000
518.080510 18.000000
518.141540 54.000000
518.173520 16.000000
535.149660 1780.000000
535.192020 16.000000
535.216310 20.000000

