>compound PR29312348
>parentmass 871.4794
>ionization [M+H]+
>formula C44H70O17
>rt 335.400000
>profile qtof
#smiles_iso CC1C(C(C(C(O1)OC2C(C(COC2OC3CC(CC4=CCC5C(C34C)CCC6(C5CC7C6C(=C(O7)CCC(C)COC8C(C(C(C(O8)CO)O)O)O)C)C)O)O)O)O)O)O
#smiles_can CC1C(C(C(C(O1)OC2C(C(COC2OC3CC(CC4=CCC5C(C34C)CCC6(C5CC7C6C(=C(O7)CCC(C)COC8C(C(C(C(O8)CO)O)O)O)C)C)O)O)O)O)O)O
#inchikey IUJLIWQDGYFELW-UHFFFAOYSA-N
#pubchem_id 139291897
#mb_accession PR310703

>ms2peaks
83.059040 25.000000
99.082020 29.000000
130.064530 17.000000
137.095250 29.000000
147.065220 20.000000
163.070770 16.000000
196.011220 21.000000
197.156300 26.000000
207.117420 20.000000
217.063670 21.000000
227.183320 17.000000
229.164810 16.000000
251.177440 32.000000
255.179490 17.000000
261.107120 33.000000
269.194090 188.000000
270.184200 33.000000
271.183720 20.000000
271.214600 25.000000
287.187380 25.000000
299.246280 21.000000
366.009060 25.000000
369.281890 18.000000
393.300900 22.000000
400.155300 18.000000
411.305420 23.000000
412.281860 17.000000
414.296300 20.000000
416.254490 18.000000
419.246980 39.000000
420.235320 16.000000
431.306490 73.000000
431.331240 101.000000
433.238370 20.000000
434.269410 17.000000
441.157870 19.000000
454.971130 16.000000
546.276670 20.000000
563.322140 17.000000
563.361330 33.000000
563.394960 16.000000
564.376710 16.000000
566.324650 38.000000
575.966860 16.000000
577.337710 17.000000
577.354370 32.000000
577.377140 23.000000
578.383240 20.000000
593.357600 24.000000
594.393860 35.000000
707.430420 16.000000
709.395260 88.000000
709.441160 23.000000
710.394410 16.000000
710.416200 16.000000
719.400450 33.000000
725.434020 19.000000
741.355350 16.000000
796.105590 18.000000
834.387080 20.000000
870.396300 17.000000
870.465940 122.000000
870.501530 40.000000
871.013920 18.000000
871.399960 37.000000
871.445370 338.000000
871.473750 406.000000
871.510680 72.000000

