>compound PR29624266
>parentmass 323.13901889999994
>ionization [M+H]+
>formula C19H18N2O3
>rt 380.388000
>profile qtof
#smiles_iso C1=CC=C(C=C1)C[C@@H](C(=O)O)NC(=O)CC2=CNC3=CC=CC=C32
#smiles_can C1=CC=C(C=C1)CC(C(=O)O)NC(=O)CC2=CNC3=CC=CC=C32
#inchikey BUGQHORRADGONS-KRWDZBQOSA-N
#pubchem_id 644227
#mb_accession PR304157,PR304159,PR304161,PR304163,PR304165,PR304167,PR304169,PR304171,PR304173,PR304175,PR304177,PR304179

>ms2peaks
103.052650 11.000000
120.065350 5.000000
120.080380 326.000000
121.082940 30.000000
130.064440 1000.000000
131.050350 7.000000
131.067430 97.000000
149.061340 10.000000
166.085450 374.000000
167.083820 11.000000
167.090230 33.000000
277.132320 184.000000
278.134800 38.000000
305.128880 18.000000
323.138240 386.000000

>ms2peaks
120.080880 34.000000
130.064540 105.000000
131.070770 9.000000
166.085890 258.000000
167.089520 36.000000
277.133850 230.000000
278.134980 56.000000
279.135740 7.000000
305.127320 46.000000
305.147860 6.000000
306.126530 10.000000
306.140720 6.000000
322.135990 6.000000
323.139370 1000.000000

>ms2peaks
103.053400 9.000000
120.080800 416.000000
121.077230 12.000000
121.085790 34.000000
130.064850 1000.000000
131.067870 97.000000
166.079940 6.000000
166.091110 18.000000

>ms2peaks
77.038120 50.000000
78.043190 8.000000
79.051540 8.000000
93.071240 8.000000
103.054340 175.000000
104.046200 6.000000
104.058000 11.000000
120.081110 109.000000
121.084870 7.000000
128.049320 58.000000
129.051420 10.000000
130.028760 7.000000
130.064580 1000.000000
131.068680 97.000000

>ms2peaks
103.054220 19.000000
120.080450 369.000000
121.075830 9.000000
121.084230 15.000000
130.041430 8.000000
130.064870 1000.000000
131.067410 113.000000
132.073330 6.000000
166.086000 408.000000
167.075610 7.000000
167.088520 43.000000
168.089280 6.000000
277.134000 201.000000
278.138640 41.000000
279.136050 8.000000
305.127990 32.000000
306.131070 8.000000
323.139040 471.000000

>ms2peaks
120.076620 15.000000
120.082790 13.000000
130.066060 98.000000
166.086910 238.000000
167.089290 27.000000
167.098180 7.000000
277.135040 231.000000
278.136660 46.000000
305.129940 29.000000
305.142790 10.000000
306.139040 6.000000
323.140810 1000.000000
323.196200 9.000000

>ms2peaks
103.052760 13.000000
120.058940 5.000000
120.080120 406.000000
121.082810 32.000000
130.064480 1000.000000
131.046480 5.000000
131.052370 9.000000
131.068700 102.000000
132.073490 7.000000
166.085240 14.000000

>ms2peaks
77.039920 23.000000
91.056280 7.000000
103.054700 177.000000
104.057140 6.000000
120.080190 129.000000
128.045490 11.000000
128.052110 31.000000
130.064540 1000.000000
131.066360 106.000000

>ms2peaks
103.054530 12.000000
120.080890 356.000000
121.084460 35.000000
130.064740 1000.000000
131.067730 138.000000
132.069640 10.000000
158.057420 7.000000
166.086520 430.000000
167.089740 32.000000
277.133640 202.000000
278.136170 38.000000
279.139860 7.000000
305.130580 35.000000
323.095400 7.000000
323.140380 530.000000

>ms2peaks
120.080960 34.000000
130.064470 111.000000
131.068480 12.000000
166.086010 296.000000
167.084300 19.000000
167.093460 15.000000
277.134950 224.000000
278.131740 35.000000
278.146880 13.000000
279.143590 6.000000
305.119510 14.000000
305.129820 33.000000
305.140230 13.000000
306.131350 6.000000
323.139590 1000.000000
323.191710 9.000000

>ms2peaks
103.054800 11.000000
120.080520 385.000000
121.084420 25.000000
130.064650 1000.000000
131.049220 8.000000
131.067920 127.000000
149.061040 5.000000
166.081250 8.000000
166.088820 7.000000

>ms2peaks
77.039370 45.000000
79.056180 5.000000
91.053530 5.000000
93.066120 13.000000
102.046780 5.000000
103.054200 186.000000
104.055560 14.000000
120.080110 150.000000
121.091000 6.000000
128.045270 25.000000
128.052550 25.000000
130.064510 1000.000000
131.064610 109.000000

