>compound PR29703920
>parentmass 469.1483
>ionization [M+H]+
>formula C17H28N2O11S
>rt 109.800000
>profile qtof
#smiles_iso C/C=C/S(=O)CC(C(=O)O)NC(=O)CCC(C(=O)O)NCC1(C(C(C(CO1)O)O)O)O
#smiles_can CC=CS(=O)CC(C(=O)O)NC(=O)CCC(C(=O)O)NCC1(C(C(C(CO1)O)O)O)O
#inchikey WROKSUMDFCBDIW-GORDUTHDSA-N
#pubchem_id 139292128
#mb_accession PR310821

>ms2
81.033840 47.000000
89.042100 22.000000
97.030710 47.000000
113.043460 22.000000
126.056180 21.000000
126.067410 30.000000
130.045410 34.000000
130.054150 117.000000
131.065640 21.000000
135.071520 23.000000
136.040920 16.000000
152.983310 16.000000
154.054750 81.000000
155.048000 22.000000
162.061330 27.000000
164.073580 19.000000
168.073430 28.000000
171.074780 16.000000
172.060990 17.000000
177.057480 29.000000
178.044540 16.000000
178.057950 17.000000
192.078160 16.000000
194.088420 17.000000
196.066450 25.000000
200.049150 69.000000
201.057650 16.000000
202.056750 25.000000
208.059450 229.000000
209.056950 35.000000
210.079180 17.000000
212.993840 27.000000
217.083010 24.000000
220.059980 17.000000
226.065480 17.000000
227.076050 19.000000
228.079150 19.000000
228.087680 28.000000
238.069700 145.000000
238.090500 35.000000
239.076350 61.000000
256.080720 51.000000
274.097380 256.000000
275.088990 17.000000
295.071750 49.000000
295.090820 84.000000
295.102690 103.000000
319.090150 20.000000
325.107880 86.000000
325.126160 17.000000
343.113340 116.000000
344.113770 24.000000
361.116120 50.000000
361.132570 73.000000
362.129460 18.000000
374.031770 22.000000
379.131620 82.000000
379.146510 105.000000
380.143340 24.000000
386.123570 17.000000
415.114780 18.000000
451.142270 93.000000
451.166440 44.000000
452.139400 32.000000
452.159360 20.000000
469.147220 704.000000

