>compound PR29499114
>parentmass 307.1804898
>ionization [M+H]+
>formula C20H22N2O
>rt 215.068020
>profile qtof
#smiles_iso CN1C[C@]2([C@@H]3C[C@H]4C5=NC6=CC=CC=C6[C@@]52C[C@H]1[C@H]3CO4)C=C
#smiles_can CN1CC2(C3CC4C5=NC6=CC=CC=C6C52CC1C3CO4)C=C
#inchikey VTLYEMHGPMGUOT-XMHJOAAQSA-N
#pubchem_id 44583834
#mb_accession PR300119,PR300124,PR300128,PR300133,PR300138,PR300143,PR300148,PR300153,PR300158,PR300163,PR300168,PR300173

>ms2
167.070340 7.000000
168.080870 10.000000
176.108150 11.000000
180.072860 5.000000
180.082290 13.000000
181.088170 16.000000
194.098190 9.000000
196.076080 9.000000
197.085510 8.000000
204.082060 15.000000
205.084990 12.000000
206.094770 8.000000
217.088940 11.000000
218.097580 9.000000
219.104340 5.000000
220.114650 26.000000
230.098100 5.000000
231.107350 5.000000
238.121750 20.000000
246.124270 9.000000
277.167600 5.000000
307.122310 7.000000
307.181180 1000.000000
307.232360 28.000000

>ms2
307.179990 1000.000000
307.230260 33.000000

>ms2
70.064000 21.000000
70.068330 6.000000
94.064650 11.000000
96.081500 24.000000
108.080310 25.000000
117.066590 5.000000
117.074440 5.000000
118.067090 5.000000
119.084930 6.000000
120.082690 20.000000
129.068050 8.000000
129.074200 6.000000
130.064450 43.000000
130.072680 8.000000
131.068510 9.000000
133.090710 13.000000
134.098340 11.000000
144.078450 12.000000
146.098560 8.000000
148.111420 14.000000
156.078640 12.000000
158.058500 8.000000
158.089970 5.000000
167.072630 70.000000
168.071850 15.000000
168.081150 24.000000
169.087270 22.000000
170.092100 15.000000
170.099490 7.000000
172.103930 5.000000
173.079040 8.000000
173.088650 8.000000
176.091220 5.000000
176.107250 64.000000
177.109220 11.000000
178.127110 6.000000
180.080860 111.000000
181.086260 56.000000
181.094960 37.000000
182.093060 20.000000
182.101090 17.000000
183.088930 8.000000
183.102480 5.000000
184.104830 11.000000
191.073390 10.000000
192.069700 5.000000
193.088130 17.000000
194.098420 68.000000
195.098980 23.000000
196.071530 16.000000
196.077730 26.000000
196.112350 11.000000
197.082030 78.000000
198.094160 7.000000
204.081390 56.000000
205.080150 17.000000
205.091900 36.000000
206.096280 46.000000
207.103490 24.000000
208.111210 47.000000
209.088100 7.000000
209.115020 7.000000
209.124300 7.000000
210.090230 7.000000
210.118000 6.000000
217.087110 48.000000
218.079040 10.000000
218.097610 61.000000
219.103350 33.000000
220.111650 165.000000
221.106340 35.000000
221.120450 23.000000
222.114360 9.000000
222.133360 13.000000
223.107760 6.000000
223.125640 13.000000
225.118650 10.000000
225.138380 44.000000
230.090090 9.000000
230.101940 19.000000
231.101550 37.000000
231.112230 10.000000
232.110900 40.000000
232.124020 8.000000
233.109040 14.000000
233.118870 6.000000
234.123750 22.000000
234.135970 14.000000
235.095050 7.000000
235.106990 5.000000
235.122360 28.000000
236.129550 36.000000
236.138610 10.000000
238.123230 111.000000
239.128770 31.000000
243.106120 17.000000
244.116180 24.000000
246.113170 16.000000
246.126750 65.000000
247.113940 6.000000
247.130950 29.000000
248.113530 7.000000
248.132710 14.000000
248.143140 25.000000
249.136730 8.000000
250.123600 8.000000
258.122990 11.000000
263.153930 14.000000
264.153690 6.000000
276.142790 9.000000
277.150510 7.000000
277.169340 37.000000
289.167140 5.000000
294.137660 6.000000
307.133150 9.000000
307.180390 1000.000000

>ms2
55.019920 9.000000
57.057900 11.000000
65.035680 6.000000
65.042850 6.000000
67.041150 13.000000
67.057430 10.000000
70.057210 8.000000
70.066470 76.000000
77.032840 7.000000
77.039660 24.000000
79.051280 6.000000
79.056760 16.000000
80.048610 7.000000
81.070320 6.000000
81.239970 5.000000
81.335370 5.000000
81.998390 5.000000
82.064700 8.000000
84.082670 18.000000
86.058380 5.000000
91.052410 36.000000
92.059650 18.000000
93.057420 17.000000
93.073120 5.000000
94.064290 34.000000
94.647580 5.000000
95.065510 6.000000
96.064790 10.000000
96.074630 5.000000
96.079980 20.000000
98.064710 10.000000
100.075870 7.000000
101.043810 12.000000
103.011410 6.000000
103.048490 16.000000
103.056760 21.000000
104.049800 7.000000
105.066110 21.000000
105.072390 21.000000
106.057340 8.000000
106.066490 14.000000
106.077000 5.000000
107.071100 25.000000
108.080280 20.000000
112.758070 5.000000
115.046970 18.000000
115.055350 38.000000
116.059600 24.000000
117.048250 12.000000
117.056590 29.000000
117.067450 24.000000
118.063470 26.000000
119.082600 7.000000
120.081620 89.000000
120.637830 7.000000
121.079650 11.000000
121.086370 16.000000
121.089970 6.000000
122.943210 6.000000
124.073250 7.000000
127.056080 36.000000
128.037000 8.000000
128.045730 9.000000
128.051940 15.000000
128.061900 28.000000
129.054920 16.000000
129.070050 69.000000
129.080950 7.000000
130.051900 5.000000
130.065310 140.000000
130.073030 21.000000
131.068420 23.000000
131.078220 5.000000
131.384640 8.000000
132.056200 9.000000
132.081680 6.000000
133.084320 15.000000
133.091200 5.000000
134.097350 13.000000
135.076810 6.000000
136.116850 12.000000
136.399400 8.000000
137.117340 7.000000
139.055360 20.000000
140.058240 7.000000
140.271620 5.000000
141.058760 7.000000
141.363160 9.000000
141.815810 12.000000
141.875640 5.000000
142.051820 7.000000
142.070710 5.000000
142.711000 5.000000
143.072420 45.000000
143.085160 7.000000
144.076970 32.000000
144.087800 20.000000
145.063810 7.000000
145.080380 10.000000
146.059860 7.000000
146.089160 14.000000
146.101820 10.000000
148.110900 35.000000
148.119580 8.000000
151.042420 21.000000
151.054170 60.000000
152.040820 8.000000
152.049840 11.000000
152.063420 121.000000
153.063250 46.000000
153.070450 21.000000
154.056630 16.000000
154.066890 48.000000
154.081220 12.000000
155.074400 91.000000
155.088300 14.000000
156.080290 22.000000
157.078690 14.000000
157.087830 15.000000
158.101930 14.000000
159.061490 13.000000
160.074540 21.000000
165.064120 36.000000
165.072590 13.000000
165.079440 10.000000
165.744420 5.000000
165.989780 10.000000
166.038410 7.000000
166.055130 23.000000
166.067090 158.000000
166.131070 8.000000
166.155110 6.000000
167.034650 9.000000
167.070970 504.000000
167.080090 147.000000
167.694290 9.000000
168.056260 29.000000
168.079830 440.000000
169.072860 6.000000
169.082410 26.000000
169.092530 37.000000
169.644520 7.000000
169.955800 7.000000
170.062670 5.000000
170.076230 7.000000
170.096530 28.000000
171.051330 8.000000
171.095370 7.000000
172.091570 6.000000
176.059220 11.000000
176.068410 20.000000
177.646710 6.000000
178.061980 93.000000
178.076710 16.000000
178.356490 5.000000
179.066730 103.000000
179.075040 68.000000
180.051010 15.000000
180.060120 11.000000
180.081300 752.000000
181.053670 20.000000
181.062850 15.000000
181.087860 488.000000
181.120290 6.000000
181.193280 6.000000
181.550750 5.000000
182.068190 7.000000
182.076830 7.000000
182.093810 56.000000
182.104020 29.000000
182.454100 5.000000
183.076840 19.000000
183.093000 18.000000
184.082930 11.000000
189.041050 8.000000
189.073870 29.000000
190.064210 21.000000
190.079270 28.000000
191.075700 180.000000
191.093950 16.000000
192.063540 8.000000
192.074630 43.000000
192.082430 170.000000
193.054240 7.000000
193.064330 13.000000
193.079910 73.000000
193.090040 209.000000
194.068880 23.000000
194.087480 99.000000
194.095110 269.000000
195.099150 67.000000
196.056780 14.000000
196.075010 182.000000
196.106380 8.000000
197.076720 24.000000
197.088750 53.000000
197.096940 16.000000
198.015110 5.000000
198.078510 12.000000
198.088940 8.000000
198.095990 12.000000
199.059560 7.000000
199.090330 6.000000
199.656890 6.000000
200.054730 5.000000
200.065400 6.000000
200.155330 5.000000
201.056850 6.000000
202.061870 7.000000
202.080900 37.000000
203.071820 27.000000
203.088580 32.000000
204.082550 1000.000000
205.057020 8.000000
205.088060 345.000000
205.104350 13.000000
206.079590 47.000000
206.098680 259.000000
207.078190 19.000000
207.095900 28.000000
207.108350 16.000000
207.117890 7.000000
208.097990 12.000000
208.114910 26.000000
209.095750 11.000000
209.103060 17.000000
209.113250 29.000000
210.058430 7.000000
210.107450 14.000000
210.119540 7.000000
210.137730 8.000000
210.361760 7.000000
212.800870 5.000000
213.495500 7.000000
214.065660 38.000000
215.069120 14.000000
215.077590 12.000000
215.088500 12.000000
216.074360 57.000000
216.083190 83.000000
216.089980 36.000000
217.056780 8.000000
217.070180 54.000000
217.090390 447.000000
217.117000 10.000000
218.089950 195.000000
218.102080 179.000000
219.079970 19.000000
219.093310 83.000000
219.102980 51.000000
219.114940 12.000000
219.783660 16.000000
220.072780 7.000000
220.093670 15.000000
220.102250 35.000000
220.109450 37.000000
220.117550 61.000000
221.091230 12.000000
221.107040 54.000000
221.115950 53.000000
221.523350 5.000000
221.703090 5.000000
222.095030 32.000000
222.121640 14.000000
223.100750 6.000000
223.113530 8.000000
223.121440 13.000000
226.072690 10.000000
227.079730 25.000000
228.084900 34.000000
228.096130 12.000000
228.673110 14.000000
229.078260 12.000000
229.087970 41.000000
229.108760 9.000000
230.089430 138.000000
230.098110 269.000000
231.068310 6.000000
231.089040 31.000000
231.100040 126.000000
231.111800 94.000000
232.076110 10.000000
232.089970 22.000000
232.098850 28.000000
232.113160 43.000000
233.100890 9.000000
233.112880 29.000000
233.127170 7.000000
233.213970 6.000000
234.086960 12.000000
234.099460 9.000000
234.124340 12.000000
234.136030 10.000000
235.102490 22.000000
235.114790 34.000000
235.132840 16.000000
235.155520 5.000000
236.121630 10.000000
236.260410 6.000000
237.233520 7.000000
237.286820 6.000000
238.119570 18.000000
238.134720 8.000000
240.328030 5.000000
240.547420 11.000000
241.040020 7.000000
241.086700 37.000000
241.104340 12.000000
242.076340 8.000000
242.100680 139.000000
242.274140 6.000000
243.075440 6.000000
243.102810 54.000000
244.090270 9.000000
244.107850 24.000000
244.118670 28.000000
245.110570 5.000000
245.120970 12.000000
246.120650 11.000000
246.139210 18.000000
247.101090 6.000000
247.119920 15.000000
249.145720 9.000000
250.151090 8.000000
255.100560 8.000000
256.115260 20.000000
257.116790 15.000000
258.099300 6.000000
258.118010 5.000000
258.130040 7.000000
258.145480 8.000000
260.141600 7.000000
261.142210 10.000000
261.164860 14.000000
262.141600 7.000000
265.454160 10.000000
266.621490 8.000000
268.957150 8.000000
273.151250 8.000000
275.162930 9.000000
276.152740 6.000000
299.138340 9.000000
307.177250 6.000000
307.189880 12.000000

>ms2
130.062470 8.000000
167.070800 10.000000
168.080090 11.000000
176.108310 10.000000
180.082370 22.000000
181.087340 13.000000
194.095120 9.000000
196.076000 9.000000
197.076720 7.000000
204.073590 5.000000
204.082780 9.000000
205.081650 12.000000
206.095210 13.000000
208.110210 7.000000
217.087600 11.000000
218.096080 11.000000
219.100020 8.000000
220.110980 26.000000
225.138960 6.000000
231.101780 6.000000
238.123440 24.000000
246.127270 18.000000
277.167330 6.000000
307.137450 7.000000
307.181210 1000.000000
307.231260 27.000000

>ms2
307.131870 7.000000
307.181340 1000.000000
307.232030 31.000000

>ms2
70.066070 34.000000
94.065580 6.000000
96.081040 23.000000
108.079160 18.000000
108.088130 7.000000
120.078620 21.000000
120.085830 7.000000
121.087360 8.000000
122.096190 7.000000
129.068120 12.000000
130.065410 27.000000
133.088070 9.000000
134.096440 15.000000
144.083570 19.000000
146.096120 17.000000
148.111220 12.000000
156.079620 7.000000
157.087010 8.000000
158.093890 8.000000
158.101530 5.000000
167.073720 65.000000
168.080730 68.000000
169.087100 26.000000
170.089000 6.000000
170.097430 5.000000
173.085800 5.000000
176.106120 73.000000
177.113800 8.000000
178.130290 7.000000
180.080890 98.000000
181.083970 72.000000
181.091550 34.000000
182.090470 14.000000
182.098620 18.000000
183.091400 9.000000
192.080220 15.000000
193.089250 10.000000
194.092910 55.000000
194.102460 26.000000
195.096310 11.000000
195.108370 9.000000
196.070080 24.000000
196.080860 11.000000
196.100110 5.000000
196.115250 14.000000
197.082920 74.000000
198.078770 7.000000
198.095950 8.000000
204.067810 8.000000
204.078190 24.000000
204.088760 24.000000
205.082280 33.000000
205.092580 45.000000
206.094540 51.000000
206.105320 11.000000
207.092940 17.000000
207.108600 13.000000
208.113430 41.000000
209.109680 21.000000
217.085020 25.000000
217.095000 13.000000
218.079450 9.000000
218.098100 43.000000
219.096190 10.000000
219.108250 21.000000
220.081180 5.000000
220.109940 137.000000
220.118640 54.000000
221.088680 5.000000
221.110460 35.000000
221.125840 17.000000
222.106780 8.000000
222.123750 22.000000
222.133700 9.000000
223.115360 7.000000
223.126620 22.000000
224.108350 7.000000
225.137150 42.000000
230.097020 19.000000
231.108730 34.000000
232.110600 37.000000
233.113890 22.000000
233.125290 6.000000
234.115830 9.000000
234.128160 16.000000
235.084950 7.000000
235.114620 11.000000
235.124770 14.000000
236.124790 19.000000
236.140150 28.000000
237.140900 7.000000
238.123760 133.000000
239.116390 11.000000
239.127490 15.000000
243.104100 10.000000
243.120800 5.000000
244.112270 23.000000
245.118500 14.000000
246.128130 92.000000
247.118320 11.000000
247.131180 12.000000
248.127460 8.000000
248.138500 18.000000
248.153720 6.000000
249.132160 5.000000
251.128390 11.000000
258.128300 12.000000
261.146510 10.000000
263.138790 10.000000
263.157900 7.000000
264.137850 8.000000
265.142270 7.000000
276.137210 14.000000
276.154080 7.000000
277.169040 33.000000
289.169920 6.000000
293.129430 5.000000
307.139530 6.000000
307.180760 1000.000000

>ms2
65.041720 19.000000
68.049020 13.000000
68.063930 6.000000
69.067580 9.000000
70.064350 96.000000
70.073360 10.000000
70.427140 6.000000
77.017730 11.000000
77.036210 9.000000
78.265170 6.000000
79.053650 10.000000
80.058100 7.000000
81.057160 37.000000
82.065030 21.000000
85.077830 12.000000
87.067030 9.000000
91.054200 29.000000
92.046870 30.000000
93.043520 13.000000
94.062910 60.000000
95.064180 13.000000
96.075560 18.000000
98.063130 9.000000
103.049710 13.000000
103.055230 6.000000
104.060000 6.000000
105.053960 9.000000
105.066120 7.000000
105.071890 10.000000
107.067130 7.000000
108.079650 6.000000
108.084260 10.000000
110.101470 7.000000
114.044040 6.000000
114.439720 11.000000
115.047050 10.000000
115.056720 31.000000
115.575070 10.000000
116.046200 14.000000
116.055450 11.000000
117.048770 15.000000
117.059010 41.000000
117.067860 12.000000
118.062420 6.000000
119.063290 5.000000
119.074350 6.000000
120.068900 6.000000
120.080170 70.000000
121.085980 28.000000
124.069270 6.000000
127.041500 8.000000
127.052630 14.000000
127.599700 6.000000
128.017790 6.000000
128.038500 10.000000
128.048190 24.000000
128.059690 107.000000
129.058640 16.000000
129.067760 63.000000
129.077610 7.000000
130.063320 233.000000
130.471890 6.000000
131.067140 5.000000
131.073090 21.000000
132.061250 12.000000
132.077040 31.000000
132.084950 6.000000
133.085390 10.000000
133.123280 5.000000
134.095730 35.000000
134.103810 27.000000
135.109800 6.000000
139.060130 13.000000
140.045810 7.000000
140.063430 6.000000
141.065600 13.000000
142.052720 9.000000
142.065520 35.000000
143.072650 46.000000
143.081330 9.000000
144.065770 12.000000
144.077680 25.000000
144.242810 11.000000
144.793180 7.000000
145.025570 14.000000
145.039890 6.000000
145.077120 6.000000
148.111370 7.000000
149.118380 6.000000
151.032290 12.000000
151.051470 11.000000
151.765430 8.000000
152.053740 50.000000
152.061540 45.000000
152.067350 16.000000
152.091630 7.000000
153.063540 17.000000
153.072400 25.000000
154.064710 65.000000
154.074540 23.000000
154.110080 5.000000
155.079240 38.000000
155.853150 7.000000
156.078230 18.000000
157.095960 7.000000
158.046950 5.000000
158.055800 12.000000
158.064420 9.000000
159.055370 9.000000
159.384160 6.000000
162.048970 5.000000
165.049190 8.000000
165.073200 49.000000
165.132000 14.000000
166.044490 6.000000
166.052510 9.000000
166.064440 90.000000
166.074040 29.000000
166.082930 7.000000
166.971760 8.000000
167.044450 9.000000
167.072050 662.000000
167.092100 22.000000
168.053730 8.000000
168.079770 437.000000
168.818370 6.000000
169.060330 10.000000
169.078350 32.000000
169.086880 17.000000
169.095110 6.000000
171.080670 7.000000
171.097320 5.000000
172.070620 10.000000
173.080250 12.000000
176.059560 7.000000
176.812440 6.000000
177.058690 5.000000
177.064420 12.000000
177.078090 8.000000
178.030490 7.000000
178.047290 10.000000
178.056380 29.000000
178.065160 95.000000
178.079860 34.000000
179.050750 6.000000
179.064650 41.000000
179.074260 163.000000
180.037720 8.000000
180.054750 7.000000
180.080370 1000.000000
180.388690 5.000000
181.067840 15.000000
181.086870 327.000000
182.090550 124.000000
183.095180 12.000000
184.074140 7.000000
184.093990 7.000000
184.113860 7.000000
186.396220 5.000000
187.077970 6.000000
189.067280 8.000000
189.075900 9.000000
190.049210 13.000000
190.060320 30.000000
190.073070 20.000000
190.085850 6.000000
191.037890 11.000000
191.073090 148.000000
191.087840 22.000000
192.076350 167.000000
192.097050 6.000000
192.294160 6.000000
192.396420 6.000000
193.079790 70.000000
193.092940 136.000000
193.774030 8.000000
194.041840 6.000000
194.063640 8.000000
194.080580 23.000000
194.096790 259.000000
194.115880 8.000000
195.096150 42.000000
195.109130 16.000000
196.041490 13.000000
196.054030 10.000000
196.067320 63.000000
196.077940 158.000000
196.107990 7.000000
196.242840 9.000000
197.070590 11.000000
197.078990 44.000000
197.086760 34.000000
197.103810 9.000000
198.057300 17.000000
201.076340 11.000000
202.061310 42.000000
202.079760 18.000000
203.054280 14.000000
203.078990 39.000000
203.644070 9.000000
204.065030 90.000000
204.081440 755.000000
204.998870 5.000000
205.064850 23.000000
205.085630 373.000000
206.058110 10.000000
206.076080 23.000000
206.087140 99.000000
206.096330 204.000000
207.091840 20.000000
207.103820 96.000000
208.101750 22.000000
208.113800 30.000000
209.058240 8.000000
209.100950 11.000000
212.115880 8.000000
214.047030 10.000000
214.057430 7.000000
215.062240 16.000000
215.071760 16.000000
216.082870 157.000000
216.688810 5.000000
217.057330 13.000000
217.089400 381.000000
218.073490 6.000000
218.095690 303.000000
219.050750 12.000000
219.089550 81.000000
219.099610 87.000000
219.110780 53.000000
220.060470 6.000000
220.078400 11.000000
220.086810 15.000000
220.101090 44.000000
220.116700 119.000000
221.102490 11.000000
221.113080 45.000000
222.104860 6.000000
222.119890 6.000000
223.127270 10.000000
228.078600 20.000000
229.070920 19.000000
229.091400 31.000000
230.045470 6.000000
230.055830 7.000000
230.096130 258.000000
230.284380 6.000000
231.097990 70.000000
231.108030 31.000000
232.070480 15.000000
232.083050 11.000000
232.102680 65.000000
232.125700 18.000000
232.164670 6.000000
233.081800 6.000000
233.097900 26.000000
233.112150 73.000000
233.123950 14.000000
234.095750 9.000000
234.122880 34.000000
234.130800 15.000000
235.119030 20.000000
235.129760 31.000000
235.481690 7.000000
236.138140 27.000000
238.107800 8.000000
238.119920 15.000000
238.134990 10.000000
239.089610 10.000000
239.133990 7.000000
241.090560 34.000000
241.103810 11.000000
242.087400 19.000000
242.099490 25.000000
243.083190 13.000000
243.093250 40.000000
243.116230 9.000000
243.126500 8.000000
244.098920 6.000000
244.116240 70.000000
245.103880 12.000000
245.119060 18.000000
246.109300 15.000000
246.143600 6.000000
247.120530 14.000000
247.134510 44.000000
248.066270 6.000000
248.130650 6.000000
254.088940 8.000000
254.233180 5.000000
254.805790 14.000000
256.111630 13.000000
257.101960 7.000000
257.111600 6.000000
258.119780 17.000000
259.108340 12.000000
259.121800 11.000000
260.104400 10.000000
260.119480 11.000000
261.147130 9.000000
262.110530 5.000000
266.149170 8.000000
280.100460 7.000000
307.175420 45.000000

>ms2
130.064650 6.000000
167.071470 11.000000
168.081100 9.000000
176.106220 15.000000
180.081250 24.000000
181.085530 11.000000
182.095870 7.000000
194.096510 9.000000
197.087280 7.000000
204.082600 12.000000
205.086550 15.000000
206.089170 5.000000
217.088350 10.000000
218.098480 13.000000
219.103520 7.000000
220.111790 27.000000
221.114400 7.000000
225.139250 6.000000
230.094570 9.000000
238.115660 9.000000
238.124240 16.000000
246.128490 10.000000
277.171200 7.000000
307.132970 6.000000
307.181000 1000.000000
307.231380 29.000000

>ms2
307.180050 1000.000000
307.230530 34.000000

>ms2
70.065220 31.000000
79.053550 6.000000
94.062970 12.000000
96.082290 17.000000
108.074910 5.000000
108.081640 10.000000
117.068860 10.000000
120.079440 29.000000
122.095520 11.000000
129.068130 8.000000
130.064320 37.000000
130.069600 14.000000
131.075730 7.000000
132.083940 6.000000
133.090180 7.000000
134.088910 6.000000
134.098740 10.000000
135.101360 9.000000
144.079150 19.000000
146.098450 6.000000
147.079190 6.000000
148.110610 10.000000
155.068310 7.000000
156.079500 18.000000
158.094650 21.000000
167.071780 52.000000
168.078450 56.000000
169.086120 15.000000
170.092530 8.000000
170.100910 6.000000
173.081760 6.000000
176.106780 83.000000
177.103130 6.000000
177.113970 9.000000
179.070370 6.000000
180.080490 95.000000
181.087740 92.000000
182.094040 45.000000
183.092770 7.000000
191.073580 8.000000
192.079070 15.000000
193.079450 8.000000
193.092180 11.000000
194.096480 66.000000
195.104310 20.000000
196.074510 29.000000
196.099080 12.000000
196.111850 7.000000
197.079440 47.000000
197.089870 17.000000
197.104920 5.000000
198.083720 6.000000
204.080170 47.000000
205.086170 53.000000
205.093840 27.000000
206.087720 28.000000
206.099460 32.000000
207.100830 27.000000
208.088780 6.000000
208.108150 49.000000
209.107560 18.000000
210.134520 7.000000
211.125030 5.000000
217.088410 56.000000
218.095860 71.000000
219.101240 26.000000
220.112410 177.000000
221.115830 32.000000
222.115050 11.000000
222.131730 12.000000
223.126040 23.000000
224.107470 6.000000
225.117720 7.000000
225.137910 41.000000
226.139680 14.000000
230.093380 16.000000
230.105070 9.000000
231.103330 39.000000
232.108630 42.000000
232.117840 16.000000
233.104050 5.000000
233.117950 19.000000
234.108830 6.000000
234.125950 24.000000
234.140290 5.000000
235.093260 5.000000
235.109850 10.000000
235.123980 27.000000
235.134870 7.000000
236.129970 28.000000
237.136260 6.000000
238.104480 8.000000
238.123350 144.000000
239.127240 30.000000
242.095060 5.000000
243.094770 6.000000
243.105320 10.000000
244.110350 17.000000
245.117170 8.000000
246.108280 6.000000
246.126510 83.000000
247.130710 21.000000
248.124220 6.000000
248.138850 11.000000
248.151340 9.000000
249.136540 9.000000
250.121860 10.000000
251.121870 5.000000
258.128720 11.000000
261.141480 5.000000
263.155180 9.000000
264.138920 15.000000
276.135770 6.000000
277.132230 7.000000
277.168370 29.000000
278.175960 8.000000
289.167600 5.000000
307.140690 16.000000
307.179660 1000.000000
307.230220 9.000000

>ms2
67.049030 5.000000
67.056470 10.000000
68.049130 6.000000
70.047200 6.000000
70.064440 55.000000
70.068380 61.000000
72.078450 6.000000
75.441480 10.000000
76.992260 5.000000
77.039470 26.000000
77.046170 8.000000
79.051610 32.000000
80.049380 9.000000
81.035320 8.000000
81.057560 28.000000
81.770580 7.000000
82.051560 5.000000
82.067440 17.000000
83.070480 29.000000
85.085050 9.000000
86.059340 7.000000
91.056140 37.000000
93.054430 16.000000
93.067170 16.000000
94.052570 8.000000
94.065210 59.000000
96.080670 14.000000
101.030440 10.000000
104.046790 5.000000
104.051510 7.000000
107.072720 28.000000
108.063390 10.000000
108.075650 6.000000
115.057120 32.000000
116.043620 6.000000
116.063410 10.000000
117.054850 58.000000
117.061340 22.000000
117.068520 22.000000
118.064300 20.000000
118.077900 5.000000
119.070660 10.000000
120.080090 115.000000
120.090580 5.000000
120.637340 6.000000
121.085530 13.000000
122.098430 8.000000
122.102360 18.000000
127.033420 10.000000
127.054830 16.000000
128.040970 10.000000
128.052470 19.000000
128.064220 31.000000
129.045090 11.000000
129.051410 9.000000
129.065960 20.000000
129.073520 39.000000
130.046940 5.000000
130.064410 116.000000
131.044630 5.000000
131.056400 9.000000
131.068730 6.000000
131.271470 7.000000
132.026230 5.000000
132.076860 17.000000
133.080870 23.000000
133.088460 55.000000
134.077390 6.000000
134.086930 7.000000
134.093140 28.000000
135.100020 18.000000
137.897890 12.000000
139.052900 15.000000
140.049730 51.000000
141.072950 28.000000
141.671400 5.000000
142.059370 10.000000
142.072690 8.000000
142.081600 11.000000
143.066590 10.000000
143.075130 43.000000
144.077550 41.000000
145.062380 9.000000
145.085720 14.000000
146.083280 5.000000
146.098430 6.000000
146.105380 7.000000
146.176060 11.000000
147.085100 8.000000
148.069820 6.000000
148.102540 7.000000
148.109820 19.000000
151.054050 64.000000
152.049510 29.000000
152.062440 88.000000
153.055450 18.000000
153.489760 6.000000
154.057270 14.000000
154.067830 55.000000
154.074910 13.000000
155.067500 36.000000
155.080640 6.000000
156.063050 13.000000
156.069170 10.000000
156.078750 21.000000
156.088060 19.000000
157.078990 20.000000
158.052960 6.000000
158.059400 13.000000
158.070070 10.000000
159.063980 10.000000
162.056520 7.000000
163.051540 5.000000
164.059080 6.000000
165.054090 7.000000
165.062940 34.000000
165.075060 38.000000
166.057850 28.000000
166.066730 85.000000
166.074950 32.000000
167.018840 6.000000
167.042080 6.000000
167.073120 743.000000
167.580800 6.000000
168.051530 18.000000
168.080350 435.000000
168.173390 8.000000
168.578020 5.000000
169.072650 33.000000
169.081450 45.000000
169.096250 14.000000
170.095380 9.000000
170.107930 6.000000
171.089400 10.000000
173.083330 5.000000
173.094310 5.000000
175.408750 6.000000
176.062040 27.000000
176.106340 14.000000
176.598240 6.000000
177.062970 14.000000
177.073520 14.000000
177.082520 5.000000
177.103940 7.000000
178.063420 75.000000
178.077380 45.000000
179.033220 6.000000
179.054430 21.000000
179.066560 74.000000
179.074190 116.000000
179.094730 17.000000
180.055190 11.000000
180.081010 793.000000
180.132350 5.000000
181.071370 30.000000
181.079500 123.000000
181.087200 286.000000
181.347690 5.000000
182.052930 8.000000
182.086010 22.000000
182.095000 42.000000
183.065050 8.000000
183.090610 15.000000
183.103900 6.000000
188.047260 8.000000
188.099870 6.000000
189.061220 7.000000
189.071290 28.000000
190.048950 10.000000
190.057950 5.000000
190.075120 35.000000
190.086530 5.000000
191.074300 131.000000
191.080640 50.000000
191.848400 8.000000
192.059010 6.000000
192.081210 192.000000
192.673750 6.000000
193.055570 8.000000
193.084750 217.000000
193.101910 43.000000
193.881180 5.000000
194.065860 5.000000
194.087100 77.000000
194.098770 168.000000
194.251050 12.000000
195.063840 8.000000
195.072660 5.000000
195.096660 25.000000
195.108220 13.000000
196.042760 11.000000
196.074070 227.000000
196.102740 6.000000
196.116290 17.000000
197.075650 23.000000
197.084640 45.000000
197.094740 11.000000
197.113530 10.000000
197.465520 6.000000
199.081410 7.000000
199.101030 6.000000
201.070590 8.000000
201.978910 6.000000
202.067200 18.000000
202.081250 51.000000
202.783950 5.000000
203.061770 10.000000
203.072080 33.000000
203.080930 46.000000
204.026760 5.000000
204.080990 1000.000000
205.068540 28.000000
205.086240 412.000000
206.059020 7.000000
206.089950 199.000000
206.099950 168.000000
207.081050 9.000000
207.097820 92.000000
208.086230 10.000000
208.094570 31.000000
208.108700 8.000000
208.121700 20.000000
209.079320 6.000000
209.098390 10.000000
209.109070 14.000000
210.098460 7.000000
210.107120 6.000000
210.127560 10.000000
210.865020 7.000000
214.066500 8.000000
214.075780 5.000000
215.086990 17.000000
216.078860 108.000000
216.087270 68.000000
216.157150 5.000000
217.062530 6.000000
217.087710 580.000000
218.094890 332.000000
218.112880 33.000000
219.050570 6.000000
219.081590 23.000000
219.103640 49.000000
220.075030 7.000000
220.103590 80.000000
220.116840 86.000000
220.808270 8.000000
220.973680 7.000000
221.077800 15.000000
221.106190 73.000000
222.089110 9.000000
222.102160 10.000000
222.117340 6.000000
223.109450 7.000000
224.117980 5.000000
225.804670 6.000000
227.086180 9.000000
227.409530 11.000000
228.079040 59.000000
228.119860 7.000000
229.086400 32.000000
229.096850 16.000000
230.073970 11.000000
230.097500 207.000000
230.156970 6.000000
231.082460 12.000000
231.101200 179.000000
232.062640 9.000000
232.091690 38.000000
232.109680 74.000000
233.108440 11.000000
233.121630 13.000000
234.064090 6.000000
234.084300 12.000000
234.100100 10.000000
234.122510 20.000000
234.140590 6.000000
235.113600 9.000000
235.128460 14.000000
236.137910 34.000000
237.108720 6.000000
238.109830 11.000000
238.120820 17.000000
238.136080 6.000000
241.052430 9.000000
241.063580 9.000000
241.093770 30.000000
242.094890 81.000000
243.080980 12.000000
243.094710 21.000000
243.110020 40.000000
244.057040 7.000000
244.092830 6.000000
244.114360 59.000000
245.071950 9.000000
245.116900 5.000000
245.126070 16.000000
246.092160 8.000000
246.128600 19.000000
247.129610 31.000000
248.108340 8.000000
248.140700 6.000000
249.144590 6.000000
251.092010 6.000000
251.118580 11.000000
251.451780 5.000000
254.094410 7.000000
255.102720 5.000000
256.104160 25.000000
260.117430 6.000000
261.137330 6.000000
261.155330 8.000000
279.509430 9.000000
298.054050 5.000000
307.165130 10.000000
307.181550 23.000000

