>compound PR29607283
>parentmass 308.091
>ionization [M+H]+
>formula C10H17N3O6S
>rt 91.200000
>profile qtof
#smiles_iso C(CC(=O)NC(CS)C(=O)NCC(=O)O)C(C(=O)O)N
#smiles_can C(CC(=O)NC(CS)C(=O)NCC(=O)O)C(C(=O)O)N
#inchikey RWSXRVCMGQZWBV-UHFFFAOYSA-N
#pubchem_id 745
#mb_accession PR310781

>ms2
76.023010 42.000000
84.043100 16.000000
111.960120 28.000000
130.042790 18.000000
130.052760 17.000000
162.021130 84.000000
179.035250 38.000000
179.047350 139.000000
187.056560 25.000000
197.967030 19.000000
201.960360 20.000000
227.043580 28.000000
233.059970 95.000000
233.090910 16.000000
245.056560 17.000000
290.065220 27.000000
308.080870 37.000000
308.104100 16.000000

