>compound PR29150537
>parentmass 279.1713
>ionization [M+H]+
>formula C15H22N2O3
>rt 219.000000
>profile qtof
#smiles_iso CCC(C)C(C(=O)O)NC(=O)C(CC1=CC=CC=C1)N
#smiles_can CCC(C)C(C(=O)O)NC(=O)C(CC1=CC=CC=C1)N
#inchikey JWBLQDDHSDGEGR-UHFFFAOYSA-N
#pubchem_id 18218232
#mb_accession PR311060,PR311062

>ms2
113.059300 27.000000
120.076800 100.000000
120.082540 193.000000
121.081670 44.000000
130.960460 23.000000
133.110640 32.000000
145.017490 18.000000
226.005570 19.000000
233.167590 22.000000
233.217410 41.000000
233.292890 20.000000
238.929280 24.000000
261.118530 26.000000
262.154600 17.000000
272.192170 25.000000
279.160610 21.000000
279.173220 36.000000
279.188020 38.000000

>ms2
104.113650 16.000000
120.081860 652.000000
121.066230 23.000000
132.098560 17.000000
234.165040 23.000000
279.173370 194.000000

