>compound PR29265756
>parentmass 430.3319
>ionization [M+H]+
>formula C27H43NO3
>rt 222.000000
>profile qtof
#smiles_iso CC1CCC2C(C3C(N2C1)CC4C3(C(CC5C4CC=C6C5(CCC(C6)O)C)O)CO)C
#smiles_can CC1CCC2C(C3C(N2C1)CC4C3(C(CC5C4CC=C6C5(CCC(C6)O)C)O)CO)C
#inchikey SUXOAOUIWWNLHR-UHFFFAOYSA-N
#pubchem_id 139292073
#mb_accession PR310697

>ms2
62.085410 20.000000
98.094300 19.000000
110.091870 25.000000
206.182080 20.000000
273.137880 24.000000
273.205290 21.000000
312.118650 49.000000
391.108520 30.000000
412.074370 19.000000
412.180390 20.000000
430.253570 21.000000
430.330750 1277.000000

