>compound PR30221004
>parentmass 398.15981389999996
>ionization [M+H]+
>formula C22H23NO6
>rt 309.022020
>profile qtof
#smiles_iso CCO[C@@H]1C2=C(C=CC3=C2OCO3)[C@@H]4[C@H](O1)C5=CC6=C(C=C5CCN4C)OCO6
#smiles_can CCOC1C2=C(C=CC3=C2OCO3)C4C(O1)C5=CC6=C(C=C5CCN4C)OCO6
#inchikey RKBDCPZCGRWNMP-SJBKTWHCSA-N
#pubchem_id 17751008
#mb_accession PR301706,PR301709,PR301712,PR301715,PR301718,PR301721,PR301724,PR301727,PR301730,PR301733,PR301736,PR301739

>ms2
135.044390 6.000000
148.056240 6.000000
149.059010 25.000000
161.043930 7.000000
163.075580 12.000000
175.060350 5.000000
176.068330 7.000000
178.080570 6.000000
188.071010 233.000000
189.075120 82.000000
190.040800 8.000000
190.049650 21.000000
190.086790 486.000000
191.088290 72.000000
205.058470 11.000000
205.069610 12.000000
223.069900 6.000000
233.059310 23.000000
233.069290 7.000000
234.062650 8.000000
235.070620 26.000000
235.088200 10.000000
237.111980 9.000000
247.076550 16.000000
248.102480 5.000000
261.048280 12.000000
261.062230 11.000000
263.069790 18.000000
264.068510 9.000000
275.073550 16.000000
276.099820 11.000000
276.112270 7.000000
279.065730 7.000000
290.082090 6.000000
291.067840 29.000000
292.104890 8.000000
293.071590 15.000000
293.085510 16.000000
294.087070 6.000000
294.111480 8.000000
295.110990 6.000000
303.049900 23.000000
303.066800 50.000000
304.062470 9.000000
304.076020 8.000000
304.100770 8.000000
305.088260 5.000000
308.087740 6.000000
308.103910 7.000000
309.064360 9.000000
309.075560 7.000000
309.098540 12.000000
318.073150 8.000000
319.079100 9.000000
319.089970 7.000000
320.092100 121.000000
321.069490 6.000000
321.092930 38.000000
321.104860 15.000000
322.077060 6.000000
322.092900 6.000000
322.107570 11.000000
323.086240 11.000000
324.120480 17.000000
334.108490 147.000000
335.104430 13.000000
335.114290 34.000000
336.099910 11.000000
337.085570 9.000000
337.102170 12.000000
352.054290 7.000000
352.074250 12.000000
352.118380 1000.000000
353.121830 248.000000
354.118930 24.000000
354.132540 16.000000
380.144320 18.000000
380.160920 10.000000
381.156310 5.000000
398.104890 5.000000
398.123320 9.000000
398.158970 808.000000

>ms2
188.072170 18.000000
190.084670 25.000000
352.092680 7.000000
352.117770 196.000000
353.120210 46.000000
354.118900 5.000000
398.088990 10.000000
398.158970 1000.000000
398.214110 14.000000

>ms2
91.053000 6.000000
119.043590 6.000000
119.049390 11.000000
135.034480 9.000000
135.045590 18.000000
148.053730 17.000000
149.060930 68.000000
159.042770 6.000000
161.061660 5.000000
162.059200 7.000000
163.040310 9.000000
163.080310 10.000000
174.049480 5.000000
174.058620 12.000000
175.062230 9.000000
175.072920 8.000000
176.069140 33.000000
188.072300 330.000000
189.077060 96.000000
189.088680 23.000000
190.045290 17.000000
190.052220 43.000000
190.087230 1000.000000
191.053410 8.000000
191.090350 163.000000
192.065900 5.000000
202.090240 6.000000
204.066100 7.000000
205.067350 25.000000
207.081530 5.000000
221.058240 11.000000
221.068130 6.000000
223.072800 10.000000
233.047930 9.000000
233.059660 19.000000
234.067520 11.000000
235.050200 7.000000
235.078670 79.000000
236.074830 10.000000
237.060790 11.000000
237.096390 13.000000
247.075230 21.000000
248.089000 11.000000
249.060670 11.000000
251.064360 8.000000
251.072570 26.000000
261.055210 45.000000
261.065430 12.000000
262.054200 13.000000
262.068150 6.000000
263.070340 85.000000
263.091060 11.000000
264.093050 14.000000
264.106380 14.000000
265.092650 12.000000
267.073090 9.000000
268.138090 26.000000
275.070560 30.000000
276.087250 10.000000
276.099000 48.000000
277.100190 5.000000
277.118070 9.000000
279.070470 18.000000
281.069210 7.000000
281.085540 13.000000
282.083250 7.000000
290.066560 6.000000
291.063930 102.000000
291.079680 22.000000
292.074400 13.000000
293.070010 9.000000
293.086760 48.000000
294.071810 8.000000
294.089630 15.000000
294.106320 25.000000
294.118470 14.000000
294.129460 6.000000
295.106660 9.000000
303.067350 263.000000
304.073490 18.000000
304.090450 23.000000
304.106540 10.000000
305.103580 14.000000
306.093480 23.000000
306.116970 6.000000
307.118130 5.000000
308.079470 11.000000
308.096530 31.000000
309.063840 5.000000
309.079770 26.000000
309.097470 8.000000
318.085820 16.000000
319.065310 8.000000
319.084930 18.000000
320.061190 11.000000
320.093290 286.000000
321.076930 18.000000
321.099300 100.000000
322.053990 7.000000
322.075590 7.000000
322.085850 11.000000
322.105830 66.000000
323.086490 7.000000
323.101720 8.000000
323.126370 10.000000
323.138310 5.000000
324.107970 6.000000
324.124180 21.000000
325.128510 9.000000
333.098240 13.000000
334.107970 424.000000
335.104830 38.000000
335.117950 76.000000
336.108730 5.000000
337.083370 14.000000
337.100830 48.000000
338.101750 11.000000
350.100130 8.000000
352.056790 6.000000
352.119750 627.000000
353.122620 133.000000
354.120450 11.000000

>ms2
65.039640 18.000000
77.036510 11.000000
77.047890 15.000000
77.670170 7.000000
79.056690 21.000000
80.048190 8.000000
89.038380 8.000000
91.054060 93.000000
91.493680 9.000000
94.059490 9.000000
102.392820 9.000000
103.050380 12.000000
103.055680 20.000000
103.065670 16.000000
104.055860 20.000000
104.068580 18.000000
115.043850 15.000000
115.055180 24.000000
116.060090 8.000000
117.027820 8.000000
117.057450 21.000000
117.065250 7.000000
117.302570 8.000000
118.053030 20.000000
118.065520 45.000000
118.088140 9.000000
119.045780 27.000000
119.053090 26.000000
119.071260 9.000000
121.042240 7.000000
121.064030 7.000000
128.049320 7.000000
129.025820 7.000000
129.065540 9.000000
130.035100 10.000000
130.040370 21.000000
130.063310 99.000000
130.069960 21.000000
131.043530 47.000000
131.051270 108.000000
131.069110 52.000000
131.076140 45.000000
131.129750 10.000000
132.032260 9.000000
132.044130 13.000000
132.062350 14.000000
132.078610 74.000000
132.086930 11.000000
133.033460 14.000000
133.048510 20.000000
133.076110 10.000000
133.085510 7.000000
134.095110 8.000000
135.026370 9.000000
135.035310 25.000000
135.042920 95.000000
135.048160 45.000000
135.768650 7.000000
136.051680 17.000000
140.050750 7.000000
144.084080 12.000000
145.063520 34.000000
145.087070 21.000000
146.030960 7.000000
146.061110 41.000000
147.034770 9.000000
147.045940 38.000000
147.068880 11.000000
147.075010 9.000000
148.040450 24.000000
148.054400 46.000000
149.018980 20.000000
149.054750 49.000000
149.062390 45.000000
150.063280 20.000000
151.056120 9.000000
157.022030 22.000000
158.050640 10.000000
158.063290 11.000000
159.033780 8.000000
159.044890 26.000000
159.056350 20.000000
159.066650 124.000000
159.169190 8.000000
160.023320 11.000000
160.059330 42.000000
160.069580 26.000000
160.079450 71.000000
160.215090 7.000000
161.048770 130.000000
161.069310 47.000000
161.083220 23.000000
161.093170 14.000000
162.025510 7.000000
162.051180 29.000000
162.059130 29.000000
162.095840 9.000000
163.024720 16.000000
163.035100 12.000000
163.043240 9.000000
163.908260 9.000000
164.034710 7.000000
164.044240 8.000000
164.060790 7.000000
165.011000 15.000000
165.071080 140.000000
166.071750 44.000000
167.071520 10.000000
167.083370 7.000000
168.050310 8.000000
168.087600 8.000000
168.098180 10.000000
168.403370 7.000000
171.050490 9.000000
171.059330 9.000000
172.031400 8.000000
172.040450 10.000000
174.051640 47.000000
174.059510 27.000000
174.091810 10.000000
175.034260 9.000000
175.060330 163.000000
175.070400 114.000000
176.026490 8.000000
176.059570 152.000000
176.068570 68.000000
176.075580 32.000000
176.120710 9.000000
176.921230 11.000000
177.038500 7.000000
177.064830 257.000000
177.075060 158.000000
177.092420 8.000000
178.057660 22.000000
178.071590 64.000000
179.076390 28.000000
179.088320 45.000000
181.067490 7.000000
185.063430 11.000000
185.818360 9.000000
186.060550 9.000000
187.042070 9.000000
187.054990 25.000000
187.062040 24.000000
187.072780 7.000000
188.051100 11.000000
188.068470 459.000000
188.077090 283.000000
189.031630 7.000000
189.044400 11.000000
189.070890 461.000000
189.087190 24.000000
190.033830 9.000000
190.054950 190.000000
190.084880 1000.000000
190.341870 8.000000
191.043730 18.000000
191.078050 84.000000
191.090090 128.000000
192.039540 10.000000
192.060640 27.000000
192.079470 7.000000
192.097820 20.000000
193.024170 9.000000
193.052540 14.000000
193.063280 30.000000
193.077180 17.000000
193.093830 24.000000
193.127180 9.000000
195.071430 7.000000
195.078660 10.000000
196.078870 9.000000
196.087220 8.000000
198.054440 12.000000
200.083450 11.000000
201.067260 9.000000
201.078960 11.000000
201.122420 8.000000
202.079620 34.000000
203.062040 20.000000
203.075390 20.000000
203.094620 18.000000
203.103580 10.000000
204.031270 16.000000
204.059600 11.000000
204.079940 26.000000
205.023820 7.000000
205.057370 181.000000
205.066450 419.000000
205.090000 9.000000
205.689540 11.000000
206.061600 24.000000
206.069530 48.000000
206.082280 9.000000
207.084140 71.000000
207.105330 13.000000
208.047000 9.000000
208.100110 9.000000
208.110520 11.000000
209.053220 20.000000
209.067280 40.000000
209.079070 9.000000
210.051790 20.000000
215.041500 7.000000
215.070820 7.000000
215.079830 28.000000
216.077120 8.000000
216.465330 12.000000
217.053330 61.000000
217.067490 133.000000
217.092800 7.000000
218.061400 33.000000
218.074390 42.000000
218.094150 15.000000
218.109120 9.000000
218.847200 8.000000
219.050140 8.000000
219.061520 17.000000
219.092480 8.000000
219.104600 13.000000
220.055300 11.000000
220.074160 7.000000
220.089040 23.000000
220.098450 8.000000
220.160770 9.000000
221.050660 16.000000
221.061400 40.000000
221.079930 43.000000
222.056590 16.000000
222.077040 14.000000
222.108440 13.000000
223.061980 16.000000
223.073730 24.000000
223.114720 7.000000
223.521480 7.000000
224.065670 9.000000
225.056980 8.000000
225.081380 7.000000
226.087020 9.000000
227.065800 10.000000
228.074510 11.000000
229.896150 8.000000
231.057920 9.000000
231.070160 8.000000
232.083160 25.000000
233.037380 17.000000
233.048860 61.000000
233.064000 398.000000
233.101430 9.000000
234.040990 8.000000
234.057010 18.000000
234.071690 26.000000
234.084520 21.000000
234.096500 77.000000
235.066940 66.000000
235.075580 157.000000
236.044800 11.000000
236.068220 68.000000
236.076420 66.000000
236.110380 30.000000
236.134810 8.000000
236.573440 12.000000
237.055730 9.000000
237.070280 16.000000
238.116230 20.000000
239.064680 7.000000
243.834010 11.000000
245.046620 14.000000
245.060470 121.000000
245.073300 93.000000
246.043080 11.000000
246.062040 57.000000
246.073910 52.000000
246.087650 39.000000
247.069980 98.000000
247.079220 70.000000
247.088530 44.000000
247.102910 8.000000
248.063920 66.000000
248.075550 26.000000
249.043300 10.000000
249.056410 17.000000
249.072360 22.000000
249.081970 19.000000
249.090740 18.000000
250.045520 8.000000
250.077850 51.000000
250.092880 92.000000
251.051930 9.000000
251.071150 41.000000
251.089800 34.000000
252.043490 11.000000
252.093930 27.000000
252.726810 12.000000
258.104860 7.000000
258.680360 7.000000
258.874660 13.000000
259.049010 7.000000
260.054200 13.000000
260.064360 9.000000
261.034360 60.000000
261.054870 107.000000
261.067840 48.000000
261.078860 24.000000
261.088590 17.000000
261.520020 10.000000
262.005190 7.000000
262.034880 9.000000
262.049870 20.000000
262.062900 33.000000
262.073460 52.000000
262.094120 128.000000
262.444980 10.000000
263.030520 7.000000
263.072940 43.000000
263.088380 80.000000
263.099950 88.000000
263.457090 11.000000
264.063540 9.000000
264.077180 35.000000
264.091370 49.000000
264.102630 103.000000
264.301970 10.000000
265.085420 13.000000
265.094180 23.000000
266.061830 14.000000
266.086730 10.000000
266.108220 19.000000
266.124020 9.000000
268.131410 8.000000
268.142610 9.000000
268.332610 8.000000
269.073490 13.000000
272.060730 9.000000
272.071380 11.000000
273.063900 37.000000
273.074950 23.000000
273.157320 10.000000
274.006160 7.000000
274.055790 18.000000
274.070680 9.000000
274.093080 64.000000
275.053380 8.000000
275.063290 11.000000
275.088170 26.000000
275.105590 9.000000
275.968510 8.000000
276.057010 43.000000
276.068940 53.000000
276.105740 124.000000
277.033140 7.000000
277.065430 39.000000
277.079900 27.000000
277.096470 15.000000
277.129880 10.000000
277.991580 8.000000
278.066440 16.000000
278.081020 35.000000
278.094020 12.000000
278.158480 10.000000
279.060610 9.000000
279.071960 8.000000
279.090730 18.000000
280.100250 18.000000
281.064330 9.000000
288.085540 10.000000
288.105350 8.000000
289.072420 24.000000
289.969790 9.000000
290.047700 16.000000
290.075780 50.000000
291.050140 8.000000
291.062900 41.000000
291.084870 30.000000
291.102080 14.000000
292.068790 25.000000
292.085080 62.000000
292.104580 53.000000
293.087130 7.000000
293.128110 9.000000
293.733920 9.000000
294.057680 14.000000
294.077180 59.000000
294.103610 39.000000
295.041840 19.000000
295.077670 8.000000
297.114840 8.000000
300.988490 11.000000
301.042510 10.000000
301.121730 7.000000
303.047210 7.000000
303.061770 26.000000
303.077730 16.000000
304.044010 8.000000
304.057620 41.000000
304.087800 49.000000
304.828250 11.000000
305.044590 10.000000
305.058900 14.000000
305.082240 26.000000
305.108580 14.000000
305.118070 8.000000
305.845920 9.000000
306.070560 33.000000
306.101750 17.000000
306.115810 11.000000
307.057310 16.000000
307.067320 16.000000
308.073910 18.000000
308.092560 35.000000
308.110260 26.000000
309.094700 7.000000
315.813390 14.000000
315.949620 8.000000
318.069460 48.000000
318.089900 43.000000
319.085570 23.000000
320.065430 39.000000
320.087590 311.000000
320.104100 123.000000
320.122310 10.000000
321.090270 40.000000
321.101140 31.000000
322.099400 11.000000
322.114780 16.000000
332.082180 7.000000
333.097380 7.000000
334.093840 9.000000
334.104520 15.000000
335.107390 7.000000
336.091400 33.000000
337.081180 23.000000
381.325010 9.000000

>ms2
135.042680 9.000000
149.062210 15.000000
161.061230 6.000000
163.072800 7.000000
176.068310 21.000000
188.071230 208.000000
189.075300 77.000000
190.050830 37.000000
190.086870 440.000000
191.091770 52.000000
192.090760 6.000000
204.067170 8.000000
205.066540 26.000000
206.069030 5.000000
218.068120 6.000000
221.055330 7.000000
223.074980 7.000000
232.076920 5.000000
233.060120 36.000000
235.073000 14.000000
235.084460 6.000000
236.075300 5.000000
247.071140 8.000000
247.080870 9.000000
251.074020 6.000000
261.048280 5.000000
261.059450 10.000000
262.089020 7.000000
263.069670 27.000000
264.069980 11.000000
275.079320 5.000000
276.102540 18.000000
279.068210 10.000000
281.088870 10.000000
291.064450 26.000000
293.082060 8.000000
294.077970 7.000000
294.101380 9.000000
294.118620 8.000000
303.068450 78.000000
304.065640 23.000000
304.092860 11.000000
306.100190 10.000000
308.096220 5.000000
309.073520 16.000000
309.103640 8.000000
319.076870 6.000000
319.090120 9.000000
320.067260 10.000000
320.093630 115.000000
321.064850 9.000000
321.085080 21.000000
321.096470 14.000000
322.082860 8.000000
322.111940 22.000000
323.094090 9.000000
324.128110 8.000000
333.094540 6.000000
334.057710 5.000000
334.107090 134.000000
335.112550 41.000000
336.122530 7.000000
337.098570 21.000000
352.069790 13.000000
352.118160 1000.000000
353.121700 240.000000
354.124730 25.000000
380.149840 42.000000
381.163480 5.000000
382.154300 7.000000
398.120970 6.000000
398.159580 939.000000
398.217500 10.000000

>ms2
188.074710 14.000000
190.085210 18.000000
352.118350 184.000000
353.108180 13.000000
353.125270 33.000000
380.151980 6.000000
398.109800 8.000000
398.160640 1000.000000
398.217320 21.000000

>ms2
119.051030 20.000000
131.045900 8.000000
135.042970 21.000000
148.049090 11.000000
149.014600 8.000000
149.028340 6.000000
149.058260 29.000000
149.064650 22.000000
150.061890 6.000000
159.065980 10.000000
161.071060 6.000000
163.041900 10.000000
163.073290 11.000000
175.049010 7.000000
176.066070 12.000000
176.073560 34.000000
177.044510 7.000000
188.070240 411.000000
189.070050 66.000000
189.078780 68.000000
189.090190 8.000000
190.041050 6.000000
190.053470 62.000000
190.086810 1000.000000
191.071150 7.000000
191.084300 51.000000
191.092120 150.000000
192.087950 9.000000
204.064360 9.000000
205.046880 10.000000
205.070110 23.000000
207.072400 8.000000
207.080460 9.000000
209.054020 7.000000
217.066060 17.000000
221.059160 11.000000
223.073260 13.000000
223.086910 6.000000
233.055740 9.000000
233.063160 24.000000
234.060070 9.000000
235.062360 12.000000
235.079380 71.000000
236.063310 8.000000
236.077790 7.000000
237.056630 18.000000
246.068020 5.000000
247.065980 12.000000
247.077530 16.000000
248.086810 7.000000
248.100570 6.000000
250.068160 7.000000
251.054080 12.000000
251.068830 37.000000
251.085210 8.000000
259.073610 7.000000
261.048000 19.000000
261.058350 27.000000
261.073430 7.000000
262.054350 8.000000
263.056060 17.000000
263.071780 63.000000
263.083590 15.000000
264.072480 19.000000
264.096710 13.000000
265.089050 10.000000
266.118620 7.000000
267.066990 22.000000
268.132870 20.000000
269.125060 5.000000
269.143130 17.000000
273.041200 8.000000
275.062840 37.000000
275.074220 20.000000
276.076170 18.000000
276.100590 26.000000
279.066710 28.000000
279.090970 6.000000
280.065250 6.000000
280.077180 5.000000
281.075040 6.000000
281.090730 8.000000
291.036130 8.000000
291.062470 92.000000
291.076320 39.000000
291.092930 6.000000
292.056580 6.000000
292.074650 17.000000
292.094910 11.000000
293.077420 68.000000
293.101530 9.000000
294.103030 31.000000
295.122650 8.000000
303.036010 9.000000
303.066470 215.000000
303.077270 61.000000
304.063110 24.000000
304.078640 28.000000
304.099760 29.000000
305.080660 14.000000
305.101200 7.000000
306.071380 16.000000
306.094730 18.000000
306.115780 13.000000
307.067720 9.000000
307.085240 11.000000
308.068330 5.000000
308.080690 19.000000
308.094880 8.000000
308.106050 7.000000
309.078280 25.000000
309.095000 18.000000
309.104610 15.000000
319.073640 13.000000
319.088810 17.000000
320.091280 299.000000
321.068180 12.000000
321.090210 49.000000
321.103210 30.000000
321.118230 6.000000
322.065430 6.000000
322.098300 56.000000
322.116670 12.000000
323.124180 15.000000
324.090180 5.000000
324.113370 21.000000
324.129300 25.000000
333.095550 12.000000
334.107390 460.000000
335.109410 111.000000
336.096070 6.000000
336.117610 17.000000
337.069890 9.000000
337.093290 54.000000
337.103300 25.000000
338.096890 20.000000
350.103270 8.000000
350.119170 5.000000
351.109310 6.000000
352.117100 600.000000
353.104920 30.000000
353.121310 153.000000
354.123840 25.000000
354.136660 11.000000

>ms2
77.034480 9.000000
77.039980 19.000000
78.042240 6.000000
79.049950 21.000000
79.059040 15.000000
89.040530 9.000000
91.051050 12.000000
91.056160 7.000000
92.058810 16.000000
93.070680 8.000000
94.069050 8.000000
99.669470 6.000000
102.047520 5.000000
103.051030 43.000000
104.052600 31.000000
104.062070 8.000000
105.031110 17.000000
105.056370 14.000000
105.069060 7.000000
107.073100 5.000000
111.151640 13.000000
114.520200 8.000000
115.055040 13.000000
116.065040 7.000000
117.032340 7.000000
117.038540 7.000000
117.055830 22.000000
117.071590 6.000000
118.064160 36.000000
118.072650 12.000000
119.039680 5.000000
119.047650 27.000000
119.055410 11.000000
119.062200 6.000000
119.074660 21.000000
120.055860 7.000000
120.068850 8.000000
127.787910 5.000000
127.889960 9.000000
128.038740 8.000000
128.055220 12.000000
129.063430 6.000000
130.052930 8.000000
130.067570 76.000000
131.032700 7.000000
131.050780 111.000000
131.066650 39.000000
131.074550 67.000000
131.478210 6.000000
132.059520 18.000000
132.079210 59.000000
132.090120 15.000000
133.024660 7.000000
133.045610 7.000000
133.054370 15.000000
133.064560 5.000000
133.080600 11.000000
134.059360 7.000000
135.030670 10.000000
135.043590 74.000000
136.046980 12.000000
144.046280 7.000000
144.082490 5.000000
145.034450 11.000000
145.044570 6.000000
145.061680 16.000000
146.049120 5.000000
146.057570 21.000000
146.065350 11.000000
147.025090 7.000000
147.043380 90.000000
147.068740 8.000000
147.912380 6.000000
148.029390 9.000000
148.039280 14.000000
148.055330 28.000000
148.069110 5.000000
149.047350 15.000000
149.058880 27.000000
149.066150 26.000000
150.067840 6.000000
150.640930 6.000000
151.055040 6.000000
152.057820 14.000000
152.065960 34.000000
153.063640 6.000000
153.072420 6.000000
154.056870 8.000000
154.075740 14.000000
158.039410 7.000000
158.058090 14.000000
159.037950 8.000000
159.044010 27.000000
159.051640 7.000000
159.063660 41.000000
159.074810 22.000000
160.028580 12.000000
160.038480 19.000000
160.077000 129.000000
160.991590 8.000000
161.031620 7.000000
161.044310 31.000000
161.058500 64.000000
161.077320 8.000000
162.058990 14.000000
162.066960 15.000000
162.087620 6.000000
163.040020 93.000000
163.066650 18.000000
163.101270 6.000000
164.047840 6.000000
164.911800 7.000000
165.056140 10.000000
165.067860 102.000000
165.077960 41.000000
166.051040 7.000000
166.072630 7.000000
166.081410 26.000000
166.217330 5.000000
167.061490 8.000000
167.085660 6.000000
169.054670 11.000000
171.028630 6.000000
172.031710 5.000000
173.053880 14.000000
174.050060 28.000000
174.062240 24.000000
175.036360 8.000000
175.056530 85.000000
175.067000 92.000000
176.027470 6.000000
176.038350 28.000000
176.049800 14.000000
176.062470 124.000000
176.071080 58.000000
176.108320 5.000000
176.940260 6.000000
177.045330 16.000000
177.069660 254.000000
177.090360 15.000000
177.354830 6.000000
178.055300 11.000000
178.067180 86.000000
178.076870 36.000000
178.095900 16.000000
179.064580 14.000000
179.074750 22.000000
179.088380 89.000000
179.101550 9.000000
179.210630 6.000000
179.684250 6.000000
180.087480 15.000000
181.062910 6.000000
183.070430 10.000000
186.064330 8.000000
187.043880 6.000000
187.064070 28.000000
188.028900 5.000000
188.069470 547.000000
188.427470 5.000000
189.017730 6.000000
189.046980 9.000000
189.067020 253.000000
189.076350 268.000000
189.096660 5.000000
190.053700 96.000000
190.085980 1000.000000
191.036710 6.000000
191.058620 37.000000
191.082790 93.000000
191.092150 83.000000
192.056290 32.000000
192.092860 23.000000
193.039310 10.000000
193.060420 51.000000
193.073120 17.000000
193.087360 7.000000
193.503170 11.000000
195.032040 13.000000
195.043170 8.000000
195.083240 20.000000
196.049090 8.000000
197.052720 10.000000
197.091980 7.000000
200.067670 13.000000
200.387020 6.000000
200.676770 6.000000
201.068570 15.000000
201.082030 12.000000
202.069870 20.000000
202.082920 36.000000
203.041750 7.000000
203.060730 15.000000
203.074710 17.000000
203.084750 6.000000
203.096500 13.000000
204.050480 12.000000
204.081860 60.000000
204.093570 9.000000
205.064930 624.000000
205.867550 8.000000
206.042690 7.000000
206.057390 20.000000
206.072450 75.000000
206.088230 11.000000
206.661590 6.000000
207.053670 14.000000
207.063930 13.000000
207.073470 19.000000
207.089200 7.000000
207.098050 5.000000
207.548550 8.000000
207.861340 11.000000
208.075610 30.000000
208.112990 7.000000
209.059800 99.000000
209.870100 6.000000
211.061840 6.000000
211.291900 5.000000
213.082920 7.000000
215.051620 8.000000
216.035870 7.000000
216.080580 8.000000
216.493680 8.000000
217.047740 25.000000
217.063720 50.000000
217.074570 62.000000
218.052470 16.000000
218.074420 66.000000
218.096650 69.000000
218.263580 7.000000
219.072070 48.000000
219.084110 30.000000
219.104230 7.000000
220.069430 11.000000
220.077290 21.000000
220.111890 12.000000
221.057130 58.000000
221.074680 12.000000
221.114750 6.000000
221.974430 6.000000
222.070950 33.000000
222.090380 16.000000
222.309270 7.000000
223.073930 56.000000
223.100800 7.000000
225.064610 7.000000
225.081560 6.000000
227.080950 7.000000
228.091050 10.000000
231.051960 17.000000
231.073010 7.000000
232.070190 20.000000
232.081650 15.000000
232.111500 13.000000
232.984650 5.000000
233.037520 8.000000
233.062330 359.000000
233.081530 31.000000
233.437770 5.000000
233.834920 5.000000
234.055680 28.000000
234.067550 50.000000
234.093190 74.000000
234.461210 7.000000
235.031520 5.000000
235.064820 50.000000
235.076870 149.000000
235.099530 16.000000
235.109990 6.000000
235.188480 7.000000
236.067780 30.000000
236.085400 21.000000
237.067580 7.000000
237.081540 13.000000
238.058360 7.000000
238.089680 9.000000
239.099900 8.000000
239.896940 5.000000
243.025920 5.000000
243.055390 7.000000
244.090130 6.000000
245.042850 20.000000
245.064270 105.000000
245.704180 13.000000
246.057500 13.000000
246.066800 14.000000
246.078490 24.000000
246.092650 9.000000
246.541080 5.000000
247.049090 33.000000
247.064770 57.000000
247.076800 98.000000
247.090610 15.000000
247.106800 14.000000
248.040540 5.000000
248.060790 46.000000
248.080020 35.000000
248.091080 18.000000
248.106260 12.000000
248.263090 7.000000
249.034150 8.000000
249.056960 12.000000
249.071840 27.000000
249.084140 33.000000
249.095630 7.000000
249.117920 6.000000
249.231020 6.000000
250.033860 6.000000
250.081330 52.000000
250.093320 45.000000
250.104190 14.000000
250.119020 11.000000
251.066710 10.000000
251.077150 11.000000
251.092410 26.000000
252.101410 11.000000
254.870740 6.000000
256.070860 14.000000
259.045470 11.000000
259.072600 13.000000
259.379430 6.000000
260.065860 13.000000
261.000060 17.000000
261.045620 31.000000
261.057710 69.000000
261.080960 47.000000
261.095430 6.000000
262.061920 34.000000
262.086790 138.000000
262.393040 13.000000
263.067020 52.000000
263.078860 66.000000
263.098450 53.000000
263.195130 6.000000
264.053280 5.000000
264.066680 5.000000
264.075780 7.000000
264.101620 16.000000
264.112700 9.000000
264.439180 5.000000
265.072110 8.000000
265.080750 8.000000
265.100430 9.000000
266.038790 8.000000
266.063350 13.000000
266.109680 15.000000
267.131410 9.000000
268.122410 8.000000
268.132050 8.000000
272.063350 6.000000
273.049680 42.000000
274.064790 10.000000
274.090060 8.000000
274.414310 5.000000
275.048310 15.000000
275.065460 6.000000
275.078640 12.000000
275.111880 6.000000
276.063690 47.000000
276.071440 31.000000
276.096160 66.000000
276.109800 22.000000
276.226350 8.000000
276.901820 7.000000
277.062010 52.000000
277.076720 78.000000
277.105100 6.000000
277.116390 7.000000
278.047120 6.000000
278.075900 65.000000
278.093110 30.000000
278.131410 14.000000
279.060390 5.000000
279.079040 13.000000
279.098180 13.000000
280.078860 6.000000
280.090360 6.000000
287.886660 8.000000
288.054960 15.000000
288.089450 30.000000
289.043950 5.000000
289.076020 13.000000
289.088810 10.000000
290.066310 34.000000
290.082580 50.000000
290.859340 8.000000
291.070070 32.000000
291.096310 20.000000
292.042880 6.000000
292.053440 7.000000
292.076350 19.000000
292.098660 153.000000
292.141690 5.000000
293.074040 28.000000
293.092900 20.000000
293.108150 49.000000
293.409300 6.000000
293.739750 6.000000
294.072720 29.000000
294.087370 47.000000
294.119320 6.000000
294.135310 5.000000
294.184510 8.000000
301.055450 21.000000
302.042330 7.000000
303.050900 18.000000
303.065250 50.000000
303.098690 5.000000
304.058260 10.000000
304.083830 6.000000
304.107240 15.000000
305.074070 36.000000
305.096500 14.000000
305.131710 6.000000
305.727200 6.000000
306.079410 43.000000
306.094940 6.000000
306.123660 8.000000
307.072910 6.000000
308.078160 12.000000
308.088500 15.000000
308.102540 19.000000
309.073520 5.000000
309.087070 11.000000
309.096740 16.000000
309.113070 11.000000
309.731170 6.000000
310.122960 8.000000
311.102330 5.000000
317.071260 8.000000
318.067780 48.000000
318.084470 36.000000
318.099580 8.000000
319.080510 51.000000
320.037320 6.000000
320.065770 12.000000
320.093380 405.000000
321.070070 5.000000
321.089870 15.000000
321.102750 34.000000
322.067170 6.000000
322.087310 22.000000
322.126680 10.000000
323.114590 18.000000
324.091000 6.000000
325.114900 6.000000
325.130860 5.000000
332.044430 11.000000
332.100220 6.000000
334.076230 10.000000
334.091190 6.000000
334.113950 37.000000
335.116490 8.000000
336.072480 5.000000
350.110720 6.000000
352.121250 8.000000

>ms2
135.045580 13.000000
149.056140 6.000000
149.063000 13.000000
159.043440 6.000000
160.077580 7.000000
163.075580 6.000000
176.071140 12.000000
188.070660 232.000000
189.060060 6.000000
189.076630 66.000000
190.050780 20.000000
190.087310 443.000000
191.091550 74.000000
204.066910 6.000000
205.063130 14.000000
205.072510 8.000000
217.074040 6.000000
223.056590 5.000000
233.058210 16.000000
233.066590 9.000000
234.066600 9.000000
235.078020 23.000000
247.074020 22.000000
251.064210 8.000000
251.077970 5.000000
261.059540 16.000000
262.062590 5.000000
262.083250 7.000000
263.061130 9.000000
263.075410 22.000000
264.077360 12.000000
264.111480 5.000000
265.077790 8.000000
275.070920 13.000000
276.103730 21.000000
278.107760 6.000000
291.068020 44.000000
292.066770 7.000000
292.081570 6.000000
293.076930 16.000000
293.107570 5.000000
294.077030 13.000000
294.093540 5.000000
294.121370 6.000000
303.066650 93.000000
304.066860 23.000000
304.103360 10.000000
306.082000 9.000000
306.101650 6.000000
307.089260 9.000000
308.089230 5.000000
309.085570 6.000000
319.082030 11.000000
320.094240 132.000000
321.067990 8.000000
321.092010 39.000000
321.108730 5.000000
322.091220 9.000000
322.109040 13.000000
324.118010 6.000000
324.130160 8.000000
325.131590 6.000000
333.110570 5.000000
334.082790 11.000000
334.109920 160.000000
335.113770 37.000000
336.084560 6.000000
336.113250 10.000000
337.088230 14.000000
337.101470 17.000000
338.102660 6.000000
352.070650 10.000000
352.118190 1000.000000
353.121120 224.000000
354.104220 9.000000
354.123690 27.000000
355.127260 5.000000
380.124970 5.000000
380.145750 17.000000
380.164670 7.000000
398.099910 6.000000
398.112850 5.000000
398.158630 802.000000
398.216090 9.000000

>ms2
188.068650 12.000000
190.086380 20.000000
352.118130 186.000000
353.122560 48.000000
380.147670 12.000000
398.098850 6.000000
398.159480 1000.000000
398.217250 18.000000

>ms2
91.055680 6.000000
119.048030 10.000000
131.045670 6.000000
135.044460 21.000000
147.048230 7.000000
148.054530 9.000000
149.056960 21.000000
149.065200 12.000000
159.064190 5.000000
161.063030 15.000000
163.075060 15.000000
174.052640 10.000000
175.037700 8.000000
175.065370 8.000000
176.069960 30.000000
177.075730 9.000000
177.083250 5.000000
178.074920 5.000000
188.070160 309.000000
189.076140 115.000000
190.044660 21.000000
190.053760 15.000000
190.086500 1000.000000
191.053210 5.000000
191.088440 117.000000
192.097260 7.000000
195.082460 9.000000
203.094070 6.000000
204.060970 11.000000
205.067990 16.000000
206.065410 6.000000
207.085450 9.000000
217.066130 12.000000
219.067900 5.000000
225.087170 5.000000
233.037140 6.000000
233.061490 41.000000
234.056560 9.000000
235.071200 33.000000
235.085430 9.000000
236.081510 16.000000
237.052570 12.000000
247.073940 23.000000
247.083770 10.000000
250.084760 5.000000
251.071500 38.000000
261.043610 6.000000
261.058530 29.000000
261.071780 7.000000
262.052090 8.000000
262.069580 7.000000
263.049500 15.000000
263.071500 92.000000
264.072480 9.000000
264.096130 6.000000
265.103790 8.000000
267.066990 9.000000
268.128750 10.000000
268.141540 12.000000
269.134250 5.000000
275.069760 48.000000
276.079860 12.000000
276.103790 32.000000
277.101780 6.000000
278.087830 8.000000
278.116030 9.000000
279.065800 27.000000
281.078060 22.000000
281.096890 7.000000
289.071780 7.000000
291.065950 69.000000
292.068420 20.000000
293.081790 17.000000
293.094880 8.000000
294.075040 10.000000
294.102910 18.000000
294.116270 11.000000
295.057280 6.000000
295.089510 7.000000
303.065030 214.000000
304.064760 28.000000
304.097780 25.000000
305.086430 12.000000
305.115300 5.000000
306.064820 7.000000
306.082700 7.000000
306.101470 10.000000
306.116460 12.000000
307.092590 12.000000
308.085940 17.000000
308.102200 13.000000
309.074250 35.000000
309.101290 6.000000
317.078770 6.000000
319.081390 29.000000
320.092070 261.000000
321.073820 12.000000
321.096310 81.000000
322.070470 19.000000
322.107700 66.000000
323.083830 5.000000
323.104520 5.000000
323.113740 14.000000
324.125520 31.000000
325.119200 6.000000
332.081090 9.000000
333.098910 23.000000
334.070620 10.000000
334.107540 344.000000
335.109190 70.000000
335.119230 30.000000
336.081390 7.000000
336.106350 17.000000
336.123500 8.000000
337.086240 30.000000
337.097840 27.000000
337.119480 8.000000
338.102870 11.000000
351.102110 7.000000
352.083400 11.000000
352.117710 539.000000
353.120880 121.000000
354.121150 17.000000
380.133610 8.000000

>ms2
51.015140 8.000000
55.345260 8.000000
56.049960 8.000000
77.036270 8.000000
77.045360 9.000000
79.052240 8.000000
79.059780 10.000000
89.038310 16.000000
91.055340 62.000000
93.070260 7.000000
95.051170 6.000000
100.897320 8.000000
103.055470 95.000000
104.036920 7.000000
104.042140 7.000000
104.050900 13.000000
104.063650 31.000000
104.070710 7.000000
105.020240 8.000000
105.032160 7.000000
105.073090 18.000000
106.072750 7.000000
107.057720 9.000000
110.900900 8.000000
112.543670 8.000000
117.057530 20.000000
118.046100 11.000000
118.055310 14.000000
118.069140 19.000000
118.435320 6.000000
119.043760 8.000000
119.050240 23.000000
119.073200 11.000000
120.039770 6.000000
120.060980 7.000000
121.032540 7.000000
127.847940 6.000000
128.055820 6.000000
129.039950 7.000000
130.011170 11.000000
130.035060 22.000000
130.044780 10.000000
130.063750 42.000000
131.048540 80.000000
131.058620 15.000000
131.071660 105.000000
132.039470 24.000000
132.052780 10.000000
132.059220 32.000000
132.083160 58.000000
132.091610 11.000000
133.056610 11.000000
133.071560 18.000000
134.095340 12.000000
135.028150 10.000000
135.041460 54.000000
135.051410 27.000000
135.102110 7.000000
135.197020 8.000000
137.037030 9.000000
138.063140 13.000000
139.050050 6.000000
142.103900 9.000000
143.057370 9.000000
143.918410 6.000000
144.043980 10.000000
144.077130 10.000000
144.084630 20.000000
145.033250 9.000000
145.044190 8.000000
145.054080 7.000000
145.063100 19.000000
145.072620 11.000000
146.064700 18.000000
146.128050 6.000000
146.393550 6.000000
147.028140 6.000000
147.043380 52.000000
147.073880 11.000000
147.872100 7.000000
148.039180 6.000000
148.045910 8.000000
148.055940 16.000000
149.045960 17.000000
149.059980 64.000000
149.071040 25.000000
150.408510 12.000000
151.055190 8.000000
152.032870 7.000000
152.049210 6.000000
152.058620 30.000000
152.065190 20.000000
152.074280 17.000000
153.065370 14.000000
155.072040 10.000000
158.059480 19.000000
158.066830 46.000000
159.028400 7.000000
159.045390 74.000000
159.059160 17.000000
159.069350 48.000000
159.079620 19.000000
160.046860 14.000000
160.066530 39.000000
160.075300 68.000000
160.081830 53.000000
160.090930 14.000000
161.041960 40.000000
161.049070 39.000000
161.057220 68.000000
161.070940 11.000000
161.078750 8.000000
161.090990 14.000000
162.029220 10.000000
162.055070 39.000000
162.064640 22.000000
162.075590 28.000000
163.035430 40.000000
163.049590 27.000000
163.069140 15.000000
163.895830 6.000000
164.058270 24.000000
165.050450 10.000000
165.055690 28.000000
165.071150 88.000000
165.237430 9.000000
166.054340 9.000000
166.070740 15.000000
166.080180 8.000000
167.072620 10.000000
167.089230 18.000000
168.095660 6.000000
172.050700 8.000000
173.046880 10.000000
174.057740 74.000000
174.084790 15.000000
174.352750 10.000000
175.041930 19.000000
175.049590 42.000000
175.062290 97.000000
176.034670 6.000000
176.048460 7.000000
176.058490 30.000000
176.068850 93.000000
177.047040 9.000000
177.068650 408.000000
178.066300 21.000000
178.078750 55.000000
178.087740 9.000000
179.044690 6.000000
179.075070 24.000000
179.090160 58.000000
179.101750 8.000000
180.067520 13.000000
180.091770 10.000000
181.060060 18.000000
181.071370 14.000000
181.095750 7.000000
182.055690 7.000000
182.066680 7.000000
182.636050 7.000000
185.190020 8.000000
187.052190 7.000000
187.069470 6.000000
187.338790 7.000000
187.798680 7.000000
188.042450 29.000000
188.071350 474.000000
189.043060 13.000000
189.068070 306.000000
189.078540 229.000000
190.047870 44.000000
190.056030 81.000000
190.085630 1000.000000
191.052900 31.000000
191.070310 17.000000
191.078140 65.000000
191.092440 143.000000
191.104970 14.000000
192.051220 7.000000
192.064730 8.000000
192.086110 19.000000
193.060640 45.000000
193.088930 28.000000
193.431720 7.000000
194.068510 15.000000
194.076980 14.000000
195.035340 6.000000
195.067020 7.000000
195.083310 8.000000
196.087710 6.000000
198.069600 9.000000
199.619340 6.000000
199.904820 6.000000
200.064820 6.000000
201.088760 11.000000
202.078220 6.000000
202.097110 20.000000
203.070300 16.000000
203.085980 7.000000
203.108930 8.000000
204.046260 15.000000
204.072250 8.000000
204.084400 11.000000
204.100010 13.000000
204.654910 7.000000
205.061550 533.000000
205.077390 129.000000
205.100710 9.000000
206.057850 14.000000
206.071380 97.000000
206.088320 20.000000
206.105710 39.000000
207.052760 12.000000
207.066250 7.000000
207.074510 7.000000
207.091800 24.000000
208.047180 15.000000
208.068340 8.000000
209.048800 8.000000
209.060320 45.000000
209.077770 8.000000
210.059620 23.000000
210.071000 7.000000
210.097960 11.000000
214.069640 9.000000
215.043520 30.000000
215.067840 6.000000
216.016400 9.000000
216.059420 7.000000
217.045750 15.000000
217.066090 108.000000
217.080320 26.000000
217.090120 10.000000
218.047670 8.000000
218.057540 9.000000
218.068330 13.000000
218.078160 20.000000
218.093400 45.000000
218.105040 42.000000
219.056590 37.000000
219.072540 38.000000
219.087050 34.000000
219.171190 7.000000
220.048770 20.000000
220.068240 6.000000
220.081380 18.000000
220.124530 6.000000
221.049160 20.000000
221.060180 25.000000
221.072650 19.000000
221.093510 28.000000
221.217830 6.000000
221.540620 14.000000
222.043490 6.000000
222.059540 27.000000
222.082290 6.000000
222.092290 10.000000
222.101410 7.000000
223.067550 27.000000
223.084670 6.000000
224.066680 7.000000
224.075840 7.000000
225.076420 6.000000
226.046300 7.000000
226.095930 10.000000
227.075610 6.000000
229.582930 7.000000
231.047070 7.000000
231.084520 7.000000
232.035980 6.000000
232.049930 14.000000
232.069260 7.000000
232.078310 29.000000
233.015200 7.000000
233.045100 44.000000
233.052310 76.000000
233.064800 131.000000
233.082490 21.000000
233.095950 6.000000
233.103210 8.000000
234.043500 35.000000
234.055190 22.000000
234.074340 14.000000
234.088390 27.000000
234.102020 24.000000
235.026060 16.000000
235.052630 11.000000
235.068540 87.000000
235.083250 35.000000
235.099140 9.000000
236.036190 6.000000
236.056500 18.000000
236.071580 108.000000
236.095700 11.000000
236.110720 46.000000
236.990040 6.000000
237.050870 9.000000
237.067840 8.000000
237.103670 9.000000
238.080980 6.000000
245.030150 7.000000
245.041150 22.000000
245.057830 70.000000
246.041410 18.000000
246.060610 44.000000
246.072680 19.000000
246.086900 28.000000
246.096370 27.000000
246.113980 8.000000
247.058880 26.000000
247.079320 102.000000
247.105530 28.000000
247.122680 6.000000
248.051670 10.000000
248.063340 46.000000
248.079030 82.000000
248.105420 8.000000
249.027130 13.000000
249.044190 13.000000
249.056790 34.000000
249.071140 14.000000
249.082340 20.000000
249.092470 9.000000
249.105000 10.000000
249.122960 10.000000
250.061080 12.000000
250.083710 91.000000
250.107130 10.000000
251.046420 6.000000
251.072010 29.000000
251.083820 22.000000
252.057540 8.000000
259.050260 6.000000
259.062680 7.000000
260.045040 6.000000
260.066960 13.000000
261.046600 52.000000
261.063480 86.000000
261.084110 42.000000
262.002010 7.000000
262.034330 6.000000
262.042240 7.000000
262.056370 21.000000
262.070650 69.000000
262.083010 68.000000
262.098390 24.000000
262.260280 6.000000
263.044040 6.000000
263.061950 25.000000
263.079040 55.000000
263.093290 28.000000
263.109590 15.000000
264.062870 38.000000
264.080840 48.000000
264.100100 17.000000
264.112640 15.000000
264.405610 6.000000
265.039790 7.000000
265.061770 22.000000
265.111150 7.000000
266.060330 11.000000
266.079440 6.000000
266.112060 7.000000
267.069400 19.000000
268.131770 8.000000
268.304660 11.000000
273.050480 7.000000
273.068150 8.000000
274.066440 17.000000
274.092620 10.000000
275.060360 52.000000
275.078890 13.000000
275.091770 23.000000
276.052190 19.000000
276.070340 26.000000
276.085630 49.000000
276.102970 38.000000
276.112090 42.000000
277.056370 13.000000
277.069950 80.000000
277.101590 18.000000
277.118840 8.000000
277.303590 6.000000
278.049530 12.000000
278.074430 72.000000
278.099730 10.000000
278.120240 6.000000
279.092220 22.000000
279.111690 8.000000
280.062840 7.000000
280.089320 6.000000
280.138920 6.000000
288.061980 7.000000
289.089020 8.000000
289.100620 6.000000
290.068080 16.000000
290.090580 36.000000
291.071200 26.000000
291.083250 26.000000
291.093020 14.000000
292.050290 7.000000
292.068420 29.000000
292.087190 44.000000
292.107060 52.000000
292.129330 15.000000
293.037140 7.000000
293.054500 9.000000
293.065640 7.000000
293.079590 15.000000
293.097020 27.000000
293.534150 6.000000
294.040010 7.000000
294.062100 21.000000
294.080960 47.000000
294.099610 8.000000
294.152500 7.000000
295.066280 13.000000
296.120150 6.000000
296.994780 8.000000
301.048160 8.000000
303.008330 7.000000
303.056520 30.000000
303.071590 25.000000
303.093080 7.000000
304.052950 6.000000
304.068020 46.000000
304.082730 7.000000
304.107480 40.000000
304.118190 19.000000
305.030550 8.000000
305.047730 6.000000
305.066100 18.000000
305.080320 9.000000
305.096770 14.000000
305.108920 12.000000
305.127750 12.000000
305.444310 8.000000
306.080260 32.000000
306.091030 15.000000
306.113590 21.000000
307.072630 9.000000
308.084810 37.000000
308.099520 21.000000
309.097260 10.000000
316.047210 10.000000
318.064730 27.000000
318.084660 8.000000
318.103120 6.000000
319.073790 25.000000
319.094060 38.000000
319.104000 10.000000
320.059660 42.000000
320.084720 233.000000
320.105470 104.000000
321.058530 9.000000
321.086330 40.000000
321.101470 12.000000
322.056850 11.000000
322.081360 20.000000
322.098910 32.000000
322.123050 12.000000
323.722500 6.000000
323.906250 6.000000
324.125670 19.000000
324.364230 6.000000
332.085600 9.000000
333.133420 7.000000
334.066500 8.000000
334.097200 15.000000
334.109410 12.000000
334.133730 7.000000
336.109680 7.000000
337.114590 7.000000

