>compound PR30773556
>parentmass 435.1285734
>ionization [M+H]+
>formula C21H22O10
>rt 271.231020
>profile qtof
#smiles_iso C1[C@H](OC2=CC(=CC(=C2C1=O)O)O[C@H]3[C@@H]([C@H]([C@@H]([C@H](O3)CO)O)O)O)C4=CC=C(C=C4)O
#smiles_can C1C(OC2=CC(=CC(=C2C1=O)O)OC3C(C(C(C(O3)CO)O)O)O)C4=CC=C(C=C4)O
#inchikey DLIKSSGEMUFQOK-SFTVRKLSSA-N
#pubchem_id 92794
#mb_accession PR302695,PR302700,PR302705,PR302710,PR302715,PR302720,PR302725,PR302730,PR302735,PR302740,PR302745,PR302750

>ms2peaks
85.027600 8.000000
119.046980 14.000000
147.042970 121.000000
151.026930 9.000000
152.988530 5.000000
153.002750 12.000000
153.018860 348.000000
154.018920 29.000000
157.227890 7.000000
179.030520 8.000000
206.202440 6.000000
231.068730 7.000000
273.075710 1000.000000
274.050290 10.000000
274.066710 30.000000
274.081050 102.000000
274.105590 9.000000
275.076390 28.000000
285.065250 10.000000
381.100430 8.000000
399.115630 5.000000
400.106050 6.000000
435.127870 29.000000
435.144350 26.000000

>ms2peaks
106.640530 8.000000
184.691600 7.000000
273.022770 7.000000
273.075010 1000.000000
274.036530 12.000000
274.080350 130.000000
274.092100 29.000000
275.081910 31.000000
276.090820 6.000000
315.079530 5.000000
417.124540 6.000000
434.129210 10.000000
435.043640 7.000000
435.126890 288.000000

>ms2peaks
85.999890 7.000000
100.299550 6.000000
116.074690 6.000000
119.044580 7.000000
119.051930 18.000000
121.073900 11.000000
123.047130 10.000000
145.150330 8.000000
146.990720 9.000000
147.023590 13.000000
147.036990 95.000000
147.045970 252.000000
147.063570 8.000000
148.045100 41.000000
148.057210 7.000000
148.468960 7.000000
153.002370 35.000000
153.017760 725.000000
154.019870 71.000000
154.415510 8.000000
154.812500 6.000000
155.026260 7.000000
165.052750 7.000000
172.987340 7.000000
179.036710 29.000000
193.855580 14.000000
195.017700 8.000000
195.030000 9.000000
199.080670 11.000000
205.050510 8.000000
244.037170 8.000000
271.259740 7.000000
272.999660 8.000000
273.074950 1000.000000
274.054660 7.000000
274.078580 148.000000
274.092710 27.000000
275.045470 8.000000
275.069580 10.000000
276.100830 9.000000

>ms2peaks
67.017650 46.000000
69.000720 14.000000
71.511280 10.000000
81.033240 13.000000
91.056260 57.000000
91.064220 13.000000
93.069920 15.000000
95.047040 31.000000
95.053380 11.000000
97.024770 44.000000
97.033040 19.000000
107.044860 13.000000
110.028080 14.000000
111.049980 10.000000
119.046560 27.000000
119.050840 76.000000
119.305780 10.000000
120.042300 17.000000
121.064900 17.000000
123.042630 45.000000
123.071240 9.000000
141.066010 10.000000
147.041080 216.000000
147.052050 38.000000
148.047610 72.000000
151.028930 9.000000
153.017460 1000.000000
154.016750 68.000000
154.027050 12.000000
155.023670 9.000000
157.038330 12.000000
165.019150 11.000000
179.023410 17.000000
189.067790 15.000000
195.044110 9.000000
384.203120 9.000000

>ms2peaks
107.048900 10.000000
119.053550 7.000000
147.005620 11.000000
147.034990 23.000000
147.042370 78.000000
147.730930 6.000000
152.994610 21.000000
153.018070 261.000000
153.942860 6.000000
227.012850 7.000000
271.991790 7.000000
272.075160 10.000000
272.493840 8.000000
273.011870 8.000000
273.076600 1000.000000
274.049410 14.000000
274.077360 158.000000
275.062870 7.000000
275.084930 8.000000
287.027890 13.000000
399.101900 12.000000
435.093410 18.000000
435.113740 21.000000
435.132260 54.000000

>ms2peaks
246.805940 7.000000
272.780670 7.000000
273.028500 12.000000
273.046970 19.000000
273.076350 1000.000000
273.103490 7.000000
273.396940 5.000000
274.061430 6.000000
274.079220 92.000000
274.107060 6.000000
275.036930 6.000000
275.089570 28.000000
276.086700 7.000000
290.726260 7.000000
316.065460 6.000000
372.434750 6.000000
379.856780 5.000000
393.990970 5.000000
417.118130 12.000000
435.128450 321.000000
435.181670 9.000000
435.244170 5.000000

>ms2peaks
97.025270 18.000000
107.044600 14.000000
119.054140 17.000000
123.043430 14.000000
147.043730 522.000000
148.050750 79.000000
149.037080 27.000000
149.049760 15.000000
153.018040 538.000000
154.009090 14.000000
154.019200 13.000000
154.404040 12.000000
154.723240 20.000000
155.022720 17.000000
163.069290 12.000000
165.013350 14.000000
167.027450 16.000000
168.217830 13.000000
172.755660 14.000000
193.832550 12.000000
207.021530 15.000000
214.878050 21.000000
231.024890 14.000000
231.069290 10.000000
255.054530 16.000000
261.041380 15.000000
273.023410 12.000000
273.074770 1000.000000
273.101260 33.000000
273.287600 13.000000
273.341160 10.000000
274.043700 19.000000
274.071230 85.000000
274.083280 52.000000
274.469910 11.000000
275.082790 15.000000
275.093990 11.000000
275.751680 13.000000
276.860530 10.000000
292.049470 30.000000
301.972170 19.000000
352.083860 11.000000
377.060210 11.000000

>ms2peaks
67.009380 18.000000
67.016660 15.000000
91.035430 30.000000
91.051710 15.000000
91.057270 48.000000
111.003450 55.000000
119.050990 155.000000
121.066970 30.000000
123.043000 30.000000
125.021090 23.000000
147.029040 38.000000
147.044130 268.000000
149.143520 18.000000
153.018510 1000.000000
154.011400 26.000000
154.027050 27.000000
156.022690 48.000000
165.008990 22.000000
213.780150 51.000000

>ms2peaks
107.039390 6.000000
107.044080 6.000000
119.051210 22.000000
123.047300 9.000000
142.775670 8.000000
147.042210 19.000000
147.048160 23.000000
148.046250 19.000000
148.052400 8.000000
151.045870 18.000000
153.001880 8.000000
153.018260 163.000000
153.540660 6.000000
179.021210 16.000000
179.041080 9.000000
207.838520 8.000000
214.622180 8.000000
243.022710 8.000000
251.586820 9.000000
256.065890 7.000000
273.002260 7.000000
273.015900 7.000000
273.036440 9.000000
273.075260 1000.000000
274.042910 9.000000
274.074800 120.000000
274.088590 67.000000
275.069060 28.000000
275.083560 18.000000
275.100890 7.000000
369.083980 10.000000
435.114870 14.000000
435.143770 8.000000

>ms2peaks
242.225720 7.000000
271.650820 6.000000
273.075740 1000.000000
274.078580 194.000000
275.077060 5.000000
275.088350 8.000000
275.492430 8.000000
282.213320 6.000000
302.145140 6.000000
343.049500 10.000000
347.035460 10.000000
435.056400 7.000000
435.123960 181.000000
435.141330 77.000000

>ms2peaks
70.224170 9.000000
85.022460 14.000000
85.034130 11.000000
114.719440 10.000000
128.039640 15.000000
147.044140 283.000000
148.048420 11.000000
149.046300 15.000000
150.379710 11.000000
152.985580 10.000000
153.000230 22.000000
153.013240 160.000000
153.019960 392.000000
153.400630 9.000000
154.025050 31.000000
161.069820 12.000000
163.075210 12.000000
179.043290 37.000000
187.628540 16.000000
189.050140 20.000000
189.060880 15.000000
219.022890 9.000000
231.059110 17.000000
231.070600 12.000000
272.068270 9.000000
273.076170 1000.000000
274.043240 11.000000
274.069980 24.000000
274.085540 83.000000
275.078700 41.000000
276.099640 19.000000
411.197540 9.000000

>ms2peaks
85.027490 20.000000
91.042570 24.000000
91.049120 15.000000
91.056030 18.000000
95.035550 16.000000
95.049770 23.000000
107.044710 20.000000
119.050720 214.000000
123.045760 16.000000
147.041110 220.000000
147.050020 66.000000
148.050370 48.000000
153.017750 1000.000000
154.030240 43.000000
157.064040 18.000000
177.021990 16.000000
179.313520 18.000000
195.034880 13.000000

