>compound PR30097777
>parentmass 509.12896730000006
>ionization [M+H]+
>formula C23H24O13
>rt 261.391020
>profile qtof
#smiles_iso COC1=CC(=CC(=C1O)OC)C2=C(C(=O)C3=C(C=C(C=C3O2)O)O)O[C@H]4[C@@H]([C@H]([C@@H]([C@H](O4)CO)O)O)O
#smiles_can COC1=CC(=CC(=C1O)OC)C2=C(C(=O)C3=C(C=C(C=C3O2)O)O)OC4C(C(C(C(O4)CO)O)O)O
#inchikey JMFWYRWPJVEZPV-AVGVHVDKSA-N
#pubchem_id 5321577
#mb_accession PR302153,PR302158,PR302163,PR302168,PR302173,PR302178,PR302183,PR302188,PR302193,PR302198,PR302203,PR302208

>ms2peaks
85.033150 7.000000
95.800640 5.000000
99.042660 8.000000
115.025520 9.000000
141.079930 6.000000
146.047730 5.000000
152.920390 6.000000
153.024230 29.000000
153.054630 18.000000
165.010770 6.000000
165.023470 10.000000
178.030230 9.000000
181.048830 7.000000
188.059140 8.000000
189.022460 8.000000
192.042050 8.000000
197.009380 5.000000
207.064270 19.000000
207.086940 5.000000
217.044400 8.000000
231.060200 6.000000
232.056610 6.000000
258.051300 7.000000
269.059810 6.000000
285.035980 8.000000
285.048130 10.000000
286.013490 7.000000
286.049190 15.000000
287.048100 17.000000
287.066650 27.000000
288.052250 5.000000
291.086940 11.000000
292.084470 10.000000
303.042940 14.000000
303.054350 14.000000
315.023590 8.000000
316.067990 9.000000
331.051700 9.000000
331.080810 7.000000
332.031010 6.000000
332.052220 11.000000
346.063720 8.000000
347.036740 32.000000
347.075410 1000.000000
348.069270 111.000000
348.082490 78.000000
349.078640 27.000000
389.074950 7.000000
389.095030 5.000000
470.777530 9.000000
509.119540 18.000000
509.134860 27.000000

>ms2peaks
326.694240 14.000000
346.072780 7.000000
347.029630 23.000000
347.075680 1000.000000
348.037140 6.000000
348.054440 30.000000
348.079590 170.000000
348.099090 26.000000
348.119170 5.000000
348.516570 6.000000
349.042180 11.000000
349.066190 6.000000
349.075260 19.000000
349.089720 40.000000
349.431820 6.000000
350.077580 6.000000
350.466280 6.000000
350.762660 8.000000
351.094790 6.000000
358.216890 5.000000
473.122380 8.000000
509.074920 6.000000
509.121340 265.000000

>ms2peaks
73.031650 7.000000
85.028940 32.000000
85.034870 6.000000
97.025940 9.000000
127.037350 17.000000
139.040240 15.000000
139.046160 9.000000
145.047500 6.000000
153.000230 8.000000
153.025180 12.000000
154.062940 8.000000
155.069820 8.000000
165.009460 9.000000
166.017140 8.000000
181.045850 25.000000
207.073910 10.000000
238.096530 13.000000
255.028840 8.000000
259.055730 12.000000
269.045290 7.000000
284.015230 9.000000
286.970210 8.000000
287.041780 19.000000
287.054140 19.000000
288.038420 9.000000
288.065800 20.000000
288.303410 9.000000
289.037720 8.000000
289.058930 7.000000
290.895020 8.000000
291.053530 20.000000
291.084870 27.000000
292.084630 7.000000
292.099910 7.000000
298.033360 8.000000
315.054470 13.000000
316.044770 11.000000
331.045470 7.000000
332.046840 45.000000
332.066440 8.000000
333.059140 7.000000
346.058200 8.000000
346.080260 8.000000
347.043460 63.000000
347.076050 1000.000000
348.047240 24.000000
348.082180 123.000000
348.131350 7.000000
349.076320 34.000000
373.091220 12.000000
389.083010 6.000000
391.375370 8.000000
398.463590 7.000000
426.088440 7.000000

>ms2peaks
85.027920 458.000000
91.036200 95.000000
91.043080 95.000000
93.034500 67.000000
107.050000 87.000000
121.029170 91.000000
123.047620 71.000000
125.047160 91.000000
127.029620 91.000000
127.041370 198.000000
134.039670 138.000000
137.023730 395.000000
138.024830 123.000000
138.032470 87.000000
139.035350 103.000000
153.015690 336.000000
153.024860 237.000000
153.054610 557.000000
154.018110 119.000000
161.061510 103.000000
162.032900 79.000000
164.040770 87.000000
165.025040 83.000000
166.014770 229.000000
181.046810 154.000000
186.887280 126.000000
189.051820 154.000000
193.034900 79.000000
194.021610 119.000000
199.047330 91.000000
202.157000 67.000000
203.071150 119.000000
206.047640 75.000000
208.029170 194.000000
213.062010 190.000000
216.038060 138.000000
230.056870 138.000000
231.062010 95.000000
235.055400 99.000000
241.057300 75.000000
243.035610 111.000000
243.059590 123.000000
244.049620 115.000000
245.051220 91.000000
245.082920 99.000000
255.035280 103.000000
257.035490 83.000000
257.052920 79.000000
258.042140 439.000000
258.053340 1000.000000
259.066190 142.000000
262.031220 71.000000
266.744870 190.000000
268.052220 107.000000
272.028020 79.000000
273.035980 126.000000
284.999940 87.000000
285.041230 225.000000
285.922520 79.000000
286.030910 146.000000
286.049960 332.000000
287.041990 146.000000
287.054230 123.000000
299.044920 91.000000
301.029660 79.000000
303.050290 423.000000
313.018620 166.000000
314.048130 111.000000
315.053070 166.000000
331.045750 265.000000
331.063350 182.000000
332.059080 123.000000
333.055540 130.000000

>ms2peaks
81.035330 15.000000
85.028650 15.000000
97.027630 15.000000
99.042370 7.000000
110.034940 7.000000
127.039420 9.000000
139.038160 8.000000
153.018080 7.000000
153.997160 11.000000
165.016750 11.000000
207.066930 29.000000
218.991710 5.000000
223.012040 8.000000
224.724490 6.000000
226.858690 9.000000
229.049640 6.000000
231.140660 6.000000
232.070660 7.000000
241.059050 7.000000
243.029480 5.000000
255.058440 8.000000
258.046330 5.000000
269.032440 6.000000
269.056180 7.000000
270.052280 5.000000
274.049190 15.000000
285.034910 7.000000
286.052890 11.000000
287.051540 40.000000
288.070250 10.000000
289.041530 11.000000
291.096830 31.000000
303.043950 11.000000
304.055970 6.000000
315.048130 14.000000
331.036380 9.000000
332.046050 9.000000
333.072330 6.000000
347.021030 6.000000
347.036350 20.000000
347.077180 1000.000000
348.052370 13.000000
348.083190 156.000000
349.064450 18.000000
349.080260 14.000000
349.092100 23.000000
413.098210 16.000000
443.098050 9.000000
445.106750 10.000000
491.122470 5.000000
509.088260 8.000000
509.135410 47.000000

>ms2peaks
267.799530 10.000000
311.309660 6.000000
346.066380 10.000000
347.025020 6.000000
347.076900 1000.000000
348.063230 28.000000
348.082210 110.000000
348.097260 23.000000
349.079280 32.000000
349.093750 7.000000
350.073270 5.000000
350.082860 10.000000
350.095030 6.000000
431.768340 8.000000
509.133700 261.000000

>ms2peaks
79.805560 8.000000
85.029660 10.000000
85.035660 11.000000
85.367840 7.000000
97.018680 12.000000
97.029460 11.000000
127.040700 9.000000
139.035870 8.000000
140.044450 9.000000
145.053380 9.000000
153.017590 11.000000
153.048890 21.000000
153.063400 8.000000
229.044370 7.000000
245.038300 7.000000
253.043270 11.000000
255.028810 9.000000
264.606660 8.000000
269.045140 7.000000
271.066280 10.000000
273.076420 11.000000
285.043700 8.000000
286.022580 6.000000
286.047210 8.000000
287.034940 13.000000
287.051390 37.000000
287.064090 20.000000
288.066590 9.000000
291.090610 8.000000
300.083010 10.000000
314.018460 8.000000
314.051910 33.000000
315.050110 36.000000
315.066990 15.000000
316.027950 12.000000
316.059170 7.000000
329.064540 6.000000
331.042420 19.000000
331.974580 9.000000
332.057460 32.000000
333.029050 6.000000
335.696470 9.000000
346.067200 7.000000
347.037720 18.000000
347.075010 1000.000000
348.053010 13.000000
348.071590 123.000000
348.095550 127.000000
349.066960 19.000000
349.087040 59.000000
389.076050 8.000000
389.099090 21.000000

>ms2peaks
65.031620 137.000000
69.031820 95.000000
70.026660 68.000000
97.021910 84.000000
129.081950 99.000000
133.031300 76.000000
134.037450 186.000000
139.038450 354.000000
147.040850 80.000000
148.017680 118.000000
148.938930 106.000000
149.022640 171.000000
152.009900 65.000000
153.003050 65.000000
153.010600 65.000000
153.017040 91.000000
153.025730 137.000000
153.052690 198.000000
154.028590 76.000000
154.065000 194.000000
154.237430 68.000000
161.058880 118.000000
162.031880 171.000000
175.061740 122.000000
181.044240 76.000000
181.057460 99.000000
182.061130 99.000000
184.043840 125.000000
184.053190 141.000000
188.038010 68.000000
201.062210 68.000000
205.055880 76.000000
207.047610 91.000000
213.045780 266.000000
216.022930 80.000000
229.046680 433.000000
241.054320 167.000000
244.027570 224.000000
248.065050 76.000000
255.028080 95.000000
255.039280 114.000000
257.029080 141.000000
257.046080 175.000000
258.053220 1000.000000
259.061770 106.000000
259.073460 110.000000
260.049260 129.000000
260.070040 255.000000
262.056610 91.000000
269.017940 125.000000
269.061650 125.000000
272.037450 167.000000
273.031520 84.000000
275.053130 72.000000
283.072020 84.000000
285.034180 80.000000
285.050660 80.000000
286.026520 80.000000
286.039730 110.000000
286.053410 68.000000
287.042720 255.000000
287.055660 361.000000
288.053710 103.000000
289.025420 129.000000
297.039180 99.000000
297.943600 122.000000
303.034480 114.000000
303.064730 68.000000
315.043700 76.000000
315.071140 152.000000
318.066500 106.000000
321.231870 125.000000
330.774260 76.000000
331.047670 471.000000
331.062770 91.000000
332.050380 125.000000
332.775360 76.000000
347.080810 202.000000

>ms2peaks
85.026430 5.000000
145.049850 7.000000
153.014820 7.000000
153.052350 8.000000
153.066930 14.000000
163.045150 7.000000
165.019240 12.000000
181.040270 8.000000
181.049900 12.000000
189.002850 6.000000
223.306690 7.000000
241.044130 8.000000
247.264420 5.000000
258.021730 6.000000
258.051700 21.000000
259.057190 7.000000
259.073670 8.000000
269.033480 7.000000
269.052370 7.000000
284.996640 6.000000
285.024570 5.000000
287.037870 13.000000
287.050810 42.000000
287.067050 17.000000
291.079960 7.000000
300.020020 5.000000
302.042910 12.000000
303.058690 11.000000
314.031950 8.000000
315.036500 13.000000
315.060640 8.000000
316.069430 5.000000
331.035190 16.000000
331.063810 5.000000
332.047610 14.000000
332.062870 12.000000
333.054660 7.000000
347.047450 15.000000
347.077000 1000.000000
347.976750 9.000000
348.024930 8.000000
348.080020 195.000000
348.998200 11.000000
349.063480 7.000000
349.077360 16.000000
509.103150 10.000000
509.128910 44.000000

>ms2peaks
216.517610 6.000000
230.217680 13.000000
252.758270 7.000000
258.050600 7.000000
346.989720 6.000000
347.038700 28.000000
347.075440 1000.000000
347.517700 5.000000
347.983370 7.000000
348.034210 14.000000
348.079710 165.000000
349.066650 9.000000
349.078980 18.000000
356.719150 6.000000
386.403560 7.000000
508.864810 6.000000
509.061740 5.000000
509.129240 151.000000

>ms2peaks
85.030110 7.000000
109.026820 19.000000
127.035650 12.000000
127.041580 10.000000
137.025740 9.000000
139.032170 11.000000
145.048020 13.000000
153.017840 26.000000
153.049320 33.000000
155.068040 8.000000
160.664720 10.000000
161.023270 8.000000
165.022750 12.000000
165.736360 10.000000
193.049100 8.000000
222.011510 7.000000
244.773010 8.000000
258.053220 12.000000
263.058870 7.000000
269.042760 6.000000
286.053470 37.000000
287.004700 13.000000
287.051970 46.000000
288.058650 8.000000
291.074770 8.000000
292.106080 11.000000
297.032100 7.000000
300.065310 7.000000
301.062410 9.000000
314.043700 20.000000
315.028170 6.000000
315.048770 24.000000
315.068050 14.000000
316.039000 10.000000
318.053530 9.000000
320.492160 8.000000
332.061190 46.000000
333.060300 8.000000
345.546690 6.000000
346.071840 6.000000
346.087010 13.000000
346.852750 8.000000
347.020720 9.000000
347.044340 45.000000
347.076290 1000.000000
347.112090 7.000000
347.135100 7.000000
348.034090 17.000000
348.050380 9.000000
348.080110 266.000000
349.031980 9.000000
349.084260 70.000000
389.089540 7.000000

>ms2peaks
81.033740 71.000000
85.028760 234.000000
86.027260 107.000000
97.028510 155.000000
99.040960 87.000000
121.020090 202.000000
121.026590 91.000000
126.024220 198.000000
127.052030 87.000000
133.032210 131.000000
137.019270 91.000000
139.031510 107.000000
152.997340 131.000000
153.019420 905.000000
153.038300 111.000000
153.050450 325.000000
161.021840 111.000000
165.017410 99.000000
167.043980 71.000000
177.057460 187.000000
178.021840 171.000000
178.028340 63.000000
192.053270 79.000000
195.033140 83.000000
205.052230 67.000000
208.075470 143.000000
213.048160 71.000000
213.054840 143.000000
214.030270 115.000000
214.055160 79.000000
219.034700 270.000000
221.043000 79.000000
229.044770 167.000000
230.046770 91.000000
231.075000 99.000000
243.017290 83.000000
244.029340 194.000000
248.016510 175.000000
256.024410 79.000000
257.035460 67.000000
257.058500 115.000000
258.053470 722.000000
260.055080 119.000000
269.050480 71.000000
270.050140 83.000000
273.048310 103.000000
285.000460 79.000000
285.026180 282.000000
285.993530 83.000000
286.029080 67.000000
286.039280 131.000000
286.053070 75.000000
286.859160 107.000000
287.012240 119.000000
287.041840 99.000000
287.054900 179.000000
300.035310 95.000000
303.052120 95.000000
303.066280 187.000000
313.026760 206.000000
315.063510 143.000000
327.561130 71.000000
330.055390 107.000000
331.022950 111.000000
331.043790 1000.000000
332.002440 79.000000

