>compound PR30990743
>parentmass 433.1129233000001
>ionization [M+H]+
>formula C21H20O10
>rt 236.868000
>profile qtof
#smiles_iso C1=CC(=CC=C1C2=CC(=O)C3=C(O2)C=C(C(=C3O)[C@H]4[C@@H]([C@H]([C@@H]([C@H](O4)CO)O)O)O)O)O
#smiles_can C1=CC(=CC=C1C2=CC(=O)C3=C(O2)C=C(C(=C3O)C4C(C(C(C(O4)CO)O)O)O)O)O
#inchikey MYXNWGACZJSMBT-VJXVFPJBSA-N
#pubchem_id 162350
#mb_accession PR303412,PR303414,PR303416,PR303418,PR303420,PR303422,PR303424,PR303426,PR303428,PR303430,PR303432,PR303434

>ms2peaks
91.043670 6.000000
103.036250 6.000000
103.043550 5.000000
107.035580 8.000000
109.031430 9.000000
119.052300 25.000000
121.029400 9.000000
145.028080 6.000000
146.032680 6.000000
149.025860 13.000000
150.028240 5.000000
163.031420 6.000000
163.044820 10.000000
165.023240 30.000000
165.238420 5.000000
166.021120 6.000000
170.522610 5.000000
173.028320 7.000000
174.022490 5.000000
177.019100 25.000000
178.978970 9.000000
181.869490 8.000000
183.356550 8.000000
187.037600 16.000000
187.047010 6.000000
195.031740 14.000000
203.071910 5.000000
205.051390 8.000000
214.928500 7.000000
215.032710 9.000000
220.659870 8.000000
228.073300 8.000000
234.356020 7.000000
239.067900 10.000000
243.033490 8.000000
252.335510 11.000000
255.020450 6.000000
258.651430 5.000000
267.051670 13.000000
267.065190 21.000000
269.945100 6.000000
270.055180 6.000000
270.068970 5.000000
271.061550 55.000000
272.059940 8.000000
276.088990 6.000000
276.971920 6.000000
278.033870 7.000000
279.059970 14.000000
279.080350 5.000000
281.074190 10.000000
281.088290 17.000000
282.069120 10.000000
282.958280 5.000000
283.061920 935.000000
284.061130 195.000000
284.074830 93.000000
285.056000 18.000000
285.083620 16.000000
286.058170 10.000000
291.074800 6.000000
292.062870 5.000000
293.071870 5.000000
293.089480 11.000000
295.048800 11.000000
295.062650 48.000000
295.093840 6.000000
295.101530 11.000000
297.028900 10.000000
297.047390 8.000000
303.455050 5.000000
305.081180 46.000000
306.079590 8.000000
307.049160 8.000000
307.070130 5.000000
309.029910 20.000000
309.043300 14.000000
309.075780 212.000000
310.078860 51.000000
311.060420 16.000000
313.000580 5.000000
313.071200 666.000000
314.029600 5.000000
314.078610 97.000000
314.843570 6.000000
315.065730 5.000000
315.074490 14.000000
317.428250 6.000000
321.076810 27.000000
321.195920 5.000000
323.068330 18.000000
323.093480 144.000000
323.187930 5.000000
324.088320 35.000000
324.109890 7.000000
325.076110 21.000000
325.098080 5.000000
326.102330 6.000000
329.104610 5.000000
333.075500 26.000000
334.063570 6.000000
334.087280 5.000000
337.066930 210.000000
337.080720 162.000000
338.071110 37.000000
339.081120 13.000000
349.031710 6.000000
349.060940 38.000000
349.075410 81.000000
350.060030 7.000000
350.084110 18.000000
351.068600 5.000000
351.091670 10.000000
355.102050 7.000000
361.042480 9.000000
361.074520 115.000000
362.068420 15.000000
362.078770 11.000000
362.260470 5.000000
363.064210 9.000000
367.079220 209.000000
367.097810 41.000000
367.120790 6.000000
368.083530 73.000000
369.075230 9.000000
369.095180 8.000000
379.050350 20.000000
379.072240 69.000000
379.084380 150.000000
380.066280 12.000000
380.088840 35.000000
380.103580 7.000000
396.408600 8.000000
397.046780 9.000000
397.094180 178.000000
398.089540 45.000000
415.103880 287.000000
416.109920 71.000000
417.093930 9.000000
429.323970 6.000000
432.971860 6.000000
433.068570 21.000000
433.113680 1000.000000
433.181210 7.000000

>ms2peaks
283.049990 7.000000
283.065700 15.000000
313.060550 16.000000
313.076110 35.000000
314.077330 8.000000
337.060700 14.000000
337.073610 24.000000
338.073910 8.000000
367.081760 73.000000
368.079530 9.000000
368.096980 8.000000
379.066380 9.000000
379.078580 10.000000
397.093140 43.000000
398.095700 10.000000
415.081630 20.000000
415.105650 140.000000
416.104060 37.000000
416.120820 12.000000
417.105040 7.000000
433.113070 1000.000000

>ms2peaks
103.040520 7.000000
120.052840 10.000000
121.025160 18.000000
149.019390 7.000000
149.053830 8.000000
165.020890 27.000000
182.660450 7.000000
243.030060 14.000000
256.082280 5.000000
267.060420 25.000000
267.071960 32.000000
268.063170 5.000000
268.081270 12.000000
269.068570 9.000000
270.039220 10.000000
270.049290 25.000000
271.060030 50.000000
272.056880 13.000000
277.079770 9.000000
281.048000 11.000000
281.074830 19.000000
281.083860 53.000000
282.092960 13.000000
283.060090 1000.000000
284.064180 225.000000
285.071500 36.000000
294.050110 8.000000
295.059420 121.000000
295.093290 20.000000
295.106110 8.000000
296.074710 8.000000
296.100710 5.000000
297.061310 10.000000
297.079350 28.000000
298.074250 12.000000
305.081630 12.000000
306.081670 6.000000
307.066220 11.000000
309.029050 25.000000
309.049190 23.000000
309.074310 257.000000
310.040250 8.000000
310.074740 64.000000
310.094360 6.000000
311.075530 6.000000
313.014980 5.000000
313.069730 626.000000
314.076390 118.000000
319.057650 13.000000
321.082150 25.000000
322.078770 12.000000
323.059630 9.000000
323.092990 256.000000
324.075470 5.000000
324.096130 40.000000
325.070980 9.000000
327.081050 6.000000
331.208310 6.000000
333.058870 7.000000
333.068730 20.000000
333.086270 19.000000
334.076510 28.000000
335.050810 9.000000
337.035370 8.000000
337.072240 214.000000
338.075160 57.000000
349.049220 17.000000
349.060550 48.000000
349.073060 125.000000
350.061830 6.000000
350.076390 25.000000
351.075130 8.000000
351.092070 16.000000
352.077580 9.000000
361.072480 98.000000
362.069920 24.000000
362.090270 10.000000
367.064300 6.000000
367.086240 15.000000
368.093480 6.000000
379.080960 88.000000
380.106230 7.000000

>ms2peaks
65.037590 43.000000
68.995810 51.000000
69.001120 22.000000
69.993520 9.000000
79.055050 16.000000
81.032370 27.000000
90.043590 14.000000
91.046470 15.000000
91.053780 18.000000
92.050350 10.000000
93.025020 16.000000
93.032140 111.000000
97.029770 9.000000
102.807200 10.000000
103.051410 17.000000
105.034160 20.000000
105.074090 10.000000
107.048260 13.000000
109.025330 9.000000
110.030910 25.000000
111.008300 9.000000
111.686300 11.000000
115.055020 14.000000
118.047530 10.000000
119.046180 31.000000
119.052660 46.000000
120.047920 10.000000
120.057010 23.000000
121.018530 10.000000
121.028340 231.000000
121.034890 82.000000
121.065670 12.000000
122.033450 12.000000
122.995040 12.000000
123.005750 113.000000
123.037460 15.000000
123.950970 10.000000
129.032090 10.000000
131.048920 28.000000
131.857730 9.000000
133.024400 16.000000
135.008130 16.000000
135.032790 15.000000
135.042680 16.000000
137.019810 10.000000
138.026460 51.000000
142.049650 9.000000
145.021010 46.000000
145.027150 124.000000
145.038010 10.000000
147.006230 11.000000
147.041060 11.000000
149.005330 20.000000
149.015500 23.000000
149.026570 278.000000
153.014850 28.000000
153.070800 9.000000
155.047420 10.000000
159.044910 16.000000
159.056120 24.000000
159.083880 11.000000
159.115880 10.000000
163.037810 80.000000
163.051680 12.000000
164.048030 35.000000
164.858810 9.000000
165.002040 68.000000
165.017810 1000.000000
165.069960 35.000000
165.837650 9.000000
166.019710 156.000000
166.029950 27.000000
167.033020 12.000000
168.089130 14.000000
169.022780 14.000000
169.029850 13.000000
171.047360 10.000000
172.052780 19.000000
173.016020 13.000000
173.022770 15.000000
173.058410 12.000000
174.033000 16.000000
174.991810 14.000000
175.035550 25.000000
176.049040 14.000000
177.014250 14.000000
177.027820 15.000000
177.046480 10.000000
178.020200 14.000000
178.032270 12.000000
178.993770 23.000000
179.038850 23.000000
179.088710 12.000000
180.125550 9.000000
181.056520 10.000000
181.082460 11.000000
183.048290 15.000000
185.019420 9.000000
185.244290 12.000000
187.043900 66.000000
189.010540 13.000000
189.021910 16.000000
190.011640 15.000000
190.025700 47.000000
190.067410 10.000000
190.992230 11.000000
191.029690 32.000000
191.037480 88.000000
193.020190 13.000000
197.058030 11.000000
198.052800 21.000000
201.018050 9.000000
201.078860 15.000000
202.031250 15.000000
203.024280 12.000000
203.034440 39.000000
203.044940 17.000000
204.036910 19.000000
206.046480 12.000000
209.618840 12.000000
211.078840 22.000000
213.017260 9.000000
213.046890 14.000000
213.054170 13.000000
213.094210 12.000000
214.011120 16.000000
214.066250 17.000000
215.015610 20.000000
215.030590 46.000000
215.044310 15.000000
218.078870 27.000000
220.020290 12.000000
224.213240 9.000000
226.052440 10.000000
226.086410 14.000000
227.048920 14.000000
228.076450 24.000000
229.047200 126.000000
231.028690 9.000000
235.076110 18.000000
238.062290 11.000000
239.073850 62.000000
239.142620 11.000000
239.205600 12.000000
239.857220 9.000000
240.062960 13.000000
241.044040 15.000000
242.042950 10.000000
242.051790 24.000000
242.068830 11.000000
245.403850 17.000000
252.081700 11.000000
253.060490 9.000000
255.049510 34.000000
255.059280 62.000000
255.072280 20.000000
256.055510 26.000000
256.072300 47.000000
264.867160 9.000000
265.050750 11.000000
267.048460 9.000000
267.062680 77.000000
268.073940 12.000000
269.047730 50.000000
269.072660 11.000000
270.045410 45.000000
270.060730 10.000000
271.058650 79.000000
276.082790 9.000000
276.609530 9.000000
278.084010 10.000000
279.062320 42.000000
279.070100 24.000000
280.060880 15.000000
280.083530 15.000000
281.036250 13.000000
281.066930 41.000000
281.083070 71.000000
283.036010 22.000000
283.057740 493.000000
283.077970 61.000000
284.052730 23.000000
284.069030 148.000000
285.074490 15.000000
291.053680 12.000000
293.067170 16.000000
294.037080 11.000000
295.042390 12.000000
295.061800 196.000000
296.053960 12.000000
296.068420 43.000000
297.058560 17.000000
297.080080 25.000000
298.085210 12.000000
306.067810 11.000000
307.060390 19.000000
308.055570 16.000000
308.790340 10.000000
309.069150 155.000000
310.065400 14.000000
310.078250 24.000000
313.088900 13.000000
314.070190 12.000000
315.091950 9.000000
319.070130 16.000000
321.059720 20.000000
321.079960 30.000000
323.104610 12.000000
354.539860 9.000000

>ms2peaks
61.032260 8.000000
95.577780 5.000000
119.048990 5.000000
121.030620 13.000000
145.028790 15.000000
149.026630 12.000000
163.042160 13.000000
165.016740 88.000000
177.012880 13.000000
179.031620 6.000000
183.208070 6.000000
187.041610 20.000000
187.050310 10.000000
195.029720 5.000000
202.060790 9.000000
203.038040 5.000000
214.097410 7.000000
215.011310 5.000000
239.038250 7.000000
243.029250 22.000000
254.059140 5.000000
256.073060 9.000000
262.429900 5.000000
267.059910 46.000000
267.071040 9.000000
268.057430 12.000000
268.072850 5.000000
270.049290 17.000000
270.066890 6.000000
271.062350 62.000000
279.073970 10.000000
279.353970 6.000000
281.039830 6.000000
281.049800 5.000000
281.078120 57.000000
281.087770 23.000000
282.078700 28.000000
282.976650 5.000000
283.034450 25.000000
283.059970 923.000000
284.066380 266.000000
285.066470 28.000000
291.005310 6.000000
291.466610 5.000000
293.068790 7.000000
293.088990 6.000000
294.030640 7.000000
295.058010 117.000000
295.100460 24.000000
296.073640 36.000000
296.722810 6.000000
305.014370 8.000000
305.061980 13.000000
305.078400 15.000000
306.081670 8.000000
307.064240 33.000000
308.059910 11.000000
308.072540 13.000000
308.968720 6.000000
309.039520 25.000000
309.079650 162.000000
310.043850 5.000000
310.066380 12.000000
310.079070 39.000000
310.091190 12.000000
311.046480 13.000000
311.066280 25.000000
311.090550 7.000000
312.056270 5.000000
313.023560 5.000000
313.037720 9.000000
313.071230 657.000000
314.074860 153.000000
315.082760 15.000000
321.065190 7.000000
323.076290 31.000000
323.093290 120.000000
324.091800 11.000000
324.102110 8.000000
325.068120 8.000000
330.073790 5.000000
331.059970 5.000000
331.585630 5.000000
333.088170 30.000000
334.071470 5.000000
336.067780 9.000000
336.108430 6.000000
337.038270 16.000000
337.070860 325.000000
337.107390 9.000000
338.051910 17.000000
338.076930 104.000000
339.072080 23.000000
339.084990 11.000000
339.101290 8.000000
349.045650 6.000000
349.068180 56.000000
349.082950 24.000000
350.080380 13.000000
351.065160 14.000000
351.102630 15.000000
361.055940 22.000000
361.073090 127.000000
362.068510 18.000000
362.083800 9.000000
364.083890 9.000000
367.048800 11.000000
367.082860 288.000000
368.089110 69.000000
369.069950 8.000000
373.079680 6.000000
379.064030 38.000000
379.082950 189.000000
380.079350 8.000000
380.091580 29.000000
381.087620 11.000000
382.088260 5.000000
397.075290 51.000000
397.097230 155.000000
398.098750 41.000000
399.120820 8.000000
400.000790 5.000000
415.035610 5.000000
415.069340 13.000000
415.103060 274.000000
416.079280 12.000000
416.113130 46.000000
417.176700 6.000000
433.054350 9.000000
433.076840 14.000000
433.110930 1000.000000
433.166110 7.000000

>ms2peaks
313.069060 48.000000
313.080110 27.000000
314.075930 6.000000
314.088650 5.000000
337.071660 65.000000
338.069580 10.000000
367.083560 78.000000
368.088990 16.000000
379.075070 10.000000
379.085820 12.000000
397.068730 7.000000
397.089660 42.000000
398.082580 7.000000
398.114260 6.000000
415.100130 155.000000
416.077210 5.000000
416.095550 11.000000
416.108920 20.000000
433.014650 5.000000
433.069490 11.000000
433.112030 1000.000000
433.170930 8.000000

>ms2peaks
85.027470 7.000000
97.031380 6.000000
109.027730 8.000000
121.030950 9.000000
145.026630 6.000000
163.029630 7.000000
165.018490 7.000000
177.021640 10.000000
195.028440 8.000000
215.032330 6.000000
233.420260 5.000000
267.063140 56.000000
269.076020 8.000000
270.047610 10.000000
270.061040 10.000000
271.060520 93.000000
272.058290 6.000000
281.047880 6.000000
281.078000 54.000000
282.065370 6.000000
283.019290 7.000000
283.060910 1000.000000
283.101140 6.000000
284.065700 217.000000
285.055540 15.000000
285.063780 27.000000
285.076810 34.000000
286.077640 10.000000
295.052670 48.000000
295.063390 52.000000
295.075380 18.000000
295.100950 12.000000
296.069520 16.000000
297.040830 8.000000
297.073000 7.000000
305.074550 8.000000
305.092040 18.000000
307.052950 21.000000
307.065980 9.000000
308.065730 19.000000
309.008240 6.000000
309.034880 28.000000
309.076390 254.000000
310.051390 7.000000
310.070950 32.000000
310.083100 74.000000
313.034090 5.000000
313.069850 637.000000
314.072810 118.000000
314.083130 48.000000
315.076480 5.000000
315.098180 12.000000
319.068450 6.000000
321.054320 8.000000
321.079040 22.000000
323.047390 9.000000
323.091580 235.000000
323.121220 5.000000
324.088410 33.000000
324.102660 22.000000
326.082120 7.000000
333.053100 6.000000
333.074550 49.000000
333.091130 11.000000
334.083070 6.000000
335.060330 20.000000
336.062680 6.000000
337.005770 6.000000
337.073330 201.000000
338.060940 20.000000
338.076420 46.000000
339.073330 17.000000
349.068050 133.000000
349.079650 47.000000
350.040280 6.000000
350.075010 36.000000
350.094120 10.000000
351.079040 11.000000
351.103490 5.000000
361.059720 33.000000
361.071690 103.000000
362.067750 21.000000
362.080410 20.000000
367.084690 13.000000
379.078950 36.000000
379.095520 20.000000
380.087010 16.000000
380.099880 6.000000
397.089510 7.000000

>ms2peaks
53.041360 16.000000
65.038620 7.000000
68.990300 8.000000
68.998370 9.000000
69.001050 20.000000
69.033990 20.000000
73.026010 12.000000
77.041540 8.000000
79.020650 7.000000
79.057240 17.000000
81.034910 45.000000
85.031880 10.000000
86.029970 7.000000
91.054980 27.000000
92.062190 7.000000
93.031200 54.000000
93.036670 27.000000
95.010180 15.000000
95.015910 12.000000
95.049540 22.000000
97.031610 8.000000
97.602940 7.000000
103.036660 10.000000
106.978910 8.000000
107.050090 39.000000
109.029250 9.000000
109.033600 8.000000
111.007020 19.000000
115.058780 13.000000
117.039170 25.000000
118.038690 8.000000
119.047640 91.000000
119.053030 36.000000
120.052570 23.000000
121.023430 57.000000
121.029330 170.000000
122.026000 28.000000
123.002810 30.000000
123.008130 70.000000
123.043330 19.000000
130.075530 9.000000
130.784260 6.000000
131.048450 26.000000
132.041340 6.000000
132.052250 11.000000
135.041850 29.000000
135.052060 8.000000
136.295820 9.000000
137.015090 10.000000
137.022690 35.000000
138.005800 9.000000
138.029110 57.000000
139.051210 7.000000
139.459270 6.000000
143.004780 12.000000
143.042620 16.000000
144.893160 7.000000
145.023280 36.000000
145.028370 109.000000
147.042220 17.000000
147.051270 9.000000
148.005200 8.000000
148.962110 9.000000
148.993290 6.000000
149.022520 237.000000
150.021930 9.000000
150.032750 6.000000
151.052660 10.000000
152.009830 40.000000
153.023390 12.000000
154.072780 6.000000
159.013950 13.000000
159.029270 13.000000
159.045850 36.000000
160.048170 10.000000
160.055400 7.000000
161.025310 7.000000
161.079180 8.000000
162.989850 12.000000
163.000020 6.000000
163.008450 13.000000
163.038070 68.000000
163.045460 68.000000
163.176700 7.000000
163.807280 12.000000
164.001820 18.000000
164.041180 15.000000
164.048900 24.000000
165.018140 1000.000000
165.067310 9.000000
165.074520 13.000000
166.010420 28.000000
166.024570 83.000000
166.041340 8.000000
167.022490 17.000000
168.045720 6.000000
169.032360 9.000000
171.045230 20.000000
171.508320 6.000000
173.018280 9.000000
173.025210 10.000000
173.067760 11.000000
174.066830 11.000000
175.038160 12.000000
176.016370 9.000000
176.049290 10.000000
176.560750 9.000000
177.017900 77.000000
177.035710 8.000000
177.050900 24.000000
177.058140 12.000000
177.951740 16.000000
178.022510 7.000000
178.065480 6.000000
178.996770 10.000000
179.006910 6.000000
179.029250 41.000000
179.035480 16.000000
179.056150 6.000000
179.089110 8.000000
180.043080 7.000000
182.085460 9.000000
182.181080 9.000000
187.036060 81.000000
188.044850 19.000000
189.017230 68.000000
189.037430 8.000000
190.026230 38.000000
190.996600 16.000000
191.020370 12.000000
191.035520 55.000000
192.034420 6.000000
192.537000 10.000000
194.705400 6.000000
195.027080 9.000000
195.083630 15.000000
197.052800 9.000000
198.048130 7.000000
199.031690 12.000000
202.032580 9.000000
202.059140 18.000000
202.076160 9.000000
202.090590 6.000000
203.026980 15.000000
203.059660 14.000000
203.085820 14.000000
203.546190 6.000000
204.036760 16.000000
205.018010 11.000000
205.046250 30.000000
205.056050 6.000000
207.071840 8.000000
210.058550 12.000000
211.065430 14.000000
211.078990 9.000000
212.521560 10.000000
214.030980 13.000000
214.059910 8.000000
215.031630 48.000000
215.043690 7.000000
223.073360 12.000000
225.045590 9.000000
225.064850 6.000000
226.067670 9.000000
229.041430 73.000000
229.058490 13.000000
230.014240 12.000000
231.040310 14.000000
231.050990 11.000000
231.071760 9.000000
238.067230 7.000000
239.068940 25.000000
239.078860 19.000000
239.826020 7.000000
240.064820 11.000000
241.095230 11.000000
242.030330 8.000000
242.046520 14.000000
242.058470 52.000000
243.016310 16.000000
243.035770 18.000000
245.022950 8.000000
250.808410 11.000000
253.059510 7.000000
253.068890 9.000000
253.079100 6.000000
254.087220 10.000000
255.064590 55.000000
256.058410 12.000000
256.074680 73.000000
258.074370 11.000000
261.034180 6.000000
264.089320 12.000000
267.037290 7.000000
267.064940 192.000000
268.029850 7.000000
268.063350 9.000000
268.077480 19.000000
269.043700 44.000000
269.075870 11.000000
270.052580 30.000000
271.036530 13.000000
271.056550 58.000000
272.081700 7.000000
277.089570 6.000000
277.249270 7.000000
279.044560 7.000000
279.055020 24.000000
279.064210 62.000000
281.043790 32.000000
281.084010 42.000000
283.058650 581.000000
283.147520 7.000000
283.277650 10.000000
284.061580 155.000000
284.074580 48.000000
285.051570 8.000000
285.075500 7.000000
293.066960 14.000000
293.077610 11.000000
294.050020 8.000000
295.045840 29.000000
295.062190 76.000000
295.083560 27.000000
295.101930 6.000000
296.050290 17.000000
296.068360 9.000000
296.090270 6.000000
297.108760 7.000000
298.036040 15.000000
299.064850 10.000000
303.068420 9.000000
305.070980 19.000000
305.078430 7.000000
307.055110 11.000000
307.072600 16.000000
308.052580 11.000000
308.065700 52.000000
309.049010 13.000000
309.064210 50.000000
309.082950 46.000000
309.156920 6.000000
310.056850 6.000000
310.077120 37.000000
313.052220 14.000000
313.065160 9.000000
313.082860 13.000000
313.919530 7.000000
314.069520 10.000000
317.808040 7.000000
319.060970 14.000000
319.075410 9.000000
320.044740 7.000000
321.062070 9.000000
321.085270 12.000000
322.047450 6.000000
322.063480 7.000000
322.078490 9.000000
323.052800 8.000000
323.086030 25.000000
323.106780 8.000000
333.083740 11.000000
334.079500 7.000000
336.997770 9.000000
340.350740 8.000000
349.066410 10.000000
351.072480 12.000000
358.984250 6.000000
392.776400 8.000000

>ms2peaks
107.019820 7.000000
119.046280 13.000000
121.028160 15.000000
121.035480 7.000000
145.018130 6.000000
145.033650 6.000000
159.037110 6.000000
162.448940 5.000000
163.001420 13.000000
163.038700 8.000000
163.046430 8.000000
165.017530 82.000000
166.025380 7.000000
167.094090 6.000000
175.926040 7.000000
177.016050 35.000000
187.034420 7.000000
191.032060 19.000000
195.032260 6.000000
199.027470 8.000000
199.046780 5.000000
209.060350 7.000000
210.063980 9.000000
225.023610 6.000000
228.074110 5.000000
229.062610 5.000000
240.079270 5.000000
243.020940 6.000000
243.032700 12.000000
256.044490 6.000000
256.076870 7.000000
259.079990 5.000000
267.063570 58.000000
267.080140 7.000000
268.068940 11.000000
270.051360 42.000000
271.053310 17.000000
271.063810 57.000000
272.073270 9.000000
273.070980 5.000000
279.073550 8.000000
281.083830 50.000000
282.082700 9.000000
282.093290 5.000000
283.001830 17.000000
283.021880 24.000000
283.061100 1000.000000
284.044740 12.000000
284.062810 156.000000
284.073910 44.000000
285.069520 17.000000
285.080750 12.000000
286.064910 13.000000
291.047060 8.000000
295.056030 82.000000
295.085660 9.000000
295.102170 15.000000
296.069060 37.000000
296.092100 8.000000
297.028500 5.000000
297.069060 18.000000
297.081450 15.000000
298.077940 9.000000
305.068510 9.000000
305.084780 27.000000
306.079350 7.000000
307.045350 9.000000
307.062900 15.000000
308.068020 29.000000
309.031250 10.000000
309.075260 211.000000
310.062130 8.000000
310.081480 62.000000
310.522890 5.000000
311.059480 30.000000
312.064240 5.000000
312.990600 6.000000
313.071320 589.000000
314.065310 47.000000
314.076930 139.000000
315.036410 6.000000
315.066070 6.000000
315.083100 10.000000
321.070740 9.000000
321.358430 6.000000
323.090390 170.000000
324.097630 35.000000
325.060670 9.000000
325.078190 16.000000
333.067080 11.000000
333.081850 23.000000
334.069730 14.000000
335.060000 5.000000
337.020360 11.000000
337.040280 19.000000
337.070590 451.000000
338.069520 66.000000
339.073910 24.000000
340.069610 8.000000
349.070010 82.000000
349.084050 24.000000
350.068270 42.000000
351.086090 26.000000
351.100860 12.000000
352.077940 22.000000
361.062130 50.000000
361.079990 66.000000
362.073300 32.000000
367.034330 12.000000
367.082460 313.000000
368.067900 18.000000
368.089140 100.000000
369.092770 6.000000
370.084930 9.000000
379.044980 5.000000
379.080990 209.000000
379.631710 9.000000
380.084960 38.000000
381.096370 9.000000
389.283630 5.000000
397.089750 232.000000
398.097750 74.000000
399.087890 14.000000
415.099880 273.000000
415.203520 6.000000
416.105440 71.000000
417.096440 5.000000
417.109040 9.000000
417.146970 7.000000
424.644040 5.000000
433.023220 12.000000
433.114650 975.000000
433.176540 6.000000

>ms2peaks
283.053530 13.000000
313.060360 21.000000
313.072450 48.000000
314.082580 6.000000
337.072540 38.000000
338.072450 6.000000
338.099670 5.000000
367.078580 52.000000
367.092650 30.000000
368.065430 5.000000
368.085080 11.000000
368.096980 5.000000
379.069180 13.000000
379.085780 15.000000
397.078310 9.000000
397.096890 27.000000
397.111390 11.000000
398.089690 7.000000
415.075560 11.000000
415.098720 105.000000
415.120910 23.000000
416.086000 9.000000
416.111970 31.000000
433.048860 7.000000
433.112640 1000.000000

>ms2peaks
109.027320 7.000000
121.024500 13.000000
121.032690 9.000000
161.061800 7.000000
164.042890 6.000000
165.015990 8.000000
177.014530 6.000000
191.037730 7.000000
215.039860 7.000000
217.047580 5.000000
230.011430 6.000000
243.030380 17.000000
255.021030 8.000000
267.067930 54.000000
268.060420 6.000000
270.052830 8.000000
271.043670 9.000000
271.059020 46.000000
271.072140 12.000000
277.270750 8.000000
279.074220 7.000000
281.077240 62.000000
282.077270 10.000000
283.021090 5.000000
283.061340 1000.000000
284.062960 176.000000
284.075620 66.000000
284.976750 5.000000
285.061800 35.000000
285.075500 14.000000
295.046420 30.000000
295.063260 79.000000
295.096500 11.000000
296.048100 9.000000
296.058930 8.000000
297.035250 9.000000
297.056400 8.000000
297.064540 21.000000
297.081150 10.000000
298.067840 6.000000
305.095520 15.000000
307.056760 7.000000
307.074550 13.000000
308.077760 6.000000
309.035000 11.000000
309.077700 239.000000
310.073150 46.000000
311.056640 16.000000
311.103240 8.000000
313.071010 596.000000
314.035160 8.000000
314.073060 110.000000
314.086910 27.000000
315.068050 8.000000
316.091400 7.000000
320.070980 13.000000
321.079530 20.000000
322.077030 7.000000
323.061860 24.000000
323.091370 227.000000
324.097750 49.000000
325.086090 6.000000
325.103420 9.000000
333.055080 10.000000
333.077060 89.000000
334.077820 13.000000
335.072110 12.000000
337.070040 218.000000
337.134860 7.000000
338.047730 6.000000
338.075320 37.000000
338.090000 13.000000
341.101380 6.000000
349.036070 8.000000
349.061740 80.000000
349.073880 28.000000
350.081050 21.000000
351.083040 37.000000
351.101070 9.000000
352.090240 12.000000
352.105320 6.000000
361.053410 29.000000
361.074190 100.000000
361.086910 32.000000
362.080900 47.000000
363.086980 8.000000
367.089110 7.000000
379.081790 59.000000
379.108310 7.000000
380.083470 7.000000
397.081760 13.000000

>ms2peaks
55.018050 41.000000
65.037360 10.000000
67.020740 14.000000
69.034100 9.000000
77.037990 12.000000
79.019980 8.000000
81.036610 10.000000
85.027940 21.000000
91.054270 11.000000
93.000460 9.000000
93.031460 39.000000
93.040490 9.000000
95.042610 17.000000
95.050530 8.000000
99.000830 20.000000
102.041540 7.000000
103.035970 13.000000
104.055770 16.000000
105.030820 9.000000
107.051860 27.000000
109.023180 8.000000
109.031890 13.000000
109.053550 7.000000
110.034830 12.000000
118.035910 9.000000
119.047230 185.000000
119.052660 55.000000
121.027550 268.000000
122.018930 11.000000
122.028240 12.000000
122.989380 8.000000
123.003590 87.000000
123.012210 53.000000
124.013810 39.000000
125.013690 11.000000
125.021290 11.000000
131.050000 74.000000
132.048610 19.000000
133.025560 23.000000
133.040770 12.000000
134.036160 17.000000
135.041370 7.000000
137.021870 77.000000
137.029430 23.000000
138.031830 103.000000
138.058940 9.000000
142.319760 9.000000
143.048980 30.000000
144.017780 9.000000
145.028460 190.000000
146.030550 21.000000
147.011570 11.000000
147.045870 52.000000
148.004580 9.000000
148.451690 9.000000
148.862440 9.000000
149.021420 186.000000
149.035660 29.000000
150.022290 25.000000
150.028440 13.000000
151.036560 11.000000
153.019470 24.000000
157.022890 12.000000
159.047970 40.000000
159.054260 17.000000
160.045000 8.000000
160.055470 10.000000
162.032900 38.000000
163.003430 29.000000
163.028410 51.000000
163.040970 157.000000
163.868000 8.000000
164.045970 12.000000
164.056400 7.000000
164.992770 16.000000
165.017810 1000.000000
165.037430 11.000000
165.072430 14.000000
166.020660 177.000000
167.012850 15.000000
167.042190 13.000000
168.847730 11.000000
169.422490 7.000000
169.589290 9.000000
170.370160 7.000000
171.043900 7.000000
171.069730 17.000000
172.044080 8.000000
173.015690 9.000000
173.077620 24.000000
175.026900 25.000000
175.041410 38.000000
175.086110 15.000000
176.016330 10.000000
176.055370 14.000000
177.021410 121.000000
177.516650 8.000000
178.009170 20.000000
178.034560 10.000000
178.060180 7.000000
179.025420 31.000000
179.075740 9.000000
179.406600 8.000000
179.837480 7.000000
182.075350 11.000000
183.084150 8.000000
186.064410 12.000000
187.040650 90.000000
188.042070 21.000000
189.004700 23.000000
189.020920 20.000000
190.024460 38.000000
190.987490 13.000000
191.023530 47.000000
191.042300 25.000000
194.072830 9.000000
195.016240 10.000000
195.023930 20.000000
200.073930 9.000000
200.083920 26.000000
203.029850 15.000000
203.042450 22.000000
203.068680 11.000000
205.044310 14.000000
207.059600 9.000000
210.062470 11.000000
211.063630 29.000000
211.074080 10.000000
213.047010 10.000000
213.070360 14.000000
215.025650 9.000000
215.038910 19.000000
221.093030 8.000000
226.052150 14.000000
227.039310 10.000000
227.077740 9.000000
229.053310 60.000000
230.051860 21.000000
230.063960 14.000000
231.078770 8.000000
234.071780 15.000000
235.046520 8.000000
239.061920 36.000000
239.075490 80.000000
240.070300 14.000000
242.044720 8.000000
242.061570 26.000000
243.018040 30.000000
243.036770 15.000000
243.062940 10.000000
251.065440 29.000000
253.039920 12.000000
254.097960 11.000000
255.040830 17.000000
255.056180 23.000000
255.065090 76.000000
256.056300 15.000000
256.064270 19.000000
256.083710 33.000000
257.080690 28.000000
259.072600 8.000000
262.069920 9.000000
263.078280 16.000000
266.050080 10.000000
266.058530 13.000000
267.003110 11.000000
267.067750 164.000000
268.062710 34.000000
268.076350 61.000000
269.052340 15.000000
269.061340 19.000000
269.076450 9.000000
270.047700 91.000000
271.051030 21.000000
271.063630 54.000000
272.062680 10.000000
275.078060 8.000000
275.097440 7.000000
277.082640 11.000000
279.021000 10.000000
279.052310 34.000000
279.065920 57.000000
280.066930 18.000000
281.073790 25.000000
281.089200 66.000000
281.102510 9.000000
282.083190 8.000000
283.059630 744.000000
283.081270 76.000000
284.065550 350.000000
285.069850 77.000000
285.095760 9.000000
293.091340 8.000000
294.048460 9.000000
294.897190 7.000000
295.041560 9.000000
295.061160 93.000000
295.077300 26.000000
295.092250 20.000000
296.058470 8.000000
297.045750 9.000000
297.060640 7.000000
301.726040 8.000000
304.085510 10.000000
305.076320 32.000000
307.053530 10.000000
307.067410 31.000000
308.050050 9.000000
308.070470 26.000000
309.038510 11.000000
309.063570 21.000000
309.076420 55.000000
309.096250 10.000000
310.057010 23.000000
313.069760 35.000000
313.083920 12.000000
315.056270 8.000000
321.068050 10.000000
323.086270 25.000000
323.094940 41.000000
327.651980 7.000000
330.160710 7.000000
333.063390 10.000000
349.103910 9.000000
398.096370 9.000000

