>compound PR30901438
>parentmass 273.13862461538463
>ionization [M+H]+
>formula C19H16N2
>rt 313.798172
>profile qtof
#smiles_iso C1CCC2=CN3C=CC4=C5C=CC=CC5=NC4=C3C=C2C1
#smiles_can C1CCC2=CN3C=CC4=C5C=CC=CC5=NC4=C3C=C2C1
#inchikey UQVUEULZDJRMJR-UHFFFAOYSA-N
#pubchem_id 168919
#mb_accession PR300005,PR300010,PR300015,PR300020,PR300025,PR300030,PR300035,PR300040,PR300045,PR300049,PR300054,PR300059,PR310512

>ms2
206.082610 6.000000
230.083100 21.000000
231.090470 8.000000
232.096830 6.000000
243.094500 9.000000
245.107240 43.000000
246.114730 22.000000
256.099210 10.000000
257.108000 42.000000
271.124420 40.000000
272.129240 16.000000
273.094120 6.000000
273.138640 1000.000000
273.186490 28.000000

>ms2
273.091310 12.000000
273.138550 1000.000000
273.186280 30.000000

>ms2
230.084690 19.000000
232.103320 7.000000
243.093340 14.000000
244.100880 6.000000
245.107890 116.000000
246.114500 36.000000
247.115190 7.000000
257.107850 61.000000
258.109310 16.000000
271.123600 75.000000
272.125700 22.000000
273.096890 7.000000
273.139470 1000.000000
273.186710 13.000000

>ms2
77.031090 8.000000
89.043940 6.000000
98.522680 8.000000
101.038990 8.000000
102.032360 6.000000
114.038960 8.000000
115.052180 43.000000
115.057460 16.000000
116.049540 10.000000
127.039120 6.000000
127.052990 29.000000
128.045180 29.000000
128.056760 10.000000
137.587020 5.000000
140.013290 10.000000
140.035140 8.000000
140.046830 77.000000
140.060940 9.000000
141.019560 7.000000
141.038930 11.000000
141.051530 17.000000
141.061310 6.000000
143.072050 7.000000
150.033570 8.000000
152.058110 14.000000
153.044300 8.000000
154.052050 16.000000
154.061130 6.000000
155.063600 15.000000
159.385930 5.000000
164.041050 5.000000
164.047490 10.000000
166.051250 13.000000
166.072330 5.000000
167.047680 5.000000
167.060440 46.000000
167.069460 23.000000
167.080320 8.000000
168.068890 22.000000
169.072270 14.000000
170.081310 8.000000
176.044240 10.000000
176.071850 12.000000
177.050200 17.000000
178.047820 15.000000
178.070210 27.000000
179.049510 7.000000
179.063290 35.000000
179.087110 7.000000
180.063110 11.000000
181.069380 9.000000
181.078740 29.000000
182.071430 18.000000
182.082050 22.000000
182.098970 6.000000
182.951870 6.000000
183.063220 13.000000
183.076520 7.000000
183.317370 5.000000
189.074740 6.000000
189.082550 8.000000
190.063390 9.000000
191.052950 14.000000
191.072400 32.000000
192.063480 8.000000
193.074200 12.000000
193.083100 19.000000
200.051390 7.000000
200.070340 6.000000
203.058720 15.000000
203.068950 36.000000
204.058880 12.000000
204.079160 50.000000
205.045650 11.000000
205.073620 127.000000
205.083420 68.000000
205.095640 13.000000
205.111210 6.000000
205.134600 6.000000
205.517000 6.000000
206.069240 24.000000
206.084870 216.000000
206.209870 5.000000
207.078060 32.000000
207.086440 32.000000
208.084850 7.000000
209.733580 5.000000
216.053440 14.000000
216.074630 49.000000
216.084980 13.000000
217.077410 121.000000
217.092000 38.000000
217.131960 9.000000
218.065900 32.000000
218.086980 73.000000
218.108780 10.000000
219.094360 83.000000
220.095870 30.000000
220.104630 37.000000
227.060200 6.000000
227.071500 7.000000
228.071900 20.000000
228.088240 13.000000
229.047790 7.000000
229.077240 334.000000
230.025740 9.000000
230.049480 18.000000
230.082840 930.000000
230.265260 5.000000
230.787900 8.000000
230.844270 7.000000
231.044820 15.000000
231.061390 9.000000
231.078580 90.000000
231.091800 254.000000
231.145450 6.000000
232.043120 8.000000
232.084380 15.000000
232.098480 147.000000
233.097760 10.000000
240.086350 13.000000
241.080310 24.000000
241.093730 6.000000
242.055450 7.000000
242.081910 176.000000
243.052200 13.000000
243.068920 36.000000
243.091960 621.000000
244.071700 24.000000
244.097630 215.000000
245.050780 5.000000
245.066620 28.000000
245.108120 434.000000
246.062440 5.000000
246.108600 122.000000
246.127880 31.000000
246.144760 8.000000
247.120610 24.000000
250.304380 6.000000
253.093050 9.000000
254.085820 11.000000
255.091670 196.000000
255.799060 5.000000
256.072240 17.000000
256.098820 1000.000000
256.417480 7.000000
256.578400 6.000000
257.071960 34.000000
257.106200 759.000000
258.098050 28.000000
258.110600 116.000000
259.075810 5.000000
259.110530 20.000000
259.136470 12.000000
261.651520 5.000000
266.107700 7.000000
267.094510 17.000000
267.297940 12.000000
268.077790 9.000000
268.097840 49.000000
268.112820 14.000000
269.035460 5.000000
269.044460 7.000000
269.105960 346.000000
270.081910 28.000000
270.104400 91.000000
270.122250 50.000000
271.099370 38.000000
271.121340 325.000000
271.192720 10.000000
272.113770 50.000000
272.125890 70.000000
272.137940 45.000000
273.115750 16.000000
273.139890 143.000000

>ms2
230.078170 8.000000
230.086170 17.000000
231.093000 9.000000
243.091340 19.000000
245.108120 55.000000
246.115280 21.000000
256.099120 11.000000
257.106870 40.000000
258.116700 8.000000
271.121800 43.000000
272.126310 16.000000
273.094970 8.000000
273.138240 1000.000000
273.186310 27.000000

>ms2
273.091090 6.000000
273.137880 1000.000000
273.185610 29.000000

>ms2
230.083130 20.000000
231.086320 5.000000
231.094740 5.000000
232.102950 9.000000
243.092850 14.000000
244.105060 6.000000
245.108690 113.000000
246.114010 33.000000
256.099670 6.000000
257.106720 53.000000
258.113950 19.000000
271.122860 85.000000
272.129640 35.000000
273.100680 9.000000
273.138850 1000.000000
273.186160 19.000000

>ms2
77.024900 8.000000
79.062740 8.000000
80.743640 10.000000
98.018440 8.000000
105.068490 5.000000
115.055560 38.000000
116.048020 8.000000
116.062930 21.000000
128.048740 5.000000
128.055680 8.000000
139.046360 7.000000
139.054060 17.000000
140.049210 123.000000
140.996520 5.000000
141.047130 15.000000
143.072190 7.000000
148.755620 7.000000
151.055110 29.000000
153.033980 5.000000
153.055010 21.000000
154.062380 25.000000
154.068100 11.000000
156.067950 6.000000
163.058440 20.000000
164.052190 7.000000
165.066970 17.000000
166.066420 17.000000
167.056550 23.000000
167.072050 10.000000
168.062390 10.000000
168.072480 6.000000
170.082820 8.000000
172.030400 11.000000
176.058520 11.000000
177.063890 11.000000
178.067570 45.000000
179.067260 15.000000
179.080440 10.000000
179.423610 5.000000
180.063220 6.000000
180.079910 8.000000
181.073300 23.000000
181.089720 11.000000
182.082790 19.000000
189.063220 7.000000
189.073500 15.000000
190.051860 11.000000
190.060000 35.000000
190.198990 5.000000
191.065690 16.000000
191.073880 15.000000
191.090740 6.000000
192.073560 17.000000
192.083420 5.000000
193.068910 8.000000
193.079410 43.000000
193.092560 5.000000
194.370000 5.000000
196.088880 5.000000
201.062850 10.000000
201.838470 10.000000
202.040050 6.000000
202.068340 22.000000
202.970570 9.000000
203.065870 28.000000
203.081470 12.000000
204.055270 6.000000
204.073010 48.000000
205.064270 34.000000
205.078000 133.000000
206.054260 5.000000
206.085800 263.000000
207.086210 11.000000
207.099000 22.000000
208.092350 12.000000
214.066220 8.000000
214.082530 10.000000
215.051160 12.000000
215.074890 8.000000
216.055110 10.000000
216.071880 37.000000
216.089520 14.000000
217.060990 15.000000
217.083740 175.000000
217.846220 7.000000
218.065060 30.000000
218.085540 87.000000
218.096150 41.000000
219.064060 17.000000
219.091160 82.000000
219.100390 34.000000
220.096370 39.000000
220.109920 8.000000
227.054110 10.000000
227.079730 7.000000
228.066210 6.000000
228.088000 25.000000
229.051900 8.000000
229.076970 386.000000
230.048920 9.000000
230.065310 35.000000
230.084580 1000.000000
231.029600 18.000000
231.071300 40.000000
231.089370 286.000000
232.078570 10.000000
232.095150 109.000000
232.120500 7.000000
233.075210 5.000000
234.116620 7.000000
239.454240 8.000000
240.080510 8.000000
241.075230 6.000000
241.083360 19.000000
241.096950 26.000000
241.480150 6.000000
242.058730 11.000000
242.084340 113.000000
242.102770 15.000000
242.119370 17.000000
243.091740 798.000000
244.056950 13.000000
244.077500 13.000000
244.092510 182.000000
244.103850 214.000000
244.137920 5.000000
245.066760 14.000000
245.096100 115.000000
245.109070 297.000000
245.130080 8.000000
246.080060 13.000000
246.092760 23.000000
246.118560 173.000000
247.111570 50.000000
247.130490 12.000000
254.046190 12.000000
254.085590 6.000000
254.109100 15.000000
255.056810 5.000000
255.091110 322.000000
256.097810 967.000000
256.641360 8.000000
257.033450 5.000000
257.094330 154.000000
257.104980 592.000000
258.084930 10.000000
258.106380 125.000000
258.117770 35.000000
259.086430 6.000000
260.128570 10.000000
260.774990 6.000000
262.815430 7.000000
267.106320 15.000000
268.075530 10.000000
268.101410 81.000000
269.070680 15.000000
269.106450 319.000000
269.128270 19.000000
270.096130 33.000000
270.118290 161.000000
271.084750 10.000000
271.108220 79.000000
271.124850 331.000000
271.153230 7.000000
271.651920 6.000000
272.104030 8.000000
272.124390 82.000000
272.677090 7.000000
273.105710 6.000000
273.131590 62.000000
273.144100 89.000000

>ms2
230.084790 19.000000
231.093350 7.000000
232.104080 5.000000
243.087630 6.000000
243.100080 9.000000
244.098510 7.000000
245.107600 49.000000
246.114350 16.000000
256.100040 11.000000
257.107910 26.000000
257.118800 9.000000
258.112790 10.000000
269.114070 5.000000
271.122800 39.000000
272.125340 8.000000
273.101530 5.000000
273.138760 1000.000000
273.186430 29.000000

>ms2
273.137940 1000.000000
273.185670 30.000000

>ms2
206.084810 7.000000
230.087720 17.000000
231.090010 8.000000
232.103000 13.000000
243.084980 6.000000
244.098660 6.000000
245.108370 113.000000
246.112150 36.000000
247.116640 8.000000
256.101290 8.000000
257.105590 64.000000
258.104710 8.000000
271.122860 67.000000
272.112580 6.000000
272.131770 29.000000
273.138820 1000.000000
273.186490 17.000000

>ms2
77.040310 6.000000
89.037480 10.000000
103.052160 20.000000
105.058450 6.000000
115.053280 50.000000
116.040690 6.000000
116.049000 17.000000
117.058060 8.000000
125.035150 7.000000
126.046530 7.000000
127.051310 6.000000
128.042980 7.000000
128.054370 6.000000
129.051800 5.000000
129.063670 13.000000
132.355670 7.000000
140.049760 68.000000
140.055690 34.000000
141.042570 18.000000
142.050030 5.000000
150.052400 5.000000
154.066100 38.000000
154.936810 6.000000
166.071850 9.000000
166.671550 11.000000
167.053590 25.000000
167.073850 10.000000
168.060200 7.000000
168.070270 14.000000
169.064590 8.000000
174.821810 7.000000
179.070940 22.000000
181.076710 15.000000
182.077120 16.000000
182.088360 7.000000
183.089170 8.000000
189.055630 6.000000
189.067790 7.000000
190.056850 9.000000
190.066130 22.000000
190.073730 7.000000
191.069560 18.000000
192.072650 32.000000
192.084980 9.000000
193.077560 16.000000
200.072850 6.000000
201.513370 11.000000
202.065870 47.000000
203.027110 5.000000
203.062470 24.000000
204.060330 13.000000
204.074690 43.000000
204.084170 27.000000
204.098910 6.000000
205.059710 9.000000
205.070590 42.000000
205.079300 101.000000
205.923550 6.000000
206.043410 9.000000
206.083920 201.000000
207.088240 43.000000
214.057460 5.000000
214.070020 12.000000
215.048650 9.000000
215.065570 12.000000
215.075520 10.000000
215.996020 7.000000
216.045350 15.000000
216.072200 80.000000
217.072540 43.000000
217.092820 51.000000
218.089130 90.000000
219.079730 28.000000
219.093320 46.000000
219.108780 7.000000
220.101990 77.000000
227.055920 6.000000
227.082870 5.000000
228.063860 8.000000
228.078430 17.000000
228.088490 22.000000
229.052340 20.000000
229.076810 355.000000
229.148220 6.000000
229.252730 7.000000
229.372120 9.000000
230.084380 1000.000000
230.176540 6.000000
230.882050 9.000000
231.056370 12.000000
231.064360 33.000000
231.090960 288.000000
232.077940 14.000000
232.099610 91.000000
232.359210 6.000000
233.102780 10.000000
233.114840 7.000000
240.059400 6.000000
240.075010 6.000000
242.033400 9.000000
242.048070 5.000000
242.081380 119.000000
242.098010 17.000000
243.045500 5.000000
243.091930 725.000000
243.120910 7.000000
244.074110 10.000000
244.089230 89.000000
244.098040 264.000000
245.040080 6.000000
245.078960 12.000000
245.106140 488.000000
246.100280 30.000000
246.114520 106.000000
246.124150 45.000000
247.089280 7.000000
247.111630 30.000000
250.826260 6.000000
253.070590 12.000000
253.084760 13.000000
255.072130 13.000000
255.091860 169.000000
255.111620 9.000000
256.066010 10.000000
256.100920 901.000000
257.069920 10.000000
257.107480 723.000000
258.073610 6.000000
258.111210 102.000000
259.110230 15.000000
261.139800 8.000000
267.077880 6.000000
267.101170 9.000000
268.089080 10.000000
268.102140 41.000000
269.079130 19.000000
269.106570 168.000000
269.118960 84.000000
270.007230 5.000000
270.110170 51.000000
270.121640 49.000000
271.077550 12.000000
271.097750 11.000000
271.121150 441.000000
272.105710 6.000000
272.129970 162.000000
272.171540 6.000000
273.102260 6.000000
273.140440 203.000000

>ms2
115.047330 38.000000
119.082210 29.000000
136.208400 34.000000
138.924450 35.000000
140.046130 33.000000
140.055570 24.000000
152.112350 17.000000
154.066350 23.000000
158.043270 20.000000
158.724260 33.000000
159.888730 19.000000
160.602950 18.000000
165.064540 20.000000
167.057360 79.000000
167.064830 25.000000
167.976470 34.000000
168.061130 36.000000
168.214520 30.000000
170.534850 18.000000
172.000610 35.000000
172.898680 33.000000
175.264180 26.000000
176.066100 27.000000
177.329710 18.000000
181.049410 21.000000
181.064930 45.000000
181.077410 38.000000
181.086940 20.000000
182.076230 34.000000
182.084370 61.000000
183.083570 17.000000
184.744870 21.000000
184.761610 18.000000
186.189300 19.000000
188.157170 30.000000
192.013430 20.000000
193.079570 25.000000
194.578370 48.000000
195.098850 18.000000
196.101360 19.000000
202.077730 17.000000
202.562240 30.000000
204.077930 23.000000
204.085080 80.000000
205.071550 112.000000
205.089070 28.000000
206.082610 359.000000
207.090990 49.000000
213.057080 30.000000
214.689480 43.000000
217.050370 25.000000
217.067090 25.000000
217.076510 22.000000
218.096950 194.000000
219.084780 38.000000
219.093980 62.000000
222.905060 24.000000
229.061510 22.000000
229.073240 71.000000
229.080830 157.000000
230.059650 41.000000
230.083100 1357.000000
231.044660 39.000000
231.072880 19.000000
231.090470 509.000000
231.127760 18.000000
231.688900 17.000000
231.707570 17.000000
232.084140 53.000000
232.096830 397.000000
232.109310 96.000000
233.100160 76.000000
235.491580 29.000000
237.042340 32.000000
240.866100 31.000000
241.083360 27.000000
241.097660 23.000000
243.083210 287.000000
243.094500 604.000000
243.204830 20.000000
244.070220 19.000000
244.078400 25.000000
244.096560 272.000000
244.113620 64.000000
245.077450 51.000000
245.107240 2791.000000
245.204960 17.000000
246.114730 1427.000000
246.221950 25.000000
246.352420 18.000000
247.099120 19.000000
247.112730 46.000000
247.126950 60.000000
247.410600 30.000000
247.494870 30.000000
248.129460 19.000000
248.720870 25.000000
250.633710 25.000000
250.981550 25.000000
252.479430 18.000000
255.011840 26.000000
255.079180 70.000000
255.095060 20.000000
255.420650 18.000000
256.099210 654.000000
256.242920 17.000000
256.580350 19.000000
257.064510 114.000000
257.108000 2688.000000
257.175780 24.000000
257.790800 30.000000
258.102080 211.000000
258.116880 298.000000
259.026640 24.000000
259.095370 23.000000
259.107640 184.000000
259.120880 23.000000
259.644170 20.000000
259.776550 21.000000
260.130550 30.000000
260.146210 33.000000
260.160060 57.000000
261.081540 21.000000
266.424440 17.000000
267.570980 23.000000
268.080350 30.000000
268.102290 34.000000
269.089690 25.000000
269.112000 121.000000
269.136540 45.000000
269.281590 26.000000
270.090730 18.000000
270.121640 23.000000
271.039920 27.000000
271.091890 57.000000
271.124420 2563.000000
271.669340 18.000000
271.751100 20.000000
271.878390 18.000000
271.956450 24.000000
272.082030 19.000000
272.099430 22.000000
272.129240 1044.000000
272.196660 22.000000
272.331450 30.000000
272.372250 20.000000
272.531770 21.000000
272.610140 48.000000
272.730380 20.000000
272.966830 22.000000
273.031950 38.000000
273.067350 176.000000
273.094120 379.000000
273.138640 64345.000000
273.186490 1821.000000
273.234890 55.000000
273.292050 71.000000
273.316350 39.000000
273.336670 107.000000

