>compound PR30800425
>parentmass 632.3065377000001
>ionization [M+H]+
>formula C33H45NO11
>rt 336.691980
>profile qtof
#smiles_iso CC(=O)O[C@@]12[C@@H]3[C@@H](C[C@@]([C@@H]3OC(=O)C4=CC=CC=C4)([C@H]([C@@H]1O)OC)O)[C@]56[C@H](C[C@H]([C@@]7([C@H]5[C@H]([C@H]2C6N(C7)C)OC)COC)O)OC
#smiles_can CC(=O)OC12C3C(CC(C3OC(=O)C4=CC=CC=C4)(C(C1O)OC)O)C56C(CC(C7(C5C(C2C6N(C7)C)OC)COC)O)OC
#inchikey XUHJBXVYNBQQBD-TUWOXVOMSA-N
#pubchem_id 441747
#mb_accession PR300602,PR300607,PR300612,PR300617,PR300622,PR300631,PR300636,PR300641,PR300646,PR300651

>ms2peaks
105.034190 8.000000
354.170290 16.000000
508.237060 6.000000
512.268860 16.000000
522.267640 7.000000
523.255680 5.000000
540.248410 10.000000
540.265690 8.000000
572.277040 63.000000
572.296810 50.000000
573.290530 39.000000
574.307370 5.000000
632.212520 9.000000
632.234500 5.000000
632.308720 1000.000000
632.383970 21.000000

>ms2peaks
632.238280 6.000000
632.309020 1000.000000
632.383120 25.000000

>ms2peaks
105.034260 12.000000
336.169890 5.000000
354.170780 32.000000
355.171910 8.000000
462.231260 7.000000
480.235230 6.000000
490.234310 7.000000
508.239230 13.000000
509.240450 6.000000
512.261600 43.000000
513.265140 12.000000
522.232120 11.000000
522.253110 34.000000
523.254390 5.000000
540.261170 58.000000
541.250430 7.000000
541.274410 9.000000
554.273620 11.000000
572.213620 11.000000
572.286380 400.000000
573.228520 6.000000
573.289060 152.000000
574.292910 48.000000
575.289180 7.000000
582.271060 27.000000
583.275940 9.000000
600.276670 11.000000
632.184940 5.000000
632.216000 7.000000
632.243100 12.000000
632.309200 1000.000000
632.385560 12.000000

>ms2peaks
58.067090 14.000000
71.050030 10.000000
75.044230 25.000000
77.037180 11.000000
77.041210 14.000000
79.057540 10.000000
81.069010 7.000000
82.065810 13.000000
84.051030 5.000000
85.027360 11.000000
87.049310 8.000000
88.072780 7.000000
88.077870 11.000000
91.051110 10.000000
91.057090 10.000000
94.065160 15.000000
96.081020 19.000000
100.077110 8.000000
104.060510 5.000000
105.033820 1000.000000
105.070230 24.000000
106.036770 84.000000
107.039850 8.000000
107.048980 8.000000
108.079350 25.000000
109.059810 9.000000
109.065060 26.000000
109.072100 6.000000
109.086360 6.000000
110.069890 5.000000
111.045320 9.000000
111.081770 68.000000
113.084870 9.000000
113.092580 7.000000
115.053220 5.000000
117.072000 53.000000
118.077050 5.000000
119.050460 10.000000
119.076610 7.000000
121.065030 15.000000
122.070720 5.000000
123.044710 8.000000
123.049640 10.000000
123.073280 7.000000
124.071510 13.000000
126.091870 19.000000
129.065690 13.000000
129.074010 18.000000
130.068070 6.000000
131.083890 25.000000
132.077000 12.000000
132.088040 15.000000
132.093520 5.000000
133.029850 8.000000
133.103940 6.000000
134.100280 9.000000
135.044220 8.000000
135.080780 18.000000
137.049730 7.000000
137.060550 22.000000
138.069900 11.000000
138.088760 44.000000
139.095490 9.000000
141.071180 20.000000
141.093800 7.000000
143.076280 6.000000
144.077300 12.000000
144.084470 21.000000
145.057630 7.000000
145.063030 23.000000
145.085210 8.000000
145.092350 6.000000
146.035920 8.000000
146.060460 9.000000
146.092250 13.000000
147.038130 21.000000
147.049930 7.000000
147.061230 6.000000
147.082820 27.000000
148.067830 7.000000
148.075360 25.000000
149.063550 8.000000
150.092350 11.000000
152.101270 8.000000
153.052640 5.000000
153.067720 15.000000
153.073320 9.000000
154.071870 13.000000
155.045150 6.000000
155.080180 9.000000
155.088070 5.000000
156.090870 7.000000
157.092000 12.000000
157.105010 5.000000
158.071490 11.000000
158.094890 25.000000
159.047620 5.000000
159.082790 29.000000
159.099110 5.000000
160.073850 90.000000
160.110990 6.000000
161.020630 6.000000
161.071670 11.000000
161.081950 24.000000
161.095890 18.000000
163.076320 13.000000
164.101720 9.000000
164.108050 36.000000
165.044400 8.000000
165.052020 7.000000
165.069920 34.000000
165.088170 5.000000
165.095310 8.000000
165.110860 9.000000
166.069370 6.000000
166.078740 11.000000
167.076110 6.000000
167.084590 21.000000
167.096790 8.000000
168.089430 6.000000
169.064700 21.000000
169.089370 7.000000
170.070180 7.000000
170.090030 9.000000
170.098460 20.000000
171.075530 26.000000
171.088360 8.000000
171.104890 18.000000
172.078920 9.000000
172.113530 43.000000
173.060530 18.000000
173.075240 6.000000
173.096020 6.000000
173.111740 5.000000
174.051240 28.000000
174.070710 9.000000
175.051180 10.000000
175.065640 15.000000
175.079620 5.000000
176.066850 10.000000
176.076740 32.000000
176.113740 15.000000
177.053150 6.000000
177.062970 11.000000
177.119280 8.000000
178.069320 6.000000
178.077610 7.000000
178.093660 7.000000
178.119770 7.000000
179.083340 35.000000
179.105150 6.000000
180.095790 5.000000
180.109560 6.000000
181.066960 6.000000
181.091130 15.000000
181.103320 10.000000
182.089830 11.000000
182.101470 20.000000
183.042790 5.000000
183.083830 9.000000
183.103560 8.000000
184.117510 7.000000
185.059660 12.000000
185.091400 7.000000
186.092770 13.000000
187.071240 11.000000
187.101750 7.000000
188.075680 6.000000
188.106280 29.000000
189.069000 14.000000
189.088610 7.000000
190.079540 19.000000
190.089920 13.000000
190.119630 15.000000
191.074420 7.000000
191.080230 13.000000
191.089280 16.000000
192.091320 21.000000
193.058590 9.000000
193.069290 6.000000
193.104510 28.000000
193.114140 8.000000
194.069950 5.000000
194.095860 10.000000
194.108490 9.000000
195.080260 31.000000
195.107380 14.000000
195.124620 8.000000
196.082280 11.000000
196.091960 7.000000
196.110090 5.000000
197.065170 9.000000
197.099290 23.000000
197.118590 7.000000
197.126820 5.000000
199.071430 13.000000
200.089460 10.000000
200.114350 8.000000
201.072890 9.000000
202.055270 8.000000
202.068560 10.000000
202.080170 24.000000
202.091630 18.000000
202.109680 6.000000
202.119950 9.000000
202.995380 5.000000
203.066860 7.000000
203.076480 13.000000
203.088330 28.000000
203.127640 10.000000
204.085600 18.000000
204.095090 20.000000
204.136700 52.000000
204.147110 37.000000
205.094300 27.000000
205.104810 42.000000
205.139210 10.000000
206.068950 8.000000
206.085220 9.000000
206.097760 14.000000
206.115770 18.000000
206.723820 5.000000
207.075290 11.000000
207.083740 23.000000
207.120610 24.000000
208.089100 10.000000
208.115040 24.000000
209.088130 15.000000
209.097870 11.000000
209.117550 9.000000
211.101620 10.000000
212.125320 5.000000
213.095720 10.000000
213.115620 5.000000
214.068530 6.000000
214.121800 8.000000
214.129930 7.000000
215.071530 10.000000
215.084670 23.000000
215.094040 11.000000
216.091340 14.000000
216.104190 7.000000
216.114900 8.000000
217.071950 6.000000
217.081010 13.000000
217.097700 29.000000
217.110580 12.000000
218.068130 11.000000
218.096970 7.000000
218.107210 10.000000
219.074370 20.000000
219.091220 6.000000
220.083830 18.000000
220.132860 6.000000
221.055710 6.000000
221.095020 17.000000
221.105930 8.000000
221.124730 8.000000
222.062070 11.000000
222.073580 8.000000
222.096210 5.000000
222.123460 7.000000
222.141270 7.000000
223.067960 8.000000
223.111770 31.000000
223.123500 12.000000
223.156040 6.000000
224.107410 8.000000
224.118550 10.000000
225.083620 5.000000
225.093770 5.000000
225.116420 10.000000
226.094330 9.000000
226.123020 16.000000
227.076920 7.000000
227.110780 11.000000
227.128010 7.000000
229.109190 6.000000
230.121170 11.000000
231.083450 20.000000
232.081360 7.000000
232.092930 11.000000
232.109510 5.000000
233.094640 69.000000
233.114270 12.000000
234.092880 16.000000
234.106860 12.000000
234.133830 10.000000
234.142720 6.000000
235.074340 37.000000
235.102520 8.000000
235.114300 19.000000
235.125790 11.000000
236.088640 13.000000
236.112700 19.000000
236.142400 10.000000
237.093140 26.000000
237.124480 16.000000
237.133190 15.000000
238.098830 9.000000
238.111150 17.000000
238.120730 8.000000
239.102690 10.000000
239.127880 5.000000
240.125150 6.000000
240.140850 9.000000
241.087980 9.000000
241.145650 8.000000
244.083080 6.000000
245.097500 24.000000
246.068240 7.000000
246.103640 7.000000
246.128140 8.000000
247.063780 7.000000
247.075990 17.000000
247.085010 9.000000
247.112400 17.000000
247.120760 9.000000
248.085530 12.000000
248.111190 9.000000
248.152360 11.000000
249.091630 21.000000
249.102220 12.000000
249.128750 19.000000
250.085770 5.000000
250.098100 19.000000
250.108350 8.000000
250.123050 15.000000
251.102020 66.000000
251.138380 9.000000
252.109090 7.000000
252.132100 19.000000
253.110600 8.000000
253.123000 13.000000
253.135100 7.000000
254.108250 6.000000
254.845490 6.000000
255.166200 7.000000
257.090610 6.000000
259.077700 6.000000
259.089200 9.000000
259.100520 17.000000
260.078950 8.000000
260.119690 9.000000
261.088780 78.000000
261.107640 13.000000
262.095730 11.000000
262.112670 9.000000
262.122800 8.000000
263.108030 32.000000
263.131380 8.000000
264.082120 5.000000
264.103120 17.000000
265.103580 10.000000
265.125490 30.000000
266.122040 30.000000
266.138790 5.000000
267.096130 9.000000
267.109130 8.000000
267.124510 6.000000
267.139250 6.000000
268.107300 10.000000
268.164370 5.000000
269.114010 7.000000
269.123500 6.000000
270.119320 8.000000
270.148680 9.000000
273.078800 6.000000
274.114780 5.000000
275.105560 14.000000
276.128970 21.000000
276.152370 11.000000
277.112850 11.000000
277.136660 12.000000
277.148740 9.000000
279.102450 26.000000
279.134030 11.000000
280.101380 6.000000
280.119050 9.000000
280.132480 20.000000
281.114110 9.000000
282.147640 26.000000
283.120060 7.000000
284.156070 10.000000
284.167850 8.000000
286.123350 11.000000
287.122590 7.000000
290.080720 7.000000
290.103820 5.000000
291.104830 12.000000
291.131840 9.000000
292.122650 15.000000
292.138030 23.000000
293.118290 36.000000
294.117890 7.000000
294.129330 19.000000
294.148010 18.000000
294.157230 13.000000
295.114560 6.000000
295.136080 15.000000
295.153780 25.000000
296.100620 5.000000
296.139130 9.000000
296.173770 7.000000
298.162320 12.000000
304.127990 21.000000
304.144070 5.000000
305.132660 8.000000
306.124150 8.000000
308.154510 9.000000
308.163450 28.000000
309.134490 8.000000
310.146210 13.000000
310.167790 5.000000
311.118900 5.000000
311.144230 5.000000
312.191990 14.000000
314.181370 8.000000
322.142060 15.000000
324.121220 10.000000
324.162260 10.000000
325.139220 18.000000
325.170320 8.000000
326.157810 24.000000
326.177490 67.000000
326.190310 22.000000
327.154850 6.000000
327.169770 12.000000
327.185850 7.000000
330.203670 8.000000
330.218600 6.000000
334.143010 8.000000
336.156890 30.000000
336.167540 16.000000
337.137660 7.000000
337.158390 8.000000
337.169950 10.000000
339.149720 5.000000
340.164760 14.000000
340.183650 71.000000
340.196840 36.000000
340.207760 19.000000
341.179530 8.000000
341.199490 16.000000
342.187320 7.000000
344.214900 12.000000
354.038760 5.000000
354.171170 407.000000
355.135350 6.000000
355.167880 90.000000
355.185580 34.000000
356.176910 27.000000
356.190520 16.000000
358.198060 38.000000
359.203370 8.000000
360.168090 9.000000
362.225770 9.000000
362.241460 22.000000
364.232730 7.000000
368.178160 6.000000
368.210600 5.000000
372.176420 8.000000
372.208280 18.000000
372.222990 14.000000
372.238830 8.000000
374.220580 7.000000
386.190860 15.000000
387.192600 5.000000
390.205110 13.000000
390.227020 64.000000
391.210660 5.000000
391.233800 23.000000
400.196350 8.000000
403.188110 8.000000
404.209530 14.000000
416.174440 6.000000
416.186980 5.000000
417.205540 10.000000
418.170750 5.000000
418.213900 13.000000
419.204280 8.000000
422.206090 5.000000
426.160950 15.000000
430.205540 23.000000
433.188450 6.000000
447.199340 12.000000
448.188540 18.000000
448.214290 25.000000
449.199650 6.000000
449.221650 10.000000
458.195620 8.000000
458.213560 10.000000
462.170650 11.000000
462.229400 114.000000
463.206540 8.000000
463.225280 28.000000
464.150790 5.000000
464.207520 31.000000
464.251500 11.000000
465.203550 26.000000
466.220250 8.000000
466.238010 12.000000
476.210630 40.000000
477.232820 6.000000
478.207210 10.000000
480.190640 8.000000
480.226380 35.000000
480.253600 52.000000
481.238890 23.000000
481.266170 13.000000
482.248660 6.000000
490.195650 20.000000
490.223540 33.000000
491.198210 7.000000
491.223750 6.000000
494.215760 6.000000
494.246550 11.000000
494.269840 10.000000
495.245610 5.000000
495.275120 10.000000
496.228640 25.000000
496.247340 10.000000
497.243380 14.000000
508.200530 10.000000
508.219060 12.000000
508.239530 41.000000
508.255100 17.000000
509.215330 7.000000
509.238770 21.000000
510.242070 5.000000
512.266300 105.000000
513.242190 6.000000
513.269650 22.000000
514.269470 7.000000
522.228820 7.000000
522.254150 51.000000
523.254760 27.000000
540.222230 8.000000
540.263730 57.000000
540.282530 15.000000
541.264340 22.000000
541.293520 10.000000
554.269350 12.000000
572.246580 13.000000
572.285890 166.000000
572.309330 35.000000
573.243590 6.000000
573.280400 58.000000
573.305110 34.000000
573.327820 7.000000
574.282170 11.000000
582.259340 6.000000
632.288210 8.000000
632.311400 19.000000
632.343810 8.000000

>ms2peaks
105.033360 7.000000
354.170260 19.000000
508.229030 6.000000
512.258540 13.000000
522.257750 6.000000
540.249270 11.000000
540.274230 6.000000
541.263490 6.000000
572.286990 117.000000
573.289430 40.000000
574.301700 6.000000
582.264890 5.000000
632.231080 11.000000
632.308170 1000.000000
632.383610 21.000000

>ms2peaks
105.034890 12.000000
336.167450 5.000000
354.152250 9.000000
354.172180 28.000000
355.170780 5.000000
490.216400 7.000000
508.233760 9.000000
512.267330 37.000000
513.274840 11.000000
522.243040 20.000000
522.264650 15.000000
523.267090 9.000000
540.258610 52.000000
541.260250 22.000000
554.269040 11.000000
572.221740 8.000000
572.286250 415.000000
573.289490 161.000000
574.291630 42.000000
575.312680 6.000000
582.269410 27.000000
583.264220 7.000000
583.291500 6.000000
600.282100 8.000000
632.233760 18.000000
632.307980 1000.000000
632.375490 10.000000

>ms2peaks
74.062870 11.000000
75.043750 13.000000
77.039120 15.000000
81.070880 8.000000
89.060580 6.000000
91.055520 8.000000
94.066200 28.000000
96.080430 12.000000
97.026270 10.000000
105.033840 1000.000000
105.064310 8.000000
106.037300 100.000000
108.081940 35.000000
109.056110 5.000000
109.063270 19.000000
109.070290 13.000000
111.066940 5.000000
111.081310 56.000000
113.089470 7.000000
116.062070 6.000000
117.071560 28.000000
118.077450 7.000000
119.046800 7.000000
119.086900 6.000000
120.078900 15.000000
123.038410 6.000000
123.053480 7.000000
124.075190 6.000000
125.058300 7.000000
126.088450 14.000000
127.043960 8.000000
127.075260 6.000000
128.054580 5.000000
128.106030 8.000000
128.111420 6.000000
129.070430 37.000000
131.085110 12.000000
132.075960 8.000000
132.084780 13.000000
133.018220 5.000000
133.031780 9.000000
133.062360 6.000000
133.090500 10.000000
134.096730 19.000000
135.045230 19.000000
135.078510 27.000000
135.105330 6.000000
136.083270 5.000000
137.056690 29.000000
138.089650 31.000000
138.100050 7.000000
139.099290 6.000000
140.108810 10.000000
141.072110 18.000000
141.089390 26.000000
144.084090 11.000000
144.092940 6.000000
145.060930 5.000000
145.065980 9.000000
146.036130 12.000000
146.062060 8.000000
146.096940 7.000000
147.042710 16.000000
147.078020 10.000000
147.085680 8.000000
147.110150 7.000000
148.064090 6.000000
148.078120 10.000000
149.079900 6.000000
150.093780 20.000000
152.073460 7.000000
153.075410 22.000000
155.085770 38.000000
157.066790 12.000000
158.095700 20.000000
158.103740 7.000000
159.044280 9.000000
159.080890 15.000000
159.090700 7.000000
159.102920 8.000000
160.053240 15.000000
160.075520 109.000000
160.082840 51.000000
160.108930 10.000000
160.117170 8.000000
161.022280 17.000000
161.046950 6.000000
161.056550 10.000000
161.075420 18.000000
161.089920 25.000000
161.100220 9.000000
162.084630 8.000000
162.094120 13.000000
162.127200 6.000000
163.078250 16.000000
164.109020 26.000000
164.118710 6.000000
165.053160 11.000000
165.067980 11.000000
165.089170 32.000000
167.073040 6.000000
167.085010 32.000000
169.072660 10.000000
169.103440 7.000000
170.069090 6.000000
170.093140 9.000000
170.100110 11.000000
171.074480 14.000000
171.095750 16.000000
172.112210 60.000000
173.064450 10.000000
173.105480 5.000000
173.118450 9.000000
174.053210 43.000000
174.085310 7.000000
174.107560 6.000000
175.063130 14.000000
176.068340 8.000000
176.106990 32.000000
176.116520 11.000000
178.074220 6.000000
178.082720 7.000000
178.091020 8.000000
179.086870 40.000000
180.070310 6.000000
180.090040 11.000000
181.066890 12.000000
181.085100 5.000000
181.102830 5.000000
182.098130 5.000000
184.090960 10.000000
185.062030 12.000000
185.097310 17.000000
185.120480 7.000000
186.069370 12.000000
187.069270 6.000000
187.077060 6.000000
188.101210 7.000000
188.111390 14.000000
189.065120 7.000000
189.077700 31.000000
189.091870 6.000000
190.070850 9.000000
190.081130 16.000000
190.093960 9.000000
190.120380 11.000000
191.083620 23.000000
192.087420 11.000000
192.095340 15.000000
192.141040 10.000000
193.100330 27.000000
193.112230 8.000000
194.068630 7.000000
194.099870 10.000000
195.077960 10.000000
195.085950 12.000000
195.106750 12.000000
195.127330 8.000000
196.089550 8.000000
197.060100 7.000000
197.085070 13.000000
197.099780 16.000000
197.106860 5.000000
198.063890 8.000000
198.088530 8.000000
199.076170 8.000000
201.091630 6.000000
201.112230 7.000000
202.059690 7.000000
202.070330 12.000000
202.083500 25.000000
202.112700 8.000000
202.127850 7.000000
203.083860 36.000000
203.094860 14.000000
203.128800 12.000000
204.101780 13.000000
204.136460 82.000000
205.064010 12.000000
205.075740 8.000000
205.102100 62.000000
205.120940 5.000000
205.146730 6.000000
206.082200 9.000000
206.108640 23.000000
207.077970 18.000000
207.089230 12.000000
207.109330 5.000000
207.120270 10.000000
208.076720 9.000000
208.085460 17.000000
208.119140 14.000000
208.138440 9.000000
209.059430 6.000000
209.088710 12.000000
209.099750 33.000000
210.068240 9.000000
210.093140 13.000000
210.104660 7.000000
211.069080 7.000000
211.105410 12.000000
212.105480 18.000000
213.092360 17.000000
214.092420 9.000000
214.113220 11.000000
215.090680 43.000000
215.111470 11.000000
215.129360 8.000000
217.091260 11.000000
217.104250 27.000000
218.075200 10.000000
218.110150 11.000000
218.899060 5.000000
219.079990 19.000000
219.096970 7.000000
219.117030 32.000000
220.090970 13.000000
220.104020 11.000000
221.097840 53.000000
222.094410 19.000000
222.102010 6.000000
222.140520 12.000000
222.151210 6.000000
223.071030 11.000000
223.092880 7.000000
223.110720 21.000000
223.131870 8.000000
224.079990 6.000000
224.094640 5.000000
224.107360 8.000000
224.118300 9.000000
225.086240 8.000000
225.101580 22.000000
226.079500 10.000000
227.099690 16.000000
229.090790 18.000000
229.111970 6.000000
230.080350 6.000000
230.118290 9.000000
231.070270 8.000000
231.101010 5.000000
231.109070 10.000000
232.114580 6.000000
233.083340 12.000000
233.099040 85.000000
234.068530 8.000000
234.100250 22.000000
234.112320 20.000000
234.120000 6.000000
235.072020 6.000000
235.083480 6.000000
235.104460 22.000000
235.113690 28.000000
235.126240 10.000000
235.140550 7.000000
236.082930 19.000000
236.160710 5.000000
237.083950 15.000000
237.095210 25.000000
237.111300 14.000000
237.126510 8.000000
238.126400 13.000000
239.104860 7.000000
240.101900 13.000000
240.137050 8.000000
245.096130 33.000000
245.119250 8.000000
246.097580 7.000000
246.113330 15.000000
246.132520 14.000000
247.072110 7.000000
247.114900 19.000000
248.100940 15.000000
248.111680 9.000000
248.129010 10.000000
248.143260 11.000000
249.086840 24.000000
249.101240 6.000000
249.120380 18.000000
249.129960 6.000000
250.089920 11.000000
250.106540 20.000000
250.123370 22.000000
251.084640 7.000000
251.105480 32.000000
251.118270 7.000000
252.084290 6.000000
252.103550 8.000000
252.116550 11.000000
252.620770 5.000000
253.094700 8.000000
253.115590 18.000000
253.129170 6.000000
255.106800 7.000000
256.130070 7.000000
258.135830 14.000000
259.098570 29.000000
260.067810 5.000000
261.094730 50.000000
261.115480 12.000000
262.083010 6.000000
262.104520 7.000000
262.116420 10.000000
262.133640 7.000000
263.103670 26.000000
263.125950 5.000000
264.096920 15.000000
264.112150 6.000000
264.135130 5.000000
265.087920 15.000000
265.117250 31.000000
266.122500 11.000000
266.158420 11.000000
267.105260 12.000000
267.125000 6.000000
268.135990 23.000000
269.118500 7.000000
273.092160 17.000000
275.107420 15.000000
276.116730 9.000000
276.138980 34.000000
277.109410 7.000000
277.129240 9.000000
277.141820 9.000000
278.105380 8.000000
278.120360 19.000000
279.107450 28.000000
279.126160 7.000000
279.147520 5.000000
280.108890 14.000000
280.174500 9.000000
281.134400 7.000000
281.152770 10.000000
282.143280 30.000000
282.156250 12.000000
283.133910 12.000000
284.167450 8.000000
290.167390 6.000000
291.126370 7.000000
292.138090 10.000000
293.112300 35.000000
293.138730 14.000000
294.129240 7.000000
294.148470 32.000000
295.132110 11.000000
297.149750 9.000000
298.139160 7.000000
298.151550 5.000000
298.182530 7.000000
299.165770 8.000000
300.161440 7.000000
304.128080 19.000000
304.139430 8.000000
305.137330 12.000000
306.124110 5.000000
306.152400 11.000000
307.118500 8.000000
308.125700 8.000000
308.162480 17.000000
309.153260 12.000000
310.123290 10.000000
310.141970 25.000000
311.140840 15.000000
312.154450 6.000000
312.198240 7.000000
313.148130 5.000000
321.132540 5.000000
322.138580 14.000000
322.148830 9.000000
325.138760 16.000000
325.153750 7.000000
326.174960 75.000000
327.157290 7.000000
327.182800 15.000000
336.130070 12.000000
336.157810 42.000000
340.169950 13.000000
340.191860 90.000000
341.172940 11.000000
341.195340 20.000000
342.174320 11.000000
344.176970 8.000000
348.188810 6.000000
351.433290 5.000000
352.152190 6.000000
353.176390 7.000000
354.087620 6.000000
354.120510 6.000000
354.170470 384.000000
354.209780 6.000000
355.131680 7.000000
355.157960 23.000000
355.175540 83.000000
356.180110 8.000000
356.193180 16.000000
357.176790 6.000000
358.204160 68.000000
359.200590 7.000000
362.234310 8.000000
368.174740 11.000000
369.178650 6.000000
372.176540 5.000000
372.193850 16.000000
372.222380 47.000000
373.137570 5.000000
373.210880 5.000000
373.223360 9.000000
373.240260 5.000000
378.185330 9.000000
380.223360 8.000000
386.179230 10.000000
386.197390 27.000000
387.198460 10.000000
390.226530 78.000000
391.162350 5.000000
391.227940 19.000000
391.258610 8.000000
398.182980 8.000000
400.223210 7.000000
404.199400 9.000000
405.211850 7.000000
406.153960 6.000000
412.168520 5.000000
414.174160 20.000000
416.186980 11.000000
418.209470 14.000000
418.233180 5.000000
426.164640 6.000000
427.153110 6.000000
430.198850 7.000000
432.192020 8.000000
434.194000 10.000000
435.180080 7.000000
436.208160 6.000000
444.180360 8.000000
445.162720 5.000000
448.214360 38.000000
449.221100 6.000000
450.191280 7.000000
451.168790 5.000000
458.190580 16.000000
459.196410 7.000000
459.210780 7.000000
462.195590 7.000000
462.222720 67.000000
462.251500 11.000000
463.210750 9.000000
463.235960 19.000000
463.255650 5.000000
464.171940 9.000000
464.204860 37.000000
464.223850 12.000000
465.201810 10.000000
465.219510 8.000000
476.166200 8.000000
476.213380 23.000000
477.172330 5.000000
477.201540 11.000000
479.228880 5.000000
480.211490 11.000000
480.238590 111.000000
481.240510 27.000000
490.212710 30.000000
490.233950 16.000000
491.194000 8.000000
491.213260 6.000000
491.235200 16.000000
494.241760 16.000000
494.266270 8.000000
496.237920 23.000000
496.281010 5.000000
497.242190 7.000000
508.198210 11.000000
508.239260 65.000000
508.270020 5.000000
509.230070 14.000000
512.242740 25.000000
512.273860 95.000000
513.250550 6.000000
513.273440 38.000000
514.273380 7.000000
522.224790 17.000000
522.258480 53.000000
523.228520 10.000000
523.259950 11.000000
540.225220 6.000000
540.265010 72.000000
541.247380 14.000000
542.251710 7.000000
542.277650 8.000000
554.277590 14.000000
555.263550 5.000000
572.211980 8.000000
572.286440 144.000000
572.301570 63.000000
573.282530 59.000000
574.290160 12.000000
574.304570 6.000000
582.271360 9.000000
632.308110 252.000000

>ms2peaks
105.034790 9.000000
354.163820 9.000000
354.177060 9.000000
512.260500 7.000000
512.280150 7.000000
513.275330 7.000000
522.255620 14.000000
540.254270 19.000000
572.287170 112.000000
573.287600 43.000000
574.297060 10.000000
582.265990 6.000000
632.215640 7.000000
632.246090 9.000000
632.308900 1000.000000
632.383970 21.000000

>ms2peaks
632.222410 6.000000
632.309080 1000.000000
632.383730 24.000000

>ms2peaks
55.018850 6.000000
59.046990 6.000000
75.039600 8.000000
75.046680 19.000000
77.040190 15.000000
79.053200 10.000000
84.081050 6.000000
91.053350 5.000000
91.060620 5.000000
93.070950 14.000000
94.065790 23.000000
95.052910 8.000000
96.081450 15.000000
105.006390 8.000000
105.020830 10.000000
105.033550 1000.000000
105.068470 9.000000
106.027590 6.000000
106.037250 76.000000
107.040880 6.000000
107.047580 9.000000
108.081890 14.000000
109.065050 15.000000
111.043670 10.000000
111.058580 6.000000
111.074410 17.000000
111.082240 55.000000
112.076830 8.000000
112.087580 6.000000
117.071020 34.000000
120.083720 19.000000
121.063390 20.000000
123.041920 6.000000
123.081830 7.000000
124.074820 8.000000
124.084470 12.000000
125.058170 7.000000
126.093960 19.000000
128.112850 11.000000
129.069560 29.000000
130.068630 6.000000
130.075320 13.000000
131.048520 15.000000
131.078960 11.000000
131.085400 27.000000
132.081880 6.000000
133.065020 12.000000
133.095750 6.000000
134.071460 5.000000
134.097110 20.000000
135.067950 5.000000
135.108570 12.000000
137.054440 14.000000
137.078920 8.000000
138.084300 13.000000
138.092880 37.000000
139.094560 7.000000
141.072330 17.000000
141.087520 19.000000
142.076030 5.000000
143.086930 8.000000
144.084490 5.000000
145.062590 12.000000
145.081670 6.000000
145.090580 8.000000
146.037720 7.000000
146.099270 11.000000
147.042010 24.000000
147.073650 24.000000
147.083590 9.000000
148.075970 31.000000
150.086360 5.000000
151.043470 7.000000
151.100170 6.000000
153.048710 10.000000
153.068660 6.000000
155.076030 6.000000
155.085400 16.000000
157.061080 8.000000
157.095900 7.000000
158.066850 9.000000
158.093400 25.000000
159.082150 24.000000
159.101000 11.000000
160.070080 28.000000
160.076740 53.000000
160.085310 24.000000
160.110490 13.000000
161.025650 6.000000
161.045240 6.000000
161.056270 12.000000
161.068470 8.000000
161.089840 6.000000
161.096210 16.000000
162.086980 6.000000
163.084580 6.000000
164.107740 63.000000
165.051420 15.000000
165.059520 13.000000
165.069290 19.000000
165.086840 6.000000
165.095200 8.000000
166.076200 7.000000
166.084500 5.000000
167.085170 32.000000
168.099260 6.000000
169.063770 17.000000
170.079650 6.000000
170.094300 32.000000
171.077760 20.000000
171.100890 10.000000
172.074190 12.000000
172.101260 5.000000
172.112980 45.000000
173.060900 8.000000
174.057660 35.000000
174.089190 6.000000
174.133740 6.000000
176.076780 13.000000
176.104060 10.000000
176.115330 13.000000
177.071060 9.000000
177.112820 6.000000
178.073750 14.000000
178.084230 16.000000
179.076370 9.000000
179.088060 20.000000
180.093260 14.000000
181.080670 5.000000
181.094620 11.000000
181.103040 6.000000
182.099380 17.000000
183.079730 19.000000
184.083340 5.000000
184.109850 17.000000
185.054670 6.000000
185.060930 13.000000
185.094480 8.000000
185.104290 15.000000
186.085650 5.000000
187.073120 13.000000
188.076030 16.000000
188.106510 15.000000
189.061260 8.000000
189.077800 14.000000
189.093660 21.000000
189.111950 5.000000
190.075580 12.000000
190.085620 24.000000
190.116290 8.000000
191.083160 31.000000
191.098830 7.000000
191.115020 5.000000
192.061130 9.000000
192.093990 6.000000
192.101290 8.000000
193.060730 6.000000
193.087330 14.000000
193.102310 43.000000
194.096160 15.000000
195.076970 5.000000
195.083850 14.000000
195.117510 10.000000
196.092760 8.000000
196.137510 11.000000
197.063110 5.000000
197.079820 9.000000
197.092640 6.000000
197.107540 6.000000
197.116290 5.000000
198.088420 11.000000
198.099950 6.000000
198.122020 8.000000
198.132550 8.000000
199.073500 14.000000
199.096480 7.000000
200.072890 6.000000
200.094960 7.000000
200.116180 8.000000
201.079790 9.000000
202.079990 32.000000
202.121290 36.000000
203.081510 28.000000
203.091810 10.000000
204.115370 7.000000
204.135850 117.000000
205.088850 19.000000
205.101430 63.000000
205.143130 6.000000
206.068070 11.000000
206.100110 9.000000
206.109790 13.000000
206.126710 7.000000
206.153380 8.000000
207.079220 25.000000
207.085740 9.000000
207.112960 33.000000
208.085720 18.000000
208.107650 6.000000
209.096680 35.000000
210.082700 9.000000
210.094220 5.000000
210.107790 6.000000
212.104510 9.000000
212.114620 11.000000
213.059680 6.000000
213.094310 6.000000
213.111950 6.000000
214.123180 12.000000
215.065320 6.000000
215.085820 13.000000
216.094760 12.000000
217.074910 6.000000
217.086410 17.000000
217.098300 41.000000
218.071350 8.000000
218.102810 5.000000
218.119750 8.000000
219.065860 6.000000
219.079350 23.000000
219.086840 15.000000
219.097490 11.000000
219.106020 13.000000
220.084240 11.000000
220.113510 19.000000
220.133240 7.000000
221.095730 31.000000
221.116550 14.000000
222.090650 18.000000
222.101760 9.000000
222.119860 19.000000
222.128390 11.000000
222.150740 31.000000
223.073030 11.000000
223.112470 38.000000
224.081390 8.000000
224.104160 9.000000
225.089540 24.000000
225.113880 6.000000
225.485110 6.000000
226.092580 11.000000
226.117050 5.000000
228.103360 8.000000
229.086170 6.000000
230.106490 7.000000
231.079450 22.000000
232.088870 34.000000
232.114990 5.000000
233.080370 6.000000
233.097150 51.000000
233.118990 9.000000
234.091030 10.000000
234.106950 13.000000
234.117680 7.000000
235.076610 19.000000
235.108320 31.000000
235.121920 9.000000
236.074810 8.000000
236.083540 13.000000
236.095550 10.000000
236.109830 5.000000
236.121730 5.000000
237.077270 7.000000
237.089430 22.000000
237.104720 9.000000
237.119630 12.000000
237.137970 9.000000
238.099030 9.000000
238.119660 9.000000
238.134250 12.000000
239.117370 14.000000
240.133740 8.000000
241.123290 11.000000
244.112670 5.000000
245.093230 5.000000
245.101940 7.000000
246.093540 9.000000
246.149920 5.000000
247.042850 5.000000
247.067170 6.000000
247.084880 14.000000
248.082120 22.000000
248.106980 6.000000
248.113830 12.000000
248.146800 7.000000
249.086380 15.000000
249.107380 7.000000
249.123980 12.000000
249.138030 7.000000
250.087270 10.000000
250.122250 9.000000
250.134060 15.000000
251.072940 5.000000
251.096280 14.000000
251.111970 44.000000
252.104830 13.000000
253.145450 8.000000
254.118240 5.000000
254.138140 10.000000
258.124080 10.000000
259.093930 14.000000
259.106870 6.000000
259.116940 9.000000
260.130830 7.000000
261.090580 53.000000
261.101200 24.000000
261.116580 13.000000
261.168000 7.000000
262.087340 7.000000
262.100740 13.000000
262.123840 10.000000
263.089170 6.000000
263.106260 21.000000
264.106230 12.000000
264.139400 12.000000
265.082730 7.000000
265.090580 6.000000
265.102720 12.000000
265.120880 27.000000
266.114470 9.000000
266.127380 7.000000
266.140780 6.000000
267.093320 9.000000
267.110380 7.000000
267.128630 11.000000
267.152830 9.000000
268.131200 16.000000
269.118620 12.000000
269.140780 12.000000
270.150940 6.000000
271.113620 7.000000
273.080470 6.000000
273.093260 16.000000
273.115940 5.000000
273.135860 6.000000
274.084410 6.000000
274.121400 12.000000
275.107640 12.000000
275.121000 8.000000
276.106320 16.000000
276.137240 31.000000
277.116180 19.000000
278.111660 9.000000
279.098050 26.000000
279.123170 12.000000
280.114620 6.000000
280.134580 11.000000
280.162960 6.000000
282.115170 6.000000
282.130310 6.000000
282.146390 9.000000
282.157040 6.000000
283.154450 11.000000
284.100650 7.000000
284.168760 7.000000
288.098180 6.000000
291.080170 5.000000
291.106140 17.000000
291.129550 10.000000
292.119290 17.000000
292.138890 31.000000
293.111390 22.000000
293.126800 8.000000
294.106840 9.000000
294.144680 32.000000
294.161470 9.000000
295.125150 9.000000
295.144870 9.000000
296.163730 13.000000
297.149440 5.000000
298.116000 7.000000
298.142090 7.000000
298.178470 16.000000
300.153470 8.000000
304.128880 16.000000
304.144990 12.000000
305.081850 6.000000
305.102690 7.000000
305.128200 6.000000
306.110500 7.000000
306.129490 6.000000
308.132350 11.000000
308.157100 10.000000
308.168030 25.000000
309.126370 6.000000
309.141480 16.000000
309.170780 7.000000
310.150050 22.000000
312.155210 8.000000
312.201260 12.000000
313.201200 12.000000
314.147370 8.000000
314.162930 6.000000
320.183530 5.000000
321.138730 9.000000
322.140050 30.000000
323.140050 6.000000
324.168120 6.000000
325.134920 13.000000
325.151030 9.000000
325.174380 6.000000
326.148930 10.000000
326.176570 89.000000
327.177150 16.000000
328.187230 6.000000
330.167510 8.000000
330.208890 10.000000
336.157100 37.000000
337.162450 8.000000
337.191070 5.000000
340.189790 84.000000
341.181980 5.000000
341.195620 11.000000
342.171600 19.000000
343.172550 5.000000
354.124150 18.000000
354.168910 379.000000
355.172450 102.000000
356.150360 9.000000
356.165650 10.000000
356.181210 9.000000
358.197020 64.000000
359.212710 11.000000
360.188080 10.000000
362.227840 14.000000
368.173980 11.000000
372.181820 6.000000
372.213380 34.000000
372.233370 10.000000
373.213900 6.000000
380.205260 11.000000
383.127870 10.000000
386.174770 7.000000
386.187770 11.000000
386.209750 19.000000
388.204410 6.000000
390.229680 64.000000
391.218810 9.000000
391.237790 11.000000
392.176730 5.000000
398.183530 6.000000
400.228150 9.000000
404.198730 10.000000
405.197050 7.000000
413.171720 5.000000
416.182370 7.000000
417.177700 6.000000
418.221470 5.000000
421.193970 7.000000
423.179810 7.000000
430.185270 9.000000
430.206120 17.000000
432.185730 13.000000
434.188450 6.000000
435.207180 6.000000
437.225280 7.000000
444.179960 12.000000
448.193510 18.000000
448.217100 20.000000
449.220000 21.000000
451.232030 6.000000
458.199130 23.000000
462.227360 71.000000
463.201570 9.000000
463.233030 19.000000
464.198150 45.000000
464.253630 6.000000
465.220280 5.000000
466.212130 9.000000
466.235170 14.000000
475.184110 6.000000
476.198360 28.000000
476.225400 5.000000
477.209870 7.000000
478.243680 10.000000
480.228180 60.000000
480.242950 40.000000
481.216710 6.000000
481.244380 22.000000
482.241360 8.000000
490.214320 43.000000
490.234250 28.000000
491.229950 16.000000
494.248020 11.000000
494.264860 7.000000
495.266300 6.000000
496.229950 19.000000
497.234100 7.000000
508.192540 15.000000
508.221250 49.000000
508.243440 49.000000
508.260440 13.000000
509.225680 17.000000
509.247830 8.000000
510.201320 6.000000
512.252560 55.000000
512.270810 74.000000
512.289180 30.000000
513.270260 36.000000
522.240480 41.000000
522.268800 26.000000
523.242250 16.000000
523.264650 8.000000
524.255190 11.000000
526.253170 6.000000
540.258480 73.000000
540.286380 12.000000
541.248470 20.000000
541.276000 15.000000
542.265260 5.000000
554.288090 8.000000
555.284240 10.000000
572.241580 20.000000
572.278140 120.000000
572.299680 66.000000
573.266300 15.000000
573.291560 44.000000
573.326540 6.000000
574.260310 6.000000
574.280640 9.000000
632.297300 25.000000

