>compound PR30258252
>parentmass 241.08592064166666
>ionization [M+H]+
>formula C15H12O3
>rt 447.027500
>profile qtof
#smiles_iso C1C(OC2=CC=CC=C2C1=O)C3=CC=CC=C3O
#smiles_can C1C(OC2=CC=CC=C2C1=O)C3=CC=CC=C3O
#inchikey KZKWCKFDCPVDFJ-UHFFFAOYSA-N
#pubchem_id 176925
#mb_accession PR303205,PR303210,PR303215,PR303220,PR303225,PR303230,PR303235,PR303240,PR303245,PR303254,PR303259,PR310483

>ms2peaks
93.031550 9.000000
93.036740 11.000000
120.991070 5.000000
121.006090 5.000000
121.027210 1000.000000
122.025470 38.000000
122.032010 66.000000
123.022140 5.000000
123.031070 8.000000
123.038510 14.000000
123.042610 5.000000
135.851680 6.000000
147.047990 7.000000
148.035250 6.000000
181.067920 7.000000
198.062990 7.000000
199.068590 20.000000
199.078550 28.000000
200.076660 13.000000
200.953250 8.000000
223.055940 7.000000
223.076490 52.000000
224.086580 13.000000
226.063540 10.000000
240.982130 6.000000
241.045880 8.000000
241.075010 92.000000
241.087400 95.000000

>ms2peaks
116.368390 5.000000
121.007260 6.000000
121.027390 1000.000000
122.029590 42.000000
122.035450 13.000000
123.035000 7.000000
137.718430 5.000000
163.864990 6.000000
199.046780 9.000000
199.075970 112.000000
200.079540 19.000000
223.056110 5.000000
223.073330 100.000000
223.087840 6.000000
224.058070 5.000000
224.077260 17.000000
241.060000 13.000000
241.084990 833.000000
241.271590 5.000000

>ms2peaks
65.018010 5.000000
65.032890 18.000000
65.038770 26.000000
65.943600 10.000000
66.036470 9.000000
66.042370 7.000000
91.048510 7.000000
93.035050 153.000000
94.037930 8.000000
104.055170 7.000000
117.072180 6.000000
117.885210 6.000000
119.048620 10.000000
120.974590 19.000000
121.011660 10.000000
121.027060 1000.000000
122.027220 57.000000
122.032720 41.000000
122.042690 8.000000
123.031940 13.000000
123.321860 6.000000
128.056460 13.000000
144.965180 7.000000
150.144880 5.000000
151.046830 8.000000
152.066420 31.000000
153.061170 15.000000
154.841980 10.000000
157.065370 9.000000
167.099270 8.000000
171.078770 11.000000
181.058430 19.000000
181.069670 11.000000
181.078580 7.000000
182.064180 6.000000
195.073320 6.000000
197.063740 9.000000
198.066300 13.000000
198.284520 7.000000
204.422290 7.000000
223.075910 17.000000
223.087300 6.000000
224.079850 26.000000
241.062670 9.000000
241.088390 8.000000

>ms2peaks
65.034630 245.000000
93.034260 755.000000
94.020950 226.000000
121.024590 1000.000000
121.033480 217.000000
122.030290 292.000000
139.052760 255.000000
152.062150 189.000000
165.071260 368.000000
166.058780 311.000000

>ms2peaks
93.035650 46.000000
121.027930 1000.000000
122.030960 77.000000
122.036950 22.000000
123.036940 8.000000
181.067570 8.000000
199.066680 6.000000
199.079450 49.000000
223.076870 80.000000
224.078810 9.000000
241.087130 163.000000

>ms2peaks
121.004110 6.000000
121.028140 1000.000000
122.032000 73.000000
123.035670 9.000000
147.045330 11.000000
199.075960 72.000000
199.087710 8.000000
200.083180 14.000000
223.054780 7.000000
223.075390 87.000000
224.074450 7.000000
224.087860 7.000000
241.025270 8.000000
241.068830 25.000000
241.087010 720.000000

>ms2peaks
65.034760 16.000000
65.039220 29.000000
65.043900 21.000000
66.042730 5.000000
67.888710 6.000000
91.054890 24.000000
93.024150 34.000000
93.031170 131.000000
93.038820 40.000000
94.039150 20.000000
94.046310 6.000000
104.968070 5.000000
121.000390 23.000000
121.008380 25.000000
121.028570 1000.000000
122.032550 91.000000
123.027350 18.000000
147.039870 11.000000
147.051570 6.000000
151.045620 7.000000
152.036710 6.000000
152.058260 37.000000
152.067660 15.000000
153.058690 14.000000
153.074600 7.000000
154.068790 17.000000
165.069760 9.000000
178.075490 8.000000
181.061170 20.000000
181.070540 14.000000
182.062710 17.000000
185.050110 6.000000
195.071910 12.000000
196.087080 6.000000
197.063020 8.000000
199.068880 7.000000
215.890610 6.000000
223.075030 16.000000
223.090330 11.000000

>ms2peaks
65.038410 300.000000
93.031720 190.000000
121.026850 1000.000000
128.064250 186.000000
152.063540 99.000000
164.053940 79.000000
165.067050 79.000000
168.048480 67.000000
241.089430 99.000000

>ms2peaks
93.032170 27.000000
103.051090 7.000000
120.995030 5.000000
121.028500 1000.000000
122.019240 8.000000
122.031820 93.000000
123.026640 6.000000
123.035550 10.000000
147.050540 9.000000
152.062180 5.000000
153.074540 6.000000
166.076830 8.000000
174.863690 5.000000
181.066850 11.000000
182.068890 12.000000
199.072770 17.000000
199.080150 14.000000
199.090240 5.000000
199.248630 5.000000
200.081800 15.000000
223.073460 37.000000
223.083540 19.000000
241.087340 185.000000

>ms2peaks
65.023160 8.000000
65.042240 29.000000
91.051710 19.000000
93.032850 214.000000
94.036830 5.000000
103.052370 21.000000
119.050410 8.000000
120.052510 7.000000
121.001940 12.000000
121.012140 15.000000
121.028560 1000.000000
121.044780 5.000000
122.025180 12.000000
122.033000 65.000000
123.032730 6.000000
123.037440 8.000000
128.066470 5.000000
129.028960 7.000000
147.048900 8.000000
151.053410 8.000000
152.061000 14.000000
152.065900 5.000000
153.072070 7.000000
157.072360 8.000000
159.066600 8.000000
165.072860 6.000000
167.087390 8.000000
167.093250 7.000000
172.086530 6.000000
177.062760 6.000000
177.077240 6.000000
181.059110 9.000000
181.064960 17.000000
184.060700 5.000000
195.075880 13.000000
198.063930 6.000000
199.073970 17.000000
208.049320 5.000000
226.053940 5.000000

>ms2peaks
65.017200 152.000000
65.038250 722.000000
93.035080 642.000000
121.028200 1000.000000
122.031120 185.000000
128.066940 113.000000
151.052250 139.000000
152.048290 172.000000
152.060460 298.000000
223.056550 179.000000

>ms2peaks
63.836400 20.000000
65.023520 21.000000
91.056560 28.000000
92.059510 21.000000
93.031550 52.000000
93.036740 66.000000
94.028760 22.000000
120.991070 30.000000
121.006090 32.000000
121.027210 5898.000000
121.240120 17.000000
122.025470 222.000000
122.032010 392.000000
123.022140 30.000000
123.031070 50.000000
123.038510 84.000000
123.042610 31.000000
123.808720 17.000000
124.861590 20.000000
128.001100 21.000000
129.033250 29.000000
131.055660 18.000000
135.851680 33.000000
141.741910 18.000000
147.047990 40.000000
148.035250 36.000000
152.066770 26.000000
154.076860 21.000000
165.073780 27.000000
167.086270 23.000000
178.076220 19.000000
181.067920 42.000000
197.059050 25.000000
198.062990 42.000000
199.068590 117.000000
199.078550 165.000000
200.076660 78.000000
200.953250 46.000000
215.892380 25.000000
223.055940 40.000000
223.076490 309.000000
224.071370 28.000000
224.086580 75.000000
226.063540 59.000000
240.982130 33.000000
241.045880 50.000000
241.075010 543.000000
241.087400 559.000000

