>compound PR30601273
>parentmass 611.1606612000002
>ionization [M+H]+
>formula C27H30O16
>rt 248.878154
>profile qtof
#smiles_iso CC1C(C(C(C(O1)OC2=C(OC3=CC(=CC(=C3C2=O)O)O)C4=CC(=C(C=C4)O)O)OC5C(C(C(C(O5)CO)O)O)O)O)O
#smiles_can CC1C(C(C(C(O1)OC2=C(OC3=CC(=CC(=C3C2=O)O)O)C4=CC(=C(C=C4)O)O)OC5C(C(C(C(O5)CO)O)O)O)O)O
#inchikey DFNXNCCYQRPZMD-UHFFFAOYSA-N
#pubchem_id 14238625
#mb_accession PR303660,PR303661,PR303662,PR303663,PR303664,PR303665,PR303666,PR303667,PR303668,PR303669,PR303670,PR303671,PR311172

>ms2
70.311930 7.000000
85.026950 66.000000
86.035270 9.000000
111.047040 9.000000
127.037220 7.000000
129.053100 58.000000
129.060730 21.000000
129.832890 21.000000
130.053740 10.000000
131.063860 9.000000
145.047970 7.000000
147.063550 61.000000
152.722820 8.000000
165.085880 8.000000
169.048140 8.000000
219.062850 8.000000
237.860320 9.000000
255.095110 7.000000
287.049650 8.000000
288.059600 8.000000
302.997770 15.000000
303.012570 8.000000
303.051390 1000.000000
304.056090 203.000000
304.106290 8.000000
305.050170 9.000000
309.108370 11.000000
309.120390 18.000000
313.237730 7.000000
315.052920 7.000000
316.055150 8.000000
327.042240 7.000000
327.057040 7.000000
345.038730 10.000000
345.055660 40.000000
345.067050 118.000000
346.070010 23.000000
347.059450 13.000000
367.070860 15.000000
369.021670 9.000000
369.072600 38.000000
370.061890 8.000000
371.065090 7.000000
375.076690 7.000000
395.069460 15.000000
413.071080 19.000000
413.099880 40.000000
414.078830 8.000000
414.099950 8.000000
416.121490 7.000000
431.102600 23.000000
431.114530 15.000000
432.114260 23.000000
449.106930 192.000000
450.102840 29.000000
450.119480 18.000000
452.934330 7.000000
507.110260 9.000000
611.158510 186.000000
611.196660 10.000000

>ms2
85.024480 7.000000
85.030460 7.000000
97.030620 8.000000
129.035420 6.000000
129.055370 19.000000
147.063550 12.000000
165.070330 9.000000
172.100230 5.000000
200.445500 7.000000
231.086990 6.000000
240.307130 5.000000
243.106690 6.000000
255.082920 10.000000
255.092500 12.000000
291.116150 5.000000
300.679660 6.000000
303.016300 7.000000
303.050350 945.000000
303.075260 15.000000
304.040070 33.000000
304.052920 154.000000
305.057710 18.000000
305.078460 6.000000
306.042600 7.000000
306.069610 6.000000
309.087740 6.000000
309.110500 15.000000
309.123960 30.000000
310.135220 9.000000
315.048680 9.000000
321.646510 6.000000
330.495060 9.000000
345.052800 6.000000
378.468350 5.000000
380.035580 9.000000
391.036220 7.000000
413.078700 5.000000
415.062160 6.000000
431.085210 5.000000
432.109500 5.000000
448.104250 5.000000
448.794950 7.000000
449.110690 204.000000
450.046970 6.000000
450.112850 52.000000
451.120300 19.000000
465.108490 6.000000
611.086550 6.000000
611.163760 1000.000000

>ms2
57.033520 9.000000
58.823810 8.000000
71.047820 52.000000
71.054170 26.000000
75.040730 7.000000
75.045450 6.000000
81.029050 15.000000
83.047370 7.000000
83.051830 7.000000
85.028560 232.000000
86.035810 7.000000
92.176320 9.000000
109.061010 8.000000
111.040500 6.000000
111.044890 18.000000
127.037000 14.000000
129.055040 108.000000
130.055970 26.000000
130.062740 29.000000
131.058400 7.000000
132.069320 10.000000
137.018300 17.000000
139.028150 6.000000
147.054060 11.000000
147.066930 14.000000
163.090330 6.000000
165.055860 6.000000
169.048220 9.000000
171.717740 6.000000
183.061190 7.000000
229.060360 6.000000
235.010680 10.000000
235.541240 9.000000
273.083100 9.000000
273.246460 6.000000
297.808810 11.000000
301.965060 7.000000
303.019680 12.000000
303.052490 1000.000000
304.030270 6.000000
304.056880 126.000000
304.084780 12.000000
304.273560 7.000000
305.059360 30.000000
315.050840 14.000000
315.059450 36.000000
318.059880 7.000000
322.419370 9.000000
327.017430 7.000000
327.034820 21.000000
327.072720 10.000000
341.101410 7.000000
345.016570 7.000000
345.050630 136.000000
345.065550 150.000000
345.074460 80.000000
346.066530 28.000000
347.070250 7.000000
352.935120 9.000000
353.053530 7.000000
367.074460 9.000000
369.006960 6.000000
369.037540 21.000000
369.063570 90.000000
370.061000 33.000000
370.078220 10.000000
375.063690 9.000000
387.074010 15.000000
395.072880 94.000000
396.088350 14.000000
397.072940 11.000000
406.780210 11.000000
413.092560 217.000000
414.033260 6.000000
414.088620 24.000000
414.107820 9.000000
429.414520 7.000000
431.092040 13.000000
431.107300 15.000000
431.127230 9.000000
432.087520 9.000000
433.114070 6.000000
449.089390 29.000000
449.115750 31.000000
450.111660 10.000000
451.101750 7.000000
451.114900 8.000000
462.543120 10.000000
479.114650 9.000000

>ms2
68.995040 24.000000
69.030880 17.000000
69.039340 17.000000
71.049450 155.000000
71.054930 55.000000
75.045620 23.000000
83.044090 20.000000
83.048160 66.000000
85.025100 126.000000
85.030260 137.000000
86.028240 15.000000
86.033550 33.000000
93.031730 19.000000
97.024890 19.000000
111.043330 40.000000
125.028630 20.000000
127.039180 21.000000
128.039930 18.000000
129.068370 19.000000
133.024030 18.000000
137.028630 77.000000
149.025310 92.000000
152.038710 21.000000
153.014010 19.000000
153.022420 86.000000
161.018710 35.000000
161.026540 19.000000
165.018430 55.000000
166.028980 22.000000
167.031950 39.000000
175.039640 24.000000
179.041630 42.000000
180.045350 20.000000
180.966320 24.000000
183.049300 23.000000
186.969250 37.000000
191.037350 53.000000
192.033870 19.000000
195.025850 21.000000
195.034610 18.000000
198.072200 19.000000
201.061680 19.000000
202.052610 29.000000
208.079800 19.000000
211.038160 22.000000
228.932390 20.000000
229.033860 20.000000
229.051190 141.000000
237.065990 17.000000
239.031850 20.000000
241.057750 18.000000
242.995820 23.000000
247.062240 79.000000
248.055360 23.000000
253.050660 60.000000
257.041380 51.000000
257.050840 39.000000
258.057710 27.000000
259.059780 20.000000
260.068660 21.000000
263.046720 19.000000
267.067690 41.000000
268.966580 18.000000
270.059140 24.000000
271.045380 22.000000
271.062290 19.000000
275.043370 49.000000
281.061070 21.000000
283.064450 33.000000
285.027070 22.000000
285.041410 36.000000
285.898320 41.000000
287.011960 34.000000
288.053220 29.000000
288.096160 17.000000
298.058350 19.000000
299.054230 54.000000
299.080020 32.000000
300.056950 37.000000
300.073060 45.000000
300.441160 21.000000
302.045620 39.000000
303.051880 1000.000000
303.887240 24.000000
304.040740 36.000000
304.059810 56.000000
305.053130 19.000000
313.078700 19.000000
314.991360 17.000000
315.044220 144.000000
315.055300 134.000000
316.044920 22.000000
316.067810 53.000000
323.049410 18.000000
323.069400 22.000000
325.061400 17.000000
326.036710 19.000000
327.034420 19.000000
327.047330 24.000000
328.059780 22.000000
328.085540 20.000000
329.034060 55.000000
329.058380 32.000000
341.026340 24.000000
341.064510 206.000000
342.057040 26.000000
343.071410 22.000000
345.060970 361.000000
346.036620 24.000000
346.053990 41.000000
346.075900 55.000000
349.065800 27.000000
350.970150 19.000000
353.044190 18.000000
356.063870 22.000000
358.063140 17.000000
367.080380 33.000000
367.091090 82.000000
369.061400 19.000000
369.103490 26.000000
371.073120 19.000000
376.077210 18.000000
377.080900 24.000000
395.075930 50.000000
413.078860 21.000000

>ms2
73.029820 13.000000
83.051950 6.000000
85.027660 30.000000
85.032010 9.000000
86.031380 15.000000
97.024990 7.000000
98.932510 6.000000
127.037280 16.000000
128.039630 7.000000
129.039250 9.000000
129.051650 102.000000
129.059660 41.000000
130.055600 8.000000
130.066280 9.000000
146.051620 7.000000
147.064540 30.000000
147.083080 9.000000
148.063420 9.000000
225.076030 7.000000
249.958630 7.000000
255.082030 16.000000
273.096100 7.000000
285.052800 7.000000
287.022280 7.000000
288.024840 6.000000
302.564270 7.000000
303.050110 1000.000000
304.052830 235.000000
305.043980 7.000000
305.063780 13.000000
315.046200 6.000000
315.064360 16.000000
316.047420 6.000000
316.065460 9.000000
326.974880 6.000000
327.030330 8.000000
334.116910 6.000000
345.041750 8.000000
345.063510 84.000000
346.064000 9.000000
352.993410 6.000000
369.051300 15.000000
369.069670 14.000000
370.053160 10.000000
375.061400 7.000000
380.256900 8.000000
386.090520 11.000000
388.062010 13.000000
395.065460 34.000000
413.080050 6.000000
413.098570 12.000000
414.093630 21.000000
431.085080 16.000000
431.100190 16.000000
437.079350 13.000000
441.320280 9.000000
449.075810 10.000000
449.109340 150.000000
450.085690 9.000000
450.115910 24.000000
451.117680 7.000000
459.161010 9.000000
463.410920 6.000000
511.952120 12.000000
535.227230 6.000000
611.140320 49.000000
611.162780 300.000000

>ms2
127.035220 9.000000
127.041090 7.000000
129.050400 18.000000
129.059220 22.000000
145.052230 11.000000
147.030910 5.000000
147.060700 21.000000
148.061720 5.000000
171.063080 7.000000
217.069660 7.000000
225.070510 5.000000
231.081950 7.000000
237.073960 9.000000
255.085130 11.000000
265.130160 8.000000
303.050110 1000.000000
303.083620 6.000000
304.053960 106.000000
305.057800 11.000000
305.068730 7.000000
309.117190 42.000000
322.405760 6.000000
327.062440 8.000000
369.045840 8.000000
413.078190 11.000000
449.097930 56.000000
449.114780 100.000000
450.101680 10.000000
450.114810 37.000000
451.105220 14.000000
454.061980 6.000000
513.681030 6.000000
611.034910 7.000000
611.119930 9.000000
611.163570 814.000000
611.232060 5.000000

>ms2
71.048520 56.000000
72.058100 15.000000
73.030940 6.000000
75.043410 22.000000
83.044450 6.000000
83.051500 10.000000
85.022580 24.000000
85.029820 68.000000
86.026520 13.000000
97.025720 7.000000
97.031840 10.000000
99.046200 7.000000
101.058540 6.000000
111.003080 7.000000
111.037690 9.000000
127.039090 57.000000
128.041370 11.000000
129.052980 163.000000
137.014770 9.000000
137.022140 8.000000
142.826350 7.000000
145.052750 22.000000
146.928920 10.000000
146.960190 6.000000
147.063950 39.000000
147.180300 9.000000
149.065780 6.000000
157.047010 7.000000
163.060410 8.000000
179.060730 6.000000
201.203320 8.000000
223.992840 7.000000
237.077850 8.000000
241.025630 15.000000
247.076800 7.000000
255.082960 8.000000
272.158660 6.000000
302.268550 6.000000
302.560420 6.000000
303.050170 1000.000000
303.205900 7.000000
304.022060 7.000000
304.054470 149.000000
305.043030 28.000000
305.068240 16.000000
315.030700 6.000000
315.051330 15.000000
316.060030 11.000000
319.086030 6.000000
327.045040 39.000000
327.064420 24.000000
328.048800 8.000000
328.067230 6.000000
329.020540 6.000000
341.063750 7.000000
345.042940 33.000000
345.060820 218.000000
346.063750 53.000000
346.078520 35.000000
346.727050 6.000000
347.055080 7.000000
347.755800 6.000000
355.064150 7.000000
361.463200 8.000000
367.082400 7.000000
369.041200 15.000000
369.059080 24.000000
369.074890 21.000000
370.066930 12.000000
372.082280 7.000000
375.079900 6.000000
395.059810 15.000000
395.080810 32.000000
396.047730 6.000000
396.066070 29.000000
396.077670 12.000000
413.046200 12.000000
413.081570 118.000000
413.116420 8.000000
414.094600 42.000000
415.076570 8.000000
431.064180 7.000000
431.091520 67.000000
431.125000 6.000000
432.120090 8.000000
433.100560 7.000000
434.108430 8.000000
449.064610 6.000000
449.111150 60.000000
450.117650 6.000000
576.353390 6.000000

>ms2
57.035430 21.000000
69.031510 28.000000
71.043530 29.000000
71.051610 156.000000
72.137990 17.000000
81.038460 18.000000
83.052180 23.000000
83.944990 21.000000
85.026510 165.000000
85.032350 127.000000
97.027580 50.000000
99.042660 28.000000
111.007190 22.000000
117.064290 25.000000
121.036350 26.000000
123.044010 28.000000
129.057710 105.000000
133.046450 20.000000
137.021260 208.000000
138.034670 24.000000
149.030810 25.000000
152.975970 22.000000
153.016630 41.000000
153.051380 29.000000
163.034990 40.000000
163.044070 28.000000
165.016530 36.000000
169.069230 20.000000
177.020400 59.000000
187.048830 17.000000
188.620800 17.000000
200.741460 16.000000
203.029680 16.000000
204.041840 17.000000
205.046220 19.000000
208.043230 16.000000
222.995740 17.000000
223.554690 26.000000
227.034190 19.000000
228.036360 32.000000
229.043170 19.000000
229.054860 49.000000
229.067780 24.000000
230.052800 17.000000
231.034590 17.000000
231.050720 32.000000
241.048520 21.000000
243.065540 22.000000
245.869580 21.000000
247.061610 17.000000
248.863340 40.000000
251.561480 21.000000
252.568600 26.000000
257.047150 132.000000
257.062840 19.000000
259.038570 33.000000
259.058470 16.000000
259.111300 21.000000
264.434690 23.000000
272.055820 16.000000
274.053890 16.000000
275.049870 34.000000
276.077240 21.000000
285.019380 17.000000
285.039460 18.000000
287.060180 16.000000
297.072330 47.000000
299.056430 33.000000
300.049220 17.000000
301.072420 57.000000
302.032900 20.000000
303.037690 227.000000
303.051270 1000.000000
304.017150 30.000000
304.048610 41.000000
304.064360 103.000000
305.043270 47.000000
305.063020 17.000000
310.038670 17.000000
313.068150 16.000000
315.034580 34.000000
315.052730 193.000000
316.051150 113.000000
318.066250 16.000000
328.052280 29.000000
329.063840 16.000000
329.075200 23.000000
330.068820 19.000000
331.060610 26.000000
338.247340 32.000000
339.083440 19.000000
341.071750 48.000000
343.084630 30.000000
345.060060 328.000000
345.085970 16.000000
346.056850 17.000000
347.079320 64.000000
353.055940 17.000000
353.074190 23.000000
354.072360 16.000000
355.050080 59.000000
357.055570 51.000000
357.073300 26.000000
367.088650 18.000000
369.051850 16.000000
369.067470 25.000000
369.079350 16.000000
395.029080 18.000000
395.069400 75.000000
431.033940 21.000000

>ms2
57.032940 9.000000
69.035640 8.000000
71.049330 9.000000
85.024990 29.000000
85.028950 27.000000
97.025570 8.000000
127.035250 18.000000
129.049330 72.000000
129.058200 33.000000
130.057910 26.000000
145.046260 9.000000
147.059130 26.000000
147.068480 57.000000
163.057420 6.000000
163.065220 30.000000
199.059860 21.000000
228.254230 12.000000
237.050200 7.000000
243.075820 7.000000
245.325960 7.000000
255.075490 11.000000
273.110380 7.000000
301.028840 7.000000
302.987120 7.000000
303.012880 10.000000
303.050870 1000.000000
303.074070 14.000000
303.814580 7.000000
304.052980 176.000000
305.032620 6.000000
305.048800 18.000000
305.070680 18.000000
309.121310 13.000000
317.066990 8.000000
327.048000 15.000000
327.059020 21.000000
328.056340 7.000000
341.065890 7.000000
344.714420 9.000000
345.030520 14.000000
345.060730 101.000000
345.074490 21.000000
346.049740 7.000000
346.081090 24.000000
369.055630 15.000000
369.069890 8.000000
370.065090 13.000000
370.084320 7.000000
371.061250 7.000000
376.064030 9.000000
395.065000 14.000000
395.094120 13.000000
395.159610 12.000000
396.075410 10.000000
413.089540 78.000000
414.071040 9.000000
414.090520 9.000000
414.108150 7.000000
431.080870 13.000000
431.106600 8.000000
449.107540 136.000000
450.109040 33.000000
450.126800 16.000000
451.085970 15.000000
451.121220 23.000000
456.179870 8.000000
465.095280 9.000000
471.259740 7.000000
611.129330 7.000000
611.165590 133.000000

>ms2
85.027730 20.000000
127.037860 5.000000
128.900770 5.000000
129.044690 5.000000
129.055880 23.000000
145.061460 5.000000
147.065480 10.000000
163.067020 5.000000
165.075730 6.000000
213.065340 7.000000
216.596890 6.000000
234.238070 7.000000
255.096860 18.000000
256.084230 9.000000
262.255400 6.000000
273.085210 8.000000
273.101170 34.000000
273.112850 5.000000
274.104580 6.000000
291.106480 5.000000
301.031650 6.000000
301.461550 5.000000
302.877170 6.000000
303.000240 6.000000
303.050020 1000.000000
304.052460 204.000000
304.800110 5.000000
305.036250 6.000000
305.058350 19.000000
309.121950 28.000000
310.139310 5.000000
311.120150 6.000000
336.324130 5.000000
375.009550 5.000000
414.866150 5.000000
431.118320 8.000000
439.516330 6.000000
449.108340 136.000000
450.115750 6.000000
451.102080 5.000000
451.132480 6.000000
489.085750 6.000000
533.504520 6.000000
611.163510 777.000000

>ms2
71.046070 14.000000
71.051690 32.000000
75.045040 8.000000
83.034900 10.000000
83.048750 14.000000
85.019420 6.000000
85.027830 115.000000
87.047200 17.000000
97.036810 6.000000
99.041850 9.000000
102.271220 6.000000
109.027260 14.000000
111.036770 8.000000
111.048290 15.000000
127.032240 11.000000
127.038110 9.000000
129.041670 13.000000
129.054240 142.000000
131.046050 5.000000
135.084790 8.000000
137.054050 10.000000
137.059200 7.000000
145.045960 28.000000
147.064640 13.000000
147.070420 18.000000
148.068510 5.000000
179.971920 8.000000
183.007600 8.000000
191.057190 9.000000
204.753940 7.000000
218.654820 6.000000
255.078860 9.000000
255.090680 10.000000
256.094700 8.000000
259.059970 5.000000
260.061310 6.000000
291.254970 5.000000
302.974670 9.000000
302.988650 10.000000
303.051240 1000.000000
304.055270 126.000000
304.066380 32.000000
305.051210 6.000000
305.071260 11.000000
315.043240 42.000000
315.066160 6.000000
316.049320 16.000000
324.561220 6.000000
327.004120 6.000000
327.033570 13.000000
327.051060 26.000000
341.043760 6.000000
345.045840 63.000000
345.062320 86.000000
345.082950 22.000000
345.102750 7.000000
346.055850 75.000000
347.060760 14.000000
348.079440 6.000000
355.030240 8.000000
369.048190 17.000000
369.067660 58.000000
371.070830 7.000000
372.039400 5.000000
375.091950 7.000000
381.053130 6.000000
387.068210 10.000000
387.676180 5.000000
395.067990 8.000000
395.084930 23.000000
395.381680 8.000000
396.082340 21.000000
413.062500 5.000000
413.083620 47.000000
413.101200 69.000000
414.078800 56.000000
414.106810 10.000000
415.084720 7.000000
415.103730 6.000000
416.116700 13.000000
429.059360 7.000000
431.068180 20.000000
431.095150 40.000000
432.095610 13.000000
449.091160 20.000000
449.125790 45.000000
450.101350 5.000000
507.102970 6.000000
551.296940 6.000000

>ms2
57.024620 17.000000
69.037310 11.000000
70.041700 16.000000
71.040760 11.000000
71.046790 46.000000
71.052700 67.000000
71.718640 11.000000
72.047940 18.000000
75.047100 20.000000
83.049260 20.000000
85.030240 295.000000
85.077960 10.000000
86.033200 11.000000
97.026530 12.000000
97.032580 9.000000
97.064230 12.000000
99.043410 13.000000
101.052340 12.000000
111.002950 9.000000
121.024730 11.000000
121.031270 18.000000
129.048130 14.000000
129.054920 25.000000
137.015410 31.000000
137.025960 85.000000
137.063310 17.000000
149.023010 39.000000
150.029710 16.000000
153.018300 50.000000
160.999710 11.000000
161.027130 13.000000
163.038100 26.000000
165.021120 45.000000
172.606550 11.000000
173.065250 17.000000
179.030670 12.000000
180.239550 13.000000
183.041580 13.000000
183.063540 9.000000
187.037290 24.000000
188.038770 11.000000
195.027940 10.000000
199.034710 11.000000
201.060470 9.000000
203.036930 11.000000
205.061400 9.000000
207.034260 10.000000
207.494800 13.000000
215.043030 12.000000
215.063920 17.000000
217.200160 9.000000
218.045070 9.000000
219.062230 16.000000
225.060550 18.000000
228.040850 11.000000
229.050450 71.000000
229.066420 11.000000
229.293980 9.000000
230.061140 18.000000
242.598790 16.000000
245.031540 10.000000
255.077440 11.000000
257.027250 22.000000
257.041050 44.000000
257.052120 16.000000
259.053130 28.000000
271.055660 17.000000
281.032590 15.000000
285.036350 26.000000
286.044010 13.000000
287.015470 12.000000
288.059750 11.000000
297.039430 21.000000
299.046420 22.000000
299.059510 13.000000
299.075530 12.000000
301.045960 9.000000
301.078160 13.000000
302.024780 24.000000
302.044130 58.000000
302.156740 13.000000
303.050510 1000.000000
303.595490 11.000000
304.037110 23.000000
304.056210 81.000000
304.068970 47.000000
305.053340 21.000000
311.081700 14.000000
313.021270 9.000000
313.456300 11.000000
315.016020 17.000000
315.037020 26.000000
315.054840 155.000000
315.078610 14.000000
316.028470 14.000000
316.053470 19.000000
316.065610 24.000000
317.059420 57.000000
323.049900 10.000000
327.029510 19.000000
327.042760 57.000000
329.057740 10.000000
329.070770 10.000000
330.063540 11.000000
341.007110 15.000000
341.065550 51.000000
343.034520 13.000000
345.014560 28.000000
345.046170 66.000000
345.061280 244.000000
346.057160 12.000000
346.076020 21.000000
347.061340 17.000000
353.064640 13.000000
353.080750 16.000000
354.076750 15.000000
356.052340 30.000000
357.062990 11.000000
361.052640 11.000000
366.065770 18.000000
367.071750 43.000000
367.085330 19.000000
368.086610 10.000000
369.045560 10.000000
369.064790 19.000000
370.066800 12.000000
370.082670 13.000000
371.102940 20.000000
379.072450 13.000000
396.088840 10.000000

>ms2
70.311930 18.000000
85.026950 173.000000
86.035270 23.000000
111.047040 24.000000
127.037220 17.000000
129.053100 151.000000
129.060730 55.000000
129.832890 56.000000
130.053740 27.000000
131.063860 24.000000
145.047970 18.000000
147.063550 158.000000
152.722820 21.000000
165.085880 20.000000
169.048140 22.000000
219.062850 20.000000
237.860320 23.000000
255.095110 18.000000
287.049650 20.000000
288.059600 20.000000
302.997770 38.000000
303.012570 21.000000
303.051390 2605.000000
304.056090 529.000000
304.106290 21.000000
305.050170 24.000000
309.108370 29.000000
309.120390 47.000000
313.237730 18.000000
315.052920 18.000000
316.055150 21.000000
327.042240 18.000000
327.057040 18.000000
345.038730 25.000000
345.055660 104.000000
345.067050 307.000000
346.070010 60.000000
347.059450 35.000000
367.070860 39.000000
369.021670 23.000000
369.072600 99.000000
370.061890 21.000000
371.065090 17.000000
375.076690 17.000000
395.069460 38.000000
413.071080 49.000000
413.099880 105.000000
414.078830 20.000000
414.099950 22.000000
416.121490 17.000000
431.102600 59.000000
431.114530 39.000000
432.114260 60.000000
449.106930 500.000000
450.102840 75.000000
450.119480 47.000000
452.934330 18.000000
507.110260 24.000000
611.158510 485.000000
611.196660 25.000000

