>compound PR30368434
>parentmass 195.1137
>ionization [M+H]+
>formula C10H14N2O2
>rt 108.000000
>profile qtof
#smiles_iso CNCCCC(=O)C1=CNC(=O)C=C1
#smiles_can CNCCCC(=O)C1=CNC(=O)C=C1
#inchikey UMLOUOBDBGOHHR-UHFFFAOYSA-N
#pubchem_id 439476
#mb_accession PR310816

>ms2peaks
94.025030 18.000000
119.465910 16.000000
122.019060 34.000000
122.024800 57.000000
148.075870 28.000000
149.097560 20.000000
152.148640 16.000000
164.068420 167.000000
164.077240 109.000000
165.074540 20.000000
165.087510 36.000000
166.092450 19.000000
167.084560 18.000000
179.102570 21.000000
195.114970 47.000000

