>compound PR30064034
>parentmass 341.1389
>ionization [M+H]+
>formula C20H20O5
>rt 501.000000
>profile qtof
#smiles_iso CC(=CCC1=C(C2=C(C=C1O)OC(=C2)C3=C(C=C(C=C3)O)O)OC)C
#smiles_can CC(=CCC1=C(C2=C(C=C1O)OC(=C2)C3=C(C=C(C=C3)O)O)OC)C
#inchikey CNPMAFLUEHEXRE-UHFFFAOYSA-N
#pubchem_id 503731
#mb_accession PR310779

>ms2peaks
93.026070 71.000000
93.037080 22.000000
119.058650 17.000000
121.029250 23.000000
132.005620 28.000000
132.011460 24.000000
148.863720 19.000000
149.023610 2104.000000
150.020650 54.000000
150.026960 190.000000
151.028980 29.000000
158.069460 17.000000
163.039960 17.000000
165.060520 31.000000
177.086810 19.000000
203.068770 59.000000
205.085070 163.000000
233.929410 17.000000
252.148210 17.000000
267.042420 17.000000
267.065610 35.000000
277.180970 18.000000
283.064850 18.000000
284.077240 26.000000
285.010830 20.000000
285.065920 185.000000
285.078090 957.000000
286.062770 18.000000
286.081270 220.000000
286.297450 17.000000
339.132170 19.000000
340.131870 22.000000
341.139860 1650.000000
341.218840 35.000000

