>compound PR30406646
>parentmass 639.4466599999998
>ionization [M+H]+
>formula C36H62O9
>rt 395.313000
>profile qtof
#smiles_iso CC(=CCC[C@@](C)([C@H]1CC[C@@]2([C@@H]1[C@@H](C[C@H]3[C@]2(C[C@@H]([C@@H]4[C@@]3(CC[C@@H](C4(C)C)O)C)O)C)O)C)O[C@H]5[C@@H]([C@H]([C@@H]([C@H](O5)CO)O)O)O)C
#smiles_can CC(=CCCC(C)(C1CCC2(C1C(CC3C2(CC(C4C3(CCC(C4(C)C)O)C)O)C)O)C)OC5C(C(C(C(O5)CO)O)O)O)C
#inchikey XNGXWSFSJIQMNC-FIYORUNESA-N
#pubchem_id 9809542
#mb_accession PR304349,PR304353,PR304357,PR304361,PR304365,PR304368,PR304372,PR304375,PR304379,PR304383,PR304387,PR304391

>ms2
95.087460 233.000000
147.117390 256.000000
148.122040 221.000000
149.127490 186.000000
151.118230 198.000000
203.186630 267.000000
205.157150 244.000000
217.209140 198.000000
236.206150 198.000000
241.192370 186.000000
248.207260 279.000000
255.202000 186.000000
269.207370 198.000000
323.274780 186.000000
379.304050 186.000000
423.369350 500.000000
424.345340 628.000000
424.376250 186.000000
425.367800 198.000000
441.354860 186.000000
441.374690 663.000000
442.378450 198.000000
443.389370 209.000000
459.378970 1000.000000
459.402830 547.000000
461.386630 186.000000
603.418820 453.000000
639.397830 198.000000
639.449580 186.000000

>ms2
123.116610 60.000000
127.109380 54.000000
163.152850 63.000000
203.174350 48.000000
207.166580 54.000000
207.178150 51.000000
207.190080 48.000000
233.189390 48.000000
271.149140 48.000000
423.354250 165.000000
423.374790 291.000000
424.364040 114.000000
424.378080 120.000000
441.325620 48.000000
441.370640 1000.000000
442.383730 48.000000
442.409850 48.000000
443.400210 48.000000
459.350520 66.000000
459.380620 399.000000
459.403750 81.000000
460.394960 261.000000
461.372440 72.000000
461.388790 54.000000
585.421020 60.000000
603.456970 54.000000
639.411010 66.000000
639.442200 120.000000

>ms2
98.099640 298.000000
107.089190 386.000000
123.114400 281.000000
147.114590 298.000000
149.123350 351.000000
151.110340 386.000000
173.105450 281.000000
175.144380 351.000000
188.157170 281.000000
202.156680 281.000000
203.174210 316.000000
207.169020 386.000000
209.176160 298.000000
243.208860 281.000000
273.220250 316.000000
295.227290 333.000000
299.285580 316.000000
309.263670 316.000000
339.285000 281.000000
405.290860 281.000000
405.351840 1000.000000
425.369170 298.000000
459.384980 737.000000

>ms2
81.068790 354.000000
105.069860 729.000000
105.076570 521.000000
106.071910 333.000000
107.085800 333.000000
123.113280 354.000000
132.082580 333.000000
135.078520 375.000000
135.109970 333.000000
135.119510 354.000000
145.101170 1000.000000
147.115490 333.000000
157.103320 333.000000
175.152970 354.000000
175.160680 688.000000
189.152510 333.000000
189.163850 354.000000
189.172090 396.000000
197.131790 354.000000
199.151170 354.000000
206.191790 333.000000
220.963000 333.000000
221.182130 354.000000
229.187360 417.000000

>ms2
95.086390 193.000000
109.102970 241.000000
111.112850 241.000000
136.121930 205.000000
139.115280 205.000000
159.109760 205.000000
163.144530 217.000000
173.133240 518.000000
175.147610 193.000000
207.184620 289.000000
243.211560 265.000000
423.365110 253.000000
423.389980 217.000000
441.365630 1000.000000
443.385650 193.000000
459.340240 193.000000
459.365330 301.000000
459.389890 867.000000
459.404360 373.000000
639.469540 193.000000

>ms2
128.112760 62.000000
147.114410 77.000000
191.175190 112.000000
203.183720 212.000000
204.185780 77.000000
207.175750 150.000000
221.194980 65.000000
231.183400 69.000000
367.284180 62.000000
369.314700 77.000000
407.373900 65.000000
423.228000 100.000000
423.361820 188.000000
441.372470 1000.000000
442.381350 131.000000
443.365880 65.000000
444.227870 62.000000
457.357120 62.000000
459.379550 673.000000
459.402440 446.000000
460.369780 69.000000
460.390870 258.000000
578.352360 65.000000
610.281430 100.000000
621.438110 62.000000
622.451290 77.000000
639.448120 131.000000
639.472110 62.000000

>ms2
105.078410 267.000000
109.099270 900.000000
109.106080 267.000000
123.103200 417.000000
127.112640 300.000000
135.117190 300.000000
135.124500 350.000000
136.122390 283.000000
145.096830 267.000000
147.116090 950.000000
151.109510 550.000000
161.129560 267.000000
162.134030 467.000000
171.122090 367.000000
173.131040 300.000000
173.143780 267.000000
179.147550 300.000000
187.135670 583.000000
187.153430 617.000000
188.157710 350.000000
189.155110 1000.000000
189.163760 350.000000
201.122920 283.000000
201.163420 283.000000
203.194320 267.000000
207.180790 283.000000
215.166370 333.000000
217.216780 283.000000
229.184650 267.000000
231.213590 400.000000
238.152300 333.000000
245.226580 300.000000
259.206670 333.000000
271.218630 417.000000
271.255250 633.000000
275.228300 333.000000
287.244230 300.000000
347.262910 267.000000
397.345580 400.000000
400.322850 267.000000
405.351930 333.000000
405.366120 267.000000
406.322360 267.000000
423.353760 550.000000
423.384980 283.000000
424.353240 650.000000
441.382870 267.000000

>ms2
93.067740 246.000000
93.075730 246.000000
95.085430 1000.000000
105.062650 246.000000
107.092220 308.000000
108.094890 462.000000
109.062100 308.000000
119.080180 262.000000
119.086380 277.000000
121.103900 308.000000
123.115370 246.000000
125.130580 262.000000
137.131410 277.000000
145.097090 262.000000
147.116210 385.000000
149.118190 338.000000
149.125400 308.000000
161.136350 338.000000
163.143810 262.000000
171.119110 262.000000
173.130390 308.000000
173.140660 308.000000
175.155560 308.000000
207.165410 338.000000
213.148540 246.000000
213.171860 354.000000
253.204680 385.000000
255.215450 615.000000
257.228910 246.000000
338.276920 262.000000
344.181670 308.000000

>ms2
119.083300 88.000000
137.075970 82.000000
147.107620 191.000000
191.128160 82.000000
204.182300 82.000000
207.158080 82.000000
207.179580 191.000000
221.192760 165.000000
233.190120 98.000000
253.940980 82.000000
307.245510 88.000000
423.354160 263.000000
441.371670 1000.000000
441.393220 144.000000
442.369450 93.000000
459.385770 665.000000
517.239810 82.000000
639.459170 82.000000

>ms2
203.173130 140.000000
203.186310 112.000000
275.269010 112.000000
300.915950 119.000000
343.289180 112.000000
385.312840 112.000000
405.336520 119.000000
405.381930 287.000000
423.349980 469.000000
423.366820 350.000000
423.393860 126.000000
424.382870 126.000000
441.382660 608.000000
441.403720 238.000000
442.324130 112.000000
442.378690 490.000000
459.381290 1000.000000
459.403500 140.000000
460.366490 175.000000
460.393680 238.000000
461.401490 112.000000
475.433380 140.000000
478.407470 119.000000
623.445190 119.000000
639.440370 448.000000
639.461980 350.000000

>ms2
98.101560 292.000000
111.122000 236.000000
123.116620 236.000000
135.120160 250.000000
146.105610 292.000000
147.109570 222.000000
147.119480 222.000000
169.092510 250.000000
177.167340 292.000000
185.137820 278.000000
188.145860 236.000000
189.168010 361.000000
203.173220 264.000000
204.175090 222.000000
208.023560 222.000000
213.160580 278.000000
215.176420 278.000000
223.138410 333.000000
231.198810 264.000000
267.203430 222.000000
271.254090 347.000000
309.260680 236.000000
339.277190 222.000000
425.376130 292.000000
441.381380 236.000000
458.380740 250.000000
459.392360 1000.000000
460.401370 333.000000
464.372800 222.000000
519.294490 264.000000

>ms2
93.073850 662.000000
95.086040 909.000000
107.090660 468.000000
109.098920 260.000000
119.084990 519.000000
121.103460 455.000000
123.116590 234.000000
125.086600 221.000000
135.082500 234.000000
135.111620 247.000000
137.095280 571.000000
137.131470 247.000000
147.109730 208.000000
147.120590 1000.000000
161.144780 221.000000
173.132490 532.000000
175.152010 221.000000
189.157240 221.000000
189.166520 325.000000
201.165540 532.000000
203.183470 234.000000
204.183200 260.000000
216.196090 273.000000
217.197110 299.000000
253.199080 312.000000
323.286830 468.000000
631.904170 208.000000

