>compound PR31988128
>parentmass 255.06518529999997
>ionization [M+H]+
>formula C15H10O4
>rt 442.144020
>profile qtof
#smiles_iso C1=CC=C(C=C1)C2=CC(=O)C3=C(C=C(C=C3O2)O)O
#smiles_can C1=CC=C(C=C1)C2=CC(=O)C3=C(C=C(C=C3O2)O)O
#inchikey RTIXKCRFFJGDFG-UHFFFAOYSA-N
#pubchem_id 5281607
#mb_accession PR303379,PR303382,PR303385,PR303388,PR303391,PR303394,PR303397,PR303399,PR303402,PR303405,PR303408,PR303410

>ms2
67.017310 7.000000
103.054150 21.000000
105.035800 8.000000
129.033050 10.000000
147.044340 16.000000
152.058330 8.000000
153.018710 76.000000
153.067230 6.000000
154.021210 6.000000
209.056840 10.000000
213.054750 8.000000
255.065000 1000.000000
255.110200 37.000000
255.252910 7.000000

>ms2
255.065810 1000.000000
255.111690 41.000000
255.254930 14.000000

>ms2
67.018390 83.000000
68.997770 71.000000
77.037700 11.000000
79.015080 6.000000
81.033680 7.000000
91.019200 6.000000
97.030220 17.000000
103.053610 204.000000
104.056950 17.000000
105.033420 96.000000
107.009320 11.000000
109.028790 13.000000
111.007750 27.000000
115.054600 8.000000
125.018980 9.000000
125.026080 15.000000
129.033650 138.000000
130.037350 19.000000
139.055270 13.000000
141.070220 7.000000
147.044820 107.000000
148.045640 16.000000
151.052540 7.000000
152.062450 43.000000
153.017960 829.000000
153.069520 42.000000
154.020870 73.000000
154.076710 9.000000
155.028240 7.000000
157.062480 11.000000
167.050640 8.000000
171.029570 7.000000
171.043210 32.000000
181.064760 40.000000
182.069950 11.000000
186.067580 10.000000
187.069030 22.000000
187.080720 21.000000
188.080840 6.000000
199.077190 7.000000
209.059920 102.000000
210.065830 18.000000
213.052340 42.000000
214.059570 6.000000
227.067150 10.000000
237.054990 18.000000
255.022660 7.000000
255.065290 1000.000000

>ms2
55.016490 50.000000
65.039290 30.000000
67.019550 128.000000
68.995960 133.000000
68.999470 363.000000
69.031540 36.000000
69.036340 28.000000
70.001870 27.000000
75.022760 24.000000
77.039820 573.000000
78.045530 21.000000
78.132790 24.000000
83.013570 21.000000
86.017640 31.000000
89.039290 31.000000
91.015310 27.000000
91.019140 90.000000
92.997970 24.000000
97.026790 89.000000
97.034170 47.000000
99.508900 19.000000
101.043400 97.000000
102.044430 113.000000
102.048440 55.000000
103.053480 831.000000
105.033810 153.000000
105.043400 24.000000
106.034010 38.000000
107.009690 34.000000
111.004350 30.000000
111.009120 25.000000
115.055420 148.000000
122.005160 26.000000
123.018430 38.000000
125.021520 32.000000
126.031810 34.000000
126.042730 167.000000
126.052100 40.000000
127.051700 293.000000
127.058780 96.000000
128.061100 24.000000
128.066330 25.000000
129.034150 613.000000
130.034240 182.000000
137.046080 44.000000
138.996400 28.000000
139.029140 30.000000
139.041950 50.000000
139.053130 232.000000
139.062940 113.000000
140.051560 32.000000
147.047420 42.000000
149.034740 27.000000
150.041400 65.000000
151.052380 72.000000
151.063810 68.000000
152.063810 1000.000000
153.008730 56.000000
153.017850 366.000000
153.030400 58.000000
153.058880 122.000000
153.918300 21.000000
187.074370 24.000000
237.050140 32.000000

>ms2
103.053740 18.000000
105.033230 7.000000
129.034410 12.000000
147.042620 12.000000
152.061130 9.000000
153.017140 90.000000
153.067120 7.000000
154.021500 9.000000
209.060320 10.000000
255.064510 1000.000000
255.109950 36.000000
255.253590 10.000000

>ms2
255.065120 1000.000000
255.111020 41.000000
255.252760 15.000000

>ms2
67.017920 68.000000
68.997090 67.000000
77.037620 11.000000
77.042800 5.000000
81.035850 6.000000
91.017580 6.000000
97.024940 5.000000
103.054150 185.000000
104.057200 25.000000
105.033670 107.000000
106.035510 9.000000
109.028240 7.000000
110.996930 9.000000
111.007740 25.000000
115.058400 6.000000
125.022810 13.000000
129.033840 138.000000
129.063690 7.000000
130.038350 5.000000
135.008790 7.000000
139.055310 17.000000
140.058720 6.000000
141.067400 8.000000
147.044780 102.000000
148.048610 14.000000
152.057340 25.000000
152.065370 40.000000
153.018490 807.000000
153.068950 52.000000
154.021900 80.000000
155.025920 7.000000
157.064710 7.000000
167.049960 5.000000
169.066510 7.000000
171.041810 11.000000
171.049320 11.000000
181.065960 28.000000
186.067280 18.000000
187.074870 42.000000
209.060390 98.000000
210.064440 7.000000
211.077710 6.000000
213.053600 57.000000
213.063100 23.000000
214.062730 5.000000
227.070630 6.000000
237.054440 27.000000
255.022250 6.000000
255.065990 1000.000000

>ms2
67.019150 121.000000
68.021720 23.000000
68.944470 20.000000
68.978740 39.000000
68.997800 562.000000
69.027000 47.000000
69.034810 154.000000
70.491810 32.000000
77.038930 535.000000
78.040300 79.000000
79.019710 33.000000
85.071850 20.000000
86.845730 28.000000
87.025360 44.000000
89.039580 29.000000
91.017130 22.000000
91.055630 28.000000
91.850530 23.000000
97.023740 21.000000
99.025600 117.000000
101.035200 51.000000
101.043410 56.000000
101.623070 25.000000
102.044470 53.000000
103.056610 1000.000000
103.099840 43.000000
104.055770 50.000000
104.183760 22.000000
105.030300 118.000000
105.035060 168.000000
111.006600 48.000000
113.033820 20.000000
115.039540 25.000000
115.055380 176.000000
125.015560 23.000000
125.024540 49.000000
127.044000 20.000000
128.059890 48.000000
128.067370 33.000000
129.033390 873.000000
130.042570 120.000000
135.003100 46.000000
137.041560 25.000000
139.053740 269.000000
139.066940 123.000000
141.058810 83.000000
147.044250 32.000000
149.033510 25.000000
150.046830 57.000000
151.056030 165.000000
152.038300 23.000000
152.061000 963.000000
152.070190 275.000000
153.021990 508.000000
153.067630 97.000000
154.021470 26.000000
155.019910 32.000000
155.046810 28.000000
186.064540 51.000000
222.614590 23.000000
255.062120 61.000000
255.075450 32.000000

>ms2
67.018020 8.000000
103.054050 29.000000
105.033710 9.000000
129.033890 17.000000
147.043810 12.000000
152.061980 10.000000
153.018630 82.000000
153.065990 6.000000
154.020780 5.000000
209.057830 11.000000
213.055280 6.000000
255.065890 1000.000000
255.111390 39.000000
255.254680 10.000000

>ms2
255.065690 1000.000000
255.111220 42.000000
255.254670 14.000000

>ms2
67.019160 83.000000
68.990620 9.000000
68.998120 56.000000
77.038510 20.000000
81.031680 6.000000
91.017290 5.000000
102.045670 6.000000
103.054470 227.000000
104.055720 28.000000
105.017810 7.000000
105.034000 86.000000
106.037640 13.000000
107.014600 6.000000
109.029560 11.000000
111.003710 8.000000
111.010200 39.000000
115.055390 8.000000
125.022740 27.000000
129.033940 115.000000
130.039600 12.000000
139.056260 28.000000
141.067310 6.000000
147.044770 97.000000
148.046770 13.000000
151.054780 9.000000
152.060960 60.000000
153.017750 743.000000
153.066890 63.000000
154.022450 69.000000
154.069580 7.000000
155.026370 16.000000
157.064190 7.000000
167.049150 8.000000
171.040680 23.000000
171.049410 12.000000
181.064070 43.000000
182.072750 7.000000
186.065110 10.000000
187.070140 34.000000
187.078320 26.000000
188.069410 6.000000
199.075940 10.000000
199.088760 5.000000
209.036190 11.000000
209.058910 93.000000
210.054580 8.000000
210.064250 10.000000
213.053310 62.000000
214.060090 10.000000
227.070250 9.000000
237.055160 24.000000
255.024320 5.000000
255.064910 1000.000000

>ms2
67.017600 334.000000
68.997070 322.000000
69.002910 82.000000
69.034080 104.000000
70.005160 65.000000
75.024020 66.000000
77.038390 437.000000
78.043670 46.000000
79.017720 40.000000
79.022090 61.000000
83.015560 72.000000
89.038110 45.000000
91.016030 29.000000
91.020610 56.000000
91.052120 46.000000
92.973710 26.000000
93.001300 38.000000
97.032030 51.000000
100.025680 29.000000
101.038760 31.000000
101.046580 41.000000
102.045410 27.000000
102.049640 81.000000
103.017040 43.000000
103.054440 419.000000
104.060450 22.000000
105.033520 334.000000
106.038310 29.000000
111.012420 43.000000
112.985670 91.000000
115.052680 98.000000
115.058610 137.000000
116.057910 32.000000
126.028290 42.000000
126.048290 32.000000
126.357240 56.000000
126.605840 31.000000
127.043780 46.000000
127.050160 128.000000
129.012680 24.000000
129.019300 45.000000
129.032700 648.000000
130.032500 47.000000
139.053310 313.000000
140.056760 27.000000
141.076080 32.000000
147.042850 78.000000
151.040680 22.000000
151.054410 109.000000
151.352570 24.000000
152.061160 1000.000000
152.093870 35.000000
153.008850 37.000000
153.021730 402.000000
153.049530 65.000000
153.058610 29.000000
153.068770 29.000000
153.075840 52.000000
154.020770 38.000000
154.027730 59.000000
160.960130 27.000000
163.063800 49.000000
168.057420 28.000000
171.043010 23.000000
197.069310 22.000000
253.052470 50.000000
255.057600 235.000000
255.072560 100.000000

