>compound PR31968427
>parentmass 433.1123747000001
>ionization [M]+
>formula C21H21O10+
>rt 187.144020
>profile qtof
#smiles_iso C1=CC(=CC=C1C2=[O+]C3=CC(=CC(=C3C=C2O[C@H]4[C@@H]([C@H]([C@@H]([C@H](O4)CO)O)O)O)O)O)O
#smiles_can C1=CC(=CC=C1C2=[O+]C3=CC(=CC(=C3C=C2OC4C(C(C(C(O4)CO)O)O)O)O)O)O
#inchikey ABVCUBUIXWJYSE-GQUPQBGVSA-O
#pubchem_id 443648
#mb_accession PR302621,PR302627,PR302633,PR302639,PR302645,PR302651,PR302657,PR302663,PR302669,PR302675,PR302681,PR302687

>ms2
145.063710 7.000000
271.018830 22.000000
271.061160 1000.000000
272.064790 190.000000
273.063140 11.000000
273.073910 7.000000
433.070650 15.000000
433.113040 268.000000

>ms2
271.059970 266.000000
272.056550 28.000000
272.069240 23.000000
273.067440 11.000000
433.044160 6.000000
433.054870 13.000000
433.110690 1000.000000

>ms2
121.027550 5.000000
271.017300 14.000000
271.026030 10.000000
271.060390 1000.000000
272.062410 157.000000
273.069520 14.000000

>ms2
57.407870 9.000000
65.035480 5.000000
65.041360 6.000000
68.026160 6.000000
68.993780 10.000000
69.000090 8.000000
70.146510 10.000000
79.012080 6.000000
92.059770 5.000000
93.032880 13.000000
97.033990 5.000000
100.824040 5.000000
107.046150 7.000000
107.060340 7.000000
111.006540 10.000000
115.054040 19.000000
117.060850 6.000000
117.064940 15.000000
117.072530 14.000000
119.048550 6.000000
121.011270 6.000000
121.026450 165.000000
121.032170 54.000000
121.856750 6.000000
122.030560 16.000000
127.049080 15.000000
129.065310 6.000000
130.076780 5.000000
131.047470 22.000000
131.084840 18.000000
131.570590 7.000000
133.056960 6.000000
139.053910 8.000000
140.933410 7.000000
141.057240 7.000000
141.068710 63.000000
141.077320 23.000000
142.071790 15.000000
142.080140 10.000000
143.923930 5.000000
144.051730 5.000000
144.057980 6.000000
144.352200 5.000000
144.807450 5.000000
145.053300 34.000000
145.062270 62.000000
145.070430 15.000000
146.073330 6.000000
147.034390 6.000000
147.091740 7.000000
148.085720 8.000000
149.013780 10.000000
149.023850 24.000000
150.021800 5.000000
150.032790 9.000000
151.051650 9.000000
152.058880 10.000000
152.067370 7.000000
152.149770 6.000000
153.071060 13.000000
155.053800 12.000000
157.069110 6.000000
157.352580 7.000000
159.044460 14.000000
159.087460 9.000000
159.094010 11.000000
160.076080 6.000000
167.051240 7.000000
168.051760 6.000000
169.030670 5.000000
169.054230 15.000000
169.065960 69.000000
170.063720 6.000000
170.069660 18.000000
170.078320 18.000000
171.033920 11.000000
173.061800 27.000000
174.067200 6.000000
177.589840 18.000000
181.059460 9.000000
183.035930 7.000000
183.221560 7.000000
185.058840 10.000000
185.068020 5.000000
186.975630 6.000000
187.071080 6.000000
188.049930 8.000000
196.058980 13.000000
196.975130 7.000000
197.062060 84.000000
197.078050 7.000000
198.048450 7.000000
198.059170 5.000000
199.064760 12.000000
199.075000 6.000000
200.045760 14.000000
202.578660 5.000000
203.040040 7.000000
213.036060 5.000000
213.048680 6.000000
213.059630 15.000000
214.059390 8.000000
215.038530 7.000000
215.067750 53.000000
225.033870 6.000000
225.054340 53.000000
225.064030 22.000000
225.778230 9.000000
226.048830 12.000000
226.063260 27.000000
227.060930 11.000000
228.034070 6.000000
239.897750 7.000000
242.056080 6.000000
243.060000 16.000000
243.072560 46.000000
244.066480 17.000000
244.078800 14.000000
251.979370 6.000000
253.047820 10.000000
253.058350 9.000000
253.071820 9.000000
254.049650 12.000000
255.912780 5.000000
270.837250 5.000000
271.005430 9.000000
271.019810 6.000000
271.058900 1000.000000
272.034450 9.000000
272.064240 212.000000
272.074550 55.000000
272.155460 6.000000
273.051670 12.000000
273.071750 37.000000
275.066410 7.000000
319.079350 5.000000

>ms2
121.028530 11.000000
197.059810 5.000000
215.081240 6.000000
253.046880 8.000000
271.010500 12.000000
271.059390 1000.000000
272.064090 191.000000
273.066650 32.000000
433.112610 270.000000

>ms2
271.060090 220.000000
272.064510 29.000000
273.061220 7.000000
433.053770 16.000000
433.113160 1000.000000

>ms2
271.023530 16.000000
271.059630 1000.000000
272.041110 6.000000
272.063690 153.000000
273.064820 33.000000
273.075650 11.000000

>ms2
68.996410 10.000000
70.252590 10.000000
80.025090 8.000000
93.028100 7.000000
93.036220 26.000000
95.011760 10.000000
105.036190 5.000000
107.048920 21.000000
109.005270 7.000000
109.019540 12.000000
110.035080 9.000000
115.052010 6.000000
115.058240 11.000000
117.062980 9.000000
121.027960 324.000000
121.319820 16.000000
122.028790 6.000000
122.034420 6.000000
123.024840 7.000000
123.033990 12.000000
123.045000 17.000000
127.056500 9.000000
127.064010 6.000000
128.064040 5.000000
129.067260 7.000000
131.049730 16.000000
131.085890 14.000000
134.036970 7.000000
139.047320 7.000000
141.069790 97.000000
141.101500 6.000000
142.073270 12.000000
144.058990 22.000000
144.070740 15.000000
145.052700 12.000000
145.065570 135.000000
147.041210 24.000000
147.086330 24.000000
148.057040 7.000000
149.022090 42.000000
150.028120 12.000000
150.099990 7.000000
150.858800 5.000000
151.039080 7.000000
152.060910 52.000000
153.018070 8.000000
154.077680 8.000000
156.048740 12.000000
157.064130 16.000000
157.073330 8.000000
158.075420 6.000000
159.038420 22.000000
159.050570 23.000000
159.076050 6.000000
160.047970 16.000000
167.037280 7.000000
169.056920 21.000000
169.067350 24.000000
169.084230 21.000000
170.064160 30.000000
170.079450 7.000000
170.938340 6.000000
172.929320 5.000000
173.057310 46.000000
173.064680 23.000000
174.057800 16.000000
174.071350 6.000000
179.052860 6.000000
185.052900 6.000000
187.028350 10.000000
187.043230 15.000000
187.078280 15.000000
188.052580 8.000000
197.026170 9.000000
197.048360 19.000000
197.061800 165.000000
198.058990 19.000000
198.077030 12.000000
199.064000 11.000000
200.033940 7.000000
200.042300 6.000000
201.059460 29.000000
201.075760 7.000000
209.285110 7.000000
210.073260 8.000000
211.038560 6.000000
211.068790 6.000000
215.028170 7.000000
215.063310 27.000000
215.078160 37.000000
215.088550 6.000000
215.914630 10.000000
216.073610 6.000000
217.161500 8.000000
225.052810 29.000000
225.062680 16.000000
226.060090 41.000000
228.037450 6.000000
228.060810 7.000000
228.241440 6.000000
241.052470 14.000000
242.057790 16.000000
243.051790 7.000000
243.065480 43.000000
244.077030 17.000000
253.041260 8.000000
253.057980 37.000000
254.052920 6.000000
254.063190 17.000000
271.005070 8.000000
271.015050 9.000000
271.061100 1000.000000
271.259250 9.000000
272.060210 93.000000
272.069670 106.000000
272.088560 7.000000
273.062130 25.000000
388.461240 9.000000

>ms2
215.076000 6.000000
271.003720 9.000000
271.021850 6.000000
271.060520 1000.000000
272.039340 6.000000
272.064360 174.000000
272.089630 9.000000
273.059200 17.000000
273.071560 11.000000
433.044340 6.000000
433.074340 6.000000
433.113560 293.000000

>ms2
271.032680 6.000000
271.059880 246.000000
272.058900 34.000000
273.066040 9.000000
433.051910 11.000000
433.113560 1000.000000

>ms2
271.015990 15.000000
271.060460 1000.000000
272.065490 191.000000
273.057100 10.000000
273.066710 26.000000

>ms2
65.044110 12.000000
68.994190 6.000000
81.031650 7.000000
85.030240 6.000000
93.030430 40.000000
93.035350 27.000000
101.210080 12.000000
103.053030 7.000000
105.033780 6.000000
105.067210 7.000000
107.043790 7.000000
108.010460 6.000000
109.027310 9.000000
115.044330 6.000000
115.056150 10.000000
118.070750 6.000000
119.053400 12.000000
119.086900 8.000000
120.256560 7.000000
121.008150 15.000000
121.027350 243.000000
121.659450 6.000000
122.026640 10.000000
122.035060 50.000000
123.049350 16.000000
127.054430 40.000000
128.064240 21.000000
129.033170 7.000000
131.042240 25.000000
131.051450 34.000000
141.047040 10.000000
141.058720 15.000000
141.071910 64.000000
141.561740 5.000000
142.060590 9.000000
142.075780 17.000000
145.045530 13.000000
145.053940 6.000000
145.065900 34.000000
145.076610 13.000000
147.038420 14.000000
147.049900 7.000000
147.073440 16.000000
149.024000 36.000000
149.032180 12.000000
150.027800 6.000000
151.051040 15.000000
152.063390 16.000000
156.049180 6.000000
157.042010 6.000000
157.067980 21.000000
159.041150 11.000000
160.036250 7.000000
165.013340 11.000000
168.055470 8.000000
169.049990 7.000000
169.065090 96.000000
170.069470 26.000000
170.283080 7.000000
171.342450 6.000000
173.057450 23.000000
174.820570 6.000000
176.031650 6.000000
176.048220 8.000000
177.566710 5.000000
178.680270 13.000000
179.045100 10.000000
181.059200 10.000000
184.056730 7.000000
185.055020 13.000000
185.065810 12.000000
187.028690 6.000000
187.048810 11.000000
197.039170 7.000000
197.058530 74.000000
197.066090 29.000000
198.057100 7.000000
198.065990 6.000000
200.037540 6.000000
201.047500 6.000000
202.062590 13.000000
204.268590 5.000000
210.070530 5.000000
213.053730 8.000000
214.052430 12.000000
214.068730 6.000000
214.926710 8.000000
215.071240 15.000000
215.089360 10.000000
215.195680 6.000000
216.065550 6.000000
218.504200 7.000000
224.033160 10.000000
225.035840 8.000000
225.056500 53.000000
225.066210 10.000000
226.065780 20.000000
229.051280 16.000000
242.058470 7.000000
243.046230 6.000000
243.060850 10.000000
243.079640 7.000000
253.012530 8.000000
253.038830 10.000000
253.058720 19.000000
269.034820 6.000000
269.185910 8.000000
270.965790 5.000000
271.061800 1000.000000
272.032560 9.000000
272.054230 37.000000
272.065950 70.000000
273.073850 17.000000
273.353940 5.000000
297.105710 5.000000
320.025670 7.000000

