>compound PR31469911
>parentmass 653.134
>ionization [M+H]+
>formula C28H28O18
>rt 243.000000
>profile qtof
#smiles_iso COC1=C(C=CC(=C1)C2=CC(=O)C3=C(C=C(C=C3O2)OC4C(C(C(C(O4)C(=O)O)O)O)OC5C(C(C(C(O5)C(=O)O)O)O)O)O)O
#smiles_can COC1=C(C=CC(=C1)C2=CC(=O)C3=C(C=C(C=C3O2)OC4C(C(C(C(O4)C(=O)O)O)O)OC5C(C(C(C(O5)C(=O)O)O)O)O)O)O
#inchikey MEUYKMSNZLTEBE-UHFFFAOYSA-N
#pubchem_id 74977705
#mb_accession PR310966

>ms2peaks
286.054350 19.000000
301.072750 156.000000
301.083010 50.000000
302.067930 56.000000
496.060700 17.000000
496.512050 17.000000
653.120060 25.000000
653.145260 67.000000

