>compound PR31089337
>parentmass 607.1603
>ionization [M+H]+
>formula C35H26O10
>rt 454.200000
>profile qtof
#smiles_iso CC(=CCC1=C(C2=C(C(=C1O)C3=C(C=CC(=C3)C4=CC(=O)C5=C(C=C(C=C5O4)O)O)O)OC(=CC2=O)C6=CC=C(C=C6)O)O)C
#smiles_can CC(=CCC1=C(C2=C(C(=C1O)C3=C(C=CC(=C3)C4=CC(=O)C5=C(C=C(C=C5O4)O)O)O)OC(=CC2=O)C6=CC=C(C=C6)O)O)C
#inchikey PFRUIDZIJVQVOR-UHFFFAOYSA-N
#pubchem_id 10555648
#mb_accession PR311122

>ms2
121.028950 41.000000
122.036830 22.000000
205.083650 39.000000
255.059300 23.000000
268.073520 24.000000
305.024810 18.000000
322.112670 22.000000
351.120300 18.000000
354.178130 24.000000
357.054900 20.000000
383.050510 20.000000
401.061160 51.000000
402.073210 23.000000
409.958950 34.000000
412.136410 18.000000
413.074310 64.000000
417.046910 23.000000
427.063630 25.000000
432.846920 20.000000
440.068270 20.000000
441.108090 41.000000
441.134060 19.000000
441.150360 26.000000
457.162660 18.000000
469.077550 21.000000
469.102540 47.000000
469.132390 322.000000
470.122160 91.000000
471.123960 33.000000
471.147890 26.000000
489.143400 18.000000
607.180300 21.000000
607.216740 38.000000

