>compound PR31586963
>parentmass 595.1657467000001
>ionization [M+H]+
>formula C27H30O15
>rt 259.911000
>profile qtof
#smiles_iso C[C@H]1[C@@H]([C@H]([C@H]([C@@H](O1)O[C@@H]2[C@H]([C@@H]([C@H](O[C@H]2OC3=CC(=C4C(=C3)OC(=C(C4=O)O)C5=CC=C(C=C5)O)O)CO)O)O)O)O)O
#smiles_can CC1C(C(C(C(O1)OC2C(C(C(OC2OC3=CC(=C4C(=C3)OC(=C(C4=O)O)C5=CC=C(C=C5)O)O)CO)O)O)O)O)O
#inchikey ZEJXENDZTYVXDP-CSJHBIPPSA-N
#pubchem_id 5483905
#mb_accession PR301898,PR301904,PR301910,PR301916,PR301922,PR301928,PR301934,PR301940,PR301946,PR301952,PR301958,PR301964

>ms2peaks
71.050700 10.000000
85.029330 6.000000
127.026080 6.000000
129.046910 17.000000
130.057620 6.000000
147.063260 6.000000
148.069660 7.000000
200.011410 6.000000
286.952090 6.000000
287.014620 6.000000
287.029750 52.000000
287.056460 1000.000000
288.021390 6.000000
288.048680 71.000000
288.060640 151.000000
288.674440 6.000000
289.049220 22.000000
289.061490 22.000000
289.077550 18.000000
291.070980 5.000000
309.122470 10.000000
325.080690 9.000000
395.070740 6.000000
415.109410 6.000000
416.578030 6.000000
449.074680 6.000000
449.110110 35.000000
450.110350 24.000000
595.102840 8.000000
595.170350 206.000000

>ms2peaks
85.029880 10.000000
147.065930 12.000000
237.075790 12.000000
257.033870 5.000000
257.102910 11.000000
273.083250 7.000000
273.129000 6.000000
287.016450 6.000000
287.054050 307.000000
288.058780 73.000000
288.082030 10.000000
289.057530 12.000000
434.100980 7.000000
434.156400 11.000000
448.110870 8.000000
449.084290 13.000000
449.108490 48.000000
450.049740 7.000000
450.102940 5.000000
450.115910 5.000000
451.074680 8.000000
483.939030 10.000000
595.022400 5.000000
595.053710 7.000000
595.089230 25.000000
595.165340 1000.000000

>ms2peaks
71.047580 19.000000
85.029130 25.000000
112.586120 5.000000
129.058410 7.000000
145.045790 8.000000
151.070390 9.000000
165.017060 8.000000
175.259220 10.000000
286.989620 6.000000
287.011320 16.000000
287.053410 1000.000000
288.040530 22.000000
288.057130 119.000000
288.084810 18.000000
289.059630 10.000000
289.073670 24.000000
290.054810 7.000000
291.055270 8.000000
398.118530 6.000000

>ms2peaks
70.036370 15.000000
71.051260 19.000000
71.336800 16.000000
85.024910 11.000000
88.632090 7.000000
93.026730 7.000000
111.002690 25.000000
121.028530 41.000000
127.034180 10.000000
136.050110 8.000000
137.019850 44.000000
153.018740 39.000000
157.068020 9.000000
165.016170 20.000000
178.013960 10.000000
185.057130 32.000000
185.507920 10.000000
185.681690 13.000000
199.034270 7.000000
202.074310 7.000000
203.076550 10.000000
213.404100 7.000000
214.060530 10.000000
217.059600 8.000000
233.061630 11.000000
241.068890 11.000000
244.036790 20.000000
245.037410 10.000000
245.096660 9.000000
258.045990 42.000000
259.054840 33.000000
260.062070 9.000000
286.051640 8.000000
287.004240 8.000000
287.029600 50.000000
287.054260 1000.000000
287.078770 26.000000
287.411560 8.000000
287.914700 10.000000
288.039120 26.000000
288.053220 75.000000
288.063080 133.000000
288.154330 7.000000
293.986880 7.000000
295.501770 8.000000
299.052860 13.000000
330.054840 10.000000
339.090580 7.000000
352.093540 14.000000
585.174990 9.000000

>ms2peaks
85.025750 5.000000
85.031960 7.000000
117.057480 8.000000
129.043270 6.000000
129.049790 9.000000
129.056430 10.000000
147.068620 8.000000
163.247710 5.000000
165.022050 8.000000
207.068950 6.000000
231.077120 11.000000
253.330140 7.000000
273.099640 9.000000
282.612700 8.000000
282.770690 6.000000
287.005310 7.000000
287.055850 1000.000000
288.038390 13.000000
288.053130 58.000000
288.062960 78.000000
289.033170 8.000000
289.064610 20.000000
311.067840 6.000000
359.079130 6.000000
432.106570 6.000000
433.123840 8.000000
449.088960 16.000000
449.110960 55.000000
450.083680 13.000000
450.125980 7.000000
461.584320 6.000000
595.167600 234.000000
595.229980 9.000000

>ms2peaks
147.067430 5.000000
148.053620 8.000000
163.070310 7.000000
225.777160 8.000000
287.025970 6.000000
287.054470 439.000000
288.047210 51.000000
288.066470 7.000000
289.089080 12.000000
309.123050 6.000000
309.133940 13.000000
371.676480 7.000000
412.703520 7.000000
413.964970 6.000000
415.076600 7.000000
433.114590 6.000000
449.035460 10.000000
449.092620 23.000000
449.108370 82.000000
450.109250 30.000000
450.120540 10.000000
593.875430 5.000000
595.163880 1000.000000

>ms2peaks
71.034390 5.000000
85.027110 39.000000
91.040480 8.000000
97.029640 9.000000
129.049000 12.000000
129.057460 8.000000
243.518880 6.000000
258.047360 5.000000
269.903500 6.000000
287.022220 23.000000
287.055210 1000.000000
287.083830 15.000000
288.039250 15.000000
288.058840 156.000000
289.047030 24.000000
289.068180 18.000000
290.063570 9.000000
379.097410 8.000000
380.053740 7.000000
449.090420 6.000000

>ms2peaks
85.025540 11.000000
85.030670 11.000000
107.045820 10.000000
111.011480 30.000000
121.024980 18.000000
133.035810 10.000000
137.019620 14.000000
145.079670 10.000000
147.039490 14.000000
153.014210 18.000000
153.021880 16.000000
165.016890 44.000000
171.036220 12.000000
181.051540 8.000000
183.190750 11.000000
185.054980 22.000000
189.055880 10.000000
202.059300 18.000000
203.029250 10.000000
207.005110 7.000000
213.051300 17.000000
213.066150 12.000000
214.054050 16.000000
219.812350 10.000000
225.586640 15.000000
231.055880 13.000000
231.086270 9.000000
241.053710 15.000000
241.063170 12.000000
258.071810 8.000000
259.062530 27.000000
269.034360 10.000000
286.953400 15.000000
287.004180 11.000000
287.024050 43.000000
287.054170 1000.000000
287.283910 8.000000
288.050380 72.000000
288.069520 61.000000
289.050990 9.000000
289.069060 17.000000
290.050480 7.000000
290.065980 10.000000
330.055240 7.000000
353.074980 12.000000

>ms2peaks
85.029680 14.000000
117.053490 10.000000
119.014240 8.000000
130.031080 10.000000
133.339710 5.000000
147.061110 6.000000
166.015170 7.000000
195.070980 7.000000
211.057100 6.000000
237.073720 5.000000
239.909380 8.000000
255.093020 5.000000
257.038600 7.000000
274.095120 6.000000
286.998380 7.000000
287.012880 28.000000
287.054840 1000.000000
288.021300 5.000000
288.040950 27.000000
288.057040 130.000000
289.057280 11.000000
289.069760 15.000000
290.066740 10.000000
349.075900 5.000000
383.079740 9.000000
449.082210 10.000000
449.108610 65.000000
449.141050 9.000000
450.106380 19.000000
595.161560 262.000000

>ms2peaks
147.065570 16.000000
148.068920 6.000000
269.842470 10.000000
286.976810 10.000000
287.025480 12.000000
287.047030 147.000000
287.060330 241.000000
288.055270 58.000000
288.068480 17.000000
291.109950 6.000000
348.303440 6.000000
433.113980 16.000000
449.108830 73.000000
449.122250 24.000000
449.153410 20.000000
450.120970 9.000000
451.114590 6.000000
513.604310 5.000000
593.145020 7.000000
595.050290 6.000000
595.090390 30.000000
595.167110 1000.000000

>ms2peaks
67.016490 5.000000
71.050480 5.000000
85.026990 27.000000
85.033130 10.000000
117.054080 11.000000
129.034670 9.000000
129.055240 14.000000
130.059720 12.000000
159.072830 5.000000
169.043470 6.000000
171.070160 8.000000
180.766080 5.000000
213.059280 5.000000
257.053650 8.000000
260.658290 9.000000
287.012330 10.000000
287.055110 1000.000000
287.969060 8.000000
288.020940 9.000000
288.056150 126.000000
288.066250 51.000000
288.963170 8.000000
289.065670 34.000000
289.078610 11.000000
397.106870 5.000000
441.088470 6.000000
449.102600 8.000000

>ms2peaks
71.048850 5.000000
71.054530 10.000000
85.030610 6.000000
111.004960 19.000000
121.029280 14.000000
137.020890 5.000000
137.027010 8.000000
153.016010 60.000000
153.024460 9.000000
165.013350 8.000000
165.020320 6.000000
166.024750 11.000000
171.045200 6.000000
175.065920 5.000000
184.925900 6.000000
185.057880 13.000000
186.075390 10.000000
186.837050 5.000000
189.040130 7.000000
190.533070 6.000000
194.430740 7.000000
203.064070 6.000000
206.037700 6.000000
213.062230 15.000000
228.045790 8.000000
229.054310 10.000000
232.061390 9.000000
241.038640 16.000000
242.058720 5.000000
244.181820 21.000000
245.040410 7.000000
258.055020 22.000000
260.055630 5.000000
260.240450 10.000000
286.956730 9.000000
287.021510 7.000000
287.054410 1000.000000
288.045810 58.000000
288.062010 89.000000
289.071870 13.000000
290.071230 7.000000
329.078670 5.000000
336.979710 6.000000
375.527440 11.000000

