>compound PR31765786
>parentmass 394.1033617
>ionization [M+H]+
>formula C20H15N3O6
>rt 351.909000
>profile qtof
#smiles_iso CC[C@@]1(C2=C(COC1=O)C(=O)N3CC4=CC5=C(C=CC=C5[N+](=O)[O-])N=C4C3=C2)O
#smiles_can CCC1(C2=C(COC1=O)C(=O)N3CC4=CC5=C(C=CC=C5[N+](=O)[O-])N=C4C3=C2)O
#inchikey VHXNKPBCCMUMSW-FQEVSTJZSA-N
#pubchem_id 472335
#mb_accession PR301270,PR301274,PR301278,PR301282,PR301286,PR301290,PR301294,PR301297,PR301301,PR301305,PR301308,PR301311

>ms2peaks
202.072770 6.000000
220.109420 5.000000
222.078140 5.000000
235.094850 6.000000
245.072560 7.000000
247.087880 37.000000
248.085110 15.000000
248.097200 13.000000
263.070920 15.000000
264.074950 13.000000
274.108950 5.000000
279.063540 8.000000
291.043240 10.000000
291.069120 78.000000
292.069430 20.000000
292.091190 17.000000
292.103180 5.000000
292.135310 6.000000
293.069520 22.000000
293.081150 40.000000
293.093720 12.000000
293.135930 6.000000
294.087040 12.000000
295.087280 6.000000
304.122250 140.000000
305.121730 35.000000
305.145940 6.000000
306.138120 6.000000
319.065770 13.000000
320.077450 6.000000
320.123900 8.000000
348.096310 15.000000
348.109530 27.000000
350.115840 99.000000
351.117610 46.000000
365.057460 27.000000
365.069550 27.000000
365.086060 9.000000
366.054260 7.000000
366.074250 10.000000
394.037780 7.000000
394.053500 7.000000
394.066130 8.000000
394.103030 1000.000000
394.162410 6.000000

>ms2peaks
394.049620 13.000000
394.103940 1000.000000

>ms2peaks
123.042810 5.000000
130.329300 9.000000
146.059750 9.000000
147.062270 5.000000
168.042450 6.000000
168.074010 9.000000
184.065030 5.000000
195.077120 12.000000
202.068130 5.000000
204.091740 6.000000
205.087370 7.000000
205.106720 6.000000
206.095750 8.000000
209.089770 9.000000
217.212620 7.000000
218.062330 5.000000
218.078260 7.000000
218.087600 9.000000
219.090290 14.000000
234.081740 8.000000
234.109860 5.000000
235.075230 10.000000
235.092900 39.000000
236.071370 10.000000
237.063350 6.000000
237.083500 6.000000
238.060300 14.000000
238.070270 35.000000
238.078290 31.000000
245.086040 14.000000
246.055770 6.000000
247.083220 30.000000
247.096300 47.000000
247.116820 11.000000
248.098820 66.000000
249.093750 17.000000
259.082370 5.000000
259.108520 7.000000
261.135770 9.000000
263.082950 30.000000
263.098660 5.000000
264.079350 15.000000
265.064390 6.000000
265.074370 12.000000
265.089080 33.000000
266.087160 17.000000
266.096800 20.000000
267.092470 8.000000
270.537780 5.000000
273.066160 6.000000
274.083340 13.000000
274.111450 23.000000
275.092250 5.000000
276.091190 14.000000
276.136600 6.000000
277.100650 9.000000
280.080540 5.000000
282.060210 12.000000
286.102910 18.000000
286.120510 13.000000
290.060640 20.000000
290.077450 25.000000
290.113130 9.000000
291.035030 21.000000
291.063080 358.000000
291.110780 6.000000
292.067990 112.000000
292.086580 39.000000
292.103330 15.000000
292.117650 25.000000
292.132780 9.000000
292.366390 6.000000
293.079770 471.000000
293.127500 15.000000
293.170500 5.000000
294.002750 6.000000
294.075160 43.000000
294.092800 94.000000
294.255310 5.000000
296.547060 6.000000
302.069150 8.000000
302.092380 14.000000
302.113220 9.000000
304.037570 5.000000
304.064390 5.000000
304.120790 1000.000000
304.270080 5.000000
305.088620 5.000000
305.122770 219.000000
305.140380 32.000000
305.224950 6.000000
306.042480 5.000000
306.117070 12.000000
306.128570 16.000000
307.100800 6.000000
308.085820 6.000000
309.084900 5.000000
319.063320 65.000000
320.061980 71.000000
320.079040 30.000000
320.100620 20.000000
320.113370 72.000000
320.135830 18.000000
320.889470 9.000000
321.058040 11.000000
321.084260 14.000000
321.110080 22.000000
321.124150 6.000000
321.139160 6.000000
322.068390 7.000000
322.078000 23.000000
330.096800 6.000000
331.245330 5.000000
332.105960 11.000000
333.095430 6.000000
336.046690 11.000000
336.067960 16.000000
336.090060 16.000000
337.065860 30.000000
337.074100 62.000000
338.070500 49.000000
348.060910 7.000000
348.083740 26.000000
348.106480 155.000000
348.121550 49.000000
348.362520 6.000000
349.084320 5.000000
349.099820 5.000000
349.113620 9.000000
349.436430 7.000000
350.101840 111.000000
350.116490 553.000000
351.098720 25.000000
351.117860 106.000000
351.132600 44.000000
352.117650 10.000000
352.276310 5.000000
357.414640 6.000000
364.091580 5.000000
364.105930 11.000000
365.015690 5.000000
365.034390 15.000000
365.062440 176.000000
365.092190 7.000000
366.070590 53.000000
367.112060 6.000000
377.055510 6.000000
378.310700 7.000000
394.100010 188.000000
394.116000 49.000000

>ms2peaks
57.038780 39.000000
102.046340 16.000000
117.057660 18.000000
118.055830 36.000000
119.060720 29.000000
120.064350 20.000000
140.056080 26.000000
147.070660 18.000000
151.048570 20.000000
152.068970 23.000000
156.063140 16.000000
157.056610 18.000000
164.056610 42.000000
164.482530 27.000000
165.059460 18.000000
165.073470 37.000000
166.054380 18.000000
166.065030 18.000000
166.076400 19.000000
167.038390 27.000000
167.052870 18.000000
167.065930 30.000000
167.073810 55.000000
168.080580 27.000000
176.053190 31.000000
178.044860 22.000000
178.061680 21.000000
178.070450 25.000000
179.064480 163.000000
179.077380 48.000000
180.058460 23.000000
180.069290 133.000000
181.074490 58.000000
182.058930 16.000000
182.086760 55.000000
183.063660 23.000000
187.624970 19.000000
189.034030 30.000000
190.051830 35.000000
190.066860 204.000000
191.060940 50.000000
191.071110 223.000000
191.089940 41.000000
192.057190 22.000000
192.070220 183.000000
192.082320 22.000000
193.034880 20.000000
193.050060 30.000000
193.061550 22.000000
193.075810 65.000000
193.084870 45.000000
194.048130 21.000000
194.056460 43.000000
194.096040 18.000000
195.100220 17.000000
195.415660 16.000000
197.044690 20.000000
201.076780 16.000000
202.059390 56.000000
202.073230 16.000000
202.207050 19.000000
203.055500 32.000000
203.073810 139.000000
203.511990 17.000000
204.061900 30.000000
204.070950 74.000000
204.080920 94.000000
204.088990 34.000000
205.073680 90.000000
205.083770 180.000000
205.095790 82.000000
205.102370 33.000000
206.048710 18.000000
206.063290 45.000000
206.086120 274.000000
206.104600 18.000000
206.229950 17.000000
206.260250 16.000000
207.053500 16.000000
207.058790 38.000000
207.082790 76.000000
207.094800 71.000000
207.107190 18.000000
207.332320 23.000000
208.048600 35.000000
208.068600 18.000000
208.082430 37.000000
208.097960 16.000000
209.071760 18.000000
210.081950 34.000000
211.084060 38.000000
214.144200 23.000000
215.068600 21.000000
216.059270 30.000000
216.074020 106.000000
216.346390 20.000000
217.069920 434.000000
217.078170 397.000000
217.088470 179.000000
218.053280 20.000000
218.084550 1000.000000
218.492710 26.000000
219.077270 121.000000
219.090840 525.000000
219.915150 18.000000
220.043960 18.000000
220.076200 112.000000
220.088120 102.000000
220.103730 187.000000
220.139540 16.000000
220.157930 16.000000
221.068050 18.000000
221.108110 38.000000
222.062420 20.000000
228.073010 28.000000
228.094700 27.000000
229.063230 20.000000
229.082500 19.000000
230.102220 80.000000
231.055130 36.000000
231.104890 91.000000
232.056110 36.000000
232.065550 33.000000
232.074740 19.000000
232.095600 20.000000
232.802260 18.000000
233.068470 185.000000
233.081700 17.000000
234.040250 22.000000
234.060560 43.000000
234.079710 199.000000
234.111560 19.000000
235.085330 95.000000
235.097520 59.000000
236.043990 35.000000
236.059050 16.000000
236.075940 31.000000
237.074920 21.000000
237.702150 17.000000
238.069380 90.000000
238.086270 66.000000
238.957110 21.000000
241.081300 27.000000
242.101750 18.000000
242.115590 17.000000
243.090070 18.000000
244.070340 36.000000
244.083390 18.000000
244.096070 16.000000
244.108600 28.000000
244.812710 16.000000
245.054200 57.000000
245.066420 288.000000
245.077960 252.000000
245.088200 62.000000
245.106050 18.000000
245.117830 17.000000
246.034010 28.000000
246.061390 130.000000
246.079700 740.000000
246.123920 27.000000
247.039690 23.000000
247.051730 53.000000
247.068160 50.000000
247.085970 446.000000
247.115280 21.000000
248.040040 17.000000
248.084240 135.000000
248.094680 327.000000
249.092930 18.000000
249.845930 25.000000
250.107930 18.000000
250.123920 18.000000
253.012370 16.000000
256.103670 18.000000
258.092250 24.000000
258.115510 81.000000
258.721980 23.000000
259.054810 22.000000
259.076390 22.000000
259.086060 20.000000
259.102540 16.000000
260.098970 98.000000
260.115630 17.000000
261.033200 18.000000
261.116090 22.000000
262.046540 17.000000
262.062100 30.000000
262.075070 28.000000
262.090580 42.000000
263.006160 17.000000
263.065980 39.000000
263.077150 154.000000
264.066440 23.000000
264.088200 82.000000
264.928560 16.000000
265.014430 17.000000
271.078370 30.000000
271.101290 18.000000
271.115750 42.000000
272.063600 20.000000
272.087010 16.000000
272.098510 23.000000
273.097260 18.000000
274.065220 37.000000
274.087520 22.000000
274.099210 18.000000
274.116000 23.000000
274.126160 18.000000
274.442020 20.000000
276.088010 16.000000
276.097960 20.000000
276.110990 39.000000
276.122070 38.000000
276.136440 17.000000
277.135190 17.000000
280.073490 21.000000
285.095400 26.000000
286.102020 18.000000
286.113220 60.000000
287.088170 17.000000
289.096470 16.000000
290.037990 20.000000
290.075680 77.000000
291.051640 45.000000
291.073460 90.000000
291.107640 18.000000
292.058410 59.000000
292.076900 84.000000
292.131320 16.000000
293.070590 56.000000
294.078060 19.000000
302.073730 18.000000
302.116490 16.000000
304.120180 246.000000
304.493380 16.000000
305.090730 19.000000
305.100340 19.000000
305.134030 71.000000
306.081020 18.000000
362.033420 16.000000

>ms2peaks
203.075120 6.000000
204.083390 6.000000
205.090640 6.000000
219.097750 12.000000
235.091280 11.000000
238.062350 11.000000
238.092800 5.000000
245.061080 7.000000
245.080640 6.000000
247.094830 20.000000
248.082520 6.000000
248.092220 12.000000
258.125520 6.000000
263.060240 5.000000
263.076870 12.000000
265.077790 8.000000
276.131840 9.000000
291.056000 22.000000
291.066070 21.000000
291.078860 14.000000
292.072540 25.000000
292.092830 6.000000
292.120300 10.000000
293.070400 22.000000
293.084560 47.000000
293.100770 5.000000
294.079220 16.000000
294.093320 7.000000
304.115840 100.000000
304.131620 71.000000
305.125270 33.000000
319.052120 7.000000
319.071690 6.000000
320.077850 7.000000
320.108090 9.000000
320.126650 8.000000
322.092960 6.000000
337.050960 5.000000
337.064760 8.000000
338.081150 6.000000
348.101350 34.000000
350.115600 115.000000
351.098450 13.000000
351.113650 16.000000
365.066410 47.000000
394.104980 1000.000000

>ms2peaks
394.044590 7.000000
394.065770 8.000000
394.103520 1000.000000
394.159360 8.000000

>ms2peaks
57.036420 9.000000
146.065200 9.000000
161.164630 6.000000
169.069600 8.000000
173.817500 6.000000
193.092380 7.000000
204.055330 7.000000
205.073780 8.000000
206.070680 5.000000
210.074630 9.000000
220.102100 8.000000
222.071980 10.000000
225.079880 6.000000
233.109390 5.000000
234.072570 6.000000
235.088300 13.000000
236.070950 8.000000
236.094470 11.000000
237.090180 8.000000
238.081250 46.000000
239.070830 5.000000
239.083760 13.000000
244.441860 10.000000
245.067020 10.000000
246.078170 10.000000
247.086980 57.000000
247.098460 12.000000
248.083970 15.000000
248.096150 26.000000
248.107360 19.000000
248.151120 6.000000
256.280400 7.000000
263.045750 10.000000
263.081420 38.000000
263.104550 16.000000
263.118770 5.000000
264.082670 19.000000
265.083920 31.000000
266.074950 11.000000
266.093540 11.000000
267.084590 6.000000
267.123960 8.000000
269.220340 8.000000
274.030640 6.000000
274.072910 7.000000
274.095370 7.000000
274.120540 21.000000
275.733400 5.000000
276.100950 9.000000
279.072110 7.000000
281.076660 10.000000
284.073330 7.000000
286.106780 16.000000
290.110380 23.000000
291.031370 9.000000
291.048030 38.000000
291.065890 309.000000
292.038210 9.000000
292.069310 100.000000
292.086090 49.000000
292.120330 21.000000
292.130340 27.000000
293.074400 285.000000
293.085170 197.000000
293.100130 47.000000
293.910130 9.000000
294.053650 11.000000
294.071260 34.000000
294.083530 79.000000
294.107270 6.000000
295.078190 18.000000
295.106380 8.000000
295.638120 5.000000
300.453980 7.000000
301.195530 7.000000
302.105160 29.000000
302.117070 16.000000
303.103940 7.000000
304.044010 5.000000
304.057310 7.000000
304.122470 1000.000000
304.155850 6.000000
304.525050 10.000000
305.124020 209.000000
306.120210 12.000000
308.080260 6.000000
309.144560 5.000000
319.062810 62.000000
319.072450 35.000000
319.868130 7.000000
320.068510 80.000000
320.110230 116.000000
321.050960 9.000000
321.067720 10.000000
321.096830 10.000000
321.128170 18.000000
321.514370 5.000000
322.077270 9.000000
322.102750 6.000000
322.123600 15.000000
323.085420 9.000000
330.093050 6.000000
333.115200 6.000000
335.091920 6.000000
336.045810 11.000000
336.060640 15.000000
336.085910 19.000000
336.113590 5.000000
337.070980 55.000000
337.088930 40.000000
338.061250 8.000000
338.087770 7.000000
339.069370 6.000000
348.030610 6.000000
348.091890 22.000000
348.111820 182.000000
349.104400 20.000000
349.127590 18.000000
350.043060 9.000000
350.113710 384.000000
351.036250 6.000000
351.116910 110.000000
351.137600 21.000000
352.112700 9.000000
364.040860 14.000000
365.063320 199.000000
365.082790 24.000000
366.065160 34.000000
366.081910 20.000000
377.131350 6.000000
394.043210 6.000000
394.086150 30.000000
394.104370 141.000000
394.128690 9.000000

>ms2peaks
53.039150 17.000000
93.052320 21.000000
105.476640 28.000000
122.808420 18.000000
128.030080 18.000000
129.062290 16.000000
132.045120 35.000000
142.062650 21.000000
145.047740 16.000000
145.647110 27.000000
147.852660 28.000000
151.050420 14.000000
154.065510 19.000000
154.074510 21.000000
155.021960 14.000000
155.064620 45.000000
155.078280 17.000000
161.034730 20.000000
164.056900 14.000000
165.056870 54.000000
166.046860 19.000000
166.069960 15.000000
167.067060 24.000000
167.075100 66.000000
168.038480 24.000000
168.080080 15.000000
168.086260 14.000000
177.069230 17.000000
178.058940 23.000000
178.067090 18.000000
179.051470 14.000000
179.070480 16.000000
179.078610 24.000000
180.049360 24.000000
180.064420 36.000000
180.074330 14.000000
181.073330 115.000000
181.087840 37.000000
182.031690 14.000000
182.079250 18.000000
182.087050 14.000000
183.075970 42.000000
187.058900 16.000000
189.052380 14.000000
189.488740 16.000000
190.044160 14.000000
190.060990 92.000000
190.069230 95.000000
191.055530 23.000000
191.074450 252.000000
192.060900 54.000000
192.074750 81.000000
192.089000 16.000000
193.060360 14.000000
193.069050 21.000000
193.076870 22.000000
193.091610 16.000000
194.059330 21.000000
194.077240 18.000000
194.090820 17.000000
195.056820 26.000000
196.054520 14.000000
201.989380 16.000000
202.771880 19.000000
203.060780 64.000000
203.075810 124.000000
204.067000 94.000000
204.084930 151.000000
204.357210 26.000000
205.070190 151.000000
205.081920 271.000000
206.075470 101.000000
206.085680 77.000000
206.096760 22.000000
206.113530 14.000000
207.072740 45.000000
207.086900 75.000000
207.098970 27.000000
208.058580 35.000000
208.070130 46.000000
208.087650 21.000000
208.099180 33.000000
209.064590 73.000000
210.075210 34.000000
211.026460 21.000000
214.066300 16.000000
215.336000 14.000000
216.068890 225.000000
216.134290 20.000000
217.065640 162.000000
217.073840 517.000000
217.085420 246.000000
218.047060 34.000000
218.057360 63.000000
218.083360 1000.000000
219.066440 27.000000
219.080200 195.000000
219.092760 561.000000
219.568790 20.000000
220.047350 23.000000
220.061000 17.000000
220.075940 39.000000
220.087740 89.000000
220.100560 168.000000
221.064740 15.000000
221.102070 20.000000
221.110640 21.000000
222.068860 16.000000
223.039900 16.000000
225.049190 16.000000
228.076600 33.000000
228.230850 21.000000
229.070510 15.000000
229.095440 37.000000
230.055740 20.000000
230.085910 72.000000
230.098970 14.000000
231.045010 16.000000
231.056180 17.000000
231.065200 16.000000
231.076260 16.000000
231.090970 49.000000
231.100390 22.000000
232.027440 25.000000
232.086650 14.000000
232.108540 14.000000
232.117920 14.000000
233.065310 77.000000
233.076230 51.000000
233.101640 13.000000
233.112810 55.000000
233.125930 26.000000
234.061110 18.000000
234.067110 39.000000
234.079030 64.000000
234.127610 15.000000
235.060840 16.000000
235.073810 33.000000
235.082720 49.000000
235.095810 18.000000
235.123340 19.000000
236.081250 24.000000
236.092420 49.000000
236.103700 18.000000
237.079830 13.000000
237.087250 38.000000
238.061170 21.000000
238.077290 64.000000
239.077010 30.000000
239.092680 15.000000
241.083160 20.000000
242.083720 16.000000
242.312520 16.000000
243.091030 17.000000
243.103120 64.000000
244.056430 30.000000
244.075010 63.000000
244.088380 26.000000
245.070880 614.000000
245.151180 20.000000
246.052920 15.000000
246.074510 213.000000
246.089970 49.000000
246.111470 68.000000
247.052780 16.000000
247.065870 29.000000
247.085910 627.000000
247.097960 107.000000
247.133180 16.000000
247.306990 16.000000
248.046940 15.000000
248.090420 365.000000
248.131410 16.000000
248.411130 27.000000
249.071500 48.000000
249.102340 70.000000
249.119720 15.000000
250.095600 16.000000
255.097580 35.000000
256.098240 14.000000
257.104130 14.000000
257.116390 43.000000
257.139980 19.000000
258.082950 14.000000
258.106170 16.000000
258.117340 23.000000
259.083070 20.000000
259.097290 37.000000
260.048340 15.000000
260.071440 17.000000
260.095280 37.000000
260.314940 16.000000
261.092900 14.000000
261.117400 16.000000
262.081360 33.000000
262.106110 16.000000
263.071930 80.000000
263.087680 40.000000
263.100560 17.000000
263.153780 16.000000
264.070370 14.000000
264.085240 77.000000
265.074040 39.000000
265.088750 16.000000
267.091740 19.000000
270.067570 34.000000
271.085080 35.000000
271.102940 22.000000
271.129760 14.000000
272.077640 14.000000
272.087490 14.000000
272.101440 21.000000
273.703400 14.000000
274.068510 56.000000
274.086300 16.000000
274.105870 46.000000
274.116760 52.000000
275.096440 14.000000
275.113310 19.000000
275.130370 26.000000
276.129460 40.000000
277.095550 25.000000
280.080840 14.000000
282.723630 14.000000
286.099180 16.000000
286.125610 31.000000
288.121220 22.000000
289.037960 14.000000
289.117890 21.000000
289.952510 15.000000
290.047640 16.000000
290.063720 41.000000
291.026860 15.000000
291.066890 171.000000
292.038300 17.000000
292.055180 58.000000
292.068970 14.000000
293.077090 16.000000
300.051030 19.000000
304.117280 313.000000
305.090330 27.000000
305.112760 32.000000
306.136660 16.000000
307.059230 14.000000
308.057650 31.000000
318.154940 18.000000
335.997990 14.000000
375.043760 16.000000
393.680180 16.000000
394.095790 15.000000

>ms2peaks
217.068010 5.000000
218.089550 12.000000
220.093030 5.000000
235.088650 19.000000
236.086870 5.000000
238.077410 8.000000
245.060420 5.000000
246.056590 6.000000
247.079300 8.000000
247.094070 24.000000
248.090520 26.000000
264.070980 5.000000
265.080900 21.000000
286.100040 5.000000
291.052190 12.000000
291.066410 53.000000
292.063050 10.000000
292.075040 12.000000
292.084690 15.000000
292.119750 6.000000
293.075290 64.000000
293.100860 8.000000
294.083860 5.000000
302.097020 7.000000
304.121370 189.000000
305.105770 9.000000
305.125180 25.000000
306.121190 6.000000
309.068450 5.000000
319.080170 5.000000
320.073060 6.000000
320.116180 6.000000
322.094270 6.000000
336.057890 7.000000
337.071380 13.000000
348.098270 24.000000
348.111630 20.000000
348.128630 6.000000
350.113100 124.000000
351.113400 24.000000
365.053190 15.000000
365.066070 30.000000
365.085970 10.000000
366.068020 6.000000
394.036770 5.000000
394.100890 1000.000000
394.164310 5.000000

>ms2peaks
394.048250 5.000000
394.102810 1000.000000

>ms2peaks
98.054280 6.000000
174.481770 6.000000
180.072490 7.000000
181.048200 6.000000
205.085110 7.000000
206.082550 6.000000
209.107600 6.000000
210.065410 6.000000
217.773150 6.000000
219.067600 6.000000
219.089140 11.000000
219.100330 5.000000
220.093840 6.000000
220.105820 15.000000
222.067050 6.000000
225.090100 5.000000
230.078250 9.000000
234.416520 7.000000
235.090060 47.000000
236.417590 6.000000
236.897600 6.000000
237.079970 8.000000
237.099460 5.000000
238.061580 7.000000
238.080310 33.000000
238.772310 5.000000
239.084430 7.000000
243.108540 7.000000
244.040190 7.000000
245.061840 6.000000
245.243180 6.000000
247.076840 14.000000
247.086270 57.000000
247.106310 15.000000
247.463820 6.000000
248.086960 12.000000
248.097270 28.000000
249.090190 7.000000
249.103740 14.000000
249.155730 9.000000
260.878660 5.000000
262.077120 7.000000
262.088930 12.000000
263.055360 10.000000
263.085660 28.000000
264.080840 10.000000
264.091830 9.000000
264.437990 5.000000
265.079990 20.000000
265.087400 8.000000
266.036010 5.000000
266.105190 6.000000
266.320370 5.000000
266.955020 8.000000
273.077730 6.000000
274.083070 6.000000
274.116550 12.000000
275.091370 6.000000
276.082180 15.000000
276.135410 8.000000
277.093870 8.000000
277.124270 11.000000
286.111390 9.000000
287.103390 13.000000
290.108490 7.000000
291.015080 12.000000
291.065490 363.000000
292.068020 131.000000
292.093170 30.000000
292.120090 86.000000
292.141080 17.000000
292.420200 6.000000
292.660920 6.000000
293.066590 110.000000
293.081330 290.000000
293.092590 72.000000
293.109860 5.000000
293.125030 14.000000
294.068050 32.000000
294.083860 58.000000
295.086610 16.000000
295.102970 6.000000
301.568180 6.000000
302.088350 11.000000
302.110380 5.000000
303.099700 9.000000
303.985080 8.000000
304.078670 14.000000
304.122070 1000.000000
305.101990 16.000000
305.125790 154.000000
305.146730 11.000000
305.791440 10.000000
306.125150 24.000000
306.137080 14.000000
307.078340 14.000000
308.082030 11.000000
308.354980 6.000000
310.076780 5.000000
312.603210 5.000000
313.606630 6.000000
318.086910 11.000000
319.037080 6.000000
319.064580 57.000000
319.074890 31.000000
320.035340 5.000000
320.049500 40.000000
320.068050 47.000000
320.103450 45.000000
320.120730 32.000000
321.065000 8.000000
321.105990 15.000000
321.130160 18.000000
322.081630 17.000000
322.127810 6.000000
329.401150 6.000000
330.104370 7.000000
332.120300 6.000000
334.055050 6.000000
336.044680 6.000000
336.061190 20.000000
336.114070 6.000000
337.046170 10.000000
337.063420 11.000000
337.073330 15.000000
338.069520 26.000000
338.087310 16.000000
338.803560 5.000000
348.099300 62.000000
348.111970 122.000000
349.071960 5.000000
349.093960 10.000000
349.121670 19.000000
349.131130 7.000000
350.041720 7.000000
350.077120 9.000000
350.110840 369.000000
350.901860 6.000000
351.093290 14.000000
351.118680 88.000000
352.102970 6.000000
352.132600 13.000000
352.149320 7.000000
365.061580 141.000000
365.074010 91.000000
365.098480 8.000000
366.042600 12.000000
366.075230 49.000000
366.096890 6.000000
394.054570 11.000000
394.076230 21.000000
394.101350 228.000000

>ms2peaks
78.035080 18.000000
90.511260 13.000000
92.051090 34.000000
93.071570 15.000000
117.059560 16.000000
123.042660 15.000000
128.051090 15.000000
142.067030 13.000000
146.059830 59.000000
152.058430 15.000000
153.051970 22.000000
153.061810 17.000000
154.070970 16.000000
155.060790 14.000000
156.072600 22.000000
160.877270 16.000000
163.214630 15.000000
165.049420 16.000000
166.057890 23.000000
166.068070 24.000000
167.044330 15.000000
167.061540 22.000000
167.070630 15.000000
168.063890 15.000000
169.072920 21.000000
175.030650 23.000000
175.042560 28.000000
176.049900 15.000000
177.043200 19.000000
177.060710 39.000000
178.045470 32.000000
178.060990 48.000000
178.070160 16.000000
179.035290 13.000000
179.056260 29.000000
179.073490 15.000000
180.058000 13.000000
180.066880 81.000000
180.075450 28.000000
180.767430 13.000000
181.067380 16.000000
182.095660 20.000000
183.067840 48.000000
183.081470 15.000000
190.010790 25.000000
190.042920 17.000000
190.057480 61.000000
190.067340 65.000000
190.722470 19.000000
191.057140 28.000000
191.074750 198.000000
192.064210 35.000000
192.077610 59.000000
193.065340 79.000000
193.082500 49.000000
193.103410 25.000000
195.062710 14.000000
202.040180 14.000000
202.064700 16.000000
202.071990 35.000000
203.071240 93.000000
203.927540 14.000000
204.051210 15.000000
204.065380 65.000000
204.080410 88.000000
204.095840 16.000000
205.074510 106.000000
205.082200 229.000000
206.082320 209.000000
206.093140 36.000000
207.067470 30.000000
207.087740 28.000000
207.103160 14.000000
207.491420 13.000000
208.053890 38.000000
208.084140 22.000000
208.099670 14.000000
209.087630 18.000000
209.186480 17.000000
211.090960 17.000000
214.062360 18.000000
216.025970 25.000000
216.041560 34.000000
216.051710 24.000000
216.067830 119.000000
216.078960 98.000000
217.080000 440.000000
217.091400 65.000000
218.065700 86.000000
218.083240 1000.000000
218.157940 22.000000
219.072810 63.000000
219.086400 236.000000
219.098420 309.000000
219.139920 15.000000
219.193540 14.000000
219.327510 13.000000
219.363820 15.000000
219.758290 13.000000
220.042620 14.000000
220.064350 72.000000
220.078090 22.000000
220.090530 42.000000
220.101870 55.000000
220.495700 13.000000
221.079420 19.000000
221.097310 27.000000
221.118420 14.000000
222.061970 15.000000
224.071230 18.000000
226.821230 13.000000
229.057940 21.000000
229.091750 13.000000
229.129030 27.000000
230.092070 73.000000
231.077990 37.000000
231.089490 39.000000
231.103880 17.000000
232.059570 15.000000
232.096820 16.000000
232.121490 15.000000
233.059830 30.000000
233.080950 35.000000
233.098460 13.000000
233.288830 15.000000
234.058500 14.000000
234.081630 72.000000
235.080930 213.000000
235.519670 13.000000
236.049820 16.000000
236.064120 16.000000
236.085880 129.000000
236.099170 32.000000
237.050570 16.000000
237.060040 14.000000
238.076510 13.000000
238.084370 18.000000
240.063200 16.000000
241.064910 23.000000
241.082310 13.000000
243.099140 31.000000
244.082020 14.000000
244.108250 15.000000
245.025960 16.000000
245.061040 141.000000
245.072420 349.000000
245.091720 12.000000
245.110020 15.000000
246.036730 15.000000
246.060210 46.000000
246.070300 122.000000
246.082750 125.000000
246.103150 28.000000
247.082430 484.000000
247.098480 135.000000
247.130080 22.000000
247.749740 16.000000
248.074020 53.000000
248.092510 296.000000
248.138580 16.000000
249.057680 18.000000
249.085100 31.000000
249.097930 68.000000
249.111630 23.000000
250.094330 15.000000
256.079130 18.000000
257.084110 15.000000
257.096500 45.000000
257.112370 28.000000
258.096680 30.000000
258.118990 14.000000
259.073970 15.000000
259.083770 16.000000
259.103700 15.000000
260.109990 20.000000
261.107150 48.000000
262.071690 28.000000
262.109650 17.000000
262.119540 35.000000
262.139680 18.000000
263.058070 23.000000
263.078060 139.000000
263.330350 14.000000
263.894900 15.000000
264.068020 13.000000
265.222810 16.000000
266.078670 22.000000
268.973880 25.000000
271.086670 28.000000
272.075380 17.000000
273.097600 14.000000
274.108640 63.000000
276.025910 22.000000
276.069340 29.000000
276.120060 32.000000
277.132260 15.000000
278.069700 22.000000
279.052860 45.000000
285.104280 29.000000
286.111450 19.000000
287.104000 15.000000
288.075530 15.000000
289.091950 48.000000
290.073700 53.000000
291.051940 22.000000
291.070560 132.000000
292.052120 13.000000
292.067900 54.000000
292.083860 15.000000
293.065030 22.000000
293.078430 18.000000
302.096100 14.000000
302.110500 22.000000
303.100280 13.000000
303.118040 18.000000
304.087770 17.000000
304.113680 155.000000
304.129940 55.000000
305.112760 13.000000
305.127500 69.000000
319.097960 15.000000
319.109010 15.000000

