>compound PR31284883
>parentmass 477.1024
>ionization [M+H]+
>formula C22H20O12
>rt 276.000000
>profile qtof
#smiles_iso COC1=C(C=C(C=C1)C2=CC(=O)C3=C(C=C(C=C3O2)OC4C(C(C(C(O4)C(=O)O)O)O)O)O)O
#smiles_can COC1=C(C=C(C=C1)C2=CC(=O)C3=C(C=C(C=C3O2)OC4C(C(C(C(O4)C(=O)O)O)O)O)O)O
#inchikey XCKMDTYMOHXUHG-UHFFFAOYSA-N
#pubchem_id 74977725
#mb_accession PR310952

>ms2peaks
211.913040 31.000000
230.984470 17.000000
258.042140 20.000000
286.043460 366.000000
286.053860 80.000000
287.048130 37.000000
300.113950 18.000000
301.023100 23.000000
301.069240 2954.000000
301.099120 30.000000
302.074920 637.000000
303.071620 74.000000
303.082920 76.000000
313.037990 30.000000
476.465300 20.000000
477.034790 17.000000
477.060090 18.000000
477.102660 848.000000
477.116550 389.000000

