>compound PR31807638
>parentmass 165.05462059999996
>ionization [M+H]+
>formula C9H8O3
>rt 240.459000
>profile qtof
#smiles_iso C1=CC(=CC=C1/C=C/C(=O)O)O
#smiles_can C1=CC(=CC=C1C=CC(=O)O)O
#inchikey NGSWKAQJJWESNS-ZZXKWVIFSA-N
#pubchem_id 637542
#mb_accession PR301969,PR301971,PR301974,PR301977,PR301980,PR301983,PR301986,PR301989,PR301992,PR301995,PR301998,PR302001

>ms2peaks
77.038140 8.000000
91.054310 84.000000
92.053680 16.000000
95.050500 13.000000
99.557260 10.000000
119.028060 8.000000
119.046420 172.000000
119.053340 150.000000
147.044110 1000.000000
147.361910 9.000000
148.039320 24.000000
148.049000 81.000000
152.545750 8.000000
165.054370 67.000000
165.062230 26.000000

>ms2peaks
119.047660 33.000000
146.755230 6.000000
147.043520 1000.000000
148.040180 40.000000
148.049870 62.000000
149.038350 8.000000
150.840650 5.000000
151.894120 6.000000
164.043090 14.000000
165.050050 139.000000
165.057340 86.000000

>ms2peaks
65.036380 49.000000
65.042980 68.000000
77.030020 55.000000
91.038500 82.000000
91.046680 265.000000
91.053370 1000.000000
92.058650 49.000000
101.029660 68.000000
119.047500 309.000000
147.050050 46.000000
149.739690 46.000000

>ms2peaks
91.055410 585.000000
92.062660 1000.000000

>ms2peaks
77.040160 19.000000
91.051620 69.000000
91.058560 28.000000
92.059620 15.000000
95.030550 20.000000
95.052500 10.000000
109.016670 15.000000
116.978580 8.000000
119.047230 220.000000
119.461000 12.000000
120.051680 21.000000
123.046550 12.000000
136.050980 12.000000
146.996380 14.000000
147.014850 9.000000
147.043200 1000.000000
148.046420 68.000000
148.341380 8.000000
149.048370 8.000000
165.050350 87.000000
165.062380 8.000000

>ms2peaks
119.044010 8.000000
119.049610 27.000000
120.043990 10.000000
124.066840 5.000000
147.013140 16.000000
147.024890 8.000000
147.043560 1000.000000
148.014710 6.000000
148.035100 16.000000
148.045880 117.000000
149.047210 8.000000
149.643310 7.000000
165.052460 114.000000
165.060870 47.000000

>ms2peaks
64.957000 59.000000
65.042800 112.000000
91.053820 1000.000000
92.058930 56.000000
92.532780 44.000000
104.062050 71.000000
118.039600 66.000000
119.037720 41.000000
119.046690 90.000000
120.053280 49.000000

>ms2peaks
91.063220 1000.000000

>ms2peaks
65.038730 14.000000
91.026570 8.000000
91.054350 66.000000
92.051820 9.000000
119.035030 8.000000
119.047020 155.000000
119.054660 41.000000
120.052220 11.000000
120.333240 7.000000
146.939240 7.000000
146.984710 8.000000
147.021330 9.000000
147.043150 1000.000000
148.035710 11.000000
148.046110 132.000000
148.557190 7.000000
148.813600 7.000000
149.044710 20.000000
149.059190 23.000000
165.054550 86.000000
165.083650 8.000000
165.192000 9.000000

>ms2peaks
95.028560 5.000000
119.043800 9.000000
119.048960 24.000000
135.943420 6.000000
147.011260 13.000000
147.016680 6.000000
147.043260 1000.000000
148.039440 20.000000
148.048430 81.000000
149.053040 13.000000
164.047320 11.000000
165.054120 141.000000

>ms2peaks
65.039380 264.000000
91.053970 1000.000000
91.205310 53.000000
93.029590 80.000000
118.043820 148.000000
119.041000 80.000000
119.049170 415.000000
147.042190 92.000000

>ms2peaks
119.047640 1000.000000

