>compound PR31322887
>parentmass 499.1266
>ionization [M+H]+
>formula C25H22O11
>rt 272.400000
>profile qtof
#smiles_iso C1C2C(C(CC1(C(=O)O2)O)OC(=O)C=CC3=CC(=C(C=C3)O)O)OC(=O)C=CC4=CC(=C(C=C4)O)O
#smiles_can C1C2C(C(CC1(C(=O)O2)O)OC(=O)C=CC3=CC(=C(C=C3)O)O)OC(=O)C=CC4=CC(=C(C=C4)O)O
#inchikey ZLYIWYCHNAZAQI-UHFFFAOYSA-N
#pubchem_id 74332158
#mb_accession PR311115

>ms2peaks
85.025600 22.000000
163.035550 184.000000
164.043490 21.000000
164.049700 18.000000
171.031040 21.000000
175.155520 18.000000
178.050840 32.000000
178.134310 26.000000
308.179870 19.000000
311.085600 25.000000
319.087430 20.000000
448.841000 24.000000
497.770420 24.000000
499.119960 17.000000

