>compound PR31772353
>parentmass 304.14443859999994
>ionization [M+H]+
>formula C19H17N3O
>rt 466.267980
>profile qtof
#smiles_iso CN1[C@@H]2C3=C(CCN2C(=O)C4=CC=CC=C41)C5=CC=CC=C5N3
#smiles_can CN1C2C3=C(CCN2C(=O)C4=CC=CC=C41)C5=CC=CC=C5N3
#inchikey TXDUTHBFYKGSAH-SFHVURJKSA-N
#pubchem_id 442088
#mb_accession PR300604,PR300609,PR300614,PR300619,PR300624,PR300628,PR300633,PR300638,PR300643,PR300648,PR300653

>ms2
77.039970 14.000000
91.053880 24.000000
92.057350 5.000000
105.030850 7.000000
106.066020 63.000000
116.042500 11.000000
116.050540 69.000000
118.064070 27.000000
118.070300 12.000000
120.047350 8.000000
120.080830 11.000000
130.062360 6.000000
134.024510 7.000000
134.037200 11.000000
134.060560 1000.000000
135.063170 95.000000
136.062730 6.000000
143.075610 14.000000
144.081190 211.000000
145.084230 21.000000
154.060650 7.000000
154.069240 13.000000
156.067230 8.000000
161.070720 143.000000
162.074040 18.000000
171.091810 446.000000
172.094770 60.000000
217.088840 5.000000
233.106550 6.000000
286.099270 17.000000
287.102510 11.000000
287.124690 5.000000
302.130740 31.000000
303.133730 37.000000
303.146550 13.000000
304.075230 7.000000
304.145540 792.000000
304.193940 14.000000

>ms2
118.066000 6.000000
134.060010 186.000000
135.063830 16.000000
144.080660 52.000000
161.065090 10.000000
161.071590 21.000000
171.092190 96.000000
172.089510 8.000000
172.097750 11.000000
302.126770 15.000000
303.134030 26.000000
304.145390 1000.000000
304.194550 21.000000

>ms2
77.040550 15.000000
79.056020 30.000000
91.054410 87.000000
92.055550 14.000000
105.057790 5.000000
106.065610 210.000000
107.046420 5.000000
107.052090 6.000000
107.072750 8.000000
115.055550 5.000000
116.048780 197.000000
117.051330 18.000000
117.059270 5.000000
117.069480 15.000000
118.063880 19.000000
118.070320 13.000000
120.083760 13.000000
128.051350 10.000000
131.071750 9.000000
132.044390 31.000000
134.031480 9.000000
134.060390 1000.000000
135.063400 112.000000
136.068160 8.000000
143.070820 11.000000
144.080900 289.000000
145.084090 16.000000
145.091280 5.000000
154.063630 43.000000
155.069840 12.000000
156.068390 5.000000
161.071370 191.000000
162.072460 13.000000
162.081800 12.000000
169.076780 22.000000
171.070190 7.000000
171.092060 461.000000
172.094350 68.000000
218.098600 5.000000
232.095490 6.000000
243.093810 6.000000
262.112730 5.000000
274.129060 5.000000
286.085940 11.000000
286.101990 19.000000
287.071620 7.000000
287.093600 22.000000
287.110410 15.000000
287.121640 5.000000
288.119020 14.000000
302.122740 16.000000
304.141330 20.000000

>ms2
52.028300 12.000000
65.044750 19.000000
74.816950 12.000000
77.039700 553.000000
77.259060 14.000000
78.038430 32.000000
78.045370 98.000000
78.051370 27.000000
78.080640 14.000000
78.714080 12.000000
79.036360 12.000000
79.056020 334.000000
80.005310 14.000000
80.052010 51.000000
80.058700 19.000000
89.038300 78.000000
89.456820 14.000000
90.032620 19.000000
91.043850 132.000000
91.054270 637.000000
91.070400 12.000000
92.053160 14.000000
92.066980 13.000000
95.780370 17.000000
97.855220 25.000000
102.044170 13.000000
103.058970 32.000000
104.046870 75.000000
104.059170 12.000000
105.030170 18.000000
105.038790 49.000000
106.034720 35.000000
106.054350 12.000000
106.065810 464.000000
107.065280 12.000000
107.073070 24.000000
115.044140 23.000000
115.052870 132.000000
115.058000 87.000000
116.051610 1000.000000
117.046420 31.000000
117.054240 32.000000
117.062000 78.000000
117.073070 63.000000
118.061860 67.000000
118.066280 126.000000
119.029860 14.000000
119.067260 15.000000
120.042700 12.000000
120.077570 14.000000
120.139180 12.000000
121.049360 12.000000
122.048770 23.000000
126.046470 14.000000
127.052270 98.000000
127.059630 67.000000
128.054950 107.000000
128.061740 49.000000
129.053180 59.000000
130.059070 54.000000
130.065490 44.000000
130.072720 14.000000
132.042400 52.000000
132.047970 108.000000
133.052490 17.000000
133.483230 14.000000
134.049120 75.000000
134.059980 326.000000
134.850620 12.000000
140.048160 28.000000
141.058360 20.000000
143.073200 195.000000
144.077090 203.000000
144.086000 105.000000
144.093510 43.000000
146.057130 32.000000
148.907380 13.000000
152.049240 16.000000
153.045900 36.000000
154.050280 44.000000
154.068150 184.000000
155.057300 13.000000
156.042400 16.000000
156.070690 107.000000
160.267530 14.000000
160.999660 12.000000
161.068890 62.000000
161.076130 78.000000
161.165280 12.000000
161.316740 12.000000
162.067920 15.000000
162.074710 23.000000
165.064290 14.000000
168.062120 15.000000
169.076170 62.000000
171.080490 13.000000
171.095730 273.000000
172.094890 60.000000
180.073730 16.000000
203.074080 12.000000
205.092910 15.000000
215.101300 12.000000
216.086500 17.000000
217.065930 21.000000
217.078290 19.000000
217.099030 21.000000
218.091800 14.000000
229.080440 12.000000
231.094890 19.000000
232.101640 28.000000
233.115660 17.000000
242.088670 15.000000
243.092650 17.000000
245.090810 14.000000
245.106720 12.000000
246.075710 19.000000
255.102340 14.000000
257.094880 15.000000
258.104310 41.000000
260.094180 14.000000
261.084990 23.000000
270.087430 21.000000
270.112490 21.000000
271.086090 12.000000
285.091800 12.000000
287.092990 75.000000
287.108000 49.000000
292.221530 14.000000

>ms2
79.051400 5.000000
79.056210 5.000000
91.047690 8.000000
91.055850 36.000000
92.059040 12.000000
106.065030 80.000000
107.068470 12.000000
116.049720 83.000000
117.051800 13.000000
117.065720 6.000000
118.064490 39.000000
118.070210 15.000000
120.080800 13.000000
134.060610 1000.000000
135.063830 99.000000
143.066790 7.000000
144.081210 211.000000
145.082230 8.000000
145.087940 25.000000
154.064420 24.000000
161.054980 5.000000
161.071400 181.000000
162.063950 6.000000
162.074520 11.000000
169.081540 6.000000
171.092100 383.000000
172.095920 73.000000
187.085540 8.000000
233.109480 6.000000
261.134950 6.000000
274.129390 10.000000
276.149630 5.000000
286.100680 13.000000
287.107030 26.000000
288.110140 16.000000
302.130490 29.000000
303.129030 34.000000
304.145320 859.000000
304.188450 5.000000
304.196320 12.000000

>ms2
118.066380 8.000000
134.060330 168.000000
135.063480 24.000000
144.081220 40.000000
145.084850 5.000000
161.072240 22.000000
171.091580 67.000000
172.093870 13.000000
302.128940 24.000000
303.128970 9.000000
303.139160 12.000000
304.144780 1000.000000
304.195860 25.000000

>ms2
79.055340 26.000000
91.052510 40.000000
91.059300 31.000000
92.051040 11.000000
92.062980 6.000000
105.033710 8.000000
106.065530 157.000000
107.069500 11.000000
116.050660 187.000000
117.053840 12.000000
117.067160 6.000000
117.074030 8.000000
118.059220 8.000000
118.068730 38.000000
120.078560 7.000000
127.056330 7.000000
129.067900 5.000000
130.070880 7.000000
132.041890 13.000000
132.048840 12.000000
134.036850 10.000000
134.060530 1000.000000
135.062160 85.000000
135.070110 32.000000
136.062740 6.000000
143.073560 9.000000
144.081360 229.000000
145.084930 29.000000
145.095840 6.000000
146.060710 6.000000
154.068920 35.000000
161.071170 171.000000
162.073620 16.000000
169.079350 5.000000
171.091740 415.000000
172.083830 6.000000
172.096630 69.000000
217.084150 11.000000
274.133820 7.000000
286.083890 14.000000
286.104190 18.000000
287.091280 25.000000
287.113920 22.000000
303.125850 5.000000
304.148250 7.000000

>ms2
65.037490 24.000000
65.043570 23.000000
67.042830 22.000000
76.638760 10.000000
77.009090 18.000000
77.040720 588.000000
78.044930 191.000000
79.054760 361.000000
79.584510 10.000000
80.057750 36.000000
81.318830 10.000000
89.039150 160.000000
91.029560 13.000000
91.043860 53.000000
91.054710 517.000000
92.020400 17.000000
92.037120 22.000000
92.051550 98.000000
92.062380 21.000000
101.023670 13.000000
102.030410 12.000000
103.055190 12.000000
104.049450 52.000000
105.033470 118.000000
105.058840 26.000000
106.064710 578.000000
106.480440 20.000000
107.053420 20.000000
107.067020 17.000000
107.073320 12.000000
115.048710 61.000000
115.054680 20.000000
116.050870 1000.000000
117.050440 194.000000
117.071290 72.000000
118.054660 50.000000
118.068270 160.000000
119.061810 17.000000
120.024780 16.000000
120.042470 56.000000
120.072330 24.000000
121.051120 12.000000
126.245450 12.000000
127.050450 32.000000
127.058280 25.000000
127.582480 13.000000
127.732600 18.000000
128.035480 22.000000
128.050860 101.000000
128.657090 12.000000
129.040390 17.000000
129.051910 12.000000
129.070560 20.000000
131.059330 17.000000
131.073620 36.000000
132.045070 39.000000
134.060730 354.000000
135.067400 33.000000
141.052280 17.000000
143.073150 154.000000
144.061480 23.000000
144.080700 269.000000
144.094820 29.000000
145.065170 15.000000
145.078920 18.000000
147.070540 15.000000
147.890400 11.000000
152.049220 15.000000
154.050230 17.000000
154.064300 187.000000
155.064930 52.000000
156.049670 21.000000
156.066960 54.000000
156.076950 11.000000
157.076000 17.000000
161.061280 29.000000
161.070190 88.000000
167.063750 32.000000
167.080840 20.000000
168.060750 21.000000
170.085050 15.000000
171.091140 65.000000
172.098450 59.000000
179.067200 13.000000
188.070430 13.000000
201.904430 11.000000
202.060710 15.000000
202.071960 12.000000
204.081560 29.000000
207.093750 11.000000
214.076930 12.000000
216.083110 14.000000
217.092350 26.000000
218.051670 10.000000
218.083020 25.000000
219.081540 12.000000
231.091750 20.000000
231.101030 17.000000
232.081910 15.000000
232.101940 78.000000
233.114470 14.000000
243.100630 11.000000
245.078030 17.000000
246.103300 15.000000
255.085220 17.000000
256.085820 37.000000
257.098300 11.000000
257.117980 11.000000
258.097870 31.000000
259.055240 22.000000
264.528590 11.000000
271.080840 20.000000
271.107240 31.000000
272.122010 11.000000
275.111360 29.000000
285.090730 16.000000
285.136410 11.000000
286.107540 15.000000
287.103880 69.000000
289.570860 29.000000

>ms2
79.054590 10.000000
91.054660 42.000000
106.065660 72.000000
116.040290 5.000000
116.049340 65.000000
117.044900 6.000000
118.065740 45.000000
120.075080 14.000000
121.084250 6.000000
132.044740 11.000000
134.060120 1000.000000
135.063350 115.000000
144.079680 216.000000
145.080310 13.000000
145.087740 15.000000
146.060000 8.000000
154.064590 19.000000
161.071370 180.000000
162.074680 9.000000
171.092100 383.000000
172.095670 56.000000
286.095460 7.000000
286.108730 5.000000
287.101470 10.000000
302.130860 28.000000
303.135930 30.000000
304.145320 838.000000
304.196170 18.000000

>ms2
118.065430 11.000000
134.060090 187.000000
135.063540 22.000000
144.080570 48.000000
145.085390 6.000000
161.069730 24.000000
171.092070 85.000000
172.095700 14.000000
302.128390 25.000000
303.133180 23.000000
304.106080 9.000000
304.143550 1000.000000
304.193330 22.000000

>ms2
65.039170 14.000000
77.039190 369.000000
77.067400 19.000000
78.029130 12.000000
78.045470 18.000000
79.055710 218.000000
79.161480 12.000000
80.055600 12.000000
81.438870 14.000000
89.039180 121.000000
90.041600 16.000000
90.539750 14.000000
91.011410 20.000000
91.040170 18.000000
91.044030 44.000000
91.054280 370.000000
91.813280 14.000000
92.050580 69.000000
92.060750 57.000000
93.054290 16.000000
101.041180 12.000000
102.048070 20.000000
103.031300 19.000000
103.050320 18.000000
103.057000 61.000000
103.123540 12.000000
104.049580 36.000000
105.039890 20.000000
105.048340 22.000000
105.054890 35.000000
106.046890 25.000000
106.061420 168.000000
106.067350 292.000000
107.068600 49.000000
107.073180 18.000000
115.041000 22.000000
115.053650 210.000000
115.301330 16.000000
116.049570 1000.000000
116.967640 12.000000
116.984940 16.000000
117.052930 121.000000
117.070160 12.000000
117.076740 46.000000
117.244160 16.000000
118.060810 56.000000
118.068840 54.000000
118.941540 14.000000
120.039470 35.000000
120.046630 14.000000
120.073820 24.000000
127.056240 95.000000
128.040710 27.000000
128.049990 87.000000
128.060040 33.000000
128.582690 12.000000
129.053130 25.000000
129.064010 42.000000
129.072970 18.000000
130.048840 14.000000
130.065950 50.000000
131.061110 20.000000
131.074980 18.000000
132.037190 17.000000
132.046520 144.000000
133.049240 14.000000
134.061220 407.000000
135.054600 12.000000
135.064130 12.000000
135.828720 14.000000
141.053920 40.000000
142.060750 26.000000
142.072110 21.000000
142.812820 13.000000
143.063020 49.000000
143.073470 112.000000
144.048050 15.000000
144.057890 13.000000
144.065260 16.000000
144.082580 640.000000
144.558170 15.000000
145.033230 14.000000
145.052440 12.000000
145.077650 16.000000
145.083920 40.000000
153.042790 17.000000
154.065050 286.000000
155.060520 79.000000
155.072070 12.000000
156.068970 48.000000
157.071470 33.000000
157.093660 21.000000
161.059450 34.000000
161.071550 145.000000
162.072540 22.000000
167.057830 29.000000
169.073060 40.000000
170.076830 24.000000
171.090480 138.000000
174.079470 19.000000
184.068010 13.000000
197.071240 12.000000
205.083790 30.000000
215.073200 14.000000
215.085860 37.000000
217.076660 12.000000
217.087420 37.000000
218.078600 26.000000
218.090880 16.000000
228.078170 12.000000
230.081070 16.000000
232.107380 51.000000
241.090120 12.000000
243.090730 76.000000
246.085820 16.000000
246.106600 20.000000
256.100950 14.000000
258.056610 18.000000
258.098630 97.000000
259.086300 14.000000
259.111150 90.000000
260.081420 20.000000
260.094060 32.000000
270.101440 35.000000
271.083890 14.000000
272.076480 23.000000
285.099300 18.000000
286.065730 23.000000
286.089840 12.000000
286.105560 45.000000
286.547670 12.000000
287.083800 12.000000
287.099610 22.000000
287.108490 15.000000
287.378690 12.000000
288.107790 42.000000
289.125000 18.000000
303.185180 20.000000
304.129760 47.000000
304.148250 80.000000

