>compound PR31295936
>parentmass 230.08116972307687
>ionization [M+H]+
>formula C13H11NO3
>rt 335.367711
>profile qtof
#smiles_iso CN1C2=C(C=CC=C2OC)C(=O)C3=C1OC=C3
#smiles_can CN1C2=C(C=CC=C2OC)C(=O)C3=C1OC=C3
#inchikey VNBUMBNLPGLBML-UHFFFAOYSA-N
#pubchem_id 927945
#mb_accession PR300717,PR300721,PR300726,PR300731,PR300735,PR300740,PR300745,PR300750,PR300755,PR300759,PR300763,PR300767,PR310428

>ms2peaks
128.049580 11.000000
130.061890 11.000000
130.069350 10.000000
131.047810 9.000000
131.071580 9.000000
158.060380 33.000000
159.043060 8.000000
159.066070 20.000000
170.055620 8.000000
170.064640 6.000000
172.040180 34.000000
185.045090 14.000000
185.054200 5.000000
186.054580 83.000000
187.062040 87.000000
188.068180 13.000000
198.058300 12.000000
212.037060 9.000000
214.049760 61.000000
215.058210 414.000000
215.100300 12.000000
216.060550 55.000000
217.062480 5.000000
230.082430 1000.000000
230.125320 39.000000
230.164580 6.000000
230.260860 18.000000

>ms2peaks
215.058360 36.000000
230.082610 1000.000000
230.125310 42.000000
230.164930 10.000000
230.260880 21.000000

>ms2peaks
103.053130 8.000000
104.052280 5.000000
107.049650 7.000000
114.049710 6.000000
115.052800 16.000000
116.044760 8.000000
116.052510 17.000000
116.062100 8.000000
117.061340 7.000000
118.042630 14.000000
120.047230 13.000000
128.050060 58.000000
129.054200 16.000000
129.065540 7.000000
130.065350 114.000000
131.049880 70.000000
131.061550 14.000000
131.073270 60.000000
132.055130 19.000000
132.064470 5.000000
132.075640 6.000000
133.055400 17.000000
135.044750 7.000000
140.050220 18.000000
141.055860 11.000000
142.039520 11.000000
142.048520 6.000000
142.066850 7.000000
143.073840 8.000000
144.040160 5.000000
144.050140 12.000000
144.059560 7.000000
146.020080 13.000000
148.084170 5.000000
156.043820 9.000000
157.053250 9.000000
158.060170 200.000000
159.043790 59.000000
159.054000 32.000000
159.067840 115.000000
160.048450 14.000000
160.059540 9.000000
160.072040 11.000000
168.038160 6.000000
168.047710 24.000000
169.052870 15.000000
170.031400 11.000000
170.040100 22.000000
170.060090 104.000000
171.040680 12.000000
171.056110 12.000000
171.064940 11.000000
172.039020 185.000000
173.037890 10.000000
173.046860 13.000000
184.041470 8.000000
185.048130 148.000000
186.054950 749.000000
186.073620 6.000000
187.034150 6.000000
187.062480 713.000000
188.064870 73.000000
188.071610 34.000000
189.070400 6.000000
198.052080 36.000000
198.062580 22.000000
200.034760 18.000000
202.089110 8.000000
212.024170 11.000000
212.036530 58.000000
213.038360 13.000000
214.050840 492.000000
215.023030 13.000000
215.058180 1000.000000
216.061260 160.000000
217.064590 16.000000
217.073230 5.000000
230.081760 82.000000

>ms2peaks
53.047280 11.000000
63.020350 42.000000
63.024460 42.000000
65.044060 18.000000
77.035930 124.000000
77.041240 107.000000
78.032290 13.000000
78.040890 50.000000
79.058200 14.000000
80.056000 14.000000
81.020140 20.000000
87.021130 16.000000
88.585560 18.000000
89.025220 11.000000
89.039220 552.000000
90.006840 18.000000
90.031820 41.000000
90.047560 27.000000
91.020440 18.000000
91.063150 18.000000
92.022040 29.000000
92.031120 18.000000
93.036700 36.000000
93.208740 11.000000
95.017870 44.000000
101.036670 124.000000
101.041570 131.000000
102.030290 16.000000
102.046810 225.000000
102.617000 11.000000
103.003040 16.000000
103.036280 14.000000
103.045920 80.000000
103.055210 404.000000
104.045390 57.000000
104.049980 69.000000
104.055850 88.000000
104.064030 42.000000
104.069150 31.000000
105.035200 70.000000
105.059830 18.000000
106.024510 31.000000
106.031650 29.000000
106.042440 11.000000
107.029340 18.000000
107.037690 37.000000
107.051770 90.000000
107.838360 17.000000
110.025550 25.000000
113.040880 137.000000
114.031210 23.000000
114.048640 116.000000
115.033380 12.000000
115.055630 237.000000
116.031980 13.000000
116.051060 620.000000
116.064060 64.000000
117.035170 29.000000
117.056250 178.000000
117.280420 11.000000
118.029460 35.000000
118.044460 32.000000
118.061480 42.000000
119.031770 42.000000
119.048650 20.000000
120.010130 12.000000
120.035670 17.000000
120.047520 102.000000
120.214860 28.000000
121.028910 18.000000
121.047900 16.000000
125.716880 15.000000
126.047350 13.000000
128.050860 766.000000
129.035160 25.000000
129.047180 29.000000
129.056550 178.000000
129.069810 12.000000
130.029790 102.000000
130.040590 25.000000
130.065580 969.000000
130.607800 16.000000
130.999070 27.000000
131.016240 13.000000
131.037400 25.000000
131.049510 520.000000
131.073880 306.000000
131.628570 12.000000
131.986760 16.000000
132.021390 26.000000
132.038510 27.000000
132.049530 144.000000
132.058870 59.000000
133.051900 71.000000
133.059780 11.000000
134.057590 16.000000
134.069370 12.000000
135.037520 36.000000
135.341080 26.000000
139.040800 20.000000
140.050780 355.000000
141.052630 90.000000
141.060900 80.000000
142.060680 24.000000
142.066620 93.000000
143.048280 81.000000
143.503970 12.000000
143.536990 12.000000
144.020870 11.000000
144.047200 169.000000
145.029890 14.000000
146.024260 115.000000
146.045620 18.000000
146.052150 68.000000
146.097700 12.000000
147.027300 17.000000
148.038650 36.000000
155.941790 17.000000
156.044220 341.000000
157.047500 40.000000
157.057330 99.000000
157.864290 12.000000
158.044070 17.000000
158.059980 575.000000
158.100300 41.000000
159.047820 149.000000
159.063580 67.000000
159.070250 143.000000
160.034930 20.000000
160.046590 17.000000
160.076030 12.000000
161.086490 11.000000
168.045150 244.000000
169.039090 18.000000
169.049150 18.000000
169.057510 19.000000
170.061070 59.000000
171.074810 25.000000
172.039610 1000.000000
173.046910 104.000000
174.009640 18.000000
174.051730 22.000000
174.058180 16.000000
184.040390 22.000000
184.051480 71.000000
185.043580 29.000000
185.054530 31.000000
186.045940 179.000000
186.058120 393.000000
186.253560 22.000000
187.032290 27.000000
187.052520 65.000000
187.063660 374.000000
189.076290 24.000000
196.050890 42.000000
198.053410 21.000000
210.049410 11.000000
212.008350 17.000000
212.026990 164.000000
212.044010 63.000000
212.053150 15.000000
214.051470 303.000000
215.057170 33.000000

>ms2peaks
116.049940 6.000000
128.048900 9.000000
130.066120 23.000000
131.049850 7.000000
131.071550 10.000000
156.046140 6.000000
158.059880 27.000000
159.042370 8.000000
159.067200 16.000000
168.039050 5.000000
170.060030 15.000000
172.039960 28.000000
185.049580 17.000000
186.056030 106.000000
187.062790 96.000000
188.062850 9.000000
198.057190 7.000000
212.033660 6.000000
214.051740 82.000000
215.057420 428.000000
215.099320 13.000000
216.061900 55.000000
217.063980 7.000000
230.081380 1000.000000
230.124480 38.000000
230.164080 7.000000
230.259670 16.000000

>ms2peaks
215.058460 36.000000
216.061810 5.000000
230.082180 1000.000000
230.125020 42.000000
230.164610 10.000000
230.260410 21.000000

>ms2peaks
90.043810 5.000000
102.048530 7.000000
103.056020 10.000000
104.060470 11.000000
107.049070 12.000000
115.054920 10.000000
116.051050 14.000000
116.060800 9.000000
118.039650 7.000000
118.045840 6.000000
120.043240 16.000000
128.050490 38.000000
129.050130 8.000000
129.057500 10.000000
130.066120 122.000000
131.049880 72.000000
131.072630 66.000000
132.056590 21.000000
133.052030 29.000000
135.041890 8.000000
140.051410 11.000000
141.055690 9.000000
141.062730 6.000000
142.040240 17.000000
142.068280 6.000000
143.045520 7.000000
143.053310 9.000000
143.071440 6.000000
144.044800 17.000000
144.058900 6.000000
145.053330 6.000000
146.026630 6.000000
148.077300 10.000000
156.045030 17.000000
157.057830 5.000000
158.060790 203.000000
159.044140 59.000000
159.068480 155.000000
160.040680 10.000000
160.048650 19.000000
160.058670 12.000000
160.073150 8.000000
161.049130 9.000000
168.039380 7.000000
168.045380 16.000000
169.051440 16.000000
170.028320 8.000000
170.036760 26.000000
170.060640 89.000000
171.043520 13.000000
171.067080 6.000000
172.039750 188.000000
173.043610 15.000000
185.047970 156.000000
186.055730 679.000000
187.062970 636.000000
188.044200 8.000000
188.066620 102.000000
189.063890 5.000000
197.047440 12.000000
198.057400 64.000000
199.058000 9.000000
200.034820 21.000000
212.035020 78.000000
213.038020 11.000000
214.050890 501.000000
215.022290 10.000000
215.057980 1000.000000
215.098340 5.000000
216.061690 123.000000
217.064560 20.000000
230.082820 75.000000

>ms2peaks
53.039770 13.000000
63.022060 12.000000
65.038970 20.000000
66.142680 10.000000
74.016620 14.000000
77.035670 63.000000
77.041050 43.000000
78.034420 19.000000
78.051510 30.000000
79.038600 12.000000
79.052850 50.000000
80.445130 11.000000
80.687480 16.000000
84.725740 12.000000
87.172030 16.000000
88.031830 12.000000
89.038510 340.000000
89.048320 17.000000
90.028150 12.000000
90.045330 32.000000
90.057700 19.000000
91.046360 25.000000
91.057880 12.000000
92.029140 24.000000
92.046970 20.000000
93.034440 52.000000
93.066600 22.000000
95.010980 18.000000
96.013110 12.000000
101.036960 28.000000
101.042270 60.000000
102.035050 21.000000
102.046230 267.000000
103.039590 32.000000
103.053480 510.000000
103.810210 17.000000
104.047140 36.000000
104.052570 58.000000
104.059870 19.000000
105.033510 19.000000
105.057110 57.000000
105.706980 12.000000
106.024690 32.000000
106.031820 20.000000
107.034970 10.000000
107.052710 22.000000
110.942840 17.000000
113.038400 95.000000
114.030050 12.000000
114.047070 51.000000
115.055740 188.000000
116.017300 14.000000
116.049670 431.000000
116.058080 42.000000
116.287520 12.000000
117.032300 28.000000
117.039830 59.000000
117.052990 119.000000
118.023990 12.000000
118.041820 30.000000
119.035920 32.000000
119.044560 22.000000
120.044080 54.000000
120.055950 23.000000
121.046950 16.000000
125.744460 14.000000
126.045270 20.000000
127.048420 19.000000
128.029040 16.000000
128.049440 451.000000
128.058070 89.000000
128.072590 15.000000
129.050190 114.000000
129.060380 91.000000
129.067090 25.000000
129.080260 11.000000
130.032140 40.000000
130.045230 15.000000
130.064560 1000.000000
131.030350 35.000000
131.050600 466.000000
131.062680 85.000000
131.071300 368.000000
131.452850 14.000000
132.048900 54.000000
132.056110 66.000000
132.067840 12.000000
132.077070 18.000000
132.088260 12.000000
133.053730 81.000000
133.520050 10.000000
135.040450 13.000000
136.050230 20.000000
137.915800 14.000000
140.028850 33.000000
140.040440 32.000000
140.051450 167.000000
140.060560 15.000000
141.052490 35.000000
141.058790 36.000000
142.041520 87.000000
142.064580 73.000000
143.558880 12.000000
144.038670 46.000000
144.046830 90.000000
144.160870 10.000000
144.456280 11.000000
145.030530 29.000000
146.023960 19.000000
146.033810 20.000000
146.098160 10.000000
156.028590 22.000000
156.040050 115.000000
156.048600 130.000000
157.045520 68.000000
157.053500 40.000000
158.030110 29.000000
158.036360 25.000000
158.047960 53.000000
158.059020 379.000000
159.027690 13.000000
159.041840 61.000000
159.054060 24.000000
159.066330 88.000000
159.073170 116.000000
160.043180 11.000000
160.075270 12.000000
161.049560 15.000000
164.971360 20.000000
168.028230 26.000000
168.039080 76.000000
168.047490 172.000000
169.046970 14.000000
169.904040 10.000000
170.029280 20.000000
170.045200 15.000000
170.053300 53.000000
170.065810 58.000000
170.073500 15.000000
171.046130 26.000000
171.063610 10.000000
171.581180 12.000000
171.993350 13.000000
172.018170 9.000000
172.038310 814.000000
172.050770 69.000000
172.081940 13.000000
173.013570 14.000000
173.037920 37.000000
173.047300 87.000000
175.042390 15.000000
175.231510 10.000000
180.712720 15.000000
184.018690 28.000000
184.039840 49.000000
184.058560 13.000000
185.040760 28.000000
185.050900 11.000000
186.055070 547.000000
186.063510 126.000000
187.038440 13.000000
187.061900 286.000000
187.073090 78.000000
188.038570 20.000000
188.062420 12.000000
197.051910 23.000000
198.054120 69.000000
199.041120 13.000000
200.022610 12.000000
212.035420 232.000000
212.043760 60.000000
212.099880 23.000000
213.031070 11.000000
213.051710 25.000000
214.052430 180.000000
214.716800 12.000000
215.046050 14.000000
230.081790 355.000000

>ms2peaks
128.050980 8.000000
130.066330 20.000000
131.051530 14.000000
131.073580 9.000000
158.060350 33.000000
159.042910 7.000000
159.065140 16.000000
170.065520 9.000000
172.040210 34.000000
185.046920 20.000000
186.055210 90.000000
187.062990 91.000000
188.060870 6.000000
198.048110 6.000000
212.035740 10.000000
214.050740 69.000000
215.058070 400.000000
215.099690 11.000000
216.061100 51.000000
217.065080 7.000000
230.082230 1000.000000
230.125050 39.000000
230.165530 7.000000
230.260990 17.000000

>ms2peaks
215.058550 32.000000
230.082460 1000.000000
230.125030 41.000000
230.164950 10.000000
230.260480 22.000000

>ms2peaks
103.054590 14.000000
107.048880 20.000000
114.047740 9.000000
115.057790 7.000000
116.046250 6.000000
116.057740 10.000000
118.041910 17.000000
120.045440 14.000000
128.050310 58.000000
129.055950 13.000000
130.066020 121.000000
131.049870 58.000000
131.071780 61.000000
132.049510 11.000000
132.056790 14.000000
132.077330 7.000000
133.053120 27.000000
135.046940 11.000000
140.047760 10.000000
141.056470 15.000000
142.041670 9.000000
142.070080 6.000000
143.054020 6.000000
143.071520 10.000000
144.042770 17.000000
144.056780 10.000000
145.050750 13.000000
146.028880 9.000000
148.075150 6.000000
156.045700 21.000000
157.049940 11.000000
158.060410 195.000000
159.027310 6.000000
159.044280 71.000000
159.066590 155.000000
160.049000 20.000000
160.067930 14.000000
161.046100 12.000000
168.045580 34.000000
169.052730 11.000000
170.034650 19.000000
170.045010 15.000000
170.059310 82.000000
171.043440 9.000000
171.061860 13.000000
172.040890 169.000000
173.043500 19.000000
184.037430 8.000000
185.047470 127.000000
186.027340 10.000000
186.055100 654.000000
187.062160 655.000000
188.065520 79.000000
189.069890 11.000000
197.047000 12.000000
198.055850 48.000000
199.062120 9.000000
200.036300 14.000000
212.035110 79.000000
214.050830 517.000000
215.009050 7.000000
215.057820 1000.000000
215.100850 8.000000
216.060420 126.000000
217.067180 12.000000
230.081070 66.000000

>ms2peaks
55.022060 10.000000
77.038270 174.000000
77.043460 98.000000
78.044980 23.000000
79.054500 15.000000
80.030850 13.000000
82.411210 8.000000
85.224300 10.000000
87.684910 8.000000
88.003230 8.000000
89.037290 309.000000
89.041730 107.000000
90.025470 10.000000
90.041340 39.000000
90.046370 69.000000
91.017840 18.000000
91.023140 11.000000
91.044670 10.000000
91.053260 14.000000
91.060260 12.000000
93.036900 30.000000
95.013310 8.000000
96.017250 11.000000
101.039830 30.000000
102.040270 64.000000
102.048770 93.000000
102.826790 9.000000
103.051220 88.000000
103.056300 210.000000
103.406620 12.000000
103.604350 10.000000
104.048660 52.000000
104.053950 140.000000
105.026280 9.000000
105.032880 21.000000
105.057630 12.000000
106.025930 10.000000
106.061820 13.000000
106.822850 12.000000
107.044220 61.000000
107.054830 62.000000
109.013190 12.000000
110.746390 11.000000
113.010350 10.000000
113.033840 15.000000
113.042530 25.000000
114.024010 14.000000
114.031350 29.000000
114.044300 43.000000
114.050110 14.000000
115.055180 86.000000
115.061740 37.000000
115.543870 9.000000
116.010540 16.000000
116.020980 8.000000
116.047280 188.000000
116.054580 184.000000
117.034220 35.000000
117.051250 22.000000
117.057430 54.000000
117.063660 14.000000
117.422160 11.000000
118.010960 8.000000
118.024750 9.000000
118.041530 34.000000
118.066350 12.000000
119.028500 15.000000
119.290460 14.000000
120.022250 8.000000
120.046160 157.000000
121.019490 9.000000
127.048550 13.000000
127.769610 15.000000
128.031190 11.000000
128.050200 454.000000
128.798780 8.000000
129.030960 11.000000
129.050640 62.000000
129.057650 47.000000
130.013960 12.000000
130.025380 8.000000
130.032260 12.000000
130.042970 49.000000
130.065490 748.000000
130.412370 9.000000
130.812910 11.000000
130.852620 10.000000
131.046550 180.000000
131.052460 167.000000
131.063960 146.000000
131.072510 105.000000
131.419950 8.000000
131.785900 8.000000
132.045580 61.000000
132.057390 14.000000
132.065770 8.000000
132.082310 9.000000
133.049990 48.000000
133.057480 34.000000
133.063860 16.000000
133.261890 14.000000
135.047790 15.000000
139.045470 16.000000
139.841740 12.000000
140.029850 8.000000
140.036450 14.000000
140.050170 236.000000
140.060820 28.000000
140.810180 8.000000
141.050640 24.000000
141.061020 19.000000
142.036220 26.000000
142.046490 14.000000
142.062440 45.000000
142.071760 20.000000
142.941060 15.000000
144.023610 9.000000
144.037920 70.000000
144.046950 62.000000
145.051610 23.000000
146.021270 39.000000
147.020400 10.000000
147.040130 12.000000
150.792970 15.000000
155.500430 22.000000
156.014390 10.000000
156.039250 84.000000
156.046230 103.000000
156.063370 29.000000
156.071300 16.000000
157.025380 14.000000
157.034500 19.000000
157.051740 69.000000
157.554230 9.000000
158.037050 10.000000
158.053440 102.000000
158.062530 263.000000
159.046310 36.000000
159.055540 27.000000
159.066820 26.000000
159.073940 22.000000
160.047640 28.000000
160.055690 20.000000
160.070430 10.000000
160.762360 8.000000
161.043330 20.000000
162.052980 12.000000
168.027150 11.000000
168.039540 83.000000
168.050930 52.000000
168.063660 12.000000
168.767430 13.000000
169.054630 55.000000
170.035130 15.000000
170.061810 148.000000
170.077060 13.000000
171.060300 20.000000
171.114960 8.000000
171.881820 11.000000
172.039280 1000.000000
172.355800 9.000000
172.681000 10.000000
173.025880 9.000000
173.037310 32.000000
173.048160 21.000000
173.058560 12.000000
174.059360 14.000000
175.482590 10.000000
179.592700 11.000000
181.299840 13.000000
184.005460 10.000000
185.050670 88.000000
185.550750 13.000000
186.035980 12.000000
186.053360 426.000000
186.065540 47.000000
186.969360 8.000000
187.048050 23.000000
187.064030 237.000000
188.061610 13.000000
198.037930 14.000000
198.052370 21.000000
200.054550 12.000000
205.815640 10.000000
212.003230 11.000000
212.023620 22.000000
212.038380 150.000000
213.035720 17.000000
213.047440 14.000000
214.031140 18.000000
214.043290 47.000000
214.052340 70.000000
215.048710 42.000000
215.060490 21.000000
216.065020 11.000000
216.080950 10.000000
230.083620 163.000000

>ms2peaks
68.025270 29.000000
68.502780 32.000000
78.047480 24.000000
79.055510 17.000000
89.034380 59.000000
89.039320 70.000000
90.031910 24.000000
90.043420 22.000000
93.032710 54.000000
94.076380 18.000000
95.006520 29.000000
95.634190 17.000000
100.337210 38.000000
102.045920 256.000000
103.051320 169.000000
103.057740 121.000000
104.036130 18.000000
104.045980 29.000000
104.050920 68.000000
104.058550 27.000000
105.027620 18.000000
105.035440 22.000000
105.054270 28.000000
106.031970 21.000000
107.043370 92.000000
107.053140 178.000000
114.041600 93.000000
114.047440 20.000000
114.307890 23.000000
115.046840 82.000000
115.053800 110.000000
115.059620 87.000000
116.040640 20.000000
116.051920 275.000000
116.059480 93.000000
117.038530 33.000000
117.044860 50.000000
117.053920 100.000000
117.063220 67.000000
118.008550 17.000000
118.030980 42.000000
118.038100 112.000000
118.045040 22.000000
118.065610 29.000000
119.039950 79.000000
120.040310 40.000000
120.046650 150.000000
122.663630 17.000000
125.258580 17.000000
125.360190 29.000000
126.925450 20.000000
127.966080 25.000000
128.017030 20.000000
128.049580 999.000000
128.581010 18.000000
129.043050 27.000000
129.058910 250.000000
129.065800 55.000000
129.113850 18.000000
129.505540 17.000000
129.770480 18.000000
130.035770 37.000000
130.061890 973.000000
130.069350 904.000000
130.990780 24.000000
131.047810 796.000000
131.058880 256.000000
131.071580 792.000000
131.089260 25.000000
131.801900 23.000000
132.044160 47.000000
132.055480 296.000000
132.078860 164.000000
132.097410 24.000000
132.282560 18.000000
132.328580 29.000000
133.043320 24.000000
133.050370 63.000000
133.056630 129.000000
134.035480 29.000000
134.046310 39.000000
134.054840 23.000000
134.656130 18.000000
134.785510 21.000000
135.037290 27.000000
136.875290 19.000000
139.477680 27.000000
140.044220 107.000000
140.052660 211.000000
140.742080 17.000000
141.032870 27.000000
141.045730 21.000000
141.054730 18.000000
141.065840 61.000000
142.036070 99.000000
142.045620 141.000000
142.060000 67.000000
142.069440 60.000000
142.075320 25.000000
142.264920 36.000000
143.037980 41.000000
143.046430 120.000000
143.057140 74.000000
143.065640 18.000000
143.080380 43.000000
144.041440 125.000000
144.047900 152.000000
144.055890 130.000000
144.066700 28.000000
144.232510 19.000000
144.415500 28.000000
144.963060 30.000000
145.048920 83.000000
145.063610 72.000000
145.090670 21.000000
145.745150 17.000000
146.019730 155.000000
146.029860 166.000000
146.043050 24.000000
146.053270 38.000000
146.060900 52.000000
146.088070 21.000000
146.403440 23.000000
147.037610 64.000000
148.072690 47.000000
148.083010 33.000000
149.091140 27.000000
149.499940 21.000000
150.092880 38.000000
153.378980 21.000000
153.848620 20.000000
155.078580 20.000000
156.045070 316.000000
156.073810 28.000000
157.045670 25.000000
157.057040 160.000000
157.091130 28.000000
157.946980 19.000000
157.970060 29.000000
157.982620 20.000000
158.042390 35.000000
158.060380 3051.000000
158.095400 18.000000
158.194640 18.000000
158.883540 18.000000
158.916090 18.000000
158.938570 34.000000
159.009370 45.000000
159.025760 43.000000
159.037160 334.000000
159.043060 695.000000
159.066070 1855.000000
159.086430 29.000000
159.305110 21.000000
159.407150 20.000000
159.540250 17.000000
159.762530 17.000000
159.882110 18.000000
159.946900 21.000000
160.047330 335.000000
160.056000 244.000000
160.068570 18.000000
160.888280 30.000000
161.047260 164.000000
161.294630 23.000000
161.480610 20.000000
161.924090 25.000000
162.207500 18.000000
163.558260 54.000000
164.072110 30.000000
165.209980 20.000000
166.218730 20.000000
167.534550 21.000000
168.024190 29.000000
168.040250 243.000000
168.051860 227.000000
168.995730 18.000000
169.006970 19.000000
169.047620 109.000000
169.057190 30.000000
169.323620 17.000000
170.020200 27.000000
170.035770 414.000000
170.055620 741.000000
170.064640 542.000000
170.187450 19.000000
170.469680 34.000000
170.505340 22.000000
170.633580 21.000000
170.677080 18.000000
171.033490 138.000000
171.045380 53.000000
171.063890 143.000000
171.216770 24.000000
171.281770 24.000000
171.991900 31.000000
172.011720 56.000000
172.022630 136.000000
172.040180 3142.000000
172.074830 19.000000
172.204300 18.000000
172.388890 30.000000
172.464080 17.000000
173.042790 385.000000
173.084440 35.000000
173.598880 24.000000
174.048490 42.000000
174.085620 23.000000
174.096540 53.000000
175.413890 17.000000
176.453280 33.000000
177.324720 36.000000
178.058780 18.000000
178.631730 51.000000
178.727490 17.000000
178.790940 29.000000
179.475010 19.000000
180.253720 18.000000
181.108340 22.000000
181.437770 21.000000
183.904540 20.000000
184.038790 165.000000
185.045090 1260.000000
185.054200 497.000000
185.206560 18.000000
185.922210 25.000000
186.008940 125.000000
186.021870 211.000000
186.037170 179.000000
186.054580 7635.000000
186.086560 17.000000
186.709730 35.000000
186.986940 20.000000
187.029270 52.000000
187.062040 8048.000000
187.103500 49.000000
187.140400 27.000000
187.164350 20.000000
187.220410 20.000000
187.489910 18.000000
187.558200 20.000000
187.697360 42.000000
188.034970 56.000000
188.048460 43.000000
188.068180 1233.000000
188.360210 31.000000
188.383540 18.000000
188.499820 18.000000
188.770490 17.000000
189.022080 20.000000
189.049120 56.000000
189.069440 153.000000
189.079610 33.000000
189.645890 24.000000
190.855880 18.000000
191.041240 32.000000
191.441790 23.000000
192.584120 18.000000
192.884600 24.000000
193.454960 45.000000
195.918750 45.000000
196.027500 33.000000
196.040080 68.000000
196.868130 19.000000
197.046310 89.000000
197.061810 28.000000
197.175930 36.000000
197.967770 20.000000
198.030550 21.000000
198.045230 177.000000
198.058300 1081.000000
198.156230 17.000000
199.033890 34.000000
199.051090 18.000000
199.066300 129.000000
199.143510 21.000000
199.665620 17.000000
199.992190 51.000000
200.038730 199.000000
200.050350 27.000000
200.386380 38.000000
201.024120 21.000000
201.041760 20.000000
201.064760 25.000000
202.078000 124.000000
202.086670 223.000000
202.094300 128.000000
203.044300 29.000000
203.082180 59.000000
203.090230 63.000000
203.697080 18.000000
205.946170 27.000000
211.096040 30.000000
211.735110 17.000000
212.015260 42.000000
212.037060 814.000000
212.689120 17.000000
213.022670 24.000000
213.041200 224.000000
213.054550 54.000000
213.567610 22.000000
213.597210 27.000000
213.865740 18.000000
213.872830 20.000000
213.886400 25.000000
213.989820 36.000000
214.023860 29.000000
214.049760 5633.000000
214.081010 35.000000
214.135790 19.000000
214.174150 41.000000
214.577870 30.000000
214.601120 21.000000
214.681400 17.000000
214.795270 17.000000
214.861160 17.000000
214.892090 18.000000
214.956390 18.000000
214.991620 32.000000
215.017170 130.000000
215.029220 69.000000
215.058210 38069.000000
215.100300 1077.000000
215.139570 35.000000
215.234820 65.000000
215.323430 123.000000
215.374570 17.000000
215.641650 23.000000
215.710780 34.000000
215.790560 54.000000
215.821870 23.000000
215.879390 28.000000
216.032150 135.000000
216.060550 5069.000000
216.104830 17.000000
216.137790 17.000000
216.237920 18.000000
216.269900 40.000000
216.450850 33.000000
216.489960 19.000000
216.670520 20.000000
216.686520 38.000000
216.755780 18.000000
217.062480 488.000000
217.389540 20.000000
217.446380 26.000000
218.013060 20.000000
218.052720 30.000000
218.076680 17.000000
218.133770 25.000000
218.572330 17.000000
219.237000 35.000000
219.316420 18.000000
220.476150 21.000000
221.516660 21.000000
222.065030 20.000000
222.828320 19.000000
225.511200 18.000000
225.650100 20.000000
226.058470 18.000000
226.219300 25.000000
226.573390 23.000000
227.107070 23.000000
227.751560 18.000000
228.453220 17.000000
228.724440 21.000000
228.852130 20.000000
228.914080 20.000000
229.074550 62.000000
229.154940 23.000000
229.239260 17.000000
229.759260 18.000000
229.791960 21.000000
229.828340 23.000000
230.011960 67.000000
230.030470 89.000000
230.044720 154.000000
230.082430 92061.000000
230.125320 3568.000000
230.164580 553.000000
230.212590 75.000000
230.260860 1679.000000

