>compound PR32629048
>parentmass 223.0753563076923
>ionization [M+H]+
>formula C15H10O2
>rt 465.064634
>profile qtof
#smiles_iso C1=CC=C(C=C1)C2=CC(=O)C3=CC=CC=C3O2
#smiles_can C1=CC=C(C=C1)C2=CC(=O)C3=CC=CC=C3O2
#inchikey VHBFFQKBGNRLFZ-UHFFFAOYSA-N
#pubchem_id 10680
#mb_accession PR303167,PR303170,PR303173,PR303176,PR303179,PR303182,PR303185,PR303188,PR303191,PR303194,PR303197,PR303200,PR310474

>ms2peaks
77.038320 16.000000
93.034190 16.000000
103.053630 23.000000
121.028320 54.000000
129.032840 26.000000
152.061660 11.000000
165.068590 12.000000
167.084980 14.000000
177.065490 5.000000
178.078000 31.000000
179.082700 5.000000
223.075850 1000.000000
223.118420 37.000000
223.157910 6.000000
223.251540 12.000000

>ms2peaks
223.076020 1000.000000
223.118010 41.000000
223.157670 10.000000
223.251270 19.000000

>ms2peaks
65.038410 88.000000
68.997740 6.000000
77.024230 5.000000
77.038670 337.000000
78.041580 31.000000
93.020420 7.000000
93.033760 267.000000
94.037540 18.000000
101.036870 10.000000
102.048930 6.000000
103.054310 381.000000
104.052480 5.000000
104.059730 20.000000
105.033410 48.000000
118.041630 8.000000
121.003900 13.000000
121.027810 707.000000
122.030040 53.000000
122.035870 19.000000
123.034400 9.000000
129.033480 431.000000
130.036730 61.000000
151.053600 26.000000
152.062030 183.000000
153.065250 33.000000
165.070470 181.000000
166.067600 16.000000
166.076250 59.000000
167.084490 176.000000
168.082170 8.000000
168.090420 19.000000
176.061280 55.000000
177.069350 84.000000
178.078190 363.000000
179.081380 76.000000
195.078320 6.000000
223.035080 6.000000
223.046880 9.000000
223.075230 1000.000000

>ms2peaks
51.022220 19.000000
51.063160 27.000000
65.030880 37.000000
65.038090 348.000000
65.042390 99.000000
66.008150 25.000000
68.999830 15.000000
75.020460 16.000000
76.029790 29.000000
77.038660 1000.000000
78.035540 25.000000
78.042280 70.000000
90.009200 25.000000
92.997020 45.000000
93.023150 21.000000
93.032310 130.000000
93.036310 66.000000
94.041950 43.000000
94.186710 16.000000
99.023210 23.000000
101.033140 59.000000
101.038670 119.000000
102.045340 22.000000
103.012580 25.000000
103.052920 217.000000
104.055900 21.000000
105.031680 99.000000
115.056610 37.000000
121.028300 101.000000
122.024710 17.000000
122.029790 22.000000
125.044620 17.000000
126.044930 62.000000
129.031970 537.000000
141.067170 37.000000
150.036120 56.000000
150.046160 101.000000
151.050420 96.000000
151.059490 53.000000
151.615570 16.000000
152.064450 125.000000
153.031300 27.000000
164.062060 71.000000
165.055100 74.000000
165.067790 106.000000
165.075580 67.000000
166.059780 27.000000
166.076390 86.000000
167.073960 20.000000
175.054570 31.000000
176.056240 118.000000
176.065670 133.000000
177.070760 51.000000
178.071930 72.000000
178.085880 56.000000
205.067730 25.000000
223.079940 47.000000

>ms2peaks
77.038460 17.000000
93.033030 12.000000
103.053340 25.000000
121.028480 58.000000
122.031050 5.000000
129.032320 24.000000
129.037570 9.000000
152.059590 14.000000
165.070370 13.000000
166.077900 6.000000
167.084900 15.000000
178.078030 28.000000
223.075290 1000.000000
223.118100 38.000000
223.157850 6.000000
223.250870 17.000000

>ms2peaks
223.075210 1000.000000
223.117460 39.000000
223.156920 8.000000
223.251100 16.000000

>ms2peaks
65.037770 55.000000
65.043170 10.000000
68.995780 6.000000
69.000600 11.000000
77.038690 366.000000
78.041390 19.000000
93.033520 214.000000
94.040610 11.000000
101.038610 7.000000
102.043470 7.000000
103.053930 294.000000
104.055900 18.000000
104.060950 16.000000
105.033740 47.000000
106.038800 6.000000
121.001140 8.000000
121.028290 674.000000
122.031280 44.000000
129.015590 6.000000
129.033040 411.000000
130.037170 38.000000
147.044430 6.000000
151.044420 6.000000
151.054460 13.000000
152.061870 185.000000
153.066390 28.000000
153.075060 7.000000
154.072980 6.000000
165.052580 7.000000
165.063890 42.000000
165.070690 138.000000
166.076080 57.000000
166.083400 18.000000
167.086610 142.000000
168.086230 18.000000
176.060550 47.000000
177.065460 27.000000
177.073900 28.000000
177.079860 16.000000
178.077970 306.000000
179.067280 5.000000
179.082520 46.000000
179.094220 10.000000
181.060040 7.000000
181.066650 6.000000
195.081790 9.000000
223.041890 13.000000
223.075550 1000.000000

>ms2peaks
51.181630 32.000000
65.022830 33.000000
65.038960 370.000000
68.996240 19.000000
71.022750 30.000000
75.021340 52.000000
77.037900 1000.000000
78.042680 51.000000
91.827090 16.000000
93.004300 45.000000
93.032750 350.000000
101.036580 156.000000
101.042670 78.000000
103.045080 17.000000
103.055220 250.000000
105.027210 28.000000
115.055310 21.000000
121.029000 336.000000
122.029660 35.000000
126.042750 26.000000
128.065400 18.000000
129.015870 20.000000
129.031040 392.000000
129.037690 202.000000
129.063550 17.000000
139.056790 28.000000
140.061720 37.000000
150.046050 52.000000
151.046010 82.000000
151.058580 20.000000
152.060940 506.000000
153.057050 46.000000
153.066360 17.000000
164.054860 18.000000
164.062640 18.000000
165.049530 16.000000
165.063740 81.000000
165.070760 83.000000
166.077380 107.000000
166.260850 19.000000
167.073320 23.000000
167.085860 46.000000
175.064330 32.000000
176.064770 171.000000
177.064530 83.000000
177.073170 42.000000
177.080400 22.000000
178.051960 38.000000
178.080870 95.000000
223.071950 19.000000
223.086030 32.000000

>ms2peaks
77.037590 16.000000
93.032980 9.000000
103.053700 22.000000
121.028360 60.000000
129.032350 26.000000
152.060100 11.000000
165.071350 7.000000
167.084530 13.000000
177.070560 7.000000
178.078890 29.000000
223.027050 5.000000
223.075470 1000.000000
223.118030 36.000000
223.156950 6.000000
223.251860 14.000000

>ms2peaks
223.075780 1000.000000
223.118150 40.000000
223.157870 8.000000
223.251370 19.000000

>ms2peaks
65.036390 20.000000
65.040410 37.000000
68.996650 24.000000
77.038690 376.000000
78.043110 26.000000
93.033380 260.000000
94.035110 13.000000
101.040690 8.000000
102.046860 8.000000
103.034300 5.000000
103.054340 321.000000
104.058860 43.000000
105.027640 14.000000
105.033910 68.000000
121.002440 10.000000
121.028610 700.000000
122.030430 41.000000
122.037060 28.000000
129.008790 7.000000
129.032990 357.000000
130.030430 10.000000
130.036940 36.000000
141.073610 7.000000
147.038530 7.000000
151.054000 24.000000
151.061660 7.000000
152.042430 5.000000
152.062420 217.000000
153.066440 31.000000
154.068540 8.000000
165.069460 167.000000
166.076930 67.000000
167.085130 170.000000
168.084640 15.000000
168.095520 14.000000
176.060460 42.000000
177.069930 78.000000
178.076720 335.000000
179.081630 57.000000
181.069370 16.000000
195.081880 5.000000
223.044370 13.000000
223.075900 1000.000000

>ms2peaks
65.032300 73.000000
65.038050 135.000000
65.043910 20.000000
65.060530 20.000000
65.335170 29.000000
67.399260 20.000000
68.980250 45.000000
68.999100 63.000000
71.727940 20.000000
75.013880 28.000000
77.015440 29.000000
77.038060 908.000000
78.036960 29.000000
91.056480 48.000000
93.026820 70.000000
93.035370 276.000000
94.035560 75.000000
101.026310 27.000000
101.034140 66.000000
101.040020 87.000000
102.041750 37.000000
102.050210 153.000000
103.050300 64.000000
103.057590 20.000000
104.057200 32.000000
121.014870 25.000000
121.025830 312.000000
121.037360 28.000000
125.040760 33.000000
126.047690 65.000000
127.050000 22.000000
128.061130 37.000000
129.032750 1000.000000
130.034500 51.000000
134.051440 28.000000
139.057130 33.000000
149.032270 39.000000
150.037580 49.000000
150.048390 175.000000
151.051440 168.000000
151.059100 37.000000
152.031230 25.000000
152.057790 281.000000
152.067260 124.000000
153.061070 27.000000
153.076920 27.000000
165.065690 145.000000
165.073040 247.000000
166.078220 27.000000
167.076320 35.000000
176.055680 110.000000
176.065900 81.000000
177.075270 21.000000
178.074540 73.000000
178.082000 50.000000
179.080780 27.000000
181.060810 28.000000
188.716490 35.000000
200.541350 63.000000
223.033810 19.000000
223.058700 71.000000
223.075550 239.000000

>ms2peaks
51.026710 23.000000
56.791900 28.000000
65.034770 150.000000
65.040170 339.000000
66.042400 20.000000
67.044780 38.000000
68.996930 187.000000
75.026140 26.000000
76.330990 17.000000
77.011960 27.000000
77.026390 22.000000
77.038320 1701.000000
77.321920 20.000000
77.378710 17.000000
77.971890 23.000000
78.039030 159.000000
78.045960 27.000000
78.201000 18.000000
78.574350 18.000000
78.668570 18.000000
86.232800 19.000000
93.034190 1624.000000
94.031620 73.000000
94.040370 40.000000
94.248900 17.000000
101.037170 96.000000
102.033490 44.000000
102.045810 45.000000
103.053630 2431.000000
103.067630 24.000000
104.053990 222.000000
105.033870 442.000000
105.771440 18.000000
106.562230 20.000000
115.052870 19.000000
118.037230 33.000000
118.064030 39.000000
118.070940 23.000000
120.151280 18.000000
120.454830 17.000000
120.812800 18.000000
120.977800 25.000000
121.014420 56.000000
121.028320 5631.000000
121.165710 21.000000
121.810690 17.000000
122.021700 78.000000
122.032520 423.000000
122.835080 18.000000
123.033240 21.000000
123.040860 29.000000
124.416980 17.000000
126.622400 55.000000
128.981840 29.000000
129.000550 29.000000
129.017750 95.000000
129.032840 2704.000000
129.688370 20.000000
129.865720 33.000000
130.020390 17.000000
130.040630 247.000000
130.689250 27.000000
133.976620 25.000000
137.877240 33.000000
138.403850 22.000000
138.603960 52.000000
139.020770 21.000000
139.288790 29.000000
139.419110 17.000000
141.074780 20.000000
141.081630 71.000000
141.628740 20.000000
141.946880 24.000000
141.955410 23.000000
142.312710 38.000000
142.693240 18.000000
145.935060 21.000000
146.705260 18.000000
147.048690 42.000000
147.787290 39.000000
147.853420 29.000000
148.461810 40.000000
149.101960 35.000000
150.026730 43.000000
150.045490 22.000000
150.175510 18.000000
151.048100 96.000000
151.055860 100.000000
151.821150 21.000000
152.035020 41.000000
152.045850 72.000000
152.055160 370.000000
152.061660 1142.000000
153.057220 22.000000
153.068020 227.000000
153.918990 20.000000
155.079070 17.000000
155.089290 66.000000
155.499790 33.000000
156.245730 17.000000
156.408970 41.000000
156.445420 39.000000
156.766920 33.000000
158.469390 20.000000
164.068480 49.000000
165.039380 23.000000
165.056500 138.000000
165.068590 1212.000000
165.107440 30.000000
165.318040 30.000000
166.070160 228.000000
166.079240 339.000000
167.045790 40.000000
167.084980 1453.000000
167.092130 501.000000
168.061920 20.000000
168.075520 45.000000
168.087070 148.000000
168.097530 27.000000
169.063830 18.000000
170.095550 41.000000
173.964830 33.000000
174.170090 21.000000
174.731770 20.000000
175.055210 30.000000
175.724430 18.000000
176.049880 52.000000
176.056870 104.000000
176.065490 140.000000
176.115390 29.000000
176.670990 20.000000
177.015170 24.000000
177.048430 37.000000
177.065490 572.000000
177.876370 22.000000
178.013700 18.000000
178.078000 3190.000000
178.991810 21.000000
179.071060 61.000000
179.082700 561.000000
179.857130 18.000000
179.888120 33.000000
180.072660 18.000000
180.090970 26.000000
180.321980 18.000000
181.052310 24.000000
181.065190 145.000000
182.040390 33.000000
183.037020 37.000000
184.446490 40.000000
184.922970 17.000000
186.466420 20.000000
194.074020 19.000000
194.761960 25.000000
195.080520 83.000000
195.090270 23.000000
196.298490 34.000000
196.813890 27.000000
197.532240 18.000000
198.662050 21.000000
198.670610 42.000000
198.842560 20.000000
199.478450 23.000000
199.962770 27.000000
202.704090 20.000000
205.063510 26.000000
205.078860 27.000000
208.133990 31.000000
211.771870 17.000000
211.943860 28.000000
215.374980 20.000000
216.328280 48.000000
216.993710 19.000000
218.866880 17.000000
218.896800 17.000000
219.148350 27.000000
221.060970 27.000000
222.062930 24.000000
222.197070 23.000000
222.456340 17.000000
222.621490 17.000000
222.706970 17.000000
222.796910 20.000000
222.831190 18.000000
222.915740 38.000000
222.950580 23.000000
222.983890 18.000000
223.011990 198.000000
223.024670 297.000000
223.039410 353.000000
223.075850 104332.000000
223.118420 3822.000000
223.157910 578.000000
223.201860 17.000000
223.224700 20.000000
223.251540 1268.000000

