>compound PR32602306
>parentmass 385.2121838
>ionization [M+H]+
>formula C22H28N2O4
>rt 294.097980
>profile qtof
#smiles_iso CC[C@H]1CN2CC[C@]3([C@@H]2C[C@@H]1/C(=C\OC)/C(=O)OC)C4=CC=CC=C4NC3=O
#smiles_can CCC1CN2CCC3(C2CC1C(=COC)C(=O)OC)C4=CC=CC=C4NC3=O
#inchikey DAXYUDFNWXHGBE-KAXDATADSA-N
#pubchem_id 5281408
#mb_accession PR300181,PR300186,PR300191,PR300196,PR300201,PR300206,PR300211,PR300216,PR300221,PR300226,PR300231,PR300236

>ms2peaks
70.065220 5.000000
108.080260 6.000000
110.095570 20.000000
129.053220 7.000000
132.044650 7.000000
132.080580 20.000000
142.064500 21.000000
144.079070 12.000000
153.090060 5.000000
158.061780 7.000000
160.075120 147.000000
161.078450 16.000000
171.101990 9.000000
194.117340 6.000000
213.101430 12.000000
215.117970 24.000000
226.143920 24.000000
241.134870 7.000000
265.135310 11.000000
267.147030 23.000000
269.165100 54.000000
270.171230 8.000000
353.185120 61.000000
354.183440 10.000000
354.195560 7.000000
385.211640 1000.000000
385.269440 28.000000

>ms2peaks
353.188420 5.000000
385.146360 5.000000
385.211790 1000.000000
385.268950 32.000000

>ms2peaks
56.050420 10.000000
70.065830 56.000000
93.070010 10.000000
98.097180 5.000000
108.081490 54.000000
110.096080 180.000000
111.097540 12.000000
118.064250 19.000000
124.111810 30.000000
129.054690 37.000000
130.061800 7.000000
132.044310 30.000000
132.080230 90.000000
133.085710 10.000000
139.073820 24.000000
142.065080 74.000000
143.069260 7.000000
144.080280 89.000000
145.082920 10.000000
153.090960 21.000000
158.058940 69.000000
158.094280 13.000000
158.100600 9.000000
159.060320 5.000000
159.068620 5.000000
160.023450 5.000000
160.075500 1000.000000
160.111800 14.000000
161.078610 128.000000
162.083070 12.000000
166.083740 9.000000
168.101990 14.000000
171.102220 83.000000
172.076970 19.000000
172.106220 9.000000
173.086460 5.000000
186.093660 8.000000
187.087050 8.000000
187.121860 6.000000
194.117100 46.000000
198.082020 6.000000
198.096070 10.000000
213.102800 74.000000
214.106720 12.000000
215.118870 194.000000
216.122860 38.000000
226.143860 121.000000
227.139360 5.000000
227.152110 10.000000
240.157500 8.000000
241.124890 14.000000
241.134200 54.000000
242.133800 5.000000
242.143360 6.000000
251.121030 11.000000
265.108090 7.000000
265.135500 76.000000
266.136840 17.000000
267.150270 127.000000
268.154820 33.000000
269.165250 354.000000
270.169400 80.000000
281.121400 13.000000
281.134550 10.000000
297.126340 6.000000
321.158910 24.000000
353.185760 193.000000
354.172940 10.000000
354.190830 36.000000
354.201810 20.000000
385.212310 393.000000

>ms2peaks
56.050620 19.000000
70.041570 5.000000
70.064670 57.000000
75.040610 56.000000
75.046550 30.000000
77.036240 7.000000
77.041420 15.000000
79.052800 26.000000
81.058800 7.000000
82.029460 12.000000
82.066280 11.000000
90.046750 6.000000
91.055890 42.000000
93.055330 9.000000
93.069890 14.000000
94.071950 13.000000
95.077870 8.000000
104.049870 35.000000
105.063700 10.000000
105.068950 38.000000
105.073700 12.000000
106.068410 8.000000
108.076990 42.000000
108.081630 42.000000
109.081050 7.000000
109.088450 9.000000
110.096130 341.000000
111.070540 7.000000
111.101460 27.000000
112.086420 5.000000
113.061020 5.000000
115.021370 7.000000
115.033540 9.000000
115.053470 443.000000
116.048700 74.000000
116.058420 44.000000
117.056930 313.000000
117.072830 10.000000
118.049880 14.000000
118.063740 249.000000
119.066540 5.000000
119.075110 8.000000
122.094870 10.000000
123.081070 6.000000
124.112060 56.000000
124.390680 9.000000
127.046110 9.000000
129.054750 77.000000
130.053890 9.000000
130.063600 85.000000
131.071320 30.000000
131.078720 10.000000
132.044100 643.000000
132.062970 14.000000
132.080550 905.000000
133.038160 8.000000
133.048770 40.000000
133.084670 167.000000
138.067290 6.000000
139.071610 30.000000
139.079970 11.000000
140.050600 75.000000
141.058690 6.000000
142.064740 961.000000
143.069110 114.000000
144.078960 201.000000
145.047880 10.000000
145.084900 40.000000
146.054050 9.000000
154.067430 45.000000
155.067860 7.000000
158.057910 21.000000
158.064210 20.000000
158.094010 16.000000
159.058790 6.000000
159.068450 15.000000
159.094240 6.000000
160.074740 1000.000000
161.078380 134.000000
164.064590 6.000000
166.064120 6.000000
166.071980 10.000000
167.062060 14.000000
167.074920 7.000000
168.077620 9.000000
171.099990 9.000000
172.071580 34.000000
172.080380 14.000000
182.081160 5.000000
183.089400 8.000000
185.110080 5.000000
186.091710 11.000000
187.078120 10.000000
187.085600 27.000000
195.098910 8.000000
197.075150 7.000000
198.427760 5.000000
206.087660 5.000000
209.101930 6.000000
213.104050 19.000000
235.094360 6.000000
237.098080 6.000000
237.113130 14.000000
237.132540 5.000000
241.134460 6.000000
265.138280 36.000000
267.157810 6.000000
269.169160 12.000000
291.116090 7.000000

>ms2peaks
108.080390 7.000000
110.096070 21.000000
132.043720 10.000000
132.079380 15.000000
132.084870 7.000000
139.074580 5.000000
142.064820 20.000000
144.080060 13.000000
158.059360 8.000000
160.074970 155.000000
161.078140 21.000000
171.099850 11.000000
213.097580 8.000000
213.107640 6.000000
215.117710 32.000000
226.142550 27.000000
241.133940 8.000000
265.131590 9.000000
267.150420 20.000000
269.164340 55.000000
270.166530 13.000000
353.187350 61.000000
354.190800 18.000000
385.212460 1000.000000
385.268830 29.000000

>ms2peaks
385.212550 1000.000000
385.269350 32.000000
385.320920 6.000000

>ms2peaks
56.048910 6.000000
70.065130 55.000000
93.069690 6.000000
108.081030 45.000000
110.095740 177.000000
111.099050 15.000000
117.057210 6.000000
118.065220 19.000000
123.081950 7.000000
124.110850 24.000000
125.059440 5.000000
129.054020 50.000000
130.063080 5.000000
132.043810 24.000000
132.080050 85.000000
133.083400 8.000000
139.073720 25.000000
142.065280 89.000000
143.071960 6.000000
144.079320 78.000000
145.080540 6.000000
145.088520 5.000000
153.090260 24.000000
158.059720 61.000000
158.096690 17.000000
160.047610 8.000000
160.075100 1000.000000
160.111660 14.000000
161.078160 142.000000
162.078900 18.000000
168.103180 18.000000
170.094650 6.000000
171.100110 74.000000
172.076250 36.000000
172.102690 11.000000
186.090590 6.000000
187.086040 15.000000
187.123980 12.000000
194.117080 44.000000
198.087800 12.000000
213.101810 72.000000
214.102920 10.000000
215.117510 188.000000
216.118030 33.000000
226.143340 120.000000
227.147430 22.000000
240.159030 19.000000
241.133060 44.000000
241.140200 22.000000
242.137500 7.000000
251.109920 7.000000
251.121050 9.000000
252.118480 6.000000
265.132660 75.000000
266.137660 22.000000
267.124630 12.000000
267.148160 110.000000
268.152830 30.000000
269.164250 341.000000
270.167050 82.000000
281.127380 15.000000
297.124110 9.000000
321.158600 22.000000
353.186830 188.000000
354.188690 43.000000
383.189730 9.000000
385.129120 5.000000
385.211550 388.000000

>ms2peaks
56.048720 8.000000
56.055000 11.000000
70.066050 51.000000
70.069990 14.000000
75.042820 46.000000
75.048100 25.000000
77.040490 22.000000
79.055480 17.000000
80.056590 6.000000
91.055020 22.000000
93.066060 15.000000
94.066400 6.000000
98.095500 8.000000
99.080900 5.000000
104.044660 12.000000
104.050350 18.000000
105.068980 25.000000
108.044770 6.000000
108.056880 7.000000
108.080830 121.000000
109.064860 6.000000
109.080990 10.000000
109.087730 7.000000
110.096240 286.000000
111.077870 12.000000
111.099600 21.000000
115.034930 5.000000
115.054200 440.000000
116.043500 15.000000
116.053310 75.000000
117.017490 7.000000
117.034540 7.000000
117.056860 325.000000
117.072650 7.000000
118.049770 13.000000
118.064500 271.000000
119.063120 9.000000
119.071510 25.000000
122.096160 9.000000
122.103150 6.000000
123.079610 6.000000
124.106330 9.000000
124.111410 22.000000
125.114550 6.000000
127.053680 24.000000
128.055850 10.000000
129.053040 52.000000
130.064590 95.000000
131.056000 6.000000
131.066310 16.000000
132.043840 573.000000
132.080180 977.000000
133.047150 67.000000
133.070710 7.000000
133.078870 36.000000
133.086230 33.000000
134.096100 7.000000
136.108110 8.000000
138.055500 7.000000
139.068420 5.000000
139.077300 11.000000
140.049440 88.000000
142.064580 798.000000
143.051790 11.000000
143.069260 126.000000
144.042250 8.000000
144.080310 151.000000
144.085770 49.000000
145.053620 27.000000
145.076510 8.000000
146.057140 20.000000
154.061690 48.000000
155.066280 12.000000
158.063140 40.000000
158.097410 19.000000
159.067760 15.000000
159.076780 6.000000
160.075290 1000.000000
161.064070 14.000000
161.078230 108.000000
162.080140 11.000000
166.091490 11.000000
168.075120 8.000000
168.983960 5.000000
169.076520 10.000000
171.097170 12.000000
172.076420 33.000000
173.081940 7.000000
184.089020 5.000000
185.072890 5.000000
187.082730 15.000000
187.089430 18.000000
207.103090 7.000000
213.098130 12.000000
237.089200 6.000000
237.108730 10.000000
238.105270 5.000000
251.119080 9.000000
252.128970 5.000000
265.091460 7.000000
265.120730 8.000000
265.134310 9.000000
266.118070 6.000000
266.137910 6.000000
269.162540 10.000000
385.206020 7.000000
385.217590 6.000000

>ms2peaks
108.080970 6.000000
110.096070 27.000000
129.053280 6.000000
132.044450 7.000000
132.080550 19.000000
142.066150 23.000000
144.080690 10.000000
158.060870 7.000000
160.075470 155.000000
161.079530 17.000000
171.101140 11.000000
213.102310 9.000000
215.117680 27.000000
226.142560 20.000000
241.133060 6.000000
265.131960 11.000000
267.148710 18.000000
269.165920 50.000000
270.168330 11.000000
353.184300 55.000000
354.188510 16.000000
385.153720 11.000000
385.213040 1000.000000
385.269810 31.000000
385.322270 5.000000

>ms2peaks
385.149230 7.000000
385.213200 1000.000000
385.270140 33.000000
385.321530 6.000000

>ms2peaks
56.049380 9.000000
70.066020 51.000000
71.069950 6.000000
93.071780 16.000000
108.080310 43.000000
110.083130 5.000000
110.096120 175.000000
111.099450 12.000000
115.055360 5.000000
118.067270 15.000000
124.114070 19.000000
129.055850 53.000000
130.065120 5.000000
132.043950 29.000000
132.081280 74.000000
133.081040 7.000000
139.075530 22.000000
142.065520 61.000000
143.060470 5.000000
144.079640 80.000000
145.086700 11.000000
153.090840 14.000000
158.055440 19.000000
158.061140 37.000000
158.095380 19.000000
159.062810 7.000000
160.075870 1000.000000
160.113570 11.000000
161.078870 109.000000
162.084300 5.000000
162.093000 7.000000
166.088900 6.000000
168.103620 16.000000
171.102130 86.000000
172.076580 30.000000
172.105610 11.000000
173.083250 6.000000
186.090360 9.000000
187.085880 8.000000
187.123580 9.000000
194.117260 40.000000
195.119460 5.000000
213.104520 54.000000
214.102660 15.000000
215.119780 175.000000
216.119660 15.000000
226.144520 130.000000
227.149340 14.000000
240.157240 18.000000
241.135160 50.000000
251.118390 9.000000
265.136020 79.000000
266.142060 14.000000
267.148710 95.000000
267.157990 39.000000
268.157900 17.000000
269.120940 5.000000
269.142120 5.000000
269.165310 362.000000
270.167140 67.000000
281.130520 12.000000
321.147400 7.000000
321.160950 16.000000
321.173220 6.000000
353.187010 192.000000
354.160460 9.000000
354.179990 19.000000
354.195310 43.000000
355.186890 7.000000
383.196930 12.000000
385.213010 379.000000

>ms2peaks
56.048010 12.000000
70.065760 36.000000
71.068950 6.000000
75.044850 71.000000
77.034950 6.000000
77.039830 6.000000
78.035100 14.000000
79.051910 7.000000
79.055870 16.000000
80.047930 13.000000
85.031050 10.000000
91.053810 48.000000
93.068580 29.000000
94.064130 9.000000
104.049060 21.000000
104.056370 10.000000
105.032210 7.000000
105.044070 9.000000
105.071530 31.000000
106.062650 12.000000
108.082180 100.000000
110.096830 283.000000
111.081760 11.000000
111.099780 39.000000
115.038930 11.000000
115.054340 434.000000
116.042430 11.000000
116.053370 52.000000
116.061370 35.000000
117.038010 6.000000
117.057420 362.000000
118.058340 74.000000
118.065800 198.000000
119.068300 7.000000
122.098460 12.000000
123.081060 9.000000
124.105340 14.000000
124.115400 11.000000
125.116840 8.000000
127.042580 10.000000
127.057770 18.000000
128.047210 12.000000
128.055910 7.000000
129.054240 93.000000
130.056610 11.000000
130.065570 85.000000
131.073520 19.000000
132.016540 6.000000
132.044620 560.000000
132.080510 1000.000000
133.036440 5.000000
133.048900 76.000000
133.080080 27.000000
133.085530 73.000000
134.054090 5.000000
134.100040 15.000000
136.118360 7.000000
139.074510 34.000000
140.051590 70.000000
140.082370 11.000000
141.052050 17.000000
142.030380 6.000000
142.038090 7.000000
142.065120 869.000000
143.068920 139.000000
144.040860 10.000000
144.047550 9.000000
144.081800 173.000000
145.047780 6.000000
145.055980 17.000000
145.083710 26.000000
145.092940 8.000000
146.072860 6.000000
151.054060 8.000000
151.874210 8.000000
154.064800 56.000000
154.081020 6.000000
155.070770 19.000000
158.061160 37.000000
158.066860 11.000000
158.079410 6.000000
158.095780 24.000000
159.060840 5.000000
159.069240 7.000000
159.090330 12.000000
160.036680 7.000000
160.076070 908.000000
161.079770 133.000000
162.081190 11.000000
164.428740 6.000000
166.071500 7.000000
168.075930 5.000000
169.078350 6.000000
170.095410 14.000000
171.095610 5.000000
171.107090 8.000000
172.076740 39.000000
180.745060 5.000000
186.109280 6.000000
198.082260 6.000000
213.100460 14.000000
225.101380 6.000000
237.096190 11.000000
237.109360 7.000000
237.144940 6.000000
241.136510 10.000000
265.139590 13.000000
265.150670 6.000000
267.146820 9.000000
269.168610 8.000000

