>compound PR32236891
>parentmass 204.11313861538457
>ionization [M+H]+
>formula C11H13N3O
>rt 165.779058
>profile qtof
#smiles_iso CC1=C(C(=O)N(N1C)C2=CC=CC=C2)N
#smiles_can CC1=C(C(=O)N(N1C)C2=CC=CC=C2)N
#inchikey RLFWWDJHLFCNIJ-UHFFFAOYSA-N
#pubchem_id 2151
#mb_accession PR301635,PR301638,PR301641,PR301644,PR301647,PR301649,PR301652,PR301654,PR301657,PR301660,PR301663,PR301666,PR310426

>ms2peaks
56.047200 9.000000
56.053160 23.000000
83.060450 68.000000
84.067840 7.000000
85.031090 9.000000
85.077840 67.000000
94.058140 13.000000
94.066460 108.000000
104.045410 20.000000
111.055020 29.000000
111.064200 11.000000
118.061720 12.000000
128.052460 37.000000
130.061660 11.000000
132.079710 25.000000
136.495250 6.000000
145.076610 41.000000
146.055420 14.000000
146.064820 29.000000
146.250380 6.000000
151.511780 11.000000
157.054110 10.000000
158.061610 30.000000
159.086990 106.000000
159.095890 85.000000
160.090470 24.000000
169.084660 10.000000
171.052830 6.000000
173.072020 34.000000
175.073360 6.000000
177.102940 6.000000
187.082020 78.000000
187.090900 73.000000
188.096690 6.000000
189.090190 31.000000
191.094590 6.000000
204.112590 1000.000000
204.149720 11.000000
204.162690 7.000000

>ms2peaks
56.049420 8.000000
83.062680 22.000000
85.076900 14.000000
111.055210 10.000000
145.077010 6.000000
146.056440 6.000000
158.065610 5.000000
159.091200 76.000000
160.087620 5.000000
160.098130 5.000000
173.072650 22.000000
174.077090 6.000000
176.118010 6.000000
187.082060 55.000000
187.092270 55.000000
188.089770 14.000000
189.091230 14.000000
204.113570 1000.000000

>ms2peaks
56.041120 137.000000
56.047750 370.000000
77.032700 123.000000
77.040230 555.000000
77.759050 123.000000
84.062260 226.000000
94.065320 1000.000000
95.068790 137.000000
101.041380 308.000000
103.058290 116.000000
104.050190 171.000000
105.053050 158.000000
115.054310 137.000000
119.057210 425.000000
128.053390 240.000000
129.050920 158.000000
130.045940 123.000000
130.063250 308.000000
130.068790 130.000000
132.081800 473.000000
133.077160 123.000000
133.084900 185.000000
144.069270 130.000000
145.073350 486.000000
146.074720 123.000000
147.089870 171.000000
156.048110 158.000000
159.083940 329.000000
159.097900 370.000000
189.087720 144.000000

>ms2peaks
120.042790 1000.000000

>ms2peaks
56.050400 93.000000
56.518230 5.000000
58.068350 8.000000
69.051580 6.000000
77.041210 14.000000
83.060390 22.000000
83.068470 8.000000
85.066890 14.000000
85.076730 60.000000
85.083630 6.000000
91.059980 5.000000
94.062320 27.000000
94.066070 51.000000
95.070900 18.000000
96.541600 6.000000
101.070790 5.000000
104.048190 26.000000
106.064220 15.000000
111.054120 63.000000
112.059670 5.000000
118.062060 6.000000
119.068040 8.000000
120.035950 8.000000
134.060060 5.000000
142.066440 12.000000
145.049880 6.000000
145.084230 7.000000
146.059680 45.000000
147.094190 10.000000
157.084140 7.000000
158.063030 21.000000
158.088620 11.000000
159.087550 122.000000
159.096190 107.000000
160.066930 6.000000
160.092850 27.000000
160.101870 13.000000
172.063490 9.000000
173.054820 7.000000
173.073060 53.000000
174.067120 12.000000
176.108470 9.000000
185.066330 6.000000
187.067750 9.000000
187.078750 53.000000
187.088130 179.000000
188.087970 55.000000
188.102680 8.000000
189.087170 34.000000
190.088320 11.000000
203.435680 7.000000
204.087980 9.000000
204.113100 1000.000000

>ms2peaks
56.052850 5.000000
83.062500 13.000000
85.078400 18.000000
94.062860 9.000000
94.068660 13.000000
111.055110 18.000000
145.078630 8.000000
159.092320 76.000000
160.097430 10.000000
173.064910 15.000000
173.074130 18.000000
187.087550 98.000000
188.082660 7.000000
188.094800 16.000000
189.090090 24.000000
202.098420 5.000000
204.113950 1000.000000

>ms2peaks
56.050140 1000.000000
77.032270 188.000000
77.043060 164.000000
83.060130 312.000000
83.066000 227.000000
84.067990 133.000000
94.059930 148.000000
94.067520 969.000000
103.038470 156.000000
104.046650 898.000000
104.056970 156.000000
117.059350 852.000000
118.063130 805.000000
128.046780 336.000000
128.053270 602.000000
130.064160 484.000000
131.070100 141.000000
132.043430 156.000000
132.080640 547.000000
140.054840 172.000000
144.071700 258.000000
147.056470 164.000000
159.093080 289.000000
188.074360 422.000000
204.112640 219.000000

>ms2peaks
141.951170 1000.000000

>ms2peaks
56.044820 10.000000
56.052520 6.000000
57.058840 16.000000
58.066110 5.000000
83.060650 68.000000
84.073660 6.000000
85.073600 27.000000
85.080380 8.000000
94.060060 12.000000
94.066280 65.000000
94.072620 13.000000
104.050930 13.000000
111.045970 15.000000
111.057870 60.000000
115.053610 11.000000
117.054600 6.000000
118.063080 12.000000
128.048860 28.000000
129.045070 8.000000
129.059910 5.000000
132.081560 9.000000
145.076230 12.000000
145.082280 13.000000
146.060650 60.000000
146.068420 11.000000
146.081250 7.000000
147.061460 10.000000
158.059220 20.000000
159.073140 9.000000
159.087890 86.000000
159.096510 93.000000
160.080260 10.000000
160.094790 19.000000
160.301300 6.000000
170.084790 5.000000
173.073560 51.000000
187.083450 110.000000
187.105530 10.000000
188.081340 14.000000
188.090560 19.000000
189.082640 8.000000
189.094250 42.000000
189.103530 9.000000
190.088100 6.000000
193.775120 5.000000
204.089450 9.000000
204.114000 1000.000000

>ms2peaks
56.049580 7.000000
85.076130 9.000000
94.059330 5.000000
146.054290 7.000000
158.057980 7.000000
159.083540 26.000000
159.093900 42.000000
160.085740 5.000000
160.098650 10.000000
173.067200 17.000000
173.077560 9.000000
187.083980 62.000000
187.092650 39.000000
188.086230 7.000000
188.096130 7.000000
189.084520 6.000000
189.094100 10.000000
203.080860 11.000000
204.113130 1000.000000

>ms2peaks
56.041340 118.000000
56.047410 135.000000
58.061900 118.000000
77.040550 576.000000
83.061140 629.000000
84.067470 247.000000
91.052560 141.000000
92.049030 129.000000
94.068260 835.000000
95.070210 118.000000
101.042760 124.000000
104.049340 235.000000
104.055560 276.000000
105.055690 129.000000
115.055890 106.000000
118.063640 271.000000
118.069670 147.000000
128.050130 1000.000000
129.051280 241.000000
132.040710 135.000000
132.045750 100.000000
132.069020 306.000000
132.081680 341.000000
132.089520 241.000000
133.084840 141.000000
134.091830 229.000000
145.072970 100.000000
146.062880 176.000000
159.075180 129.000000
160.071950 235.000000
160.088040 294.000000
160.098420 106.000000
161.096370 271.000000
185.071440 106.000000
188.083850 100.000000
202.098250 124.000000
204.111240 271.000000

>ms2peaks
77.043530 1000.000000

>ms2peaks
56.047200 43.000000
56.053160 109.000000
59.061710 21.000000
77.042120 21.000000
83.060450 318.000000
84.067840 32.000000
85.031090 43.000000
85.077840 313.000000
94.058140 62.000000
94.066460 510.000000
103.055530 19.000000
104.045410 96.000000
104.054830 20.000000
106.064360 20.000000
111.055020 137.000000
111.064200 51.000000
114.722560 19.000000
118.061720 56.000000
119.058240 20.000000
120.042760 17.000000
120.069660 22.000000
122.053190 20.000000
128.042940 23.000000
128.052460 176.000000
129.047780 17.000000
130.061660 52.000000
130.067780 19.000000
132.049700 23.000000
132.079710 116.000000
133.075820 20.000000
136.495250 30.000000
140.047410 21.000000
144.051150 19.000000
144.072600 18.000000
145.076610 192.000000
146.055420 66.000000
146.064820 135.000000
146.250380 27.000000
147.059280 20.000000
151.511780 52.000000
155.058940 20.000000
157.054110 48.000000
158.061610 141.000000
158.083540 20.000000
159.086990 499.000000
159.095890 402.000000
160.090470 114.000000
161.061340 17.000000
169.065810 20.000000
169.075970 23.000000
169.084660 47.000000
170.069870 18.000000
171.052830 29.000000
173.072020 162.000000
174.067090 17.000000
175.073360 30.000000
177.102940 30.000000
177.117510 22.000000
187.082020 369.000000
187.090900 345.000000
188.086000 22.000000
188.096690 29.000000
189.080050 17.000000
189.090190 148.000000
190.097460 19.000000
191.094590 27.000000
196.305360 23.000000
199.261550 17.000000
203.064070 18.000000
203.097460 18.000000
204.112590 4703.000000
204.149720 50.000000
204.162690 33.000000

