>compound PR32053568
>parentmass 467.29043420000005
>ionization [M+H]+
>formula C28H38N2O4
>rt 178.666020
>profile qtof
#smiles_iso CC[C@H]1CN2CCC3=CC(=C(C=C3[C@@H]2C[C@@H]1C[C@@H]4C5=CC(=C(C=C5CCN4)O)OC)OC)OC
#smiles_can CCC1CN2CCC3=CC(=C(C=C3C2CC1CC4C5=CC(=C(C=C5CCN4)O)OC)OC)OC
#inchikey DTGZHCFJNDAHEN-OZEXIGSWSA-N
#pubchem_id 442195
#mb_accession PR300715,PR300724,PR300729,PR300734,PR300738,PR300743,PR300748,PR300753,PR300757

>ms2
95.077260 7.000000
104.058670 5.000000
131.054790 6.000000
151.082320 5.000000
158.110060 7.000000
160.085270 14.000000
163.066650 5.000000
163.080260 7.000000
165.074660 6.000000
165.101060 6.000000
176.092250 9.000000
177.079360 8.000000
177.096150 5.000000
179.100300 11.000000
180.101790 6.000000
185.901780 7.000000
189.094390 8.000000
190.080050 12.000000
190.085770 5.000000
192.105270 16.000000
199.147450 5.000000
202.109530 6.000000
203.104430 6.000000
205.106860 5.000000
205.117600 14.000000
206.106630 5.000000
211.107190 5.000000
214.118320 5.000000
220.135090 13.000000
229.106450 7.000000
231.059970 7.000000
244.126630 9.000000
246.119800 7.000000
246.135280 23.000000
246.152390 138.000000
247.150470 14.000000
247.165530 12.000000
248.154160 5.000000
249.164280 6.000000
254.128600 5.000000
256.149380 6.000000
257.094450 5.000000
258.154050 20.000000
259.152070 7.000000
259.163970 16.000000
260.156950 12.000000
262.164520 5.000000
270.146760 7.000000
270.189730 6.000000
272.156950 31.000000
272.170870 38.000000
273.159790 11.000000
273.176270 12.000000
274.163910 11.000000
274.181210 48.000000
274.197810 5.000000
285.168610 8.000000
301.199340 6.000000
302.733340 5.000000
303.202820 6.000000
379.142550 5.000000
379.200710 9.000000
422.236150 30.000000
435.228060 6.000000
439.256290 7.000000
439.277920 6.000000
449.253300 5.000000
450.184230 7.000000
450.258180 39.000000
450.280210 13.000000
451.257170 7.000000
451.269780 18.000000
465.266660 80.000000
465.290920 34.000000
466.280980 82.000000
466.300990 20.000000
466.993440 5.000000
467.206480 10.000000
467.234800 8.000000
467.292790 1000.000000
467.348790 5.000000

>ms2
93.069790 26.000000
128.060420 13.000000
131.048690 10.000000
136.107860 9.000000
137.061040 9.000000
146.079030 9.000000
150.061800 8.000000
151.075940 8.000000
152.076690 29.000000
160.105510 9.000000
163.075120 75.000000
164.061950 8.000000
164.078140 9.000000
165.083980 19.000000
165.090840 27.000000
175.068680 9.000000
177.072510 13.000000
177.104860 20.000000
178.086090 10.000000
178.094910 10.000000
179.098680 12.000000
180.092190 50.000000
180.106250 33.000000
181.104340 11.000000
184.689710 12.000000
189.083530 30.000000
189.097460 25.000000
189.112930 8.000000
191.097660 14.000000
191.103960 26.000000
192.094020 11.000000
192.105820 41.000000
193.115840 17.000000
203.081730 9.000000
203.111040 9.000000
204.097240 8.000000
204.110960 12.000000
205.113800 13.000000
206.105670 23.000000
206.115280 24.000000
206.122270 24.000000
207.939870 9.000000
208.137280 11.000000
212.110600 11.000000
214.129780 13.000000
217.103130 16.000000
217.127290 8.000000
220.130310 49.000000
228.111100 8.000000
230.124270 25.000000
241.158570 8.000000
242.148350 13.000000
243.116710 14.000000
243.137210 24.000000
244.135740 14.000000
245.159450 16.000000
246.080150 8.000000
246.121050 15.000000
246.149400 480.000000
247.143770 35.000000
247.156460 37.000000
247.163730 18.000000
247.182850 10.000000
248.174740 15.000000
254.116320 11.000000
256.128270 8.000000
257.139310 11.000000
257.156070 49.000000
258.148350 23.000000
258.162510 27.000000
259.155360 18.000000
260.168700 91.000000
272.165010 325.000000
273.162600 49.000000
273.170810 141.000000
274.165440 33.000000
274.180480 197.000000
275.107820 11.000000
275.177670 25.000000
275.192080 9.000000
276.185030 15.000000
281.195740 8.000000
284.158050 9.000000
286.177980 31.000000
286.189120 89.000000
287.187380 8.000000
288.196530 9.000000
297.105930 11.000000
303.173430 12.000000
315.715030 9.000000
342.459010 16.000000
378.183870 11.000000
382.232670 15.000000
392.170320 11.000000
420.214320 33.000000
422.209440 11.000000
422.222320 26.000000
422.236150 20.000000
422.265470 14.000000
423.247620 28.000000
433.232760 11.000000
435.228490 27.000000
435.244900 18.000000
435.266750 15.000000
438.249240 8.000000
448.239500 8.000000
450.257080 90.000000
450.276430 87.000000
451.068300 12.000000
451.238070 8.000000
451.256650 23.000000
452.229580 15.000000
452.287230 8.000000
454.036040 8.000000
465.254270 8.000000
465.272830 50.000000
465.293950 9.000000
466.270360 19.000000
467.294190 1000.000000

>ms2
55.054150 65.000000
82.006490 82.000000
82.068340 77.000000
84.086080 42.000000
95.085360 42.000000
108.084970 49.000000
108.454880 65.000000
110.092810 42.000000
116.060940 117.000000
117.076340 58.000000
120.086180 42.000000
121.068030 54.000000
122.095160 44.000000
124.055530 47.000000
130.073550 54.000000
131.041530 133.000000
131.052780 214.000000
133.059160 170.000000
135.078410 51.000000
137.061610 40.000000
143.081470 47.000000
145.063660 63.000000
147.054500 44.000000
147.064450 58.000000
147.079500 152.000000
148.078540 70.000000
148.840850 63.000000
150.068500 84.000000
151.066540 56.000000
151.076640 601.000000
152.082000 56.000000
155.091670 47.000000
159.030640 44.000000
160.074510 121.000000
160.084240 91.000000
161.057590 47.000000
161.080080 138.000000
161.087630 172.000000
161.096680 40.000000
162.050090 100.000000
162.090300 44.000000
163.060750 40.000000
163.077580 51.000000
172.088650 56.000000
174.063160 49.000000
175.093810 112.000000
175.104140 40.000000
176.070500 177.000000
176.080600 161.000000
176.089520 117.000000
176.111880 82.000000
177.047970 65.000000
177.068620 70.000000
177.078800 63.000000
177.087550 56.000000
178.082630 75.000000
178.104840 154.000000
183.108470 47.000000
185.123810 47.000000
186.121170 42.000000
187.080090 54.000000
188.083860 58.000000
189.071400 58.000000
189.088910 172.000000
189.108600 77.000000
190.084290 650.000000
191.090000 445.000000
192.076640 42.000000
192.101170 189.000000
193.104810 117.000000
199.254090 86.000000
200.095120 75.000000
200.105990 119.000000
201.115780 68.000000
202.078520 68.000000
202.088270 49.000000
202.115400 49.000000
202.123930 63.000000
203.088030 86.000000
203.105530 56.000000
203.123150 77.000000
204.109790 47.000000
205.103160 138.000000
205.115920 172.000000
206.122480 42.000000
207.120360 63.000000
211.111250 42.000000
211.149080 89.000000
214.083530 49.000000
215.103030 47.000000
216.100110 163.000000
217.143430 58.000000
218.079590 84.000000
218.120770 133.000000
219.132640 119.000000
226.101010 63.000000
227.077100 70.000000
228.092680 58.000000
228.110000 100.000000
229.095670 105.000000
229.113080 128.000000
230.120010 545.000000
230.134030 44.000000
231.103060 70.000000
231.127880 135.000000
232.177120 82.000000
241.087770 42.000000
241.125320 61.000000
242.096850 93.000000
242.117810 270.000000
242.154280 47.000000
243.121510 47.000000
243.130740 68.000000
244.112370 79.000000
244.126300 233.000000
245.143830 58.000000
246.131790 203.000000
246.149190 1000.000000
247.136700 54.000000
247.150380 93.000000
248.145290 54.000000
256.092160 42.000000
256.129460 324.000000
256.139100 287.000000
257.133910 196.000000
257.147490 133.000000
258.155850 301.000000
259.153020 79.000000
261.163330 98.000000
266.126800 40.000000
270.140010 42.000000
272.159330 128.000000
272.168640 133.000000
273.171970 54.000000
274.168060 93.000000
274.185910 149.000000
274.193630 54.000000
275.185330 47.000000
277.119780 47.000000
282.138790 103.000000
285.171050 56.000000
288.207370 40.000000
299.183110 56.000000
300.497250 72.000000
378.164920 44.000000
386.562320 42.000000
392.213530 63.000000
404.189820 56.000000
420.216490 70.000000
421.228520 61.000000
422.203580 77.000000
422.222750 47.000000
423.230560 42.000000
434.217800 49.000000

>ms2
93.071970 25.000000
131.049390 12.000000
135.073960 12.000000
147.068410 9.000000
150.063220 13.000000
151.072830 10.000000
157.059370 10.000000
160.091550 9.000000
162.085690 11.000000
163.088090 10.000000
165.091830 17.000000
174.066120 12.000000
176.093810 11.000000
177.087460 10.000000
179.089160 11.000000
179.106670 36.000000
180.110780 31.000000
181.098430 25.000000
181.113020 10.000000
185.095410 9.000000
190.089130 28.000000
191.088640 9.000000
191.099080 24.000000
192.094130 12.000000
192.103580 32.000000
192.112630 10.000000
193.125960 32.000000
194.117690 28.000000
202.096510 30.000000
203.102860 11.000000
205.106860 10.000000
206.111880 40.000000
206.127870 11.000000
214.122210 12.000000
216.113850 24.000000
217.119190 13.000000
225.776540 10.000000
227.138030 19.000000
230.123570 16.000000
240.103850 9.000000
243.139760 13.000000
244.099500 17.000000
244.131420 39.000000
245.132350 9.000000
246.107250 13.000000
246.117740 9.000000
246.143020 60.000000
246.154010 168.000000
246.872670 9.000000
247.154800 9.000000
257.145170 33.000000
258.135380 9.000000
258.151790 20.000000
258.165250 12.000000
259.109040 11.000000
259.142730 20.000000
260.144900 29.000000
260.164550 61.000000
272.162050 83.000000
273.170170 85.000000
273.180050 60.000000
274.180570 140.000000
275.176120 29.000000
275.194980 22.000000
282.948580 9.000000
283.050170 12.000000
285.168120 15.000000
286.193050 19.000000
288.195070 14.000000
290.340480 8.000000
298.166440 23.000000
298.184910 11.000000
298.196110 8.000000
298.343480 9.000000
300.181580 9.000000
300.195620 12.000000
301.830630 25.000000
309.441220 13.000000
395.209380 13.000000
401.343080 11.000000
420.198730 9.000000
422.190120 14.000000
422.237670 17.000000
426.270080 10.000000
435.261960 12.000000
437.245880 10.000000
450.240660 12.000000
450.271180 53.000000
451.255310 9.000000
451.269500 15.000000
452.226170 13.000000
463.005860 8.000000
465.236300 8.000000
465.255550 25.000000
465.277070 58.000000
465.293090 34.000000
465.501310 10.000000
466.223390 15.000000
466.268220 78.000000
466.302430 143.000000
466.874690 11.000000
466.931790 9.000000
467.162690 18.000000
467.275970 606.000000
467.297940 1000.000000
467.339900 9.000000

>ms2
465.261960 32.000000
465.277830 55.000000
466.275970 87.000000
467.195620 6.000000
467.234130 6.000000
467.290920 1000.000000

>ms2
72.080760 9.000000
82.065270 18.000000
84.081360 20.000000
95.086410 9.000000
118.061300 13.000000
131.080000 18.000000
136.437100 11.000000
138.842410 12.000000
150.069730 12.000000
151.068920 11.000000
151.078290 15.000000
152.079970 11.000000
156.673720 14.000000
160.094070 17.000000
161.097720 16.000000
163.067920 36.000000
163.079320 9.000000
165.085490 22.000000
165.094830 37.000000
166.083180 23.000000
174.070980 22.000000
174.094300 30.000000
175.069380 26.000000
176.086580 11.000000
177.104710 20.000000
178.072680 29.000000
178.098360 26.000000
180.094670 35.000000
180.105870 75.000000
180.116620 11.000000
181.105900 27.000000
189.096040 9.000000
190.090740 23.000000
191.096760 12.000000
191.108690 76.000000
192.088070 12.000000
192.101140 18.000000
192.109650 24.000000
193.104020 13.000000
193.135330 11.000000
194.117870 29.000000
198.095080 13.000000
199.095570 11.000000
200.119310 11.000000
203.093550 10.000000
204.105910 27.000000
204.191130 13.000000
206.118210 47.000000
207.108900 11.000000
211.104400 10.000000
213.082170 13.000000
214.124270 13.000000
217.121800 9.000000
220.134480 10.000000
220.148900 26.000000
221.661130 25.000000
226.144300 11.000000
228.116880 18.000000
229.124040 16.000000
230.108430 13.000000
230.122060 25.000000
233.140750 15.000000
243.120770 16.000000
243.131960 11.000000
244.123400 16.000000
244.142640 16.000000
245.141390 9.000000
246.099000 18.000000
246.130110 52.000000
246.140670 208.000000
246.152470 383.000000
247.157300 214.000000
247.440830 9.000000
248.147230 13.000000
248.167760 11.000000
248.642720 9.000000
256.137020 13.000000
257.152800 11.000000
258.150540 128.000000
259.144650 13.000000
259.170500 9.000000
260.159940 66.000000
260.180510 11.000000
260.844360 10.000000
261.156560 11.000000
262.177920 11.000000
270.148860 15.000000
272.162450 158.000000
272.176030 45.000000
272.389920 9.000000
273.154420 16.000000
273.172940 146.000000
274.176090 109.000000
274.187290 119.000000
275.171360 11.000000
275.185910 50.000000
275.199250 10.000000
276.168580 17.000000
285.158080 20.000000
286.162780 10.000000
286.174100 20.000000
286.187350 17.000000
286.196410 15.000000
288.200010 57.000000
295.272430 9.000000
298.178010 13.000000
300.187930 15.000000
300.208980 29.000000
323.228120 11.000000
339.159000 16.000000
364.167110 11.000000
393.199950 11.000000
408.236540 11.000000
420.229860 9.000000
421.265840 11.000000
422.227480 69.000000
422.253780 15.000000
423.232820 25.000000
424.259670 13.000000
425.236510 18.000000
435.244420 12.000000
436.268980 14.000000
437.236390 11.000000
439.249910 16.000000
449.263670 59.000000
450.132020 12.000000
450.251310 61.000000
450.269350 221.000000
451.253110 102.000000
451.280300 25.000000
452.270360 11.000000
453.271670 11.000000
465.401670 10.000000
465.644990 13.000000
466.267240 11.000000
467.213100 69.000000
467.249730 52.000000
467.286770 1000.000000
467.304200 266.000000
467.326080 26.000000

>ms2
69.034240 67.000000
70.072120 62.000000
79.057940 62.000000
94.066480 40.000000
95.052870 49.000000
95.085400 40.000000
104.058500 51.000000
105.073850 116.000000
117.069830 69.000000
118.066830 65.000000
118.080520 62.000000
119.056490 116.000000
120.041950 49.000000
120.051520 76.000000
121.062190 33.000000
121.068680 80.000000
130.062580 73.000000
130.079650 67.000000
131.043430 78.000000
131.050280 91.000000
133.068250 73.000000
134.031480 47.000000
135.066210 38.000000
135.078510 274.000000
135.084350 129.000000
137.465480 71.000000
139.411960 69.000000
143.049900 145.000000
143.075010 73.000000
144.033650 60.000000
146.059250 40.000000
146.084700 53.000000
147.074400 53.000000
147.082600 60.000000
148.069950 45.000000
148.081180 102.000000
149.059950 98.000000
150.059770 125.000000
150.071380 209.000000
151.053970 47.000000
151.073150 234.000000
152.078660 60.000000
153.067580 107.000000
156.079620 62.000000
158.064440 49.000000
159.084170 116.000000
160.054200 111.000000
160.082950 71.000000
160.092740 189.000000
161.051420 67.000000
161.060200 49.000000
161.081480 91.000000
161.088880 38.000000
162.069320 45.000000
163.063460 129.000000
163.074050 69.000000
164.083220 187.000000
165.067210 62.000000
165.079210 53.000000
165.091550 303.000000
165.102810 87.000000
174.062880 62.000000
174.091670 45.000000
176.077880 89.000000
176.088410 38.000000
177.072340 58.000000
177.082240 236.000000
177.097700 69.000000
178.084430 45.000000
178.096340 122.000000
179.104680 73.000000
180.097270 45.000000
181.228880 71.000000
185.085010 49.000000
185.111820 56.000000
185.124300 138.000000
186.092770 53.000000
186.116350 47.000000
187.071380 62.000000
187.101720 98.000000
188.085360 167.000000
189.090120 53.000000
189.098850 143.000000
190.077300 425.000000
190.088930 249.000000
191.095930 143.000000
192.069580 209.000000
192.099880 479.000000
192.110180 183.000000
192.118300 87.000000
198.106490 67.000000
200.100750 80.000000
200.147800 38.000000
201.108890 151.000000
202.089340 51.000000
202.123150 185.000000
204.091420 45.000000
205.111890 341.000000
206.026600 49.000000
206.105830 102.000000
206.114230 56.000000
209.067690 73.000000
209.254320 80.000000
211.136030 45.000000
212.100160 78.000000
213.084900 47.000000
213.156630 62.000000
214.090530 40.000000
215.144990 42.000000
216.055390 38.000000
218.116150 98.000000
228.111390 80.000000
228.145750 45.000000
229.136600 65.000000
229.149600 91.000000
230.110080 278.000000
230.118700 499.000000
230.156570 47.000000
231.121780 171.000000
231.132450 388.000000
232.093780 49.000000
232.131440 47.000000
234.153210 96.000000
241.150420 56.000000
242.120560 140.000000
243.107350 38.000000
244.100970 107.000000
244.137300 192.000000
245.134430 47.000000
245.156600 51.000000
246.132660 151.000000
246.152920 1000.000000
247.150380 58.000000
247.159870 62.000000
254.096240 40.000000
254.114110 60.000000
254.121700 73.000000
254.157150 71.000000
256.131810 459.000000
257.130430 40.000000
257.143520 40.000000
257.154240 51.000000
258.155360 160.000000
258.171910 67.000000
259.160430 51.000000
260.158810 38.000000
261.189580 42.000000
266.120360 49.000000
270.139190 62.000000
272.151860 51.000000
272.160800 136.000000
272.172300 102.000000
272.182950 47.000000
273.159180 67.000000
273.172580 85.000000
273.261230 56.000000
274.177190 352.000000
284.168030 38.000000
286.192110 40.000000
288.192290 65.000000
289.196690 134.000000
296.123600 87.000000
298.183720 122.000000
310.126370 76.000000
314.886380 45.000000
351.147640 56.000000
351.161010 38.000000
374.202060 58.000000
379.180480 38.000000
402.203310 53.000000
414.178280 40.000000
420.186920 65.000000
432.227390 40.000000
435.554350 40.000000

>ms2
99.827870 7.000000
150.067230 10.000000
157.065720 14.000000
162.094770 10.000000
163.078060 13.000000
165.073320 6.000000
165.093700 6.000000
166.094280 20.000000
175.103040 7.000000
176.076490 6.000000
176.088390 28.000000
177.087650 17.000000
178.103230 6.000000
179.111630 9.000000
180.099820 10.000000
181.106490 8.000000
187.065410 8.000000
189.091810 7.000000
191.087810 22.000000
191.098820 13.000000
192.092320 9.000000
193.109470 6.000000
205.109760 19.000000
206.118060 8.000000
211.108340 6.000000
214.094940 12.000000
214.125110 7.000000
220.140340 7.000000
221.515790 7.000000
232.132780 13.000000
242.101200 12.000000
243.132460 13.000000
243.824600 8.000000
244.144870 6.000000
246.128040 7.000000
246.140850 32.000000
246.148900 114.000000
246.166670 15.000000
247.148700 13.000000
256.119660 8.000000
256.133700 9.000000
257.159820 7.000000
258.147860 13.000000
258.157750 14.000000
260.167270 21.000000
262.174680 8.000000
271.166960 12.000000
272.113650 7.000000
272.165990 32.000000
273.152470 15.000000
273.171260 42.000000
274.151310 7.000000
274.164760 6.000000
274.179440 51.000000
274.189360 22.000000
275.187870 17.000000
286.188630 18.000000
288.197510 7.000000
290.428500 8.000000
299.180110 8.000000
320.337680 6.000000
348.361270 11.000000
391.446470 7.000000
393.625520 6.000000
395.996800 6.000000
422.235440 23.000000
423.248750 8.000000
434.232640 8.000000
435.196930 6.000000
436.244420 7.000000
437.248660 7.000000
437.822600 7.000000
450.258180 6.000000
450.288570 9.000000
451.065980 7.000000
451.282230 7.000000
465.220210 11.000000
465.265140 69.000000
465.297970 17.000000
466.238040 10.000000
466.276340 104.000000
466.299470 12.000000
467.170500 8.000000
467.247340 15.000000
467.290620 1000.000000

>ms2
241.249770 5.000000
465.224030 5.000000
465.257480 35.000000
465.276700 80.000000
466.242430 5.000000
466.277530 108.000000
467.241760 10.000000
467.290830 1000.000000

