>compound PR32820937
>parentmass 481.3060841999998
>ionization [M+H]+
>formula C29H40N2O4
>rt 204.730980
>profile qtof
#smiles_iso CC[C@H]1CN2CCC3=CC(=C(C=C3[C@@H]2C[C@@H]1C[C@@H]4C5=CC(=C(C=C5CCN4)OC)OC)OC)OC
#smiles_can CCC1CN2CCC3=CC(=C(C=C3C2CC1CC4C5=CC(=C(C=C5CCN4)OC)OC)OC)OC
#inchikey AUVVAXYIELKVAI-CKBKHPSWSA-N
#pubchem_id 10219
#mb_accession PR300441,PR300445,PR300448,PR300452,PR300456,PR300460,PR300464,PR300468,PR300472,PR300476,PR300480,PR300484

>ms2peaks
68.055390 6.000000
141.065050 11.000000
161.090210 5.000000
164.073840 6.000000
165.088850 8.000000
177.083970 22.000000
177.093770 17.000000
178.095340 5.000000
179.105770 10.000000
189.096410 12.000000
191.095890 10.000000
191.106840 15.000000
192.105000 55.000000
195.125170 6.000000
203.105530 16.000000
204.102970 7.000000
205.111040 17.000000
206.107530 10.000000
206.119690 10.000000
219.132920 7.000000
226.144260 6.000000
230.115360 6.000000
240.146450 8.000000
244.136350 9.000000
246.151020 131.000000
247.144360 15.000000
247.155550 6.000000
247.167110 5.000000
259.178040 6.000000
270.096770 6.000000
272.158940 45.000000
272.174770 16.000000
273.159420 17.000000
274.180510 103.000000
275.197940 9.000000
286.169280 8.000000
300.197050 16.000000
304.139250 6.000000
395.239690 7.000000
434.245270 9.000000
436.216800 5.000000
436.255980 15.000000
447.238650 7.000000
452.293370 5.000000
455.805390 6.000000
464.272640 57.000000
464.297060 10.000000
465.256200 10.000000
465.276340 10.000000
465.302000 10.000000
466.252590 5.000000
466.280640 14.000000
479.288060 35.000000
480.288120 20.000000
481.255830 16.000000
481.307950 1000.000000

>ms2peaks
479.283970 16.000000
479.303710 7.000000
480.287810 25.000000
481.242340 7.000000
481.305880 1000.000000

>ms2peaks
146.055190 7.000000
146.688800 5.000000
147.067730 13.000000
151.074830 7.000000
160.069920 8.000000
161.083340 9.000000
162.095570 22.000000
164.431370 7.000000
165.091020 98.000000
165.520190 11.000000
166.096420 6.000000
167.112760 9.000000
174.062210 13.000000
176.083390 10.000000
177.090350 60.000000
177.103090 8.000000
179.032230 11.000000
179.109450 67.000000
179.117780 16.000000
180.112460 8.000000
181.722720 10.000000
187.018460 5.000000
189.088320 28.000000
191.100460 22.000000
191.108380 54.000000
192.083070 7.000000
192.101470 133.000000
192.115460 12.000000
193.103100 28.000000
193.125120 7.000000
194.116130 78.000000
194.125610 35.000000
195.122800 12.000000
197.144700 10.000000
198.088580 10.000000
202.079990 8.000000
202.105470 7.000000
203.117750 26.000000
204.096310 19.000000
204.108920 5.000000
205.104490 11.000000
205.118740 9.000000
206.115360 46.000000
206.131420 16.000000
207.116790 6.000000
207.131180 7.000000
210.237170 11.000000
212.105550 10.000000
214.136570 5.000000
217.122090 9.000000
219.122630 8.000000
220.132480 23.000000
222.151370 9.000000
227.109570 6.000000
228.102620 9.000000
229.109740 11.000000
232.137450 18.000000
235.478160 7.000000
240.144320 6.000000
240.154460 6.000000
242.112000 5.000000
242.140790 7.000000
243.170320 12.000000
244.143130 21.000000
246.097240 8.000000
246.114230 17.000000
246.149720 505.000000
247.096390 8.000000
247.127030 6.000000
247.147740 77.000000
247.287000 7.000000
248.151210 8.000000
248.158290 17.000000
248.171890 8.000000
249.147860 7.000000
251.260710 6.000000
254.136960 10.000000
257.145360 14.000000
257.167020 13.000000
258.148650 6.000000
268.132900 6.000000
269.165920 13.000000
270.132390 19.000000
271.181340 6.000000
271.956240 5.000000
272.141880 5.000000
272.170290 118.000000
273.152890 21.000000
273.168580 76.000000
274.177400 327.000000
274.191770 81.000000
275.001250 6.000000
275.183170 43.000000
275.544740 7.000000
284.167970 7.000000
286.154660 6.000000
286.177890 29.000000
287.178830 6.000000
288.182530 6.000000
288.204500 8.000000
298.179200 6.000000
299.165160 9.000000
300.186460 8.000000
300.199370 13.000000
302.225590 9.000000
302.540130 7.000000
302.675380 7.000000
303.202360 11.000000
303.213470 11.000000
304.944000 5.000000
310.117250 6.000000
324.155880 8.000000
375.198060 6.000000
376.182070 5.000000
404.219390 9.000000
404.239110 10.000000
418.210780 10.000000
419.266910 8.000000
423.259830 9.000000
434.222290 19.000000
435.240330 9.000000
436.245420 11.000000
437.242100 7.000000
439.243190 12.000000
448.253660 13.000000
451.262510 5.000000
462.256840 21.000000
464.176820 9.000000
464.221620 7.000000
464.238530 8.000000
464.279790 195.000000
465.263340 32.000000
465.287510 81.000000
465.818150 8.000000
466.255460 6.000000
466.288790 31.000000
467.281010 7.000000
479.261170 7.000000
479.288540 24.000000
479.314000 10.000000
480.281680 17.000000
480.313170 7.000000
481.098330 5.000000
481.228490 6.000000
481.255310 13.000000
481.307340 1000.000000
481.325440 261.000000

>ms2peaks
99.508230 27.000000
105.070840 104.000000
116.063670 23.000000
121.069320 25.000000
122.069530 117.000000
129.069900 52.000000
129.199260 27.000000
130.065410 33.000000
131.066830 27.000000
131.076840 25.000000
131.369130 34.000000
132.054340 25.000000
133.066740 79.000000
134.037140 33.000000
134.060070 27.000000
134.068220 61.000000
136.030140 23.000000
136.085530 60.000000
143.095520 29.000000
145.065920 60.000000
146.074580 153.000000
146.086550 90.000000
147.065890 76.000000
147.075960 31.000000
147.084820 34.000000
147.173370 22.000000
148.060820 41.000000
148.083280 36.000000
148.099560 45.000000
149.041230 46.000000
150.059390 57.000000
150.072240 122.000000
151.058720 31.000000
151.067900 36.000000
151.076290 34.000000
157.061480 31.000000
157.086200 28.000000
158.054020 28.000000
158.380810 32.000000
159.038590 34.000000
159.045440 39.000000
159.062880 43.000000
159.074830 98.000000
160.075550 111.000000
160.091610 205.000000
161.062730 52.000000
161.074310 25.000000
161.086070 38.000000
161.100300 62.000000
162.066850 25.000000
162.076980 25.000000
162.092320 55.000000
163.059970 27.000000
163.077650 64.000000
164.081280 25.000000
165.084030 273.000000
165.093860 350.000000
166.085890 37.000000
166.097950 24.000000
167.087690 45.000000
168.082470 31.000000
172.082110 46.000000
172.912520 22.000000
173.082380 28.000000
173.092990 56.000000
174.064540 51.000000
174.073790 51.000000
174.097440 103.000000
174.104550 36.000000
175.074510 37.000000
176.008180 64.000000
176.068590 66.000000
176.077040 57.000000
176.092090 62.000000
177.086670 169.000000
177.093110 255.000000
178.075420 45.000000
178.085920 54.000000
178.096160 138.000000
179.099090 54.000000
179.109860 47.000000
185.085040 38.000000
185.098540 29.000000
185.115550 54.000000
185.121990 73.000000
186.094360 101.000000
188.081420 25.000000
189.074070 52.000000
189.086300 153.000000
189.102010 33.000000
190.084090 227.000000
190.091600 166.000000
190.099610 70.000000
190.110350 25.000000
191.084690 73.000000
191.097400 89.000000
191.120790 23.000000
192.077970 36.000000
192.102630 220.000000
193.109070 70.000000
194.117830 34.000000
195.245470 28.000000
198.090010 79.000000
198.103030 140.000000
198.114110 31.000000
199.075300 22.000000
199.083210 27.000000
199.106950 24.000000
199.136750 23.000000
200.124500 25.000000
201.084850 75.000000
201.115940 31.000000
202.080400 22.000000
202.109570 22.000000
202.122600 74.000000
202.153290 22.000000
203.095050 38.000000
203.103610 47.000000
204.091890 23.000000
204.101850 61.000000
205.107890 318.000000
205.238860 41.000000
206.115450 60.000000
209.019330 27.000000
211.094600 31.000000
211.106110 32.000000
212.119960 25.000000
214.113590 43.000000
214.123790 134.000000
214.140110 27.000000
215.116790 38.000000
216.088850 50.000000
216.100020 29.000000
218.126140 29.000000
220.122940 28.000000
220.142180 32.000000
226.111800 32.000000
226.127850 47.000000
227.087050 25.000000
228.095720 29.000000
230.119400 1000.000000
231.111970 52.000000
231.129490 292.000000
231.150500 24.000000
231.773250 24.000000
232.105240 31.000000
232.133000 60.000000
232.141040 28.000000
240.098750 29.000000
240.117750 22.000000
242.119930 22.000000
242.155670 59.000000
243.117280 33.000000
244.132130 103.000000
244.142440 45.000000
245.126500 33.000000
245.149150 25.000000
246.138020 196.000000
246.151820 610.000000
246.170620 27.000000
246.530320 22.000000
247.127490 23.000000
247.149930 154.000000
247.174210 23.000000
248.158310 25.000000
252.136400 42.000000
252.485870 37.000000
254.112080 28.000000
255.128010 32.000000
256.139500 209.000000
257.122280 25.000000
257.145630 45.000000
257.170410 27.000000
258.127230 28.000000
258.141910 116.000000
258.165740 23.000000
270.161930 46.000000
271.151000 87.000000
271.163640 37.000000
271.562960 25.000000
271.901890 31.000000
272.164980 433.000000
272.176610 265.000000
273.169740 102.000000
274.149930 62.000000
274.167450 70.000000
274.185360 355.000000
282.126890 24.000000
284.182590 46.000000
285.146060 25.000000
286.182070 129.000000
288.192840 36.000000
296.165010 29.000000
298.187130 28.000000
362.179110 31.000000
376.195800 28.000000
388.200470 43.000000
392.177580 29.000000
404.218750 25.000000
404.230990 33.000000
405.250240 31.000000
418.217740 29.000000
418.244140 33.000000
435.240230 37.000000
436.232790 25.000000
436.255100 34.000000
444.254760 69.000000
447.270540 39.000000
448.257690 29.000000
448.270840 25.000000
466.289030 46.000000

>ms2peaks
162.093200 8.000000
165.094590 27.000000
179.107620 8.000000
190.080800 8.000000
191.106890 17.000000
192.096040 10.000000
192.104480 33.000000
194.110020 6.000000
194.121280 16.000000
201.091000 6.000000
204.099720 8.000000
205.109330 8.000000
206.112150 7.000000
228.106830 6.000000
230.119660 5.000000
240.136580 7.000000
244.134580 12.000000
246.149460 163.000000
247.154770 15.000000
256.133390 5.000000
258.145390 10.000000
258.165410 7.000000
270.147520 7.000000
272.167390 28.000000
274.162660 8.000000
274.177220 37.000000
274.190700 16.000000
275.182250 18.000000
276.112180 6.000000
300.172120 6.000000
355.115300 6.000000
422.236880 6.000000
436.244690 5.000000
448.262420 7.000000
464.270450 13.000000
464.282200 8.000000
465.287320 26.000000
479.280700 10.000000
479.296360 15.000000
480.300290 9.000000
481.220400 6.000000
481.263340 17.000000
481.305420 1000.000000

>ms2peaks
479.300900 12.000000
480.284880 25.000000
481.220430 5.000000
481.245330 11.000000
481.257750 13.000000
481.306700 1000.000000

>ms2peaks
84.082370 7.000000
124.120010 13.000000
146.065310 10.000000
147.067920 7.000000
147.080370 7.000000
150.083370 6.000000
151.075010 10.000000
151.082610 9.000000
153.090260 7.000000
160.091490 6.000000
162.086350 20.000000
164.085110 8.000000
165.086690 15.000000
165.097700 13.000000
165.758940 7.000000
166.092090 14.000000
168.980040 11.000000
169.124270 10.000000
170.334090 6.000000
174.046740 10.000000
176.100690 15.000000
177.078900 5.000000
177.091490 65.000000
178.098790 18.000000
179.102310 47.000000
180.117580 8.000000
189.091280 15.000000
189.101590 7.000000
190.074540 7.000000
190.097270 12.000000
191.085940 12.000000
191.107830 19.000000
191.117000 25.000000
192.095930 58.000000
192.104780 58.000000
192.116710 9.000000
193.093690 5.000000
193.101820 10.000000
193.121510 12.000000
193.807370 6.000000
194.116240 137.000000
194.136000 7.000000
195.120290 9.000000
195.133000 11.000000
201.089190 12.000000
202.090580 9.000000
203.102340 12.000000
204.095960 12.000000
205.110170 24.000000
206.108540 22.000000
206.118590 15.000000
207.112960 6.000000
210.151350 6.000000
210.421830 6.000000
213.897290 7.000000
214.625980 7.000000
215.116320 6.000000
217.130950 10.000000
218.113140 21.000000
218.124730 7.000000
219.144560 5.000000
220.132890 20.000000
220.146090 6.000000
221.117660 5.000000
221.142290 6.000000
222.147400 7.000000
223.140610 7.000000
223.162890 8.000000
226.139430 10.000000
230.118560 8.000000
230.129290 6.000000
231.126560 14.000000
233.142030 8.000000
242.125870 7.000000
243.120320 15.000000
243.133880 15.000000
244.142680 20.000000
245.159030 7.000000
246.148900 588.000000
246.252040 6.000000
247.152050 93.000000
247.160800 26.000000
248.162980 7.000000
249.160720 12.000000
251.702100 5.000000
257.149200 22.000000
257.168790 7.000000
258.151150 11.000000
259.145320 9.000000
260.157620 7.000000
270.148440 6.000000
270.465940 14.000000
271.730930 6.000000
272.162720 185.000000
273.165860 34.000000
273.185330 7.000000
273.982270 7.000000
274.145600 10.000000
274.170900 90.000000
274.181460 299.000000
274.216490 6.000000
275.181850 51.000000
276.168000 13.000000
276.196290 11.000000
277.208800 8.000000
285.157470 8.000000
285.606660 5.000000
286.156650 8.000000
286.176090 34.000000
286.190980 14.000000
288.185210 11.000000
288.203220 17.000000
290.194670 7.000000
295.135590 7.000000
296.156040 8.000000
300.203060 34.000000
301.206210 7.000000
303.215610 6.000000
306.118740 13.000000
351.171300 7.000000
382.191770 8.000000
386.258820 6.000000
388.842040 8.000000
392.178380 8.000000
400.251130 6.000000
403.239010 8.000000
409.175630 5.000000
409.241610 6.000000
419.210780 5.000000
420.284700 7.000000
430.251400 12.000000
433.266300 17.000000
435.248410 12.000000
436.226960 7.000000
436.252560 16.000000
437.257780 8.000000
446.225860 7.000000
448.222440 6.000000
448.248260 14.000000
449.264010 26.000000
450.281220 7.000000
451.245300 8.000000
451.274080 5.000000
455.259460 6.000000
462.263520 7.000000
462.278780 7.000000
463.282140 7.000000
464.226230 7.000000
464.272030 144.000000
464.291630 192.000000
464.892610 7.000000
465.224880 5.000000
465.284520 69.000000
466.280150 15.000000
466.295780 9.000000
466.359590 5.000000
479.289610 27.000000
479.309050 34.000000
480.290340 18.000000
481.233580 10.000000
481.261960 68.000000
481.307740 1000.000000

>ms2peaks
80.044560 26.000000
82.064980 36.000000
103.053960 44.000000
105.070010 49.000000
117.059820 29.000000
117.068540 26.000000
118.050480 32.000000
121.063550 64.000000
121.072380 61.000000
123.084560 48.000000
127.057270 20.000000
129.069550 23.000000
130.065670 32.000000
130.076920 31.000000
131.051820 23.000000
131.069460 20.000000
131.076780 46.000000
132.037140 24.000000
133.075440 19.000000
135.079850 35.000000
135.101910 26.000000
137.047790 23.000000
138.059490 23.000000
144.061250 35.000000
146.031230 39.000000
146.057370 45.000000
146.072890 64.000000
147.063000 71.000000
147.074920 77.000000
148.062700 30.000000
148.073120 47.000000
148.089320 29.000000
149.059940 85.000000
149.095630 31.000000
150.059250 58.000000
150.069350 124.000000
151.075620 97.000000
152.071010 19.000000
155.083880 32.000000
157.057240 20.000000
158.073550 18.000000
159.059540 64.000000
159.069000 20.000000
159.076130 22.000000
159.083860 28.000000
160.067980 19.000000
160.077150 20.000000
160.088610 59.000000
160.123460 19.000000
161.041400 19.000000
161.054700 26.000000
161.085070 130.000000
162.063280 30.000000
162.086880 95.000000
163.087270 42.000000
163.101070 73.000000
164.079270 31.000000
165.089970 543.000000
165.100140 91.000000
168.654660 40.000000
168.739230 18.000000
171.076370 23.000000
172.088760 18.000000
174.054810 19.000000
174.067870 104.000000
175.060560 52.000000
175.072450 44.000000
175.103680 27.000000
176.070880 41.000000
176.079830 146.000000
176.089310 67.000000
176.134090 30.000000
177.070660 82.000000
177.079440 163.000000
177.086730 155.000000
177.093720 133.000000
178.083890 31.000000
178.099980 55.000000
179.100890 81.000000
179.117430 30.000000
183.081510 19.000000
185.100450 46.000000
185.115100 111.000000
186.126800 30.000000
187.063480 21.000000
189.078520 26.000000
189.088940 31.000000
189.097000 44.000000
190.086610 347.000000
190.118900 26.000000
191.093260 140.000000
191.111850 43.000000
192.084780 20.000000
192.099150 211.000000
192.110870 126.000000
193.100390 19.000000
194.128480 19.000000
198.096510 18.000000
199.107600 72.000000
199.115620 37.000000
201.090560 59.000000
201.102510 53.000000
202.096180 49.000000
202.103840 36.000000
202.123540 228.000000
203.968630 23.000000
204.101430 29.000000
205.107640 234.000000
205.121860 141.000000
205.327470 17.000000
206.110520 32.000000
206.119250 45.000000
207.114330 20.000000
211.095500 19.000000
211.138570 30.000000
212.070240 28.000000
213.104340 24.000000
214.093930 62.000000
214.115110 49.000000
215.104840 18.000000
218.068890 20.000000
218.123250 17.000000
219.097690 21.000000
226.120800 19.000000
226.138790 44.000000
228.098980 46.000000
228.111470 19.000000
228.145230 31.000000
229.108170 40.000000
229.282000 51.000000
230.074070 49.000000
230.119890 534.000000
230.158980 33.000000
231.099400 18.000000
231.118850 96.000000
231.127400 178.000000
231.140790 22.000000
232.121540 17.000000
232.135420 21.000000
233.147930 30.000000
239.132420 26.000000
240.107680 19.000000
240.141600 58.000000
241.130690 18.000000
242.106340 36.000000
242.120960 189.000000
242.144300 29.000000
243.116410 19.000000
243.130430 44.000000
244.135280 166.000000
245.130860 23.000000
246.098510 18.000000
246.132080 60.000000
246.148860 1000.000000
247.151670 148.000000
248.149670 33.000000
254.148770 28.000000
255.154480 24.000000
255.778560 22.000000
256.104060 34.000000
256.127750 91.000000
256.635960 39.000000
257.115200 32.000000
257.138580 72.000000
258.113070 78.000000
258.133000 25.000000
258.149380 31.000000
259.156560 50.000000
259.173000 17.000000
260.149600 42.000000
262.174620 67.000000
270.130100 18.000000
270.150210 38.000000
270.161130 22.000000
272.163480 94.000000
272.173030 118.000000
273.173100 49.000000
274.115690 23.000000
274.150240 42.000000
274.181790 23.000000
275.177640 24.000000
275.188930 36.000000
282.071350 19.000000
285.172550 21.000000
286.166260 54.000000
286.192660 29.000000
287.171810 23.000000
317.098360 20.000000
335.177890 40.000000
356.157560 26.000000
374.195340 21.000000
376.210450 25.000000
390.209690 47.000000
396.023680 19.000000
405.233550 55.000000
406.203060 38.000000
406.244480 21.000000
407.238560 33.000000
416.868960 46.000000
418.205750 32.000000
420.245880 19.000000
421.251370 36.000000
422.248410 24.000000
436.258790 28.000000
446.241880 19.000000
449.253200 34.000000
452.265080 30.000000
465.289730 17.000000
466.287410 60.000000

>ms2peaks
160.088960 9.000000
165.092070 47.000000
177.091090 16.000000
179.097200 5.000000
179.114140 13.000000
191.105450 20.000000
192.101270 19.000000
192.110570 17.000000
194.121510 28.000000
201.096690 5.000000
205.107480 5.000000
206.115430 24.000000
206.128770 7.000000
214.108660 7.000000
220.128750 6.000000
220.139740 9.000000
230.122630 6.000000
231.124050 10.000000
242.103410 8.000000
242.156420 6.000000
244.131300 5.000000
245.156010 8.000000
246.147450 149.000000
247.145160 6.000000
247.155290 9.000000
248.138080 6.000000
256.179600 5.000000
257.151310 12.000000
272.166690 37.000000
273.179440 5.000000
274.133760 7.000000
274.178250 60.000000
274.196440 6.000000
275.176210 7.000000
300.200160 14.000000
337.695160 6.000000
419.260530 8.000000
436.254970 7.000000
462.260800 7.000000
464.281830 36.000000
464.317170 6.000000
465.280300 10.000000
466.296540 5.000000
479.270390 12.000000
479.301700 26.000000
480.295500 25.000000
481.245790 6.000000
481.269320 25.000000
481.307920 1000.000000

>ms2peaks
479.300810 12.000000
480.276730 6.000000
480.295010 15.000000
480.312470 7.000000
481.217010 6.000000
481.236150 6.000000
481.306370 1000.000000

>ms2peaks
97.083820 8.000000
110.099470 12.000000
112.116780 8.000000
146.079220 10.000000
148.081920 6.000000
149.052310 8.000000
150.065120 9.000000
160.085880 12.000000
162.093540 13.000000
165.089970 63.000000
165.097210 35.000000
166.094990 14.000000
174.098680 17.000000
176.048750 6.000000
176.075620 5.000000
176.088960 11.000000
177.089680 51.000000
177.651640 5.000000
178.097310 8.000000
179.107800 18.000000
189.074460 6.000000
189.085510 14.000000
190.085080 18.000000
191.097050 7.000000
191.108580 35.000000
192.099180 56.000000
192.113340 13.000000
193.080840 6.000000
193.100950 34.000000
194.120540 137.000000
195.120540 13.000000
196.102810 7.000000
201.093550 14.000000
203.099790 6.000000
203.111470 11.000000
205.114460 32.000000
206.112760 32.000000
206.120710 29.000000
206.133150 5.000000
207.124530 6.000000
208.136020 10.000000
217.119140 21.000000
218.113770 7.000000
218.123610 7.000000
218.135240 6.000000
220.136320 19.000000
222.089720 6.000000
222.150760 8.000000
226.089900 8.000000
226.136230 7.000000
229.124890 6.000000
230.107930 6.000000
230.138440 7.000000
231.120360 6.000000
233.153090 8.000000
241.500140 5.000000
242.124500 6.000000
243.124730 13.000000
244.127440 15.000000
244.142150 11.000000
245.145570 8.000000
246.108180 6.000000
246.149720 549.000000
247.153110 96.000000
247.166960 18.000000
248.161010 5.000000
256.131320 6.000000
256.146150 6.000000
257.148250 11.000000
257.156680 12.000000
258.155330 25.000000
262.181430 8.000000
269.157440 7.000000
270.139370 5.000000
272.146700 7.000000
272.168000 134.000000
273.157650 20.000000
273.176090 44.000000
274.182040 268.000000
275.172610 7.000000
275.187010 35.000000
284.152950 9.000000
284.192380 7.000000
286.176880 8.000000
287.161250 8.000000
287.175540 8.000000
288.188750 5.000000
289.207550 11.000000
300.198390 9.000000
300.207460 9.000000
301.195400 22.000000
302.226840 5.000000
365.185030 7.000000
407.220210 6.000000
407.235870 5.000000
418.246340 5.000000
430.072690 7.000000
433.243100 6.000000
435.244420 7.000000
435.259490 6.000000
436.231930 22.000000
436.248600 19.000000
437.268490 8.000000
437.283260 8.000000
438.265320 5.000000
439.264340 5.000000
447.189640 8.000000
448.266940 6.000000
449.271090 12.000000
451.275600 6.000000
462.256810 18.000000
462.277440 13.000000
464.158390 6.000000
464.183410 5.000000
464.283170 299.000000
464.353880 9.000000
465.253170 8.000000
465.286190 69.000000
466.197630 6.000000
466.261020 8.000000
479.296750 60.000000
481.206050 7.000000
481.307980 1000.000000
481.464290 7.000000

>ms2peaks
82.064980 45.000000
83.082860 53.000000
91.057680 32.000000
107.047630 90.000000
115.056630 30.000000
119.070900 41.000000
122.065290 62.000000
122.099080 60.000000
129.058720 48.000000
130.074370 78.000000
131.050510 53.000000
131.066760 35.000000
131.075120 84.000000
131.081830 41.000000
132.078900 30.000000
133.067280 68.000000
135.074510 42.000000
141.068950 44.000000
144.049510 26.000000
144.091320 42.000000
145.068020 33.000000
145.092210 68.000000
146.065520 122.000000
146.074770 86.000000
146.087520 39.000000
147.070600 110.000000
147.083940 95.000000
148.065900 71.000000
148.077470 116.000000
149.063250 32.000000
149.070830 41.000000
150.068370 194.000000
151.068650 95.000000
151.083440 48.000000
152.088170 50.000000
158.073200 101.000000
159.076860 93.000000
160.010510 36.000000
160.084760 60.000000
161.093540 71.000000
162.070330 53.000000
162.089800 96.000000
163.078740 29.000000
163.101730 101.000000
164.070570 41.000000
164.081940 44.000000
165.091140 563.000000
166.083130 30.000000
166.099270 39.000000
167.026960 33.000000
167.103670 39.000000
173.078260 35.000000
173.086840 48.000000
174.057880 96.000000
175.065980 30.000000
176.065630 72.000000
176.072680 267.000000
176.088120 38.000000
176.101680 44.000000
177.067020 41.000000
177.085080 105.000000
177.096830 68.000000
178.065480 32.000000
179.102620 36.000000
185.081300 39.000000
185.110660 33.000000
185.129230 71.000000
186.094600 69.000000
187.075550 68.000000
188.072910 47.000000
188.086820 38.000000
189.072830 62.000000
189.087570 78.000000
189.096740 119.000000
189.721980 50.000000
190.085710 209.000000
190.094670 113.000000
191.082200 127.000000
191.100070 230.000000
192.074250 30.000000
192.097670 274.000000
192.105160 176.000000
192.117970 35.000000
193.100660 33.000000
198.088670 48.000000
199.108690 111.000000
200.060810 33.000000
200.100920 32.000000
201.081990 36.000000
201.093730 30.000000
201.115010 39.000000
202.100270 208.000000
202.124440 250.000000
203.094360 27.000000
203.103620 53.000000
203.119830 41.000000
204.103160 104.000000
204.120570 27.000000
205.071110 36.000000
205.113630 68.000000
206.121610 77.000000
206.127010 38.000000
211.102830 63.000000
212.152940 32.000000
213.121030 33.000000
214.081250 27.000000
214.118590 32.000000
214.135930 36.000000
215.087340 30.000000
216.108370 27.000000
217.102510 35.000000
217.117870 45.000000
217.133680 44.000000
218.122800 50.000000
226.088200 38.000000
226.132370 56.000000
226.152910 26.000000
227.107830 41.000000
228.051680 32.000000
228.091080 42.000000
228.103780 98.000000
228.139100 48.000000
228.922270 39.000000
229.138470 36.000000
230.092610 27.000000
230.106800 238.000000
230.117780 434.000000
230.131330 95.000000
231.122920 274.000000
231.143740 29.000000
232.122800 48.000000
232.137340 30.000000
233.131120 54.000000
241.079100 33.000000
241.107410 30.000000
242.102890 30.000000
242.117980 190.000000
242.124570 84.000000
242.160050 74.000000
243.120510 54.000000
243.135710 36.000000
244.129840 102.000000
246.131670 39.000000
246.151030 1000.000000
246.263120 42.000000
247.150770 164.000000
256.109010 69.000000
256.139280 127.000000
257.134520 32.000000
257.149990 131.000000
258.126770 30.000000
258.145360 127.000000
260.149080 86.000000
264.817630 27.000000
268.053220 57.000000
268.136350 47.000000
270.137300 30.000000
270.157750 33.000000
271.157840 26.000000
272.145600 48.000000
272.169100 176.000000
273.161100 36.000000
273.174740 36.000000
274.181240 62.000000
275.123540 32.000000
275.175200 26.000000
284.169920 30.000000
286.185670 83.000000
287.184170 30.000000
335.118380 36.000000
376.214510 68.000000
402.758420 56.000000
404.226070 26.000000
406.256930 48.000000
420.211850 29.000000
423.260280 38.000000
425.209780 33.000000
432.278110 36.000000
437.260220 32.000000
446.213680 36.000000
447.277950 35.000000
448.230260 48.000000

