>compound PR32986423
>parentmass 291.0972
>ionization [M+H]+
>formula C14H14N2O5
>rt 261.000000
>profile qtof
#smiles_iso C1=CC=C2C(=C1)C(=CN2)CC(C(=O)O)NC(=O)CC(=O)O
#smiles_can C1=CC=C2C(=C1)C(=CN2)CC(C(=O)O)NC(=O)CC(=O)O
#inchikey OVEAWSPZRGBTSS-UHFFFAOYSA-N
#pubchem_id 5199636
#mb_accession PR311144

>ms2peaks
69.030500 37.000000
128.050510 18.000000
130.070330 62.000000
132.056780 16.000000
132.080260 17.000000
132.086880 23.000000
143.076750 21.000000
146.056380 37.000000
146.063050 17.000000
147.108280 24.000000
157.027130 26.000000
157.068410 17.000000
159.089550 165.000000
160.095000 71.000000
167.057020 53.000000
167.067630 21.000000
169.081770 22.000000
170.054310 25.000000
170.065080 16.000000
185.067980 17.000000
187.067500 25.000000
188.069600 20.000000
188.081210 54.000000
201.099150 16.000000
227.073060 18.000000
227.084200 29.000000
228.079440 18.000000
245.092970 173.000000
246.100560 20.000000
247.101360 34.000000
273.084440 59.000000
274.086460 16.000000
291.082520 49.000000
291.096590 18.000000

