>compound PR33750912
>parentmass 245.187
>ionization [M+H]+
>formula C12H24N2O3
>rt 197.400000
>profile qtof
#smiles_iso CC(C)CC(C(=O)NC(CC(C)C)C(=O)O)N
#smiles_can CC(C)CC(C(=O)NC(CC(C)C)C(=O)O)N
#inchikey LCPYQJIKPJDLLB-UHFFFAOYSA-N
#pubchem_id 94244
#mb_accession PR311052

>ms2peaks
86.095440 492.000000
86.105220 17.000000
87.095180 50.000000
199.174990 16.000000
199.189220 21.000000
199.330690 16.000000
245.177150 82.000000
245.188400 282.000000

