>compound PR33554796
>parentmass 245.1868
>ionization [M+H]+
>formula C12H24N2O3
>rt 194.700000
>profile qtof
#smiles_iso CCC(C)C(C(=O)NC(C(C)CC)C(=O)O)N
#smiles_can CCC(C)C(C(=O)NC(C(C)CC)C(=O)O)N
#inchikey BCVIOZZGJNOEQS-UHFFFAOYSA-N
#pubchem_id 13879965
#mb_accession PR311051,PR311053

>ms2peaks
86.098790 117.000000
181.037190 19.000000
207.035740 20.000000
226.114320 17.000000
245.162840 22.000000
245.175370 18.000000
245.191450 75.000000

>ms2peaks
57.125890 33.000000
86.097720 485.000000
87.096310 24.000000
139.044630 26.000000
161.461360 20.000000
199.089750 20.000000
199.181240 22.000000
207.026690 74.000000
245.181840 481.000000
245.189510 202.000000
245.286040 16.000000

