>compound PR33142521
>parentmass 868.5052971000003
>ionization [M+H]+
>formula C45H73NO15
>rt 296.990000
>profile qtof
#smiles_iso C[C@H]1CC[C@@H]2[C@H]([C@H]3[C@@H](N2C1)C[C@@H]4[C@@]3(CC[C@H]5[C@H]4CC=C6[C@@]5(CC[C@@H](C6)O[C@H]7[C@@H]([C@H]([C@H]([C@H](O7)CO)O)O[C@H]8[C@@H]([C@H]([C@@H]([C@H](O8)CO)O)O)O)O[C@H]9[C@@H]([C@@H]([C@H]([C@@H](O9)C)O)O)O)C)C)C
#smiles_can CC1CCC2C(C3C(N2C1)CC4C3(CCC5C4CC=C6C5(CCC(C6)OC7C(C(C(C(O7)CO)O)OC8C(C(C(C(O8)CO)O)O)O)OC9C(C(C(C(O9)C)O)O)O)C)C)C
#inchikey ZGVSETXHNHBTRK-UDJLNJFBSA-N
#pubchem_id 9549171
#mb_accession PR301589,PR301593,PR301597,PR301601,PR301605,PR301609,PR301613,PR301617,PR301621,PR301625,PR301629,PR301633,PR304331,PR304335,PR304337,PR304341,PR304344,PR304346

>ms2
868.375180 5.000000
868.412480 13.000000
868.502750 1000.000000
868.591490 13.000000

>ms2
868.417720 16.000000
868.503970 1000.000000
868.587650 8.000000

>ms2
868.356260 6.000000
868.390320 9.000000
868.430240 8.000000
868.505370 1000.000000
868.590880 11.000000

>ms2
98.098170 8.000000
398.342040 15.000000
399.342740 6.000000
706.449280 7.000000
722.442750 12.000000
868.414120 18.000000
868.441770 10.000000
868.506160 1000.000000
868.593870 11.000000

>ms2
868.408690 16.000000
868.506470 1000.000000
868.598820 12.000000

>ms2
868.396120 6.000000
868.424930 8.000000
868.502380 1000.000000
868.589720 7.000000

>ms2
868.386110 8.000000
868.421880 14.000000
868.505000 1000.000000
868.601930 5.000000

>ms2
398.334050 12.000000
706.436890 6.000000
706.466430 6.000000
868.411560 27.000000
868.505070 1000.000000

>ms2
868.415410 17.000000
868.504640 1000.000000
868.594420 10.000000

>ms2
868.425420 21.000000
868.502010 1000.000000

>ms2
868.384580 7.000000
868.416500 20.000000
868.504820 1000.000000
868.588380 11.000000

>ms2
98.096830 8.000000
398.335140 14.000000
706.438600 5.000000
706.469540 5.000000
722.447570 13.000000
868.419560 32.000000
868.507140 1000.000000

>ms2
868.420650 5.000000
868.507020 1000.000000

>ms2
868.391360 8.000000
868.430600 6.000000
868.509030 1000.000000

>ms2
868.415590 5.000000
868.506410 1000.000000

>ms2
398.342250 7.000000
868.422360 6.000000
868.505680 1000.000000

>ms2
868.418270 7.000000
868.504270 1000.000000

>ms2
868.408510 7.000000
868.506160 1000.000000

