>compound PR33017644
>parentmass 180.1024
>ionization [M+H]+
>formula C10H13NO2
>rt 167.400000
>profile qtof
#smiles_iso CCCCC1=CN=C(C=C1)C(=O)O
#smiles_can CCCCC1=CN=C(C=C1)C(=O)O
#inchikey DGMPVYSXXIOGJY-UHFFFAOYSA-N
#pubchem_id 3442
#mb_accession PR310795

>ms2peaks
66.032230 17.000000
79.056520 47.000000
106.070190 22.000000
114.475750 18.000000
122.971420 16.000000
134.096130 213.000000
135.100490 18.000000
141.036220 16.000000
152.070660 20.000000
162.093890 56.000000
180.090620 18.000000
180.105180 43.000000

