>compound PR33901454
>parentmass 217.1554
>ionization [M+H]+
>formula C10H20N2O3
>rt 129.000000
>profile qtof
#smiles_iso CC(C)C(C(=O)NC(C(C)C)C(=O)O)N
#smiles_can CC(C)C(C(=O)NC(C(C)C)C(=O)O)N
#inchikey KRNYOVHEKOBTEF-UHFFFAOYSA-N
#pubchem_id 409682
#mb_accession PR311037

>ms2peaks
72.082550 285.000000
72.107030 16.000000
98.062100 20.000000
119.033930 17.000000
119.086580 25.000000
152.072810 16.000000
171.143360 21.000000
171.151280 17.000000
172.142760 18.000000
172.156740 17.000000
174.100740 16.000000
217.146960 42.000000
217.157140 39.000000

