>compound PR33299366
>parentmass 317.0655792615384
>ionization [M+H]+
>formula C16H12O7
>rt 368.171095
>profile qtof
#smiles_iso COC1=C(C=CC(=C1)C2=C(C(=O)C3=C(C=C(C=C3O2)O)O)O)O
#smiles_can COC1=C(C=CC(=C1)C2=C(C(=O)C3=C(C=C(C=C3O2)O)O)O)O
#inchikey IZQSVPBOUDKVDZ-UHFFFAOYSA-N
#pubchem_id 5281654
#mb_accession PR301901,PR301907,PR301913,PR301919,PR301925,PR301931,PR301937,PR301943,PR301949,PR301955,PR301961,PR301967,PR310901

>ms2
93.031910 9.000000
121.030090 11.000000
122.032850 5.000000
139.036830 7.000000
153.007510 21.000000
153.018680 90.000000
154.024380 6.000000
165.018020 5.000000
173.056410 7.000000
183.056140 6.000000
203.040920 5.000000
217.055710 22.000000
218.051250 11.000000
228.037140 16.000000
228.046170 10.000000
229.050420 43.000000
230.047040 11.000000
231.027740 12.000000
245.042970 17.000000
246.052310 12.000000
246.064300 6.000000
257.043490 28.000000
258.050570 7.000000
273.039860 15.000000
274.048280 23.000000
275.042390 7.000000
284.023900 9.000000
285.039520 51.000000
286.045840 7.000000
287.019260 6.000000
302.043180 123.000000
303.047060 13.000000
317.066470 1000.000000
317.118740 8.000000

>ms2
317.028560 19.000000
317.065000 1000.000000
317.114900 13.000000

>ms2
65.033620 5.000000
72.902420 6.000000
80.987690 9.000000
92.026210 55.000000
92.031400 25.000000
93.024570 8.000000
93.034100 119.000000
94.033720 12.000000
94.683540 5.000000
94.778800 14.000000
108.014050 6.000000
109.023840 10.000000
111.010590 16.000000
120.020990 20.000000
121.028200 120.000000
121.063620 6.000000
122.034710 6.000000
124.047850 10.000000
124.055410 6.000000
126.016770 5.000000
129.068630 16.000000
130.073650 7.000000
131.052870 6.000000
134.035460 5.000000
134.042590 9.000000
134.684800 7.000000
135.046050 10.000000
136.008910 7.000000
136.016650 22.000000
137.024260 7.000000
139.039350 74.000000
143.044110 9.000000
147.052460 10.000000
147.170350 5.000000
149.059310 6.000000
151.028150 11.000000
151.041470 90.000000
152.003660 7.000000
152.011000 14.000000
152.993060 14.000000
153.017090 842.000000
154.013320 6.000000
154.024690 41.000000
155.024750 6.000000
155.044770 27.000000
155.399660 5.000000
155.723620 7.000000
155.949750 6.000000
156.364700 9.000000
158.952550 5.000000
161.052060 6.000000
161.061870 21.000000
163.041140 11.000000
165.018600 44.000000
166.003430 9.000000
166.013080 18.000000
166.026380 12.000000
168.053130 6.000000
171.047710 6.000000
173.048220 18.000000
175.035680 7.000000
175.076200 18.000000
177.050090 7.000000
178.030110 8.000000
179.039280 15.000000
183.030470 7.000000
183.047500 10.000000
184.427470 8.000000
185.063720 9.000000
187.035200 6.000000
188.046400 12.000000
189.018940 8.000000
189.045530 6.000000
189.055330 13.000000
190.027690 7.000000
190.055470 12.000000
190.064590 21.000000
191.026350 6.000000
192.035950 9.000000
193.006420 6.000000
194.028200 15.000000
198.578110 8.000000
200.049100 73.000000
200.065630 8.000000
201.044560 26.000000
201.054550 108.000000
201.066090 15.000000
203.029450 36.000000
203.039290 17.000000
204.037540 15.000000
204.046490 14.000000
204.699830 5.000000
205.049000 10.000000
209.742450 5.000000
213.047810 5.000000
213.245150 5.000000
214.059570 11.000000
215.032610 9.000000
217.036820 18.000000
217.052760 157.000000
217.069060 6.000000
218.055540 117.000000
218.073780 9.000000
219.020020 6.000000
219.032670 12.000000
220.030320 9.000000
223.663240 5.000000
224.999600 10.000000
225.054170 17.000000
226.202070 6.000000
227.020630 6.000000
228.026750 12.000000
228.042530 220.000000
228.592610 5.000000
228.998430 21.000000
229.031390 43.000000
229.051150 513.000000
229.794370 5.000000
229.975100 7.000000
230.029080 8.000000
230.052990 47.000000
231.031430 89.000000
231.061130 7.000000
231.066830 13.000000
232.036300 14.000000
234.016880 13.000000
234.935010 5.000000
235.691510 5.000000
236.515950 6.000000
239.039830 46.000000
240.038070 6.000000
240.049100 10.000000
242.022660 6.000000
243.063640 10.000000
244.029710 12.000000
244.038240 6.000000
245.005400 11.000000
245.044970 336.000000
246.011080 11.000000
246.039370 69.000000
246.052900 260.000000
246.624240 7.000000
247.018720 6.000000
247.030990 26.000000
247.047990 47.000000
247.061130 26.000000
247.168470 6.000000
247.258740 6.000000
247.302610 6.000000
249.826340 5.000000
255.023970 7.000000
255.786450 11.000000
256.022280 10.000000
256.041990 60.000000
257.004460 7.000000
257.016660 13.000000
257.031800 60.000000
257.045930 231.000000
257.056270 59.000000
257.107030 10.000000
258.047240 16.000000
258.060120 20.000000
259.027620 7.000000
259.043610 10.000000
259.052920 7.000000
260.016110 14.000000
260.029790 65.000000
261.010590 9.000000
261.027920 9.000000
261.082280 6.000000
261.780430 5.000000
262.072170 5.000000
267.025510 11.000000
268.028230 6.000000
271.069490 29.000000
271.082400 6.000000
272.076050 31.000000
272.289250 7.000000
272.782930 6.000000
273.002590 6.000000
273.029020 111.000000
273.038940 279.000000
273.798490 6.000000
274.046170 551.000000
274.212310 8.000000
274.288910 5.000000
274.359040 6.000000
275.018770 7.000000
275.046200 78.000000
275.072080 7.000000
275.317020 8.000000
276.165990 6.000000
279.826630 6.000000
284.039150 80.000000
284.128600 12.000000
284.718630 7.000000
284.998990 9.000000
285.039370 411.000000
286.028230 13.000000
286.042080 58.000000
286.198670 6.000000
286.656010 9.000000
287.015080 6.000000
287.025850 20.000000
287.047120 9.000000
287.060940 8.000000
288.022580 14.000000
288.056790 22.000000
288.070710 11.000000
288.813260 9.000000
289.010220 7.000000
290.259520 10.000000
292.057650 5.000000
295.244750 8.000000
299.050840 12.000000
300.024440 5.000000
300.060760 9.000000
301.029510 26.000000
301.042850 12.000000
301.563540 6.000000
301.817440 14.000000
302.043430 1000.000000
302.173000 6.000000
302.594240 8.000000
302.811770 15.000000
303.012270 10.000000
303.037600 64.000000
303.049900 100.000000
304.049840 22.000000
304.724980 7.000000
317.024110 9.000000
317.067720 280.000000
317.124690 7.000000

>ms2
64.037220 17.000000
66.046820 26.000000
67.021420 14.000000
68.993350 57.000000
68.999480 169.000000
69.035480 20.000000
71.316170 14.000000
79.056340 32.000000
83.013270 23.000000
86.120910 16.000000
91.053880 44.000000
91.090030 24.000000
92.000950 20.000000
92.024820 61.000000
93.020030 23.000000
93.029700 98.000000
93.034830 91.000000
93.497770 15.000000
94.042480 86.000000
95.017490 23.000000
96.014720 37.000000
96.052460 25.000000
97.020540 19.000000
97.029350 31.000000
100.221890 20.000000
103.053120 61.000000
103.058910 52.000000
104.050480 33.000000
104.054570 13.000000
105.072580 53.000000
107.034650 23.000000
107.053960 21.000000
107.541920 15.000000
108.014690 18.000000
108.022050 122.000000
109.025130 60.000000
109.031410 35.000000
111.007610 43.000000
112.987280 19.000000
115.005070 21.000000
115.055340 198.000000
115.565220 13.000000
116.057540 16.000000
117.032460 20.000000
117.067990 85.000000
117.073810 23.000000
117.636560 38.000000
119.022270 16.000000
119.054590 36.000000
121.031110 218.000000
121.066860 26.000000
122.039020 44.000000
123.033170 23.000000
123.046100 63.000000
124.009950 38.000000
124.025030 26.000000
125.024130 25.000000
126.032360 48.000000
126.050660 14.000000
126.767190 14.000000
127.054640 177.000000
129.027510 19.000000
131.052030 31.000000
133.066060 65.000000
133.071410 63.000000
134.071730 16.000000
135.004620 13.000000
136.013370 20.000000
137.023730 65.000000
138.021910 20.000000
139.052380 20.000000
144.047910 66.000000
144.056530 27.000000
145.054760 16.000000
147.039720 63.000000
147.045410 63.000000
147.054340 33.000000
148.057770 40.000000
149.777300 17.000000
151.036610 43.000000
152.046570 13.000000
153.019960 1000.000000
154.013580 40.000000
154.021300 26.000000
154.032650 51.000000
155.050810 163.000000
157.027730 13.000000
157.035370 32.000000
157.063740 14.000000
159.041530 122.000000
161.028140 23.000000
161.057310 88.000000
161.065480 42.000000
161.231720 16.000000
163.034420 41.000000
163.044770 28.000000
164.038830 26.000000
171.037110 25.000000
171.046330 60.000000
171.054980 18.000000
172.049710 43.000000
172.060380 22.000000
173.064870 96.000000
174.015760 31.000000
174.036330 21.000000
174.055220 15.000000
175.046860 58.000000
175.058030 16.000000
176.025300 14.000000
176.049640 79.000000
176.865940 14.000000
177.014950 23.000000
177.026050 18.000000
177.048200 44.000000
177.056030 23.000000
179.030040 18.000000
179.038680 13.000000
180.033800 21.000000
183.027800 26.000000
183.041930 99.000000
183.458250 23.000000
185.027860 19.000000
187.036070 13.000000
187.050570 34.000000
189.054980 40.000000
189.067410 13.000000
190.071260 14.000000
190.685290 14.000000
191.013050 21.000000
191.039250 20.000000
192.047520 16.000000
195.339650 13.000000
199.034500 15.000000
199.060530 16.000000
200.044660 56.000000
200.055470 18.000000
201.019910 40.000000
201.041610 16.000000
201.057940 16.000000
202.006270 38.000000
202.048370 15.000000
203.003450 17.000000
203.028820 120.000000
203.037750 245.000000
203.050480 31.000000
203.070340 15.000000
204.030260 18.000000
204.036270 31.000000
204.413560 18.000000
206.176100 22.000000
207.032060 19.000000
207.254940 14.000000
210.942440 17.000000
212.046520 24.000000
217.029080 35.000000
217.051800 370.000000
218.054290 33.000000
218.062990 28.000000
218.314420 16.000000
219.024120 61.000000
219.036830 36.000000
220.028110 30.000000
227.025990 56.000000
227.033580 19.000000
228.035770 33.000000
228.049900 67.000000
229.034640 16.000000
229.049330 159.000000
229.060170 46.000000
230.045640 46.000000
231.033600 27.000000
231.043240 21.000000
231.063280 27.000000
239.032200 30.000000
240.042680 26.000000
243.022340 23.000000
244.029450 13.000000
245.046260 235.000000
245.066830 52.000000
246.031970 24.000000
246.053630 47.000000
256.038390 14.000000
257.023280 19.000000
257.055300 18.000000
258.050420 27.000000
273.046050 44.000000
283.032470 16.000000
284.041290 16.000000
285.016510 22.000000
285.038240 74.000000
285.048160 40.000000
286.052340 31.000000

>ms2
121.024830 11.000000
139.039690 6.000000
151.037200 6.000000
153.018040 81.000000
154.020520 15.000000
155.049840 6.000000
159.038440 6.000000
192.043200 6.000000
200.044450 7.000000
201.044980 7.000000
201.055980 8.000000
203.033660 14.000000
217.047730 19.000000
217.057240 6.000000
228.043470 33.000000
229.045490 44.000000
229.054790 16.000000
230.044630 7.000000
230.059450 7.000000
231.020080 6.000000
231.030550 11.000000
245.031020 13.000000
245.044360 19.000000
245.060170 7.000000
246.052810 10.000000
256.036990 8.000000
257.047210 17.000000
271.649350 5.000000
273.034240 19.000000
273.045500 10.000000
274.030550 7.000000
274.050320 41.000000
275.045290 11.000000
285.038700 42.000000
286.043520 12.000000
287.052670 8.000000
302.019780 12.000000
302.036070 73.000000
302.047180 89.000000
303.048340 12.000000
303.058960 6.000000
317.026250 5.000000
317.065250 1000.000000

>ms2
317.014070 6.000000
317.030520 7.000000
317.065090 1000.000000
317.114900 8.000000

>ms2
65.036770 13.000000
82.026340 6.000000
92.023570 43.000000
92.035290 14.000000
93.032600 68.000000
94.041620 5.000000
97.402660 6.000000
109.024860 7.000000
111.038300 7.000000
117.068920 6.000000
120.021870 18.000000
120.956540 5.000000
121.027040 107.000000
123.044060 15.000000
123.050510 6.000000
125.024090 5.000000
126.028560 23.000000
132.052220 11.000000
132.410260 7.000000
133.026350 8.000000
136.018160 6.000000
136.998400 6.000000
137.019300 15.000000
137.052290 6.000000
139.031620 19.000000
139.039460 31.000000
144.732880 9.000000
145.057750 6.000000
146.028020 8.000000
150.026350 9.000000
150.033580 8.000000
151.036440 110.000000
152.009310 13.000000
152.990360 14.000000
153.017550 1000.000000
153.980090 8.000000
154.013030 7.000000
154.024700 65.000000
155.026930 24.000000
156.549440 5.000000
156.995060 13.000000
157.059230 7.000000
161.028020 11.000000
161.059280 7.000000
162.899230 5.000000
163.004230 6.000000
163.041900 13.000000
165.015810 26.000000
165.022600 25.000000
166.019710 8.000000
166.033330 10.000000
168.032910 21.000000
173.051160 9.000000
174.065440 12.000000
175.070050 8.000000
176.043820 6.000000
179.033020 36.000000
181.039080 6.000000
182.532840 7.000000
182.993550 8.000000
183.042660 23.000000
184.050260 14.000000
184.055420 6.000000
184.859790 6.000000
187.023590 5.000000
187.037430 26.000000
189.056700 9.000000
189.066160 11.000000
190.022420 6.000000
190.067030 16.000000
191.031890 8.000000
192.036510 6.000000
196.034300 9.000000
198.409090 5.000000
198.470250 6.000000
199.045040 7.000000
199.541760 10.000000
200.010930 8.000000
200.053120 12.000000
201.030360 6.000000
201.054320 91.000000
202.060210 25.000000
202.070300 6.000000
203.032290 106.000000
203.047030 14.000000
204.033600 12.000000
204.046160 8.000000
205.049760 11.000000
208.149580 8.000000
208.431780 8.000000
211.045070 5.000000
213.045210 13.000000
213.060150 7.000000
213.119000 5.000000
215.032990 6.000000
215.062520 11.000000
217.038450 30.000000
217.053340 91.000000
217.059950 27.000000
217.085140 5.000000
218.015210 7.000000
218.043690 7.000000
218.056120 57.000000
218.064770 22.000000
219.014400 6.000000
219.029190 58.000000
219.064420 16.000000
219.077990 11.000000
219.229480 6.000000
220.039460 14.000000
221.044740 13.000000
225.960980 6.000000
226.213350 7.000000
227.026290 5.000000
227.962070 9.000000
228.007970 6.000000
228.019650 12.000000
228.043290 171.000000
229.001710 7.000000
229.048220 356.000000
229.058840 135.000000
229.992570 7.000000
230.051590 87.000000
230.064070 10.000000
231.022460 55.000000
231.037950 17.000000
231.049560 8.000000
231.061360 5.000000
232.026920 6.000000
232.036060 6.000000
233.038860 6.000000
233.050600 26.000000
234.051880 13.000000
236.684630 5.000000
239.037550 37.000000
242.350130 13.000000
243.027510 5.000000
243.071690 19.000000
245.031020 41.000000
245.044070 136.000000
245.052550 78.000000
246.003420 7.000000
246.024540 13.000000
246.051800 161.000000
246.063960 39.000000
247.023220 22.000000
247.053390 32.000000
248.053940 6.000000
256.026700 7.000000
256.036770 17.000000
256.046110 11.000000
256.994260 7.000000
257.047450 216.000000
258.052000 35.000000
258.065610 11.000000
259.026520 10.000000
260.023560 25.000000
260.033050 48.000000
261.047210 7.000000
261.081910 10.000000
264.538640 7.000000
267.864230 5.000000
269.030790 5.000000
271.053680 10.000000
271.066560 23.000000
273.022130 8.000000
273.039370 148.000000
273.983180 8.000000
274.005430 5.000000
274.049650 499.000000
274.072970 12.000000
275.049800 88.000000
276.029750 6.000000
276.048070 17.000000
276.070250 16.000000
276.316960 5.000000
277.046840 7.000000
281.705260 10.000000
283.984650 8.000000
284.016020 8.000000
284.039950 59.000000
284.968990 8.000000
284.995090 26.000000
285.039430 464.000000
286.014310 5.000000
286.043000 54.000000
286.053860 30.000000
287.028690 13.000000
287.046720 5.000000
288.025210 7.000000
288.049500 5.000000
288.929720 6.000000
296.345980 6.000000
300.013580 14.000000
301.042540 30.000000
301.983950 6.000000
301.997440 8.000000
302.018220 35.000000
302.043700 840.000000
302.206210 5.000000
302.503270 8.000000
302.994450 8.000000
303.044890 142.000000
303.057430 52.000000
303.819920 8.000000
304.033540 20.000000
304.051150 8.000000
315.055050 9.000000
317.065250 299.000000

>ms2
53.003610 23.000000
64.025210 23.000000
67.015060 14.000000
67.019460 50.000000
68.998410 117.000000
69.026020 29.000000
77.001690 23.000000
77.028690 23.000000
77.320050 18.000000
79.047970 18.000000
81.016640 19.000000
81.029610 23.000000
81.038090 44.000000
83.016030 80.000000
88.025630 23.000000
91.056670 26.000000
92.024250 163.000000
92.033200 28.000000
93.017460 32.000000
93.029390 84.000000
93.035940 119.000000
94.033540 18.000000
95.007790 27.000000
96.019190 26.000000
96.024890 68.000000
97.029270 22.000000
101.041550 28.000000
102.048960 18.000000
103.053840 77.000000
105.035280 44.000000
105.062850 38.000000
107.979310 24.000000
108.020750 101.000000
111.002530 21.000000
111.008050 34.000000
111.015430 41.000000
111.561480 17.000000
113.045390 29.000000
115.055190 93.000000
116.058380 52.000000
117.036830 32.000000
117.069780 17.000000
118.077060 27.000000
121.022790 110.000000
121.030820 48.000000
122.022820 23.000000
122.036970 38.000000
124.006540 24.000000
126.027820 30.000000
126.035280 16.000000
127.044080 21.000000
127.055190 170.000000
128.057540 26.000000
130.030430 27.000000
131.053830 47.000000
131.992370 32.000000
133.029390 36.000000
133.064190 20.000000
133.074330 31.000000
134.033490 24.000000
135.821040 15.000000
136.014140 27.000000
137.019710 52.000000
137.025700 47.000000
137.088000 18.000000
137.124820 23.000000
144.049930 28.000000
146.036240 20.000000
146.308380 15.000000
147.038210 90.000000
148.048450 63.000000
149.064850 32.000000
152.008770 20.000000
153.017850 1000.000000
153.035840 37.000000
154.023090 94.000000
154.044940 23.000000
155.038450 28.000000
155.050420 105.000000
157.062560 20.000000
158.029940 27.000000
158.205870 15.000000
159.043230 31.000000
161.013000 32.000000
161.024000 54.000000
161.031370 19.000000
161.060670 143.000000
162.027560 28.000000
162.035920 16.000000
163.037510 64.000000
165.011200 27.000000
171.044110 21.000000
172.048800 96.000000
172.062500 36.000000
174.057190 23.000000
175.031050 43.000000
175.042590 37.000000
176.050060 39.000000
176.999050 30.000000
177.010380 50.000000
177.020320 17.000000
178.290620 16.000000
179.021990 41.000000
179.032010 55.000000
183.035750 24.000000
183.045100 51.000000
185.023880 30.000000
187.030000 27.000000
187.041020 41.000000
188.041280 30.000000
189.028030 33.000000
189.036420 29.000000
189.052030 54.000000
190.055650 59.000000
191.032970 47.000000
192.032290 21.000000
193.017960 25.000000
199.036800 84.000000
200.048340 41.000000
201.056960 55.000000
202.027340 19.000000
203.028730 339.000000
203.041060 188.000000
204.032900 91.000000
207.019420 20.000000
208.137390 25.000000
213.050350 16.000000
216.037090 19.000000
216.048490 21.000000
217.032290 59.000000
217.050610 658.000000
217.072200 44.000000
218.041000 58.000000
218.055270 16.000000
218.649480 24.000000
219.021070 53.000000
219.034260 45.000000
227.033110 64.000000
228.036540 76.000000
228.048050 39.000000
229.045550 141.000000
229.058760 60.000000
230.061130 47.000000
231.043790 23.000000
239.038600 50.000000
244.975740 22.000000
245.035770 86.000000
245.047450 199.000000
246.047670 24.000000
246.646850 21.000000
247.039830 15.000000
247.062390 48.000000
259.033140 32.000000
273.142520 22.000000
286.042240 21.000000

>ms2
92.025890 10.000000
93.034210 7.000000
94.033130 9.000000
121.032580 13.000000
139.039120 8.000000
153.017030 96.000000
155.047380 7.000000
187.033830 6.000000
200.049900 6.000000
201.055790 15.000000
203.030040 8.000000
204.041170 8.000000
217.043580 15.000000
217.054640 16.000000
218.048110 8.000000
228.040470 28.000000
229.048800 44.000000
230.060360 7.000000
232.036510 5.000000
245.038160 18.000000
245.052570 16.000000
246.048690 10.000000
246.058720 8.000000
256.033720 7.000000
257.041780 33.000000
257.059660 7.000000
273.035580 14.000000
273.047180 15.000000
274.044950 44.000000
285.038360 48.000000
285.048610 27.000000
286.031710 5.000000
286.048250 7.000000
288.045070 5.000000
302.041080 148.000000
303.040680 14.000000
303.052310 12.000000
317.065890 1000.000000

>ms2
317.016630 7.000000
317.065120 1000.000000
317.116880 9.000000

>ms2
65.039950 8.000000
65.882860 11.000000
67.024800 7.000000
71.720700 10.000000
92.018610 9.000000
92.023680 15.000000
92.029680 25.000000
93.032100 92.000000
94.040980 6.000000
95.263410 7.000000
107.050740 7.000000
109.021230 7.000000
109.033020 15.000000
111.008770 7.000000
112.009640 5.000000
117.033130 7.000000
119.434950 6.000000
120.025830 21.000000
121.026720 88.000000
122.034200 7.000000
123.022720 5.000000
123.031870 6.000000
125.999950 6.000000
126.023010 11.000000
126.035530 9.000000
126.299400 5.000000
127.050170 20.000000
127.058980 6.000000
128.064220 8.000000
130.074970 8.000000
131.042800 6.000000
133.029890 10.000000
134.032730 9.000000
135.036090 5.000000
136.013580 5.000000
137.025970 5.000000
137.063000 8.000000
139.029170 19.000000
139.038350 48.000000
140.037000 7.000000
140.044170 11.000000
143.496720 5.000000
145.060750 12.000000
149.017780 21.000000
149.055310 11.000000
150.026230 5.000000
151.038790 47.000000
151.048660 9.000000
152.009410 10.000000
153.016780 1000.000000
153.667800 6.000000
154.019550 106.000000
155.040190 6.000000
155.051820 23.000000
155.058720 8.000000
156.016690 13.000000
157.071990 11.000000
160.044800 7.000000
162.062380 8.000000
163.033710 19.000000
163.043500 6.000000
165.016820 32.000000
165.024780 12.000000
165.993560 6.000000
166.014430 16.000000
166.023350 26.000000
167.038990 6.000000
173.022110 13.000000
173.065520 21.000000
174.028980 6.000000
175.076640 7.000000
175.603290 9.000000
177.011020 7.000000
177.021060 12.000000
177.046950 8.000000
177.057300 21.000000
178.019010 5.000000
179.034180 10.000000
180.707430 6.000000
181.013810 6.000000
183.034350 10.000000
183.481140 10.000000
185.053860 6.000000
186.031890 13.000000
187.036410 15.000000
187.043200 17.000000
188.037410 13.000000
189.031080 8.000000
189.043150 9.000000
190.027040 11.000000
190.062650 7.000000
190.246600 6.000000
191.032290 7.000000
191.057300 9.000000
192.034240 5.000000
194.024780 7.000000
197.061550 6.000000
199.044300 7.000000
200.026990 6.000000
200.035370 17.000000
200.048070 25.000000
201.052170 83.000000
202.025770 10.000000
202.054700 12.000000
202.066530 9.000000
203.009490 8.000000
203.022170 32.000000
203.033170 25.000000
203.042080 19.000000
204.027530 6.000000
204.038930 18.000000
204.094670 6.000000
205.015270 7.000000
207.015080 5.000000
207.033680 5.000000
207.075610 7.000000
211.025280 6.000000
212.049380 13.000000
213.055300 21.000000
214.009480 7.000000
215.031740 8.000000
217.043080 94.000000
217.054820 78.000000
218.010860 17.000000
218.026990 18.000000
218.055770 34.000000
218.066830 9.000000
219.028090 44.000000
219.041430 6.000000
219.058240 14.000000
219.068340 7.000000
219.219770 7.000000
221.046480 6.000000
221.515240 5.000000
227.509770 5.000000
227.999850 13.000000
228.041430 204.000000
228.674850 7.000000
228.948200 5.000000
229.047780 544.000000
229.985960 11.000000
230.023060 7.000000
230.041950 30.000000
230.055910 12.000000
230.065460 9.000000
231.026350 65.000000
231.043200 12.000000
232.031200 23.000000
232.041490 5.000000
236.551530 6.000000
239.025390 7.000000
239.037290 8.000000
239.047650 6.000000
239.498670 6.000000
243.030760 29.000000
243.067120 20.000000
244.037380 6.000000
244.216380 6.000000
245.037520 155.000000
245.050770 66.000000
245.819270 9.000000
245.960690 7.000000
246.020810 7.000000
246.032460 35.000000
246.052140 235.000000
246.072170 6.000000
246.529980 7.000000
247.051710 35.000000
247.063170 15.000000
248.048400 8.000000
249.036480 7.000000
256.011260 10.000000
256.022490 21.000000
256.039950 24.000000
256.974670 8.000000
256.991760 5.000000
257.042210 249.000000
257.066040 13.000000
258.044310 98.000000
259.019230 13.000000
259.711460 9.000000
260.029240 56.000000
260.696900 5.000000
261.030030 7.000000
261.052490 19.000000
261.071660 13.000000
261.311680 5.000000
266.964080 7.000000
268.013060 10.000000
271.053620 11.000000
272.967410 11.000000
273.007630 11.000000
273.030850 101.000000
273.039980 201.000000
274.005220 17.000000
274.036290 208.000000
274.051610 378.000000
275.046110 80.000000
275.063350 13.000000
275.104740 6.000000
276.057370 12.000000
283.565370 6.000000
283.961520 9.000000
284.006380 7.000000
284.027010 28.000000
284.043490 32.000000
284.999910 11.000000
285.024600 87.000000
285.036190 326.000000
285.055240 42.000000
285.262850 6.000000
285.991150 7.000000
286.014500 14.000000
286.038180 47.000000
286.061310 15.000000
286.605380 6.000000
287.001460 5.000000
287.017360 17.000000
287.035310 6.000000
287.044800 6.000000
288.023860 7.000000
288.063540 16.000000
294.763150 9.000000
295.812960 7.000000
297.071470 6.000000
299.045840 7.000000
300.695190 7.000000
301.026730 9.000000
301.950900 11.000000
302.041750 846.000000
302.325530 8.000000
302.812100 5.000000
303.009950 20.000000
303.033910 26.000000
303.048100 143.000000
304.036800 23.000000
304.056920 13.000000
304.073760 6.000000
305.051910 6.000000
308.593380 8.000000
317.057650 326.000000
317.073640 90.000000

>ms2
56.201540 14.000000
65.037190 19.000000
67.018540 27.000000
68.994960 36.000000
69.002180 19.000000
69.031300 15.000000
75.205410 35.000000
89.034100 18.000000
91.019620 17.000000
92.029720 89.000000
93.026990 58.000000
93.036800 43.000000
94.034420 27.000000
94.046470 13.000000
96.017540 45.000000
97.023040 48.000000
100.032960 25.000000
103.015690 23.000000
103.050750 35.000000
104.055720 22.000000
105.031530 37.000000
105.069210 13.000000
107.409820 14.000000
108.019730 58.000000
109.028040 25.000000
112.018180 16.000000
115.050360 65.000000
115.055340 43.000000
116.056480 45.000000
118.034950 28.000000
118.045880 30.000000
119.189430 17.000000
121.029690 138.000000
121.061590 18.000000
121.068820 17.000000
122.008690 15.000000
122.028070 17.000000
122.036310 43.000000
122.287100 16.000000
123.040480 24.000000
123.046960 32.000000
124.014650 75.000000
124.252910 13.000000
125.026630 21.000000
126.026820 51.000000
126.036660 18.000000
127.054130 79.000000
128.040620 16.000000
129.021360 15.000000
129.670530 13.000000
131.009320 13.000000
131.049360 132.000000
132.036880 28.000000
133.028760 18.000000
133.065550 97.000000
133.073780 15.000000
133.106540 23.000000
135.043210 35.000000
135.986110 22.000000
136.012210 42.000000
136.018910 45.000000
136.046100 14.000000
137.018390 30.000000
137.028170 21.000000
137.063480 32.000000
143.045850 25.000000
144.052490 39.000000
145.026630 34.000000
145.058670 15.000000
146.038590 33.000000
147.029480 29.000000
147.041600 18.000000
147.048750 76.000000
148.046370 15.000000
149.023560 38.000000
149.028920 15.000000
149.062880 35.000000
150.025190 16.000000
151.041350 13.000000
152.008260 38.000000
152.014830 19.000000
152.056320 16.000000
153.017210 1000.000000
154.016720 44.000000
154.032300 25.000000
155.010030 19.000000
155.050900 102.000000
156.043690 18.000000
156.053330 82.000000
157.010800 16.000000
157.020360 15.000000
157.034350 22.000000
157.062910 22.000000
158.651350 16.000000
160.015410 16.000000
160.050130 15.000000
161.017850 18.000000
161.052400 13.000000
161.491420 13.000000
163.040680 98.000000
171.010990 15.000000
171.040390 52.000000
171.051120 26.000000
172.019910 19.000000
173.052580 29.000000
173.063100 15.000000
173.524860 18.000000
174.035890 64.000000
175.028750 14.000000
175.040480 48.000000
177.015900 14.000000
178.021710 18.000000
179.031400 59.000000
179.041000 16.000000
181.006870 20.000000
183.045640 112.000000
187.040150 135.000000
188.033170 18.000000
188.049820 20.000000
188.909740 15.000000
189.050380 15.000000
190.032730 32.000000
191.033510 78.000000
199.034060 39.000000
200.032460 19.000000
200.042500 61.000000
200.054600 72.000000
201.054230 38.000000
202.018780 15.000000
203.007140 25.000000
203.017140 31.000000
203.034710 289.000000
203.044050 124.000000
203.060260 23.000000
204.035830 46.000000
204.049670 25.000000
211.042270 128.000000
216.021480 13.000000
216.046300 52.000000
217.019810 22.000000
217.041600 76.000000
217.054790 429.000000
217.997040 19.000000
218.049590 105.000000
218.059860 53.000000
219.028020 142.000000
220.021620 18.000000
224.074750 14.000000
224.999730 15.000000
227.037890 44.000000
228.042450 19.000000
229.050480 158.000000
230.052320 14.000000
231.024540 29.000000
233.045170 24.000000
239.036510 63.000000
245.042570 138.000000
245.061520 109.000000
246.039180 25.000000
247.043660 18.000000
257.049800 28.000000
260.039790 21.000000
271.300990 15.000000
272.038300 41.000000
273.049680 15.000000
287.019650 18.000000
302.021610 15.000000
317.062740 59.000000

>ms2
64.029060 56.000000
68.996840 57.000000
87.229510 31.000000
92.020340 21.000000
93.031910 105.000000
106.890450 23.000000
111.005580 20.000000
121.030090 133.000000
122.032850 65.000000
123.031860 22.000000
123.043150 27.000000
126.041620 21.000000
127.053220 20.000000
137.021700 20.000000
139.036830 83.000000
139.046010 46.000000
140.044400 17.000000
145.059110 27.000000
146.983410 19.000000
147.044200 47.000000
151.033190 22.000000
151.039600 48.000000
152.007200 17.000000
153.007510 253.000000
153.018680 1111.000000
154.017990 29.000000
154.024380 77.000000
154.863710 20.000000
155.024000 24.000000
155.490170 23.000000
161.067930 33.000000
162.028230 36.000000
162.052830 27.000000
163.035830 24.000000
163.488140 53.000000
164.044450 38.000000
164.982740 24.000000
165.012120 37.000000
165.018020 65.000000
166.025210 22.000000
168.969270 18.000000
172.023820 58.000000
173.045410 25.000000
173.056410 84.000000
173.568020 20.000000
175.086980 27.000000
177.047270 49.000000
177.065430 19.000000
179.020490 17.000000
181.015900 45.000000
182.040890 30.000000
183.047880 23.000000
183.056140 68.000000
187.025920 25.000000
189.061660 43.000000
192.035080 27.000000
195.042540 21.000000
200.042330 40.000000
201.055830 34.000000
203.028490 56.000000
203.040920 64.000000
204.040660 24.000000
206.044170 18.000000
211.035860 17.000000
214.048770 17.000000
215.027630 31.000000
215.040800 22.000000
215.195330 20.000000
217.055710 274.000000
218.037920 29.000000
218.051250 133.000000
219.029750 38.000000
219.065430 28.000000
222.755980 33.000000
223.048750 42.000000
224.699280 36.000000
227.997970 17.000000
228.037140 195.000000
228.046170 120.000000
229.050420 534.000000
230.019970 22.000000
230.047040 136.000000
231.027740 145.000000
231.935610 23.000000
232.050460 30.000000
233.037160 40.000000
239.769470 39.000000
243.060040 17.000000
245.042970 209.000000
246.030110 15.000000
246.041660 58.000000
246.052310 143.000000
246.064300 69.000000
246.394230 30.000000
247.032060 49.000000
247.061130 20.000000
255.271500 26.000000
256.037690 33.000000
257.043490 344.000000
258.031950 25.000000
258.050570 85.000000
260.029540 61.000000
260.039060 25.000000
260.466610 20.000000
261.066190 25.000000
261.081480 19.000000
262.075810 36.000000
263.911620 18.000000
271.036900 21.000000
271.068570 53.000000
273.011350 24.000000
273.025700 45.000000
273.039860 182.000000
274.024410 20.000000
274.048280 289.000000
274.975680 21.000000
275.042390 83.000000
275.053770 34.000000
283.979060 34.000000
284.023900 114.000000
284.041260 17.000000
284.547030 26.000000
285.039520 627.000000
285.061680 42.000000
285.379820 18.000000
286.045840 88.000000
287.010440 23.000000
287.019260 73.000000
287.049470 26.000000
288.024200 33.000000
288.045870 22.000000
289.054810 20.000000
289.070280 23.000000
299.039000 18.000000
299.049290 20.000000
301.668400 20.000000
301.980680 42.000000
301.995210 61.000000
302.015900 48.000000
302.043180 1511.000000
303.025390 47.000000
303.047060 164.000000
306.963440 27.000000
312.075320 27.000000
316.058040 29.000000
316.923430 17.000000
316.936400 25.000000
316.948150 23.000000
316.992890 41.000000
317.006100 46.000000
317.066470 12328.000000
317.100130 47.000000
317.118740 93.000000
317.166350 20.000000

