>compound PR33419358
>parentmass 249.19613990000002
>ionization [M+H]+
>formula C15H24N2O
>rt 135.418020
>profile qtof
#smiles_iso C1C[C@@H]2[C@H]3CCCN4[C@H]3[C@@H](CCC4)CN2C(=O)C1
#smiles_can C1CC2C3CCCN4C3C(CCC4)CN2C(=O)C1
#inchikey ZSBXGIUJOOQZMP-JLNYLFASSA-N
#pubchem_id 91466
#mb_accession PR301312,PR301316,PR301320,PR301323,PR301327,PR301330,PR301333,PR301336,PR301339,PR301342,PR301345,PR301347

>ms2peaks
110.092280 9.000000
112.076630 9.000000
148.112980 41.000000
149.114620 8.000000
150.124500 10.000000
150.133900 7.000000
176.108700 7.000000
176.143630 6.000000
190.125120 7.000000
218.157520 7.000000
247.187000 15.000000
249.154220 7.000000
249.196930 1000.000000
249.240780 9.000000

>ms2peaks
249.196730 1000.000000
249.240100 13.000000

>ms2peaks
70.065800 11.000000
84.079590 15.000000
84.085430 7.000000
91.054280 10.000000
94.065010 5.000000
96.080810 31.000000
98.062490 25.000000
98.091880 5.000000
98.098790 18.000000
99.090290 8.000000
107.086900 7.000000
110.097220 60.000000
111.103770 6.000000
112.075410 40.000000
112.245700 5.000000
120.081040 18.000000
122.095490 21.000000
124.116970 7.000000
125.115780 9.000000
131.086110 8.000000
133.107770 7.000000
134.090790 8.000000
134.097600 8.000000
134.106110 5.000000
135.078780 8.000000
136.112460 21.000000
136.120390 13.000000
137.112370 6.000000
138.124710 15.000000
138.139130 10.000000
147.101960 5.000000
148.113010 294.000000
149.112470 15.000000
149.121920 20.000000
150.092030 8.000000
150.127550 144.000000
151.133090 11.000000
152.135240 11.000000
152.143330 6.000000
152.150160 7.000000
160.112840 6.000000
164.105500 10.000000
164.141910 11.000000
166.119140 10.000000
174.136660 5.000000
176.104310 65.000000
176.114300 41.000000
176.139430 8.000000
177.146260 10.000000
178.156400 14.000000
184.125500 5.000000
188.137600 10.000000
190.117360 17.000000
190.128020 10.000000
190.162990 10.000000
194.567920 6.000000
202.163380 7.000000
204.143600 6.000000
204.176850 6.000000
218.145230 13.000000
218.160720 7.000000
220.175420 10.000000
230.139820 6.000000
230.155320 7.000000
231.190290 12.000000
232.169920 17.000000
247.121250 7.000000
247.160100 5.000000
247.174030 47.000000
247.187190 104.000000
248.170520 6.000000
248.180980 22.000000
248.196210 7.000000
249.027740 6.000000
249.155930 9.000000
249.197400 1000.000000

>ms2peaks
53.033100 85.000000
55.056260 136.000000
55.909250 54.000000
56.053650 73.000000
69.070660 94.000000
77.043190 91.000000
78.041420 57.000000
79.054100 199.000000
80.044260 82.000000
82.065220 66.000000
91.051170 54.000000
91.058530 139.000000
93.070650 76.000000
94.061740 76.000000
94.066220 79.000000
96.081980 272.000000
97.076630 76.000000
98.058260 136.000000
98.096820 57.000000
99.108180 106.000000
100.074490 73.000000
103.056400 63.000000
105.073430 54.000000
106.068640 109.000000
108.081740 175.000000
110.087900 124.000000
110.098060 97.000000
111.101010 57.000000
112.073820 51.000000
115.052320 63.000000
115.061200 51.000000
116.972180 76.000000
117.067200 205.000000
118.064600 121.000000
119.071210 63.000000
119.300730 51.000000
120.074270 106.000000
120.082940 396.000000
121.083470 82.000000
122.094730 290.000000
122.103910 63.000000
123.109840 51.000000
128.064100 60.000000
133.085360 136.000000
134.099730 423.000000
135.102690 118.000000
136.105550 85.000000
136.113820 308.000000
138.098190 63.000000
147.102220 196.000000
148.071260 94.000000
148.107280 314.000000
148.114820 1000.000000
149.103490 57.000000
149.112460 169.000000
150.126510 148.000000
150.133670 133.000000
157.085830 69.000000
160.108550 63.000000
160.114690 85.000000
161.122410 91.000000
162.129840 124.000000
163.094670 66.000000
163.140180 103.000000
171.102840 73.000000
176.108230 82.000000
176.142320 118.000000
178.164080 66.000000
179.161800 63.000000
186.017460 79.000000
186.130490 88.000000
188.140110 60.000000
191.132840 73.000000
191.159320 76.000000
192.132890 60.000000
204.133510 57.000000
218.171830 60.000000
229.172360 69.000000
249.193270 275.000000

>ms2peaks
98.058090 7.000000
112.078480 6.000000
148.112260 40.000000
148.118740 14.000000
150.128100 24.000000
176.108490 6.000000
190.122040 6.000000
190.164510 5.000000
247.170810 8.000000
247.181230 14.000000
249.196500 1000.000000
249.243650 10.000000

>ms2peaks
249.158290 6.000000
249.196960 1000.000000
249.241350 17.000000

>ms2peaks
70.064250 10.000000
70.069330 8.000000
82.067960 6.000000
84.084480 12.000000
91.056480 11.000000
96.080280 22.000000
97.083810 5.000000
98.060430 24.000000
98.095920 6.000000
99.093270 6.000000
107.084470 7.000000
110.088080 6.000000
110.097150 48.000000
111.102110 11.000000
112.074940 46.000000
112.108410 5.000000
113.086080 6.000000
119.069880 5.000000
120.078870 21.000000
121.086550 6.000000
122.095180 24.000000
122.102280 9.000000
123.103360 6.000000
124.115880 7.000000
129.072460 5.000000
133.101960 9.000000
134.096310 34.000000
136.108340 5.000000
136.116650 8.000000
137.113650 5.000000
138.092590 12.000000
138.130040 28.000000
139.125690 5.000000
145.103960 5.000000
148.076260 24.000000
148.091140 15.000000
148.112920 305.000000
149.083270 7.000000
149.113400 45.000000
150.091870 5.000000
150.127930 168.000000
151.124220 6.000000
152.109380 6.000000
152.143250 24.000000
162.093220 8.000000
162.129760 23.000000
166.123830 6.000000
166.131670 9.000000
176.106340 83.000000
176.143370 31.000000
177.112340 12.000000
178.123760 15.000000
186.127750 5.000000
190.111570 11.000000
190.123830 19.000000
190.155790 5.000000
190.164630 12.000000
191.128430 6.000000
191.167860 5.000000
203.160390 6.000000
204.140760 16.000000
204.175780 8.000000
218.153230 23.000000
220.172200 24.000000
229.173110 5.000000
230.152920 10.000000
231.171780 6.000000
232.170590 11.000000
247.180450 128.000000
248.184570 30.000000
249.154160 9.000000
249.166790 8.000000
249.196750 1000.000000

>ms2peaks
67.048100 101.000000
67.052160 61.000000
68.050900 98.000000
70.063530 135.000000
77.045680 91.000000
79.049980 74.000000
79.056960 155.000000
83.077450 61.000000
84.082970 61.000000
84.086980 108.000000
94.047830 57.000000
94.062330 118.000000
95.072930 74.000000
95.090180 104.000000
96.070990 67.000000
96.079330 303.000000
96.085890 192.000000
98.066590 121.000000
99.102810 88.000000
103.055730 152.000000
104.066650 61.000000
105.067180 74.000000
106.066790 374.000000
107.066350 135.000000
107.077040 131.000000
108.052050 114.000000
108.081170 199.000000
108.459100 74.000000
109.104480 185.000000
110.093890 185.000000
110.098760 556.000000
112.076380 91.000000
112.083050 67.000000
112.120310 91.000000
115.052700 64.000000
115.066580 81.000000
117.069930 91.000000
118.057820 61.000000
118.068210 155.000000
119.081970 162.000000
120.080230 323.000000
122.094880 118.000000
122.101920 81.000000
123.097190 101.000000
123.105760 178.000000
124.115450 77.000000
128.069290 74.000000
129.075070 84.000000
132.078190 215.000000
132.084290 189.000000
134.095870 347.000000
134.102520 283.000000
135.102690 61.000000
136.114440 259.000000
136.121750 84.000000
137.848740 57.000000
146.095000 212.000000
147.106980 57.000000
148.031710 71.000000
148.115040 1000.000000
149.081560 91.000000
150.125200 71.000000
151.132400 205.000000
158.101590 128.000000
160.107420 111.000000
160.114380 67.000000
161.071320 135.000000
162.089780 215.000000
162.127060 67.000000
164.155360 57.000000
172.112090 64.000000
174.097630 67.000000
174.131260 111.000000
176.105010 135.000000
176.141250 152.000000
176.153610 77.000000
177.152470 81.000000
186.490170 98.000000
188.149440 101.000000
189.134520 108.000000
189.145800 74.000000
247.179350 84.000000
249.199490 515.000000

>ms2peaks
84.083700 7.000000
98.064160 5.000000
110.096330 6.000000
112.076950 8.000000
148.111450 50.000000
150.126880 21.000000
151.130490 5.000000
176.106950 11.000000
190.123150 7.000000
218.148910 6.000000
247.180360 21.000000
249.196810 1000.000000
249.240360 14.000000

>ms2peaks
249.196470 1000.000000
249.242580 15.000000

>ms2peaks
84.081120 12.000000
93.054510 10.000000
93.067440 7.000000
93.071300 18.000000
96.075070 13.000000
96.080440 21.000000
98.062040 45.000000
98.096730 5.000000
106.067370 6.000000
107.086850 15.000000
108.075760 8.000000
108.084620 6.000000
110.096250 53.000000
110.103330 23.000000
112.074780 62.000000
119.085160 10.000000
120.082740 23.000000
121.084660 6.000000
121.100610 10.000000
122.095620 18.000000
124.077900 7.000000
124.114780 11.000000
125.110950 6.000000
134.092540 18.000000
136.078740 8.000000
136.112090 47.000000
137.116670 10.000000
138.089720 7.000000
138.129940 21.000000
147.107860 7.000000
148.032330 6.000000
148.073460 25.000000
148.111980 304.000000
149.103940 10.000000
149.117490 38.000000
150.088730 13.000000
150.128720 131.000000
151.131910 22.000000
152.108120 5.000000
152.137510 7.000000
152.147140 21.000000
154.121200 5.000000
162.090840 9.000000
162.128460 8.000000
163.098540 6.000000
164.103650 13.000000
166.120000 6.000000
173.124210 7.000000
176.103030 82.000000
176.114150 38.000000
176.138500 10.000000
186.125960 5.000000
186.133350 6.000000
188.144870 18.000000
190.114140 6.000000
190.124920 36.000000
191.154190 7.000000
204.138410 11.000000
205.169860 6.000000
218.149600 14.000000
220.166110 18.000000
221.164470 5.000000
229.174180 10.000000
230.154450 8.000000
232.163770 11.000000
247.181840 139.000000
248.179500 23.000000
249.167240 17.000000
249.196500 1000.000000

>ms2peaks
58.063560 68.000000
70.067990 79.000000
79.050160 71.000000
80.044160 79.000000
81.062120 113.000000
81.078790 64.000000
82.052280 147.000000
83.051030 86.000000
84.010540 102.000000
84.071820 68.000000
84.087610 278.000000
91.055870 282.000000
92.053440 75.000000
93.058900 75.000000
93.063730 105.000000
95.084860 105.000000
96.080550 444.000000
98.057270 132.000000
98.092430 308.000000
98.099140 71.000000
99.093240 86.000000
103.053970 162.000000
105.060620 64.000000
105.074430 147.000000
106.048690 94.000000
106.076060 117.000000
107.077450 102.000000
107.083890 64.000000
108.077060 71.000000
108.083280 312.000000
110.086630 120.000000
110.097550 466.000000
111.106960 90.000000
112.069990 64.000000
112.078840 75.000000
112.109050 173.000000
117.068010 143.000000
118.067260 158.000000
119.070190 90.000000
120.080590 259.000000
120.089270 71.000000
121.892110 139.000000
122.092970 282.000000
124.108180 75.000000
124.124290 109.000000
127.046790 102.000000
129.072220 68.000000
131.065890 75.000000
131.079850 64.000000
132.065610 64.000000
132.082140 64.000000
133.081760 79.000000
133.094800 188.000000
134.093350 699.000000
134.102220 169.000000
136.109220 102.000000
136.115360 165.000000
138.120540 64.000000
142.077900 143.000000
144.082180 211.000000
144.090610 68.000000
145.095600 102.000000
146.094410 162.000000
147.109700 79.000000
148.101930 226.000000
148.112920 1000.000000
149.075930 94.000000
150.090470 64.000000
150.115830 109.000000
150.127660 192.000000
150.141830 90.000000
151.132630 71.000000
152.142760 75.000000
159.819290 71.000000
160.115680 90.000000
161.076350 90.000000
162.100860 86.000000
162.119450 79.000000
162.135380 75.000000
164.102490 79.000000
164.139680 105.000000
176.097560 75.000000
176.108170 143.000000
177.133970 83.000000
213.130810 94.000000
219.190780 68.000000
247.159970 75.000000
249.185100 147.000000

