>compound PR33751030
>parentmass 609.1813967999999
>ionization [M+H]+
>formula C28H32O15
>rt 263.565000
>profile qtof
#smiles_iso C[C@H]1[C@@H]([C@H]([C@H]([C@@H](O1)OC[C@@H]2[C@H]([C@@H]([C@H]([C@@H](O2)OC3=CC(=C4C(=C3)OC(=CC4=O)C5=CC(=C(C=C5)OC)O)O)O)O)O)O)O)O
#smiles_can CC1C(C(C(C(O1)OCC2C(C(C(C(O2)OC3=CC(=C4C(=C3)OC(=CC4=O)C5=CC(=C(C=C5)OC)O)O)O)O)O)O)O)O
#inchikey GZSOSUNBTXMUFQ-YFAPSIMESA-N
#pubchem_id 5281613
#mb_accession PR302553,PR302559,PR302565,PR302571,PR302577,PR302583,PR302589,PR302595,PR302601,PR302607,PR302613,PR302619

>ms2
85.027850 9.000000
129.052890 9.000000
286.046600 17.000000
287.048550 6.000000
301.014040 9.000000
301.030090 14.000000
301.069890 1000.000000
302.051090 17.000000
302.072810 166.000000
302.093170 15.000000
303.080810 20.000000
304.078280 6.000000
463.068940 6.000000
463.121640 413.000000
464.125550 97.000000
465.128570 23.000000
609.096130 5.000000
609.121640 9.000000
609.181700 452.000000

>ms2
301.069120 24.000000
463.122130 210.000000
464.129180 54.000000
609.113340 10.000000
609.182250 1000.000000

>ms2
85.027350 8.000000
301.029910 11.000000
301.071320 1000.000000
302.074800 202.000000
303.073880 25.000000
303.089200 5.000000
463.122470 39.000000
464.132110 8.000000

>ms2
85.029910 11.000000
258.042300 23.000000
258.055850 36.000000
286.001890 8.000000
286.026520 28.000000
286.048980 531.000000
286.073550 5.000000
286.807310 5.000000
287.031280 10.000000
287.051570 90.000000
287.070430 8.000000
288.055330 17.000000
301.014040 8.000000
301.034000 11.000000
301.071810 1000.000000
302.046540 6.000000
302.074100 220.000000
303.079680 24.000000

>ms2
129.051530 6.000000
286.039950 8.000000
286.050720 14.000000
287.036440 10.000000
301.013980 16.000000
301.070620 1000.000000
302.072330 156.000000
303.078610 31.000000
463.057950 7.000000
463.123200 412.000000
464.073730 8.000000
464.126280 108.000000
464.143860 44.000000
465.133940 37.000000
609.118650 7.000000
609.173830 256.000000
609.193300 258.000000

>ms2
301.066890 13.000000
301.077300 9.000000
463.121520 192.000000
464.122530 45.000000
465.129300 6.000000
609.035520 5.000000
609.099060 8.000000
609.126220 21.000000
609.181880 1000.000000
609.251400 5.000000

>ms2
71.049050 7.000000
85.027370 14.000000
129.057620 9.000000
301.069670 1000.000000
302.073060 175.000000
303.078550 25.000000
463.106020 13.000000
463.118770 31.000000
464.128810 14.000000

>ms2
71.049220 7.000000
85.027750 8.000000
258.036350 8.000000
258.055050 69.000000
259.048190 7.000000
259.061740 11.000000
286.011320 31.000000
286.046660 453.000000
287.051850 90.000000
288.068210 9.000000
301.034450 9.000000
301.071010 1000.000000
302.037750 5.000000
302.074770 188.000000
303.074190 7.000000
303.087800 11.000000

>ms2
85.026300 6.000000
129.056730 7.000000
286.047420 22.000000
287.048030 7.000000
301.040040 6.000000
301.069150 1000.000000
302.074710 181.000000
303.082430 14.000000
463.085330 14.000000
463.120610 461.000000
463.140050 93.000000
464.093780 13.000000
464.129060 157.000000
465.114140 7.000000
465.131770 12.000000
609.127380 15.000000
609.181520 423.000000

>ms2
301.058720 5.000000
301.073490 7.000000
463.122440 185.000000
464.129300 36.000000
465.130800 13.000000
609.125180 26.000000
609.181210 1000.000000

>ms2
71.047310 8.000000
85.029340 15.000000
129.051210 6.000000
301.020840 8.000000
301.036190 7.000000
301.069430 1000.000000
302.073880 173.000000
303.080440 21.000000
463.123260 47.000000
464.127870 12.000000

>ms2
71.041220 5.000000
85.025300 10.000000
85.031230 14.000000
258.044800 21.000000
258.055420 36.000000
259.049130 7.000000
286.048100 496.000000
287.031830 14.000000
287.046780 35.000000
287.056580 37.000000
301.025300 10.000000
301.071500 1000.000000
302.041870 5.000000
302.073670 225.000000
303.043520 5.000000
303.066740 5.000000
303.080870 17.000000
304.076970 7.000000

