>compound PR33231547
>parentmass 398.3409
>ionization [M+H]+
>formula C27H43NO
>rt 359.400000
>profile qtof
#smiles_iso CC1CCC2C(C3C(N2C1)CC4C3(CCC5C4CC=C6C5(CCC(C6)O)C)C)C
#smiles_can CC1CCC2C(C3C(N2C1)CC4C3(CCC5C4CC=C6C5(CCC(C6)O)C)C)C
#inchikey JVKYZPBMZPJNAJ-UHFFFAOYSA-N
#pubchem_id 522740
#mb_accession PR310696

>ms2
58.064530 19.000000
95.087640 24.000000
98.089900 31.000000
98.096020 113.000000
98.102250 19.000000
113.389400 18.000000
126.122070 18.000000
126.129980 23.000000
129.067540 23.000000
145.551680 18.000000
147.111630 20.000000
157.101850 21.000000
158.034120 20.000000
171.111510 24.000000
175.110080 29.000000
175.143010 22.000000
182.274550 17.000000
186.146070 20.000000
195.121380 17.000000
197.131710 24.000000
198.742510 21.000000
209.122760 41.000000
214.158230 17.000000
221.734500 20.000000
230.382450 38.000000
230.413280 17.000000
231.664630 18.000000
240.236630 20.000000
245.878230 24.000000
290.184110 26.000000
328.260010 30.000000
339.287960 17.000000
381.907810 19.000000
383.280730 17.000000
383.307400 48.000000
396.286530 30.000000
396.331540 20.000000
396.350100 37.000000
397.321960 58.000000
397.335300 103.000000
397.519810 25.000000
397.882290 18.000000
397.920100 17.000000
398.253480 21.000000
398.272160 41.000000
398.291440 146.000000
398.308200 132.000000
398.340300 12395.000000
398.384190 59.000000
398.406920 18.000000

