>compound PR33038224
>parentmass 132.102
>ionization [M+H]+
>formula C6H13NO2
>rt 112.200000
>profile qtof
#smiles_iso CC(C)CC(C(=O)O)N
#smiles_can CC(C)CC(C(=O)O)N
#inchikey ROHFNLRQFUQHCH-UHFFFAOYSA-N
#pubchem_id 857
#mb_accession PR311150

>ms2peaks
86.063560 17.000000
86.096890 1647.000000
86.114750 25.000000
86.582070 18.000000
87.096390 54.000000
87.100940 15.000000
87.575610 20.000000
132.102370 536.000000
132.116090 29.000000

