>compound PR33412816
>parentmass 493.1328
>ionization [M]+
>formula C23H25O12+
>rt 252.600000
>profile qtof
#smiles_iso COC1=CC(=CC(=C1O)OC)C2=[O+]C3=CC(=CC(=C3C=C2OC4C(C(C(C(O4)CO)O)O)O)O)O
#smiles_can COC1=CC(=CC(=C1O)OC)C2=[O+]C3=CC(=CC(=C3C=C2OC4C(C(C(C(O4)CO)O)O)O)O)O
#inchikey PXUQTDZNOHRWLI-UHFFFAOYSA-O
#pubchem_id 3568969
#mb_accession PR311138

>ms2peaks
73.030450 16.000000
81.034410 16.000000
82.036030 18.000000
99.043010 16.000000
109.031140 18.000000
145.046950 18.000000
185.047730 18.000000
191.860410 26.000000
197.280850 21.000000
208.242020 19.000000
219.044280 18.000000
242.061980 19.000000
248.074840 26.000000
255.026950 38.000000
257.036770 23.000000
270.032010 16.000000
270.052460 156.000000
270.069270 28.000000
271.052090 41.000000
281.171230 23.000000
284.339170 21.000000
286.042330 75.000000
287.072720 16.000000
289.516330 18.000000
298.046940 115.000000
299.056670 61.000000
312.043850 16.000000
314.994510 53.000000
315.035640 160.000000
315.053100 879.000000
316.033020 37.000000
316.054470 345.000000
317.030610 20.000000
317.047150 51.000000
317.062410 18.000000
318.215910 19.000000
331.031650 27.000000
331.046420 106.000000
331.080600 9045.000000
331.128690 24.000000
331.157990 20.000000
331.267400 20.000000
332.006010 18.000000
332.044310 22.000000
332.083800 1684.000000
332.286650 18.000000
332.829190 18.000000
333.074830 90.000000
333.085750 66.000000
333.102600 26.000000
333.414310 16.000000
334.094760 55.000000
352.005400 16.000000
395.675690 16.000000
427.101750 17.000000
476.111110 21.000000
493.115840 86.000000
493.131070 311.000000
493.157140 30.000000

