>compound PR33808743
>parentmass 427.1379
>ionization [M+H]+
>formula C15H26N2O10S
>rt 127.200000
>profile qtof
#smiles_iso CSCC(C(=O)O)NC(=O)CCC(C(=O)O)NCC1(C(C(C(CO1)O)O)O)O
#smiles_can CSCC(C(=O)O)NC(=O)CCC(C(=O)O)NCC1(C(C(C(CO1)O)O)O)O
#inchikey OXQONDBZMLPJFL-UHFFFAOYSA-N
#pubchem_id 139292000
#mb_accession PR310820

>ms2peaks
61.459850 16.000000
69.033710 90.000000
76.037920 16.000000
84.046140 34.000000
98.058450 19.000000
103.025570 40.000000
106.189740 33.000000
108.045660 16.000000
109.028920 18.000000
112.023280 20.000000
112.039220 52.000000
116.013470 182.000000
116.021380 58.000000
119.018790 52.000000
125.039710 40.000000
126.059000 21.000000
127.022410 18.000000
130.050520 227.000000
131.051360 17.000000
133.037770 18.000000
136.014600 21.000000
138.053120 26.000000
143.999570 19.000000
144.012630 519.000000
144.053560 17.000000
144.063390 25.000000
144.070740 16.000000
145.018630 74.000000
145.081440 18.000000
146.000230 17.000000
154.030150 22.000000
154.047790 37.000000
154.055470 43.000000
155.047820 17.000000
156.048280 24.000000
156.061140 17.000000
159.040450 20.000000
160.000180 18.000000
160.038220 20.000000
162.003950 19.000000
162.020160 26.000000
162.055950 19.000000
163.057850 17.000000
164.058960 26.000000
171.020980 16.000000
171.041700 33.000000
172.023130 17.000000
174.059360 39.000000
177.063030 22.000000
180.089740 19.000000
183.814820 20.000000
184.062210 30.000000
185.064160 16.000000
193.048930 17.000000
199.053410 35.000000
201.082750 18.000000
202.069030 96.000000
203.059270 36.000000
205.058330 38.000000
213.090500 24.000000
213.103160 21.000000
215.058230 18.000000
216.901690 20.000000
223.073240 51.000000
230.048390 405.000000
231.043880 18.000000
231.056230 18.000000
232.049150 79.000000
235.069820 31.000000
236.024410 16.000000
236.049800 16.000000
239.049330 21.000000
240.078580 17.000000
241.056230 17.000000
241.068880 18.000000
241.082170 74.000000
242.070760 19.000000
243.096120 18.000000
243.106780 16.000000
246.079540 22.000000
247.070270 27.000000
248.051740 19.000000
248.064870 170.000000
249.062100 77.000000
252.051070 16.000000
252.347670 18.000000
253.076900 35.000000
255.042480 16.000000
257.046510 16.000000
257.056000 21.000000
257.066040 16.000000
260.087310 28.000000
260.103180 19.000000
265.077700 49.000000
265.086670 137.000000
271.101320 20.000000
278.004120 21.000000
286.066160 18.000000
298.069950 18.000000
325.070220 46.000000
325.088010 100.000000
326.082340 16.000000
327.080570 20.000000
328.553380 20.000000
332.091280 18.000000
339.039760 20.000000
343.062410 20.000000
343.092590 810.000000
343.106380 279.000000
344.041690 17.000000
344.105410 107.000000
345.093750 24.000000
346.102110 21.000000
350.175930 16.000000
355.095520 22.000000
363.117920 17.000000
372.351170 20.000000
373.061710 25.000000
373.102970 414.000000
373.123350 177.000000
374.082640 38.000000
374.096440 24.000000
374.119660 41.000000
375.100460 19.000000
375.117340 18.000000
391.110720 536.000000
391.123930 223.000000
391.145720 17.000000
392.081120 93.000000
392.123260 130.000000
393.110750 33.000000
393.124940 33.000000
394.124390 34.000000
398.840180 17.000000
409.021970 18.000000
409.126250 947.000000
409.138240 258.000000
410.097930 20.000000
410.133480 258.000000
411.123320 63.000000
412.128910 52.000000
427.062040 18.000000
427.126070 525.000000
427.139340 1684.000000

