>compound PR34970195
>parentmass 205.0824
>ionization [M+H]+
>formula C7H12N2O5
>rt 100.200000
>profile qtof
#smiles_iso C(CC(=O)NCC(=O)O)C(C(=O)O)N
#smiles_can C(CC(=O)NCC(=O)O)C(C(=O)O)N
#inchikey ACIJGUBIMXQCMF-UHFFFAOYSA-N
#pubchem_id 100099
#mb_accession PR311063

>ms2peaks
56.048930 18.000000
74.057420 56.000000
102.056220 189.000000
103.054700 36.000000
103.060390 20.000000
104.036960 18.000000
117.907950 18.000000
118.048600 17.000000
119.051100 29.000000
120.059530 18.000000
120.065790 20.000000
140.034730 20.000000
144.052370 20.000000
144.062190 20.000000
161.087660 21.000000
166.958500 24.000000
188.049970 34.000000
205.084670 642.000000

