>compound PR34817726
>parentmass 340.1097
>ionization [M+H]+
>formula C12H21NO8S
>rt 99.600000
>profile qtof
#smiles_iso C=CCS(=O)CC(C(=O)O)NCC1(C(C(C(CO1)O)O)O)O
#smiles_can C=CCS(=O)CC(C(=O)O)NCC1(C(C(C(CO1)O)O)O)O
#inchikey HXMZQSGMNGTGGB-UHFFFAOYSA-N
#pubchem_id 75052012
#mb_accession PR310818

>ms2
61.027470 34.000000
80.050890 21.000000
97.026410 22.000000
102.054200 19.000000
106.026080 16.000000
112.040460 36.000000
112.047040 16.000000
120.039310 25.000000
124.042560 50.000000
140.069030 18.000000
154.045590 19.000000
166.042980 17.000000
167.035640 16.000000
168.063580 37.000000
169.007490 27.000000
196.049500 23.000000
196.057800 16.000000
197.067700 27.000000
214.070920 426.000000
215.068560 18.000000
232.083630 34.000000
233.090880 23.000000
244.090650 17.000000
302.889950 21.000000
303.433500 20.000000
304.100490 47.000000
304.402620 33.000000
322.052460 16.000000
322.099760 53.000000
323.093480 18.000000
326.129700 18.000000
339.031070 38.000000
340.094540 38.000000
340.159820 18.000000

