>compound PR34702018
>parentmass 495.1773
>ionization [M+H]+
>formula C26H26N2O8
>rt 327.600000
>profile qtof
#smiles_iso C=CC1C2OC3C(C(C(C(O3)CO)O)O)OC(O2)C4=C1C=C5C6=C(CCN5C4=O)C7=CC=CC=C7N6
#smiles_can C=CC1C2OC3C(C(C(C(O3)CO)O)O)OC(O2)C4=C1C=C5C6=C(CCN5C4=O)C7=CC=CC=C7N6
#inchikey QBVLOMJKKLVAPJ-UHFFFAOYSA-N
#pubchem_id 139292021
#mb_accession PR311101

>ms2
158.082410 20.000000
169.079610 24.000000
207.096710 18.000000
244.096310 18.000000
247.088730 20.000000
261.069580 39.000000
263.077300 158.000000
264.063870 17.000000
264.080470 16.000000
264.091490 18.000000
265.100620 50.000000
266.108730 18.000000
285.085660 16.000000
285.113190 16.000000
287.116580 18.000000
304.118260 34.000000
315.112640 34.000000
316.114440 17.000000
317.119350 19.000000
362.264250 21.000000
494.180850 41.000000
495.157350 35.000000

