>compound PR34519195
>parentmass 146.0814
>ionization [M+H]+
>formula C6H11NO3
>rt 145.200000
>profile qtof
#smiles_iso C(CC=O)CC(C(=O)O)N
#smiles_can C(CC=O)CC(C(=O)O)N
#inchikey GFXYTQPNNXGICT-UHFFFAOYSA-N
#pubchem_id 207
#mb_accession PR311149

>ms2
100.072620 20.000000
128.072720 46.000000
129.077070 18.000000
146.067570 37.000000
146.080810 75.000000

