>compound PR34868280
>parentmass 254.16517378461538
>ionization [M+H]+
>formula C16H19N3
>rt 142.263692
>profile qtof
#smiles_iso CN1CCCCC1C2=CN=C(C=C2)C3=CN=CC=C3
#smiles_can CN1CCCCC1C2=CN=C(C=C2)C3=CN=CC=C3
#inchikey TZRDBHMKTWECOV-UHFFFAOYSA-N
#pubchem_id 161313
#mb_accession PR301351,PR301355,PR301359,PR301363,PR301367,PR301371,PR301375,PR301379,PR301383,PR301387,PR301391,PR301395,PR310557

>ms2
84.085900 5.000000
96.080750 10.000000
130.069790 11.000000
142.059560 5.000000
142.066680 9.000000
143.069230 7.000000
144.081360 14.000000
156.071350 7.000000
156.079480 9.000000
157.075240 80.000000
158.082110 8.000000
168.068730 7.000000
168.076890 7.000000
169.077260 75.000000
170.081670 50.000000
170.087940 23.000000
170.101120 7.000000
171.091750 163.000000
172.093230 20.000000
172.101150 21.000000
183.085980 17.000000
183.091810 48.000000
184.100010 8.000000
194.076660 12.000000
194.086820 15.000000
195.091720 53.000000
196.113460 10.000000
197.093700 6.000000
197.108990 52.000000
198.114200 16.000000
207.079970 9.000000
207.091920 36.000000
208.092990 9.000000
208.101640 9.000000
208.111710 5.000000
209.108670 16.000000
211.113910 10.000000
211.126600 14.000000
223.124510 89.000000
224.130910 11.000000
254.122100 5.000000
254.166730 1000.000000

>ms2
197.107540 6.000000
223.124800 7.000000
254.133260 7.000000
254.164460 1000.000000

>ms2
79.042160 11.000000
81.058970 9.000000
84.079440 17.000000
84.087140 11.000000
91.046730 11.000000
91.054470 12.000000
92.052890 20.000000
93.047510 13.000000
96.075700 12.000000
96.081090 34.000000
98.097260 50.000000
103.977330 14.000000
107.954100 8.000000
115.052310 34.000000
116.044980 16.000000
117.055400 9.000000
117.068130 9.000000
118.065430 27.000000
128.063890 16.000000
129.053960 10.000000
130.053540 9.000000
130.062760 8.000000
130.070190 25.000000
130.745190 7.000000
131.068340 8.000000
132.082340 12.000000
137.858890 8.000000
139.288790 11.000000
141.058040 12.000000
142.063290 69.000000
142.073330 23.000000
143.053570 11.000000
143.071500 20.000000
144.069730 23.000000
144.077160 35.000000
144.087540 17.000000
145.071620 17.000000
145.084760 14.000000
148.109050 7.000000
152.107360 13.000000
154.062680 36.000000
155.056950 7.000000
155.066440 8.000000
155.074870 8.000000
156.067150 36.000000
156.074160 9.000000
156.085890 32.000000
157.069050 80.000000
157.077290 347.000000
158.082080 31.000000
158.230990 16.000000
165.064910 11.000000
167.063310 8.000000
167.073040 70.000000
167.504670 8.000000
168.044270 21.000000
168.079830 190.000000
169.034100 9.000000
169.075070 595.000000
169.109770 12.000000
170.066570 17.000000
170.087430 492.000000
170.155590 8.000000
171.040820 9.000000
171.091960 1000.000000
171.734770 8.000000
171.953190 18.000000
172.080020 7.000000
172.093250 60.000000
172.103090 31.000000
178.067500 10.000000
178.079850 11.000000
180.067750 17.000000
180.079990 18.000000
181.088780 34.000000
182.080670 21.000000
182.090650 10.000000
183.093150 289.000000
184.086940 25.000000
184.107640 6.000000
184.115950 20.000000
185.097080 7.000000
186.103590 11.000000
187.235400 9.000000
192.077040 8.000000
193.079240 8.000000
194.058210 11.000000
194.075240 11.000000
194.086520 104.000000
194.096070 41.000000
195.060440 8.000000
195.074360 22.000000
195.090580 337.000000
196.041700 9.000000
196.099320 42.000000
196.112110 62.000000
197.091060 27.000000
197.098620 102.000000
197.108810 91.000000
197.536540 8.000000
198.115940 21.000000
204.061020 8.000000
206.096590 17.000000
206.361300 11.000000
207.091080 396.000000
208.092730 133.000000
208.104900 38.000000
208.117190 20.000000
209.108760 123.000000
209.137760 8.000000
210.091310 7.000000
210.113040 30.000000
211.118260 45.000000
211.127120 65.000000
212.122970 11.000000
212.130970 9.000000
221.100630 48.000000
221.112590 57.000000
222.107440 12.000000
223.124400 309.000000
224.119190 22.000000
224.132100 16.000000
225.142360 10.000000
226.141040 8.000000
227.130770 10.000000
239.134780 12.000000
252.155260 11.000000
254.131640 10.000000
254.148800 8.000000
254.165700 59.000000

>ms2
57.060780 72.000000
64.029180 91.000000
70.067690 86.000000
78.029320 102.000000
78.036190 321.000000
79.031560 53.000000
79.041200 58.000000
84.079560 55.000000
89.040590 47.000000
89.046010 72.000000
90.045790 108.000000
91.041850 47.000000
91.048340 50.000000
91.056080 100.000000
92.042910 58.000000
92.048810 58.000000
93.058380 72.000000
102.051350 64.000000
104.050230 271.000000
105.046710 111.000000
114.036450 47.000000
114.045000 114.000000
114.053190 50.000000
115.047930 271.000000
115.055640 482.000000
116.007100 91.000000
116.058420 166.000000
117.058820 230.000000
117.071760 50.000000
118.052540 53.000000
118.867570 47.000000
127.055240 111.000000
129.060290 105.000000
130.068480 249.000000
131.065000 141.000000
132.074650 55.000000
139.047270 50.000000
140.046880 89.000000
140.060350 55.000000
141.059860 402.000000
141.071670 69.000000
142.057800 125.000000
142.066940 307.000000
143.056460 64.000000
143.074140 53.000000
144.073140 91.000000
144.080460 61.000000
145.068530 47.000000
146.101200 50.000000
151.050860 191.000000
151.065770 58.000000
152.069310 150.000000
153.059840 47.000000
154.062000 258.000000
155.060240 319.000000
155.069080 139.000000
156.053420 58.000000
156.069960 230.000000
156.084530 78.000000
157.075960 515.000000
157.081570 249.000000
157.090680 80.000000
166.014420 50.000000
166.066160 180.000000
167.058850 80.000000
167.069060 222.000000
167.076140 440.000000
167.206830 50.000000
168.025560 64.000000
168.060460 119.000000
168.074460 316.000000
168.082980 324.000000
169.064850 139.000000
169.080020 183.000000
169.091310 83.000000
170.062820 55.000000
170.083340 1000.000000
170.095870 66.000000
171.080520 80.000000
172.096410 69.000000
177.056500 80.000000
178.063640 141.000000
179.054640 64.000000
180.086260 64.000000
181.071180 114.000000
181.084670 119.000000
183.090520 576.000000
184.089720 69.000000
184.103070 50.000000
185.096440 47.000000
192.054640 69.000000
192.068910 255.000000
193.071230 324.000000
194.079530 330.000000
194.097630 55.000000
195.071110 47.000000
195.082660 47.000000
195.091900 219.000000
197.109920 66.000000
205.085190 75.000000
206.089200 58.000000
207.088640 249.000000
207.096340 266.000000
208.096820 102.000000
210.106020 64.000000
210.117570 69.000000
211.125990 55.000000
221.101840 53.000000
226.982160 64.000000

>ms2
84.081790 7.000000
98.099400 8.000000
115.057340 12.000000
130.065400 16.000000
142.067050 18.000000
143.081240 6.000000
144.077120 7.000000
154.061330 7.000000
156.084700 5.000000
157.077300 53.000000
158.078090 11.000000
168.064800 9.000000
168.079390 16.000000
169.073810 72.000000
169.081220 39.000000
170.081410 39.000000
170.096760 15.000000
171.091640 177.000000
172.099290 16.000000
183.088580 18.000000
183.098850 24.000000
184.091750 13.000000
193.083890 9.000000
194.078490 11.000000
194.087230 8.000000
194.096510 9.000000
195.091930 47.000000
195.099380 24.000000
196.091400 10.000000
197.108410 103.000000
198.109130 19.000000
207.092300 49.000000
207.102200 15.000000
208.089460 18.000000
208.103210 21.000000
209.110050 15.000000
210.111220 6.000000
211.121230 33.000000
221.110380 11.000000
223.101750 8.000000
223.122860 76.000000
224.128950 17.000000
254.165130 1000.000000

>ms2
223.122540 6.000000
254.164600 1000.000000
254.211010 5.000000

>ms2
57.059230 7.000000
72.080340 12.000000
74.218270 15.000000
84.051690 11.000000
84.079580 15.000000
89.067530 10.000000
91.056130 9.000000
91.061520 7.000000
92.054930 18.000000
92.798700 12.000000
93.055790 9.000000
93.070890 9.000000
96.081340 38.000000
98.096820 72.000000
101.700870 9.000000
104.046040 9.000000
104.066870 10.000000
105.051260 10.000000
105.074010 9.000000
106.066730 14.000000
115.054730 41.000000
116.045060 14.000000
116.050620 17.000000
116.058160 12.000000
117.050070 7.000000
117.056580 20.000000
117.076730 7.000000
118.057970 11.000000
119.084300 8.000000
120.085420 9.000000
122.089530 10.000000
122.097470 15.000000
127.057560 10.000000
129.054700 11.000000
130.055830 31.000000
130.066070 81.000000
131.059860 10.000000
131.068560 10.000000
132.078460 10.000000
140.053280 7.000000
141.060010 18.000000
142.047160 10.000000
142.055800 15.000000
142.064240 55.000000
142.070210 76.000000
143.070690 18.000000
144.072480 25.000000
144.080230 101.000000
144.087970 22.000000
145.067080 7.000000
145.082570 10.000000
147.105360 9.000000
148.106160 8.000000
148.120440 17.000000
152.060870 22.000000
154.041240 18.000000
154.052960 12.000000
154.063050 16.000000
154.071780 9.000000
154.355320 12.000000
155.061630 7.000000
155.072540 7.000000
156.060360 21.000000
156.074070 19.000000
156.082630 8.000000
156.747710 9.000000
157.055450 15.000000
157.076430 370.000000
158.061810 17.000000
158.075010 10.000000
158.082110 10.000000
163.923870 7.000000
167.070880 94.000000
168.058380 11.000000
168.067670 29.000000
168.079040 131.000000
168.089450 53.000000
168.097980 7.000000
169.078690 806.000000
170.084840 533.000000
171.023510 7.000000
171.046920 7.000000
171.092210 1000.000000
172.096530 127.000000
172.104280 29.000000
173.213970 8.000000
173.369230 10.000000
180.086430 30.000000
181.041560 10.000000
181.074770 21.000000
182.083560 48.000000
183.074520 34.000000
183.092860 352.000000
184.098660 108.000000
184.120160 10.000000
185.113010 8.000000
193.072070 48.000000
194.082820 144.000000
194.093260 139.000000
195.071000 10.000000
195.092390 458.000000
196.083740 19.000000
196.100110 121.000000
196.107860 33.000000
197.099910 127.000000
197.109650 187.000000
197.124340 24.000000
197.258000 7.000000
198.088060 12.000000
198.107850 23.000000
199.113020 7.000000
201.072890 12.000000
204.080890 7.000000
205.073060 18.000000
205.091570 7.000000
206.100910 7.000000
207.076460 17.000000
207.091570 323.000000
208.054470 7.000000
208.076600 18.000000
208.101790 195.000000
208.115740 18.000000
209.101490 67.000000
209.110690 122.000000
210.104160 19.000000
210.111300 40.000000
211.123760 137.000000
213.123500 10.000000
214.127880 8.000000
215.066380 7.000000
216.016540 9.000000
220.109500 12.000000
221.103870 96.000000
221.113140 48.000000
222.113480 15.000000
222.126770 11.000000
223.092090 7.000000
223.107970 25.000000
223.124010 255.000000
224.129260 91.000000
225.139140 8.000000
226.132280 11.000000
226.140400 7.000000
227.145360 8.000000
230.053380 8.000000
236.780180 9.000000
238.130800 9.000000
254.147930 9.000000
254.163010 152.000000
254.175130 41.000000

>ms2
62.017750 113.000000
65.036250 61.000000
78.035470 140.000000
78.039290 130.000000
80.050450 82.000000
91.037490 72.000000
91.059840 130.000000
98.094880 72.000000
102.037050 85.000000
115.050540 109.000000
115.057730 208.000000
116.051810 249.000000
116.059530 55.000000
117.056620 184.000000
117.066740 61.000000
118.050210 96.000000
127.055540 270.000000
128.049450 386.000000
129.054240 177.000000
130.058780 89.000000
130.068150 297.000000
130.076140 137.000000
131.065080 68.000000
139.056920 102.000000
140.050550 58.000000
140.063870 82.000000
141.057170 307.000000
141.069490 75.000000
142.054440 89.000000
142.064190 137.000000
143.071900 294.000000
144.072190 106.000000
144.081220 177.000000
144.089420 78.000000
152.043810 58.000000
152.061770 85.000000
153.054780 102.000000
155.060750 150.000000
155.069850 116.000000
156.069080 266.000000
156.075910 338.000000
156.087170 167.000000
157.073290 126.000000
157.080840 123.000000
162.433150 68.000000
166.065490 85.000000
166.074450 72.000000
167.074810 1000.000000
168.064790 143.000000
168.071670 372.000000
168.089430 300.000000
169.070630 225.000000
169.083340 177.000000
170.072240 58.000000
170.083020 341.000000
170.091260 174.000000
171.094270 205.000000
177.050990 68.000000
178.066160 119.000000
178.072620 58.000000
180.069320 147.000000
180.078220 58.000000
181.082440 215.000000
182.085560 68.000000
183.081940 61.000000
183.093370 410.000000
184.087340 82.000000
185.910580 113.000000
192.063860 256.000000
193.067150 133.000000
193.075200 157.000000
193.216960 68.000000
194.080890 683.000000
194.090610 181.000000
194.103640 89.000000
195.079700 68.000000
195.092220 300.000000
196.069090 61.000000
196.091310 96.000000
201.052120 68.000000
203.071810 92.000000
206.079990 68.000000
207.091160 208.000000
207.100480 294.000000
208.099640 75.000000
209.105270 345.000000

>ms2
84.083110 5.000000
115.051900 8.000000
117.058710 8.000000
134.097460 6.000000
141.059830 6.000000
142.066700 10.000000
156.084120 6.000000
157.073900 41.000000
168.076540 10.000000
169.078340 83.000000
170.081270 67.000000
171.092130 153.000000
172.083660 12.000000
172.093630 8.000000
183.092150 27.000000
184.084930 9.000000
194.078110 10.000000
194.087330 13.000000
195.092380 50.000000
197.110140 53.000000
198.115260 7.000000
207.091020 56.000000
208.093960 17.000000
209.095400 7.000000
209.109470 17.000000
210.094040 5.000000
211.114910 9.000000
211.134870 5.000000
221.111080 6.000000
223.113240 19.000000
223.120210 36.000000
223.131850 49.000000
224.121510 11.000000
224.137560 6.000000
254.137700 6.000000
254.165150 1000.000000

>ms2
223.119350 8.000000
254.115920 6.000000
254.166460 1000.000000

>ms2
57.056170 7.000000
68.063380 7.000000
69.066700 7.000000
70.067530 7.000000
79.055820 11.000000
84.079520 34.000000
84.084400 14.000000
84.186610 7.000000
85.600360 9.000000
91.034580 11.000000
91.046970 7.000000
91.058040 9.000000
92.049810 18.000000
94.064100 7.000000
96.077710 16.000000
98.096720 35.000000
100.054950 8.000000
105.047270 10.000000
105.053790 7.000000
106.063620 8.000000
115.037030 7.000000
115.044530 8.000000
115.057460 10.000000
116.041640 20.000000
116.047930 11.000000
116.053690 7.000000
116.062590 6.000000
117.056760 12.000000
117.062310 17.000000
117.069420 9.000000
118.059510 6.000000
119.064500 8.000000
119.088860 6.000000
120.088830 11.000000
127.055590 7.000000
127.583990 8.000000
128.085880 11.000000
130.064060 78.000000
130.072420 50.000000
130.295360 7.000000
132.083280 9.000000
132.392410 6.000000
133.089660 7.000000
134.095050 14.000000
141.060960 11.000000
141.076830 14.000000
141.641190 7.000000
142.065890 146.000000
142.076800 15.000000
143.075930 45.000000
144.067440 17.000000
144.080550 103.000000
145.076200 7.000000
145.083620 14.000000
145.141340 8.000000
150.125690 10.000000
154.065870 38.000000
155.065700 26.000000
156.057540 8.000000
156.071040 133.000000
156.082090 30.000000
157.060680 15.000000
157.075240 474.000000
157.097630 7.000000
158.073210 23.000000
158.081360 29.000000
159.702420 7.000000
160.534740 7.000000
167.067370 17.000000
167.074680 22.000000
168.069050 81.000000
168.080060 79.000000
168.087970 41.000000
169.017820 9.000000
169.054320 6.000000
169.077970 658.000000
170.077380 229.000000
170.088100 220.000000
170.100460 85.000000
171.009460 8.000000
171.058650 18.000000
171.075300 37.000000
171.092990 1000.000000
171.185390 7.000000
172.060520 7.000000
172.095870 158.000000
174.039120 6.000000
180.089320 24.000000
181.070510 7.000000
181.081270 16.000000
181.093480 7.000000
182.080060 23.000000
182.090810 8.000000
182.104570 9.000000
183.064910 10.000000
183.089480 324.000000
183.099240 109.000000
184.097960 116.000000
185.090040 7.000000
187.012330 11.000000
189.065170 8.000000
191.084870 8.000000
193.053130 8.000000
193.074280 9.000000
193.087280 12.000000
194.077680 87.000000
194.088230 148.000000
195.084210 128.000000
195.092770 460.000000
196.056260 7.000000
196.079610 21.000000
196.098250 62.000000
196.108730 54.000000
196.121230 11.000000
197.056790 6.000000
197.096510 39.000000
197.109830 319.000000
198.108350 59.000000
198.120860 8.000000
204.087910 9.000000
204.159740 6.000000
205.087540 9.000000
206.887880 7.000000
207.093600 325.000000
207.102660 89.000000
207.123440 9.000000
208.083760 26.000000
208.098620 149.000000
209.066670 7.000000
209.089290 8.000000
209.103240 116.000000
209.111720 90.000000
210.102570 12.000000
210.113710 15.000000
210.132310 9.000000
210.735090 6.000000
211.109360 19.000000
211.120830 114.000000
211.686420 9.000000
212.121600 8.000000
212.130370 15.000000
212.141510 7.000000
220.101520 6.000000
221.106090 141.000000
222.100400 14.000000
222.109880 6.000000
223.123900 226.000000
223.137130 23.000000
223.416990 6.000000
224.084150 7.000000
224.119570 8.000000
225.827480 6.000000
226.121000 10.000000
237.138640 7.000000
237.497180 14.000000
239.128560 8.000000
239.152250 10.000000
241.637590 9.000000
254.154420 12.000000
254.169170 80.000000

>ms2
78.030840 97.000000
79.039120 54.000000
88.367720 54.000000
89.044040 101.000000
90.031700 45.000000
90.041030 57.000000
101.040950 118.000000
104.037820 52.000000
106.060860 54.000000
115.036010 142.000000
115.055000 512.000000
116.046680 116.000000
116.055160 146.000000
117.055480 85.000000
117.060570 78.000000
118.041880 52.000000
118.061470 83.000000
119.061780 59.000000
127.049900 90.000000
128.048900 255.000000
129.049190 40.000000
129.062390 66.000000
130.060060 257.000000
130.069990 57.000000
139.050840 52.000000
139.060210 42.000000
140.050700 97.000000
141.051850 184.000000
141.059070 219.000000
142.066710 434.000000
143.073270 349.000000
144.064870 47.000000
144.074840 116.000000
144.091380 64.000000
151.051860 153.000000
151.058110 50.000000
152.058270 101.000000
152.064330 57.000000
154.071810 40.000000
155.059370 262.000000
156.060260 42.000000
156.073640 149.000000
156.081760 361.000000
157.065830 42.000000
157.075100 47.000000
157.086320 106.000000
159.961810 68.000000
165.054860 92.000000
166.068410 97.000000
167.075240 1000.000000
168.073790 373.000000
168.082930 252.000000
169.077680 446.000000
170.067260 90.000000
170.079910 241.000000
170.089630 175.000000
171.090160 175.000000
172.085020 45.000000
176.056370 85.000000
178.054990 40.000000
179.047350 45.000000
179.071930 40.000000
180.078020 250.000000
180.088120 144.000000
182.088530 40.000000
183.087390 170.000000
183.096620 370.000000
184.087890 120.000000
184.101260 47.000000
185.093170 42.000000
192.066730 175.000000
193.077450 113.000000
193.085590 134.000000
194.055510 52.000000
194.075470 50.000000
194.091780 356.000000
195.079350 42.000000
195.090530 366.000000
196.095000 61.000000
196.104280 113.000000
207.083820 179.000000
207.094350 481.000000
208.099560 54.000000
209.113130 54.000000
221.111240 45.000000
238.140730 50.000000
254.155580 40.000000
254.167710 120.000000

>ms2
52.596990 18.000000
70.070030 27.000000
84.085900 48.000000
85.076340 24.000000
92.049140 18.000000
96.064980 21.000000
96.080750 93.000000
98.116510 20.000000
103.058960 21.000000
115.058590 41.000000
116.040210 20.000000
116.049690 21.000000
116.062740 29.000000
117.057030 18.000000
123.098920 20.000000
124.976280 30.000000
128.044620 17.000000
129.153950 20.000000
130.069790 103.000000
134.097490 25.000000
135.099490 21.000000
140.050580 18.000000
142.059560 49.000000
142.066680 81.000000
143.057770 18.000000
143.069230 65.000000
144.069050 21.000000
144.081360 125.000000
144.371950 17.000000
145.070360 27.000000
145.086520 39.000000
148.116670 20.000000
155.074110 19.000000
156.061050 18.000000
156.071350 63.000000
156.079480 81.000000
157.055150 17.000000
157.075240 731.000000
158.082110 73.000000
159.090100 23.000000
166.060910 21.000000
166.068940 22.000000
167.064480 31.000000
167.078870 45.000000
167.846890 24.000000
168.068730 68.000000
168.076890 64.000000
168.081680 28.000000
169.052030 18.000000
169.077260 680.000000
170.058580 22.000000
170.081670 452.000000
170.087940 205.000000
170.101120 63.000000
170.541700 17.000000
171.091750 1478.000000
172.093230 178.000000
172.101150 190.000000
178.062440 17.000000
179.296280 20.000000
180.076460 20.000000
181.070370 22.000000
182.093260 24.000000
183.075000 23.000000
183.085980 156.000000
183.091810 433.000000
184.100010 70.000000
184.115430 21.000000
185.112630 17.000000
192.068790 34.000000
192.200410 20.000000
194.076660 110.000000
194.086820 139.000000
194.744950 19.000000
195.052860 18.000000
195.072300 32.000000
195.091720 480.000000
196.100650 32.000000
196.113460 92.000000
196.938600 17.000000
197.076200 20.000000
197.093700 57.000000
197.108990 469.000000
198.105000 41.000000
198.114200 147.000000
205.078840 17.000000
206.090880 41.000000
206.107090 24.000000
207.058330 20.000000
207.079970 80.000000
207.091920 324.000000
208.092990 82.000000
208.101640 84.000000
208.111710 47.000000
209.108670 144.000000
209.115370 43.000000
210.118640 20.000000
211.113910 93.000000
211.126600 130.000000
212.115260 40.000000
212.129260 41.000000
221.099440 27.000000
221.111080 32.000000
221.119840 35.000000
223.104370 20.000000
223.124510 806.000000
224.130910 103.000000
237.130230 17.000000
239.141630 24.000000
252.152080 24.000000
254.106550 24.000000
254.122100 48.000000
254.131480 31.000000
254.166730 9091.000000
254.206270 37.000000
254.341630 24.000000

