>compound PR34135162
>parentmass 593.1864821999999
>ionization [M+H]+
>formula C28H32O14
>rt 311.577960
>profile qtof
#smiles_iso C[C@H]1[C@@H]([C@H]([C@H]([C@@H](O1)OC[C@@H]2[C@H]([C@@H]([C@H]([C@@H](O2)OC3=CC(=C4C(=C3)OC(=CC4=O)C5=CC=C(C=C5)OC)O)O)O)O)O)O)O
#smiles_can CC1C(C(C(C(O1)OCC2C(C(C(C(O2)OC3=CC(=C4C(=C3)OC(=CC4=O)C5=CC=C(C=C5)OC)O)O)O)O)O)O)O
#inchikey YFVGIJBUXMQFOF-PJOVQGMDSA-N
#pubchem_id 5317025
#mb_accession PR302626,PR302632,PR302638,PR302644,PR302650,PR302656,PR302662,PR302668,PR302674,PR302680,PR302686,PR302692

>ms2
71.046650 7.000000
200.821150 5.000000
242.059220 5.000000
285.025730 15.000000
285.042020 10.000000
285.076110 1000.000000
286.042360 6.000000
286.083040 226.000000
287.075260 18.000000
287.086120 16.000000
294.819730 6.000000
314.815340 5.000000
447.089570 9.000000
447.126220 470.000000
448.104280 8.000000
448.131500 111.000000
449.133970 26.000000
449.156890 6.000000
593.187680 438.000000

>ms2
285.071380 7.000000
285.083710 5.000000
447.125400 199.000000
448.130770 76.000000
449.123470 7.000000
449.147310 8.000000
593.075740 8.000000
593.105470 6.000000
593.139220 15.000000
593.188350 1000.000000

>ms2
85.028350 11.000000
129.056750 11.000000
285.026890 6.000000
285.040710 7.000000
285.075260 1000.000000
286.080540 152.000000
287.076900 16.000000
287.089750 12.000000
447.110600 7.000000
447.130040 26.000000
448.141420 5.000000

>ms2
85.026180 8.000000
85.032040 15.000000
133.062290 11.000000
135.046460 6.000000
153.020460 15.000000
242.051160 23.000000
242.064220 11.000000
242.071810 11.000000
243.053600 7.000000
243.067750 14.000000
270.051540 98.000000
270.853820 8.000000
271.053250 18.000000
271.071290 10.000000
285.040860 6.000000
285.075930 1000.000000
286.079740 211.000000
287.084660 35.000000

>ms2
85.031300 16.000000
119.880170 5.000000
129.052460 13.000000
285.075990 1000.000000
286.079590 165.000000
286.090330 41.000000
287.071530 9.000000
287.084260 13.000000
447.061710 6.000000
447.084260 15.000000
447.128230 439.000000
448.109990 39.000000
448.128600 113.000000
449.122680 10.000000
593.084530 8.000000
593.126590 14.000000
593.186100 582.000000

>ms2
285.071560 7.000000
447.096370 11.000000
447.129790 224.000000
448.121730 21.000000
448.136900 42.000000
449.141330 6.000000
593.126460 25.000000
593.187320 1000.000000

>ms2
129.053540 10.000000
285.026370 9.000000
285.041440 14.000000
285.075870 1000.000000
286.079320 207.000000
287.080170 33.000000
447.131440 30.000000

>ms2
133.061810 5.000000
153.024410 7.000000
242.054920 44.000000
242.063060 21.000000
242.080310 7.000000
243.062320 10.000000
243.073330 6.000000
270.052430 79.000000
270.063230 40.000000
271.048710 6.000000
271.061370 12.000000
285.021580 8.000000
285.038910 14.000000
285.076720 1000.000000
286.075130 91.000000
286.087250 54.000000
287.066470 7.000000
287.080080 8.000000
287.090480 9.000000
593.196590 18.000000

>ms2
179.731400 5.000000
271.049290 6.000000
285.023740 8.000000
285.047300 14.000000
285.075990 1000.000000
286.054720 12.000000
286.068630 51.000000
286.080720 187.000000
287.067750 10.000000
287.077090 26.000000
287.091090 6.000000
439.337860 5.000000
447.069760 5.000000
447.110410 66.000000
447.131380 337.000000
448.130620 148.000000
449.124020 17.000000
449.149810 10.000000
593.125180 5.000000
593.185420 402.000000

>ms2
285.074310 17.000000
447.077790 15.000000
447.127350 218.000000
448.130920 35.000000
593.093750 8.000000
593.117310 13.000000
593.187810 1000.000000

>ms2
85.030450 19.000000
285.044400 9.000000
285.076110 1000.000000
286.080690 180.000000
287.076720 11.000000
287.087370 9.000000
287.105010 8.000000
447.128360 25.000000
448.135040 8.000000

>ms2
85.029460 13.000000
133.062930 5.000000
153.022980 5.000000
242.052580 52.000000
242.068080 9.000000
243.060010 15.000000
269.969420 6.000000
270.023620 5.000000
270.055150 123.000000
271.053830 7.000000
285.005070 5.000000
285.014590 7.000000
285.044920 8.000000
285.075960 1000.000000
286.048490 6.000000
286.079500 198.000000
287.086730 28.000000
593.192140 10.000000

