>compound PR35902237
>parentmass 231.1015707384615
>ionization [M+H]+
>formula C14H14O3
>rt 308.762788
>profile qtof
#smiles_iso C1=CC(=CC=C1CCC2=CC(=CC(=C2)O)O)O
#smiles_can C1=CC(=CC=C1CCC2=CC(=CC(=C2)O)O)O
#inchikey HITJFUSPLYBJPE-UHFFFAOYSA-N
#pubchem_id 185914
#mb_accession PR304180,PR304182,PR304184,PR304186,PR304188,PR304190,PR304192,PR304194,PR304196,PR304198,PR304200,PR304202,PR310694

>ms2
51.021780 7.000000
56.017240 14.000000
68.995880 8.000000
77.026470 7.000000
77.039040 16.000000
79.049090 8.000000
79.052890 7.000000
81.072330 9.000000
91.054330 70.000000
91.061430 15.000000
93.030980 10.000000
93.070540 29.000000
94.039520 8.000000
103.052250 8.000000
103.059500 20.000000
105.749530 8.000000
107.049670 492.000000
107.888540 9.000000
108.048900 42.000000
108.058780 8.000000
109.048940 8.000000
109.064630 21.000000
109.074600 7.000000
110.066620 19.000000
110.193050 8.000000
110.948290 13.000000
119.046460 8.000000
121.032750 8.000000
121.046490 8.000000
121.065160 490.000000
122.065640 38.000000
122.074910 33.000000
123.045490 7.000000
125.060520 52.000000
137.059660 1000.000000
138.059160 47.000000
138.070560 34.000000
139.053180 8.000000
139.064060 9.000000
139.117200 9.000000
149.950760 9.000000
155.190730 9.000000
156.718580 8.000000
178.075870 7.000000
183.076920 8.000000
213.079990 8.000000
214.106120 9.000000
231.021680 11.000000
231.067900 8.000000
231.103560 922.000000

>ms2
107.049160 45.000000
121.064130 90.000000
122.068990 8.000000
125.059870 16.000000
125.066400 5.000000
137.060170 208.000000
138.062940 20.000000
213.087830 9.000000
231.102280 1000.000000

>ms2
64.995200 9.000000
65.039680 10.000000
65.044120 11.000000
68.991330 11.000000
68.999990 24.000000
70.000220 8.000000
77.036670 91.000000
79.044690 8.000000
79.053490 41.000000
81.065610 9.000000
81.071010 9.000000
82.074570 11.000000
91.047030 30.000000
91.055500 257.000000
92.603000 9.000000
93.062770 20.000000
93.066950 50.000000
93.075500 42.000000
94.040680 39.000000
95.049130 21.000000
103.050160 26.000000
103.056580 53.000000
107.020360 13.000000
107.049050 1000.000000
108.052880 85.000000
109.057720 38.000000
109.065100 94.000000
110.035070 17.000000
110.060410 12.000000
110.068650 28.000000
111.069980 8.000000
116.230450 8.000000
118.492100 8.000000
119.044530 20.000000
119.053500 11.000000
119.150700 9.000000
120.046300 8.000000
121.066550 159.000000
122.066800 15.000000
123.042880 10.000000
124.607130 9.000000
125.058350 38.000000
135.082030 8.000000
137.059860 133.000000
138.060900 18.000000
138.071210 8.000000
139.063600 8.000000
165.068830 11.000000

>ms2
88.037100 246.000000
107.048200 1000.000000
108.057590 149.000000
115.061460 142.000000
118.068830 157.000000
231.114090 149.000000

>ms2
65.037450 11.000000
68.998550 18.000000
75.878940 8.000000
77.029880 13.000000
77.039270 19.000000
79.053030 18.000000
81.070840 13.000000
90.041130 8.000000
91.046740 8.000000
91.054110 41.000000
93.033630 8.000000
93.066960 26.000000
100.034870 8.000000
103.034860 8.000000
103.046710 26.000000
103.056710 18.000000
104.054370 10.000000
104.059300 12.000000
107.028370 9.000000
107.048720 599.000000
108.053470 10.000000
109.061440 27.000000
115.048810 10.000000
119.049040 10.000000
121.044330 17.000000
121.063820 342.000000
121.072640 74.000000
122.070460 27.000000
123.041790 8.000000
123.050740 7.000000
125.031820 8.000000
125.057990 94.000000
127.068630 10.000000
137.059340 979.000000
138.053740 9.000000
138.065830 116.000000
138.606800 8.000000
139.060070 8.000000
139.069140 8.000000
161.064420 10.000000
169.084850 12.000000
176.426350 11.000000
185.083470 8.000000
189.093800 15.000000
212.090870 7.000000
213.085720 15.000000
227.080350 7.000000
230.714660 7.000000
231.075350 9.000000
231.102780 1000.000000

>ms2
107.043590 14.000000
107.049030 49.000000
108.049540 6.000000
121.063920 115.000000
122.069260 14.000000
125.057120 9.000000
137.058820 236.000000
138.061370 21.000000
231.077880 6.000000
231.101240 1000.000000

>ms2
65.028020 10.000000
65.036730 14.000000
65.040990 8.000000
66.045150 11.000000
68.996190 49.000000
69.002340 9.000000
69.035160 10.000000
76.956930 8.000000
77.032350 8.000000
77.039170 82.000000
78.041760 13.000000
79.049220 13.000000
79.054910 29.000000
80.055180 10.000000
81.070570 31.000000
81.076430 20.000000
89.387930 12.000000
91.054290 277.000000
92.051910 12.000000
93.027690 17.000000
93.049500 13.000000
93.067990 128.000000
94.033870 8.000000
94.039760 20.000000
95.050320 31.000000
96.056650 10.000000
103.055400 187.000000
103.674740 8.000000
104.050480 9.000000
107.028840 10.000000
107.049160 1000.000000
107.230030 9.000000
108.052390 48.000000
109.062580 112.000000
109.167370 9.000000
110.038810 18.000000
110.070460 9.000000
119.041890 34.000000
119.047390 70.000000
120.044590 10.000000
121.062870 190.000000
122.068700 9.000000
123.041140 10.000000
136.823650 9.000000
136.894870 8.000000
136.922850 9.000000
137.059200 142.000000
137.065200 46.000000
138.067830 20.000000
144.061950 14.000000
147.038150 12.000000
147.075710 10.000000
165.069490 9.000000
166.070020 9.000000
195.067830 11.000000

>ms2
77.032050 139.000000
77.038490 883.000000
78.044560 124.000000
79.047730 161.000000
79.054830 168.000000
91.047620 161.000000
103.053170 212.000000
107.048630 1000.000000
145.615300 124.000000
158.960850 204.000000
231.105380 153.000000

>ms2
65.040440 5.000000
67.054100 6.000000
68.991680 6.000000
68.998400 7.000000
77.038340 27.000000
78.037890 6.000000
81.033290 10.000000
81.065090 7.000000
91.052270 39.000000
92.055710 7.000000
93.066970 22.000000
93.072280 12.000000
94.038570 6.000000
94.070790 14.000000
103.048060 14.000000
103.060200 6.000000
104.059490 13.000000
106.108260 8.000000
107.028050 5.000000
107.049260 445.000000
108.051020 52.000000
108.065800 8.000000
109.061620 61.000000
110.062080 8.000000
110.067370 20.000000
111.046290 12.000000
118.072160 12.000000
119.048550 13.000000
121.065080 422.000000
122.072530 5.000000
123.044320 6.000000
123.048990 9.000000
125.054780 26.000000
125.062100 33.000000
126.058830 6.000000
126.693630 6.000000
134.062240 7.000000
137.038860 8.000000
137.059080 1000.000000
138.051880 8.000000
138.059970 44.000000
138.067670 39.000000
142.089520 7.000000
143.082030 7.000000
145.056760 5.000000
146.175400 6.000000
164.053890 6.000000
167.090150 7.000000
169.066100 8.000000
173.062010 6.000000
185.100830 5.000000
187.563770 6.000000
212.082280 6.000000
213.091610 7.000000
230.079420 6.000000
231.101380 788.000000
231.148480 6.000000

>ms2
107.046410 40.000000
121.058160 43.000000
121.066210 83.000000
122.062360 6.000000
125.058120 15.000000
137.042040 6.000000
137.059770 271.000000
138.059920 14.000000
138.066380 7.000000
213.091980 6.000000
231.044630 6.000000
231.101620 1000.000000

>ms2
67.055160 8.000000
68.061000 11.000000
69.036930 12.000000
77.019890 8.000000
77.038850 109.000000
78.039490 9.000000
78.044820 11.000000
78.764980 13.000000
79.047940 8.000000
79.053900 38.000000
79.060110 9.000000
80.057280 13.000000
81.069980 64.000000
81.574740 9.000000
82.070720 9.000000
82.077420 9.000000
91.042050 8.000000
91.054200 288.000000
92.055720 9.000000
92.066500 16.000000
93.038540 19.000000
93.069900 73.000000
94.042070 10.000000
94.072550 12.000000
95.052670 10.000000
101.038320 9.000000
102.039550 10.000000
103.034680 10.000000
103.055720 168.000000
104.054310 8.000000
104.147300 13.000000
107.048810 1000.000000
108.051470 43.000000
108.158760 9.000000
109.056430 11.000000
109.067030 68.000000
109.130710 8.000000
109.719380 8.000000
110.043080 12.000000
118.649100 9.000000
119.048020 19.000000
120.050780 9.000000
121.063830 214.000000
122.060360 13.000000
122.999600 16.000000
123.040700 9.000000
123.046300 13.000000
124.052220 10.000000
125.033480 9.000000
125.062500 20.000000
126.061650 9.000000
127.386260 8.000000
137.059230 131.000000
137.067950 30.000000
138.068280 23.000000
143.087780 10.000000
167.091630 12.000000
185.090230 9.000000

>ms2
77.028180 148.000000
77.034290 430.000000
77.039790 1000.000000
91.049130 465.000000
91.057420 275.000000
103.052090 120.000000
103.064720 120.000000
107.046560 275.000000
108.050900 303.000000
110.013260 190.000000
110.038360 134.000000

>ms2
51.021780 17.000000
56.017240 36.000000
68.995880 21.000000
77.026470 17.000000
77.039040 40.000000
79.049090 20.000000
79.052890 17.000000
81.072330 23.000000
91.054330 177.000000
91.061430 39.000000
93.030980 25.000000
93.070540 74.000000
94.039520 21.000000
103.052250 19.000000
103.059500 50.000000
105.749530 20.000000
107.049670 1245.000000
107.888540 24.000000
108.048900 107.000000
108.058780 20.000000
109.048940 21.000000
109.064630 54.000000
109.074600 17.000000
110.066620 47.000000
110.193050 21.000000
110.948290 32.000000
119.046460 19.000000
121.032750 20.000000
121.046490 19.000000
121.065160 1240.000000
122.065640 97.000000
122.074910 83.000000
123.045490 18.000000
125.060520 132.000000
137.059660 2530.000000
138.059160 120.000000
138.070560 87.000000
139.053180 19.000000
139.064060 24.000000
139.117200 24.000000
149.950760 22.000000
155.190730 23.000000
156.718580 19.000000
178.075870 17.000000
183.076920 21.000000
213.079990 21.000000
214.106120 22.000000
231.021680 28.000000
231.067900 19.000000
231.103560 2333.000000

