>compound PR35536038
>parentmass 325.1391
>ionization [M+H]+
>formula C15H20N2O6
>rt 198.000000
>profile qtof
#smiles_iso CC1=CC2=C(C=C1C)N(C(=O)C(=O)N2)CC(C(C(CO)O)O)O
#smiles_can CC1=CC2=C(C=C1C)N(C(=O)C(=O)N2)CC(C(C(CO)O)O)O
#inchikey SLOQSNHEHSCLGS-UHFFFAOYSA-N
#pubchem_id 605462
#mb_accession PR310798

>ms2
69.038870 18.000000
70.032070 18.000000
81.036630 27.000000
90.045910 18.000000
91.055160 21.000000
145.077320 28.000000
145.966950 26.000000
173.059520 22.000000
173.067700 27.000000
173.086290 17.000000
174.078460 23.000000
191.081770 255.000000
231.113800 20.000000
242.017060 24.000000
263.133640 20.000000
288.020690 21.000000
307.106810 21.000000
307.123720 41.000000
307.136320 150.000000
308.126010 24.000000
309.126250 18.000000
309.144740 25.000000
325.110840 60.000000
325.139500 457.000000
325.206270 17.000000

