>compound PR35240202
>parentmass 595.2021322
>ionization [M+H]+
>formula C28H34O14
>rt 319.657020
>profile qtof
#smiles_iso C[C@H]1[C@@H]([C@H]([C@H]([C@@H](O1)OC[C@@H]2[C@H]([C@@H]([C@H]([C@@H](O2)OC3=CC(=C4C(=O)C[C@H](OC4=C3)C5=CC=C(C=C5)OC)O)O)O)O)O)O)O
#smiles_can CC1C(C(C(C(O1)OCC2C(C(C(C(O2)OC3=CC(=C4C(=O)CC(OC4=C3)C5=CC=C(C=C5)OC)O)O)O)O)O)O)O
#inchikey RMCRQBAILCLJGU-HIBKWJPLSA-N
#pubchem_id 16760075
#mb_accession PR302154,PR302159,PR302164,PR302169,PR302174,PR302179,PR302184,PR302189,PR302194,PR302199,PR302204,PR302209

>ms2
59.386950 8.000000
71.041090 8.000000
71.049520 20.000000
72.054030 21.000000
73.053910 15.000000
85.026410 60.000000
85.032070 25.000000
87.046080 9.000000
99.047330 11.000000
111.049770 17.000000
129.044570 11.000000
129.054730 83.000000
135.082350 9.000000
145.050610 24.000000
147.059690 7.000000
147.065610 23.000000
151.035980 9.000000
153.007050 11.000000
153.017840 69.000000
154.013550 7.000000
155.016240 10.000000
161.052950 15.000000
161.060730 18.000000
161.068250 9.000000
165.021500 12.000000
171.580430 13.000000
179.022460 9.000000
191.031600 13.000000
195.008300 10.000000
195.028820 209.000000
196.024520 15.000000
207.030240 11.000000
214.839290 10.000000
217.027440 12.000000
217.058560 12.000000
219.020280 16.000000
219.030040 21.000000
237.029660 7.000000
237.053960 14.000000
245.035140 13.000000
245.044240 17.000000
245.051040 7.000000
245.080090 12.000000
246.028980 10.000000
246.040330 11.000000
246.049680 14.000000
256.090180 7.000000
261.027100 11.000000
261.045590 13.000000
261.347780 7.000000
262.054350 11.000000
263.048370 29.000000
263.060760 63.000000
263.856480 7.000000
264.068540 28.000000
267.611660 7.000000
279.038600 9.000000
279.058560 9.000000
280.052830 10.000000
281.060850 39.000000
281.254460 9.000000
282.064940 7.000000
285.456210 7.000000
286.781220 7.000000
287.035130 7.000000
287.092500 1000.000000
287.340180 7.000000
288.089260 95.000000
288.099580 67.000000
288.110900 19.000000
289.101620 19.000000
290.103360 11.000000
295.607240 8.000000
297.059270 9.000000
298.055660 7.000000
299.091770 17.000000
300.097260 7.000000
313.056850 9.000000
329.088870 26.000000
329.104060 50.000000
329.115450 22.000000
330.100590 17.000000
335.559140 9.000000
337.117160 14.000000
338.104460 9.000000
339.090450 10.000000
353.059750 12.000000
353.090910 19.000000
353.104370 11.000000
353.126370 12.000000
354.089540 9.000000
354.100710 13.000000
355.107270 9.000000
363.089420 7.000000
377.103820 9.000000
379.101140 9.000000
380.098110 16.000000
380.110110 7.000000
395.116940 7.000000
396.104310 10.000000
396.116940 11.000000
396.134920 10.000000
397.107210 8.000000
397.128300 104.000000
398.119200 19.000000
398.134120 11.000000
399.138030 8.000000
407.116850 14.000000
413.101590 9.000000
413.146760 7.000000
415.111270 16.000000
415.127990 59.000000
415.147430 21.000000
415.268190 11.000000
419.141270 7.000000
431.110960 14.000000
431.127780 44.000000
431.151210 13.000000
432.137820 21.000000
433.090360 20.000000
433.147370 332.000000
434.120120 9.000000
434.152800 54.000000
435.166080 17.000000
440.135770 8.000000
443.114810 12.000000
447.108640 7.000000
449.100920 13.000000
449.127930 83.000000
449.152100 86.000000
450.142700 73.000000
457.145320 27.000000
463.127320 9.000000
473.126980 21.000000
479.125950 14.000000
512.124510 16.000000
541.183230 10.000000
559.169560 13.000000
559.193480 15.000000
560.174380 13.000000
577.226620 10.000000
594.831240 11.000000
595.050660 10.000000
595.148440 13.000000
595.195740 244.000000
595.225400 39.000000

>ms2
75.268960 13.000000
85.028240 7.000000
129.050060 25.000000
129.058350 21.000000
226.074510 8.000000
255.088940 7.000000
269.049770 16.000000
272.437710 8.000000
273.099550 9.000000
281.060360 29.000000
281.075650 27.000000
283.066680 8.000000
287.091030 340.000000
288.086880 17.000000
288.098360 56.000000
288.964140 8.000000
289.086490 11.000000
300.099210 8.000000
307.118470 7.000000
329.103970 61.000000
331.096650 8.000000
332.111630 7.000000
334.051030 11.000000
351.772770 8.000000
353.077550 8.000000
355.108830 19.000000
379.108280 7.000000
395.106200 10.000000
395.123410 10.000000
397.109620 8.000000
397.122280 22.000000
398.138150 41.000000
399.134550 8.000000
407.101170 23.000000
415.129090 122.000000
415.144410 113.000000
416.132170 53.000000
416.150510 7.000000
419.124110 9.000000
421.775480 8.000000
431.128690 53.000000
431.142970 44.000000
432.129640 17.000000
432.269780 8.000000
433.038150 8.000000
433.112340 46.000000
433.148100 900.000000
434.084630 8.000000
434.116180 8.000000
434.149320 242.000000
434.207860 7.000000
434.266970 10.000000
435.116420 9.000000
435.150360 39.000000
436.157440 13.000000
436.205660 7.000000
437.163570 10.000000
443.109920 7.000000
443.140720 10.000000
444.764100 9.000000
449.141690 467.000000
450.105680 8.000000
450.125460 12.000000
450.149170 48.000000
450.165280 11.000000
451.141480 8.000000
454.112670 7.000000
457.157140 9.000000
461.133360 10.000000
473.131350 10.000000
473.151640 8.000000
473.178220 11.000000
475.155430 17.000000
480.145390 8.000000
492.162380 27.000000
511.145510 8.000000
523.190490 14.000000
531.122860 13.000000
541.116700 8.000000
541.143250 9.000000
541.161070 22.000000
541.186340 11.000000
559.192810 40.000000
560.187260 26.000000
577.101990 7.000000
577.195680 8.000000
578.203740 8.000000
592.236510 7.000000
593.183720 8.000000
595.040100 7.000000
595.151000 18.000000
595.204530 1000.000000
595.315860 8.000000

>ms2
71.045070 29.000000
71.050900 15.000000
83.048950 11.000000
85.021390 26.000000
85.028080 77.000000
85.033580 28.000000
86.030760 7.000000
88.039070 7.000000
92.305530 6.000000
109.070960 7.000000
129.055480 112.000000
129.064240 17.000000
146.054760 13.000000
152.802120 6.000000
153.018890 100.000000
154.023010 10.000000
161.052490 45.000000
161.062270 16.000000
163.064240 6.000000
165.025250 20.000000
177.021680 7.000000
179.025940 12.000000
179.036640 12.000000
185.149860 6.000000
186.768830 7.000000
191.029860 7.000000
193.952620 7.000000
195.011290 11.000000
195.027210 157.000000
206.567730 9.000000
207.009510 10.000000
217.043820 9.000000
219.019610 16.000000
219.032300 66.000000
220.037220 27.000000
231.027080 13.000000
231.048320 9.000000
232.030010 8.000000
232.096250 7.000000
240.441090 7.000000
245.048890 29.000000
245.061630 8.000000
246.043050 20.000000
249.029850 7.000000
255.077730 6.000000
257.257660 8.000000
262.036500 7.000000
263.000790 10.000000
263.026730 13.000000
263.056210 128.000000
264.060580 27.000000
273.033720 6.000000
281.047550 6.000000
281.062590 28.000000
281.076930 13.000000
282.070430 18.000000
285.027070 9.000000
286.664220 6.000000
287.034060 24.000000
287.091460 1000.000000
288.038420 14.000000
288.093170 184.000000
289.106480 6.000000
299.086980 7.000000
299.101170 14.000000
300.071410 7.000000
309.153110 15.000000
311.084870 22.000000
311.095640 16.000000
313.067350 12.000000
325.090670 7.000000
329.088440 14.000000
329.103820 36.000000
330.095580 15.000000
339.103360 7.000000
349.101810 8.000000
353.092410 20.000000
353.108640 29.000000
353.125580 6.000000
354.105320 15.000000
359.083500 7.000000
363.562620 11.000000
365.103490 14.000000
377.082580 10.000000
379.114470 31.000000
380.135930 7.000000
397.127990 7.000000
398.148590 8.000000
413.115230 16.000000
413.130800 9.000000
415.127080 8.000000
415.156400 7.000000
425.083590 7.000000
433.157990 6.000000

>ms2
57.033000 37.000000
57.037640 36.000000
57.419990 21.000000
58.922830 26.000000
68.026010 23.000000
68.996860 25.000000
71.050580 194.000000
71.347990 20.000000
85.024700 57.000000
87.034270 22.000000
107.048190 27.000000
111.009380 22.000000
121.063640 62.000000
121.070790 24.000000
123.046220 36.000000
127.040460 36.000000
133.059880 47.000000
133.066850 70.000000
135.043950 21.000000
135.084490 19.000000
149.019320 26.000000
153.018300 1000.000000
153.347850 19.000000
154.017970 96.000000
154.025010 64.000000
161.059600 527.000000
162.062970 23.000000
163.043990 36.000000
165.010830 59.000000
165.023180 68.000000
166.028410 48.000000
171.072770 27.000000
177.027860 61.000000
177.052340 25.000000
179.031850 39.000000
183.080960 38.000000
189.009900 24.000000
191.006640 24.000000
191.030980 76.000000
191.039870 58.000000
192.033280 52.000000
194.984710 33.000000
195.017900 25.000000
195.027470 88.000000
196.024380 25.000000
196.033920 22.000000
203.032100 147.000000
205.060260 30.000000
207.027630 36.000000
212.040650 36.000000
217.060200 27.000000
219.019030 107.000000
219.031370 25.000000
231.032990 45.000000
245.045180 23.000000
245.053340 22.000000
257.049190 23.000000
263.055240 19.000000
266.020600 54.000000
267.110260 22.000000
268.150240 33.000000
273.047390 20.000000
286.074800 23.000000
287.081670 61.000000
287.096370 140.000000
288.045870 20.000000
288.100430 96.000000
313.084690 23.000000

>ms2
67.888550 6.000000
69.035010 31.000000
71.048650 12.000000
71.052550 27.000000
85.025790 33.000000
85.031340 32.000000
85.688710 6.000000
86.032810 6.000000
87.045960 10.000000
97.029270 10.000000
129.055800 92.000000
133.058820 10.000000
147.056180 15.000000
147.067600 18.000000
153.005710 16.000000
153.019550 57.000000
161.050220 9.000000
161.058440 21.000000
163.060040 12.000000
174.093870 8.000000
177.014660 7.000000
178.018070 13.000000
179.039200 13.000000
195.009340 6.000000
195.030270 55.000000
195.068620 6.000000
203.033170 30.000000
207.053340 14.000000
219.024340 20.000000
219.038860 19.000000
220.035290 15.000000
221.044890 6.000000
223.025180 11.000000
231.020140 14.000000
231.029510 7.000000
245.027800 12.000000
245.045810 46.000000
245.077240 8.000000
249.042270 11.000000
263.059690 65.000000
263.324160 6.000000
274.087680 9.000000
281.058290 63.000000
285.083040 14.000000
285.982850 9.000000
286.580380 10.000000
286.990450 13.000000
287.018070 15.000000
287.060060 23.000000
287.093050 1000.000000
287.184970 7.000000
288.075840 14.000000
288.093320 92.000000
288.780940 6.000000
289.100950 6.000000
289.112640 12.000000
299.075530 13.000000
299.092930 35.000000
308.739900 10.000000
311.075320 12.000000
311.085970 11.000000
312.097530 11.000000
313.939330 6.000000
327.056730 7.000000
329.087220 9.000000
329.109860 45.000000
329.125310 15.000000
330.091800 7.000000
330.117860 7.000000
331.107420 8.000000
341.087190 11.000000
341.111630 9.000000
343.087460 8.000000
353.098970 102.000000
354.114840 14.000000
360.693390 6.000000
379.117860 9.000000
379.129940 9.000000
390.108860 13.000000
396.827270 7.000000
397.093440 26.000000
397.116730 27.000000
397.138610 90.000000
398.001190 8.000000
398.135130 15.000000
399.923400 6.000000
405.633610 8.000000
407.087250 8.000000
407.123350 8.000000
408.086000 8.000000
409.579530 7.000000
413.111270 6.000000
415.109770 7.000000
415.126370 39.000000
415.145600 67.000000
415.155820 26.000000
416.135650 18.000000
416.155330 15.000000
431.122220 16.000000
431.143010 7.000000
432.009090 7.000000
432.134830 18.000000
432.152370 28.000000
433.126860 54.000000
433.150670 290.000000
433.180790 28.000000
434.112120 6.000000
434.136930 6.000000
434.161320 32.000000
435.175380 8.000000
436.133120 10.000000
436.161070 8.000000
439.123810 9.000000
443.098600 9.000000
449.106170 11.000000
449.145480 125.000000
450.112460 6.000000
450.149440 43.000000
450.165890 12.000000
457.155490 12.000000
475.152800 9.000000
523.157170 9.000000
542.165530 7.000000
547.420170 6.000000
559.149600 8.000000
559.180420 21.000000
578.173650 9.000000
595.111210 7.000000
595.207520 225.000000
595.231200 51.000000

>ms2
129.050960 14.000000
129.056750 17.000000
147.072110 29.000000
246.794070 14.000000
255.086120 25.000000
257.088650 8.000000
264.068510 7.000000
273.076720 11.000000
281.064480 49.000000
281.079620 7.000000
287.079380 117.000000
287.093260 329.000000
288.072810 29.000000
288.096980 28.000000
288.111050 9.000000
289.097780 18.000000
289.105440 6.000000
289.843350 10.000000
290.437040 20.000000
299.084500 8.000000
309.113710 7.000000
329.093630 58.000000
329.107940 46.000000
329.819700 6.000000
330.097350 22.000000
330.117160 15.000000
340.838410 8.000000
368.555510 9.000000
396.967900 13.000000
397.122070 84.000000
397.140560 26.000000
398.130160 7.000000
400.831240 12.000000
413.100310 8.000000
414.996370 12.000000
415.094390 11.000000
415.139530 91.000000
415.166560 15.000000
416.107820 26.000000
416.149780 39.000000
417.143040 9.000000
431.076480 11.000000
431.122740 117.000000
431.167050 10.000000
431.384640 7.000000
432.117400 8.000000
432.153440 20.000000
433.039920 9.000000
433.102360 16.000000
433.147190 830.000000
433.198000 8.000000
433.990540 7.000000
434.155580 216.000000
435.133790 23.000000
435.158750 14.000000
436.157930 20.000000
443.119810 7.000000
449.081850 6.000000
449.145080 390.000000
450.043980 7.000000
450.078340 7.000000
450.126010 20.000000
450.151950 104.000000
451.118470 8.000000
451.145810 15.000000
455.154170 8.000000
457.139740 25.000000
473.100310 6.000000
473.140690 12.000000
473.159420 11.000000
474.151950 20.000000
475.108400 7.000000
475.150450 14.000000
475.167510 31.000000
498.147710 7.000000
511.091770 7.000000
511.154970 10.000000
523.052430 6.000000
523.150820 6.000000
541.175230 15.000000
543.041750 7.000000
546.052920 10.000000
558.988160 7.000000
559.172240 49.000000
560.174380 25.000000
561.181270 17.000000
577.184690 52.000000
577.204410 37.000000
593.656980 6.000000
595.112180 8.000000
595.164370 79.000000
595.200990 1000.000000
595.263370 15.000000
595.353210 6.000000

>ms2
69.030610 6.000000
70.730820 6.000000
71.045720 31.000000
71.052450 21.000000
85.027340 44.000000
85.037380 8.000000
109.025310 10.000000
129.046010 22.000000
129.057280 50.000000
135.094120 7.000000
147.062300 12.000000
153.009690 34.000000
153.017790 29.000000
153.025740 21.000000
154.021130 8.000000
154.028340 9.000000
161.059680 15.000000
165.008730 9.000000
165.013080 24.000000
165.022230 13.000000
177.017090 7.000000
179.036970 9.000000
181.046830 11.000000
195.023180 15.000000
195.032990 42.000000
196.038240 8.000000
203.075640 8.000000
208.345020 6.000000
215.042770 8.000000
217.052660 5.000000
219.013530 11.000000
219.030120 100.000000
220.032290 9.000000
225.066540 6.000000
237.036540 9.000000
237.074130 10.000000
245.016240 8.000000
245.025440 7.000000
245.044240 40.000000
246.046830 6.000000
246.064540 5.000000
247.040100 8.000000
257.037200 10.000000
259.029480 11.000000
261.039520 8.000000
263.051300 135.000000
264.060850 16.000000
265.053130 7.000000
267.062560 6.000000
279.061950 13.000000
280.918030 8.000000
281.036680 6.000000
281.070980 6.000000
281.219600 5.000000
282.068940 7.000000
285.086180 7.000000
287.005950 11.000000
287.091000 1000.000000
288.095580 187.000000
289.050450 10.000000
289.084050 8.000000
289.097530 48.000000
297.061460 10.000000
299.068050 11.000000
299.091000 42.000000
300.105530 10.000000
308.927890 6.000000
311.102810 13.000000
329.089840 9.000000
329.105620 6.000000
337.107180 6.000000
339.087310 10.000000
353.094300 14.000000
354.105470 11.000000
365.099880 7.000000
366.112950 7.000000
379.112030 10.000000
385.087100 5.000000
389.092410 5.000000
391.104100 6.000000
395.109190 8.000000
395.129610 5.000000
397.100520 6.000000
397.125670 57.000000
397.893430 6.000000
398.137180 7.000000
409.136020 12.000000
415.126280 14.000000
431.125760 8.000000
433.130680 8.000000

>ms2
57.039100 17.000000
69.037610 20.000000
71.049540 165.000000
79.052930 16.000000
85.024330 58.000000
86.021210 24.000000
107.052570 16.000000
113.200610 20.000000
129.053070 13.000000
135.039810 38.000000
137.055980 33.000000
137.063110 35.000000
152.987850 20.000000
153.016510 1000.000000
154.015840 49.000000
154.027590 22.000000
155.018130 16.000000
161.038190 21.000000
161.049220 65.000000
161.058330 272.000000
161.069470 34.000000
162.056790 24.000000
162.066390 54.000000
163.043560 52.000000
165.017380 54.000000
167.023010 22.000000
173.660930 17.000000
176.047410 24.000000
177.016170 18.000000
177.024930 24.000000
178.017440 15.000000
179.029130 16.000000
180.777770 24.000000
191.019840 33.000000
191.029680 28.000000
191.039980 29.000000
192.021240 14.000000
195.020490 83.000000
195.034290 207.000000
198.357850 21.000000
203.037450 50.000000
203.070790 21.000000
207.019880 16.000000
217.047070 19.000000
219.030560 19.000000
220.031800 18.000000
227.034910 16.000000
227.042630 24.000000
243.015760 20.000000
245.037260 51.000000
245.047300 39.000000
245.089170 28.000000
263.051970 13.000000
287.084530 114.000000
287.097200 100.000000
288.087680 26.000000
288.108060 14.000000
322.454620 13.000000
323.079680 31.000000
337.112610 13.000000

>ms2
71.046560 11.000000
71.052470 10.000000
85.026280 27.000000
121.063410 12.000000
129.024840 11.000000
129.045440 23.000000
129.053700 64.000000
135.076170 35.000000
147.057680 15.000000
147.073260 27.000000
149.071660 9.000000
150.057250 9.000000
153.014590 83.000000
161.058350 25.000000
163.066220 8.000000
164.044830 9.000000
165.011760 22.000000
174.970730 9.000000
174.979480 13.000000
179.036030 11.000000
195.008060 9.000000
195.025020 46.000000
195.033650 35.000000
196.032360 17.000000
198.044370 10.000000
203.037480 33.000000
219.021470 49.000000
219.029330 64.000000
219.091840 7.000000
221.048890 17.000000
232.037510 9.000000
237.046200 7.000000
240.063540 9.000000
245.031720 16.000000
245.046110 20.000000
245.057330 11.000000
261.049840 7.000000
262.983090 11.000000
263.052860 39.000000
263.066040 108.000000
264.060850 36.000000
268.118900 10.000000
269.952330 12.000000
270.850370 9.000000
272.148770 8.000000
273.112300 8.000000
281.062500 28.000000
281.075680 9.000000
282.068150 8.000000
284.972260 8.000000
285.049930 21.000000
286.504550 7.000000
286.649140 19.000000
287.061650 11.000000
287.090910 1000.000000
288.057500 7.000000
288.092960 136.000000
288.108310 108.000000
289.094270 14.000000
289.106900 26.000000
297.056460 7.000000
298.920680 12.000000
299.096650 21.000000
311.081670 26.000000
311.095090 8.000000
312.103580 11.000000
313.098720 9.000000
321.045620 12.000000
322.142120 8.000000
329.093690 72.000000
329.113430 24.000000
330.099000 24.000000
330.124050 9.000000
331.811740 11.000000
351.105560 8.000000
353.054050 9.000000
353.099760 58.000000
354.832640 9.000000
355.325290 7.000000
365.099790 23.000000
377.101680 14.000000
379.112670 8.000000
379.122470 25.000000
379.139250 30.000000
380.117430 7.000000
396.116150 8.000000
397.062930 11.000000
397.110530 70.000000
397.133730 72.000000
398.125850 58.000000
413.097320 8.000000
414.127720 9.000000
415.125310 24.000000
415.140720 43.000000
415.154690 30.000000
416.104860 9.000000
416.133090 26.000000
427.122710 9.000000
431.100310 9.000000
431.119260 10.000000
431.130130 20.000000
431.151030 11.000000
433.088900 8.000000
433.138670 138.000000
433.153080 275.000000
434.128810 8.000000
434.151400 49.000000
434.178410 70.000000
435.137240 8.000000
435.154720 8.000000
439.139500 9.000000
444.149690 9.000000
449.090670 8.000000
449.125210 38.000000
449.136440 79.000000
449.155330 33.000000
449.356230 7.000000
450.137330 13.000000
450.158020 37.000000
451.147160 24.000000
463.142820 10.000000
474.146150 8.000000
513.168330 8.000000
527.953860 14.000000
541.155150 10.000000
541.184080 7.000000
542.112550 8.000000
542.179200 7.000000
559.143070 8.000000
559.206180 11.000000
561.157780 8.000000
577.041320 9.000000
594.642580 7.000000
595.138310 15.000000
595.182800 54.000000
595.219540 202.000000

>ms2
111.042410 10.000000
129.058670 10.000000
130.055240 6.000000
176.661210 7.000000
179.030150 9.000000
222.279220 9.000000
244.250460 12.000000
246.811330 6.000000
255.079830 13.000000
255.097990 26.000000
256.546720 8.000000
281.062160 30.000000
281.084870 19.000000
282.059080 9.000000
282.071470 10.000000
287.091610 339.000000
288.099460 61.000000
311.084630 9.000000
317.649930 8.000000
317.760440 6.000000
329.106720 66.000000
330.111300 17.000000
331.122890 16.000000
383.116000 25.000000
395.108250 6.000000
397.113490 41.000000
397.131650 53.000000
398.100010 8.000000
398.135070 8.000000
399.111970 7.000000
413.081940 9.000000
415.116460 20.000000
415.136380 99.000000
415.148160 39.000000
415.924130 6.000000
416.142430 33.000000
416.848510 6.000000
417.140140 10.000000
421.573490 9.000000
431.088840 6.000000
431.139010 71.000000
432.136960 24.000000
433.086550 20.000000
433.150330 1000.000000
433.217990 8.000000
434.056550 11.000000
434.151340 281.000000
435.151210 47.000000
436.169400 11.000000
437.401030 6.000000
438.119810 7.000000
439.127010 9.000000
449.053500 14.000000
449.089450 18.000000
449.110750 38.000000
449.144410 293.000000
449.606170 7.000000
450.147950 115.000000
450.176940 10.000000
451.151610 18.000000
452.147830 11.000000
457.157810 35.000000
473.134580 6.000000
473.161250 24.000000
475.138790 6.000000
475.163420 28.000000
491.167940 8.000000
492.143010 6.000000
492.156830 10.000000
531.298100 6.000000
541.155520 12.000000
541.173400 24.000000
559.168090 38.000000
559.204040 22.000000
560.177670 8.000000
560.207520 7.000000
577.185360 41.000000
577.207890 16.000000
578.148860 9.000000
578.208860 29.000000
581.750850 6.000000
594.222410 13.000000
595.116880 8.000000
595.147710 12.000000
595.195010 732.000000
595.214600 520.000000

>ms2
69.036030 10.000000
71.046460 32.000000
71.052930 24.000000
85.027610 82.000000
85.034260 35.000000
86.060600 11.000000
99.045790 6.000000
121.058040 14.000000
122.075710 14.000000
124.642430 7.000000
129.055800 77.000000
130.055370 16.000000
135.076630 8.000000
136.087650 6.000000
145.055560 10.000000
147.069240 32.000000
153.008210 13.000000
153.019610 86.000000
161.066960 7.000000
175.037630 9.000000
177.019680 7.000000
179.033460 8.000000
181.039150 7.000000
182.409820 6.000000
187.625700 6.000000
195.010360 9.000000
195.021480 49.000000
195.030230 36.000000
196.026440 8.000000
203.056020 8.000000
217.038410 8.000000
219.021470 37.000000
219.030080 47.000000
221.042300 7.000000
221.056900 8.000000
245.023270 6.000000
245.037020 43.000000
246.042790 21.000000
253.047440 7.000000
257.053590 7.000000
261.018430 9.000000
261.024600 22.000000
261.037630 21.000000
263.033870 24.000000
263.056270 234.000000
264.040620 7.000000
264.059810 14.000000
264.072240 8.000000
265.060730 8.000000
269.074370 6.000000
275.067540 6.000000
279.030210 8.000000
281.065120 60.000000
283.083370 9.000000
286.081180 7.000000
287.045470 21.000000
287.090820 1000.000000
288.089690 155.000000
288.099580 93.000000
288.121150 8.000000
289.094790 7.000000
299.099980 32.000000
311.089200 7.000000
329.089020 24.000000
329.105500 36.000000
341.089140 9.000000
341.381070 7.000000
353.096470 10.000000
354.102750 8.000000
355.118130 6.000000
363.070770 14.000000
363.087280 21.000000
366.101590 8.000000
371.068480 15.000000
379.092350 7.000000
379.118190 44.000000
380.133730 7.000000
384.634610 8.000000
395.128690 16.000000
397.131350 14.000000
413.090760 7.000000
415.135590 20.000000
423.905030 6.000000
431.117460 8.000000
431.147890 10.000000
433.136660 11.000000
434.147640 11.000000
552.583560 7.000000

>ms2
71.046230 64.000000
71.050990 92.000000
73.028530 55.000000
81.035320 22.000000
85.028420 119.000000
86.031040 17.000000
97.029650 18.000000
109.032370 34.000000
111.012360 35.000000
111.044540 33.000000
121.021000 19.000000
121.063670 40.000000
127.033100 21.000000
127.257790 24.000000
130.645420 15.000000
133.056180 15.000000
135.040660 52.000000
135.050930 25.000000
135.077220 17.000000
136.051410 23.000000
137.060620 32.000000
151.025420 28.000000
153.018910 1000.000000
154.019780 15.000000
154.202470 21.000000
157.641490 16.000000
161.040830 21.000000
161.060710 293.000000
161.070140 66.000000
162.055890 45.000000
163.036970 51.000000
165.017750 62.000000
177.013150 15.000000
177.059400 35.000000
177.098140 27.000000
179.028920 22.000000
179.042340 15.000000
189.019520 28.000000
189.057210 26.000000
191.017720 15.000000
191.034740 76.000000
194.012950 25.000000
195.025100 103.000000
195.031740 38.000000
196.024980 29.000000
196.035350 23.000000
201.057220 17.000000
203.021620 17.000000
203.031170 31.000000
203.039630 28.000000
203.999800 15.000000
205.018160 17.000000
215.959090 51.000000
217.057210 28.000000
218.762470 17.000000
219.019880 53.000000
227.034610 22.000000
229.046390 21.000000
231.029560 16.000000
231.041780 26.000000
243.024610 15.000000
245.051390 87.000000
245.063640 16.000000
245.081600 17.000000
248.580900 15.000000
261.017670 16.000000
263.055300 34.000000
264.047270 33.000000
271.070130 29.000000
287.055330 27.000000
287.072750 31.000000
287.088500 104.000000
287.100220 72.000000
288.093780 15.000000

