>compound PR35713326
>parentmass 819.2213
>ionization [M+H]+
>formula C34H42O23
>rt 168.000000
>profile qtof
#smiles_iso COC1=C(C(=CC(=C1)C2=C(C(=O)C3=C(C=C(C=C3O2)OC4C(C(C(C(O4)CO)O)O)O)O)OC5C(C(C(C(O5)CO)O)O)O)OC6C(C(C(C(O6)CO)O)O)O)O
#smiles_can COC1=C(C(=CC(=C1)C2=C(C(=O)C3=C(C=C(C=C3O2)OC4C(C(C(C(O4)CO)O)O)O)O)OC5C(C(C(C(O5)CO)O)O)O)OC6C(C(C(C(O6)CO)O)O)O)O
#inchikey POYUZVAGWZVXKD-UHFFFAOYSA-N
#pubchem_id 74978322
#mb_accession PR310938

>ms2
83.690020 19.000000
97.033260 26.000000
145.045930 103.000000
146.057980 19.000000
163.053570 17.000000
197.189940 20.000000
206.851910 28.000000
240.145450 17.000000
254.864410 20.000000
255.016310 17.000000
257.657230 17.000000
271.081390 20.000000
289.093510 19.000000
332.427400 24.000000
332.871730 17.000000
332.928250 20.000000
332.994900 22.000000
333.059690 4794.000000
333.110630 24.000000
334.041560 19.000000
334.066040 515.000000
335.045500 44.000000
335.063290 67.000000
335.076290 47.000000
340.896240 32.000000
347.073670 22.000000
347.138460 20.000000
375.064330 17.000000
411.061310 21.000000
429.060120 18.000000
456.487730 33.000000
461.915560 17.000000
470.480680 20.000000
480.603060 17.000000
481.545780 17.000000
494.806700 21.000000
495.096250 820.000000
495.118350 1580.000000
495.155030 20.000000
496.089420 107.000000
496.129330 414.000000
497.085140 19.000000
497.126190 80.000000
498.147710 23.000000
526.685180 17.000000
540.973690 18.000000
657.117610 88.000000
657.168030 1343.000000
658.124820 34.000000
658.152040 182.000000
658.174620 298.000000
659.148380 42.000000
659.193970 100.000000
661.158510 20.000000
725.430050 18.000000
742.980590 18.000000
819.071170 20.000000
819.225520 1238.000000
819.293150 17.000000

