>compound PR35359762
>parentmass 146.0638
>ionization [M+H]+
>formula C6H11NOS
>rt 132.600000
>profile qtof
#smiles_iso CS(=O)CCCCC#N
#smiles_can CS(=O)CCCCC#N
#inchikey FGYQUFZANKOISC-UHFFFAOYSA-N
#pubchem_id 543743
#mb_accession PR310891

>ms2peaks
68.997270 20.000000
82.060160 18.000000
82.064220 22.000000
87.026550 20.000000
99.064010 17.000000
101.047460 17.000000
119.055100 34.000000
121.047890 18.000000
146.067000 90.000000

