>compound PR35514675
>parentmass 579.1708320999999
>ionization [M+H]+
>formula C27H30O14
>rt 260.479020
>profile qtof
#smiles_iso C[C@H]1[C@@H]([C@H]([C@H]([C@@H](O1)O[C@@H]2[C@H]([C@@H]([C@H](O[C@H]2OC3=CC(=C4C(=C3)OC(=CC4=O)C5=CC=C(C=C5)O)O)CO)O)O)O)O)O
#smiles_can CC1C(C(C(C(O1)OC2C(C(C(OC2OC3=CC(=C4C(=C3)OC(=CC4=O)C5=CC=C(C=C5)O)O)CO)O)O)O)O)O
#inchikey RPMNUQRUHXIGHK-PYXJVEIZSA-N
#pubchem_id 5282150
#mb_accession PR302213,PR302218,PR302223,PR302228,PR302233,PR302238,PR302243,PR302248,PR302253,PR302258,PR302263,PR302268

>ms2peaks
271.011840 12.000000
271.026150 16.000000
271.060640 1000.000000
272.063810 199.000000
273.065610 25.000000
433.120330 22.000000
434.117550 9.000000
579.172490 328.000000

>ms2peaks
271.060820 165.000000
272.052430 10.000000
272.064640 28.000000
433.105100 12.000000
433.128110 6.000000
579.103940 15.000000
579.172240 1000.000000

>ms2peaks
271.018310 13.000000
271.059540 1000.000000
272.063290 168.000000
273.056730 10.000000
273.070310 10.000000

>ms2peaks
85.028800 7.000000
119.049200 20.000000
121.031560 7.000000
153.019130 43.000000
163.032810 9.000000
243.070390 8.000000
271.031100 9.000000
271.062100 1000.000000
272.065090 178.000000
272.088200 6.000000
273.056730 9.000000
273.073150 24.000000

>ms2peaks
85.026580 6.000000
271.059390 1000.000000
271.106960 5.000000
272.063720 184.000000
273.056580 9.000000
273.068700 21.000000
433.103820 6.000000
433.115570 15.000000
434.116090 5.000000
579.133540 6.000000
579.172970 287.000000

>ms2peaks
271.058810 174.000000
272.066470 23.000000
433.109280 14.000000
433.129970 7.000000
579.105220 11.000000
579.169010 1000.000000

>ms2peaks
271.025210 8.000000
271.060730 1000.000000
271.110840 6.000000
272.064640 181.000000
273.064640 23.000000

>ms2peaks
119.045140 15.000000
119.051620 7.000000
121.026670 6.000000
153.019130 64.000000
163.039170 7.000000
203.069030 5.000000
225.059110 7.000000
229.051410 6.000000
271.014800 8.000000
271.029970 8.000000
271.059510 1000.000000
272.065030 167.000000
273.070430 28.000000

>ms2peaks
271.023040 9.000000
271.059780 1000.000000
271.085450 7.000000
272.041050 10.000000
272.063450 162.000000
273.066380 34.000000
433.116790 11.000000
579.080020 5.000000
579.129700 10.000000
579.168520 338.000000

>ms2peaks
271.033750 5.000000
271.060460 184.000000
272.067170 31.000000
433.108550 11.000000
433.124570 10.000000
579.088680 8.000000
579.114010 9.000000
579.172000 1000.000000

>ms2peaks
271.020970 11.000000
271.060360 1000.000000
272.064420 169.000000
273.062770 25.000000

>ms2peaks
119.049720 19.000000
145.028900 6.000000
153.017270 68.000000
163.041140 5.000000
225.057210 8.000000
229.049640 5.000000
270.983310 5.000000
271.013240 10.000000
271.060850 1000.000000
272.059600 95.000000
272.069460 81.000000
273.063600 14.000000
274.064730 8.000000

