>compound PR35549943
>parentmass 249.19614
>ionization [M+H]+
>formula C15H24N2O
>rt 135.600000
>profile qtof
#smiles_iso C1CC2C3CCCN4C3C(CCC4)CN2C(=O)C1
#smiles_can C1CC2C3CCCN4C3C(CCC4)CN2C(=O)C1
#inchikey ZSBXGIUJOOQZMP-UHFFFAOYSA-N
#pubchem_id 285698
#mb_accession PR310556

>ms2peaks
54.986810 46.000000
68.138690 18.000000
79.049120 25.000000
83.062960 23.000000
93.070390 44.000000
96.078720 61.000000
98.063610 25.000000
98.093870 22.000000
98.102000 22.000000
99.095510 17.000000
100.078210 18.000000
105.066150 21.000000
107.055340 22.000000
107.069600 21.000000
107.078180 19.000000
108.077230 27.000000
108.083840 50.000000
109.069260 33.000000
109.104080 22.000000
110.084430 42.000000
110.092280 171.000000
110.099260 86.000000
111.097960 20.000000
112.059840 22.000000
112.066640 30.000000
112.076630 170.000000
112.116040 20.000000
115.101660 32.000000
117.062570 22.000000
117.778680 21.000000
119.080570 19.000000
120.077820 90.000000
120.089370 23.000000
121.087570 17.000000
121.092260 38.000000
121.103420 34.000000
122.085860 20.000000
122.098330 17.000000
124.099100 18.000000
124.776440 42.000000
131.084400 60.000000
133.084470 22.000000
133.102720 26.000000
133.116380 23.000000
134.093750 49.000000
134.101070 56.000000
135.073100 51.000000
136.097840 31.000000
136.113780 87.000000
138.095230 21.000000
138.135570 35.000000
144.895340 18.000000
145.103300 20.000000
145.113400 21.000000
146.102840 24.000000
146.530040 36.000000
147.075490 22.000000
147.110090 38.000000
148.071170 48.000000
148.080610 40.000000
148.099930 77.000000
148.112980 824.000000
148.146710 17.000000
149.077330 17.000000
149.100970 65.000000
149.114620 165.000000
149.125660 55.000000
150.018080 17.000000
150.048310 19.000000
150.124500 207.000000
150.133900 143.000000
150.989900 25.000000
151.134380 20.000000
152.111650 25.000000
152.141160 71.000000
152.150960 17.000000
157.095120 22.000000
161.116120 50.000000
162.021060 33.000000
162.078930 22.000000
162.088900 19.000000
162.101810 21.000000
162.126010 69.000000
163.128600 24.000000
163.140210 20.000000
164.116060 57.000000
166.125550 23.000000
167.119610 40.000000
172.365800 26.000000
174.129960 18.000000
175.287020 17.000000
176.090390 18.000000
176.101030 99.000000
176.108700 130.000000
176.117710 46.000000
176.143630 122.000000
176.825710 23.000000
176.899980 20.000000
177.136490 23.000000
178.110690 32.000000
178.125950 29.000000
178.136280 20.000000
180.145080 29.000000
181.471160 30.000000
186.120560 37.000000
188.157030 20.000000
190.125120 149.000000
190.854230 21.000000
192.119630 17.000000
192.178560 18.000000
192.490430 25.000000
199.954510 18.000000
204.125990 22.000000
204.132170 44.000000
214.165250 27.000000
218.157520 131.000000
219.166610 21.000000
220.151610 20.000000
220.171690 26.000000
220.208270 33.000000
229.168030 25.000000
230.153990 20.000000
230.178180 57.000000
232.170330 21.000000
232.179570 47.000000
232.466510 40.000000
233.170520 24.000000
247.156310 20.000000
247.168530 71.000000
247.187000 297.000000
248.104920 17.000000
248.155400 25.000000
248.181350 74.000000
248.189090 40.000000
248.656450 17.000000
249.085970 17.000000
249.154220 133.000000
249.164520 54.000000
249.196930 19981.000000
249.227480 34.000000
249.240780 176.000000

