>compound PR35999092
>parentmass 287.0550131428572
>ionization [M+H]+
>formula C15H10O6
>rt 353.754000
>profile qtof
#smiles_iso C1=CC(=CC=C1C2=C(C(=O)C3=C(C=C(C=C3O2)O)O)O)O
#smiles_can C1=CC(=CC=C1C2=C(C(=O)C3=C(C=C(C=C3O2)O)O)O)O
#inchikey IYRMWMYZSQPJKC-UHFFFAOYSA-N
#pubchem_id 5280863
#mb_accession PR302155,PR302160,PR302165,PR302170,PR302175,PR302180,PR302185,PR302190,PR302195,PR302200,PR302205,PR302210,PR310897,PR310898

>ms2peaks
121.028630 35.000000
133.029220 8.000000
137.024190 16.000000
145.062030 6.000000
147.040330 6.000000
153.016490 69.000000
154.020230 6.000000
157.065050 10.000000
165.017110 40.000000
167.020280 5.000000
197.058030 6.000000
213.052400 11.000000
241.057570 9.000000
258.040800 8.000000
258.051880 5.000000
259.053680 10.000000
287.023130 20.000000
287.054230 1000.000000

>ms2peaks
287.011290 12.000000
287.054990 1000.000000
287.102360 13.000000

>ms2peaks
49.965340 6.000000
55.017910 6.000000
65.018070 9.000000
67.016300 30.000000
67.023350 13.000000
68.979560 11.000000
68.998120 64.000000
69.033540 6.000000
79.050080 8.000000
79.057400 7.000000
81.034490 13.000000
83.426180 6.000000
85.027640 14.000000
90.019940 6.000000
93.014180 6.000000
93.033300 76.000000
94.041230 8.000000
94.593900 11.000000
97.033160 10.000000
103.053360 26.000000
105.022320 7.000000
105.032750 83.000000
107.050510 58.000000
108.027130 8.000000
108.046350 7.000000
108.998200 9.000000
109.028130 50.000000
110.997380 13.000000
111.007000 70.000000
111.014800 15.000000
115.053940 19.000000
117.068950 9.000000
119.049910 8.000000
121.005550 27.000000
121.029720 457.000000
121.381440 8.000000
121.448490 6.000000
121.592050 8.000000
122.029010 39.000000
123.033570 12.000000
124.240470 12.000000
125.463290 8.000000
126.032710 7.000000
127.038540 8.000000
127.050930 13.000000
127.057160 7.000000
128.051860 18.000000
128.064580 11.000000
129.039110 10.000000
129.052830 7.000000
129.070690 36.000000
130.073390 10.000000
133.015790 13.000000
133.029690 88.000000
135.039510 23.000000
135.047390 21.000000
135.079710 16.000000
136.959090 10.000000
137.023620 146.000000
138.027450 20.000000
139.052320 7.000000
141.073260 6.000000
141.546310 10.000000
142.073670 17.000000
143.048430 16.000000
143.075730 9.000000
145.062910 82.000000
145.073590 34.000000
146.022920 10.000000
147.003450 12.000000
147.040340 50.000000
147.047270 93.000000
147.058110 11.000000
151.054050 8.000000
152.872090 10.000000
152.921810 6.000000
152.997590 31.000000
153.018310 923.000000
153.035110 13.000000
154.009430 8.000000
154.023030 101.000000
154.034100 21.000000
155.052200 10.000000
157.051090 8.000000
157.064290 126.000000
157.207500 7.000000
158.067500 11.000000
158.454620 7.000000
159.001010 7.000000
160.046520 18.000000
160.731660 6.000000
161.027600 6.000000
161.045870 9.000000
161.058790 25.000000
162.059920 14.000000
165.017000 369.000000
165.023150 210.000000
165.993590 6.000000
167.018050 6.000000
167.036540 8.000000
167.048690 17.000000
169.060530 18.000000
169.073670 7.000000
171.044170 72.000000
173.062640 28.000000
173.780850 9.000000
175.037510 21.000000
175.064410 8.000000
175.077760 16.000000
177.021150 12.000000
179.033450 6.000000
184.041410 6.000000
184.056400 16.000000
185.036560 6.000000
185.058350 93.000000
186.087880 11.000000
187.109540 6.000000
188.046190 15.000000
188.065400 16.000000
188.464040 13.000000
189.062770 15.000000
189.692930 8.000000
195.043200 14.000000
197.050060 7.000000
197.065160 16.000000
197.715410 6.000000
198.058850 7.000000
201.052730 24.000000
202.052250 10.000000
202.065490 13.000000
203.027600 6.000000
203.035830 8.000000
203.062240 27.000000
203.071670 38.000000
211.905040 6.000000
212.022750 13.000000
212.045790 10.000000
213.053820 183.000000
213.062960 99.000000
214.043230 6.000000
214.065600 35.000000
215.047440 14.000000
215.999470 6.000000
216.049790 11.000000
217.052410 8.000000
219.073720 14.000000
223.041820 12.000000
224.044570 7.000000
225.054470 9.000000
226.063710 8.000000
229.052890 50.000000
230.059160 25.000000
231.047040 28.000000
231.064180 54.000000
232.061580 12.000000
232.967740 7.000000
236.501590 10.000000
240.019380 6.000000
240.040800 7.000000
241.022090 12.000000
241.048950 138.000000
241.062530 25.000000
242.042860 7.000000
242.054600 12.000000
243.062790 6.000000
245.039990 8.000000
246.045090 7.000000
251.311360 8.000000
254.022980 12.000000
256.993190 7.000000
257.005070 7.000000
257.038210 24.000000
258.030980 7.000000
258.051730 162.000000
259.060420 112.000000
259.739840 6.000000
260.065250 39.000000
261.073120 10.000000
263.615940 6.000000
269.036770 7.000000
269.052060 11.000000
270.051060 18.000000
271.059750 8.000000
285.403750 6.000000
286.878170 7.000000
287.020810 27.000000
287.056550 1000.000000
287.078640 28.000000
287.121220 8.000000
287.176700 7.000000
287.212250 6.000000

>ms2peaks
63.020790 35.000000
65.039430 86.000000
67.024140 68.000000
68.995230 352.000000
69.029110 82.000000
77.039190 334.000000
79.016080 145.000000
79.044810 59.000000
79.054600 174.000000
81.024490 47.000000
81.031970 119.000000
81.447840 39.000000
83.013680 105.000000
85.027650 35.000000
89.034610 80.000000
89.040320 45.000000
91.045270 66.000000
93.032820 570.000000
94.040170 51.000000
95.014850 49.000000
95.036480 51.000000
95.042730 39.000000
102.042660 41.000000
103.048070 117.000000
105.032220 152.000000
105.039140 61.000000
107.040340 35.000000
107.049050 123.000000
107.056430 88.000000
108.019010 55.000000
109.022050 64.000000
113.030970 39.000000
114.049230 37.000000
115.043590 47.000000
115.053350 621.000000
116.052070 47.000000
118.038670 62.000000
119.049120 51.000000
120.021080 37.000000
121.020880 39.000000
121.030430 562.000000
127.036390 62.000000
127.053100 121.000000
127.061010 80.000000
128.050860 37.000000
128.062500 396.000000
129.062390 64.000000
129.073580 45.000000
131.046910 123.000000
133.025600 47.000000
133.033190 68.000000
134.029570 57.000000
137.018650 62.000000
137.024730 41.000000
139.056400 252.000000
140.062040 70.000000
141.061360 100.000000
144.063750 39.000000
145.026030 90.000000
145.912540 35.000000
147.043520 74.000000
152.002870 45.000000
153.016480 1000.000000
153.028690 86.000000
153.098820 45.000000
154.024720 39.000000
157.041400 70.000000
157.056530 37.000000
157.067320 100.000000
158.085110 74.000000
161.053990 57.000000
163.036130 41.000000
165.027620 68.000000
168.061200 64.000000
169.052830 125.000000
171.035710 45.000000
172.051680 53.000000
184.045780 41.000000
185.072390 39.000000
187.026580 55.000000
187.046570 43.000000
207.287110 41.000000
211.034330 39.000000
213.049930 47.000000
217.049060 41.000000
226.018490 39.000000
229.047620 39.000000
256.040560 61.000000
285.037930 59.000000

>ms2peaks
65.038820 5.000000
93.031010 8.000000
111.006380 10.000000
121.023260 16.000000
121.030320 24.000000
133.026690 6.000000
137.023620 19.000000
147.036700 6.000000
153.016970 73.000000
154.018230 6.000000
157.062840 14.000000
165.012240 9.000000
165.021550 24.000000
166.025470 5.000000
167.048290 7.000000
171.040160 5.000000
203.040250 5.000000
213.054500 24.000000
229.052570 8.000000
231.067260 5.000000
241.055220 8.000000
242.050170 5.000000
258.053620 15.000000
259.052670 5.000000
259.061040 8.000000
287.014010 6.000000
287.053710 1000.000000
287.106690 7.000000

>ms2peaks
287.055510 1000.000000
287.104250 11.000000

>ms2peaks
51.985290 9.000000
52.379920 6.000000
65.034590 12.000000
67.019100 14.000000
68.989210 11.000000
68.996620 58.000000
69.007440 8.000000
69.034030 6.000000
70.001410 7.000000
71.773190 5.000000
77.039410 7.000000
78.041170 7.000000
79.050540 23.000000
79.056400 14.000000
81.037090 5.000000
85.027950 6.000000
91.061460 9.000000
93.031270 7.000000
93.035540 21.000000
94.035820 5.000000
94.042140 5.000000
95.042350 9.000000
96.032410 10.000000
97.031580 11.000000
103.049870 25.000000
103.061380 6.000000
105.035160 54.000000
106.037170 8.000000
106.042260 18.000000
107.047420 82.000000
107.056130 19.000000
109.025120 30.000000
109.029760 67.000000
110.036290 10.000000
111.004630 92.000000
111.031880 6.000000
112.008450 7.000000
112.021390 10.000000
115.056470 14.000000
115.062280 5.000000
116.050610 9.000000
117.034810 8.000000
117.053930 8.000000
117.069920 8.000000
119.039800 5.000000
119.051160 18.000000
121.018340 52.000000
121.027150 423.000000
121.062660 21.000000
122.028250 30.000000
122.034360 32.000000
123.511730 5.000000
125.022920 8.000000
127.039640 12.000000
127.045890 25.000000
127.056400 19.000000
128.056350 13.000000
128.062530 20.000000
129.046570 5.000000
129.068760 47.000000
130.065920 6.000000
131.051900 5.000000
131.058690 11.000000
133.023100 24.000000
133.031050 43.000000
133.039400 10.000000
134.035130 12.000000
135.033950 11.000000
135.038850 13.000000
135.046660 16.000000
135.054120 21.000000
135.073010 10.000000
136.011690 21.000000
136.018940 34.000000
136.997990 8.000000
137.006000 8.000000
137.020650 143.000000
137.025990 145.000000
138.030290 20.000000
138.038530 9.000000
139.047120 18.000000
139.060680 5.000000
140.066380 5.000000
141.065690 41.000000
141.072140 32.000000
141.625240 6.000000
142.076160 5.000000
143.048480 5.000000
143.722260 13.000000
144.054140 6.000000
145.056840 8.000000
145.063770 12.000000
145.069690 6.000000
147.026120 7.000000
147.038670 55.000000
147.046520 38.000000
147.072810 7.000000
147.087910 9.000000
148.051330 6.000000
149.015370 8.000000
149.066790 5.000000
150.029430 5.000000
151.052550 7.000000
152.985500 6.000000
152.992140 9.000000
153.018200 909.000000
154.022030 88.000000
157.055730 33.000000
157.064210 81.000000
157.073490 50.000000
157.133090 6.000000
158.068730 30.000000
159.075530 7.000000
160.053570 8.000000
161.019230 11.000000
161.052410 6.000000
161.065580 24.000000
161.924390 5.000000
162.054640 6.000000
164.998900 6.000000
165.012760 158.000000
165.019360 152.000000
165.032240 28.000000
166.015530 9.000000
166.029620 48.000000
167.021220 7.000000
167.041730 10.000000
167.552150 6.000000
168.060940 6.000000
169.054380 14.000000
169.059480 31.000000
171.036190 29.000000
171.046830 34.000000
171.053600 17.000000
173.016780 7.000000
173.056990 18.000000
173.069470 9.000000
175.029270 5.000000
175.047500 5.000000
176.059390 7.000000
177.040740 5.000000
178.055310 5.000000
179.026920 5.000000
179.035030 8.000000
181.007800 13.000000
183.051010 9.000000
183.809450 9.000000
184.056380 18.000000
185.050490 8.000000
185.060490 38.000000
186.065310 17.000000
187.027010 16.000000
187.064130 6.000000
187.071010 7.000000
188.053940 8.000000
189.040220 14.000000
189.055510 33.000000
191.034420 5.000000
194.015580 16.000000
195.017790 7.000000
195.048650 11.000000
197.050110 6.000000
197.063050 12.000000
198.052890 11.000000
199.037200 9.000000
201.055570 13.000000
203.049990 5.000000
203.071750 20.000000
203.292940 5.000000
204.066710 6.000000
204.087270 9.000000
213.033890 27.000000
213.051860 206.000000
213.062470 109.000000
213.236370 14.000000
214.027110 7.000000
214.059070 55.000000
216.030900 7.000000
216.040600 7.000000
217.043400 19.000000
217.055250 14.000000
217.512710 10.000000
219.072920 9.000000
229.013520 5.000000
229.038250 26.000000
229.051450 70.000000
230.047180 9.000000
230.057530 15.000000
230.068070 6.000000
231.041490 9.000000
231.059510 88.000000
231.078740 20.000000
232.051590 12.000000
233.323410 8.000000
233.411420 5.000000
234.769000 7.000000
240.053990 14.000000
240.705350 5.000000
241.017410 5.000000
241.035870 46.000000
241.048160 63.000000
241.060210 54.000000
241.340380 8.000000
241.457610 5.000000
241.995150 10.000000
242.048220 22.000000
242.067250 20.000000
243.069020 22.000000
243.137770 7.000000
243.531460 7.000000
244.049700 9.000000
245.031710 7.000000
245.050950 7.000000
245.687880 7.000000
258.024320 15.000000
258.044590 96.000000
258.061460 99.000000
258.826870 7.000000
259.023530 9.000000
259.045230 13.000000
259.055690 39.000000
259.071200 19.000000
259.099670 6.000000
260.072360 9.000000
265.496190 6.000000
269.024930 10.000000
269.045350 5.000000
270.054600 9.000000
281.280730 8.000000
285.030240 5.000000
285.058320 5.000000
286.029940 7.000000
286.050630 15.000000
286.980710 7.000000
287.022400 34.000000
287.055390 1000.000000

>ms2peaks
65.024730 31.000000
65.029050 54.000000
65.039420 109.000000
67.019940 62.000000
68.993840 128.000000
69.000150 162.000000
69.030560 35.000000
77.037500 560.000000
79.015540 50.000000
79.055560 57.000000
79.060990 55.000000
79.438010 29.000000
81.034950 31.000000
86.989480 50.000000
88.031940 43.000000
89.040210 36.000000
89.046040 48.000000
91.021270 38.000000
91.041890 47.000000
91.052280 128.000000
93.032420 209.000000
93.038830 50.000000
94.037730 52.000000
95.014210 107.000000
95.042170 57.000000
96.023430 35.000000
97.024200 55.000000
97.030360 50.000000
103.035450 33.000000
103.051950 29.000000
105.030780 35.000000
105.065640 47.000000
107.047220 219.000000
108.008290 29.000000
109.015790 36.000000
109.029270 40.000000
114.006520 35.000000
115.055670 235.000000
117.038030 105.000000
119.049900 50.000000
121.030660 321.000000
123.044070 78.000000
126.049860 35.000000
127.052900 290.000000
127.063510 79.000000
128.051640 43.000000
128.061600 508.000000
129.028080 43.000000
129.064480 35.000000
129.075960 35.000000
130.066300 95.000000
131.043150 29.000000
131.055300 123.000000
134.031520 48.000000
135.005580 29.000000
135.994160 47.000000
136.010330 50.000000
137.019680 33.000000
137.028690 52.000000
139.047470 35.000000
139.057430 133.000000
140.065870 48.000000
141.062900 60.000000
142.073790 41.000000
143.044270 95.000000
147.043240 41.000000
153.016330 1000.000000
154.024150 195.000000
155.011660 35.000000
155.023190 59.000000
155.052730 60.000000
157.058000 66.000000
157.065520 135.000000
160.047560 59.000000
160.060670 35.000000
161.038450 40.000000
161.053630 41.000000
161.062790 41.000000
163.040510 78.000000
168.050320 98.000000
171.047930 48.000000
174.015900 48.000000
183.039950 36.000000
183.048320 47.000000
187.047990 78.000000
194.038190 35.000000
201.058490 29.000000
213.552000 35.000000
216.048340 55.000000
229.057050 41.000000
230.049470 45.000000
239.031480 29.000000
240.042650 54.000000
249.135700 35.000000
251.544910 35.000000
257.039400 95.000000
285.047120 111.000000
287.045170 79.000000
287.064850 135.000000

>ms2peaks
68.997920 6.000000
93.032480 6.000000
107.046580 9.000000
111.005780 10.000000
115.054800 7.000000
121.028300 48.000000
129.068150 6.000000
133.025790 7.000000
135.041440 6.000000
137.022570 13.000000
147.044830 7.000000
153.017580 59.000000
157.072490 7.000000
161.065690 5.000000
165.018420 41.000000
203.068250 6.000000
213.055830 19.000000
214.062410 8.000000
231.065890 9.000000
241.051180 9.000000
258.060940 10.000000
259.065830 5.000000
287.006900 12.000000
287.029300 9.000000
287.054990 1000.000000
287.107970 8.000000

>ms2peaks
287.019350 7.000000
287.054630 1000.000000
287.102720 10.000000

>ms2peaks
68.997390 71.000000
69.004460 12.000000
69.033530 17.000000
71.017380 13.000000
71.501690 7.000000
77.038380 12.000000
79.048430 8.000000
79.052250 8.000000
79.057560 15.000000
81.032840 9.000000
82.022170 10.000000
85.028080 6.000000
91.054950 7.000000
92.048450 6.000000
93.016470 6.000000
93.036190 40.000000
95.037570 5.000000
101.689920 7.000000
103.035680 5.000000
103.055640 8.000000
104.352390 5.000000
105.031120 34.000000
105.037340 24.000000
105.074940 5.000000
107.023730 8.000000
107.047840 78.000000
107.056870 16.000000
108.051170 9.000000
109.026080 83.000000
110.990650 6.000000
111.000940 22.000000
111.008230 85.000000
112.007460 7.000000
115.059560 5.000000
116.149050 8.000000
118.072110 8.000000
119.048140 15.000000
120.969190 14.000000
120.998000 6.000000
121.028610 448.000000
122.028960 20.000000
122.037880 15.000000
123.037350 15.000000
123.207360 5.000000
125.626720 6.000000
127.040960 15.000000
127.054240 17.000000
127.119440 13.000000
127.246720 7.000000
128.056900 16.000000
129.069400 33.000000
130.070850 14.000000
132.040860 5.000000
132.050280 11.000000
133.027190 64.000000
133.064010 14.000000
135.041110 19.000000
136.011220 6.000000
137.021590 150.000000
138.025450 8.000000
139.051380 7.000000
140.058620 8.000000
141.065830 48.000000
142.079280 13.000000
142.193620 8.000000
143.051450 27.000000
144.044270 5.000000
145.062120 21.000000
145.074160 7.000000
146.033830 8.000000
146.068760 5.000000
147.042190 148.000000
147.076740 8.000000
148.051220 8.000000
148.057540 7.000000
148.084490 8.000000
150.026020 6.000000
150.515090 5.000000
150.789830 8.000000
151.058170 5.000000
152.012040 7.000000
152.996290 53.000000
153.018490 964.000000
154.012570 15.000000
154.020550 44.000000
155.054400 7.000000
157.063030 110.000000
158.066390 26.000000
158.077590 7.000000
159.045210 7.000000
160.049360 24.000000
160.128340 5.000000
161.016750 17.000000
161.058990 52.000000
161.114930 8.000000
161.859680 7.000000
162.049900 7.000000
162.063720 7.000000
163.038100 6.000000
165.017930 407.000000
165.991940 8.000000
166.006300 6.000000
166.022200 60.000000
167.023560 10.000000
167.043870 9.000000
167.052890 6.000000
167.059520 5.000000
168.021970 6.000000
168.061980 8.000000
169.050370 8.000000
169.060790 13.000000
169.074010 5.000000
171.003200 7.000000
171.041810 49.000000
171.051990 28.000000
173.060560 12.000000
175.048550 9.000000
175.077090 16.000000
176.044340 17.000000
177.049760 9.000000
178.498230 6.000000
179.039250 6.000000
179.438020 8.000000
181.024770 5.000000
184.050800 27.000000
184.061110 9.000000
185.019180 5.000000
185.052190 24.000000
185.061690 98.000000
188.045100 29.000000
189.053990 30.000000
189.262850 5.000000
190.056550 9.000000
191.272670 6.000000
194.969070 6.000000
196.432330 8.000000
197.046300 13.000000
197.062990 21.000000
197.072160 15.000000
198.068850 8.000000
199.029790 12.000000
199.042650 31.000000
201.055970 6.000000
201.064530 7.000000
202.957920 6.000000
203.033680 10.000000
203.047410 16.000000
203.061580 15.000000
203.072480 64.000000
204.997540 5.000000
207.078900 5.000000
208.187990 6.000000
212.035320 7.000000
212.155040 6.000000
213.031160 13.000000
213.043410 59.000000
213.055390 306.000000
213.729100 6.000000
214.059340 27.000000
216.030850 6.000000
216.041150 13.000000
216.049190 16.000000
216.058990 6.000000
217.038670 13.000000
217.048130 25.000000
218.035170 24.000000
223.029430 9.000000
224.642810 8.000000
228.923830 5.000000
229.045320 25.000000
229.059940 12.000000
230.065480 8.000000
231.036470 7.000000
231.056700 14.000000
231.067840 66.000000
232.069670 6.000000
240.035550 7.000000
240.045410 16.000000
241.036760 9.000000
241.048160 52.000000
241.062360 18.000000
242.014890 7.000000
242.053220 27.000000
243.037630 6.000000
243.053940 7.000000
243.068180 20.000000
244.040890 12.000000
244.059570 11.000000
245.045530 24.000000
250.278320 6.000000
254.236300 13.000000
257.010800 6.000000
257.026820 5.000000
257.043520 7.000000
258.019290 13.000000
258.034610 25.000000
258.055850 228.000000
258.075960 20.000000
259.049380 20.000000
259.066860 45.000000
260.062290 11.000000
260.070400 6.000000
260.443080 5.000000
261.613340 6.000000
268.790950 5.000000
269.030760 7.000000
269.046050 10.000000
270.048370 18.000000
271.056950 6.000000
285.039550 11.000000
285.051790 6.000000
286.969090 6.000000
287.008820 26.000000
287.053770 1000.000000
287.083560 13.000000

>ms2peaks
55.018950 58.000000
65.043910 54.000000
67.018330 54.000000
68.994440 56.000000
68.998540 52.000000
69.030590 164.000000
72.001740 94.000000
77.038600 112.000000
77.043720 47.000000
81.031460 40.000000
86.079940 40.000000
91.056110 252.000000
92.502930 47.000000
92.756710 56.000000
92.996020 58.000000
93.031850 627.000000
93.038260 274.000000
93.398190 43.000000
95.013890 49.000000
97.026630 162.000000
103.053930 139.000000
105.036150 108.000000
106.465960 38.000000
107.022900 45.000000
107.050440 285.000000
108.027860 74.000000
109.014660 45.000000
109.028800 213.000000
110.991070 38.000000
111.011540 54.000000
113.040010 74.000000
115.043660 40.000000
115.050030 124.000000
115.057270 267.000000
115.318100 108.000000
116.063670 52.000000
118.044940 52.000000
119.053590 85.000000
121.028430 739.000000
124.046780 97.000000
127.043370 47.000000
127.054560 276.000000
128.061230 362.000000
128.071580 108.000000
129.034360 49.000000
129.061130 220.000000
129.068850 153.000000
129.086990 99.000000
132.052310 67.000000
135.009090 56.000000
137.063200 81.000000
139.056590 112.000000
139.065730 85.000000
143.053990 117.000000
147.048510 76.000000
152.119930 45.000000
153.017940 1000.000000
153.029570 169.000000
157.065220 142.000000
157.087430 43.000000
163.040500 83.000000
164.041900 56.000000
165.008150 94.000000
167.047320 45.000000
167.058870 54.000000
170.037460 74.000000
171.044560 45.000000
176.057020 49.000000
183.067790 40.000000
184.033340 47.000000
186.067550 45.000000
187.042690 45.000000
188.049120 148.000000
193.426650 70.000000
229.050060 63.000000
229.056850 146.000000
240.043210 88.000000
257.184200 38.000000
287.044400 40.000000
287.060880 54.000000

>ms2peaks
65.036420 40.000000
69.001570 21.000000
95.048810 22.000000
105.030200 58.000000
105.034500 34.000000
107.049160 29.000000
111.011240 17.000000
116.059830 34.000000
117.072560 25.000000
121.025310 81.000000
121.030460 24.000000
128.063290 25.000000
133.027370 50.000000
135.042180 20.000000
137.021620 76.000000
145.072630 20.000000
146.074170 18.000000
153.000890 17.000000
153.010560 68.000000
153.021300 42.000000
153.027360 29.000000
157.059570 30.000000
157.077550 17.000000
158.073900 19.000000
159.112460 30.000000
163.042080 33.000000
165.016020 103.000000
166.022870 18.000000
167.058850 19.000000
171.039030 20.000000
171.982450 20.000000
174.057390 30.000000
181.008320 20.000000
187.607160 23.000000
189.057240 40.000000
203.076800 19.000000
213.031920 20.000000
213.054090 92.000000
231.070390 17.000000
241.059950 49.000000
242.030290 25.000000
242.047350 21.000000
243.067340 17.000000
258.045530 53.000000
259.061650 44.000000
260.061770 19.000000
260.071290 19.000000
269.017790 19.000000
269.044770 64.000000
273.086360 18.000000
280.186650 17.000000
287.015140 43.000000
287.030180 73.000000
287.055330 3571.000000

>ms2peaks
67.015170 20.000000
68.998650 83.000000
69.034390 27.000000
79.057820 21.000000
83.122020 23.000000
91.052690 22.000000
93.032230 76.000000
94.045880 27.000000
97.029040 60.000000
105.025280 44.000000
105.031660 25.000000
107.045320 47.000000
107.052200 24.000000
109.028500 41.000000
111.003810 47.000000
111.009140 22.000000
114.633290 33.000000
119.051540 22.000000
121.017650 72.000000
121.028630 614.000000
122.025700 17.000000
123.040750 23.000000
123.210660 25.000000
127.037520 29.000000
127.047390 18.000000
128.067470 25.000000
129.069090 44.000000
129.533680 17.000000
131.151760 18.000000
133.023450 78.000000
133.029220 138.000000
135.047300 45.000000
137.014100 82.000000
137.024190 279.000000
139.038280 24.000000
139.050520 33.000000
141.055480 33.000000
141.061970 71.000000
141.069350 27.000000
143.042890 17.000000
145.047590 18.000000
145.062030 112.000000
147.040330 108.000000
148.046710 78.000000
151.027570 18.000000
151.936140 25.000000
152.998550 24.000000
153.016490 1203.000000
154.011320 34.000000
154.020230 106.000000
157.065050 173.000000
157.073670 42.000000
160.046840 26.000000
161.060910 39.000000
161.067370 51.000000
164.036450 34.000000
165.017110 703.000000
165.374050 17.000000
167.020280 95.000000
171.040360 42.000000
172.044310 18.000000
172.053050 31.000000
177.048930 17.000000
178.008380 17.000000
179.039980 27.000000
180.095030 17.000000
184.041120 18.000000
184.048540 53.000000
185.035960 23.000000
185.056120 62.000000
185.065000 64.000000
187.034040 17.000000
189.056720 38.000000
190.980560 20.000000
195.029920 32.000000
195.043140 17.000000
197.058030 107.000000
197.066540 30.000000
199.018260 20.000000
199.322590 25.000000
201.049730 19.000000
203.074110 21.000000
203.081710 29.000000
206.486310 38.000000
207.992360 24.000000
208.308870 18.000000
212.047760 20.000000
212.987640 42.000000
213.052400 199.000000
214.058360 43.000000
216.035030 19.000000
217.052920 41.000000
218.056930 21.000000
224.047880 35.000000
227.039310 25.000000
229.054340 63.000000
230.992800 31.000000
231.062130 83.000000
232.041400 27.000000
233.037020 19.000000
233.071300 27.000000
240.016920 17.000000
240.041990 25.000000
241.044130 81.000000
241.057570 158.000000
242.053450 44.000000
252.725110 18.000000
255.794880 38.000000
257.040010 55.000000
258.040800 148.000000
258.051880 96.000000
258.063450 40.000000
258.078700 43.000000
259.030090 30.000000
259.053680 166.000000
259.063420 45.000000
259.084750 23.000000
259.190490 20.000000
267.327700 51.000000
269.042660 64.000000
285.039030 34.000000
286.052670 41.000000
286.775570 20.000000
286.986050 67.000000
287.023130 351.000000
287.054230 17458.000000
287.096160 53.000000
287.109830 81.000000
287.118900 33.000000

