>compound PR35218583
>parentmass 314.1385
>ionization [M+H]+
>formula C18H19NO4
>rt 307.800000
>profile qtof
#smiles_iso COC1=C(C=CC(=C1)C=CC(=O)NCCC2=CC=C(C=C2)O)O
#smiles_can COC1=C(C=CC(=C1)C=CC(=O)NCCC2=CC=C(C=C2)O)O
#inchikey NPNNKDMSXVRADT-UHFFFAOYSA-N
#pubchem_id 125213
#mb_accession PR311020

>ms2
72.743800 17.000000
89.040570 19.000000
93.064620 17.000000
93.070120 27.000000
103.051410 40.000000
116.044270 17.000000
117.029460 20.000000
117.035350 37.000000
121.043650 17.000000
121.061900 95.000000
121.068500 115.000000
131.013600 20.000000
145.023880 29.000000
145.032240 87.000000
147.050290 18.000000
177.055560 477.000000
178.055450 17.000000
178.063710 20.000000
181.097140 18.000000
200.984790 17.000000
314.139680 754.000000

