>compound PR36346075
>parentmass 327.20670449999994
>ionization [M+H]+
>formula C20H26N2O2
>rt 247.612020
>profile qtof
#smiles_iso CC[C@H]1[C@@H]2CC3[C@H]4[C@@]5(C[C@@H](C2[C@H]5O)N3[C@@H]1O)C6=CC=CC=C6N4C
#smiles_can CCC1C2CC3C4C5(CC(C2C5O)N3C1O)C6=CC=CC=C6N4C
#inchikey CJDRUOGAGYHKKD-UORGRDHFSA-N
#pubchem_id 44891335
#mb_accession PR301033,PR301038,PR301043,PR301048,PR301053,PR301058,PR301063,PR301068,PR301073,PR301078,PR301083,PR301088

>ms2
110.097650 9.000000
138.091540 5.000000
144.082430 35.000000
146.096890 8.000000
158.097210 36.000000
159.097400 7.000000
170.093570 6.000000
181.088590 5.000000
182.097490 18.000000
184.113040 7.000000
194.097370 13.000000
210.131930 13.000000
211.130100 5.000000
212.106000 11.000000
220.119710 6.000000
238.123830 8.000000
239.156980 9.000000
291.188810 7.000000
327.207920 1000.000000
327.259550 25.000000

>ms2
327.207520 1000.000000
327.259190 34.000000

>ms2
80.049970 13.000000
82.063770 5.000000
93.070830 5.000000
108.081320 20.000000
110.062220 14.000000
110.096820 64.000000
110.107990 5.000000
111.075960 5.000000
111.084370 9.000000
118.067790 6.000000
120.078590 9.000000
121.082820 6.000000
123.080040 5.000000
126.091350 11.000000
130.065050 16.000000
131.073180 16.000000
132.074420 7.000000
132.083020 16.000000
132.089280 5.000000
134.097370 9.000000
136.080340 18.000000
136.112850 7.000000
138.093080 64.000000
139.088210 5.000000
144.081530 171.000000
145.084180 14.000000
145.092480 9.000000
146.096410 46.000000
156.100750 12.000000
157.086460 14.000000
157.092730 17.000000
158.098080 195.000000
159.088960 6.000000
159.100310 24.000000
160.107820 6.000000
162.095470 8.000000
167.070940 9.000000
168.081470 22.000000
169.089220 15.000000
170.090290 17.000000
170.098110 28.000000
171.099610 17.000000
172.073060 8.000000
172.102220 14.000000
172.113220 24.000000
172.121000 10.000000
173.080570 19.000000
173.118030 7.000000
174.093220 18.000000
181.086930 18.000000
181.095260 8.000000
182.098280 105.000000
183.102110 33.000000
184.114290 71.000000
185.112010 35.000000
194.084340 6.000000
194.098820 47.000000
195.104390 24.000000
196.113950 27.000000
197.115160 10.000000
197.126980 8.000000
198.124050 6.000000
198.133700 6.000000
200.108060 11.000000
208.113950 19.000000
209.112140 12.000000
210.095980 9.000000
210.116360 12.000000
210.129440 82.000000
211.095780 6.000000
211.106340 8.000000
211.126480 26.000000
211.135410 10.000000
212.108280 64.000000
213.104280 11.000000
219.108030 5.000000
220.112660 45.000000
221.117100 24.000000
222.110700 5.000000
222.126020 19.000000
222.138290 9.000000
223.129530 6.000000
223.142490 6.000000
224.113620 5.000000
224.135590 6.000000
225.145650 6.000000
226.122500 31.000000
226.158140 15.000000
235.121980 10.000000
235.137560 20.000000
236.139820 13.000000
237.128140 15.000000
237.145320 22.000000
238.125870 71.000000
238.146620 9.000000
238.158420 14.000000
239.134870 12.000000
239.157070 50.000000
240.129120 7.000000
240.164570 6.000000
245.116900 9.000000
247.133760 7.000000
248.125820 6.000000
248.139270 11.000000
252.176990 5.000000
255.143250 11.000000
255.157490 18.000000
262.154790 9.000000
263.145360 7.000000
263.165560 8.000000
264.138670 14.000000
264.162410 9.000000
264.181120 15.000000
265.178100 9.000000
266.154390 9.000000
274.160280 10.000000
275.163640 7.000000
280.168270 8.000000
291.190610 30.000000
292.166380 14.000000
292.181920 20.000000
309.183690 6.000000
309.203490 26.000000
310.188140 18.000000
327.146000 7.000000
327.170990 8.000000
327.208250 1000.000000

>ms2
55.919930 9.000000
66.274170 8.000000
67.049230 15.000000
67.060930 6.000000
71.053080 5.000000
72.042690 6.000000
72.081230 7.000000
73.528880 10.000000
77.037420 17.000000
78.043810 7.000000
79.053700 36.000000
80.046850 26.000000
80.052730 55.000000
81.029810 10.000000
81.034530 8.000000
81.064170 5.000000
81.070940 23.000000
81.077050 6.000000
82.063430 23.000000
82.073140 17.000000
84.078930 6.000000
84.086710 17.000000
91.054830 127.000000
92.048470 12.000000
93.057430 11.000000
93.064080 23.000000
93.077640 7.000000
93.818420 7.000000
94.061000 32.000000
94.068230 12.000000
96.084430 6.000000
97.064290 23.000000
98.061610 8.000000
98.090160 8.000000
98.095190 5.000000
101.241040 6.000000
103.044160 8.000000
103.052310 14.000000
103.059270 8.000000
104.027750 8.000000
104.045660 8.000000
104.056630 25.000000
104.870220 12.000000
104.878740 6.000000
105.054120 7.000000
105.066800 13.000000
105.072660 31.000000
105.079220 6.000000
106.067340 48.000000
107.045510 8.000000
107.065300 32.000000
107.075880 28.000000
107.245460 8.000000
108.040090 6.000000
108.045520 6.000000
108.070400 7.000000
108.079400 39.000000
109.063600 14.000000
109.083500 14.000000
110.059130 16.000000
110.090150 11.000000
110.101620 22.000000
111.066800 5.000000
112.073690 7.000000
113.055270 9.000000
115.053520 59.000000
115.059450 22.000000
115.067130 10.000000
116.051990 6.000000
116.065250 32.000000
117.058190 101.000000
117.067360 59.000000
118.034770 5.000000
118.054870 7.000000
118.067000 114.000000
119.070820 6.000000
119.082930 33.000000
120.069040 10.000000
120.081540 52.000000
121.056690 8.000000
121.096770 6.000000
122.071610 7.000000
122.095120 18.000000
123.083600 6.000000
124.084320 12.000000
124.115850 6.000000
126.051060 6.000000
127.051700 14.000000
127.057770 7.000000
128.041670 9.000000
128.052340 57.000000
128.064130 37.000000
129.051220 6.000000
129.068120 48.000000
129.078260 14.000000
130.052190 30.000000
130.065720 198.000000
131.063980 45.000000
131.074460 176.000000
132.046250 5.000000
132.067780 12.000000
132.080050 94.000000
132.813350 7.000000
133.084720 18.000000
133.098510 8.000000
134.062130 8.000000
134.097600 55.000000
136.064250 5.000000
136.071400 12.000000
136.077730 20.000000
137.078290 5.000000
138.094680 36.000000
138.102080 9.000000
139.056870 7.000000
139.071490 7.000000
139.078220 7.000000
139.098010 6.000000
140.069470 13.000000
141.073040 8.000000
141.079190 9.000000
142.050290 6.000000
142.065350 91.000000
142.076770 7.000000
142.590350 7.000000
143.061140 27.000000
143.074010 256.000000
143.085600 34.000000
143.127990 6.000000
143.522540 5.000000
144.063610 12.000000
144.081540 1000.000000
145.065340 29.000000
145.075450 62.000000
145.084980 131.000000
146.064240 13.000000
146.070500 9.000000
146.088850 12.000000
146.099900 38.000000
147.094700 15.000000
148.083570 6.000000
148.822390 9.000000
149.091450 8.000000
149.122340 8.000000
150.086530 6.000000
150.092330 10.000000
152.046170 8.000000
152.056560 13.000000
153.070080 46.000000
153.097900 5.000000
154.066390 57.000000
154.077960 6.000000
155.051090 6.000000
155.075180 38.000000
155.993800 9.000000
156.076540 49.000000
156.084430 89.000000
157.071290 5.000000
157.088870 298.000000
157.242390 6.000000
157.465380 5.000000
158.055300 8.000000
158.066070 20.000000
158.095610 615.000000
159.067550 35.000000
159.091430 9.000000
159.101040 51.000000
159.108400 14.000000
160.071520 7.000000
160.110240 29.000000
161.086030 7.000000
161.096540 8.000000
162.106320 6.000000
163.866620 6.000000
164.103060 7.000000
165.023930 13.000000
165.056380 8.000000
165.063000 5.000000
165.075500 14.000000
165.905530 5.000000
166.058140 6.000000
166.063050 15.000000
166.073870 15.000000
167.057110 19.000000
167.074580 394.000000
167.086270 46.000000
168.067690 31.000000
168.080870 252.000000
169.051280 5.000000
169.074540 12.000000
169.085280 106.000000
169.092800 133.000000
170.071840 26.000000
170.090520 85.000000
170.103230 42.000000
170.891910 5.000000
171.066880 23.000000
171.089630 50.000000
171.100940 49.000000
171.115080 12.000000
172.065230 7.000000
172.075780 89.000000
172.087200 13.000000
172.099110 18.000000
172.114090 57.000000
173.060210 6.000000
173.071000 15.000000
173.079900 16.000000
173.090270 7.000000
173.528760 6.000000
173.769350 7.000000
174.091780 60.000000
174.431050 6.000000
178.055740 9.000000
178.070390 16.000000
178.078660 9.000000
178.863490 10.000000
179.078380 49.000000
179.590520 10.000000
180.070210 25.000000
180.083240 85.000000
180.094040 16.000000
180.784440 7.000000
180.821690 6.000000
181.089190 199.000000
181.100850 25.000000
182.069630 8.000000
182.076810 9.000000
182.092730 173.000000
182.099980 186.000000
182.170410 5.000000
183.047790 6.000000
183.071560 13.000000
183.099760 98.000000
183.117540 9.000000
184.071120 6.000000
184.079900 13.000000
184.092060 17.000000
184.101850 35.000000
184.115050 99.000000
184.923550 5.000000
185.082230 32.000000
185.108990 89.000000
186.079180 7.000000
186.096790 6.000000
186.105160 7.000000
186.121610 6.000000
191.073940 6.000000
191.548870 8.000000
192.078250 32.000000
192.087370 24.000000
192.509740 10.000000
193.078340 30.000000
193.090150 124.000000
193.107730 8.000000
193.532820 7.000000
194.070910 6.000000
194.085170 95.000000
194.097640 475.000000
195.022140 7.000000
195.077420 8.000000
195.091610 99.000000
195.106290 183.000000
196.065770 23.000000
196.076390 36.000000
196.103580 88.000000
196.112840 77.000000
196.121520 16.000000
197.076740 17.000000
197.091960 22.000000
197.102520 10.000000
197.119570 6.000000
198.077290 5.000000
198.103160 10.000000
199.074810 5.000000
199.105180 6.000000
199.131120 6.000000
201.960940 7.000000
202.687650 6.000000
203.090730 6.000000
203.694950 8.000000
204.071870 6.000000
204.083540 27.000000
204.092330 23.000000
205.050310 8.000000
205.092240 65.000000
205.117080 10.000000
206.073180 11.000000
206.090910 68.000000
206.099810 65.000000
207.081770 6.000000
207.093220 42.000000
207.102630 52.000000
207.114170 34.000000
208.065350 11.000000
208.081500 8.000000
208.089950 6.000000
208.111590 72.000000
208.125050 21.000000
209.105210 14.000000
209.119840 20.000000
209.136080 6.000000
210.062120 6.000000
210.090150 5.000000
210.126390 195.000000
211.097110 5.000000
211.108730 14.000000
211.120390 12.000000
211.873150 7.000000
212.108490 24.000000
212.118000 7.000000
212.135700 6.000000
213.933930 5.000000
216.785680 6.000000
217.088030 39.000000
217.103530 7.000000
218.094150 90.000000
219.092970 28.000000
219.105820 33.000000
219.115740 6.000000
220.097310 18.000000
220.107910 62.000000
220.117510 52.000000
221.102460 40.000000
221.113620 28.000000
221.127960 19.000000
222.072940 8.000000
222.103130 24.000000
222.115080 26.000000
222.127330 23.000000
223.089070 8.000000
223.096820 36.000000
223.120240 14.000000
223.136260 18.000000
224.102800 6.000000
224.113460 6.000000
224.135700 6.000000
225.097960 7.000000
228.132710 8.000000
230.117370 9.000000
231.109340 22.000000
232.093610 5.000000
232.107680 8.000000
232.119050 22.000000
233.096530 8.000000
233.116090 17.000000
233.126340 5.000000
234.114790 5.000000
234.129560 16.000000
235.121800 55.000000
235.138110 6.000000
236.101010 5.000000
236.113420 5.000000
236.123150 8.000000
236.134410 22.000000
236.148860 9.000000
237.104050 7.000000
237.134410 8.000000
237.148900 23.000000
238.117200 6.000000
238.131770 11.000000
238.148420 7.000000
239.119170 6.000000
239.129070 7.000000
239.154800 21.000000
240.156230 9.000000
241.091580 7.000000
241.167140 15.000000
243.088580 6.000000
243.113330 6.000000
244.084120 6.000000
244.100250 6.000000
244.112090 20.000000
245.105710 12.000000
245.124760 11.000000
245.134090 5.000000
246.128040 21.000000
247.112080 7.000000
247.129550 36.000000
248.109620 15.000000
248.120380 6.000000
248.129040 5.000000
249.123210 7.000000
249.139630 7.000000
249.154980 7.000000
250.155750 11.000000
251.127580 8.000000
251.141080 6.000000
251.712200 6.000000
255.153470 13.000000
258.128570 14.000000
261.137790 31.000000
263.131010 6.000000
263.154660 7.000000
264.174190 5.000000
265.182650 11.000000
266.162780 8.000000
273.128390 5.000000
275.135440 10.000000
276.161410 8.000000
293.176270 7.000000
299.083650 8.000000
309.178590 6.000000
327.199710 6.000000
327.210080 8.000000

>ms2
110.098400 9.000000
138.092240 11.000000
144.082150 34.000000
145.085980 6.000000
146.098630 6.000000
158.096530 40.000000
167.076070 8.000000
182.098180 18.000000
183.102660 6.000000
184.115330 11.000000
194.098280 13.000000
210.129000 12.000000
212.106540 13.000000
220.112630 11.000000
237.142060 6.000000
238.125890 8.000000
239.156370 10.000000
327.206760 1000.000000
327.258510 29.000000

>ms2
327.207730 1000.000000
327.259120 34.000000

>ms2
69.033300 5.000000
81.069500 7.000000
93.068600 11.000000
93.074790 6.000000
95.086790 6.000000
106.066640 7.000000
108.079240 11.000000
109.063150 6.000000
110.062640 6.000000
110.097460 64.000000
111.079570 8.000000
118.067570 10.000000
120.081760 10.000000
122.097890 8.000000
130.067080 30.000000
131.076580 11.000000
132.083160 17.000000
134.092240 6.000000
134.099170 9.000000
135.101150 5.000000
136.075040 8.000000
138.091460 61.000000
138.097630 21.000000
144.081700 191.000000
145.081680 13.000000
145.091050 27.000000
146.059920 5.000000
146.098590 39.000000
147.097960 7.000000
152.105790 7.000000
156.099960 5.000000
157.088530 25.000000
158.097440 217.000000
159.099120 33.000000
160.077070 5.000000
160.116380 6.000000
162.091900 20.000000
167.079100 8.000000
168.082840 19.000000
169.089310 9.000000
169.095890 5.000000
170.091370 16.000000
170.100160 31.000000
171.101990 17.000000
172.076170 6.000000
172.111370 15.000000
172.120790 9.000000
173.085100 17.000000
173.111100 7.000000
174.081410 5.000000
174.095430 20.000000
181.092680 14.000000
182.098280 100.000000
183.093580 11.000000
183.102580 31.000000
184.112500 63.000000
185.106870 14.000000
185.114360 21.000000
194.096690 78.000000
195.104080 24.000000
196.111360 29.000000
196.120480 7.000000
197.111390 8.000000
198.093700 6.000000
198.107850 6.000000
198.133800 7.000000
199.131270 6.000000
200.110640 6.000000
206.095140 6.000000
208.109470 17.000000
208.122760 9.000000
209.107380 9.000000
209.119320 10.000000
210.092320 8.000000
210.114270 9.000000
210.129440 84.000000
211.097760 9.000000
211.126400 20.000000
211.138760 5.000000
212.105450 47.000000
212.115620 26.000000
212.142670 11.000000
213.109620 10.000000
220.110020 45.000000
221.106520 8.000000
221.119740 15.000000
222.128190 30.000000
222.139310 7.000000
223.102420 6.000000
223.123950 8.000000
223.137890 10.000000
224.147420 7.000000
226.116680 11.000000
226.128280 15.000000
226.156680 6.000000
233.121190 9.000000
235.120320 11.000000
235.136180 12.000000
236.105180 8.000000
236.121580 6.000000
236.143840 15.000000
237.123750 9.000000
237.140700 26.000000
238.121550 62.000000
238.150500 10.000000
238.163880 15.000000
239.130780 5.000000
239.155080 57.000000
239.167430 16.000000
240.138350 10.000000
240.157520 11.000000
240.168780 5.000000
248.137790 6.000000
248.151030 6.000000
255.148970 19.000000
262.144960 8.000000
262.158630 10.000000
263.155700 8.000000
264.151790 11.000000
264.174160 20.000000
265.168060 8.000000
266.166050 5.000000
274.156160 15.000000
280.163180 7.000000
280.181340 9.000000
282.188170 11.000000
291.186650 27.000000
292.156890 9.000000
292.168430 11.000000
292.184600 13.000000
309.177370 10.000000
309.197300 21.000000
310.186400 11.000000
327.161800 7.000000
327.206970 1000.000000

>ms2
55.054790 10.000000
56.048030 6.000000
57.034260 7.000000
67.044640 5.000000
67.050920 10.000000
68.054760 6.000000
70.072070 8.000000
71.013110 5.000000
77.029310 9.000000
77.039990 30.000000
79.055300 56.000000
80.033520 7.000000
80.043620 10.000000
80.051940 45.000000
80.060420 9.000000
81.034330 7.000000
81.053010 10.000000
81.058940 12.000000
81.071080 25.000000
82.060780 7.000000
82.067210 14.000000
82.074570 24.000000
83.045370 6.000000
83.051070 6.000000
84.044050 5.000000
84.050070 5.000000
90.497440 7.000000
91.034440 5.000000
91.043980 6.000000
91.056140 122.000000
92.049500 6.000000
92.054470 6.000000
92.059230 8.000000
93.071360 38.000000
94.065340 41.000000
95.054700 5.000000
95.084650 5.000000
96.044780 5.000000
96.084920 5.000000
97.053350 9.000000
98.095460 11.000000
101.681940 6.000000
103.039900 6.000000
103.056120 51.000000
103.680610 6.000000
104.063740 8.000000
105.071690 18.000000
106.062660 15.000000
106.069630 16.000000
107.066690 10.000000
108.055470 7.000000
108.080600 64.000000
108.927250 5.000000
109.050250 11.000000
109.063960 11.000000
109.068860 14.000000
109.085620 9.000000
109.245650 8.000000
110.051120 10.000000
110.062840 36.000000
110.097180 21.000000
110.107100 12.000000
111.081850 9.000000
111.103950 5.000000
111.645370 8.000000
115.054840 75.000000
115.482090 6.000000
116.047590 8.000000
116.053540 13.000000
116.064410 20.000000
117.058010 96.000000
117.068140 70.000000
117.074910 21.000000
118.060100 20.000000
118.069290 100.000000
118.079150 9.000000
119.083960 14.000000
120.053610 7.000000
120.075680 29.000000
120.086980 15.000000
121.073000 10.000000
122.056060 5.000000
122.097180 10.000000
123.073570 7.000000
126.043080 5.000000
126.054090 6.000000
127.047270 13.000000
127.057170 45.000000
127.132920 6.000000
128.053420 45.000000
129.059920 24.000000
129.075530 20.000000
129.526030 5.000000
130.036180 8.000000
130.066330 196.000000
131.056080 7.000000
131.074750 203.000000
131.084060 29.000000
131.094510 6.000000
132.081740 130.000000
133.050420 5.000000
133.089870 5.000000
134.063050 10.000000
134.090130 6.000000
134.100490 26.000000
136.076840 20.000000
138.090730 29.000000
140.891980 5.000000
141.068920 9.000000
142.065220 76.000000
142.078140 18.000000
143.047740 6.000000
143.069670 94.000000
143.077510 173.000000
144.044910 10.000000
144.082030 1000.000000
145.071750 13.000000
145.086490 221.000000
146.065900 16.000000
146.087860 9.000000
146.098920 67.000000
146.116960 9.000000
146.834550 6.000000
147.043810 6.000000
148.088230 5.000000
149.090260 7.000000
151.056840 14.000000
152.064300 39.000000
153.066250 22.000000
153.079680 10.000000
154.063860 78.000000
155.073970 30.000000
155.812910 9.000000
156.066830 10.000000
156.080610 176.000000
156.112410 6.000000
157.061970 12.000000
157.071910 19.000000
157.089940 259.000000
158.051280 5.000000
158.077040 10.000000
158.096910 738.000000
159.088410 28.000000
159.098190 80.000000
159.108260 29.000000
160.072100 21.000000
160.094740 6.000000
164.965730 7.000000
165.062840 10.000000
165.072560 34.000000
166.052660 6.000000
166.073300 25.000000
167.030290 7.000000
167.074330 459.000000
167.090550 8.000000
168.057650 8.000000
168.073520 86.000000
168.080830 333.000000
169.069030 29.000000
169.078460 46.000000
169.090260 166.000000
170.080290 16.000000
170.091570 85.000000
170.098770 81.000000
170.106900 38.000000
171.034320 5.000000
171.090560 63.000000
171.098300 26.000000
171.111340 5.000000
172.070470 39.000000
172.077740 60.000000
172.107220 14.000000
172.116790 25.000000
172.806110 6.000000
173.088290 12.000000
174.077640 6.000000
174.090180 49.000000
174.475300 5.000000
176.345440 8.000000
177.058670 12.000000
178.079670 13.000000
179.049680 5.000000
179.069600 47.000000
179.096240 17.000000
180.047180 5.000000
180.079680 211.000000
180.135010 6.000000
181.063480 19.000000
181.087620 182.000000
181.097490 48.000000
182.077940 28.000000
182.093960 314.000000
183.085850 6.000000
183.100920 76.000000
183.116850 6.000000
183.942250 5.000000
184.076110 10.000000
184.105990 64.000000
184.118910 38.000000
184.126400 18.000000
185.081710 15.000000
185.090180 6.000000
185.103210 25.000000
185.114070 53.000000
190.080380 9.000000
191.026050 9.000000
191.072980 11.000000
191.086350 11.000000
192.062440 7.000000
192.080690 31.000000
193.085450 86.000000
193.144840 6.000000
194.096210 517.000000
194.468020 7.000000
195.061940 9.000000
195.088060 20.000000
195.102080 177.000000
195.110980 64.000000
195.181930 5.000000
195.955340 5.000000
196.060030 9.000000
196.071330 39.000000
196.085630 26.000000
196.097810 42.000000
196.110400 138.000000
196.127490 9.000000
197.078580 38.000000
197.096240 13.000000
197.108900 24.000000
198.093230 14.000000
198.130890 21.000000
198.204790 5.000000
199.123900 7.000000
199.138260 5.000000
200.095120 5.000000
200.106810 11.000000
200.117650 5.000000
204.069230 12.000000
204.084460 41.000000
204.093930 20.000000
205.069660 9.000000
205.088990 57.000000
206.080140 5.000000
206.095600 89.000000
207.087330 25.000000
207.104190 110.000000
207.113110 35.000000
208.074330 10.000000
208.109760 64.000000
208.117450 85.000000
208.376970 7.000000
209.083760 14.000000
209.108960 15.000000
209.122180 28.000000
210.081380 5.000000
210.096150 31.000000
210.125920 85.000000
210.136020 47.000000
211.092790 18.000000
211.102810 14.000000
211.124150 44.000000
211.925570 6.000000
212.100140 15.000000
212.108730 16.000000
212.144970 11.000000
213.086120 7.000000
213.142010 9.000000
214.107060 6.000000
216.036710 7.000000
216.077330 6.000000
217.086170 13.000000
217.101270 7.000000
218.085710 16.000000
218.097240 31.000000
219.092210 24.000000
219.107190 21.000000
220.036480 5.000000
220.076400 5.000000
220.108470 40.000000
220.118190 92.000000
220.147570 7.000000
221.092330 5.000000
221.105580 27.000000
221.117830 50.000000
222.106160 13.000000
222.127870 22.000000
223.096080 11.000000
223.126800 54.000000
224.143340 11.000000
224.259340 6.000000
225.078250 6.000000
226.124950 19.000000
226.694690 5.000000
227.127550 9.000000
229.076050 9.000000
230.096690 14.000000
231.096980 5.000000
231.110030 5.000000
232.107850 17.000000
232.121140 5.000000
233.073070 7.000000
233.108290 23.000000
233.123720 25.000000
234.107930 14.000000
234.118450 23.000000
234.130910 29.000000
235.092480 7.000000
235.122340 42.000000
235.140470 20.000000
236.113940 26.000000
236.135570 16.000000
236.145710 44.000000
236.154170 15.000000
237.132020 8.000000
237.141430 28.000000
238.116970 20.000000
238.141220 10.000000
238.158280 6.000000
239.137880 7.000000
239.150730 40.000000
239.162020 20.000000
244.086910 6.000000
244.115660 11.000000
245.117840 10.000000
246.114730 9.000000
247.101300 5.000000
247.116350 21.000000
247.145100 7.000000
248.105940 9.000000
248.149280 11.000000
250.157320 9.000000
251.121400 5.000000
251.152310 5.000000
252.136140 6.000000
256.150510 6.000000
258.787260 5.000000
260.128390 6.000000
261.140350 10.000000
262.091090 8.000000
262.164760 5.000000
263.142150 6.000000
263.160370 13.000000
265.862550 6.000000
266.163240 6.000000
301.341670 5.000000
312.145900 5.000000
319.783570 5.000000
327.199490 17.000000
327.209140 28.000000

>ms2
110.097960 12.000000
144.080340 19.000000
144.086210 13.000000
146.097530 6.000000
157.090390 7.000000
158.097600 38.000000
170.100520 7.000000
171.104860 5.000000
172.109830 7.000000
181.089780 8.000000
182.096440 20.000000
184.114470 11.000000
194.095440 16.000000
194.104000 5.000000
195.103840 6.000000
196.111220 7.000000
210.128140 15.000000
211.130000 6.000000
212.101490 6.000000
212.111770 11.000000
237.138720 5.000000
239.156050 10.000000
309.197720 7.000000
327.208370 1000.000000
327.260470 28.000000

>ms2
327.207240 1000.000000
327.258480 34.000000

>ms2
80.050080 9.000000
81.070670 10.000000
93.071070 6.000000
106.067890 5.000000
107.083960 8.000000
108.078220 9.000000
108.083420 11.000000
109.069660 6.000000
110.056650 6.000000
110.061740 11.000000
110.096950 69.000000
111.080740 12.000000
111.096380 7.000000
120.081130 12.000000
122.094640 8.000000
126.092120 8.000000
130.065690 15.000000
131.072240 8.000000
132.075300 9.000000
132.084060 12.000000
133.099410 5.000000
134.097750 5.000000
136.075870 8.000000
138.092000 38.000000
144.081210 175.000000
145.080290 8.000000
145.086120 21.000000
146.091550 19.000000
146.098880 23.000000
152.110170 5.000000
157.083820 12.000000
157.092880 14.000000
158.097180 172.000000
159.091080 7.000000
159.101060 26.000000
159.108050 7.000000
162.087480 5.000000
164.110720 9.000000
168.082080 14.000000
169.092090 18.000000
170.082810 5.000000
170.096630 33.000000
170.103820 12.000000
171.099120 8.000000
172.077510 9.000000
172.106280 9.000000
172.116500 17.000000
173.087840 7.000000
174.090530 25.000000
181.091520 13.000000
182.097270 86.000000
182.121720 5.000000
183.101590 30.000000
184.112520 69.000000
184.127750 6.000000
185.108250 20.000000
185.120710 5.000000
186.095210 5.000000
194.096950 58.000000
195.098240 17.000000
195.109280 16.000000
196.112520 44.000000
197.118130 15.000000
198.129490 6.000000
207.104510 8.000000
208.112960 25.000000
209.105730 8.000000
209.120270 10.000000
210.092830 9.000000
210.128330 91.000000
211.125600 23.000000
211.137830 9.000000
212.106320 53.000000
212.143590 6.000000
213.112730 10.000000
220.111020 46.000000
221.118330 16.000000
222.109120 8.000000
222.129700 21.000000
223.130230 16.000000
223.148320 6.000000
224.137600 5.000000
224.147280 6.000000
226.113200 9.000000
226.127790 20.000000
226.160570 13.000000
232.113720 8.000000
234.130020 6.000000
235.119780 14.000000
235.130630 9.000000
236.131300 10.000000
236.143950 8.000000
237.135960 13.000000
237.144960 19.000000
238.103960 7.000000
238.123890 49.000000
238.147290 7.000000
238.157620 11.000000
238.168820 9.000000
239.115830 7.000000
239.127840 6.000000
239.156680 66.000000
240.143980 7.000000
240.158910 14.000000
248.148570 6.000000
253.180480 6.000000
255.146420 8.000000
255.156620 8.000000
262.158200 11.000000
263.160520 9.000000
264.165860 7.000000
264.176540 20.000000
266.150450 9.000000
266.160640 5.000000
274.159820 6.000000
276.168610 5.000000
282.186740 6.000000
291.185760 16.000000
292.175780 12.000000
309.197880 32.000000
310.170930 6.000000
310.192230 11.000000
310.211880 6.000000
327.171050 6.000000
327.207700 1000.000000

>ms2
59.808410 5.000000
68.049780 6.000000
71.052890 5.000000
77.038390 35.000000
78.035510 5.000000
79.054850 44.000000
80.050350 82.000000
81.071290 71.000000
81.159860 5.000000
82.064050 33.000000
83.049000 5.000000
86.064470 7.000000
88.496910 7.000000
91.053040 71.000000
92.050390 15.000000
92.058680 7.000000
93.065670 13.000000
94.059960 7.000000
94.071660 12.000000
95.050780 7.000000
95.070640 7.000000
95.089960 6.000000
96.036830 5.000000
96.043720 6.000000
96.082530 12.000000
98.188580 6.000000
103.054960 20.000000
104.053980 5.000000
105.066730 16.000000
105.076320 21.000000
106.062870 21.000000
106.066820 39.000000
107.051800 11.000000
107.071250 29.000000
107.082890 14.000000
108.049120 8.000000
108.080260 87.000000
108.087530 18.000000
109.054690 10.000000
109.065120 32.000000
110.056300 11.000000
110.085580 12.000000
110.094600 9.000000
110.102870 11.000000
112.116380 6.000000
112.184100 7.000000
115.050040 27.000000
115.055520 93.000000
116.058210 23.000000
117.043100 6.000000
117.052770 37.000000
117.060970 57.000000
117.070110 42.000000
118.048660 10.000000
118.064200 81.000000
119.075550 31.000000
119.086000 18.000000
120.074200 22.000000
120.080770 45.000000
121.089960 14.000000
121.094550 6.000000
122.089810 12.000000
122.097930 8.000000
126.088450 11.000000
127.055520 30.000000
128.047940 63.000000
128.059940 53.000000
128.810270 7.000000
128.969540 8.000000
129.024250 7.000000
129.048860 5.000000
129.056730 30.000000
129.067280 32.000000
129.076340 27.000000
130.058110 37.000000
130.065980 227.000000
131.019840 7.000000
131.070020 142.000000
131.077300 120.000000
131.086230 15.000000
132.069170 6.000000
132.080800 102.000000
132.542760 7.000000
133.073910 5.000000
133.080020 14.000000
133.090530 14.000000
134.085310 8.000000
134.095210 21.000000
136.059330 8.000000
136.072480 12.000000
136.079530 11.000000
136.111360 13.000000
137.074370 8.000000
137.082200 7.000000
137.087710 5.000000
137.094910 5.000000
138.086550 6.000000
138.095310 23.000000
139.524080 5.000000
140.750790 5.000000
141.063130 6.000000
141.565230 7.000000
142.058400 14.000000
142.066420 40.000000
142.074570 11.000000
143.058330 15.000000
143.074220 294.000000
144.045000 7.000000
144.053450 5.000000
144.080960 1000.000000
145.046260 5.000000
145.072530 6.000000
145.083830 86.000000
145.090790 81.000000
146.049620 10.000000
146.060880 23.000000
146.083040 15.000000
146.096740 42.000000
147.065220 7.000000
147.123430 5.000000
147.814540 6.000000
148.071660 10.000000
148.079510 14.000000
148.109040 13.000000
149.230650 5.000000
151.051040 12.000000
151.061050 6.000000
152.053570 10.000000
152.062930 24.000000
153.066890 17.000000
154.055710 8.000000
154.063690 33.000000
154.071850 22.000000
154.094150 6.000000
155.059590 11.000000
155.066560 23.000000
155.697450 6.000000
156.062380 13.000000
156.079360 146.000000
156.089610 22.000000
157.089070 356.000000
158.045700 5.000000
158.060350 34.000000
158.083080 56.000000
158.096210 696.000000
159.071240 19.000000
159.095090 53.000000
159.103070 48.000000
160.082350 9.000000
160.102460 12.000000
161.083180 8.000000
162.087980 6.000000
165.064040 35.000000
165.073030 18.000000
166.062790 32.000000
166.073390 15.000000
167.073460 349.000000
167.124790 5.000000
168.055600 8.000000
168.081210 344.000000
168.621750 5.000000
169.045680 8.000000
169.061370 12.000000
169.073680 18.000000
169.086820 179.000000
169.106750 10.000000
170.059600 5.000000
170.082990 49.000000
170.097550 108.000000
170.107560 18.000000
170.832930 6.000000
171.073720 16.000000
171.088640 33.000000
171.099820 50.000000
171.143310 6.000000
172.061220 7.000000
172.077770 84.000000
172.098330 16.000000
172.114470 55.000000
173.083180 18.000000
173.111150 9.000000
174.092450 43.000000
175.094330 8.000000
175.112110 5.000000
178.058690 11.000000
179.065950 14.000000
179.072890 39.000000
179.088240 10.000000
180.038100 7.000000
180.061630 6.000000
180.082000 176.000000
180.997760 6.000000
181.061740 14.000000
181.090560 179.000000
181.110180 6.000000
181.952930 7.000000
182.097030 370.000000
183.069810 30.000000
183.087400 32.000000
183.098650 114.000000
183.114960 16.000000
184.076480 30.000000
184.083310 13.000000
184.094620 10.000000
184.115510 68.000000
185.076100 12.000000
185.085300 16.000000
185.102890 14.000000
185.112560 33.000000
185.121520 24.000000
186.093770 5.000000
186.110610 5.000000
187.103180 6.000000
188.094600 7.000000
188.845870 7.000000
190.095260 5.000000
191.070480 17.000000
192.081590 33.000000
192.139280 6.000000
193.066250 10.000000
193.085570 67.000000
193.095990 19.000000
194.065610 6.000000
194.079240 36.000000
194.097520 523.000000
195.076220 6.000000
195.102540 296.000000
196.069930 25.000000
196.079670 25.000000
196.096860 14.000000
196.109300 70.000000
196.121490 19.000000
197.068100 10.000000
197.085650 44.000000
197.110670 47.000000
197.130460 6.000000
197.786990 6.000000
198.082950 6.000000
198.091340 7.000000
198.098660 10.000000
198.127750 7.000000
198.632490 6.000000
199.125630 7.000000
199.213150 6.000000
204.071040 23.000000
204.080960 52.000000
204.427170 7.000000
205.089260 108.000000
206.082240 11.000000
206.098420 87.000000
206.551880 10.000000
206.851850 5.000000
207.078520 5.000000
207.092030 18.000000
207.106290 54.000000
208.098660 32.000000
208.112520 87.000000
208.133500 6.000000
209.085040 6.000000
209.100460 24.000000
209.109850 25.000000
209.121780 37.000000
209.930010 6.000000
210.085880 25.000000
210.121190 65.000000
210.132430 78.000000
210.937580 6.000000
211.093930 6.000000
211.122670 13.000000
211.135310 7.000000
211.573560 8.000000
212.113270 21.000000
212.147350 11.000000
214.450900 6.000000
217.051390 5.000000
217.083650 23.000000
218.087540 42.000000
218.097750 74.000000
218.159010 7.000000
219.094190 59.000000
219.110030 13.000000
220.078310 11.000000
220.112400 139.000000
220.860210 6.000000
221.106670 33.000000
221.116090 32.000000
222.061290 6.000000
222.090840 10.000000
222.099980 16.000000
222.120270 48.000000
223.087620 11.000000
223.118210 40.000000
223.128890 34.000000
224.101150 10.000000
224.111850 10.000000
224.143230 12.000000
225.107600 6.000000
225.209690 6.000000
226.115880 5.000000
226.125110 7.000000
227.129230 8.000000
227.240040 8.000000
228.127730 5.000000
229.894260 8.000000
231.096070 11.000000
231.106640 11.000000
232.104400 9.000000
232.118330 7.000000
233.100570 13.000000
233.108470 26.000000
233.120530 8.000000
234.094500 10.000000
234.121430 18.000000
234.141190 12.000000
235.120530 32.000000
235.145630 6.000000
236.102140 6.000000
236.116760 6.000000
236.129530 17.000000
236.138280 19.000000
237.110860 10.000000
237.124420 19.000000
237.141750 14.000000
237.154750 7.000000
238.116740 16.000000
238.129750 6.000000
238.156910 12.000000
238.309280 6.000000
239.113300 6.000000
239.155720 18.000000
240.154750 5.000000
242.093140 6.000000
244.111110 11.000000
245.122240 5.000000
246.065110 8.000000
246.095490 5.000000
246.114490 10.000000
246.130200 29.000000
247.121700 18.000000
247.136370 5.000000
248.136380 14.000000
248.148240 5.000000
255.126630 5.000000
257.125850 6.000000
258.129000 5.000000
261.131130 5.000000
261.138310 8.000000
263.157870 17.000000
264.133540 6.000000
264.144380 10.000000
273.144810 9.000000
275.155180 7.000000
283.150390 7.000000
291.180210 6.000000
294.172150 7.000000
309.198490 7.000000
311.127350 7.000000
312.139770 20.000000
312.634580 6.000000
312.650910 10.000000
313.137910 7.000000
327.178010 7.000000
327.204130 32.000000

