>compound PR36883709
>parentmass 367.2278
>ionization [M+H]+
>formula C24H30O3
>rt 540.600000
>profile qtof
#smiles_iso CC(=CCC1=C(C=CC(=C1)CCC2=CC(=C(C(=C2)O)CC=C(C)C)O)O)C
#smiles_can CC(=CCC1=C(C=CC(=C1)CCC2=CC(=C(C(=C2)O)CC=C(C)C)O)O)C
#inchikey UMBTUNCDJTWDLW-UHFFFAOYSA-N
#pubchem_id 637247
#mb_accession PR310748

>ms2
70.074470 20.000000
91.059680 17.000000
105.069260 17.000000
107.050090 62.000000
108.003460 18.000000
115.055340 20.000000
121.062610 17.000000
121.068490 26.000000
132.053310 24.000000
133.062960 21.000000
133.074810 29.000000
137.043660 22.000000
137.064180 29.000000
145.052750 49.000000
145.066910 18.000000
147.043560 20.000000
149.062900 19.000000
151.078110 21.000000
159.047960 17.000000
162.096830 18.000000
165.069210 32.000000
173.100330 27.000000
175.074200 24.000000
175.108800 141.000000
175.115840 200.000000
176.101850 20.000000
176.116560 37.000000
177.103160 18.000000
187.128520 17.000000
191.101530 30.000000
191.110260 19.000000
197.059540 20.000000
201.087040 21.000000
202.086430 17.000000
203.103520 23.000000
204.114140 32.000000
209.099550 18.000000
227.099110 18.000000
233.100750 21.000000
243.100720 103.000000
243.175960 19.000000
243.942090 20.000000
244.184300 21.000000
253.094090 62.000000
255.102490 171.000000
256.091060 24.000000
256.109130 29.000000
257.084170 20.000000
259.091640 35.000000
259.103390 61.000000
260.804630 25.000000
269.105040 22.000000
271.093570 64.000000
271.114780 46.000000
272.085690 24.000000
283.171300 17.000000
291.139980 23.000000
295.098570 19.000000
297.135040 25.000000
299.136810 17.000000
299.158390 19.000000
299.168700 24.000000
301.115260 17.000000
304.746920 18.000000
311.165070 553.000000
312.159390 26.000000
312.175720 51.000000
313.106510 56.000000
313.119350 60.000000
313.167910 65.000000
327.152470 37.000000
328.175450 17.000000
351.158690 49.000000
352.161350 38.000000
367.216710 140.000000
367.234710 850.000000

