>compound PR36526506
>parentmass 431.1336586999999
>ionization [M+H]+
>formula C22H22O9
>rt 302.138040
>profile qtof
#smiles_iso COC1=CC=C(C=C1)C2=COC3=C(C2=O)C=CC(=C3)O[C@H]4[C@@H]([C@H]([C@@H]([C@H](O4)CO)O)O)O
#smiles_can COC1=CC=C(C=C1)C2=COC3=C(C2=O)C=CC(=C3)OC4C(C(C(C(O4)CO)O)O)O
#inchikey MGJLSBDCWOSMHL-MIUGBVLSSA-N
#pubchem_id 442813
#mb_accession PR302275,PR302281,PR302287,PR302293,PR302298,PR302304,PR302310,PR302316,PR302322,PR302328,PR302334,PR302340

>ms2
118.043620 7.000000
213.091200 34.000000
226.066940 13.000000
237.054020 36.000000
253.052610 9.000000
254.040680 10.000000
254.055040 22.000000
269.029820 7.000000
269.047760 7.000000
269.081150 1000.000000
270.061580 9.000000
270.084810 183.000000
271.075620 7.000000
271.084810 32.000000
431.135380 169.000000

>ms2
269.040650 7.000000
269.080230 722.000000
270.084960 137.000000
271.089510 19.000000
431.061490 5.000000
431.088680 13.000000
431.133790 1000.000000

>ms2
213.086410 20.000000
213.095990 12.000000
237.054310 6.000000
254.047070 12.000000
254.058810 19.000000
269.051700 8.000000
269.080140 1000.000000
270.083040 203.000000
271.073060 9.000000
271.088260 19.000000

>ms2
77.044810 15.000000
81.016360 20.000000
81.034490 14.000000
87.295910 8.000000
90.046690 22.000000
93.032810 8.000000
95.048450 11.000000
103.056580 8.000000
105.026740 9.000000
107.044230 31.000000
107.051470 62.000000
108.017100 10.000000
115.056770 10.000000
118.026250 8.000000
118.037220 127.000000
118.044080 345.000000
119.037050 14.000000
119.047480 68.000000
123.040000 12.000000
127.051460 18.000000
128.065950 12.000000
129.067700 26.000000
131.931850 9.000000
132.024630 8.000000
133.021190 27.000000
133.031650 24.000000
133.062470 130.000000
136.001890 19.000000
136.010530 55.000000
136.016460 180.000000
136.975860 11.000000
137.021940 205.000000
138.030930 19.000000
141.045100 13.000000
141.069310 20.000000
142.077670 16.000000
144.059300 11.000000
145.064120 17.000000
147.046080 35.000000
147.207580 8.000000
151.044600 11.000000
151.055630 31.000000
152.037170 16.000000
152.060090 13.000000
153.066680 10.000000
153.074710 33.000000
155.011570 13.000000
155.042880 13.000000
156.034130 25.000000
156.043930 30.000000
156.051860 37.000000
156.059190 51.000000
156.066250 33.000000
157.065280 55.000000
158.012280 11.000000
158.074770 50.000000
158.464690 8.000000
161.062010 13.000000
163.033910 11.000000
163.039760 16.000000
165.066970 35.000000
166.073260 8.000000
167.071370 31.000000
168.054240 10.000000
168.643710 10.000000
169.042560 8.000000
169.072770 24.000000
169.080200 14.000000
170.029370 12.000000
170.069110 114.000000
170.078000 26.000000
171.065250 13.000000
171.078170 67.000000
172.089680 8.000000
173.094330 8.000000
177.068890 11.000000
178.069730 8.000000
178.606480 9.000000
180.052900 19.000000
180.068310 21.000000
181.063660 293.000000
182.031490 9.000000
182.065510 34.000000
182.076660 91.000000
182.147320 10.000000
183.054570 10.000000
183.075610 12.000000
184.051560 50.000000
185.058590 10.000000
185.078400 14.000000
185.090130 29.000000
186.101100 9.000000
192.196780 9.000000
195.067840 20.000000
195.086900 12.000000
196.044590 8.000000
196.058530 47.000000
196.082460 48.000000
196.094040 39.000000
197.051090 147.000000
197.061370 453.000000
198.041730 8.000000
198.065900 329.000000
198.083420 12.000000
198.387210 8.000000
198.666950 13.000000
199.055790 10.000000
199.071080 46.000000
199.082500 9.000000
200.046690 41.000000
205.493410 12.000000
208.039690 13.000000
208.050960 46.000000
209.038270 28.000000
209.054280 47.000000
209.062580 49.000000
210.073240 12.000000
211.059810 9.000000
211.070420 14.000000
211.077970 9.000000
213.062610 23.000000
213.093660 534.000000
214.094850 126.000000
214.105360 46.000000
214.148530 10.000000
215.099760 11.000000
219.029020 9.000000
219.044530 17.000000
220.850190 8.000000
223.062670 13.000000
223.075560 8.000000
225.054370 341.000000
225.624740 8.000000
226.031360 20.000000
226.061550 628.000000
226.069720 303.000000
226.117580 10.000000
227.056530 20.000000
227.068410 83.000000
228.072940 9.000000
236.074250 14.000000
236.870680 14.000000
236.926900 10.000000
237.011490 14.000000
237.021620 14.000000
237.038500 66.000000
237.055650 704.000000
237.276520 9.000000
237.404190 9.000000
238.025070 26.000000
238.039870 18.000000
238.055680 217.000000
238.200150 8.000000
239.043550 11.000000
239.070830 14.000000
244.139860 8.000000
246.450590 15.000000
253.023470 74.000000
253.049610 1000.000000
253.069140 50.000000
253.894580 14.000000
254.030410 37.000000
254.057300 742.000000
254.092510 11.000000
254.306840 15.000000
255.039930 39.000000
255.061190 48.000000
256.053990 21.000000
256.070190 14.000000
261.905460 15.000000
263.580230 9.000000
268.993870 8.000000
269.043060 8.000000
269.081150 704.000000
269.093200 216.000000
270.065610 20.000000
270.081420 116.000000
270.096010 64.000000
271.083650 33.000000
271.800050 8.000000
276.039250 14.000000

>ms2
118.042240 6.000000
213.091450 14.000000
237.053830 22.000000
253.053620 13.000000
254.056300 38.000000
269.035710 9.000000
269.053100 8.000000
269.080570 1000.000000
270.084690 204.000000
271.074520 10.000000
271.083740 16.000000
271.099760 5.000000
431.137080 158.000000

>ms2
269.043120 18.000000
269.079410 773.000000
270.081020 149.000000
271.086120 33.000000
431.082640 10.000000
431.132390 1000.000000

>ms2
213.091660 18.000000
237.054550 8.000000
254.054520 17.000000
254.066560 8.000000
269.033510 10.000000
269.081210 1000.000000
270.084440 193.000000
271.084810 20.000000

>ms2
61.030250 8.000000
68.996950 14.000000
77.036750 7.000000
77.079780 8.000000
79.053930 7.000000
81.029450 11.000000
84.999500 8.000000
90.046650 25.000000
103.047780 19.000000
103.060160 8.000000
105.069710 32.000000
107.042790 53.000000
107.051520 94.000000
108.018690 21.000000
108.055390 8.000000
109.026070 11.000000
118.025550 8.000000
118.040820 283.000000
119.039840 28.000000
119.049950 8.000000
120.059390 11.000000
122.031120 8.000000
123.050810 7.000000
128.057920 11.000000
128.064350 39.000000
129.061690 24.000000
133.031490 24.000000
133.060970 59.000000
135.045490 17.000000
136.014950 174.000000
136.541320 7.000000
137.021580 170.000000
141.070600 24.000000
142.064940 10.000000
142.076540 15.000000
143.088180 6.000000
147.039990 10.000000
148.042720 17.000000
148.332210 8.000000
150.717090 7.000000
151.052720 17.000000
152.064900 82.000000
153.060170 18.000000
153.075790 49.000000
154.074220 28.000000
156.040650 6.000000
156.048580 32.000000
156.058140 44.000000
156.063860 20.000000
157.025910 8.000000
157.056720 24.000000
157.069170 48.000000
158.051100 8.000000
158.072480 31.000000
158.078140 18.000000
159.047070 8.000000
159.063230 9.000000
159.071060 8.000000
159.946520 13.000000
162.091870 17.000000
162.480220 6.000000
163.038510 23.000000
165.047900 15.000000
165.065810 27.000000
165.073810 20.000000
167.082080 25.000000
169.047910 7.000000
169.064990 48.000000
169.075290 23.000000
170.056090 8.000000
170.069370 119.000000
170.077710 28.000000
171.058900 7.000000
171.149870 7.000000
171.815810 7.000000
175.998030 8.000000
176.045060 9.000000
180.054640 7.000000
180.068070 13.000000
181.063950 238.000000
181.077330 27.000000
182.041670 11.000000
182.059910 14.000000
182.074250 161.000000
183.043730 8.000000
183.066280 18.000000
183.076510 15.000000
184.052840 72.000000
185.091600 12.000000
185.101440 11.000000
186.248380 8.000000
193.385070 9.000000
195.080810 35.000000
195.455510 7.000000
196.039700 7.000000
196.055370 53.000000
196.074520 10.000000
196.086030 10.000000
197.060490 486.000000
197.517550 6.000000
198.044480 23.000000
198.065050 347.000000
199.074330 52.000000
199.082840 17.000000
200.024860 7.000000
200.041660 27.000000
201.059360 9.000000
204.032680 7.000000
209.053180 13.000000
209.064090 15.000000
209.075240 11.000000
210.064100 14.000000
211.068630 7.000000
211.082500 16.000000
212.085040 27.000000
212.094850 7.000000
212.544400 12.000000
213.091510 597.000000
214.095140 108.000000
214.103470 42.000000
215.097930 7.000000
219.046830 10.000000
223.075090 7.000000
224.078780 8.000000
225.031720 10.000000
225.053770 229.000000
225.834460 6.000000
225.966710 8.000000
226.025270 14.000000
226.053040 217.000000
226.063920 531.000000
226.090090 12.000000
227.016740 8.000000
227.047520 10.000000
227.060300 59.000000
227.072940 22.000000
227.189970 8.000000
228.059810 7.000000
232.537770 9.000000
237.034670 45.000000
237.056270 666.000000
237.212620 8.000000
238.011080 7.000000
238.055730 55.000000
238.065670 50.000000
239.016240 9.000000
239.073170 8.000000
240.054120 7.000000
241.077800 9.000000
251.078750 31.000000
251.213650 7.000000
252.082110 8.000000
252.955900 8.000000
252.999950 10.000000
253.011570 13.000000
253.048840 1000.000000
253.712340 7.000000
253.963810 9.000000
254.028200 24.000000
254.051540 221.000000
254.061170 393.000000
254.533650 7.000000
255.029980 17.000000
255.049160 27.000000
255.063000 59.000000
256.051700 9.000000
256.064480 12.000000
258.024540 7.000000
269.051450 25.000000
269.078280 466.000000
269.089810 320.000000
269.984160 10.000000
270.039860 7.000000
270.066100 19.000000
270.085970 122.000000
270.639430 6.000000
271.096800 7.000000
272.323670 7.000000
296.068390 7.000000
314.983760 7.000000
369.730260 9.000000
387.669950 10.000000

>ms2
213.093960 22.000000
237.057360 17.000000
253.048780 30.000000
254.044830 9.000000
254.058110 33.000000
255.058070 8.000000
269.080930 1000.000000
270.084080 210.000000
271.088380 21.000000
431.130280 132.000000

>ms2
269.049440 7.000000
269.080510 748.000000
270.082640 150.000000
271.087710 25.000000
431.094910 20.000000
431.132230 1000.000000

>ms2
213.095750 19.000000
237.052120 11.000000
253.042210 6.000000
254.058320 28.000000
269.080840 1000.000000
270.084470 186.000000
271.082890 22.000000
271.092250 12.000000

>ms2
53.121350 13.000000
68.998380 25.000000
77.034870 11.000000
79.017080 7.000000
79.053390 7.000000
80.028850 15.000000
81.035270 25.000000
90.051160 18.000000
96.641430 14.000000
103.050900 12.000000
103.057750 40.000000
105.068780 8.000000
107.017610 9.000000
107.048870 143.000000
108.022150 72.000000
108.053730 15.000000
109.027020 19.000000
117.734470 7.000000
118.019380 11.000000
118.027670 7.000000
118.040990 353.000000
118.074330 12.000000
118.760210 9.000000
118.935910 8.000000
119.042630 47.000000
120.024970 22.000000
120.771000 9.000000
128.062710 14.000000
130.054860 11.000000
130.080430 17.000000
131.039990 9.000000
133.027910 21.000000
133.035980 12.000000
133.052220 24.000000
133.065190 101.000000
135.987520 18.000000
136.015980 209.000000
137.019840 99.000000
137.026870 135.000000
137.431610 7.000000
138.841770 12.000000
141.069760 16.000000
142.073410 28.000000
143.081700 14.000000
144.020710 15.000000
146.063580 11.000000
147.046130 8.000000
148.055860 28.000000
151.035400 14.000000
151.048000 7.000000
152.059140 53.000000
152.071590 18.000000
153.068120 28.000000
154.069440 19.000000
155.075700 7.000000
156.041200 12.000000
156.056030 51.000000
156.065200 32.000000
157.061750 33.000000
158.038020 8.000000
158.061250 16.000000
158.071010 11.000000
159.070970 8.000000
159.716950 7.000000
163.031740 7.000000
163.042500 19.000000
165.063260 7.000000
165.072250 39.000000
166.080320 7.000000
166.220860 10.000000
167.067090 8.000000
167.085430 29.000000
168.058720 7.000000
169.042790 18.000000
169.060000 22.000000
169.068070 67.000000
170.053920 12.000000
170.073070 207.000000
171.074910 44.000000
172.201250 8.000000
177.075210 15.000000
180.053850 7.000000
180.615070 7.000000
181.063980 224.000000
181.096390 15.000000
182.072830 154.000000
183.048490 8.000000
183.077670 17.000000
184.036270 11.000000
184.047240 15.000000
184.055050 20.000000
185.066850 11.000000
186.064610 14.000000
187.040020 22.000000
195.074750 54.000000
196.013530 9.000000
196.047760 7.000000
196.081540 11.000000
197.037610 7.000000
197.060120 657.000000
198.051090 14.000000
198.065540 285.000000
199.067950 43.000000
199.440160 8.000000
200.048460 27.000000
200.071000 8.000000
205.068410 8.000000
208.044300 7.000000
209.062350 30.000000
210.076250 9.000000
211.050130 9.000000
211.071400 33.000000
212.089740 9.000000
213.062160 11.000000
213.090990 682.000000
214.096820 115.000000
214.195500 7.000000
214.728870 7.000000
215.077090 9.000000
225.030650 35.000000
225.055340 256.000000
225.070040 30.000000
226.025150 7.000000
226.034100 23.000000
226.063220 626.000000
227.031480 12.000000
227.043660 9.000000
227.061290 90.000000
227.075500 58.000000
236.046460 25.000000
237.054150 853.000000
237.745290 7.000000
237.891390 7.000000
238.057020 173.000000
239.032100 8.000000
239.060670 19.000000
241.076810 7.000000
241.490910 7.000000
252.995060 10.000000
253.014450 7.000000
253.050980 1000.000000
254.030780 20.000000
254.055470 617.000000
254.118030 11.000000
255.051380 35.000000
255.065320 156.000000
257.044250 16.000000
257.224060 16.000000
258.341130 8.000000
267.056300 9.000000
267.076510 10.000000
267.973420 7.000000
268.859560 9.000000
269.073460 301.000000
269.085850 445.000000
269.267730 7.000000
269.302250 7.000000
270.033260 14.000000
270.060520 57.000000
270.086360 158.000000
271.096280 14.000000
277.431460 11.000000
327.890050 9.000000

