>compound PR36857727
>parentmass 236.1308
>ionization [M+H]+
>formula C10H21NO3S
>rt 136.800000
>profile qtof
#smiles_iso CS(=O)CCCCCCCC(C(=O)O)N
#smiles_can CS(=O)CCCCCCCC(C(=O)O)N
#inchikey PUZLVBQOZIVDKI-UHFFFAOYSA-N
#pubchem_id 121232642
#mb_accession PR310889

>ms2peaks
126.127670 18.000000
126.132140 29.000000
175.111180 17.000000
190.129090 82.000000

