>compound PR37069462
>parentmass 284.0999
>ionization [M+H]+
>formula C10H13N5O5
>rt 115.800000
>profile qtof
#smiles_iso C1=NC2=C(N1[C@H]3[C@@H]([C@@H]([C@H](O3)CO)O)O)N=C(NC2=O)N
#smiles_can C1=NC2=C(N1C3C(C(C(O3)CO)O)O)N=C(NC2=O)N
#inchikey NYHBQMYGNKIUIF-UUOKFMHZSA-N
#pubchem_id 135398635
#mb_accession PR310809

>ms2peaks
110.033370 16.000000
110.042930 50.000000
135.024810 75.000000
135.033000 142.000000
136.038420 43.000000
137.047960 20.000000
140.075520 17.000000
142.055240 20.000000
148.055480 18.000000
152.031830 20.000000
152.057010 2394.000000
153.057250 165.000000
153.066600 37.000000
185.085770 27.000000
247.115800 17.000000
284.094880 63.000000
284.104280 41.000000
284.129550 17.000000

