>compound PR37764584
>parentmass 234.1142
>ionization [M+H]+
>formula C13H15NO3
>rt 171.600000
>profile qtof
#smiles_iso COC1=C(C=CC(=C1)/C=C/C(=O)NCC=C)O
#smiles_can COC1=C(C=CC(=C1)C=CC(=O)NCC=C)O
#inchikey NAYMCRXFMBIDTH-FNORWQNLSA-N
#pubchem_id 139291976
#mb_accession PR311011

>ms2
89.041440 150.000000
92.059560 16.000000
102.043290 33.000000
103.047650 28.000000
105.035510 17.000000
107.046330 18.000000
107.834250 18.000000
116.050060 17.000000
116.994120 47.000000
117.028900 169.000000
117.036940 290.000000
118.035390 64.000000
132.540450 18.000000
134.034520 20.000000
134.042680 73.000000
140.607470 20.000000
144.050600 16.000000
145.028820 1305.000000
146.027310 106.000000
146.037840 53.000000
147.037830 16.000000
148.579070 20.000000
148.684920 31.000000
149.054790 147.000000
149.067720 54.000000
150.065640 16.000000
151.024670 16.000000
161.021060 18.000000
162.023610 30.000000
162.034730 19.000000
163.032610 33.000000
174.056300 28.000000
175.548340 17.000000
175.960980 19.000000
176.066100 42.000000
176.074050 19.000000
177.032460 37.000000
177.055690 2382.000000
178.061190 120.000000
180.056050 30.000000
196.986250 16.000000
206.172530 16.000000
218.077190 16.000000
218.084590 44.000000
219.083310 36.000000
219.094850 39.000000
220.093490 29.000000
223.964650 16.000000
227.992860 55.000000
232.090210 60.000000
232.291110 17.000000
233.222030 29.000000
234.062820 72.000000
234.088070 24.000000
234.114270 5240.000000
234.149730 18.000000

