>compound PR37936318
>parentmass 388.2118495
>ionization [M+H]+
>formula C22H29NO5
>rt 181.822980
>profile qtof
#smiles_iso CC(=O)OC1C[C@]2(CN3[C@@H]4[C@H]2[C@]5(C1)C3[C@]6(C([C@H]7C([C@@H]5C6(C4)CC7=C)O)O)O)C
#smiles_can CC(=O)OC1CC2(CN3C4C2C5(C1)C3C6(C(C7C(C5C6(C4)CC7=C)O)O)O)C
#inchikey XGTNTUKODZZCGL-LFXJTNOVSA-N
#pubchem_id 22304495
#mb_accession PR301231,PR301234,PR301237,PR301240,PR301243,PR301246,PR301249,PR301252,PR301255,PR301258,PR301261,PR301264

>ms2peaks
105.071590 10.000000
144.082080 49.000000
145.085310 6.000000
149.098800 6.000000
158.097760 6.000000
264.176030 39.000000
265.184270 6.000000
282.185460 5.000000
292.170530 101.000000
293.175510 23.000000
310.182680 13.000000
323.187160 5.000000
324.198730 10.000000
328.193120 27.000000
329.194430 7.000000
352.190190 30.000000
388.212190 1000.000000
388.268370 22.000000

>ms2peaks
388.212680 1000.000000
388.270540 31.000000

>ms2peaks
93.070310 14.000000
105.070650 32.000000
121.104010 13.000000
131.086520 20.000000
144.080380 182.000000
145.084850 27.000000
149.095660 37.000000
158.094880 18.000000
254.188460 6.000000
263.165280 11.000000
264.174260 107.000000
265.178160 27.000000
282.176670 9.000000
282.188290 19.000000
292.135190 8.000000
292.170010 387.000000
293.172330 106.000000
310.181950 63.000000
311.182980 11.000000
323.188900 10.000000
324.194520 87.000000
325.199460 17.000000
328.191130 127.000000
329.195040 44.000000
352.188690 133.000000
353.184420 12.000000
353.199250 27.000000
370.193730 8.000000
370.208860 9.000000
388.159790 9.000000
388.211580 1000.000000
388.268400 7.000000

>ms2peaks
57.033420 11.000000
77.042780 8.000000
79.049210 11.000000
79.054730 42.000000
81.072000 6.000000
85.047520 6.000000
91.054390 100.000000
92.058070 6.000000
93.071390 145.000000
94.063580 5.000000
94.073790 8.000000
95.051640 6.000000
96.083400 6.000000
103.055890 28.000000
105.070230 306.000000
106.072690 23.000000
107.050740 6.000000
107.086350 46.000000
108.075570 5.000000
108.087020 6.000000
109.101340 6.000000
115.043620 7.000000
115.055210 33.000000
116.053170 6.000000
116.060960 19.000000
116.066250 16.000000
117.061650 9.000000
117.065670 21.000000
117.071740 31.000000
119.076360 16.000000
119.086350 30.000000
120.082990 12.000000
121.062930 21.000000
121.100880 39.000000
121.110830 7.000000
122.106730 11.000000
128.064590 17.000000
129.070080 138.000000
130.058850 13.000000
130.074340 32.000000
130.081480 13.000000
131.066350 9.000000
131.085400 111.000000
132.082980 12.000000
132.087720 5.000000
133.081190 9.000000
133.107390 6.000000
134.071110 7.000000
134.100420 8.000000
136.071780 5.000000
141.069440 11.000000
142.074780 9.000000
143.066360 34.000000
143.075910 73.000000
143.089840 6.000000
144.056900 8.000000
144.081420 1000.000000
145.058290 10.000000
145.067750 10.000000
145.081970 85.000000
145.089290 69.000000
145.105610 10.000000
146.092900 18.000000
146.101180 25.000000
147.075320 9.000000
147.083100 16.000000
149.095980 44.000000
150.092730 10.000000
153.065050 8.000000
154.047270 6.000000
154.084320 10.000000
155.077240 27.000000
155.087660 22.000000
156.073610 14.000000
156.082760 21.000000
156.092820 26.000000
157.062470 5.000000
157.073150 7.000000
157.087420 84.000000
157.105870 6.000000
158.079040 18.000000
158.097310 209.000000
159.085300 10.000000
159.095060 17.000000
159.106780 9.000000
159.115280 7.000000
160.075290 5.000000
160.081680 11.000000
160.106480 14.000000
160.114260 15.000000
161.079190 6.000000
165.063000 5.000000
165.073700 10.000000
165.614210 5.000000
166.073730 16.000000
167.071010 6.000000
167.092060 21.000000
168.050550 6.000000
168.087970 21.000000
170.092710 11.000000
170.101440 6.000000
170.117130 8.000000
171.077770 7.000000
171.103360 11.000000
172.109150 22.000000
173.085530 13.000000
173.097780 5.000000
178.073060 8.000000
178.082920 21.000000
179.085100 33.000000
179.095250 7.000000
180.079790 15.000000
180.093120 16.000000
181.088000 33.000000
181.096760 13.000000
181.104800 5.000000
182.086410 9.000000
182.100020 33.000000
183.102650 16.000000
183.117170 6.000000
184.118000 6.000000
186.075210 6.000000
186.088960 8.000000
191.077550 19.000000
191.090470 24.000000
192.074970 6.000000
192.092530 51.000000
193.088350 24.000000
193.101290 38.000000
193.786390 6.000000
194.068860 6.000000
194.091660 22.000000
194.102710 10.000000
194.109830 10.000000
195.072050 8.000000
195.091830 6.000000
195.106170 26.000000
195.120150 13.000000
196.106510 7.000000
196.119960 14.000000
197.109830 11.000000
198.122150 16.000000
198.128330 28.000000
199.084590 6.000000
199.128830 8.000000
199.153410 6.000000
200.108180 11.000000
203.072940 6.000000
203.089100 27.000000
203.928620 5.000000
204.086910 5.000000
204.101460 10.000000
205.096800 10.000000
205.110630 18.000000
206.093840 7.000000
206.105990 10.000000
206.116300 10.000000
207.100860 12.000000
207.109660 31.000000
207.124480 6.000000
208.102310 8.000000
208.114030 34.000000
209.099810 8.000000
209.120130 20.000000
210.124650 36.000000
211.126950 9.000000
212.135820 7.000000
216.092480 6.000000
217.089140 10.000000
217.109300 7.000000
218.106600 17.000000
218.119050 11.000000
219.102870 11.000000
219.113480 26.000000
219.125950 5.000000
220.104860 23.000000
220.115830 23.000000
220.128330 18.000000
221.115400 11.000000
221.125340 18.000000
221.135930 16.000000
222.124270 28.000000
222.133930 20.000000
223.100200 7.000000
223.113880 7.000000
223.136660 6.000000
224.104200 5.000000
226.129590 6.000000
230.101410 5.000000
231.113140 6.000000
232.104190 26.000000
232.124390 52.000000
233.110200 11.000000
234.132390 27.000000
234.143080 14.000000
235.127560 8.000000
235.139240 9.000000
236.113100 8.000000
236.147800 16.000000
246.104110 6.000000
246.122590 6.000000
247.095540 7.000000
247.141740 9.000000
248.141710 70.000000
249.145490 29.000000
249.157070 15.000000
250.121960 24.000000
250.152630 11.000000
253.131590 5.000000
254.187210 17.000000
259.136110 10.000000
260.125820 9.000000
260.150510 6.000000
261.154600 15.000000
262.136440 10.000000
262.157870 36.000000
262.173400 16.000000
263.165890 164.000000
263.180600 27.000000
264.129000 17.000000
264.175780 579.000000
265.178440 109.000000
265.538210 8.000000
266.173920 9.000000
266.197300 6.000000
275.161830 8.000000
276.135590 38.000000
276.150790 8.000000
277.133670 8.000000
277.146090 28.000000
277.161380 12.000000
278.151790 6.000000
282.154480 8.000000
282.178560 13.000000
282.190340 8.000000
291.155000 6.000000
292.134950 6.000000
292.171720 251.000000
293.173280 71.000000
294.181270 12.000000
310.174900 36.000000
310.188450 7.000000
311.182890 16.000000
323.174930 19.000000
323.193450 18.000000
324.179870 13.000000
324.194890 32.000000
325.193180 13.000000
328.193880 38.000000
329.161930 7.000000
329.188170 6.000000
329.205660 5.000000
352.176940 6.000000
352.201840 10.000000
388.203340 12.000000
388.219480 15.000000

>ms2peaks
105.067980 7.000000
105.073950 5.000000
144.080170 49.000000
149.094210 7.000000
158.095080 7.000000
264.173550 43.000000
265.176850 9.000000
282.187710 7.000000
292.170260 103.000000
293.172700 22.000000
310.182070 16.000000
324.190610 10.000000
324.202270 11.000000
328.188050 24.000000
352.187130 26.000000
352.204440 7.000000
388.163510 7.000000
388.213070 1000.000000
388.257780 6.000000
388.271730 19.000000

>ms2peaks
388.212650 1000.000000
388.268770 31.000000

>ms2peaks
105.071240 39.000000
121.102070 17.000000
131.086300 14.000000
144.081270 138.000000
145.085310 16.000000
149.095120 28.000000
158.097920 15.000000
264.176150 121.000000
265.175960 26.000000
265.185060 8.000000
282.185610 26.000000
282.200010 6.000000
292.132020 7.000000
292.169650 366.000000
293.172880 79.000000
294.167630 5.000000
310.182040 59.000000
311.189120 10.000000
324.197880 71.000000
325.200710 18.000000
328.190830 132.000000
329.186000 9.000000
329.199890 19.000000
352.191650 134.000000
353.195280 39.000000
370.222410 6.000000
388.155430 8.000000
388.212950 1000.000000
388.273930 6.000000

>ms2peaks
57.033030 10.000000
67.057020 16.000000
77.036710 18.000000
79.043120 5.000000
79.055060 80.000000
80.048000 7.000000
80.057660 10.000000
81.020280 7.000000
81.056440 8.000000
81.069200 20.000000
91.050780 31.000000
91.055350 98.000000
91.064400 7.000000
92.056850 12.000000
93.071100 159.000000
94.066330 18.000000
94.076090 10.000000
95.047610 14.000000
95.056940 5.000000
96.044030 5.000000
103.054500 47.000000
105.070620 371.000000
106.071820 17.000000
106.078230 20.000000
107.072800 8.000000
107.082840 22.000000
107.090520 19.000000
108.081550 7.000000
108.089320 6.000000
115.048680 5.000000
115.053950 19.000000
116.060210 19.000000
116.067210 28.000000
117.072980 47.000000
119.079540 16.000000
119.087640 39.000000
120.077430 12.000000
120.083420 13.000000
121.066020 21.000000
121.081950 11.000000
121.090800 9.000000
121.100110 46.000000
123.108690 9.000000
128.051090 8.000000
128.058230 22.000000
128.065570 35.000000
129.070070 76.000000
129.075010 45.000000
130.062870 34.000000
130.074160 16.000000
130.296480 5.000000
131.072310 6.000000
131.087620 146.000000
132.062100 7.000000
132.081090 17.000000
132.086380 13.000000
133.064910 10.000000
134.094760 10.000000
141.077320 8.000000
142.065660 7.000000
142.079740 22.000000
143.074650 80.000000
143.091060 26.000000
144.041260 5.000000
144.080840 1000.000000
145.087360 116.000000
145.108730 11.000000
146.095810 51.000000
147.062450 6.000000
147.086300 23.000000
149.090300 11.000000
149.096480 35.000000
149.113330 5.000000
153.069820 14.000000
154.075670 10.000000
155.085530 35.000000
155.097670 6.000000
156.081310 40.000000
157.077530 11.000000
157.091400 79.000000
158.095870 200.000000
159.088870 9.000000
159.102890 23.000000
159.109210 7.000000
160.076450 12.000000
160.100450 7.000000
160.113920 17.000000
162.090760 6.000000
163.073970 7.000000
165.066010 10.000000
165.074360 23.000000
165.079540 9.000000
166.072810 15.000000
167.081800 24.000000
168.070180 6.000000
168.079710 8.000000
169.096480 17.000000
170.097260 39.000000
170.112400 5.000000
171.085650 7.000000
171.103390 7.000000
172.081560 14.000000
172.104460 9.000000
172.113800 14.000000
173.094310 6.000000
173.112030 5.000000
175.092220 8.000000
178.074260 15.000000
178.082810 9.000000
179.086850 23.000000
180.082370 13.000000
180.091030 18.000000
181.091080 19.000000
181.107960 10.000000
182.058030 6.000000
182.090910 6.000000
182.102430 36.000000
183.104260 25.000000
184.080050 9.000000
184.103100 11.000000
184.114790 9.000000
186.087570 5.000000
188.110500 11.000000
191.081970 12.000000
191.289380 6.000000
192.091110 65.000000
192.139770 6.000000
193.097090 37.000000
193.106170 20.000000
194.089860 11.000000
194.099620 14.000000
195.102330 15.000000
195.109480 12.000000
196.074080 9.000000
196.110640 19.000000
196.125310 9.000000
197.129780 12.000000
198.101880 7.000000
198.113040 7.000000
198.127330 51.000000
200.145480 6.000000
203.081210 29.000000
203.100980 6.000000
205.095440 17.000000
205.108900 11.000000
206.108810 41.000000
207.107300 9.000000
207.117800 23.000000
208.112760 32.000000
209.093630 12.000000
209.103610 13.000000
209.117190 7.000000
210.125230 11.000000
217.095350 6.000000
217.106720 11.000000
218.100950 22.000000
219.107790 16.000000
219.120120 12.000000
220.113020 49.000000
220.129940 15.000000
221.118360 35.000000
221.132390 11.000000
221.143660 5.000000
222.123350 18.000000
222.139370 19.000000
223.112110 6.000000
223.134480 10.000000
224.140080 8.000000
228.549470 6.000000
230.105330 13.000000
231.104640 10.000000
231.114270 8.000000
231.663040 6.000000
232.112240 15.000000
232.123810 20.000000
232.135120 6.000000
233.085800 5.000000
233.123380 26.000000
234.107070 8.000000
234.122190 31.000000
234.136900 29.000000
235.122830 8.000000
235.135150 23.000000
236.108030 9.000000
236.144030 28.000000
245.117680 8.000000
247.135060 9.000000
247.143780 12.000000
248.143510 84.000000
249.143950 32.000000
249.156050 29.000000
250.121750 13.000000
250.157550 7.000000
251.119610 7.000000
252.135100 9.000000
254.188450 8.000000
258.125890 9.000000
258.140290 6.000000
259.136080 20.000000
260.145970 19.000000
261.148250 7.000000
262.156740 43.000000
262.165650 16.000000
262.178740 6.000000
263.088590 6.000000
263.132020 6.000000
263.167330 150.000000
263.191160 12.000000
264.116330 8.000000
264.153560 27.000000
264.175080 438.000000
265.164830 28.000000
265.177760 35.000000
265.187500 22.000000
267.162510 6.000000
274.164830 25.000000
275.167570 10.000000
276.128660 7.000000
276.143550 19.000000
276.171450 7.000000
277.142850 12.000000
277.158260 7.000000
278.158420 17.000000
281.171230 6.000000
282.173610 20.000000
282.187930 12.000000
282.200320 11.000000
283.198180 8.000000
291.166140 7.000000
292.131870 8.000000
292.170900 320.000000
293.164090 29.000000
293.177760 70.000000
294.168850 6.000000
310.175350 30.000000
310.189670 7.000000
310.202240 6.000000
311.186650 14.000000
323.171480 16.000000
323.189060 22.000000
323.212950 6.000000
324.172640 7.000000
324.189940 30.000000
324.202910 32.000000
325.192410 6.000000
328.192900 38.000000
329.187650 8.000000
352.179660 6.000000
388.206510 11.000000
388.220060 28.000000

>ms2peaks
105.071120 6.000000
144.080540 54.000000
145.085530 6.000000
149.097890 10.000000
158.099090 8.000000
264.170200 19.000000
264.180180 19.000000
265.177860 11.000000
282.185000 6.000000
292.169950 94.000000
293.172520 18.000000
310.184970 12.000000
324.196080 15.000000
328.192870 28.000000
329.184810 6.000000
352.187040 22.000000
352.203610 10.000000
353.187990 8.000000
388.209500 1000.000000
388.256100 9.000000
388.272430 15.000000

>ms2peaks
388.156430 6.000000
388.213130 1000.000000
388.269410 30.000000

>ms2peaks
93.071120 5.000000
105.070480 30.000000
107.083490 9.000000
121.101510 9.000000
131.083190 11.000000
144.081100 174.000000
145.083480 14.000000
149.096080 28.000000
158.092380 8.000000
158.098650 10.000000
263.166500 8.000000
264.174160 102.000000
265.180510 22.000000
282.189060 21.000000
283.186860 5.000000
292.169620 393.000000
293.173130 98.000000
294.169650 8.000000
294.180080 10.000000
310.179960 67.000000
311.183410 13.000000
323.191530 5.000000
324.195680 80.000000
325.194980 17.000000
328.190700 126.000000
329.183750 8.000000
329.196870 24.000000
330.191830 6.000000
352.188690 147.000000
353.189210 23.000000
353.203460 16.000000
354.199040 9.000000
370.204470 14.000000
388.167330 11.000000
388.211730 1000.000000
388.266540 11.000000

>ms2peaks
57.033310 7.000000
57.036990 6.000000
67.053670 13.000000
69.034170 8.000000
77.039600 10.000000
79.043720 9.000000
79.056510 54.000000
81.073480 14.000000
91.037260 6.000000
91.055140 156.000000
92.060310 9.000000
93.071290 153.000000
94.064450 8.000000
94.072700 5.000000
95.051370 13.000000
96.078800 5.000000
103.057140 13.000000
104.054270 6.000000
105.057770 8.000000
105.070590 350.000000
106.067730 17.000000
107.086230 41.000000
108.079940 9.000000
115.054700 23.000000
116.062720 39.000000
116.069950 7.000000
117.064930 36.000000
117.072210 26.000000
118.067400 6.000000
118.080410 5.000000
119.084060 27.000000
119.090550 28.000000
120.088670 8.000000
121.065580 6.000000
121.101200 86.000000
122.105290 16.000000
128.058030 18.000000
128.065570 13.000000
129.070590 116.000000
130.066640 40.000000
130.080860 12.000000
131.074300 9.000000
131.086270 152.000000
132.081680 34.000000
133.067920 13.000000
133.087310 8.000000
134.094420 12.000000
141.071660 13.000000
142.067760 19.000000
142.762330 5.000000
143.073750 77.000000
143.084610 22.000000
144.063660 5.000000
144.081090 1000.000000
145.086000 127.000000
145.101940 6.000000
146.063130 7.000000
146.086350 9.000000
146.101100 42.000000
147.080400 37.000000
147.088270 8.000000
149.085530 10.000000
149.096150 26.000000
149.104020 18.000000
150.098770 8.000000
153.072190 17.000000
154.064940 10.000000
154.073470 17.000000
155.076970 5.000000
155.087280 23.000000
156.068850 6.000000
156.082860 65.000000
157.069180 6.000000
157.089170 62.000000
157.101010 10.000000
158.097790 223.000000
159.077840 18.000000
159.101810 22.000000
160.079330 14.000000
160.087400 7.000000
160.113800 36.000000
162.088330 6.000000
165.068310 7.000000
166.078190 15.000000
167.071520 9.000000
167.083150 8.000000
168.081100 18.000000
169.090500 11.000000
169.102770 20.000000
170.067930 6.000000
170.098540 12.000000
170.107250 7.000000
171.101030 8.000000
172.114290 16.000000
174.089460 8.000000
176.104900 6.000000
178.025910 5.000000
178.063550 7.000000
178.080310 23.000000
179.083040 40.000000
179.090650 26.000000
180.090320 46.000000
181.072860 8.000000
181.092640 30.000000
181.105120 9.000000
182.072330 5.000000
182.089510 20.000000
182.098400 16.000000
183.096500 5.000000
183.107240 9.000000
183.121440 6.000000
184.111250 15.000000
186.086730 8.000000
186.122730 8.000000
191.091960 5.000000
192.093080 61.000000
193.096300 20.000000
193.107830 33.000000
194.090790 21.000000
194.100830 19.000000
195.086930 5.000000
195.108510 25.000000
195.119490 20.000000
196.077840 7.000000
196.097310 8.000000
196.109480 12.000000
196.119690 29.000000
197.098280 5.000000
197.116200 10.000000
198.126220 30.000000
199.133190 7.000000
200.101620 8.000000
202.080670 9.000000
203.081860 10.000000
204.094850 11.000000
205.084270 6.000000
205.096630 14.000000
205.106310 17.000000
206.104890 11.000000
206.113300 14.000000
207.109500 57.000000
208.105880 11.000000
208.115480 11.000000
208.128850 15.000000
209.120300 7.000000
210.098850 12.000000
210.128310 10.000000
212.107960 7.000000
214.115140 6.000000
214.122060 8.000000
216.096500 11.000000
217.093890 10.000000
217.108580 26.000000
218.089070 7.000000
218.103820 23.000000
219.109950 19.000000
219.120380 24.000000
220.112320 36.000000
220.122120 11.000000
221.114290 16.000000
221.126660 42.000000
222.127040 30.000000
222.139330 7.000000
223.105120 5.000000
223.120510 6.000000
223.137420 14.000000
224.141890 13.000000
226.129090 8.000000
232.113140 22.000000
232.128430 15.000000
233.112370 11.000000
233.129150 14.000000
234.124790 51.000000
234.137590 33.000000
235.105100 5.000000
235.134630 16.000000
235.142430 9.000000
236.103790 5.000000
236.129940 8.000000
236.145840 11.000000
239.162800 5.000000
245.124830 16.000000
247.136840 16.000000
247.148060 12.000000
248.134980 32.000000
248.143330 91.000000
249.121950 8.000000
249.144760 24.000000
249.155080 27.000000
250.111070 6.000000
250.157010 12.000000
258.101140 6.000000
258.120640 14.000000
258.137360 11.000000
259.138150 8.000000
260.150730 8.000000
261.156190 6.000000
262.125060 10.000000
262.156620 26.000000
262.166290 14.000000
263.139190 7.000000
263.165070 107.000000
263.176030 70.000000
264.171390 400.000000
264.181210 197.000000
265.163150 24.000000
265.179230 104.000000
266.156980 9.000000
266.175900 11.000000
268.141660 5.000000
272.150730 9.000000
273.142640 5.000000
274.147060 5.000000
274.162170 5.000000
275.126800 6.000000
275.166840 14.000000
276.128330 21.000000
276.145050 30.000000
277.142760 39.000000
281.166560 7.000000
282.179410 7.000000
282.191860 6.000000
283.187320 8.000000
291.166380 7.000000
292.159940 66.000000
292.174800 226.000000
293.165800 31.000000
293.178500 58.000000
294.180660 16.000000
310.169560 21.000000
310.188260 12.000000
323.184910 12.000000
323.198610 11.000000
324.194030 42.000000
324.208500 17.000000
325.201420 11.000000
328.195470 30.000000
329.202030 9.000000
352.191890 20.000000
388.206180 12.000000

