>compound PR37859181
>parentmass 289.154669
>ionization [M+H]+
>formula C16H20N2O3
>rt 368.445000
>profile qtof
#smiles_iso CC[C@H](C)[C@@H](C(=O)O)NC(=O)CC1=CNC2=CC=CC=C21
#smiles_can CCC(C)C(C(=O)O)NC(=O)CC1=CNC2=CC=CC=C21
#inchikey WPTUQMUCTTVOFW-BONVTDFDSA-N
#pubchem_id 644226
#mb_accession PR304086,PR304088,PR304090,PR304091,PR304093,PR304095,PR304097,PR304099,PR304101,PR304103,PR304105,PR304107

>ms2peaks
86.084970 9.000000
86.096370 229.000000
87.097110 5.000000
87.102710 7.000000
103.053970 7.000000
130.064740 1000.000000
131.057500 12.000000
131.067730 88.000000
132.101330 221.000000
133.103900 7.000000
133.109160 6.000000
175.090700 5.000000
243.148610 544.000000
244.152330 95.000000
245.154950 5.000000
271.144870 59.000000
272.149290 9.000000
288.142060 8.000000
289.154630 425.000000

>ms2peaks
86.095990 31.000000
130.064470 102.000000
131.066540 8.000000
132.101260 152.000000
133.104610 11.000000
243.149600 751.000000
244.152660 148.000000
245.156310 12.000000
271.144410 145.000000
272.147550 30.000000
289.154970 1000.000000
289.204860 7.000000

>ms2peaks
69.070180 8.000000
86.096330 142.000000
103.050270 6.000000
128.046780 6.000000
130.064710 1000.000000
130.098340 7.000000
131.067550 117.000000
132.099490 9.000000

>ms2peaks
69.066650 6.000000
70.073520 7.000000
77.037980 55.000000
86.096210 10.000000
103.053430 161.000000
104.052170 7.000000
104.058360 5.000000
117.055340 10.000000
128.048830 63.000000
129.053570 21.000000
130.047030 10.000000
130.064380 1000.000000
131.068830 112.000000
289.156860 10.000000

>ms2peaks
86.095880 216.000000
87.098220 7.000000
103.054510 7.000000
130.064390 1000.000000
131.068440 132.000000
132.079740 6.000000
132.101090 174.000000
133.103780 19.000000
243.149230 514.000000
244.153060 115.000000
245.152980 10.000000
271.142910 65.000000
272.146580 16.000000
289.153780 399.000000

>ms2peaks
86.096130 29.000000
130.065020 112.000000
131.071320 5.000000
132.101550 155.000000
133.104750 14.000000
243.149280 772.000000
244.151720 152.000000
245.157790 17.000000
271.145080 153.000000
272.143550 20.000000
272.155850 15.000000
289.154110 1000.000000
289.200070 10.000000

>ms2peaks
69.067970 7.000000
86.096130 111.000000
87.103420 7.000000
103.052750 9.000000
130.064700 1000.000000
131.067700 119.000000
132.101440 8.000000

>ms2peaks
77.039330 63.000000
78.041920 5.000000
86.097820 28.000000
102.045150 5.000000
103.054020 193.000000
104.053430 20.000000
128.049130 47.000000
129.047320 10.000000
129.057740 5.000000
130.065000 1000.000000
131.068790 108.000000
132.069230 5.000000

>ms2peaks
86.096120 189.000000
87.099900 18.000000
130.033890 6.000000
130.048080 5.000000
130.064960 1000.000000
131.059340 8.000000
131.069140 90.000000
132.072910 8.000000
132.101680 193.000000
133.105120 19.000000
158.062130 7.000000
243.149610 589.000000
244.151860 94.000000
245.150770 10.000000
271.143280 70.000000
272.154050 8.000000
288.138180 6.000000
288.147400 7.000000
289.154450 429.000000
289.199520 6.000000

>ms2peaks
86.096030 32.000000
130.065120 106.000000
131.070270 14.000000
132.101620 140.000000
133.105820 13.000000
243.149510 775.000000
243.193570 6.000000
244.153180 142.000000
245.151260 10.000000
271.144470 148.000000
272.147060 26.000000
288.145230 6.000000
289.155300 1000.000000
289.203520 9.000000

>ms2peaks
69.069610 6.000000
86.096410 123.000000
87.099770 10.000000
130.064850 1000.000000
130.097700 8.000000
131.067370 117.000000
132.102010 9.000000

>ms2peaks
77.038290 54.000000
78.042720 6.000000
86.093350 7.000000
86.098410 6.000000
102.045960 8.000000
103.054310 186.000000
104.054150 18.000000
128.048690 81.000000
129.054020 18.000000
130.064710 1000.000000
131.066990 146.000000
132.074040 8.000000

