>compound PR37540115
>parentmass 323.1754044
>ionization [M+H]+
>formula C20H22N2O2
>rt 265.192020
>profile qtof
#smiles_iso C/C=C\1/CN2[C@H]3CC1C4[C@@H]2[C@@H](C5=C3NC6=C5C=CC(=C6)OC)OC4
#smiles_can CC=C1CN2C3CC1C4C2C(C5=C3NC6=C5C=CC(=C6)OC)OC4
#inchikey XJTWLFBHBFSVRS-CRJBWSHOSA-N
#pubchem_id 23641080
#mb_accession PR300180,PR300185,PR300190,PR300195,PR300200,PR300205,PR300210,PR300215,PR300220,PR300225,PR300230,PR300235

>ms2peaks
91.052470 6.000000
93.058410 6.000000
93.064870 7.000000
93.071720 10.000000
94.065250 20.000000
108.081860 7.000000
120.080440 65.000000
121.083120 6.000000
121.091310 5.000000
122.096440 134.000000
123.098180 9.000000
134.095950 8.000000
148.076170 7.000000
148.112210 15.000000
150.084640 6.000000
150.091750 8.000000
158.060710 29.000000
159.066020 10.000000
160.074580 14.000000
173.083620 54.000000
174.091450 29.000000
186.089020 18.000000
188.070470 6.000000
188.109420 11.000000
193.088620 11.000000
202.083590 20.000000
210.090120 14.000000
212.103610 6.000000
212.112300 6.000000
215.085070 6.000000
216.101090 6.000000
223.098400 6.000000
224.107250 21.000000
227.082790 5.000000
234.092970 7.000000
236.103320 8.000000
238.121320 6.000000
247.124100 5.000000
248.108250 6.000000
249.099500 9.000000
249.110180 6.000000
250.124890 9.000000
252.098690 18.000000
261.142180 10.000000
263.118650 6.000000
264.127750 8.000000
268.132390 5.000000
277.130490 15.000000
278.136960 13.000000
278.149480 21.000000
279.149870 7.000000
293.165070 256.000000
294.168370 55.000000
295.174960 15.000000
305.166720 9.000000
323.112730 6.000000
323.175230 1000.000000
323.226260 26.000000

>ms2peaks
122.097880 7.000000
293.165680 39.000000
294.168730 8.000000
323.176090 1000.000000
323.228150 32.000000

>ms2peaks
68.047490 5.000000
68.055980 7.000000
77.040820 13.000000
79.052260 10.000000
80.045810 9.000000
80.051540 17.000000
81.055540 7.000000
82.064990 11.000000
91.052400 45.000000
93.055950 66.000000
93.068700 134.000000
94.064700 357.000000
94.075660 7.000000
95.040340 7.000000
95.049480 17.000000
95.063100 9.000000
95.067970 18.000000
95.074810 6.000000
96.070350 8.000000
96.085850 5.000000
105.069890 20.000000
107.069320 28.000000
107.076680 18.000000
108.080120 58.000000
109.087290 8.000000
117.056760 29.000000
118.065850 24.000000
119.067370 19.000000
119.076770 15.000000
120.043150 8.000000
120.056590 6.000000
120.080080 581.000000
121.063440 6.000000
121.080250 48.000000
121.089070 35.000000
122.065660 6.000000
122.095680 1000.000000
123.100010 87.000000
124.106750 5.000000
131.071670 19.000000
131.077190 6.000000
132.044800 9.000000
132.081210 24.000000
133.051910 23.000000
133.061830 7.000000
134.051640 6.000000
134.094730 56.000000
134.102940 10.000000
135.096330 5.000000
136.077470 14.000000
136.105830 8.000000
136.116460 7.000000
138.098650 6.000000
143.070190 20.000000
144.079160 14.000000
145.051300 10.000000
146.086150 9.000000
146.096830 71.000000
146.107680 8.000000
147.068850 34.000000
148.077260 74.000000
148.111480 113.000000
149.088120 6.000000
149.110720 8.000000
150.089810 84.000000
151.094180 6.000000
155.072890 29.000000
155.081300 9.000000
156.063520 7.000000
157.052140 6.000000
157.081500 12.000000
158.040160 5.000000
158.059520 297.000000
159.060210 22.000000
159.069140 32.000000
160.051120 7.000000
160.061680 8.000000
160.075120 138.000000
161.074110 6.000000
161.081740 10.000000
162.076680 9.000000
162.088780 11.000000
168.075810 6.000000
170.059630 12.000000
170.098250 13.000000
171.053280 7.000000
171.071120 6.000000
171.105830 6.000000
172.064850 8.000000
172.073990 27.000000
173.038600 8.000000
173.051030 5.000000
173.083420 755.000000
174.049480 7.000000
174.089690 287.000000
175.091770 18.000000
176.065950 7.000000
176.094530 7.000000
177.031490 6.000000
180.083830 13.000000
181.091020 16.000000
182.061420 8.000000
182.083920 7.000000
182.294360 6.000000
183.066060 14.000000
184.062880 7.000000
184.074140 12.000000
185.054610 6.000000
185.083150 21.000000
185.100100 6.000000
186.090560 189.000000
187.079640 10.000000
187.090210 26.000000
187.096910 21.000000
188.070590 70.000000
188.105910 158.000000
189.067690 7.000000
189.078600 12.000000
189.097120 6.000000
189.107470 18.000000
192.083500 7.000000
193.067280 6.000000
193.091170 63.000000
195.072780 7.000000
195.101730 16.000000
196.071700 8.000000
196.087010 7.000000
197.066220 5.000000
197.077710 29.000000
197.086400 31.000000
197.093220 11.000000
198.088030 57.000000
199.074770 9.000000
199.089720 70.000000
200.068100 32.000000
200.083190 16.000000
200.104870 17.000000
201.105910 13.000000
202.070850 16.000000
202.085330 93.000000
206.085590 6.000000
207.092420 5.000000
208.075850 16.000000
209.082990 65.000000
209.095960 6.000000
210.085240 69.000000
210.096680 23.000000
211.087800 19.000000
211.098590 20.000000
212.093670 44.000000
212.109760 51.000000
213.095870 27.000000
213.105790 29.000000
214.077530 11.000000
214.087250 13.000000
214.124600 7.000000
215.077440 30.000000
215.087070 22.000000
216.098850 20.000000
216.107070 10.000000
217.106690 5.000000
218.080640 7.000000
218.090680 9.000000
219.100160 10.000000
219.109540 9.000000
220.067430 6.000000
220.079410 7.000000
221.079270 16.000000
222.091170 10.000000
223.098570 58.000000
224.089340 22.000000
224.106020 186.000000
224.165910 6.000000
225.057710 6.000000
225.091490 11.000000
225.112870 23.000000
225.123980 8.000000
226.082550 15.000000
226.105070 14.000000
226.123280 28.000000
227.079680 49.000000
227.129230 8.000000
228.081650 21.000000
228.142270 8.000000
229.099440 10.000000
230.080980 6.000000
234.073930 9.000000
234.093460 27.000000
235.099380 54.000000
235.124830 15.000000
236.086010 6.000000
236.106610 54.000000
237.078830 7.000000
237.104930 9.000000
237.114590 17.000000
238.079900 12.000000
238.123150 70.000000
239.098340 6.000000
239.119670 9.000000
239.131010 10.000000
240.128650 12.000000
240.141980 9.000000
242.134460 7.000000
245.127580 7.000000
245.893880 5.000000
246.091340 6.000000
247.096880 23.000000
247.119160 35.000000
248.112170 29.000000
248.128850 17.000000
249.102480 163.000000
249.144590 7.000000
250.092970 17.000000
250.107420 19.000000
250.130160 52.000000
250.147890 53.000000
251.088270 7.000000
251.117720 11.000000
251.131090 22.000000
251.148150 12.000000
252.091750 25.000000
252.107620 24.000000
252.121350 23.000000
252.131230 20.000000
252.153460 10.000000
253.096420 20.000000
254.129750 5.000000
254.142720 13.000000
257.116300 10.000000
260.108860 8.000000
261.105710 12.000000
261.138030 197.000000
262.089140 13.000000
262.108150 7.000000
262.118960 19.000000
262.130650 36.000000
262.144530 19.000000
262.156100 6.000000
263.097350 11.000000
263.116150 55.000000
263.125520 71.000000
263.148530 16.000000
264.111300 39.000000
264.126130 32.000000
264.135160 34.000000
265.099270 7.000000
265.117550 6.000000
265.139100 34.000000
265.157350 7.000000
266.118260 19.000000
266.135250 9.000000
266.145170 15.000000
266.155460 6.000000
266.177460 5.000000
273.142120 7.000000
275.125950 8.000000
276.121370 20.000000
276.136840 36.000000
276.153590 11.000000
277.133820 284.000000
278.139430 280.000000
278.164280 10.000000
279.111390 9.000000
279.134640 33.000000
279.148280 46.000000
279.164310 15.000000
280.127590 6.000000
280.152560 7.000000
281.129060 6.000000
289.133480 8.000000
290.136540 16.000000
291.104370 11.000000
291.129120 9.000000
291.146730 34.000000
291.155820 11.000000
292.142790 16.000000
292.159390 25.000000
293.099180 5.000000
293.123780 8.000000
293.165190 778.000000
293.192630 5.000000
294.127530 12.000000
294.146420 14.000000
294.162840 112.000000
294.173460 68.000000
295.132870 8.000000
295.153080 15.000000
295.172760 35.000000
295.183470 24.000000
305.161320 9.000000
305.179410 11.000000
307.148930 7.000000
308.149050 6.000000
323.151370 7.000000
323.166440 41.000000
323.176120 130.000000

>ms2peaks
53.034220 5.000000
65.037940 11.000000
67.053480 9.000000
74.056210 8.000000
77.033350 21.000000
77.038690 83.000000
78.030170 14.000000
78.042810 10.000000
79.052540 13.000000
80.045860 9.000000
80.050670 19.000000
81.030820 6.000000
81.053540 10.000000
82.058850 6.000000
82.681180 7.000000
89.038680 5.000000
90.047090 26.000000
91.026030 9.000000
91.054760 59.000000
91.061230 19.000000
92.046420 16.000000
93.040500 12.000000
93.057360 258.000000
93.069870 122.000000
93.074460 35.000000
94.050420 11.000000
94.059710 64.000000
94.065300 252.000000
95.041120 7.000000
95.062420 25.000000
95.070990 14.000000
95.076640 9.000000
96.042790 5.000000
100.865890 6.000000
102.042680 6.000000
103.054020 71.000000
104.047320 18.000000
104.053830 20.000000
104.061350 7.000000
105.052700 5.000000
105.066970 33.000000
105.076170 7.000000
106.047810 14.000000
106.063580 73.000000
106.072560 20.000000
107.072730 63.000000
108.069550 8.000000
108.076100 13.000000
108.081610 15.000000
110.089420 5.000000
113.165210 5.000000
115.055290 17.000000
116.060980 21.000000
117.056180 122.000000
118.041990 8.000000
118.053730 18.000000
118.063440 35.000000
118.069470 14.000000
119.074260 16.000000
120.080010 72.000000
120.086350 28.000000
120.093590 8.000000
121.051450 12.000000
121.081920 9.000000
121.087590 29.000000
122.096440 70.000000
122.103680 14.000000
123.099000 13.000000
127.048610 20.000000
128.051480 9.000000
128.057360 8.000000
128.064850 11.000000
129.056500 12.000000
129.065840 10.000000
129.073790 9.000000
130.044750 21.000000
130.055100 45.000000
130.065060 400.000000
131.046650 9.000000
131.070590 112.000000
131.084230 15.000000
132.040510 41.000000
132.048020 51.000000
132.061690 8.000000
133.046780 20.000000
133.082120 14.000000
134.063200 7.000000
134.082230 8.000000
134.090470 6.000000
134.098620 5.000000
135.064960 9.000000
135.313510 6.000000
138.093600 8.000000
141.038670 8.000000
141.050160 12.000000
141.056340 24.000000
142.044480 5.000000
142.063920 33.000000
143.057880 15.000000
143.069440 54.000000
143.075780 60.000000
144.051450 7.000000
144.059560 22.000000
144.066830 31.000000
144.080290 36.000000
145.040020 27.000000
145.054280 87.000000
145.082140 34.000000
145.091290 28.000000
146.058230 22.000000
146.083440 8.000000
146.093930 19.000000
146.102830 15.000000
147.067110 24.000000
147.239380 5.000000
148.070130 15.000000
148.080320 6.000000
148.109860 25.000000
151.060350 7.000000
151.087950 6.000000
152.052780 6.000000
152.059140 9.000000
153.063140 7.000000
153.072050 23.000000
154.047580 7.000000
154.061520 68.000000
154.074070 9.000000
155.054640 14.000000
155.074620 68.000000
155.086980 12.000000
155.752380 8.000000
156.071520 37.000000
156.080730 28.000000
157.047880 7.000000
157.083660 6.000000
158.034180 16.000000
158.059660 1000.000000
159.060610 86.000000
159.069400 70.000000
160.075180 109.000000
160.641250 8.000000
164.169570 6.000000
165.062000 11.000000
166.062840 18.000000
166.068970 12.000000
166.078380 11.000000
167.071320 65.000000
167.084340 19.000000
168.070880 15.000000
168.077960 52.000000
168.093320 8.000000
169.046200 5.000000
169.061070 11.000000
169.075700 9.000000
169.086180 37.000000
169.977570 10.000000
170.037220 10.000000
170.053390 11.000000
170.065480 45.000000
170.094240 8.000000
171.054580 19.000000
171.069430 47.000000
172.070620 49.000000
172.079590 24.000000
173.081560 69.000000
173.090040 36.000000
174.067860 5.000000
174.083310 28.000000
174.092160 17.000000
178.078740 12.000000
179.062100 7.000000
179.073990 9.000000
180.081890 121.000000
180.092040 20.000000
181.047240 13.000000
181.084380 58.000000
182.057300 67.000000
182.089630 9.000000
182.103470 5.000000
183.049870 21.000000
183.063170 9.000000
183.090070 9.000000
183.098830 9.000000
184.064740 33.000000
184.079410 27.000000
184.102620 5.000000
185.072530 10.000000
186.055190 7.000000
186.082240 10.000000
186.090360 12.000000
187.079060 5.000000
187.090850 9.000000
188.071350 15.000000
188.807590 6.000000
189.739560 8.000000
191.068040 17.000000
191.075790 15.000000
191.086880 20.000000
192.033160 5.000000
192.063340 18.000000
192.081280 64.000000
192.448180 6.000000
193.061630 14.000000
193.076810 23.000000
193.088810 54.000000
193.100220 7.000000
194.090360 42.000000
194.103620 11.000000
195.067050 24.000000
195.075810 11.000000
195.094470 39.000000
195.108570 24.000000
196.076020 40.000000
196.103010 7.000000
197.082790 30.000000
198.080140 30.000000
198.094790 37.000000
199.080670 12.000000
200.154660 5.000000
201.063370 5.000000
204.064390 5.000000
204.078980 61.000000
204.893360 7.000000
205.077350 41.000000
206.055630 10.000000
206.070560 6.000000
206.085890 38.000000
206.098420 40.000000
207.093170 23.000000
207.110760 7.000000
208.050830 12.000000
208.073040 37.000000
208.082430 21.000000
208.095720 10.000000
208.117870 11.000000
209.074190 27.000000
209.090710 24.000000
209.103740 10.000000
209.114930 7.000000
210.064440 8.000000
210.081760 25.000000
210.090940 35.000000
210.101490 19.000000
211.098860 14.000000
211.117190 6.000000
212.100450 10.000000
212.117260 8.000000
213.105910 5.000000
214.077560 22.000000
216.079860 7.000000
217.088070 56.000000
218.068620 11.000000
218.078920 10.000000
218.095780 64.000000
218.488300 7.000000
219.067460 14.000000
219.093410 44.000000
220.077150 22.000000
220.095230 35.000000
220.112550 18.000000
220.167180 7.000000
220.863950 7.000000
221.083950 23.000000
221.110120 18.000000
222.075100 10.000000
222.091430 22.000000
222.126100 7.000000
222.511110 7.000000
223.060780 5.000000
223.080140 12.000000
223.096740 24.000000
223.108870 18.000000
224.103420 21.000000
224.128650 7.000000
225.104030 9.000000
227.077210 6.000000
228.088520 5.000000
230.065340 6.000000
231.066620 8.000000
231.094970 23.000000
231.107800 22.000000
232.017560 10.000000
232.073700 10.000000
232.092760 9.000000
232.102290 29.000000
232.118850 14.000000
232.126890 10.000000
233.103940 11.000000
233.122500 13.000000
234.064270 5.000000
234.086070 32.000000
234.116550 55.000000
234.131330 12.000000
235.085830 46.000000
235.102580 10.000000
235.118450 60.000000
236.091490 21.000000
236.103590 17.000000
236.114550 5.000000
236.131590 6.000000
236.142930 6.000000
237.103780 10.000000
239.127210 5.000000
242.094970 6.000000
243.103360 7.000000
245.107510 37.000000
245.128080 6.000000
246.081390 23.000000
246.114350 7.000000
246.133910 5.000000
247.076810 25.000000
247.085950 19.000000
247.102540 21.000000
248.060710 5.000000
248.093770 38.000000
248.107270 42.000000
248.120320 27.000000
249.089810 14.000000
249.106320 86.000000
249.127090 13.000000
249.143200 16.000000
249.157590 5.000000
250.099180 9.000000
251.122420 22.000000
258.073180 5.000000
260.103850 14.000000
260.131010 15.000000
261.082980 6.000000
261.129270 36.000000
262.089140 11.000000
262.097840 35.000000
262.109220 33.000000
262.123540 24.000000
262.135410 6.000000
263.117340 64.000000
264.124660 15.000000
271.264590 6.000000
275.115570 25.000000
276.108830 7.000000
277.106050 6.000000
277.129850 33.000000
278.109100 8.000000
278.157870 5.000000
281.144930 7.000000
282.782440 9.000000
285.229310 7.000000
308.138950 7.000000

>ms2peaks
93.058570 7.000000
94.058510 7.000000
94.064740 22.000000
120.080860 65.000000
121.085370 16.000000
122.096310 148.000000
123.100010 16.000000
134.097320 9.000000
146.097060 6.000000
148.076610 9.000000
148.109630 13.000000
150.090710 13.000000
158.059780 46.000000
159.062620 7.000000
160.076480 20.000000
173.082950 70.000000
174.089310 32.000000
186.092610 14.000000
187.097660 5.000000
188.069470 6.000000
188.106540 18.000000
193.093380 5.000000
202.086530 30.000000
203.086410 6.000000
210.093440 13.000000
212.092530 6.000000
212.105160 10.000000
223.097530 5.000000
224.104640 27.000000
226.121870 7.000000
227.079120 9.000000
234.087100 6.000000
236.111220 6.000000
238.125080 6.000000
248.103700 6.000000
249.102360 12.000000
249.116500 5.000000
250.112950 5.000000
252.099000 11.000000
252.108320 8.000000
261.138700 18.000000
263.119540 19.000000
264.129700 9.000000
277.132540 19.000000
278.132230 11.000000
278.148220 11.000000
279.148800 6.000000
293.164700 265.000000
294.166110 65.000000
294.180570 13.000000
295.171660 11.000000
295.182860 8.000000
305.169040 6.000000
323.122040 5.000000
323.175600 1000.000000
323.228000 31.000000

>ms2peaks
122.096860 9.000000
293.164370 43.000000
294.167940 8.000000
323.175540 1000.000000
323.227230 33.000000

>ms2peaks
67.052900 10.000000
77.038550 17.000000
80.056110 8.000000
82.065930 11.000000
82.071560 6.000000
91.055670 48.000000
92.043900 5.000000
92.055820 7.000000
93.046910 6.000000
93.056110 44.000000
93.062740 81.000000
93.069350 131.000000
94.050800 9.000000
94.064830 409.000000
95.050760 15.000000
95.061100 11.000000
95.069600 23.000000
95.087360 5.000000
96.047450 7.000000
96.084010 8.000000
105.068640 15.000000
105.074400 6.000000
106.068700 19.000000
107.072050 48.000000
107.086540 5.000000
108.065440 5.000000
108.074070 17.000000
108.080340 70.000000
109.085590 11.000000
110.061310 6.000000
110.095500 22.000000
117.055800 27.000000
117.065640 5.000000
117.073750 6.000000
118.064700 7.000000
119.074940 7.000000
120.080540 575.000000
121.086360 80.000000
122.073340 10.000000
122.082670 23.000000
122.096210 1000.000000
123.071530 6.000000
123.083080 10.000000
123.099870 104.000000
130.067630 9.000000
131.069500 13.000000
131.079330 18.000000
131.088960 5.000000
132.044830 8.000000
132.053760 10.000000
132.075880 11.000000
132.088040 7.000000
133.049420 6.000000
133.061130 7.000000
133.092620 8.000000
134.077680 5.000000
134.092320 31.000000
134.099150 33.000000
136.069730 14.000000
136.105260 18.000000
138.091810 20.000000
142.064000 7.000000
143.070250 16.000000
144.056460 6.000000
144.083450 19.000000
145.070300 11.000000
145.090650 24.000000
146.063200 9.000000
146.093770 79.000000
146.100270 52.000000
147.067540 46.000000
147.079790 10.000000
147.103780 12.000000
148.076390 90.000000
148.111740 89.000000
148.118120 26.000000
149.071400 13.000000
149.114910 13.000000
150.091090 90.000000
154.065610 7.000000
154.079450 7.000000
155.072720 29.000000
156.068740 6.000000
156.077640 8.000000
157.090990 7.000000
158.058780 246.000000
158.097240 6.000000
159.032960 6.000000
159.064790 54.000000
159.074660 15.000000
160.075760 123.000000
161.073150 9.000000
161.086200 23.000000
162.078080 10.000000
162.089580 20.000000
167.424930 7.000000
168.086180 6.000000
170.067090 6.000000
170.089280 10.000000
171.064010 14.000000
171.075410 11.000000
171.103960 8.000000
172.064500 6.000000
172.076370 29.000000
172.908540 7.000000
173.056790 10.000000
173.083770 686.000000
174.071930 9.000000
174.089890 315.000000
175.096510 24.000000
176.072750 9.000000
176.100170 9.000000
176.109270 14.000000
181.089710 19.000000
183.061520 7.000000
183.070180 10.000000
184.073100 18.000000
185.081310 22.000000
186.052200 6.000000
186.080250 29.000000
186.093030 119.000000
187.071180 6.000000
187.100740 43.000000
188.052930 7.000000
188.071590 70.000000
188.105380 110.000000
189.106890 6.000000
189.116180 18.000000
190.092790 8.000000
193.089220 65.000000
194.094240 9.000000
194.103120 8.000000
195.112590 5.000000
197.064150 18.000000
197.077760 24.000000
197.087140 41.000000
198.080310 15.000000
198.086560 37.000000
198.101060 17.000000
199.072710 6.000000
199.084670 40.000000
199.099000 13.000000
200.062100 17.000000
200.073100 36.000000
200.108670 25.000000
201.073440 10.000000
201.093350 8.000000
202.086010 54.000000
203.087370 16.000000
204.093480 7.000000
207.099000 11.000000
207.108320 9.000000
209.078570 30.000000
209.088940 30.000000
209.117070 5.000000
210.064360 7.000000
210.091670 139.000000
211.082580 6.000000
211.098180 45.000000
212.104110 97.000000
213.062440 6.000000
213.076280 12.000000
213.099210 12.000000
213.105090 7.000000
214.078460 10.000000
214.090120 19.000000
214.102420 6.000000
215.082470 42.000000
215.091660 12.000000
218.093570 5.000000
219.061000 5.000000
219.101060 11.000000
220.096650 6.000000
220.121140 6.000000
221.076580 14.000000
222.093600 11.000000
223.095140 29.000000
223.106720 17.000000
224.108960 200.000000
225.110170 51.000000
226.071290 6.000000
226.095630 8.000000
226.117970 36.000000
226.133620 11.000000
227.076710 28.000000
227.090120 11.000000
227.124150 8.000000
228.087420 17.000000
228.098040 11.000000
229.091750 7.000000
232.059920 7.000000
232.079160 8.000000
233.083530 5.000000
233.117570 6.000000
234.078990 8.000000
234.094090 30.000000
234.108090 11.000000
235.089490 13.000000
235.097210 19.000000
235.125640 16.000000
236.089100 6.000000
236.108690 63.000000
236.126270 7.000000
237.097670 14.000000
237.119050 20.000000
238.104930 20.000000
238.124010 96.000000
239.098310 6.000000
239.114700 14.000000
239.132280 6.000000
240.097690 8.000000
240.120000 9.000000
240.141250 18.000000
241.143190 9.000000
243.099370 6.000000
247.098740 35.000000
247.122330 59.000000
247.136460 25.000000
248.088360 10.000000
248.098430 21.000000
248.122450 12.000000
248.135970 9.000000
249.072830 8.000000
249.102280 114.000000
249.116060 62.000000
249.141940 28.000000
250.084870 16.000000
250.111390 55.000000
250.129790 38.000000
250.148250 35.000000
251.086690 11.000000
251.115100 33.000000
251.131130 15.000000
251.144180 10.000000
252.088520 10.000000
252.100890 29.000000
252.130340 30.000000
252.144870 31.000000
253.111110 23.000000
253.126740 19.000000
253.146760 15.000000
253.154010 5.000000
254.111510 8.000000
258.092070 8.000000
260.115420 12.000000
261.100310 23.000000
261.137450 159.000000
261.149440 46.000000
262.095210 12.000000
262.108640 23.000000
262.127470 22.000000
262.148130 74.000000
263.097720 24.000000
263.120060 113.000000
263.137360 15.000000
264.101720 11.000000
264.129120 75.000000
264.142090 27.000000
265.096860 10.000000
265.123200 9.000000
265.137760 30.000000
266.106630 7.000000
266.117310 13.000000
266.137850 30.000000
266.153500 15.000000
267.112060 9.000000
267.151030 8.000000
268.147610 9.000000
273.136350 6.000000
274.122920 6.000000
274.143220 8.000000
275.115540 12.000000
275.128140 10.000000
276.113590 10.000000
276.133670 51.000000
277.110870 15.000000
277.133910 232.000000
278.113620 10.000000
278.141080 336.000000
279.149200 93.000000
279.326810 6.000000
280.116390 11.000000
280.146850 12.000000
280.164280 6.000000
281.141140 9.000000
288.129580 7.000000
288.144710 7.000000
289.121430 6.000000
290.123440 8.000000
290.136930 14.000000
290.150050 10.000000
291.138640 26.000000
291.155460 21.000000
292.145940 10.000000
292.160250 10.000000
292.172060 10.000000
293.132420 19.000000
293.164950 673.000000
294.143920 17.000000
294.167880 145.000000
295.143100 5.000000
295.158600 9.000000
295.176270 31.000000
305.161900 19.000000
305.173250 8.000000
306.160580 6.000000
307.156010 5.000000
308.152310 25.000000
321.170840 5.000000
322.175720 6.000000
323.154970 12.000000
323.177490 109.000000

>ms2peaks
66.043750 7.000000
67.053410 21.000000
69.035900 9.000000
70.062100 6.000000
77.039090 102.000000
78.034290 24.000000
78.044360 9.000000
79.046800 9.000000
79.053330 24.000000
80.047620 28.000000
82.066220 19.000000
90.044620 5.000000
91.047290 37.000000
91.055590 99.000000
92.053670 28.000000
93.057310 229.000000
93.068850 123.000000
94.059520 55.000000
94.065090 164.000000
95.070520 10.000000
102.053310 5.000000
103.042540 8.000000
103.053410 35.000000
103.058240 28.000000
104.046790 6.000000
104.060900 5.000000
105.065930 11.000000
106.061060 27.000000
106.067250 39.000000
107.072430 90.000000
108.074620 24.000000
108.081030 34.000000
109.087740 5.000000
115.053220 45.000000
115.060040 10.000000
115.913080 8.000000
116.044680 8.000000
116.059610 24.000000
117.053300 43.000000
117.059940 74.000000
117.066820 34.000000
118.036090 5.000000
118.062860 63.000000
119.074090 10.000000
120.078640 52.000000
120.085350 25.000000
120.327750 5.000000
121.079090 8.000000
121.089480 27.000000
122.083740 14.000000
122.097170 122.000000
127.051280 8.000000
127.055790 14.000000
128.044510 9.000000
128.063890 13.000000
129.043410 6.000000
129.052700 17.000000
130.038860 7.000000
130.064160 354.000000
131.053470 13.000000
131.072620 69.000000
132.041090 29.000000
132.048650 8.000000
132.063920 6.000000
132.077770 29.000000
133.051420 6.000000
134.065890 5.000000
134.100400 7.000000
136.078890 8.000000
136.447540 7.000000
139.051470 6.000000
141.057980 6.000000
141.915560 5.000000
142.063740 18.000000
142.071470 32.000000
143.072480 114.000000
144.045150 5.000000
144.055400 21.000000
144.082550 57.000000
145.035200 6.000000
145.050490 68.000000
145.091350 73.000000
146.056120 9.000000
146.061970 9.000000
146.083050 8.000000
146.093570 19.000000
147.063580 11.000000
147.070950 45.000000
147.086300 9.000000
148.071320 15.000000
148.109410 15.000000
152.069890 9.000000
153.069730 16.000000
154.044330 11.000000
154.066280 57.000000
154.078400 14.000000
154.145000 7.000000
155.071530 58.000000
156.070360 12.000000
156.079210 21.000000
157.072940 14.000000
157.090710 21.000000
158.028210 6.000000
158.043120 14.000000
158.059970 1000.000000
158.094510 13.000000
158.503750 6.000000
159.045730 9.000000
159.064650 193.000000
160.066020 20.000000
160.076160 92.000000
161.563480 6.000000
162.094700 6.000000
165.070710 14.000000
165.084290 8.000000
166.067340 8.000000
167.048690 8.000000
167.067660 56.000000
167.077300 59.000000
167.095290 7.000000
167.152680 6.000000
168.062730 14.000000
168.073290 22.000000
168.082810 43.000000
168.628750 5.000000
169.053340 12.000000
169.066830 7.000000
169.076900 19.000000
169.094990 12.000000
170.058120 57.000000
170.081950 17.000000
170.093410 5.000000
171.062030 33.000000
171.074540 11.000000
171.232890 6.000000
172.068770 52.000000
172.078410 31.000000
172.085770 16.000000
173.082570 152.000000
174.081160 20.000000
174.091220 26.000000
175.088100 7.000000
176.071440 6.000000
178.058880 6.000000
178.070070 10.000000
178.085340 10.000000
179.060610 6.000000
179.075320 6.000000
180.081600 137.000000
181.068770 5.000000
181.087920 55.000000
182.059600 32.000000
182.067810 22.000000
182.083920 8.000000
182.096480 12.000000
183.069850 15.000000
183.096250 8.000000
184.045330 7.000000
184.064510 62.000000
185.037690 8.000000
185.059050 7.000000
185.066440 9.000000
185.075840 8.000000
185.084340 9.000000
186.055110 8.000000
186.075260 13.000000
186.085070 16.000000
186.093900 19.000000
187.078410 9.000000
188.073070 15.000000
188.116000 10.000000
189.071180 9.000000
191.069670 41.000000
192.074810 19.000000
192.084640 22.000000
193.077180 37.000000
193.084610 47.000000
193.099110 18.000000
194.053830 10.000000
194.082310 7.000000
194.095430 50.000000
195.064930 14.000000
195.091460 29.000000
195.109390 6.000000
195.121660 8.000000
196.062360 21.000000
196.070510 28.000000
196.079410 26.000000
196.102330 8.000000
197.057830 5.000000
197.075010 24.000000
197.085070 37.000000
199.062150 8.000000
199.087220 21.000000
200.075390 20.000000
204.077880 46.000000
205.070760 10.000000
205.082200 12.000000
205.094410 19.000000
206.078520 14.000000
206.093020 43.000000
207.090910 24.000000
207.108610 15.000000
208.048650 14.000000
208.075040 51.000000
208.093220 10.000000
208.105070 19.000000
209.073230 24.000000
209.082520 14.000000
209.101730 7.000000
210.070430 6.000000
210.093220 62.000000
210.124730 7.000000
211.093260 12.000000
211.099490 7.000000
212.093090 12.000000
213.073330 10.000000
215.083630 9.000000
216.084430 10.000000
217.081710 10.000000
217.092790 26.000000
218.080230 14.000000
218.091030 14.000000
218.102830 13.000000
219.068300 10.000000
219.089890 20.000000
219.098970 45.000000
219.107960 19.000000
220.055710 8.000000
220.067230 8.000000
220.082080 30.000000
220.101440 86.000000
220.117310 26.000000
221.071300 12.000000
221.114810 14.000000
222.086460 34.000000
222.100720 14.000000
223.084500 15.000000
223.102020 21.000000
223.126680 12.000000
224.103940 10.000000
224.113780 5.000000
225.102510 14.000000
228.077840 9.000000
230.096540 11.000000
230.108520 7.000000
231.092710 12.000000
231.105160 16.000000
232.070820 21.000000
232.095610 29.000000
232.114400 12.000000
233.068440 8.000000
233.086120 13.000000
233.098420 23.000000
233.108430 38.000000
234.068740 13.000000
234.083390 39.000000
234.100490 39.000000
234.129040 9.000000
235.032670 8.000000
235.097580 16.000000
235.111920 15.000000
235.121220 16.000000
235.133000 14.000000
236.099330 15.000000
236.114200 7.000000
236.130200 6.000000
237.110240 29.000000
238.112180 10.000000
238.123400 6.000000
245.085020 5.000000
245.103350 13.000000
245.120350 7.000000
246.084660 13.000000
246.127790 7.000000
247.091170 24.000000
247.117050 36.000000
248.077610 7.000000
248.089630 17.000000
248.106490 18.000000
249.086260 11.000000
249.099380 31.000000
249.111970 20.000000
249.131820 13.000000
250.113310 18.000000
259.097870 11.000000
260.091160 8.000000
260.122590 7.000000
260.138370 6.000000
261.097720 15.000000
261.117430 9.000000
261.145200 26.000000
262.108150 44.000000
262.122190 14.000000
262.133420 6.000000
263.110900 13.000000
263.125850 27.000000
264.100770 7.000000
265.133730 6.000000
274.148830 6.000000
276.123540 16.000000
277.129580 51.000000
277.150730 11.000000
278.141570 39.000000
278.968720 6.000000
279.134670 19.000000
314.788150 6.000000

>ms2peaks
93.058650 6.000000
93.070830 11.000000
94.065320 33.000000
108.079180 8.000000
120.080250 85.000000
121.083900 16.000000
122.095330 156.000000
123.097900 16.000000
134.096180 10.000000
147.068330 6.000000
148.071720 7.000000
148.112490 17.000000
150.090160 13.000000
158.060150 35.000000
159.062710 11.000000
160.076660 22.000000
173.082820 58.000000
174.088680 31.000000
186.089860 17.000000
187.094240 5.000000
188.072070 7.000000
188.105620 18.000000
202.083680 32.000000
203.085250 6.000000
209.080760 6.000000
210.090990 8.000000
212.104390 15.000000
224.104000 18.000000
224.113920 12.000000
225.108980 5.000000
226.118530 9.000000
227.079640 8.000000
234.093830 5.000000
238.120470 13.000000
248.099040 6.000000
249.101140 14.000000
250.115680 9.000000
252.100860 15.000000
261.143100 7.000000
263.117490 7.000000
277.133760 23.000000
278.133210 12.000000
278.145840 13.000000
278.155210 7.000000
293.119930 6.000000
293.162930 277.000000
294.167180 70.000000
295.176240 16.000000
305.168210 9.000000
323.121340 13.000000
323.174440 1000.000000
323.226530 25.000000

>ms2peaks
122.096710 6.000000
293.163640 37.000000
294.168240 8.000000
323.175600 1000.000000
323.227810 33.000000

>ms2peaks
77.036520 11.000000
77.041600 11.000000
80.051080 22.000000
81.068230 6.000000
81.073660 5.000000
82.067160 11.000000
91.053050 32.000000
91.062840 8.000000
91.090900 6.000000
92.045120 11.000000
93.054630 49.000000
93.060130 43.000000
93.069220 143.000000
94.065590 403.000000
95.046420 7.000000
95.052060 8.000000
95.066570 17.000000
95.071360 9.000000
95.087130 9.000000
105.069040 7.000000
106.063430 27.000000
107.072140 38.000000
107.079410 14.000000
108.078310 57.000000
109.085680 5.000000
110.062900 8.000000
110.097360 28.000000
117.056780 30.000000
117.067340 6.000000
118.065160 19.000000
120.080060 585.000000
121.074400 8.000000
121.087810 90.000000
122.073750 6.000000
122.096020 1000.000000
123.077230 6.000000
123.087390 11.000000
123.100740 56.000000
124.100840 7.000000
131.064610 5.000000
131.071270 15.000000
131.086470 8.000000
132.042470 7.000000
132.081390 5.000000
132.088960 10.000000
134.094270 67.000000
134.100430 20.000000
135.098270 12.000000
136.073060 19.000000
136.106510 13.000000
136.120040 7.000000
138.089430 19.000000
138.097240 6.000000
140.099470 5.000000
142.062120 7.000000
143.070590 15.000000
144.015470 8.000000
144.056400 7.000000
144.072480 6.000000
144.081650 19.000000
145.079500 12.000000
146.084080 16.000000
146.097240 91.000000
147.051420 7.000000
147.067670 27.000000
147.082530 6.000000
147.100430 7.000000
148.071870 64.000000
148.080810 31.000000
148.103780 8.000000
148.114610 75.000000
149.078020 9.000000
149.116120 15.000000
150.091920 88.000000
150.121120 8.000000
151.089070 6.000000
154.066850 7.000000
155.056090 7.000000
155.071720 17.000000
156.082930 8.000000
157.077670 10.000000
157.084760 12.000000
158.039340 6.000000
158.059660 330.000000
158.098560 7.000000
159.063750 54.000000
159.077820 16.000000
160.074860 125.000000
160.081160 43.000000
161.074200 11.000000
161.084030 28.000000
167.071210 12.000000
169.091220 5.000000
170.094220 9.000000
171.062760 6.000000
171.071270 7.000000
172.074190 47.000000
173.016190 5.000000
173.035260 7.000000
173.050550 6.000000
173.061610 9.000000
173.083970 704.000000
174.045270 11.000000
174.074400 32.000000
174.089430 298.000000
175.076280 6.000000
175.091870 28.000000
176.095760 7.000000
176.109700 19.000000
181.087650 7.000000
181.095760 7.000000
182.059720 8.000000
182.099410 9.000000
183.064990 7.000000
183.073720 6.000000
184.061870 9.000000
184.078630 16.000000
185.069290 8.000000
185.083940 27.000000
186.054600 6.000000
186.091860 161.000000
187.073380 7.000000
187.083740 8.000000
187.103880 18.000000
188.069810 61.000000
188.091460 16.000000
188.105530 117.000000
188.116650 16.000000
189.068860 10.000000
189.076710 8.000000
189.113460 9.000000
192.080930 5.000000
193.083210 10.000000
193.093600 28.000000
193.101070 8.000000
194.085300 9.000000
195.066270 19.000000
195.074870 6.000000
195.105450 6.000000
196.114400 6.000000
197.079380 45.000000
198.054340 7.000000
198.085110 37.000000
198.095410 24.000000
198.105420 7.000000
199.070480 7.000000
199.088240 41.000000
199.098570 20.000000
200.067630 40.000000
200.084410 17.000000
200.111540 8.000000
201.101970 7.000000
201.112150 6.000000
202.074400 17.000000
202.089160 43.000000
203.093630 21.000000
206.099530 5.000000
208.064670 7.000000
208.074280 15.000000
208.083540 7.000000
209.084490 53.000000
210.075160 6.000000
210.090180 96.000000
211.088680 16.000000
211.099950 33.000000
212.072560 7.000000
212.094040 31.000000
212.105240 63.000000
212.118470 10.000000
213.068480 7.000000
213.100050 9.000000
213.108890 11.000000
214.084520 9.000000
215.078640 39.000000
216.106510 22.000000
218.095230 7.000000
222.086070 9.000000
223.093690 26.000000
223.114000 16.000000
224.106840 189.000000
225.108760 85.000000
226.108930 8.000000
226.121090 49.000000
227.079700 65.000000
228.084530 21.000000
228.094220 8.000000
228.138920 7.000000
229.098400 8.000000
232.089660 11.000000
233.076870 6.000000
233.111160 8.000000
233.118910 14.000000
234.090960 19.000000
234.104110 13.000000
234.133970 8.000000
235.095840 26.000000
235.112400 17.000000
235.128770 13.000000
236.097960 33.000000
236.109450 26.000000
237.086140 8.000000
237.103040 18.000000
237.115010 17.000000
237.124760 11.000000
238.087720 15.000000
238.107540 26.000000
238.116820 45.000000
238.126080 55.000000
239.117030 9.000000
239.139220 12.000000
239.147420 7.000000
240.131820 20.000000
240.145580 6.000000
241.092270 8.000000
241.130130 12.000000
241.139910 14.000000
245.104350 11.000000
245.120420 13.000000
247.085970 8.000000
247.102890 15.000000
247.112500 16.000000
247.124110 22.000000
248.077060 7.000000
248.103390 22.000000
248.129410 8.000000
249.075990 8.000000
249.101170 100.000000
249.116940 61.000000
249.150420 9.000000
250.075850 6.000000
250.090240 14.000000
250.110980 46.000000
250.126950 64.000000
250.141490 29.000000
250.150620 17.000000
251.114930 17.000000
251.123720 35.000000
251.137310 10.000000
251.158840 12.000000
252.098240 19.000000
252.108960 6.000000
252.132000 22.000000
252.143020 19.000000
253.104200 13.000000
253.129240 10.000000
253.142550 19.000000
254.139620 12.000000
258.081970 6.000000
258.094210 7.000000
261.103420 21.000000
261.139370 156.000000
262.097260 6.000000
262.111970 23.000000
262.126770 43.000000
262.146450 46.000000
263.090450 6.000000
263.119320 128.000000
264.124110 112.000000
264.161870 6.000000
265.129460 36.000000
265.148800 7.000000
266.114810 7.000000
266.150760 19.000000
267.117770 7.000000
268.130280 13.000000
270.128750 6.000000
273.103940 10.000000
273.119110 7.000000
274.121550 7.000000
275.137820 7.000000
276.125890 27.000000
276.139190 36.000000
277.091340 6.000000
277.134250 162.000000
277.145480 36.000000
278.141910 312.000000
278.151790 119.000000
279.108860 14.000000
279.122340 9.000000
279.143310 45.000000
279.158690 38.000000
280.109620 6.000000
280.130400 6.000000
280.148770 13.000000
281.131740 7.000000
288.135500 9.000000
289.138890 16.000000
290.143710 12.000000
291.148620 53.000000
292.117490 6.000000
292.141630 10.000000
292.153200 7.000000
293.114230 12.000000
293.125850 14.000000
293.164400 690.000000
294.130280 10.000000
294.157290 61.000000
294.167510 115.000000
295.147740 12.000000
295.171360 21.000000
296.184600 7.000000
305.161620 16.000000
305.173250 18.000000
306.145390 9.000000
306.155210 6.000000
306.172490 6.000000
308.160060 19.000000
323.168910 41.000000
323.182010 53.000000

>ms2peaks
65.035330 6.000000
66.037970 5.000000
67.054990 12.000000
69.036350 7.000000
77.032300 23.000000
77.039020 88.000000
78.039020 12.000000
79.053280 20.000000
79.058220 8.000000
80.045940 24.000000
82.059810 8.000000
90.045820 9.000000
91.050800 45.000000
91.054840 115.000000
92.048580 26.000000
92.058910 11.000000
93.056820 201.000000
93.070330 94.000000
94.025620 7.000000
94.059580 79.000000
94.064730 265.000000
95.054060 10.000000
95.085550 17.000000
102.052750 6.000000
103.052510 44.000000
104.035910 7.000000
104.050930 15.000000
104.055700 17.000000
105.054770 5.000000
105.059470 10.000000
105.067480 23.000000
105.075970 8.000000
106.045490 8.000000
106.064310 72.000000
107.066500 45.000000
107.072990 50.000000
108.073620 7.000000
108.082980 38.000000
109.251340 6.000000
110.099550 6.000000
110.964200 6.000000
115.053380 37.000000
116.002660 6.000000
116.049910 14.000000
116.063510 8.000000
117.055240 83.000000
117.061320 68.000000
118.040270 5.000000
118.051980 17.000000
118.064250 64.000000
118.116580 6.000000
118.592350 7.000000
119.068940 15.000000
120.063900 12.000000
120.080600 96.000000
121.081190 10.000000
121.088320 22.000000
122.095120 119.000000
122.105270 10.000000
123.095190 9.000000
123.118780 7.000000
124.058110 5.000000
125.411650 6.000000
127.050820 7.000000
127.057530 5.000000
128.048720 22.000000
129.046230 11.000000
129.059110 16.000000
129.068740 13.000000
130.028960 9.000000
130.048430 16.000000
130.063740 422.000000
130.205780 7.000000
130.414400 11.000000
131.053920 19.000000
131.071730 86.000000
131.085100 7.000000
132.042950 55.000000
132.063950 10.000000
132.071730 20.000000
132.079500 14.000000
133.031490 7.000000
133.053830 16.000000
134.096650 25.000000
136.115650 7.000000
136.126920 5.000000
139.056370 12.000000
140.049420 5.000000
141.057720 9.000000
141.069180 5.000000
142.065520 36.000000
143.050060 10.000000
143.073170 118.000000
144.056870 34.000000
144.076420 35.000000
145.053940 106.000000
145.082290 27.000000
145.089290 27.000000
145.097290 8.000000
146.058460 38.000000
146.101270 9.000000
147.066670 35.000000
148.047730 9.000000
148.066860 17.000000
148.074870 10.000000
148.112200 19.000000
150.084170 5.000000
150.094730 9.000000
152.057890 5.000000
152.065340 13.000000
153.056640 8.000000
153.067980 7.000000
153.078960 10.000000
154.063640 129.000000
155.065990 20.000000
155.075100 63.000000
155.983350 7.000000
156.064420 16.000000
156.073100 10.000000
156.080810 8.000000
156.091200 6.000000
157.016680 6.000000
157.047240 21.000000
157.059050 11.000000
157.085330 10.000000
157.986110 7.000000
158.041440 14.000000
158.058640 1000.000000
158.092900 13.000000
159.037460 10.000000
159.050990 24.000000
159.062520 176.000000
159.084270 8.000000
160.027440 7.000000
160.075500 85.000000
161.074370 8.000000
161.082170 6.000000
164.757220 7.000000
165.068360 26.000000
166.062770 22.000000
167.067370 29.000000
167.074740 71.000000
167.091190 7.000000
168.056700 12.000000
168.065200 13.000000
168.081480 50.000000
169.070210 23.000000
169.085080 28.000000
170.029220 6.000000
170.054520 61.000000
170.065810 15.000000
170.088710 14.000000
170.100070 9.000000
171.063340 20.000000
171.072980 12.000000
172.071230 57.000000
172.082170 14.000000
173.067430 17.000000
173.081790 178.000000
174.082080 5.000000
174.089830 24.000000
179.073320 15.000000
180.065020 8.000000
180.082400 159.000000
181.089550 33.000000
181.106520 5.000000
182.059600 62.000000
182.069610 17.000000
182.091050 27.000000
182.100600 9.000000
183.068280 13.000000
183.075270 7.000000
184.065290 35.000000
184.085800 5.000000
184.733410 5.000000
185.063350 20.000000
186.040440 5.000000
186.060580 13.000000
186.073360 5.000000
186.090900 28.000000
188.070800 5.000000
189.027100 5.000000
189.089040 5.000000
190.075940 6.000000
191.069760 37.000000
191.078230 13.000000
191.086530 6.000000
192.069350 11.000000
192.080580 40.000000
192.089110 11.000000
193.054340 6.000000
193.075390 16.000000
193.083790 31.000000
193.089920 63.000000
194.061610 8.000000
194.075740 8.000000
194.092290 82.000000
194.254210 6.000000
195.053270 12.000000
195.068800 44.000000
195.081420 9.000000
195.094330 10.000000
195.107150 7.000000
196.074450 59.000000
196.100850 5.000000
197.062880 15.000000
197.076830 8.000000
197.087810 9.000000
198.067090 6.000000
198.077900 33.000000
198.088560 17.000000
199.086560 41.000000
199.107150 5.000000
199.386840 5.000000
200.060990 13.000000
203.070690 20.000000
204.070020 19.000000
204.080990 58.000000
204.093960 15.000000
204.099910 6.000000
205.066120 14.000000
205.077290 20.000000
205.089130 54.000000
206.042100 6.000000
206.063020 6.000000
206.085770 23.000000
206.095790 67.000000
207.061460 10.000000
207.090560 43.000000
207.105220 10.000000
208.070770 62.000000
208.077840 29.000000
208.106340 28.000000
208.115630 11.000000
208.124770 5.000000
208.273160 5.000000
209.068950 23.000000
209.077130 29.000000
209.089630 24.000000
210.071760 10.000000
210.084750 24.000000
210.096190 36.000000
210.109730 12.000000
211.096650 26.000000
211.117260 7.000000
212.098250 9.000000
213.066070 7.000000
213.097850 7.000000
216.072200 7.000000
216.082980 22.000000
217.075070 6.000000
217.090740 17.000000
218.091380 32.000000
218.105330 13.000000
219.048320 5.000000
219.091090 45.000000
219.099350 16.000000
219.109570 7.000000
220.075010 10.000000
220.096730 64.000000
220.110570 22.000000
221.082020 17.000000
221.092590 18.000000
221.109020 8.000000
222.081310 23.000000
222.101210 7.000000
222.120420 6.000000
223.081560 10.000000
223.093640 9.000000
223.102910 18.000000
223.142400 7.000000
224.097900 35.000000
224.110230 9.000000
225.103120 11.000000
226.104980 11.000000
227.081890 22.000000
228.069980 5.000000
229.096160 7.000000
230.093060 13.000000
230.177510 5.000000
231.091640 17.000000
231.120300 5.000000
232.083210 5.000000
232.096160 16.000000
232.107890 14.000000
232.125460 8.000000
233.095340 24.000000
233.109830 31.000000
233.856580 5.000000
233.988940 11.000000
234.078050 33.000000
234.092320 47.000000
234.112610 62.000000
234.130630 17.000000
234.529250 5.000000
235.082210 5.000000
235.106310 16.000000
235.125370 54.000000
236.078060 12.000000
236.111540 15.000000
236.125350 6.000000
237.105580 21.000000
238.128920 11.000000
239.122380 7.000000
241.090740 8.000000
242.106600 5.000000
243.090380 6.000000
244.103760 18.000000
245.084720 11.000000
245.107500 8.000000
246.077290 5.000000
246.090610 14.000000
246.114580 10.000000
246.127430 5.000000
247.064440 7.000000
247.076220 17.000000
247.095790 25.000000
247.121020 22.000000
247.133210 14.000000
248.089830 45.000000
248.102050 20.000000
248.109910 17.000000
248.131840 29.000000
249.086780 14.000000
249.105450 65.000000
249.130050 10.000000
250.073700 12.000000
250.096820 5.000000
250.109600 17.000000
250.127270 9.000000
250.144740 17.000000
251.123920 21.000000
257.119320 5.000000
258.098570 6.000000
260.086180 6.000000
260.112060 12.000000
261.088260 16.000000
261.113310 9.000000
261.134160 21.000000
261.144170 14.000000
262.085140 6.000000
262.102020 37.000000
262.119380 28.000000
262.131770 13.000000
262.147580 10.000000
263.103240 12.000000
263.113100 19.000000
263.124540 17.000000
264.096470 7.000000
264.119350 7.000000
274.107390 15.000000
275.108830 10.000000
276.118530 17.000000
277.133330 19.000000
279.153110 8.000000
323.166500 10.000000
323.177340 9.000000

