>compound PR37154354
>parentmass 219.1356
>ionization [M+H]+
>formula C9H18N2O4
>rt 108.000000
>profile qtof
#smiles_iso CCC(C)C(C(=O)NC(CO)C(=O)O)N
#smiles_can CCC(C)C(C(=O)NC(CO)C(=O)O)N
#inchikey TWVKGYNQQAUNRN-UHFFFAOYSA-N
#pubchem_id 14426033
#mb_accession PR311069

>ms2peaks
86.096730 124.000000
87.102100 24.000000
121.566590 30.000000
219.128940 40.000000

