>compound PR38251231
>parentmass 565.1551820000001
>ionization [M+H]+
>formula C26H28O14
>rt 218.316000
>profile qtof
#smiles_iso C1=CC(=CC=C1C2=CC(=O)C3=C(C(=C(C(=C3O2)C4[C@@H]([C@H]([C@@H]([C@H](O4)CO)O)O)O)O)C5[C@@H]([C@H]([C@@H](O5)CO)O)O)O)O
#smiles_can C1=CC(=CC=C1C2=CC(=O)C3=C(C(=C(C(=C3O2)C4C(C(C(C(O4)CO)O)O)O)O)C5C(C(C(O5)CO)O)O)O)O
#inchikey DRLZZQRQMWQRLZ-FBMRRHFKSA-N
#pubchem_id 137832344
#mb_accession PR303296,PR303298,PR303300,PR303302,PR303304,PR303306,PR303308,PR303310,PR303312,PR303314,PR303316,PR303318

>ms2peaks
204.017940 6.000000
229.049930 5.000000
245.436660 7.000000
246.588850 7.000000
281.368560 5.000000
283.060460 10.000000
294.055480 9.000000
295.026520 5.000000
295.062070 84.000000
295.073270 26.000000
296.061770 14.000000
296.075590 8.000000
297.071900 6.000000
307.064390 47.000000
308.053830 10.000000
308.066220 7.000000
309.073520 28.000000
309.087740 7.000000
309.983700 8.000000
311.063050 5.000000
317.090450 9.000000
320.051270 8.000000
321.071440 24.000000
322.081450 14.000000
323.066380 9.000000
323.097780 10.000000
325.071440 152.000000
326.069790 20.000000
326.083010 28.000000
327.071560 8.000000
329.044860 7.000000
333.052220 7.000000
333.075960 5.000000
335.090330 7.000000
335.101900 8.000000
336.060970 7.000000
337.039670 9.000000
337.068730 124.000000
338.078490 27.000000
339.135410 7.000000
346.333890 5.000000
347.094150 39.000000
349.056640 10.000000
349.074460 75.000000
350.071010 29.000000
351.039460 5.000000
351.082820 37.000000
351.096800 15.000000
352.097630 10.000000
354.062440 6.000000
355.073060 11.000000
355.082240 24.000000
356.086120 9.000000
356.103000 6.000000
357.079740 10.000000
359.067600 6.000000
359.099210 6.000000
360.173830 6.000000
360.775790 7.000000
361.069520 40.000000
363.094790 10.000000
365.085630 7.000000
365.102570 12.000000
366.071260 12.000000
366.103730 9.000000
368.057010 5.000000
373.078030 16.000000
374.149380 8.000000
375.085910 38.000000
376.093350 11.000000
377.105590 9.000000
379.053890 16.000000
379.080410 222.000000
380.080600 48.000000
380.093990 20.000000
380.111300 5.000000
381.082790 8.000000
381.109530 5.000000
385.095370 11.000000
386.094880 6.000000
388.098970 8.000000
390.101840 6.000000
391.077640 59.000000
391.096340 15.000000
391.210240 6.000000
392.083190 12.000000
393.060490 11.000000
393.083100 9.000000
393.102360 8.000000
395.062040 7.000000
397.051700 9.000000
397.091580 127.000000
398.082030 17.000000
398.096740 39.000000
401.110140 7.000000
403.081730 43.000000
403.107480 6.000000
404.037810 9.000000
405.075070 10.000000
405.098050 35.000000
409.081540 31.000000
409.094060 49.000000
409.110230 8.000000
410.089360 19.000000
411.096770 7.000000
415.094270 31.000000
416.083830 8.000000
416.105410 15.000000
418.111910 7.000000
419.118100 15.000000
421.094640 40.000000
422.096740 41.000000
427.073820 16.000000
427.104980 78.000000
428.100860 22.000000
428.245210 6.000000
430.097380 6.000000
433.029140 5.000000
433.074620 17.000000
433.097260 82.000000
434.095060 9.000000
434.116700 7.000000
439.101590 15.000000
439.117950 17.000000
441.092900 10.000000
445.090420 50.000000
445.116300 69.000000
446.089140 10.000000
446.117830 27.000000
446.134090 8.000000
447.103000 11.000000
448.122680 12.000000
451.091000 36.000000
451.111480 20.000000
452.096100 16.000000
454.333830 5.000000
457.088130 33.000000
457.112490 107.000000
463.090970 9.000000
463.113430 11.000000
469.089660 11.000000
469.109250 44.000000
469.129180 30.000000
470.118500 26.000000
475.108520 31.000000
476.080810 6.000000
476.117370 8.000000
481.105350 77.000000
481.122960 70.000000
482.088650 8.000000
482.109680 25.000000
493.110050 28.000000
493.121640 63.000000
494.112370 28.000000
495.127720 7.000000
499.118840 88.000000
500.128230 24.000000
501.136110 7.000000
511.081330 8.000000
511.120000 94.000000
511.141850 21.000000
512.111880 29.000000
512.135250 8.000000
512.540280 6.000000
529.132200 122.000000
530.134340 31.000000
532.136290 6.000000
547.100280 7.000000
547.142150 304.000000
548.086300 7.000000
548.117800 9.000000
548.141110 39.000000
548.159120 49.000000
549.171570 12.000000
565.050110 10.000000
565.095760 9.000000
565.154910 1000.000000

>ms2peaks
409.090520 5.000000
445.116120 25.000000
446.113530 5.000000
457.106450 23.000000
469.117250 17.000000
470.122280 6.000000
499.109340 7.000000
499.126800 22.000000
511.126950 7.000000
529.138430 20.000000
547.136660 70.000000
547.156130 96.000000
548.147280 41.000000
548.163090 26.000000
549.115910 6.000000
549.158330 6.000000
565.055910 6.000000
565.099550 18.000000
565.154660 1000.000000

>ms2peaks
78.943900 5.000000
102.391410 5.000000
121.027610 8.000000
132.050490 7.000000
133.693310 7.000000
163.036220 9.000000
185.387760 7.000000
211.423770 7.000000
218.805710 7.000000
224.314410 7.000000
224.322620 10.000000
250.383330 8.000000
251.299910 5.000000
255.043330 6.000000
255.076490 9.000000
265.056030 7.000000
271.908200 5.000000
275.973140 7.000000
276.514430 17.000000
283.053100 6.000000
284.058720 5.000000
293.069950 6.000000
294.045290 15.000000
294.068180 13.000000
294.100920 12.000000
295.026180 6.000000
295.058930 240.000000
295.300420 7.000000
296.039340 6.000000
296.060330 6.000000
296.080170 17.000000
297.005950 7.000000
297.071140 14.000000
298.086490 6.000000
304.771180 11.000000
306.999690 7.000000
307.039030 21.000000
307.051820 87.000000
307.065030 134.000000
308.040830 7.000000
308.061000 37.000000
308.075070 6.000000
308.439450 6.000000
309.071500 11.000000
310.077940 9.000000
310.355220 5.000000
313.078120 11.000000
314.068910 14.000000
316.229030 10.000000
317.059300 9.000000
319.063320 8.000000
319.097930 9.000000
321.080260 15.000000
322.071870 9.000000
322.086090 8.000000
323.055390 8.000000
324.058350 6.000000
324.090450 11.000000
324.337130 6.000000
324.577880 6.000000
324.937560 7.000000
325.012480 12.000000
325.037690 14.000000
325.069030 491.000000
325.168180 7.000000
326.067870 65.000000
326.085880 54.000000
326.224150 6.000000
326.809200 5.000000
327.068270 17.000000
327.095610 10.000000
329.070370 7.000000
331.086980 16.000000
333.072970 6.000000
335.049680 8.000000
335.069550 7.000000
335.082090 12.000000
335.111240 7.000000
336.067080 21.000000
337.043180 16.000000
337.071590 362.000000
338.070010 69.000000
338.081390 54.000000
339.078770 6.000000
339.101320 5.000000
340.081120 7.000000
345.080960 6.000000
347.082920 23.000000
347.101500 20.000000
348.097080 5.000000
349.073850 300.000000
350.061890 14.000000
350.077150 36.000000
350.107670 5.000000
351.028470 10.000000
351.068390 54.000000
351.099850 19.000000
352.106290 7.000000
353.031250 7.000000
353.068180 8.000000
353.105470 8.000000
355.070070 39.000000
355.087740 81.000000
355.600710 8.000000
356.037870 11.000000
356.079830 25.000000
356.837430 6.000000
358.171630 6.000000
358.520230 6.000000
360.097080 7.000000
360.509430 8.000000
361.072330 83.000000
362.033450 7.000000
362.072270 37.000000
363.063350 13.000000
363.075230 31.000000
363.090880 13.000000
365.064180 8.000000
365.076510 16.000000
365.102360 55.000000
366.075200 19.000000
366.110720 28.000000
366.203190 5.000000
367.072050 19.000000
367.084780 7.000000
367.107120 8.000000
368.068360 6.000000
368.087830 8.000000
373.059360 21.000000
373.077940 6.000000
374.082120 14.000000
375.041410 6.000000
375.085240 51.000000
375.105560 6.000000
376.061520 6.000000
376.110110 6.000000
377.056400 6.000000
377.108670 10.000000
377.126980 8.000000
377.452580 6.000000
379.036990 17.000000
379.080930 1000.000000
379.349240 5.000000
379.863430 7.000000
380.039460 7.000000
380.088620 250.000000
380.863460 6.000000
381.024930 10.000000
381.075010 20.000000
381.087250 22.000000
382.092130 15.000000
382.118230 7.000000
383.052670 7.000000
383.070770 6.000000
384.689670 6.000000
385.073430 36.000000
385.094090 5.000000
386.082370 7.000000
387.096680 25.000000
389.052340 17.000000
389.097960 15.000000
390.125890 13.000000
391.084530 231.000000
392.074130 21.000000
392.095060 36.000000
392.115230 8.000000
393.052700 6.000000
393.078670 46.000000
393.103730 8.000000
395.030670 6.000000
396.078340 5.000000
397.038970 7.000000
397.090330 621.000000
397.126070 7.000000
397.315060 5.000000
398.070740 34.000000
398.096680 74.000000
398.112520 17.000000
399.081510 24.000000
399.117430 11.000000
400.078060 11.000000
400.097530 12.000000
401.104460 12.000000
401.119630 5.000000
402.089290 6.000000
402.111020 6.000000
403.031280 5.000000
403.054470 19.000000
403.081730 171.000000
403.274720 10.000000
404.079710 33.000000
404.095830 63.000000
405.044490 5.000000
405.084170 50.000000
405.099300 13.000000
405.189210 10.000000
406.096500 9.000000
406.124660 8.000000
406.315280 6.000000
407.096980 7.000000
407.976680 7.000000
409.026000 9.000000
409.089200 186.000000
410.096710 50.000000
410.117710 5.000000
411.076020 10.000000
411.098850 12.000000
411.187530 5.000000
412.106020 13.000000
412.208440 6.000000
412.330230 6.000000
412.934110 5.000000
414.063660 5.000000
415.068760 28.000000
415.090480 66.000000
416.091030 6.000000
416.105160 7.000000
417.086520 32.000000
417.104550 22.000000
418.099980 8.000000
418.111660 8.000000
418.126160 6.000000
419.085540 16.000000
419.104920 18.000000
419.127110 11.000000
420.115630 23.000000
420.976140 7.000000
421.034760 9.000000
421.065120 12.000000
421.090450 140.000000
421.125030 8.000000
421.471040 7.000000
422.076480 12.000000
422.119780 8.000000
423.111910 6.000000
425.094060 7.000000
427.073820 29.000000
427.095250 124.000000
427.113460 47.000000
428.074370 21.000000
428.103330 21.000000
428.257840 5.000000
429.094420 23.000000
429.118290 7.000000
432.974000 6.000000
433.011510 9.000000
433.076750 79.000000
433.091000 122.000000
433.107850 135.000000
433.130490 6.000000
433.998170 7.000000
434.053380 5.000000
434.087370 46.000000
434.104280 51.000000
435.110630 19.000000
437.100770 14.000000
437.120390 16.000000
437.137570 8.000000
438.105930 7.000000
438.124300 6.000000
439.081120 21.000000
439.103580 104.000000
439.148620 5.000000
440.020320 8.000000
440.104160 46.000000
440.132420 6.000000
445.079800 31.000000
445.098660 107.000000
445.123350 11.000000
445.933530 6.000000
446.064610 10.000000
446.076930 6.000000
446.110170 45.000000
446.212460 7.000000
446.803340 8.000000
447.070680 7.000000
447.112150 31.000000
448.093960 8.000000
448.114110 11.000000
451.079470 21.000000
451.106690 133.000000
451.133480 13.000000
451.456480 5.000000
452.021000 8.000000
452.084530 15.000000
452.102810 47.000000
452.114900 16.000000
453.130370 12.000000
453.703310 5.000000
457.073090 21.000000
457.087860 73.000000
457.104950 101.000000
457.133970 10.000000
458.075010 9.000000
458.094510 30.000000
458.112300 19.000000
459.106930 12.000000
462.943180 6.000000
462.986300 6.000000
463.085880 23.000000
463.921570 6.000000
464.065490 9.000000
465.091370 7.000000
469.089080 34.000000
469.116760 58.000000
469.135070 16.000000
469.173550 5.000000
470.112240 40.000000
471.119630 6.000000
471.133240 5.000000
475.055240 8.000000
475.081820 18.000000
475.108060 48.000000
476.068420 7.000000
476.088560 7.000000
476.117520 5.000000
478.295780 8.000000
481.108370 53.000000
482.124760 15.000000
493.052370 8.000000
493.109800 184.000000
494.058320 8.000000
494.117950 49.000000
495.131930 5.000000
499.082860 6.000000
499.806950 6.000000
511.103210 28.000000
511.130070 72.000000
511.255160 9.000000
512.047730 9.000000
512.134700 22.000000
519.604550 7.000000
529.128970 49.000000
529.159060 14.000000
529.181400 6.000000
530.137630 8.000000
530.159670 5.000000
547.161010 5.000000

>ms2peaks
55.016850 17.000000
109.027250 16.000000
111.015430 20.000000
117.040700 12.000000
119.050170 61.000000
121.023120 42.000000
121.030620 270.000000
122.032220 83.000000
133.015170 15.000000
135.042190 18.000000
139.035170 18.000000
143.050430 28.000000
143.066180 12.000000
145.030110 31.000000
157.126500 17.000000
159.043430 22.000000
161.020680 22.000000
161.060180 11.000000
163.032760 17.000000
163.039000 12.000000
171.038160 19.000000
173.027070 95.000000
174.054470 24.000000
175.030350 11.000000
175.045810 21.000000
177.015730 97.000000
177.058360 11.000000
178.061770 11.000000
178.302170 11.000000
179.037050 13.000000
181.068080 12.000000
183.069870 18.000000
185.069270 24.000000
186.040190 19.000000
186.065220 12.000000
186.117610 25.000000
187.039060 27.000000
188.038820 14.000000
189.004150 18.000000
189.020890 123.000000
189.069370 12.000000
190.034680 17.000000
191.036680 42.000000
191.356320 11.000000
197.044020 29.000000
198.064030 22.000000
198.583040 11.000000
199.039200 35.000000
199.047530 26.000000
199.079640 19.000000
200.265460 11.000000
201.021240 49.000000
201.043900 15.000000
201.062560 40.000000
202.470030 26.000000
203.015380 22.000000
203.033480 136.000000
205.012250 16.000000
205.049670 16.000000
205.146760 12.000000
209.099520 32.000000
211.040120 52.000000
213.058750 21.000000
215.028110 55.000000
215.038300 49.000000
216.048190 25.000000
217.049420 31.000000
217.058290 20.000000
218.050770 17.000000
219.024090 22.000000
223.483180 13.000000
227.022340 12.000000
227.076200 13.000000
229.035550 16.000000
229.050870 17.000000
229.060520 19.000000
231.023320 18.000000
231.040210 11.000000
231.065020 16.000000
233.048980 31.000000
237.061570 27.000000
237.565960 20.000000
239.063000 16.000000
239.074300 21.000000
240.077450 11.000000
241.036880 24.000000
241.050580 111.000000
243.006590 29.000000
243.233830 11.000000
244.045060 26.000000
245.037110 22.000000
246.041520 27.000000
247.059330 13.000000
248.707750 13.000000
251.070070 12.000000
253.048480 13.000000
254.042040 22.000000
254.058320 11.000000
255.016190 26.000000
255.037840 19.000000
255.057340 17.000000
256.022340 13.000000
256.081240 14.000000
260.084960 12.000000
262.055540 14.000000
264.032100 14.000000
265.065640 12.000000
266.069180 37.000000
267.035160 42.000000
268.073360 37.000000
269.025300 11.000000
271.048800 12.000000
271.061310 36.000000
272.073730 14.000000
272.120910 21.000000
272.967860 17.000000
273.032870 16.000000
275.104100 16.000000
277.088010 16.000000
278.186100 16.000000
279.071960 60.000000
279.080840 23.000000
280.051180 12.000000
280.073430 68.000000
281.035550 11.000000
281.077640 74.000000
282.041690 41.000000
282.084170 14.000000
283.061370 129.000000
284.051610 16.000000
284.810330 19.000000
285.037540 31.000000
285.095150 16.000000
286.049680 36.000000
289.092590 36.000000
290.057070 21.000000
291.054230 49.000000
291.065090 35.000000
291.100620 12.000000
292.088930 23.000000
293.046390 15.000000
293.078890 11.000000
294.031130 16.000000
294.051450 270.000000
294.066960 53.000000
295.061800 1000.000000
296.070130 282.000000
296.089720 15.000000
297.050170 22.000000
297.066010 43.000000
297.086550 42.000000
298.083340 27.000000
299.468870 11.000000
302.098480 12.000000
302.619480 33.000000
304.073090 12.000000
305.081600 29.000000
306.085360 16.000000
307.059880 558.000000
307.074130 208.000000
307.097780 16.000000
308.052190 65.000000
308.071040 254.000000
308.315860 11.000000
308.689420 17.000000
309.055270 35.000000
309.072660 106.000000
309.084380 127.000000
309.111910 11.000000
309.291080 12.000000
310.041840 24.000000
310.060640 19.000000
310.092380 61.000000
310.139040 16.000000
311.295990 11.000000
312.102600 12.000000
313.076290 39.000000
314.064450 19.000000
315.023830 13.000000
315.064910 15.000000
315.422550 21.000000
315.713320 11.000000
316.066310 14.000000
316.081390 14.000000
317.059540 16.000000
317.088530 14.000000
318.041110 12.000000
318.081630 17.000000
319.047030 19.000000
319.060910 57.000000
319.095580 50.000000
319.128390 19.000000
320.061280 66.000000
320.077180 53.000000
321.033050 14.000000
321.050140 31.000000
321.067440 176.000000
321.083740 304.000000
321.109500 14.000000
321.964600 13.000000
322.030520 12.000000
322.072140 60.000000
322.090520 248.000000
323.062320 27.000000
323.080960 63.000000
323.092800 85.000000
324.063870 24.000000
324.086980 26.000000
325.063450 261.000000
325.074520 307.000000
325.104740 19.000000
326.075470 195.000000
326.099370 15.000000
327.070890 31.000000
327.083310 15.000000
329.051180 19.000000
329.078950 28.000000
330.108490 21.000000
332.051270 19.000000
333.074100 165.000000
333.091130 76.000000
334.072600 54.000000
334.090520 40.000000
335.033540 14.000000
335.098510 144.000000
336.048280 21.000000
336.064670 37.000000
336.074680 26.000000
336.096590 57.000000
337.056920 53.000000
337.068820 161.000000
337.082180 162.000000
337.098660 49.000000
338.064790 26.000000
338.077510 48.000000
338.100560 15.000000
339.087430 50.000000
339.143430 11.000000
340.073880 24.000000
342.081630 18.000000
343.073760 11.000000
344.052460 16.000000
344.063810 26.000000
344.094090 11.000000
344.107480 20.000000
345.054290 13.000000
345.079470 48.000000
346.078250 31.000000
346.101560 23.000000
347.088620 157.000000
347.105990 54.000000
348.073910 15.000000
348.098880 17.000000
349.023710 16.000000
349.052220 17.000000
349.075440 71.000000
349.090640 126.000000
349.107180 32.000000
350.073760 78.000000
350.110870 28.000000
351.040650 25.000000
351.086910 273.000000
352.073330 17.000000
352.092380 56.000000
353.079440 45.000000
355.158970 11.000000
357.074980 29.000000
357.095210 36.000000
357.805180 13.000000
358.088560 17.000000
358.339480 11.000000
359.098270 11.000000
360.110080 22.000000
361.046260 12.000000
361.067050 45.000000
361.080990 72.000000
361.091090 25.000000
362.076930 45.000000
362.122620 14.000000
363.077390 49.000000
363.099460 73.000000
363.127260 21.000000
363.243190 11.000000
364.075070 20.000000
364.108760 34.000000
365.076660 14.000000
365.109830 76.000000
367.070800 39.000000
367.081760 18.000000
368.074950 15.000000
373.072690 68.000000
373.094820 38.000000
373.976230 11.000000
374.079350 47.000000
375.055450 17.000000
375.085020 65.000000
375.112090 12.000000
376.075500 26.000000
376.096370 33.000000
376.140840 11.000000
377.066710 36.000000
377.101440 48.000000
378.115480 16.000000
379.070650 24.000000
379.088040 126.000000
379.425900 17.000000
380.084750 14.000000
384.079220 11.000000
385.057860 25.000000
385.071040 27.000000
386.079100 12.000000
387.113040 23.000000
389.098180 24.000000
389.119930 15.000000
390.095520 16.000000
391.065640 47.000000
391.085940 41.000000
392.068480 11.000000
392.096010 36.000000
396.086300 12.000000
398.089420 11.000000
399.097170 34.000000
401.104740 23.000000
402.740510 11.000000
403.067900 27.000000
403.080990 65.000000
404.066990 14.000000
407.074890 16.000000
407.123960 21.000000
411.118590 15.000000
414.087620 20.000000
417.066410 16.000000
418.106870 17.000000
421.090450 16.000000
427.069270 15.000000
427.082670 18.000000
427.106140 39.000000
427.116090 17.000000
428.091130 23.000000
429.105290 21.000000
430.112950 22.000000
443.070190 14.000000
445.037750 17.000000
445.100340 14.000000
449.368260 11.000000
543.550230 16.000000
544.222720 27.000000
563.324770 16.000000

>ms2peaks
85.027830 6.000000
107.049250 5.000000
140.901670 7.000000
187.034620 7.000000
191.030040 5.000000
235.046400 8.000000
240.566510 6.000000
267.067320 8.000000
282.172330 8.000000
283.071260 10.000000
294.038670 11.000000
295.030210 6.000000
295.047450 17.000000
295.058840 34.000000
295.070710 41.000000
295.082950 17.000000
296.056400 16.000000
296.070740 9.000000
298.653290 5.000000
303.036960 7.000000
307.053470 75.000000
307.075650 13.000000
308.070250 12.000000
309.044040 6.000000
309.068660 11.000000
309.080200 9.000000
313.070920 9.000000
317.171450 6.000000
319.056760 8.000000
320.074550 8.000000
321.081240 22.000000
322.077670 7.000000
322.097470 9.000000
323.048460 9.000000
323.088440 13.000000
323.101010 20.000000
325.071960 193.000000
325.083310 72.000000
326.044800 7.000000
326.072750 21.000000
326.085970 9.000000
333.083160 18.000000
334.099850 7.000000
335.042880 6.000000
335.090880 27.000000
335.102600 10.000000
337.062230 66.000000
337.075740 54.000000
338.075130 20.000000
340.097500 6.000000
347.046970 11.000000
347.091190 23.000000
348.119930 7.000000
349.065400 101.000000
349.096440 12.000000
349.114440 11.000000
350.050750 6.000000
350.077360 15.000000
351.085300 49.000000
351.099730 33.000000
352.068020 8.000000
352.093960 8.000000
355.075410 20.000000
355.093200 27.000000
356.090300 13.000000
356.108090 5.000000
361.038570 15.000000
361.061890 13.000000
361.076570 27.000000
362.071320 8.000000
363.090940 21.000000
364.079250 15.000000
365.106380 30.000000
367.048920 6.000000
367.067230 13.000000
368.081700 8.000000
371.092440 6.000000
371.104460 5.000000
373.088410 8.000000
375.037170 6.000000
375.091130 32.000000
377.067660 13.000000
379.046600 16.000000
379.066250 68.000000
379.083500 233.000000
380.030490 7.000000
380.067570 20.000000
380.082060 71.000000
380.098850 16.000000
380.988190 5.000000
381.070920 9.000000
381.091580 5.000000
381.370150 5.000000
385.058750 7.000000
385.125950 5.000000
387.071200 6.000000
387.083620 14.000000
391.078860 38.000000
391.093660 60.000000
391.776490 9.000000
392.082820 26.000000
393.106960 6.000000
397.084630 98.000000
397.096800 120.000000
397.119690 17.000000
398.084810 14.000000
398.101750 22.000000
399.089320 5.000000
399.109410 8.000000
401.238370 6.000000
402.089480 8.000000
403.049290 7.000000
403.067440 13.000000
403.088930 60.000000
404.070980 9.000000
404.102630 6.000000
405.103730 11.000000
406.088010 17.000000
406.114900 17.000000
409.078890 32.000000
409.100430 64.000000
410.088290 10.000000
410.105070 25.000000
410.135590 6.000000
411.081760 8.000000
413.544070 8.000000
415.069000 19.000000
415.099640 27.000000
415.115880 16.000000
416.104860 13.000000
417.102870 14.000000
419.116610 16.000000
420.104980 6.000000
421.062810 10.000000
421.082760 48.000000
421.115880 9.000000
422.090060 12.000000
423.095920 8.000000
427.067470 7.000000
427.096280 76.000000
428.083470 11.000000
428.103210 21.000000
429.096980 14.000000
429.115300 8.000000
433.089690 74.000000
434.076810 9.000000
434.096620 40.000000
435.116210 8.000000
439.106750 39.000000
440.100920 9.000000
445.092680 91.000000
445.133360 7.000000
446.100680 29.000000
446.125030 10.000000
451.085420 25.000000
451.100250 24.000000
451.117400 37.000000
452.089660 11.000000
452.107360 31.000000
453.104100 6.000000
457.059750 20.000000
457.091550 46.000000
457.115080 113.000000
458.119170 56.000000
458.240690 7.000000
459.134800 14.000000
461.112490 8.000000
463.089720 18.000000
463.115260 7.000000
465.136080 12.000000
468.563260 5.000000
469.099880 60.000000
469.120420 77.000000
470.111300 51.000000
471.122650 10.000000
475.101680 39.000000
476.105010 7.000000
481.111600 88.000000
482.112950 18.000000
482.133790 14.000000
483.135190 7.000000
493.052490 6.000000
493.090420 27.000000
493.112370 32.000000
493.134640 32.000000
494.095310 10.000000
494.114590 13.000000
499.118440 134.000000
500.117400 36.000000
500.140050 10.000000
501.128390 6.000000
511.121460 128.000000
512.123170 12.000000
512.140990 18.000000
529.127690 102.000000
529.147580 46.000000
530.123840 31.000000
531.981630 6.000000
547.124150 79.000000
547.146970 318.000000
548.095640 7.000000
548.138430 86.000000
548.165770 36.000000
548.178650 15.000000
549.156740 14.000000
565.089970 25.000000
565.154360 1000.000000
565.269230 6.000000
565.319270 5.000000

>ms2peaks
445.106960 28.000000
446.125460 8.000000
457.112240 29.000000
469.109890 13.000000
481.107480 7.000000
481.122890 5.000000
499.126890 18.000000
511.106810 6.000000
511.139560 6.000000
529.133540 24.000000
547.145750 152.000000
548.147280 57.000000
565.102360 11.000000
565.157170 1000.000000

>ms2peaks
83.079690 8.000000
85.030620 15.000000
100.974060 10.000000
121.025670 9.000000
167.443890 5.000000
191.035060 10.000000
219.027190 8.000000
233.838780 7.000000
235.183820 14.000000
242.320690 7.000000
248.414250 7.000000
252.633270 7.000000
253.985690 11.000000
258.055300 10.000000
277.913700 10.000000
291.075410 6.000000
294.054080 6.000000
295.016780 6.000000
295.033050 38.000000
295.056980 143.000000
296.042850 11.000000
296.058230 67.000000
297.075650 11.000000
304.069270 9.000000
307.060240 286.000000
307.701140 7.000000
308.015990 14.000000
308.065700 27.000000
309.023220 13.000000
309.063290 7.000000
309.080470 8.000000
311.074130 6.000000
311.104770 7.000000
315.044220 17.000000
319.066160 7.000000
319.075530 7.000000
321.067600 18.000000
321.078800 8.000000
322.040990 6.000000
322.090760 15.000000
323.050540 12.000000
323.078430 10.000000
323.090790 9.000000
324.063510 7.000000
324.336610 11.000000
324.574250 7.000000
325.072720 446.000000
326.064060 20.000000
326.076320 70.000000
326.098140 18.000000
326.493800 6.000000
327.063810 14.000000
327.083500 12.000000
328.848300 6.000000
329.078700 10.000000
332.190460 7.000000
333.076480 25.000000
334.046260 7.000000
335.049710 7.000000
335.091400 13.000000
336.073790 7.000000
337.062290 154.000000
337.074340 249.000000
338.057310 8.000000
338.073240 46.000000
338.088410 9.000000
339.057860 14.000000
339.085940 10.000000
342.149230 6.000000
345.078830 11.000000
348.090120 10.000000
348.107300 7.000000
348.181880 14.000000
349.068240 272.000000
350.060610 16.000000
350.075500 60.000000
351.076570 76.000000
351.095340 7.000000
351.734410 10.000000
351.880490 6.000000
355.061130 18.000000
355.081210 96.000000
356.077670 24.000000
356.093990 11.000000
356.628880 7.000000
361.068240 74.000000
361.092160 17.000000
361.176540 8.000000
361.753780 7.000000
362.024110 5.000000
362.070340 20.000000
362.092800 17.000000
363.084750 26.000000
364.095670 6.000000
365.090360 10.000000
365.107150 57.000000
366.068240 8.000000
366.109710 12.000000
367.052000 21.000000
367.076420 37.000000
368.071200 6.000000
368.094210 8.000000
371.085270 14.000000
373.057460 15.000000
373.072200 7.000000
374.032170 7.000000
374.071350 7.000000
374.087400 9.000000
375.059840 10.000000
375.076600 42.000000
375.094300 11.000000
376.075620 7.000000
376.086060 8.000000
377.099270 33.000000
378.748630 10.000000
378.940890 9.000000
379.006680 17.000000
379.081240 1000.000000
379.121520 7.000000
379.379390 6.000000
380.059200 12.000000
380.080630 120.000000
380.100770 36.000000
381.012820 12.000000
381.056880 9.000000
381.083400 47.000000
381.102600 11.000000
381.121310 9.000000
385.076540 47.000000
386.071080 6.000000
386.082610 7.000000
387.035860 11.000000
387.082700 18.000000
387.771300 8.000000
389.071720 19.000000
389.091830 6.000000
389.103970 7.000000
390.655210 6.000000
391.034480 7.000000
391.055480 62.000000
391.081570 234.000000
391.319090 7.000000
392.060850 9.000000
392.091250 52.000000
392.109220 6.000000
393.039520 11.000000
393.072810 29.000000
393.094300 9.000000
395.077240 15.000000
395.914700 7.000000
396.917420 7.000000
397.048310 23.000000
397.090120 455.000000
397.863010 6.000000
398.064820 14.000000
398.090580 50.000000
398.100620 103.000000
399.071960 7.000000
399.092960 11.000000
400.106510 7.000000
400.384370 7.000000
401.109590 14.000000
402.083340 6.000000
403.078550 205.000000
404.050140 6.000000
404.083400 64.000000
404.111630 11.000000
405.076750 19.000000
405.107600 24.000000
406.084230 7.000000
406.105470 30.000000
407.072970 7.000000
409.041290 8.000000
409.072480 33.000000
409.092590 208.000000
409.119080 7.000000
410.089320 34.000000
410.110780 20.000000
411.096860 19.000000
412.072970 6.000000
412.098750 15.000000
413.054780 7.000000
413.087100 6.000000
414.067930 10.000000
414.114870 6.000000
415.074950 30.000000
415.104740 51.000000
416.087220 14.000000
416.111570 19.000000
417.069820 7.000000
417.093840 25.000000
419.079440 11.000000
419.109560 38.000000
420.116000 14.000000
420.871580 5.000000
421.092290 166.000000
422.068880 11.000000
422.092740 39.000000
422.108310 17.000000
423.086550 6.000000
427.068570 26.000000
427.104460 172.000000
428.081270 17.000000
428.110870 42.000000
429.057860 6.000000
429.082280 9.000000
429.100370 38.000000
430.083800 12.000000
432.079040 7.000000
433.089320 290.000000
433.183840 6.000000
433.260500 6.000000
434.083440 51.000000
434.103640 8.000000
435.095060 19.000000
435.112240 7.000000
436.110470 9.000000
437.102940 6.000000
437.123140 31.000000
439.073030 9.000000
439.105290 94.000000
440.096280 29.000000
440.115080 6.000000
442.092320 13.000000
442.692380 6.000000
445.043950 6.000000
445.073360 89.000000
445.106780 43.000000
446.071500 11.000000
446.088620 58.000000
447.105960 65.000000
448.092530 11.000000
449.093320 6.000000
449.106810 7.000000
450.980190 8.000000
451.071110 7.000000
451.103120 193.000000
451.133000 7.000000
452.089540 13.000000
452.111110 37.000000
453.078740 10.000000
454.098940 11.000000
457.020420 5.000000
457.072660 63.000000
457.100370 85.000000
457.117130 25.000000
458.100460 48.000000
463.097780 39.000000
463.117610 9.000000
464.101650 16.000000
464.121310 8.000000
465.100400 9.000000
465.135470 10.000000
469.102690 84.000000
469.133850 6.000000
470.108890 11.000000
470.124420 13.000000
475.071620 6.000000
475.083530 13.000000
475.109190 83.000000
475.135650 8.000000
476.093440 7.000000
476.117680 8.000000
477.109440 12.000000
481.103490 26.000000
481.124180 7.000000
482.126370 27.000000
484.125670 7.000000
493.027650 6.000000
493.083130 14.000000
493.116790 101.000000
494.111600 25.000000
494.132970 7.000000
495.109310 9.000000
500.132690 7.000000
511.106600 32.000000
511.126040 42.000000
512.135620 53.000000
520.190920 7.000000
529.119690 24.000000
529.148560 34.000000
530.141850 11.000000
547.129700 7.000000

>ms2peaks
67.179890 15.000000
67.476810 12.000000
69.032890 22.000000
91.053420 13.000000
105.075000 26.000000
106.038380 14.000000
119.022130 28.000000
119.046940 98.000000
119.051500 37.000000
119.060620 12.000000
121.028370 527.000000
123.029530 30.000000
123.047160 28.000000
129.033420 14.000000
145.018200 21.000000
145.029390 39.000000
146.038410 12.000000
157.073010 17.000000
159.047650 35.000000
160.047700 17.000000
161.028110 26.000000
163.046190 34.000000
173.022200 26.000000
173.032150 12.000000
173.056300 18.000000
175.032530 19.000000
176.980330 17.000000
177.017180 63.000000
178.021670 22.000000
178.049740 16.000000
179.026660 24.000000
179.031750 12.000000
181.055390 17.000000
181.064500 12.000000
183.082200 17.000000
185.055730 21.000000
187.033310 17.000000
188.963580 17.000000
189.015080 111.000000
189.025450 67.000000
190.029720 37.000000
193.016460 12.000000
197.029510 17.000000
197.058430 24.000000
198.344710 15.000000
199.036620 93.000000
199.047440 23.000000
200.055820 12.000000
201.014940 70.000000
201.054210 17.000000
202.052700 15.000000
203.004790 12.000000
203.019550 54.000000
203.042500 98.000000
203.066250 15.000000
204.076310 16.000000
205.007000 24.000000
207.829150 13.000000
209.047850 14.000000
209.060680 33.000000
211.033100 12.000000
211.046920 33.000000
211.066350 23.000000
212.053410 24.000000
213.054020 40.000000
213.090190 12.000000
215.029220 91.000000
215.043910 50.000000
216.018160 15.000000
216.053730 21.000000
217.036250 26.000000
217.056050 30.000000
217.804720 17.000000
218.016100 12.000000
218.047850 18.000000
219.033250 60.000000
219.147400 21.000000
220.026630 14.000000
223.077930 12.000000
225.058820 28.000000
226.025390 15.000000
227.021700 14.000000
227.033340 72.000000
227.069600 19.000000
228.032580 16.000000
229.053410 19.000000
230.051820 15.000000
231.030490 16.000000
231.040150 31.000000
231.065370 12.000000
233.029100 17.000000
237.062500 28.000000
241.045750 41.000000
242.034650 13.000000
242.066710 14.000000
242.999620 21.000000
243.026380 28.000000
243.070540 17.000000
244.033780 26.000000
245.039690 30.000000
247.841920 17.000000
251.332760 19.000000
253.042330 20.000000
253.087020 24.000000
254.654390 34.000000
255.027920 86.000000
256.026000 40.000000
256.034520 16.000000
256.238620 12.000000
257.037200 20.000000
257.047120 21.000000
259.965610 19.000000
266.048430 28.000000
266.056670 21.000000
267.030300 28.000000
267.043210 16.000000
267.060670 19.000000
267.069000 56.000000
268.062070 19.000000
268.073120 35.000000
269.043950 14.000000
270.048220 21.000000
271.067900 24.000000
273.016910 19.000000
273.035580 23.000000
277.077420 13.000000
279.063390 102.000000
279.083680 15.000000
280.063660 35.000000
281.035770 15.000000
281.043400 35.000000
281.079010 86.000000
281.100980 20.000000
282.085360 12.000000
283.027530 19.000000
283.063480 128.000000
284.065160 16.000000
285.037540 39.000000
287.069920 12.000000
290.369290 15.000000
291.060490 27.000000
292.037170 17.000000
292.053860 17.000000
292.064730 15.000000
292.082430 19.000000
292.731960 15.000000
293.081420 108.000000
293.100160 13.000000
294.048890 331.000000
294.057740 115.000000
294.273620 19.000000
295.037990 70.000000
295.062100 1000.000000
295.093720 59.000000
295.321720 13.000000
296.060030 120.000000
296.071930 107.000000
296.098910 30.000000
297.074800 204.000000
298.046050 15.000000
298.076690 35.000000
298.088440 13.000000
303.053620 21.000000
303.070560 19.000000
304.051910 17.000000
304.076780 21.000000
305.065890 30.000000
305.089840 37.000000
305.574770 15.000000
306.066710 26.000000
306.077760 17.000000
307.061370 566.000000
307.072910 205.000000
307.114410 18.000000
307.846130 12.000000
308.038880 19.000000
308.062380 355.000000
308.075350 125.000000
308.977140 14.000000
309.063570 160.000000
309.076230 288.000000
309.097380 39.000000
310.043610 45.000000
310.080230 66.000000
310.099580 26.000000
311.063450 37.000000
313.061310 12.000000
313.071960 21.000000
313.090210 33.000000
315.058170 16.000000
317.074460 75.000000
318.067350 14.000000
318.090150 41.000000
318.101720 27.000000
318.722720 14.000000
319.059780 66.000000
319.092930 73.000000
320.067170 176.000000
320.086430 35.000000
321.039120 17.000000
321.077910 609.000000
321.104100 51.000000
321.165860 17.000000
322.037900 14.000000
322.082860 322.000000
322.114690 19.000000
323.064970 39.000000
323.087370 224.000000
324.094300 15.000000
324.113430 35.000000
325.018590 44.000000
325.070500 820.000000
325.089900 72.000000
326.058010 24.000000
326.073030 127.000000
326.085910 64.000000
326.100620 20.000000
328.079800 26.000000
328.102780 25.000000
329.068510 18.000000
329.087310 68.000000
330.090270 36.000000
331.098600 44.000000
331.709530 30.000000
332.091280 15.000000
333.050380 13.000000
333.078800 257.000000
333.206480 12.000000
334.066500 18.000000
334.087160 118.000000
334.515170 15.000000
334.632020 13.000000
335.038480 29.000000
335.062440 22.000000
335.075990 77.000000
335.090580 227.000000
336.050140 59.000000
336.064820 37.000000
336.078640 19.000000
336.103520 12.000000
337.045990 35.000000
337.055210 91.000000
337.071900 154.000000
337.084050 131.000000
337.107120 50.000000
338.050840 22.000000
338.059330 49.000000
338.078670 35.000000
339.051850 15.000000
339.076450 31.000000
340.040070 13.000000
340.073910 26.000000
343.086090 22.000000
344.068510 17.000000
345.078030 93.000000
345.096410 39.000000
346.084380 68.000000
347.067900 37.000000
347.091090 226.000000
348.059570 21.000000
348.075230 41.000000
348.103610 14.000000
349.008300 17.000000
349.041320 17.000000
349.070470 149.000000
349.082890 98.000000
349.113920 30.000000
349.126010 24.000000
350.079800 76.000000
350.105380 21.000000
350.504520 12.000000
351.036440 30.000000
351.055180 21.000000
351.086460 320.000000
352.084530 26.000000
352.105990 37.000000
353.098180 37.000000
353.936710 12.000000
354.090580 30.000000
357.076970 30.000000
359.059750 21.000000
359.084440 63.000000
360.074890 12.000000
360.090180 12.000000
361.041350 34.000000
361.073180 130.000000
361.117130 14.000000
361.136690 23.000000
362.074680 12.000000
363.062130 51.000000
363.093080 67.000000
363.107030 18.000000
364.048220 15.000000
364.095950 46.000000
364.106780 19.000000
365.074650 12.000000
365.099490 33.000000
365.118290 14.000000
366.074100 33.000000
366.219970 12.000000
367.054140 19.000000
367.071590 35.000000
370.549380 12.000000
372.646090 17.000000
372.892520 12.000000
373.011230 12.000000
373.061890 57.000000
373.079710 49.000000
373.580600 15.000000
374.087310 122.000000
375.045100 13.000000
375.088380 84.000000
376.066410 14.000000
376.090180 17.000000
377.105440 79.000000
378.086910 74.000000
378.998540 14.000000
379.067140 59.000000
379.094670 26.000000
380.063170 14.000000
380.086150 14.000000
380.102750 19.000000
381.090210 24.000000
383.086610 17.000000
383.140410 15.000000
385.073120 34.000000
385.097720 31.000000
386.074920 21.000000
387.030910 17.000000
387.076230 19.000000
388.066650 15.000000
389.060330 17.000000
389.108490 41.000000
390.069980 19.000000
391.043000 30.000000
391.079470 14.000000
391.102970 12.000000
392.074580 12.000000
392.097840 17.000000
392.120570 15.000000
397.083040 15.000000
399.100250 16.000000
403.056760 14.000000
403.079160 30.000000
404.102870 13.000000
405.088750 37.000000
408.076570 12.000000
408.107360 15.000000
409.109500 17.000000
417.105440 13.000000
420.078700 24.000000
421.084110 23.000000
428.105320 16.000000
433.096190 14.000000
433.110960 13.000000
441.452270 19.000000
445.064850 15.000000
457.091460 22.000000
565.152280 17.000000

>ms2peaks
121.028720 9.000000
221.052200 5.000000
241.123860 7.000000
248.555270 8.000000
263.069210 10.000000
275.759160 5.000000
294.051210 36.000000
295.042630 9.000000
295.062680 105.000000
296.051030 6.000000
296.067690 34.000000
297.063660 6.000000
297.536070 5.000000
307.063480 125.000000
308.059940 9.000000
308.072880 20.000000
309.063600 14.000000
309.075590 6.000000
311.931520 7.000000
312.911930 6.000000
319.055150 13.000000
319.082310 9.000000
321.077150 25.000000
321.090940 8.000000
322.080540 11.000000
322.092620 5.000000
323.088170 6.000000
325.045100 8.000000
325.071870 183.000000
326.066960 6.000000
327.050080 6.000000
327.061220 8.000000
328.058590 6.000000
333.065280 14.000000
334.080570 15.000000
335.091250 9.000000
336.097200 6.000000
337.000610 7.000000
337.055540 24.000000
337.075710 95.000000
338.083370 25.000000
339.074550 8.000000
346.080440 7.000000
346.752140 9.000000
347.071560 8.000000
347.087280 7.000000
348.096650 11.000000
349.055730 37.000000
349.075010 47.000000
350.029630 10.000000
350.074340 19.000000
351.066350 16.000000
351.081390 20.000000
351.095340 17.000000
352.094880 14.000000
355.080570 51.000000
356.083010 11.000000
361.072510 37.000000
363.081300 11.000000
364.095460 25.000000
365.101200 21.000000
365.138950 6.000000
366.105800 8.000000
367.069490 11.000000
367.089600 13.000000
368.079010 5.000000
369.084050 6.000000
373.075740 11.000000
374.084840 9.000000
375.081730 14.000000
376.091640 5.000000
379.081480 299.000000
380.090300 64.000000
380.489470 7.000000
381.081510 9.000000
385.066560 7.000000
386.083920 6.000000
387.070680 7.000000
389.065890 5.000000
389.102690 7.000000
391.056760 9.000000
391.082760 100.000000
391.109680 11.000000
392.086240 29.000000
393.087710 16.000000
395.076230 8.000000
397.065250 16.000000
397.091740 147.000000
398.098880 46.000000
401.107700 12.000000
403.057340 10.000000
403.081420 69.000000
405.086520 11.000000
405.100310 12.000000
405.113400 5.000000
407.097600 7.000000
409.091610 105.000000
409.103610 33.000000
415.084660 45.000000
415.106080 22.000000
415.120670 19.000000
416.086640 8.000000
416.107640 8.000000
419.105680 12.000000
419.122990 10.000000
421.078800 23.000000
421.094210 45.000000
422.088840 19.000000
423.071810 6.000000
427.069670 12.000000
427.086550 58.000000
427.107730 69.000000
428.087220 5.000000
428.101100 6.000000
429.094820 7.000000
430.112460 8.000000
432.948360 5.000000
433.044250 9.000000
433.069670 19.000000
433.087430 28.000000
433.104310 8.000000
434.098850 21.000000
439.102140 23.000000
439.119750 33.000000
440.087550 7.000000
445.059450 10.000000
445.083010 19.000000
445.114440 87.000000
445.136810 9.000000
446.064120 9.000000
446.093840 22.000000
446.121520 36.000000
446.143620 8.000000
447.114170 15.000000
447.131870 6.000000
448.316250 8.000000
448.671540 8.000000
451.102230 111.000000
452.107090 15.000000
452.975280 6.000000
454.001400 5.000000
455.186740 6.000000
457.095730 58.000000
457.112370 58.000000
457.127080 43.000000
458.115750 31.000000
458.134550 9.000000
463.096830 8.000000
463.119260 9.000000
464.102750 7.000000
469.104520 41.000000
469.121310 45.000000
470.122800 39.000000
475.098110 14.000000
475.114010 25.000000
476.116120 7.000000
477.972080 6.000000
481.080200 7.000000
481.109410 60.000000
481.122740 17.000000
482.118100 26.000000
483.115080 9.000000
483.264340 5.000000
484.114500 5.000000
493.100460 33.000000
493.116940 63.000000
494.125150 20.000000
495.117830 12.000000
499.125150 105.000000
500.119350 21.000000
500.147830 5.000000
511.072480 6.000000
511.125120 94.000000
512.107180 12.000000
512.123050 25.000000
513.146060 8.000000
529.130860 149.000000
529.752380 5.000000
530.109310 12.000000
530.131710 16.000000
530.150570 22.000000
531.089420 6.000000
531.130620 11.000000
547.147770 383.000000
548.145200 146.000000
548.175420 16.000000
549.146120 6.000000
549.166320 16.000000
565.052370 8.000000
565.103330 13.000000
565.156920 1000.000000

>ms2peaks
445.101560 15.000000
445.130400 8.000000
457.110990 10.000000
469.113430 12.000000
481.110020 11.000000
499.133850 13.000000
511.125310 9.000000
529.123900 7.000000
529.143310 19.000000
530.143250 6.000000
547.140620 132.000000
547.166200 44.000000
548.152040 36.000000
565.083010 5.000000
565.109010 10.000000
565.156310 1000.000000

>ms2peaks
85.026050 21.000000
86.032880 6.000000
103.038490 5.000000
121.027610 9.000000
145.026700 21.000000
201.058330 8.000000
203.383590 6.000000
208.963880 11.000000
211.205000 9.000000
223.298250 11.000000
231.462300 9.000000
235.541820 6.000000
253.214370 11.000000
255.037140 12.000000
261.428990 17.000000
275.195160 7.000000
276.873930 11.000000
281.840580 13.000000
283.065030 8.000000
292.073910 10.000000
294.054930 33.000000
295.035800 9.000000
295.057800 153.000000
295.075500 56.000000
296.070590 7.000000
297.063320 10.000000
300.677250 7.000000
307.041290 22.000000
307.064030 179.000000
308.068570 41.000000
309.079500 40.000000
311.050110 12.000000
312.062160 7.000000
312.217070 5.000000
313.056820 6.000000
313.069980 7.000000
314.078090 6.000000
318.999880 6.000000
319.059660 5.000000
319.071040 9.000000
320.068700 6.000000
320.086330 9.000000
321.057460 10.000000
321.081970 21.000000
322.040800 11.000000
322.081390 9.000000
322.092590 14.000000
323.052310 19.000000
323.069890 9.000000
323.092070 6.000000
324.531890 6.000000
325.051450 53.000000
325.075840 430.000000
325.708130 6.000000
326.024410 7.000000
326.063750 28.000000
326.077700 133.000000
327.060060 7.000000
327.077210 18.000000
328.080290 5.000000
333.077510 36.000000
333.368010 5.000000
335.055970 25.000000
335.082310 28.000000
335.090210 12.000000
335.107760 23.000000
336.048220 13.000000
336.705080 5.000000
337.071560 299.000000
338.070430 67.000000
338.090300 25.000000
338.238680 13.000000
339.070740 8.000000
339.088320 6.000000
341.818240 6.000000
343.088990 13.000000
343.109280 6.000000
344.117710 6.000000
346.096130 13.000000
347.096340 30.000000
348.076630 19.000000
348.090240 7.000000
348.114040 15.000000
348.965060 5.000000
349.035680 19.000000
349.071470 279.000000
349.090210 42.000000
350.064640 36.000000
350.076020 67.000000
351.059660 13.000000
351.078580 35.000000
351.094570 67.000000
351.135470 7.000000
352.076260 8.000000
353.003420 7.000000
353.070800 9.000000
355.075990 62.000000
355.086060 110.000000
356.078550 23.000000
357.119540 11.000000
360.006990 8.000000
361.069640 146.000000
361.109340 8.000000
361.969700 6.000000
362.068630 18.000000
362.978000 8.000000
363.087400 41.000000
363.096590 16.000000
364.084380 19.000000
365.079620 16.000000
365.092070 33.000000
365.114040 7.000000
366.106170 16.000000
367.064480 13.000000
367.081090 27.000000
367.097930 10.000000
368.079990 12.000000
369.711880 7.000000
371.684540 5.000000
373.054660 13.000000
373.081970 18.000000
373.101930 6.000000
374.027800 6.000000
374.087010 9.000000
375.093050 52.000000
376.086940 26.000000
376.101930 21.000000
377.072690 20.000000
377.093350 7.000000
378.104160 8.000000
379.022430 7.000000
379.035340 7.000000
379.083650 1000.000000
379.126280 6.000000
379.204040 9.000000
379.981380 7.000000
380.086790 271.000000
380.116490 8.000000
381.013980 7.000000
381.090180 51.000000
381.496610 6.000000
381.513460 6.000000
383.050510 7.000000
384.094180 12.000000
385.051360 16.000000
385.073670 21.000000
385.091250 43.000000
386.060880 8.000000
387.101230 7.000000
389.069820 22.000000
389.092100 17.000000
389.107060 21.000000
391.082340 176.000000
391.104830 22.000000
391.129330 7.000000
391.399630 7.000000
391.699340 5.000000
392.066680 14.000000
392.087010 75.000000
392.110530 9.000000
392.721370 6.000000
393.084260 9.000000
394.075010 9.000000
394.101010 14.000000
394.118710 12.000000
395.071780 7.000000
395.083340 16.000000
395.096830 16.000000
395.269780 6.000000
397.094600 458.000000
398.084690 29.000000
398.100620 58.000000
398.565310 7.000000
399.095490 29.000000
400.070710 6.000000
400.099430 8.000000
400.114930 9.000000
400.780880 8.000000
401.099820 7.000000
401.116360 21.000000
402.107300 9.000000
402.328580 11.000000
403.041170 12.000000
403.066860 72.000000
403.083220 132.000000
403.097470 72.000000
403.153630 6.000000
404.005000 7.000000
404.062990 7.000000
404.082000 45.000000
404.106450 24.000000
405.039520 17.000000
405.067660 21.000000
405.094850 33.000000
405.117030 6.000000
406.088780 7.000000
406.126710 9.000000
406.700560 6.000000
407.103000 11.000000
408.919100 8.000000
409.094940 260.000000
410.002530 8.000000
410.099700 70.000000
411.075410 9.000000
411.102690 13.000000
412.476320 14.000000
414.559390 7.000000
415.050990 10.000000
415.073030 17.000000
415.106900 29.000000
416.070040 5.000000
416.099180 19.000000
416.963290 5.000000
417.099330 12.000000
419.042940 6.000000
419.100400 26.000000
419.112850 30.000000
420.111540 16.000000
420.140780 11.000000
420.811130 6.000000
421.067960 8.000000
421.094640 149.000000
421.128450 11.000000
422.090300 52.000000
422.114170 13.000000
423.071530 8.000000
423.099880 6.000000
424.113190 7.000000
426.563230 9.000000
427.060270 10.000000
427.091130 103.000000
427.106630 101.000000
427.122620 48.000000
428.067140 14.000000
428.090610 7.000000
428.114620 30.000000
428.129490 18.000000
429.082210 33.000000
429.101810 52.000000
429.120030 13.000000
431.090090 6.000000
433.013670 8.000000
433.058350 42.000000
433.085330 149.000000
433.099490 190.000000
434.044280 7.000000
434.069920 11.000000
434.095610 76.000000
434.110690 28.000000
434.958220 6.000000
435.087520 24.000000
435.136260 6.000000
437.125670 11.000000
437.397740 8.000000
439.106930 132.000000
440.102020 6.000000
440.114590 12.000000
441.108310 6.000000
442.080600 9.000000
445.077300 83.000000
445.097230 153.000000
445.121580 29.000000
446.067290 9.000000
446.091890 38.000000
446.112700 16.000000
447.071620 10.000000
447.087620 19.000000
447.109860 19.000000
447.151820 6.000000
448.125340 8.000000
449.096860 11.000000
451.033660 8.000000
451.086700 61.000000
451.107730 103.000000
451.164030 9.000000
452.105530 48.000000
452.124940 16.000000
453.003020 14.000000
453.113310 5.000000
454.115420 8.000000
456.382630 6.000000
456.770900 6.000000
457.096770 132.000000
457.134280 27.000000
458.077090 8.000000
458.099150 64.000000
459.079860 16.000000
459.100460 7.000000
459.209930 5.000000
462.663940 6.000000
463.103640 33.000000
464.103300 10.000000
464.130740 18.000000
465.103210 6.000000
465.112550 12.000000
466.151550 12.000000
468.120240 7.000000
469.075530 12.000000
469.110930 83.000000
470.109250 20.000000
475.079500 32.000000
475.106320 127.000000
475.148930 5.000000
476.093440 28.000000
477.112490 7.000000
477.131260 5.000000
477.219450 6.000000
481.113560 22.000000
481.131900 11.000000
483.116820 11.000000
483.146000 6.000000
493.093840 23.000000
493.117610 116.000000
493.137480 21.000000
494.089450 6.000000
494.125670 11.000000
494.148590 6.000000
494.225860 5.000000
495.118870 26.000000
495.140810 5.000000
500.038480 6.000000
508.965760 11.000000
511.080230 8.000000
511.134830 93.000000
512.068420 7.000000
512.101260 12.000000
512.119080 13.000000
512.143310 8.000000
513.129330 9.000000
529.109560 8.000000
529.127320 11.000000
529.146610 13.000000
530.124510 22.000000
530.147030 9.000000
534.740970 6.000000
548.147220 8.000000
558.235900 8.000000

>ms2peaks
55.019170 16.000000
69.034640 10.000000
86.032150 16.000000
93.030010 11.000000
108.054810 19.000000
109.020290 16.000000
109.026790 20.000000
119.053550 32.000000
120.059140 10.000000
121.028920 203.000000
122.028980 18.000000
122.037360 18.000000
125.031390 11.000000
126.360880 17.000000
128.062850 16.000000
133.056950 11.000000
135.647840 19.000000
145.022710 20.000000
145.032270 27.000000
145.063960 13.000000
147.045520 46.000000
149.021450 36.000000
150.028030 13.000000
154.211960 17.000000
161.027020 33.000000
161.068940 13.000000
163.045070 67.000000
165.022190 16.000000
171.042910 37.000000
173.018370 37.000000
174.027530 11.000000
175.034680 12.000000
176.009000 14.000000
176.056870 11.000000
177.006230 42.000000
177.020550 57.000000
177.054470 27.000000
178.010700 18.000000
178.025090 11.000000
178.998320 11.000000
179.037660 16.000000
179.149440 17.000000
184.086010 16.000000
186.338070 9.000000
186.597890 14.000000
187.049640 27.000000
187.916760 12.000000
188.086400 11.000000
189.015150 201.000000
189.032210 36.000000
189.050770 23.000000
190.028150 35.000000
190.041790 17.000000
191.033280 58.000000
199.017010 28.000000
199.027660 11.000000
199.045210 68.000000
201.004870 11.000000
201.064530 11.000000
201.086790 10.000000
201.202910 12.000000
202.019900 31.000000
202.031780 18.000000
203.027770 14.000000
203.035870 18.000000
203.045470 13.000000
204.035050 62.000000
205.036510 46.000000
207.029880 16.000000
208.661300 9.000000
209.050980 25.000000
209.075450 9.000000
211.044660 11.000000
213.019100 15.000000
214.024780 15.000000
214.046860 14.000000
214.998080 13.000000
215.026250 73.000000
215.041560 56.000000
216.044750 13.000000
217.050030 27.000000
217.184540 12.000000
219.010420 18.000000
219.033400 31.000000
219.057370 11.000000
221.052490 10.000000
222.067700 13.000000
223.036930 16.000000
224.835850 11.000000
225.055300 48.000000
227.024810 17.000000
227.034240 12.000000
227.081630 21.000000
228.049180 25.000000
229.040210 9.000000
229.061830 10.000000
230.283650 18.000000
231.030690 27.000000
231.082350 13.000000
233.063340 11.000000
234.084370 14.000000
236.048540 11.000000
236.080600 13.000000
236.312410 13.000000
236.723010 21.000000
237.025380 18.000000
237.043640 10.000000
238.067610 14.000000
239.028560 18.000000
240.065600 14.000000
241.028760 18.000000
241.041760 12.000000
242.997070 10.000000
243.021580 26.000000
243.031340 71.000000
243.058290 13.000000
245.033130 18.000000
246.363250 11.000000
247.456390 11.000000
249.061660 19.000000
250.183730 10.000000
251.028560 10.000000
251.061890 11.000000
251.088440 24.000000
251.979310 12.000000
252.077730 26.000000
252.089810 12.000000
253.040080 32.000000
255.029050 79.000000
255.055980 16.000000
256.026980 11.000000
257.018340 32.000000
258.021640 12.000000
258.054570 12.000000
260.063660 11.000000
260.083770 14.000000
260.099910 14.000000
261.051090 11.000000
262.999450 12.000000
263.076690 17.000000
265.020660 19.000000
265.040800 17.000000
265.078980 19.000000
266.030730 9.000000
266.060240 22.000000
267.030210 34.000000
267.043000 21.000000
267.065980 38.000000
267.088170 13.000000
268.033910 24.000000
268.194610 16.000000
269.089570 20.000000
270.444610 14.000000
271.046660 9.000000
271.059420 18.000000
271.083980 15.000000
272.035520 16.000000
273.024750 9.000000
273.092160 15.000000
274.074340 16.000000
276.070100 10.000000
277.088130 18.000000
279.023900 12.000000
279.051850 23.000000
279.065120 45.000000
279.077210 29.000000
279.859530 17.000000
280.060970 11.000000
280.084630 20.000000
281.035640 12.000000
281.058620 28.000000
281.085630 80.000000
282.046720 12.000000
282.076260 24.000000
283.040770 20.000000
283.052150 37.000000
285.039180 12.000000
285.053590 14.000000
289.044130 11.000000
289.113560 17.000000
291.046940 16.000000
291.077580 13.000000
293.007840 23.000000
293.047670 30.000000
293.060420 16.000000
293.113430 11.000000
294.008940 16.000000
294.050630 311.000000
294.070160 72.000000
294.088990 14.000000
295.058620 1000.000000
295.095950 23.000000
295.712070 10.000000
296.044860 13.000000
296.060240 43.000000
296.070010 136.000000
296.088070 35.000000
297.049160 21.000000
297.073300 177.000000
297.095610 16.000000
298.073460 11.000000
298.094480 16.000000
299.027890 25.000000
299.099550 12.000000
302.098940 10.000000
303.051940 20.000000
305.088410 32.000000
305.409330 11.000000
306.057950 12.000000
306.080320 11.000000
306.807530 11.000000
307.014590 39.000000
307.042420 63.000000
307.055730 167.000000
307.069610 223.000000
307.092990 51.000000
307.329250 13.000000
308.036320 10.000000
308.055150 162.000000
308.066380 207.000000
308.090180 12.000000
308.298800 12.000000
309.018310 16.000000
309.028440 19.000000
309.047880 45.000000
309.075350 136.000000
309.097050 69.000000
310.035310 12.000000
310.057680 14.000000
310.082400 46.000000
311.053470 19.000000
311.103330 33.000000
312.064480 9.000000
313.043430 16.000000
313.073180 29.000000
313.722110 16.000000
314.055080 35.000000
316.915920 9.000000
317.078550 19.000000
317.094300 34.000000
317.106350 9.000000
317.516570 17.000000
318.080810 31.000000
318.842290 11.000000
319.047730 138.000000
319.073240 62.000000
320.043820 39.000000
320.056920 71.000000
320.089510 19.000000
320.363130 12.000000
321.073550 468.000000
321.087070 116.000000
321.410130 14.000000
322.039730 69.000000
322.079560 209.000000
322.101650 27.000000
323.010250 12.000000
323.043060 21.000000
323.061740 13.000000
323.089750 177.000000
324.068510 13.000000
324.112370 20.000000
325.046260 28.000000
325.061220 159.000000
325.071810 403.000000
325.084720 266.000000
326.020660 10.000000
326.056210 19.000000
326.071900 39.000000
326.097350 11.000000
327.064580 12.000000
327.090450 13.000000
329.083190 41.000000
331.039580 14.000000
331.079320 31.000000
331.087800 17.000000
332.083160 19.000000
333.048800 50.000000
333.080690 124.000000
334.065980 11.000000
334.080050 26.000000
334.096950 13.000000
335.059510 13.000000
335.074710 47.000000
335.086490 25.000000
335.104830 32.000000
336.070860 104.000000
336.096860 27.000000
337.044710 36.000000
337.069150 338.000000
337.102910 67.000000
338.052950 14.000000
338.067260 30.000000
338.082790 66.000000
339.065920 9.000000
339.089630 24.000000
341.059600 13.000000
342.102110 9.000000
343.091800 30.000000
344.068970 13.000000
345.052890 11.000000
345.075320 61.000000
345.093320 46.000000
346.065890 26.000000
346.097870 37.000000
347.037600 14.000000
347.054290 13.000000
347.082090 16.000000
347.091830 46.000000
347.108400 23.000000
348.043700 17.000000
348.105380 28.000000
348.119050 17.000000
349.045780 39.000000
349.071530 123.000000
349.083160 43.000000
349.111940 12.000000
350.047390 14.000000
350.073090 30.000000
350.108000 28.000000
350.201510 11.000000
350.976260 10.000000
351.079560 166.000000
351.095090 254.000000
352.094570 56.000000
353.077270 9.000000
357.029510 11.000000
357.051090 25.000000
357.080570 18.000000
358.085660 31.000000
359.056850 10.000000
359.078860 16.000000
359.089540 16.000000
359.112490 23.000000
360.109070 21.000000
361.015530 14.000000
361.057310 94.000000
361.088290 33.000000
362.075990 70.000000
363.071720 12.000000
363.088290 90.000000
364.062290 11.000000
364.086360 15.000000
365.056150 30.000000
365.093690 66.000000
366.110500 20.000000
367.071900 52.000000
367.105740 12.000000
368.074710 9.000000
368.098210 16.000000
370.079740 13.000000
371.054410 20.000000
371.115260 11.000000
372.090180 14.000000
373.035610 13.000000
373.061830 22.000000
373.099210 23.000000
374.011930 14.000000
374.048070 13.000000
374.075130 36.000000
374.090640 29.000000
375.066930 33.000000
375.084840 125.000000
375.110200 16.000000
377.056490 12.000000
377.095550 58.000000
379.057310 39.000000
379.075160 95.000000
379.089360 32.000000
379.108280 26.000000
379.228420 11.000000
380.069850 99.000000
384.117890 14.000000
387.076840 16.000000
387.095060 16.000000
388.063170 11.000000
389.085330 25.000000
389.102290 9.000000
391.050960 12.000000
391.073330 43.000000
392.082550 11.000000
392.100010 12.000000
393.078400 31.000000
394.102540 13.000000
396.109410 21.000000
399.083310 22.000000
400.098080 24.000000
401.066530 17.000000
401.077910 14.000000
401.103300 10.000000
401.121150 32.000000
401.313780 12.000000
403.080020 48.000000
403.098270 17.000000
405.109830 15.000000
409.081480 11.000000
409.102360 11.000000
415.073730 39.000000
415.098270 16.000000
416.087310 24.000000
424.121340 14.000000
426.075320 14.000000
427.101960 38.000000
428.090390 23.000000
433.103060 28.000000
444.472020 9.000000
445.092800 24.000000
565.160030 35.000000

