>compound PR38583402
>parentmass 436.2115
>ionization [M+H]+
>formula C18H33N3O7S
>rt 274.800000
>profile qtof
#smiles_iso CCCCCCCC(O)SCC(C(=O)NCC(=O)O)NC(=O)CCC(C(=O)O)N
#smiles_can CCCCCCCC(O)SCC(C(=O)NCC(=O)O)NC(=O)CCC(C(=O)O)N
#inchikey APSYQIWGNKNOQE-UHFFFAOYSA-N
#pubchem_id 139291781
#mb_accession PR310787

>ms2peaks
85.014220 17.000000
107.084360 20.000000
112.045200 21.000000
115.126220 28.000000
130.052490 17.000000
144.016020 17.000000
146.009750 17.000000
153.130490 28.000000
159.082600 49.000000
161.097960 21.000000
162.019560 93.000000
162.029160 40.000000
162.106660 18.000000
177.027650 20.000000
186.130910 38.000000
187.117450 17.000000
290.133760 112.000000
290.159580 39.000000
291.153630 20.000000
296.691890 20.000000
307.150730 17.000000
307.168730 76.000000
307.184270 20.000000
362.174800 17.000000
436.212430 239.000000

