>compound PR38174363
>parentmass 497.1961
>ionization [M+H]+
>formula C26H28N2O8
>rt 316.200000
>profile qtof
#smiles_iso C=CC1C2CC3C4=NC5=CC=CC=C5C=C4CN3C(=O)C2=COC1OC6C(C(C(C(O6)CO)O)O)O
#smiles_can C=CC1C2CC3C4=NC5=CC=CC=C5C=C4CN3C(=O)C2=COC1OC6C(C(C(C(O6)CO)O)O)O
#inchikey BNDDTTIRGZIQSE-UHFFFAOYSA-N
#pubchem_id 2989
#mb_accession PR311103

>ms2
71.051330 17.000000
97.028650 40.000000
107.050400 16.000000
113.238890 16.000000
120.051760 17.000000
121.068570 29.000000
122.055250 24.000000
142.054820 34.000000
142.064760 289.000000
142.076130 29.000000
143.068390 63.000000
143.078540 21.000000
145.057080 26.000000
149.064300 21.000000
149.070080 16.000000
149.495380 28.000000
150.064960 51.000000
158.058090 32.000000
163.870590 16.000000
169.053020 17.000000
169.077410 1340.000000
170.038790 21.000000
170.081130 201.000000
170.947010 19.000000
171.083620 34.000000
171.094180 16.000000
178.140590 24.000000
181.074770 17.000000
182.084530 43.000000
183.090480 16.000000
194.096410 19.000000
195.104030 16.000000
205.071910 16.000000
206.081120 16.000000
211.088170 27.000000
217.234070 21.000000
219.087540 16.000000
219.100920 41.000000
221.103410 16.000000
222.631900 20.000000
227.071350 20.000000
235.092470 36.000000
236.090840 17.000000
237.104370 20.000000
244.106200 17.000000
247.059270 20.000000
247.088390 602.000000
248.076720 17.000000
248.085040 60.000000
250.713550 16.000000
259.161470 23.000000
261.102630 16.000000
262.096890 35.000000
263.067380 17.000000
263.077240 16.000000
264.085690 48.000000
264.113530 16.000000
264.672790 16.000000
265.029140 17.000000
265.098850 5463.000000
265.218900 16.000000
265.602080 30.000000
266.103060 908.000000
267.099270 92.000000
267.115690 60.000000
271.127990 34.000000
274.116520 16.000000
274.133360 20.000000
275.107570 21.000000
279.824220 16.000000
284.919620 17.000000
287.127960 34.000000
288.127200 16.000000
289.137360 37.000000
290.365690 18.000000
299.116760 20.000000
300.178250 16.000000
307.140660 57.000000
310.150570 16.000000
314.766300 29.000000
317.129120 574.000000
317.159300 16.000000
317.206760 17.000000
318.122100 19.000000
318.140620 19.000000
318.779360 16.000000
319.133850 19.000000
330.990630 19.000000
335.099520 18.000000
335.124910 325.000000
335.139280 1312.000000
336.116760 18.000000
336.145230 389.000000
337.133580 34.000000
337.150540 16.000000
338.271030 16.000000
366.913060 16.000000
380.033750 17.000000
418.069920 16.000000
434.948580 26.000000
487.785460 18.000000
488.613980 16.000000
491.232150 24.000000
496.301700 17.000000
496.689540 16.000000
496.739320 17.000000
497.137790 49.000000
497.190520 11687.000000

