>compound PR38575124
>parentmass 871.4688
>ionization [M-H2O+H]+
>formula C44H72O18
>rt 268.800000
>profile qtof
#smiles_iso CC1C2C(CC3C2(CCC4C3CC=C5C4(C(CC(C5)O)OC6C(C(C(CO6)O)O)OC7C(C(C(C(O7)C)O)O)O)C)C)OC1(CCC(C)COC8C(C(C(C(O8)CO)O)O)O)O
#smiles_can CC1C2C(CC3C2(CCC4C3CC=C5C4(C(CC(C5)O)OC6C(C(C(CO6)O)O)OC7C(C(C(C(O7)C)O)O)O)C)C)OC1(CCC(C)COC8C(C(C(C(O8)CO)O)O)O)O
#inchikey HWYCRLFVQVFKPD-UHFFFAOYSA-N
#pubchem_id 4979367
#mb_accession PR310704

>ms2peaks
71.049360 17.000000
73.029250 17.000000
79.047360 33.000000
81.197340 16.000000
83.542880 21.000000
85.013790 17.000000
85.022170 36.000000
85.029230 210.000000
95.089340 36.000000
98.618450 20.000000
101.047710 35.000000
108.437170 26.000000
109.058170 17.000000
109.066800 26.000000
110.064900 17.000000
111.035450 16.000000
111.045530 18.000000
115.033770 23.000000
115.038500 16.000000
115.046680 27.000000
115.077930 60.000000
116.083230 20.000000
116.580030 16.000000
117.056820 29.000000
117.070880 16.000000
121.061810 18.000000
121.104000 20.000000
125.055050 28.000000
126.088300 27.000000
126.389510 16.000000
127.116540 24.000000
129.054570 417.000000
129.386180 19.000000
130.057170 23.000000
131.084120 16.000000
133.048310 52.000000
133.085780 23.000000
133.730070 27.000000
137.139690 20.000000
137.788830 17.000000
139.040820 16.000000
139.069810 47.000000
139.074520 16.000000
140.536060 16.000000
143.077380 20.000000
144.312190 31.000000
145.053070 125.000000
145.121350 23.000000
147.064300 359.000000
147.112520 17.000000
147.118450 35.000000
148.062840 21.000000
148.186940 16.000000
149.143300 61.000000
150.128520 19.000000
151.083010 17.000000
151.105770 16.000000
151.113980 21.000000
152.047900 38.000000
153.124680 17.000000
159.115890 18.000000
160.113130 51.000000
161.133620 46.000000
163.057720 34.000000
163.110080 41.000000
163.120470 17.000000
165.062870 16.000000
167.106290 319.000000
168.111720 47.000000
169.053470 21.000000
169.104680 76.000000
169.118120 17.000000
169.134170 25.000000
171.068410 45.000000
171.121950 111.000000
173.886670 37.000000
177.429570 18.000000
178.128690 24.000000
179.069430 22.000000
181.055020 25.000000
181.115710 79.000000
181.161500 21.000000
183.106460 24.000000
183.114700 20.000000
185.135650 28.000000
185.303560 17.000000
186.651250 24.000000
187.110150 50.000000
189.128220 16.000000
191.111880 23.000000
195.069950 17.000000
195.117740 43.000000
197.138110 18.000000
198.129290 18.000000
199.149550 23.000000
199.159070 21.000000
200.152130 37.000000
201.161830 17.000000
207.050640 20.000000
207.065050 18.000000
207.079190 65.000000
209.127640 16.000000
211.154600 18.000000
212.058610 39.000000
213.152510 24.000000
214.169390 20.000000
217.070470 17.000000
223.608410 32.000000
225.060030 19.000000
225.078810 20.000000
225.152300 35.000000
225.165210 78.000000
226.221940 30.000000
227.154050 20.000000
229.104390 20.000000
229.155690 20.000000
229.183400 44.000000
231.084580 47.000000
231.799360 16.000000
233.115780 16.000000
236.121730 22.000000
237.065320 18.000000
237.167190 17.000000
239.130330 18.000000
241.191740 97.000000
242.192670 25.000000
242.217000 22.000000
243.086650 54.000000
243.096630 35.000000
243.108700 18.000000
245.146380 20.000000
247.140870 30.000000
249.125670 17.000000
250.028850 20.000000
250.157140 18.000000
251.138320 23.000000
251.167720 226.000000
251.175600 581.000000
251.184970 535.000000
251.201200 61.000000
251.249910 18.000000
251.781250 17.000000
251.968770 18.000000
252.018420 30.000000
252.165280 21.000000
252.181640 191.000000
252.197420 35.000000
253.155750 21.000000
253.195210 68.000000
253.209180 68.000000
255.087800 63.000000
255.169360 21.000000
259.394170 17.000000
261.085820 38.000000
261.094090 39.000000
261.107270 21.000000
267.169890 81.000000
269.029880 17.000000
269.116120 18.000000
269.145230 35.000000
269.191010 2839.000000
269.241330 16.000000
270.187230 271.000000
270.198150 354.000000
270.229370 16.000000
271.166600 20.000000
271.185360 16.000000
271.206050 88.000000
271.215240 59.000000
272.201540 98.000000
272.215120 29.000000
273.093900 18.000000
273.145320 20.000000
273.170470 16.000000
276.350950 29.000000
277.103850 18.000000
278.078060 32.000000
279.101320 38.000000
279.121860 16.000000
279.203460 17.000000
279.217220 16.000000
279.494350 19.000000
280.110260 26.000000
280.221680 26.000000
281.186100 18.000000
281.210880 33.000000
281.222900 33.000000
282.114320 22.000000
282.226010 33.000000
282.234530 46.000000
285.187650 18.000000
287.155150 20.000000
287.168330 20.000000
287.185760 215.000000
287.203030 2083.000000
288.204100 615.000000
289.169190 20.000000
289.199100 96.000000
289.213990 52.000000
290.211240 28.000000
295.111940 17.000000
295.147430 26.000000
295.854340 43.000000
297.182740 16.000000
297.224330 23.000000
298.192290 16.000000
298.213900 16.000000
299.237300 64.000000
299.250060 19.000000
299.264220 21.000000
300.240260 20.000000
300.253880 49.000000
304.180970 32.000000
305.215940 16.000000
312.234380 16.000000
314.161070 18.000000
315.599090 16.000000
317.210690 18.000000
318.982480 36.000000
326.924840 16.000000
329.260040 39.000000
329.271180 28.000000
340.815030 34.000000
341.217560 28.000000
347.202510 66.000000
352.291690 49.000000
359.278960 18.000000
359.290620 17.000000
361.540040 31.000000
363.266600 18.000000
365.217590 44.000000
366.215360 52.000000
375.270970 23.000000
376.265470 18.000000
377.287450 140.000000
379.213380 16.000000
379.229550 16.000000
383.176670 17.000000
383.209080 17.000000
383.225070 50.000000
384.194760 20.000000
384.221650 49.000000
384.287080 21.000000
385.222290 16.000000
386.270170 21.000000
390.242740 41.000000
393.275450 18.000000
395.237850 20.000000
395.274260 42.000000
395.291530 173.000000
395.310030 37.000000
396.285490 19.000000
396.304470 80.000000
397.243770 41.000000
397.333250 19.000000
398.247680 16.000000
398.259950 23.000000
401.209170 85.000000
401.234100 66.000000
402.173580 21.000000
402.222990 33.000000
402.240230 18.000000
403.270110 16.000000
407.244870 30.000000
409.101230 16.000000
413.302490 687.000000
414.287540 37.000000
414.310580 33.000000
414.324980 16.000000
415.233460 35.000000
415.264920 28.000000
415.308560 65.000000
416.242770 30.000000
416.293490 16.000000
419.219880 57.000000
419.240880 297.000000
419.266600 85.000000
420.189760 17.000000
420.238100 144.000000
420.259980 45.000000
421.246980 17.000000
421.263670 23.000000
424.708830 24.000000
427.270540 18.000000
427.291780 22.000000
428.287660 21.000000
430.853060 18.000000
431.251800 20.000000
431.285680 50.000000
431.304930 178.000000
431.321690 290.000000
432.301730 50.000000
432.320830 153.000000
432.332790 42.000000
433.244380 100.000000
433.259860 29.000000
433.280880 28.000000
433.314760 16.000000
433.329900 20.000000
434.252660 60.000000
434.329590 16.000000
467.324950 18.000000
468.337280 16.000000
473.341430 17.000000
476.253330 17.000000
480.219330 22.000000
484.909090 24.000000
485.909180 18.000000
498.382350 20.000000
502.516270 24.000000
506.049930 21.000000
507.184330 18.000000
511.601560 27.000000
521.304020 25.000000
524.334290 21.000000
524.363710 16.000000
527.351680 18.000000
528.360780 34.000000
529.247010 27.000000
529.314270 17.000000
540.514710 32.000000
541.362980 49.000000
543.365720 22.000000
545.339360 89.000000
545.386540 28.000000
545.404600 16.000000
545.461980 24.000000
546.355530 22.000000
546.547180 17.000000
547.284300 39.000000
548.274170 42.000000
548.333070 16.000000
549.304810 38.000000
550.145940 24.000000
557.369080 16.000000
557.396060 20.000000
559.348750 35.000000
559.377260 41.000000
560.344480 20.000000
561.376400 23.000000
563.302920 17.000000
563.333250 38.000000
563.363590 121.000000
563.380070 92.000000
564.351070 48.000000
564.369140 88.000000
564.388920 82.000000
565.254520 44.000000
565.294680 239.000000
565.315250 207.000000
566.267820 38.000000
566.293580 92.000000
566.320680 34.000000
567.308530 83.000000
575.328740 17.000000
575.360960 52.000000
576.366580 41.000000
577.349300 18.000000
577.372560 17.000000
578.346500 17.000000
582.299990 16.000000
584.385620 16.000000
584.466740 20.000000
593.343870 32.000000
593.365050 34.000000
593.390260 18.000000
593.413210 23.000000
594.341310 33.000000
594.374690 18.000000
602.355350 17.000000
608.457580 36.000000
608.987920 21.000000
615.483460 47.000000
615.836980 20.000000
625.374940 24.000000
640.352840 29.000000
652.390200 18.000000
658.377440 30.000000
660.087160 22.000000
662.642210 20.000000
663.155700 16.000000
689.379210 16.000000
691.418150 18.000000
693.350100 17.000000
704.438110 24.000000
706.685180 29.000000
708.388920 16.000000
709.140690 16.000000
709.325990 41.000000
709.386110 355.000000
709.413390 1087.000000
709.451480 170.000000
709.533140 16.000000
710.387270 139.000000
710.424320 616.000000
710.487370 17.000000
711.365840 16.000000
711.410950 61.000000
711.449160 36.000000
712.423650 23.000000
725.445740 33.000000
726.335140 29.000000
726.360530 22.000000
727.353640 17.000000
739.447140 18.000000
740.425660 39.000000
752.428890 16.000000
761.464660 20.000000
762.770140 24.000000
798.687320 18.000000
832.306090 59.000000
835.438780 52.000000
836.483890 17.000000
843.170650 20.000000
854.489440 16.000000
856.756470 18.000000
860.469850 16.000000
870.753110 16.000000
871.055110 17.000000
871.292910 81.000000
871.352600 147.000000
871.390500 138.000000
871.469850 15713.000000
871.637570 20.000000

