>compound PR38301655
>parentmass 249.14852100000002
>ionization [M+H]+
>formula C15H20O3
>rt 474.763020
>profile qtof
#smiles_iso CC1=C2C[C@H]3C(=C)CCC[C@@]3(C[C@@]2(OC1=O)O)C
#smiles_can CC1=C2CC3C(=C)CCCC3(CC2(OC1=O)O)C
#inchikey FBMORZZOJSDNRQ-GLQYFDAESA-N
#pubchem_id 155948
#mb_accession PR303495,PR303496,PR303497,PR303498,PR303499,PR303500,PR303501,PR303502,PR303503,PR303504

>ms2
69.071690 9.000000
77.033520 8.000000
79.051640 11.000000
79.056340 5.000000
81.070240 10.000000
91.056860 24.000000
92.748370 5.000000
93.068000 17.000000
95.088100 12.000000
97.061210 6.000000
103.056220 14.000000
104.057310 5.000000
105.069540 61.000000
105.080510 8.000000
106.067090 6.000000
107.042970 7.000000
107.048000 10.000000
107.086430 27.000000
109.066030 9.000000
115.052510 6.000000
117.065620 8.000000
119.085010 43.000000
121.062060 22.000000
124.081660 5.000000
128.066380 11.000000
129.071470 13.000000
131.080000 10.000000
133.103700 17.000000
135.044650 69.000000
137.055630 7.000000
142.082340 13.000000
143.082820 8.000000
143.091430 13.000000
146.101490 6.000000
147.045620 10.000000
147.079480 21.000000
147.113800 11.000000
149.061130 80.000000
151.068880 12.000000
151.083160 5.000000
155.078350 6.000000
156.092850 13.000000
157.091200 22.000000
157.100780 12.000000
158.108470 6.000000
159.120300 42.000000
160.128910 13.000000
161.043730 6.000000
161.061940 87.000000
161.101470 10.000000
161.134750 11.000000
162.064180 19.000000
163.070600 91.000000
163.078160 106.000000
164.075040 5.000000
164.084230 10.000000
165.948550 7.000000
171.121580 6.000000
173.334430 7.000000
174.995290 8.000000
175.071090 45.000000
175.077330 24.000000
175.109660 14.000000
175.148060 7.000000
176.076230 7.000000
176.153090 5.000000
177.081880 6.000000
180.098480 5.000000
185.081860 5.000000
185.101320 8.000000
185.134280 50.000000
186.127060 5.000000
186.135190 16.000000
188.121490 9.000000
189.090390 75.000000
189.102050 23.000000
189.128040 14.000000
190.094500 16.000000
195.120610 10.000000
203.145720 52.000000
203.153640 13.000000
213.132520 42.000000
214.131060 6.000000
231.138290 1000.000000
232.138280 119.000000
232.153090 18.000000
233.134690 16.000000
233.147090 10.000000
249.148380 227.000000

>ms2
149.057800 10.000000
161.058320 5.000000
163.074520 31.000000
175.076660 5.000000
189.088760 15.000000
203.146960 20.000000
231.138410 1000.000000
232.141800 194.000000
233.142150 21.000000
249.149520 310.000000

>ms2
67.055980 73.000000
69.071280 47.000000
77.042540 49.000000
78.262860 37.000000
79.055780 340.000000
81.071170 103.000000
91.047820 67.000000
91.054720 159.000000
91.059650 119.000000
92.057140 39.000000
93.070690 198.000000
93.076890 34.000000
94.066800 35.000000
95.083640 239.000000
103.055800 52.000000
103.060180 52.000000
104.055470 37.000000
105.067390 550.000000
105.075020 144.000000
107.050000 362.000000
107.086070 216.000000
108.083440 47.000000
108.089000 35.000000
115.052380 84.000000
115.057980 30.000000
116.061760 50.000000
117.070660 289.000000
118.081470 84.000000
118.837810 43.000000
119.074910 32.000000
119.085970 194.000000
119.989740 37.000000
120.089730 37.000000
121.063030 235.000000
121.090870 37.000000
123.050830 32.000000
123.078130 63.000000
128.062330 151.000000
129.071230 360.000000
131.078290 62.000000
131.083760 82.000000
132.085160 45.000000
133.064070 104.000000
133.104160 75.000000
135.046490 289.000000
135.077960 134.000000
136.083440 39.000000
137.058640 34.000000
138.708110 34.000000
141.065860 144.000000
142.072650 104.000000
142.082110 82.000000
143.088500 34.000000
143.095180 50.000000
144.090470 101.000000
144.094620 39.000000
145.058990 35.000000
145.094770 69.000000
145.103300 37.000000
146.071470 37.000000
147.075970 37.000000
147.110210 101.000000
149.068600 121.000000
150.059220 114.000000
152.083450 69.000000
155.086930 181.000000
157.096630 159.000000
157.103740 160.000000
158.069600 34.000000
158.100600 34.000000
158.111710 35.000000
158.119380 37.000000
159.072240 97.000000
159.081010 134.000000
159.103780 32.000000
159.113390 65.000000
159.123640 90.000000
160.090710 43.000000
161.060410 362.000000
161.093870 209.000000
161.140840 34.000000
162.067210 99.000000
162.094470 34.000000
163.075010 1000.000000
164.078920 34.000000
165.069400 134.000000
170.098910 39.000000
170.109480 93.000000
171.111920 103.000000
173.099400 142.000000
175.078290 183.000000
177.090850 41.000000
179.078260 62.000000
180.087600 39.000000
183.079330 41.000000
183.104720 41.000000
184.085940 47.000000
185.128220 32.000000
185.135330 65.000000
185.145370 37.000000
186.542600 32.000000
187.108690 121.000000
188.118880 76.000000
189.093200 183.000000
189.125900 82.000000
190.137410 37.000000
203.140990 47.000000
213.131410 90.000000
231.141800 34.000000

>ms2
76.987730 162.000000
77.042920 121.000000
79.050870 116.000000
79.058980 145.000000
91.056590 1000.000000
92.056290 133.000000
93.070620 145.000000
93.075880 312.000000
103.056790 139.000000
105.069310 382.000000
115.057530 116.000000
116.058530 179.000000
117.067770 127.000000
119.085400 145.000000
121.067830 150.000000
128.065020 358.000000
129.072970 121.000000
131.051250 249.000000
132.091740 116.000000
133.069520 98.000000
141.067780 116.000000
142.073820 104.000000
144.087710 191.000000
183.080250 145.000000

>ms2
67.681340 7.000000
69.073810 9.000000
77.037750 9.000000
79.051400 8.000000
81.072580 7.000000
91.053490 26.000000
95.081940 10.000000
105.070980 34.000000
106.071850 9.000000
107.045420 7.000000
107.050060 13.000000
107.088380 21.000000
115.063100 6.000000
117.070960 12.000000
119.090370 10.000000
123.047080 9.000000
130.072220 13.000000
131.076050 7.000000
131.084460 14.000000
131.092390 6.000000
133.071320 15.000000
133.101260 11.000000
134.111950 6.000000
135.044240 62.000000
142.076580 17.000000
143.084870 8.000000
145.099210 17.000000
147.045120 13.000000
147.085490 9.000000
148.081480 8.000000
149.059910 39.000000
156.097640 16.000000
157.100230 24.000000
158.109280 5.000000
159.114200 45.000000
161.058940 51.000000
161.095550 11.000000
161.134200 31.000000
162.058240 10.000000
162.134220 6.000000
163.063340 20.000000
163.076310 124.000000
164.076740 9.000000
165.098010 6.000000
170.108630 8.000000
171.083860 13.000000
171.111500 10.000000
175.076660 76.000000
175.148960 7.000000
176.076070 15.000000
185.122410 16.000000
185.132290 68.000000
189.090650 32.000000
189.102100 9.000000
189.122510 8.000000
190.089830 13.000000
195.120380 10.000000
203.096480 7.000000
203.143130 38.000000
204.148510 11.000000
205.157530 5.000000
213.129170 69.000000
231.138890 1000.000000
232.140870 146.000000
233.149140 14.000000
249.147090 180.000000

>ms2
149.060260 10.000000
161.061070 6.000000
161.135070 6.000000
163.067860 15.000000
163.076220 15.000000
175.076390 6.000000
189.088790 7.000000
203.141360 16.000000
213.128330 17.000000
231.137740 1000.000000
232.141080 151.000000
233.144940 18.000000
249.148860 256.000000

>ms2
69.071350 26.000000
77.038700 11.000000
79.055020 25.000000
81.032810 5.000000
83.088960 6.000000
91.056930 25.000000
93.070680 22.000000
93.075110 7.000000
95.084650 11.000000
95.090710 10.000000
105.062930 16.000000
105.069750 22.000000
107.046030 15.000000
107.053400 13.000000
107.071510 5.000000
107.085170 13.000000
109.046790 6.000000
109.069630 14.000000
111.078900 6.000000
117.070350 40.000000
119.081570 20.000000
119.088890 8.000000
120.087110 10.000000
121.063210 23.000000
123.029430 7.000000
123.083000 10.000000
125.061550 6.000000
128.064060 5.000000
129.071030 19.000000
133.071060 7.000000
133.101810 8.000000
134.072480 20.000000
135.031110 6.000000
135.041240 33.000000
135.049840 23.000000
135.081820 11.000000
139.076520 8.000000
142.081940 12.000000
143.084080 35.000000
143.096590 7.000000
145.098540 17.000000
147.083080 19.000000
149.059420 61.000000
151.076640 8.000000
153.070540 5.000000
154.079210 12.000000
157.095730 19.000000
158.105240 18.000000
158.118680 7.000000
159.115140 47.000000
160.125400 14.000000
161.057890 67.000000
161.089650 8.000000
161.134110 49.000000
162.057160 6.000000
162.063310 10.000000
163.073470 168.000000
164.076350 31.000000
173.102140 9.000000
174.071700 5.000000
175.071850 99.000000
175.114110 9.000000
183.115630 9.000000
185.094960 8.000000
185.128910 41.000000
185.137190 27.000000
186.134830 9.000000
187.112990 8.000000
187.146270 9.000000
187.155270 7.000000
188.149770 7.000000
189.090580 86.000000
189.117430 9.000000
189.128420 9.000000
190.092540 11.000000
195.112660 10.000000
196.117690 6.000000
203.139340 67.000000
203.146770 23.000000
204.138290 10.000000
213.130390 39.000000
214.118030 5.000000
228.814000 6.000000
231.137420 1000.000000
232.109600 11.000000
232.137360 72.000000
232.145360 126.000000
233.148280 36.000000
234.139100 8.000000
249.151630 147.000000

>ms2
135.046070 5.000000
149.060680 9.000000
161.059780 8.000000
161.138400 5.000000
163.074970 38.000000
185.131790 7.000000
189.085040 7.000000
203.139690 15.000000
231.138310 1000.000000
232.141460 181.000000
233.143630 13.000000
249.148710 308.000000

>ms2
53.030210 30.000000
53.038690 25.000000
67.048700 92.000000
67.053760 21.000000
69.034250 35.000000
69.055250 59.000000
69.069730 136.000000
69.076680 48.000000
70.074320 34.000000
71.609570 28.000000
77.036110 169.000000
79.051070 151.000000
79.057160 61.000000
79.063360 28.000000
81.066410 34.000000
81.070960 56.000000
83.012700 81.000000
83.085340 38.000000
91.042730 56.000000
91.047860 123.000000
91.056160 267.000000
92.057580 44.000000
93.068920 473.000000
95.043880 24.000000
95.048450 38.000000
95.057210 25.000000
95.073520 28.000000
95.083500 45.000000
95.089850 72.000000
96.087230 78.000000
97.063160 28.000000
103.049490 69.000000
103.060160 24.000000
104.063990 28.000000
105.055560 24.000000
105.069490 671.000000
106.070090 95.000000
106.078060 61.000000
106.743310 35.000000
107.050740 281.000000
107.082400 215.000000
109.060400 38.000000
109.067440 34.000000
115.050000 81.000000
116.057440 24.000000
117.062510 92.000000
117.071470 123.000000
118.072160 24.000000
119.050260 28.000000
119.083690 314.000000
119.093130 76.000000
119.101200 47.000000
120.092220 58.000000
121.057250 52.000000
121.064020 123.000000
121.070500 47.000000
123.042190 151.000000
125.054260 31.000000
125.886250 35.000000
127.050800 42.000000
128.048900 47.000000
128.066100 25.000000
128.273770 24.000000
129.063050 112.000000
130.079850 45.000000
130.088070 27.000000
131.047700 64.000000
131.090870 148.000000
133.055130 37.000000
133.063980 140.000000
133.071430 24.000000
133.097370 172.000000
133.107600 56.000000
135.045060 123.000000
135.078110 31.000000
137.064210 27.000000
141.072510 71.000000
142.058260 30.000000
142.073100 72.000000
142.080380 73.000000
143.069730 27.000000
143.084780 418.000000
143.910430 24.000000
144.087140 59.000000
145.060060 62.000000
145.085660 30.000000
145.099260 129.000000
145.108550 24.000000
146.103500 24.000000
147.042560 31.000000
147.078890 164.000000
148.090500 47.000000
149.048190 40.000000
149.060850 362.000000
149.092060 59.000000
150.040480 65.000000
150.045440 28.000000
150.061070 25.000000
150.100430 34.000000
151.108670 28.000000
153.068190 24.000000
155.073640 28.000000
155.086550 34.000000
156.090670 24.000000
156.101070 49.000000
157.068940 30.000000
157.100360 95.000000
158.107670 35.000000
159.113010 61.000000
161.061340 395.000000
161.095310 95.000000
161.132570 51.000000
162.067020 75.000000
162.075670 40.000000
162.094920 35.000000
162.116730 32.000000
163.074840 1000.000000
163.797780 25.000000
164.064190 30.000000
164.071790 82.000000
164.078770 107.000000
165.063890 45.000000
165.082050 25.000000
166.082180 71.000000
167.079210 35.000000
168.731080 24.000000
169.102620 25.000000
170.105590 52.000000
171.086010 42.000000
171.106920 40.000000
171.116120 32.000000
173.095090 66.000000
174.097050 58.000000
174.902760 24.000000
175.057560 25.000000
175.070850 42.000000
175.078740 174.000000
175.110290 25.000000
175.143340 30.000000
175.897370 34.000000
178.096940 32.000000
179.089450 24.000000
180.089810 25.000000
181.075060 31.000000
181.088760 41.000000
181.104600 32.000000
183.060010 30.000000
185.100750 24.000000
185.126100 88.000000
185.136980 30.000000
186.138870 35.000000
187.107250 32.000000
188.086780 38.000000
188.114850 25.000000
188.122590 24.000000
189.089690 144.000000
190.089430 86.000000
190.147430 40.000000

>ms2
65.034530 174.000000
65.041940 126.000000
77.039170 500.000000
78.051790 78.000000
79.053830 478.000000
91.053500 817.000000
93.071720 335.000000
94.071500 87.000000
96.054760 104.000000
103.046360 117.000000
103.052640 157.000000
105.069220 1000.000000
105.078260 152.000000
105.110750 74.000000
106.073870 104.000000
107.087940 104.000000
109.062180 87.000000
115.057210 91.000000
115.062870 104.000000
116.063420 257.000000
119.082060 74.000000
121.063780 196.000000
128.055270 261.000000
128.068240 287.000000
129.073410 78.000000
134.073040 87.000000
135.043520 130.000000
135.076000 148.000000
141.062320 139.000000
141.068480 109.000000
141.074890 96.000000
142.078870 243.000000
145.099440 78.000000
145.111130 117.000000
146.072130 104.000000
147.042630 100.000000
153.075840 209.000000
155.079970 91.000000
155.087480 187.000000
156.096300 78.000000
168.062680 87.000000
169.092470 165.000000
170.110140 87.000000

