>compound PR38145494
>parentmass 743.202
>ionization [M+H]+
>formula C32H38O20
>rt 219.000000
>profile qtof
#smiles_iso CC1C(C(C(C(O1)OCC2C(C(C(C(O2)OC3=C(OC4=CC(=CC(=C4C3=O)O)O)C5=CC(=C(C=C5)O)O)OC6C(C(C(CO6)O)O)O)O)O)O)O)O
#smiles_can CC1C(C(C(C(O1)OCC2C(C(C(C(O2)OC3=C(OC4=CC(=CC(=C4C3=O)O)O)C5=CC(=C(C=C5)O)O)OC6C(C(C(CO6)O)O)O)O)O)O)O)O
#inchikey RLTNQOUWXZXZCS-UHFFFAOYSA-N
#pubchem_id 5859848
#mb_accession PR310931

>ms2
127.067160 18.000000
139.046220 16.000000
145.048000 22.000000
161.050160 16.000000
178.733640 17.000000
255.082410 16.000000
261.101900 19.000000
273.036620 40.000000
279.114110 79.000000
302.794100 20.000000
303.011140 38.000000
303.051790 951.000000
303.122500 17.000000
304.052610 186.000000
304.078250 32.000000
305.064150 28.000000
309.126800 16.000000
327.918820 16.000000
465.085630 17.000000
465.111330 38.000000
466.105650 54.000000
598.136350 17.000000
611.121580 26.000000
611.160520 145.000000
612.176090 16.000000
614.172550 17.000000
743.176330 42.000000
743.199950 78.000000
743.225100 75.000000

