>compound PR38670860
>parentmass 179.0702706
>ionization [M+H]+
>formula C10H10O3
>rt 361.653960
>profile qtof
#smiles_iso COC1=CC=CC(=C1)/C=C/C(=O)O
#smiles_can COC1=CC=CC(=C1)C=CC(=O)O
#inchikey LZPNXAULYJPXEH-AATRIKPKSA-N
#pubchem_id 637668
#mb_accession PR302215,PR302220,PR302225,PR302230,PR302235,PR302240,PR302245,PR302250,PR302255,PR302260,PR302265,PR302270

>ms2
92.056630 59.000000
99.969960 65.000000
131.542680 62.000000
133.064830 302.000000
134.887820 72.000000
161.058110 1000.000000
162.066730 53.000000

>ms2
133.070100 27.000000
139.983860 20.000000
147.042480 45.000000
161.059100 1000.000000
162.057390 27.000000
162.066990 56.000000
163.068910 30.000000
179.067210 156.000000
179.079900 57.000000
179.099880 23.000000

>ms2
75.020460 179.000000
118.034610 255.000000
118.045950 1000.000000

>ms2
90.046910 1000.000000

>ms2
89.093950 132.000000
98.958850 129.000000
102.049710 84.000000
103.058680 77.000000
119.044300 108.000000
133.052310 77.000000
133.063490 425.000000
133.078050 87.000000
137.961060 178.000000
160.048870 66.000000
161.052600 265.000000
161.060470 1000.000000
162.051030 188.000000
162.072340 77.000000
177.064160 94.000000
178.062440 101.000000

>ms2
133.065890 21.000000
134.067320 11.000000
135.023730 30.000000
136.947040 18.000000
137.054870 27.000000
139.828120 13.000000
161.026810 33.000000
161.059220 1000.000000
161.837360 12.000000
162.063750 66.000000
163.068210 12.000000
165.029500 11.000000
178.058670 29.000000
179.060780 24.000000

>ms2
75.024300 564.000000
77.039190 509.000000
79.053540 418.000000
89.042300 909.000000
90.041510 1000.000000
91.049740 618.000000
104.053670 436.000000
118.046850 509.000000

>ms2
90.043000 1000.000000

>ms2
105.068880 27.000000
110.734220 42.000000
118.037330 61.000000
118.044140 114.000000
133.047560 36.000000
133.057330 51.000000
133.062450 129.000000
135.030320 25.000000
161.018840 30.000000
161.061220 1000.000000
162.059340 145.000000

>ms2
97.953250 15.000000
137.955260 21.000000
140.995420 28.000000
150.819310 38.000000
160.707470 15.000000
161.059590 1000.000000
162.062380 108.000000
163.066160 19.000000
177.057890 36.000000
178.993210 16.000000
179.058200 20.000000
179.067290 18.000000
179.078280 20.000000

>ms2
89.036720 1000.000000
103.051880 333.000000
118.036120 526.000000
119.045310 368.000000
133.065080 561.000000

>ms2
90.048990 1000.000000

