>compound PR39085114
>parentmass 409.1385
>ionization [M+H]+
>formula C22H20N2O6
>rt 324.000000
>profile qtof
#smiles_iso CCC(C1=C(C(=O)N2CC3=CC4=CC=CC=C4N=C3C2=C1)COC(=O)C)(C(=O)O)O
#smiles_can CCC(C1=C(C(=O)N2CC3=CC4=CC=CC=C4N=C3C2=C1)COC(=O)C)(C(=O)O)O
#inchikey ZXQLECPLGKEUQV-UHFFFAOYSA-N
#pubchem_id 77986559
#mb_accession PR311100

>ms2peaks
183.847270 17.000000
183.974700 22.000000
217.084230 19.000000
218.089160 16.000000
219.085450 18.000000
219.160290 19.000000
219.550840 23.000000
220.090590 18.000000
220.103910 43.000000
221.100720 96.000000
221.112430 19.000000
224.287990 46.000000
230.098790 22.000000
232.093030 17.000000
232.120910 21.000000
233.113510 27.000000
238.742570 16.000000
244.100010 112.000000
245.095890 21.000000
247.039960 30.000000
247.086590 18.000000
247.093220 41.000000
247.123810 32.000000
247.146090 17.000000
248.094590 34.000000
249.099350 17.000000
252.112960 18.000000
256.101260 16.000000
257.100830 17.000000
257.130680 20.000000
258.089600 20.000000
259.111330 33.000000
259.126220 69.000000
260.105500 16.000000
261.092220 18.000000
261.102750 16.000000
263.067500 17.000000
268.109560 21.000000
270.116700 17.000000
272.101960 42.000000
275.059300 16.000000
275.080510 51.000000
275.103270 26.000000
275.118590 182.000000
276.108180 37.000000
276.126220 33.000000
277.109680 32.000000
277.131500 72.000000
278.131380 18.000000
284.091520 35.000000
285.095400 60.000000
286.102540 35.000000
287.081730 21.000000
287.120090 426.000000
287.141450 16.000000
288.096010 17.000000
288.114200 48.000000
288.127110 34.000000
289.100620 16.000000
289.121670 21.000000
290.103580 21.000000
291.118800 21.000000
293.273380 27.000000
303.085110 23.000000
303.112670 1829.000000
304.105010 121.000000
304.115880 191.000000
304.132050 103.000000
305.123810 164.000000
305.140200 55.000000
305.149350 21.000000
310.478490 23.000000
321.114930 20.000000
331.087520 21.000000
331.116580 56.000000
334.896360 22.000000
335.702090 34.000000
347.104520 21.000000
349.115660 1032.000000
349.141270 32.000000
350.106840 65.000000
350.130160 255.000000
352.208920 20.000000
409.136170 811.000000

