>compound PR39301156
>parentmass 167.0562
>ionization [M+H]+
>formula C6H14OS2
>rt 375.600000
>profile qtof
#smiles_iso CCCSS(=O)CCC
#smiles_can CCCSS(=O)CCC
#inchikey XPRZAEWSYWTDSQ-UHFFFAOYSA-N
#pubchem_id 74761
#mb_accession PR311163

>ms2peaks
73.009300 116.000000
73.012730 211.000000
73.095830 17.000000
75.004680 26.000000
78.968440 33.000000
78.973810 41.000000
80.967470 24.000000
94.968590 16.000000
95.030460 19.000000
96.953190 16.000000
106.993320 52.000000
106.999890 73.000000
107.994460 17.000000
108.005790 18.000000
109.013930 22.000000
125.013170 194.000000
128.928020 16.000000
128.945860 20.000000
167.059830 243.000000

