>compound PR40987424
>parentmass 325.1432
>ionization [M+H]+
>formula C20H20O4
>rt 535.800000
>profile qtof
#smiles_iso CC(=CCC1=C(C=CC(=C1O)C(=O)C=CC2=CC=C(C=C2)O)O)C
#smiles_can CC(=CCC1=C(C=CC(=C1O)C(=O)C=CC2=CC=C(C=C2)O)O)C
#inchikey DUWPGRAKHMEPCM-UHFFFAOYSA-N
#pubchem_id 193568
#mb_accession PR310776

>ms2
58.335350 24.000000
119.045680 25.000000
120.058830 22.000000
121.026710 19.000000
131.016330 69.000000
148.997440 18.000000
149.022170 1519.000000
149.040730 20.000000
150.029420 83.000000
151.025760 17.000000
199.102140 20.000000
205.074200 23.000000
205.086400 39.000000
225.047960 20.000000
225.087970 25.000000
228.062670 18.000000
236.952640 17.000000
241.050090 18.000000
253.101180 28.000000
269.080230 539.000000
270.066770 20.000000
270.088680 78.000000
271.079380 17.000000
312.257930 28.000000
325.140010 794.000000
325.165440 69.000000
325.294620 20.000000

