>compound PR40814489
>parentmass 943.5260921000001
>ionization [M+H]+
>formula C48H78O18
>rt 425.572980
>profile qtof
#smiles_iso C[C@H]1[C@@H]([C@H]([C@H]([C@@H](O1)O[C@@H]2[C@H]([C@H]([C@H](O[C@H]2O[C@@H]3[C@H]([C@@H]([C@H](O[C@H]3O[C@H]4CC[C@]5([C@H]([C@@]4(C)CO)CC[C@@]6([C@@H]5CC=C7[C@]6(CC[C@@]8([C@H]7CC(C[C@H]8O)(C)C)C)C)C)C)C(=O)O)O)O)CO)O)O)O)O)O
#smiles_can CC1C(C(C(C(O1)OC2C(C(C(OC2OC3C(C(C(OC3OC4CCC5(C(C4(C)CO)CCC6(C5CC=C7C6(CCC8(C7CC(CC8O)(C)C)C)C)C)C)C(=O)O)O)O)CO)O)O)O)O)O
#inchikey PTDAHAWQAGSZDD-IOVCITQVSA-N
#pubchem_id 122097
#mb_accession PR304291,PR304295,PR304299,PR304303,PR304307,PR304311,PR304317,PR304319,PR304322,PR304326,PR304330

>ms2
109.102920 9.000000
129.057280 15.000000
141.019360 14.000000
147.065520 32.000000
159.026400 17.000000
163.059590 31.000000
163.146580 7.000000
177.162410 15.000000
189.161500 15.000000
193.165080 6.000000
195.176760 15.000000
201.165390 6.000000
203.180730 37.000000
205.160600 7.000000
207.176480 11.000000
215.177640 9.000000
215.192350 6.000000
217.193700 42.000000
219.176100 19.000000
221.189360 7.000000
231.181520 6.000000
233.194840 9.000000
245.193920 8.000000
247.207640 15.000000
248.208450 6.000000
261.231930 7.000000
269.056430 5.000000
287.072880 9.000000
287.084530 6.000000
287.242000 6.000000
297.253750 6.000000
305.065460 6.000000
305.083250 11.000000
309.116550 24.000000
309.130770 5.000000
315.267330 14.000000
323.082950 6.000000
323.100650 28.000000
329.277980 5.000000
339.095060 13.000000
365.313200 7.000000
383.332460 11.000000
383.344670 6.000000
384.327480 5.000000
405.346770 15.000000
405.364960 17.000000
406.334500 6.000000
423.362580 330.000000
424.365880 110.000000
425.360020 12.000000
425.374050 24.000000
441.318270 8.000000
441.372100 423.000000
442.375640 125.000000
443.373200 14.000000
443.395810 6.000000
459.356290 5.000000
459.381620 26.000000
460.395480 7.000000
485.153630 6.000000
581.361270 10.000000
581.387210 13.000000
581.406740 14.000000
582.389400 17.000000
599.338440 7.000000
599.396730 207.000000
600.401730 62.000000
600.418330 19.000000
601.411800 14.000000
605.412230 8.000000
605.440980 31.000000
606.439090 11.000000
607.459660 5.000000
617.405150 74.000000
618.403630 37.000000
619.418400 6.000000
635.420170 77.000000
636.430480 15.000000
637.426510 13.000000
781.451780 17.000000
781.484130 15.000000
782.482420 12.000000
783.498600 5.000000
797.465520 145.000000
798.471250 77.000000
799.483400 9.000000
800.470210 6.000000
943.524900 1000.000000

>ms2
441.370150 5.000000
617.400940 12.000000
635.411320 11.000000
635.430730 6.000000
781.475830 8.000000
797.461060 21.000000
943.435730 12.000000
943.522950 1000.000000
943.584170 9.000000

>ms2
85.023410 13.000000
85.027760 27.000000
95.086140 6.000000
109.099140 6.000000
111.045620 13.000000
129.054000 49.000000
135.120360 7.000000
141.017140 37.000000
145.046170 10.000000
147.065720 60.000000
159.029710 45.000000
159.067080 7.000000
159.116700 5.000000
163.059420 66.000000
164.066470 7.000000
165.073320 7.000000
177.035740 16.000000
177.043950 9.000000
177.158950 24.000000
177.172380 14.000000
188.155090 5.000000
189.164140 7.000000
191.179490 12.000000
193.153370 11.000000
195.171040 16.000000
196.180800 5.000000
201.166630 17.000000
203.180210 39.000000
204.179490 5.000000
205.165160 9.000000
207.155620 7.000000
207.180590 7.000000
208.176350 8.000000
215.176930 20.000000
217.190830 26.000000
217.200290 20.000000
219.179120 8.000000
220.181610 6.000000
221.173030 5.000000
221.186040 19.000000
221.198840 12.000000
229.194690 9.000000
231.213180 7.000000
233.200390 6.000000
243.217040 5.000000
245.193210 21.000000
247.203610 37.000000
257.224820 7.000000
261.216920 6.000000
269.058110 5.000000
269.069340 8.000000
273.095150 16.000000
287.077390 17.000000
291.105100 10.000000
301.246950 9.000000
305.082370 25.000000
305.095280 29.000000
306.080020 6.000000
309.113710 39.000000
309.126680 9.000000
315.267000 20.000000
316.274540 12.000000
321.083220 20.000000
323.099090 33.000000
323.116730 6.000000
325.186310 5.000000
339.074160 5.000000
339.086610 7.000000
351.184170 17.000000
365.193730 8.000000
365.312740 17.000000
365.331240 13.000000
379.209930 9.000000
383.330630 27.000000
384.333280 7.000000
395.380160 5.000000
403.209660 6.000000
405.332890 29.000000
405.351590 47.000000
406.354160 22.000000
407.344150 6.000000
407.376980 5.000000
411.358800 10.000000
423.314090 5.000000
423.362730 667.000000
424.364290 206.000000
424.378390 70.000000
425.372680 37.000000
441.372680 1000.000000
442.374240 333.000000
443.376890 48.000000
459.371770 10.000000
460.387570 6.000000
551.421510 5.000000
570.423400 6.000000
581.381590 39.000000
582.372500 12.000000
582.391480 29.000000
599.306150 6.000000
599.336240 7.000000
599.393680 313.000000
600.390690 48.000000
600.415160 53.000000
601.404300 10.000000
605.448360 6.000000
617.372250 6.000000
617.397770 29.000000
617.423710 17.000000
635.409730 13.000000
636.414180 5.000000
797.430420 8.000000
797.453060 11.000000
797.482790 23.000000
798.485960 25.000000

>ms2
67.368340 14.000000
69.034580 13.000000
69.060790 10.000000
71.035830 10.000000
71.049400 134.000000
71.711460 18.000000
73.029240 11.000000
75.043060 34.000000
75.050370 11.000000
75.522680 11.000000
81.068050 32.000000
82.073840 35.000000
83.049160 53.000000
84.089580 11.000000
85.014430 19.000000
85.028550 341.000000
87.032820 9.000000
88.051610 17.000000
90.374430 9.000000
91.039190 22.000000
93.067410 21.000000
95.086650 270.000000
97.030010 113.000000
97.063970 29.000000
97.100670 34.000000
97.622180 12.000000
99.034740 9.000000
99.040950 9.000000
99.077500 12.000000
101.023140 11.000000
101.062600 14.000000
101.683270 9.000000
105.052080 10.000000
105.066220 25.000000
105.073570 19.000000
106.067560 11.000000
107.086050 147.000000
108.089780 10.000000
109.027460 10.000000
109.100940 391.000000
109.113010 13.000000
109.658580 10.000000
110.105080 22.000000
111.044530 39.000000
111.051700 9.000000
111.079740 94.000000
111.088290 10.000000
111.998180 9.000000
113.001640 18.000000
113.020790 21.000000
113.027450 12.000000
119.081820 39.000000
119.087740 47.000000
119.662960 10.000000
121.099020 121.000000
122.095640 11.000000
122.111930 14.000000
123.009580 28.000000
123.092380 13.000000
123.107020 10.000000
123.116870 146.000000
124.116160 13.000000
124.123630 10.000000
125.095570 21.000000
125.128100 9.000000
127.030590 9.000000
127.040280 43.000000
127.111350 9.000000
129.039900 10.000000
129.054990 401.000000
129.067980 10.000000
129.338210 12.000000
130.057690 53.000000
131.092450 33.000000
133.086520 21.000000
133.101970 139.000000
134.103650 39.000000
134.116900 12.000000
135.116520 279.000000
136.120420 26.000000
136.125030 11.000000
137.100660 12.000000
137.127110 21.000000
137.133000 46.000000
137.141850 10.000000
138.092530 11.000000
139.038940 11.000000
139.109090 101.000000
139.380070 10.000000
140.121340 11.000000
141.018080 876.000000
142.022490 32.000000
142.566440 10.000000
145.047060 61.000000
145.054110 22.000000
145.098300 46.000000
145.109650 9.000000
145.701310 10.000000
147.043720 12.000000
147.065110 101.000000
147.115260 127.000000
147.122990 90.000000
148.060560 9.000000
148.068020 10.000000
148.078080 16.000000
148.117770 12.000000
148.129820 13.000000
149.132030 315.000000
150.136140 49.000000
150.144380 11.000000
150.791900 9.000000
151.106840 13.000000
151.116270 12.000000
151.144880 20.000000
151.154080 13.000000
152.110660 21.000000
152.121020 11.000000
152.136960 9.000000
153.130540 9.000000
153.138090 11.000000
157.047130 9.000000
157.052930 11.000000
158.100360 16.000000
159.029750 336.000000
159.066620 13.000000
159.112200 80.000000
159.121810 30.000000
160.038790 10.000000
160.119710 11.000000
160.126480 19.000000
160.493940 10.000000
161.101650 9.000000
161.131360 250.000000
162.135600 10.000000
162.141830 19.000000
163.058790 130.000000
163.098190 14.000000
163.105360 10.000000
163.120450 12.000000
163.131480 13.000000
163.149440 303.000000
164.067210 13.000000
164.147200 9.000000
164.153690 11.000000
165.011470 10.000000
165.021240 10.000000
165.063640 11.000000
165.109450 11.000000
165.125110 53.000000
165.134050 45.000000
165.155320 25.000000
166.132540 10.000000
167.143280 38.000000
169.097020 9.000000
171.051320 11.000000
171.066730 20.000000
171.075350 10.000000
171.110340 44.000000
171.124450 11.000000
172.071700 14.000000
172.120710 10.000000
173.044450 20.000000
173.092060 13.000000
173.127610 67.000000
173.138260 56.000000
174.042450 10.000000
174.134050 19.000000
174.538940 14.000000
175.147130 419.000000
176.150730 37.000000
176.159680 10.000000
176.436780 11.000000
177.027570 26.000000
177.041470 66.000000
177.058590 15.000000
177.125900 21.000000
177.143040 15.000000
177.161850 412.000000
178.041470 20.000000
178.167940 42.000000
179.141420 30.000000
179.183690 40.000000
180.179090 11.000000
183.028700 12.000000
183.056980 13.000000
183.092610 11.000000
185.129440 11.000000
186.737900 9.000000
187.107220 9.000000
187.147810 280.000000
188.146530 21.000000
188.158810 25.000000
189.163380 444.000000
190.167890 104.000000
191.141600 53.000000
191.173900 114.000000
191.182400 104.000000
192.185350 9.000000
193.157810 137.000000
193.203120 10.000000
194.161160 57.000000
194.182160 9.000000
195.171540 141.000000
195.184110 24.000000
196.181980 18.000000
199.065920 11.000000
199.139420 31.000000
201.146960 9.000000
201.163730 233.000000
201.180300 27.000000
202.169450 69.000000
203.135820 30.000000
203.151580 10.000000
203.179920 967.000000
203.249790 18.000000
203.379440 11.000000
203.426710 10.000000
204.146000 11.000000
204.153780 13.000000
204.167830 29.000000
204.184050 106.000000
205.131010 14.000000
205.160110 73.000000
205.196120 87.000000
206.164470 20.000000
206.194210 36.000000
207.170150 106.000000
207.181610 78.000000
207.208600 9.000000
208.173110 29.000000
208.187480 21.000000
208.872280 10.000000
209.057250 10.000000
209.085220 10.000000
209.180650 10.000000
211.143450 30.000000
212.150150 10.000000
212.813080 9.000000
213.072190 23.000000
213.160980 42.000000
214.038470 11.000000
214.177350 36.000000
215.123870 11.000000
215.134430 11.000000
215.148700 20.000000
215.179430 313.000000
216.061460 9.000000
216.181320 86.000000
216.211690 11.000000
217.151410 26.000000
217.194580 576.000000
217.213030 19.000000
218.198090 87.000000
219.113100 9.000000
219.158600 18.000000
219.174970 336.000000
219.200930 9.000000
219.218960 9.000000
220.180660 97.000000
220.217040 20.000000
221.183330 86.000000
221.193500 121.000000
221.208250 9.000000
222.195570 33.000000
223.058700 19.000000
223.066190 23.000000
223.202450 32.000000
226.452580 9.000000
227.139850 11.000000
227.172160 39.000000
227.184770 67.000000
228.178210 22.000000
228.192550 11.000000
229.025210 14.000000
229.194810 419.000000
230.196040 36.000000
230.204710 39.000000
230.305590 9.000000
231.020690 11.000000
231.162700 10.000000
231.176900 32.000000
231.194560 9.000000
231.212830 41.000000
231.225520 11.000000
232.215230 13.000000
233.052570 11.000000
233.165410 9.000000
233.189640 142.000000
233.207570 18.000000
234.191410 9.000000
235.191350 14.000000
235.204790 19.000000
236.197250 12.000000
241.077320 9.000000
241.175810 11.000000
241.195450 43.000000
243.052750 13.000000
243.209670 181.000000
244.217480 41.000000
244.377060 12.000000
244.717860 11.000000
245.168030 9.000000
245.190200 88.000000
245.206600 14.000000
246.171880 9.000000
246.192110 20.000000
247.135740 12.000000
247.191570 45.000000
247.207660 245.000000
247.231690 11.000000
248.212270 65.000000
248.695680 10.000000
249.180680 11.000000
251.174450 10.000000
252.096330 10.000000
253.181780 12.000000
253.196490 11.000000
253.207920 9.000000
254.203000 21.000000
254.214220 11.000000
255.041410 9.000000
255.077210 20.000000
255.197490 28.000000
255.213990 104.000000
256.094120 15.000000
256.211240 24.000000
256.969600 10.000000
257.182890 9.000000
257.203950 18.000000
257.222200 59.000000
257.231900 80.000000
258.206020 13.000000
258.222720 11.000000
258.242030 23.000000
259.076570 21.000000
259.201750 20.000000
259.214540 50.000000
259.243740 11.000000
259.801760 9.000000
261.069980 10.000000
261.222410 125.000000
262.234470 25.000000
263.216980 10.000000
265.235990 9.000000
267.211910 20.000000
267.972350 9.000000
268.213680 12.000000
268.230470 9.000000
269.039550 10.000000
269.061980 14.000000
269.216770 38.000000
269.228610 85.000000
270.211430 9.000000
270.222470 10.000000
271.203770 10.000000
271.218140 10.000000
271.233640 51.000000
271.252590 29.000000
272.209050 45.000000
272.249510 11.000000
273.184750 11.000000
273.219570 67.000000
273.231810 36.000000
273.886900 11.000000
274.229220 10.000000
275.222810 17.000000
275.237610 102.000000
275.793550 10.000000
276.250000 10.000000
277.161190 16.000000
278.252870 9.000000
278.976620 11.000000
280.150180 9.000000
281.226140 22.000000
281.409180 11.000000
282.234220 11.000000
282.243530 9.000000
283.239200 44.000000
283.250210 65.000000
284.244660 19.000000
285.061830 12.000000
285.219300 28.000000
285.227910 10.000000
285.254240 46.000000
287.081850 13.000000
287.192500 10.000000
287.233830 37.000000
287.247160 22.000000
289.251340 14.000000
295.229980 18.000000
295.241000 25.000000
295.628780 11.000000
296.249510 10.000000
297.254090 81.000000
297.922180 11.000000
298.251190 21.000000
298.272030 18.000000
299.233150 11.000000
299.265870 10.000000
300.248020 44.000000
301.256260 29.000000
302.292210 20.000000
305.092680 31.000000
305.127380 10.000000
306.092560 11.000000
309.126980 9.000000
309.258360 18.000000
310.117310 10.000000
310.260350 20.000000
311.267210 59.000000
311.276700 19.000000
312.280330 22.000000
313.252560 71.000000
315.036500 10.000000
315.162140 10.000000
315.249080 13.000000
315.267490 42.000000
315.313350 18.000000
315.569090 10.000000
316.244780 10.000000
316.271480 21.000000
323.233550 19.000000
323.270320 9.000000
325.150390 10.000000
325.278440 9.000000
325.310730 10.000000
327.267060 9.000000
329.184630 10.000000
329.271940 37.000000
329.285160 88.000000
330.285580 16.000000
333.938020 9.000000
335.267270 18.000000
339.012210 16.000000
339.262050 11.000000
339.308040 10.000000
341.039580 9.000000
343.289830 11.000000
351.169400 22.000000
351.300900 10.000000
352.175870 10.000000
352.299770 13.000000
353.185850 13.000000
355.298890 10.000000
361.191350 13.000000
362.304140 9.000000
363.295500 16.000000
364.312560 36.000000
365.078800 10.000000
365.265230 13.000000
365.311610 45.000000
365.324280 125.000000
366.239290 13.000000
366.322080 76.000000
366.737400 10.000000
367.297970 19.000000
367.345180 18.000000
368.331480 9.000000
369.312740 107.000000
369.845030 9.000000
371.289610 10.000000
375.799350 11.000000
377.307250 10.000000
379.202330 10.000000
379.323030 10.000000
379.513400 10.000000
380.315370 11.000000
381.297640 23.000000
381.324490 10.000000
382.318330 10.000000
383.317960 45.000000
383.334780 57.000000
383.362000 9.000000
384.318940 10.000000
384.343080 10.000000
391.203770 14.000000
391.228240 10.000000
391.347600 12.000000
393.354640 20.000000
395.372890 28.000000
405.225040 10.000000
405.352840 265.000000
405.374630 25.000000
406.339200 10.000000
406.359220 95.000000
407.360290 25.000000
411.364200 63.000000
411.381840 9.000000
411.898800 14.000000
412.371340 33.000000
415.855470 10.000000
421.348570 9.000000
423.324310 21.000000
423.361720 1000.000000
423.399900 10.000000
423.990260 9.000000
424.323460 20.000000
424.368290 411.000000
424.395840 22.000000
425.339870 10.000000
425.364350 26.000000
426.355650 11.000000
431.321870 14.000000
431.335850 13.000000
435.307400 12.000000
435.349610 9.000000
436.383450 10.000000
438.327820 10.000000
441.360470 57.000000
441.379430 168.000000
441.420720 11.000000
442.383640 91.000000
443.379390 11.000000
451.346160 16.000000
453.380830 10.000000
462.936740 11.000000
493.351070 9.000000
528.332090 13.000000
538.885990 21.000000
545.351260 21.000000
554.399900 11.000000
563.383910 9.000000
581.380000 21.000000
582.398560 33.000000
583.398620 10.000000
599.405640 28.000000
600.417360 25.000000
604.323300 12.000000
679.703250 11.000000
797.472530 9.000000
799.785640 9.000000
943.530940 9.000000

>ms2
129.053050 14.000000
141.019060 10.000000
147.062480 13.000000
149.131090 8.000000
159.021160 5.000000
159.029430 6.000000
163.061650 34.000000
163.146820 8.000000
175.149810 16.000000
177.037030 12.000000
177.163540 9.000000
189.163740 11.000000
189.170040 5.000000
195.178560 8.000000
201.163480 7.000000
203.170990 6.000000
203.181550 18.000000
203.192580 5.000000
205.154480 7.000000
205.173550 5.000000
207.176670 9.000000
215.175740 7.000000
215.186370 12.000000
217.195540 29.000000
218.195360 8.000000
219.169080 6.000000
221.188320 9.000000
233.189820 10.000000
235.207670 5.000000
243.196500 5.000000
245.187930 6.000000
245.232850 6.000000
247.212170 12.000000
261.225340 7.000000
273.090910 7.000000
287.078490 7.000000
305.085240 19.000000
305.096650 7.000000
309.116760 20.000000
313.259980 8.000000
323.098480 24.000000
323.112920 7.000000
339.093020 5.000000
339.106960 6.000000
365.319000 10.000000
383.333590 19.000000
405.337130 15.000000
405.355470 28.000000
406.357880 14.000000
423.362340 286.000000
424.368190 75.000000
425.358610 12.000000
425.382510 12.000000
441.371310 347.000000
442.311190 5.000000
442.365170 49.000000
442.380740 89.000000
443.370970 29.000000
459.390870 19.000000
485.144560 7.000000
581.375370 18.000000
581.403690 13.000000
582.385990 7.000000
599.395320 160.000000
600.393490 65.000000
605.434140 36.000000
606.432860 6.000000
606.454470 10.000000
617.406190 87.000000
618.405940 44.000000
618.438660 7.000000
619.397090 6.000000
619.420100 7.000000
635.401310 22.000000
635.419010 57.000000
636.422420 14.000000
781.456670 10.000000
781.504090 10.000000
782.472780 16.000000
797.470340 124.000000
798.475280 49.000000
799.473940 9.000000
943.441410 8.000000
943.524110 1000.000000

>ms2
441.380680 6.000000
599.409610 5.000000
617.404970 7.000000
635.413210 5.000000
635.440920 5.000000
781.461610 6.000000
797.449830 8.000000
797.476750 11.000000
798.445800 5.000000
943.432860 5.000000
943.528560 1000.000000

>ms2
56.344660 27.000000
57.034100 11.000000
61.026120 21.000000
71.048060 102.000000
73.026860 13.000000
81.066750 73.000000
81.073650 20.000000
82.071700 10.000000
85.004170 9.000000
85.027850 455.000000
87.042610 12.000000
91.039420 89.000000
91.050770 20.000000
93.069470 10.000000
93.077260 10.000000
95.010080 20.000000
95.086040 185.000000
96.082180 9.000000
96.109790 10.000000
97.029880 45.000000
97.065190 22.000000
97.096530 10.000000
99.072460 11.000000
99.082440 11.000000
101.057420 14.000000
103.038540 55.000000
105.071560 47.000000
106.946410 11.000000
107.085140 93.000000
107.125240 10.000000
107.321760 11.000000
109.069770 10.000000
109.101680 297.000000
109.113240 12.000000
110.102730 46.000000
110.346790 17.000000
111.042850 116.000000
111.049550 38.000000
111.079390 54.000000
111.114550 10.000000
112.049770 30.000000
112.082860 34.000000
113.060010 9.000000
113.095390 10.000000
117.051480 15.000000
119.085880 94.000000
121.099780 157.000000
122.097800 20.000000
123.084050 17.000000
123.119470 149.000000
124.116040 25.000000
124.122190 17.000000
125.098930 12.000000
127.022230 12.000000
127.035830 30.000000
127.043950 51.000000
127.114060 9.000000
129.053340 420.000000
130.058610 18.000000
130.621220 10.000000
131.034900 20.000000
131.061630 11.000000
132.518130 11.000000
132.635960 11.000000
133.094220 28.000000
133.100510 78.000000
133.108810 21.000000
134.104770 23.000000
135.106260 21.000000
135.117360 218.000000
136.115940 12.000000
136.123320 11.000000
137.019900 9.000000
137.098460 19.000000
137.114700 13.000000
137.134080 54.000000
137.144650 9.000000
138.131900 27.000000
139.110060 88.000000
139.138580 11.000000
140.116360 22.000000
141.018630 708.000000
141.129270 15.000000
142.003680 10.000000
142.012270 20.000000
142.023210 17.000000
142.028050 9.000000
145.051420 60.000000
145.099980 76.000000
145.655500 9.000000
146.103350 10.000000
147.064560 243.000000
147.105710 32.000000
147.116810 84.000000
148.073490 19.000000
149.132980 254.000000
150.016860 9.000000
150.134160 40.000000
151.033910 9.000000
151.114110 20.000000
151.151430 31.000000
153.130160 32.000000
159.028140 224.000000
159.099720 38.000000
159.109820 48.000000
159.119030 52.000000
160.107180 10.000000
160.117600 10.000000
160.909410 10.000000
161.134250 216.000000
161.169970 11.000000
162.135070 20.000000
162.140990 28.000000
163.035250 9.000000
163.056590 97.000000
163.066650 53.000000
163.104370 19.000000
163.146790 353.000000
163.930020 9.000000
164.150440 37.000000
164.376530 10.000000
165.068280 13.000000
165.126270 89.000000
165.853790 15.000000
166.124360 23.000000
166.134350 13.000000
166.156680 9.000000
167.136990 12.000000
171.061740 9.000000
171.111270 11.000000
171.452700 11.000000
172.284880 12.000000
173.039290 10.000000
173.068160 11.000000
173.128420 53.000000
173.137890 22.000000
175.110240 12.000000
175.131010 16.000000
175.144870 160.000000
175.153380 129.000000
175.349030 9.000000
176.147450 32.000000
176.158910 11.000000
177.039670 41.000000
177.051540 10.000000
177.125750 30.000000
177.160460 332.000000
177.167950 173.000000
178.044860 20.000000
178.164280 14.000000
178.705310 13.000000
179.029110 9.000000
179.128190 19.000000
179.142560 34.000000
179.171810 21.000000
179.179370 42.000000
179.944790 10.000000
180.153690 10.000000
180.176280 22.000000
180.187320 10.000000
181.154240 22.000000
181.162830 9.000000
185.124890 17.000000
185.134490 33.000000
186.135130 9.000000
187.123350 26.000000
187.147550 141.000000
187.309370 13.000000
188.146440 18.000000
189.057330 14.000000
189.145710 10.000000
189.162720 298.000000
190.050110 20.000000
190.148610 11.000000
190.165360 55.000000
191.031340 12.000000
191.135450 12.000000
191.143490 10.000000
191.167050 29.000000
191.181170 206.000000
192.151260 11.000000
192.177900 44.000000
192.187410 22.000000
193.141110 10.000000
193.153840 38.000000
194.168300 9.000000
195.056960 10.000000
195.176450 155.000000
196.066540 10.000000
196.178250 10.000000
197.126170 13.000000
199.152910 10.000000
200.123700 10.000000
200.144200 22.000000
200.164290 10.000000
200.289580 9.000000
201.164580 426.000000
202.159090 11.000000
202.169770 26.000000
203.062180 13.000000
203.135280 15.000000
203.179580 688.000000
203.201140 11.000000
204.176740 124.000000
204.188430 67.000000
205.049330 27.000000
205.148790 43.000000
205.160200 97.000000
205.178680 18.000000
205.189440 72.000000
205.199250 47.000000
206.052370 12.000000
206.204320 13.000000
207.038270 11.000000
207.159160 21.000000
207.176530 202.000000
207.182390 71.000000
209.178420 9.000000
209.185530 21.000000
211.062040 10.000000
211.147540 21.000000
213.046740 9.000000
213.162160 88.000000
215.160660 22.000000
215.178410 209.000000
215.192990 26.000000
216.180220 29.000000
216.703140 9.000000
217.155260 13.000000
217.164610 28.000000
217.173450 27.000000
217.194060 471.000000
217.650150 9.000000
218.193660 10.000000
218.202880 25.000000
219.159330 12.000000
219.171360 76.000000
219.181720 83.000000
219.208820 49.000000
219.756440 9.000000
220.175600 38.000000
220.187160 18.000000
221.172090 9.000000
221.183550 79.000000
221.194030 126.000000
221.205570 17.000000
222.189910 37.000000
222.204940 11.000000
225.060880 12.000000
225.161590 21.000000
227.035740 9.000000
227.087770 9.000000
227.170680 21.000000
227.179430 94.000000
227.199810 9.000000
227.661740 9.000000
228.174610 10.000000
229.191240 196.000000
229.202840 82.000000
230.194850 70.000000
231.091780 14.000000
231.173860 40.000000
231.201840 11.000000
231.219500 20.000000
233.187790 153.000000
234.185290 20.000000
234.925430 12.000000
235.207690 49.000000
239.182300 34.000000
240.179840 11.000000
241.062480 11.000000
241.192210 64.000000
241.706600 11.000000
242.185350 9.000000
242.197910 10.000000
243.211380 204.000000
243.423860 11.000000
244.213130 24.000000
245.059860 9.000000
245.151790 10.000000
245.185780 55.000000
245.220030 19.000000
246.191910 9.000000
246.200640 11.000000
246.227340 13.000000
247.207960 225.000000
248.210720 31.000000
251.046250 11.000000
253.182560 9.000000
253.204380 21.000000
255.055050 9.000000
255.077300 16.000000
255.201630 32.000000
255.213700 114.000000
256.170500 11.000000
256.209930 9.000000
257.221440 115.000000
258.221980 9.000000
259.209140 19.000000
260.819670 9.000000
261.049190 11.000000
261.196380 13.000000
261.225250 136.000000
262.215970 9.000000
262.225770 10.000000
262.234950 10.000000
267.204280 10.000000
267.213590 9.000000
268.216580 19.000000
269.069610 9.000000
269.170410 14.000000
269.207370 11.000000
269.234990 39.000000
269.243230 13.000000
270.225620 9.000000
270.234160 31.000000
271.144590 11.000000
271.203160 28.000000
271.243960 22.000000
271.254520 24.000000
273.102360 11.000000
273.198360 10.000000
273.214480 36.000000
273.223510 42.000000
274.226530 12.000000
274.862340 11.000000
275.199950 11.000000
275.231660 52.000000
276.238190 29.000000
277.104310 9.000000
277.213380 10.000000
279.176700 10.000000
279.757050 11.000000
281.218290 27.000000
281.231720 27.000000
282.206630 10.000000
282.225620 23.000000
283.152620 9.000000
283.197390 9.000000
283.236050 47.000000
283.246920 46.000000
285.066960 10.000000
285.184390 9.000000
285.218570 20.000000
285.250270 23.000000
285.262120 35.000000
285.275240 10.000000
287.076230 18.000000
287.226530 28.000000
293.240780 13.000000
295.160980 15.000000
295.240420 60.000000
297.257660 35.000000
299.234710 20.000000
301.236240 19.000000
301.253480 15.000000
301.782170 9.000000
302.268100 15.000000
303.262760 12.000000
305.093080 20.000000
309.113460 9.000000
309.256840 29.000000
311.261570 28.000000
312.273500 9.000000
313.224030 10.000000
313.255460 40.000000
314.241060 10.000000
314.255550 13.000000
315.252900 11.000000
315.263550 11.000000
315.274690 11.000000
316.274630 10.000000
317.287170 9.000000
318.292850 10.000000
321.070190 12.000000
321.221130 9.000000
321.259120 11.000000
321.273280 12.000000
322.168430 10.000000
322.260160 9.000000
325.162720 13.000000
325.257080 28.000000
325.295470 22.000000
326.286740 10.000000
327.271970 9.000000
329.173550 9.000000
329.284610 20.000000
330.269710 9.000000
335.258730 11.000000
335.276090 28.000000
339.233760 10.000000
339.269260 10.000000
341.282290 9.000000
349.276700 15.000000
351.257930 12.000000
351.285710 11.000000
351.304930 14.000000
352.308350 11.000000
353.205630 12.000000
355.286560 10.000000
356.652560 9.000000
357.178190 10.000000
365.302090 31.000000
365.327760 93.000000
365.900570 10.000000
366.285250 11.000000
366.328220 12.000000
367.331790 11.000000
367.365690 10.000000
369.306980 27.000000
371.289700 11.000000
375.081670 12.000000
377.205020 10.000000
379.203340 12.000000
379.984130 10.000000
381.320160 31.000000
381.366550 14.000000
382.326420 9.000000
383.326260 56.000000
383.343260 38.000000
385.971920 9.000000
393.333500 20.000000
395.368560 32.000000
395.409610 10.000000
405.279720 9.000000
405.335210 67.000000
405.353240 206.000000
406.348240 40.000000
406.362550 28.000000
409.340790 10.000000
411.365840 81.000000
411.381160 32.000000
419.348390 9.000000
421.342830 10.000000
421.358150 10.000000
422.354250 10.000000
423.347020 239.000000
423.362090 1000.000000
424.316380 15.000000
424.370450 359.000000
425.347810 19.000000
425.377720 30.000000
431.501920 11.000000
439.357600 11.000000
440.360020 12.000000
441.363190 191.000000
441.389740 80.000000
442.371060 92.000000
442.396450 15.000000
444.373440 12.000000
454.159700 11.000000
458.344240 15.000000
465.358760 9.000000
471.261960 11.000000
523.317630 13.000000
545.376530 17.000000
563.366150 9.000000
564.385250 14.000000
570.396060 11.000000
581.383000 27.000000
582.382570 10.000000
599.384580 11.000000
599.405210 10.000000
601.416990 11.000000
693.627810 14.000000
929.462770 19.000000
935.204530 9.000000

>ms2
129.054060 11.000000
141.016280 9.000000
147.064790 15.000000
159.027480 9.000000
163.056700 6.000000
163.062940 6.000000
177.039440 7.000000
177.162890 8.000000
189.161500 7.000000
191.178680 8.000000
201.161790 8.000000
203.177090 19.000000
205.158370 7.000000
207.175890 11.000000
217.193540 25.000000
219.174670 12.000000
221.188370 6.000000
233.192350 10.000000
247.202150 7.000000
247.216720 6.000000
273.096010 6.000000
305.090120 11.000000
309.117130 15.000000
315.262210 8.000000
323.096620 13.000000
339.093380 5.000000
365.312500 5.000000
383.335110 14.000000
405.357090 28.000000
406.356900 6.000000
423.362950 173.000000
424.362980 63.000000
441.373810 227.000000
442.375670 85.000000
443.379150 16.000000
459.384770 8.000000
581.378660 11.000000
581.395450 9.000000
599.392700 106.000000
600.397460 29.000000
605.440250 20.000000
617.406250 70.000000
618.400880 13.000000
618.422550 6.000000
635.411190 28.000000
636.408870 9.000000
636.426570 8.000000
781.466430 15.000000
782.476680 5.000000
797.468200 81.000000
798.471010 43.000000
799.465090 11.000000
943.415590 5.000000
943.524600 1000.000000

>ms2
423.374450 5.000000
617.414730 6.000000
635.418580 12.000000
781.459050 8.000000
781.487670 8.000000
797.455200 6.000000
797.489260 10.000000
798.474240 13.000000
943.442320 17.000000
943.526790 1000.000000

>ms2
85.030620 16.000000
107.087140 7.000000
109.099880 6.000000
109.104770 8.000000
111.047390 9.000000
127.039290 6.000000
129.054990 50.000000
141.016740 26.000000
145.048540 11.000000
147.064670 78.000000
159.024140 12.000000
159.030550 41.000000
159.060870 5.000000
161.131870 9.000000
163.058700 59.000000
163.148220 17.000000
165.058940 6.000000
175.146010 8.000000
175.153900 16.000000
177.039020 35.000000
177.050740 9.000000
177.163210 24.000000
187.144130 10.000000
189.163500 24.000000
190.170620 9.000000
191.179820 13.000000
193.153200 6.000000
195.166370 8.000000
195.174730 22.000000
195.184460 7.000000
201.165890 17.000000
203.162800 7.000000
203.180300 79.000000
204.184970 12.000000
205.159440 19.000000
207.173460 27.000000
209.053380 5.000000
213.167720 5.000000
215.176360 15.000000
217.163210 5.000000
217.197750 57.000000
218.196330 14.000000
219.176150 15.000000
219.213900 5.000000
221.182020 7.000000
221.192570 23.000000
222.187790 6.000000
227.169750 5.000000
227.178630 5.000000
229.202910 16.000000
231.079700 6.000000
233.188290 20.000000
235.197740 5.000000
245.189240 19.000000
246.190170 6.000000
247.205090 20.000000
247.218370 7.000000
255.081020 6.000000
261.219240 11.000000
269.063870 5.000000
273.088810 8.000000
273.100070 9.000000
273.220000 10.000000
287.076050 9.000000
295.244080 7.000000
303.070770 8.000000
305.054780 6.000000
305.080900 24.000000
305.092900 29.000000
306.086060 6.000000
309.113680 34.000000
309.126400 20.000000
310.118290 6.000000
311.273190 8.000000
313.251800 6.000000
315.262820 9.000000
315.275630 13.000000
316.278320 7.000000
321.082310 23.000000
323.094970 42.000000
324.103390 6.000000
324.497160 5.000000
339.093840 11.000000
339.104100 14.000000
340.097870 7.000000
351.170470 6.000000
351.190890 5.000000
365.198580 8.000000
365.312260 10.000000
366.189240 6.000000
366.319890 6.000000
381.320470 6.000000
383.330720 13.000000
383.341370 29.000000
384.332210 21.000000
393.353030 7.000000
405.351900 93.000000
406.351930 18.000000
408.356900 6.000000
411.355870 6.000000
411.371000 9.000000
423.361790 748.000000
424.357390 109.000000
424.371190 163.000000
425.367000 59.000000
441.371610 1000.000000
442.375790 393.000000
443.374360 40.000000
443.392910 16.000000
451.359830 6.000000
459.388950 12.000000
459.409940 5.000000
460.393650 5.000000
551.415590 6.000000
569.425290 8.000000
581.338130 9.000000
581.382200 63.000000
581.406800 26.000000
582.381290 27.000000
583.386110 11.000000
599.396550 401.000000
600.398440 127.000000
600.434630 7.000000
601.397580 22.000000
605.463810 8.000000
606.453120 11.000000
617.396910 33.000000
617.417300 42.000000
618.401250 17.000000
635.410640 9.000000
636.422970 11.000000
797.421630 9.000000
797.464600 45.000000
798.459780 20.000000

>ms2
57.070610 12.000000
69.034080 25.000000
69.072240 16.000000
71.042870 21.000000
71.049930 47.000000
71.685940 11.000000
73.030880 36.000000
75.044910 23.000000
75.049090 14.000000
79.039890 11.000000
81.067900 38.000000
81.072330 29.000000
81.853470 13.000000
83.027210 11.000000
83.048530 49.000000
83.053760 24.000000
84.053530 12.000000
84.997280 12.000000
85.028340 562.000000
85.051770 13.000000
86.028370 12.000000
87.785230 12.000000
88.048430 14.000000
91.032680 24.000000
91.038650 128.000000
91.052960 13.000000
92.042140 11.000000
93.066010 12.000000
95.014460 11.000000
95.086160 190.000000
96.085900 16.000000
97.027150 34.000000
97.100300 11.000000
99.082370 21.000000
101.057930 16.000000
102.983730 14.000000
105.069340 12.000000
107.084500 106.000000
107.090350 36.000000
108.092490 22.000000
109.062400 12.000000
109.101360 301.000000
109.113760 15.000000
110.099950 38.000000
110.107130 11.000000
111.040700 48.000000
111.045990 37.000000
111.076430 22.000000
111.081030 63.000000
111.088190 16.000000
111.113370 24.000000
112.047360 19.000000
112.089280 13.000000
112.122570 12.000000
113.027930 11.000000
113.051730 11.000000
113.098190 23.000000
113.890900 11.000000
115.035770 12.000000
117.055210 11.000000
118.596530 12.000000
119.073810 24.000000
119.080640 63.000000
119.087630 30.000000
120.094560 14.000000
121.101810 259.000000
122.102670 11.000000
122.109390 17.000000
123.108480 40.000000
123.113760 101.000000
123.120810 89.000000
124.114210 11.000000
125.104110 15.000000
127.037270 92.000000
127.119250 14.000000
128.050740 11.000000
129.036910 12.000000
129.055210 356.000000
130.056930 11.000000
131.039060 11.000000
131.078800 11.000000
131.094680 11.000000
132.091780 12.000000
133.047320 12.000000
133.101650 169.000000
134.099530 11.000000
134.113050 17.000000
135.033370 14.000000
135.044400 24.000000
135.096710 11.000000
135.112500 100.000000
135.118870 131.000000
136.121510 31.000000
136.128950 25.000000
137.099750 13.000000
137.132080 65.000000
139.106750 32.000000
139.114400 48.000000
139.153580 11.000000
140.117770 22.000000
141.019210 873.000000
142.016020 39.000000
142.024170 60.000000
143.025360 12.000000
143.069440 14.000000
143.738460 14.000000
145.032060 12.000000
145.046590 70.000000
145.093580 14.000000
145.099790 28.000000
146.058980 15.000000
146.108290 12.000000
146.962450 14.000000
146.973500 17.000000
147.019910 12.000000
147.050490 13.000000
147.065160 121.000000
147.079650 11.000000
147.092100 13.000000
147.112760 89.000000
147.118960 187.000000
148.071640 11.000000
148.107040 13.000000
148.133580 12.000000
149.131910 250.000000
149.141310 80.000000
150.136150 13.000000
151.107180 17.000000
151.152680 38.000000
153.054280 12.000000
153.134250 34.000000
157.102420 11.000000
158.109450 12.000000
159.023860 78.000000
159.030620 227.000000
159.058240 11.000000
159.103930 12.000000
159.115050 154.000000
159.124820 22.000000
160.034760 11.000000
160.117680 11.000000
161.108030 11.000000
161.118900 32.000000
161.132460 332.000000
162.132230 40.000000
162.138580 19.000000
162.989780 13.000000
163.041960 11.000000
163.057750 265.000000
163.106600 11.000000
163.114490 42.000000
163.121440 22.000000
163.136350 25.000000
163.146070 172.000000
163.153870 94.000000
164.064350 16.000000
164.109210 12.000000
164.150480 39.000000
164.379010 16.000000
164.967240 11.000000
165.074970 12.000000
165.126140 48.000000
165.160610 12.000000
166.076970 19.000000
166.129880 17.000000
169.043120 11.000000
169.053800 11.000000
170.100620 17.000000
171.064320 10.000000
171.069020 24.000000
171.111040 32.000000
173.124300 17.000000
173.133990 52.000000
173.291140 11.000000
174.130200 12.000000
175.082020 12.000000
175.146480 201.000000
176.142460 15.000000
176.151890 34.000000
176.332280 21.000000
177.038360 96.000000
177.118620 22.000000
177.130070 11.000000
177.146220 10.000000
177.161540 380.000000
177.167770 121.000000
178.161380 37.000000
178.169110 32.000000
179.040160 11.000000
179.139630 11.000000
179.180690 21.000000
180.175540 11.000000
180.185990 12.000000
181.159700 28.000000
182.086990 11.000000
185.126560 12.000000
185.136080 12.000000
185.143510 11.000000
187.055730 13.000000
187.123000 16.000000
187.140050 53.000000
187.152540 104.000000
188.145100 11.000000
189.009900 35.000000
189.110470 14.000000
189.163070 411.000000
190.155170 29.000000
190.789780 16.000000
191.142240 48.000000
191.155960 27.000000
191.170200 78.000000
191.180300 139.000000
191.218610 22.000000
192.197480 11.000000
193.047270 11.000000
193.161580 73.000000
193.181850 11.000000
193.196660 12.000000
194.156460 12.000000
194.166240 16.000000
195.138760 25.000000
195.159550 14.000000
195.177310 88.000000
196.176190 11.000000
197.712490 11.000000
199.142360 57.000000
199.155030 31.000000
200.151440 11.000000
201.081940 12.000000
201.125150 11.000000
201.133300 11.000000
201.163300 232.000000
201.169590 96.000000
202.162900 11.000000
202.175670 29.000000
203.179180 1000.000000
203.247390 11.000000
204.092740 11.000000
204.184520 142.000000
205.155290 77.000000
205.168270 14.000000
205.188250 37.000000
205.198870 87.000000
206.163310 45.000000
206.197720 12.000000
207.170230 89.000000
207.177760 57.000000
207.201710 17.000000
208.177060 47.000000
209.063870 13.000000
209.183140 11.000000
210.151460 11.000000
211.065830 16.000000
211.141910 12.000000
211.164280 11.000000
213.026700 12.000000
213.081300 13.000000
213.152450 27.000000
213.169040 58.000000
214.069580 11.000000
214.174120 12.000000
215.178330 288.000000
215.186390 125.000000
216.177840 63.000000
216.188020 43.000000
217.071700 11.000000
217.161540 84.000000
217.180190 49.000000
217.196400 536.000000
218.174190 19.000000
218.185300 30.000000
218.200810 57.000000
218.212230 16.000000
219.139800 13.000000
219.157120 11.000000
219.173400 305.000000
220.167940 11.000000
220.179660 32.000000
220.188980 26.000000
220.214900 15.000000
221.188720 285.000000
222.195180 28.000000
222.205230 42.000000
223.221690 15.000000
225.166230 24.000000
227.166640 13.000000
227.185230 21.000000
228.178630 11.000000
228.190340 20.000000
228.199550 14.000000
229.154400 11.000000
229.171910 12.000000
229.191150 252.000000
229.203720 59.000000
230.189610 12.000000
230.209490 15.000000
231.165080 12.000000
231.178220 16.000000
231.197250 11.000000
231.214070 77.000000
231.227630 14.000000
232.158100 17.000000
232.193100 12.000000
232.209350 14.000000
233.174410 16.000000
233.189330 144.000000
233.206310 18.000000
234.150470 16.000000
234.193040 22.000000
235.203550 34.000000
235.218310 11.000000
237.192500 13.000000
240.433590 16.000000
241.066510 22.000000
241.191680 108.000000
241.211000 22.000000
242.197370 22.000000
243.049560 19.000000
243.197680 35.000000
243.213560 161.000000
243.333160 13.000000
244.207170 11.000000
245.062480 34.000000
245.168290 12.000000
245.184740 30.000000
245.203230 21.000000
245.214810 50.000000
245.236250 30.000000
246.189580 23.000000
246.245190 11.000000
247.196140 68.000000
247.208360 221.000000
247.223390 45.000000
247.904110 15.000000
248.210830 47.000000
251.051390 11.000000
253.183260 16.000000
253.193500 11.000000
253.208890 11.000000
255.082140 23.000000
255.101750 12.000000
255.209210 86.000000
255.221950 44.000000
256.201200 22.000000
256.214510 21.000000
257.205510 11.000000
257.216490 27.000000
257.227840 81.000000
257.242340 47.000000
258.229340 13.000000
259.080350 22.000000
259.195740 60.000000
259.219240 40.000000
259.239930 21.000000
260.203520 14.000000
261.205080 21.000000
261.216710 81.000000
261.229130 41.000000
262.224730 11.000000
266.616150 14.000000
267.194550 11.000000
267.203700 35.000000
267.222960 12.000000
267.258090 11.000000
268.161900 12.000000
269.075100 29.000000
269.208620 11.000000
269.227050 164.000000
269.965880 12.000000
270.082580 17.000000
270.217040 13.000000
270.226720 16.000000
270.236970 12.000000
271.172850 12.000000
271.207400 37.000000
271.219670 10.000000
271.239110 30.000000
271.251070 51.000000
272.232760 14.000000
273.108280 17.000000
273.191990 11.000000
273.216310 70.000000
273.232090 40.000000
274.220760 48.000000
274.256680 15.000000
275.225100 12.000000
275.242220 58.000000
275.255680 12.000000
276.236660 11.000000
277.241030 13.000000
281.155910 11.000000
281.198940 13.000000
281.226870 42.000000
281.243560 17.000000
282.228550 19.000000
283.237460 50.000000
283.247960 39.000000
283.262630 27.000000
284.240600 11.000000
284.253420 12.000000
284.287140 11.000000
285.058110 11.000000
285.069180 11.000000
285.129670 11.000000
285.226620 40.000000
285.251800 24.000000
285.282750 11.000000
287.067720 25.000000
287.224910 37.000000
287.240390 48.000000
288.224430 11.000000
288.248410 23.000000
289.266720 13.000000
290.256100 14.000000
293.205230 12.000000
295.232120 23.000000
295.253020 45.000000
296.242000 11.000000
296.251740 13.000000
297.249690 50.000000
297.271450 11.000000
299.225400 12.000000
299.250920 19.000000
301.258090 35.000000
302.248290 11.000000
305.208400 11.000000
309.143770 11.000000
309.254670 39.000000
310.250790 14.000000
310.260190 12.000000
311.272980 58.000000
312.262790 11.000000
313.248500 60.000000
313.261570 67.000000
313.284120 15.000000
315.251500 40.000000
315.269960 27.000000
315.322200 11.000000
316.274960 11.000000
323.107030 11.000000
324.277280 19.000000
327.207400 11.000000
327.276670 11.000000
329.268070 11.000000
329.291810 28.000000
330.302090 11.000000
331.194000 11.000000
333.178130 12.000000
335.273070 11.000000
337.292110 12.000000
338.119630 14.000000
339.091580 16.000000
345.013850 11.000000
345.443510 11.000000
349.288210 11.000000
350.293580 14.000000
351.191280 12.000000
351.302190 40.000000
351.317350 23.000000
352.300110 12.000000
353.253450 12.000000
353.287450 23.000000
355.549620 11.000000
358.186040 11.000000
359.291660 16.000000
361.190000 31.000000
361.644500 14.000000
363.185460 16.000000
363.299770 17.000000
365.199070 12.000000
365.265200 11.000000
365.300380 22.000000
365.318450 46.000000
365.331570 55.000000
366.327000 39.000000
367.296390 36.000000
367.318180 14.000000
368.294890 12.000000
369.306550 71.000000
370.281710 13.000000
370.317470 30.000000
370.326260 11.000000
377.307010 11.000000
379.213130 12.000000
382.103940 11.000000
383.328550 71.000000
383.349240 12.000000
384.323610 30.000000
384.345400 19.000000
387.353940 12.000000
388.079280 12.000000
390.315550 11.000000
393.345760 11.000000
403.363800 11.000000
405.140350 13.000000
405.345030 190.000000
405.365080 170.000000
406.345520 31.000000
406.367100 69.000000
407.339840 12.000000
408.344450 16.000000
411.314090 13.000000
411.353330 81.000000
411.375210 13.000000
412.371730 12.000000
415.875730 12.000000
423.352110 543.000000
423.368010 660.000000
424.359710 307.000000
424.381290 114.000000
425.368650 106.000000
426.231900 16.000000
426.948760 12.000000
431.926850 13.000000
441.325040 11.000000
441.376920 370.000000
442.338230 26.000000
442.375890 70.000000
443.381960 24.000000
445.253480 11.000000
451.256070 14.000000
471.272580 11.000000
482.349400 13.000000
483.361240 14.000000
494.364320 11.000000
498.193730 17.000000
503.258090 16.000000
516.347290 17.000000
537.412720 12.000000
541.340580 12.000000
563.372620 35.000000
580.383060 12.000000
581.359560 11.000000
581.389890 55.000000
582.386470 12.000000
583.379520 14.000000
583.789730 12.000000
584.383420 12.000000
594.986940 12.000000
599.367430 14.000000
599.393490 57.000000
602.417910 12.000000
603.452700 18.000000
814.141170 12.000000
939.710210 16.000000

