>compound PR40244960
>parentmass 669.1668
>ionization [M+H]+
>formula C29H32O18
>rt 243.000000
>profile qtof
#smiles_iso COC1=CC(=CC(=C1OC2C(C(C(C(O2)CO)O)O)O)OC)C3=CC(=O)C4=C(C=C(C=C4O3)OC5C(C(C(C(O5)C(=O)O)O)O)O)O
#smiles_can COC1=CC(=CC(=C1OC2C(C(C(C(O2)CO)O)O)O)OC)C3=CC(=O)C4=C(C=C(C=C4O3)OC5C(C(C(C(O5)C(=O)O)O)O)O)O
#inchikey RXBHGYDCENBXLU-UHFFFAOYSA-N
#pubchem_id 139292059
#mb_accession PR310969

>ms2peaks
285.078920 16.000000
315.051390 17.000000
316.050660 20.000000
330.060060 17.000000
331.022220 25.000000
331.078310 1056.000000
331.097320 147.000000
331.112850 37.000000
331.176150 17.000000
331.191160 16.000000
332.071780 34.000000
332.089720 156.000000
493.143830 41.000000
668.409240 16.000000
669.067440 39.000000
669.173830 574.000000
669.213620 20.000000

