>compound PR40050818
>parentmass 328.04517824615385
>ionization [M+H]+
>formula C16H9NO7
>rt 357.424597
>profile qtof
#smiles_iso C1OC2=C(O1)C3=C4C=C(C=CC4=CC(=C3C(=C2)C(=O)O)[N+](=O)[O-])O
#smiles_can C1OC2=C(O1)C3=C4C=C(C=CC4=CC(=C3C(=C2)C(=O)O)[N+](=O)[O-])O
#inchikey NBFGYDJKTHENDP-UHFFFAOYSA-N
#pubchem_id 165274
#mb_accession PR300385,PR300390,PR300395,PR300400,PR300405,PR300410,PR300415,PR300420,PR300425,PR300430,PR300435,PR300439,PR310432

>ms2
153.064760 193.000000
154.080180 94.000000
155.049220 115.000000
155.081890 115.000000
164.045120 135.000000
180.037630 266.000000
181.068480 203.000000
182.063800 135.000000
194.041560 109.000000
208.057720 193.000000
208.420620 141.000000
209.076950 141.000000
211.121110 135.000000
212.070020 94.000000
224.039700 146.000000
224.050920 161.000000
226.026210 130.000000
237.033720 307.000000
237.054050 328.000000
237.065660 115.000000
238.062740 104.000000
253.050670 229.000000
256.059720 135.000000
266.041050 120.000000
266.051180 224.000000
267.049440 120.000000
267.059840 156.000000
281.031040 99.000000
281.047420 240.000000
282.049710 1000.000000
284.055450 458.000000
284.071080 135.000000
285.055510 89.000000
285.068660 151.000000
310.023900 146.000000
310.036320 198.000000
311.032410 151.000000

>ms2
281.048490 240.000000
282.015960 94.000000
282.043330 172.000000
282.058040 1000.000000
284.055820 995.000000
284.067780 479.000000
310.022160 104.000000
310.036870 271.000000
311.027400 203.000000
328.050960 109.000000

>ms2
127.054830 270.000000
169.026180 651.000000
180.060640 270.000000
181.039600 302.000000
181.055970 397.000000
181.474810 651.000000
182.061610 429.000000
196.059110 698.000000
208.051900 1000.000000
209.067870 302.000000
212.055280 270.000000
225.046940 794.000000
225.058500 524.000000
225.067790 492.000000
237.045090 571.000000
237.054210 540.000000
237.071000 429.000000
238.035430 270.000000
239.078280 635.000000
266.056760 683.000000
281.041170 270.000000
282.048160 841.000000
282.066770 365.000000
326.239840 397.000000

>ms2
125.036140 436.000000
127.053200 400.000000
141.067180 673.000000
151.045390 1000.000000
151.054170 400.000000
152.069320 309.000000
153.072770 455.000000
155.050770 818.000000
180.045410 400.000000
182.038700 400.000000
195.043370 400.000000
207.034910 491.000000
237.062190 455.000000

>ms2
154.059390 101.000000
157.035050 142.000000
168.022030 83.000000
181.046050 119.000000
181.063640 119.000000
208.045970 151.000000
209.069080 115.000000
225.055100 165.000000
225.064060 165.000000
227.059330 96.000000
237.014500 115.000000
237.042400 106.000000
237.058960 92.000000
238.041020 147.000000
254.055860 216.000000
265.047150 92.000000
266.020810 156.000000
267.046690 78.000000
281.045230 87.000000
281.055150 106.000000
282.051210 1000.000000
282.068660 170.000000
283.062040 106.000000
284.029330 119.000000
284.039060 156.000000
284.054780 239.000000
310.047120 179.000000

>ms2
256.070310 86.000000
268.051480 112.000000
281.032350 160.000000
281.055420 97.000000
282.054320 1000.000000
283.057830 346.000000
283.067570 115.000000
284.053830 420.000000
284.071660 227.000000
285.034730 89.000000
285.055910 190.000000
310.033390 100.000000
310.045010 279.000000
327.024630 67.000000
327.041170 78.000000

>ms2
130.040130 133.000000
157.028690 233.000000
164.046590 147.000000
181.077360 173.000000
182.059390 267.000000
182.070420 113.000000
196.057650 333.000000
197.069470 200.000000
208.057950 827.000000
209.059160 167.000000
225.047060 267.000000
225.060390 120.000000
226.062840 167.000000
236.040660 113.000000
237.031420 540.000000
237.054760 1000.000000
237.156590 160.000000
238.054370 613.000000
265.062320 153.000000
281.037110 193.000000
282.043150 127.000000
282.053250 153.000000

>ms2
152.047200 316.000000
152.059430 702.000000
154.071670 333.000000
167.046370 1000.000000
179.049960 702.000000
181.065380 789.000000
192.056380 421.000000
209.054530 474.000000
282.058840 491.000000

>ms2
126.043270 93.000000
139.048020 66.000000
143.048660 62.000000
152.002080 107.000000
153.072010 83.000000
153.079790 114.000000
156.047030 118.000000
157.027450 69.000000
180.046770 87.000000
181.057450 93.000000
196.045390 73.000000
207.045290 156.000000
207.058760 121.000000
208.058690 87.000000
209.045760 83.000000
209.057170 135.000000
211.058960 107.000000
224.041980 80.000000
224.049640 83.000000
225.053270 138.000000
225.062940 59.000000
237.046600 66.000000
237.056210 118.000000
238.066770 183.000000
240.058070 66.000000
246.322490 90.000000
254.062710 118.000000
264.034880 125.000000
266.260620 62.000000
267.050290 308.000000
267.068420 83.000000
281.045200 502.000000
282.036530 87.000000
282.063260 1000.000000
284.059390 581.000000
310.035950 218.000000
311.044530 87.000000

>ms2
237.050770 53.000000
267.062350 45.000000
280.413850 80.000000
281.049800 107.000000
281.914150 54.000000
282.010220 71.000000
282.052980 1000.000000
283.051210 100.000000
283.062770 45.000000
284.038120 100.000000
284.055510 446.000000
285.050450 125.000000
285.060180 100.000000
310.034610 297.000000
311.039610 71.000000
327.033630 69.000000
327.049960 49.000000

>ms2
105.924630 267.000000
150.186140 242.000000
152.057660 192.000000
158.032300 150.000000
168.047500 250.000000
169.066530 142.000000
179.051730 183.000000
180.050980 200.000000
183.077120 300.000000
195.033190 175.000000
197.074550 275.000000
207.052190 325.000000
208.045300 167.000000
208.063110 167.000000
209.065540 250.000000
210.041440 358.000000
210.070020 150.000000
222.057920 150.000000
225.049160 167.000000
225.067700 158.000000
237.037780 592.000000
237.060780 1000.000000
238.060290 392.000000
254.036350 175.000000
282.054810 500.000000

>ms2
125.038050 903.000000
127.055290 548.000000
129.067520 1000.000000
139.054580 645.000000
152.049500 839.000000
153.071730 581.000000
166.043170 677.000000
167.035580 806.000000
167.050250 774.000000
179.053890 774.000000

>ms2
153.064760 37.000000
154.080180 18.000000
155.049220 22.000000
155.081890 22.000000
164.045120 26.000000
180.037630 51.000000
181.068480 39.000000
182.063800 26.000000
194.041560 21.000000
208.057720 37.000000
208.420620 27.000000
209.076950 27.000000
211.121110 26.000000
212.070020 18.000000
224.039700 28.000000
224.050920 31.000000
226.026210 25.000000
237.033720 59.000000
237.054050 63.000000
237.065660 22.000000
238.062740 20.000000
253.050670 44.000000
256.059720 26.000000
266.041050 23.000000
266.051180 43.000000
267.049440 23.000000
267.059840 30.000000
281.031040 19.000000
281.047420 46.000000
282.049710 192.000000
284.055450 88.000000
284.071080 26.000000
285.055510 17.000000
285.068660 29.000000
310.023900 28.000000
310.036320 38.000000
311.032410 29.000000

