>compound PR40976796
>parentmass 584.2769499999999
>ionization [M+H]+
>formula C34H37N3O6
>rt 334.200000
>profile qtof
#smiles_iso C1=CC(=CC=C1C=CC(=O)NCCCCN(CCCNC(=O)C=CC2=CC=C(C=C2)O)C(=O)C=CC3=CC=C(C=C3)O)O
#smiles_can C1=CC(=CC=C1C=CC(=O)NCCCCN(CCCNC(=O)C=CC2=CC=C(C=C2)O)C(=O)C=CC3=CC=C(C=C3)O)O
#inchikey PFDVWJCSCYDRMZ-UHFFFAOYSA-N
#pubchem_id 72739177
#mb_accession PR311083,PR311084

>ms2
147.044250 41.000000
148.044450 29.000000
204.104860 39.000000
205.093960 22.000000
397.454960 27.000000
420.225010 78.000000
421.223140 57.000000
421.252200 20.000000
438.228000 71.000000
438.241420 53.000000
584.279790 233.000000

>ms2
127.020660 17.000000
147.042630 27.000000
147.050700 19.000000
155.126620 16.000000
156.101430 23.000000
204.090030 17.000000
204.100310 45.000000
204.111920 88.000000
217.143130 19.000000
218.114330 21.000000
219.122710 16.000000
275.140780 25.000000
275.177730 44.000000
292.202850 31.000000
292.215790 16.000000
318.173830 21.000000
413.746670 17.000000
420.059880 16.000000
420.220250 34.000000
420.240230 24.000000
421.220580 34.000000
438.208710 57.000000
438.240390 261.000000
439.229610 59.000000
439.245510 100.000000
565.218080 20.000000
584.279910 525.000000
584.311710 23.000000

