>compound PR40053740
>parentmass 163.0745
>ionization [M+H]+
>formula C10H10O2
>rt 172.200000
>profile qtof
#smiles_iso COC(=O)C=CC1=CC=CC=C1
#smiles_can COC(=O)C=CC1=CC=CC=C1
#inchikey CCRCUPLGCSFEDV-UHFFFAOYSA-N
#pubchem_id 7644
#mb_accession PR311091

>ms2peaks
103.053950 17.000000
104.059640 24.000000
131.050050 156.000000
132.050930 24.000000
159.118940 17.000000

