>compound PR40707315
>parentmass 609.2959135
>ionization [M+H]+
>formula C37H40N2O6
>rt 225.868980
>profile qtof
#smiles_iso CN1CCC2=CC(=C3C=C2[C@H]1CC4=CC(=C(C=C4)O)OC5=CC=C(CC6C7=C(O3)C(=C(C=C7CCN6C)OC)OC)C=C5)OC
#smiles_can CN1CCC2=CC(=C(C3=C2C1CC4=CC=C(C=C4)OC5=C(C=CC(=C5)CC6C7=CC(=C(C=C7CCN6C)OC)O3)O)OC)OC
#inchikey HGNHIFJNOKGSKI-FICMROCWSA-N
#pubchem_id 90662359
#mb_accession PR301777,PR301782,PR301785,PR301788,PR301793,PR301796,PR301799,PR301802,PR301805,PR301808

>ms2
105.060650 6.000000
162.093890 5.000000
163.073960 8.000000
175.065520 5.000000
176.110080 8.000000
196.089450 5.000000
206.120090 6.000000
210.071040 8.000000
219.091550 6.000000
220.107530 6.000000
222.110690 14.000000
223.123090 8.000000
237.094210 8.000000
252.109850 6.000000
264.116460 8.000000
268.117980 9.000000
283.125060 5.000000
305.140590 9.000000
305.655940 5.000000
306.663020 7.000000
320.145140 6.000000
329.161040 5.000000
336.159760 6.000000
355.133090 8.000000
364.193970 5.000000
381.160520 5.000000
381.175540 15.000000
381.201780 5.000000
382.066070 7.000000
382.181920 10.000000
395.183960 6.000000
396.207640 9.000000
402.197570 5.000000
403.156650 6.000000
408.142120 5.000000
413.170840 5.000000
441.237850 7.000000
474.179720 8.000000
478.233980 6.000000
503.192080 5.000000
519.223820 7.000000
520.189270 5.000000
536.211360 5.000000
536.237790 6.000000
544.724180 5.000000
546.225520 8.000000
548.206540 9.000000
563.239990 8.000000
566.229310 10.000000
566.263610 8.000000
567.250060 24.000000
578.194270 5.000000
578.233760 8.000000
578.260440 40.000000
579.273620 12.000000
608.272520 14.000000
609.244690 45.000000
609.298650 1000.000000

>ms2
134.059770 5.000000
135.083070 7.000000
146.058120 6.000000
146.096080 7.000000
151.069630 8.000000
161.055360 9.000000
161.113080 8.000000
165.072040 6.000000
174.086560 16.000000
175.083340 6.000000
176.074510 7.000000
176.097630 14.000000
176.107650 31.000000
177.085210 5.000000
177.120180 8.000000
187.114090 7.000000
189.081100 7.000000
189.109310 6.000000
192.103010 22.000000
205.085740 7.000000
206.083010 6.000000
208.102100 8.000000
209.102370 5.000000
213.057240 19.000000
221.105220 6.000000
222.112380 11.000000
225.232210 6.000000
229.437150 9.000000
234.063450 6.000000
234.108370 7.000000
234.117840 6.000000
235.072220 6.000000
235.103780 6.000000
236.131850 10.000000
238.101720 7.000000
250.094160 6.000000
251.082470 7.000000
251.110580 7.000000
252.117600 5.000000
265.090880 8.000000
280.102330 14.000000
281.129850 11.000000
282.125180 5.000000
283.116610 7.000000
293.110410 6.000000
296.099180 5.000000
296.131070 6.000000
310.152100 9.000000
317.110810 6.000000
325.760310 6.000000
330.170560 5.000000
334.136900 12.000000
335.134830 9.000000
339.101680 7.000000
340.124330 7.000000
346.143430 7.000000
350.178380 6.000000
352.131530 8.000000
354.171200 6.000000
355.170290 7.000000
355.906340 6.000000
357.131810 8.000000
357.156800 8.000000
358.141540 10.000000
359.148650 6.000000
359.166170 14.000000
361.145290 6.000000
366.194490 6.000000
367.189730 6.000000
367.935970 5.000000
369.147890 6.000000
370.172030 6.000000
371.133210 7.000000
371.172180 9.000000
371.732480 8.000000
372.171390 5.000000
379.199770 8.000000
380.158630 8.000000
381.157230 13.000000
381.181920 28.000000
381.205350 16.000000
382.056430 6.000000
382.187650 6.000000
383.175450 9.000000
384.185580 6.000000
388.204380 6.000000
391.302700 11.000000
395.196590 7.000000
396.173370 6.000000
396.193630 8.000000
397.165920 7.000000
399.186740 6.000000
399.414430 5.000000
400.143070 5.000000
401.199830 5.000000
403.213810 7.000000
409.205930 6.000000
410.645450 8.000000
413.166530 8.000000
416.187440 8.000000
445.131620 5.000000
456.238010 6.000000
461.185940 6.000000
470.082550 11.000000
473.191190 7.000000
476.123900 5.000000
491.173280 7.000000
503.091250 8.000000
516.205750 7.000000
520.234680 8.000000
525.213810 6.000000
532.199040 7.000000
534.202510 6.000000
534.230470 6.000000
535.222410 21.000000
536.224000 6.000000
536.241880 8.000000
537.219850 8.000000
537.238530 6.000000
538.216550 7.000000
546.206180 6.000000
546.222720 12.000000
547.187070 7.000000
547.210820 6.000000
547.230960 18.000000
547.252620 6.000000
548.167240 5.000000
548.202330 5.000000
548.220030 11.000000
549.207030 6.000000
549.223140 6.000000
552.176270 5.000000
552.255680 7.000000
561.246400 5.000000
566.188660 8.000000
566.205870 12.000000
566.249330 88.000000
566.292850 15.000000
567.226320 10.000000
567.258360 27.000000
567.277950 12.000000
568.133120 7.000000
568.262630 14.000000
570.286130 13.000000
577.241150 6.000000
577.282100 9.000000
578.221740 41.000000
578.239620 57.000000
578.259890 106.000000
578.470640 7.000000
579.249510 85.000000
579.274170 36.000000
580.223080 5.000000
580.253780 6.000000
580.279660 16.000000
580.479190 5.000000
580.908870 8.000000
581.243410 6.000000
581.259580 6.000000
581.299130 6.000000
581.321780 9.000000
583.241820 6.000000
593.674260 7.000000
597.722350 5.000000
607.130250 6.000000
608.315670 8.000000
608.926330 12.000000
609.138550 9.000000
609.201970 13.000000
609.225710 39.000000
609.292360 1000.000000
609.360900 5.000000

>ms2
56.048160 49.000000
91.061580 54.000000
107.049610 83.000000
107.054130 67.000000
108.055590 45.000000
116.062130 45.000000
119.035450 60.000000
127.041050 51.000000
128.058430 45.000000
131.046390 43.000000
133.078250 56.000000
133.087630 38.000000
143.062670 58.000000
144.082000 38.000000
145.067860 150.000000
145.083510 45.000000
146.088320 81.000000
146.100750 45.000000
148.077970 103.000000
149.076390 56.000000
151.073670 92.000000
157.093000 47.000000
158.058670 40.000000
159.043520 38.000000
159.083180 92.000000
159.839490 43.000000
160.064640 54.000000
161.054470 47.000000
161.078340 38.000000
161.085830 51.000000
161.179930 38.000000
167.069920 43.000000
167.079560 76.000000
167.732510 54.000000
172.090030 43.000000
173.062590 47.000000
174.090880 1000.000000
175.098280 257.000000
176.069640 38.000000
176.080320 47.000000
176.100040 78.000000
176.109510 103.000000
176.118410 47.000000
176.948180 51.000000
177.055330 65.000000
177.074970 40.000000
177.100630 49.000000
177.108150 45.000000
179.764430 40.000000
181.084380 47.000000
182.070190 72.000000
187.076200 40.000000
188.065400 45.000000
188.072910 51.000000
189.074230 40.000000
189.117610 40.000000
190.085940 192.000000
190.668720 65.000000
191.076290 45.000000
191.092620 273.000000
192.090230 51.000000
192.098940 103.000000
193.033160 67.000000
193.086530 51.000000
193.095830 74.000000
194.068570 40.000000
194.073590 85.000000
194.084400 47.000000
199.076200 114.000000
202.086590 87.000000
203.082640 43.000000
204.106640 264.000000
205.073240 45.000000
206.080230 136.000000
206.093730 47.000000
206.109650 92.000000
207.068740 40.000000
207.091550 51.000000
208.051680 54.000000
209.089660 38.000000
211.068180 85.000000
211.103650 43.000000
213.030320 74.000000
213.090790 92.000000
216.086700 94.000000
217.108930 119.000000
218.073300 94.000000
219.111850 54.000000
220.077790 60.000000
220.091350 54.000000
220.116300 40.000000
221.097920 78.000000
222.073670 45.000000
222.110200 78.000000
222.118730 49.000000
223.068910 56.000000
224.072070 49.000000
225.084030 121.000000
225.095020 150.000000
227.112590 112.000000
228.115600 69.000000
231.064820 49.000000
234.108670 40.000000
235.105560 58.000000
235.115720 60.000000
235.734010 45.000000
237.076400 45.000000
238.086790 38.000000
238.102390 96.000000
240.117550 67.000000
241.086200 38.000000
242.064940 40.000000
243.082380 38.000000
244.085390 51.000000
246.125930 43.000000
248.055770 38.000000
249.088290 38.000000
250.054750 60.000000
250.105380 56.000000
251.093600 40.000000
251.108670 49.000000
252.100810 43.000000
252.111820 56.000000
254.100040 83.000000
255.115050 60.000000
255.132540 49.000000
261.041470 49.000000
264.152980 40.000000
265.085720 45.000000
265.097290 49.000000
266.109380 110.000000
266.164640 38.000000
267.104740 45.000000
267.131990 45.000000
267.156980 54.000000
267.210360 56.000000
275.118650 105.000000
276.076780 65.000000
276.103670 45.000000
279.103850 38.000000
281.110750 38.000000
283.114440 51.000000
288.142820 54.000000
289.118900 47.000000
290.088070 45.000000
291.109190 67.000000
292.130400 38.000000
295.118900 45.000000
295.128170 45.000000
298.117770 83.000000
301.134640 38.000000
303.124600 58.000000
307.125730 60.000000
308.098360 244.000000
308.139710 89.000000
310.120510 43.000000
312.148800 38.000000
315.109310 45.000000
316.130650 45.000000
317.082150 47.000000
319.101990 47.000000
320.087830 51.000000
320.106690 56.000000
321.123630 43.000000
324.134280 43.000000
324.151790 114.000000
326.119140 38.000000
331.160430 60.000000
332.119750 54.000000
332.151490 60.000000
335.124660 58.000000
335.142150 49.000000
335.156740 38.000000
336.101260 43.000000
337.107360 38.000000
337.119600 40.000000
338.155670 114.000000
339.082920 51.000000
339.141080 45.000000
340.003910 40.000000
345.100250 56.000000
346.111880 38.000000
346.127320 47.000000
346.150050 38.000000
350.116940 45.000000
351.153530 45.000000
352.103610 56.000000
352.156710 38.000000
353.154210 85.000000
353.182680 45.000000
354.136930 45.000000
354.152400 43.000000
354.165310 47.000000
356.115450 67.000000
356.181120 43.000000
363.170780 67.000000
365.174440 40.000000
366.148930 60.000000
367.150050 87.000000
371.083130 87.000000
373.130400 38.000000
379.156620 45.000000
381.112700 47.000000
381.139010 125.000000
381.161800 51.000000
381.181460 271.000000
382.183470 242.000000
386.155360 67.000000
386.175690 45.000000
387.113800 101.000000
389.783050 63.000000
395.190490 81.000000
396.175510 43.000000
397.198760 43.000000
401.173370 40.000000
407.147580 54.000000
418.210420 56.000000
420.158750 40.000000
424.206880 45.000000
428.135440 58.000000
431.182770 56.000000
435.142060 49.000000
439.166410 87.000000
440.183780 40.000000
441.167020 47.000000
442.196140 47.000000
463.161870 43.000000
472.139770 38.000000
477.159730 43.000000
484.144960 49.000000
486.268220 67.000000
490.213070 40.000000
490.394780 40.000000
491.194760 40.000000
497.215030 40.000000
500.185060 40.000000
501.187740 47.000000
502.225100 63.000000
503.206540 58.000000
504.184750 45.000000
505.085110 40.000000
505.191990 69.000000
507.153140 40.000000
507.198790 56.000000
510.204160 67.000000
515.147030 38.000000
516.167110 45.000000
516.201780 47.000000
517.258420 54.000000
518.149960 58.000000
520.179690 43.000000
521.206970 51.000000
521.230530 38.000000
522.179320 38.000000
530.174560 45.000000
531.190730 54.000000
533.154110 67.000000
533.197510 101.000000
535.249390 51.000000
536.220210 56.000000
546.217220 51.000000
546.242070 40.000000
547.251710 49.000000
550.164180 76.000000
550.211790 98.000000
550.240230 60.000000
550.254270 40.000000
551.206730 43.000000
551.245670 45.000000
553.228880 45.000000
562.229190 43.000000
562.248540 43.000000
563.219180 51.000000
563.267820 45.000000
564.255490 40.000000
566.238890 38.000000
578.250550 45.000000
595.015810 67.000000
609.296750 38.000000

>ms2
174.080490 6.000000
181.095060 5.000000
190.120100 7.000000
193.104750 7.000000
217.436650 5.000000
221.092160 8.000000
222.111430 18.000000
239.099470 7.000000
290.120790 6.000000
305.161500 12.000000
305.672300 6.000000
338.136960 7.000000
355.126740 5.000000
373.163180 6.000000
381.184940 16.000000
401.140110 5.000000
413.262660 6.000000
493.193600 6.000000
505.162600 6.000000
533.224670 5.000000
535.236880 7.000000
547.208010 10.000000
562.222110 7.000000
566.240540 16.000000
566.262450 35.000000
567.258790 11.000000
577.271120 5.000000
578.252690 40.000000
578.282470 21.000000
579.240540 8.000000
579.271610 7.000000
608.278080 6.000000
608.315550 8.000000
609.181090 6.000000
609.227230 9.000000
609.298890 1000.000000

>ms2
105.074270 9.000000
145.086330 5.000000
146.098340 5.000000
147.082580 6.000000
148.075500 6.000000
159.075060 5.000000
159.083760 16.000000
174.090640 9.000000
176.105820 79.000000
177.107530 13.000000
177.120240 11.000000
190.084920 7.000000
190.118820 5.000000
191.079510 7.000000
192.096620 16.000000
192.110080 5.000000
193.701660 6.000000
207.080140 9.000000
211.071080 5.000000
211.079650 7.000000
219.100970 6.000000
219.134870 8.000000
220.107890 6.000000
222.110930 17.000000
234.106080 5.000000
237.089680 6.000000
249.093460 9.000000
249.103420 6.000000
250.093310 7.000000
251.073870 6.000000
252.106350 9.000000
253.083220 5.000000
253.121600 5.000000
255.114400 6.000000
265.076780 7.000000
268.116610 8.000000
270.102020 5.000000
278.121310 9.000000
279.103270 7.000000
280.107940 13.000000
281.123930 9.000000
282.150390 5.000000
292.112460 13.000000
294.133420 7.000000
296.128170 7.000000
320.133790 6.000000
332.411320 7.000000
333.147460 7.000000
342.137240 5.000000
349.339510 9.000000
353.162140 8.000000
355.142330 6.000000
357.140350 8.000000
358.165070 8.000000
365.169400 6.000000
365.190950 6.000000
366.192260 10.000000
370.763920 5.000000
371.143460 5.000000
374.042420 5.000000
381.140050 7.000000
381.178280 62.000000
382.175510 5.000000
382.900390 6.000000
383.171300 16.000000
387.160460 13.000000
388.167110 10.000000
388.205380 6.000000
389.180080 6.000000
389.201080 9.000000
395.144130 6.000000
395.246000 6.000000
396.178560 7.000000
396.210750 15.000000
396.225040 13.000000
400.194340 13.000000
402.202790 7.000000
406.165650 5.000000
406.208890 6.000000
419.155300 6.000000
430.147740 5.000000
430.189790 6.000000
431.194520 7.000000
446.189880 5.000000
447.195400 6.000000
447.212490 6.000000
464.918790 7.000000
465.875890 11.000000
474.212430 5.000000
476.711090 7.000000
485.182590 6.000000
487.258150 6.000000
489.609560 8.000000
499.182100 6.000000
503.166990 5.000000
503.211360 8.000000
504.146850 5.000000
507.227540 6.000000
514.193970 5.000000
520.163330 7.000000
523.191040 5.000000
523.224180 15.000000
524.185000 5.000000
526.204220 6.000000
533.230470 6.000000
535.215090 11.000000
536.226620 12.000000
546.201900 6.000000
546.236210 5.000000
547.199160 9.000000
547.223140 17.000000
548.216310 10.000000
549.234800 13.000000
551.241820 6.000000
553.285580 9.000000
562.106690 5.000000
562.226750 7.000000
564.238400 5.000000
566.218690 24.000000
566.261900 136.000000
567.252930 34.000000
567.283080 12.000000
567.973080 6.000000
568.258970 6.000000
578.226560 48.000000
578.250000 189.000000
578.287600 25.000000
579.197390 6.000000
579.252440 58.000000
580.208560 6.000000
580.244200 11.000000
580.264470 21.000000
580.285160 5.000000
581.257080 18.000000
581.284420 12.000000
581.585570 5.000000
583.031740 5.000000
600.976750 7.000000
609.131470 5.000000
609.230410 49.000000
609.295100 1000.000000

>ms2
99.047530 92.000000
99.278350 45.000000
115.050220 87.000000
127.053060 55.000000
131.051100 42.000000
132.080980 67.000000
133.049820 55.000000
133.062910 50.000000
135.032610 42.000000
135.046130 65.000000
135.066010 42.000000
135.077930 47.000000
139.083540 42.000000
144.052510 72.000000
145.067720 112.000000
145.094850 65.000000
146.065930 42.000000
146.090740 55.000000
146.099440 150.000000
147.067120 90.000000
148.058700 45.000000
148.065510 42.000000
158.095570 47.000000
159.069580 47.000000
159.102140 50.000000
160.074650 110.000000
160.102200 50.000000
161.053190 45.000000
162.083240 55.000000
162.090790 120.000000
163.092330 67.000000
164.110490 42.000000
165.066360 57.000000
165.089710 55.000000
169.101720 65.000000
171.080080 55.000000
172.086070 130.000000
173.062350 107.000000
174.071230 50.000000
174.092960 1000.000000
174.103970 47.000000
175.060270 52.000000
175.100420 140.000000
176.061630 45.000000
176.068940 42.000000
177.067790 97.000000
177.083790 57.000000
177.116730 67.000000
178.056340 62.000000
178.079830 45.000000
178.091160 82.000000
180.067090 47.000000
180.097020 62.000000
187.131410 42.000000
188.112440 42.000000
189.084580 90.000000
189.118330 42.000000
190.070830 60.000000
190.084880 82.000000
190.094740 190.000000
191.070820 42.000000
191.082260 62.000000
192.096910 219.000000
192.111220 147.000000
193.107060 52.000000
196.095490 97.000000
197.054090 87.000000
197.102550 80.000000
198.101000 87.000000
199.078410 257.000000
203.076640 50.000000
204.065190 175.000000
204.104050 200.000000
205.108720 47.000000
206.082790 52.000000
206.113880 62.000000
207.073260 95.000000
207.087830 57.000000
208.135040 50.000000
209.101670 95.000000
211.069470 50.000000
211.088700 47.000000
211.111970 112.000000
213.049900 62.000000
213.073390 75.000000
213.094530 42.000000
215.104860 60.000000
218.121140 42.000000
219.077640 55.000000
219.086930 72.000000
220.086780 67.000000
220.108000 50.000000
221.059230 57.000000
221.087250 87.000000
222.107190 50.000000
223.089970 62.000000
223.105960 75.000000
223.116090 60.000000
224.077450 110.000000
225.056030 65.000000
225.075880 45.000000
225.087050 100.000000
228.099620 50.000000
229.091190 60.000000
230.073490 65.000000
233.086940 67.000000
234.067790 65.000000
235.070300 60.000000
235.080320 110.000000
236.083160 42.000000
237.084730 72.000000
237.094700 157.000000
237.135090 67.000000
239.076310 47.000000
240.114320 135.000000
250.101500 112.000000
251.075700 65.000000
252.071490 42.000000
252.120440 47.000000
254.095830 60.000000
254.119890 92.000000
255.124740 42.000000
265.076510 45.000000
265.085210 127.000000
266.121430 60.000000
267.088290 75.000000
267.102720 57.000000
267.113710 65.000000
269.076630 50.000000
269.131870 62.000000
273.108830 52.000000
273.123290 57.000000
277.123960 72.000000
278.132350 50.000000
279.118500 117.000000
280.102050 110.000000
282.086060 97.000000
283.117950 50.000000
290.094940 57.000000
293.116610 87.000000
293.136440 127.000000
294.109220 50.000000
295.100100 107.000000
297.100280 52.000000
299.106780 42.000000
301.066990 42.000000
304.068510 45.000000
305.110840 80.000000
307.127810 115.000000
308.115360 52.000000
308.138090 62.000000
309.108180 65.000000
312.119630 50.000000
316.120060 52.000000
317.114170 47.000000
318.115200 60.000000
321.171780 70.000000
323.101170 50.000000
327.102780 55.000000
328.191500 47.000000
331.108610 60.000000
332.110320 42.000000
332.130040 52.000000
332.147340 50.000000
333.136660 52.000000
333.146580 62.000000
334.131740 55.000000
334.164980 55.000000
335.144380 52.000000
336.142460 47.000000
336.156710 52.000000
338.096220 50.000000
338.146000 167.000000
339.120570 52.000000
340.148830 52.000000
342.171810 42.000000
343.125490 45.000000
343.145260 120.000000
345.111630 52.000000
345.140290 70.000000
348.140380 57.000000
349.153110 50.000000
349.176120 67.000000
350.131650 57.000000
350.161320 120.000000
350.930540 50.000000
351.123810 45.000000
351.132750 75.000000
351.153900 87.000000
352.180110 67.000000
353.171390 107.000000
355.180020 62.000000
357.085450 50.000000
357.140200 112.000000
359.113100 45.000000
360.168610 52.000000
361.145230 87.000000
365.159060 62.000000
367.141630 67.000000
367.162750 47.000000
372.139740 105.000000
373.153960 50.000000
377.145450 42.000000
379.170290 50.000000
380.143490 52.000000
381.158420 100.000000
381.172550 357.000000
381.189240 419.000000
382.144810 62.000000
382.178340 304.000000
382.200990 70.000000
383.179170 62.000000
386.143430 52.000000
398.177860 120.000000
399.478970 55.000000
401.152100 42.000000
402.132540 50.000000
403.166810 47.000000
411.152190 75.000000
413.152470 60.000000
417.115260 42.000000
426.171690 50.000000
437.198090 55.000000
439.138340 50.000000
442.157590 60.000000
449.160920 45.000000
469.128020 70.000000
472.802700 42.000000
474.149930 97.000000
477.161440 112.000000
484.156950 57.000000
486.150300 70.000000
487.174900 42.000000
498.111150 52.000000
503.189330 92.000000
505.348390 57.000000
506.172150 55.000000
507.214570 45.000000
509.187470 42.000000
516.213810 60.000000
518.160950 70.000000
519.170780 45.000000
519.209350 42.000000
520.203250 52.000000
520.243530 45.000000
524.219790 42.000000
532.233460 55.000000
534.180180 47.000000
534.212340 122.000000
546.194210 45.000000
548.211850 87.000000
550.157840 65.000000
550.212040 60.000000
550.241330 95.000000
551.229250 172.000000
552.243530 60.000000
552.260500 55.000000
562.224430 135.000000
565.255860 75.000000
566.239010 42.000000
566.253600 47.000000
593.228940 50.000000
609.280400 45.000000
609.334530 55.000000

>ms2
160.076450 12.000000
164.081390 6.000000
165.091580 9.000000
169.070980 6.000000
174.080830 5.000000
174.091610 7.000000
175.080720 6.000000
176.103670 7.000000
176.111450 12.000000
194.110470 8.000000
205.119520 5.000000
222.116870 6.000000
222.130550 5.000000
223.123170 6.000000
234.103840 6.000000
237.094600 11.000000
252.125080 7.000000
264.115540 5.000000
305.143430 19.000000
305.161290 26.000000
305.651180 22.000000
313.128880 5.000000
314.138340 5.000000
317.072810 6.000000
319.121800 7.000000
322.125370 6.000000
348.615810 5.000000
354.172030 6.000000
359.287080 5.000000
380.134280 5.000000
381.174680 16.000000
382.177400 24.000000
389.145320 5.000000
405.769100 5.000000
518.217830 5.000000
533.227170 7.000000
536.211980 12.000000
547.225160 9.000000
561.252200 6.000000
562.818180 7.000000
566.244380 26.000000
566.269100 13.000000
567.270750 13.000000
578.239810 19.000000
578.260380 36.000000
578.297670 8.000000
579.252930 8.000000
579.278690 17.000000
580.253660 8.000000
607.254150 9.000000
607.288820 7.000000
608.304690 7.000000
609.236940 34.000000
609.298460 1000.000000

>ms2
305.144040 6.000000
305.159120 12.000000
305.655700 8.000000
607.261720 5.000000
608.309880 7.000000
609.295780 1000.000000
609.358890 8.000000

>ms2
129.079540 5.000000
146.095610 5.000000
176.102800 5.000000
176.111110 17.000000
181.082060 9.000000
183.073970 6.000000
188.077880 5.000000
188.103880 8.000000
190.085250 10.000000
193.095860 7.000000
199.026150 5.000000
204.096310 13.000000
213.089950 9.000000
219.122090 11.000000
220.135620 5.000000
222.093610 5.000000
222.119830 17.000000
225.084290 9.000000
225.095840 6.000000
234.114470 17.000000
236.128720 8.000000
237.087950 9.000000
239.114270 5.000000
251.102360 6.000000
252.113750 9.000000
253.063420 6.000000
255.105000 6.000000
265.924440 5.000000
269.129820 5.000000
274.215210 10.000000
279.087950 11.000000
282.127010 6.000000
283.108730 10.000000
305.496700 5.000000
309.145540 7.000000
314.172390 7.000000
332.028050 6.000000
339.134190 5.000000
345.144350 6.000000
345.157560 5.000000
351.139130 7.000000
354.163480 7.000000
355.130490 5.000000
361.151730 6.000000
364.162600 5.000000
365.169280 9.000000
366.198090 6.000000
369.141300 9.000000
371.156280 6.000000
374.144380 10.000000
376.670680 7.000000
381.166690 10.000000
381.181270 22.000000
381.194120 6.000000
382.192780 9.000000
386.149810 5.000000
386.172270 10.000000
387.188630 8.000000
396.180510 6.000000
397.209660 9.000000
403.194210 6.000000
410.176300 6.000000
431.783720 5.000000
481.140380 5.000000
483.212460 8.000000
492.194430 5.000000
504.218750 5.000000
507.214390 9.000000
507.229400 5.000000
518.271420 6.000000
531.216670 5.000000
534.123600 6.000000
534.221190 5.000000
534.237490 13.000000
535.205990 18.000000
536.189090 13.000000
547.208440 28.000000
547.252810 7.000000
548.211610 10.000000
548.226750 15.000000
549.188600 6.000000
549.242680 5.000000
550.243040 10.000000
562.105350 5.000000
564.248900 10.000000
566.259830 79.000000
567.244570 26.000000
567.262760 78.000000
577.267210 18.000000
577.289670 13.000000
578.251770 233.000000
578.284180 32.000000
579.245180 36.000000
579.268800 39.000000
580.259520 37.000000
580.284610 11.000000
582.265560 6.000000
596.957210 7.000000
609.125120 5.000000
609.152340 6.000000
609.236760 9.000000
609.299190 1000.000000
609.388790 8.000000

>ms2
74.055000 39.000000
105.033020 37.000000
107.047460 43.000000
107.056040 48.000000
116.065830 74.000000
117.058710 43.000000
119.050680 48.000000
120.040170 39.000000
121.066620 48.000000
127.039400 48.000000
128.061220 56.000000
133.087920 143.000000
139.040150 37.000000
144.050140 52.000000
144.061310 61.000000
144.079470 65.000000
145.063710 37.000000
146.058520 82.000000
146.088240 37.000000
146.097820 202.000000
147.071990 46.000000
149.079710 54.000000
149.093720 72.000000
150.045460 39.000000
159.038150 56.000000
159.076160 43.000000
159.098040 37.000000
160.043930 37.000000
160.075840 139.000000
161.090900 59.000000
161.102220 74.000000
162.090710 152.000000
164.080890 59.000000
165.087220 59.000000
167.072690 128.000000
173.057850 104.000000
174.089340 1000.000000
175.064580 46.000000
175.080230 161.000000
175.090620 121.000000
175.101680 43.000000
176.070190 93.000000
176.099640 95.000000
176.115880 48.000000
177.074140 54.000000
177.083910 46.000000
177.092790 72.000000
177.111330 37.000000
177.137710 50.000000
179.057430 39.000000
179.079900 59.000000
180.099350 59.000000
181.070650 54.000000
181.102490 43.000000
187.061520 69.000000
188.104480 80.000000
189.033480 65.000000
189.087450 56.000000
190.082080 41.000000
190.094920 87.000000
192.064990 37.000000
192.095000 63.000000
192.101070 158.000000
194.072800 50.000000
195.093520 59.000000
197.096470 46.000000
199.071820 113.000000
199.095720 43.000000
203.098850 43.000000
204.049300 41.000000
204.088610 43.000000
204.101900 37.000000
206.068570 56.000000
206.079990 134.000000
207.109150 41.000000
210.068240 46.000000
211.059370 59.000000
211.072240 113.000000
211.108860 39.000000
213.082890 100.000000
213.097930 117.000000
217.059490 46.000000
217.108310 54.000000
218.078870 39.000000
219.085390 46.000000
220.094420 165.000000
222.055400 37.000000
222.119950 150.000000
223.120030 39.000000
224.067760 61.000000
225.092760 148.000000
226.103420 52.000000
226.581920 37.000000
228.004150 43.000000
232.094670 65.000000
235.037430 46.000000
235.102710 52.000000
235.112640 50.000000
237.134410 37.000000
239.066410 56.000000
240.095870 43.000000
242.067210 48.000000
246.463120 37.000000
248.071260 46.000000
250.088930 52.000000
251.108080 106.000000
252.098850 63.000000
253.087160 56.000000
255.085300 43.000000
262.097050 95.000000
263.102450 37.000000
263.118960 56.000000
264.075650 37.000000
265.086430 56.000000
265.107600 50.000000
266.084750 41.000000
268.097560 43.000000
268.106290 43.000000
269.077240 106.000000
271.143310 48.000000
272.098480 54.000000
278.076720 65.000000
279.104460 43.000000
280.114620 46.000000
280.129760 39.000000
281.087430 54.000000
281.108730 134.000000
283.065000 43.000000
285.113980 85.000000
292.102690 37.000000
292.112980 46.000000
294.109800 37.000000
295.109040 43.000000
299.047450 61.000000
300.120090 63.000000
306.115780 95.000000
309.124570 87.000000
309.142640 108.000000
312.141480 48.000000
313.151180 56.000000
319.084720 43.000000
319.135990 37.000000
320.099090 59.000000
320.123930 41.000000
325.162900 37.000000
326.171140 46.000000
329.121190 52.000000
331.089810 41.000000
334.175600 65.000000
338.092710 59.000000
338.133790 82.000000
339.154510 80.000000
342.024960 67.000000
345.093200 37.000000
345.115880 41.000000
345.141110 93.000000
346.143680 39.000000
349.152650 91.000000
350.125460 52.000000
350.140720 67.000000
350.154910 54.000000
351.186520 37.000000
353.136140 65.000000
355.201170 37.000000
356.142670 48.000000
358.116390 54.000000
358.147220 106.000000
363.158480 37.000000
366.155820 56.000000
366.168370 39.000000
367.135280 46.000000
369.169800 65.000000
378.143770 50.000000
381.126950 39.000000
381.150120 41.000000
381.171690 74.000000
381.193050 139.000000
381.207820 52.000000
386.160980 130.000000
388.209010 50.000000
394.132510 106.000000
396.151310 61.000000
398.168370 48.000000
400.164030 39.000000
410.098180 39.000000
413.125550 50.000000
413.138090 52.000000
413.170140 39.000000
415.681790 54.000000
426.131990 41.000000
426.190920 41.000000
427.021240 43.000000
432.183410 76.000000
445.186920 39.000000
459.170990 39.000000
462.171570 37.000000
463.281130 72.000000
473.164550 46.000000
475.159760 37.000000
476.137300 41.000000
478.157200 43.000000
485.174070 43.000000
486.180730 39.000000
488.160250 37.000000
488.196230 54.000000
489.187840 50.000000
498.193910 41.000000
502.190030 59.000000
503.179810 37.000000
504.187160 39.000000
505.261320 41.000000
517.203310 48.000000
517.229800 76.000000
519.244630 52.000000
520.203740 59.000000
521.206240 39.000000
523.218080 46.000000
525.219180 54.000000
532.223140 39.000000
539.214720 37.000000
548.213440 37.000000
549.199830 39.000000
550.205750 167.000000
551.236020 54.000000
560.859990 43.000000
562.203740 39.000000
563.224670 37.000000
563.254210 43.000000
564.271480 43.000000
566.221440 54.000000
566.262270 50.000000
571.911500 41.000000
578.245730 54.000000
578.271060 50.000000
593.281430 67.000000
608.254760 43.000000
609.311460 46.000000

