>compound PR40135525
>parentmass 473.36253649999986
>ionization [M+H]+
>formula C30H48O4
>rt 593.650020
>profile qtof
#smiles_iso C[C@@H]1CC[C@@]2(CC[C@@]3(C(=CC[C@H]4[C@]3(CC[C@@H]5[C@@]4(C[C@H]([C@@H](C5(C)C)O)O)C)C)[C@@H]2[C@H]1C)C)C(=O)O
#smiles_can CC1CCC2(CCC3(C(=CCC4C3(CCC5C4(CC(C(C5(C)C)O)O)C)C)C2C1C)C)C(=O)O
#inchikey HFGSQOYIOKBQOW-ZSDYHTTISA-N
#pubchem_id 6918774
#mb_accession PR303780,PR303782,PR303784,PR303786,PR303788,PR303790,PR303792,PR303794,PR303796,PR303798,PR303800,PR303802

>ms2
109.087330 74.000000
121.096600 146.000000
121.103410 67.000000
123.117420 92.000000
135.118030 161.000000
145.099900 104.000000
147.112290 109.000000
149.128420 112.000000
149.172740 42.000000
159.110570 60.000000
159.116040 45.000000
163.110370 62.000000
163.121000 77.000000
163.149870 92.000000
164.117260 52.000000
173.127690 60.000000
175.131520 42.000000
175.147510 47.000000
175.157780 45.000000
177.168330 55.000000
179.150050 50.000000
187.143740 104.000000
188.160750 45.000000
189.144550 60.000000
189.163570 792.000000
190.167360 60.000000
203.158100 50.000000
203.175380 92.000000
203.189480 67.000000
204.189800 57.000000
205.160610 1000.000000
205.196300 194.000000
205.247480 55.000000
206.163090 102.000000
206.193300 45.000000
207.171360 191.000000
210.439640 67.000000
214.166580 42.000000
215.176970 89.000000
221.191800 50.000000
223.158330 45.000000
235.163540 119.000000
241.203670 65.000000
245.198380 47.000000
249.182390 52.000000
249.195880 97.000000
285.261380 42.000000
295.245450 136.000000
313.234440 50.000000
313.255160 45.000000
391.325500 45.000000
408.758850 42.000000
409.352510 811.000000
410.342620 154.000000
410.376250 117.000000
427.357390 161.000000
427.376860 42.000000
428.356930 171.000000
437.304230 52.000000
437.329280 114.000000
437.347720 159.000000
437.376190 50.000000
438.353270 226.000000
439.346190 55.000000
439.363740 47.000000
455.333400 52.000000
455.352200 278.000000
455.363430 129.000000
456.349460 266.000000
457.353060 42.000000
472.352970 52.000000
473.347110 136.000000
473.367070 496.000000
473.390500 92.000000

>ms2
145.113010 26.000000
189.156450 20.000000
203.174910 18.000000
205.136840 18.000000
205.145890 33.000000
205.159270 207.000000
205.169300 61.000000
207.166990 69.000000
208.176300 61.000000
236.167820 26.000000
248.171980 22.000000
249.184010 28.000000
250.187680 20.000000
360.862760 29.000000
409.317870 47.000000
409.337040 272.000000
409.350280 141.000000
410.055910 19.000000
410.354400 70.000000
417.296720 20.000000
425.324920 27.000000
427.353820 150.000000
435.453800 27.000000
437.306180 22.000000
437.334470 180.000000
437.352260 153.000000
438.329860 25.000000
438.344300 66.000000
441.338650 30.000000
455.331210 130.000000
455.350310 331.000000
456.354280 128.000000
456.377260 18.000000
456.434390 18.000000
456.928280 18.000000
457.339750 22.000000
459.337130 20.000000
459.381200 18.000000
463.420500 25.000000
471.690370 25.000000
473.275910 26.000000
473.309170 46.000000
473.364230 1000.000000

>ms2
81.068240 31.000000
95.067890 39.000000
95.077830 37.000000
95.084230 89.000000
96.085750 31.000000
105.070230 42.000000
107.085950 39.000000
119.085910 26.000000
121.090740 26.000000
121.104250 34.000000
123.114360 37.000000
133.074280 28.000000
135.122330 59.000000
137.130460 28.000000
145.083590 31.000000
147.115050 55.000000
155.980700 26.000000
161.137010 37.000000
162.140610 30.000000
163.110580 76.000000
163.142780 69.000000
163.154740 37.000000
164.116560 26.000000
175.146510 148.000000
177.085050 26.000000
177.153110 26.000000
177.165710 98.000000
178.963290 26.000000
182.130980 36.000000
187.132900 40.000000
187.147430 106.000000
189.145430 31.000000
189.165770 277.000000
190.169590 159.000000
191.178310 73.000000
193.157180 45.000000
199.143400 31.000000
200.141140 26.000000
201.155820 26.000000
202.163990 26.000000
203.177400 168.000000
203.184890 148.000000
204.184750 79.000000
205.158690 1000.000000
206.159120 69.000000
206.170500 28.000000
207.163190 28.000000
207.181760 33.000000
210.240750 64.000000
215.177810 115.000000
218.200160 40.000000
222.191890 33.000000
223.165710 42.000000
229.194180 92.000000
235.177950 26.000000
249.989110 33.000000
285.271390 31.000000
295.236270 44.000000
295.248750 84.000000
296.233340 70.000000
296.248260 30.000000
313.256620 55.000000
314.256560 69.000000
321.252750 33.000000
326.877870 28.000000
336.261780 28.000000
353.278350 47.000000
391.321620 28.000000
392.339510 65.000000
395.300450 31.000000
409.345790 56.000000
409.360780 36.000000
438.341130 26.000000

>ms2
69.070490 103.000000
83.068590 114.000000
85.070660 194.000000
85.105840 120.000000
89.105350 143.000000
91.051380 114.000000
93.053880 131.000000
95.085160 280.000000
95.091970 97.000000
96.088230 143.000000
97.095990 280.000000
105.067800 143.000000
105.074780 217.000000
106.067340 160.000000
107.088810 1000.000000
108.091630 114.000000
109.104380 97.000000
110.102710 126.000000
119.084180 217.000000
119.091290 234.000000
121.098680 154.000000
123.080800 114.000000
124.120150 131.000000
131.082290 97.000000
133.099990 366.000000
133.107120 171.000000
135.115400 651.000000
136.083440 103.000000
144.097050 154.000000
145.100140 234.000000
147.123210 103.000000
149.052860 126.000000
149.097500 143.000000
155.083150 97.000000
159.112640 166.000000
161.130430 143.000000
163.111980 423.000000
174.138280 114.000000
175.148670 274.000000
177.044980 97.000000
177.157670 246.000000
177.164790 246.000000
187.145100 114.000000
187.159010 109.000000
188.146590 246.000000
189.159390 434.000000
189.168430 114.000000
191.179820 263.000000
203.175220 240.000000
204.173900 131.000000
204.184230 103.000000
205.155500 114.000000
241.197480 103.000000
281.109340 131.000000

>ms2
81.054630 38.000000
81.068460 33.000000
85.142740 35.000000
107.089750 38.000000
119.081850 54.000000
121.096150 38.000000
121.105620 56.000000
123.082450 38.000000
136.110920 42.000000
147.118700 100.000000
149.093030 37.000000
149.128170 38.000000
153.097370 58.000000
159.118260 63.000000
161.049800 33.000000
161.131520 38.000000
163.113690 71.000000
163.879820 38.000000
164.110370 42.000000
164.117450 38.000000
167.106280 35.000000
173.126390 48.000000
175.110700 35.000000
175.151030 165.000000
177.138350 48.000000
177.161010 137.000000
177.168690 92.000000
179.104190 102.000000
179.137820 71.000000
186.134220 52.000000
187.144010 35.000000
188.160140 77.000000
189.157820 156.000000
189.169920 71.000000
191.182100 38.000000
195.574230 46.000000
202.172350 52.000000
203.152390 38.000000
203.182050 125.000000
205.155090 1000.000000
205.163010 417.000000
205.195250 113.000000
206.163330 42.000000
206.172330 96.000000
207.169310 42.000000
207.177550 113.000000
211.162580 40.000000
215.180340 77.000000
219.209030 46.000000
223.165420 42.000000
229.158720 38.000000
229.189970 88.000000
231.177320 40.000000
241.180710 58.000000
243.216200 37.000000
248.174770 48.000000
249.176640 110.000000
257.966520 75.000000
266.188570 37.000000
284.501590 33.000000
321.261960 33.000000
340.273960 33.000000
357.990910 33.000000
382.332760 40.000000
382.354280 33.000000
391.335970 71.000000
409.354370 508.000000
410.340790 177.000000
410.358340 71.000000
412.370610 38.000000
427.347660 52.000000
428.367980 38.000000
431.031520 33.000000
437.326260 35.000000
437.346220 206.000000
437.358310 92.000000
438.336700 35.000000
438.358000 87.000000
447.092710 33.000000
455.338810 181.000000
455.363680 142.000000
456.360750 40.000000
473.345340 79.000000
473.364960 467.000000

>ms2
187.157100 31.000000
189.167480 16.000000
190.165130 16.000000
204.180390 21.000000
205.157620 236.000000
205.176060 36.000000
206.163680 33.000000
207.177490 66.000000
219.173140 16.000000
236.179920 18.000000
249.191600 35.000000
295.249050 21.000000
303.103450 49.000000
313.246310 21.000000
333.490600 21.000000
391.339720 33.000000
392.344700 17.000000
409.254880 16.000000
409.343990 358.000000
409.358370 116.000000
410.331730 41.000000
410.346710 34.000000
410.366670 36.000000
410.394170 18.000000
411.351230 40.000000
416.326810 19.000000
427.330020 19.000000
427.355960 59.000000
427.380160 16.000000
427.402890 26.000000
428.362180 16.000000
429.362180 20.000000
432.140750 17.000000
437.334870 270.000000
437.350770 180.000000
437.377690 41.000000
438.334590 35.000000
455.349490 535.000000
456.341830 21.000000
456.365750 105.000000
457.321170 19.000000
457.373290 19.000000
458.355680 17.000000
466.446960 21.000000
472.343260 16.000000
472.369750 16.000000
473.308530 18.000000
473.336460 183.000000
473.363190 1000.000000

>ms2
84.053200 56.000000
93.068360 39.000000
107.076100 33.000000
107.084920 122.000000
108.086040 31.000000
119.083960 31.000000
121.100300 63.000000
134.106230 34.000000
137.099240 30.000000
137.130260 64.000000
145.098100 49.000000
145.112530 52.000000
147.116180 27.000000
148.115160 36.000000
149.098950 33.000000
151.111480 27.000000
160.121610 34.000000
161.125320 28.000000
163.105930 45.000000
163.114790 94.000000
163.144620 125.000000
163.152360 34.000000
164.115830 53.000000
164.149660 36.000000
167.107770 56.000000
172.123900 39.000000
173.136990 28.000000
175.134720 31.000000
175.145160 30.000000
175.156170 34.000000
176.154480 31.000000
177.149150 58.000000
177.171460 30.000000
178.161440 94.000000
187.146790 88.000000
189.123080 39.000000
189.139130 27.000000
189.154880 165.000000
189.163910 382.000000
190.169100 31.000000
192.182190 27.000000
193.388890 28.000000
195.112110 36.000000
201.164340 36.000000
202.165410 83.000000
203.174820 382.000000
204.187180 94.000000
205.158510 1000.000000
205.199220 119.000000
206.161360 127.000000
207.168000 55.000000
207.176320 78.000000
207.367540 33.000000
208.192550 27.000000
215.180100 71.000000
217.162260 49.000000
217.173930 28.000000
219.175930 27.000000
219.206820 28.000000
221.184970 28.000000
227.179490 71.000000
267.203890 31.000000
281.227290 36.000000
295.247500 28.000000
296.242830 38.000000
313.257110 58.000000
314.258790 33.000000
331.263060 38.000000
366.327030 27.000000
401.314970 28.000000
409.329040 71.000000
409.352810 97.000000
437.327450 31.000000
437.355220 64.000000

>ms2
67.051190 78.000000
69.069780 105.000000
71.086290 66.000000
79.052930 117.000000
81.069590 125.000000
81.072410 66.000000
93.071860 66.000000
95.082940 246.000000
105.070650 90.000000
107.038490 82.000000
107.077220 66.000000
107.086430 250.000000
109.098790 86.000000
117.067780 66.000000
119.083270 441.000000
119.089660 367.000000
121.068370 82.000000
121.099550 1000.000000
123.126570 74.000000
131.085570 70.000000
133.093370 148.000000
133.101670 332.000000
134.103150 78.000000
144.089290 98.000000
145.097500 270.000000
147.110950 250.000000
147.120360 387.000000
148.117260 102.000000
159.111950 70.000000
159.122830 82.000000
161.129670 125.000000
163.109890 215.000000
164.117430 78.000000
173.130290 78.000000
174.144760 82.000000
175.133730 66.000000
176.147860 78.000000
177.164290 98.000000
177.176740 105.000000
178.165070 98.000000
185.149280 66.000000
189.154140 62.000000
189.161770 242.000000
203.185120 82.000000
205.165990 156.000000

>ms2
95.078810 51.000000
109.103650 59.000000
119.073500 37.000000
119.085480 53.000000
121.100580 84.000000
123.110090 37.000000
133.099810 37.000000
145.095980 41.000000
145.106930 41.000000
147.120380 41.000000
155.369340 41.000000
157.098040 41.000000
159.120570 35.000000
159.144940 51.000000
161.135030 41.000000
163.112150 145.000000
163.142270 37.000000
173.141270 39.000000
177.160810 110.000000
178.160520 37.000000
179.140430 55.000000
186.122800 37.000000
187.149610 145.000000
189.163680 290.000000
190.168810 86.000000
191.180340 90.000000
201.162250 41.000000
201.175140 76.000000
203.165560 47.000000
203.179690 184.000000
204.173100 73.000000
205.137920 112.000000
205.160490 1000.000000
205.190290 49.000000
206.160020 112.000000
207.174270 176.000000
213.136220 41.000000
213.164350 104.000000
215.183260 55.000000
221.188690 35.000000
223.172970 69.000000
249.181790 120.000000
255.216310 35.000000
263.204320 37.000000
285.250670 35.000000
295.243770 41.000000
306.408600 71.000000
313.226290 37.000000
320.781370 41.000000
391.324620 43.000000
391.349000 35.000000
409.251620 47.000000
409.339570 100.000000
409.354640 257.000000
410.343020 41.000000
410.355800 114.000000
410.366420 47.000000
411.336300 39.000000
411.351810 84.000000
427.355070 94.000000
437.340820 308.000000
438.324980 37.000000
438.341610 155.000000
455.333530 39.000000
455.357540 353.000000
456.329250 94.000000
456.343410 106.000000
456.365600 37.000000
457.377840 37.000000
459.368500 35.000000
468.389950 35.000000
472.339940 37.000000
473.314180 43.000000
473.331820 39.000000
473.358120 306.000000

>ms2
96.772400 13.000000
187.142360 16.000000
189.161800 13.000000
203.181690 20.000000
205.129240 19.000000
205.158400 252.000000
206.160800 17.000000
207.169140 40.000000
207.177830 52.000000
207.187000 17.000000
210.226150 20.000000
249.196790 39.000000
282.363220 14.000000
286.362150 17.000000
382.299440 25.000000
391.307980 26.000000
391.337040 16.000000
409.320070 48.000000
409.344090 247.000000
410.336880 13.000000
410.354610 53.000000
411.359950 28.000000
427.334140 25.000000
427.351140 31.000000
428.360440 29.000000
429.963620 14.000000
435.317780 14.000000
437.322450 28.000000
437.332550 64.000000
437.353390 83.000000
437.426210 13.000000
438.328120 43.000000
438.356930 92.000000
439.332950 17.000000
455.353030 452.000000
456.349700 30.000000
456.372680 13.000000
457.321930 17.000000
457.349760 24.000000
458.388730 14.000000
471.334140 18.000000
473.362700 1000.000000

>ms2
95.085810 123.000000
105.069860 69.000000
107.082560 37.000000
109.096790 54.000000
111.113350 32.000000
121.097350 41.000000
121.110240 39.000000
122.114400 50.000000
123.118650 41.000000
133.097920 136.000000
135.116090 37.000000
135.121840 47.000000
145.097600 56.000000
147.115950 93.000000
148.123090 34.000000
149.105990 34.000000
159.121840 43.000000
161.130980 138.000000
161.138960 71.000000
162.127550 54.000000
163.098250 37.000000
163.104340 34.000000
163.148450 248.000000
165.114460 47.000000
165.141040 69.000000
167.110870 49.000000
173.131290 63.000000
175.149190 114.000000
176.150480 39.000000
177.156780 129.000000
177.164830 153.000000
179.133380 39.000000
185.086930 35.000000
187.144320 32.000000
187.157990 43.000000
188.158510 43.000000
189.128620 39.000000
189.158250 267.000000
189.166170 181.000000
190.171660 69.000000
191.169160 75.000000
191.177060 34.000000
193.121640 47.000000
193.186020 39.000000
201.159190 47.000000
203.180180 328.000000
205.158810 1000.000000
205.181500 56.000000
206.155940 118.000000
206.167620 37.000000
207.169140 45.000000
207.180910 45.000000
215.136960 34.000000
215.172300 37.000000
215.195430 34.000000
217.191820 39.000000
218.201720 39.000000
219.169340 37.000000
220.177660 35.000000
225.164110 39.000000
231.198620 39.000000
245.200620 39.000000
249.185150 34.000000
259.234280 32.000000
281.222810 39.000000
295.242030 99.000000
295.260830 32.000000
313.248140 32.000000
313.264130 47.000000
314.252350 63.000000
314.266910 32.000000
322.258450 41.000000
340.252230 50.000000
391.334590 65.000000
391.353910 37.000000
413.390010 32.000000
431.722170 45.000000
437.349850 39.000000

>ms2
81.065670 202.000000
91.050060 235.000000
91.055630 104.000000
92.057940 104.000000
93.061430 98.000000
95.081990 350.000000
95.087580 317.000000
105.068760 224.000000
105.075360 93.000000
107.087100 634.000000
108.091270 246.000000
109.103230 213.000000
117.068770 137.000000
119.078150 104.000000
119.086000 814.000000
121.103870 459.000000
121.110890 137.000000
125.089680 126.000000
129.066390 148.000000
131.085720 568.000000
132.089200 98.000000
133.101940 1000.000000
135.110660 257.000000
135.118210 257.000000
143.087860 142.000000
144.095670 109.000000
147.118390 650.000000
148.116960 240.000000
149.095410 93.000000
149.144610 98.000000
150.141630 93.000000
152.114030 137.000000
153.069340 93.000000
158.104130 131.000000
159.114730 197.000000
161.111950 142.000000
161.133270 344.000000
164.113100 169.000000
165.122100 153.000000
171.122340 93.000000
173.836380 109.000000
177.157940 355.000000
177.171140 262.000000
187.149600 137.000000
189.156660 230.000000
189.169460 164.000000
201.157530 153.000000
201.170440 131.000000
203.159190 115.000000
203.188340 230.000000
213.156600 109.000000
230.201310 93.000000

