>compound PR40801207
>parentmass 293.1505
>ionization [M+H]+
>formula C15H20N2O4
>rt 172.800000
>profile qtof
#smiles_iso C1=CC=C(C=C1)CCCC(=O)NC(CCC(=O)N)C(=O)O
#smiles_can C1=CC=C(C=C1)CCCC(=O)NC(CCC(=O)N)C(=O)O
#inchikey XKQKXKRCMAJADR-UHFFFAOYSA-N
#pubchem_id 9943917
#mb_accession PR311145

>ms2peaks
84.077320 16.000000
84.082700 42.000000
88.627490 17.000000
91.049600 86.000000
91.055080 90.000000
92.056790 41.000000
119.050710 339.000000
120.045760 21.000000
121.041650 20.000000
121.061980 21.000000
122.090770 24.000000
122.803050 20.000000
129.103000 33.000000
130.087550 42.000000
143.114640 27.000000
147.044820 2948.000000
147.103560 27.000000
147.114090 234.000000
148.037810 144.000000
148.048970 87.000000
148.057680 40.000000
149.053380 25.000000
149.061740 20.000000
165.686510 20.000000
173.096680 17.000000
180.093570 16.000000
200.607930 25.000000
201.954680 26.000000
230.121430 254.000000
231.128340 16.000000
247.148670 69.000000
275.119750 18.000000
275.153990 23.000000
276.156800 16.000000
293.124210 17.000000
293.151670 1369.000000

