>compound PR40808656
>parentmass 696.3799
>ionization [M+NH4]+
>formula C32H54O15
>rt 598.200000
>profile qtof
#smiles_iso CCCCCC(=O)OC1C(OC(C(C1OC(=O)CCCCC)OC(=O)CCCCC)OC2(C(C(C(O2)CO)OC(=O)C)O)CO)CO
#smiles_can CCCCCC(=O)OC1C(OC(C(C1OC(=O)CCCCC)OC(=O)CCCCC)OC2(C(C(C(O2)CO)OC(=O)C)O)CO)CO
#inchikey ULBIMFHIPUGBOI-UHFFFAOYSA-N
#pubchem_id 139292089
#mb_accession PR310742

>ms2peaks
99.078170 31.000000
109.024120 34.000000
109.038810 29.000000
145.046230 16.000000
151.108670 18.000000
268.130740 20.000000
285.132420 20.000000
293.015500 18.000000
463.140750 24.000000
499.318660 18.000000
603.592410 27.000000
615.325870 22.000000
696.391360 64.000000
696.466430 19.000000

