>compound PR41058479
>parentmass 166.1226405538462
>ionization [M+H]+
>formula C10H15NO
>rt 123.124615
>profile qtof
#smiles_iso CN(C)CCC1=CC=C(C=C1)O
#smiles_can CN(C)CCC1=CC=C(C=C1)O
#inchikey KUBCEEMXQZUPDQ-UHFFFAOYSA-N
#pubchem_id 68313
#mb_accession PR300487,PR300492,PR300497,PR300502,PR300507,PR300512,PR300516,PR300521,PR300526,PR300531,PR300536,PR300540,PR311167

>ms2
77.040940 28.000000
78.044420 6.000000
91.053700 9.000000
91.060600 8.000000
92.051730 7.000000
93.070470 59.000000
94.069790 9.000000
94.079300 11.000000
103.050190 22.000000
103.060400 10.000000
104.058820 5.000000
121.042760 5.000000
121.065200 1000.000000
122.040650 8.000000
122.066670 86.000000
123.064560 8.000000
166.102100 11.000000
166.122340 789.000000
166.142090 12.000000

>ms2
121.064900 408.000000
122.056560 6.000000
122.070530 27.000000
166.091030 6.000000
166.122630 1000.000000

>ms2
77.040300 753.000000
77.089170 46.000000
78.043330 71.000000
78.047810 39.000000
79.055370 78.000000
91.046540 62.000000
91.054780 1000.000000
92.052870 48.000000
93.066490 189.000000
93.073600 242.000000
93.987460 41.000000
94.284160 41.000000
95.051180 65.000000
103.038470 39.000000
103.053090 369.000000
104.058730 97.000000
121.064600 797.000000
121.070850 233.000000
122.068030 127.000000
124.789150 94.000000

>ms2
77.041040 307.000000
91.053220 653.000000
121.063830 1000.000000

>ms2
77.042530 12.000000
91.053390 18.000000
91.060750 17.000000
93.058250 6.000000
93.068510 54.000000
93.072970 68.000000
102.045170 6.000000
103.048720 20.000000
103.057400 31.000000
104.055980 14.000000
121.043880 12.000000
121.064880 1000.000000
122.067980 135.000000
123.068580 6.000000
123.635330 6.000000
133.580220 7.000000
166.069780 10.000000
166.123120 623.000000

>ms2
121.064600 378.000000
122.067560 42.000000
166.099400 13.000000
166.123280 1000.000000

>ms2
76.159320 23.000000
77.028140 44.000000
77.031050 96.000000
77.039600 628.000000
78.041000 65.000000
78.046680 46.000000
91.056220 145.000000
92.054910 41.000000
92.059650 66.000000
93.071890 193.000000
93.080200 21.000000
102.999280 41.000000
103.038450 32.000000
103.054320 430.000000
104.049810 24.000000
104.054440 29.000000
120.215040 33.000000
121.065090 1000.000000
122.076170 62.000000
123.785870 40.000000
124.556830 36.000000

>ms2
77.041460 704.000000
91.049930 282.000000
103.055120 1000.000000
137.062380 282.000000
166.109920 479.000000

>ms2
77.037640 6.000000
91.035680 7.000000
91.042590 14.000000
91.052700 32.000000
91.059060 6.000000
93.060100 12.000000
93.068940 103.000000
94.074490 6.000000
103.052650 91.000000
120.211660 6.000000
121.034040 10.000000
121.064540 1000.000000
121.094920 7.000000
122.058310 14.000000
122.068240 62.000000
123.069410 16.000000
123.709350 6.000000
166.121980 566.000000

>ms2
121.065220 423.000000
122.066970 24.000000
166.098110 9.000000
166.123430 1000.000000

>ms2
76.977270 49.000000
77.034490 152.000000
77.040990 545.000000
78.038370 106.000000
78.044680 49.000000
91.048770 195.000000
91.057190 206.000000
93.066790 257.000000
93.075010 201.000000
93.080600 84.000000
103.054250 512.000000
104.052390 98.000000
104.060980 89.000000
119.050060 103.000000
121.065060 1000.000000
121.100780 54.000000
122.064770 49.000000
122.073090 184.000000

>ms2
121.063490 1000.000000
166.122850 294.000000
166.131300 259.000000

>ms2
77.040940 93.000000
78.044420 20.000000
91.053700 29.000000
91.060600 25.000000
92.051730 22.000000
93.070470 195.000000
94.069790 30.000000
94.079300 36.000000
103.050190 72.000000
103.060400 33.000000
104.058820 18.000000
121.042760 17.000000
121.065200 3295.000000
122.040650 25.000000
122.066670 285.000000
123.064560 25.000000
166.102100 35.000000
166.122340 2600.000000
166.142090 39.000000

