>compound PR41066025
>parentmass 623.4517453999999
>ionization [M+H]+
>formula C36H62O8
>rt 570.571980
>profile qtof
#smiles_iso CC(=CCC[C@@](C)([C@H]1CC[C@@]2([C@@H]1[C@@H](C[C@H]3[C@]2(CC[C@@H]4[C@@]3(CC[C@@H](C4(C)C)O)C)C)O)C)O[C@H]5[C@@H]([C@H]([C@@H]([C@H](O5)CO)O)O)O)C
#smiles_can CC(=CCCC(C)(C1CCC2(C1C(CC3C2(CCC4C3(CCC(C4(C)C)O)C)C)O)C)OC5C(C(C(C(O5)CO)O)O)O)C
#inchikey FVIZARNDLVOMSU-IRFFNABBSA-N
#pubchem_id 9852086
#mb_accession PR304417,PR304419,PR304421,PR304423,PR304425,PR304427,PR304430,PR304432,PR304434,PR304436,PR304438

>ms2peaks
93.074070 101.000000
109.087590 154.000000
127.106020 101.000000
137.131230 95.000000
147.117190 101.000000
149.128190 201.000000
149.144130 136.000000
151.152400 107.000000
165.167590 95.000000
171.124450 101.000000
175.150150 124.000000
177.163190 107.000000
203.180790 201.000000
205.199770 107.000000
207.178150 95.000000
211.124390 118.000000
213.166060 118.000000
215.181530 118.000000
217.202120 118.000000
221.173900 95.000000
221.185840 95.000000
229.200450 95.000000
263.166930 107.000000
299.274630 107.000000
313.232850 107.000000
340.309480 95.000000
370.311950 95.000000
370.339360 136.000000
408.352140 95.000000
408.385250 101.000000
409.374270 101.000000
425.371640 1000.000000
425.394230 296.000000
426.360530 95.000000
426.377840 101.000000
443.379300 479.000000
443.404140 462.000000
444.369750 101.000000
444.386810 95.000000
445.396060 183.000000
539.420840 95.000000
605.449580 95.000000
606.460390 219.000000
623.441100 136.000000
623.466610 95.000000

>ms2peaks
127.109220 64.000000
147.118550 44.000000
192.177690 50.000000
207.176010 61.000000
217.204680 56.000000
355.300930 50.000000
370.316100 50.000000
408.369840 50.000000
425.375760 1000.000000
426.375610 267.000000
427.406770 75.000000
443.353210 50.000000
443.391780 442.000000
444.378940 50.000000
444.392970 97.000000
467.783600 50.000000
522.421880 50.000000
588.717650 56.000000
605.409670 47.000000
623.420840 47.000000
623.442320 100.000000
623.476440 111.000000

>ms2peaks
93.071300 299.000000
109.100750 486.000000
119.088980 178.000000
120.091380 159.000000
121.099090 336.000000
122.102440 150.000000
123.106040 178.000000
127.104530 150.000000
132.539180 187.000000
133.107440 159.000000
135.116840 252.000000
147.115200 364.000000
161.132420 150.000000
162.136760 150.000000
163.148800 336.000000
175.146770 486.000000
177.159940 150.000000
187.145800 150.000000
189.164030 196.000000
189.172290 150.000000
201.169040 187.000000
203.160340 355.000000
203.178150 336.000000
204.182720 327.000000
207.177670 150.000000
217.195650 1000.000000
220.186080 196.000000
221.188660 159.000000
231.214720 159.000000
233.182430 150.000000
258.234470 196.000000
271.234950 776.000000
274.274230 224.000000
296.310910 150.000000
315.259670 280.000000
329.291440 150.000000
339.925690 178.000000
343.280330 159.000000
407.381160 159.000000
409.370270 215.000000
425.368470 150.000000
425.397920 196.000000
426.385350 421.000000
443.377530 159.000000
444.385500 168.000000
525.414670 187.000000

>ms2peaks
95.083640 258.000000
107.068210 258.000000
107.085010 258.000000
121.104300 548.000000
123.116940 274.000000
133.094910 258.000000
135.117870 581.000000
137.128810 274.000000
147.112660 290.000000
158.583010 258.000000
159.114760 645.000000
203.177750 1000.000000

>ms2peaks
107.084690 93.000000
109.098980 171.000000
109.105440 143.000000
123.101990 62.000000
123.120290 62.000000
124.116640 62.000000
136.123550 78.000000
147.112380 85.000000
147.118650 124.000000
151.111280 70.000000
163.149690 70.000000
178.156750 62.000000
180.156400 62.000000
190.174220 66.000000
191.180310 62.000000
203.178510 62.000000
204.181110 70.000000
204.800700 81.000000
207.180920 128.000000
217.203660 62.000000
218.196910 66.000000
221.190610 62.000000
257.215390 81.000000
269.238010 140.000000
271.242000 62.000000
297.266110 89.000000
351.312410 85.000000
352.305850 81.000000
407.374150 93.000000
408.382450 62.000000
408.395170 116.000000
409.376130 147.000000
425.352630 62.000000
425.378390 1000.000000
426.366550 360.000000
426.384190 260.000000
427.377690 70.000000
443.390750 271.000000
444.385650 159.000000
445.398130 66.000000
605.435610 62.000000

>ms2peaks
149.136230 62.000000
405.164580 62.000000
425.381130 1000.000000
426.388400 175.000000
443.391630 144.000000
443.405120 198.000000
444.379150 70.000000
475.285980 78.000000
502.286930 66.000000
534.405880 66.000000
606.455260 78.000000
623.355770 70.000000
623.422550 105.000000
623.461910 62.000000
623.482420 62.000000

>ms2peaks
81.066800 205.000000
93.069130 250.000000
94.549620 182.000000
95.087670 216.000000
105.070200 364.000000
105.074920 386.000000
106.058360 182.000000
108.529920 182.000000
109.101910 182.000000
109.107310 227.000000
119.083150 284.000000
119.089010 500.000000
121.102620 420.000000
122.108650 307.000000
123.105480 182.000000
123.121060 261.000000
128.118710 182.000000
135.110860 727.000000
135.123250 182.000000
136.117810 239.000000
139.943180 227.000000
147.113070 1000.000000
149.118580 500.000000
150.052760 193.000000
161.138700 261.000000
162.133260 375.000000
163.147990 216.000000
175.140870 193.000000
187.147130 182.000000
189.167180 557.000000
190.171020 182.000000
191.174270 193.000000
207.178730 182.000000
213.165370 182.000000
221.180440 182.000000
272.248260 182.000000

>ms2peaks
119.090670 267.000000
127.117840 267.000000
133.107350 267.000000
147.117650 427.000000
163.151780 227.000000
189.168260 347.000000
201.125170 240.000000
203.183120 213.000000
207.182480 440.000000
208.177810 213.000000
215.180010 213.000000
216.174010 240.000000
246.225280 213.000000
272.252560 427.000000
343.305690 240.000000
425.375550 880.000000
425.395720 440.000000
426.380280 213.000000
426.401180 267.000000
427.366550 360.000000
433.913270 280.000000
443.389740 1000.000000
444.398500 307.000000
445.408020 227.000000
502.305510 253.000000
515.390380 307.000000
623.453190 653.000000

>ms2peaks
127.109730 33.000000
147.114850 41.000000
203.180630 54.000000
203.192320 33.000000
207.172550 114.000000
217.193470 187.000000
217.211500 33.000000
218.185410 41.000000
257.221650 33.000000
331.021910 52.000000
344.301540 37.000000
345.408390 33.000000
369.322270 37.000000
370.314360 41.000000
407.346220 108.000000
407.372500 44.000000
408.366300 48.000000
425.342800 52.000000
425.377560 1000.000000
425.397710 228.000000
426.367800 147.000000
426.390290 68.000000
427.399230 77.000000
427.420070 41.000000
428.406430 35.000000
443.367800 158.000000
443.399320 459.000000
443.453160 35.000000
444.324130 33.000000
444.401730 33.000000
445.410190 41.000000
605.438780 37.000000
605.467350 91.000000
622.338010 33.000000
623.425840 85.000000
623.441710 58.000000
623.476440 46.000000

>ms2peaks
107.079750 138.000000
107.090170 362.000000
109.102760 172.000000
119.082870 138.000000
119.088190 172.000000
123.111760 138.000000
123.118160 328.000000
134.103790 172.000000
136.121090 147.000000
137.132710 138.000000
147.112840 1000.000000
147.118560 336.000000
150.132290 138.000000
161.128040 138.000000
163.150090 138.000000
171.112380 147.000000
175.153700 172.000000
175.159960 155.000000
177.168990 147.000000
186.138980 172.000000
188.150440 138.000000
189.159740 491.000000
190.162350 172.000000
190.172000 345.000000
191.171460 138.000000
203.179340 422.000000
204.193070 293.000000
207.167240 147.000000
207.183880 517.000000
208.181350 147.000000
213.168330 328.000000
215.174880 147.000000
217.193650 138.000000
218.208220 147.000000
229.195010 371.000000
231.214510 172.000000
245.215620 138.000000
247.180690 138.000000
271.250920 138.000000
283.237120 138.000000
284.227510 216.000000
329.286130 138.000000
331.257050 138.000000
369.316770 155.000000
407.367070 138.000000
408.371830 172.000000
425.362520 138.000000
426.291320 138.000000
443.386540 431.000000
504.375580 147.000000

>ms2peaks
83.085160 136.000000
84.097370 178.000000
93.071200 144.000000
95.088390 314.000000
97.093610 280.000000
105.069020 322.000000
107.087390 169.000000
108.086850 136.000000
109.097650 136.000000
110.104440 136.000000
110.110380 153.000000
111.080090 153.000000
117.228940 144.000000
119.089480 305.000000
120.088850 169.000000
121.090900 203.000000
121.104340 144.000000
123.118450 466.000000
129.074100 195.000000
133.097430 280.000000
135.120760 517.000000
137.126450 161.000000
147.118450 1000.000000
148.117020 246.000000
149.126980 136.000000
150.133100 136.000000
151.139500 153.000000
161.129910 381.000000
161.136640 331.000000
163.149280 254.000000
172.124970 203.000000
173.129970 178.000000
176.154950 136.000000
188.149990 195.000000
190.161450 169.000000
203.181380 347.000000

