>compound PR41807853
>parentmass 181.0495352
>ionization [M+H]+
>formula C9H8O4
>rt 206.203980
>profile qtof
#smiles_iso C1=CC(=C(C=C1/C=C/C(=O)O)O)O
#smiles_can C1=CC(=C(C=C1C=CC(=O)O)O)O
#inchikey QAIPRVGONGVQAS-DUXPYHPUSA-N
#pubchem_id 689043
#mb_accession PR303378,PR303381,PR303384,PR303387,PR303390,PR303393,PR303396,PR303401,PR303404,PR303407

>ms2peaks
89.037340 130.000000
97.968360 135.000000
107.035620 135.000000
117.029530 451.000000
117.043090 150.000000
133.019030 176.000000
133.026660 140.000000
134.039170 130.000000
135.044280 762.000000
145.027940 192.000000
163.018740 109.000000
163.034970 1000.000000
163.042130 715.000000
164.044340 114.000000
180.044420 187.000000
181.042890 119.000000

>ms2peaks
93.068700 24.000000
133.027300 28.000000
135.043840 33.000000
137.095230 29.000000
139.044130 33.000000
141.962110 66.000000
145.021710 39.000000
145.030550 28.000000
163.040800 1000.000000
164.044400 204.000000
165.620510 30.000000
178.665220 20.000000
179.111010 22.000000
180.027510 39.000000
180.038310 54.000000
180.044860 154.000000

>ms2peaks
117.036460 1000.000000
118.035840 569.000000
135.043350 415.000000

>ms2peaks
89.042750 1000.000000

>ms2peaks
79.053470 119.000000
89.038650 93.000000
107.048340 102.000000
117.035090 76.000000
133.990040 178.000000
134.030730 127.000000
135.046880 305.000000
138.997820 136.000000
145.026750 93.000000
146.020320 102.000000
163.022610 131.000000
163.038670 1000.000000
164.057080 186.000000
180.038150 318.000000
180.043430 119.000000

>ms2peaks
90.652910 24.000000
133.041490 44.000000
135.051570 30.000000
142.984620 31.000000
145.024830 136.000000
145.032640 28.000000
163.030780 254.000000
163.041350 1000.000000
164.047870 42.000000
180.032500 26.000000
180.040410 72.000000
180.992000 21.000000
181.047580 33.000000
181.056900 69.000000
181.159700 52.000000

>ms2peaks
77.042700 386.000000
135.043590 1000.000000
163.042690 351.000000

>ms2peaks
89.037030 123.000000
117.032200 100.000000
123.036610 86.000000
135.043120 173.000000
139.039320 110.000000
162.027630 70.000000
163.038010 1000.000000
163.049390 60.000000
164.036820 189.000000
180.034610 90.000000
180.048450 206.000000
181.042720 56.000000
181.070370 86.000000

>ms2peaks
95.051370 26.000000
107.044080 16.000000
108.909220 30.000000
111.985950 16.000000
134.036190 17.000000
135.044830 26.000000
135.078750 27.000000
141.958800 21.000000
141.977020 19.000000
145.024540 48.000000
146.104350 25.000000
163.038280 1000.000000
164.040650 38.000000
164.050960 16.000000
165.641600 23.000000
179.028640 35.000000
179.036900 85.000000
179.104000 23.000000
180.042220 251.000000
181.047070 209.000000
181.123660 33.000000

>ms2peaks
77.038380 433.000000
89.035340 1000.000000
89.041190 328.000000
94.042760 657.000000
117.036770 388.000000
118.035260 403.000000
134.460800 358.000000
135.045060 582.000000
146.029240 403.000000

