>compound PR41107675
>parentmass 155.081504
>ionization [M+H]+
>formula C7H10N2O2
>rt 123.426000
>profile qtof
#smiles_iso C1C[C@H]2C(=O)NCC(=O)N2C1
#smiles_can C1CC2C(=O)NCC(=O)N2C1
#inchikey OWOHLURDBZHNGG-YFKPBYRVSA-N
#pubchem_id 126154
#mb_accession PR300381,PR300386,PR300391,PR300396,PR300401,PR300406,PR300411,PR300416,PR300421,PR300426,PR300431

>ms2
56.060390 9.000000
67.353710 7.000000
70.059550 9.000000
70.068040 99.000000
82.065200 57.000000
96.087110 8.000000
99.091440 6.000000
105.070010 9.000000
127.043670 8.000000
127.076730 16.000000
127.089010 66.000000
130.361400 7.000000
153.917740 6.000000
155.082960 1000.000000

>ms2
70.063100 12.000000
82.065120 7.000000
127.081640 8.000000
127.087690 29.000000
128.087490 7.000000
155.054890 14.000000
155.081470 1000.000000

>ms2
82.062000 312.000000
82.070490 300.000000
99.092930 1000.000000
127.083360 312.000000
155.075530 375.000000

>ms2
147.929350 1000.000000

>ms2
70.058110 17.000000
70.064640 17.000000
70.069310 12.000000
82.066090 67.000000
85.035960 9.000000
85.042880 25.000000
96.961940 7.000000
99.089070 8.000000
99.097100 11.000000
127.086920 80.000000
128.309280 7.000000
129.090930 12.000000
137.064420 17.000000
138.056400 9.000000
153.511200 6.000000
155.046460 8.000000
155.080960 1000.000000

>ms2
70.067790 17.000000
71.072500 8.000000
99.094190 15.000000
113.961650 5.000000
127.081680 14.000000
127.088370 15.000000
155.049480 19.000000
155.054960 8.000000
155.081650 1000.000000

>ms2
70.062290 381.000000
155.087840 1000.000000

>ms2
75.028790 1000.000000

>ms2
70.067230 91.000000
82.066020 9.000000
99.091800 32.000000
110.060490 9.000000
113.969910 8.000000
115.983010 8.000000
125.074580 9.000000
127.062950 14.000000
127.079640 42.000000
127.088780 81.000000
154.819760 9.000000
155.083070 1000.000000

>ms2
70.065990 16.000000
127.080700 8.000000
127.087490 30.000000
128.089260 7.000000
128.094410 15.000000
155.081990 1000.000000

>ms2
70.062270 327.000000
70.065950 1000.000000
98.059240 300.000000
155.078540 155.000000

