>compound PR41248945
>parentmass 449.1072893
>ionization [M]+
>formula C21H21O11+
>rt 174.679020
>profile qtof
#smiles_iso C1=CC(=C(C=C1C2=[O+]C3=CC(=CC(=C3C=C2O[C@H]4[C@@H]([C@H]([C@@H]([C@H](O4)CO)O)O)O)O)O)O)O
#smiles_can C1=CC(=C(C=C1C2=[O+]C3=CC(=CC(=C3C=C2OC4C(C(C(C(O4)CO)O)O)O)O)O)O)O
#inchikey RKWHWFONKJEUEF-GQUPQBGVSA-O
#pubchem_id 441667
#mb_accession PR302271,PR302277,PR302283,PR302289,PR302295,PR302300,PR302306,PR302312,PR302318,PR302324,PR302330,PR302336

>ms2peaks
213.044620 9.000000
287.005860 10.000000
287.055110 1000.000000
288.030820 9.000000
288.059750 186.000000
289.029910 7.000000
289.051910 5.000000
289.061280 9.000000
449.067810 8.000000
449.110530 246.000000

>ms2peaks
287.026180 10.000000
287.055360 242.000000
288.057740 44.000000
449.034090 10.000000
449.058290 10.000000
449.107850 1000.000000

>ms2peaks
287.003660 6.000000
287.056460 1000.000000
288.036190 15.000000
288.058870 104.000000
288.071470 75.000000
289.052000 14.000000

>ms2peaks
61.342410 8.000000
67.111260 13.000000
68.513120 7.000000
68.990420 8.000000
68.998470 7.000000
81.023870 9.000000
81.031900 10.000000
93.070020 7.000000
105.034940 24.000000
105.040500 7.000000
109.026200 41.000000
109.032490 18.000000
109.040160 11.000000
110.033740 18.000000
111.001480 26.000000
115.033260 12.000000
115.052880 35.000000
121.005610 8.000000
121.027130 22.000000
122.031230 7.000000
123.037790 15.000000
128.062240 37.000000
130.076640 8.000000
132.059600 7.000000
133.063310 8.000000
133.070360 18.000000
135.027440 14.000000
136.905000 14.000000
137.008580 13.000000
137.021710 256.000000
138.021610 26.000000
139.029460 9.000000
139.043960 8.000000
139.052050 34.000000
140.038090 11.000000
141.061230 18.000000
141.070940 15.000000
143.047260 72.000000
147.038800 23.000000
149.022320 26.000000
150.028350 10.000000
153.005390 8.000000
153.018220 7.000000
155.051410 15.000000
157.059840 74.000000
160.048340 11.000000
161.058730 65.000000
163.033430 13.000000
163.318850 8.000000
165.001980 8.000000
165.014430 18.000000
167.050000 14.000000
168.061750 14.000000
170.071950 18.000000
171.030230 9.000000
171.042790 22.000000
172.042830 10.000000
175.038300 32.000000
175.068830 16.000000
175.091920 8.000000
176.024460 9.000000
177.013820 8.000000
177.024750 8.000000
177.047990 13.000000
184.048860 16.000000
185.018460 8.000000
185.057400 87.000000
185.063670 30.000000
186.054280 12.000000
187.037320 19.000000
189.059950 15.000000
191.054640 10.000000
195.031050 8.000000
196.057190 23.000000
198.651140 9.000000
199.024200 9.000000
199.040040 17.000000
199.052760 8.000000
202.057220 9.000000
203.055160 16.000000
203.061390 8.000000
203.078600 12.000000
206.012660 13.000000
212.999620 12.000000
213.020710 8.000000
213.035570 18.000000
213.051900 180.000000
213.060550 124.000000
214.051330 8.000000
214.060730 27.000000
216.043900 11.000000
217.036130 23.000000
217.046010 35.000000
217.052780 13.000000
218.045520 10.000000
218.405140 9.000000
223.032070 11.000000
229.037260 8.000000
230.051380 12.000000
231.054550 8.000000
231.069730 59.000000
232.061600 17.000000
232.067540 8.000000
240.052170 9.000000
241.052490 119.000000
241.072480 10.000000
242.046540 30.000000
242.062610 12.000000
243.056840 8.000000
258.046330 10.000000
259.052980 15.000000
259.064030 21.000000
269.044040 80.000000
270.043490 14.000000
270.063870 8.000000
287.007050 51.000000
287.025570 33.000000
287.055540 1000.000000
287.928190 12.000000
288.016080 8.000000
288.033940 18.000000
288.056980 180.000000
288.073270 23.000000
289.045930 10.000000
289.060820 20.000000
291.220340 9.000000

>ms2peaks
213.054020 14.000000
259.053010 5.000000
286.993040 10.000000
287.024810 10.000000
287.053710 1000.000000
288.056060 125.000000
288.065550 42.000000
289.035980 9.000000
289.062680 16.000000
449.056270 6.000000
449.072200 8.000000
449.107330 260.000000

>ms2peaks
287.054750 226.000000
288.059570 33.000000
298.494380 6.000000
449.043640 6.000000
449.068150 13.000000
449.105680 1000.000000

>ms2peaks
287.016660 21.000000
287.053470 1000.000000
287.987950 5.000000
288.038330 19.000000
288.058870 163.000000
289.061860 28.000000

>ms2peaks
65.034580 16.000000
69.000410 6.000000
81.038130 7.000000
91.056880 6.000000
93.029140 14.000000
103.050840 10.000000
109.014850 8.000000
109.021940 8.000000
109.029990 65.000000
111.004570 14.000000
114.710980 5.000000
115.004470 5.000000
115.054430 62.000000
121.027320 43.000000
127.054940 9.000000
129.067950 38.000000
133.063030 7.000000
134.068820 9.000000
136.995220 11.000000
137.010800 12.000000
137.024950 147.000000
138.019200 8.000000
140.059890 7.000000
141.071690 18.000000
143.043200 6.000000
143.055420 7.000000
144.057010 7.000000
145.063640 13.000000
146.027970 7.000000
148.047350 7.000000
149.018310 19.000000
149.027130 45.000000
150.029880 28.000000
151.038530 6.000000
156.046300 8.000000
157.028780 7.000000
157.042880 7.000000
157.051880 6.000000
157.066300 40.000000
158.066600 8.000000
160.052700 20.000000
161.038860 9.000000
161.060850 17.000000
165.019130 42.000000
166.007780 6.000000
167.048220 36.000000
168.052460 7.000000
168.062060 35.000000
169.074520 7.000000
171.044390 16.000000
172.044820 7.000000
172.051470 6.000000
173.061780 12.000000
175.070800 6.000000
176.084900 7.000000
177.016510 16.000000
179.029690 6.000000
185.049410 27.000000
185.058040 55.000000
187.040360 8.000000
187.074250 7.000000
189.049840 41.000000
189.061650 8.000000
190.058070 7.000000
191.034840 5.000000
194.321000 8.000000
196.045290 6.000000
200.043780 12.000000
200.257370 8.000000
201.047910 10.000000
203.202190 10.000000
203.612320 5.000000
205.033710 6.000000
205.065990 6.000000
212.052750 6.000000
213.022080 14.000000
213.044710 25.000000
213.056610 173.000000
213.191640 10.000000
213.265840 6.000000
214.057420 14.000000
214.067550 9.000000
215.041430 8.000000
215.059600 5.000000
216.045200 42.000000
217.034210 13.000000
218.066930 5.000000
231.039410 7.000000
231.055220 13.000000
231.067790 23.000000
232.067430 7.000000
241.038280 35.000000
241.047850 42.000000
241.061490 8.000000
242.050860 17.000000
242.063140 6.000000
242.075820 6.000000
245.025850 5.000000
250.740890 5.000000
253.039020 7.000000
258.032840 6.000000
260.285710 8.000000
269.034390 18.000000
270.051570 11.000000
286.968140 9.000000
287.024480 12.000000
287.057070 1000.000000
287.702270 9.000000
288.020840 9.000000
288.034970 15.000000
288.058560 246.000000
288.090550 6.000000
288.393740 8.000000
289.045960 16.000000
289.072630 14.000000
339.104460 8.000000

>ms2peaks
189.058560 8.000000
287.000310 8.000000
287.024260 9.000000
287.053800 1000.000000
288.039610 11.000000
288.059720 159.000000
289.060390 32.000000
449.081850 22.000000
449.107760 247.000000

>ms2peaks
287.055330 229.000000
288.057770 41.000000
449.047360 5.000000
449.105990 1000.000000

>ms2peaks
287.022860 13.000000
287.055850 1000.000000
288.058990 183.000000
289.052670 25.000000
289.069430 13.000000

>ms2peaks
68.998090 19.000000
79.053900 11.000000
102.571110 7.000000
105.032320 14.000000
105.066630 8.000000
109.027530 6.000000
112.009500 6.000000
115.055800 8.000000
119.048730 7.000000
121.012360 18.000000
121.027920 61.000000
123.041230 30.000000
123.050060 22.000000
126.923640 8.000000
129.070880 12.000000
130.796340 19.000000
133.068450 10.000000
135.591490 12.000000
136.997310 9.000000
137.017380 64.000000
137.023730 191.000000
137.034640 10.000000
137.994290 10.000000
138.019710 10.000000
138.033680 9.000000
139.052660 17.000000
139.059490 24.000000
140.057310 14.000000
141.064070 8.000000
141.073870 16.000000
142.067110 8.000000
142.628460 8.000000
143.045240 21.000000
144.056300 14.000000
145.065440 6.000000
145.664440 6.000000
147.013960 11.000000
148.998060 7.000000
149.021670 9.000000
149.063060 9.000000
150.025590 41.000000
152.043080 8.000000
157.063350 40.000000
157.071850 35.000000
158.061080 6.000000
160.057740 10.000000
161.056180 42.000000
161.067230 8.000000
163.080860 7.000000
167.049580 22.000000
167.918000 9.000000
170.065660 8.000000
171.038270 8.000000
173.059770 12.000000
175.041240 8.000000
175.051570 12.000000
175.079360 25.000000
176.080230 8.000000
176.956160 10.000000
177.022520 33.000000
179.026410 9.000000
185.053120 12.000000
185.063640 70.000000
188.036240 19.000000
189.052230 19.000000
189.061940 17.000000
190.052400 10.000000
191.024810 10.000000
191.921520 9.000000
195.021910 9.000000
197.054820 7.000000
199.034420 10.000000
199.043230 20.000000
200.044020 9.000000
201.054350 17.000000
201.115360 9.000000
203.024630 10.000000
203.069530 34.000000
203.091740 6.000000
206.719470 12.000000
208.053570 16.000000
213.035690 10.000000
213.052510 200.000000
213.063670 64.000000
214.019030 7.000000
214.043590 10.000000
214.050640 9.000000
214.064320 20.000000
214.222850 8.000000
215.063460 11.000000
216.042370 22.000000
217.048970 17.000000
223.012390 12.000000
224.039080 11.000000
229.058670 8.000000
230.033710 13.000000
230.052080 10.000000
231.027160 10.000000
231.061020 47.000000
231.089630 12.000000
232.066250 17.000000
233.065480 10.000000
240.037060 11.000000
241.028730 10.000000
241.036500 10.000000
241.049640 74.000000
241.099150 6.000000
242.059800 58.000000
245.931110 10.000000
246.265170 7.000000
253.047000 7.000000
257.043580 11.000000
258.055020 7.000000
259.032350 7.000000
262.697240 6.000000
269.027440 6.000000
269.037570 19.000000
269.057340 8.000000
270.046840 6.000000
271.822720 16.000000
280.161070 10.000000
283.137510 15.000000
283.215850 7.000000
283.341280 7.000000
285.231350 12.000000
286.046300 9.000000
286.995670 10.000000
287.010380 6.000000
287.057190 1000.000000
287.982760 8.000000
288.035130 14.000000
288.058200 152.000000
288.081480 19.000000
289.057530 42.000000
289.070950 19.000000
294.035160 7.000000
312.267240 6.000000

