>compound PR42037336
>parentmass 611.1601128000001
>ionization [M]+
>formula C27H31O16+
>rt 150.016020
>profile qtof
#smiles_iso C1=CC(=C(C=C1C2=C(C=C3C(=CC(=CC3=[O+]2)O)O[C@H]4[C@@H]([C@H]([C@@H]([C@H](O4)CO)O)O)O)O[C@H]5[C@@H]([C@H]([C@@H]([C@H](O5)CO)O)O)O)O)O
#smiles_can C1=CC(=C(C=C1C2=C(C=C3C(=CC(=CC3=[O+]2)O)OC4C(C(C(C(O4)CO)O)O)O)OC5C(C(C(C(O5)CO)O)O)O)O)O
#inchikey RDFLLVCQYHQOBU-ZOTFFYTFSA-O
#pubchem_id 441688
#mb_accession PR302859,PR302865,PR302871,PR302877,PR302883,PR302889,PR302895,PR302901,PR302907,PR302913,PR302919,PR302925

>ms2peaks
287.003750 15.000000
287.022980 33.000000
287.055450 1000.000000
288.044950 24.000000
288.063200 89.000000
289.036620 15.000000
289.054140 12.000000
289.066310 24.000000
396.570010 9.000000
420.501280 16.000000
431.083190 8.000000
449.087590 56.000000
449.105560 104.000000
449.118010 146.000000
450.093780 16.000000
450.110200 16.000000
450.127500 11.000000
450.175110 9.000000
451.100040 19.000000
451.120000 13.000000
452.021480 8.000000
452.105680 13.000000
609.624760 26.000000
610.789120 13.000000
611.086000 26.000000
611.116700 23.000000
611.156190 510.000000

>ms2peaks
287.065220 13.000000
289.074800 8.000000
310.278900 5.000000
329.564180 9.000000
374.276490 5.000000
379.216740 8.000000
380.492920 7.000000
388.046140 7.000000
420.448790 5.000000
422.785950 5.000000
441.427640 5.000000
448.700560 5.000000
449.067020 9.000000
449.099270 24.000000
449.117520 23.000000
450.072050 6.000000
450.116580 5.000000
610.886660 8.000000
611.088810 26.000000
611.162600 1000.000000
611.220090 5.000000

>ms2peaks
87.035080 11.000000
185.250430 5.000000
257.052800 17.000000
287.013000 33.000000
287.056000 1000.000000
288.058590 100.000000
288.346280 7.000000
289.071440 7.000000
290.070500 8.000000
449.100520 9.000000
449.117460 15.000000
449.141880 8.000000
611.171570 9.000000

>ms2peaks
149.009160 21.000000
179.026570 9.000000
199.056270 9.000000
212.047940 15.000000
228.035230 14.000000
275.974850 7.000000
286.208040 11.000000
286.942690 15.000000
287.000730 9.000000
287.022610 21.000000
287.052830 1000.000000
288.002010 11.000000
288.021180 9.000000
288.054930 101.000000
288.077270 23.000000
289.054930 12.000000
354.641480 7.000000

>ms2peaks
210.858720 8.000000
286.045900 21.000000
287.054080 1000.000000
288.011720 13.000000
288.035000 15.000000
288.055940 135.000000
288.073850 41.000000
289.061520 9.000000
293.922330 12.000000
376.601200 10.000000
425.683380 10.000000
449.066470 10.000000
449.091920 56.000000
449.115480 73.000000
449.435460 8.000000
450.112210 59.000000
459.691470 9.000000
468.848790 8.000000
554.717650 11.000000
611.080630 9.000000
611.132690 90.000000
611.167790 552.000000

>ms2peaks
71.511150 5.000000
287.054230 18.000000
385.414830 6.000000
449.078400 6.000000
449.106780 95.000000
450.080570 13.000000
450.098240 6.000000
450.112880 6.000000
452.019170 5.000000
452.101620 10.000000
611.159240 1000.000000

>ms2peaks
98.510610 13.000000
188.446750 9.000000
190.274490 8.000000
286.045620 9.000000
286.970890 7.000000
287.054720 1000.000000
287.097380 6.000000
287.188570 7.000000
287.992370 7.000000
288.029750 16.000000
288.057680 146.000000
288.089810 8.000000
289.049380 7.000000
289.069850 7.000000
290.076390 13.000000
291.914890 7.000000
413.883970 7.000000
449.086730 8.000000
449.108730 60.000000
449.130130 6.000000
450.110530 8.000000

>ms2peaks
147.045810 13.000000
231.062290 14.000000
236.329990 16.000000
269.896270 12.000000
287.028350 46.000000
287.054350 1000.000000
287.302760 8.000000
288.045720 22.000000
288.059170 86.000000
289.051510 12.000000
289.067470 8.000000
289.081730 12.000000
297.255920 9.000000

>ms2peaks
169.313770 10.000000
258.115510 12.000000
286.985110 15.000000
287.036900 101.000000
287.057130 1000.000000
288.049620 146.000000
288.062590 60.000000
288.078860 25.000000
289.050110 28.000000
289.067570 13.000000
322.454040 17.000000
431.089900 12.000000
448.175230 13.000000
448.909940 9.000000
449.035220 11.000000
449.074680 47.000000
449.104030 197.000000
449.120270 55.000000
450.082030 25.000000
450.104580 34.000000
450.125490 36.000000
450.849910 11.000000
452.960750 10.000000
611.044980 16.000000
611.098390 12.000000
611.153260 331.000000
611.171390 292.000000

>ms2peaks
287.055660 26.000000
363.199310 12.000000
449.015990 13.000000
449.095860 53.000000
449.119480 17.000000
450.118230 17.000000
451.057010 10.000000
600.867860 7.000000
611.104000 14.000000
611.160580 1000.000000

>ms2peaks
152.720810 10.000000
164.299790 9.000000
250.976210 9.000000
286.982120 12.000000
287.013670 9.000000
287.025120 32.000000
287.055570 1000.000000
287.516780 13.000000
288.046330 46.000000
288.054900 100.000000
288.068540 22.000000
288.131290 11.000000
289.058070 13.000000
383.081820 10.000000
449.042630 11.000000
449.098600 20.000000
449.116490 22.000000
450.119900 14.000000

>ms2peaks
165.014770 16.000000
189.059310 24.000000
287.037480 261.000000
287.057590 1000.000000
288.016750 22.000000
288.052890 108.000000
288.064670 121.000000
289.065160 31.000000
289.609440 18.000000

