>compound PR42419334
>parentmass 277.1666
>ionization [M+H]+
>formula C14H20N4O2
>rt 177.600000
>profile qtof
#smiles_iso C1=CC(=CC=C1C=CC(=O)NCCCCN=C(N)N)O
#smiles_can C1=CC(=CC=C1C=CC(=O)NCCCCN=C(N)N)O
#inchikey AKIHYQWCLCDMMI-UHFFFAOYSA-N
#pubchem_id 440362
#mb_accession PR311079,PR311080

>ms2peaks
72.080060 17.000000
114.100370 24.000000
119.051270 25.000000
147.035600 22.000000
147.043690 110.000000
231.920290 20.000000
260.134980 17.000000
277.163150 285.000000

>ms2peaks
91.060020 25.000000
98.057140 17.000000
119.050420 17.000000
147.043870 138.000000
260.132810 35.000000
277.164220 244.000000

