>compound PR42265911
>parentmass 640.3207
>ionization [M+NH4]+
>formula C28H46O15
>rt 482.400000
>profile qtof
#smiles_iso CCCCC(=O)OC1C(OC(C(C1OC(=O)CCCC)OC(=O)CCC)OC2(C(C(C(O2)CO)OC(=O)C)O)CO)CO
#smiles_can CCCCC(=O)OC1C(OC(C(C1OC(=O)CCCC)OC(=O)CCC)OC2(C(C(C(O2)CO)OC(=O)C)O)CO)CO
#inchikey TVWKJMQVETZQNH-UHFFFAOYSA-N
#pubchem_id 139292078
#mb_accession PR310738

>ms2peaks
109.030190 21.000000
139.038560 34.000000
145.058650 31.000000
169.044330 109.000000
229.152940 28.000000
289.072200 27.000000
332.138950 16.000000
443.225920 53.000000
444.229550 63.000000
640.299190 17.000000

