>compound PR43270674
>parentmass 519.1155
>ionization [M+H]+
>formula C24H22O13
>rt 309.600000
>profile qtof
#smiles_iso C1=CC(=CC=C1C2=CC(=O)C3=C(C=C(C=C3O2)OC4C(C(C(C(O4)COC(=O)CC(=O)O)O)O)O)O)O
#smiles_can C1=CC(=CC=C1C2=CC(=O)C3=C(C=C(C=C3O2)OC4C(C(C(C(O4)COC(=O)CC(=O)O)O)O)O)O)O
#inchikey JXWAQRJFONLTSI-UHFFFAOYSA-N
#pubchem_id 5856141
#mb_accession PR310957

>ms2
127.043680 21.000000
145.049220 25.000000
198.551730 21.000000
271.061830 238.000000
501.153810 20.000000
519.115970 87.000000

