>compound PR43620434
>parentmass 323.1296
>ionization [M+H]+
>formula C20H18O4
>rt 424.500000
>profile qtof
#smiles_iso CC(=CCC1=C(C=CC(=C1)C2=COC3=C(C2=O)C=CC(=C3)O)O)C
#smiles_can CC(=CCC1=C(C=CC(=C1)C2=COC3=C(C2=O)C=CC(=C3)O)O)C
#inchikey OBGPEBYHGIUFBN-UHFFFAOYSA-N
#pubchem_id 5320053
#mb_accession PR310759,PR310760

>ms2
130.065720 26.000000
153.076400 18.000000
157.067340 20.000000
170.505130 24.000000
185.054460 19.000000
185.071520 17.000000
187.033550 21.000000
187.047330 20.000000
199.078770 17.000000
224.051610 19.000000
239.070830 19.000000
240.084440 21.000000
266.048430 52.000000
267.066740 421.000000
268.073430 80.000000
268.084440 32.000000
269.079500 18.000000
269.093600 30.000000
292.076450 24.000000
323.117400 52.000000
323.127170 177.000000
323.149320 17.000000

>ms2
79.709400 20.000000
149.017140 20.000000
149.024840 84.000000
150.025560 20.000000
166.075760 17.000000
169.062300 24.000000
187.070220 24.000000
197.056950 47.000000
198.834980 17.000000
203.028200 22.000000
211.079240 22.000000
213.028150 22.000000
221.064030 21.000000
239.060090 19.000000
265.042330 25.000000
267.046750 17.000000
267.063810 160.000000
268.061580 130.000000
269.087070 17.000000
280.076290 22.000000
281.300050 17.000000
282.974850 18.000000
299.092410 33.000000
323.117250 127.000000
323.130770 296.000000

