>compound PR43151475
>parentmass 367.20161920000004
>ionization [M+H]+
>formula C22H26N2O3
>rt 340.542000
>profile qtof
#smiles_iso CO/C=C(\[C@H]1C[C@@H]2C3=C(CCN2C[C@@H]1C=C)C4=CC=CC=C4N3)/C(=O)OC
#smiles_can COC=C(C1CC2C3=C(CCN2CC1C=C)C4=CC=CC=C4N3)C(=O)OC
#inchikey TZUGIFAYWNNSAO-AZQGJTAVSA-N
#pubchem_id 3037151
#mb_accession PR300182,PR300187,PR300192,PR300197,PR300202,PR300207,PR300212,PR300217,PR300222,PR300227,PR300232,PR300237

>ms2
109.064410 9.000000
126.092500 5.000000
129.056120 7.000000
130.065320 9.000000
144.080150 143.000000
145.083860 22.000000
149.063170 5.000000
155.069760 8.000000
156.079800 12.000000
158.095860 17.000000
167.074680 5.000000
168.080200 8.000000
169.086700 9.000000
170.094920 54.000000
171.097020 9.000000
172.106900 6.000000
178.087800 6.000000
180.079770 6.000000
180.101620 7.000000
182.096710 23.000000
183.099200 6.000000
192.102400 14.000000
199.124240 17.000000
204.103100 8.000000
206.093250 6.000000
208.111180 7.000000
210.115780 15.000000
217.089780 5.000000
222.117970 7.000000
223.118350 7.000000
224.128620 42.000000
225.130570 9.000000
226.085010 8.000000
236.130250 17.000000
238.123120 9.000000
251.154500 10.000000
266.116730 9.000000
298.143650 20.000000
335.177580 22.000000
336.185420 6.000000
339.173100 6.000000
367.139130 7.000000
367.201900 1000.000000
367.257690 30.000000

>ms2
367.131290 6.000000
367.147830 6.000000
367.201630 1000.000000
367.257080 35.000000
367.307710 7.000000

>ms2
56.047870 6.000000
68.050870 11.000000
75.044680 28.000000
82.064200 30.000000
91.052930 11.000000
93.069270 5.000000
94.064950 11.000000
95.049710 33.000000
96.080800 9.000000
103.054920 9.000000
106.067090 14.000000
108.066400 6.000000
108.080830 77.000000
109.065060 45.000000
115.051840 6.000000
117.071140 25.000000
118.065040 38.000000
119.049350 5.000000
120.080140 30.000000
121.064540 39.000000
121.086010 7.000000
123.038280 11.000000
123.046360 14.000000
126.090710 64.000000
129.053590 58.000000
129.068970 7.000000
130.064640 62.000000
131.071330 10.000000
132.079350 20.000000
137.054170 14.000000
137.061980 18.000000
138.051210 8.000000
138.058930 6.000000
142.067920 6.000000
143.071660 15.000000
143.085650 20.000000
144.052720 7.000000
144.080370 1000.000000
145.083940 118.000000
146.050510 6.000000
146.058320 28.000000
146.090470 19.000000
147.080050 8.000000
148.073670 13.000000
149.059160 50.000000
150.090840 15.000000
151.069260 8.000000
155.071780 49.000000
156.079090 96.000000
157.083920 24.000000
158.085160 19.000000
158.097210 96.000000
159.095840 15.000000
159.104660 7.000000
160.073030 13.000000
161.060210 7.000000
163.076260 16.000000
164.069290 19.000000
164.104400 7.000000
166.086030 15.000000
167.074950 12.000000
168.070630 17.000000
168.080930 40.000000
169.083800 50.000000
170.072600 6.000000
170.096220 358.000000
171.097550 88.000000
172.077760 10.000000
172.110490 45.000000
173.114870 12.000000
174.093980 6.000000
175.075470 17.000000
176.096330 6.000000
176.109020 22.000000
178.085480 48.000000
179.084730 7.000000
179.092970 8.000000
180.075030 7.000000
180.100300 33.000000
181.086750 46.000000
182.088640 36.000000
182.096010 99.000000
183.098800 19.000000
184.099040 9.000000
184.110990 6.000000
190.084170 8.000000
191.072130 5.000000
192.078370 10.000000
192.102190 93.000000
193.089600 9.000000
193.106260 11.000000
194.097500 31.000000
196.112260 38.000000
197.107960 44.000000
199.122860 63.000000
200.130980 7.000000
204.100050 43.000000
204.112840 7.000000
205.089100 15.000000
206.086230 6.000000
206.098800 35.000000
207.101040 8.000000
208.073550 10.000000
208.111950 52.000000
209.113830 9.000000
210.113020 34.000000
210.128920 5.000000
211.116790 9.000000
218.094790 16.000000
219.102650 6.000000
220.075640 7.000000
220.112350 19.000000
221.104640 12.000000
221.115650 6.000000
222.091570 13.000000
222.100810 10.000000
222.115890 31.000000
222.135210 6.000000
223.098450 6.000000
223.124280 32.000000
224.127470 166.000000
225.108000 8.000000
225.133030 30.000000
226.088880 41.000000
226.132400 6.000000
227.087800 5.000000
227.095900 5.000000
231.106250 16.000000
232.081880 8.000000
232.113880 20.000000
233.118450 12.000000
234.089370 22.000000
234.103410 7.000000
234.127520 15.000000
236.102630 9.000000
236.129410 76.000000
237.135510 10.000000
238.105760 10.000000
238.122760 52.000000
239.130140 10.000000
240.102230 20.000000
241.102130 6.000000
244.111190 6.000000
246.114200 5.000000
246.126850 17.000000
246.139480 5.000000
247.120850 10.000000
247.131680 5.000000
248.125660 6.000000
248.133830 6.000000
249.110530 6.000000
249.138610 57.000000
250.126630 7.000000
250.148220 10.000000
251.154050 49.000000
252.095610 7.000000
252.108920 5.000000
252.156970 12.000000
253.105970 6.000000
254.120770 7.000000
256.115300 6.000000
258.125240 11.000000
260.094640 5.000000
260.105830 13.000000
262.126950 7.000000
266.118960 51.000000
267.121700 11.000000
274.123290 23.000000
275.155910 7.000000
278.114960 6.000000
281.128510 6.000000
286.124420 6.000000
288.131380 7.000000
291.121220 6.000000
292.133000 16.000000
298.144710 65.000000
299.138060 8.000000
303.150360 16.000000
306.141600 13.000000
306.156010 10.000000
307.155330 6.000000
318.150570 7.000000
335.164950 22.000000
335.176510 39.000000
336.177550 13.000000
338.182310 5.000000
339.172490 14.000000
350.175230 7.000000
365.184360 12.000000
367.201450 156.000000

>ms2
75.042180 65.000000
75.051170 8.000000
77.039020 21.000000
78.045680 9.000000
79.052360 9.000000
80.053570 12.000000
82.061230 14.000000
85.022210 5.000000
85.032270 7.000000
91.053900 72.000000
92.060720 9.000000
94.067180 12.000000
95.038140 5.000000
95.048710 30.000000
96.050060 15.000000
96.077760 10.000000
103.043180 6.000000
103.056460 38.000000
104.048840 6.000000
104.055380 12.000000
105.065300 8.000000
105.070620 9.000000
106.040950 28.000000
106.065840 28.000000
107.049970 11.000000
108.064130 5.000000
108.080020 42.000000
109.065300 35.000000
111.042210 11.000000
111.071250 5.000000
115.053280 100.000000
116.043520 5.000000
116.052430 22.000000
117.057710 42.000000
117.068600 190.000000
118.063790 33.000000
118.071200 20.000000
119.049800 8.000000
120.080560 34.000000
121.059160 11.000000
121.064360 36.000000
122.075130 6.000000
123.039010 7.000000
123.075800 8.000000
126.091950 13.000000
127.053890 101.000000
128.049420 59.000000
128.058780 65.000000
128.067780 12.000000
129.053310 11.000000
129.066220 61.000000
129.074620 25.000000
130.064410 142.000000
131.060810 10.000000
131.069240 34.000000
132.053470 11.000000
132.060750 8.000000
132.079120 26.000000
133.067470 8.000000
134.036640 7.000000
134.058230 11.000000
134.075590 6.000000
134.093950 7.000000
141.055340 9.000000
141.073820 10.000000
142.063840 51.000000
142.077360 9.000000
143.046390 6.000000
143.072200 244.000000
143.085600 35.000000
144.080050 1000.000000
145.078810 47.000000
145.085370 68.000000
145.091280 29.000000
146.058240 19.000000
146.093600 15.000000
148.070880 6.000000
149.056080 9.000000
149.063900 7.000000
149.084470 5.000000
150.093720 11.000000
152.061900 8.000000
153.062580 9.000000
153.072280 26.000000
154.065090 110.000000
155.072240 176.000000
156.064180 18.000000
156.077700 56.000000
156.084400 21.000000
157.071180 8.000000
157.084960 12.000000
157.093460 12.000000
158.091480 16.000000
158.097900 40.000000
159.067840 8.000000
160.076770 8.000000
163.076510 18.000000
166.071960 17.000000
167.071610 184.000000
168.078690 152.000000
169.065930 6.000000
169.082900 48.000000
170.095320 139.000000
171.090930 15.000000
171.104840 9.000000
174.090900 8.000000
177.081130 6.000000
178.073090 6.000000
178.081040 10.000000
179.075530 6.000000
179.084320 13.000000
180.068740 23.000000
180.080730 97.000000
181.069950 6.000000
181.085830 60.000000
182.097660 51.000000
183.073300 6.000000
183.091600 12.000000
184.069370 5.000000
184.091320 10.000000
184.103090 10.000000
191.073430 57.000000
192.080950 46.000000
193.084790 41.000000
193.094620 14.000000
194.064220 11.000000
194.093410 63.000000
195.096620 14.000000
196.072020 13.000000
196.099080 7.000000
196.113710 8.000000
197.107800 9.000000
203.073530 8.000000
204.081590 73.000000
205.085980 60.000000
206.079560 6.000000
206.095690 61.000000
207.094790 14.000000
207.107410 13.000000
208.073070 17.000000
208.093660 14.000000
208.119540 7.000000
209.081160 10.000000
209.116650 6.000000
210.098010 7.000000
215.094270 8.000000
216.071620 6.000000
216.085620 15.000000
217.090580 88.000000
218.078170 9.000000
218.096280 55.000000
219.096180 8.000000
219.110720 6.000000
220.075290 12.000000
220.098920 12.000000
220.112590 14.000000
221.104570 16.000000
221.112410 7.000000
222.087460 11.000000
223.095950 9.000000
226.086030 19.000000
226.145950 7.000000
230.080280 6.000000
230.092900 45.000000
230.103960 38.000000
231.102490 40.000000
231.114750 19.000000
232.083040 13.000000
232.099380 15.000000
232.112120 14.000000
232.118620 6.000000
233.114590 16.000000
234.087630 16.000000
234.116620 6.000000
235.091290 6.000000
242.092300 13.000000
243.112700 7.000000
244.101140 7.000000
244.110170 7.000000
245.092390 5.000000
245.111940 11.000000
248.073230 6.000000
249.140260 11.000000
257.111420 6.000000
259.095700 11.000000
262.127660 6.000000

>ms2
108.080930 10.000000
109.064730 7.000000
126.089850 9.000000
130.067080 9.000000
144.080200 132.000000
145.083480 17.000000
149.058910 6.000000
156.080570 15.000000
158.095170 14.000000
167.071790 7.000000
168.080870 7.000000
169.085590 9.000000
170.096570 46.000000
171.095930 14.000000
172.111250 6.000000
178.084240 7.000000
180.099380 6.000000
181.088750 6.000000
182.096080 19.000000
192.101590 11.000000
194.097400 5.000000
199.123260 21.000000
204.103180 6.000000
206.095790 8.000000
210.108340 7.000000
223.122710 6.000000
224.128010 38.000000
225.135120 6.000000
226.085750 6.000000
236.129380 19.000000
238.123000 6.000000
240.100040 7.000000
249.141070 9.000000
298.143650 15.000000
335.176300 18.000000
350.176910 5.000000
367.141820 9.000000
367.201660 1000.000000
367.257420 30.000000

>ms2
367.138000 6.000000
367.202610 1000.000000
367.257900 35.000000
367.309080 7.000000

>ms2
68.047250 8.000000
75.041720 13.000000
75.047290 12.000000
80.050500 8.000000
82.064170 25.000000
91.050190 6.000000
94.066990 7.000000
95.048460 24.000000
103.052970 5.000000
106.064440 21.000000
108.080640 73.000000
109.064450 52.000000
109.083720 11.000000
115.052910 13.000000
117.071140 13.000000
118.064330 35.000000
119.070940 6.000000
120.079860 24.000000
121.064500 41.000000
121.085040 6.000000
122.096930 5.000000
123.040200 7.000000
123.046710 7.000000
123.081570 6.000000
126.086660 18.000000
126.092430 31.000000
129.055390 45.000000
129.068590 11.000000
130.064420 57.000000
131.072050 14.000000
132.058580 7.000000
132.075180 7.000000
132.082280 13.000000
136.071760 8.000000
137.060550 30.000000
138.052580 9.000000
142.068250 10.000000
143.075560 7.000000
143.085460 10.000000
144.051730 9.000000
144.080470 1000.000000
144.115710 8.000000
145.083590 108.000000
146.060960 28.000000
146.089710 10.000000
147.080630 6.000000
148.074740 5.000000
149.059980 46.000000
150.060200 5.000000
150.087780 7.000000
150.094410 8.000000
151.073900 15.000000
155.070800 38.000000
156.080410 89.000000
157.083190 15.000000
158.096160 90.000000
159.100100 16.000000
160.068130 5.000000
160.075580 11.000000
161.060650 6.000000
162.092250 9.000000
163.079090 11.000000
164.067730 8.000000
166.080220 7.000000
166.087920 5.000000
167.071440 22.000000
168.081150 36.000000
169.085110 49.000000
170.095690 305.000000
171.097050 66.000000
172.072240 7.000000
172.111420 47.000000
173.116650 6.000000
174.092300 17.000000
175.072920 12.000000
176.104550 13.000000
178.086550 50.000000
180.070480 6.000000
180.084140 31.000000
180.101100 17.000000
180.109660 9.000000
181.085240 37.000000
182.095700 129.000000
183.098480 24.000000
184.100190 14.000000
190.086810 9.000000
191.074570 6.000000
192.082670 13.000000
192.102140 72.000000
193.086640 7.000000
193.103350 11.000000
194.065720 6.000000
194.094510 21.000000
195.106220 10.000000
196.109300 19.000000
197.108890 34.000000
199.112410 12.000000
199.122510 60.000000
200.118930 6.000000
200.131580 6.000000
204.101300 46.000000
205.088200 6.000000
205.105350 11.000000
206.093550 32.000000
207.103550 18.000000
208.076750 16.000000
208.102010 11.000000
208.113370 33.000000
209.085450 7.000000
209.105670 8.000000
209.115310 9.000000
210.110820 26.000000
210.120790 15.000000
211.120380 5.000000
217.090820 10.000000
218.098620 16.000000
220.111920 19.000000
221.111680 12.000000
222.092940 11.000000
222.107770 16.000000
222.120300 15.000000
222.135150 5.000000
223.104600 10.000000
223.124880 21.000000
224.102920 9.000000
224.127780 165.000000
225.133500 41.000000
226.086690 45.000000
226.129820 7.000000
227.096080 10.000000
231.108510 8.000000
232.111540 18.000000
233.116390 8.000000
234.087300 22.000000
234.125560 16.000000
235.097080 5.000000
235.129960 6.000000
236.123310 32.000000
236.131990 42.000000
237.130220 15.000000
238.083280 6.000000
238.093310 6.000000
238.123860 51.000000
239.126040 6.000000
240.102070 21.000000
243.098880 5.000000
244.110640 7.000000
245.114330 5.000000
246.089070 9.000000
246.105710 5.000000
246.127810 23.000000
247.125370 12.000000
248.127300 9.000000
249.107160 7.000000
249.129210 13.000000
249.140060 35.000000
250.146530 11.000000
251.154140 60.000000
252.100680 12.000000
252.156390 9.000000
254.114880 8.000000
258.126800 8.000000
259.104920 6.000000
259.133640 10.000000
260.110600 15.000000
261.109440 6.000000
266.116940 48.000000
267.133580 5.000000
274.126070 21.000000
275.148680 12.000000
276.138210 7.000000
276.157170 6.000000
278.140050 5.000000
280.128720 6.000000
286.124240 6.000000
292.128910 6.000000
298.141080 47.000000
298.152370 15.000000
299.151700 13.000000
303.151920 13.000000
306.148130 8.000000
306.161500 6.000000
318.150050 6.000000
335.175080 61.000000
336.173000 11.000000
336.183840 10.000000
339.158720 13.000000
339.178100 7.000000
365.180880 8.000000
365.192720 10.000000
366.190890 5.000000
367.201510 105.000000

>ms2
65.036110 7.000000
67.056300 5.000000
75.043960 66.000000
77.035320 10.000000
77.040220 8.000000
79.052820 27.000000
80.051200 10.000000
82.063740 27.000000
91.053310 83.000000
92.054420 9.000000
95.049190 34.000000
96.079820 7.000000
103.054330 33.000000
104.054160 5.000000
105.064190 7.000000
105.075550 6.000000
106.040730 32.000000
106.066740 14.000000
107.049430 12.000000
108.042070 7.000000
108.056790 5.000000
108.079120 25.000000
108.084790 15.000000
109.063960 34.000000
115.053980 81.000000
116.051350 28.000000
116.064240 12.000000
117.054830 39.000000
117.069690 143.000000
118.039900 6.000000
118.064590 72.000000
119.047390 7.000000
119.054610 7.000000
120.077010 13.000000
120.082470 31.000000
121.063050 35.000000
121.069860 9.000000
122.073730 7.000000
126.092340 6.000000
127.053700 122.000000
128.052190 63.000000
128.063800 38.000000
129.056140 11.000000
129.068500 94.000000
130.065520 151.000000
131.068710 41.000000
132.054930 5.000000
132.081090 31.000000
133.067500 11.000000
133.082430 5.000000
134.060960 9.000000
135.073880 10.000000
138.054700 11.000000
141.057540 5.000000
141.070860 7.000000
142.066760 49.000000
142.075560 9.000000
143.073090 262.000000
143.087800 26.000000
144.045300 6.000000
144.054490 15.000000
144.080510 1000.000000
145.083690 133.000000
145.090900 41.000000
146.063320 10.000000
149.056210 6.000000
152.060560 5.000000
153.069170 12.000000
153.075060 11.000000
154.064560 114.000000
155.073320 181.000000
156.055660 5.000000
156.067900 11.000000
156.078750 89.000000
157.087490 28.000000
158.095080 44.000000
159.068370 6.000000
159.097530 5.000000
160.072450 7.000000
163.076610 20.000000
164.074100 13.000000
165.065020 6.000000
166.062590 11.000000
166.072280 10.000000
167.052720 5.000000
167.072810 157.000000
168.080380 160.000000
168.095150 6.000000
169.072980 20.000000
169.082200 37.000000
169.093370 11.000000
170.066250 6.000000
170.096940 136.000000
171.094180 21.000000
171.103230 8.000000
174.084410 5.000000
177.076050 5.000000
178.053340 6.000000
178.068940 7.000000
178.084850 15.000000
179.064540 6.000000
179.072360 8.000000
179.079150 8.000000
179.087770 10.000000
180.079610 105.000000
181.086210 30.000000
182.058840 6.000000
182.079190 12.000000
182.090880 30.000000
182.099690 26.000000
183.064160 11.000000
183.089900 12.000000
183.099960 9.000000
184.099330 11.000000
191.070650 40.000000
192.082170 44.000000
193.070680 5.000000
193.090320 59.000000
194.078720 6.000000
194.095750 61.000000
195.092700 23.000000
195.103760 11.000000
196.083800 7.000000
196.115360 9.000000
197.106340 11.000000
198.097270 5.000000
204.076640 31.000000
204.085940 32.000000
205.089630 15.000000
206.082610 23.000000
206.094420 50.000000
207.085530 10.000000
207.096830 29.000000
208.072660 19.000000
208.087040 12.000000
208.102070 7.000000
208.116070 12.000000
209.108060 6.000000
209.119230 6.000000
210.095950 7.000000
216.082500 16.000000
217.086400 61.000000
217.096440 22.000000
218.085800 13.000000
218.102750 27.000000
219.087970 9.000000
219.102620 18.000000
220.081380 9.000000
220.102110 11.000000
220.116070 11.000000
221.084320 9.000000
221.104930 16.000000
221.119140 8.000000
222.095670 19.000000
223.096950 8.000000
223.123460 8.000000
226.086070 15.000000
229.103120 5.000000
230.094960 50.000000
230.105610 13.000000
231.098210 34.000000
231.108290 19.000000
232.107010 24.000000
233.092800 8.000000
233.108830 6.000000
233.117050 8.000000
234.083770 7.000000
234.113860 6.000000
235.110260 8.000000
241.082700 8.000000
241.093890 5.000000
243.095230 8.000000
243.106720 15.000000
244.114910 11.000000
246.097210 6.000000
247.109160 8.000000
247.126050 14.000000
249.136920 15.000000
250.084400 11.000000
251.094730 7.000000
256.117400 6.000000
259.108610 12.000000
259.127440 5.000000
367.203160 19.000000
367.218780 5.000000

>ms2
108.081420 8.000000
109.064900 8.000000
126.090250 9.000000
129.054340 5.000000
130.065140 9.000000
144.080830 144.000000
145.084630 18.000000
149.059970 6.000000
156.081820 14.000000
158.095950 22.000000
168.079800 5.000000
169.086490 9.000000
170.096300 51.000000
171.098270 10.000000
178.084810 8.000000
180.080460 6.000000
181.087300 11.000000
182.096730 21.000000
192.101150 14.000000
199.123460 19.000000
204.102970 10.000000
206.099810 6.000000
210.113220 12.000000
222.119450 7.000000
224.128170 40.000000
225.135210 7.000000
226.088610 6.000000
236.128520 20.000000
238.122160 6.000000
240.100050 6.000000
251.152850 11.000000
266.113560 6.000000
298.143590 21.000000
335.180110 13.000000
367.141750 8.000000
367.203030 1000.000000
367.258240 33.000000
367.308840 5.000000

>ms2
367.201970 1000.000000
367.257200 35.000000
367.307160 7.000000

>ms2
68.050330 11.000000
75.045160 31.000000
82.065350 34.000000
91.053860 16.000000
94.063840 6.000000
95.048840 28.000000
105.033690 5.000000
106.065220 10.000000
108.074080 12.000000
108.082060 56.000000
109.065500 49.000000
109.086220 6.000000
110.070270 6.000000
115.053850 6.000000
117.069730 17.000000
118.065780 31.000000
119.049100 6.000000
120.075500 9.000000
120.081760 8.000000
121.064830 28.000000
122.095500 5.000000
123.046170 12.000000
123.078060 6.000000
126.091260 49.000000
128.058520 6.000000
129.054090 37.000000
129.071660 9.000000
130.057980 11.000000
130.064530 38.000000
131.072910 8.000000
132.079120 18.000000
137.060120 29.000000
138.055980 12.000000
142.068100 8.000000
143.074070 20.000000
143.085880 10.000000
144.080720 1000.000000
144.115780 8.000000
145.083770 131.000000
146.061130 17.000000
146.096010 6.000000
147.083690 7.000000
148.071670 6.000000
148.081120 9.000000
149.059840 53.000000
150.058430 7.000000
150.089740 10.000000
151.072740 7.000000
154.062840 7.000000
155.072490 46.000000
156.080660 79.000000
157.085070 21.000000
158.058870 8.000000
158.096360 103.000000
159.097810 7.000000
160.077580 13.000000
162.094040 5.000000
163.076170 9.000000
164.065410 10.000000
164.072280 15.000000
164.106050 6.000000
166.087420 17.000000
167.067230 13.000000
167.075580 15.000000
168.079070 36.000000
168.085860 15.000000
169.086870 48.000000
170.096590 308.000000
171.091860 23.000000
171.100810 50.000000
172.079060 13.000000
172.111450 48.000000
174.089280 12.000000
175.078540 11.000000
176.068880 7.000000
176.100620 7.000000
176.107860 9.000000
178.085270 54.000000
180.081250 17.000000
180.103030 33.000000
181.085510 32.000000
182.096540 122.000000
183.098510 20.000000
184.099910 10.000000
184.109390 6.000000
190.086960 13.000000
192.076870 7.000000
192.102010 90.000000
193.090180 11.000000
193.101880 11.000000
194.096620 27.000000
195.103350 8.000000
196.108430 18.000000
196.118710 14.000000
197.107590 30.000000
199.121780 67.000000
200.122060 7.000000
200.129680 7.000000
204.083830 13.000000
204.100460 38.000000
204.108610 19.000000
205.087650 9.000000
205.108410 9.000000
206.092500 33.000000
206.103790 13.000000
207.094920 7.000000
207.107240 7.000000
208.079540 15.000000
208.113690 33.000000
209.115330 13.000000
210.112750 37.000000
211.121250 6.000000
218.092680 19.000000
220.110400 15.000000
221.112400 8.000000
222.117360 44.000000
223.121840 25.000000
224.128330 157.000000
225.134740 37.000000
226.087880 46.000000
227.088490 11.000000
230.101930 6.000000
231.106450 10.000000
232.110780 17.000000
232.119740 7.000000
233.122360 11.000000
234.093030 33.000000
234.125120 18.000000
235.117430 6.000000
236.106030 5.000000
236.119400 23.000000
236.128850 54.000000
237.114580 7.000000
237.135210 10.000000
238.123350 52.000000
239.130580 9.000000
240.098720 12.000000
240.109660 6.000000
243.105220 9.000000
244.109090 11.000000
246.127000 25.000000
247.126020 21.000000
248.109830 6.000000
248.133090 6.000000
249.115190 5.000000
249.139890 70.000000
250.146150 12.000000
251.091950 6.000000
251.155270 54.000000
252.103930 15.000000
252.155810 7.000000
254.105960 7.000000
254.126190 5.000000
256.114440 7.000000
258.119630 16.000000
258.132930 9.000000
259.105380 6.000000
260.110570 13.000000
266.118800 45.000000
267.122620 8.000000
274.120480 14.000000
275.153320 11.000000
275.162050 8.000000
278.122040 6.000000
281.123020 6.000000
286.126250 8.000000
288.133150 8.000000
291.124790 8.000000
292.136440 10.000000
298.147000 52.000000
299.150360 8.000000
303.152340 11.000000
306.148800 20.000000
324.157990 5.000000
335.175570 70.000000
336.172180 8.000000
336.187440 6.000000
339.167940 10.000000
365.180110 12.000000
365.195860 8.000000
367.201720 137.000000

>ms2
65.038860 10.000000
67.056480 8.000000
75.043310 43.000000
75.048090 13.000000
77.038090 11.000000
79.054390 17.000000
80.049990 7.000000
81.050780 6.000000
82.063780 32.000000
91.053400 59.000000
92.052380 11.000000
92.058490 9.000000
95.046600 18.000000
95.054240 13.000000
96.081560 7.000000
103.051350 18.000000
103.058150 15.000000
104.046780 5.000000
105.036340 7.000000
105.069660 12.000000
105.293890 5.000000
106.041420 30.000000
106.067470 27.000000
108.053590 10.000000
108.080560 44.000000
109.064160 51.000000
115.053790 83.000000
116.063470 9.000000
117.046490 6.000000
117.058740 42.000000
117.069920 139.000000
118.065920 72.000000
118.076110 10.000000
119.051500 6.000000
120.079080 25.000000
121.065090 38.000000
122.063000 6.000000
123.046770 13.000000
123.083460 5.000000
126.090880 5.000000
126.096500 8.000000
127.054690 113.000000
128.049040 46.000000
128.059880 79.000000
129.067760 93.000000
130.064620 157.000000
131.046620 7.000000
131.069050 30.000000
132.053480 10.000000
132.068220 10.000000
132.082400 18.000000
133.051470 6.000000
133.082230 8.000000
134.058690 13.000000
135.067860 8.000000
135.075130 5.000000
138.058170 7.000000
141.055950 6.000000
141.064390 7.000000
142.063490 37.000000
142.072300 19.000000
143.073360 259.000000
143.086150 27.000000
144.045270 5.000000
144.080460 1000.000000
145.070590 5.000000
145.084180 112.000000
146.059540 19.000000
146.090120 5.000000
146.097320 14.000000
148.073000 8.000000
149.058400 8.000000
149.067080 8.000000
151.051130 8.000000
152.051620 7.000000
152.062130 17.000000
153.070080 34.000000
154.064650 123.000000
155.072220 142.000000
156.079010 64.000000
157.085070 30.000000
157.095150 8.000000
158.069700 8.000000
158.097120 23.000000
159.068540 6.000000
159.098010 7.000000
163.075490 14.000000
165.068070 7.000000
165.075000 6.000000
166.063870 11.000000
167.072400 132.000000
168.080000 197.000000
169.079880 55.000000
169.095410 12.000000
170.097180 141.000000
171.099170 28.000000
171.105420 12.000000
174.091960 9.000000
174.099610 6.000000
178.075470 7.000000
178.083500 6.000000
179.069000 13.000000
179.085890 11.000000
180.081560 118.000000
181.088300 54.000000
182.080920 6.000000
182.095020 50.000000
183.065610 10.000000
183.089420 21.000000
183.103300 5.000000
190.069020 5.000000
191.065830 25.000000
191.075620 54.000000
192.068740 7.000000
192.081920 55.000000
193.087690 50.000000
194.064160 6.000000
194.076870 5.000000
194.097240 55.000000
195.102050 18.000000
197.104970 7.000000
204.081510 56.000000
205.089890 51.000000
206.080520 10.000000
206.094560 44.000000
207.073260 8.000000
207.089130 20.000000
207.102070 17.000000
208.072420 6.000000
208.095660 13.000000
208.113280 13.000000
209.078630 9.000000
209.106800 6.000000
210.088060 10.000000
210.116620 7.000000
215.075710 6.000000
216.084180 7.000000
217.080200 17.000000
217.091110 63.000000
218.092790 25.000000
219.053670 6.000000
219.085070 7.000000
219.099690 22.000000
220.073040 8.000000
220.087600 11.000000
220.100190 5.000000
221.103970 15.000000
222.090960 15.000000
222.100920 7.000000
223.085210 6.000000
223.106430 6.000000
226.082870 12.000000
226.091890 8.000000
228.077040 9.000000
230.089360 15.000000
230.098600 26.000000
231.079440 7.000000
231.094910 22.000000
231.108610 6.000000
232.103760 15.000000
232.112230 17.000000
233.084520 10.000000
233.121260 7.000000
234.086690 8.000000
234.122410 9.000000
235.130490 7.000000
236.128460 6.000000
238.095120 6.000000
241.093750 5.000000
242.100490 5.000000
243.087910 12.000000
243.104290 10.000000
244.112920 8.000000
245.112370 9.000000
246.088760 7.000000
246.128040 7.000000
247.128040 13.000000
249.138500 11.000000
250.083110 8.000000
251.090180 5.000000
254.100420 6.000000
258.097470 5.000000
259.119140 6.000000
259.127660 6.000000
367.196290 10.000000
367.213130 8.000000

