>compound PR43970897
>parentmass 247.12297452307686
>ionization [M+H]+
>formula C17H14N2
>rt 295.976289
>profile qtof
#smiles_iso CC1=C2C=CN=CC2=C(C3=C1NC4=CC=CC=C43)C
#smiles_can CC1=C2C=CN=CC2=C(C3=C1NC4=CC=CC=C43)C
#inchikey CTSPAMFJBXKSOY-UHFFFAOYSA-N
#pubchem_id 3213
#mb_accession PR301233,PR301236,PR301239,PR301242,PR301245,PR301248,PR301251,PR301254,PR301257,PR301260,PR301263,PR301266,PR310511

>ms2peaks
204.083800 30.000000
230.087860 5.000000
231.090910 118.000000
232.099350 242.000000
233.103840 35.000000
245.097520 5.000000
245.107990 12.000000
246.115450 18.000000
247.122800 1000.000000

>ms2peaks
247.091380 8.000000
247.123600 1000.000000
247.165270 7.000000

>ms2peaks
204.072620 14.000000
204.088650 8.000000
205.080440 5.000000
205.094920 35.000000
206.095430 14.000000
219.097790 6.000000
220.112930 6.000000
230.088260 7.000000
231.091890 523.000000
232.099290 1000.000000
233.103910 128.000000
234.101550 9.000000
234.115570 10.000000
245.098070 7.000000
245.111050 31.000000
246.104830 19.000000
246.115540 58.000000
247.084520 8.000000
247.122910 734.000000

>ms2peaks
83.063000 9.000000
91.903810 10.000000
102.275570 7.000000
103.048880 7.000000
104.685930 7.000000
128.051650 25.000000
141.623490 18.000000
151.049180 70.000000
151.063870 12.000000
152.054530 8.000000
154.051930 8.000000
156.035510 10.000000
164.062530 10.000000
165.071810 10.000000
166.062420 9.000000
175.041490 15.000000
175.058780 7.000000
176.055420 40.000000
176.063870 41.000000
177.055390 12.000000
177.064470 47.000000
177.073520 8.000000
178.049670 9.000000
178.072070 8.000000
178.596220 8.000000
179.075390 35.000000
180.083790 10.000000
188.046260 9.000000
189.073940 7.000000
189.090650 15.000000
190.050690 8.000000
190.061110 21.000000
191.068390 7.000000
193.071030 12.000000
201.058200 18.000000
202.058200 24.000000
202.065550 29.000000
202.075610 21.000000
203.059480 8.000000
203.071490 102.000000
203.091740 7.000000
204.032010 8.000000
204.042740 8.000000
204.074400 186.000000
204.083240 289.000000
204.878920 8.000000
205.063140 26.000000
205.084840 65.000000
205.102200 10.000000
206.089320 11.000000
216.059110 10.000000
216.072490 26.000000
217.057590 18.000000
217.068360 13.000000
217.083830 25.000000
218.080180 18.000000
218.091890 8.000000
219.122830 14.000000
227.061860 11.000000
227.856670 8.000000
229.070370 24.000000
229.080750 16.000000
230.034700 8.000000
230.080780 97.000000
231.066890 8.000000
231.091320 1000.000000
232.098620 255.000000
232.238300 8.000000
233.098970 16.000000
233.106900 19.000000
243.097780 12.000000
244.098420 23.000000
245.099430 23.000000
245.113050 24.000000
246.100170 7.000000
246.109090 8.000000
246.122340 11.000000
246.131060 12.000000
247.077330 7.000000
247.119130 31.000000
247.128680 15.000000

>ms2peaks
204.077270 10.000000
204.087110 13.000000
205.083530 8.000000
205.095810 5.000000
231.067200 9.000000
231.087940 111.000000
231.096820 48.000000
232.099560 196.000000
233.104450 38.000000
245.105830 7.000000
246.108950 14.000000
246.122730 5.000000
247.096150 7.000000
247.123060 1000.000000
247.163560 7.000000

>ms2peaks
247.064870 5.000000
247.123000 1000.000000
247.165570 5.000000

>ms2peaks
204.078220 14.000000
204.085890 14.000000
205.087740 17.000000
206.097750 5.000000
231.092610 417.000000
232.100880 1000.000000
233.083890 7.000000
233.103560 178.000000
234.112960 12.000000
245.101100 7.000000
245.109480 24.000000
246.114070 79.000000
247.084870 5.000000
247.124130 794.000000

>ms2peaks
89.039160 8.000000
91.058400 17.000000
96.970180 21.000000
115.055110 8.000000
139.039840 9.000000
140.063630 10.000000
150.048170 20.000000
151.041080 9.000000
151.061130 11.000000
152.048580 11.000000
152.056110 17.000000
152.068050 10.000000
153.055730 12.000000
154.063670 9.000000
154.835390 12.000000
162.043610 8.000000
166.059340 8.000000
166.068100 13.000000
167.075560 19.000000
175.049760 11.000000
175.164140 13.000000
176.062300 73.000000
176.078520 13.000000
177.063580 44.000000
177.079510 35.000000
178.067260 43.000000
178.083100 13.000000
179.079900 16.000000
190.059660 16.000000
190.070770 12.000000
190.079710 13.000000
191.076400 12.000000
192.213420 9.000000
201.056000 19.000000
202.050370 8.000000
202.060100 23.000000
202.071930 24.000000
202.084520 10.000000
203.058000 8.000000
203.076550 157.000000
203.694850 11.000000
204.054860 8.000000
204.072080 109.000000
204.083390 440.000000
205.084980 108.000000
205.100560 11.000000
206.088990 9.000000
206.099730 12.000000
216.077530 10.000000
216.086400 12.000000
217.067550 18.000000
217.091090 21.000000
217.104580 49.000000
218.094160 29.000000
219.098510 11.000000
227.073070 11.000000
228.077670 12.000000
228.088350 21.000000
229.068270 57.000000
229.080320 70.000000
229.093720 13.000000
230.083880 141.000000
231.045580 11.000000
231.063060 14.000000
231.092680 1000.000000
232.092790 142.000000
232.103210 162.000000
233.096950 14.000000
233.109250 8.000000
234.101000 8.000000
245.099870 120.000000
245.112140 60.000000
246.108260 49.000000
247.120710 12.000000

>ms2peaks
204.078110 17.000000
230.083450 6.000000
231.091830 143.000000
232.097600 187.000000
233.093990 16.000000
233.103590 28.000000
245.097400 7.000000
245.110240 11.000000
246.110230 11.000000
247.075500 10.000000
247.122540 1000.000000
247.167160 7.000000

>ms2peaks
247.091610 8.000000
247.124160 1000.000000
247.169130 13.000000

>ms2peaks
191.068240 12.000000
204.077740 17.000000
204.086440 25.000000
205.090130 31.000000
206.096190 12.000000
219.116120 6.000000
231.061260 5.000000
231.094310 414.000000
232.057430 5.000000
232.069920 14.000000
232.101230 1000.000000
233.103870 146.000000
234.097610 9.000000
234.109800 11.000000
245.111310 23.000000
246.107130 20.000000
246.115260 52.000000
246.131060 11.000000
247.077500 5.000000
247.093410 6.000000
247.123750 702.000000

>ms2peaks
116.041280 6.000000
126.025990 6.000000
143.077970 7.000000
149.037510 6.000000
151.046880 6.000000
151.057360 36.000000
152.065930 6.000000
153.066100 8.000000
162.954250 8.000000
164.051250 13.000000
164.064350 10.000000
167.062530 6.000000
167.075210 13.000000
168.638870 15.000000
176.051680 6.000000
176.063310 60.000000
176.072490 11.000000
177.052080 7.000000
177.068760 23.000000
178.063830 10.000000
178.071840 8.000000
180.076540 8.000000
181.088120 7.000000
188.060870 6.000000
190.066820 20.000000
191.064770 9.000000
191.087800 7.000000
192.082950 8.000000
202.059300 21.000000
202.069310 26.000000
203.075160 157.000000
203.603210 9.000000
204.012850 12.000000
204.030760 9.000000
204.061830 15.000000
204.080030 481.000000
204.450610 8.000000
205.082240 44.000000
205.098620 6.000000
206.092990 8.000000
214.064820 8.000000
215.052720 8.000000
215.067990 18.000000
216.047520 8.000000
216.074480 20.000000
217.070970 24.000000
217.084060 20.000000
217.095060 25.000000
218.092640 6.000000
219.097840 9.000000
219.153350 9.000000
221.213820 7.000000
229.064610 14.000000
229.078750 82.000000
229.093770 7.000000
229.477910 6.000000
230.048780 19.000000
230.079850 34.000000
230.089320 49.000000
230.123030 9.000000
230.834730 6.000000
230.987840 8.000000
231.039930 10.000000
231.054290 10.000000
231.092710 1000.000000
231.172040 11.000000
231.460720 6.000000
231.871830 6.000000
232.081250 34.000000
232.099300 167.000000
232.115010 18.000000
234.840760 7.000000
238.097150 7.000000
242.088680 7.000000
243.090530 8.000000
243.102230 17.000000
244.099900 29.000000
245.106340 65.000000
245.121280 14.000000
245.138260 8.000000
245.164700 8.000000
247.119800 7.000000

>ms2peaks
149.273740 17.000000
151.061580 36.000000
151.857470 19.000000
156.993850 29.000000
174.048360 20.000000
175.044770 19.000000
176.056200 30.000000
176.064440 19.000000
177.058700 18.000000
179.071760 20.000000
180.078320 25.000000
182.331340 21.000000
188.320450 19.000000
191.065140 19.000000
191.073580 39.000000
201.059390 32.000000
202.069020 54.000000
203.449680 18.000000
204.083800 456.000000
204.924130 23.000000
205.075650 18.000000
205.089610 60.000000
206.095350 32.000000
217.054870 18.000000
217.067440 20.000000
218.107480 36.000000
222.119480 17.000000
226.516280 33.000000
230.077300 32.000000
230.087860 76.000000
230.119320 19.000000
230.463270 23.000000
231.090910 1784.000000
231.436460 21.000000
232.016890 17.000000
232.060330 17.000000
232.099350 3660.000000
232.216370 19.000000
233.103840 523.000000
234.087880 26.000000
234.097980 18.000000
234.111560 44.000000
243.101700 37.000000
244.088320 20.000000
245.097520 77.000000
245.107990 180.000000
245.381550 20.000000
246.115450 274.000000
246.864900 20.000000
247.058790 18.000000
247.084090 58.000000
247.122800 15142.000000
247.150670 71.000000
247.167360 40.000000

