>compound PR43989624
>parentmass 314.2691
>ionization [M+H]+
>formula C18H35NO3
>rt 422.400000
>profile qtof
#smiles_iso CCCCCCCCC/C=C/C=C/CC(C(C(CO)N)O)O
#smiles_can CCCCCCCCCC=CC=CCC(C(C(CO)N)O)O
#inchikey WWXZQFWOWANITM-AQASXUMVSA-N
#pubchem_id 139292134
#mb_accession PR310828

>ms2
118.983220 16.000000
133.010180 17.000000
274.858400 27.000000
275.195040 18.000000
314.225160 20.000000
314.263280 360.000000
314.276610 75.000000

