>compound PR43767625
>parentmass 929.5091
>ionization [M+H]+
>formula C47H76O18
>rt 343.800000
>profile qtof
#smiles_iso CC1(CC2C3=CCC4C5(CCC(C(C5CCC4(C3(CCC2(C(C1)O)C)C)C)(C)CO)OC6C(C(C(C(O6)C(=O)O)O)O)OC7C(C(C(C(O7)CO)O)O)OC8C(C(C(CO8)O)O)O)C)C
#smiles_can CC1(CC2C3=CCC4C5(CCC(C(C5CCC4(C3(CCC2(C(C1)O)C)C)C)(C)CO)OC6C(C(C(C(O6)C(=O)O)O)O)OC7C(C(C(C(O7)CO)O)O)OC8C(C(C(CO8)O)O)O)C)C
#inchikey MADZMXIFUWFDJK-UHFFFAOYSA-N
#pubchem_id 139291954
#mb_accession PR310670

>ms2
133.046280 26.000000
141.024350 17.000000
163.058460 55.000000
205.161240 25.000000
217.191640 44.000000
257.218870 19.000000
259.204130 21.000000
313.061860 24.000000
323.107670 33.000000
330.021640 20.000000
339.001920 24.000000
339.083710 18.000000
365.307310 21.000000
403.193080 21.000000
405.353330 17.000000
423.243290 20.000000
423.359830 310.000000
424.345760 26.000000
424.359040 63.000000
425.369900 20.000000
426.428190 18.000000
441.385380 80.000000
447.321590 17.000000
510.254460 20.000000
582.378780 17.000000
599.395750 44.000000
600.398860 53.000000
749.459660 18.000000
767.466000 17.000000
768.464050 17.000000
768.492430 17.000000
779.439760 18.000000
929.486330 467.000000

