>compound PR43497990
>parentmass 433.1337
>ionization [M+H]+
>formula C18H24O12
>rt 190.800000
>profile qtof
#smiles_iso CC1=C(C(=O)C=CO1)OC2C(C(C(C(O2)COC(=O)CC(C)(CC(=O)O)O)O)O)O
#smiles_can CC1=C(C(=O)C=CO1)OC2C(C(C(C(O2)COC(=O)CC(C)(CC(=O)O)O)O)O)O
#inchikey WCVUIHQUPRXYKT-UHFFFAOYSA-N
#pubchem_id 73880679
#mb_accession PR310799

>ms2peaks
71.046610 18.000000
85.022820 18.000000
99.045630 17.000000
103.042080 36.000000
109.019470 17.000000
109.025960 31.000000
127.039110 1151.000000
129.942500 17.000000
143.227740 18.000000
145.042530 42.000000
145.055010 46.000000
163.067110 33.000000
188.108870 19.000000
205.077290 18.000000
223.058110 22.000000
271.088040 17.000000
307.117160 20.000000
433.139190 254.000000

