>compound PR43986965
>parentmass 342.1699847
>ionization [M+H]+
>formula C20H23NO4
>rt 234.960000
>profile qtof
#smiles_iso CN1CCC2=CC(=C(C3=C2[C@@H]1CC4=C3C(=C(C=C4)OC)O)OC)OC
#smiles_can CN1CCC2=CC(=C(C3=C2C1CC4=C3C(=C(C=C4)OC)O)OC)OC
#inchikey QELDJEKNFOQJOY-ZDUSSCGKSA-N
#pubchem_id 10143
#mb_accession PR300770,PR300775,PR300780,PR300785,PR300790,PR300795,PR300800,PR300805,PR300810,PR300815,PR300820,PR300825

>ms2
165.071730 11.000000
178.077440 12.000000
179.087980 10.000000
180.090160 6.000000
190.080540 12.000000
191.087300 45.000000
192.093770 7.000000
193.062770 8.000000
194.070010 15.000000
202.077270 10.000000
203.086930 11.000000
205.064330 7.000000
206.073010 24.000000
207.078060 16.000000
207.086350 11.000000
208.084670 16.000000
208.095860 13.000000
209.098250 6.000000
218.075440 7.000000
219.082520 40.000000
220.088060 15.000000
221.059840 15.000000
221.091490 9.000000
222.067520 9.000000
223.113370 11.000000
224.088840 8.000000
231.076810 7.000000
233.057250 9.000000
233.094360 6.000000
234.071240 12.000000
235.071290 23.000000
235.081130 32.000000
236.084900 144.000000
237.090410 62.000000
238.059980 16.000000
238.071270 16.000000
247.076280 87.000000
248.085130 180.000000
249.054260 7.000000
249.073290 6.000000
249.090180 44.000000
250.097240 12.000000
251.109280 66.000000
252.119670 9.000000
253.085340 18.000000
262.099000 7.000000
263.068940 16.000000
263.079740 17.000000
264.079930 182.000000
265.088960 148.000000
266.094540 31.000000
267.104680 23.000000
268.104100 8.000000
278.099300 6.000000
279.103610 419.000000
280.109740 192.000000
281.079710 52.000000
281.091800 29.000000
281.117890 22.000000
282.086400 18.000000
296.106110 111.000000
297.110140 25.000000
299.128750 6.000000
311.129150 293.000000
312.133120 68.000000
342.171780 1000.000000
342.224980 31.000000

>ms2
279.102050 36.000000
280.109100 11.000000
311.129270 76.000000
312.131320 18.000000
342.170500 1000.000000
342.223420 33.000000

>ms2
165.071410 12.000000
178.077300 28.000000
179.087450 10.000000
180.094280 7.000000
181.064290 5.000000
190.075640 25.000000
190.084410 8.000000
191.086240 145.000000
192.092150 50.000000
193.065170 13.000000
193.097900 12.000000
193.107060 9.000000
194.065170 9.000000
194.072940 9.000000
194.081650 7.000000
195.077730 11.000000
196.089750 6.000000
201.071230 20.000000
202.074390 12.000000
203.083560 20.000000
204.092100 7.000000
205.066650 29.000000
206.064560 15.000000
206.071760 48.000000
207.081500 57.000000
208.088640 92.000000
209.091320 10.000000
209.100390 12.000000
217.066970 8.000000
218.064900 13.000000
218.076430 33.000000
218.084140 11.000000
219.061550 7.000000
219.081650 170.000000
220.086330 107.000000
221.054460 15.000000
221.065060 18.000000
221.097120 56.000000
222.063230 21.000000
222.072460 7.000000
222.100890 12.000000
223.110860 37.000000
224.068980 7.000000
224.083440 23.000000
224.120360 8.000000
225.090650 7.000000
229.069230 5.000000
231.080000 52.000000
232.079990 8.000000
232.090700 16.000000
233.057950 10.000000
233.072140 9.000000
233.095690 27.000000
234.067870 21.000000
234.106990 10.000000
235.033080 5.000000
235.076860 141.000000
236.083890 694.000000
237.055080 8.000000
237.088760 197.000000
238.050840 9.000000
238.061100 41.000000
238.083450 9.000000
238.097050 29.000000
239.106950 9.000000
246.067170 21.000000
247.076390 282.000000
248.052460 8.000000
248.084350 643.000000
249.036320 5.000000
249.051960 16.000000
249.087770 163.000000
250.098420 73.000000
251.064360 10.000000
251.106950 224.000000
252.072340 10.000000
252.109760 35.000000
253.088700 111.000000
254.090480 10.000000
261.095670 19.000000
262.094790 18.000000
262.104640 10.000000
263.072850 123.000000
264.041290 7.000000
264.078520 1000.000000
265.037230 5.000000
265.085750 805.000000
266.073150 27.000000
266.088290 125.000000
267.100980 83.000000
268.109530 13.000000
268.121090 11.000000
277.081570 11.000000
277.103420 5.000000
278.094760 42.000000
279.101530 580.000000
280.108400 370.000000
281.082580 463.000000
281.110720 41.000000
281.125060 10.000000
282.084990 94.000000
282.125550 18.000000
283.085360 8.000000
283.098390 17.000000
284.099820 11.000000
284.116210 7.000000
296.105530 286.000000
297.110380 62.000000
297.123110 16.000000
298.109220 6.000000
298.122590 11.000000
311.127170 53.000000
311.137660 23.000000
312.128300 11.000000
312.143740 5.000000
313.135500 7.000000

>ms2
115.054050 18.000000
115.058480 10.000000
123.887120 6.000000
129.068740 6.000000
139.056780 7.000000
140.059590 7.000000
141.070010 11.000000
147.637540 7.000000
151.052730 17.000000
151.061490 12.000000
152.064190 114.000000
153.070390 162.000000
153.884740 5.000000
154.077900 69.000000
155.085450 16.000000
163.046460 9.000000
164.060010 42.000000
164.069310 8.000000
165.037450 9.000000
165.071330 1000.000000
166.062970 24.000000
166.076830 270.000000
167.049300 9.000000
167.058530 13.000000
167.075120 13.000000
167.085920 37.000000
168.059780 13.000000
168.081940 9.000000
168.099410 11.000000
169.065730 17.000000
170.065890 9.000000
176.049420 10.000000
176.062910 109.000000
177.064360 75.000000
177.072800 187.000000
178.045060 6.000000
178.057390 13.000000
178.079030 955.000000
178.138460 6.000000
179.024020 9.000000
179.046390 15.000000
179.085020 564.000000
180.077260 17.000000
180.092770 139.000000
181.066680 126.000000
181.098460 42.000000
182.072220 88.000000
183.049120 5.000000
183.079570 10.000000
184.054090 12.000000
188.064580 14.000000
189.070190 721.000000
189.121840 6.000000
190.053040 5.000000
190.078250 595.000000
191.046910 10.000000
191.060070 12.000000
191.085630 671.000000
192.045970 19.000000
192.057620 116.000000
192.077380 23.000000
192.083020 46.000000
192.093780 73.000000
192.177260 10.000000
193.029220 7.000000
193.065120 456.000000
193.095050 9.000000
193.105440 34.000000
194.074690 384.000000
194.097720 9.000000
195.051670 26.000000
195.077930 148.000000
196.046310 12.000000
196.077590 28.000000
197.052540 10.000000
197.067890 11.000000
197.088010 8.000000
197.099400 37.000000
198.097730 6.000000
200.053180 6.000000
200.063220 6.000000
201.029510 6.000000
201.072160 145.000000
201.090480 6.000000
202.056210 6.000000
202.077090 142.000000
202.092860 10.000000
203.083760 91.000000
204.060670 27.000000
204.085070 7.000000
204.098480 9.000000
205.042360 9.000000
205.066280 440.000000
205.106280 7.000000
206.055950 44.000000
206.072780 434.000000
207.048020 28.000000
207.080980 600.000000
208.052750 9.000000
208.087360 199.000000
209.058350 76.000000
209.068100 21.000000
209.096160 141.000000
210.051570 10.000000
210.068590 131.000000
210.081570 11.000000
210.099870 15.000000
210.428730 6.000000
211.069820 8.000000
212.085860 8.000000
217.065000 52.000000
217.076980 26.000000
218.072010 149.000000
218.084430 17.000000
219.021730 5.000000
219.042110 24.000000
219.079710 331.000000
220.050130 79.000000
220.073910 20.000000
220.087660 98.000000
221.059590 331.000000
221.084870 12.000000
221.100650 20.000000
221.385830 5.000000
222.068650 378.000000
222.098910 11.000000
222.131580 5.000000
223.046170 26.000000
223.073520 89.000000
224.073120 6.000000
224.086700 26.000000
225.067860 8.000000
225.088270 42.000000
225.096910 25.000000
226.051280 6.000000
226.091310 11.000000
229.068010 10.000000
231.054080 8.000000
231.081590 192.000000
232.086900 44.000000
233.056240 43.000000
233.066150 52.000000
234.065770 97.000000
235.040880 10.000000
235.075810 407.000000
235.988250 9.000000
236.045260 7.000000
236.062670 19.000000
236.083370 345.000000
237.063030 95.000000
237.092700 340.000000
238.034230 6.000000
238.063250 664.000000
238.097500 30.000000
238.106640 8.000000
239.041150 6.000000
239.054110 19.000000
239.067690 80.000000
239.096480 25.000000
240.037020 6.000000
240.069690 12.000000
245.044340 5.000000
245.053880 12.000000
245.063960 7.000000
245.075410 9.000000
246.068280 28.000000
247.045670 8.000000
247.076480 598.000000
248.082500 182.000000
249.009050 6.000000
249.058010 20.000000
249.070980 12.000000
249.089740 16.000000
249.104580 5.000000
250.062320 55.000000
250.091510 10.000000
251.070140 13.000000
251.096770 8.000000
252.074100 13.000000
252.087190 8.000000
253.087080 202.000000
254.092480 21.000000
254.105930 7.000000
254.150620 6.000000
263.039890 6.000000
263.063750 18.000000
263.075410 31.000000
264.072390 25.000000
264.079860 65.000000
265.085910 135.000000
266.067350 7.000000
266.085270 28.000000
266.096650 12.000000
267.106380 6.000000
277.083950 13.000000
281.083400 16.000000
281.096740 6.000000
282.077300 7.000000
295.093990 6.000000
296.930300 7.000000

>ms2
165.072050 9.000000
178.080230 14.000000
179.090970 5.000000
189.071240 7.000000
190.080470 11.000000
191.084340 41.000000
193.065170 9.000000
194.077970 8.000000
201.073390 6.000000
203.087720 9.000000
205.072600 6.000000
206.072720 23.000000
207.082080 36.000000
208.088230 20.000000
209.092360 8.000000
218.073460 13.000000
219.081120 38.000000
220.087920 25.000000
221.054180 8.000000
221.065320 9.000000
221.096680 20.000000
222.067410 12.000000
223.111210 5.000000
231.080900 16.000000
234.067810 7.000000
235.075260 46.000000
236.084060 145.000000
237.089490 60.000000
238.060850 14.000000
238.070950 15.000000
238.089160 10.000000
247.074970 78.000000
248.083790 154.000000
249.089580 42.000000
250.099980 9.000000
251.106260 57.000000
252.084200 5.000000
252.106550 7.000000
253.087680 36.000000
262.098270 14.000000
263.070950 21.000000
264.079220 181.000000
265.086300 145.000000
266.080690 8.000000
266.090760 21.000000
267.104920 33.000000
279.101960 440.000000
280.107240 188.000000
281.081510 73.000000
281.109920 28.000000
282.085360 7.000000
296.105380 108.000000
297.106960 23.000000
298.114500 5.000000
311.128750 272.000000
312.131230 59.000000
313.137480 10.000000
342.170900 1000.000000
342.224330 29.000000

>ms2
279.102020 38.000000
280.106690 12.000000
311.127960 76.000000
312.130520 18.000000
342.169950 1000.000000
342.222630 34.000000

>ms2
165.073300 6.000000
178.077960 18.000000
178.086380 7.000000
179.087020 12.000000
189.070360 6.000000
190.073810 10.000000
190.084690 14.000000
191.085040 131.000000
191.096020 23.000000
192.074020 7.000000
192.089810 19.000000
193.098160 13.000000
194.070240 11.000000
194.078290 8.000000
195.080950 6.000000
196.089690 5.000000
201.069930 10.000000
201.077360 10.000000
202.079900 13.000000
203.074710 8.000000
203.087830 12.000000
204.089660 5.000000
205.057110 11.000000
205.069560 27.000000
206.060090 5.000000
206.072460 31.000000
207.072980 17.000000
207.085390 19.000000
208.088640 70.000000
209.091420 10.000000
209.101810 8.000000
218.058530 6.000000
218.073300 44.000000
218.083390 14.000000
219.080310 166.000000
220.073780 12.000000
220.089260 80.000000
221.059080 17.000000
221.078700 12.000000
221.097340 72.000000
221.110150 9.000000
222.070280 17.000000
222.091250 7.000000
222.107700 17.000000
223.071240 11.000000
223.115400 60.000000
224.069290 7.000000
224.092770 12.000000
224.117980 7.000000
225.086380 7.000000
231.081680 62.000000
232.084990 17.000000
233.055220 9.000000
233.070950 9.000000
233.099240 41.000000
234.062990 26.000000
234.085330 8.000000
235.075030 174.000000
236.083860 700.000000
237.089710 210.000000
238.065400 49.000000
238.090960 39.000000
239.069920 5.000000
239.092120 6.000000
239.110240 8.000000
246.067640 14.000000
246.078570 5.000000
247.077010 295.000000
248.035460 6.000000
248.058500 6.000000
248.083770 681.000000
249.052630 30.000000
249.089050 174.000000
250.055100 7.000000
250.079540 8.000000
250.099930 72.000000
251.063580 12.000000
251.106480 249.000000
252.080750 23.000000
252.107130 29.000000
252.116610 32.000000
253.085240 95.000000
254.088030 18.000000
261.094700 19.000000
262.059540 5.000000
262.092130 11.000000
262.105100 30.000000
263.059970 31.000000
263.071840 119.000000
263.106660 10.000000
264.078400 1000.000000
265.086980 850.000000
266.054900 11.000000
266.090000 164.000000
267.077360 8.000000
267.098240 85.000000
267.113650 16.000000
268.107360 15.000000
268.116460 5.000000
269.110990 10.000000
271.101200 10.000000
277.086210 19.000000
278.088040 17.000000
278.099910 10.000000
279.102420 635.000000
280.109650 402.000000
281.082520 499.000000
281.120480 41.000000
282.085270 100.000000
282.118350 7.000000
282.134890 5.000000
283.085300 7.000000
284.091770 7.000000
285.111600 7.000000
294.127260 7.000000
295.104770 7.000000
296.104000 230.000000
296.114290 72.000000
297.108180 65.000000
298.113740 7.000000
298.125430 8.000000
311.129490 67.000000
312.137570 11.000000

>ms2
55.018840 9.000000
71.333110 5.000000
115.047410 6.000000
115.055900 23.000000
115.066250 5.000000
127.056000 8.000000
128.062100 8.000000
128.130800 5.000000
138.634190 8.000000
139.054730 17.000000
141.067810 36.000000
144.057500 8.000000
152.042970 6.000000
152.062580 185.000000
152.075590 23.000000
153.056490 15.000000
153.069960 93.000000
154.038040 6.000000
154.075500 21.000000
154.081710 25.000000
155.080890 10.000000
155.093630 11.000000
158.158890 6.000000
159.337270 6.000000
163.058820 5.000000
164.054340 17.000000
164.061740 19.000000
164.069260 17.000000
165.001910 5.000000
165.043870 16.000000
165.070190 968.000000
165.105210 9.000000
166.057070 9.000000
166.076070 328.000000
166.087890 40.000000
166.107700 6.000000
166.140610 10.000000
167.048900 20.000000
167.058230 10.000000
167.075300 32.000000
167.082410 103.000000
168.059910 19.000000
168.092270 11.000000
171.644100 6.000000
176.058820 76.000000
176.066160 63.000000
176.078020 8.000000
177.070620 275.000000
178.049790 19.000000
178.078090 1000.000000
179.043320 16.000000
179.085050 695.000000
180.058460 28.000000
180.091960 119.000000
180.326230 6.000000
181.064770 199.000000
181.098020 8.000000
182.073550 116.000000
182.104710 9.000000
183.046830 5.000000
183.067730 13.000000
183.077870 15.000000
183.084720 5.000000
184.047410 10.000000
184.059230 11.000000
184.086290 6.000000
188.064300 16.000000
188.747340 5.000000
189.069210 775.000000
190.039020 8.000000
190.077100 602.000000
190.095500 9.000000
191.052860 10.000000
191.085480 562.000000
191.102490 21.000000
192.014400 5.000000
192.059360 141.000000
192.088120 168.000000
192.716870 6.000000
192.948870 6.000000
193.064900 467.000000
193.093120 15.000000
193.102910 13.000000
193.302580 5.000000
194.028430 6.000000
194.072040 402.000000
194.092240 8.000000
195.041340 14.000000
195.075940 136.000000
196.056170 15.000000
196.093310 15.000000
197.052750 12.000000
197.092060 8.000000
197.098880 8.000000
198.056810 6.000000
200.062100 24.000000
201.067980 97.000000
201.078900 34.000000
201.850080 7.000000
202.073170 121.000000
202.081480 133.000000
203.043690 6.000000
203.073620 10.000000
203.087540 89.000000
204.047210 17.000000
204.058140 29.000000
204.073070 5.000000
204.100170 8.000000
204.584850 5.000000
205.021840 9.000000
205.041280 9.000000
205.066510 479.000000
205.101200 10.000000
205.114760 5.000000
206.037520 8.000000
206.072710 538.000000
207.045150 30.000000
207.055540 13.000000
207.079820 700.000000
207.161040 7.000000
208.063320 9.000000
208.085130 169.000000
208.093990 86.000000
209.054890 48.000000
209.066420 42.000000
209.087810 56.000000
209.099960 82.000000
209.116410 6.000000
210.043120 12.000000
210.066730 185.000000
210.096540 13.000000
210.107970 21.000000
210.493710 5.000000
211.070740 29.000000
215.011180 5.000000
215.090970 9.000000
217.059830 35.000000
217.070430 79.000000
218.075100 175.000000
219.041150 17.000000
219.056720 10.000000
219.079450 359.000000
220.019500 9.000000
220.054080 45.000000
220.066330 11.000000
220.088060 84.000000
220.118960 8.000000
221.026930 16.000000
221.039320 9.000000
221.060680 430.000000
221.094210 33.000000
221.108290 8.000000
221.821850 5.000000
222.065260 238.000000
222.074890 136.000000
222.094790 13.000000
223.046600 10.000000
223.071330 124.000000
223.088290 10.000000
223.110720 9.000000
224.052670 6.000000
224.083880 52.000000
225.089190 69.000000
226.051860 5.000000
226.064700 20.000000
226.073440 6.000000
226.088040 9.000000
226.098880 10.000000
227.070450 5.000000
229.071460 7.000000
231.080050 213.000000
232.073230 9.000000
232.083880 25.000000
233.060460 75.000000
233.090210 11.000000
233.102130 16.000000
234.063260 56.000000
235.041140 11.000000
235.076280 363.000000
236.061750 8.000000
236.082050 464.000000
237.056340 96.000000
237.091030 393.000000
238.018660 11.000000
238.035230 8.000000
238.063100 538.000000
238.098570 19.000000
238.111300 7.000000
238.423390 6.000000
239.042920 15.000000
239.071370 118.000000
239.085510 9.000000
239.101560 6.000000
240.974690 7.000000
241.086470 10.000000
243.442760 5.000000
245.067200 14.000000
246.068710 24.000000
246.076600 16.000000
247.018800 6.000000
247.049820 13.000000
247.075620 698.000000
248.052440 18.000000
248.077990 149.000000
248.090120 44.000000
249.044920 11.000000
249.058720 26.000000
249.085680 37.000000
250.055190 33.000000
250.087460 5.000000
251.039000 6.000000
251.064060 11.000000
251.082870 19.000000
251.093380 5.000000
252.073790 24.000000
253.087250 170.000000
254.085400 8.000000
254.094800 16.000000
261.100130 8.000000
262.061680 12.000000
263.071530 98.000000
263.461430 7.000000
264.076780 54.000000
264.097780 12.000000
265.051670 17.000000
265.062190 15.000000
265.081880 96.000000
265.096770 43.000000
266.055420 13.000000
266.094020 8.000000
267.112670 13.000000
270.354710 5.000000
277.078740 5.000000
278.082980 8.000000
279.104610 6.000000
280.112150 10.000000
281.070980 9.000000
281.082000 37.000000
296.086520 5.000000

>ms2
165.074420 6.000000
178.077350 6.000000
189.071380 6.000000
190.077590 13.000000
191.085970 45.000000
192.094350 9.000000
193.068730 7.000000
194.076030 11.000000
202.078260 6.000000
203.088470 7.000000
205.066910 7.000000
206.074810 20.000000
207.081510 27.000000
208.090670 32.000000
209.095280 7.000000
210.069900 5.000000
218.079470 8.000000
219.083330 30.000000
220.085070 11.000000
220.093950 5.000000
221.057570 9.000000
221.093780 14.000000
221.101040 5.000000
222.065020 12.000000
222.105290 6.000000
223.109270 10.000000
231.085190 12.000000
232.083890 5.000000
233.095950 5.000000
234.065220 9.000000
235.076950 40.000000
236.083710 135.000000
237.090970 54.000000
238.065830 22.000000
238.093490 8.000000
246.076570 6.000000
247.075180 82.000000
248.084380 164.000000
249.054900 5.000000
249.089780 48.000000
250.094300 10.000000
251.108290 63.000000
252.107350 11.000000
253.085950 29.000000
254.092670 9.000000
261.092830 7.000000
262.098420 8.000000
263.065190 15.000000
263.078160 10.000000
264.080140 172.000000
265.086150 135.000000
266.090060 25.000000
267.103550 24.000000
268.106140 8.000000
278.100680 6.000000
279.102840 455.000000
280.108610 186.000000
281.084010 64.000000
281.116030 25.000000
282.084440 17.000000
282.115780 7.000000
296.106260 109.000000
297.107510 20.000000
311.129120 257.000000
312.133880 56.000000
313.128690 5.000000
313.137970 5.000000
342.170070 1000.000000
342.223270 29.000000

>ms2
279.103610 37.000000
280.108000 10.000000
311.129030 74.000000
312.132390 16.000000
342.116420 5.000000
342.171330 1000.000000
342.223850 35.000000

>ms2
165.068250 8.000000
166.076950 6.000000
177.069170 6.000000
178.075320 9.000000
178.083470 16.000000
179.082110 8.000000
179.091950 12.000000
180.087780 6.000000
189.074230 8.000000
190.075740 18.000000
190.084870 11.000000
191.085880 152.000000
192.089750 36.000000
193.069980 10.000000
193.099210 21.000000
194.074660 34.000000
201.073870 10.000000
202.082200 14.000000
203.087680 17.000000
205.068080 20.000000
205.096880 9.000000
205.105990 9.000000
206.071880 37.000000
207.069370 7.000000
207.083760 29.000000
208.088010 83.000000
209.099870 27.000000
218.058990 7.000000
218.074870 41.000000
219.082020 189.000000
220.081010 37.000000
220.088680 90.000000
221.057620 12.000000
221.068440 15.000000
221.097660 83.000000
222.070280 11.000000
222.094130 7.000000
222.102140 14.000000
223.075350 7.000000
223.089250 5.000000
223.111880 44.000000
224.081860 21.000000
224.111390 6.000000
224.121490 7.000000
225.088390 17.000000
231.073590 30.000000
231.084560 47.000000
232.073840 6.000000
232.090770 6.000000
233.063870 7.000000
233.073850 6.000000
233.097630 39.000000
233.107480 11.000000
234.061290 9.000000
234.070710 8.000000
234.100010 6.000000
235.075680 141.000000
236.083510 708.000000
237.063460 6.000000
237.089580 217.000000
238.064540 58.000000
238.091670 12.000000
246.068600 17.000000
247.076140 296.000000
248.053040 8.000000
248.083360 654.000000
249.047700 6.000000
249.060930 12.000000
249.089610 193.000000
250.060910 8.000000
250.099440 73.000000
251.073900 22.000000
251.107150 247.000000
252.076840 14.000000
252.088410 13.000000
252.110200 34.000000
252.118150 14.000000
253.086780 112.000000
254.083180 14.000000
254.095290 13.000000
261.088100 17.000000
262.096560 29.000000
263.071350 126.000000
264.035160 5.000000
264.078640 1000.000000
265.085970 900.000000
265.124630 5.000000
266.049040 7.000000
266.089290 195.000000
267.094390 33.000000
267.106510 41.000000
267.121610 6.000000
268.092220 6.000000
268.109830 11.000000
277.083980 16.000000
278.095700 32.000000
279.102750 607.000000
280.075650 5.000000
280.108460 377.000000
281.084560 462.000000
281.116820 49.000000
281.128510 11.000000
282.085170 105.000000
283.085970 10.000000
283.106350 7.000000
295.103180 8.000000
296.104860 332.000000
297.099980 15.000000
297.111330 63.000000
298.116420 14.000000
311.129240 56.000000
312.130950 20.000000

>ms2
55.016260 12.000000
103.062000 5.000000
115.052410 14.000000
115.061650 9.000000
129.064610 6.000000
129.073360 6.000000
139.052460 14.000000
141.067260 20.000000
141.073030 20.000000
142.069700 6.000000
151.057020 56.000000
152.054180 32.000000
152.063640 136.000000
153.058810 19.000000
153.069870 139.000000
153.673980 6.000000
154.068970 27.000000
154.078220 75.000000
155.083720 10.000000
163.053510 10.000000
164.051070 9.000000
164.063060 63.000000
164.911510 5.000000
165.022110 10.000000
165.070710 913.000000
166.076710 282.000000
167.042330 6.000000
167.052540 7.000000
167.063230 7.000000
167.075070 17.000000
167.084110 66.000000
167.095060 27.000000
168.046890 21.000000
168.058410 11.000000
168.069210 7.000000
168.085980 7.000000
169.060960 10.000000
170.030760 5.000000
170.071790 7.000000
175.057850 11.000000
176.062210 119.000000
176.079010 12.000000
176.941880 6.000000
177.043290 6.000000
177.071470 259.000000
178.051700 18.000000
178.079250 1000.000000
179.033780 12.000000
179.053020 10.000000
179.084490 818.000000
179.920300 5.000000
180.057360 11.000000
180.068950 7.000000
180.088240 139.000000
180.098830 78.000000
181.028080 6.000000
181.066700 224.000000
181.096630 11.000000
182.069140 123.000000
182.080630 27.000000
182.089720 8.000000
183.072430 16.000000
183.079970 43.000000
188.063430 15.000000
189.050900 17.000000
189.069730 852.000000
190.076870 716.000000
190.565280 6.000000
191.047100 12.000000
191.076540 154.000000
191.086640 573.000000
192.044720 13.000000
192.060470 113.000000
192.082790 59.000000
192.092390 78.000000
192.106190 7.000000
193.032000 10.000000
193.066500 568.000000
193.093750 17.000000
193.108030 18.000000
194.072390 496.000000
195.042420 6.000000
195.051130 7.000000
195.065890 33.000000
195.074390 76.000000
195.085480 62.000000
196.052250 11.000000
196.062350 26.000000
196.075040 14.000000
197.048680 8.000000
197.060610 19.000000
197.093200 19.000000
197.723450 5.000000
197.833620 5.000000
200.056490 10.000000
200.068190 10.000000
201.042430 6.000000
201.062770 50.000000
201.072020 49.000000
202.078120 247.000000
203.046690 8.000000
203.078900 65.000000
203.090300 59.000000
204.044780 10.000000
204.061110 28.000000
204.076770 7.000000
204.090990 8.000000
205.064290 454.000000
205.110530 10.000000
206.034450 7.000000
206.073100 517.000000
206.106830 6.000000
207.045440 10.000000
207.080700 798.000000
208.049330 12.000000
208.078200 61.000000
208.088730 227.000000
209.047030 13.000000
209.064900 90.000000
209.091400 43.000000
209.100360 77.000000
210.050990 8.000000
210.068700 144.000000
210.082380 23.000000
210.095280 31.000000
211.067540 19.000000
211.076780 23.000000
217.057100 42.000000
217.070050 51.000000
218.072390 159.000000
218.082520 81.000000
219.047230 18.000000
219.078430 254.000000
219.088380 127.000000
220.019940 8.000000
220.042510 14.000000
220.054700 70.000000
220.086760 99.000000
220.095250 32.000000
221.048930 74.000000
221.059460 265.000000
221.067980 150.000000
221.093280 50.000000
222.068160 398.000000
223.031710 10.000000
223.043490 21.000000
223.075620 70.000000
223.108860 7.000000
224.074490 44.000000
224.087570 12.000000
225.081760 14.000000
225.093990 17.000000
226.071590 7.000000
227.081500 6.000000
227.091870 5.000000
227.106200 5.000000
229.055300 12.000000
229.067570 13.000000
230.073900 12.000000
231.058580 8.000000
231.081600 202.000000
232.069310 6.000000
232.082980 21.000000
232.096890 14.000000
233.059050 87.000000
233.071810 40.000000
233.092830 10.000000
233.107850 9.000000
234.045960 11.000000
234.059560 21.000000
234.077330 60.000000
235.041960 6.000000
235.069580 185.000000
235.082000 261.000000
236.047840 8.000000
236.083330 462.000000
237.028690 5.000000
237.056690 30.000000
237.084990 134.000000
237.096440 216.000000
237.115020 7.000000
238.027340 6.000000
238.062190 482.000000
238.071460 166.000000
238.093800 104.000000
239.048830 11.000000
239.068310 118.000000
239.109280 6.000000
240.053600 8.000000
240.071950 24.000000
241.089480 5.000000
245.051570 11.000000
245.065140 8.000000
246.064240 26.000000
246.080410 14.000000
246.098300 7.000000
247.013320 9.000000
247.034960 12.000000
247.076780 745.000000
248.081540 224.000000
249.059510 36.000000
249.082870 34.000000
249.093550 21.000000
250.059390 55.000000
250.091920 7.000000
250.104720 6.000000
251.072220 18.000000
251.098040 10.000000
252.063870 6.000000
252.072250 12.000000
252.086500 7.000000
253.048780 6.000000
253.088910 197.000000
254.068120 8.000000
254.082920 15.000000
254.097270 7.000000
255.083600 7.000000
261.100710 15.000000
263.068300 72.000000
263.091550 9.000000
264.074620 60.000000
264.088710 44.000000
265.063390 7.000000
265.079380 109.000000
265.090270 73.000000
266.055210 16.000000
266.069490 11.000000
266.095060 32.000000
267.061550 10.000000
277.093780 10.000000
278.083980 10.000000
279.113770 7.000000
280.114110 5.000000
280.896030 7.000000
281.076350 20.000000
281.094390 9.000000
282.052890 7.000000
287.566280 6.000000
342.158910 29.000000
342.184780 14.000000

