>compound PR43513453
>parentmass 171.028799725
>ionization [M+H]+
>formula C7H6O5
>rt 122.394500
>profile qtof
#smiles_iso C1=C(C=C(C(=C1O)O)O)C(=O)O
#smiles_can C1=C(C=C(C(=C1O)O)O)C(=O)O
#inchikey LNTHITQWFMADLM-UHFFFAOYSA-N
#pubchem_id 370
#mb_accession PR304085,PR304087,PR304089,PR304092,PR304094,PR304096,PR304098,PR304100,PR304102,PR304104,PR304106,PR310437

>ms2peaks
81.029690 62.000000
89.942920 66.000000
96.955940 83.000000
96.962120 83.000000
107.013800 285.000000
109.027460 497.000000
122.600150 69.000000
125.018210 205.000000
125.026270 344.000000
127.038430 1000.000000
128.048570 59.000000
128.953110 59.000000
130.966810 142.000000
153.017640 712.000000
171.031510 562.000000

>ms2peaks
81.033840 38.000000
89.935660 20.000000
109.022940 48.000000
109.031390 90.000000
112.935970 19.000000
112.956010 23.000000
125.016140 21.000000
125.024920 84.000000
127.021330 22.000000
127.039020 1000.000000
127.473720 19.000000
128.950620 143.000000
130.960570 48.000000
130.969650 114.000000
130.977070 51.000000
131.968520 67.000000
134.999100 28.000000
151.155790 19.000000
153.010480 210.000000
153.019930 789.000000
154.022960 166.000000
171.027370 756.000000

>ms2peaks
69.030720 462.000000
69.035060 385.000000
80.017380 385.000000
109.030360 1000.000000
127.043210 404.000000

>ms2peaks
89.938740 78.000000
107.015080 264.000000
109.026310 542.000000
112.941470 75.000000
112.959040 102.000000
119.806090 68.000000
125.009480 81.000000
125.020920 68.000000
127.026910 78.000000
127.037260 468.000000
130.967540 75.000000
131.937930 58.000000
135.007080 61.000000
153.004620 75.000000
153.016540 1000.000000
155.069170 68.000000
171.020050 237.000000
171.026140 420.000000

>ms2peaks
109.028540 187.000000
113.962210 39.000000
125.022430 109.000000
127.035550 298.000000
127.041180 560.000000
128.038390 56.000000
128.045380 23.000000
128.950550 25.000000
129.047450 34.000000
130.965900 232.000000
134.997280 65.000000
135.007600 45.000000
152.988130 23.000000
153.018310 1000.000000
171.028060 751.000000

>ms2peaks
69.951390 361.000000
81.027640 229.000000
82.036470 313.000000
97.026860 229.000000
107.013110 1000.000000
109.020990 253.000000
109.030160 241.000000
125.018400 373.000000

>ms2peaks
110.024460 1000.000000
157.029460 462.000000

>ms2peaks
55.018400 63.000000
79.010570 47.000000
79.016100 74.000000
81.032230 55.000000
107.011400 206.000000
109.026650 434.000000
109.036530 115.000000
112.950360 52.000000
125.014350 66.000000
127.035500 734.000000
128.046810 52.000000
128.947360 49.000000
130.967470 168.000000
153.015720 1000.000000
154.014040 107.000000
154.021740 52.000000
171.014270 113.000000
171.026630 409.000000

>ms2peaks
89.944360 21.000000
96.961550 33.000000
109.018420 20.000000
109.027450 91.000000
109.034510 20.000000
110.028110 21.000000
112.960180 41.000000
125.014690 25.000000
125.022900 86.000000
127.038930 631.000000
128.048000 41.000000
128.952350 17.000000
129.958310 48.000000
130.969060 113.000000
135.010160 35.000000
141.039220 17.000000
152.944930 20.000000
153.016450 1000.000000
154.022090 62.000000
155.019560 26.000000
163.980530 21.000000
171.028490 653.000000

>ms2peaks
89.936960 290.000000
97.026100 323.000000
107.009390 1000.000000
107.014890 371.000000
109.018000 290.000000
159.964660 306.000000

>ms2peaks
109.070300 1000.000000

>ms2peaks
81.029690 18.000000
89.942920 19.000000
96.955940 24.000000
96.962120 24.000000
107.013800 82.000000
109.027460 143.000000
122.600150 20.000000
125.018210 59.000000
125.026270 99.000000
127.038430 288.000000
128.048570 17.000000
128.953110 17.000000
130.966810 41.000000
153.017640 205.000000
171.031510 162.000000

