>compound PR43098306
>parentmass 209.0808353
>ionization [M+H]+
>formula C11H12O4
>rt 310.738020
>profile qtof
#smiles_iso COC1=C(C=C(C=C1)/C=C/C(=O)O)OC
#smiles_can COC1=C(C=C(C=C1)C=CC(=O)O)OC
#inchikey HJBWJAPEBGSQPR-GQCTYLIASA-N
#pubchem_id 717531
#mb_accession PR302345,PR302351,PR302357,PR302363,PR302368,PR302374,PR302379,PR302384,PR302389,PR302394,PR302400,PR302405

>ms2peaks
91.047870 30.000000
91.053500 113.000000
95.047150 28.000000
95.053690 40.000000
104.059830 26.000000
105.031550 25.000000
105.058040 31.000000
117.027960 40.000000
119.046030 104.000000
119.700110 30.000000
120.053540 30.000000
123.032520 16.000000
132.055940 82.000000
133.018620 47.000000
133.028310 84.000000
133.060820 30.000000
147.037730 24.000000
148.048020 22.000000
148.055420 35.000000
149.053150 14.000000
149.063140 27.000000
160.067630 16.000000
163.065060 17.000000
163.075300 119.000000
167.055480 23.000000
176.019900 34.000000
176.043670 51.000000
191.068470 1000.000000
192.071150 100.000000
192.756210 14.000000
193.045390 15.000000
193.068650 25.000000
193.085770 17.000000
195.997770 17.000000
208.059650 16.000000
208.074680 65.000000
209.077820 72.000000

>ms2peaks
105.065030 6.000000
133.017730 13.000000
163.075820 22.000000
164.079540 8.000000
167.070480 14.000000
170.082790 6.000000
191.070270 1000.000000
191.524140 6.000000
192.067400 44.000000
192.075820 113.000000
192.088040 13.000000
192.729610 6.000000
193.035800 14.000000
193.044250 19.000000
193.072650 7.000000
194.080640 13.000000
194.167450 7.000000
207.716230 6.000000
208.011470 11.000000
208.060380 32.000000
208.077030 185.000000
209.078750 167.000000

>ms2peaks
79.057950 254.000000
89.021780 172.000000
91.050400 410.000000
95.043560 393.000000
102.045620 590.000000
103.051110 303.000000
103.056760 172.000000
104.058790 246.000000
105.023910 410.000000
109.061520 270.000000
109.072090 279.000000
115.054820 189.000000
119.044400 254.000000
120.053500 238.000000
132.049410 582.000000
132.065090 377.000000
133.028550 574.000000
133.054720 189.000000
145.004700 172.000000
147.047260 139.000000
148.048190 1000.000000
149.049130 139.000000
149.061140 254.000000
161.055310 139.000000
163.076710 221.000000
164.076280 221.000000

>ms2peaks
66.048700 217.000000
67.056140 283.000000
77.036770 1000.000000
105.034420 228.000000

>ms2peaks
79.055210 30.000000
89.037530 26.000000
91.055240 23.000000
93.061710 25.000000
102.044690 42.000000
103.055570 55.000000
105.025470 26.000000
105.030430 14.000000
117.032260 23.000000
118.037050 32.000000
118.042740 35.000000
119.022710 32.000000
119.042590 36.000000
119.050520 86.000000
120.054190 17.000000
123.045560 17.000000
129.031740 14.000000
132.052510 17.000000
133.031720 22.000000
133.060150 17.000000
147.033340 14.000000
147.048280 30.000000
148.042720 15.000000
148.048020 39.000000
148.056460 68.000000
149.062850 42.000000
160.052800 71.000000
162.709610 19.000000
163.073360 225.000000
163.082350 89.000000
176.046190 25.000000
176.054180 20.000000
177.035950 14.000000
179.026340 21.000000
191.032670 22.000000
191.051620 61.000000
191.070300 1000.000000
191.590640 22.000000
192.061110 38.000000
192.075120 20.000000
193.048510 21.000000
193.080290 20.000000
207.173200 17.000000
208.035100 19.000000
208.048860 17.000000
208.075090 228.000000
209.054890 34.000000
209.075090 37.000000
209.084550 17.000000

>ms2peaks
133.050830 9.000000
149.063260 15.000000
157.171450 11.000000
160.055080 11.000000
163.081740 9.000000
191.038760 12.000000
191.069810 1000.000000
192.063780 17.000000
192.075060 147.000000
192.939680 7.000000
193.046740 28.000000
193.065960 18.000000
193.078810 9.000000
207.129610 15.000000
208.044270 18.000000
208.049670 7.000000
208.070510 141.000000
209.042920 25.000000
209.078220 127.000000

>ms2peaks
77.042240 122.000000
90.041540 89.000000
91.055550 1000.000000
95.049760 151.000000
102.038190 81.000000
102.046530 137.000000
103.049310 70.000000
105.038270 140.000000
106.036900 92.000000
117.033160 74.000000
119.044940 244.000000
119.051480 199.000000
120.049330 74.000000
120.060650 122.000000
121.065050 63.000000
124.055320 103.000000
130.041990 92.000000
131.041760 166.000000
131.047420 122.000000
132.056700 834.000000
133.029340 181.000000
133.036680 137.000000
147.040300 207.000000
148.032790 133.000000
148.050540 934.000000
149.036180 148.000000
149.057130 63.000000
149.064610 70.000000
150.027370 111.000000
162.070020 63.000000
163.072770 299.000000
170.108870 122.000000
191.076740 81.000000

>ms2peaks
65.023790 431.000000
89.026760 458.000000
89.040110 1000.000000
90.041300 250.000000
91.052280 292.000000
120.056780 403.000000
134.041630 250.000000
147.045870 347.000000

>ms2peaks
79.048610 15.000000
79.055270 20.000000
90.057790 20.000000
91.050120 15.000000
96.961510 15.000000
103.051890 59.000000
104.055600 18.000000
105.032800 18.000000
107.050250 20.000000
118.036800 25.000000
119.043380 15.000000
119.054570 14.000000
120.047250 28.000000
120.052940 23.000000
120.062840 46.000000
123.039370 30.000000
131.048650 21.000000
132.039220 17.000000
132.054630 136.000000
133.026200 85.000000
133.042130 20.000000
146.035610 14.000000
147.043760 14.000000
148.048070 27.000000
148.055970 72.000000
149.053470 19.000000
154.793140 14.000000
160.051500 44.000000
163.070160 94.000000
163.078640 54.000000
164.077910 23.000000
167.071730 14.000000
191.049650 28.000000
191.070660 1000.000000
191.079130 358.000000
192.061480 26.000000
192.072710 106.000000
193.054430 15.000000
194.045140 14.000000
194.058730 29.000000
208.063630 36.000000
208.075550 107.000000
209.054310 77.000000
209.081420 34.000000

>ms2peaks
78.106120 8.000000
126.361680 7.000000
133.031690 7.000000
149.050550 9.000000
163.080610 8.000000
167.073150 38.000000
176.048780 7.000000
191.043950 37.000000
191.071840 1000.000000
191.122670 7.000000
192.066510 50.000000
192.076320 115.000000
192.930680 8.000000
193.048830 17.000000
193.075270 37.000000
197.347230 12.000000
203.842180 10.000000
207.049900 7.000000
207.063870 17.000000
208.071430 244.000000
208.086490 11.000000
208.199980 8.000000
209.081740 192.000000

>ms2peaks
77.037240 180.000000
77.044150 105.000000
91.055210 756.000000
92.055510 128.000000
105.030070 140.000000
105.033420 297.000000
105.061560 116.000000
117.034390 174.000000
118.042020 180.000000
119.047030 134.000000
119.053790 174.000000
119.060490 128.000000
120.056940 145.000000
123.043170 157.000000
124.050400 116.000000
131.061510 128.000000
132.049480 99.000000
132.060200 1000.000000
133.028120 622.000000
133.035750 314.000000
139.072330 122.000000
145.026290 140.000000
146.039580 163.000000
147.038250 215.000000
147.047160 169.000000
148.053100 738.000000
149.044390 215.000000
153.417710 110.000000
159.830440 105.000000
160.051530 331.000000
163.043260 110.000000
163.071990 605.000000
163.085110 122.000000
176.043550 99.000000
176.049680 233.000000
191.065490 110.000000

>ms2peaks
119.047910 766.000000
120.049320 1000.000000

