>compound PR44171094
>parentmass 332.0911861230769
>ionization [M]+
>formula C20H14NO4+
>rt 291.094154
>profile qtof
#smiles_iso C[N+]1=C2C(=C3C=CC4=C(C3=C1)OCO4)C=CC5=CC6=C(C=C52)OCO6
#smiles_can C[N+]1=C2C(=C3C=CC4=C(C3=C1)OCO4)C=CC5=CC6=C(C=C52)OCO6
#inchikey INVGWHRKADIJHF-UHFFFAOYSA-N
#pubchem_id 5154
#mb_accession PR301637,PR301640,PR301643,PR301646,PR301648,PR301651,PR301653,PR301656,PR301659,PR301662,PR301665,PR301668,PR310584

>ms2peaks
189.066600 6.000000
203.070790 5.000000
215.074920 12.000000
216.080380 17.000000
216.089710 9.000000
217.089870 20.000000
218.089610 8.000000
218.098180 20.000000
219.097200 7.000000
233.084050 9.000000
244.077670 21.000000
245.084900 6.000000
246.089370 26.000000
246.100510 17.000000
247.089780 8.000000
247.101170 5.000000
248.105320 10.000000
261.079530 11.000000
274.071110 13.000000
274.087160 102.000000
275.078220 10.000000
275.095280 23.000000
276.101170 19.000000
288.065060 7.000000
289.072270 13.000000
302.082860 39.000000
303.088470 13.000000
304.096710 77.000000
305.100710 15.000000
316.055240 7.000000
317.068570 69.000000
318.069700 10.000000
330.073460 16.000000
332.043330 8.000000
332.058010 9.000000
332.091610 1000.000000

>ms2peaks
332.091370 1000.000000
332.144900 16.000000

>ms2peaks
189.071560 16.000000
191.067750 6.000000
200.995010 6.000000
203.073910 6.000000
204.084300 6.000000
205.081890 13.000000
215.073670 16.000000
216.082720 81.000000
217.083220 25.000000
217.095790 21.000000
218.075290 5.000000
218.095350 81.000000
218.103680 41.000000
219.083240 13.000000
219.104490 25.000000
219.287800 7.000000
228.080380 10.000000
229.092010 6.000000
231.068940 7.000000
232.070850 6.000000
233.068530 10.000000
233.085890 5.000000
244.063130 22.000000
244.079480 122.000000
245.067630 6.000000
245.079190 32.000000
246.092060 258.000000
247.093520 70.000000
247.102600 60.000000
247.873990 6.000000
248.090940 16.000000
248.108870 70.000000
248.118410 24.000000
248.906130 6.000000
249.078750 5.000000
249.113310 12.000000
253.599670 6.000000
256.077640 7.000000
258.096650 15.000000
259.063570 12.000000
260.072690 10.000000
260.089260 6.000000
261.074620 22.000000
261.089050 37.000000
262.086300 21.000000
272.067140 19.000000
273.075010 17.000000
274.053560 8.000000
274.089290 675.000000
275.017330 5.000000
275.068940 14.000000
275.094760 203.000000
276.101200 149.000000
277.097500 14.000000
277.108430 50.000000
286.049680 6.000000
286.091340 6.000000
287.054660 16.000000
288.063080 18.000000
288.076870 6.000000
289.076260 81.000000
290.087620 15.000000
302.020110 7.000000
302.081020 201.000000
303.079160 32.000000
303.095580 49.000000
304.098820 561.000000
305.092190 37.000000
305.108520 48.000000
306.105040 18.000000
306.151490 5.000000
314.081180 17.000000
315.063840 5.000000
315.089420 5.000000
316.061460 24.000000
316.070920 10.000000
317.048370 18.000000
317.069730 444.000000
318.043370 9.000000
318.072970 116.000000
318.100490 10.000000
319.079740 7.000000
330.056430 13.000000
330.080380 189.000000
331.086360 53.000000
332.058410 14.000000
332.094450 1000.000000

>ms2peaks
116.053680 16.000000
148.058470 14.000000
150.040040 10.000000
151.049090 11.000000
151.058840 48.000000
152.058350 14.000000
153.055010 17.000000
155.071910 12.000000
158.158160 9.000000
162.050090 12.000000
163.049910 10.000000
163.058440 8.000000
164.059770 76.000000
164.068740 11.000000
165.068790 40.000000
165.076680 19.000000
172.914930 11.000000
174.050550 23.000000
175.039410 10.000000
175.052290 81.000000
175.068970 14.000000
176.041000 26.000000
176.062730 119.000000
176.072690 16.000000
177.050720 11.000000
177.063290 91.000000
177.075530 18.000000
177.854890 9.000000
178.077640 75.000000
179.069930 8.000000
179.080720 26.000000
180.037350 9.000000
183.061650 8.000000
187.051060 11.000000
187.060420 10.000000
188.056820 41.000000
188.064940 75.000000
189.045670 10.000000
189.069900 702.000000
189.130170 8.000000
189.149610 8.000000
190.061450 137.000000
190.070360 135.000000
190.080540 129.000000
191.068860 26.000000
191.078110 20.000000
191.088350 10.000000
191.098630 9.000000
191.902800 9.000000
192.076750 9.000000
192.085040 8.000000
192.096390 10.000000
193.068310 9.000000
193.077960 14.000000
195.042190 10.000000
200.040480 19.000000
200.063460 76.000000
201.059080 367.000000
202.038790 12.000000
202.049510 24.000000
202.068710 290.000000
202.077760 71.000000
203.046340 12.000000
203.071870 453.000000
203.088030 42.000000
204.046330 15.000000
204.057890 48.000000
204.082080 373.000000
204.095890 18.000000
204.906800 8.000000
205.049820 11.000000
205.065080 65.000000
205.088070 86.000000
206.064850 15.000000
206.102200 13.000000
207.083010 13.000000
212.067540 9.000000
214.057970 134.000000
214.067400 323.000000
214.860690 11.000000
215.037610 9.000000
215.072560 728.000000
216.080350 1000.000000
216.287950 14.000000
216.875030 9.000000
217.078610 214.000000
217.092640 416.000000
217.780230 10.000000
218.049670 13.000000
218.068300 30.000000
218.082080 100.000000
218.096480 445.000000
218.626340 8.000000
219.068440 10.000000
219.087310 54.000000
219.104690 123.000000
220.059630 10.000000
220.075780 20.000000
220.083330 15.000000
222.074070 8.000000
225.058260 18.000000
226.061940 8.000000
226.085800 11.000000
227.047440 15.000000
227.057530 9.000000
227.074400 70.000000
227.087480 9.000000
228.078810 68.000000
228.090070 39.000000
228.966220 8.000000
229.055360 86.000000
229.077730 20.000000
229.090990 38.000000
229.697810 10.000000
230.029510 9.000000
230.048310 30.000000
230.060640 134.000000
230.083100 10.000000
230.099690 39.000000
231.033000 9.000000
231.045750 37.000000
231.063900 119.000000
231.074220 43.000000
232.048550 33.000000
232.068590 115.000000
232.081590 159.000000
232.945800 9.000000
233.052370 33.000000
233.081160 137.000000
233.099750 15.000000
233.108630 15.000000
234.084730 19.000000
234.275880 9.000000
235.072020 8.000000
235.090820 11.000000
237.077970 13.000000
240.076920 20.000000
242.059890 20.000000
243.060730 13.000000
243.072780 18.000000
243.092500 11.000000
244.053740 16.000000
244.075360 316.000000
244.242840 13.000000
245.055070 10.000000
245.068100 21.000000
245.082210 77.000000
245.092790 56.000000
246.065640 21.000000
246.087520 127.000000
246.098690 117.000000
247.045520 8.000000
247.060520 19.000000
247.071320 10.000000
247.096770 119.000000
247.112880 13.000000
248.105580 41.000000
248.116460 27.000000
249.117940 12.000000
249.908680 9.000000
255.064800 12.000000
256.088530 12.000000
257.080080 21.000000
258.042450 10.000000
258.058530 25.000000
258.066680 22.000000
258.078430 11.000000
258.980650 14.000000
259.041810 32.000000
259.052670 61.000000
259.066590 105.000000
259.077510 28.000000
260.070250 182.000000
260.410220 10.000000
261.019290 12.000000
261.028840 10.000000
261.070500 46.000000
261.083860 82.000000
262.084320 36.000000
262.098080 41.000000
270.065030 11.000000
272.067170 37.000000
272.076450 30.000000
273.082180 10.000000
273.096950 16.000000
274.041050 10.000000
274.055330 9.000000
274.088470 94.000000
274.109650 16.000000
275.036220 11.000000
275.084990 16.000000
275.096190 49.000000
275.105620 26.000000
276.069430 9.000000
276.107880 10.000000
276.131710 10.000000
284.958400 10.000000
285.039580 12.000000
286.050290 38.000000
286.080440 24.000000
287.045140 10.000000
287.058260 54.000000
287.071010 8.000000
288.059450 60.000000
288.068240 88.000000
288.080930 13.000000
289.063720 9.000000
289.074920 40.000000
290.081330 18.000000
306.077330 17.000000
316.050110 54.000000
316.068910 61.000000
317.067600 34.000000
318.084380 8.000000
322.971920 10.000000
332.102720 9.000000

>ms2peaks
189.073100 10.000000
203.073720 6.000000
215.072040 9.000000
216.076600 11.000000
216.085530 24.000000
217.088940 18.000000
218.096980 22.000000
219.108580 6.000000
244.075880 31.000000
244.088240 6.000000
245.085190 5.000000
246.091750 64.000000
247.100100 21.000000
248.106890 11.000000
260.073360 6.000000
261.084260 12.000000
274.087520 94.000000
275.091400 25.000000
276.096920 14.000000
276.109190 8.000000
287.057740 8.000000
288.069520 6.000000
289.075440 11.000000
302.072240 7.000000
302.085300 14.000000
303.087650 9.000000
304.098330 85.000000
305.095460 9.000000
316.053740 7.000000
317.070740 76.000000
318.069340 7.000000
318.080350 8.000000
330.078920 26.000000
331.070710 6.000000
332.040560 8.000000
332.092620 1000.000000
332.145900 5.000000

>ms2peaks
332.050230 9.000000
332.092680 1000.000000
332.144230 20.000000

>ms2peaks
189.057020 6.000000
189.068760 15.000000
190.065260 5.000000
200.540990 6.000000
204.078870 12.000000
205.071200 7.000000
207.081330 6.000000
215.066150 11.000000
215.079450 8.000000
216.085010 57.000000
217.087300 64.000000
218.067230 6.000000
218.093630 87.000000
219.091770 6.000000
219.103060 17.000000
228.086850 8.000000
230.211260 8.000000
232.064960 7.000000
233.063740 17.000000
233.081590 12.000000
233.089020 16.000000
234.094500 12.000000
240.034880 6.000000
244.069060 37.000000
244.077820 102.000000
245.072810 22.000000
245.084520 26.000000
246.068680 12.000000
246.092480 307.000000
247.062300 9.000000
247.073700 10.000000
247.096740 75.000000
247.108990 19.000000
248.079330 9.000000
248.096470 26.000000
248.108610 59.000000
248.122150 13.000000
249.103560 6.000000
249.117490 12.000000
256.082490 9.000000
258.092560 9.000000
259.051970 8.000000
259.063600 13.000000
259.076870 11.000000
260.071170 31.000000
261.070220 23.000000
261.089870 12.000000
262.082030 19.000000
272.076600 27.000000
273.060360 12.000000
273.084410 12.000000
274.050900 10.000000
274.086730 664.000000
275.051850 6.000000
275.090550 227.000000
276.103820 153.000000
277.110290 27.000000
277.123410 9.000000
286.088070 8.000000
287.049290 8.000000
287.061220 13.000000
288.056730 21.000000
289.040340 5.000000
289.072570 74.000000
290.076630 19.000000
291.412570 6.000000
300.067380 6.000000
301.072660 5.000000
301.981260 5.000000
302.078920 235.000000
303.083440 77.000000
303.097780 29.000000
304.052700 8.000000
304.067170 15.000000
304.097560 616.000000
305.097930 101.000000
306.079500 7.000000
306.103180 10.000000
314.081360 10.000000
315.036710 6.000000
316.058930 22.000000
316.079410 6.000000
317.028260 10.000000
317.069310 434.000000
318.070400 97.000000
318.091430 16.000000
319.059080 9.000000
319.080350 6.000000
319.091280 7.000000
330.074830 189.000000
331.079010 31.000000
332.058380 11.000000
332.091550 1000.000000

>ms2peaks
110.771600 6.000000
115.059360 9.000000
116.052420 9.000000
141.058940 11.000000
144.035630 15.000000
148.405230 7.000000
149.023450 7.000000
151.046110 10.000000
151.053960 25.000000
151.064970 8.000000
152.055570 22.000000
152.065890 16.000000
153.052570 7.000000
154.058380 19.000000
155.372830 7.000000
158.180800 12.000000
162.044600 12.000000
163.052690 55.000000
164.046630 7.000000
164.062590 30.000000
165.045290 10.000000
165.084350 14.000000
166.062130 22.000000
173.451340 7.000000
174.036670 14.000000
174.044920 8.000000
175.039080 13.000000
175.048830 25.000000
175.054950 65.000000
176.062330 257.000000
176.135130 6.000000
177.054990 60.000000
177.070080 120.000000
177.083270 10.000000
178.038410 6.000000
178.045530 10.000000
178.064330 14.000000
178.073880 37.000000
178.084840 7.000000
178.845080 7.000000
179.084590 22.000000
180.034680 6.000000
180.759980 7.000000
184.691970 9.000000
187.094620 10.000000
188.051250 8.000000
188.064000 61.000000
189.041200 13.000000
189.051130 39.000000
189.069890 635.000000
190.026900 7.000000
190.067280 252.000000
190.182340 7.000000
190.313980 8.000000
190.849460 8.000000
190.971760 11.000000
191.053450 14.000000
191.061770 27.000000
191.075150 117.000000
191.091980 26.000000
192.076520 9.000000
194.075590 9.000000
195.060460 7.000000
196.157880 9.000000
198.450260 7.000000
200.065230 43.000000
201.035390 8.000000
201.059570 346.000000
201.081880 8.000000
202.048610 39.000000
202.061330 222.000000
202.073870 107.000000
202.080540 39.000000
203.036240 17.000000
203.048290 20.000000
203.071500 451.000000
203.079610 174.000000
204.014920 8.000000
204.043750 6.000000
204.051470 9.000000
204.062390 22.000000
204.081120 292.000000
204.524670 9.000000
205.044720 9.000000
205.062520 41.000000
205.082570 65.000000
205.092760 40.000000
206.067920 26.000000
206.089710 8.000000
206.097920 8.000000
206.116170 9.000000
206.127180 8.000000
212.059650 7.000000
212.117030 7.000000
212.232250 6.000000
214.035000 9.000000
214.058430 118.000000
214.065320 334.000000
214.902660 6.000000
215.042820 21.000000
215.072970 716.000000
215.124660 7.000000
216.038410 6.000000
216.054700 24.000000
216.080520 1000.000000
217.004560 9.000000
217.022610 10.000000
217.052320 44.000000
217.087140 640.000000
217.323880 14.000000
217.858540 6.000000
218.038250 18.000000
218.051190 13.000000
218.060990 21.000000
218.073460 23.000000
218.096920 483.000000
218.154910 7.000000
219.092700 77.000000
219.111430 33.000000
220.098750 14.000000
220.120610 7.000000
220.189580 7.000000
221.096410 9.000000
221.724290 8.000000
223.045350 8.000000
225.262850 15.000000
226.058330 14.000000
226.072070 7.000000
227.060130 27.000000
227.074340 82.000000
227.698640 6.000000
228.064710 35.000000
228.082030 160.000000
229.050400 87.000000
229.084950 8.000000
230.036090 16.000000
230.050920 29.000000
230.061360 100.000000
230.089780 8.000000
230.098540 8.000000
231.064930 97.000000
231.078830 19.000000
231.108050 13.000000
232.023180 6.000000
232.042820 6.000000
232.054020 31.000000
232.074310 157.000000
232.102830 11.000000
233.025190 10.000000
233.071380 25.000000
233.081020 101.000000
233.103150 7.000000
234.031780 11.000000
234.059950 7.000000
234.077040 14.000000
234.091550 7.000000
234.667760 9.000000
239.772370 7.000000
242.056720 20.000000
242.070850 19.000000
242.086140 11.000000
243.050700 9.000000
243.060620 28.000000
244.044220 7.000000
244.078890 232.000000
244.597350 10.000000
245.049930 7.000000
245.078750 45.000000
245.089900 67.000000
246.042180 7.000000
246.055740 26.000000
246.073430 53.000000
246.092590 216.000000
247.059970 7.000000
247.094830 168.000000
248.109540 51.000000
249.340880 7.000000
256.085210 11.000000
257.062990 7.000000
257.083560 17.000000
257.398590 7.000000
257.579130 6.000000
258.043760 23.000000
258.058110 47.000000
258.076020 13.000000
258.086940 28.000000
258.100130 14.000000
258.910770 7.000000
259.052400 35.000000
259.067660 80.000000
259.346070 13.000000
260.047120 34.000000
260.068150 105.000000
261.055300 7.000000
261.084750 111.000000
261.146150 11.000000
261.826690 8.000000
262.068360 7.000000
262.092380 10.000000
263.087040 8.000000
270.370420 8.000000
271.068600 15.000000
272.056700 14.000000
272.076510 9.000000
272.917510 8.000000
273.080020 57.000000
274.053990 12.000000
274.072570 47.000000
274.089870 208.000000
274.353270 7.000000
275.045930 12.000000
275.057130 19.000000
275.075380 9.000000
275.089540 68.000000
275.560360 7.000000
276.102050 12.000000
286.053100 9.000000
286.066830 19.000000
288.072600 40.000000
289.059720 26.000000
290.071140 6.000000
290.088710 20.000000
302.058990 10.000000
302.076970 6.000000
302.279450 8.000000
304.090850 9.000000
304.696290 7.000000
305.509550 7.000000
316.062900 29.000000
316.079830 8.000000
317.067290 66.000000
318.041050 6.000000
331.081700 7.000000
332.094090 9.000000

>ms2peaks
189.069580 11.000000
203.074260 8.000000
215.068360 6.000000
216.081950 44.000000
217.090730 23.000000
218.099900 30.000000
219.098590 6.000000
233.083080 12.000000
244.067140 6.000000
244.081830 19.000000
245.087920 8.000000
246.095000 57.000000
247.103260 23.000000
248.101810 8.000000
248.113340 6.000000
259.074010 8.000000
260.064450 6.000000
261.076540 6.000000
261.088170 6.000000
274.088320 87.000000
275.095490 43.000000
276.100430 10.000000
289.069920 9.000000
302.080930 29.000000
303.088470 6.000000
304.098970 91.000000
305.096500 7.000000
316.053190 5.000000
317.070470 65.000000
318.080290 9.000000
319.077120 5.000000
330.076840 27.000000
331.077330 6.000000
332.040010 5.000000
332.054350 10.000000
332.093720 1000.000000
332.147950 14.000000

>ms2peaks
332.047030 10.000000
332.093480 1000.000000
332.145230 20.000000

>ms2peaks
189.070450 5.000000
192.088410 5.000000
196.916310 5.000000
203.068770 6.000000
204.068370 6.000000
205.086730 6.000000
206.091090 8.000000
215.059330 7.000000
215.073580 10.000000
216.078060 68.000000
217.070790 13.000000
217.094450 13.000000
218.068800 7.000000
218.095310 91.000000
218.104290 28.000000
219.101560 12.000000
228.079820 18.000000
232.073810 11.000000
232.089490 10.000000
233.085360 23.000000
234.063980 9.000000
234.090000 24.000000
243.053740 8.000000
244.075100 119.000000
244.091950 11.000000
244.103070 5.000000
245.069080 9.000000
245.079060 22.000000
245.086880 11.000000
246.053890 5.000000
246.092180 347.000000
247.096680 132.000000
248.096180 23.000000
248.110410 37.000000
249.106960 8.000000
249.118990 11.000000
256.068510 6.000000
258.094600 6.000000
259.064300 27.000000
260.067960 31.000000
261.072360 25.000000
261.080170 63.000000
262.079900 8.000000
263.072880 9.000000
264.785830 7.000000
272.067990 24.000000
272.082980 6.000000
273.075900 22.000000
274.037540 14.000000
274.054810 28.000000
274.085050 647.000000
275.053040 10.000000
275.089600 244.000000
276.102540 177.000000
276.123900 7.000000
277.082760 6.000000
277.108340 35.000000
277.337550 6.000000
285.078310 6.000000
286.052490 8.000000
286.089750 13.000000
287.053620 15.000000
288.061950 15.000000
289.047850 16.000000
289.074800 99.000000
290.051880 6.000000
290.072360 17.000000
290.082370 11.000000
300.064580 5.000000
302.049070 12.000000
302.083040 234.000000
302.109950 10.000000
303.085110 115.000000
303.103520 11.000000
304.066530 22.000000
304.096070 576.000000
305.084840 19.000000
305.100740 131.000000
306.098880 18.000000
306.112370 21.000000
314.070040 8.000000
314.084900 12.000000
316.045990 12.000000
316.063840 20.000000
317.067720 529.000000
318.057500 39.000000
318.075650 102.000000
318.874540 5.000000
319.052760 6.000000
319.074460 16.000000
330.044860 8.000000
330.072780 152.000000
331.079650 59.000000
332.020600 10.000000
332.049100 31.000000
332.091400 1000.000000

>ms2peaks
115.120800 7.000000
127.148900 14.000000
129.374240 14.000000
141.089220 7.000000
149.033460 8.000000
150.042390 12.000000
150.049870 9.000000
150.137700 7.000000
151.053280 41.000000
151.062100 17.000000
151.948910 10.000000
152.061890 10.000000
153.033490 11.000000
154.069380 12.000000
160.202470 12.000000
163.052730 53.000000
163.101100 12.000000
164.053220 21.000000
164.066380 11.000000
165.067860 102.000000
166.081620 24.000000
168.986880 10.000000
173.999730 9.000000
174.028700 13.000000
174.039430 7.000000
174.052090 33.000000
174.463790 11.000000
175.041200 12.000000
175.051770 14.000000
175.060300 48.000000
176.047820 10.000000
176.060710 123.000000
176.068180 52.000000
177.055850 30.000000
177.068800 89.000000
177.082020 18.000000
178.055110 10.000000
178.065220 9.000000
178.073880 20.000000
178.082150 23.000000
179.069370 8.000000
179.079910 14.000000
179.086070 35.000000
180.061900 16.000000
181.064240 9.000000
186.994770 12.000000
187.054470 18.000000
188.055820 57.000000
188.066470 70.000000
188.152730 11.000000
188.619130 8.000000
189.033050 22.000000
189.070720 788.000000
189.100510 11.000000
189.868230 11.000000
190.054950 65.000000
190.064210 181.000000
190.073780 229.000000
190.641860 9.000000
191.042850 17.000000
191.059770 15.000000
191.071900 134.000000
191.089740 35.000000
191.164600 7.000000
191.908620 8.000000
192.053760 11.000000
192.073850 34.000000
192.096510 7.000000
193.070680 12.000000
193.096080 7.000000
193.554050 7.000000
197.868150 7.000000
198.776980 13.000000
200.049220 47.000000
200.065050 31.000000
200.126820 9.000000
200.983200 9.000000
201.029430 15.000000
201.040630 34.000000
201.055240 252.000000
201.063000 241.000000
202.025650 11.000000
202.050700 48.000000
202.067660 235.000000
202.086030 8.000000
203.050160 19.000000
203.073730 553.000000
203.106550 8.000000
203.973570 7.000000
204.058120 26.000000
204.081120 344.000000
204.105300 9.000000
204.205310 8.000000
205.067660 42.000000
205.089040 106.000000
205.109190 7.000000
205.294390 8.000000
206.059690 7.000000
206.077410 20.000000
206.093610 15.000000
206.694610 10.000000
208.047160 7.000000
212.062500 8.000000
213.064940 7.000000
214.045440 19.000000
214.066020 462.000000
214.122530 11.000000
215.073780 655.000000
215.202710 20.000000
215.575300 7.000000
215.836330 10.000000
216.080990 1000.000000
216.154140 10.000000
217.060180 74.000000
217.087340 669.000000
217.133620 8.000000
218.064190 34.000000
218.096500 638.000000
219.068570 9.000000
219.086400 18.000000
219.103620 111.000000
219.123120 14.000000
220.062870 16.000000
220.079360 19.000000
220.096410 9.000000
220.104970 11.000000
220.172210 7.000000
221.523270 8.000000
226.054140 60.000000
226.076570 8.000000
227.076580 108.000000
227.648800 10.000000
228.044370 9.000000
228.064940 36.000000
228.083690 120.000000
229.028580 9.000000
229.047870 32.000000
229.058010 37.000000
229.083250 52.000000
230.016400 12.000000
230.026430 8.000000
230.058270 124.000000
230.065690 68.000000
230.079320 30.000000
230.095720 8.000000
231.057950 87.000000
231.070270 124.000000
232.045900 44.000000
232.075420 166.000000
232.096710 18.000000
232.199450 10.000000
233.058500 35.000000
233.072390 31.000000
233.082660 96.000000
234.064850 10.000000
234.095550 17.000000
235.061980 8.000000
239.063250 16.000000
240.080550 9.000000
242.043410 10.000000
242.060870 30.000000
243.070740 37.000000
243.083190 24.000000
244.073230 391.000000
244.095370 14.000000
244.313000 9.000000
245.076320 41.000000
245.085780 52.000000
246.031110 8.000000
246.067260 45.000000
246.084660 134.000000
246.096800 133.000000
246.508900 10.000000
247.041500 20.000000
247.065030 28.000000
247.085170 19.000000
247.101430 141.000000
248.095050 17.000000
248.107830 8.000000
248.122150 27.000000
249.122700 9.000000
251.052930 7.000000
256.034700 10.000000
256.084560 13.000000
257.042180 23.000000
257.053990 20.000000
257.076930 9.000000
257.086060 10.000000
258.053740 40.000000
258.067750 20.000000
258.636170 10.000000
259.029690 17.000000
259.061520 174.000000
259.078700 41.000000
259.531310 8.000000
260.064820 202.000000
260.079190 71.000000
261.060970 19.000000
261.069890 63.000000
261.080110 32.000000
261.091950 14.000000
262.071690 9.000000
262.094700 8.000000
271.061650 8.000000
271.373290 10.000000
272.069610 59.000000
273.074070 8.000000
274.036040 9.000000
274.051790 39.000000
274.085330 138.000000
274.102140 16.000000
275.054570 17.000000
275.078860 9.000000
275.092680 69.000000
275.111210 13.000000
275.397860 9.000000
280.543580 11.000000
286.045900 10.000000
287.034000 12.000000
287.064390 7.000000
288.062070 96.000000
289.041870 18.000000
289.071930 18.000000
289.082920 14.000000
289.640900 10.000000
290.072360 27.000000
290.088260 8.000000
293.977050 7.000000
302.083710 7.000000
316.049160 18.000000
316.069980 8.000000
317.069400 47.000000
317.089450 7.000000
331.096280 11.000000
332.074010 10.000000
332.092710 9.000000

>ms2peaks
117.824250 18.000000
162.396930 30.000000
175.058780 24.000000
176.071950 25.000000
177.054410 23.000000
178.059910 20.000000
178.655750 38.000000
179.068940 24.000000
188.065160 18.000000
189.066600 121.000000
189.075200 78.000000
190.045850 18.000000
190.072170 35.000000
190.323320 21.000000
191.087950 39.000000
191.100780 22.000000
192.078920 20.000000
192.086690 21.000000
201.052220 29.000000
201.059540 24.000000
201.070220 27.000000
201.077580 50.000000
202.002690 18.000000
202.058990 42.000000
202.073610 78.000000
202.403530 20.000000
203.040240 20.000000
203.070790 102.000000
203.078640 50.000000
204.067760 35.000000
204.078030 40.000000
204.088010 64.000000
204.100020 22.000000
205.086180 85.000000
205.999470 26.000000
210.688160 23.000000
211.786250 19.000000
211.857730 21.000000
214.055790 20.000000
214.074480 76.000000
214.090560 18.000000
215.035430 23.000000
215.060010 31.000000
215.074920 231.000000
216.066700 39.000000
216.080380 318.000000
216.089710 168.000000
217.065260 28.000000
217.089870 377.000000
217.839710 20.000000
218.073850 34.000000
218.089610 163.000000
218.098180 390.000000
218.113190 77.000000
219.077510 63.000000
219.097200 144.000000
219.457980 20.000000
220.096250 18.000000
222.562710 20.000000
225.177690 19.000000
227.915630 17.000000
228.049820 24.000000
228.063080 23.000000
228.079790 25.000000
228.089040 38.000000
229.041500 17.000000
229.079970 40.000000
229.571990 18.000000
230.065930 67.000000
231.059370 67.000000
231.071230 47.000000
231.846130 17.000000
232.045620 17.000000
232.074220 50.000000
232.086170 51.000000
233.021210 20.000000
233.062770 20.000000
233.084050 182.000000
233.104480 47.000000
233.519300 21.000000
234.088680 21.000000
236.788100 18.000000
244.052440 28.000000
244.059330 62.000000
244.077670 402.000000
244.094820 82.000000
245.064760 18.000000
245.075100 46.000000
245.084900 109.000000
245.405580 20.000000
246.089370 499.000000
246.100510 319.000000
246.976170 33.000000
247.058990 20.000000
247.075840 82.000000
247.089780 158.000000
247.101170 105.000000
247.108720 46.000000
248.024950 20.000000
248.066500 19.000000
248.091350 71.000000
248.105320 202.000000
248.142400 20.000000
249.110320 24.000000
249.121580 26.000000
254.081360 33.000000
254.753590 17.000000
255.064650 18.000000
255.223860 19.000000
257.083710 25.000000
258.047940 20.000000
258.098850 22.000000
258.782260 21.000000
259.026790 26.000000
259.045620 18.000000
259.061890 76.000000
259.071010 57.000000
260.061950 22.000000
260.081790 81.000000
260.585360 29.000000
260.986720 17.000000
261.079530 219.000000
261.832400 25.000000
262.065400 17.000000
262.079710 40.000000
266.053920 20.000000
272.029820 22.000000
272.055880 21.000000
272.068330 37.000000
272.080570 19.000000
273.056550 42.000000
273.070070 17.000000
274.000670 20.000000
274.031130 46.000000
274.041690 17.000000
274.071110 251.000000
274.087160 1965.000000
274.116910 27.000000
275.045620 33.000000
275.061920 40.000000
275.078220 201.000000
275.095280 452.000000
275.113620 22.000000
276.101170 374.000000
276.122890 17.000000
277.047330 17.000000
277.088560 17.000000
277.103700 62.000000
277.462370 18.000000
278.118010 17.000000
279.614990 20.000000
280.407500 30.000000
280.998410 20.000000
284.070100 46.000000
286.039400 20.000000
286.057710 18.000000
287.027220 40.000000
287.049070 20.000000
287.061310 44.000000
287.090550 30.000000
287.782960 35.000000
288.065060 140.000000
288.080570 21.000000
289.044310 27.000000
289.072270 255.000000
291.067230 24.000000
293.147340 27.000000
294.269440 18.000000
297.720030 41.000000
301.067290 23.000000
302.082860 754.000000
303.048610 20.000000
303.069460 23.000000
303.088470 256.000000
303.908780 18.000000
304.047030 22.000000
304.096710 1483.000000
304.621580 17.000000
304.756960 20.000000
305.072450 42.000000
305.100710 287.000000
305.561980 20.000000
306.096890 24.000000
310.106780 17.000000
314.066160 18.000000
315.047850 23.000000
316.013550 24.000000
316.055240 131.000000
316.071140 18.000000
316.564910 19.000000
317.036870 45.000000
317.068570 1321.000000
318.069700 193.000000
318.085570 95.000000
319.003480 24.000000
320.095250 25.000000
324.766420 18.000000
330.057250 93.000000
330.073460 308.000000
330.086980 76.000000
331.045680 17.000000
331.083590 65.000000
331.407040 24.000000
331.660610 34.000000
331.990540 34.000000
332.006900 56.000000
332.024480 43.000000
332.043330 147.000000
332.058010 178.000000
332.091610 19260.000000
332.141110 94.000000
332.152250 61.000000

