>compound PR44878313
>parentmass 271.06009991111114
>ionization [M+H]+
>formula C15H10O5
>rt 383.959093
>profile qtof
#smiles_iso C1=CC=C(C=C1)C2=CC(=O)C3=C(O2)C=C(C(=C3O)O)O
#smiles_can C1=CC=C(C=C1)C2=CC(=O)C3=C(O2)C=C(C(=C3O)O)O
#inchikey FXNFHKRTJBSTCS-UHFFFAOYSA-N
#pubchem_id 5281605
#mb_accession PR303609,PR303610,PR303611,PR303612,PR303613,PR303614,PR303615,PR303616,PR310475

>ms2peaks
95.011470 18.000000
103.053540 13.000000
103.057680 7.000000
123.007750 109.000000
124.007800 6.000000
151.007080 7.000000
169.010190 12.000000
197.060460 6.000000
225.060180 5.000000
241.044240 6.000000
242.051010 8.000000
253.048900 19.000000
270.046880 22.000000
271.021610 7.000000
271.060550 1000.000000
271.108890 9.000000

>ms2peaks
269.044650 21.000000
270.049770 29.000000
271.021880 5.000000
271.060970 1000.000000
271.106480 13.000000

>ms2peaks
55.015310 21.000000
63.024410 18.000000
67.017220 19.000000
68.997060 287.000000
69.018680 18.000000
70.001110 22.000000
71.008650 18.000000
71.014310 20.000000
72.239530 20.000000
75.023790 58.000000
76.663670 23.000000
77.002650 21.000000
77.036960 256.000000
78.037380 18.000000
79.018560 48.000000
85.023090 18.000000
94.994310 18.000000
95.012830 1000.000000
96.012120 52.000000
96.018710 54.000000
99.023170 45.000000
101.037590 81.000000
103.043360 28.000000
103.053820 162.000000
112.015950 28.000000
113.027670 25.000000
113.785850 19.000000
115.048910 94.000000
115.057900 73.000000
116.054620 50.000000
122.995760 80.000000
123.008420 903.000000
124.011510 47.000000
125.040340 18.000000
126.038820 40.000000
126.048450 60.000000
127.003400 23.000000
127.052150 132.000000
128.056470 27.000000
128.061360 67.000000
129.026640 40.000000
129.036330 120.000000
130.041020 20.000000
131.051090 25.000000
139.007370 55.000000
139.057110 96.000000
140.004710 19.000000
141.071440 56.000000
141.078220 23.000000
149.040560 19.000000
150.004940 32.000000
150.042070 184.000000
150.051530 160.000000
150.072830 20.000000
151.039380 17.000000
151.053960 287.000000
152.032440 20.000000
152.054410 21.000000
152.062030 27.000000
153.025150 33.000000
153.031860 92.000000
153.037520 98.000000
153.057830 20.000000
154.034320 47.000000
154.043870 49.000000
155.025530 27.000000
155.031710 22.000000
156.034940 18.000000
168.009720 52.000000
169.011800 129.000000
169.063570 22.000000
176.688960 19.000000
179.051420 37.000000
183.035030 17.000000
197.065350 28.000000
211.022310 17.000000
211.034580 22.000000

>ms2peaks
95.009480 8.000000
103.053700 16.000000
105.032560 7.000000
123.006760 94.000000
141.069820 5.000000
151.002980 7.000000
169.012180 7.000000
225.057830 11.000000
242.051360 11.000000
253.049790 30.000000
269.044160 13.000000
270.053620 12.000000
271.024810 7.000000
271.060210 1000.000000
271.107850 9.000000

>ms2peaks
241.051280 8.000000
269.043330 26.000000
270.049650 51.000000
271.016630 5.000000
271.060060 1000.000000
271.107180 12.000000

>ms2peaks
55.017990 13.000000
68.790690 13.000000
68.993230 71.000000
68.999000 223.000000
69.997650 13.000000
70.001000 20.000000
71.015110 14.000000
77.038380 128.000000
84.991050 14.000000
87.021460 31.000000
94.986020 14.000000
94.991870 12.000000
95.012570 867.000000
95.237880 13.000000
96.014660 44.000000
99.024070 43.000000
101.038300 16.000000
102.044730 19.000000
103.055270 134.000000
104.058560 17.000000
105.031080 44.000000
113.024890 13.000000
115.045640 20.000000
115.054400 158.000000
122.971020 13.000000
123.007260 1000.000000
123.858110 12.000000
124.008590 14.000000
124.017450 14.000000
125.008690 34.000000
125.029920 32.000000
125.039250 75.000000
127.055160 42.000000
127.378430 12.000000
129.013580 15.000000
129.034030 46.000000
130.035000 14.000000
131.046370 25.000000
139.055850 114.000000
141.064560 30.000000
141.147550 12.000000
144.266770 14.000000
149.894210 13.000000
150.045880 283.000000
150.997760 29.000000
151.041290 58.000000
151.052150 309.000000
151.061630 51.000000
152.009260 14.000000
152.056370 65.000000
152.064680 31.000000
152.069750 12.000000
153.035030 105.000000
153.063780 13.000000
153.113160 13.000000
159.369030 13.000000
168.000610 21.000000
169.007460 12.000000
169.020580 14.000000
170.006420 20.000000
179.040310 19.000000
179.051300 18.000000
179.059050 11.000000
180.057330 17.000000
201.368550 15.000000
269.040990 39.000000
271.052520 41.000000
271.062900 18.000000

>ms2peaks
95.015130 10.000000
103.054540 17.000000
104.056850 6.000000
123.007410 102.000000
139.002010 10.000000
151.005200 8.000000
151.050260 6.000000
169.012250 15.000000
169.018460 11.000000
211.037510 9.000000
225.052310 6.000000
241.051390 11.000000
242.054690 12.000000
253.054180 35.000000
269.043030 19.000000
270.050750 14.000000
271.060700 1000.000000
271.107940 16.000000

>ms2peaks
68.984490 164.000000
68.996730 155.000000
69.000610 255.000000
77.031740 182.000000
77.038280 264.000000
95.008090 236.000000
95.014180 509.000000
101.046220 164.000000
102.057480 264.000000
103.059070 255.000000
115.047790 182.000000
123.005540 1000.000000
123.010380 564.000000
125.036030 255.000000
141.069980 227.000000
150.045410 609.000000
150.096280 164.000000
151.004590 155.000000

>ms2peaks
53.004750 20.000000
68.998460 54.000000
71.001740 18.000000
80.015900 19.000000
84.016920 21.000000
95.003780 24.000000
95.011470 314.000000
98.001730 20.000000
99.007780 40.000000
102.495730 20.000000
103.022380 17.000000
103.053540 232.000000
103.057680 128.000000
104.061000 21.000000
105.034450 61.000000
105.042830 17.000000
115.056340 65.000000
123.007750 1921.000000
123.506890 18.000000
124.007800 111.000000
125.013020 22.000000
125.043690 24.000000
126.849860 17.000000
127.047680 18.000000
129.069440 23.000000
138.994090 25.000000
139.001100 71.000000
141.065580 68.000000
141.073440 66.000000
150.045650 18.000000
150.056840 21.000000
151.007080 115.000000
151.045490 20.000000
151.054370 37.000000
153.028260 25.000000
153.063510 24.000000
159.447510 29.000000
166.980970 20.000000
167.055690 18.000000
167.997830 26.000000
169.010190 217.000000
169.064970 18.000000
170.006130 17.000000
170.016970 17.000000
170.025010 19.000000
171.034230 18.000000
174.231810 27.000000
179.043980 37.000000
179.051590 33.000000
180.051220 23.000000
194.395800 32.000000
196.553940 18.000000
197.060460 108.000000
207.019560 17.000000
207.042770 66.000000
210.921970 18.000000
211.038150 85.000000
216.900480 20.000000
218.852810 18.000000
224.050490 23.000000
225.024720 25.000000
225.046510 68.000000
225.060180 89.000000
226.056810 28.000000
232.992550 19.000000
235.058170 37.000000
236.365490 17.000000
241.044240 103.000000
241.052110 84.000000
241.066670 17.000000
242.051010 145.000000
242.069320 18.000000
245.920140 17.000000
252.994710 22.000000
253.030520 40.000000
253.048900 327.000000
253.677920 29.000000
253.913210 21.000000
253.972240 28.000000
254.047960 20.000000
254.056840 22.000000
254.075580 18.000000
255.056050 19.000000
258.457000 21.000000
267.033260 17.000000
267.945220 20.000000
268.994020 18.000000
269.034760 63.000000
269.045750 22.000000
269.056820 17.000000
270.046880 379.000000
270.064510 83.000000
270.714050 22.000000
270.781460 22.000000
271.021610 125.000000
271.060550 17549.000000
271.089450 25.000000
271.108890 158.000000
271.179810 24.000000

