>compound PR44749570
>parentmass 478.222413876923
>ionization [M+H]+
>formula C28H31NO6
>rt 301.923674
>profile qtof
#smiles_iso CN(CC1=CC=CC=C1O)C2CCC3=CC(=C(C(=C3C4=CC=C(C(=O)C=C24)OC)OC)OC)OC
#smiles_can CN(CC1=CC=CC=C1O)C2CCC3=CC(=C(C(=C3C4=CC=C(C(=O)C=C24)OC)OC)OC)OC
#inchikey SOFSXTKPGSIDCI-UHFFFAOYSA-N
#pubchem_id 28126
#mb_accession PR300832,PR300836,PR300840,PR300844,PR300848,PR300852,PR300855,PR300859,PR300863,PR300867,PR300871,PR300875,PR310643

>ms2peaks
72.047400 6.000000
136.076400 13.000000
181.088790 10.000000
235.074540 6.000000
241.091780 5.000000
249.094540 5.000000
250.102840 5.000000
251.110700 5.000000
256.108860 17.000000
264.099730 6.000000
265.098180 5.000000
266.097050 7.000000
267.105530 10.000000
268.110990 5.000000
272.100650 11.000000
272.113560 6.000000
278.100400 16.000000
278.118800 5.000000
279.105070 12.000000
279.121400 15.000000
280.110380 7.000000
281.121280 8.000000
282.105470 6.000000
282.117550 23.000000
283.093050 8.000000
283.105590 6.000000
284.103670 14.000000
285.106080 7.000000
285.116060 12.000000
286.114110 5.000000
287.120970 8.000000
287.133000 8.000000
294.084500 7.000000
294.097080 5.000000
295.089260 12.000000
295.101200 19.000000
295.116150 6.000000
296.094790 8.000000
296.105380 6.000000
296.116030 7.000000
296.131560 5.000000
297.114960 6.000000
297.127170 6.000000
298.108000 7.000000
298.127660 6.000000
299.119480 6.000000
299.137910 6.000000
300.098020 9.000000
301.148350 12.000000
308.126980 21.000000
309.114560 23.000000
309.135590 19.000000
309.149140 5.000000
310.119900 115.000000
311.086580 14.000000
311.106990 23.000000
311.127620 37.000000
312.103580 8.000000
312.128810 8.000000
312.143250 13.000000
312.158390 29.000000
313.131380 8.000000
313.151760 18.000000
315.120450 27.000000
315.136230 11.000000
316.131040 10.000000
324.120450 16.000000
325.114010 8.000000
325.134520 21.000000
326.113890 26.000000
326.126010 24.000000
327.114960 8.000000
327.139040 7.000000
340.155090 96.000000
341.130190 18.000000
341.150480 59.000000
342.138370 37.000000
343.154690 19.000000
344.148380 25.000000
354.171840 7.000000
357.158780 10.000000
372.116060 5.000000
372.181550 1000.000000
372.237950 17.000000
373.184450 234.000000
374.190220 28.000000
478.215240 306.000000
478.231900 389.000000
478.297700 9.000000

>ms2peaks
372.181820 246.000000
373.184810 63.000000
374.184690 11.000000
478.163420 7.000000
478.223140 1000.000000
478.286870 25.000000

>ms2peaks
70.066700 9.000000
72.043990 39.000000
107.049570 14.000000
136.077440 37.000000
137.054180 8.000000
137.061600 13.000000
148.075380 8.000000
151.075490 8.000000
175.075680 6.000000
181.086780 40.000000
188.078080 7.000000
191.070270 15.000000
193.106450 7.000000
204.105800 6.000000
205.086150 14.000000
207.090930 8.000000
219.082750 9.000000
219.101530 16.000000
219.110430 8.000000
220.085880 7.000000
221.097060 8.000000
223.077550 6.000000
236.076370 6.000000
237.092510 8.000000
238.100050 6.000000
239.109120 8.000000
241.084670 12.000000
242.086870 13.000000
242.099210 6.000000
243.100460 6.000000
247.077190 6.000000
248.112380 9.000000
248.124620 6.000000
248.136280 5.000000
249.087390 8.000000
249.125950 6.000000
250.090440 8.000000
251.124650 10.000000
252.083020 5.000000
252.107320 18.000000
253.089290 5.000000
254.092150 8.000000
255.061610 6.000000
255.099850 20.000000
256.109710 85.000000
257.080690 5.000000
257.108580 12.000000
257.119110 18.000000
263.083620 6.000000
264.105070 8.000000
265.093020 10.000000
266.090550 7.000000
266.101530 6.000000
266.117830 8.000000
267.100800 58.000000
268.082370 7.000000
268.103240 17.000000
268.115600 10.000000
268.126980 8.000000
269.087130 7.000000
269.115540 6.000000
269.128450 14.000000
270.108250 10.000000
270.126920 21.000000
271.079560 7.000000
271.095370 10.000000
271.130070 10.000000
272.103330 53.000000
272.114750 24.000000
273.108730 19.000000
276.106410 7.000000
277.089140 23.000000
277.110630 25.000000
278.084350 25.000000
278.098050 73.000000
278.124910 7.000000
279.063080 11.000000
279.079960 8.000000
279.091400 15.000000
279.104860 50.000000
279.125180 72.000000
280.101140 31.000000
280.128880 18.000000
280.143160 17.000000
281.088680 13.000000
281.109220 13.000000
281.122770 30.000000
281.146610 6.000000
282.092130 21.000000
282.123410 84.000000
282.135830 18.000000
283.086760 14.000000
283.102870 12.000000
283.134860 22.000000
284.090060 10.000000
284.108640 48.000000
284.138760 8.000000
285.077090 14.000000
285.111880 66.000000
286.119320 24.000000
286.135960 8.000000
287.101230 6.000000
287.127530 82.000000
288.094700 7.000000
288.131070 16.000000
291.123380 8.000000
292.098510 11.000000
292.113530 11.000000
293.098970 16.000000
293.114040 5.000000
293.127260 7.000000
294.078610 13.000000
294.094640 24.000000
294.109010 22.000000
294.126590 8.000000
295.084990 24.000000
295.100650 64.000000
295.119510 18.000000
295.132600 6.000000
296.101290 25.000000
296.118800 14.000000
296.132930 25.000000
297.092500 5.000000
297.112520 16.000000
297.131070 13.000000
297.143340 11.000000
298.119720 36.000000
299.091310 6.000000
299.120670 17.000000
299.131200 23.000000
300.077820 5.000000
300.100890 56.000000
300.138280 15.000000
301.101140 31.000000
301.138430 28.000000
301.149990 18.000000
302.100160 7.000000
302.120090 20.000000
303.129970 8.000000
307.123810 19.000000
308.127620 93.000000
309.090000 8.000000
309.112700 74.000000
309.133150 140.000000
310.075870 6.000000
310.119780 665.000000
310.152220 9.000000
311.068080 6.000000
311.090820 80.000000
311.122310 200.000000
312.085940 15.000000
312.107700 16.000000
312.125430 47.000000
312.158970 239.000000
313.108430 22.000000
313.126680 32.000000
313.139530 62.000000
313.168120 29.000000
314.112610 32.000000
314.149380 13.000000
314.166870 5.000000
315.121830 186.000000
315.151370 5.000000
315.170680 8.000000
316.126560 57.000000
316.143280 9.000000
322.140110 10.000000
322.152860 5.000000
323.133850 11.000000
323.152830 32.000000
324.109010 15.000000
324.124420 76.000000
324.148560 7.000000
324.160800 5.000000
325.116030 38.000000
325.132720 101.000000
326.116700 203.000000
327.108120 12.000000
327.124790 58.000000
328.124660 24.000000
328.152250 21.000000
329.137660 39.000000
338.133970 19.000000
339.141850 45.000000
340.113950 5.000000
340.152890 437.000000
341.142490 327.000000
341.168460 32.000000
342.135410 166.000000
342.157440 17.000000
342.173580 6.000000
343.137940 35.000000
343.160400 12.000000
344.120090 7.000000
344.148500 86.000000
344.161560 33.000000
345.141200 9.000000
345.157350 16.000000
354.173250 38.000000
356.140140 12.000000
356.148530 22.000000
356.170070 6.000000
357.156650 88.000000
358.145810 9.000000
358.162870 15.000000
372.138060 9.000000
372.179410 1000.000000
373.142490 6.000000
373.181820 282.000000
374.187990 44.000000
478.223820 18.000000

>ms2peaks
56.043880 8.000000
68.047230 11.000000
70.060870 37.000000
70.065590 23.000000
70.074050 8.000000
71.079940 9.000000
72.044360 45.000000
72.048790 30.000000
77.037280 17.000000
79.048870 9.000000
81.039580 10.000000
84.029840 7.000000
84.045570 9.000000
86.057130 7.000000
87.073300 13.000000
88.072590 7.000000
89.064420 11.000000
91.055270 7.000000
93.050540 9.000000
93.071080 8.000000
94.023130 7.000000
98.063120 9.000000
98.569210 7.000000
98.755810 7.000000
105.034510 15.000000
105.050870 7.000000
105.796370 12.000000
107.050390 360.000000
108.048040 7.000000
108.057090 18.000000
108.130920 7.000000
109.115200 9.000000
111.102230 10.000000
113.053480 7.000000
115.058050 7.000000
118.046990 9.000000
118.064480 8.000000
119.053400 7.000000
119.063580 15.000000
121.062750 9.000000
122.037280 8.000000
122.058960 14.000000
124.072750 8.000000
127.048550 9.000000
127.056560 7.000000
128.067540 10.000000
129.074660 23.000000
131.042850 7.000000
131.054840 11.000000
134.059520 8.000000
135.072530 8.000000
136.063640 22.000000
136.080170 76.000000
137.042370 10.000000
137.058230 129.000000
137.842360 7.000000
138.074190 8.000000
139.060780 16.000000
140.112180 9.000000
141.064410 10.000000
141.073040 7.000000
142.079500 15.000000
143.054840 14.000000
143.082670 10.000000
144.082470 7.000000
145.052630 8.000000
145.066360 82.000000
146.042450 13.000000
146.073140 17.000000
146.096760 17.000000
147.047760 12.000000
147.068920 29.000000
147.076450 8.000000
147.805910 9.000000
148.041810 9.000000
148.052760 9.000000
148.062320 8.000000
148.069760 7.000000
148.078480 18.000000
149.047330 14.000000
149.055530 35.000000
149.075320 16.000000
150.038960 7.000000
151.050030 10.000000
152.062550 19.000000
152.073290 17.000000
152.965650 7.000000
153.063600 15.000000
153.744570 7.000000
154.075210 7.000000
154.079640 15.000000
155.055530 8.000000
155.067690 8.000000
155.746220 8.000000
157.051210 9.000000
157.068730 12.000000
158.074110 10.000000
159.088810 7.000000
160.039150 7.000000
160.050110 8.000000
160.060490 19.000000
160.072300 26.000000
160.080580 23.000000
161.063920 12.000000
161.077700 7.000000
161.297810 8.000000
161.589110 7.000000
162.070660 7.000000
162.081130 10.000000
163.062180 8.000000
163.077060 19.000000
164.070790 55.000000
164.081330 14.000000
165.063860 36.000000
165.071780 57.000000
166.051640 9.000000
166.072830 63.000000
166.081090 31.000000
166.092040 7.000000
167.083040 92.000000
168.075780 8.000000
168.088820 34.000000
168.357820 9.000000
168.532940 9.000000
169.064880 34.000000
170.068020 9.000000
170.080170 16.000000
170.783690 7.000000
171.048680 9.000000
171.076840 45.000000
171.090450 10.000000
172.067950 8.000000
173.062190 36.000000
173.084920 12.000000
174.056840 17.000000
174.067140 10.000000
175.033340 10.000000
175.070470 17.000000
176.048970 16.000000
176.067520 25.000000
176.080460 41.000000
176.093150 13.000000
177.052670 12.000000
177.069500 24.000000
177.089970 48.000000
177.101270 14.000000
177.760890 11.000000
178.065250 16.000000
178.078870 84.000000
178.094060 7.000000
179.082150 58.000000
179.091220 44.000000
180.020720 7.000000
180.055850 21.000000
180.062290 22.000000
180.082930 17.000000
180.092730 7.000000
181.060850 76.000000
181.073170 36.000000
181.085740 68.000000
181.103320 47.000000
182.069440 82.000000
182.086580 7.000000
182.103990 19.000000
182.335890 7.000000
183.045870 7.000000
183.054380 8.000000
183.073360 25.000000
183.084110 40.000000
184.069020 8.000000
184.087950 33.000000
185.016650 22.000000
185.047210 8.000000
185.055910 31.000000
185.093690 48.000000
185.103200 19.000000
185.616730 10.000000
185.872210 11.000000
186.078490 8.000000
187.058070 23.000000
187.072970 7.000000
187.105650 16.000000
187.214480 7.000000
188.052670 8.000000
188.079930 50.000000
189.054370 10.000000
189.069240 21.000000
189.088580 9.000000
190.052060 7.000000
190.064090 11.000000
190.073140 19.000000
190.084660 61.000000
191.070690 109.000000
191.080570 107.000000
191.091310 46.000000
192.051010 21.000000
192.057310 9.000000
192.071820 12.000000
192.080200 11.000000
192.094090 31.000000
192.108370 10.000000
193.063160 9.000000
193.071980 7.000000
193.083440 16.000000
193.096310 16.000000
194.073100 90.000000
194.089920 31.000000
194.096450 17.000000
195.047290 17.000000
195.064820 13.000000
195.081760 357.000000
195.112400 7.000000
196.027020 13.000000
196.039340 7.000000
196.051120 7.000000
196.073930 19.000000
196.083240 110.000000
196.114120 7.000000
196.508900 7.000000
197.035770 20.000000
197.051940 53.000000
197.059050 143.000000
197.071990 36.000000
197.084030 46.000000
197.098130 52.000000
197.107380 27.000000
198.063900 65.000000
198.084920 7.000000
198.090930 15.000000
198.098920 12.000000
198.274700 8.000000
198.430420 7.000000
199.068420 23.000000
199.077840 57.000000
199.090300 13.000000
199.118560 8.000000
199.143080 12.000000
199.680050 9.000000
200.039230 7.000000
200.051570 25.000000
200.074720 10.000000
200.083420 7.000000
201.050660 43.000000
201.059190 11.000000
201.082840 36.000000
201.095370 22.000000
201.128910 7.000000
201.164900 10.000000
202.052060 9.000000
202.070250 7.000000
202.078780 7.000000
203.029080 16.000000
203.063190 18.000000
203.113940 14.000000
203.437520 7.000000
204.081970 21.000000
204.100100 10.000000
205.056920 63.000000
205.067280 23.000000
205.083040 10.000000
205.088650 30.000000
206.014940 17.000000
206.054520 7.000000
206.065890 19.000000
206.075300 87.000000
206.086940 19.000000
206.100520 7.000000
206.955570 9.000000
207.043980 8.000000
207.053330 8.000000
207.073180 106.000000
207.085740 103.000000
207.112950 14.000000
208.032850 9.000000
208.056410 17.000000
208.073290 17.000000
208.086700 104.000000
208.098620 32.000000
208.115170 19.000000
208.736130 9.000000
209.046010 19.000000
209.055330 40.000000
209.065140 80.000000
209.081800 31.000000
209.095830 134.000000
209.112850 11.000000
209.129870 9.000000
209.968320 7.000000
210.064000 87.000000
210.077350 13.000000
210.096560 34.000000
210.115770 17.000000
211.045900 16.000000
211.076280 230.000000
211.100100 62.000000
211.109730 49.000000
212.027530 8.000000
212.042130 7.000000
212.057220 10.000000
212.070160 42.000000
212.085050 169.000000
212.113480 34.000000
212.304060 10.000000
213.000730 8.000000
213.047270 31.000000
213.062500 14.000000
213.087780 194.000000
213.098740 43.000000
213.114530 20.000000
214.055360 15.000000
214.067890 14.000000
214.088910 24.000000
214.098160 42.000000
215.023470 9.000000
215.044420 7.000000
215.071210 64.000000
215.091640 9.000000
215.104130 8.000000
215.111940 8.000000
215.483830 10.000000
215.857890 15.000000
216.073500 17.000000
217.065920 67.000000
217.078460 22.000000
217.107030 7.000000
217.844910 7.000000
218.069400 10.000000
218.080550 54.000000
218.099550 22.000000
218.109510 6.000000
218.225620 7.000000
219.054690 8.000000
219.077580 134.000000
219.100830 9.000000
219.594070 7.000000
220.035020 10.000000
220.047520 48.000000
220.063540 7.000000
220.086170 39.000000
220.099290 83.000000
220.116840 23.000000
220.949040 10.000000
221.049350 52.000000
221.059250 37.000000
221.076740 17.000000
221.091770 42.000000
221.105320 56.000000
221.550540 8.000000
222.004580 7.000000
222.046940 10.000000
222.059710 35.000000
222.072370 55.000000
222.090000 35.000000
222.101810 42.000000
222.111880 16.000000
222.128630 8.000000
222.342910 8.000000
223.039310 7.000000
223.054310 11.000000
223.076950 400.000000
223.101750 25.000000
223.111210 48.000000
223.135060 35.000000
223.221050 8.000000
223.914830 7.000000
223.933300 7.000000
224.030350 8.000000
224.046140 30.000000
224.076220 172.000000
224.086240 169.000000
224.101070 25.000000
224.135390 7.000000
224.189150 10.000000
224.523640 14.000000
224.557370 8.000000
224.782930 8.000000
225.034790 23.000000
225.051790 130.000000
225.060460 118.000000
225.082670 85.000000
225.094990 194.000000
226.042420 8.000000
226.050230 8.000000
226.064350 47.000000
226.088530 66.000000
226.101870 68.000000
226.117290 19.000000
226.277910 7.000000
226.607250 7.000000
227.053160 25.000000
227.067690 187.000000
227.081880 94.000000
227.099030 54.000000
227.108080 44.000000
227.696030 7.000000
228.042130 7.000000
228.063390 10.000000
228.072680 27.000000
228.085280 8.000000
228.106690 33.000000
229.057080 12.000000
229.078990 54.000000
229.093290 62.000000
229.109660 16.000000
229.809110 9.000000
230.073780 10.000000
230.094890 47.000000
231.077590 9.000000
231.086320 16.000000
231.102980 18.000000
232.042250 7.000000
232.051960 7.000000
232.082780 7.000000
232.332210 10.000000
233.037870 7.000000
233.055220 34.000000
233.063810 40.000000
233.075130 53.000000
233.087890 16.000000
234.063860 111.000000
234.074430 36.000000
234.091580 52.000000
234.102950 39.000000
234.127350 36.000000
235.038710 33.000000
235.076630 599.000000
235.101390 23.000000
235.568470 7.000000
236.030460 8.000000
236.071700 101.000000
236.084990 233.000000
236.108960 81.000000
236.147720 7.000000
236.466860 7.000000
236.781570 7.000000
237.022160 8.000000
237.041260 16.000000
237.057860 82.000000
237.078250 73.000000
237.090820 349.000000
237.110290 41.000000
237.486430 10.000000
238.062810 49.000000
238.069660 21.000000
238.094770 192.000000
238.116970 19.000000
238.163700 7.000000
238.289060 8.000000
238.715010 8.000000
239.068330 174.000000
239.085140 78.000000
239.107030 558.000000
239.130330 10.000000
239.398860 12.000000
239.802170 8.000000
239.830780 7.000000
239.878370 8.000000
240.042190 7.000000
240.067280 108.000000
240.080180 229.000000
240.108930 162.000000
240.321760 8.000000
240.617810 12.000000
240.760960 7.000000
241.045960 10.000000
241.060440 44.000000
241.078020 241.000000
241.087840 715.000000
241.122120 7.000000
241.750890 12.000000
242.056580 39.000000
242.085800 97.000000
242.098370 53.000000
242.112960 24.000000
242.343830 7.000000
242.676770 8.000000
243.054890 7.000000
243.073850 10.000000
243.095930 16.000000
243.141720 10.000000
244.050960 9.000000
244.071810 45.000000
244.090350 8.000000
244.108460 13.000000
244.808760 18.000000
245.068370 15.000000
245.090990 7.000000
245.115840 7.000000
246.075740 8.000000
246.107740 7.000000
247.028340 18.000000
247.043980 23.000000
247.072240 32.000000
247.083600 38.000000
247.104420 17.000000
247.177600 7.000000
248.076810 54.000000
248.086360 52.000000
248.100940 80.000000
248.112930 36.000000
248.124440 7.000000
249.054200 72.000000
249.084730 102.000000
249.097020 90.000000
249.116650 30.000000
249.726170 8.000000
249.833400 8.000000
250.038070 16.000000
250.062100 39.000000
250.078140 66.000000
250.092120 169.000000
250.106060 87.000000
250.122990 38.000000
250.838590 7.000000
251.033070 7.000000
251.059330 95.000000
251.072100 386.000000
251.092350 209.000000
251.103710 135.000000
251.118740 34.000000
251.132160 52.000000
251.149690 35.000000
251.196240 7.000000
252.039780 7.000000
252.063350 111.000000
252.078430 332.000000
252.102620 152.000000
252.117480 61.000000
252.132370 28.000000
252.227490 8.000000
253.004530 8.000000
253.043560 55.000000
253.052380 95.000000
253.075520 138.000000
253.087360 315.000000
253.118820 59.000000
253.137530 8.000000
253.888260 8.000000
254.022020 8.000000
254.060460 43.000000
254.085130 88.000000
254.098620 129.000000
254.116620 151.000000
254.447980 8.000000
254.467150 11.000000
254.876750 9.000000
254.913070 9.000000
255.030820 7.000000
255.056660 65.000000
255.068600 124.000000
255.094450 342.000000
255.114230 147.000000
256.031950 7.000000
256.045680 6.000000
256.072660 224.000000
256.102020 194.000000
256.115720 187.000000
256.280820 8.000000
257.014920 14.000000
257.054320 17.000000
257.071900 109.000000
257.087070 231.000000
257.109530 56.000000
257.133240 19.000000
258.052890 7.000000
258.063930 15.000000
258.077180 23.000000
258.084590 32.000000
258.115660 9.000000
258.128970 9.000000
258.262760 8.000000
259.080870 8.000000
259.092900 8.000000
259.111240 17.000000
260.079440 24.000000
260.107940 62.000000
260.314730 8.000000
260.486330 8.000000
261.045170 7.000000
261.101720 16.000000
261.116700 33.000000
262.063230 51.000000
262.078740 47.000000
262.095310 37.000000
262.116610 9.000000
262.137820 33.000000
263.056670 37.000000
263.073300 145.000000
263.088590 35.000000
263.105530 19.000000
263.119930 7.000000
263.142760 7.000000
263.917110 7.000000
264.028350 19.000000
264.058470 19.000000
264.072810 80.000000
264.082760 86.000000
264.101590 184.000000
264.120700 13.000000
264.585630 7.000000
265.041630 7.000000
265.055790 13.000000
265.071010 48.000000
265.085850 235.000000
265.103790 82.000000
265.115910 133.000000
266.040310 18.000000
266.066190 33.000000
266.087980 266.000000
266.113560 113.000000
266.122770 31.000000
266.137180 12.000000
267.034360 7.000000
267.060910 81.000000
267.077700 151.000000
267.096250 523.000000
267.107510 309.000000
267.299290 7.000000
267.346160 7.000000
268.004880 8.000000
268.067170 102.000000
268.080290 108.000000
268.101780 161.000000
268.116460 89.000000
268.132510 33.000000
268.147950 17.000000
268.181430 7.000000
268.779050 7.000000
269.040680 8.000000
269.081150 274.000000
269.108460 71.000000
269.118770 69.000000
269.138210 14.000000
269.331450 9.000000
269.460050 12.000000
270.047150 14.000000
270.076840 89.000000
270.094850 150.000000
270.123470 45.000000
270.145540 9.000000
270.529790 7.000000
270.595430 9.000000
270.917080 7.000000
271.030580 13.000000
271.063390 35.000000
271.089200 161.000000
271.100010 55.000000
271.123110 91.000000
272.068510 51.000000
272.094390 111.000000
272.112920 99.000000
272.671080 8.000000
273.080260 7.000000
273.096160 7.000000
273.112270 19.000000
273.132690 12.000000
273.864410 8.000000
274.011020 7.000000
274.085570 7.000000
274.116030 7.000000
275.076320 26.000000
276.062710 8.000000
276.075620 9.000000
276.086430 21.000000
276.103120 35.000000
276.113160 18.000000
277.051300 9.000000
277.078640 76.000000
277.104340 67.000000
277.116820 37.000000
277.126500 36.000000
277.758000 12.000000
277.907200 16.000000
278.055630 7.000000
278.085210 212.000000
278.118650 218.000000
278.132290 94.000000
279.006070 10.000000
279.037570 8.000000
279.059420 165.000000
279.073460 146.000000
279.096830 170.000000
279.110020 109.000000
279.125580 85.000000
279.143040 16.000000
280.038820 7.000000
280.057680 41.000000
280.076810 179.000000
280.101780 192.000000
280.119110 48.000000
280.135620 38.000000
280.792690 9.000000
281.036290 12.000000
281.054320 65.000000
281.080870 114.000000
281.094060 75.000000
281.107060 115.000000
281.117190 139.000000
281.132110 16.000000
281.698880 9.000000
281.931490 7.000000
282.057650 14.000000
282.079900 110.000000
282.092220 85.000000
282.115480 610.000000
283.043730 9.000000
283.059170 19.000000
283.092410 241.000000
283.106260 318.000000
283.126950 130.000000
284.056490 19.000000
284.087340 80.000000
284.100370 235.000000
284.122800 18.000000
284.138180 8.000000
284.484160 14.000000
285.056670 23.000000
285.074370 125.000000
285.091130 42.000000
285.107760 87.000000
285.130580 23.000000
285.912110 7.000000
286.063600 7.000000
286.077120 35.000000
286.106930 95.000000
286.131010 8.000000
287.069820 13.000000
287.090610 129.000000
287.098880 62.000000
287.120640 14.000000
288.088530 25.000000
288.101440 23.000000
288.644230 7.000000
289.752690 9.000000
290.085660 24.000000
290.114870 8.000000
290.691770 7.000000
291.065060 29.000000
291.088590 26.000000
291.104860 52.000000
291.138580 7.000000
291.158910 21.000000
291.515440 8.000000
291.691440 7.000000
292.055730 11.000000
292.082370 70.000000
292.095150 85.000000
292.106230 36.000000
292.123900 26.000000
292.906980 7.000000
293.082860 144.000000
293.100310 92.000000
293.117580 85.000000
294.033660 10.000000
294.083280 91.000000
294.110410 229.000000
294.142760 16.000000
294.941310 13.000000
294.953220 8.000000
295.019840 7.000000
295.062410 43.000000
295.095980 1000.000000
295.143310 7.000000
295.283840 7.000000
296.039760 8.000000
296.058170 66.000000
296.091640 128.000000
296.106320 210.000000
296.127170 289.000000
297.073730 17.000000
297.101590 116.000000
297.116090 56.000000
297.133150 80.000000
298.077550 22.000000
298.107330 147.000000
298.126070 43.000000
298.137360 17.000000
299.065280 11.000000
299.077420 30.000000
299.094300 64.000000
299.113460 23.000000
299.126890 49.000000
299.145480 11.000000
299.154630 7.000000
300.071470 25.000000
300.099400 42.000000
300.139190 27.000000
301.018010 8.000000
301.103360 40.000000
301.123750 7.000000
302.137270 9.000000
305.093410 10.000000
306.103090 86.000000
306.128850 8.000000
307.096530 24.000000
307.111910 19.000000
307.133150 17.000000
308.084750 14.000000
308.102080 33.000000
308.115110 76.000000
308.128630 65.000000
308.144990 7.000000
309.086180 59.000000
309.097230 71.000000
309.126560 58.000000
309.145110 83.000000
309.225490 7.000000
309.526610 7.000000
309.847050 10.000000
310.067990 17.000000
310.093630 92.000000
310.115660 444.000000
310.147710 30.000000
311.035430 9.000000
311.057130 11.000000
311.092220 321.000000
311.115600 52.000000
311.136630 48.000000
311.167140 7.000000
311.278780 10.000000
312.036590 7.000000
312.080660 48.000000
312.099270 37.000000
312.114290 43.000000
312.147830 27.000000
312.164610 33.000000
313.102660 60.000000
313.120060 80.000000
313.140780 13.000000
314.064700 9.000000
314.082400 30.000000
314.104830 111.000000
314.128170 49.000000
314.143340 36.000000
314.608000 7.000000
315.084960 7.000000
315.101040 17.000000
315.124540 12.000000
315.139190 9.000000
315.153810 14.000000
315.200990 7.000000
316.116700 9.000000
316.906950 7.000000
320.121250 26.000000
322.119230 11.000000
322.147160 16.000000
323.101590 30.000000
323.110600 14.000000
323.137300 12.000000
324.071200 10.000000
324.086880 7.000000
324.106750 21.000000
324.121580 112.000000
324.137360 41.000000
325.043610 8.000000
325.091610 22.000000
325.108460 28.000000
325.132110 43.000000
325.151460 17.000000
326.071780 9.000000
326.094730 51.000000
326.136870 65.000000
327.101680 43.000000
327.128360 33.000000
327.138790 16.000000
327.158840 8.000000
328.123900 9.000000
328.134860 14.000000
328.153720 29.000000
329.140900 25.000000
329.156190 12.000000
330.110660 7.000000
331.049260 8.000000
334.820010 7.000000
336.636110 10.000000
337.130890 10.000000
338.119630 12.000000
338.130950 21.000000
338.146090 7.000000
338.462980 7.000000
339.132170 9.000000
339.147340 22.000000
340.109620 24.000000
340.134340 7.000000
340.161440 10.000000
341.105930 7.000000
341.118470 7.000000
342.128420 110.000000
342.157440 8.000000
343.121430 25.000000
343.141140 15.000000
343.153440 8.000000
344.144710 8.000000
346.116850 7.000000
351.021420 11.000000
356.144590 10.000000
357.149720 14.000000
358.161560 9.000000
368.140080 8.000000
372.187290 11.000000
373.194180 15.000000
387.137570 7.000000
459.823150 9.000000
478.179110 8.000000
478.213960 24.000000

>ms2peaks
72.045340 6.000000
107.049190 13.000000
136.070650 6.000000
136.078110 13.000000
181.084120 6.000000
235.079540 5.000000
251.118450 5.000000
256.110780 27.000000
258.086730 7.000000
265.083680 6.000000
266.099090 7.000000
267.099850 14.000000
267.111760 5.000000
268.113830 13.000000
269.080410 6.000000
271.132810 5.000000
272.104220 9.000000
278.085240 5.000000
278.099490 15.000000
279.058900 5.000000
279.097230 14.000000
279.105320 6.000000
279.131380 6.000000
280.114620 6.000000
280.129150 6.000000
281.118260 9.000000
282.116330 22.000000
282.131620 10.000000
283.099910 14.000000
283.114990 6.000000
283.132900 8.000000
284.105530 15.000000
285.114560 14.000000
287.119420 9.000000
287.134280 5.000000
293.082370 7.000000
294.087430 6.000000
294.103210 6.000000
294.113710 9.000000
295.088070 11.000000
295.100980 24.000000
296.122010 12.000000
298.121800 10.000000
299.129850 8.000000
300.102260 14.000000
301.146610 13.000000
302.119140 6.000000
308.130100 23.000000
309.101990 6.000000
309.119420 22.000000
309.139100 19.000000
310.118530 111.000000
310.136690 13.000000
311.088560 12.000000
311.103090 7.000000
311.123600 37.000000
311.134580 13.000000
312.130620 10.000000
312.157990 36.000000
313.132750 15.000000
313.146270 12.000000
313.167360 6.000000
315.124450 34.000000
316.132570 6.000000
324.124570 20.000000
325.130860 20.000000
326.112270 28.000000
326.122530 21.000000
326.138920 6.000000
327.125370 5.000000
329.124480 9.000000
339.150670 5.000000
340.154360 85.000000
341.140900 60.000000
342.137020 29.000000
343.151980 18.000000
344.151640 28.000000
356.146940 6.000000
357.160640 7.000000
372.180820 1000.000000
372.235750 20.000000
373.184170 237.000000
374.185330 48.000000
375.188630 6.000000
478.221650 654.000000
478.284000 16.000000

>ms2peaks
372.181790 244.000000
373.185270 62.000000
374.189240 9.000000
478.223660 1000.000000
478.287450 25.000000

>ms2peaks
70.065160 11.000000
72.046060 39.000000
107.048320 24.000000
136.075040 39.000000
137.064470 10.000000
148.071790 5.000000
150.094210 8.000000
151.075840 15.000000
181.080840 9.000000
181.090350 16.000000
188.084180 11.000000
192.090120 6.000000
193.112180 6.000000
204.076290 9.000000
204.102070 8.000000
207.094940 7.000000
207.110280 11.000000
217.108320 6.000000
219.102490 8.000000
220.094890 6.000000
221.096280 5.000000
225.085570 6.000000
237.098560 6.000000
241.081070 11.000000
242.095000 7.000000
243.097340 5.000000
248.109480 12.000000
248.126620 19.000000
249.083470 9.000000
249.094730 5.000000
249.112380 7.000000
250.093950 11.000000
251.117680 9.000000
251.132900 11.000000
252.114790 13.000000
252.129290 7.000000
253.087650 5.000000
254.090190 10.000000
255.095950 14.000000
255.109890 12.000000
256.094640 14.000000
256.108730 54.000000
256.118590 25.000000
257.116360 22.000000
258.096160 7.000000
265.100560 7.000000
266.093230 18.000000
266.106080 13.000000
267.097810 15.000000
267.107150 35.000000
268.109310 25.000000
269.075900 15.000000
269.095890 6.000000
269.122770 9.000000
270.125850 25.000000
272.082730 6.000000
272.097050 20.000000
272.111690 25.000000
273.112520 19.000000
273.121890 7.000000
274.093050 5.000000
276.099550 6.000000
277.104100 60.000000
278.087340 44.000000
278.100650 31.000000
278.116790 9.000000
279.065700 10.000000
279.100160 29.000000
279.128330 48.000000
280.108400 29.000000
280.136140 14.000000
281.116730 45.000000
281.139620 10.000000
282.100740 13.000000
282.125760 73.000000
282.143950 9.000000
283.090360 12.000000
283.113430 18.000000
283.131530 8.000000
283.141660 10.000000
284.104160 53.000000
284.121030 12.000000
284.136900 16.000000
285.066310 6.000000
285.109650 66.000000
286.109470 19.000000
286.125550 8.000000
287.080540 5.000000
287.096190 17.000000
287.128940 55.000000
287.140590 20.000000
288.126040 18.000000
292.107240 8.000000
293.104220 15.000000
293.118070 8.000000
294.088440 19.000000
294.102170 26.000000
294.118100 11.000000
295.097290 95.000000
296.092040 12.000000
296.101720 31.000000
296.124480 30.000000
296.140010 20.000000
297.098970 7.000000
297.109130 7.000000
297.133000 33.000000
298.106200 9.000000
298.118870 31.000000
298.133670 11.000000
299.122740 43.000000
299.141020 17.000000
300.085210 12.000000
300.104640 29.000000
300.134490 13.000000
300.151730 5.000000
301.088620 9.000000
301.107820 8.000000
301.125000 7.000000
301.143460 38.000000
301.162140 6.000000
302.115510 21.000000
302.134090 15.000000
303.125700 11.000000
306.113310 8.000000
307.113160 15.000000
307.129820 5.000000
308.122800 39.000000
308.139860 41.000000
309.119840 152.000000
309.142360 64.000000
310.118470 720.000000
311.062190 6.000000
311.080200 23.000000
311.094940 56.000000
311.123690 216.000000
311.138030 66.000000
312.091250 24.000000
312.108370 14.000000
312.122100 25.000000
312.137820 57.000000
312.154480 92.000000
312.168430 84.000000
313.099060 15.000000
313.114320 35.000000
313.132230 44.000000
313.149630 72.000000
313.164830 29.000000
314.093900 10.000000
314.112300 20.000000
314.136780 32.000000
314.160860 9.000000
315.118680 146.000000
315.135990 47.000000
316.114590 12.000000
316.135620 40.000000
317.122770 8.000000
323.126100 7.000000
323.137730 13.000000
323.150600 26.000000
324.102600 7.000000
324.122160 55.000000
324.136600 35.000000
325.122470 66.000000
325.139560 50.000000
326.109860 122.000000
326.124450 130.000000
326.151250 9.000000
327.106450 24.000000
327.125520 30.000000
327.142460 18.000000
328.110960 6.000000
328.124330 13.000000
328.141660 17.000000
328.156220 15.000000
329.123600 16.000000
329.143340 18.000000
338.128810 13.000000
338.149870 11.000000
339.125180 13.000000
339.147060 35.000000
340.147890 224.000000
340.161900 192.000000
341.142180 327.000000
341.164920 49.000000
341.182250 11.000000
342.131470 90.000000
342.150120 59.000000
342.185790 10.000000
343.139530 39.000000
343.157140 20.000000
344.144710 67.000000
344.160190 39.000000
344.169680 17.000000
345.147550 11.000000
345.160710 12.000000
354.166260 27.000000
355.173400 6.000000
356.141780 18.000000
357.146150 47.000000
357.163600 32.000000
357.173680 19.000000
358.157680 11.000000
358.175140 5.000000
372.108250 5.000000
372.178990 1000.000000
373.183040 274.000000
374.180300 34.000000
374.206880 11.000000

>ms2peaks
56.051640 10.000000
58.024410 14.000000
62.914920 8.000000
70.066470 73.000000
70.074650 12.000000
71.038000 12.000000
71.072210 10.000000
72.041660 13.000000
72.046200 38.000000
74.060040 8.000000
77.031640 10.000000
77.034700 23.000000
78.045380 10.000000
79.051900 14.000000
79.059910 7.000000
79.072610 22.000000
81.053680 11.000000
83.994260 8.000000
84.045880 29.000000
85.027310 12.000000
86.064640 10.000000
87.065770 22.000000
88.065280 11.000000
91.054620 7.000000
94.025430 9.000000
94.042110 10.000000
94.065930 7.000000
95.074500 12.000000
97.065090 10.000000
103.054360 13.000000
105.066850 10.000000
107.049090 315.000000
107.057940 32.000000
108.054110 44.000000
110.035050 9.000000
110.067830 7.000000
111.083400 7.000000
115.041660 10.000000
115.053460 12.000000
115.058380 23.000000
117.969600 13.000000
118.042210 16.000000
119.044730 25.000000
120.058450 11.000000
121.050980 22.000000
122.030350 8.000000
124.080020 10.000000
125.062150 9.000000
127.060330 7.000000
128.055370 7.000000
129.066360 17.000000
129.074860 18.000000
130.657180 11.000000
131.047590 10.000000
134.028690 8.000000
134.054700 13.000000
134.061860 16.000000
135.045520 7.000000
135.076510 7.000000
136.052690 11.000000
136.075350 73.000000
136.084350 17.000000
137.043270 7.000000
137.055220 27.000000
137.066160 87.000000
137.079280 7.000000
138.055340 7.000000
138.060940 8.000000
139.065030 11.000000
140.067600 25.000000
141.067550 10.000000
141.968400 8.000000
142.075850 7.000000
143.045730 13.000000
144.057690 9.000000
144.088010 15.000000
145.046390 10.000000
145.065600 59.000000
146.063810 29.000000
147.050450 9.000000
147.066530 31.000000
147.081620 20.000000
148.045790 18.000000
148.056320 11.000000
148.068940 7.000000
148.076490 10.000000
149.047410 33.000000
149.060360 9.000000
151.041690 9.000000
151.074810 19.000000
152.047900 20.000000
152.058180 15.000000
152.076430 10.000000
153.069500 34.000000
154.062380 8.000000
155.052060 22.000000
155.082370 21.000000
155.090700 9.000000
156.084410 8.000000
157.057080 10.000000
160.052510 12.000000
160.060360 10.000000
160.077240 19.000000
160.084670 18.000000
160.574310 10.000000
161.058040 18.000000
161.066360 22.000000
161.085570 29.000000
161.137760 10.000000
161.516160 10.000000
162.059800 12.000000
162.089050 13.000000
163.074010 19.000000
163.098680 18.000000
163.811650 11.000000
163.919980 15.000000
164.060090 16.000000
164.072310 94.000000
165.053860 8.000000
165.062480 19.000000
165.073360 74.000000
165.748460 9.000000
165.943310 10.000000
166.058870 17.000000
166.073520 32.000000
166.084150 67.000000
166.879330 10.000000
167.049130 27.000000
167.066820 13.000000
167.075960 41.000000
167.087050 30.000000
167.096770 10.000000
168.070240 7.000000
168.082530 16.000000
169.047240 15.000000
169.061100 9.000000
169.071990 16.000000
170.073060 10.000000
170.111770 8.000000
171.077930 32.000000
171.090480 11.000000
172.088240 9.000000
172.192860 10.000000
173.062150 37.000000
173.105220 9.000000
174.061940 19.000000
174.902220 8.000000
175.026750 12.000000
175.037720 8.000000
175.044390 12.000000
175.075520 30.000000
176.043180 9.000000
176.069660 19.000000
176.084640 30.000000
176.787930 13.000000
177.062850 57.000000
177.068680 22.000000
177.081940 9.000000
177.095470 7.000000
178.056230 7.000000
178.081700 122.000000
179.050770 7.000000
179.067460 20.000000
179.080120 28.000000
179.089170 77.000000
179.439680 7.000000
180.047420 12.000000
180.166840 11.000000
181.041440 11.000000
181.055680 27.000000
181.066250 116.000000
181.085920 70.000000
181.105100 55.000000
181.419330 9.000000
182.069820 72.000000
182.082280 21.000000
182.091690 15.000000
182.517300 10.000000
183.077760 54.000000
183.098250 9.000000
183.106060 17.000000
183.289170 10.000000
184.089770 26.000000
185.053470 7.000000
185.063640 19.000000
185.083150 8.000000
185.099430 10.000000
186.056900 7.000000
186.070250 11.000000
186.100980 7.000000
187.056020 7.000000
187.072450 37.000000
188.056990 15.000000
188.072100 36.000000
188.081970 31.000000
188.095280 17.000000
188.259230 7.000000
188.290160 10.000000
188.420060 7.000000
188.433210 14.000000
188.787340 7.000000
189.046110 7.000000
189.062440 10.000000
189.073820 70.000000
189.091380 22.000000
189.175570 7.000000
189.631670 9.000000
190.006850 8.000000
190.063290 22.000000
190.074070 16.000000
190.085010 7.000000
190.531750 8.000000
191.057710 8.000000
191.071700 18.000000
191.080140 22.000000
191.091800 26.000000
191.516830 7.000000
192.063420 46.000000
192.079940 10.000000
192.092960 42.000000
192.497060 7.000000
193.060040 11.000000
193.073330 20.000000
193.087910 28.000000
193.097500 8.000000
194.069240 50.000000
194.081860 57.000000
194.094880 7.000000
194.113080 11.000000
195.037720 7.000000
195.046550 23.000000
195.063160 27.000000
195.080470 276.000000
196.053020 34.000000
196.078480 17.000000
196.093780 35.000000
196.482130 8.000000
196.946760 16.000000
197.041640 7.000000
197.060990 157.000000
197.072970 23.000000
197.097340 73.000000
197.799990 9.000000
198.056880 23.000000
198.069120 71.000000
198.091250 9.000000
199.038990 7.000000
199.073290 149.000000
199.094600 23.000000
199.113920 16.000000
200.006380 7.000000
200.046780 7.000000
200.070660 7.000000
200.091140 9.000000
201.055510 42.000000
202.067020 9.000000
202.080810 27.000000
203.059940 7.000000
203.083150 17.000000
203.101930 22.000000
203.875260 7.000000
204.057040 8.000000
204.076780 19.000000
204.093000 10.000000
205.057830 84.000000
205.066930 30.000000
205.085950 34.000000
206.042130 8.000000
206.058820 20.000000
206.073320 62.000000
206.093430 17.000000
206.503680 9.000000
207.043290 10.000000
207.064290 23.000000
207.081250 336.000000
207.113070 12.000000
207.203370 10.000000
208.041660 7.000000
208.055190 50.000000
208.085620 136.000000
208.107790 20.000000
208.127850 7.000000
208.172910 19.000000
208.301070 8.000000
209.057540 108.000000
209.074340 19.000000
209.099610 229.000000
209.132110 10.000000
209.513090 11.000000
210.056290 23.000000
210.068190 148.000000
210.096470 44.000000
210.108090 73.000000
211.045500 9.000000
211.067230 56.000000
211.078380 187.000000
211.098980 62.000000
211.110990 25.000000
211.122410 7.000000
212.039790 11.000000
212.051090 10.000000
212.082430 156.000000
212.125580 8.000000
212.158020 7.000000
213.058750 15.000000
213.074370 56.000000
213.094970 216.000000
213.115510 31.000000
213.133940 7.000000
213.458280 12.000000
213.511310 9.000000
213.660130 9.000000
213.678130 9.000000
214.054580 19.000000
214.062130 19.000000
214.073810 9.000000
214.096540 58.000000
214.337600 10.000000
215.070500 74.000000
215.093610 18.000000
215.099080 7.000000
215.717010 12.000000
215.758960 9.000000
216.063660 8.000000
216.084790 10.000000
216.980610 8.000000
217.055420 24.000000
217.068220 58.000000
217.088650 10.000000
217.101580 9.000000
217.725690 17.000000
218.068820 18.000000
218.087430 46.000000
218.188260 7.000000
219.035640 8.000000
219.047610 22.000000
219.069370 57.000000
219.078870 115.000000
219.100780 19.000000
219.112080 21.000000
219.223970 7.000000
220.052580 31.000000
220.077910 78.000000
220.092100 74.000000
220.107060 25.000000
220.116840 12.000000
220.801270 7.000000
221.057220 60.000000
221.064790 27.000000
221.079010 39.000000
221.095630 215.000000
221.121890 10.000000
221.236270 7.000000
221.301280 14.000000
221.994780 7.000000
222.055850 21.000000
222.067440 51.000000
222.077440 56.000000
222.090060 87.000000
222.110280 10.000000
222.129930 7.000000
222.260330 8.000000
223.036000 7.000000
223.056370 7.000000
223.073930 195.000000
223.083860 183.000000
223.104930 93.000000
223.132710 67.000000
223.614640 7.000000
224.047590 21.000000
224.065110 17.000000
224.084700 227.000000
224.115840 8.000000
224.130950 12.000000
225.017620 17.000000
225.046680 43.000000
225.058620 105.000000
225.085940 77.000000
225.094910 223.000000
225.123950 9.000000
225.604260 10.000000
226.062320 97.000000
226.100360 158.000000
226.143020 7.000000
226.240830 9.000000
226.871580 10.000000
227.034390 16.000000
227.072170 223.000000
227.108800 60.000000
227.121580 9.000000
227.702760 7.000000
228.045610 9.000000
228.079270 56.000000
228.109340 59.000000
229.062520 9.000000
229.072370 9.000000
229.088700 68.000000
229.102950 7.000000
229.227280 12.000000
229.770110 7.000000
230.076420 7.000000
230.092970 36.000000
231.008350 10.000000
231.072830 22.000000
231.084340 10.000000
231.102310 19.000000
231.690190 8.000000
232.044080 19.000000
232.075610 7.000000
232.993620 10.000000
233.037550 8.000000
233.046920 9.000000
233.058730 33.000000
233.070250 74.000000
233.089260 17.000000
233.105450 7.000000
234.064820 16.000000
234.077580 39.000000
234.097200 41.000000
234.121200 10.000000
235.054700 61.000000
235.078090 459.000000
235.116530 12.000000
235.181270 16.000000
235.226100 14.000000
236.037700 12.000000
236.052110 25.000000
236.060030 50.000000
236.079860 114.000000
236.089650 197.000000
236.300520 8.000000
236.505390 7.000000
237.056270 122.000000
237.080730 145.000000
237.091130 182.000000
237.098050 105.000000
237.114530 25.000000
237.904130 8.000000
238.017780 8.000000
238.055240 59.000000
238.068950 37.000000
238.086560 48.000000
238.098850 117.000000
238.111760 54.000000
238.129030 26.000000
238.796810 8.000000
239.006970 14.000000
239.024140 17.000000
239.055560 19.000000
239.069090 147.000000
239.088780 137.000000
239.106840 297.000000
239.135330 10.000000
240.038730 24.000000
240.060710 18.000000
240.074340 148.000000
240.084560 228.000000
240.109620 65.000000
240.121440 57.000000
240.145100 10.000000
240.985840 12.000000
241.039370 7.000000
241.052520 41.000000
241.065770 50.000000
241.087400 673.000000
241.115050 19.000000
241.128190 9.000000
242.041140 7.000000
242.061250 34.000000
242.093840 179.000000
242.102230 69.000000
243.051220 7.000000
243.064830 68.000000
243.092990 19.000000
243.102310 38.000000
243.143780 14.000000
244.064270 18.000000
244.082900 17.000000
244.098980 10.000000
244.106630 8.000000
244.117000 7.000000
245.051910 8.000000
245.082440 25.000000
245.116610 7.000000
246.091460 8.000000
246.103290 9.000000
246.689010 8.000000
247.041780 15.000000
247.065400 70.000000
247.094540 41.000000
247.104980 53.000000
247.412310 7.000000
248.048320 8.000000
248.073760 33.000000
248.083830 97.000000
248.102830 12.000000
248.116850 7.000000
249.046200 27.000000
249.056580 59.000000
249.090560 215.000000
249.117570 85.000000
249.350600 8.000000
249.863750 10.000000
250.060260 42.000000
250.079940 189.000000
250.103670 75.000000
250.125310 73.000000
250.424580 8.000000
250.669660 7.000000
251.041870 14.000000
251.070100 354.000000
251.087920 83.000000
251.101410 189.000000
251.115250 46.000000
251.134200 27.000000
251.175340 7.000000
251.203780 10.000000
251.377110 9.000000
252.022480 24.000000
252.078400 530.000000
252.102580 73.000000
252.115680 30.000000
252.125370 51.000000
252.152390 11.000000
252.279140 7.000000
252.827900 12.000000
252.856120 9.000000
253.044480 51.000000
253.056300 49.000000
253.076230 127.000000
253.090230 186.000000
253.113850 65.000000
253.129240 22.000000
253.140690 10.000000
253.354600 7.000000
254.043000 22.000000
254.056020 37.000000
254.069340 31.000000
254.093020 159.000000
254.110960 116.000000
254.133640 28.000000
254.508030 10.000000
254.558760 12.000000
254.880130 7.000000
255.054750 51.000000
255.066740 148.000000
255.095660 140.000000
255.106690 198.000000
255.125820 21.000000
255.237410 11.000000
256.024870 8.000000
256.064760 61.000000
256.084140 37.000000
256.108120 205.000000
256.116390 97.000000
256.773650 10.000000
257.035830 16.000000
257.082030 211.000000
257.094120 99.000000
257.113220 26.000000
257.124940 14.000000
257.556060 8.000000
258.000610 7.000000
258.032810 8.000000
258.085330 17.000000
258.093110 42.000000
258.118190 10.000000
258.126400 12.000000
258.259340 15.000000
259.062410 8.000000
259.076570 9.000000
259.108430 17.000000
259.119320 7.000000
260.047910 11.000000
260.069610 27.000000
260.094270 7.000000
260.599580 11.000000
261.028440 10.000000
261.051060 18.000000
261.058780 7.000000
261.075320 7.000000
261.098720 30.000000
262.061490 26.000000
262.079190 71.000000
262.090610 38.000000
262.107150 24.000000
262.121430 54.000000
262.341190 8.000000
262.421910 7.000000
263.006620 8.000000
263.066500 145.000000
263.076810 89.000000
263.087710 49.000000
263.101590 15.000000
263.117520 19.000000
263.136930 11.000000
264.036130 7.000000
264.054410 17.000000
264.071660 97.000000
264.082820 75.000000
264.101260 272.000000
264.118870 35.000000
264.295590 8.000000
264.902280 7.000000
265.038180 7.000000
265.052640 12.000000
265.078400 207.000000
265.089390 191.000000
265.108400 119.000000
265.124660 27.000000
265.177980 10.000000
265.514530 7.000000
265.841580 7.000000
265.955050 8.000000
266.047520 7.000000
266.063810 34.000000
266.083220 53.000000
266.096710 64.000000
266.104460 137.000000
266.115840 197.000000
266.141660 10.000000
266.382020 12.000000
267.050450 15.000000
267.062590 86.000000
267.101750 1000.000000
267.133120 23.000000
268.044430 7.000000
268.077700 390.000000
268.096830 169.000000
268.109770 183.000000
268.128720 29.000000
268.143070 10.000000
268.165440 12.000000
269.032170 10.000000
269.081090 264.000000
269.107270 54.000000
269.125730 93.000000
269.832280 7.000000
270.047550 9.000000
270.088230 178.000000
270.123500 16.000000
270.135440 8.000000
270.220000 10.000000
270.264620 7.000000
270.502380 16.000000
270.819030 10.000000
271.056700 22.000000
271.074980 46.000000
271.090640 136.000000
271.106690 55.000000
271.126430 19.000000
271.148650 10.000000
271.675020 7.000000
272.067500 34.000000
272.082060 29.000000
272.107670 65.000000
272.123750 24.000000
272.314970 11.000000
273.111150 48.000000
273.124080 9.000000
273.868350 9.000000
274.084780 24.000000
274.108550 16.000000
274.126560 7.000000
274.464390 8.000000
275.068390 8.000000
275.090940 19.000000
275.101780 7.000000
275.122800 10.000000
275.948000 7.000000
276.053310 11.000000
276.069950 13.000000
276.105040 57.000000
277.033290 7.000000
277.054690 7.000000
277.068940 11.000000
277.085630 85.000000
277.109770 127.000000
278.035520 7.000000
278.054660 61.000000
278.077330 109.000000
278.097410 87.000000
278.119720 264.000000
279.041020 12.000000
279.062230 211.000000
279.093720 199.000000
279.115260 42.000000
279.126340 44.000000
279.140560 24.000000
279.218380 11.000000
279.705380 11.000000
280.007570 7.000000
280.066160 80.000000
280.079650 97.000000
280.098450 214.000000
280.137420 73.000000
281.045260 7.000000
281.060060 48.000000
281.085360 145.000000
281.101260 203.000000
281.131930 36.000000
281.144620 41.000000
281.159640 7.000000
281.883820 7.000000
282.053710 11.000000
282.069370 33.000000
282.083440 119.000000
282.115050 672.000000
282.790620 11.000000
282.853700 10.000000
283.063750 15.000000
283.080230 34.000000
283.096560 287.000000
283.120820 127.000000
283.645390 8.000000
283.810910 7.000000
284.082640 41.000000
284.102630 109.000000
284.115080 56.000000
284.756260 8.000000
285.059630 31.000000
285.068450 34.000000
285.085210 87.000000
285.109190 96.000000
285.921170 8.000000
286.058140 10.000000
286.082760 89.000000
286.105440 56.000000
286.117340 42.000000
286.128810 22.000000
286.655270 7.000000
286.776250 9.000000
287.039400 8.000000
287.066620 7.000000
287.088200 79.000000
287.103700 38.000000
287.131320 17.000000
287.212250 7.000000
287.407620 8.000000
287.697970 11.000000
288.082150 20.000000
288.097230 34.000000
288.132050 33.000000
289.110810 7.000000
290.087460 9.000000
290.116820 17.000000
290.294040 8.000000
291.095000 44.000000
291.121220 11.000000
291.466800 8.000000
291.644040 10.000000
292.064420 17.000000
292.088440 58.000000
292.100010 94.000000
292.138210 16.000000
293.079530 109.000000
293.110750 74.000000
293.149990 10.000000
293.363130 9.000000
294.057460 7.000000
294.083190 51.000000
294.097080 91.000000
294.116700 238.000000
294.596310 8.000000
294.913270 9.000000
295.047360 11.000000
295.065430 34.000000
295.086400 208.000000
295.099550 767.000000
295.125090 67.000000
295.148830 9.000000
295.840880 10.000000
296.036470 8.000000
296.075590 76.000000
296.090120 93.000000
296.101720 178.000000
296.126070 503.000000
296.163640 12.000000
296.842010 7.000000
297.078830 29.000000
297.103730 105.000000
297.139280 68.000000
298.062870 17.000000
298.080260 27.000000
298.112400 174.000000
298.134090 27.000000
298.148740 8.000000
298.284000 16.000000
299.075990 39.000000
299.089810 43.000000
299.116490 109.000000
299.146150 9.000000
300.103790 44.000000
300.131930 19.000000
301.097380 39.000000
301.110500 17.000000
301.122010 8.000000
301.875670 8.000000
302.112300 23.000000
303.108980 8.000000
303.668240 7.000000
304.099120 7.000000
304.139370 10.000000
304.149900 8.000000
305.100190 8.000000
305.111450 9.000000
306.101500 17.000000
306.117610 51.000000
306.617220 8.000000
307.079350 11.000000
307.096830 31.000000
307.120730 35.000000
307.173070 7.000000
308.075530 16.000000
308.085570 22.000000
308.099610 25.000000
308.126860 167.000000
308.999420 11.000000
309.047970 7.000000
309.099880 163.000000
309.135860 46.000000
310.081600 33.000000
310.097230 98.000000
310.109380 268.000000
310.123870 118.000000
310.147740 36.000000
311.062010 18.000000
311.092930 320.000000
311.112490 96.000000
311.135530 66.000000
311.247410 10.000000
312.070400 9.000000
312.087860 76.000000
312.099150 127.000000
312.138400 18.000000
312.155790 29.000000
313.104950 26.000000
313.119660 28.000000
313.134520 78.000000
313.148800 21.000000
313.166080 7.000000
313.973750 7.000000
314.103450 93.000000
314.129640 54.000000
314.138340 23.000000
314.298370 13.000000
315.099060 7.000000
315.145840 8.000000
315.159360 12.000000
315.748290 11.000000
316.098270 8.000000
320.094790 9.000000
320.127380 8.000000
322.112270 16.000000
323.089080 14.000000
323.146360 29.000000
323.164220 10.000000
324.096190 29.000000
324.123810 146.000000
324.189580 7.000000
325.112150 53.000000
325.131440 27.000000
325.144410 10.000000
326.091060 8.000000
326.100920 10.000000
326.122190 63.000000
326.141630 8.000000
327.021420 7.000000
327.092070 9.000000
327.105680 17.000000
327.120790 38.000000
327.135590 34.000000
327.154880 7.000000
328.086670 10.000000
328.100740 24.000000
328.121640 7.000000
328.141270 16.000000
328.154970 7.000000
329.149050 7.000000
329.159820 12.000000
331.130620 7.000000
333.097840 10.000000
337.965700 7.000000
338.133730 11.000000
339.131990 9.000000
339.146940 7.000000
340.094060 9.000000
340.114410 26.000000
340.137540 17.000000
340.154720 20.000000
341.102290 10.000000
341.151250 18.000000
342.126710 57.000000
343.144100 21.000000
344.124020 8.000000
344.138550 7.000000
354.494350 7.000000
356.122740 8.000000
356.139680 10.000000
356.161320 16.000000
357.142550 7.000000
372.187810 7.000000
393.792760 15.000000
398.108550 14.000000
427.649230 7.000000
428.402400 7.000000
441.487300 7.000000
461.885100 7.000000
465.777400 7.000000

>ms2peaks
72.046880 11.000000
136.077440 16.000000
237.093410 6.000000
241.085450 10.000000
241.096790 8.000000
242.090530 14.000000
251.071720 6.000000
252.118650 9.000000
255.101850 10.000000
256.099850 5.000000
256.112240 24.000000
257.112120 9.000000
263.073390 5.000000
266.092070 7.000000
267.098720 22.000000
268.107300 14.000000
269.119720 5.000000
270.122960 6.000000
272.100490 5.000000
278.097410 18.000000
278.120700 8.000000
279.104160 13.000000
279.124110 11.000000
280.111020 13.000000
280.130370 5.000000
281.123630 8.000000
282.109340 11.000000
282.119690 23.000000
282.133270 13.000000
283.101260 16.000000
284.102780 5.000000
284.112370 6.000000
285.111510 17.000000
286.109860 7.000000
287.084170 6.000000
287.121700 7.000000
287.131740 10.000000
294.091580 9.000000
294.113400 19.000000
295.097320 29.000000
296.088870 5.000000
296.133450 16.000000
297.114720 7.000000
297.131960 8.000000
298.121090 17.000000
299.125030 12.000000
300.100950 9.000000
301.139620 9.000000
306.111690 5.000000
308.101140 5.000000
308.130520 17.000000
309.110050 14.000000
309.137150 27.000000
310.120970 123.000000
311.093930 26.000000
311.123690 42.000000
312.096890 10.000000
312.124970 9.000000
312.156950 45.000000
313.140960 13.000000
313.159970 10.000000
314.146090 6.000000
315.122680 45.000000
316.131130 11.000000
323.147830 6.000000
324.122190 15.000000
324.136380 5.000000
325.132540 25.000000
326.106200 14.000000
326.120090 21.000000
326.138760 8.000000
327.125090 6.000000
329.130800 8.000000
340.155910 95.000000
341.142940 65.000000
341.158420 25.000000
342.139800 38.000000
343.146420 19.000000
343.160680 8.000000
344.148990 19.000000
357.153720 16.000000
372.135280 7.000000
372.181460 1000.000000
372.237760 17.000000
373.184170 247.000000
374.173860 13.000000
374.190610 35.000000
478.148930 5.000000
478.222290 699.000000
478.284060 12.000000

>ms2peaks
372.181090 245.000000
373.184540 62.000000
374.192960 5.000000
478.155030 6.000000
478.222380 1000.000000
478.285280 24.000000

>ms2peaks
70.067410 20.000000
72.041340 11.000000
72.046950 30.000000
74.056340 10.000000
107.047920 37.000000
107.055850 11.000000
136.078920 34.000000
137.060410 24.000000
151.074010 9.000000
181.088320 39.000000
190.086440 15.000000
191.068790 6.000000
191.092350 6.000000
193.106400 7.000000
193.115770 9.000000
204.077190 9.000000
207.091690 7.000000
219.104570 8.000000
220.091250 5.000000
220.104190 14.000000
222.101810 9.000000
224.088590 6.000000
225.093840 9.000000
227.112590 8.000000
235.076160 10.000000
240.079070 7.000000
241.085770 8.000000
241.104230 7.000000
242.093660 9.000000
242.102840 7.000000
248.130740 16.000000
249.089970 10.000000
249.099720 9.000000
249.135010 10.000000
250.094940 10.000000
250.110170 12.000000
251.069530 10.000000
251.109560 24.000000
253.122220 13.000000
254.105550 6.000000
255.109450 11.000000
256.112370 115.000000
257.116490 24.000000
265.091310 5.000000
266.089420 12.000000
267.103030 36.000000
267.114470 9.000000
268.103940 22.000000
268.112550 16.000000
268.128270 8.000000
269.118960 16.000000
270.094570 9.000000
270.122340 18.000000
270.131290 6.000000
271.096620 16.000000
271.134640 8.000000
272.105220 40.000000
273.106780 9.000000
273.118740 20.000000
274.116490 7.000000
277.090970 18.000000
277.112430 32.000000
278.093110 74.000000
278.113400 11.000000
278.125030 5.000000
279.053560 8.000000
279.106170 41.000000
279.127660 51.000000
280.087220 7.000000
280.114560 41.000000
280.130800 20.000000
281.098720 6.000000
281.118840 45.000000
281.141420 9.000000
282.086000 10.000000
282.115050 39.000000
282.127010 87.000000
283.095210 33.000000
283.115360 14.000000
283.132390 32.000000
284.076660 5.000000
284.103360 67.000000
284.139190 6.000000
285.055510 7.000000
285.114690 64.000000
285.143220 8.000000
286.115810 24.000000
287.093810 9.000000
287.128450 68.000000
288.117280 5.000000
288.130430 7.000000
288.142550 6.000000
291.109560 6.000000
292.095830 7.000000
293.088960 16.000000
293.112060 13.000000
294.089780 41.000000
294.114840 39.000000
295.090730 48.000000
295.103450 62.000000
296.078220 7.000000
296.097230 32.000000
296.112610 27.000000
296.135500 30.000000
297.083370 6.000000
297.110200 26.000000
297.135310 26.000000
298.105590 8.000000
298.122310 27.000000
299.128080 43.000000
300.084810 10.000000
300.099060 44.000000
300.114620 13.000000
300.133640 12.000000
301.112820 21.000000
301.142490 38.000000
302.119570 31.000000
302.140720 16.000000
306.116880 6.000000
307.114530 7.000000
307.130190 12.000000
308.109590 9.000000
308.131770 80.000000
309.115170 119.000000
309.138000 113.000000
310.083250 8.000000
310.119810 631.000000
310.159520 5.000000
311.013340 5.000000
311.092350 56.000000
311.125000 227.000000
311.152680 10.000000
312.083340 7.000000
312.097750 23.000000
312.119290 24.000000
312.146580 83.000000
312.165340 117.000000
313.100920 18.000000
313.132170 105.000000
313.168430 34.000000
314.093810 5.000000
314.110660 17.000000
314.123600 11.000000
314.140990 18.000000
314.159910 15.000000
314.181240 5.000000
315.088750 7.000000
315.118070 87.000000
315.128110 134.000000
315.164950 9.000000
316.130920 46.000000
317.131260 5.000000
322.143950 7.000000
323.119230 6.000000
323.138610 12.000000
323.154570 30.000000
324.124240 80.000000
325.103760 7.000000
325.126100 78.000000
325.144590 28.000000
326.079620 5.000000
326.119600 265.000000
326.150480 9.000000
327.117130 38.000000
327.139530 21.000000
328.128940 40.000000
328.154820 6.000000
329.135130 40.000000
330.130650 8.000000
330.149900 8.000000
338.133060 13.000000
339.141690 39.000000
339.152590 27.000000
340.122590 7.000000
340.154300 430.000000
341.086120 9.000000
341.099370 5.000000
341.138400 181.000000
341.153590 185.000000
342.137300 172.000000
342.170530 12.000000
343.136290 27.000000
343.156650 50.000000
344.140050 51.000000
344.157320 80.000000
345.144470 9.000000
345.155760 14.000000
346.148680 7.000000
354.159610 6.000000
354.174530 19.000000
355.184420 6.000000
356.147310 10.000000
356.160550 12.000000
357.136720 10.000000
357.159640 83.000000
358.155120 7.000000
359.149750 6.000000
372.128810 11.000000
372.145360 8.000000
372.181820 1000.000000
373.183380 282.000000
373.219120 6.000000
374.141240 5.000000
374.184050 28.000000
374.197140 13.000000
375.200070 6.000000

>ms2peaks
51.626960 9.000000
56.053280 8.000000
70.067540 71.000000
71.014290 14.000000
71.069870 12.000000
72.039570 27.000000
74.061040 8.000000
77.029590 8.000000
77.039830 27.000000
79.046820 8.000000
79.051920 38.000000
81.066250 11.000000
84.037090 9.000000
84.042820 15.000000
84.049130 9.000000
85.066540 10.000000
86.059640 9.000000
86.064040 8.000000
87.066890 9.000000
91.053280 11.000000
96.089290 8.000000
103.054780 9.000000
105.060820 14.000000
105.071960 8.000000
107.050050 354.000000
107.068220 24.000000
107.680210 8.000000
108.052060 37.000000
116.064850 8.000000
119.565190 12.000000
120.060010 8.000000
120.078700 10.000000
121.048740 8.000000
121.071010 8.000000
122.035960 8.000000
122.914770 8.000000
123.044620 8.000000
123.074320 9.000000
127.056440 11.000000
131.086790 11.000000
132.054280 10.000000
132.290990 11.000000
134.066990 10.000000
135.071140 10.000000
135.411610 11.000000
136.014630 8.000000
136.045610 8.000000
136.055500 24.000000
136.071350 39.000000
136.076690 90.000000
137.056180 105.000000
137.066130 37.000000
138.061050 22.000000
138.093260 8.000000
138.971570 11.000000
139.051150 13.000000
139.062350 19.000000
140.062380 8.000000
140.591710 12.000000
140.613340 12.000000
142.075210 8.000000
144.052950 9.000000
144.062640 10.000000
145.066380 9.000000
146.061160 12.000000
147.033600 11.000000
147.046590 10.000000
147.069230 30.000000
147.077800 13.000000
148.024810 8.000000
148.058290 8.000000
149.043370 16.000000
149.049060 30.000000
149.606640 8.000000
152.067120 42.000000
152.101610 13.000000
153.070630 44.000000
154.080630 14.000000
155.055760 8.000000
155.081310 8.000000
155.089390 34.000000
157.064640 23.000000
157.275940 11.000000
158.066190 10.000000
158.072360 11.000000
159.081040 25.000000
159.085740 13.000000
160.068760 9.000000
160.079740 8.000000
161.028270 19.000000
161.058460 82.000000
162.028640 8.000000
162.064450 9.000000
162.091140 26.000000
163.947860 14.000000
164.045120 14.000000
164.064210 21.000000
164.073360 86.000000
164.085590 14.000000
165.049940 21.000000
165.059860 43.000000
165.066410 24.000000
165.076770 41.000000
166.044800 13.000000
166.073200 79.000000
166.081050 17.000000
167.047200 8.000000
167.083540 49.000000
168.050160 8.000000
168.074070 8.000000
168.401090 13.000000
169.060090 43.000000
171.069050 12.000000
171.077820 22.000000
172.082170 8.000000
173.060270 63.000000
173.075360 15.000000
174.064190 30.000000
174.074200 12.000000
174.096040 12.000000
174.955400 8.000000
175.062990 20.000000
175.073620 42.000000
176.064350 9.000000
176.075030 21.000000
176.086870 16.000000
176.577790 9.000000
176.599530 8.000000
177.043500 10.000000
177.059460 11.000000
177.073150 94.000000
178.061490 21.000000
178.078120 94.000000
178.088940 18.000000
178.797200 8.000000
179.055340 10.000000
179.082430 36.000000
180.061580 28.000000
180.084930 11.000000
180.095690 12.000000
180.501330 8.000000
181.048520 10.000000
181.058940 39.000000
181.068600 107.000000
181.089400 156.000000
181.102460 25.000000
181.108380 11.000000
182.058110 12.000000
182.071210 99.000000
182.083110 18.000000
183.047470 14.000000
183.078800 70.000000
183.087040 15.000000
184.043010 14.000000
184.056560 10.000000
184.074280 40.000000
184.083330 24.000000
185.063570 12.000000
185.097720 29.000000
186.066640 25.000000
187.039840 8.000000
188.070080 21.000000
188.081620 22.000000
188.632130 9.000000
189.053670 9.000000
189.065220 30.000000
189.074370 30.000000
189.085770 15.000000
189.093310 9.000000
190.044630 11.000000
190.053740 17.000000
190.074810 74.000000
190.092470 53.000000
190.127560 12.000000
190.624070 9.000000
191.071150 112.000000
191.093670 30.000000
192.047160 8.000000
192.059070 8.000000
192.070430 22.000000
192.084590 9.000000
192.099700 8.000000
192.328630 11.000000
193.055220 51.000000
193.065000 48.000000
193.078690 24.000000
193.089860 14.000000
193.102450 20.000000
193.109990 9.000000
194.075580 119.000000
194.100710 8.000000
194.169250 8.000000
195.050420 10.000000
195.061480 20.000000
195.080510 314.000000
195.102780 12.000000
195.116170 8.000000
196.041060 12.000000
196.054600 20.000000
196.072800 8.000000
196.087400 176.000000
196.110570 10.000000
196.646060 11.000000
196.936070 13.000000
197.061550 277.000000
197.075990 34.000000
197.091540 30.000000
197.102250 43.000000
197.663570 9.000000
198.065080 75.000000
198.075120 27.000000
198.095280 23.000000
198.100720 10.000000
199.077040 160.000000
199.098570 8.000000
199.318150 8.000000
200.069080 8.000000
200.079480 33.000000
201.060960 10.000000
201.069810 13.000000
201.085630 11.000000
201.421050 15.000000
202.048510 8.000000
202.082810 8.000000
202.092440 10.000000
202.893770 8.000000
204.051760 14.000000
204.077670 37.000000
204.100650 36.000000
204.301160 13.000000
204.997060 9.000000
205.064970 124.000000
205.086400 11.000000
205.096480 9.000000
205.111240 15.000000
206.070940 87.000000
206.084150 24.000000
206.109390 14.000000
207.052810 9.000000
207.066130 53.000000
207.081440 252.000000
207.102370 28.000000
208.042800 26.000000
208.090150 126.000000
208.111860 14.000000
208.483610 20.000000
208.989230 9.000000
209.027500 13.000000
209.060130 158.000000
209.086360 67.000000
209.097600 90.000000
209.106600 59.000000
209.121370 10.000000
209.193040 12.000000
209.512920 9.000000
210.008030 9.000000
210.048250 21.000000
210.060490 37.000000
210.072800 99.000000
210.093670 14.000000
210.105640 52.000000
210.242140 9.000000
211.034910 14.000000
211.057850 21.000000
211.074720 333.000000
211.084380 110.000000
211.105560 42.000000
211.118530 8.000000
212.037410 30.000000
212.079640 135.000000
212.088640 39.000000
212.118650 9.000000
212.332340 10.000000
213.052750 40.000000
213.061260 16.000000
213.090240 288.000000
213.118360 12.000000
213.155150 12.000000
213.709840 8.000000
214.026020 9.000000
214.062360 84.000000
214.075210 13.000000
214.099520 76.000000
214.895950 15.000000
215.049160 10.000000
215.072330 63.000000
216.077820 27.000000
216.690670 8.000000
217.052260 19.000000
217.063190 27.000000
217.077470 12.000000
217.086200 13.000000
217.103670 20.000000
218.067150 8.000000
218.078350 14.000000
218.095410 56.000000
218.103200 48.000000
218.344350 10.000000
219.039550 8.000000
219.083740 154.000000
220.023010 10.000000
220.052950 9.000000
220.074570 38.000000
220.086810 49.000000
220.098460 46.000000
220.110760 18.000000
220.122670 12.000000
221.016190 8.000000
221.062420 95.000000
221.094060 101.000000
221.126740 21.000000
222.045910 19.000000
222.070040 123.000000
222.089900 88.000000
222.103550 99.000000
222.124360 39.000000
222.134450 9.000000
223.063370 66.000000
223.075840 409.000000
223.106250 55.000000
223.128630 26.000000
224.029560 12.000000
224.044970 10.000000
224.066540 39.000000
224.083130 318.000000
224.105640 16.000000
224.277800 10.000000
224.872680 10.000000
224.895870 10.000000
224.994740 8.000000
225.055510 135.000000
225.082730 128.000000
225.091030 277.000000
225.135590 11.000000
225.308070 17.000000
226.055560 133.000000
226.076950 39.000000
226.101040 72.000000
226.125490 18.000000
227.064440 118.000000
227.074170 211.000000
227.083300 53.000000
227.102650 76.000000
227.311220 8.000000
228.060490 10.000000
228.075910 111.000000
228.100750 10.000000
228.109340 34.000000
228.121900 8.000000
228.312520 8.000000
228.900530 8.000000
229.048810 9.000000
229.086980 59.000000
229.110210 8.000000
229.141220 8.000000
230.876970 11.000000
231.069290 18.000000
231.104980 17.000000
231.116490 8.000000
231.855770 9.000000
231.888400 10.000000
232.074550 8.000000
232.084370 20.000000
232.109800 9.000000
233.046830 26.000000
233.066270 112.000000
233.088460 62.000000
233.100100 20.000000
234.066800 134.000000
234.080200 32.000000
234.093780 52.000000
234.106350 19.000000
234.653090 9.000000
235.004560 10.000000
235.049390 11.000000
235.060180 55.000000
235.076640 385.000000
235.097500 21.000000
235.115400 8.000000
235.129350 15.000000
236.024950 10.000000
236.032500 24.000000
236.042080 19.000000
236.050930 10.000000
236.076250 122.000000
236.087920 111.000000
236.100160 92.000000
236.111890 62.000000
236.152910 12.000000
236.309110 10.000000
236.784150 14.000000
236.902330 9.000000
237.048970 74.000000
237.063610 59.000000
237.093870 300.000000
237.122790 25.000000
237.776280 8.000000
237.953950 8.000000
238.052830 21.000000
238.065430 21.000000
238.093830 112.000000
238.104060 63.000000
238.116150 28.000000
238.128430 32.000000
239.071000 308.000000
239.091090 87.000000
239.106250 408.000000
239.123110 33.000000
240.013350 10.000000
240.039690 27.000000
240.050600 25.000000
240.081020 308.000000
240.104110 58.000000
240.112120 106.000000
240.122190 32.000000
240.589400 17.000000
241.034550 11.000000
241.048770 25.000000
241.083360 599.000000
241.096100 220.000000
241.113770 23.000000
241.123550 36.000000
241.138990 8.000000
241.696060 17.000000
241.851320 8.000000
242.046280 8.000000
242.056470 36.000000
242.079470 50.000000
242.094120 195.000000
242.359700 12.000000
243.017330 8.000000
243.056560 38.000000
243.069290 31.000000
243.094310 30.000000
243.111130 36.000000
243.371690 11.000000
244.069730 44.000000
244.083070 34.000000
244.115890 8.000000
245.084050 43.000000
245.116200 8.000000
246.061520 12.000000
246.098270 25.000000
246.916700 10.000000
247.044250 23.000000
247.080110 102.000000
247.096850 41.000000
247.110520 14.000000
247.140780 8.000000
248.036580 21.000000
248.054110 21.000000
248.071810 71.000000
248.109450 98.000000
248.187820 9.000000
249.052900 20.000000
249.091460 260.000000
249.117390 19.000000
249.128800 8.000000
249.255550 9.000000
249.769590 11.000000
250.038620 19.000000
250.056870 73.000000
250.069440 23.000000
250.086810 99.000000
250.101200 108.000000
250.122530 117.000000
250.145840 17.000000
251.051990 11.000000
251.069660 253.000000
251.108320 176.000000
251.137150 23.000000
251.276980 12.000000
251.934370 8.000000
251.988110 9.000000
252.045410 30.000000
252.077410 385.000000
252.105090 109.000000
252.125370 17.000000
253.026170 8.000000
253.047180 98.000000
253.062900 51.000000
253.086330 215.000000
253.097850 103.000000
253.113830 78.000000
253.126390 42.000000
253.990600 18.000000
254.053960 42.000000
254.085540 133.000000
254.095610 209.000000
254.117490 113.000000
254.134920 19.000000
254.249010 11.000000
255.060520 229.000000
255.095870 233.000000
255.108840 206.000000
255.122530 26.000000
256.049900 9.000000
256.065950 58.000000
256.078640 35.000000
256.101780 151.000000
256.115230 234.000000
256.987270 8.000000
257.080440 264.000000
257.106020 66.000000
257.716220 8.000000
257.755250 10.000000
257.876860 14.000000
258.064330 10.000000
258.074860 27.000000
258.084320 53.000000
258.094330 78.000000
258.113220 20.000000
258.883450 9.000000
259.074250 20.000000
259.093320 46.000000
260.071780 11.000000
260.082120 9.000000
260.099760 11.000000
261.046260 26.000000
261.061040 9.000000
261.085270 21.000000
261.099240 13.000000
261.119840 14.000000
262.008360 10.000000
262.051330 8.000000
262.067260 18.000000
262.091640 73.000000
262.113560 21.000000
262.127260 10.000000
263.037600 10.000000
263.059300 63.000000
263.072630 153.000000
263.089630 73.000000
263.107360 53.000000
264.018340 11.000000
264.031860 10.000000
264.061680 59.000000
264.077550 133.000000
264.088290 126.000000
264.107120 132.000000
264.158230 8.000000
264.723790 15.000000
265.037050 14.000000
265.073460 49.000000
265.083040 193.000000
265.096770 187.000000
265.110930 155.000000
265.188840 16.000000
266.059230 26.000000
266.075010 71.000000
266.089450 192.000000
266.110320 119.000000
266.126280 111.000000
267.030760 16.000000
267.059110 64.000000
267.074580 90.000000
267.100520 1000.000000
267.134890 28.000000
267.831450 13.000000
267.892760 10.000000
268.018280 9.000000
268.026180 13.000000
268.056430 43.000000
268.072330 272.000000
268.106290 319.000000
268.135680 43.000000
269.078890 105.000000
269.100100 48.000000
269.117100 153.000000
269.136750 8.000000
270.057220 17.000000
270.086940 186.000000
270.098630 52.000000
270.116030 57.000000
270.137700 20.000000
270.342930 10.000000
271.044830 19.000000
271.060610 13.000000
271.089660 109.000000
271.101650 35.000000
271.121730 47.000000
271.640260 8.000000
271.660100 8.000000
271.980770 8.000000
272.065980 21.000000
272.098510 40.000000
272.114140 35.000000
273.110900 32.000000
273.136200 10.000000
274.083160 18.000000
275.086790 21.000000
275.114560 12.000000
276.086360 37.000000
276.110470 73.000000
277.071930 51.000000
277.084140 52.000000
277.107420 65.000000
277.119350 21.000000
277.420810 10.000000
278.027590 9.000000
278.056550 43.000000
278.078060 112.000000
278.090090 133.000000
278.119600 203.000000
278.296840 12.000000
279.031710 8.000000
279.055600 66.000000
279.069460 79.000000
279.085660 100.000000
279.106750 169.000000
279.124050 171.000000
279.145810 21.000000
279.209290 11.000000
279.597660 10.000000
280.052520 41.000000
280.071750 85.000000
280.089080 121.000000
280.108580 134.000000
280.128450 78.000000
281.024870 9.000000
281.045070 42.000000
281.070250 46.000000
281.083190 87.000000
281.104980 243.000000
281.134000 8.000000
281.697240 8.000000
282.061310 9.000000
282.074400 59.000000
282.116330 540.000000
282.128880 170.000000
282.972660 11.000000
283.045010 20.000000
283.067870 21.000000
283.091830 180.000000
283.106540 233.000000
283.121310 122.000000
283.138000 20.000000
284.058840 32.000000
284.104220 317.000000
284.124880 43.000000
285.045380 8.000000
285.071080 122.000000
285.083470 173.000000
285.108090 58.000000
285.117400 47.000000
285.694120 8.000000
286.034330 9.000000
286.068540 9.000000
286.080960 42.000000
286.093570 102.000000
286.109380 92.000000
286.125580 37.000000
286.140960 16.000000
287.071140 19.000000
287.092410 219.000000
287.123320 40.000000
287.524020 8.000000
288.096860 35.000000
288.114170 9.000000
288.126430 11.000000
289.101380 9.000000
290.114010 10.000000
290.124600 18.000000
290.142880 12.000000
291.071750 26.000000
291.090970 18.000000
291.105710 9.000000
291.126340 27.000000
292.069610 12.000000
292.085540 82.000000
292.100190 54.000000
292.116270 37.000000
292.140750 10.000000
293.086980 119.000000
293.102390 44.000000
293.112670 39.000000
294.079190 136.000000
294.093050 74.000000
294.109650 202.000000
294.127990 56.000000
294.144200 11.000000
295.060610 67.000000
295.075990 80.000000
295.096010 716.000000
295.147490 10.000000
295.162260 13.000000
295.380490 11.000000
295.812100 8.000000
296.051790 11.000000
296.100010 255.000000
296.127290 469.000000
296.424990 10.000000
297.053590 11.000000
297.071530 88.000000
297.095120 32.000000
297.113040 64.000000
297.122160 33.000000
297.135890 30.000000
298.062900 9.000000
298.081360 16.000000
298.096340 35.000000
298.113650 126.000000
298.140590 10.000000
298.189970 8.000000
298.977480 10.000000
299.073300 41.000000
299.086580 39.000000
299.096800 24.000000
299.116880 109.000000
299.137510 10.000000
300.096370 81.000000
300.126160 14.000000
301.096770 16.000000
301.111540 99.000000
301.133090 18.000000
301.152980 11.000000
301.569120 12.000000
302.103670 8.000000
303.114900 9.000000
306.118010 85.000000
307.111270 37.000000
307.130650 12.000000
308.088810 46.000000
308.124420 188.000000
309.079010 12.000000
309.102200 142.000000
309.137660 86.000000
310.039030 10.000000
310.073640 11.000000
310.089230 46.000000
310.114750 279.000000
310.127440 84.000000
310.143650 36.000000
311.051700 12.000000
311.084140 146.000000
311.097050 179.000000
311.127530 52.000000
311.154570 10.000000
312.062190 9.000000
312.088440 97.000000
312.102720 45.000000
312.122530 36.000000
312.136780 21.000000
312.153470 54.000000
313.073210 19.000000
313.095980 58.000000
313.109070 24.000000
313.133760 44.000000
313.153110 22.000000
314.104310 126.000000
314.141450 78.000000
314.160980 11.000000
315.090450 31.000000
315.109100 37.000000
315.129270 8.000000
317.144100 12.000000
317.349880 8.000000
318.129520 11.000000
320.095180 12.000000
320.111420 9.000000
321.129790 15.000000
322.080660 10.000000
322.098240 27.000000
322.117430 8.000000
322.151280 10.000000
323.118010 20.000000
323.149780 10.000000
324.104830 48.000000
324.127080 123.000000
324.157260 16.000000
325.105100 114.000000
325.120300 83.000000
325.139860 9.000000
326.117520 69.000000
326.132200 26.000000
326.147060 15.000000
327.113490 73.000000
327.142360 8.000000
328.117860 12.000000
328.146480 12.000000
328.165470 8.000000
329.078250 8.000000
330.150180 16.000000
336.535190 8.000000
338.135860 29.000000
339.100400 9.000000
340.114590 11.000000
340.133300 21.000000
340.152340 11.000000
341.117370 28.000000
341.132600 17.000000
341.153020 8.000000
342.069820 10.000000
342.124150 77.000000
342.136470 45.000000
343.142670 29.000000
344.138490 7.000000
344.150150 14.000000
345.095090 10.000000
356.133450 19.000000
356.154420 16.000000
358.166170 15.000000
360.234530 9.000000
363.925840 12.000000
379.959660 12.000000
382.857450 9.000000
394.059050 9.000000
394.765930 8.000000
432.010560 11.000000
472.012730 10.000000
473.561430 12.000000

>ms2peaks
57.052400 23.000000
70.069920 51.000000
72.047400 209.000000
84.042050 19.000000
86.062520 23.000000
102.056180 21.000000
107.039470 21.000000
107.047490 64.000000
107.053890 40.000000
108.054220 34.000000
119.050640 23.000000
121.061910 34.000000
133.092440 29.000000
136.076400 472.000000
137.035810 18.000000
137.058060 43.000000
137.075200 26.000000
137.083310 20.000000
138.062300 27.000000
143.049680 30.000000
148.073320 61.000000
151.043700 33.000000
151.078430 18.000000
152.075030 21.000000
155.073530 18.000000
156.078310 25.000000
157.062640 44.000000
160.071240 45.000000
161.088990 38.000000
162.728550 27.000000
164.078250 18.000000
165.067380 24.000000
166.046110 18.000000
167.051760 17.000000
167.093720 39.000000
169.084980 20.000000
170.762500 25.000000
174.100570 36.000000
174.677050 17.000000
175.101700 30.000000
175.771240 17.000000
176.085830 24.000000
177.053850 19.000000
177.061430 21.000000
177.397280 22.000000
178.052730 18.000000
178.062910 23.000000
178.076340 17.000000
178.084500 65.000000
178.098310 30.000000
180.451830 17.000000
180.711010 18.000000
181.088790 371.000000
183.053710 22.000000
183.083080 38.000000
185.052730 27.000000
187.081220 21.000000
187.377200 18.000000
187.611940 20.000000
188.081120 57.000000
189.065280 20.000000
189.083790 41.000000
190.077620 63.000000
190.093610 17.000000
190.334750 20.000000
191.031190 29.000000
191.060350 27.000000
191.079190 39.000000
192.076480 34.000000
193.103960 44.000000
193.113420 45.000000
193.631650 18.000000
194.075320 35.000000
194.120760 19.000000
195.103010 20.000000
196.087390 19.000000
196.439390 30.000000
197.061260 60.000000
197.100050 42.000000
199.017990 20.000000
200.049610 20.000000
201.040120 18.000000
202.087190 23.000000
203.608550 26.000000
204.078640 110.000000
204.101360 40.000000
204.826080 20.000000
205.062850 20.000000
205.083150 74.000000
205.093870 21.000000
206.082050 28.000000
206.097380 17.000000
207.068220 19.000000
207.085660 38.000000
207.098110 59.000000
209.057570 40.000000
209.099060 21.000000
209.106660 23.000000
209.773940 23.000000
210.100080 17.000000
211.074300 17.000000
211.085740 22.000000
211.103840 17.000000
212.090550 78.000000
212.831760 19.000000
213.065410 18.000000
213.077640 25.000000
213.087510 34.000000
213.099750 74.000000
213.112000 23.000000
215.095340 18.000000
216.076220 21.000000
216.097210 18.000000
217.064510 26.000000
218.077000 25.000000
218.090960 23.000000
219.100860 174.000000
220.117360 31.000000
220.682480 23.000000
221.065320 19.000000
221.098970 45.000000
222.071330 44.000000
222.098600 23.000000
222.158170 43.000000
223.081280 20.000000
223.102810 20.000000
223.334050 18.000000
224.083590 109.000000
224.091640 88.000000
224.119170 18.000000
225.029190 18.000000
225.056810 17.000000
225.069030 26.000000
225.084840 61.000000
225.095030 83.000000
225.237920 24.000000
225.965480 18.000000
226.076220 18.000000
226.089320 22.000000
226.104740 25.000000
227.051150 21.000000
227.070450 82.000000
227.114040 53.000000
228.111860 20.000000
228.253600 18.000000
229.086780 60.000000
230.122910 31.000000
231.056550 25.000000
231.073120 25.000000
231.095460 23.000000
231.104320 17.000000
231.605330 21.000000
231.780690 18.000000
232.115980 28.000000
233.059710 18.000000
233.795880 21.000000
234.149690 50.000000
235.074540 210.000000
235.091290 38.000000
236.073520 23.000000
236.082310 21.000000
236.092390 17.000000
236.106770 49.000000
236.123810 20.000000
237.061830 20.000000
237.075610 19.000000
237.089690 132.000000
237.115600 27.000000
237.506470 17.000000
238.048320 21.000000
238.101170 66.000000
238.126500 20.000000
239.051090 20.000000
239.066410 25.000000
239.079300 88.000000
239.099290 27.000000
239.113420 89.000000
239.438930 24.000000
240.073990 87.000000
240.088010 52.000000
240.116040 21.000000
240.153110 22.000000
241.080610 55.000000
241.091780 193.000000
241.116790 22.000000
241.579250 39.000000
242.074450 47.000000
242.091460 58.000000
242.114290 37.000000
243.072540 38.000000
243.089860 21.000000
243.101260 32.000000
243.113240 48.000000
243.755400 18.000000
244.066480 21.000000
244.104130 24.000000
245.068240 30.000000
246.063660 28.000000
247.085600 44.000000
247.096630 19.000000
248.109510 41.000000
248.128070 118.000000
248.262340 17.000000
249.049620 17.000000
249.094540 184.000000
249.111110 19.000000
249.123840 25.000000
249.136760 26.000000
250.082200 89.000000
250.102840 190.000000
250.134630 58.000000
251.068150 138.000000
251.088810 72.000000
251.110700 185.000000
251.132740 106.000000
252.062620 40.000000
252.074830 87.000000
252.089580 169.000000
252.109700 102.000000
252.133420 22.000000
252.666400 21.000000
253.083040 30.000000
253.095990 143.000000
253.111710 46.000000
253.128750 54.000000
253.326140 31.000000
254.060350 17.000000
254.070570 23.000000
254.086640 37.000000
254.096310 48.000000
254.119810 72.000000
255.059230 79.000000
255.070660 39.000000
255.092930 76.000000
255.106640 155.000000
255.197020 22.000000
256.080290 19.000000
256.108860 602.000000
257.074920 73.000000
257.084900 51.000000
257.114650 62.000000
257.468900 24.000000
258.084500 91.000000
258.097630 78.000000
258.140960 17.000000
258.356840 18.000000
258.696660 20.000000
259.034850 30.000000
259.088900 15.000000
259.098540 41.000000
259.139680 26.000000
260.080410 38.000000
260.109560 18.000000
262.088010 20.000000
262.112370 37.000000
262.132200 25.000000
262.912110 26.000000
263.067140 29.000000
263.078920 53.000000
263.094910 52.000000
263.109010 21.000000
263.146210 28.000000
264.057500 20.000000
264.070680 33.000000
264.081300 54.000000
264.099730 199.000000
264.115600 57.000000
264.651610 23.000000
264.884190 17.000000
265.066890 48.000000
265.080380 53.000000
265.098180 189.000000
265.112640 24.000000
265.124940 26.000000
266.038120 21.000000
266.097050 251.000000
266.120940 155.000000
267.092650 105.000000
267.105530 357.000000
267.635620 19.000000
267.900360 23.000000
268.071930 27.000000
268.084470 17.000000
268.100680 101.000000
268.110990 179.000000
268.134830 17.000000
268.476410 36.000000
269.066310 48.000000
269.082000 176.000000
269.114900 93.000000
269.125850 60.000000
269.772640 33.000000
270.071810 17.000000
270.093600 148.000000
270.118530 121.000000
270.133270 41.000000
270.387970 17.000000
270.771270 17.000000
271.078160 20.000000
271.098820 167.000000
271.127750 85.000000
272.087770 58.000000
272.100650 396.000000
272.113560 219.000000
272.138610 20.000000
272.147190 24.000000
273.084110 25.000000
273.093110 17.000000
273.114650 124.000000
273.603850 39.000000
274.115050 20.000000
275.088350 29.000000
276.079100 116.000000
276.104680 99.000000
276.199400 17.000000
276.619510 30.000000
276.737270 20.000000
277.060300 47.000000
277.074920 39.000000
277.087520 67.000000
277.113530 149.000000
277.319460 24.000000
278.052430 29.000000
278.074520 92.000000
278.100400 551.000000
278.118800 184.000000
278.626040 21.000000
279.062650 58.000000
279.075230 93.000000
279.094970 110.000000
279.105070 420.000000
279.121400 540.000000
279.314510 20.000000
279.750790 17.000000
280.078610 50.000000
280.110380 244.000000
280.128600 157.000000
280.148830 21.000000
281.056210 20.000000
281.086300 121.000000
281.105870 90.000000
281.121280 273.000000
281.132540 103.000000
281.147550 78.000000
281.258510 41.000000
281.494540 18.000000
282.067410 47.000000
282.080750 111.000000
282.105470 220.000000
282.117550 798.000000
282.143980 76.000000
282.783230 26.000000
282.995360 18.000000
283.069000 41.000000
283.093050 293.000000
283.105590 195.000000
283.121370 122.000000
283.131130 150.000000
283.143490 32.000000
283.427980 20.000000
284.103670 512.000000
284.140140 24.000000
285.074280 91.000000
285.106080 262.000000
285.116060 428.000000
285.144680 50.000000
285.664120 18.000000
285.895780 35.000000
285.956570 27.000000
286.075500 36.000000
286.086940 41.000000
286.100920 82.000000
286.114110 181.000000
286.138520 42.000000
286.724330 20.000000
287.078950 67.000000
287.091610 23.000000
287.107510 41.000000
287.120970 289.000000
287.133000 268.000000
287.152280 21.000000
287.742800 18.000000
288.103610 25.000000
288.130680 25.000000
288.141080 43.000000
288.151520 25.000000
289.148350 29.000000
290.115940 83.000000
290.170680 18.000000
290.572810 17.000000
290.973080 18.000000
291.120540 20.000000
292.034450 33.000000
292.105380 124.000000
292.547000 17.000000
292.784730 21.000000
293.074680 36.000000
293.098600 176.000000
293.116060 77.000000
293.148100 18.000000
293.990630 21.000000
294.084500 254.000000
294.097080 193.000000
294.120610 164.000000
294.138670 40.000000
294.841130 18.000000
295.068300 63.000000
295.089260 443.000000
295.101200 679.000000
295.116150 199.000000
295.148440 18.000000
296.017640 35.000000
296.094790 299.000000
296.105380 218.000000
296.116030 249.000000
296.131560 194.000000
296.144170 49.000000
297.101040 81.000000
297.114960 200.000000
297.127170 208.000000
297.136810 98.000000
297.153200 22.000000
298.108000 240.000000
298.127660 195.000000
298.145110 21.000000
298.449190 23.000000
299.063230 63.000000
299.086730 58.000000
299.096800 108.000000
299.119480 205.000000
299.137910 216.000000
300.086180 93.000000
300.098020 331.000000
300.114140 104.000000
300.129850 125.000000
300.141570 60.000000
300.164280 20.000000
301.053040 19.000000
301.091060 24.000000
301.103300 53.000000
301.113280 70.000000
301.128970 48.000000
301.148350 416.000000
301.641780 21.000000
302.107700 146.000000
302.124660 93.000000
302.141140 43.000000
302.163880 59.000000
303.108430 19.000000
303.168300 18.000000
303.846710 33.000000
304.097140 38.000000
304.138000 18.000000
306.008030 17.000000
306.083590 21.000000
306.118620 175.000000
306.139650 18.000000
307.108760 102.000000
307.138150 46.000000
307.500950 20.000000
308.016050 17.000000
308.085910 27.000000
308.096010 76.000000
308.126980 757.000000
308.740080 20.000000
309.047640 17.000000
309.076350 20.000000
309.091460 103.000000
309.114560 830.000000
309.135590 676.000000
309.149140 185.000000
309.259640 20.000000
309.292510 20.000000
309.767850 20.000000
310.029360 21.000000
310.066220 25.000000
310.084050 42.000000
310.119900 4061.000000
310.766050 17.000000
310.913940 19.000000
311.043610 21.000000
311.086580 484.000000
311.106990 819.000000
311.127620 1311.000000
311.798400 20.000000
311.870880 19.000000
311.967130 18.000000
312.078520 20.000000
312.103580 266.000000
312.128810 280.000000
312.143250 449.000000
312.158390 1018.000000
312.556820 30.000000
312.594910 27.000000
312.872960 26.000000
313.095150 46.000000
313.109130 75.000000
313.131380 272.000000
313.151760 650.000000
313.278050 17.000000
313.561610 24.000000
313.814030 17.000000
314.071590 19.000000
314.088100 81.000000
314.105260 144.000000
314.117830 130.000000
314.132020 131.000000
314.143550 158.000000
314.167360 37.000000
314.180480 19.000000
314.304050 20.000000
315.120450 971.000000
315.136230 393.000000
315.156920 21.000000
315.371060 19.000000
316.113220 100.000000
316.131040 342.000000
316.171480 43.000000
317.122470 18.000000
319.120390 18.000000
320.138730 17.000000
321.575780 20.000000
322.138550 103.000000
322.155210 23.000000
323.143100 168.000000
323.159060 156.000000
324.120450 580.000000
324.157320 27.000000
324.172000 18.000000
325.114010 278.000000
325.134520 728.000000
325.326510 21.000000
325.959440 33.000000
326.037200 18.000000
326.113890 935.000000
326.126010 833.000000
326.157290 98.000000
326.303710 20.000000
326.851470 19.000000
326.877500 27.000000
327.114960 279.000000
327.139040 237.000000
327.162480 17.000000
327.939060 18.000000
328.112340 39.000000
328.134610 91.000000
328.148960 68.000000
328.160030 73.000000
328.995850 23.000000
329.116060 20.000000
329.131680 136.000000
329.147220 70.000000
329.161870 25.000000
330.120270 68.000000
331.022610 21.000000
332.156740 25.000000
334.101500 20.000000
335.911070 38.000000
336.117160 23.000000
336.659820 24.000000
336.691160 20.000000
337.232570 18.000000
338.143460 125.000000
338.162320 24.000000
339.112270 18.000000
339.133360 116.000000
339.152620 143.000000
340.102540 29.000000
340.119930 28.000000
340.155090 3403.000000
340.287930 45.000000
340.693970 23.000000
340.776890 17.000000
341.061220 18.000000
341.087650 21.000000
341.104680 67.000000
341.130190 650.000000
341.150480 2084.000000
341.271910 23.000000
341.325010 17.000000
341.472380 17.000000
341.553740 24.000000
342.077670 20.000000
342.138370 1295.000000
342.179720 27.000000
343.089110 30.000000
343.113280 42.000000
343.130370 92.000000
343.154690 689.000000
344.148380 870.000000
344.236300 20.000000
344.560940 17.000000
345.158110 107.000000
345.195370 27.000000
345.877690 18.000000
346.672120 40.000000
348.308690 20.000000
350.115110 29.000000
352.168180 20.000000
353.398530 17.000000
353.895110 29.000000
354.136380 18.000000
354.171840 241.000000
354.472900 28.000000
355.166780 43.000000
355.182190 93.000000
356.119540 19.000000
356.139770 82.000000
356.160160 61.000000
356.172640 30.000000
357.128050 34.000000
357.158780 360.000000
357.171170 86.000000
358.132390 24.000000
358.161100 87.000000
358.188660 41.000000
359.174380 35.000000
364.953740 39.000000
364.971250 18.000000
366.433780 17.000000
366.664460 25.000000
368.123440 42.000000
368.499020 24.000000
369.208370 17.000000
369.466430 40.000000
369.585970 17.000000
369.660060 40.000000
370.176480 17.000000
370.978640 23.000000
371.182680 54.000000
371.875000 17.000000
372.093780 89.000000
372.116060 191.000000
372.133820 163.000000
372.181550 35445.000000
372.237950 615.000000
372.269780 22.000000
372.399900 32.000000
372.415920 114.000000
372.486850 17.000000
372.689640 18.000000
372.774930 20.000000
372.963710 18.000000
373.042940 18.000000
373.067810 19.000000
373.115260 69.000000
373.138790 44.000000
373.184450 8285.000000
373.225710 21.000000
373.241820 17.000000
373.277440 31.000000
373.544160 20.000000
373.794040 18.000000
374.006470 20.000000
374.152590 17.000000
374.190220 993.000000
374.292660 18.000000
374.318600 18.000000
374.882320 38.000000
374.951230 17.000000
375.179810 51.000000
375.190250 53.000000
375.205840 18.000000
376.180570 17.000000
377.085970 22.000000
377.323520 18.000000
377.368260 28.000000
379.164520 22.000000
379.645170 25.000000
381.236880 21.000000
386.015620 20.000000
386.156310 22.000000
387.995360 17.000000
389.398620 18.000000
390.948090 27.000000
397.980770 42.000000
415.149900 56.000000
418.313350 48.000000
423.507350 18.000000
441.037720 20.000000
446.204220 22.000000
446.224180 20.000000
446.328280 17.000000
447.158840 17.000000
448.197910 19.000000
449.841190 20.000000
451.226750 19.000000
452.091770 30.000000
452.967350 25.000000
476.047910 19.000000
476.579100 22.000000
477.249510 24.000000
478.060300 18.000000
478.130710 17.000000
478.160580 110.000000
478.215240 10853.000000
478.231900 13780.000000
478.272160 118.000000
478.297700 303.000000
478.353910 20.000000
478.370850 18.000000

