>compound PR44023572
>parentmass 204.0875185230769
>ionization [M+H]+
>formula C9H17NS2
>rt 551.424923
>profile qtof
#smiles_iso CSCCCCCCCN=C=S
#smiles_can CSCCCCCCCN=C=S
#inchikey LDIRGNDMTOGVRB-UHFFFAOYSA-N
#pubchem_id 10125146
#mb_accession PR303483,PR303484,PR303485,PR303486,PR303487,PR303488,PR303489,PR303490,PR303491,PR303492,PR303493,PR303494,PR310457

>ms2
55.051660 16.000000
63.008110 24.000000
69.069870 29.000000
70.067540 32.000000
80.046170 21.000000
80.053080 43.000000
81.069060 14.000000
95.080200 14.000000
97.085290 17.000000
97.099380 160.000000
98.894030 21.000000
100.021970 14.000000
108.082610 14.000000
110.097310 30.000000
112.109630 15.000000
114.032970 17.000000
114.050460 23.000000
122.096270 50.000000
123.103120 192.000000
129.077130 14.000000
131.086960 29.000000
131.090620 66.000000
133.539630 23.000000
140.111800 13.000000
145.098790 17.000000
145.105670 61.000000
145.111470 89.000000
146.096410 16.000000
156.084150 1000.000000
157.086400 21.000000
158.078170 17.000000
158.086290 48.000000
158.095730 67.000000
177.065200 16.000000
177.081300 17.000000
182.216020 14.000000
202.115020 40.000000
202.129590 44.000000
203.134170 23.000000
203.143710 25.000000
204.072650 35.000000
204.085160 105.000000
204.096220 142.000000
204.151110 13.000000
204.181350 17.000000

>ms2
55.053140 5.000000
69.069450 22.000000
97.089810 7.000000
97.099780 129.000000
98.106450 18.000000
98.112310 7.000000
99.026760 6.000000
110.976720 6.000000
112.096330 7.000000
112.108040 23.000000
112.115010 10.000000
113.046490 7.000000
113.119380 10.000000
114.037440 7.000000
115.338010 7.000000
123.103110 32.000000
123.109960 19.000000
127.056590 6.000000
129.074600 10.000000
131.085340 28.000000
131.092190 15.000000
131.105210 14.000000
139.060560 6.000000
143.125380 7.000000
145.101210 34.000000
145.109410 42.000000
146.111510 9.000000
156.054720 7.000000
156.063050 5.000000
156.084110 1000.000000
157.087270 103.000000
158.081270 44.000000
159.083660 17.000000
162.897600 8.000000
165.924100 7.000000
202.107700 12.000000
202.126240 130.000000
203.125760 17.000000
203.138570 17.000000
204.021060 5.000000
204.064000 6.000000
204.088910 460.000000
204.105010 22.000000
204.114410 6.000000
204.133320 5.000000
204.144990 22.000000

>ms2
55.055010 228.000000
69.066050 272.000000
75.020220 522.000000
94.072040 196.000000
101.023120 315.000000
108.079200 359.000000
108.086300 1000.000000
122.094880 217.000000

>ms2
84.893200 767.000000
108.079570 1000.000000

>ms2
55.057540 32.000000
61.009290 20.000000
68.048980 24.000000
69.068770 20.000000
69.079060 52.000000
82.065950 57.000000
87.026810 23.000000
95.082100 27.000000
96.083690 25.000000
97.089290 37.000000
97.095920 86.000000
97.103160 163.000000
99.009790 20.000000
108.080140 47.000000
111.028160 18.000000
111.072700 33.000000
112.113640 20.000000
112.118700 18.000000
113.040830 23.000000
114.038570 20.000000
122.100330 29.000000
123.101330 211.000000
123.113250 28.000000
124.111920 32.000000
126.032450 18.000000
131.090520 73.000000
133.090580 17.000000
140.108000 32.000000
145.101910 62.000000
156.065630 54.000000
156.083470 1000.000000
157.086520 84.000000
158.080290 19.000000
158.085490 51.000000
159.085070 20.000000
177.135480 35.000000
202.010350 20.000000
202.132030 54.000000
203.121170 16.000000
203.130310 69.000000
204.074160 21.000000
204.089890 130.000000

>ms2
55.052760 12.000000
69.071640 22.000000
70.069790 9.000000
81.072500 9.000000
94.061790 7.000000
95.085150 11.000000
96.081740 6.000000
97.101620 106.000000
98.110180 12.000000
105.070030 10.000000
112.166110 8.000000
113.041320 6.000000
114.036180 5.000000
120.543310 7.000000
122.092350 5.000000
122.098510 10.000000
123.104290 44.000000
125.694900 5.000000
125.986280 7.000000
129.079440 32.000000
131.087570 50.000000
133.078120 7.000000
139.055760 8.000000
140.107770 10.000000
142.123460 7.000000
143.086430 11.000000
144.243260 7.000000
145.104430 133.000000
145.111600 35.000000
146.089630 11.000000
147.088620 8.000000
154.954790 9.000000
156.058590 12.000000
156.083760 1000.000000
157.080280 21.000000
157.090670 44.000000
158.069870 9.000000
158.086440 50.000000
162.139310 8.000000
163.090990 10.000000
164.237640 12.000000
170.098790 9.000000
202.129090 99.000000
203.113070 13.000000
203.121290 37.000000
203.131130 33.000000
204.078570 79.000000
204.091400 176.000000
204.105830 15.000000
204.120830 44.000000
204.137790 14.000000

>ms2
55.050830 400.000000
55.056240 817.000000
61.014080 550.000000
71.986100 1000.000000
77.037040 283.000000
80.047070 433.000000
81.073720 383.000000
100.025790 583.000000
108.081250 933.000000
204.171660 483.000000

>ms2
77.041270 1000.000000
93.057560 929.000000

>ms2
55.053740 54.000000
61.008380 37.000000
63.025490 20.000000
69.062180 17.000000
69.069070 58.000000
75.026500 31.000000
78.581690 16.000000
83.072210 15.000000
84.083010 23.000000
94.066430 23.000000
95.085290 15.000000
97.100470 153.000000
100.018620 20.000000
105.247250 23.000000
108.081390 41.000000
114.034470 44.000000
123.106190 196.000000
128.042210 25.000000
129.072780 39.000000
131.085780 86.000000
132.070330 15.000000
143.373460 15.000000
145.104450 122.000000
145.465900 15.000000
146.105210 50.000000
151.658290 25.000000
156.084850 1000.000000
157.068340 17.000000
157.086070 15.000000
157.094620 22.000000
157.880600 23.000000
158.062500 20.000000
158.083080 44.000000
202.126330 104.000000
203.134480 21.000000
204.091810 161.000000
204.104340 29.000000
204.119450 33.000000

>ms2
55.052880 11.000000
69.075760 9.000000
70.964190 12.000000
84.076730 7.000000
92.763660 6.000000
93.093960 6.000000
95.085790 14.000000
97.100760 119.000000
97.105750 26.000000
98.094220 6.000000
98.104720 13.000000
99.724330 7.000000
101.028210 8.000000
112.115910 14.000000
114.037340 7.000000
116.037260 6.000000
122.100150 5.000000
122.104530 14.000000
123.087030 6.000000
123.104060 83.000000
124.110780 8.000000
126.311870 6.000000
129.069200 9.000000
131.076720 8.000000
131.086580 91.000000
131.095000 17.000000
132.092540 6.000000
133.090300 7.000000
139.059330 7.000000
145.103880 93.000000
146.105740 17.000000
147.098110 9.000000
150.746340 7.000000
153.100490 10.000000
153.245070 6.000000
156.052220 8.000000
156.058750 8.000000
156.083540 1000.000000
157.000950 5.000000
157.071460 6.000000
157.086530 108.000000
158.061610 9.000000
158.075260 40.000000
158.084380 39.000000
158.091920 9.000000
159.081970 12.000000
176.965150 10.000000
177.085820 7.000000
202.079300 8.000000
202.128570 134.000000
203.125670 12.000000
203.135250 10.000000
204.052060 7.000000
204.087100 391.000000
204.096690 109.000000
204.121460 21.000000
204.135540 23.000000
204.145190 29.000000
204.179030 6.000000

>ms2
65.026060 403.000000
95.077610 433.000000
108.080990 1000.000000
122.096840 418.000000

>ms2
123.669830 1000.000000

>ms2
55.051660 20.000000
63.008110 30.000000
69.069870 36.000000
70.067540 40.000000
80.046170 27.000000
80.053080 54.000000
81.069060 18.000000
95.080200 18.000000
97.085290 21.000000
97.099380 201.000000
98.894030 27.000000
100.021970 18.000000
108.082610 18.000000
110.097310 38.000000
112.109630 19.000000
114.032970 22.000000
114.050460 29.000000
122.096270 63.000000
123.103120 242.000000
129.077130 18.000000
131.086960 37.000000
131.090620 83.000000
133.539630 29.000000
140.111800 17.000000
145.098790 21.000000
145.105670 77.000000
145.111470 112.000000
146.096410 20.000000
156.084150 1260.000000
157.086400 26.000000
158.078170 22.000000
158.086290 61.000000
158.095730 85.000000
177.065200 20.000000
177.081300 22.000000
182.216020 18.000000
202.115020 50.000000
202.129590 55.000000
203.134170 29.000000
203.143710 31.000000
204.072650 44.000000
204.085160 132.000000
204.096220 179.000000
204.151110 17.000000
204.181350 22.000000

