>compound PR44363938
>parentmass 289.07066424615374
>ionization [M+H]+
>formula C15H12O6
>rt 288.274154
>profile qtof
#smiles_iso C1=CC(=CC=C1C2C(C(=O)C3=C(C=C(C=C3O2)O)O)O)O
#smiles_can C1=CC(=CC=C1C2C(C(=O)C3=C(C=C(C=C3O2)O)O)O)O
#inchikey PADQINQHPQKXNL-UHFFFAOYSA-N
#pubchem_id 662
#mb_accession PR304073,PR304074,PR304075,PR304076,PR304077,PR304078,PR304079,PR304080,PR304081,PR304082,PR304083,PR304084,PR310461

>ms2
65.036730 10.000000
91.054420 10.000000
92.054910 15.000000
93.039590 15.000000
95.047860 26.000000
97.029660 15.000000
107.033770 19.000000
107.050060 312.000000
108.047960 13.000000
108.058730 10.000000
109.050310 12.000000
111.005490 11.000000
111.011770 15.000000
111.041910 20.000000
115.060380 11.000000
119.045100 11.000000
119.086880 25.000000
121.027020 22.000000
121.035970 14.000000
121.653660 10.000000
122.030030 23.000000
127.029370 12.000000
127.036330 22.000000
127.043240 10.000000
128.060090 12.000000
131.048860 23.000000
131.084400 23.000000
134.043730 11.000000
135.044050 23.000000
137.019590 10.000000
137.404370 10.000000
139.029910 13.000000
139.038990 10.000000
139.043810 20.000000
139.316010 16.000000
141.064130 20.000000
141.071460 66.000000
144.044940 11.000000
145.062840 30.000000
147.042570 41.000000
147.051500 11.000000
147.076920 23.000000
148.965820 14.000000
149.022800 639.000000
150.030530 78.000000
152.998660 22.000000
153.018880 1000.000000
154.011370 10.000000
154.022630 51.000000
155.008820 17.000000
155.047120 11.000000
156.064060 11.000000
163.035510 12.000000
163.044240 23.000000
166.985640 11.000000
167.023160 10.000000
167.033490 77.000000
169.061900 29.000000
169.068070 23.000000
172.049970 10.000000
173.061200 27.000000
181.062760 10.000000
183.083330 15.000000
187.031310 10.000000
187.071930 16.000000
187.079410 26.000000
188.074420 10.000000
189.847310 20.000000
189.969910 12.000000
191.054500 13.000000
193.249980 10.000000
195.006360 22.000000
195.028320 207.000000
195.038960 34.000000
196.039170 19.000000
197.045550 11.000000
197.054700 39.000000
200.048130 13.000000
201.058580 16.000000
215.037120 13.000000
215.069690 822.000000
216.073940 94.000000
217.079130 16.000000
225.015060 12.000000
225.060880 21.000000
242.058290 25.000000
242.067640 12.000000
242.982040 16.000000
243.066070 781.000000
244.060330 87.000000
244.075740 63.000000
244.525340 10.000000
245.070720 14.000000
245.221790 11.000000
248.963990 17.000000
271.061400 391.000000
271.077240 29.000000
271.414760 10.000000
272.062230 47.000000
272.080870 10.000000
273.068300 10.000000
289.045260 10.000000
289.072140 921.000000

>ms2
107.051130 14.000000
149.017730 12.000000
149.026520 13.000000
153.018770 220.000000
154.019200 21.000000
154.031810 6.000000
195.027650 67.000000
215.062450 12.000000
215.073590 32.000000
243.065190 405.000000
244.065340 35.000000
244.078780 17.000000
245.064970 6.000000
271.059270 210.000000
272.056370 12.000000
272.063450 33.000000
273.062930 5.000000
289.070070 1000.000000

>ms2
65.034320 9.000000
65.037930 10.000000
67.021140 10.000000
68.994080 10.000000
68.999390 26.000000
77.037700 8.000000
79.017840 24.000000
79.022190 13.000000
79.055150 8.000000
91.048950 25.000000
91.056520 23.000000
92.998690 15.000000
93.029630 10.000000
93.035730 24.000000
95.012630 8.000000
97.030060 10.000000
102.452590 9.000000
107.035680 38.000000
107.048930 541.000000
108.052430 29.000000
109.008090 9.000000
111.045560 70.000000
112.749190 9.000000
112.975200 13.000000
117.030300 11.000000
117.059220 12.000000
117.073780 23.000000
119.048680 52.000000
120.052900 11.000000
121.029140 256.000000
122.030490 23.000000
123.048340 10.000000
125.025990 12.000000
126.043340 8.000000
131.009920 20.000000
131.047700 39.000000
131.068600 10.000000
134.406590 12.000000
135.026080 11.000000
135.035960 10.000000
135.043620 39.000000
137.028840 11.000000
138.022290 8.000000
139.036970 64.000000
139.048710 21.000000
141.068700 154.000000
142.061080 15.000000
142.072040 11.000000
144.856080 9.000000
145.066860 23.000000
146.030720 9.000000
146.066620 11.000000
147.037890 85.000000
147.045730 45.000000
147.063160 8.000000
147.077730 33.000000
148.990010 9.000000
149.022770 800.000000
150.015720 39.000000
150.028320 117.000000
151.026490 21.000000
151.267700 12.000000
152.055240 8.000000
153.017620 1000.000000
153.059420 10.000000
153.068850 10.000000
153.953640 9.000000
154.018080 64.000000
154.025220 79.000000
155.049130 19.000000
157.064410 8.000000
159.073640 8.000000
159.083250 9.000000
159.471410 8.000000
167.021320 9.000000
167.030720 45.000000
167.047930 12.000000
169.061600 81.000000
169.074570 24.000000
170.065930 18.000000
172.086560 10.000000
173.051420 10.000000
173.059800 8.000000
173.068390 9.000000
174.062610 12.000000
175.676440 12.000000
179.051730 9.000000
185.059400 9.000000
186.071790 29.000000
187.038280 10.000000
187.074230 18.000000
188.030850 15.000000
196.987880 14.000000
197.012220 12.000000
197.055280 113.000000
197.063110 119.000000
198.057210 8.000000
198.074360 10.000000
199.080780 11.000000
201.046200 9.000000
207.040970 8.000000
212.040270 11.000000
214.060590 22.000000
215.004060 11.000000
215.047580 16.000000
215.070510 527.000000
215.299060 9.000000
216.069840 29.000000
217.069430 51.000000
218.075520 8.000000
224.933910 8.000000
225.054090 41.000000
226.057560 9.000000
242.051570 12.000000
242.060070 22.000000
242.072770 10.000000
243.063280 24.000000
253.037600 11.000000
269.017330 10.000000
271.061220 20.000000

>ms2
65.033680 70.000000
65.038100 300.000000
68.995980 104.000000
69.031720 93.000000
69.036860 78.000000
77.036140 115.000000
77.042040 189.000000
79.020000 74.000000
79.056310 152.000000
83.009800 85.000000
91.056470 96.000000
93.026840 89.000000
93.032860 70.000000
97.028180 141.000000
107.016200 89.000000
107.049240 1000.000000
108.056100 63.000000
111.046620 107.000000
115.054120 759.000000
116.057060 93.000000
117.065900 70.000000
118.039880 111.000000
119.042410 63.000000
119.049170 63.000000
120.051450 63.000000
121.024680 548.000000
128.063130 96.000000
129.033720 89.000000
129.073460 78.000000
132.049760 63.000000
140.066300 167.000000
141.063580 100.000000
141.070570 237.000000
145.063840 152.000000
147.045330 174.000000
150.028490 170.000000
151.055650 111.000000
153.020000 81.000000
154.068240 74.000000
155.057270 67.000000
158.083680 67.000000
168.059340 67.000000
170.082240 70.000000
173.052140 74.000000
180.054960 67.000000
181.059780 81.000000
184.068540 93.000000
186.062440 163.000000
197.059830 230.000000
213.061630 63.000000
225.547620 67.000000
226.055690 107.000000
242.053590 74.000000
242.061100 152.000000
289.079530 85.000000

>ms2
77.964500 12.000000
82.028560 11.000000
93.037050 11.000000
107.049670 541.000000
108.052040 17.000000
111.011400 21.000000
111.039670 11.000000
117.070820 11.000000
118.262780 11.000000
119.046070 28.000000
119.053550 18.000000
121.021050 69.000000
121.027640 55.000000
121.037490 17.000000
121.753040 13.000000
122.033080 14.000000
127.037950 61.000000
131.046340 12.000000
135.039860 42.000000
135.048750 44.000000
139.027440 11.000000
139.034680 11.000000
141.069270 98.000000
142.076250 12.000000
144.052060 13.000000
145.070590 13.000000
146.035900 14.000000
147.048900 25.000000
147.075990 15.000000
147.081450 13.000000
149.023470 840.000000
150.026030 81.000000
150.031740 23.000000
151.032320 13.000000
152.911560 16.000000
153.017090 1000.000000
154.022030 69.000000
154.977170 13.000000
155.018980 13.000000
155.037780 25.000000
155.048290 14.000000
159.084810 23.000000
160.077560 13.000000
163.040250 28.000000
165.018450 13.000000
167.030690 81.000000
167.044040 30.000000
168.036180 19.000000
168.062120 30.000000
169.063460 27.000000
170.061650 13.000000
173.059330 44.000000
183.020130 11.000000
187.067430 30.000000
195.026980 140.000000
195.042850 15.000000
197.060210 108.000000
198.053410 14.000000
198.061360 11.000000
200.051160 18.000000
201.047410 13.000000
215.063160 142.000000
215.073270 550.000000
216.048190 33.000000
216.065600 33.000000
216.074460 76.000000
217.075940 24.000000
225.051570 24.000000
229.048570 14.000000
242.062160 49.000000
242.985120 11.000000
243.016300 12.000000
243.042100 13.000000
243.064730 989.000000
243.537370 15.000000
244.034210 13.000000
244.066990 216.000000
244.090010 13.000000
244.377150 20.000000
245.066130 29.000000
245.085940 15.000000
271.006900 21.000000
271.057010 435.000000
272.063900 146.000000
273.053130 17.000000
276.780000 11.000000
289.071660 911.000000

>ms2
107.042400 10.000000
107.047500 26.000000
135.040210 9.000000
149.019390 16.000000
149.025670 22.000000
153.019410 228.000000
154.019210 15.000000
195.030140 68.000000
215.069380 31.000000
216.077350 5.000000
243.065780 366.000000
244.059770 27.000000
244.073180 42.000000
245.072770 7.000000
271.060240 303.000000
272.061650 42.000000
273.073060 15.000000
289.038020 10.000000
289.070800 1000.000000

>ms2
65.035860 19.000000
67.017780 20.000000
67.023740 9.000000
67.056850 11.000000
68.997630 10.000000
69.032140 10.000000
77.039860 23.000000
79.055280 10.000000
81.031800 9.000000
83.017160 22.000000
83.047620 17.000000
87.215420 8.000000
88.560130 8.000000
89.595840 9.000000
91.050530 9.000000
93.037770 28.000000
95.047870 10.000000
97.027960 40.000000
97.032540 10.000000
105.012000 9.000000
105.032400 10.000000
105.069800 15.000000
107.040310 78.000000
107.049660 486.000000
108.041020 13.000000
108.053080 35.000000
111.046190 30.000000
117.059410 12.000000
117.070200 10.000000
119.048990 39.000000
119.232110 10.000000
121.016810 9.000000
121.028750 214.000000
122.025970 17.000000
122.032140 42.000000
128.060070 9.000000
129.057920 8.000000
129.064000 13.000000
131.049870 33.000000
131.055190 19.000000
132.054600 10.000000
135.019520 11.000000
135.045390 39.000000
136.044570 17.000000
138.479860 20.000000
139.034190 39.000000
139.047970 9.000000
141.067610 98.000000
142.073810 10.000000
144.056720 19.000000
145.027890 10.000000
145.065990 16.000000
147.024640 12.000000
147.036180 10.000000
147.047640 35.000000
147.069270 24.000000
147.080930 53.000000
148.040970 17.000000
148.082550 11.000000
149.002790 9.000000
149.022710 693.000000
150.008440 12.000000
150.025160 81.000000
152.052960 8.000000
153.017620 1000.000000
153.071660 14.000000
153.093920 11.000000
154.019850 33.000000
155.011340 9.000000
155.047060 16.000000
157.062070 9.000000
159.079530 46.000000
159.086900 11.000000
167.042040 24.000000
168.032150 10.000000
168.973630 8.000000
169.063600 139.000000
169.075850 21.000000
170.068220 20.000000
171.043120 12.000000
173.058760 42.000000
173.073170 10.000000
181.068210 13.000000
185.056500 11.000000
185.068250 8.000000
186.068910 11.000000
187.041340 9.000000
187.069460 8.000000
187.086300 8.000000
188.089680 11.000000
195.036880 8.000000
197.057510 134.000000
198.051620 9.000000
198.060670 31.000000
200.039230 16.000000
213.055160 19.000000
215.028440 21.000000
215.052540 35.000000
215.069820 512.000000
216.063630 38.000000
216.077420 60.000000
217.076610 8.000000
225.020140 9.000000
225.047270 18.000000
225.067350 13.000000
226.057940 9.000000
226.070940 8.000000
228.038210 11.000000
242.059310 78.000000
243.046430 16.000000
243.059940 28.000000
243.070540 17.000000
272.066860 10.000000
289.077820 10.000000

>ms2
65.037260 118.000000
68.997400 59.000000
69.026100 71.000000
69.031530 65.000000
77.039510 366.000000
79.051480 83.000000
83.018820 156.000000
90.006200 74.000000
91.055310 271.000000
92.276110 56.000000
95.048490 59.000000
101.030970 115.000000
102.043310 74.000000
103.049420 59.000000
103.054660 50.000000
105.024970 50.000000
106.038230 50.000000
107.049520 1000.000000
107.119630 59.000000
108.043310 65.000000
108.053700 50.000000
112.254410 59.000000
115.054930 504.000000
115.239720 56.000000
116.051470 74.000000
116.058110 133.000000
116.066980 59.000000
117.058850 74.000000
117.065850 59.000000
119.042580 65.000000
119.049460 65.000000
121.030760 56.000000
126.029610 50.000000
127.056000 59.000000
128.060910 106.000000
131.049150 212.000000
135.005750 53.000000
141.068770 53.000000
144.055940 177.000000
147.045700 50.000000
149.008220 53.000000
149.016310 59.000000
149.028270 53.000000
150.044370 65.000000
151.042680 56.000000
152.063110 124.000000
153.012940 150.000000
153.021240 192.000000
153.076600 59.000000
154.021740 68.000000
155.049910 62.000000
155.842670 62.000000
157.069350 127.000000
158.064650 59.000000
164.036000 65.000000
167.473800 91.000000
169.050740 50.000000
169.061420 127.000000
170.076950 77.000000
185.069870 53.000000
188.043550 53.000000
197.056120 50.000000
213.046200 71.000000
214.045780 62.000000
289.067380 74.000000

>ms2
75.855610 12.000000
77.041940 10.000000
79.023250 15.000000
91.054130 22.000000
107.034900 21.000000
107.048860 416.000000
108.054870 9.000000
108.059980 19.000000
108.129890 11.000000
116.058520 10.000000
117.068760 12.000000
119.048230 52.000000
120.964770 10.000000
121.029070 105.000000
121.089130 11.000000
122.028810 24.000000
123.045910 15.000000
124.055030 14.000000
127.050700 13.000000
128.056700 11.000000
128.065480 10.000000
131.040570 10.000000
134.033250 10.000000
135.043780 52.000000
139.035490 10.000000
141.069730 57.000000
141.077590 38.000000
141.813980 11.000000
146.026870 10.000000
147.073440 21.000000
148.714040 11.000000
149.023960 536.000000
149.033340 49.000000
150.024280 90.000000
151.028820 16.000000
151.037200 11.000000
151.095990 13.000000
152.063030 26.000000
152.991440 11.000000
152.997570 47.000000
153.017350 1000.000000
153.533620 11.000000
154.016630 42.000000
154.024750 37.000000
155.022990 10.000000
157.066830 11.000000
160.087040 19.000000
162.176450 10.000000
163.036290 18.000000
167.032440 66.000000
168.051860 14.000000
168.695040 13.000000
169.062880 25.000000
169.077580 19.000000
170.061370 18.000000
170.071760 10.000000
173.012660 10.000000
173.059630 30.000000
175.928760 11.000000
187.067790 10.000000
187.075790 25.000000
188.603130 11.000000
195.002780 12.000000
195.026520 148.000000
195.039510 46.000000
196.025010 12.000000
197.000170 10.000000
197.034790 10.000000
197.056210 42.000000
198.070450 11.000000
200.039290 14.000000
213.062550 15.000000
215.048510 50.000000
215.070540 602.000000
216.076890 68.000000
217.074980 20.000000
225.051900 21.000000
226.054110 11.000000
241.051300 14.000000
242.055100 13.000000
242.079320 14.000000
243.040040 14.000000
243.060390 440.000000
243.068890 351.000000
244.057630 41.000000
244.069980 70.000000
245.079300 13.000000
246.076390 11.000000
248.980550 12.000000
253.059100 15.000000
254.198470 14.000000
271.033940 13.000000
271.057160 242.000000
271.068850 53.000000
272.061770 29.000000
273.048550 11.000000
288.955990 11.000000
289.068240 705.000000

>ms2
107.050290 21.000000
149.025760 25.000000
153.018280 196.000000
154.017810 11.000000
154.027590 12.000000
167.034640 6.000000
195.030400 51.000000
215.065480 12.000000
215.086940 5.000000
243.042980 8.000000
243.064210 302.000000
244.056730 6.000000
244.072660 46.000000
271.053280 88.000000
271.061430 226.000000
272.063630 42.000000
273.054630 5.000000
289.028140 6.000000
289.070220 1000.000000

>ms2
67.019550 39.000000
79.022880 8.000000
79.054410 21.000000
81.030880 8.000000
83.017610 17.000000
91.054420 7.000000
93.033130 14.000000
96.421490 8.000000
97.013870 7.000000
97.024540 19.000000
103.059030 7.000000
105.038360 8.000000
107.009690 7.000000
107.037870 12.000000
107.048770 675.000000
108.054020 56.000000
109.026880 12.000000
111.041190 28.000000
111.046880 38.000000
115.054480 16.000000
116.055200 7.000000
117.061840 8.000000
119.048850 31.000000
119.083870 24.000000
119.105620 14.000000
120.055460 11.000000
121.022580 71.000000
121.028180 266.000000
122.030920 7.000000
123.040180 8.000000
127.040950 12.000000
128.064740 10.000000
129.055330 9.000000
129.069780 12.000000
130.985080 9.000000
131.048800 34.000000
131.056930 25.000000
133.025630 8.000000
133.068280 8.000000
134.033130 9.000000
135.043000 57.000000
137.022980 9.000000
137.048930 9.000000
139.037670 42.000000
140.037990 8.000000
141.029970 8.000000
141.059520 14.000000
141.069810 127.000000
141.083630 8.000000
142.073780 15.000000
143.047620 24.000000
145.064040 45.000000
145.105260 7.000000
146.062100 12.000000
146.967440 8.000000
147.042280 43.000000
147.076050 15.000000
147.087490 14.000000
147.657710 7.000000
149.004780 10.000000
149.022800 1000.000000
150.026960 115.000000
150.039400 7.000000
151.033650 14.000000
152.065260 12.000000
153.018950 824.000000
153.074950 7.000000
154.018460 29.000000
155.017790 12.000000
155.027970 26.000000
155.043150 8.000000
157.064870 14.000000
158.064410 9.000000
159.070160 7.000000
159.078810 19.000000
166.021030 9.000000
166.351210 8.000000
167.030300 9.000000
167.035130 21.000000
168.065630 14.000000
169.038500 9.000000
169.060970 102.000000
169.069150 62.000000
170.067080 26.000000
170.075390 18.000000
171.990160 10.000000
173.055560 7.000000
174.068860 11.000000
175.065340 8.000000
185.054960 7.000000
185.063480 18.000000
186.069840 7.000000
187.073990 17.000000
188.079180 7.000000
195.034940 8.000000
196.710010 7.000000
197.057830 99.000000
197.070830 17.000000
198.060930 84.000000
198.078460 7.000000
199.064000 32.000000
200.053190 16.000000
201.054900 10.000000
207.111310 11.000000
209.061100 11.000000
213.048890 29.000000
213.812940 7.000000
215.042790 17.000000
215.070050 700.000000
215.913190 12.000000
216.074920 102.000000
220.960040 10.000000
225.047740 14.000000
225.055020 29.000000
225.070040 7.000000
226.054530 14.000000
242.058470 38.000000
243.065290 8.000000
245.082200 10.000000
270.760010 8.000000
271.057620 7.000000
289.066740 9.000000

>ms2
65.037560 173.000000
67.020380 121.000000
69.005490 50.000000
69.028110 36.000000
77.038850 78.000000
79.047350 48.000000
79.054650 42.000000
90.044530 34.000000
91.056860 272.000000
92.059520 50.000000
93.029050 40.000000
93.034720 40.000000
94.047090 50.000000
94.587820 48.000000
95.047750 72.000000
97.015080 34.000000
97.028280 83.000000
97.049480 38.000000
103.049710 40.000000
106.040180 66.000000
107.048300 1000.000000
107.058980 105.000000
108.049810 83.000000
108.054990 60.000000
110.034540 60.000000
111.013340 44.000000
112.979810 40.000000
113.040820 52.000000
115.050830 159.000000
115.059010 165.000000
116.057490 82.000000
117.063060 93.000000
117.073040 70.000000
118.045100 36.000000
119.049030 145.000000
121.020940 38.000000
121.029840 256.000000
122.031440 40.000000
127.054780 72.000000
128.061680 80.000000
129.070910 129.000000
131.078140 107.000000
136.047780 34.000000
139.028110 48.000000
140.060780 44.000000
141.058700 105.000000
141.076170 213.000000
144.052750 38.000000
144.058330 36.000000
145.062100 42.000000
146.063740 50.000000
147.043530 40.000000
149.019120 111.000000
149.029660 127.000000
151.016650 76.000000
152.059880 99.000000
153.015290 252.000000
153.025960 99.000000
153.170930 36.000000
154.025740 70.000000
155.046370 38.000000
168.053390 272.000000
169.065110 78.000000
171.039960 66.000000
173.064390 44.000000
179.050580 44.000000
181.060410 38.000000
195.026570 38.000000
198.060930 36.000000
198.071040 42.000000
213.053100 42.000000

>ms2
65.036730 17.000000
91.054420 17.000000
92.054910 27.000000
93.039590 26.000000
95.047860 46.000000
97.029660 26.000000
107.033770 34.000000
107.050060 558.000000
108.047960 24.000000
108.058730 17.000000
109.050310 22.000000
111.005490 20.000000
111.011770 27.000000
111.041910 36.000000
115.060380 19.000000
119.045100 20.000000
119.086880 44.000000
121.027020 39.000000
121.035970 25.000000
121.653660 17.000000
122.030030 41.000000
127.029370 21.000000
127.036330 39.000000
127.043240 17.000000
128.060090 21.000000
131.048860 42.000000
131.084400 41.000000
134.043730 20.000000
135.044050 41.000000
137.019590 18.000000
137.404370 18.000000
139.029910 24.000000
139.038990 18.000000
139.043810 36.000000
139.316010 28.000000
141.064130 36.000000
141.071460 118.000000
144.044940 20.000000
145.062840 53.000000
147.042570 74.000000
147.051500 20.000000
147.076920 41.000000
148.965820 25.000000
149.022800 1142.000000
150.030530 140.000000
152.998660 39.000000
153.018880 1788.000000
154.011370 18.000000
154.022630 92.000000
155.008820 30.000000
155.047120 20.000000
156.064060 20.000000
163.035510 21.000000
163.044240 41.000000
166.985640 20.000000
167.023160 17.000000
167.033490 138.000000
169.061900 51.000000
169.068070 42.000000
172.049970 17.000000
173.061200 48.000000
181.062760 17.000000
183.083330 27.000000
187.031310 17.000000
187.071930 29.000000
187.079410 47.000000
188.074420 18.000000
189.847310 36.000000
189.969910 22.000000
191.054500 24.000000
193.249980 17.000000
195.006360 40.000000
195.028320 370.000000
195.038960 61.000000
196.039170 34.000000
197.045550 19.000000
197.054700 69.000000
200.048130 23.000000
201.058580 28.000000
215.037120 24.000000
215.069690 1469.000000
216.073940 168.000000
217.079130 28.000000
225.015060 22.000000
225.060880 37.000000
242.058290 44.000000
242.067640 21.000000
242.982040 28.000000
243.066070 1397.000000
244.060330 155.000000
244.075740 113.000000
244.525340 17.000000
245.070720 25.000000
245.221790 20.000000
248.963990 30.000000
271.061400 699.000000
271.077240 52.000000
271.414760 18.000000
272.062230 84.000000
272.080870 18.000000
273.068300 17.000000
289.045260 18.000000
289.072140 1647.000000

