>compound PR44704599
>parentmass 852.5103825
>ionization [M+H]+
>formula C45H73NO14
>rt 300.795000
>profile qtof
#smiles_iso C[C@H]1CC[C@@H]2[C@H]([C@H]3[C@@H](N2C1)C[C@@H]4[C@@]3(CC[C@H]5[C@H]4CC=C6[C@@]5(CC[C@@H](C6)O[C@H]7[C@H]([C@H]([C@H]([C@H](O7)CO)O[C@H]8[C@@H]([C@@H]([C@H]([C@@H](O8)C)O)O)O)O)O[C@H]9[C@@H]([C@@H]([C@@H]([C@@H](O9)C)O)O)O)C)C)C
#smiles_can CC1CCC2C(C3C(N2C1)CC4C3(CCC5C4CC=C6C5(CCC(C6)OC7C(C(C(C(O7)CO)OC8C(C(C(C(O8)C)O)O)O)O)OC9C(C(C(C(O9)C)O)O)O)C)C)C
#inchikey TYNQWWGVEGFKRU-OHIAVPKISA-N
#pubchem_id 45358102
#mb_accession PR301354,PR301358,PR301362,PR301366,PR301370,PR301374,PR301378,PR301382,PR301386,PR301390,PR301394,PR301398

>ms2
852.405090 5.000000
852.508850 1000.000000
852.609010 6.000000

>ms2
852.410520 12.000000
852.507810 1000.000000
852.595700 12.000000

>ms2
852.415220 12.000000
852.510190 1000.000000
852.598210 11.000000

>ms2
98.097420 8.000000
398.339510 8.000000
706.442200 12.000000
706.472170 7.000000
707.466610 7.000000
852.358090 5.000000
852.390930 7.000000
852.443540 5.000000
852.508910 1000.000000
852.596860 9.000000

>ms2
852.388240 6.000000
852.509580 1000.000000
852.585020 6.000000
852.611450 7.000000

>ms2
852.383540 5.000000
852.420290 8.000000
852.508910 1000.000000
852.596250 15.000000

>ms2
852.385500 6.000000
852.418950 12.000000
852.511780 1000.000000
852.599120 10.000000

>ms2
98.097310 13.000000
398.338750 7.000000
706.430850 7.000000
706.455930 15.000000
707.457580 7.000000
852.371220 8.000000
852.413210 17.000000
852.509950 1000.000000
852.602420 7.000000

>ms2
852.378600 7.000000
852.434630 6.000000
852.509830 1000.000000
852.605650 7.000000

>ms2
852.424800 11.000000
852.512210 1000.000000
852.600460 12.000000

>ms2
852.420840 14.000000
852.512880 1000.000000
852.603760 10.000000

>ms2
98.096950 9.000000
398.342900 6.000000
706.451290 19.000000
707.469360 8.000000
852.410340 17.000000
852.510250 1000.000000
852.603210 10.000000

