>compound PR44966804
>parentmass 255.06518566153844
>ionization [M+H]+
>formula C15H10O4
>rt 309.143058
>profile qtof
#smiles_iso C1=CC(=CC=C1C2=COC3=C(C2=O)C=CC(=C3)O)O
#smiles_can C1=CC(=CC=C1C2=COC3=C(C2=O)C=CC(=C3)O)O
#inchikey ZQSIJRDFPHDXIC-UHFFFAOYSA-N
#pubchem_id 5281708
#mb_accession PR302625,PR302631,PR302637,PR302643,PR302649,PR302655,PR302661,PR302667,PR302673,PR302679,PR302685,PR302691,PR310855

>ms2peaks
91.053330 12.000000
119.051320 7.000000
128.060750 14.000000
137.023360 58.000000
138.031690 7.000000
145.027010 17.000000
149.026990 6.000000
152.061840 32.000000
153.065350 14.000000
153.072680 12.000000
154.073300 5.000000
157.065660 13.000000
171.082550 6.000000
181.055470 13.000000
181.065770 40.000000
182.068120 10.000000
197.056780 10.000000
198.065540 6.000000
199.075530 62.000000
200.083270 15.000000
227.072980 26.000000
228.075390 6.000000
237.054820 19.000000
255.064990 1000.000000

>ms2peaks
255.018750 9.000000
255.065200 1000.000000
255.110140 14.000000

>ms2peaks
55.014670 13.000000
55.019680 12.000000
65.038460 33.000000
65.281650 5.000000
66.041110 5.000000
68.999770 15.000000
70.004970 10.000000
77.026530 10.000000
77.036550 11.000000
77.044500 10.000000
78.047110 12.000000
81.009050 8.000000
81.034280 77.000000
85.318020 7.000000
89.042290 7.000000
91.025470 7.000000
91.031030 10.000000
91.044080 19.000000
91.054470 256.000000
92.057780 17.000000
93.032260 16.000000
93.041470 5.000000
95.011860 9.000000
103.048020 6.000000
105.030960 19.000000
105.035160 10.000000
106.019710 5.000000
106.034500 9.000000
107.048210 5.000000
108.027570 7.000000
109.032310 15.000000
115.046830 10.000000
115.054010 12.000000
115.059150 14.000000
117.019140 15.000000
117.036620 16.000000
118.034190 7.000000
118.041820 25.000000
119.021190 5.000000
119.041210 11.000000
119.049910 69.000000
120.017790 8.000000
121.030490 71.000000
127.050250 36.000000
127.058550 58.000000
127.644130 6.000000
128.022870 6.000000
128.062500 300.000000
129.050630 7.000000
129.069270 155.000000
129.537110 6.000000
130.075240 18.000000
130.247300 9.000000
131.039260 25.000000
131.048920 52.000000
131.084090 38.000000
131.589940 5.000000
132.045900 7.000000
132.054920 9.000000
133.029630 100.000000
134.035050 29.000000
135.038040 14.000000
135.645780 6.000000
136.950420 8.000000
136.991300 5.000000
137.003160 8.000000
137.023590 725.000000
138.025310 36.000000
139.025310 11.000000
139.032030 8.000000
139.285310 5.000000
141.070680 60.000000
142.070860 13.000000
143.089040 32.000000
144.056440 9.000000
144.063810 7.000000
144.090730 10.000000
145.026020 126.000000
146.035130 5.000000
147.030990 7.000000
147.039720 30.000000
149.017140 29.000000
149.023270 36.000000
149.030690 6.000000
151.050840 18.000000
151.062560 31.000000
151.417330 9.000000
152.044360 8.000000
152.062120 229.000000
153.068730 534.000000
153.432080 6.000000
153.816700 5.000000
154.072270 58.000000
155.039540 6.000000
155.053280 12.000000
155.078540 19.000000
157.030670 6.000000
157.049210 6.000000
157.064590 52.000000
157.072780 20.000000
158.055530 12.000000
158.070220 17.000000
159.075320 8.000000
159.082380 14.000000
161.802510 7.000000
163.056170 13.000000
165.061330 20.000000
165.070360 17.000000
166.198060 8.000000
167.041900 5.000000
167.584610 9.000000
168.052020 17.000000
168.061890 21.000000
169.060780 9.000000
169.067600 22.000000
170.059800 6.000000
170.074370 18.000000
171.040450 6.000000
171.080540 242.000000
172.086580 16.000000
175.040820 23.000000
179.226180 5.000000
180.061490 7.000000
180.906300 8.000000
180.968480 9.000000
181.030780 21.000000
181.050840 27.000000
181.064940 914.000000
182.049030 5.000000
182.070280 252.000000
183.078930 8.000000
184.026110 14.000000
184.039350 16.000000
184.051180 138.000000
184.062900 23.000000
185.054550 12.000000
186.028310 9.000000
186.061510 8.000000
186.070050 8.000000
187.045060 24.000000
188.618590 7.000000
196.048200 8.000000
196.086790 7.000000
197.034410 13.000000
197.060460 106.000000
198.061690 46.000000
198.077580 21.000000
198.726960 12.000000
199.038680 7.000000
199.075760 1000.000000
200.040300 8.000000
200.067630 16.000000
200.081090 128.000000
201.084880 9.000000
204.343110 7.000000
209.055540 85.000000
209.071120 31.000000
209.746750 7.000000
210.072010 91.000000
211.076310 14.000000
212.035640 12.000000
212.048370 21.000000
212.090710 10.000000
213.057860 14.000000
219.035950 12.000000
219.051820 7.000000
225.056210 23.000000
225.068860 6.000000
226.052150 17.000000
226.062840 17.000000
227.022260 5.000000
227.029450 6.000000
227.071180 279.000000
227.383160 5.000000
228.059390 6.000000
228.075010 12.000000
228.357790 8.000000
229.061690 5.000000
229.075060 7.000000
230.082760 10.000000
237.054310 174.000000
237.979160 7.000000
238.059200 44.000000
255.034550 14.000000
255.065290 435.000000

>ms2peaks
65.037120 69.000000
68.988970 19.000000
77.043850 22.000000
78.043720 21.000000
81.016040 29.000000
81.029360 78.000000
81.034700 34.000000
89.037740 42.000000
91.032650 30.000000
91.050670 224.000000
91.056840 236.000000
92.019820 24.000000
92.776250 21.000000
101.039220 44.000000
102.041180 46.000000
103.050470 19.000000
105.035160 40.000000
109.034560 26.000000
115.052510 142.000000
116.057730 48.000000
118.038930 25.000000
126.032180 19.000000
127.041750 64.000000
127.053280 54.000000
127.059080 30.000000
128.030260 19.000000
128.053740 144.000000
128.060580 111.000000
128.066410 105.000000
131.052140 19.000000
134.034380 29.000000
137.024660 167.000000
138.025990 23.000000
138.047580 54.000000
139.048840 48.000000
141.076570 22.000000
142.065540 20.000000
143.075740 17.000000
147.049210 21.000000
151.035490 17.000000
151.049390 131.000000
152.037890 17.000000
152.051090 94.000000
152.063190 1000.000000
153.064210 96.000000
153.072940 206.000000
154.064290 49.000000
164.065340 35.000000
169.059540 30.000000
169.067120 20.000000
181.063250 151.000000
182.029590 29.000000
182.065730 24.000000
184.041760 51.000000
197.064910 43.000000
198.068600 32.000000
255.055250 26.000000
255.065920 55.000000

>ms2peaks
81.034420 5.000000
91.052800 12.000000
119.050750 13.000000
128.063320 18.000000
129.070370 15.000000
131.046630 6.000000
137.019040 39.000000
137.027570 19.000000
138.024350 6.000000
143.086670 8.000000
145.027890 22.000000
149.019650 7.000000
152.060780 30.000000
152.067140 8.000000
153.068010 34.000000
157.065540 11.000000
169.063140 7.000000
171.079940 17.000000
181.063860 55.000000
182.059690 10.000000
182.070800 11.000000
199.074480 90.000000
200.078800 11.000000
211.071870 10.000000
227.068240 43.000000
237.053710 12.000000
255.064650 1000.000000
255.106050 8.000000
255.114640 8.000000

>ms2peaks
255.065030 1000.000000
255.110720 22.000000

>ms2peaks
53.039860 9.000000
65.039160 36.000000
66.719890 5.000000
68.995030 17.000000
69.000700 15.000000
69.034370 5.000000
79.049800 5.000000
81.030720 8.000000
81.035960 16.000000
82.037400 14.000000
85.694170 5.000000
87.730190 16.000000
89.039090 16.000000
90.031650 8.000000
91.034490 13.000000
91.054100 355.000000
91.972940 9.000000
92.060650 20.000000
92.746320 5.000000
93.021330 5.000000
93.031460 31.000000
94.039600 12.000000
102.687920 6.000000
103.038020 7.000000
105.028530 6.000000
105.034750 27.000000
105.040980 7.000000
106.033210 5.000000
106.043060 21.000000
108.889760 7.000000
108.967220 5.000000
109.022670 7.000000
109.030440 12.000000
109.036720 8.000000
110.027090 10.000000
110.202800 12.000000
115.054400 28.000000
115.062360 15.000000
118.038440 6.000000
119.032130 16.000000
119.046700 79.000000
119.054600 35.000000
119.152440 5.000000
120.018590 10.000000
120.052550 27.000000
120.949300 6.000000
121.026630 45.000000
121.034060 57.000000
122.033910 21.000000
127.057870 16.000000
128.042180 11.000000
128.055420 76.000000
128.065890 116.000000
128.120120 5.000000
129.052260 13.000000
129.068950 194.000000
129.080730 12.000000
130.058410 11.000000
130.071290 16.000000
130.083110 6.000000
131.038470 23.000000
131.052440 59.000000
131.075320 13.000000
131.082150 20.000000
131.598850 6.000000
132.051670 7.000000
132.857650 6.000000
133.027880 55.000000
134.014920 6.000000
134.036330 60.000000
135.041960 10.000000
135.048220 6.000000
136.979020 9.000000
136.995790 5.000000
137.006060 23.000000
137.023650 841.000000
137.177630 8.000000
138.018520 13.000000
138.026340 28.000000
138.035690 9.000000
138.302720 5.000000
140.052980 6.000000
141.072630 56.000000
142.080830 9.000000
142.925930 5.000000
143.074780 8.000000
143.087220 78.000000
143.110120 6.000000
144.010300 8.000000
144.088090 10.000000
145.010530 11.000000
145.027160 153.000000
146.027010 7.000000
146.038450 10.000000
147.047530 17.000000
149.022140 78.000000
150.028150 17.000000
151.050640 28.000000
151.057890 39.000000
152.039930 12.000000
152.062420 325.000000
152.090260 5.000000
152.105700 6.000000
153.070920 613.000000
153.504750 7.000000
153.858180 6.000000
154.065020 17.000000
154.076250 58.000000
155.057170 7.000000
155.080310 19.000000
155.090450 5.000000
157.045650 9.000000
157.060520 58.000000
157.068010 75.000000
158.042210 5.000000
158.073010 34.000000
159.078670 8.000000
163.029560 7.000000
165.072530 29.000000
167.049700 9.000000
168.059630 8.000000
169.056700 15.000000
169.065780 7.000000
170.038770 5.000000
170.067280 10.000000
171.080470 166.000000
171.093020 30.000000
172.082660 13.000000
173.082580 6.000000
173.832020 11.000000
180.045900 7.000000
180.064680 5.000000
180.999820 5.000000
181.036470 7.000000
181.063900 853.000000
181.111150 5.000000
181.170240 5.000000
181.807050 7.000000
181.978380 8.000000
182.068510 237.000000
183.061420 6.000000
183.070130 6.000000
184.050080 163.000000
185.048490 15.000000
185.066570 22.000000
185.731930 5.000000
186.418000 5.000000
188.486340 9.000000
191.110720 10.000000
196.930680 9.000000
197.039890 7.000000
197.056090 134.000000
197.069060 25.000000
197.978490 6.000000
198.062990 68.000000
198.072370 18.000000
198.514620 7.000000
199.032640 9.000000
199.054670 43.000000
199.076690 1000.000000
200.047290 9.000000
200.066330 25.000000
200.078570 67.000000
200.090520 12.000000
200.299330 6.000000
201.058300 6.000000
205.837540 6.000000
209.060790 74.000000
210.052310 5.000000
210.067870 33.000000
210.081250 7.000000
211.068790 22.000000
211.081950 5.000000
212.029660 8.000000
212.041630 18.000000
212.064730 5.000000
213.058900 12.000000
225.024960 8.000000
225.054310 11.000000
225.103650 10.000000
226.058790 34.000000
227.049530 12.000000
227.061490 85.000000
227.072280 233.000000
228.053090 9.000000
228.067370 13.000000
228.081650 27.000000
229.191600 6.000000
237.031850 18.000000
237.049700 81.000000
237.058400 204.000000
237.151200 7.000000
238.048370 7.000000
238.060620 34.000000
239.056200 6.000000
254.992710 11.000000
255.017910 17.000000
255.038540 17.000000
255.065190 428.000000
255.136780 8.000000

>ms2peaks
65.009810 28.000000
65.036330 86.000000
65.041470 77.000000
68.995860 50.000000
75.026960 26.000000
78.046010 57.000000
81.034210 319.000000
83.281560 23.000000
89.039860 36.000000
90.044240 21.000000
91.029420 16.000000
91.043250 36.000000
91.056560 367.000000
92.053020 22.000000
92.060080 39.000000
93.037350 37.000000
93.290330 19.000000
101.033600 47.000000
103.049230 20.000000
103.584530 42.000000
105.031700 78.000000
105.038180 44.000000
106.042320 53.000000
107.040040 32.000000
107.048950 20.000000
109.032680 78.000000
115.053440 85.000000
115.058520 28.000000
116.058680 46.000000
118.037940 25.000000
121.529200 16.000000
125.014060 36.000000
126.108760 27.000000
127.052360 117.000000
128.061490 599.000000
129.061610 75.000000
129.068300 38.000000
130.075740 35.000000
131.035630 37.000000
131.051470 70.000000
132.048230 30.000000
137.026470 221.000000
137.036620 51.000000
138.048610 21.000000
141.067320 35.000000
142.072330 23.000000
145.027660 45.000000
145.061830 25.000000
147.051380 19.000000
151.022720 24.000000
151.055100 126.000000
152.039120 29.000000
152.052230 74.000000
152.064240 1000.000000
153.053940 60.000000
153.066150 156.000000
153.074910 135.000000
153.081670 50.000000
154.039380 25.000000
154.072360 74.000000
155.049730 80.000000
163.048320 18.000000
165.066250 16.000000
169.048720 22.000000
169.061400 154.000000
169.069900 29.000000
170.067320 19.000000
171.076110 23.000000
180.059540 29.000000
181.055080 57.000000
181.063100 113.000000
181.073750 16.000000
185.055070 28.000000
191.043410 20.000000
197.051220 18.000000
197.068390 20.000000
198.063540 22.000000
198.072970 20.000000
210.761610 20.000000
225.058500 31.000000
237.051850 36.000000
255.050450 47.000000
255.065730 84.000000
255.081240 16.000000

>ms2peaks
91.054600 15.000000
115.056080 5.000000
119.049510 7.000000
128.062790 20.000000
129.064240 6.000000
129.070530 8.000000
131.048000 6.000000
137.023190 67.000000
145.025120 7.000000
145.031070 7.000000
152.060000 16.000000
152.065980 10.000000
153.069400 29.000000
171.079830 8.000000
181.065220 66.000000
182.065370 14.000000
184.053090 8.000000
197.059540 14.000000
197.065380 5.000000
199.060300 9.000000
199.075360 64.000000
200.079880 12.000000
209.054150 6.000000
227.063420 13.000000
227.074080 34.000000
237.057830 22.000000
255.022770 6.000000
255.065350 1000.000000
255.110550 15.000000

>ms2peaks
255.025070 8.000000
255.065400 1000.000000
255.111300 20.000000

>ms2peaks
55.019100 21.000000
65.037240 5.000000
65.042430 5.000000
67.047120 6.000000
68.998120 7.000000
71.009540 7.000000
77.041880 8.000000
78.043300 7.000000
81.032800 31.000000
81.039880 8.000000
82.601880 6.000000
89.036290 27.000000
90.548650 6.000000
91.040240 19.000000
91.053030 370.000000
92.059990 53.000000
93.031190 15.000000
93.037450 13.000000
101.723110 6.000000
104.053440 7.000000
105.036770 32.000000
106.040570 13.000000
106.050190 6.000000
106.087130 7.000000
107.050320 7.000000
108.022160 7.000000
109.033050 10.000000
111.045690 6.000000
115.048770 10.000000
115.053860 36.000000
116.055440 9.000000
117.025420 8.000000
118.039090 39.000000
119.034740 5.000000
119.042680 38.000000
119.050860 103.000000
120.054420 13.000000
121.028470 77.000000
126.049310 6.000000
127.040410 7.000000
127.048580 25.000000
127.055200 25.000000
128.060380 180.000000
129.008740 6.000000
129.036040 13.000000
129.050520 6.000000
129.069350 175.000000
130.070760 21.000000
131.050630 52.000000
131.081020 13.000000
131.086810 15.000000
132.047790 9.000000
132.083070 5.000000
133.016460 11.000000
133.026410 33.000000
134.034580 23.000000
134.040420 30.000000
135.041920 10.000000
137.023120 867.000000
138.016020 21.000000
138.028580 30.000000
139.021580 15.000000
141.069560 74.000000
142.076720 22.000000
143.054960 9.000000
143.079820 36.000000
143.089540 90.000000
144.053160 13.000000
144.064480 6.000000
144.087080 5.000000
144.095550 8.000000
145.026550 142.000000
145.069790 7.000000
146.030470 10.000000
147.045230 10.000000
149.019710 36.000000
149.027890 22.000000
150.033200 5.000000
151.052260 50.000000
151.067580 6.000000
152.033220 17.000000
152.045930 22.000000
152.054240 82.000000
152.063260 175.000000
152.093460 11.000000
153.055940 30.000000
153.069610 520.000000
153.085600 22.000000
154.060850 11.000000
154.072460 61.000000
155.039870 5.000000
155.053530 13.000000
155.075240 6.000000
156.050080 7.000000
156.057130 16.000000
156.277240 5.000000
157.048420 7.000000
157.062350 178.000000
157.071780 36.000000
158.057450 14.000000
159.072770 8.000000
163.057820 6.000000
164.173130 6.000000
165.023680 7.000000
165.065730 13.000000
166.571320 7.000000
169.056400 13.000000
169.068830 6.000000
169.076930 12.000000
170.063980 24.000000
170.072400 9.000000
170.991730 7.000000
171.040470 15.000000
171.064940 19.000000
171.080730 176.000000
171.088210 59.000000
172.058440 6.000000
172.088200 6.000000
173.053160 9.000000
176.030930 7.000000
177.201600 10.000000
180.049290 7.000000
181.028950 10.000000
181.036910 17.000000
181.063980 1000.000000
182.038930 6.000000
182.058730 30.000000
182.072560 129.000000
183.039890 9.000000
183.067120 26.000000
183.087200 6.000000
184.052030 125.000000
185.056950 61.000000
187.063480 6.000000
191.045720 7.000000
197.053090 26.000000
197.064640 54.000000
198.049290 13.000000
198.057010 36.000000
198.069560 90.000000
199.031570 16.000000
199.074520 717.000000
199.150280 8.000000
199.275600 5.000000
199.882230 6.000000
200.048930 9.000000
200.066150 27.000000
200.079090 91.000000
200.096180 9.000000
201.080700 12.000000
209.031460 6.000000
209.055110 94.000000
209.063550 49.000000
209.076600 9.000000
210.056290 25.000000
210.068700 14.000000
210.078920 8.000000
211.070190 18.000000
212.045580 19.000000
212.060130 24.000000
213.053800 17.000000
218.468050 7.000000
219.043990 14.000000
225.052150 28.000000
225.063720 8.000000
226.070910 25.000000
227.060650 65.000000
227.072570 250.000000
228.053130 5.000000
228.067500 29.000000
228.078490 27.000000
229.066600 14.000000
232.428220 5.000000
237.043050 42.000000
237.051770 70.000000
237.061830 64.000000
237.082930 8.000000
237.830630 9.000000
238.049680 9.000000
238.062810 19.000000
244.965100 7.000000
254.057480 8.000000
255.016010 6.000000
255.033920 18.000000
255.046330 38.000000
255.064090 255.000000
255.077580 78.000000

>ms2peaks
65.033120 41.000000
65.039860 128.000000
68.994090 22.000000
75.019620 61.000000
77.039200 40.000000
78.046590 120.000000
81.032210 69.000000
81.039560 23.000000
82.041430 52.000000
89.036870 73.000000
91.051740 344.000000
91.056400 156.000000
91.752270 33.000000
92.061160 46.000000
94.039380 35.000000
103.054580 44.000000
106.043470 93.000000
106.100090 28.000000
109.019850 24.000000
115.051200 210.000000
115.059360 88.000000
116.058140 106.000000
118.039960 35.000000
121.026660 35.000000
123.043010 38.000000
126.030820 26.000000
126.052600 31.000000
127.054080 407.000000
128.057330 175.000000
128.064380 168.000000
128.073010 47.000000
129.061580 59.000000
131.037800 27.000000
131.047090 32.000000
133.024630 96.000000
135.038020 44.000000
137.023350 183.000000
137.031430 90.000000
145.066730 22.000000
150.043910 65.000000
151.042790 52.000000
151.058430 186.000000
152.063140 1000.000000
153.066070 172.000000
153.072850 111.000000
154.057020 24.000000
163.059390 23.000000
168.047960 22.000000
169.064070 76.000000
170.081910 31.000000
180.979840 38.000000
181.060170 101.000000
181.067980 23.000000
182.066250 59.000000
182.075270 27.000000
184.049290 35.000000
184.062650 32.000000
197.052550 26.000000
198.068470 23.000000
199.077800 42.000000
209.069090 27.000000
227.062880 27.000000

>ms2peaks
65.040690 38.000000
68.993420 33.000000
69.000300 58.000000
81.029140 17.000000
81.037930 26.000000
89.040480 29.000000
91.044250 18.000000
91.053330 237.000000
93.035970 20.000000
93.338870 26.000000
103.054340 32.000000
104.058000 28.000000
106.039990 19.000000
115.050700 70.000000
115.058170 35.000000
116.049570 37.000000
119.044530 69.000000
119.051320 136.000000
121.027710 65.000000
127.049390 24.000000
127.054770 36.000000
127.062290 76.000000
127.912210 17.000000
128.060750 279.000000
129.049550 26.000000
129.061900 48.000000
129.068660 88.000000
129.566100 30.000000
130.071990 42.000000
131.045990 22.000000
131.077620 54.000000
131.087100 86.000000
132.048080 37.000000
132.459760 20.000000
134.038240 26.000000
134.558670 18.000000
135.086870 21.000000
137.023360 1126.000000
138.031690 129.000000
139.019210 38.000000
139.024990 34.000000
141.069180 52.000000
141.077590 28.000000
143.054370 32.000000
143.085830 45.000000
144.996220 17.000000
145.004330 18.000000
145.027010 327.000000
147.038680 30.000000
149.007000 28.000000
149.017940 25.000000
149.026990 122.000000
149.038010 17.000000
150.024410 57.000000
151.055540 27.000000
152.004520 54.000000
152.049960 70.000000
152.061840 620.000000
153.065350 280.000000
153.072680 233.000000
153.117320 27.000000
154.073300 100.000000
156.042980 30.000000
157.005460 17.000000
157.041140 72.000000
157.065660 262.000000
158.069850 24.000000
159.072660 28.000000
163.899410 17.000000
165.068370 47.000000
166.674350 29.000000
169.062410 53.000000
170.046510 25.000000
170.074680 25.000000
171.073040 31.000000
171.082550 109.000000
172.075470 54.000000
172.092530 46.000000
175.042020 24.000000
178.815540 21.000000
180.054490 81.000000
180.062640 35.000000
181.040700 37.000000
181.055470 251.000000
181.065770 770.000000
181.837460 18.000000
182.049610 34.000000
182.068120 188.000000
183.073940 33.000000
183.586300 23.000000
184.029310 18.000000
184.052440 71.000000
184.060560 53.000000
185.057450 31.000000
185.064850 21.000000
191.697240 25.000000
195.040040 28.000000
197.056780 200.000000
197.069030 70.000000
198.052110 23.000000
198.065540 112.000000
199.050980 22.000000
199.075530 1207.000000
199.092270 40.000000
199.977420 18.000000
200.012220 65.000000
200.058760 50.000000
200.083270 291.000000
201.079320 37.000000
201.089800 64.000000
209.054000 54.000000
209.067150 20.000000
210.055950 21.000000
210.076000 33.000000
210.208540 78.000000
210.903260 40.000000
211.080110 31.000000
211.955290 17.000000
212.044680 38.000000
225.047730 17.000000
226.065950 97.000000
226.074110 35.000000
227.044950 23.000000
227.060070 88.000000
227.072980 499.000000
228.075390 119.000000
228.086260 48.000000
229.052840 30.000000
229.626080 17.000000
231.861800 27.000000
237.004910 26.000000
237.054820 362.000000
251.282440 17.000000
254.578170 18.000000
254.909130 25.000000
254.992610 20.000000
255.012220 73.000000
255.024460 93.000000
255.064990 19437.000000
255.096340 31.000000
255.114150 87.000000
255.193340 19.000000

