>compound PR45953427
>parentmass 911.4986
>ionization [M+H]+
>formula C47H74O17
>rt 471.000000
>profile qtof
#smiles_iso CC1C(C(C(C(O1)OC2C(C(COC2OC3C(C(C(OC3OC4CCC5(C(C4(C)CO)CCC6(C5CC=C7C6(CCC8(C7CC(CC8=O)(C)C)C)C)C)C)C(=O)O)O)O)O)O)O)O)O
#smiles_can CC1C(C(C(C(O1)OC2C(C(COC2OC3C(C(C(OC3OC4CCC5(C(C4(C)CO)CCC6(C5CC=C7C6(CCC8(C7CC(CC8=O)(C)C)C)C)C)C)C(=O)O)O)O)O)O)O)O)O
#inchikey ZNWGBWWXJAYIOM-UHFFFAOYSA-N
#pubchem_id 78178264
#mb_accession PR310668

>ms2peaks
82.071240 20.000000
90.443970 20.000000
109.108960 21.000000
129.053920 20.000000
147.063220 23.000000
149.136800 20.000000
177.163310 40.000000
191.179460 18.000000
207.174330 42.000000
213.165270 20.000000
215.180860 29.000000
219.172470 48.000000
224.168170 17.000000
225.067550 21.000000
227.188460 20.000000
231.180740 21.000000
233.150670 19.000000
243.089860 34.000000
245.194950 45.000000
274.061980 18.000000
279.096680 22.000000
279.205260 17.000000
287.084010 45.000000
301.261080 38.000000
305.079930 41.000000
305.090120 20.000000
305.350590 30.000000
309.087070 18.000000
323.084530 17.000000
350.979190 36.000000
366.217160 18.000000
381.310390 43.000000
382.297910 17.000000
403.336520 26.000000
421.283810 18.000000
421.335450 37.000000
421.345250 93.000000
422.342740 67.000000
439.321960 19.000000
439.355900 613.000000
440.363830 137.000000
441.355100 26.000000
455.108580 18.000000
457.380220 20.000000
457.402220 24.000000
458.367710 20.000000
531.369020 17.000000
551.403200 17.000000
561.371890 32.000000
590.410460 21.000000
597.248900 21.000000
597.413700 27.000000
598.345950 17.000000
598.401060 24.000000
599.375610 24.000000
599.394590 25.000000
604.412840 21.000000
615.383910 17.000000
616.394710 84.000000
633.356080 22.000000
633.407410 115.000000
634.365600 21.000000
634.398250 18.000000
634.427800 20.000000
658.788940 30.000000
735.435360 20.000000
736.456360 19.000000
748.443910 21.000000
761.420100 21.000000
765.429870 35.000000
766.402770 17.000000
767.442440 20.000000
779.412780 22.000000
779.438290 61.000000
779.504820 41.000000
780.469910 74.000000
781.482540 17.000000
857.457580 20.000000
893.449520 48.000000
893.520870 20.000000
909.228880 20.000000
911.445740 37.000000
911.480960 143.000000
911.504700 143.000000
911.570740 18.000000

