>compound PR45958037
>parentmass 435.1302
>ionization [M+H]+
>formula C21H22O10
>rt 182.400000
>profile qtof
#smiles_iso C1C(OC2=C(C(=CC(=C2C1=O)O)O)C3C(C(C(C(O3)CO)O)O)O)C4=CC=C(C=C4)O
#smiles_can C1C(OC2=C(C(=CC(=C2C1=O)O)O)C3C(C(C(C(O3)CO)O)O)O)C4=CC=C(C=C4)O
#inchikey VPQWOQSQAVBHEV-UHFFFAOYSA-N
#pubchem_id 23502663
#mb_accession PR311005

>ms2
137.020340 20.000000
175.025790 18.000000
178.083740 21.000000
182.981250 18.000000
189.051610 25.000000
195.091000 17.000000
207.138380 20.000000
224.073070 20.000000
229.124270 38.000000
239.061280 20.000000
240.107540 29.000000
241.089510 18.000000
241.103000 24.000000
251.079440 25.000000
253.064790 30.000000
254.599990 19.000000
255.075490 24.000000
267.064090 18.000000
269.081570 37.000000
273.071040 20.000000
273.084350 17.000000
274.079500 21.000000
287.083560 20.000000
288.097410 21.000000
295.098140 58.000000
297.074190 17.000000
298.084050 18.000000
307.014980 18.000000
315.087100 34.000000
323.095640 19.000000
325.109860 23.000000
335.090030 65.000000
341.111330 49.000000
371.103390 18.000000
375.070680 22.000000
381.098970 17.000000
389.077240 19.000000
389.122410 105.000000
390.135890 22.000000
391.120030 25.000000
399.111940 18.000000
417.133730 48.000000
420.181490 20.000000
435.123440 20.000000
435.139560 59.000000

