>compound PR45372700
>parentmass 884.501
>ionization [M+H]+
>formula C45H73NO16
>rt 277.200000
>profile qtof
#smiles_iso CC1CCC2(C(C3C(O2)CC4C3(CCC5C4CC=C6C5(CCC(C6)OC7C(C(C(C(O7)CO)O)OC8C(C(C(C(O8)CO)O)O)O)OC9C(C(C(C(O9)C)O)O)O)C)C)C)NC1
#smiles_can CC1CCC2(C(C3C(O2)CC4C3(CCC5C4CC=C6C5(CCC(C6)OC7C(C(C(C(O7)CO)O)OC8C(C(C(C(O8)CO)O)O)O)OC9C(C(C(C(O9)C)O)O)O)C)C)C)NC1
#inchikey QCTMYNGDIBTNSK-UHFFFAOYSA-N
#pubchem_id 537159
#mb_accession PR310713

>ms2peaks
185.125870 28.000000
257.099980 19.000000
286.261200 17.000000
293.125890 19.000000
341.254550 18.000000
341.308500 19.000000
368.307010 18.000000
396.327000 20.000000
396.345310 20.000000
397.313450 24.000000
397.329560 23.000000
398.326540 18.000000
411.281250 20.000000
412.319460 17.000000
412.337740 44.000000
413.313260 37.000000
429.310760 19.000000
502.448300 17.000000
549.949040 25.000000
555.589720 20.000000
557.339230 17.000000
720.114690 20.000000
720.424990 19.000000
846.438720 25.000000
866.419740 17.000000
868.503480 18.000000
869.323730 18.000000
883.366270 20.000000
883.458010 17.000000
883.523010 28.000000
884.402830 27.000000
884.500310 1593.000000

