>compound PR45640119
>parentmass 267.1379565846154
>ionization [M+H]+
>formula C18H18O2
>rt 552.369212
>profile qtof
#smiles_iso C=CCC1=CC(=C(C=C1)O)C2=C(C=CC(=C2)CC=C)O
#smiles_can C=CCC1=CC(=C(C=C1)O)C2=C(C=CC(=C2)CC=C)O
#inchikey VVOAZFWZEDHOOU-UHFFFAOYSA-N
#pubchem_id 72300
#mb_accession PR303553,PR303554,PR303555,PR303556,PR303557,PR303558,PR303559,PR303560,PR303561,PR303562,PR303563,PR303564,PR310518

>ms2peaks
89.787510 26.000000
119.075360 20.000000
121.028630 25.000000
127.051250 21.000000
143.087490 22.000000
144.053360 18.000000
152.057510 38.000000
153.070050 27.000000
154.073000 18.000000
156.090880 18.000000
165.052250 17.000000
166.078370 18.000000
169.066240 18.000000
177.083680 17.000000
177.573580 16.000000
178.078900 122.000000
179.085800 26.000000
181.062090 20.000000
183.068860 19.000000
183.089690 18.000000
190.061630 18.000000
190.072040 23.000000
191.084490 18.000000
193.103900 18.000000
194.068880 30.000000
194.077320 16.000000
196.077870 21.000000
196.089650 16.000000
197.052950 69.000000
197.060610 239.000000
197.107410 26.000000
202.083210 36.000000
205.103670 39.000000
206.070880 18.000000
206.120590 16.000000
207.044240 22.000000
207.079760 115.000000
207.677810 21.000000
209.094090 18.000000
210.068710 155.000000
211.074580 241.000000
211.090580 38.000000
211.118040 18.000000
212.075090 23.000000
215.079360 20.000000
219.084430 39.000000
219.397460 17.000000
221.087660 38.000000
221.129520 19.000000
223.077800 28.000000
223.099660 18.000000
224.081470 16.000000
225.092940 130.000000
226.062550 17.000000
226.086820 32.000000
226.100950 258.000000
227.102910 20.000000
228.030520 18.000000
232.102460 24.000000
237.090790 19.000000
237.106380 28.000000
238.095210 68.000000
239.102630 65.000000
240.112290 29.000000
240.137650 18.000000
241.118420 25.000000
247.107030 65.000000
249.127930 38.000000
250.091250 16.000000
250.100080 17.000000
260.936920 18.000000
265.112240 41.000000
265.128170 24.000000
266.021420 19.000000
266.098180 19.000000
266.121580 36.000000
266.131770 47.000000
266.142520 16.000000
267.091490 18.000000
267.114620 28.000000
267.137510 1000.000000

>ms2peaks
68.995970 5.000000
89.512430 9.000000
182.064540 5.000000
197.059280 6.000000
198.982880 6.000000
199.112520 5.000000
207.090620 5.000000
211.071240 16.000000
211.082280 7.000000
211.975280 7.000000
224.079090 12.000000
225.081070 17.000000
225.095720 33.000000
226.095080 60.000000
226.110920 7.000000
233.090940 5.000000
234.097550 5.000000
237.082600 15.000000
239.098560 31.000000
239.120320 10.000000
240.102840 8.000000
240.117020 6.000000
243.348750 5.000000
243.373170 6.000000
247.092180 5.000000
247.119370 5.000000
248.121120 23.000000
265.095090 7.000000
266.127380 108.000000
266.141850 39.000000
266.609650 6.000000
267.094820 6.000000
267.113070 17.000000
267.136170 1000.000000

>ms2peaks
55.054760 24.000000
107.049120 28.000000
119.048000 24.000000
129.069980 39.000000
133.063520 25.000000
139.049930 27.000000
141.069530 68.000000
144.047260 30.000000
151.054870 41.000000
152.069660 110.000000
153.070590 38.000000
154.088170 25.000000
157.063600 24.000000
165.072890 156.000000
166.064540 34.000000
167.086620 31.000000
168.080140 39.000000
169.066480 25.000000
169.108510 27.000000
175.262530 27.000000
176.065430 27.000000
178.069520 52.000000
178.080660 68.000000
178.085740 31.000000
179.055130 28.000000
179.076520 76.000000
179.087050 103.000000
180.110890 28.000000
181.065990 132.000000
182.072340 59.000000
183.082050 220.000000
183.095780 34.000000
184.077030 32.000000
184.088710 27.000000
185.105390 25.000000
186.108410 34.000000
189.069230 28.000000
190.078920 77.000000
191.082920 25.000000
193.068190 242.000000
193.103610 97.000000
194.068070 24.000000
194.079540 34.000000
195.072830 46.000000
195.090040 32.000000
196.091710 48.000000
196.100490 28.000000
197.038500 31.000000
197.052460 227.000000
197.061100 1000.000000
197.088270 51.000000
197.095080 30.000000
198.063960 186.000000
198.099040 25.000000
199.072430 37.000000
201.080550 38.000000
202.094390 42.000000
204.105680 25.000000
205.054640 24.000000
205.075090 45.000000
205.102400 25.000000
206.075390 28.000000
207.063520 58.000000
207.075620 128.000000
208.076510 35.000000
208.089890 68.000000
209.100460 24.000000
209.109600 24.000000
210.065000 192.000000
210.074870 103.000000
210.799610 28.000000
211.069530 354.000000
211.082500 72.000000
212.076170 103.000000
212.689530 25.000000
213.243030 27.000000
215.090500 24.000000
216.097150 24.000000
217.081010 25.000000
217.109010 45.000000
219.078960 131.000000
219.095290 25.000000
220.093220 28.000000
221.097260 208.000000
223.068240 30.000000
223.081130 25.000000
224.050340 24.000000
224.076050 55.000000
224.087010 48.000000
225.098910 48.000000
226.084690 25.000000
226.091980 28.000000
226.109820 121.000000
227.081650 41.000000
229.551730 25.000000
234.098890 25.000000
235.120680 25.000000
236.087190 39.000000
237.079620 32.000000
237.098530 32.000000
238.088520 28.000000
238.100780 92.000000
239.111480 25.000000
244.097530 28.000000
248.136120 28.000000

>ms2peaks
76.022720 114.000000
115.052160 127.000000
127.053680 232.000000
127.060750 232.000000
129.069400 77.000000
130.629150 109.000000
139.054050 82.000000
141.071270 300.000000
141.076460 127.000000
143.042600 95.000000
151.058720 318.000000
152.059780 305.000000
153.072240 77.000000
153.279770 95.000000
154.035860 91.000000
155.055240 259.000000
164.070070 82.000000
165.060650 105.000000
165.071760 1000.000000
165.084720 132.000000
166.068150 82.000000
166.074170 86.000000
167.082210 82.000000
178.072660 109.000000
178.080410 268.000000
179.052510 100.000000
179.097380 136.000000
181.063290 200.000000
182.046880 95.000000
189.044710 95.000000
189.072770 195.000000
190.085740 82.000000
192.060300 100.000000
194.066380 145.000000
195.075780 177.000000
197.065690 200.000000
198.066280 136.000000
202.068080 127.000000
203.075450 186.000000
203.086520 123.000000
205.081420 173.000000
206.064500 82.000000
206.076970 127.000000
207.076860 100.000000
209.054570 77.000000
216.086500 114.000000
218.074710 109.000000
219.083300 209.000000
219.089360 105.000000
224.085190 186.000000
228.090260 150.000000
233.087600 86.000000

>ms2peaks
73.039820 20.000000
107.047550 18.000000
129.070530 23.000000
131.045970 21.000000
132.055240 25.000000
153.070100 18.000000
165.068790 96.000000
167.069060 18.000000
169.060060 35.000000
170.069290 21.000000
178.072660 23.000000
178.082930 37.000000
181.060850 20.000000
182.072250 44.000000
182.080600 28.000000
182.110150 16.000000
183.079530 27.000000
183.086640 20.000000
191.090840 41.000000
193.051940 16.000000
193.105060 15.000000
195.086490 20.000000
196.082430 17.000000
197.055770 175.000000
197.063400 222.000000
197.079390 18.000000
197.091960 39.000000
198.063800 16.000000
198.101940 15.000000
201.070160 16.000000
202.416720 24.000000
203.089710 17.000000
204.102220 21.000000
205.067380 18.000000
205.103740 16.000000
206.074890 15.000000
206.107410 17.000000
207.077760 40.000000
207.088380 25.000000
210.063170 90.000000
210.071530 31.000000
210.101100 20.000000
211.075260 124.000000
211.086810 29.000000
212.079900 22.000000
215.091280 22.000000
216.078220 15.000000
217.099180 17.000000
218.083620 18.000000
219.068770 19.000000
219.090160 61.000000
220.091340 25.000000
221.089770 31.000000
221.096020 68.000000
223.073410 29.000000
223.110310 24.000000
224.113920 15.000000
225.082990 55.000000
225.092090 114.000000
226.074660 19.000000
226.090040 75.000000
226.101000 170.000000
231.071850 19.000000
234.073040 16.000000
234.111630 15.000000
238.015410 24.000000
238.098480 20.000000
239.104030 236.000000
247.105180 40.000000
248.115860 18.000000
248.129060 19.000000
249.101500 27.000000
250.127550 21.000000
250.925220 22.000000
251.118000 18.000000
252.115340 44.000000
265.126620 48.000000
266.124020 123.000000
266.134860 50.000000
266.149570 42.000000
267.134160 1000.000000

>ms2peaks
132.053850 6.000000
139.991820 6.000000
150.934110 7.000000
157.071180 5.000000
176.498310 5.000000
178.841130 5.000000
197.057390 18.000000
198.051990 6.000000
207.083710 9.000000
207.093960 6.000000
208.089610 7.000000
209.201000 7.000000
210.064120 12.000000
211.065550 8.000000
215.076750 8.000000
225.086980 17.000000
225.096530 45.000000
226.085660 11.000000
226.095260 52.000000
226.108640 11.000000
226.193910 5.000000
226.635040 10.000000
227.098740 12.000000
228.110120 7.000000
237.093720 14.000000
237.457230 6.000000
238.096790 5.000000
238.110350 5.000000
240.095060 13.000000
242.122330 6.000000
248.112210 7.000000
248.126190 22.000000
251.097260 6.000000
251.109070 6.000000
251.121460 5.000000
252.124740 9.000000
253.693830 8.000000
265.109530 6.000000
265.129700 6.000000
266.090270 7.000000
266.100710 7.000000
266.123960 92.000000
266.135560 61.000000
266.193760 6.000000
267.138670 1000.000000
267.168550 5.000000

>ms2peaks
56.020650 57.000000
105.080150 48.000000
118.045540 39.000000
128.056110 50.000000
129.072010 105.000000
133.068680 46.000000
141.066990 87.000000
147.079790 39.000000
153.060420 55.000000
153.068070 50.000000
154.072220 43.000000
156.057450 39.000000
159.079680 57.000000
165.069460 146.000000
166.075740 249.000000
170.062480 43.000000
170.076340 50.000000
178.069550 121.000000
178.080220 43.000000
179.083590 269.000000
179.097700 82.000000
180.082290 46.000000
181.072560 82.000000
182.066500 135.000000
183.071090 96.000000
183.079270 189.000000
183.087720 46.000000
184.076770 48.000000
189.070540 112.000000
190.077850 46.000000
191.078190 46.000000
192.047470 41.000000
193.049770 48.000000
193.065520 100.000000
193.073090 48.000000
193.102970 39.000000
195.082340 121.000000
196.087510 153.000000
197.058670 1000.000000
197.069200 215.000000
197.839940 41.000000
198.066960 105.000000
199.068740 39.000000
202.140520 46.000000
203.082980 57.000000
204.098160 71.000000
205.093050 39.000000
206.076220 144.000000
206.108120 39.000000
207.080570 146.000000
207.094510 57.000000
209.074860 62.000000
209.090670 146.000000
209.097790 114.000000
210.048680 100.000000
210.058270 110.000000
210.067180 130.000000
210.078140 89.000000
211.064760 144.000000
211.075990 434.000000
212.087880 46.000000
215.072450 48.000000
219.075850 84.000000
220.083080 43.000000
221.092940 137.000000
222.072810 50.000000
222.103590 39.000000
223.057460 91.000000
223.074130 205.000000
224.059220 91.000000
224.077710 82.000000
224.087340 167.000000
225.079830 137.000000
226.110170 50.000000
228.113860 41.000000
229.104710 43.000000
232.095210 57.000000
233.097920 105.000000
234.093320 46.000000
235.090300 48.000000
237.094510 64.000000
237.118070 39.000000
239.109240 100.000000
242.897290 50.000000
247.118700 39.000000
265.126920 41.000000
267.137270 46.000000

>ms2peaks
103.056410 168.000000
115.051640 145.000000
115.058930 151.000000
127.057150 95.000000
128.059080 732.000000
129.067180 151.000000
141.066680 425.000000
141.076310 279.000000
150.043060 112.000000
151.048460 207.000000
152.056120 190.000000
152.063350 514.000000
153.069720 212.000000
153.079910 196.000000
155.077120 101.000000
164.059940 341.000000
164.070100 134.000000
165.055250 151.000000
165.068500 1000.000000
166.074220 123.000000
167.085600 291.000000
168.058490 101.000000
170.066790 112.000000
176.047670 156.000000
176.060070 112.000000
176.067000 123.000000
177.068190 117.000000
178.075730 665.000000
178.085340 464.000000
179.086990 330.000000
181.038470 101.000000
181.065400 441.000000
182.064330 229.000000
183.065720 134.000000
189.066800 324.000000
190.075970 369.000000
191.083830 207.000000
191.090710 201.000000
194.074600 128.000000
195.085690 95.000000
205.064910 134.000000
207.058460 168.000000
219.077590 140.000000

>ms2peaks
105.067820 48.000000
117.069150 30.000000
141.054670 20.000000
141.064380 16.000000
152.062270 26.000000
165.073940 87.000000
165.090040 19.000000
166.070500 24.000000
166.085360 18.000000
169.063830 83.000000
171.090590 17.000000
178.074870 47.000000
178.085750 59.000000
179.086870 42.000000
179.091450 21.000000
181.047260 17.000000
181.061050 26.000000
183.062070 21.000000
183.084340 18.000000
184.054380 36.000000
191.080050 24.000000
193.090760 19.000000
197.053020 160.000000
197.062500 175.000000
198.055530 37.000000
202.224040 22.000000
205.095340 19.000000
206.071960 42.000000
207.079320 67.000000
207.089600 33.000000
208.092160 26.000000
209.093930 44.000000
210.064790 90.000000
210.077190 18.000000
210.113300 18.000000
211.070430 114.000000
211.105210 18.000000
212.080370 73.000000
212.096050 16.000000
215.080120 22.000000
217.087190 18.000000
219.060390 29.000000
219.079570 57.000000
221.100770 40.000000
221.124850 17.000000
223.076320 54.000000
223.112440 22.000000
224.079880 22.000000
225.090900 251.000000
226.099240 276.000000
227.098180 26.000000
227.111050 41.000000
233.096540 19.000000
234.111570 18.000000
235.083070 23.000000
236.075790 32.000000
237.095580 19.000000
239.103990 186.000000
239.141630 16.000000
242.360860 16.000000
247.115480 58.000000
248.129000 16.000000
249.122440 19.000000
252.115710 19.000000
265.100160 28.000000
265.112490 17.000000
265.126830 22.000000
266.108920 19.000000
266.128080 114.000000
266.140620 23.000000
267.103760 17.000000
267.138430 1000.000000

>ms2peaks
197.053760 16.000000
197.063390 8.000000
199.043180 6.000000
200.295760 8.000000
207.079730 6.000000
211.080140 16.000000
213.847180 7.000000
224.082890 5.000000
225.077410 12.000000
225.095400 61.000000
226.095780 71.000000
227.099820 20.000000
227.112460 5.000000
234.095230 8.000000
237.098690 10.000000
239.097870 38.000000
239.109950 24.000000
240.111540 24.000000
248.108890 6.000000
248.114720 11.000000
248.125030 7.000000
249.120470 9.000000
251.096730 11.000000
265.118440 11.000000
266.129670 103.000000
266.143920 32.000000
267.137970 1000.000000

>ms2peaks
67.997890 38.000000
96.051140 25.000000
105.059270 24.000000
105.069900 19.000000
106.046150 27.000000
111.023650 27.000000
112.022740 31.000000
128.062640 22.000000
133.086460 38.000000
141.069310 40.000000
143.046570 25.000000
146.656940 23.000000
147.071840 23.000000
152.069080 27.000000
153.068470 73.000000
154.066600 24.000000
154.080340 46.000000
159.076660 41.000000
165.058140 36.000000
165.068910 164.000000
165.821460 27.000000
166.059420 31.000000
166.080080 33.000000
167.073010 19.000000
168.060970 36.000000
168.067050 20.000000
169.055630 57.000000
169.066650 40.000000
171.079160 33.000000
177.065350 27.000000
178.062530 57.000000
178.078220 44.000000
178.661990 19.000000
179.078960 122.000000
179.088760 32.000000
180.083080 39.000000
180.097320 25.000000
181.041320 29.000000
181.061390 46.000000
181.070970 46.000000
181.093920 24.000000
182.061290 27.000000
182.079820 85.000000
182.099720 22.000000
183.076020 222.000000
183.087520 83.000000
185.097150 51.000000
190.068190 29.000000
191.095520 66.000000
193.064100 66.000000
193.091190 23.000000
193.108830 20.000000
194.078320 25.000000
195.085800 23.000000
197.060970 1000.000000
197.094790 144.000000
197.647740 24.000000
198.050000 22.000000
198.059860 132.000000
198.067580 73.000000
198.087660 39.000000
198.102450 52.000000
199.068680 53.000000
203.077320 29.000000
203.084780 39.000000
203.107280 24.000000
205.054930 20.000000
206.077240 44.000000
207.082030 241.000000
207.092650 55.000000
208.077610 19.000000
208.089750 25.000000
208.106250 33.000000
209.088390 21.000000
210.060390 87.000000
210.074480 87.000000
211.021670 21.000000
211.051450 22.000000
211.074390 586.000000
211.110790 22.000000
212.067060 24.000000
212.081450 19.000000
212.093400 39.000000
213.207410 22.000000
216.077870 25.000000
216.099380 19.000000
216.110690 20.000000
218.085050 31.000000
219.075680 20.000000
219.085680 93.000000
220.085140 109.000000
221.061100 23.000000
221.108690 95.000000
222.100160 38.000000
223.064040 32.000000
223.080550 164.000000
223.578200 32.000000
224.086320 111.000000
224.119950 26.000000
224.165790 19.000000
225.086200 50.000000
226.051280 26.000000
226.088320 55.000000
226.104220 110.000000
227.095210 66.000000
227.114530 20.000000
232.084270 29.000000
232.093080 19.000000
233.092180 24.000000
233.108060 24.000000
234.099820 20.000000
235.072680 48.000000
235.111340 26.000000
236.081600 39.000000
237.078160 26.000000
237.096500 24.000000
238.103270 26.000000
239.055880 19.000000
239.107280 151.000000
239.667970 20.000000
240.104610 24.000000
247.117160 20.000000
248.072010 20.000000
248.116780 28.000000
250.079790 19.000000
250.108870 22.000000
267.123660 28.000000
267.135620 20.000000

>ms2peaks
91.054470 222.000000
115.047060 65.000000
115.051240 180.000000
116.053990 88.000000
127.061070 153.000000
128.066880 73.000000
129.078570 77.000000
132.061310 69.000000
139.056960 111.000000
140.066180 176.000000
141.069340 280.000000
151.054960 303.000000
152.061460 479.000000
153.065020 69.000000
154.072420 314.000000
155.045320 88.000000
156.087950 92.000000
164.059370 69.000000
165.039110 65.000000
165.067490 1000.000000
166.068500 84.000000
166.079210 142.000000
169.062070 176.000000
169.067200 96.000000
176.061430 153.000000
177.051360 69.000000
177.072590 157.000000
177.375310 84.000000
178.051410 77.000000
178.071620 226.000000
178.080120 391.000000
179.037950 88.000000
181.068330 264.000000
182.068270 73.000000
183.074870 84.000000
189.069260 375.000000
191.076920 142.000000
192.089860 100.000000
193.066930 88.000000
195.046200 96.000000
195.083150 69.000000
197.062390 80.000000
200.011990 65.000000
202.074540 100.000000
202.083310 195.000000
203.085630 77.000000
205.064590 192.000000
206.059830 69.000000
206.076550 65.000000
206.088380 65.000000
207.073880 96.000000
209.069120 96.000000
210.056810 77.000000
211.072310 107.000000
214.065990 84.000000
215.079470 88.000000
218.075940 169.000000
220.099410 84.000000
228.105990 126.000000
235.078110 65.000000

>ms2peaks
89.787510 28.000000
119.075360 22.000000
121.028630 27.000000
127.051250 23.000000
143.087490 24.000000
144.053360 20.000000
152.057510 41.000000
153.070050 29.000000
154.073000 20.000000
156.090880 20.000000
165.052250 18.000000
166.078370 20.000000
169.066240 20.000000
177.083680 18.000000
177.573580 17.000000
178.078900 132.000000
179.085800 28.000000
181.062090 22.000000
183.068860 21.000000
183.089690 20.000000
190.061630 19.000000
190.072040 25.000000
191.084490 19.000000
193.103900 20.000000
194.068880 33.000000
194.077320 17.000000
196.077870 23.000000
196.089650 17.000000
197.052950 75.000000
197.060610 259.000000
197.107410 28.000000
202.083210 39.000000
205.103670 42.000000
206.070880 20.000000
206.120590 17.000000
207.044240 24.000000
207.079760 125.000000
207.677810 23.000000
209.094090 20.000000
210.068710 168.000000
211.074580 262.000000
211.090580 41.000000
211.118040 20.000000
212.075090 25.000000
215.079360 22.000000
219.084430 42.000000
219.397460 18.000000
221.087660 41.000000
221.129520 21.000000
223.077800 30.000000
223.099660 20.000000
224.081470 17.000000
225.092940 141.000000
226.062550 18.000000
226.086820 35.000000
226.100950 280.000000
227.102910 22.000000
228.030520 20.000000
232.102460 26.000000
237.090790 21.000000
237.106380 30.000000
238.095210 74.000000
239.102630 70.000000
240.112290 31.000000
240.137650 20.000000
241.118420 27.000000
247.107030 71.000000
249.127930 41.000000
250.091250 17.000000
250.100080 18.000000
260.936920 20.000000
265.112240 44.000000
265.128170 26.000000
266.021420 21.000000
266.098180 21.000000
266.121580 39.000000
266.131770 51.000000
266.142520 17.000000
267.091490 19.000000
267.114620 30.000000
267.137510 1085.000000

