>compound PR45868057
>parentmass 431.0982
>ionization [M+H]+
>formula C21H18O10
>rt 262.800000
>profile qtof
#smiles_iso C1=CC2=C(C=C1O)OC3=C2C(=O)OC4=C3C=CC(=C4)OC5C(C(C(C(O5)CO)O)O)O
#smiles_can C1=CC2=C(C=C1O)OC3=C2C(=O)OC4=C3C=CC(=C4)OC5C(C(C(C(O5)CO)O)O)O
#inchikey JSKGNHCHUPJTOQ-UHFFFAOYSA-N
#pubchem_id 74977392
#mb_accession PR311076

>ms2peaks
96.043330 20.000000
152.700320 18.000000
159.094410 30.000000
197.062870 94.000000
198.060820 20.000000
208.050160 20.000000
213.053790 64.000000
241.051560 123.000000
269.015050 21.000000
269.040530 740.000000
269.053770 137.000000
270.035830 60.000000
270.050170 125.000000
271.046330 19.000000
272.057830 19.000000
413.217250 20.000000
430.280210 54.000000
431.093930 392.000000
431.113370 184.000000

