>compound PR45659171
>parentmass 295.18048981538465
>ionization [M+H]+
>formula C19H22N2O
>rt 278.904905
>profile qtof
#smiles_iso CCC12CCCN3C1C4=C(CC3)C5=CC=CC=C5N4C(=O)C2
#smiles_can CCC12CCCN3C1C4=C(CC3)C5=CC=CC=C5N4C(=O)C2
#inchikey WYJAPUKIYAZSEM-UHFFFAOYSA-N
#pubchem_id 3195
#mb_accession PR301496,PR301500,PR301504,PR301507,PR301511,PR301515,PR301519,PR301523,PR301527,PR301531,PR301535,PR301538,PR310568

>ms2peaks
84.081600 13.000000
144.080720 23.000000
150.091950 6.000000
152.107010 11.000000
168.078610 12.000000
180.078980 8.000000
181.082750 5.000000
182.093600 9.000000
195.103470 11.000000
196.067230 7.000000
196.077880 9.000000
197.082690 19.000000
198.123810 5.000000
208.111310 5.000000
209.117580 5.000000
210.128360 8.000000
212.104570 7.000000
222.091400 12.000000
223.094240 13.000000
223.104050 8.000000
224.107380 14.000000
224.132170 18.000000
225.116470 16.000000
226.116680 15.000000
226.128310 13.000000
235.098300 7.000000
236.105330 11.000000
237.109470 9.000000
238.120990 97.000000
239.124440 13.000000
239.133610 6.000000
249.115220 10.000000
252.138570 28.000000
253.137990 5.000000
253.163530 21.000000
253.173250 18.000000
254.171310 6.000000
264.133510 13.000000
264.146150 6.000000
266.153690 56.000000
267.153110 11.000000
267.163450 11.000000
295.180480 1000.000000
295.230380 29.000000

>ms2peaks
266.155580 6.000000
295.181760 1000.000000
295.230990 35.000000

>ms2peaks
67.055540 7.000000
70.065620 61.000000
79.051040 6.000000
81.070690 11.000000
82.066470 16.000000
83.073380 19.000000
84.081620 128.000000
85.085390 9.000000
91.052860 7.000000
93.070210 11.000000
95.086080 19.000000
96.080250 6.000000
98.097210 12.000000
105.067880 11.000000
107.071240 8.000000
107.087150 16.000000
108.083210 7.000000
109.067470 19.000000
109.079770 6.000000
111.069000 6.000000
111.074530 8.000000
111.103610 5.000000
117.065090 11.000000
119.089100 10.000000
120.078440 7.000000
121.067030 29.000000
121.090870 7.000000
122.055060 10.000000
122.069790 5.000000
122.096650 36.000000
123.077850 11.000000
123.083560 8.000000
124.076030 45.000000
124.113810 27.000000
129.066830 8.000000
129.072920 6.000000
130.065030 31.000000
131.058880 7.000000
131.076350 27.000000
132.070890 7.000000
132.084030 27.000000
132.091490 6.000000
133.066770 22.000000
134.062810 5.000000
134.095960 7.000000
134.102630 8.000000
135.083740 10.000000
138.087710 13.000000
139.091350 6.000000
141.071730 7.000000
143.075040 7.000000
144.044010 6.000000
144.081570 229.000000
145.084730 21.000000
146.093050 12.000000
146.100160 11.000000
147.080000 10.000000
150.092680 33.000000
151.096680 8.000000
152.105450 73.000000
152.115710 14.000000
153.114820 5.000000
154.066090 18.000000
156.083450 10.000000
158.055590 18.000000
158.091930 21.000000
158.100200 17.000000
159.103960 6.000000
164.113220 6.000000
167.067540 15.000000
167.075850 10.000000
168.075290 30.000000
168.083010 57.000000
168.089550 17.000000
169.079120 11.000000
169.087220 9.000000
169.094540 9.000000
169.102370 6.000000
170.061290 11.000000
170.080900 8.000000
170.092270 10.000000
170.102630 14.000000
171.091320 9.000000
171.108180 6.000000
172.077590 5.000000
172.091950 7.000000
172.110280 16.000000
172.116870 9.000000
180.079100 43.000000
181.084210 20.000000
181.092820 48.000000
182.066540 10.000000
182.090650 32.000000
182.100420 52.000000
183.101430 23.000000
183.110840 6.000000
184.067990 11.000000
184.078490 41.000000
184.108430 38.000000
185.087590 6.000000
185.105450 5.000000
185.116620 5.000000
186.096650 7.000000
193.082430 11.000000
193.090290 14.000000
194.096390 73.000000
195.102200 74.000000
196.072780 24.000000
196.081280 55.000000
196.105070 34.000000
196.118330 43.000000
197.074140 58.000000
197.084140 208.000000
197.115020 20.000000
198.089900 56.000000
198.103130 12.000000
198.130040 62.000000
198.138580 15.000000
199.086360 14.000000
199.128480 12.000000
199.140340 8.000000
206.096820 20.000000
207.103380 38.000000
207.115420 9.000000
208.073200 14.000000
208.100160 26.000000
208.112090 61.000000
209.075740 6.000000
209.087070 10.000000
209.098510 12.000000
209.109760 14.000000
209.125550 42.000000
210.090350 107.000000
210.128330 70.000000
211.087480 5.000000
211.101870 56.000000
211.127270 7.000000
212.094640 6.000000
212.108900 43.000000
212.119630 13.000000
213.108410 7.000000
220.062810 6.000000
220.077620 12.000000
220.122060 6.000000
221.122220 15.000000
222.089040 89.000000
222.113310 8.000000
222.132800 40.000000
223.098080 270.000000
223.112030 56.000000
223.141190 6.000000
224.077220 7.000000
224.087200 16.000000
224.105730 85.000000
224.132920 232.000000
225.114730 172.000000
225.133150 54.000000
225.156040 7.000000
226.122680 242.000000
226.157010 5.000000
227.110730 6.000000
227.127120 47.000000
229.142060 5.000000
234.091130 30.000000
234.116990 6.000000
235.090300 27.000000
235.101170 60.000000
236.092120 13.000000
236.109940 76.000000
236.131480 17.000000
236.138640 34.000000
236.150070 49.000000
237.098820 21.000000
237.113770 191.000000
237.131030 22.000000
237.148830 6.000000
238.086850 7.000000
238.098950 23.000000
238.123470 1000.000000
238.161300 50.000000
239.122300 150.000000
239.136140 51.000000
239.160320 9.000000
239.173280 12.000000
240.125320 18.000000
240.139940 15.000000
248.111560 47.000000
248.128620 11.000000
248.140820 11.000000
248.156400 5.000000
249.115910 157.000000
250.121860 31.000000
250.153870 17.000000
251.119720 21.000000
251.136080 15.000000
252.110170 8.000000
252.138320 235.000000
253.115110 5.000000
253.146300 39.000000
253.163180 61.000000
253.175490 68.000000
254.173630 12.000000
254.185490 6.000000
263.131010 15.000000
263.142000 6.000000
264.128300 44.000000
264.143280 78.000000
265.132020 21.000000
265.152470 16.000000
266.147830 207.000000
266.160980 107.000000
266.177520 5.000000
267.151280 27.000000
267.161350 55.000000
268.170140 8.000000
268.178860 6.000000
278.143430 15.000000
278.159000 22.000000
279.167910 5.000000
295.180420 334.000000

>ms2peaks
53.038760 11.000000
55.053300 9.000000
55.055670 21.000000
67.053730 21.000000
67.058970 16.000000
68.049420 27.000000
68.057920 19.000000
70.064340 21.000000
77.038670 38.000000
78.045360 39.000000
79.056400 90.000000
80.050000 18.000000
80.056400 22.000000
81.058690 28.000000
82.058360 10.000000
82.064310 33.000000
83.048940 9.000000
83.069540 9.000000
84.068410 11.000000
84.077950 16.000000
84.085450 80.000000
91.043980 11.000000
91.049140 36.000000
91.056050 86.000000
91.061260 27.000000
93.052990 27.000000
93.062090 23.000000
93.077420 9.000000
94.029340 14.000000
94.059740 11.000000
94.062970 30.000000
95.065030 15.000000
95.081780 22.000000
95.089290 54.000000
96.082420 42.000000
97.085400 17.000000
102.040760 14.000000
103.062900 14.000000
104.042500 10.000000
104.067590 12.000000
104.886500 10.000000
105.031140 17.000000
105.039490 11.000000
105.068340 11.000000
105.074870 42.000000
106.042690 11.000000
106.068160 16.000000
107.042710 11.000000
107.077260 15.000000
107.086330 19.000000
108.051920 9.000000
108.078480 67.000000
109.059590 13.000000
110.101170 33.000000
111.081990 15.000000
112.120710 10.000000
113.081470 11.000000
115.042080 15.000000
115.055210 83.000000
115.065930 11.000000
116.048520 12.000000
116.060170 20.000000
117.059170 77.000000
117.073070 31.000000
117.078700 14.000000
118.059880 33.000000
118.068890 18.000000
118.083790 11.000000
119.073100 11.000000
120.046180 13.000000
120.059840 20.000000
120.071340 16.000000
120.371730 11.000000
121.066260 10.000000
122.057880 23.000000
122.096800 12.000000
123.004080 9.000000
123.107920 15.000000
124.072300 10.000000
124.080790 43.000000
124.088770 20.000000
124.109190 13.000000
124.114860 26.000000
127.039490 11.000000
127.052200 10.000000
127.060200 9.000000
128.051040 74.000000
128.061660 60.000000
129.060320 47.000000
129.071840 59.000000
130.065550 162.000000
130.082430 11.000000
130.938750 10.000000
131.070790 44.000000
131.078980 57.000000
132.084240 52.000000
133.074400 15.000000
133.087800 15.000000
134.060730 21.000000
134.089310 12.000000
134.097600 16.000000
135.085300 10.000000
139.037950 15.000000
139.060200 9.000000
140.060240 10.000000
141.062410 22.000000
141.071140 37.000000
142.062930 9.000000
142.075120 13.000000
142.253220 9.000000
143.069310 60.000000
143.077000 110.000000
143.089540 12.000000
144.048260 11.000000
144.081310 197.000000
144.089720 41.000000
144.099460 10.000000
145.086060 15.000000
146.054430 11.000000
146.086990 23.000000
147.072130 12.000000
150.088260 16.000000
150.093960 9.000000
152.054370 14.000000
152.102250 12.000000
153.056880 9.000000
153.066540 37.000000
153.078060 10.000000
153.639110 10.000000
154.062520 114.000000
154.074020 59.000000
155.063770 26.000000
155.072330 57.000000
155.091450 17.000000
156.079500 109.000000
157.085830 85.000000
157.094440 20.000000
158.060790 18.000000
158.090650 17.000000
159.060130 9.000000
160.109530 9.000000
163.643040 10.000000
164.050170 13.000000
165.065220 28.000000
165.072770 48.000000
166.060900 64.000000
166.077360 10.000000
167.008000 13.000000
167.044620 18.000000
167.057010 22.000000
167.075450 771.000000
167.438280 10.000000
168.061020 19.000000
168.081330 866.000000
168.120420 15.000000
168.554550 10.000000
169.066390 10.000000
169.087230 180.000000
169.872360 10.000000
170.052410 18.000000
170.062790 25.000000
170.072480 9.000000
170.098950 36.000000
171.113600 13.000000
173.454790 11.000000
174.125920 10.000000
176.056300 15.000000
177.067600 13.000000
178.072950 24.000000
178.079510 40.000000
179.058960 11.000000
179.070850 32.000000
179.086780 29.000000
180.058010 10.000000
180.080520 1000.000000
181.076680 105.000000
181.086850 375.000000
181.105480 31.000000
181.240230 12.000000
182.063280 51.000000
182.074040 12.000000
182.095500 129.000000
182.112980 12.000000
182.426820 10.000000
183.063740 18.000000
183.095410 28.000000
183.106200 10.000000
184.070830 19.000000
184.076640 14.000000
184.108700 13.000000
185.079730 13.000000
191.042080 9.000000
191.075030 44.000000
192.067400 33.000000
192.079320 156.000000
193.070220 13.000000
193.089970 247.000000
194.052140 12.000000
194.078380 10.000000
194.097670 777.000000
195.057310 11.000000
195.072970 18.000000
195.083340 36.000000
195.101300 361.000000
196.076320 367.000000
196.111820 94.000000
196.425740 9.000000
196.763980 15.000000
197.086670 96.000000
197.097760 39.000000
197.122760 12.000000
198.088760 60.000000
198.129850 9.000000
199.211640 9.000000
203.048050 11.000000
204.085070 116.000000
205.083420 59.000000
205.092450 65.000000
206.086030 62.000000
206.097460 167.000000
207.044780 9.000000
207.071870 42.000000
207.083970 22.000000
207.102810 164.000000
207.118450 14.000000
208.041150 10.000000
208.054890 11.000000
208.080580 84.000000
208.110500 192.000000
208.132400 9.000000
208.176700 10.000000
209.067580 23.000000
209.086820 143.000000
209.106870 25.000000
209.114240 44.000000
209.125210 49.000000
209.852010 9.000000
210.071180 23.000000
210.089510 208.000000
210.113860 9.000000
210.133470 70.000000
210.144970 13.000000
210.516880 11.000000
211.093660 55.000000
211.392490 9.000000
212.103350 9.000000
217.064880 18.000000
217.091900 13.000000
218.098420 22.000000
218.109020 28.000000
218.677080 12.000000
219.098020 25.000000
219.105420 9.000000
220.041180 16.000000
220.074810 45.000000
220.088960 25.000000
220.106840 68.000000
220.116940 19.000000
220.132520 13.000000
221.065510 9.000000
221.076860 40.000000
221.086780 11.000000
221.098920 13.000000
221.120640 52.000000
222.040120 11.000000
222.064830 10.000000
222.089110 215.000000
222.099980 224.000000
222.130520 25.000000
223.098180 204.000000
223.123180 154.000000
223.135960 28.000000
224.111570 354.000000
224.143250 38.000000
225.110900 55.000000
225.127520 69.000000
229.084090 11.000000
230.091600 9.000000
231.093370 19.000000
232.108860 12.000000
233.084690 22.000000
234.078540 9.000000
234.094210 93.000000
234.119280 9.000000
235.011600 9.000000
235.078570 21.000000
235.112780 26.000000
235.125640 10.000000
236.079940 46.000000
236.101930 144.000000
236.115310 163.000000
236.193360 11.000000
237.101200 15.000000
237.113170 73.000000
237.137890 10.000000
238.124690 112.000000
248.102810 15.000000
248.116070 23.000000
249.110140 16.000000
249.120390 8.000000
249.141110 9.000000
250.099060 19.000000
250.116670 9.000000
252.133560 23.000000
252.146030 31.000000
262.132690 10.000000
263.015470 9.000000
264.111760 9.000000
279.154940 11.000000

>ms2peaks
70.067120 6.000000
84.081790 11.000000
144.081740 18.000000
152.106870 12.000000
168.080170 10.000000
180.080440 7.000000
181.087220 9.000000
194.095290 9.000000
195.104450 10.000000
196.075990 13.000000
197.082380 21.000000
208.114240 7.000000
209.117250 6.000000
210.093690 12.000000
210.127400 9.000000
211.093780 5.000000
222.092910 12.000000
223.099060 28.000000
224.106660 13.000000
224.125340 10.000000
224.139450 9.000000
225.112580 11.000000
226.123830 21.000000
227.127660 7.000000
235.099980 11.000000
236.141560 6.000000
237.114930 12.000000
238.121840 92.000000
238.157650 6.000000
239.127110 24.000000
249.114870 12.000000
252.137470 31.000000
253.141390 7.000000
253.164460 19.000000
253.176100 13.000000
254.173650 6.000000
264.138610 21.000000
266.154020 58.000000
267.157230 17.000000
295.181090 1000.000000
295.230070 32.000000

>ms2peaks
295.182070 1000.000000
295.230900 37.000000

>ms2peaks
67.053620 5.000000
70.065630 56.000000
82.068250 8.000000
82.079200 5.000000
83.074970 41.000000
84.081580 85.000000
93.069410 13.000000
93.075720 6.000000
94.061490 7.000000
95.087070 16.000000
98.097490 15.000000
105.070620 20.000000
107.084370 21.000000
110.093830 8.000000
111.082830 13.000000
112.107400 7.000000
112.114500 11.000000
115.053500 5.000000
117.061700 14.000000
117.071850 11.000000
119.086550 12.000000
121.063900 15.000000
121.103210 5.000000
122.058270 13.000000
122.091480 16.000000
122.099020 24.000000
123.082080 15.000000
124.076160 59.000000
124.084090 10.000000
124.114430 25.000000
127.055630 6.000000
130.061810 20.000000
130.067810 14.000000
131.065950 9.000000
131.074660 32.000000
132.081410 49.000000
133.058760 9.000000
133.065460 15.000000
133.087140 7.000000
134.100690 19.000000
135.080720 9.000000
136.111310 8.000000
138.088900 25.000000
142.069430 5.000000
143.075450 5.000000
144.081740 224.000000
145.070080 5.000000
145.079560 25.000000
145.093720 5.000000
146.093280 21.000000
146.102170 11.000000
150.079930 5.000000
150.092380 51.000000
150.099410 12.000000
152.091840 12.000000
152.107160 91.000000
153.101320 8.000000
153.116440 7.000000
154.061630 9.000000
156.081190 29.000000
157.083920 7.000000
157.099490 10.000000
158.067120 12.000000
158.097530 33.000000
162.090840 7.000000
167.067490 7.000000
167.075900 8.000000
168.078280 32.000000
168.088100 20.000000
169.088100 41.000000
170.060930 11.000000
170.098460 26.000000
170.108990 6.000000
171.089740 9.000000
172.075940 17.000000
172.108170 11.000000
172.119710 12.000000
180.083560 55.000000
181.085430 39.000000
181.094500 55.000000
182.060780 9.000000
182.081270 5.000000
182.093750 64.000000
182.103200 22.000000
183.068410 7.000000
183.086590 12.000000
183.099950 9.000000
183.110900 15.000000
184.075410 95.000000
184.108780 26.000000
184.116810 23.000000
185.080540 7.000000
185.117030 8.000000
193.090320 16.000000
194.080170 5.000000
194.100220 55.000000
194.114010 5.000000
195.104340 85.000000
195.112050 24.000000
196.075500 110.000000
196.113220 46.000000
197.083420 218.000000
197.103520 13.000000
197.121690 6.000000
198.081090 27.000000
198.089890 52.000000
198.105040 7.000000
198.125240 46.000000
198.134960 35.000000
198.148320 6.000000
199.095180 15.000000
199.127590 14.000000
205.086400 9.000000
206.093570 24.000000
207.098160 20.000000
207.107410 22.000000
208.074070 15.000000
208.092990 11.000000
208.105830 20.000000
208.113780 54.000000
208.126660 7.000000
209.088640 5.000000
209.099030 7.000000
209.119810 61.000000
210.070850 5.000000
210.092380 77.000000
210.126420 108.000000
211.091520 25.000000
211.103350 32.000000
211.117460 11.000000
211.129270 17.000000
212.106490 90.000000
213.112120 7.000000
217.087720 9.000000
218.092220 7.000000
219.103550 11.000000
220.075940 27.000000
220.109190 9.000000
221.074570 5.000000
221.120900 32.000000
221.130860 7.000000
222.092590 89.000000
222.118590 16.000000
222.131150 44.000000
223.099170 254.000000
223.123500 31.000000
224.084370 9.000000
224.110840 124.000000
224.133040 280.000000
225.114440 181.000000
225.129940 48.000000
225.154650 5.000000
226.120960 167.000000
226.128420 86.000000
226.142750 8.000000
227.125990 63.000000
228.130020 10.000000
233.118350 6.000000
234.094090 50.000000
234.125610 9.000000
235.087910 25.000000
235.098240 100.000000
235.130920 7.000000
236.108250 67.000000
236.144300 71.000000
237.114790 189.000000
237.152980 13.000000
238.071950 8.000000
238.122970 1000.000000
238.158400 53.000000
238.806610 11.000000
239.125840 219.000000
239.137470 43.000000
239.166470 23.000000
240.120680 12.000000
240.132800 13.000000
248.097980 8.000000
248.108260 12.000000
248.138670 12.000000
248.152210 7.000000
249.116870 112.000000
249.154100 7.000000
250.114290 24.000000
250.126830 21.000000
250.159360 21.000000
251.124150 42.000000
251.159640 6.000000
252.111740 5.000000
252.137590 237.000000
253.122420 10.000000
253.133800 19.000000
253.144270 16.000000
253.170300 172.000000
254.153990 5.000000
254.173600 42.000000
262.115480 10.000000
263.133850 15.000000
264.119020 12.000000
264.137390 123.000000
265.139890 42.000000
266.152830 362.000000
267.151180 30.000000
267.160950 47.000000
267.185360 6.000000
268.161900 5.000000
278.152470 41.000000
278.169890 9.000000
293.160950 9.000000
295.180730 387.000000

>ms2peaks
53.039050 12.000000
67.043130 23.000000
67.057280 48.000000
68.049870 42.000000
69.069230 12.000000
70.068410 43.000000
77.036190 11.000000
78.035750 13.000000
78.059660 15.000000
78.798130 10.000000
79.055670 92.000000
80.053760 29.000000
81.037160 30.000000
81.065540 13.000000
82.033670 24.000000
82.065550 63.000000
82.422150 9.000000
83.047000 9.000000
84.072420 23.000000
84.081250 20.000000
84.085980 11.000000
85.084450 20.000000
91.049510 14.000000
91.055770 73.000000
91.063390 9.000000
92.053620 9.000000
92.060140 8.000000
93.058070 31.000000
93.067710 11.000000
93.074260 40.000000
93.705760 10.000000
94.064570 32.000000
95.042160 9.000000
95.052050 11.000000
95.069050 13.000000
95.074490 11.000000
95.086720 78.000000
96.082660 31.000000
96.897140 11.000000
97.499980 12.000000
98.097040 14.000000
103.054540 33.000000
103.060820 9.000000
104.059240 22.000000
105.034130 18.000000
105.050760 12.000000
105.058720 22.000000
106.061970 12.000000
106.079800 12.000000
107.069790 11.000000
107.084630 25.000000
108.057160 27.000000
109.086150 84.000000
110.095820 13.000000
110.104960 22.000000
111.081660 16.000000
111.092930 10.000000
112.106530 8.000000
112.113190 10.000000
115.054560 84.000000
115.064630 19.000000
115.136030 8.000000
116.042530 9.000000
116.048900 27.000000
116.056140 42.000000
117.059400 82.000000
117.076100 37.000000
117.944530 12.000000
118.067710 58.000000
119.045700 44.000000
119.070820 46.000000
119.638700 11.000000
120.042740 12.000000
120.055230 32.000000
120.072900 19.000000
121.052900 16.000000
121.064370 19.000000
121.074100 10.000000
122.092770 10.000000
122.120120 8.000000
124.081500 17.000000
124.113590 9.000000
125.506200 13.000000
127.049190 30.000000
127.057300 32.000000
128.048890 33.000000
128.062030 131.000000
128.072460 8.000000
129.051790 15.000000
129.063550 40.000000
129.074540 69.000000
129.087480 13.000000
130.055250 8.000000
130.066160 150.000000
130.076220 15.000000
130.981740 9.000000
131.063900 10.000000
131.072780 58.000000
131.084200 12.000000
132.065200 13.000000
132.072450 12.000000
132.081770 10.000000
133.066640 8.000000
134.099200 24.000000
139.551070 12.000000
140.045840 8.000000
141.071210 48.000000
142.047000 12.000000
142.069260 33.000000
142.077710 23.000000
143.062120 15.000000
143.071950 44.000000
143.082430 42.000000
143.991900 9.000000
144.023620 11.000000
144.045270 15.000000
144.081740 350.000000
145.084920 14.000000
150.081800 10.000000
150.096470 19.000000
151.052190 10.000000
152.060650 57.000000
152.073460 17.000000
152.107030 10.000000
153.064940 42.000000
153.072770 8.000000
153.082960 16.000000
154.051510 8.000000
154.066820 212.000000
154.078840 21.000000
154.158290 17.000000
155.072970 189.000000
155.088590 13.000000
156.069630 32.000000
156.080370 86.000000
156.637650 10.000000
157.060560 8.000000
157.081990 12.000000
157.093110 39.000000
158.061400 10.000000
158.083850 12.000000
158.095470 10.000000
158.104750 12.000000
159.064510 8.000000
165.062730 16.000000
165.072490 49.000000
166.066670 56.000000
167.047210 10.000000
167.065440 192.000000
167.074720 729.000000
168.056590 25.000000
168.073870 220.000000
168.082410 589.000000
169.068920 9.000000
169.077060 30.000000
169.087250 114.000000
169.198320 11.000000
170.088470 10.000000
170.098880 10.000000
172.058110 10.000000
172.077420 21.000000
177.065090 10.000000
177.090700 10.000000
177.177540 10.000000
178.062970 11.000000
178.078960 51.000000
179.073040 61.000000
179.083820 35.000000
180.063540 43.000000
180.081160 1000.000000
180.892610 9.000000
181.046050 9.000000
181.086330 342.000000
181.096240 116.000000
182.060650 42.000000
182.095230 193.000000
182.103940 101.000000
183.071730 14.000000
183.098600 37.000000
184.087430 9.000000
184.108140 18.000000
184.116350 49.000000
185.104250 9.000000
185.118150 11.000000
191.070820 60.000000
191.082230 68.000000
192.076400 98.000000
192.085490 244.000000
192.101930 9.000000
193.053120 13.000000
193.074970 92.000000
193.090560 221.000000
193.107250 15.000000
193.628140 8.000000
194.052460 21.000000
194.063400 31.000000
194.096370 753.000000
194.132290 9.000000
194.263580 9.000000
194.779720 12.000000
195.075970 26.000000
195.103200 317.000000
196.044560 9.000000
196.052640 22.000000
196.076390 405.000000
196.106350 31.000000
196.125440 36.000000
197.077740 97.000000
197.087140 117.000000
198.095110 18.000000
198.124080 11.000000
198.132610 10.000000
202.083110 10.000000
203.074690 11.000000
203.088520 9.000000
203.100510 8.000000
204.070710 38.000000
204.081760 45.000000
205.089260 106.000000
205.950850 10.000000
206.079470 21.000000
206.098480 296.000000
206.845140 9.000000
207.049090 13.000000
207.066310 62.000000
207.086110 34.000000
207.099610 104.000000
208.067870 41.000000
208.078770 124.000000
208.097290 45.000000
208.113680 172.000000
208.127230 15.000000
209.080170 99.000000
209.120320 54.000000
209.685070 8.000000
210.088930 146.000000
210.101350 58.000000
210.134770 51.000000
211.101150 101.000000
211.109800 35.000000
212.091960 8.000000
212.101070 23.000000
212.108670 38.000000
216.073180 10.000000
217.088990 34.000000
218.100170 30.000000
219.101010 20.000000
219.110060 12.000000
219.770510 13.000000
220.074170 105.000000
220.100830 24.000000
220.115660 59.000000
220.130420 13.000000
221.068560 9.000000
221.078670 21.000000
221.092220 51.000000
221.119890 52.000000
222.083620 158.000000
222.095580 271.000000
222.122730 35.000000
222.514740 16.000000
223.047350 11.000000
223.084440 21.000000
223.098850 166.000000
223.111390 31.000000
223.126630 162.000000
223.139280 19.000000
223.549130 8.000000
223.894960 8.000000
223.956310 9.000000
224.075520 12.000000
224.104930 281.000000
224.123700 41.000000
224.138210 100.000000
225.101760 52.000000
225.117980 48.000000
225.162750 12.000000
226.117190 8.000000
228.067490 12.000000
229.015500 10.000000
229.092830 20.000000
230.099080 14.000000
233.086240 10.000000
233.096240 10.000000
234.091980 78.000000
235.100740 71.000000
235.134600 26.000000
236.080120 11.000000
236.100010 95.000000
236.110430 282.000000
236.132740 14.000000
236.143230 11.000000
237.090240 11.000000
237.103840 24.000000
237.119340 141.000000
237.677020 15.000000
238.120330 58.000000
238.129000 49.000000
238.147160 12.000000
238.899110 8.000000
239.121400 21.000000
239.130200 21.000000
240.128100 12.000000
246.140660 10.000000
248.108750 38.000000
249.121340 22.000000
249.159650 10.000000
250.126660 11.000000
252.131040 30.000000
252.144330 22.000000
253.679810 22.000000
254.145450 11.000000
255.082570 8.000000
262.139190 10.000000

>ms2peaks
70.067440 6.000000
84.080980 10.000000
144.079320 21.000000
150.090360 7.000000
152.106720 11.000000
168.080440 9.000000
180.081040 6.000000
181.087010 8.000000
182.094820 7.000000
194.097340 6.000000
195.103260 9.000000
196.075520 7.000000
196.109420 7.000000
197.082570 19.000000
198.089220 5.000000
210.095090 5.000000
210.130740 10.000000
211.097380 6.000000
212.110530 5.000000
222.093440 10.000000
223.095640 15.000000
223.109240 9.000000
224.107700 10.000000
224.124340 10.000000
224.137180 9.000000
225.114150 9.000000
226.112430 5.000000
226.122680 18.000000
227.123380 5.000000
236.106570 8.000000
236.144520 9.000000
237.109500 11.000000
238.123410 84.000000
238.164410 6.000000
239.127760 16.000000
249.114300 10.000000
252.137600 19.000000
252.147260 9.000000
253.170640 33.000000
254.176770 6.000000
264.139500 18.000000
266.152980 62.000000
267.150150 11.000000
267.161960 8.000000
278.151210 7.000000
295.181210 1000.000000
295.229830 28.000000

>ms2peaks
266.153050 6.000000
295.180880 1000.000000
295.229610 38.000000

>ms2peaks
67.057260 9.000000
70.058690 9.000000
70.064620 52.000000
81.070420 7.000000
83.052560 22.000000
83.074880 24.000000
84.077360 25.000000
84.081700 81.000000
85.087270 8.000000
93.071170 11.000000
94.066430 6.000000
95.081820 8.000000
96.081230 15.000000
98.097320 15.000000
99.099690 5.000000
105.031810 7.000000
107.085100 43.000000
108.080040 8.000000
110.093140 9.000000
111.080350 21.000000
112.112370 11.000000
118.065720 7.000000
119.088320 9.000000
121.064160 18.000000
121.098820 8.000000
122.062220 13.000000
122.089410 7.000000
122.099340 11.000000
123.076090 10.000000
123.082440 10.000000
124.070370 18.000000
124.076680 36.000000
124.110160 24.000000
129.070690 7.000000
130.064030 32.000000
131.073720 15.000000
132.072190 11.000000
132.081270 39.000000
133.062410 23.000000
133.075320 8.000000
134.096740 14.000000
134.103740 7.000000
135.083070 7.000000
138.090410 14.000000
142.067580 5.000000
143.072160 9.000000
144.080890 201.000000
145.079830 21.000000
146.089290 6.000000
146.102510 14.000000
147.078480 16.000000
149.067960 5.000000
150.070340 7.000000
150.090910 89.000000
151.091810 7.000000
151.101330 8.000000
152.107180 114.000000
153.109500 11.000000
153.117740 6.000000
154.062590 9.000000
155.073460 15.000000
156.080640 25.000000
157.092710 15.000000
158.060070 27.000000
158.096510 39.000000
159.061900 7.000000
164.094410 5.000000
164.108230 6.000000
167.072780 20.000000
168.080960 76.000000
169.080510 16.000000
169.088990 52.000000
170.057480 28.000000
170.091370 22.000000
170.098970 24.000000
171.090910 8.000000
172.114730 7.000000
180.064250 5.000000
180.083130 53.000000
181.087160 88.000000
181.099260 11.000000
182.054670 9.000000
182.063420 6.000000
182.094700 69.000000
182.102710 26.000000
183.068860 14.000000
183.101230 30.000000
183.110090 10.000000
184.075450 57.000000
184.094130 5.000000
184.113330 45.000000
185.123340 7.000000
186.089160 8.000000
186.128600 9.000000
193.087920 19.000000
193.099460 6.000000
194.082660 5.000000
194.094590 25.000000
194.103940 11.000000
195.082640 8.000000
195.103520 76.000000
195.112750 28.000000
196.076610 106.000000
196.113240 90.000000
197.052780 6.000000
197.083650 242.000000
197.120450 12.000000
197.293370 5.000000
198.088030 71.000000
198.106750 10.000000
198.125370 66.000000
198.140560 14.000000
199.094700 6.000000
199.133930 7.000000
206.094680 17.000000
206.104020 8.000000
207.089600 7.000000
207.107650 23.000000
208.077030 26.000000
208.113220 84.000000
209.070570 5.000000
209.085480 31.000000
209.118900 79.000000
210.063200 5.000000
210.081650 26.000000
210.092070 80.000000
210.109650 15.000000
210.128160 85.000000
211.094100 44.000000
211.103470 22.000000
211.124710 13.000000
211.136690 6.000000
212.106810 95.000000
212.123320 8.000000
212.700260 6.000000
213.114760 19.000000
218.091230 8.000000
220.074750 8.000000
220.082600 7.000000
220.112610 11.000000
221.119930 26.000000
222.083790 34.000000
222.096710 33.000000
222.128520 55.000000
223.051130 6.000000
223.099010 337.000000
223.124600 18.000000
223.140520 7.000000
224.084550 7.000000
224.102160 57.000000
224.113220 53.000000
224.126770 164.000000
224.137240 128.000000
224.160430 7.000000
225.114820 162.000000
225.129360 52.000000
225.149640 8.000000
226.121920 309.000000
226.151550 5.000000
227.125690 36.000000
227.137510 5.000000
228.138850 11.000000
233.118480 5.000000
234.079280 6.000000
234.092860 42.000000
234.134030 6.000000
235.099850 95.000000
235.116420 7.000000
235.139140 5.000000
236.086460 9.000000
236.110210 59.000000
236.143810 91.000000
237.113160 204.000000
237.145710 8.000000
238.082920 16.000000
238.122070 1000.000000
238.161710 61.000000
239.120190 77.000000
239.127910 158.000000
239.163860 15.000000
240.119980 9.000000
240.141830 6.000000
246.140500 6.000000
248.108250 16.000000
248.136430 13.000000
248.149220 12.000000
249.097090 12.000000
249.115550 134.000000
249.151760 8.000000
250.117320 19.000000
250.127490 34.000000
250.164950 13.000000
251.126950 43.000000
252.114090 9.000000
252.138290 276.000000
253.142180 52.000000
253.159650 55.000000
253.172810 107.000000
254.150190 11.000000
254.175130 36.000000
260.140960 5.000000
263.123840 12.000000
264.137390 122.000000
265.143950 37.000000
266.152620 345.000000
267.143280 23.000000
267.151030 29.000000
267.163570 52.000000
278.149140 8.000000
278.159910 12.000000
279.121120 6.000000
295.144320 21.000000
295.180970 374.000000
295.206270 9.000000

>ms2peaks
65.037000 10.000000
67.055510 58.000000
68.039500 12.000000
70.037250 9.000000
70.062770 29.000000
72.084320 14.000000
77.033420 17.000000
77.040340 34.000000
79.056090 56.000000
80.045100 27.000000
80.050050 29.000000
80.059390 11.000000
81.035030 28.000000
81.069240 26.000000
82.063090 11.000000
83.075560 62.000000
84.085520 18.000000
87.335800 11.000000
90.043410 9.000000
90.048580 30.000000
91.046270 9.000000
91.054790 130.000000
92.048080 12.000000
92.054850 12.000000
92.060460 23.000000
93.037570 39.000000
93.057950 8.000000
93.069150 33.000000
93.074780 42.000000
93.692300 9.000000
94.028120 9.000000
94.057610 13.000000
94.065400 51.000000
94.072910 18.000000
95.042510 8.000000
95.050280 11.000000
95.066890 10.000000
95.079310 15.000000
95.086250 64.000000
96.078960 20.000000
96.195560 10.000000
96.718020 8.000000
98.012200 13.000000
99.100400 12.000000
101.036940 22.000000
103.051510 19.000000
103.056990 10.000000
103.121240 9.000000
104.062800 9.000000
105.034520 23.000000
105.062840 8.000000
105.070240 64.000000
106.063600 17.000000
107.050040 8.000000
107.081080 21.000000
107.086810 27.000000
108.072290 10.000000
108.088270 19.000000
109.050930 12.000000
109.072750 8.000000
109.085780 29.000000
110.090260 10.000000
110.094960 13.000000
111.106170 9.000000
114.054320 8.000000
115.051050 57.000000
115.056080 72.000000
115.213330 17.000000
116.051360 19.000000
117.035320 10.000000
117.052410 36.000000
117.059810 42.000000
117.071680 21.000000
118.065540 38.000000
118.072740 21.000000
119.046610 11.000000
119.071500 23.000000
119.089300 32.000000
121.060670 22.000000
122.070900 21.000000
123.077450 10.000000
123.083470 8.000000
123.108560 13.000000
124.077480 29.000000
124.096820 9.000000
127.054850 41.000000
128.013410 9.000000
128.040970 10.000000
128.052760 57.000000
128.061340 27.000000
129.052280 14.000000
129.069950 63.000000
129.484590 8.000000
130.066640 183.000000
131.069320 39.000000
131.079350 33.000000
132.042330 9.000000
132.069950 9.000000
132.078750 55.000000
132.090240 13.000000
133.050570 11.000000
134.062420 9.000000
134.083770 9.000000
134.098460 11.000000
136.066240 11.000000
139.045530 8.000000
140.062090 11.000000
141.061070 11.000000
141.075350 22.000000
141.551570 11.000000
142.067000 88.000000
142.082260 8.000000
143.056820 14.000000
143.070740 83.000000
144.073910 81.000000
144.082030 267.000000
145.079610 20.000000
145.093920 10.000000
146.093250 11.000000
148.939420 8.000000
150.130570 8.000000
151.053990 8.000000
152.059460 26.000000
152.066150 26.000000
153.052930 8.000000
153.069410 14.000000
154.034560 20.000000
154.064670 280.000000
154.596130 10.000000
154.774350 8.000000
155.072220 85.000000
155.078770 28.000000
156.069580 32.000000
156.082310 47.000000
157.054780 11.000000
157.094740 31.000000
158.057530 8.000000
158.085920 8.000000
158.101200 12.000000
164.061570 16.000000
165.062150 8.000000
165.074740 27.000000
166.017040 12.000000
166.063450 31.000000
166.070400 47.000000
167.043080 16.000000
167.054980 37.000000
167.074160 984.000000
167.171370 8.000000
167.717860 13.000000
167.965930 9.000000
168.056090 10.000000
168.081100 738.000000
168.119550 16.000000
169.067540 10.000000
169.083660 106.000000
169.091340 121.000000
170.067410 9.000000
170.098890 34.000000
171.091050 17.000000
172.068220 9.000000
174.094020 15.000000
177.284260 18.000000
178.061200 60.000000
178.077190 30.000000
178.085130 21.000000
179.035900 13.000000
179.062770 28.000000
179.072490 57.000000
179.085020 16.000000
180.081340 1000.000000
181.010880 9.000000
181.056990 14.000000
181.084950 325.000000
181.091030 174.000000
181.104220 27.000000
181.603180 9.000000
181.779950 9.000000
182.055310 37.000000
182.064970 40.000000
182.080570 12.000000
182.096220 233.000000
182.107600 79.000000
183.051100 8.000000
183.068100 22.000000
183.099840 46.000000
183.513630 12.000000
184.066600 8.000000
184.079960 21.000000
184.097670 11.000000
184.109300 33.000000
185.077760 8.000000
185.838550 8.000000
189.046330 10.000000
190.068420 18.000000
191.060610 9.000000
191.076640 99.000000
192.080400 156.000000
192.273090 9.000000
193.086960 170.000000
193.095320 159.000000
194.063630 27.000000
194.094500 400.000000
194.103240 314.000000
195.057980 11.000000
195.068830 55.000000
195.100600 404.000000
195.792390 29.000000
196.075320 258.000000
196.093730 8.000000
196.107770 29.000000
196.119690 15.000000
196.227800 16.000000
197.069200 17.000000
197.085940 265.000000
197.112370 19.000000
198.070910 8.000000
198.088560 58.000000
198.127670 21.000000
198.145160 17.000000
198.482380 9.000000
199.865630 9.000000
202.074650 10.000000
203.065290 8.000000
204.059520 8.000000
204.083770 41.000000
204.101850 12.000000
205.091860 66.000000
205.209230 8.000000
206.087650 46.000000
206.098310 195.000000
207.069370 21.000000
207.087480 32.000000
207.106960 41.000000
207.117980 15.000000
207.169860 8.000000
208.065370 21.000000
208.077270 109.000000
208.113820 275.000000
208.245190 12.000000
209.079540 87.000000
209.091960 40.000000
209.112270 99.000000
209.124330 25.000000
209.235760 10.000000
210.090030 146.000000
210.106550 23.000000
210.128890 12.000000
211.094560 46.000000
211.102100 46.000000
211.125310 17.000000
212.101990 12.000000
212.111690 13.000000
216.082400 29.000000
216.715230 10.000000
217.086140 26.000000
217.129200 9.000000
218.101780 44.000000
219.027370 10.000000
219.067830 37.000000
219.095140 9.000000
219.110500 8.000000
220.051540 10.000000
220.074040 47.000000
220.094040 8.000000
220.106310 39.000000
220.115160 51.000000
220.128620 22.000000
221.079150 48.000000
221.094300 23.000000
222.044860 12.000000
222.068700 28.000000
222.091710 495.000000
222.121830 25.000000
222.144780 10.000000
222.861310 13.000000
223.070760 12.000000
223.096100 154.000000
223.110110 140.000000
223.124440 211.000000
223.143170 15.000000
223.172900 10.000000
224.087100 28.000000
224.106280 395.000000
224.119750 82.000000
224.132660 61.000000
224.142260 22.000000
225.114230 76.000000
225.133320 32.000000
226.118760 10.000000
226.132260 16.000000
227.124070 12.000000
230.100780 8.000000
231.399000 13.000000
233.079030 12.000000
233.107300 10.000000
234.072970 9.000000
234.083390 14.000000
234.094770 46.000000
235.089940 51.000000
235.102620 58.000000
235.118330 11.000000
236.094560 35.000000
236.103940 125.000000
236.112150 56.000000
236.152950 12.000000
236.196660 11.000000
237.111430 124.000000
237.129180 23.000000
238.122090 81.000000
238.135390 10.000000
238.147870 9.000000
238.165330 11.000000
239.135420 20.000000
240.125670 12.000000
248.089020 8.000000
248.114930 9.000000
248.150600 9.000000
249.103150 11.000000
249.112110 8.000000
249.128360 11.000000
249.141100 17.000000
250.154560 11.000000
251.848430 8.000000
252.116040 12.000000
252.140980 12.000000
253.137760 9.000000
253.147420 9.000000
254.162540 11.000000
257.005280 8.000000
264.137050 16.000000
265.139590 8.000000

>ms2peaks
53.022470 17.000000
65.036530 24.000000
67.041760 22.000000
69.035190 27.000000
69.068470 38.000000
70.063390 134.000000
70.068260 177.000000
72.077640 27.000000
77.037270 23.000000
79.056920 20.000000
80.053380 19.000000
81.036520 29.000000
81.041770 18.000000
81.058590 25.000000
81.072560 17.000000
82.064210 21.000000
82.068210 33.000000
83.046100 18.000000
83.070220 104.000000
83.080780 18.000000
84.072070 40.000000
84.081600 608.000000
85.082280 20.000000
91.055240 56.000000
92.057720 17.000000
94.059870 21.000000
95.085530 134.000000
97.081700 27.000000
97.386500 21.000000
98.091080 45.000000
98.098950 35.000000
98.203990 17.000000
98.729430 23.000000
105.070370 80.000000
106.068370 18.000000
106.074820 23.000000
107.047900 25.000000
107.087140 82.000000
109.087320 41.000000
109.099610 60.000000
109.185390 22.000000
110.060560 29.000000
110.095210 33.000000
111.081690 68.000000
112.088620 20.000000
112.111150 64.000000
115.061040 25.000000
117.008740 18.000000
117.044910 24.000000
117.066390 28.000000
117.072320 66.000000
118.059810 24.000000
118.066760 53.000000
119.047870 19.000000
119.072490 19.000000
119.081270 36.000000
119.089260 26.000000
121.069720 58.000000
121.089410 32.000000
121.102290 22.000000
122.058220 70.000000
122.098020 60.000000
122.103170 19.000000
123.081050 69.000000
124.076520 212.000000
124.099240 19.000000
124.108350 37.000000
124.115410 25.000000
125.080780 18.000000
127.054990 17.000000
127.061840 55.000000
127.535100 27.000000
128.057980 27.000000
129.064670 25.000000
129.076450 22.000000
130.063740 87.000000
130.073410 17.000000
131.038970 33.000000
131.066160 95.000000
131.076400 30.000000
131.471440 20.000000
132.080350 231.000000
132.092830 24.000000
133.061890 39.000000
133.077710 22.000000
133.084820 25.000000
134.064410 44.000000
134.100850 86.000000
135.064210 26.000000
135.080670 66.000000
136.095660 34.000000
136.109130 33.000000
136.713930 30.000000
137.117830 21.000000
137.251720 34.000000
138.080980 19.000000
138.090500 99.000000
140.403640 19.000000
143.090710 26.000000
144.048860 18.000000
144.080720 1070.000000
144.430390 17.000000
145.084090 185.000000
145.223500 17.000000
146.061920 47.000000
146.089460 18.000000
146.097990 42.000000
146.104900 27.000000
147.100230 25.000000
150.068560 21.000000
150.091950 274.000000
151.092040 49.000000
152.096150 44.000000
152.107010 508.000000
153.069520 42.000000
153.097530 17.000000
153.104970 30.000000
153.112700 42.000000
154.079970 43.000000
154.671250 19.000000
156.073140 25.000000
156.081210 68.000000
156.087690 34.000000
157.086550 57.000000
158.057740 106.000000
158.091430 42.000000
158.098970 62.000000
158.220920 17.000000
160.082380 25.000000
160.115230 23.000000
164.111890 53.000000
164.579820 22.000000
165.060530 26.000000
165.073990 27.000000
165.104720 17.000000
166.067920 23.000000
166.079860 27.000000
167.057460 58.000000
167.073260 152.000000
167.224980 23.000000
167.739060 17.000000
168.059460 29.000000
168.078610 557.000000
168.981890 17.000000
169.001950 33.000000
169.066800 17.000000
169.078480 78.000000
169.086880 199.000000
170.056210 18.000000
170.066150 37.000000
170.083300 47.000000
170.100660 86.000000
171.061330 51.000000
171.095080 17.000000
172.063890 43.000000
172.076190 21.000000
172.094880 43.000000
172.114590 81.000000
173.251070 19.000000
173.358810 17.000000
174.699010 20.000000
174.785430 26.000000
176.526250 21.000000
178.066860 18.000000
178.079190 18.000000
180.044250 20.000000
180.066470 58.000000
180.078980 349.000000
181.082750 237.000000
181.093950 72.000000
182.064410 49.000000
182.093600 412.000000
183.067870 29.000000
183.094090 52.000000
183.109190 73.000000
183.340380 18.000000
183.870090 28.000000
184.073360 133.000000
184.105800 63.000000
184.113800 206.000000
185.078950 20.000000
185.092960 22.000000
185.109730 168.000000
186.093260 52.000000
186.130020 17.000000
191.072560 31.000000
192.078430 26.000000
192.098270 27.000000
193.066470 17.000000
193.079280 55.000000
193.087050 58.000000
193.104640 29.000000
194.062160 18.000000
194.095060 223.000000
195.064010 33.000000
195.089420 43.000000
195.103470 505.000000
195.123660 26.000000
195.733960 25.000000
196.067230 312.000000
196.077880 411.000000
196.108520 201.000000
196.121370 37.000000
196.187520 21.000000
196.660100 25.000000
197.045810 26.000000
197.062360 24.000000
197.082690 891.000000
197.111180 38.000000
197.668930 22.000000
198.070040 29.000000
198.083570 107.000000
198.093090 206.000000
198.123810 251.000000
198.137890 109.000000
199.094090 78.000000
199.124470 26.000000
199.132750 29.000000
199.285800 21.000000
200.473450 36.000000
200.851670 17.000000
201.614690 20.000000
202.353710 20.000000
202.420500 20.000000
203.079120 17.000000
203.608180 25.000000
204.059170 45.000000
204.080380 17.000000
205.093020 53.000000
205.576930 23.000000
206.087280 155.000000
206.100660 59.000000
207.071170 35.000000
207.087890 39.000000
207.100040 71.000000
207.111280 153.000000
208.072810 88.000000
208.085690 20.000000
208.111310 237.000000
209.086000 108.000000
209.104630 107.000000
209.117580 232.000000
209.126340 61.000000
209.428680 18.000000
209.808650 17.000000
210.072400 17.000000
210.086320 221.000000
210.096770 154.000000
210.113830 74.000000
210.128360 361.000000
210.157780 18.000000
210.398100 21.000000
211.057590 28.000000
211.076950 21.000000
211.096420 207.000000
211.112730 41.000000
211.126970 20.000000
211.135500 18.000000
211.386350 21.000000
212.086560 24.000000
212.104570 311.000000
213.108400 23.000000
213.115010 77.000000
214.206480 28.000000
215.598100 27.000000
217.416670 17.000000
217.544820 24.000000
219.100220 27.000000
219.108610 42.000000
220.068360 110.000000
220.085050 50.000000
220.112610 44.000000
220.121060 55.000000
221.087810 72.000000
221.106370 62.000000
221.119340 86.000000
222.063980 54.000000
222.091400 563.000000
222.127180 213.000000
222.138050 36.000000
223.094240 611.000000
223.104050 380.000000
223.141400 36.000000
223.584610 17.000000
224.089520 56.000000
224.107380 634.000000
224.132170 821.000000
224.149090 161.000000
224.512910 27.000000
224.849320 21.000000
225.116470 740.000000
225.136020 178.000000
226.019200 20.000000
226.091420 53.000000
226.116680 693.000000
226.128310 584.000000
226.414950 20.000000
226.879910 25.000000
227.121950 141.000000
227.137500 42.000000
227.144740 17.000000
231.106090 20.000000
231.423780 44.000000
231.725690 17.000000
232.095900 18.000000
233.083360 77.000000
233.720410 19.000000
234.080540 146.000000
234.093900 32.000000
234.102720 21.000000
234.125120 37.000000
234.656780 21.000000
235.075710 24.000000
235.098300 342.000000
235.127180 20.000000
236.105330 495.000000
236.138840 114.000000
236.153200 231.000000
236.623410 18.000000
237.086170 19.000000
237.109470 427.000000
237.125550 79.000000
237.149860 69.000000
237.164810 17.000000
238.087520 43.000000
238.120990 4500.000000
238.158980 186.000000
238.177380 19.000000
238.250090 17.000000
238.888820 19.000000
239.108110 127.000000
239.124440 615.000000
239.133610 277.000000
239.156510 88.000000
239.458210 18.000000
240.106380 26.000000
240.123600 55.000000
240.134110 53.000000
240.142840 35.000000
240.165790 24.000000
240.614530 18.000000
241.872600 22.000000
243.075410 21.000000
243.658940 26.000000
244.091020 25.000000
245.120540 23.000000
246.899440 31.000000
247.040010 21.000000
247.134370 29.000000
248.082630 24.000000
248.107600 87.000000
248.150700 78.000000
249.084080 17.000000
249.115220 471.000000
250.092880 24.000000
250.120770 159.000000
250.157960 182.000000
251.116300 138.000000
251.132720 72.000000
251.140110 38.000000
252.076860 26.000000
252.100080 19.000000
252.109150 29.000000
252.138570 1295.000000
253.122830 29.000000
253.137990 235.000000
253.163530 983.000000
253.173250 811.000000
253.848400 21.000000
254.127200 23.000000
254.142270 36.000000
254.153630 65.000000
254.171310 264.000000
254.479460 21.000000
255.135650 25.000000
255.179780 24.000000
255.511700 20.000000
257.888210 24.000000
261.854680 20.000000
263.127840 116.000000
264.133510 584.000000
264.146150 285.000000
264.300480 26.000000
265.113100 17.000000
265.132080 65.000000
265.150730 55.000000
266.113430 25.000000
266.153690 2606.000000
266.291380 21.000000
266.350430 19.000000
266.610380 18.000000
267.129490 51.000000
267.153110 503.000000
267.163450 487.000000
267.186040 17.000000
267.460480 24.000000
268.161010 141.000000
270.110320 23.000000
275.436430 20.000000
276.252080 20.000000
277.178530 17.000000
278.133940 18.000000
278.151060 174.000000
278.172270 29.000000
279.141940 20.000000
279.162230 76.000000
280.144960 20.000000
286.471100 21.000000
286.809690 25.000000
289.035460 22.000000
289.783510 17.000000
293.139950 21.000000
293.757720 17.000000
294.181210 21.000000
294.643950 20.000000
294.754520 17.000000
294.790010 17.000000
295.042820 21.000000
295.057650 24.000000
295.099030 17.000000
295.124850 102.000000
295.138030 173.000000
295.180480 46312.000000
295.230380 1350.000000
295.273930 47.000000
295.286190 33.000000
295.316960 41.000000

