>compound PR45618234
>parentmass 322.0964
>ionization [M+H]+
>formula C12H19NO7S
>rt 111.600000
>profile qtof
#smiles_iso C/C=C/S(=O)CC(C(=O)O)N/C=C/1\C(C(C(CO1)O)O)O
#smiles_can CC=CS(=O)CC(C(=O)O)NC=C1C(C(C(CO1)O)O)O
#inchikey OQAFURZDHYCZMF-DSXPNFDZSA-N
#pubchem_id 139291996
#mb_accession PR310817

>ms2peaks
53.667410 17.000000
58.995240 24.000000
70.761500 16.000000
73.007710 26.000000
73.014800 63.000000
73.024110 16.000000
73.030970 54.000000
75.027370 23.000000
82.065990 30.000000
84.086090 20.000000
86.985450 17.000000
87.037050 17.000000
88.023390 81.000000
88.041790 62.000000
89.039640 33.000000
91.010230 73.000000
91.020200 250.000000
93.026370 19.000000
94.065330 16.000000
94.663830 19.000000
96.042650 20.000000
97.029710 17.000000
97.034070 22.000000
98.056110 39.000000
99.047580 25.000000
101.028450 23.000000
103.042330 19.000000
104.050250 16.000000
108.049670 16.000000
109.032560 19.000000
109.047650 19.000000
110.026400 19.000000
110.036950 17.000000
110.061520 114.000000
112.023060 21.000000
114.037580 21.000000
114.056300 39.000000
115.038470 17.000000
115.045120 17.000000
120.041760 18.000000
121.072240 16.000000
124.026250 16.000000
124.037730 17.000000
124.078010 18.000000
126.034860 23.000000
126.053590 21.000000
127.102460 20.000000
128.035030 19.000000
128.054280 18.000000
130.034640 18.000000
131.017120 24.000000
132.047390 25.000000
133.014430 30.000000
134.027830 132.000000
134.036010 31.000000
135.066310 24.000000
136.040620 16.000000
138.055590 19.000000
143.055540 17.000000
144.046040 17.000000
144.068050 22.000000
146.027330 23.000000
147.983550 25.000000
148.020130 59.000000
150.034760 20.000000
150.051700 37.000000
152.069870 54.000000
153.005000 18.000000
154.037630 17.000000
154.049010 75.000000
155.050340 25.000000
155.611150 17.000000
156.065900 71.000000
158.027890 27.000000
160.038060 16.000000
160.046630 29.000000
161.046840 17.000000
161.054400 39.000000
162.102190 18.000000
166.049880 61.000000
168.066220 181.000000
169.062240 16.000000
172.048020 21.000000
178.053850 325.000000
178.084320 18.000000
180.016820 24.000000
185.100780 18.000000
186.086850 17.000000
188.099290 16.000000
190.038250 19.000000
190.055850 18.000000
196.047360 42.000000
196.064090 153.000000
199.084880 31.000000
200.043170 35.000000
201.996340 18.000000
204.086270 17.000000
204.110810 29.000000
207.066940 42.000000
210.057630 26.000000
213.240620 20.000000
214.073530 94.000000
214.082350 52.000000
215.079650 23.000000
218.087770 16.000000
224.047930 17.000000
224.069520 41.000000
224.081990 31.000000
224.097850 86.000000
225.071490 18.000000
226.067890 19.000000
226.083540 16.000000
228.057740 36.000000
228.069290 50.000000
232.027510 18.000000
232.057970 19.000000
232.072710 229.000000
232.084090 649.000000
232.975370 22.000000
233.082170 96.000000
233.122040 17.000000
233.707570 18.000000
234.044660 17.000000
234.085400 19.000000
234.224750 20.000000
240.071720 20.000000
242.091630 86.000000
248.883300 38.000000
249.055440 18.000000
250.075500 102.000000
251.057660 16.000000
251.092970 20.000000
256.067660 58.000000
256.079130 21.000000
257.064120 20.000000
258.070740 16.000000
258.090610 20.000000
259.085820 20.000000
260.053410 17.000000
260.065980 23.000000
261.073550 23.000000
268.064030 31.000000
276.083770 17.000000
276.093080 28.000000
277.105590 18.000000
278.076080 26.000000
278.112400 30.000000
280.098750 29.000000
280.113490 23.000000
293.100980 24.000000
294.072200 24.000000
295.108280 21.000000
304.089810 66.000000
304.101560 16.000000
305.094700 54.000000
315.951450 19.000000
322.052860 44.000000
322.096160 4434.000000

