>compound PR46752169
>parentmass 387.252986
>ionization [M+H]+
>formula C24H34O4
>rt 419.451000
>profile qtof
#smiles_iso C[C@]12CC[C@@H](C[C@H]1CC[C@@H]3[C@@H]2CC[C@]4([C@@]3(CC[C@@H]4C5=COC(=O)C=C5)O)C)O
#smiles_can CC12CCC(CC1CCC3C2CCC4(C3(CCC4C5=COC(=O)C=C5)O)C)O
#inchikey QEEBRPGZBVVINN-BMPKRDENSA-N
#pubchem_id 9547215
#mb_accession PR303617,PR303618,PR303619,PR303620,PR303621,PR303622,PR303623,PR303624,PR303625

>ms2
93.068270 6.000000
95.086940 6.000000
105.070380 13.000000
107.085620 20.000000
109.102010 9.000000
119.082590 5.000000
121.100920 13.000000
131.087270 10.000000
133.094540 5.000000
133.104920 13.000000
135.115800 12.000000
136.122210 5.000000
143.084030 8.000000
145.098110 8.000000
145.104060 11.000000
147.116850 21.000000
149.134350 10.000000
155.082760 5.000000
157.099950 6.000000
159.117460 24.000000
161.095960 8.000000
161.131350 20.000000
173.131030 12.000000
175.144640 8.000000
183.115970 7.000000
185.130490 7.000000
187.149770 7.000000
195.112500 6.000000
197.130920 9.000000
199.152070 6.000000
243.138780 7.000000
255.203020 17.000000
255.214970 25.000000
256.216190 12.000000
257.226900 6.000000
269.148280 7.000000
305.224880 11.000000
315.209870 5.000000
333.230190 7.000000
351.233800 48.000000
352.231930 11.000000
352.247410 5.000000
369.241970 33.000000
387.254090 1000.000000
387.311370 19.000000

>ms2
387.251950 1000.000000
387.308870 27.000000

>ms2
55.054270 10.000000
56.057630 11.000000
56.521330 9.000000
57.241200 8.000000
67.055100 52.000000
67.061200 7.000000
67.608150 10.000000
77.046070 6.000000
79.047140 8.000000
79.054930 63.000000
80.061900 7.000000
81.040420 7.000000
81.069500 316.000000
82.075000 39.000000
83.047930 9.000000
83.081990 13.000000
83.087590 47.000000
85.098880 6.000000
86.213910 9.000000
87.892460 7.000000
91.045420 14.000000
91.055430 91.000000
91.481800 7.000000
93.070600 204.000000
95.009730 11.000000
95.015120 23.000000
95.047260 16.000000
95.066850 9.000000
95.085470 259.000000
96.084300 17.000000
97.029300 56.000000
97.067610 9.000000
99.006580 11.000000
99.050430 8.000000
99.079770 22.000000
99.161470 7.000000
100.049840 12.000000
102.534800 13.000000
103.055680 7.000000
105.047590 6.000000
105.056420 7.000000
105.070420 292.000000
105.353340 7.000000
106.071210 9.000000
106.078160 7.000000
107.045920 36.000000
107.053760 25.000000
107.066280 10.000000
107.085010 650.000000
108.053150 12.000000
108.057820 9.000000
108.086980 68.000000
108.094700 22.000000
108.130520 9.000000
108.886420 7.000000
109.027500 43.000000
109.060860 22.000000
109.067560 20.000000
109.100460 370.000000
109.126390 7.000000
109.773250 8.000000
110.102160 16.000000
111.049400 7.000000
111.075200 9.000000
111.109720 9.000000
113.018970 17.000000
114.953930 6.000000
115.039550 6.000000
116.711360 9.000000
117.070650 84.000000
117.125140 8.000000
117.897510 7.000000
118.246100 8.000000
119.042570 23.000000
119.050490 16.000000
119.064220 7.000000
119.070970 11.000000
119.085290 406.000000
120.075680 8.000000
120.086170 17.000000
120.095720 6.000000
121.057560 9.000000
121.066090 75.000000
121.101500 627.000000
122.094440 31.000000
122.105520 36.000000
123.033630 9.000000
123.043280 124.000000
123.086450 24.000000
123.115140 73.000000
123.121820 29.000000
124.051180 9.000000
124.068750 7.000000
125.064030 11.000000
125.099410 17.000000
127.076420 8.000000
127.935960 8.000000
128.070360 8.000000
129.054610 6.000000
129.062500 20.000000
129.069200 34.000000
129.076490 25.000000
130.073150 28.000000
130.674870 9.000000
131.049190 21.000000
131.055830 18.000000
131.085530 303.000000
132.086790 36.000000
132.094710 24.000000
132.140720 6.000000
133.026720 8.000000
133.066480 45.000000
133.075880 17.000000
133.101330 476.000000
134.066600 23.000000
134.098360 22.000000
134.106290 62.000000
134.256790 9.000000
134.491850 13.000000
135.009490 6.000000
135.043780 194.000000
135.078600 44.000000
135.086940 14.000000
135.117420 507.000000
136.048310 8.000000
136.116560 33.000000
137.057480 86.000000
137.065320 42.000000
137.096540 35.000000
137.114300 9.000000
137.126880 15.000000
138.053340 13.000000
138.062290 22.000000
138.135560 11.000000
138.943570 7.000000
139.026900 9.000000
139.069840 8.000000
139.077030 10.000000
139.676250 13.000000
139.683500 9.000000
141.067830 6.000000
141.075300 17.000000
142.056870 14.000000
142.073270 14.000000
142.086700 20.000000
142.898130 7.000000
143.029210 8.000000
143.083240 119.000000
143.089950 113.000000
144.090380 45.000000
145.054610 10.000000
145.065490 29.000000
145.084950 7.000000
145.102460 660.000000
145.409960 8.000000
146.066860 6.000000
146.102770 19.000000
146.112120 17.000000
147.044560 24.000000
147.065410 10.000000
147.080510 169.000000
147.118030 732.000000
147.199750 11.000000
148.089490 12.000000
148.118650 85.000000
148.129270 20.000000
149.047990 14.000000
149.060240 73.000000
149.098040 54.000000
149.114730 8.000000
149.132220 414.000000
149.153900 7.000000
150.067290 16.000000
150.136550 96.000000
150.369230 6.000000
151.078340 27.000000
151.086230 10.000000
151.119750 14.000000
151.140690 9.000000
153.072800 11.000000
153.125060 7.000000
154.240390 8.000000
155.079530 47.000000
155.087890 99.000000
156.092800 19.000000
156.684590 8.000000
157.061580 6.000000
157.070530 17.000000
157.083600 13.000000
157.101780 301.000000
158.096770 11.000000
158.104660 36.000000
158.113240 29.000000
159.074100 31.000000
159.082150 70.000000
159.092360 19.000000
159.105220 53.000000
159.116900 567.000000
159.134670 12.000000
159.540160 7.000000
160.120270 108.000000
161.060870 64.000000
161.096510 344.000000
161.132420 759.000000
161.204730 8.000000
161.442890 7.000000
162.070830 6.000000
162.086930 9.000000
162.095380 25.000000
162.102190 11.000000
162.128190 13.000000
162.138320 97.000000
162.154080 9.000000
163.070860 7.000000
163.078030 6.000000
163.101780 13.000000
163.111100 39.000000
163.141560 44.000000
163.151470 58.000000
163.298900 9.000000
165.052690 14.000000
165.061520 20.000000
165.067310 6.000000
165.088560 42.000000
165.126800 16.000000
166.041410 8.000000
166.060060 17.000000
167.067050 63.000000
167.081730 31.000000
168.080760 13.000000
168.865200 9.000000
169.063800 6.000000
169.099780 166.000000
169.176570 9.000000
170.074230 9.000000
170.097760 16.000000
170.106460 8.000000
171.062680 8.000000
171.077970 39.000000
171.089480 8.000000
171.114990 312.000000
171.123020 82.000000
171.424530 11.000000
171.612980 8.000000
172.075900 14.000000
172.091800 8.000000
172.115590 26.000000
172.123690 15.000000
172.134810 6.000000
173.059310 22.000000
173.097670 117.000000
173.110320 30.000000
173.133040 393.000000
174.096310 9.000000
174.103070 7.000000
174.118710 12.000000
174.137020 61.000000
175.061970 7.000000
175.078840 89.000000
175.092480 9.000000
175.111340 60.000000
175.126460 9.000000
175.148380 274.000000
175.393230 7.000000
175.531340 6.000000
176.070140 8.000000
176.114970 6.000000
176.147840 47.000000
177.087680 93.000000
177.126560 6.000000
178.067790 8.000000
179.067750 17.000000
179.085210 34.000000
179.099000 7.000000
179.108760 16.000000
180.096370 6.000000
180.145080 7.000000
181.069900 8.000000
181.081190 8.000000
181.101620 95.000000
181.831510 7.000000
182.098430 6.000000
182.109990 20.000000
183.082700 58.000000
183.115720 147.000000
183.132310 20.000000
184.080960 7.000000
184.107210 8.000000
184.123720 54.000000
185.062190 8.000000
185.099640 61.000000
185.132610 241.000000
186.069050 8.000000
186.096760 21.000000
186.134120 24.000000
186.156660 11.000000
187.076780 63.000000
187.110030 49.000000
187.117080 38.000000
187.151670 196.000000
187.195330 6.000000
188.114470 8.000000
188.125960 9.000000
188.144040 14.000000
188.155780 39.000000
189.072890 11.000000
189.085270 54.000000
189.095570 83.000000
189.122220 37.000000
189.130020 38.000000
189.166530 49.000000
189.221850 8.000000
190.091490 30.000000
191.097640 28.000000
191.105210 60.000000
191.116990 12.000000
191.146730 7.000000
192.104020 6.000000
192.109220 16.000000
192.138840 7.000000
192.152710 12.000000
193.079450 8.000000
193.088210 9.000000
193.129350 9.000000
193.644130 8.000000
194.100110 8.000000
194.112110 10.000000
194.745210 7.000000
195.054860 11.000000
195.069560 16.000000
195.082000 8.000000
195.104980 13.000000
195.116120 84.000000
196.115430 11.000000
196.127270 30.000000
197.100690 67.000000
197.122890 14.000000
197.135220 156.000000
198.137390 19.000000
198.143690 6.000000
198.855900 6.000000
199.068760 36.000000
199.079960 12.000000
199.112630 121.000000
199.149020 391.000000
199.442520 8.000000
200.079850 13.000000
200.109800 29.000000
200.118840 8.000000
200.138890 6.000000
200.151320 17.000000
200.159520 39.000000
200.804020 8.000000
200.898190 9.000000
201.083540 30.000000
201.092900 108.000000
201.104030 15.000000
201.123660 79.000000
201.163770 291.000000
202.089070 19.000000
202.112270 9.000000
202.170030 22.000000
203.091080 11.000000
203.104000 89.000000
203.120120 9.000000
203.138350 47.000000
203.149260 7.000000
203.183690 7.000000
204.101380 8.000000
204.111180 16.000000
204.151030 9.000000
205.118160 19.000000
207.084670 9.000000
207.102750 16.000000
207.114380 36.000000
207.123290 27.000000
207.138720 13.000000
208.123260 6.000000
209.094420 45.000000
209.110380 6.000000
209.129040 65.000000
209.138260 43.000000
210.094040 6.000000
210.128880 30.000000
210.141050 46.000000
211.043810 14.000000
211.111590 55.000000
211.134050 34.000000
211.147550 162.000000
212.163100 22.000000
212.547840 6.000000
212.882200 8.000000
213.073240 8.000000
213.088150 17.000000
213.121520 29.000000
213.132100 43.000000
213.161610 127.000000
213.183590 9.000000
214.036300 6.000000
214.090290 6.000000
214.122910 6.000000
214.139760 18.000000
214.159260 29.000000
214.173520 40.000000
215.067280 11.000000
215.101290 32.000000
215.112850 26.000000
215.129030 15.000000
215.142720 115.000000
215.175430 256.000000
216.099290 23.000000
216.110990 15.000000
216.151900 6.000000
216.177400 9.000000
216.189360 15.000000
216.202420 7.000000
217.121520 89.000000
217.158160 6.000000
217.172940 9.000000
217.197070 41.000000
217.418870 8.000000
218.107570 8.000000
218.124770 15.000000
218.197950 22.000000
219.104900 15.000000
219.117900 8.000000
219.134400 17.000000
220.141390 9.000000
220.262820 6.000000
220.708830 7.000000
221.105870 7.000000
221.120650 22.000000
221.135590 60.000000
222.102550 19.000000
222.909820 7.000000
223.095440 11.000000
223.108470 24.000000
223.118710 25.000000
223.147160 55.000000
224.106120 13.000000
224.115570 13.000000
224.145710 8.000000
224.156330 36.000000
225.090470 6.000000
225.119400 26.000000
225.130480 78.000000
225.163450 38.000000
225.171020 33.000000
226.086520 6.000000
226.126570 38.000000
226.153090 14.000000
226.173200 31.000000
227.104610 29.000000
227.144230 127.000000
227.179780 132.000000
229.120790 92.000000
229.130920 39.000000
229.148270 16.000000
229.157270 25.000000
229.196210 71.000000
229.218670 15.000000
230.126070 9.000000
230.159840 6.000000
231.036360 8.000000
231.099200 8.000000
231.121670 8.000000
231.139770 93.000000
231.170760 10.000000
231.202560 8.000000
231.809010 7.000000
232.094650 6.000000
232.138470 6.000000
233.104370 14.000000
233.120220 18.000000
233.152500 15.000000
233.650920 20.000000
234.135210 8.000000
235.108460 10.000000
235.142150 93.000000
236.165220 8.000000
236.298190 7.000000
237.078990 13.000000
237.124370 39.000000
237.142680 8.000000
237.161500 95.000000
238.132920 30.000000
239.141710 72.000000
239.161250 7.000000
239.180010 70.000000
239.187100 35.000000
240.138090 9.000000
240.151340 7.000000
240.177980 21.000000
240.194030 7.000000
241.098050 19.000000
241.117340 71.000000
241.151630 25.000000
241.195080 36.000000
241.205780 15.000000
241.267140 7.000000
242.122270 30.000000
242.200270 8.000000
243.133940 88.000000
243.143130 98.000000
243.192460 7.000000
243.214450 16.000000
244.136400 19.000000
244.145600 17.000000
245.137390 11.000000
245.148710 56.000000
245.159820 23.000000
245.273670 7.000000
245.897400 11.000000
246.129730 16.000000
246.162120 17.000000
247.120560 7.000000
247.139940 16.000000
247.169100 17.000000
248.140960 8.000000
248.184830 9.000000
248.633670 8.000000
249.121540 14.000000
249.164960 63.000000
250.132160 11.000000
250.169370 64.000000
251.142500 88.000000
251.172940 82.000000
251.183820 72.000000
252.023730 6.000000
252.146700 22.000000
252.174100 14.000000
252.189320 42.000000
252.532520 10.000000
252.625470 9.000000
253.118700 7.000000
253.147260 8.000000
253.167920 36.000000
253.195590 178.000000
254.175370 6.000000
254.199070 71.000000
254.759780 6.000000
255.075820 7.000000
255.100130 8.000000
255.109480 6.000000
255.134870 56.000000
255.152360 39.000000
255.173780 22.000000
255.210330 1000.000000
255.700590 9.000000
256.038640 8.000000
256.128230 6.000000
256.137540 27.000000
256.212890 284.000000
256.228670 46.000000
257.147250 67.000000
257.157840 66.000000
257.189090 7.000000
257.215150 6.000000
257.225710 26.000000
257.661930 11.000000
257.714600 8.000000
258.156160 11.000000
258.228760 12.000000
258.505770 11.000000
259.139590 21.000000
259.154480 28.000000
259.168880 8.000000
260.167630 7.000000
261.145630 7.000000
261.162170 6.000000
262.152590 7.000000
262.167360 11.000000
263.133700 9.000000
263.154110 10.000000
263.172760 32.000000
263.184690 29.000000
263.194730 20.000000
263.594060 9.000000
264.143070 8.000000
264.184420 18.000000
265.158330 31.000000
265.192410 33.000000
265.203670 37.000000
266.155820 8.000000
266.204530 56.000000
267.171690 8.000000
267.210240 176.000000
268.192900 7.000000
268.210910 36.000000
268.222290 11.000000
269.149900 84.000000
269.162960 108.000000
269.188900 47.000000
269.222600 15.000000
270.152710 20.000000
270.163270 50.000000
270.197540 8.000000
271.162410 28.000000
271.182070 36.000000
271.197170 9.000000
271.208040 33.000000
272.151640 6.000000
273.161770 6.000000
273.178770 8.000000
273.188900 6.000000
273.214450 28.000000
273.226170 7.000000
274.168980 8.000000
274.209720 9.000000
274.219850 8.000000
274.770320 8.000000
275.140900 9.000000
275.174870 15.000000
277.157380 8.000000
277.167480 15.000000
277.194890 28.000000
278.173030 15.000000
278.203670 23.000000
278.565860 6.000000
279.238980 6.000000
281.158360 33.000000
281.189060 31.000000
281.239410 11.000000
282.164340 10.000000
283.164550 98.000000
283.629490 16.000000
284.180020 13.000000
284.215850 8.000000
285.191190 8.000000
285.224240 39.000000
287.166290 9.000000
287.186950 17.000000
287.204280 9.000000
288.158750 8.000000
289.171170 11.000000
289.186310 23.000000
289.195590 23.000000
290.190950 8.000000
291.169710 32.000000
291.199190 60.000000
291.215610 73.000000
292.152740 9.000000
292.201170 15.000000
292.217620 32.000000
293.210140 8.000000
294.199340 8.000000
295.168950 97.000000
295.185670 27.000000
295.193300 13.000000
296.161290 8.000000
296.175260 31.000000
296.245640 6.000000
296.780550 11.000000
297.179900 10.000000
300.214540 10.000000
303.219240 22.000000
303.228270 9.000000
304.880740 8.000000
305.190090 19.000000
305.219060 48.000000
305.230290 100.000000
305.242430 22.000000
306.164460 7.000000
306.189270 8.000000
306.218140 8.000000
307.207060 17.000000
307.243380 22.000000
309.186460 15.000000
309.196560 22.000000
309.550170 6.000000
310.186250 15.000000
310.203120 28.000000
310.376890 8.000000
311.186920 8.000000
313.188200 11.000000
313.398070 8.000000
315.203430 32.000000
315.217410 15.000000
316.212550 13.000000
316.224300 7.000000
320.519260 7.000000
322.199250 7.000000
323.180970 10.000000
323.200560 38.000000
323.234410 77.000000
323.247500 20.000000
324.217800 11.000000
324.236450 43.000000
325.717290 9.000000
333.220000 134.000000
334.212710 9.000000
334.226650 31.000000
336.216800 8.000000
336.229860 13.000000
340.243650 6.000000
341.248660 24.000000
342.257480 11.000000
349.205350 9.000000
351.208830 50.000000
351.227330 275.000000
351.239500 159.000000
351.438170 7.000000
351.484950 7.000000
352.207890 8.000000
352.231350 117.000000
352.247620 37.000000
352.408690 13.000000
353.048280 6.000000
353.226930 8.000000
353.243410 7.000000
355.783260 6.000000
369.204650 9.000000
369.243590 815.000000
369.522770 9.000000
370.133150 10.000000
370.168270 20.000000
370.219700 8.000000
370.238680 45.000000
370.254610 96.000000
371.240690 15.000000
381.729800 10.000000
381.861420 6.000000
387.250730 480.000000
387.270780 77.000000

>ms2
53.030380 9.000000
55.051610 19.000000
55.057600 18.000000
58.790250 6.000000
67.040400 9.000000
67.054550 155.000000
68.056750 9.000000
69.071590 40.000000
77.037140 75.000000
77.044400 32.000000
77.066850 6.000000
79.045450 18.000000
79.054950 241.000000
79.110010 6.000000
79.851720 6.000000
80.048740 8.000000
80.056500 7.000000
81.039350 10.000000
81.047790 5.000000
81.070190 238.000000
82.070970 20.000000
82.075520 13.000000
83.047190 9.000000
83.052950 9.000000
83.081270 10.000000
83.086800 6.000000
83.930680 9.000000
85.014130 10.000000
89.671150 11.000000
91.029420 8.000000
91.054080 666.000000
92.049770 11.000000
92.054800 23.000000
92.059140 29.000000
92.159390 7.000000
92.389200 6.000000
93.053320 8.000000
93.070300 486.000000
93.583140 5.000000
94.040750 11.000000
94.072170 20.000000
94.558430 6.000000
94.794370 5.000000
95.008710 13.000000
95.042810 8.000000
95.049840 36.000000
95.055540 15.000000
95.084260 290.000000
96.087200 30.000000
96.093930 6.000000
97.027320 7.000000
97.033840 17.000000
97.063090 7.000000
97.495650 6.000000
103.051120 34.000000
103.058160 42.000000
105.050090 19.000000
105.069820 1000.000000
105.202430 6.000000
106.039500 6.000000
106.073960 71.000000
107.051070 102.000000
107.084670 390.000000
107.104610 9.000000
107.957100 6.000000
108.088220 42.000000
108.096440 11.000000
109.027250 53.000000
109.048420 6.000000
109.070820 13.000000
109.087820 18.000000
109.100660 92.000000
109.732530 6.000000
111.042370 9.000000
111.180370 8.000000
113.022440 9.000000
113.058880 6.000000
115.043010 14.000000
115.056310 83.000000
115.168810 7.000000
116.059600 67.000000
117.069770 359.000000
118.056640 6.000000
118.067280 15.000000
118.076800 33.000000
118.978880 5.000000
119.049100 35.000000
119.063690 6.000000
119.084620 601.000000
119.110950 7.000000
120.057050 7.000000
120.070500 7.000000
120.084720 29.000000
120.092890 22.000000
121.065060 64.000000
121.073480 23.000000
121.090690 13.000000
121.101890 148.000000
122.065940 14.000000
122.106010 7.000000
123.041050 15.000000
123.049360 46.000000
123.081600 19.000000
123.111820 13.000000
123.118530 33.000000
124.050130 14.000000
124.074320 5.000000
124.120090 9.000000
124.131230 6.000000
124.274110 8.000000
127.055480 27.000000
128.034990 6.000000
128.060820 168.000000
128.072910 24.000000
129.066800 125.000000
129.073490 118.000000
130.075900 156.000000
130.085850 19.000000
130.992660 5.000000
131.045270 33.000000
131.052120 14.000000
131.084400 505.000000
131.703060 7.000000
132.049500 16.000000
132.061420 12.000000
132.094210 40.000000
133.043170 9.000000
133.065320 45.000000
133.079570 9.000000
133.101390 523.000000
134.103640 34.000000
134.111540 30.000000
135.035690 6.000000
135.049760 32.000000
135.081340 28.000000
135.108470 7.000000
135.116940 64.000000
136.051270 6.000000
136.117420 6.000000
136.125670 6.000000
137.054490 13.000000
137.062350 15.000000
137.095170 8.000000
138.068310 12.000000
140.065350 11.000000
141.070830 206.000000
141.429340 8.000000
141.945210 7.000000
142.077240 154.000000
142.087370 13.000000
142.658570 6.000000
143.049870 11.000000
143.084630 321.000000
144.069950 5.000000
144.089860 87.000000
144.099240 35.000000
145.064870 88.000000
145.100340 347.000000
146.073290 85.000000
146.101030 27.000000
146.107240 38.000000
146.680130 7.000000
147.039830 11.000000
147.047150 28.000000
147.075180 57.000000
147.082060 67.000000
147.117540 225.000000
148.051590 5.000000
148.084240 13.000000
148.110570 6.000000
148.119080 13.000000
149.062760 12.000000
149.089070 7.000000
149.116470 6.000000
149.123930 7.000000
149.134610 23.000000
151.034910 6.000000
151.112660 7.000000
152.108260 6.000000
153.056260 12.000000
153.069840 126.000000
154.072390 54.000000
154.082860 28.000000
154.590760 5.000000
154.688950 9.000000
155.081220 48.000000
155.088320 117.000000
156.091750 76.000000
157.058520 14.000000
157.097340 80.000000
157.104800 54.000000
158.067080 8.000000
158.075210 6.000000
158.098980 17.000000
158.109950 62.000000
158.972200 6.000000
159.045490 8.000000
159.064100 15.000000
159.079860 38.000000
159.095990 7.000000
159.118010 145.000000
159.779950 9.000000
160.084210 33.000000
160.093090 9.000000
160.117080 37.000000
160.508190 5.000000
160.968310 7.000000
161.027070 6.000000
161.067310 19.000000
161.081800 13.000000
161.097490 81.000000
161.128800 61.000000
161.136310 68.000000
162.106480 12.000000
162.136250 12.000000
163.071080 6.000000
163.105390 13.000000
165.056050 6.000000
165.067700 46.000000
165.075210 33.000000
166.053970 8.000000
166.063160 6.000000
166.077120 62.000000
166.114590 5.000000
167.077350 35.000000
167.088030 86.000000
168.054460 14.000000
168.071030 9.000000
168.090770 75.000000
168.104310 15.000000
169.101000 159.000000
170.072250 16.000000
170.085850 19.000000
170.105000 11.000000
170.329500 6.000000
171.077990 59.000000
171.099210 7.000000
171.118160 97.000000
172.121630 20.000000
173.057630 14.000000
173.100110 34.000000
173.115780 7.000000
173.130980 102.000000
173.136630 46.000000
174.057690 6.000000
174.067110 6.000000
174.105010 7.000000
174.134570 15.000000
174.148730 14.000000
175.078380 5.000000
175.148570 7.000000
176.115510 6.000000
178.076190 28.000000
178.085480 5.000000
179.078690 27.000000
179.091280 17.000000
180.094770 24.000000
181.073260 11.000000
181.093430 46.000000
181.102250 84.000000
181.116070 7.000000
182.067920 7.000000
182.102950 54.000000
182.112080 32.000000
183.083530 21.000000
183.112700 25.000000
183.120640 93.000000
184.083420 18.000000
184.107740 6.000000
184.122710 19.000000
185.074660 7.000000
185.085310 7.000000
185.094120 18.000000
185.121020 17.000000
185.129560 40.000000
186.095200 10.000000
186.129150 13.000000
187.072890 10.000000
187.081560 12.000000
187.113510 13.000000
187.149200 24.000000
189.083790 10.000000
189.090620 26.000000
189.133320 7.000000
192.071960 6.000000
192.084700 18.000000
192.093190 45.000000
193.092650 7.000000
193.102540 21.000000
194.066990 14.000000
194.109940 22.000000
195.081130 6.000000
195.117800 66.000000
196.133070 14.000000
197.113460 7.000000
197.127440 12.000000
197.133300 28.000000
198.108060 11.000000
198.128880 7.000000
198.139860 7.000000
199.069820 14.000000
199.109650 9.000000
199.149580 59.000000
200.087540 6.000000
200.097470 6.000000
201.105500 7.000000
201.158680 6.000000
202.158190 6.000000
202.170550 6.000000
203.084610 14.000000
205.071460 10.000000
205.100100 34.000000
205.119200 5.000000
206.101850 8.000000
206.114550 15.000000
207.082150 15.000000
207.109020 21.000000
207.123320 25.000000
207.992290 6.000000
208.095700 5.000000
209.094620 6.000000
209.130710 14.000000
209.141690 31.000000
211.100420 6.000000
211.114550 10.000000
211.122280 8.000000
211.146090 29.000000
211.156280 6.000000
211.213680 8.000000
212.146300 17.000000
212.158550 18.000000
213.096300 7.000000
213.157670 9.000000
214.125080 7.000000
214.137970 11.000000
214.163910 10.000000
216.147920 6.000000
217.092350 6.000000
219.115070 14.000000
220.095000 7.000000
221.133130 28.000000
222.148680 8.000000
223.158600 9.000000
227.107930 17.000000
229.163450 9.000000
231.169480 7.000000
232.146910 10.000000
233.133760 14.000000
234.149540 6.000000
234.811610 7.000000
235.151540 22.000000
237.135280 8.000000
237.167010 8.000000
239.142290 5.000000
239.174850 11.000000
239.180980 6.000000
239.892760 5.000000
240.178120 5.000000
240.260270 6.000000
242.125080 6.000000
242.724530 6.000000
246.135380 6.000000
248.017030 6.000000
249.112920 11.000000
249.155720 8.000000
251.177730 7.000000
256.212490 10.000000
259.356750 6.000000
261.155850 6.000000
262.147340 8.000000
265.187320 7.000000
274.173030 10.000000
277.194090 9.000000
281.148960 5.000000
285.160550 5.000000
289.168210 7.000000
295.199490 11.000000
307.209930 7.000000
324.684660 5.000000
369.234830 16.000000

>ms2
81.071680 10.000000
93.069260 11.000000
105.069640 13.000000
107.047190 6.000000
107.086430 18.000000
109.103010 6.000000
117.071530 6.000000
119.087810 11.000000
121.101140 13.000000
123.042500 6.000000
131.081150 5.000000
131.087360 12.000000
133.102840 16.000000
135.107680 5.000000
135.115800 20.000000
143.086530 7.000000
145.101960 17.000000
147.115370 25.000000
149.133240 10.000000
155.087490 5.000000
157.102130 5.000000
159.115800 24.000000
161.093280 9.000000
161.132050 31.000000
171.116500 6.000000
173.131820 15.000000
175.145140 7.000000
181.101120 8.000000
185.132080 7.000000
197.129820 11.000000
199.145450 8.000000
201.166930 7.000000
209.131880 6.000000
215.178130 7.000000
217.125900 5.000000
223.142910 6.000000
229.198530 6.000000
231.142900 7.000000
243.140460 8.000000
255.137590 7.000000
255.210940 41.000000
256.216090 17.000000
267.213010 6.000000
269.157440 6.000000
305.221160 6.000000
323.237030 6.000000
333.217900 13.000000
351.228180 45.000000
351.239620 19.000000
352.236420 16.000000
369.241640 29.000000
387.199830 6.000000
387.252230 1000.000000
387.308230 18.000000

>ms2
387.253420 1000.000000
387.310460 26.000000

>ms2
81.071500 7.000000
95.083380 6.000000
105.069360 8.000000
107.084760 21.000000
119.084750 14.000000
121.099830 13.000000
122.105150 6.000000
131.085950 15.000000
133.101430 15.000000
135.046070 6.000000
135.117000 10.000000
143.089250 6.000000
145.098630 15.000000
145.105850 5.000000
147.114820 22.000000
149.130510 14.000000
155.080930 6.000000
157.099700 9.000000
159.116580 14.000000
161.095230 11.000000
161.127000 8.000000
161.133190 18.000000
171.114880 5.000000
175.155400 5.000000
183.115690 7.000000
185.128600 9.000000
187.146880 9.000000
199.148150 9.000000
213.166600 8.000000
215.105740 5.000000
215.179750 6.000000
217.123980 6.000000
255.142410 6.000000
255.212100 38.000000
256.215670 8.000000
305.223940 10.000000
333.217800 6.000000
341.248290 7.000000
351.229740 53.000000
352.239320 16.000000
369.241700 26.000000
369.252500 8.000000
370.244930 12.000000
387.252780 1000.000000
387.309420 21.000000

>ms2
387.254330 1000.000000
387.311310 27.000000

>ms2
56.057610 9.000000
57.035520 11.000000
67.055990 34.000000
69.037200 8.000000
69.069400 24.000000
71.049890 8.000000
79.054140 81.000000
80.059960 19.000000
81.060390 27.000000
81.069620 286.000000
82.071810 13.000000
82.385410 7.000000
83.080470 7.000000
83.086760 36.000000
86.066310 8.000000
91.055500 118.000000
92.056820 14.000000
92.523340 6.000000
92.986920 7.000000
93.071210 193.000000
94.078600 8.000000
94.285290 6.000000
95.011970 6.000000
95.049950 7.000000
95.081950 101.000000
95.086250 219.000000
96.083480 11.000000
96.090190 28.000000
97.023250 7.000000
97.030630 14.000000
97.065420 6.000000
97.099740 13.000000
99.792700 14.000000
101.022120 7.000000
102.265190 7.000000
102.866100 7.000000
105.071020 304.000000
106.075180 38.000000
106.722300 7.000000
107.049240 110.000000
107.071380 7.000000
107.084470 511.000000
107.166760 7.000000
107.197350 7.000000
107.367000 6.000000
108.087140 26.000000
108.093400 17.000000
108.573620 9.000000
109.059350 10.000000
109.065840 13.000000
109.074070 7.000000
109.087520 9.000000
109.101490 311.000000
110.106090 25.000000
111.039460 10.000000
111.049410 7.000000
111.076520 33.000000
111.083760 7.000000
113.022300 11.000000
113.095730 10.000000
114.171230 11.000000
115.031340 13.000000
115.039510 7.000000
116.267140 7.000000
117.070950 152.000000
118.065750 7.000000
118.838590 12.000000
119.049810 16.000000
119.085350 375.000000
119.616000 7.000000
120.087790 7.000000
120.097620 7.000000
121.034830 10.000000
121.061580 37.000000
121.067500 69.000000
121.101300 478.000000
121.670360 6.000000
122.103680 87.000000
122.201320 6.000000
123.044320 112.000000
123.077000 31.000000
123.089840 6.000000
123.116910 127.000000
123.591870 6.000000
124.045140 6.000000
124.122740 8.000000
124.763920 9.000000
125.059520 16.000000
125.090630 12.000000
125.100850 7.000000
128.053910 11.000000
128.061600 7.000000
128.663740 11.000000
129.069080 49.000000
129.082400 14.000000
131.045410 19.000000
131.085310 278.000000
131.094970 33.000000
132.087540 60.000000
133.021840 7.000000
133.065220 73.000000
133.100420 431.000000
133.178340 7.000000
134.075850 8.000000
134.101440 10.000000
134.107940 18.000000
134.119050 7.000000
134.355680 7.000000
135.043300 118.000000
135.081180 67.000000
135.116330 461.000000
135.382830 8.000000
136.105180 7.000000
136.121110 74.000000
137.061310 115.000000
137.096080 28.000000
137.129320 26.000000
138.062700 6.000000
138.069930 6.000000
139.039380 10.000000
139.778700 7.000000
139.924450 8.000000
140.380510 6.000000
141.068940 15.000000
142.191410 7.000000
143.045380 14.000000
143.052760 8.000000
143.069900 6.000000
143.084760 165.000000
143.978740 8.000000
144.089200 33.000000
145.049710 7.000000
145.066120 34.000000
145.100560 635.000000
145.481120 6.000000
145.916020 6.000000
146.063430 15.000000
146.076520 8.000000
146.093870 11.000000
146.106310 77.000000
147.037950 26.000000
147.046480 21.000000
147.061400 7.000000
147.078660 114.000000
147.116210 862.000000
148.095600 13.000000
148.122470 62.000000
149.058790 42.000000
149.092000 32.000000
149.102040 25.000000
149.130770 379.000000
149.136630 142.000000
150.135350 39.000000
151.035350 7.000000
151.052490 12.000000
151.072750 15.000000
151.082580 10.000000
151.109990 7.000000
151.148040 7.000000
152.077760 7.000000
152.155990 10.000000
152.661680 8.000000
152.830700 7.000000
153.053880 7.000000
153.071700 22.000000
153.097660 7.000000
154.414510 9.000000
155.082170 45.000000
155.088750 41.000000
155.110610 8.000000
156.080860 7.000000
156.098630 12.000000
156.103560 6.000000
157.065720 43.000000
157.073530 21.000000
157.086360 17.000000
157.099290 176.000000
157.105510 59.000000
158.068070 13.000000
158.103610 61.000000
158.116470 6.000000
159.039470 8.000000
159.047350 11.000000
159.068790 15.000000
159.080050 48.000000
159.088750 49.000000
159.116910 578.000000
160.082610 25.000000
160.092240 10.000000
160.112590 42.000000
160.123810 70.000000
161.025090 7.000000
161.055770 33.000000
161.064320 35.000000
161.096790 396.000000
161.110950 14.000000
161.132310 924.000000
162.094210 6.000000
162.102290 8.000000
162.117510 15.000000
162.135620 105.000000
162.146240 13.000000
162.318150 8.000000
163.075420 58.000000
163.109150 16.000000
163.118520 18.000000
163.137990 26.000000
163.149700 138.000000
164.116200 7.000000
164.153490 6.000000
164.162640 13.000000
165.047680 17.000000
165.054490 25.000000
165.063460 35.000000
165.084140 36.000000
165.094530 18.000000
165.109210 7.000000
165.124880 8.000000
166.067890 7.000000
166.078290 8.000000
166.094240 7.000000
167.069520 63.000000
167.087200 90.000000
167.103120 8.000000
167.115020 20.000000
168.092700 9.000000
168.717800 9.000000
169.055730 9.000000
169.092270 33.000000
169.100950 53.000000
169.110430 36.000000
170.069320 17.000000
170.094710 15.000000
170.105930 41.000000
170.120250 7.000000
170.444520 6.000000
170.508700 7.000000
171.076220 31.000000
171.087270 33.000000
171.116060 272.000000
171.871460 6.000000
172.032590 12.000000
172.063170 9.000000
172.080170 7.000000
172.124650 25.000000
172.583160 9.000000
173.057280 26.000000
173.068630 25.000000
173.081330 11.000000
173.095340 168.000000
173.131240 455.000000
173.884810 8.000000
174.025740 7.000000
174.062330 9.000000
174.075610 6.000000
174.116380 7.000000
174.136170 62.000000
175.075650 83.000000
175.107470 29.000000
175.119890 15.000000
175.149140 221.000000
175.165530 16.000000
176.071140 8.000000
176.082290 21.000000
176.142650 16.000000
177.079360 8.000000
177.096270 26.000000
177.147870 7.000000
177.159040 9.000000
178.086110 22.000000
178.120740 12.000000
178.129780 8.000000
178.174290 7.000000
179.065320 8.000000
179.072070 11.000000
179.085780 20.000000
179.092730 25.000000
179.105550 51.000000
180.075810 15.000000
181.091580 15.000000
181.102490 20.000000
181.110020 28.000000
182.104660 23.000000
183.076950 16.000000
183.088010 12.000000
183.117290 134.000000
183.124370 65.000000
184.078840 11.000000
184.116810 22.000000
184.745540 7.000000
185.066130 19.000000
185.090530 32.000000
185.100950 42.000000
185.129270 219.000000
186.090520 13.000000
186.139860 51.000000
187.075380 91.000000
187.113970 61.000000
187.147610 308.000000
187.862670 7.000000
188.072170 9.000000
188.109990 7.000000
188.140210 24.000000
188.153640 22.000000
189.087710 135.000000
189.099400 38.000000
189.116930 10.000000
189.127960 34.000000
189.151550 10.000000
189.164440 25.000000
189.794270 10.000000
190.094680 11.000000
190.132580 10.000000
190.157320 9.000000
191.071270 7.000000
191.085600 9.000000
191.102390 86.000000
191.113660 23.000000
191.149510 9.000000
192.091830 11.000000
192.728440 8.000000
193.086580 27.000000
193.105150 21.000000
193.123520 7.000000
194.115590 13.000000
194.839040 7.000000
195.083630 18.000000
195.113820 75.000000
195.123470 42.000000
195.130660 12.000000
196.087590 19.000000
196.124660 57.000000
197.092040 29.000000
197.107560 10.000000
197.132110 252.000000
197.150920 8.000000
198.100130 8.000000
198.140230 33.000000
199.049040 6.000000
199.084920 7.000000
199.112460 116.000000
199.142430 128.000000
199.152010 193.000000
200.117430 36.000000
200.138760 16.000000
200.155840 86.000000
201.080890 8.000000
201.094040 24.000000
201.105500 7.000000
201.119770 46.000000
201.130800 52.000000
201.145100 8.000000
201.165020 215.000000
201.565800 6.000000
202.143340 12.000000
202.162290 24.000000
202.176420 23.000000
203.068240 7.000000
203.106670 100.000000
203.136990 17.000000
203.148800 14.000000
203.158950 21.000000
203.187380 14.000000
204.101120 28.000000
204.108870 15.000000
204.537960 9.000000
205.089230 23.000000
205.106080 13.000000
205.121670 29.000000
205.154530 7.000000
205.172230 7.000000
206.103270 22.000000
207.118940 14.000000
207.143890 9.000000
208.097060 7.000000
208.150300 7.000000
209.094560 11.000000
209.110790 33.000000
209.131330 164.000000
210.135060 9.000000
210.150480 11.000000
211.103880 14.000000
211.116500 7.000000
211.140270 90.000000
211.149960 108.000000
211.683560 8.000000
212.090960 13.000000
212.121690 15.000000
212.149170 22.000000
212.159260 7.000000
213.093980 14.000000
213.128740 107.000000
213.161650 224.000000
214.139270 9.000000
214.161870 16.000000
214.170580 7.000000
215.098020 34.000000
215.110870 62.000000
215.127170 8.000000
215.140150 36.000000
215.150860 33.000000
215.177000 206.000000
215.236630 7.000000
216.106490 6.000000
216.115880 15.000000
216.183230 21.000000
217.123020 49.000000
217.190860 17.000000
217.996920 12.000000
218.117600 6.000000
218.127690 8.000000
219.104250 14.000000
219.140010 17.000000
219.149030 12.000000
219.163070 7.000000
220.131900 6.000000
221.134950 14.000000
222.134120 8.000000
223.098420 27.000000
223.111720 61.000000
223.148390 108.000000
224.113600 14.000000
224.151120 21.000000
225.084470 7.000000
225.092300 9.000000
225.112810 15.000000
225.128050 86.000000
225.156680 44.000000
225.167360 68.000000
225.643070 7.000000
226.120730 8.000000
226.129330 7.000000
226.162770 9.000000
226.178240 17.000000
227.089860 14.000000
227.108180 23.000000
227.130280 7.000000
227.144580 65.000000
227.174070 65.000000
227.187210 38.000000
228.102600 9.000000
228.116260 9.000000
228.133880 8.000000
228.158400 8.000000
228.174090 7.000000
228.182920 7.000000
228.270490 7.000000
229.099580 9.000000
229.123350 122.000000
229.130920 32.000000
229.142010 7.000000
229.171570 9.000000
229.196960 113.000000
229.206880 32.000000
230.001330 10.000000
230.119600 21.000000
230.196300 9.000000
230.205000 13.000000
231.142010 69.000000
231.166600 8.000000
231.175250 8.000000
232.125030 15.000000
233.114810 21.000000
233.129360 49.000000
233.142990 7.000000
233.155840 9.000000
233.192930 7.000000
234.124440 7.000000
234.137850 8.000000
235.147860 99.000000
235.159500 16.000000
236.113740 7.000000
236.150020 10.000000
236.158480 6.000000
236.614960 7.000000
237.122880 30.000000
237.137600 21.000000
237.161270 62.000000
237.171100 48.000000
238.125320 10.000000
238.175490 13.000000
239.111130 14.000000
239.139470 34.000000
239.169330 17.000000
239.182250 49.000000
240.145320 12.000000
240.183690 31.000000
240.912080 7.000000
241.102480 7.000000
241.119110 141.000000
241.135620 20.000000
241.153210 22.000000
241.165850 34.000000
241.193820 50.000000
241.208180 17.000000
241.255020 7.000000
242.114060 17.000000
242.121200 31.000000
242.133320 7.000000
242.157590 16.000000
242.199920 8.000000
243.121700 6.000000
243.138780 136.000000
243.205580 20.000000
244.138110 32.000000
244.626170 6.000000
245.113100 8.000000
245.128230 37.000000
245.152860 32.000000
245.165770 22.000000
245.189610 15.000000
245.722050 6.000000
246.156850 22.000000
247.132170 8.000000
247.143660 11.000000
247.157930 15.000000
247.189220 7.000000
249.111210 8.000000
249.134020 18.000000
249.156520 50.000000
249.167890 55.000000
250.136200 6.000000
250.164840 37.000000
251.119220 11.000000
251.141070 70.000000
251.156970 21.000000
251.170040 9.000000
251.185040 38.000000
252.185640 35.000000
253.142110 8.000000
253.153790 25.000000
253.167360 23.000000
253.197850 139.000000
253.822010 7.000000
254.193830 39.000000
254.210830 25.000000
254.227250 8.000000
254.248540 7.000000
255.116780 9.000000
255.137920 154.000000
255.163600 12.000000
255.180390 21.000000
255.210360 1000.000000
255.413310 6.000000
256.124850 10.000000
256.139650 28.000000
256.209350 91.000000
256.219480 217.000000
257.112300 7.000000
257.149540 67.000000
257.160460 42.000000
257.198120 13.000000
257.216800 107.000000
257.231870 18.000000
258.140990 6.000000
258.152040 7.000000
258.223300 6.000000
259.148070 22.000000
259.173580 19.000000
259.243620 6.000000
261.145260 6.000000
261.164950 6.000000
262.157750 6.000000
263.009640 15.000000
263.133000 15.000000
263.152740 10.000000
263.166260 12.000000
263.183620 37.000000
264.173370 8.000000
264.186190 9.000000
264.209170 7.000000
264.269410 11.000000
265.145870 25.000000
265.158780 31.000000
265.200070 54.000000
266.196500 7.000000
267.131810 8.000000
267.178990 7.000000
267.208770 120.000000
268.147220 7.000000
268.196590 16.000000
268.210170 43.000000
268.232540 7.000000
269.060880 7.000000
269.134670 7.000000
269.155880 237.000000
269.187560 15.000000
270.146580 8.000000
270.162290 29.000000
270.188720 22.000000
270.213500 9.000000
271.131040 9.000000
271.145360 10.000000
271.160250 8.000000
271.191380 16.000000
272.165590 7.000000
273.151550 17.000000
273.176390 29.000000
273.205320 8.000000
273.216250 18.000000
273.225920 12.000000
274.218320 13.000000
274.538540 16.000000
275.170680 7.000000
275.734680 10.000000
277.154020 14.000000
277.174190 8.000000
277.193480 37.000000
277.609530 9.000000
278.157380 7.000000
278.177640 9.000000
278.196840 8.000000
278.206510 12.000000
279.177670 26.000000
279.198150 16.000000
279.219600 15.000000
280.212340 9.000000
281.158660 44.000000
281.180390 9.000000
281.193120 22.000000
281.218720 14.000000
281.238190 7.000000
282.163730 15.000000
282.190800 20.000000
282.214290 9.000000
282.235260 14.000000
283.163300 37.000000
283.172090 28.000000
285.178860 9.000000
285.206360 8.000000
285.224610 32.000000
286.157380 6.000000
287.167270 9.000000
288.210330 12.000000
289.130220 12.000000
289.199680 23.000000
290.199430 13.000000
291.159450 7.000000
291.197810 49.000000
291.214900 61.000000
292.174800 7.000000
292.205350 26.000000
292.220000 18.000000
292.231380 11.000000
293.066130 6.000000
293.185490 7.000000
293.199370 16.000000
293.223270 15.000000
293.234680 10.000000
294.210850 7.000000
295.176180 38.000000
295.202270 19.000000
295.238650 20.000000
295.252260 6.000000
296.243530 14.000000
296.254210 9.000000
297.179350 6.000000
297.193910 14.000000
297.446230 9.000000
299.217320 7.000000
299.880490 9.000000
300.163910 7.000000
300.187440 15.000000
301.189180 7.000000
303.808620 8.000000
305.190950 46.000000
305.218780 72.000000
305.232480 56.000000
305.254850 9.000000
306.229550 46.000000
306.249940 8.000000
306.683440 7.000000
307.225650 19.000000
307.242740 6.000000
308.170900 7.000000
308.252690 9.000000
309.171910 9.000000
309.193630 13.000000
309.218350 18.000000
310.189730 7.000000
310.220610 7.000000
311.020230 7.000000
311.204250 6.000000
311.215210 8.000000
313.161380 7.000000
315.213590 61.000000
315.781400 7.000000
316.189640 10.000000
316.218110 21.000000
320.550630 6.000000
321.125430 7.000000
321.185210 13.000000
321.198490 7.000000
321.238950 8.000000
321.612300 9.000000
323.195860 43.000000
323.217190 16.000000
323.241030 102.000000
324.099520 8.000000
324.214970 16.000000
324.235930 9.000000
325.206150 16.000000
325.245940 22.000000
326.376680 6.000000
332.683870 6.000000
333.184360 6.000000
333.209750 30.000000
333.221710 120.000000
334.220520 8.000000
334.236690 17.000000
335.238430 12.000000
339.217380 7.000000
341.232300 29.000000
341.257140 25.000000
341.339750 7.000000
342.244230 8.000000
342.256230 7.000000
349.142640 21.000000
351.196720 9.000000
351.230320 364.000000
351.247380 97.000000
352.234100 134.000000
352.891390 7.000000
353.254670 8.000000
354.910890 7.000000
360.942540 7.000000
368.337740 9.000000
368.841310 7.000000
369.188140 18.000000
369.212400 41.000000
369.240140 673.000000
369.337220 7.000000
370.243500 265.000000
370.256230 69.000000
370.419860 6.000000
371.243350 20.000000
371.261200 30.000000
387.190340 7.000000
387.230350 25.000000
387.256010 537.000000

