>compound PR46408491
>parentmass 146.0600402769231
>ionization [M+H]+
>formula C9H7NO
>rt 175.913538
>profile qtof
#smiles_iso C1=CC=C2C(=C1)C(=O)C=CN2
#smiles_can C1=CC=C2C(=C1)C(=O)C=CN2
#inchikey PMZDQRJGMBOQBF-UHFFFAOYSA-N
#pubchem_id 69141
#mb_accession PR300769,PR300774,PR300779,PR300784,PR300789,PR300794,PR300799,PR300804,PR300809,PR300814,PR300819,PR300824,PR310424

>ms2
77.041180 7.000000
91.056510 5.000000
104.051730 13.000000
118.066670 7.000000
146.033950 5.000000
146.060940 1000.000000
146.095090 17.000000

>ms2
146.060910 1000.000000
146.095090 19.000000

>ms2
65.039620 12.000000
77.027690 21.000000
77.035260 87.000000
77.041500 151.000000
78.031460 27.000000
90.050200 16.000000
91.042420 21.000000
91.056510 404.000000
91.781560 16.000000
92.057160 77.000000
93.937680 16.000000
94.059150 12.000000
96.427930 15.000000
101.039480 12.000000
102.040600 12.000000
103.053930 48.000000
104.041330 18.000000
104.046910 42.000000
104.052190 72.000000
104.058110 19.000000
105.048330 12.000000
112.312480 18.000000
117.040900 11.000000
117.049670 11.000000
117.060880 111.000000
118.052550 12.000000
118.065030 140.000000
118.070860 44.000000
119.107550 13.000000
128.049550 70.000000
129.056000 13.000000
146.043700 28.000000
146.061690 1000.000000

>ms2
77.040700 233.000000
91.056020 159.000000
106.058300 64.000000
128.050700 74.000000
146.061070 1000.000000

>ms2
77.040570 12.000000
91.054630 12.000000
104.050380 13.000000
118.064830 20.000000
128.051570 12.000000
146.060650 1000.000000
146.094790 11.000000

>ms2
146.060750 1000.000000
146.094790 24.000000

>ms2
77.041220 284.000000
78.948220 20.000000
78.987340 16.000000
90.042500 17.000000
91.054450 240.000000
93.061300 18.000000
93.647470 17.000000
100.970860 18.000000
101.033620 19.000000
101.041760 15.000000
104.034100 17.000000
104.044570 46.000000
104.050830 110.000000
105.055110 14.000000
117.054150 81.000000
117.061720 19.000000
118.042330 28.000000
118.065610 187.000000
119.074750 23.000000
120.045120 24.000000
128.049410 194.000000
146.061550 1000.000000

>ms2
65.035320 153.000000
77.040150 251.000000
77.044450 104.000000
89.042730 98.000000
101.038110 109.000000
118.068120 109.000000
128.051540 202.000000
146.035220 104.000000
146.058210 1000.000000
146.072250 93.000000

>ms2
77.039870 5.000000
91.053680 11.000000
104.046470 9.000000
104.052060 11.000000
118.065430 12.000000
128.049620 11.000000
146.060460 1000.000000
146.093930 15.000000

>ms2
146.060240 1000.000000
146.093770 30.000000

>ms2
65.041020 14.000000
77.039920 173.000000
78.042170 19.000000
78.047940 11.000000
89.035340 11.000000
89.042890 14.000000
91.054000 152.000000
91.064030 29.000000
92.053020 11.000000
92.061000 13.000000
93.053760 16.000000
101.037870 14.000000
103.063020 11.000000
104.052350 79.000000
105.037580 11.000000
105.044500 11.000000
117.057580 99.000000
118.064190 107.000000
118.071210 35.000000
128.022060 11.000000
128.046360 60.000000
128.055270 11.000000
131.033200 29.000000
146.039580 12.000000
146.062760 1000.000000

>ms2
77.037450 120.000000
77.041470 251.000000
89.033740 109.000000
91.055500 498.000000
101.043670 105.000000
104.049390 127.000000
117.051090 95.000000
128.047640 251.000000
146.061160 1000.000000

>ms2
63.409120 18.000000
77.041180 156.000000
87.712030 25.000000
90.047130 41.000000
91.049130 23.000000
91.056510 115.000000
92.053290 19.000000
97.699160 17.000000
102.037210 20.000000
104.038440 17.000000
104.051730 280.000000
105.035350 41.000000
105.054300 54.000000
116.048290 23.000000
117.041580 36.000000
117.058650 62.000000
117.607310 52.000000
117.664800 21.000000
118.066670 140.000000
119.067700 23.000000
119.072150 57.000000
128.045750 44.000000
128.050810 94.000000
145.980770 21.000000
146.009780 18.000000
146.020260 31.000000
146.033950 113.000000
146.060940 21529.000000
146.095090 366.000000

