>compound PR47211245
>parentmass 611.1606613000001
>ionization [M+H]+
>formula C27H30O16
>rt 231.871980
>profile qtof
#smiles_iso C[C@H]1[C@@H]([C@H]([C@H]([C@@H](O1)OC[C@@H]2[C@H]([C@@H]([C@H]([C@@H](O2)OC3=C(OC4=CC(=CC(=C4C3=O)O)O)C5=CC(=C(C=C5)O)O)O)O)O)O)O)O
#smiles_can CC1C(C(C(C(O1)OCC2C(C(C(C(O2)OC3=C(OC4=CC(=CC(=C4C3=O)O)O)C5=CC(=C(C=C5)O)O)O)O)O)O)O)O
#inchikey IKGXIBQEEMLURG-NVPNHPEKSA-N
#pubchem_id 5280805
#mb_accession PR302694,PR302699,PR302704,PR302709,PR302714,PR302719,PR302724,PR302729,PR302734,PR302739,PR302744,PR302749

>ms2peaks
57.037180 5.000000
57.510940 7.000000
71.051890 6.000000
85.024360 21.000000
97.024450 5.000000
129.048810 8.000000
147.063860 12.000000
148.069050 5.000000
243.080610 6.000000
266.337620 6.000000
273.036130 7.000000
303.048160 1000.000000
303.071810 72.000000
304.030330 32.000000
304.053410 207.000000
304.086610 10.000000
305.047670 16.000000
305.074550 6.000000
345.048800 5.000000
370.891110 12.000000
380.966310 6.000000
449.078340 5.000000
465.104710 113.000000
466.113430 42.000000
611.162110 100.000000
611.196780 11.000000

>ms2peaks
85.025690 7.000000
130.057220 8.000000
147.078280 7.000000
273.097290 11.000000
302.068820 9.000000
302.873050 8.000000
303.004520 9.000000
303.052430 847.000000
304.031130 17.000000
304.055360 124.000000
305.021580 9.000000
305.043550 18.000000
305.065280 40.000000
306.062740 8.000000
382.655460 9.000000
406.649900 12.000000
421.209110 11.000000
448.993190 10.000000
449.072080 15.000000
449.095460 26.000000
449.114750 66.000000
452.099090 9.000000
465.104950 426.000000
466.085210 30.000000
466.107240 94.000000
467.118070 26.000000
468.122890 12.000000
538.442260 11.000000
599.543150 7.000000
609.262080 7.000000
611.097410 23.000000
611.118470 60.000000
611.163450 1000.000000

>ms2peaks
71.046780 11.000000
72.054940 11.000000
85.029150 35.000000
103.040230 5.000000
129.047940 9.000000
129.057240 41.000000
145.047320 5.000000
145.052720 7.000000
147.065380 7.000000
148.075810 7.000000
300.317540 5.000000
302.992650 23.000000
303.008210 12.000000
303.048190 1000.000000
303.109010 9.000000
304.011170 7.000000
304.051510 155.000000
304.067600 26.000000
305.058990 22.000000
316.088010 5.000000
321.084170 9.000000
322.817110 8.000000
395.084380 5.000000
465.111760 9.000000
467.099950 6.000000

>ms2peaks
60.821340 16.000000
71.043260 11.000000
71.049320 21.000000
72.055030 12.000000
73.032650 11.000000
85.028010 59.000000
87.039730 16.000000
109.023770 9.000000
119.048030 21.000000
127.039760 19.000000
127.046680 8.000000
137.024370 53.000000
138.038210 15.000000
145.056410 18.000000
149.023440 25.000000
153.019650 18.000000
154.018620 11.000000
165.010500 12.000000
165.023880 13.000000
166.008220 9.000000
183.047240 14.000000
189.060300 15.000000
195.024060 32.000000
201.067980 16.000000
219.000530 9.000000
219.024690 25.000000
219.064590 13.000000
229.051700 9.000000
229.925750 11.000000
247.043460 9.000000
247.059650 10.000000
257.053960 37.000000
258.050200 15.000000
259.046940 21.000000
274.025270 15.000000
274.049290 28.000000
285.002960 14.000000
285.037660 39.000000
287.048430 8.000000
299.043910 10.000000
302.063170 15.000000
302.724850 10.000000
303.008420 13.000000
303.022310 34.000000
303.050420 1000.000000
303.062650 264.000000
304.037410 9.000000
304.047490 32.000000
304.059880 48.000000
305.061890 13.000000
305.072970 12.000000
313.111270 11.000000
315.049710 20.000000
316.043980 16.000000
355.098970 11.000000
371.993160 8.000000
381.073090 10.000000
397.079800 10.000000

>ms2peaks
71.049390 21.000000
86.030880 7.000000
129.049060 9.000000
147.068540 15.000000
153.009720 10.000000
205.220470 10.000000
229.045350 6.000000
241.552990 7.000000
257.040130 6.000000
302.991150 21.000000
303.049870 1000.000000
303.090090 8.000000
304.013210 9.000000
304.048070 50.000000
304.065770 32.000000
305.055820 35.000000
315.046200 6.000000
347.060550 6.000000
401.390620 6.000000
449.124540 10.000000
450.112460 9.000000
461.048310 7.000000
465.084260 20.000000
465.107060 100.000000
466.117340 8.000000
467.103850 5.000000
500.020540 5.000000
609.151060 6.000000
611.119140 12.000000
611.158690 152.000000

>ms2peaks
70.522580 7.000000
103.037890 9.000000
129.055530 12.000000
130.059660 10.000000
147.065370 16.000000
175.959920 8.000000
185.459370 18.000000
201.072800 12.000000
216.405330 8.000000
217.589000 11.000000
255.089950 6.000000
273.100280 8.000000
279.214540 7.000000
293.447570 10.000000
302.963840 9.000000
302.999850 10.000000
303.013820 8.000000
303.050420 668.000000
304.048650 52.000000
304.060550 44.000000
305.045470 6.000000
305.052950 14.000000
314.572720 6.000000
364.040560 7.000000
408.989470 6.000000
449.114230 30.000000
450.110440 18.000000
452.117070 7.000000
454.083650 7.000000
457.764190 11.000000
464.318270 7.000000
465.021820 6.000000
465.060490 7.000000
465.083650 49.000000
465.106630 328.000000
465.136810 6.000000
466.089360 30.000000
466.112000 108.000000
467.103760 13.000000
467.127960 10.000000
468.096890 9.000000
539.882320 8.000000
576.299930 7.000000
611.070800 8.000000
611.089660 12.000000
611.118900 31.000000
611.163450 1000.000000
611.218200 10.000000
611.291630 6.000000

>ms2peaks
71.044280 8.000000
71.049780 22.000000
85.025090 23.000000
86.031450 7.000000
87.046840 6.000000
112.049390 8.000000
127.045220 9.000000
129.053310 10.000000
130.056300 7.000000
145.047260 6.000000
259.047060 6.000000
303.014160 18.000000
303.048610 1000.000000
304.032620 8.000000
304.055270 154.000000
304.232210 6.000000
305.055110 28.000000
306.058170 6.000000
339.037140 9.000000
369.065670 9.000000
371.073580 9.000000

>ms2peaks
71.045600 17.000000
71.049360 52.000000
81.039270 16.000000
85.017720 12.000000
85.026490 76.000000
93.038580 11.000000
97.027180 10.000000
111.011090 8.000000
121.027890 21.000000
121.039610 9.000000
123.011130 13.000000
124.046070 16.000000
127.042620 18.000000
137.014400 15.000000
137.022490 35.000000
153.019130 13.000000
153.025220 17.000000
165.007320 9.000000
165.023620 24.000000
166.022960 14.000000
183.037700 11.000000
188.048080 7.000000
191.030840 8.000000
229.048930 24.000000
229.059460 29.000000
230.042880 9.000000
239.025090 10.000000
241.049380 9.000000
243.002640 9.000000
243.308840 8.000000
247.070130 15.000000
257.023440 7.000000
257.046660 62.000000
268.084380 16.000000
274.040560 8.000000
274.053280 12.000000
285.022770 13.000000
301.104770 10.000000
302.982090 10.000000
302.998780 15.000000
303.018860 30.000000
303.049770 1000.000000
304.027370 10.000000
304.053250 161.000000
304.071750 40.000000
304.386260 8.000000
305.016300 10.000000
305.045140 19.000000
305.058170 32.000000
333.198240 7.000000
355.089840 9.000000

>ms2peaks
61.029620 10.000000
73.025010 12.000000
85.027680 8.000000
89.970420 9.000000
91.035920 7.000000
111.037970 7.000000
129.051250 30.000000
145.038730 8.000000
239.220200 8.000000
296.840120 6.000000
303.049440 1000.000000
303.084260 5.000000
304.045780 103.000000
304.059140 111.000000
304.070280 31.000000
305.058260 11.000000
381.060270 7.000000
444.395510 6.000000
465.099030 78.000000
465.119900 41.000000
466.113160 28.000000
611.143740 52.000000
611.163760 87.000000
611.210880 10.000000

>ms2peaks
87.025720 7.000000
123.709340 8.000000
129.051440 13.000000
165.076280 7.000000
255.092740 7.000000
273.098660 6.000000
301.037320 13.000000
302.992980 7.000000
303.014920 23.000000
303.049320 1000.000000
304.002410 7.000000
304.024230 7.000000
304.047700 80.000000
304.062010 60.000000
305.001650 10.000000
305.049770 14.000000
306.268920 8.000000
309.109010 10.000000
379.292820 6.000000
385.765010 6.000000
406.135620 6.000000
417.077940 10.000000
427.517000 6.000000
449.089450 9.000000
449.110410 41.000000
450.094600 9.000000
450.119350 6.000000
451.093140 10.000000
452.106570 7.000000
464.954190 8.000000
465.100130 600.000000
466.034670 11.000000
466.100040 45.000000
466.115600 78.000000
467.077850 7.000000
467.091310 6.000000
467.124760 31.000000
468.100650 11.000000
477.259490 6.000000
483.296570 6.000000
498.212860 15.000000
596.889220 11.000000
610.838320 6.000000
611.122380 63.000000
611.160220 976.000000

>ms2peaks
71.044430 9.000000
85.028350 37.000000
86.033720 7.000000
87.042270 5.000000
97.030560 8.000000
111.042550 5.000000
129.049970 6.000000
129.056490 14.000000
129.063750 6.000000
145.047440 17.000000
146.048550 5.000000
179.072630 11.000000
255.081450 6.000000
285.053250 7.000000
302.990510 5.000000
303.050320 1000.000000
304.011350 8.000000
304.050600 176.000000
304.066990 33.000000
305.070010 10.000000
306.040560 5.000000
395.083950 7.000000

>ms2peaks
55.895660 7.000000
70.756150 7.000000
71.043960 18.000000
71.049300 55.000000
73.045950 14.000000
85.012700 20.000000
85.024860 25.000000
85.031510 50.000000
87.046940 13.000000
109.028240 10.000000
121.031220 9.000000
127.045940 7.000000
136.046740 9.000000
137.021680 26.000000
147.061430 9.000000
163.033540 15.000000
165.012700 11.000000
165.022990 11.000000
183.042390 14.000000
191.024840 16.000000
193.050660 11.000000
195.022870 11.000000
213.036960 10.000000
215.020360 12.000000
219.026580 8.000000
229.028400 7.000000
229.050310 52.000000
239.033890 16.000000
240.030880 16.000000
247.059910 8.000000
257.030490 8.000000
257.048610 56.000000
258.047970 7.000000
258.061070 11.000000
274.023830 12.000000
274.047150 8.000000
285.027830 20.000000
285.041020 11.000000
303.011810 9.000000
303.051760 1000.000000
303.119600 11.000000
304.031520 9.000000
304.052430 68.000000
305.042210 9.000000
305.053340 18.000000
309.256010 7.000000
315.056670 21.000000
316.057980 8.000000

