>compound PR47387443
>parentmass 277.2183
>ionization [M+H-H2O]+
>formula C18H30O3
>rt 548.400000
>profile qtof
#smiles_iso CCC=CCC=CCC1C(O1)CCCCCCCC(=O)O
#smiles_can CCC=CCC=CCC1C(O1)CCCCCCCC(=O)O
#inchikey JTEGNNHWOIJBJZ-UHFFFAOYSA-N
#pubchem_id 111585
#mb_accession PR310791

>ms2peaks
79.032120 23.000000
81.070370 43.000000
82.860160 23.000000
91.053580 16.000000
92.055980 16.000000
92.065920 19.000000
93.069800 83.000000
94.071530 17.000000
100.114890 20.000000
105.070050 61.000000
107.084300 142.000000
107.092530 29.000000
109.099100 16.000000
109.105590 23.000000
121.062030 18.000000
121.100530 44.000000
133.099870 66.000000
135.116330 105.000000
135.125960 32.000000
136.119810 24.000000
144.105260 16.000000
145.094940 33.000000
145.101840 21.000000
147.117570 59.000000
149.127690 28.000000
149.136890 37.000000
150.138230 18.000000
151.136540 22.000000
162.140820 30.000000
163.147740 18.000000
168.109390 21.000000
177.168260 21.000000
195.139660 18.000000
231.176960 25.000000
259.216160 26.000000
260.119930 17.000000
276.199430 20.000000
277.040500 17.000000
277.217990 971.000000
277.235080 106.000000
277.245450 22.000000

