>compound PR47989959
>parentmass 657.1666
>ionization [M+H]+
>formula C28H32O18
>rt 217.800000
>profile qtof
#smiles_iso COC1=C(C2=C(C=C1O)OC(=C(C2=O)OC3C(C(C(C(O3)COC4C(C(C(C(O4)CO)O)O)O)O)O)O)C5=CC(=C(C=C5)O)O)O
#smiles_can COC1=C(C2=C(C=C1O)OC(=C(C2=O)OC3C(C(C(C(O3)COC4C(C(C(C(O4)CO)O)O)O)O)O)O)C5=CC(=C(C=C5)O)O)O
#inchikey WRDDFOFFQDOVRV-UHFFFAOYSA-N
#pubchem_id 73822533
#mb_accession PR310927

>ms2peaks
85.031230 51.000000
87.039990 17.000000
97.026740 19.000000
109.028350 20.000000
118.885620 43.000000
127.039250 33.000000
127.046290 22.000000
145.050870 87.000000
147.055600 18.000000
163.068440 21.000000
164.073360 18.000000
168.987750 21.000000
192.012920 17.000000
197.030110 20.000000
262.398800 17.000000
273.032140 17.000000
277.067570 36.000000
286.776180 21.000000
318.040130 36.000000
318.641970 17.000000
325.132750 19.000000
330.966860 19.000000
331.122040 18.000000
333.028660 58.000000
333.061220 6519.000000
334.064700 990.000000
335.059300 123.000000
335.077580 82.000000
346.151580 25.000000
375.060730 17.000000
375.074430 24.000000
387.072630 22.000000
399.062840 26.000000
477.117130 42.000000
495.061520 19.000000
495.116460 1164.000000
496.118260 251.000000
497.086030 18.000000
572.274480 18.000000
622.690430 27.000000
657.049440 19.000000
657.161380 634.000000

