>compound PR47482078
>parentmass 327.17031899999995
>ionization [M+H]+
>formula C19H22N2O3
>rt 239.215980
>profile qtof
#smiles_iso CCC1=N[C@H]2C[C@@]3([C@H]4C[C@@H]1[C@@H]2CO4)C5=CC=CC=C5N(C3=O)OC
#smiles_can CCC1=NC2CC3(C4CC1C2CO4)C5=CC=CC=C5N(C3=O)OC
#inchikey BIGABVPVCRHEES-NWPJSNQLSA-N
#pubchem_id 21123652
#mb_accession PR300001,PR300006,PR300011,PR300016,PR300021,PR300026,PR300031,PR300036,PR300041,PR300050,PR300055

>ms2peaks
71.073590 14.000000
85.089960 8.000000
95.071690 8.000000
96.079920 7.000000
108.080020 44.000000
109.083150 9.000000
109.091970 8.000000
111.069290 6.000000
122.055730 8.000000
122.095120 7.000000
136.111310 5.000000
143.073270 15.000000
178.066150 11.000000
180.080840 7.000000
183.070020 11.000000
196.075840 22.000000
196.109240 9.000000
197.072560 5.000000
206.096570 18.000000
208.077210 8.000000
210.085600 7.000000
222.094070 7.000000
223.092000 6.000000
223.099990 8.000000
224.106830 35.000000
225.105220 63.000000
226.107360 8.000000
230.092770 11.000000
230.101820 10.000000
231.091370 7.000000
232.095900 6.000000
233.085450 11.000000
235.090230 7.000000
236.101430 5.000000
237.098210 5.000000
239.118800 22.000000
240.119780 7.000000
248.107130 30.000000
249.099230 6.000000
249.110900 8.000000
250.101940 5.000000
251.119340 6.000000
265.102200 5.000000
265.134250 176.000000
266.138400 30.000000
267.112300 17.000000
267.148100 10.000000
268.158200 35.000000
269.156340 7.000000
279.139310 6.000000
279.151430 25.000000
296.152560 724.000000
296.201900 15.000000
297.155700 164.000000
298.159360 20.000000
327.120060 7.000000
327.171840 1000.000000
327.224330 28.000000

>ms2peaks
296.151400 135.000000
297.156220 29.000000
327.121860 5.000000
327.169860 1000.000000
327.222110 33.000000

>ms2peaks
56.050610 9.000000
58.067390 6.000000
70.063550 8.000000
71.071010 36.000000
71.075020 52.000000
73.052190 23.000000
79.054560 7.000000
80.046510 10.000000
80.051350 21.000000
84.079390 8.000000
84.083950 8.000000
85.080710 6.000000
85.088660 26.000000
87.068720 6.000000
94.063730 16.000000
95.073210 64.000000
96.045870 6.000000
96.072460 10.000000
96.081170 29.000000
97.089620 7.000000
106.066390 8.000000
108.061450 7.000000
108.080760 221.000000
109.087910 91.000000
110.094570 27.000000
111.063830 18.000000
111.068750 49.000000
111.096410 6.000000
112.074070 21.000000
118.071770 6.000000
120.080870 6.000000
121.086080 8.000000
122.054610 20.000000
122.061610 25.000000
122.088370 6.000000
122.098060 21.000000
123.104130 5.000000
124.074990 6.000000
125.080600 6.000000
130.064580 11.000000
134.091510 8.000000
136.113720 33.000000
138.092350 25.000000
143.073200 59.000000
144.079730 37.000000
145.091090 8.000000
146.097560 10.000000
150.089810 13.000000
150.125430 13.000000
160.075320 7.000000
164.106780 10.000000
165.057460 6.000000
167.070040 10.000000
168.077360 14.000000
170.059920 17.000000
178.064350 8.000000
179.067860 6.000000
180.078120 18.000000
182.058720 11.000000
182.091450 13.000000
183.051770 6.000000
183.068940 68.000000
184.076980 14.000000
185.066790 9.000000
185.081420 9.000000
186.115070 5.000000
186.127470 6.000000
192.074330 8.000000
193.090380 8.000000
194.056900 8.000000
194.093380 6.000000
195.061970 7.000000
195.070560 9.000000
195.089230 9.000000
195.107190 8.000000
196.075410 87.000000
196.110050 16.000000
197.066770 12.000000
197.074020 10.000000
197.083920 12.000000
197.095230 12.000000
197.109280 15.000000
197.120830 8.000000
198.092770 8.000000
204.075090 6.000000
206.096830 84.000000
207.099150 8.000000
208.068820 12.000000
208.077350 39.000000
208.103040 10.000000
209.077770 10.000000
209.087010 6.000000
209.104420 6.000000
210.083600 27.000000
210.099960 15.000000
210.115780 9.000000
211.085600 11.000000
211.098370 8.000000
211.123280 8.000000
212.067890 30.000000
212.082400 10.000000
212.095320 15.000000
213.087460 6.000000
213.103680 8.000000
219.089580 6.000000
220.082460 9.000000
220.112200 11.000000
221.108030 10.000000
222.074710 5.000000
222.092390 34.000000
222.128070 16.000000
223.075270 7.000000
223.090230 42.000000
223.098450 28.000000
223.124150 7.000000
224.067900 7.000000
224.095930 52.000000
224.107760 191.000000
225.102520 323.000000
226.097150 17.000000
226.113370 29.000000
226.160800 8.000000
227.119670 6.000000
230.085460 13.000000
230.097550 31.000000
231.093170 17.000000
233.091720 24.000000
235.088520 15.000000
236.094640 21.000000
236.108250 8.000000
237.099150 33.000000
237.110860 11.000000
237.141020 41.000000
238.092270 8.000000
238.116010 8.000000
239.117650 166.000000
239.155300 9.000000
240.116580 16.000000
240.129120 10.000000
247.124980 14.000000
248.107030 145.000000
249.100890 77.000000
249.113780 35.000000
249.137100 14.000000
250.111910 28.000000
251.114120 16.000000
251.125490 17.000000
252.120390 9.000000
252.130710 14.000000
253.100860 7.000000
253.132640 11.000000
254.156360 14.000000
255.111400 14.000000
256.122860 11.000000
263.117580 31.000000
264.096470 7.000000
264.117980 9.000000
265.096250 12.000000
265.133390 1000.000000
266.106350 7.000000
266.137420 219.000000
267.114560 81.000000
267.143100 38.000000
267.152770 23.000000
268.122250 14.000000
268.157410 126.000000
269.159210 19.000000
277.131590 17.000000
278.135070 7.000000
278.146210 13.000000
279.148190 133.000000
280.142760 14.000000
280.152800 17.000000
281.127080 15.000000
295.142880 31.000000
296.114690 13.000000
296.152130 535.000000
297.154750 159.000000
298.153930 22.000000
298.172120 7.000000
327.168760 28.000000

>ms2peaks
56.018980 7.000000
56.047950 13.000000
57.032570 11.000000
64.867020 6.000000
67.040850 6.000000
68.049490 30.000000
69.062650 9.000000
70.066410 20.000000
71.062120 13.000000
71.068200 11.000000
71.075210 53.000000
72.044240 8.000000
77.038400 34.000000
78.034250 29.000000
79.051730 28.000000
80.046660 152.000000
80.052530 134.000000
80.715390 6.000000
81.050160 17.000000
81.058720 18.000000
81.069380 7.000000
81.362340 6.000000
81.618690 6.000000
81.623920 8.000000
82.026080 7.000000
82.065440 21.000000
82.077360 16.000000
84.042490 7.000000
84.074230 6.000000
84.083950 23.000000
85.083290 10.000000
86.060960 8.000000
90.025490 6.000000
90.032090 12.000000
90.037250 10.000000
90.048830 19.000000
91.018310 8.000000
91.051030 24.000000
91.057130 10.000000
92.044240 7.000000
92.118670 6.000000
93.041150 15.000000
93.056990 97.000000
93.068080 13.000000
93.074260 13.000000
93.835300 6.000000
94.027940 10.000000
94.053760 7.000000
94.065280 115.000000
94.073360 25.000000
95.073570 216.000000
95.086170 10.000000
95.094250 10.000000
95.434760 7.000000
96.042810 121.000000
96.049780 28.000000
96.076000 19.000000
96.081310 51.000000
96.355350 9.000000
97.087500 13.000000
97.327440 6.000000
98.057740 25.000000
98.408960 6.000000
99.299550 6.000000
101.034030 19.000000
101.551350 7.000000
103.045850 15.000000
104.048310 17.000000
104.052220 33.000000
105.068310 22.000000
106.024930 7.000000
106.065080 103.000000
107.015210 11.000000
107.040620 17.000000
107.067500 22.000000
107.073360 72.000000
108.068170 16.000000
108.080010 1000.000000
109.052620 6.000000
109.085730 78.000000
110.061220 32.000000
110.092780 80.000000
111.065870 7.000000
111.072810 8.000000
111.106360 11.000000
112.079430 35.000000
114.046940 6.000000
115.051690 105.000000
115.058790 39.000000
116.047700 25.000000
116.059560 49.000000
117.044240 16.000000
117.054930 102.000000
117.065500 29.000000
117.075210 18.000000
117.658830 6.000000
118.038490 6.000000
118.058900 33.000000
118.063190 73.000000
119.062920 9.000000
119.070710 18.000000
120.070240 7.000000
120.081460 70.000000
120.094970 7.000000
120.206890 7.000000
121.087810 62.000000
121.573870 7.000000
122.042370 18.000000
122.054520 64.000000
122.059590 162.000000
122.092360 80.000000
122.096980 41.000000
122.104040 13.000000
122.395360 7.000000
123.059900 7.000000
123.070790 10.000000
123.097590 20.000000
123.951010 7.000000
124.058150 6.000000
124.077940 7.000000
124.110340 7.000000
124.118520 7.000000
125.505070 7.000000
127.037570 8.000000
127.052200 36.000000
127.057900 24.000000
128.051360 89.000000
128.059630 78.000000
129.048250 10.000000
129.054000 19.000000
129.067230 27.000000
129.564870 9.000000
130.062930 97.000000
130.071350 57.000000
131.065440 23.000000
131.077220 15.000000
131.090390 7.000000
132.021960 6.000000
132.043610 126.000000
132.057130 10.000000
132.070420 33.000000
132.086170 39.000000
132.499650 6.000000
132.608090 6.000000
133.046630 7.000000
133.052140 6.000000
133.062100 19.000000
133.086090 18.000000
134.060470 17.000000
134.083680 7.000000
134.093120 7.000000
134.103410 34.000000
135.860140 6.000000
136.071640 36.000000
136.111400 34.000000
138.051790 6.000000
138.083150 24.000000
138.089780 33.000000
139.036010 9.000000
139.047100 10.000000
140.016590 17.000000
140.049190 67.000000
140.055450 38.000000
141.052810 20.000000
141.061110 46.000000
141.068980 25.000000
142.036410 9.000000
142.052140 7.000000
142.065440 147.000000
143.066700 46.000000
143.074570 56.000000
144.036900 6.000000
144.042940 8.000000
144.057940 11.000000
144.076200 39.000000
144.081790 113.000000
145.035570 9.000000
145.040120 21.000000
145.085940 23.000000
145.504290 6.000000
146.023120 68.000000
146.099150 55.000000
147.027250 8.000000
148.050490 11.000000
148.062530 7.000000
148.075530 10.000000
148.117450 6.000000
149.087830 7.000000
150.086430 32.000000
150.096440 9.000000
151.022050 8.000000
151.051570 102.000000
151.058150 67.000000
151.123900 12.000000
152.029690 9.000000
152.045390 46.000000
152.052410 170.000000
152.063630 51.000000
152.073680 28.000000
153.036130 8.000000
153.059840 34.000000
153.071150 51.000000
154.037810 7.000000
154.065220 161.000000
155.050030 12.000000
155.068880 30.000000
155.083690 11.000000
155.714710 12.000000
156.029940 6.000000
156.045410 7.000000
156.070340 34.000000
157.076580 9.000000
158.006900 10.000000
158.041430 8.000000
158.057400 14.000000
158.100540 8.000000
158.564870 6.000000
159.034960 8.000000
159.068650 8.000000
160.107790 9.000000
163.057210 15.000000
163.896840 8.000000
164.061600 45.000000
164.933360 8.000000
165.017040 10.000000
165.034710 7.000000
165.058640 392.000000
165.073260 73.000000
165.085720 15.000000
165.105620 7.000000
165.725230 6.000000
166.063860 310.000000
166.496860 7.000000
166.659230 7.000000
167.054610 15.000000
167.071090 256.000000
167.094800 10.000000
167.153430 6.000000
168.067980 46.000000
168.080340 195.000000
168.099460 6.000000
168.719620 8.000000
169.055880 7.000000
169.078190 17.000000
169.087160 75.000000
169.345750 6.000000
169.514270 13.000000
169.671040 6.000000
170.038360 7.000000
170.054760 32.000000
170.064700 33.000000
170.076400 13.000000
170.096310 15.000000
170.102800 6.000000
170.223130 6.000000
171.052370 6.000000
171.067870 8.000000
171.736740 6.000000
172.044660 7.000000
172.054310 14.000000
172.075440 12.000000
172.101090 11.000000
175.018940 6.000000
175.062230 8.000000
176.045780 23.000000
176.062470 7.000000
177.038800 7.000000
177.048390 43.000000
177.057370 88.000000
177.074360 11.000000
178.037640 12.000000
178.065630 807.000000
178.085420 15.000000
178.972980 8.000000
179.045650 7.000000
179.054530 21.000000
179.071290 119.000000
179.079220 79.000000
179.088560 50.000000
179.180070 7.000000
180.043380 10.000000
180.054840 9.000000
180.072080 133.000000
180.081040 369.000000
180.095960 37.000000
181.050170 7.000000
181.068220 20.000000
181.081990 175.000000
181.223540 6.000000
182.045300 6.000000
182.061600 104.000000
182.085880 162.000000
182.104490 19.000000
182.186070 9.000000
183.043470 8.000000
183.055240 31.000000
183.068890 244.000000
183.083890 41.000000
183.098400 16.000000
183.111890 7.000000
183.264530 7.000000
184.059560 43.000000
184.077090 63.000000
184.088710 7.000000
184.111600 17.000000
184.772220 6.000000
185.072750 7.000000
186.067600 11.000000
186.102330 10.000000
187.675550 9.000000
188.060500 6.000000
188.069080 11.000000
188.096560 9.000000
189.051900 7.000000
189.066300 12.000000
189.079730 13.000000
190.049220 47.000000
190.065200 239.000000
190.080230 44.000000
190.276370 18.000000
190.474980 9.000000
191.050540 10.000000
191.061370 53.000000
191.070110 159.000000
191.078550 97.000000
192.050810 11.000000
192.073100 56.000000
192.085890 114.000000
192.808410 7.000000
193.040700 18.000000
193.067350 12.000000
193.079740 116.000000
193.105560 9.000000
193.392730 7.000000
193.616380 7.000000
194.049580 11.000000
194.061400 23.000000
194.085600 16.000000
194.100050 33.000000
195.070270 127.000000
195.094920 54.000000
195.106140 28.000000
196.061400 43.000000
196.077420 176.000000
196.109820 22.000000
196.118470 38.000000
196.762530 6.000000
197.064610 67.000000
197.080600 69.000000
197.107100 9.000000
198.032420 12.000000
198.085770 21.000000
198.820080 7.000000
198.918120 6.000000
199.066060 9.000000
200.062390 7.000000
200.123370 6.000000
201.046370 10.000000
201.062810 32.000000
202.047160 16.000000
202.072620 223.000000
202.083390 42.000000
203.048030 6.000000
203.061610 19.000000
203.077090 60.000000
203.136830 7.000000
203.175750 7.000000
203.794250 9.000000
203.997450 11.000000
204.079480 495.000000
205.062850 9.000000
205.086180 109.000000
205.098850 23.000000
205.143190 14.000000
205.775710 7.000000
206.027890 8.000000
206.052760 41.000000
206.067080 41.000000
206.087140 331.000000
206.105940 78.000000
207.065660 49.000000
207.091550 306.000000
207.136150 12.000000
207.278270 8.000000
208.042950 14.000000
208.075700 333.000000
208.097580 123.000000
208.107700 88.000000
208.127620 13.000000
209.037690 8.000000
209.067930 47.000000
209.077190 53.000000
209.092000 65.000000
209.107730 33.000000
209.119160 30.000000
209.973800 11.000000
210.079280 326.000000
210.103550 26.000000
210.110890 19.000000
211.078280 30.000000
211.093860 16.000000
211.112380 7.000000
212.076200 7.000000
212.119660 8.000000
214.053990 9.000000
214.065700 70.000000
215.059710 19.000000
215.072240 202.000000
215.327480 12.000000
215.768160 7.000000
216.061490 11.000000
216.073790 64.000000
216.083530 41.000000
216.092560 12.000000
216.333950 7.000000
217.065780 28.000000
217.080460 47.000000
217.089260 84.000000
217.107680 13.000000
217.247770 9.000000
218.000020 9.000000
218.057880 6.000000
218.083300 80.000000
218.102800 13.000000
219.011310 10.000000
219.071720 108.000000
219.092900 164.000000
219.108960 12.000000
220.048030 8.000000
220.077010 99.000000
220.098950 37.000000
220.111510 17.000000
220.129010 11.000000
221.068440 88.000000
221.082170 49.000000
221.109210 51.000000
222.065460 8.000000
222.089860 37.000000
222.101550 27.000000
222.111880 53.000000
222.123180 54.000000
223.035170 9.000000
223.084960 85.000000
223.108490 38.000000
223.137210 9.000000
224.052050 6.000000
224.087130 7.000000
224.093950 15.000000
224.109100 49.000000
224.128200 11.000000
225.070940 16.000000
225.099900 270.000000
225.134290 11.000000
226.060320 6.000000
226.102230 15.000000
226.110690 15.000000
226.613740 7.000000
227.072920 18.000000
227.104140 7.000000
227.941540 7.000000
228.052440 14.000000
228.082120 143.000000
229.056870 7.000000
229.085940 62.000000
229.106090 13.000000
229.361950 7.000000
230.091130 147.000000
230.101440 143.000000
230.194560 10.000000
231.083440 45.000000
231.093410 97.000000
231.108320 7.000000
232.059570 11.000000
232.069270 30.000000
232.081120 71.000000
232.096120 96.000000
232.118790 7.000000
232.916060 6.000000
232.978580 8.000000
233.040250 15.000000
233.074100 72.000000
233.084530 202.000000
233.096570 64.000000
233.109850 30.000000
233.122850 12.000000
233.340740 7.000000
234.082090 132.000000
234.098830 17.000000
234.115600 8.000000
234.126220 12.000000
235.024750 6.000000
235.054060 6.000000
235.085140 388.000000
235.124880 36.000000
236.089100 135.000000
236.102540 33.000000
237.080150 8.000000
237.098510 34.000000
237.119920 37.000000
237.140730 9.000000
238.104450 22.000000
238.125720 11.000000
239.115490 59.000000
239.125410 38.000000
240.120250 10.000000
240.134630 17.000000
240.972150 13.000000
242.095580 8.000000
243.093080 7.000000
243.112490 9.000000
244.096480 5.000000
244.106960 20.000000
245.102220 17.000000
245.112500 19.000000
246.078350 16.000000
246.090550 13.000000
246.102200 9.000000
247.050800 14.000000
247.094350 62.000000
247.133260 7.000000
247.493010 6.000000
247.953740 6.000000
248.084760 32.000000
248.095180 61.000000
248.115450 34.000000
248.132110 18.000000
249.072940 6.000000
249.105700 86.000000
249.117190 30.000000
249.129530 13.000000
250.100780 6.000000
250.113920 22.000000
250.126540 11.000000
250.155980 11.000000
251.004930 7.000000
251.078350 7.000000
251.089080 10.000000
251.119090 39.000000
251.153720 8.000000
252.123990 9.000000
253.124160 14.000000
255.107540 10.000000
257.221440 6.000000
260.087890 21.000000
260.102290 8.000000
261.112370 10.000000
261.125060 6.000000
262.116970 13.000000
263.115360 19.000000
265.129610 142.000000
265.141080 45.000000
266.133060 10.000000
266.148770 11.000000
266.835720 11.000000
267.109220 7.000000
268.110900 6.000000
268.146940 7.000000
275.122680 14.000000
276.104490 7.000000
277.134000 18.000000
277.143860 8.000000
279.145600 7.000000
279.158360 9.000000
280.126710 11.000000
280.144590 7.000000
281.142270 10.000000
281.847660 12.000000
284.704410 10.000000
303.286650 7.000000
318.755740 12.000000

>ms2peaks
71.074010 13.000000
80.047150 6.000000
85.088700 5.000000
95.071300 9.000000
96.039460 6.000000
96.081750 9.000000
108.077610 26.000000
108.082820 26.000000
109.088750 23.000000
110.095050 7.000000
111.066250 9.000000
122.058800 9.000000
122.091740 6.000000
143.070910 13.000000
144.082170 6.000000
166.063460 5.000000
178.061600 11.000000
178.069840 6.000000
180.078660 7.000000
183.067700 18.000000
184.075820 7.000000
196.075040 18.000000
206.095690 21.000000
208.072280 13.000000
210.093640 6.000000
212.066590 7.000000
213.104230 7.000000
223.085360 7.000000
224.106480 44.000000
225.102830 77.000000
226.105090 13.000000
230.096020 22.000000
233.083160 15.000000
235.087310 9.000000
236.090420 9.000000
237.140060 7.000000
239.118410 24.000000
240.117340 6.000000
248.099560 14.000000
248.112000 13.000000
249.098430 10.000000
265.132690 181.000000
266.136320 43.000000
267.111180 14.000000
267.141970 13.000000
268.158290 35.000000
279.136230 8.000000
279.148380 27.000000
280.146940 9.000000
295.140690 5.000000
296.102570 6.000000
296.151120 782.000000
296.200410 16.000000
297.154660 173.000000
298.156160 27.000000
327.127440 8.000000
327.169100 1000.000000
327.221890 30.000000

>ms2peaks
296.151460 136.000000
297.156520 35.000000
298.161710 5.000000
327.170440 1000.000000
327.222750 34.000000

>ms2peaks
70.064320 10.000000
71.072830 76.000000
72.077400 6.000000
73.050940 22.000000
80.051160 19.000000
84.082060 20.000000
85.089930 40.000000
94.063530 17.000000
95.073480 72.000000
96.041210 8.000000
96.046480 9.000000
96.081700 31.000000
108.080380 268.000000
109.087400 88.000000
110.092410 16.000000
110.098970 17.000000
111.067580 52.000000
112.074120 17.000000
120.082600 13.000000
121.087650 7.000000
122.059540 30.000000
122.086490 6.000000
122.096160 45.000000
123.070690 6.000000
124.077620 5.000000
125.083630 19.000000
130.066700 12.000000
132.045070 21.000000
132.083660 8.000000
134.096050 16.000000
136.076340 10.000000
136.113020 38.000000
138.085740 16.000000
138.095730 11.000000
143.073680 49.000000
144.067430 6.000000
144.081590 38.000000
145.089460 10.000000
146.026690 7.000000
146.055850 5.000000
146.061770 11.000000
146.095810 9.000000
148.073300 5.000000
150.087950 15.000000
150.126690 7.000000
151.097050 7.000000
151.102660 8.000000
152.104370 6.000000
158.055010 6.000000
164.103850 16.000000
165.062410 7.000000
167.070720 6.000000
168.082170 36.000000
169.089370 6.000000
170.058500 20.000000
170.066390 6.000000
172.074250 15.000000
178.058230 7.000000
178.066740 10.000000
179.084180 7.000000
180.079770 13.000000
180.090330 6.000000
181.088290 6.000000
182.058960 11.000000
182.100860 10.000000
183.067550 71.000000
184.073640 23.000000
184.080290 10.000000
192.081570 19.000000
194.062990 13.000000
195.068040 13.000000
195.102170 17.000000
196.064640 16.000000
196.076490 43.000000
196.087620 22.000000
196.113340 24.000000
197.077840 25.000000
197.088620 11.000000
197.110380 11.000000
199.065510 8.000000
204.079970 8.000000
205.085560 5.000000
206.095920 68.000000
207.095200 11.000000
208.078550 44.000000
208.106030 6.000000
208.117550 5.000000
209.081210 11.000000
209.105150 15.000000
210.088580 33.000000
210.108950 12.000000
211.088360 15.000000
211.121730 7.000000
212.070710 40.000000
212.095090 28.000000
213.079540 10.000000
214.091290 5.000000
219.070470 5.000000
219.092770 8.000000
220.074830 9.000000
220.086430 6.000000
220.098160 6.000000
220.111620 7.000000
221.108370 12.000000
222.088300 24.000000
222.100560 12.000000
222.125500 12.000000
223.085530 36.000000
223.101140 20.000000
223.123580 10.000000
224.074300 13.000000
224.106490 239.000000
224.138920 8.000000
225.066640 6.000000
225.076980 13.000000
225.102570 297.000000
226.081190 7.000000
226.092650 13.000000
226.108060 55.000000
226.118440 11.000000
226.164170 5.000000
227.103790 6.000000
227.119750 10.000000
230.097110 65.000000
231.095080 13.000000
231.105970 9.000000
232.083020 8.000000
233.077850 22.000000
233.087370 20.000000
233.095080 12.000000
234.082430 6.000000
234.093510 11.000000
235.086330 8.000000
235.121670 7.000000
236.099590 28.000000
236.144620 14.000000
237.099930 18.000000
237.111150 11.000000
237.142440 33.000000
238.106060 6.000000
238.149280 8.000000
239.085660 8.000000
239.119160 127.000000
240.120830 43.000000
240.134060 7.000000
241.165530 6.000000
246.086320 7.000000
247.086110 9.000000
247.124160 14.000000
247.133800 6.000000
248.084920 5.000000
248.108110 153.000000
249.103350 115.000000
249.141970 9.000000
250.103640 13.000000
250.111980 17.000000
250.125890 5.000000
250.141370 6.000000
250.154790 8.000000
251.120190 43.000000
251.155030 10.000000
252.119430 14.000000
253.094360 7.000000
253.131940 12.000000
254.154420 11.000000
255.113650 8.000000
263.118960 24.000000
265.093630 6.000000
265.104160 10.000000
265.134400 1000.000000
266.108400 14.000000
266.137600 232.000000
267.113010 83.000000
267.146850 46.000000
268.128910 11.000000
268.159210 129.000000
269.157840 9.000000
269.166840 12.000000
277.122560 8.000000
277.136230 29.000000
278.140750 25.000000
279.150150 136.000000
280.136410 5.000000
280.150700 22.000000
281.125030 9.000000
281.134610 12.000000
295.149810 19.000000
296.152890 579.000000
297.143770 32.000000
297.156430 131.000000
298.161650 22.000000
327.154020 7.000000
327.171360 24.000000

>ms2peaks
56.049720 21.000000
64.408290 7.000000
66.045190 8.000000
67.039140 11.000000
67.048030 12.000000
67.055530 27.000000
68.050680 11.000000
70.067130 69.000000
70.074500 7.000000
71.070530 21.000000
71.077860 13.000000
72.043100 9.000000
72.077030 13.000000
77.037120 40.000000
79.051900 6.000000
80.036550 23.000000
80.048050 178.000000
80.053550 117.000000
80.066470 9.000000
81.052270 29.000000
81.067740 7.000000
81.560420 6.000000
82.067960 33.000000
82.077190 6.000000
84.080280 25.000000
85.551710 5.000000
90.037640 6.000000
91.044590 10.000000
91.052150 36.000000
91.059820 16.000000
92.027370 6.000000
92.047710 11.000000
92.058240 7.000000
93.028900 5.000000
93.040730 7.000000
93.057250 103.000000
93.071750 17.000000
94.063480 74.000000
94.068940 61.000000
95.069690 57.000000
95.074930 100.000000
95.083950 22.000000
96.042800 53.000000
96.076760 9.000000
96.087730 22.000000
97.051110 21.000000
98.096700 8.000000
103.041110 5.000000
103.054310 37.000000
104.045780 36.000000
104.053990 9.000000
105.060890 7.000000
105.071070 14.000000
106.054800 7.000000
106.063260 54.000000
107.032810 6.000000
107.039180 8.000000
107.072380 6.000000
107.084830 12.000000
107.694180 6.000000
108.020100 16.000000
108.046920 6.000000
108.081110 1000.000000
108.248230 5.000000
109.051280 5.000000
109.084390 66.000000
110.061090 10.000000
110.083040 6.000000
110.095890 43.000000
110.102330 12.000000
110.991440 6.000000
111.073380 9.000000
112.074370 6.000000
115.043990 9.000000
115.053110 69.000000
115.061520 7.000000
116.049170 14.000000
116.055760 29.000000
116.065620 10.000000
117.050690 8.000000
117.060100 38.000000
117.077060 8.000000
117.772900 6.000000
117.996880 6.000000
118.041340 7.000000
118.065730 56.000000
119.075330 7.000000
120.030260 6.000000
120.041890 12.000000
120.052190 11.000000
120.071040 7.000000
120.084430 58.000000
120.097070 9.000000
121.080540 18.000000
121.087970 16.000000
121.095510 10.000000
122.047260 8.000000
122.058170 86.000000
122.064290 48.000000
122.096500 108.000000
122.105140 30.000000
123.064580 9.000000
123.090680 7.000000
124.069960 5.000000
124.113440 5.000000
124.927030 8.000000
126.710090 10.000000
127.023240 8.000000
127.057100 36.000000
128.048720 56.000000
128.063060 14.000000
129.053130 6.000000
129.063060 26.000000
129.160830 11.000000
130.066830 117.000000
131.067500 9.000000
131.073970 31.000000
132.026170 11.000000
132.042330 96.000000
132.058850 14.000000
132.074070 25.000000
132.083330 24.000000
133.033650 7.000000
133.049710 14.000000
133.084170 5.000000
134.047880 7.000000
134.066700 5.000000
134.092610 8.000000
135.070050 14.000000
135.110200 6.000000
136.072280 11.000000
136.083310 8.000000
136.110700 53.000000
137.073440 6.000000
138.046300 18.000000
138.085490 14.000000
138.096940 16.000000
138.543460 9.000000
139.013520 6.000000
139.041440 20.000000
139.054870 13.000000
140.047240 46.000000
141.048510 9.000000
141.059650 12.000000
142.064730 57.000000
143.040310 6.000000
143.069080 49.000000
143.077010 51.000000
144.040020 10.000000
144.075350 54.000000
144.082320 108.000000
145.048970 23.000000
145.085280 33.000000
145.982530 7.000000
146.026200 43.000000
146.061140 22.000000
146.091490 14.000000
146.103070 18.000000
147.032610 9.000000
147.092580 8.000000
148.061080 6.000000
148.070980 16.000000
148.083210 5.000000
150.093110 65.000000
150.124560 9.000000
150.916750 5.000000
151.049350 69.000000
151.057770 64.000000
151.068250 14.000000
152.053570 41.000000
152.065930 19.000000
152.094300 12.000000
152.114440 6.000000
152.302430 5.000000
152.605160 6.000000
153.059710 41.000000
153.068420 35.000000
154.004910 6.000000
154.051240 7.000000
154.064740 165.000000
155.016530 12.000000
155.073010 33.000000
155.083560 23.000000
155.118300 13.000000
155.558330 8.000000
156.041030 21.000000
156.050190 21.000000
156.073780 17.000000
156.082430 6.000000
156.754520 6.000000
156.941180 7.000000
157.044540 6.000000
157.051760 6.000000
157.078990 14.000000
157.097380 18.000000
157.233340 7.000000
158.044270 6.000000
158.060270 29.000000
159.093370 20.000000
160.036000 6.000000
160.072650 15.000000
160.082150 8.000000
161.527150 6.000000
163.058060 7.000000
164.040370 10.000000
164.051240 27.000000
164.064330 13.000000
164.114150 5.000000
165.024080 6.000000
165.042270 16.000000
165.053250 90.000000
165.060910 280.000000
165.075010 34.000000
165.091830 7.000000
166.063370 176.000000
166.075290 34.000000
166.082810 11.000000
166.224380 9.000000
167.045880 6.000000
167.055400 11.000000
167.073290 257.000000
167.088330 24.000000
167.388630 5.000000
167.985380 6.000000
168.060670 15.000000
168.081070 182.000000
169.053410 24.000000
169.071240 33.000000
169.080950 55.000000
169.093840 10.000000
169.514620 8.000000
170.039790 6.000000
170.058900 80.000000
170.071490 6.000000
170.102010 7.000000
171.063280 11.000000
175.054640 6.000000
175.063160 6.000000
177.058060 26.000000
177.064800 18.000000
177.085400 13.000000
177.857620 7.000000
178.033080 6.000000
178.049670 39.000000
178.064130 661.000000
178.081770 47.000000
178.123720 5.000000
178.939850 6.000000
179.045910 10.000000
179.056240 20.000000
179.067400 118.000000
179.077650 136.000000
179.087880 87.000000
179.627580 9.000000
180.045590 6.000000
180.056260 19.000000
180.080780 508.000000
180.247150 9.000000
181.056430 13.000000
181.064640 20.000000
181.079100 38.000000
181.088460 143.000000
182.010960 11.000000
182.054580 57.000000
182.066620 44.000000
182.084000 95.000000
182.093700 37.000000
182.104780 13.000000
183.027740 13.000000
183.043930 8.000000
183.068180 277.000000
183.090610 70.000000
183.113430 5.000000
184.055050 6.000000
184.072770 127.000000
184.089770 11.000000
185.063250 6.000000
185.080870 17.000000
185.108440 13.000000
187.049500 5.000000
187.083080 5.000000
188.052510 6.000000
188.060390 11.000000
189.052950 19.000000
189.078400 30.000000
190.043430 8.000000
190.066060 217.000000
191.026760 9.000000
191.065930 96.000000
191.075500 196.000000
191.090160 14.000000
192.030880 11.000000
192.076170 118.000000
192.084060 91.000000
193.053850 5.000000
193.063960 8.000000
193.076890 65.000000
193.086560 109.000000
193.099080 26.000000
193.918080 5.000000
194.054240 58.000000
194.063830 21.000000
194.079730 17.000000
194.092120 38.000000
194.102890 8.000000
195.055510 13.000000
195.070720 97.000000
195.095600 56.000000
195.720150 7.000000
196.039780 8.000000
196.048510 11.000000
196.060610 23.000000
196.075940 231.000000
196.095570 21.000000
196.107270 30.000000
196.115860 18.000000
196.541730 10.000000
196.644940 7.000000
197.075270 56.000000
197.087190 30.000000
197.118300 15.000000
198.071000 15.000000
198.078980 17.000000
198.112290 8.000000
198.325070 11.000000
198.665510 5.000000
199.077090 8.000000
199.085300 7.000000
201.056530 5.000000
201.063370 9.000000
201.077870 6.000000
202.062900 56.000000
202.073700 111.000000
202.081530 58.000000
202.093250 16.000000
203.067200 21.000000
203.074400 43.000000
203.089260 43.000000
203.095210 18.000000
204.036830 6.000000
204.048740 24.000000
204.062480 32.000000
204.079450 400.000000
205.081950 106.000000
205.092860 15.000000
205.207400 6.000000
205.996890 6.000000
206.044540 10.000000
206.065480 55.000000
206.084490 84.000000
206.096660 235.000000
207.071730 17.000000
207.086550 83.000000
207.094090 177.000000
207.109480 19.000000
208.054520 13.000000
208.065930 58.000000
208.077590 126.000000
208.094800 117.000000
208.103820 92.000000
209.044860 7.000000
209.056380 6.000000
209.076800 89.000000
209.098650 22.000000
209.111190 18.000000
210.061290 23.000000
210.080760 288.000000
210.112300 17.000000
210.121520 16.000000
210.188250 7.000000
211.072200 13.000000
211.091290 53.000000
211.117830 8.000000
212.060580 7.000000
212.073390 25.000000
212.085160 9.000000
212.099730 13.000000
212.815490 9.000000
213.084950 5.000000
214.041060 11.000000
214.067210 102.000000
215.052720 28.000000
215.069460 163.000000
215.080760 63.000000
216.073520 81.000000
216.364790 5.000000
217.069270 39.000000
217.076740 82.000000
217.090160 38.000000
217.990220 21.000000
218.026020 8.000000
218.074040 26.000000
218.084290 51.000000
218.098830 39.000000
219.049100 7.000000
219.064010 29.000000
219.076640 26.000000
219.094640 156.000000
219.109540 23.000000
220.070950 20.000000
220.081620 27.000000
220.094590 34.000000
220.104630 58.000000
221.072220 76.000000
221.099700 26.000000
221.109180 69.000000
222.060520 6.000000
222.074830 16.000000
222.093250 52.000000
222.120290 18.000000
222.133580 16.000000
222.545180 14.000000
223.083950 124.000000
223.098500 26.000000
223.121440 35.000000
223.130680 46.000000
224.071470 6.000000
224.082410 14.000000
224.102680 27.000000
224.113140 29.000000
224.128660 15.000000
225.092000 83.000000
225.104830 136.000000
225.117870 19.000000
226.096590 18.000000
227.055330 6.000000
227.069240 18.000000
227.079030 5.000000
227.342580 5.000000
228.078980 42.000000
228.085530 83.000000
229.071150 26.000000
229.080870 39.000000
229.092830 28.000000
229.099430 18.000000
230.068850 10.000000
230.083590 81.000000
230.096300 268.000000
230.111650 42.000000
230.183490 5.000000
231.072340 6.000000
231.086760 57.000000
231.098950 88.000000
231.949970 5.000000
232.063190 14.000000
232.076200 29.000000
232.083980 33.000000
232.096570 36.000000
233.032750 9.000000
233.078310 146.000000
233.087620 165.000000
233.111220 18.000000
234.073180 24.000000
234.092680 82.000000
234.118120 6.000000
235.026550 9.000000
235.079990 142.000000
235.091660 173.000000
235.112180 26.000000
235.133870 8.000000
236.070020 7.000000
236.083070 17.000000
236.091640 16.000000
236.102860 19.000000
236.137220 22.000000
236.147350 16.000000
236.233030 6.000000
236.339690 6.000000
237.074010 7.000000
237.101440 101.000000
238.103360 14.000000
238.139950 8.000000
239.115130 48.000000
239.124130 16.000000
241.100810 5.000000
243.111400 7.000000
243.244110 6.000000
245.076190 5.000000
245.971950 7.000000
246.093780 13.000000
246.105180 6.000000
246.115100 7.000000
247.077770 28.000000
247.088270 24.000000
247.107040 27.000000
247.124400 18.000000
247.132950 11.000000
248.097290 90.000000
248.112990 48.000000
248.125660 9.000000
249.085570 10.000000
249.098880 44.000000
249.114330 20.000000
250.103930 78.000000
250.126620 15.000000
251.138820 6.000000
253.127030 8.000000
255.125640 7.000000
261.101500 7.000000
261.109830 7.000000
262.105220 7.000000
262.117340 8.000000
262.130580 13.000000
262.414460 7.000000
263.119110 12.000000
264.127110 6.000000
265.132970 104.000000
266.131650 15.000000
266.145200 9.000000
266.154480 11.000000
267.112980 13.000000
267.145900 7.000000
267.157410 6.000000
268.126340 6.000000
268.151790 7.000000
269.801240 6.000000
277.139830 27.000000
279.113130 7.000000
279.140290 28.000000
280.149320 16.000000
295.131960 6.000000
296.103940 10.000000
296.160190 16.000000
327.135280 8.000000
327.164920 33.000000

>ms2peaks
71.073760 6.000000
73.050810 10.000000
80.050670 6.000000
85.088170 9.000000
95.073770 10.000000
108.080180 55.000000
109.086630 16.000000
110.097720 11.000000
143.075410 13.000000
144.082080 5.000000
150.090190 5.000000
151.105420 6.000000
178.063640 6.000000
180.082670 7.000000
183.068790 25.000000
196.076580 25.000000
196.112010 7.000000
197.076540 9.000000
204.082490 7.000000
206.095600 21.000000
207.097560 5.000000
208.075940 9.000000
210.079850 5.000000
210.089800 6.000000
212.067170 12.000000
223.092210 19.000000
224.107470 39.000000
225.103790 62.000000
226.105360 14.000000
230.095260 19.000000
231.104640 6.000000
233.084030 17.000000
239.116490 22.000000
248.109340 28.000000
249.094300 7.000000
249.103670 13.000000
250.110600 7.000000
265.133760 178.000000
266.138240 48.000000
267.113040 18.000000
267.141170 7.000000
267.153140 5.000000
268.158020 42.000000
269.163210 6.000000
279.149630 27.000000
295.142240 7.000000
296.152500 832.000000
296.201750 19.000000
297.156430 185.000000
298.157500 21.000000
298.169740 8.000000
327.125270 6.000000
327.171260 1000.000000
327.222990 30.000000

>ms2peaks
70.065310 10.000000
71.072580 92.000000
72.046840 6.000000
72.077220 11.000000
73.050140 16.000000
73.056990 9.000000
80.049930 27.000000
84.080170 21.000000
85.080660 6.000000
85.089310 30.000000
86.095030 5.000000
87.071140 8.000000
94.067790 15.000000
95.072780 46.000000
96.043420 10.000000
96.081410 38.000000
98.062640 8.000000
108.080960 255.000000
109.087100 83.000000
110.096210 30.000000
111.067840 29.000000
112.076270 5.000000
120.079410 11.000000
121.084840 10.000000
122.060070 44.000000
122.095670 20.000000
122.102890 11.000000
123.103430 14.000000
124.076550 7.000000
125.082730 16.000000
125.088160 5.000000
130.061770 7.000000
132.080520 7.000000
134.101360 5.000000
135.105640 11.000000
136.074260 6.000000
136.111830 33.000000
137.120290 9.000000
138.089450 28.000000
143.072860 71.000000
144.070800 9.000000
144.080870 31.000000
145.085830 7.000000
146.056410 6.000000
146.093060 14.000000
147.067290 6.000000
150.092150 14.000000
150.131010 14.000000
151.099350 14.000000
158.095630 6.000000
159.068190 12.000000
164.108580 13.000000
165.062550 11.000000
166.064590 9.000000
168.082180 16.000000
170.058440 23.000000
171.065020 11.000000
178.068530 8.000000
180.084730 22.000000
181.084960 6.000000
182.062710 12.000000
182.073260 7.000000
182.091480 6.000000
182.099840 7.000000
183.062880 27.000000
183.070070 49.000000
183.090240 8.000000
184.074230 15.000000
184.092800 6.000000
192.075120 7.000000
194.057770 10.000000
194.090620 5.000000
195.066220 11.000000
195.075440 11.000000
195.103210 8.000000
196.076680 78.000000
196.095110 12.000000
196.112380 38.000000
197.059300 7.000000
197.068830 19.000000
197.080510 32.000000
197.093080 17.000000
197.113050 21.000000
197.125610 6.000000
205.085540 7.000000
206.096300 73.000000
207.106480 17.000000
208.077790 39.000000
208.098590 8.000000
208.110470 8.000000
209.075320 12.000000
209.085770 5.000000
209.104350 7.000000
209.115220 8.000000
210.081020 16.000000
210.093290 34.000000
211.085970 8.000000
211.097660 11.000000
211.121930 14.000000
211.133300 8.000000
212.071320 42.000000
212.094850 10.000000
212.129090 6.000000
213.066250 6.000000
213.078740 9.000000
213.104080 14.000000
219.103350 8.000000
220.075290 13.000000
220.088590 6.000000
220.110760 18.000000
220.119480 7.000000
221.100600 7.000000
221.111620 6.000000
222.091550 32.000000
222.120150 10.000000
222.133680 12.000000
223.075680 10.000000
223.091930 32.000000
223.102680 19.000000
223.126220 22.000000
224.071490 8.000000
224.108720 242.000000
224.127900 9.000000
225.103360 319.000000
226.081680 5.000000
226.104140 52.000000
226.118760 13.000000
226.159760 6.000000
227.121900 14.000000
230.096480 59.000000
231.083250 11.000000
231.098140 13.000000
232.064530 8.000000
232.078230 5.000000
233.072800 7.000000
233.086640 45.000000
234.084270 6.000000
235.087310 9.000000
235.097110 9.000000
235.122510 5.000000
236.092410 22.000000
236.102550 20.000000
236.115980 8.000000
236.149630 9.000000
237.093930 8.000000
237.104770 15.000000
237.117580 5.000000
237.139080 29.000000
237.149730 7.000000
238.102580 6.000000
238.115160 10.000000
238.143130 15.000000
239.117650 151.000000
239.159330 14.000000
240.119090 23.000000
240.131760 9.000000
247.102220 9.000000
247.119720 12.000000
247.132050 11.000000
248.108230 147.000000
248.129210 8.000000
249.101820 72.000000
249.121550 19.000000
250.105330 25.000000
250.127490 6.000000
250.140670 7.000000
250.151490 11.000000
251.113940 24.000000
251.124690 20.000000
252.121930 7.000000
253.099530 7.000000
253.133910 13.000000
254.137410 5.000000
254.156800 13.000000
255.117580 21.000000
255.150940 8.000000
261.101410 5.000000
262.122620 6.000000
263.105680 6.000000
263.120730 23.000000
264.122410 8.000000
265.094480 7.000000
265.134830 1000.000000
266.138640 211.000000
267.116090 94.000000
267.145570 45.000000
267.156430 32.000000
268.113770 9.000000
268.129060 10.000000
268.157200 94.000000
268.173550 9.000000
269.158750 21.000000
277.131470 14.000000
278.121430 6.000000
278.139680 9.000000
278.150300 8.000000
279.148620 140.000000
280.149440 9.000000
280.162480 16.000000
281.131010 15.000000
295.132870 15.000000
295.151610 16.000000
296.103060 7.000000
296.120760 12.000000
296.152800 577.000000
297.130070 7.000000
297.156070 157.000000
298.163020 32.000000

>ms2peaks
56.041930 12.000000
56.048840 19.000000
58.065590 28.000000
63.026060 7.000000
66.042710 7.000000
66.506450 9.000000
67.042210 23.000000
68.046690 19.000000
69.069780 15.000000
70.063640 31.000000
70.068720 31.000000
71.069570 28.000000
71.075390 37.000000
71.682780 6.000000
72.072230 6.000000
77.040630 9.000000
77.043980 6.000000
78.045370 9.000000
78.353270 12.000000
79.053920 19.000000
79.060640 8.000000
80.038840 22.000000
80.049440 279.000000
80.940240 7.000000
81.047490 17.000000
81.058200 24.000000
81.070560 7.000000
82.061820 6.000000
82.066430 28.000000
84.040900 6.000000
84.070920 5.000000
84.080840 36.000000
84.429130 5.000000
85.090480 7.000000
86.085490 7.000000
89.376280 6.000000
90.033750 15.000000
91.050680 41.000000
91.056050 50.000000
92.053120 14.000000
93.058720 135.000000
94.055260 19.000000
94.065680 141.000000
95.068550 68.000000
95.075000 91.000000
96.044240 89.000000
96.071140 15.000000
96.077460 38.000000
96.084080 29.000000
96.722500 6.000000
97.042180 5.000000
97.049860 15.000000
97.086010 17.000000
98.056920 6.000000
101.039600 26.000000
102.035220 6.000000
102.266130 7.000000
103.042280 5.000000
104.042210 14.000000
104.048040 44.000000
104.062180 9.000000
104.936790 7.000000
105.043740 8.000000
105.057670 15.000000
105.066650 42.000000
106.063220 84.000000
106.068070 28.000000
107.072470 78.000000
108.041380 5.000000
108.080260 1000.000000
109.083780 51.000000
109.091930 25.000000
109.098340 9.000000
110.095940 52.000000
110.413010 6.000000
112.077890 8.000000
112.460000 14.000000
113.428910 7.000000
115.054190 108.000000
116.042790 11.000000
116.047500 30.000000
116.062360 24.000000
117.040490 10.000000
117.057920 111.000000
117.069370 28.000000
117.202800 6.000000
118.058350 56.000000
118.068410 85.000000
119.064760 9.000000
120.042090 7.000000
120.076990 26.000000
120.082860 29.000000
121.048390 6.000000
121.057490 6.000000
121.078930 52.000000
121.091870 20.000000
122.058780 161.000000
122.091960 74.000000
122.099090 64.000000
122.571110 5.000000
123.059120 18.000000
123.065990 12.000000
123.096500 10.000000
124.078820 13.000000
125.020920 5.000000
126.092240 6.000000
127.036910 6.000000
127.046350 10.000000
127.052650 25.000000
127.060370 6.000000
127.706640 5.000000
128.010350 12.000000
128.046940 46.000000
128.056500 14.000000
128.063660 23.000000
129.051220 24.000000
129.064880 44.000000
129.074510 32.000000
130.013310 12.000000
130.053360 29.000000
130.064510 170.000000
131.069930 32.000000
132.027440 11.000000
132.041730 56.000000
132.048340 90.000000
132.058350 12.000000
132.069950 11.000000
132.081380 76.000000
132.667040 6.000000
132.821850 6.000000
133.033480 6.000000
133.044080 23.000000
133.054840 16.000000
133.078030 12.000000
133.085850 16.000000
134.024260 8.000000
134.055040 8.000000
134.095350 23.000000
135.085100 7.000000
136.071290 52.000000
136.097120 8.000000
136.109600 6.000000
136.116740 6.000000
138.041900 11.000000
138.086700 24.000000
138.098680 32.000000
139.049640 13.000000
139.058200 13.000000
139.091460 5.000000
139.564320 5.000000
140.031220 7.000000
140.051620 50.000000
141.053190 8.000000
141.067720 43.000000
141.075150 37.000000
142.059330 22.000000
142.065980 76.000000
143.065930 32.000000
143.073440 58.000000
144.047200 49.000000
144.071400 20.000000
144.079280 102.000000
144.092540 5.000000
145.064480 17.000000
145.084010 21.000000
146.015490 15.000000
146.027660 65.000000
146.058380 19.000000
146.093380 6.000000
146.107960 5.000000
147.024580 6.000000
147.067350 10.000000
148.075350 39.000000
150.088070 5.000000
151.039020 11.000000
151.053850 80.000000
151.129440 7.000000
151.977710 5.000000
152.044280 60.000000
152.057010 139.000000
152.099530 6.000000
153.050110 23.000000
153.056430 19.000000
153.066090 17.000000
153.071980 28.000000
154.045550 16.000000
154.065260 193.000000
154.077150 17.000000
154.117430 7.000000
155.069500 43.000000
155.078030 41.000000
155.086780 6.000000
155.619720 10.000000
156.043880 40.000000
156.053560 19.000000
156.073440 10.000000
156.083630 12.000000
157.073230 8.000000
158.056880 6.000000
158.064440 10.000000
158.089630 6.000000
158.096310 19.000000
159.073100 13.000000
160.068440 15.000000
160.085140 6.000000
160.092710 9.000000
162.084410 8.000000
163.058060 9.000000
163.610240 6.000000
164.054570 60.000000
165.020020 10.000000
165.039790 6.000000
165.050630 72.000000
165.059100 161.000000
165.068590 137.000000
166.032170 6.000000
166.045970 16.000000
166.065550 278.000000
167.032640 8.000000
167.042950 22.000000
167.073060 295.000000
167.571490 6.000000
167.591080 6.000000
168.059950 52.000000
168.079190 137.000000
169.052700 25.000000
169.067690 19.000000
169.075360 21.000000
169.083860 30.000000
169.094010 11.000000
169.925460 7.000000
170.046660 10.000000
170.059420 81.000000
171.040220 7.000000
171.076810 11.000000
171.095490 13.000000
172.071180 6.000000
175.079680 12.000000
176.051350 13.000000
176.061170 12.000000
176.073560 19.000000
177.020490 8.000000
177.045150 22.000000
177.062300 78.000000
178.045320 33.000000
178.065350 721.000000
178.092390 6.000000
179.026430 12.000000
179.051380 17.000000
179.072890 275.000000
179.088750 85.000000
179.230360 7.000000
180.050550 14.000000
180.066120 67.000000
180.081040 343.000000
180.476030 6.000000
181.061800 16.000000
181.067690 39.000000
181.078870 88.000000
181.089780 119.000000
181.102450 8.000000
182.027390 8.000000
182.057420 102.000000
182.085770 171.000000
182.097790 33.000000
182.105700 8.000000
183.066310 260.000000
183.094730 27.000000
183.350560 11.000000
183.543090 6.000000
184.011960 8.000000
184.018840 7.000000
184.071270 117.000000
184.087680 10.000000
184.102940 9.000000
184.534130 10.000000
185.069050 5.000000
185.081070 7.000000
186.089260 8.000000
186.599490 7.000000
187.034840 10.000000
188.070210 8.000000
189.078780 16.000000
189.724230 8.000000
190.003330 6.000000
190.029220 9.000000
190.045240 6.000000
190.062770 146.000000
190.071530 95.000000
190.473390 5.000000
191.073000 259.000000
191.084290 46.000000
191.098080 6.000000
192.067060 35.000000
192.080550 160.000000
193.050370 18.000000
193.073430 99.000000
193.084200 77.000000
193.095810 8.000000
193.177690 7.000000
194.054260 30.000000
194.066820 39.000000
194.079730 47.000000
194.089920 68.000000
194.102510 40.000000
194.856510 6.000000
195.066620 116.000000
195.088490 121.000000
195.105830 23.000000
195.311840 5.000000
195.617100 9.000000
196.073720 288.000000
196.103680 21.000000
197.045040 6.000000
197.053010 23.000000
197.071240 54.000000
197.083910 69.000000
197.099290 15.000000
198.052460 16.000000
198.065600 8.000000
198.082380 21.000000
198.095860 12.000000
199.087430 6.000000
199.094790 9.000000
199.777530 11.000000
201.065610 24.000000
201.074840 16.000000
202.029170 7.000000
202.062470 80.000000
202.072950 125.000000
202.418720 6.000000
203.066670 69.000000
203.077380 80.000000
203.088520 36.000000
204.058140 17.000000
204.080570 389.000000
204.804280 13.000000
205.061100 19.000000
205.075790 80.000000
205.084990 49.000000
205.091720 58.000000
206.059160 31.000000
206.074520 54.000000
206.091510 296.000000
206.104100 71.000000
206.834110 5.000000
207.058140 8.000000
207.067900 34.000000
207.078870 51.000000
207.089600 121.000000
207.099930 138.000000
207.709010 8.000000
208.077090 256.000000
208.102190 112.000000
208.113220 23.000000
208.143300 6.000000
209.061890 28.000000
209.072720 88.000000
209.088410 41.000000
209.106230 22.000000
210.053380 10.000000
210.069850 67.000000
210.078980 245.000000
210.105260 9.000000
210.117310 5.000000
211.081710 58.000000
211.097110 12.000000
211.119670 12.000000
212.101870 7.000000
213.064250 11.000000
213.208880 6.000000
214.050370 18.000000
214.061720 74.000000
214.070370 68.000000
215.071320 245.000000
215.090870 6.000000
216.069230 28.000000
216.080840 47.000000
217.042160 10.000000
217.060750 21.000000
217.077990 131.000000
217.089050 30.000000
218.075780 16.000000
218.088750 29.000000
218.111400 9.000000
218.137310 9.000000
218.666110 10.000000
219.070480 110.000000
219.091340 125.000000
220.054310 6.000000
220.063550 16.000000
220.076810 46.000000
220.086500 54.000000
220.104970 75.000000
221.048110 6.000000
221.061780 7.000000
221.073240 68.000000
221.105830 47.000000
222.067030 22.000000
222.083190 26.000000
222.094410 44.000000
222.109020 56.000000
222.126280 6.000000
222.698290 8.000000
222.731860 6.000000
223.087280 102.000000
223.103040 17.000000
223.132580 15.000000
223.698900 5.000000
224.071810 25.000000
224.092680 32.000000
224.108760 67.000000
224.136030 11.000000
225.068450 8.000000
225.082120 26.000000
225.101240 220.000000
225.845320 6.000000
226.060760 8.000000
226.106400 36.000000
227.055500 10.000000
227.070370 28.000000
227.123490 7.000000
228.062350 8.000000
228.083660 109.000000
228.554400 5.000000
228.856980 7.000000
229.062700 17.000000
229.089710 116.000000
229.997220 8.000000
230.048660 6.000000
230.068980 6.000000
230.088410 146.000000
230.097580 177.000000
231.086500 73.000000
231.101320 126.000000
231.664260 6.000000
232.054730 27.000000
232.074280 57.000000
232.100950 95.000000
232.123840 8.000000
233.045470 6.000000
233.084550 339.000000
233.102390 40.000000
233.167140 5.000000
233.289200 5.000000
234.043050 6.000000
234.081670 127.000000
234.109310 30.000000
234.127620 8.000000
234.846040 10.000000
235.042740 9.000000
235.060780 8.000000
235.088380 373.000000
235.128520 19.000000
236.066470 6.000000
236.085170 34.000000
236.097530 35.000000
236.113880 14.000000
236.141910 13.000000
236.273280 8.000000
236.992450 12.000000
237.073670 6.000000
237.086090 10.000000
237.103680 49.000000
237.127090 7.000000
237.146260 36.000000
238.112000 22.000000
238.143750 13.000000
238.515640 6.000000
239.109390 32.000000
239.124560 11.000000
240.078490 5.000000
241.406460 5.000000
242.750240 6.000000
243.086590 11.000000
243.097340 7.000000
244.090970 6.000000
244.125850 9.000000
244.904420 5.000000
245.101840 6.000000
245.119890 13.000000
246.090760 18.000000
246.117950 10.000000
247.066510 5.000000
247.089320 119.000000
247.128300 36.000000
248.080730 9.000000
248.105830 89.000000
248.132550 7.000000
249.084720 10.000000
249.096570 27.000000
249.108260 64.000000
249.125550 6.000000
249.137100 12.000000
249.436260 5.000000
250.077820 8.000000
250.109500 33.000000
250.132930 10.000000
251.102310 10.000000
251.119450 7.000000
252.093230 6.000000
252.117260 7.000000
260.393590 10.000000
261.101650 8.000000
262.110350 6.000000
263.114260 19.000000
264.114620 7.000000
264.123900 24.000000
265.063600 9.000000
265.083100 6.000000
265.099760 5.000000
265.132690 121.000000
266.130430 13.000000
266.142000 34.000000
267.112950 14.000000
267.122710 6.000000
267.155880 6.000000
277.124020 12.000000
277.135860 12.000000
279.135680 8.000000
279.151430 27.000000
287.183960 14.000000
295.135680 8.000000
296.151550 5.000000
297.159030 13.000000
327.157010 6.000000
327.176640 41.000000

