>compound PR47346420
>parentmass 252.1096
>ionization [M+H]+
>formula C10H13N5O3
>rt 115.800000
>profile qtof
#smiles_iso C1C(C(OC1N2C=NC3=C(N=CN=C32)N)CO)O
#smiles_can C1C(C(OC1N2C=NC3=C(N=CN=C32)N)CO)O
#inchikey OLXZPDWKRNYJJZ-UHFFFAOYSA-N
#pubchem_id 636
#mb_accession PR310806

>ms2
63.464610 20.000000
117.054360 19.000000
136.062640 419.000000
137.068300 28.000000
194.060680 21.000000
219.128340 23.000000
252.099530 18.000000

