>compound PR47149137
>parentmass 319.0448437
>ionization [M+H]+
>formula C15H10O8
>rt 280.360020
>profile qtof
#smiles_iso C1=C(C=C(C(=C1O)O)O)C2=C(C(=O)C3=C(C=C(C=C3O2)O)O)O
#smiles_can C1=C(C=C(C(=C1O)O)O)C2=C(C(=O)C3=C(C=C(C=C3O2)O)O)O
#inchikey IKMDFBPHZNJCSN-UHFFFAOYSA-N
#pubchem_id 5281672
#mb_accession PR302006,PR302012,PR302018,PR302024,PR302030,PR302036,PR302042,PR302047,PR302053,PR302059,PR302065,PR302070

>ms2peaks
79.017330 5.000000
97.020550 5.000000
109.029580 7.000000
121.033330 6.000000
135.044370 7.000000
137.025340 16.000000
153.014880 94.000000
153.029050 7.000000
153.056810 6.000000
154.015490 5.000000
158.033660 6.000000
165.012700 9.000000
165.018910 14.000000
166.021580 14.000000
171.055650 6.000000
179.031600 35.000000
189.060010 9.000000
189.868970 5.000000
190.018810 6.000000
199.042940 5.000000
199.147050 6.000000
203.032090 20.000000
209.039930 9.000000
217.048420 20.000000
217.058410 27.000000
218.062550 11.000000
233.041490 9.000000
244.036610 6.000000
245.029750 11.000000
245.042590 52.000000
245.058790 8.000000
246.030040 9.000000
250.144030 8.000000
255.032910 5.000000
263.119870 6.000000
273.036130 32.000000
273.050450 13.000000
274.042540 8.000000
275.050200 5.000000
275.457310 8.000000
283.031650 9.000000
290.031680 11.000000
290.047270 19.000000
291.049500 8.000000
291.062990 5.000000
301.040040 17.000000
317.035220 10.000000
318.039150 7.000000
319.006100 12.000000
319.046510 1000.000000

>ms2peaks
317.016390 11.000000
317.036680 17.000000
318.023560 11.000000
318.036250 10.000000
318.984070 11.000000
319.004430 7.000000
319.043270 1000.000000
319.077420 5.000000
319.101380 6.000000

>ms2peaks
68.992700 14.000000
69.002540 20.000000
79.017940 19.000000
95.011670 16.000000
95.048280 24.000000
97.028230 15.000000
107.052030 10.000000
109.030800 24.000000
110.615210 10.000000
111.007610 151.000000
112.015870 17.000000
119.011200 10.000000
119.050750 10.000000
121.028080 17.000000
121.058470 14.000000
125.017380 14.000000
125.022620 14.000000
126.029010 19.000000
131.047120 10.000000
133.059520 11.000000
134.067630 12.000000
135.004180 10.000000
136.962550 24.000000
137.011890 17.000000
137.021210 100.000000
137.042280 16.000000
138.021220 20.000000
143.046340 21.000000
147.046800 11.000000
149.016510 17.000000
153.017490 1000.000000
153.045270 50.000000
154.021560 50.000000
154.031280 15.000000
155.001170 11.000000
156.056400 22.000000
161.045040 10.000000
161.051220 30.000000
161.073500 10.000000
163.037060 24.000000
165.017470 421.000000
166.009870 13.000000
166.020420 19.000000
166.029130 12.000000
166.187160 10.000000
171.045500 32.000000
172.049210 17.000000
175.022340 13.000000
177.034560 13.000000
177.055540 37.000000
178.064900 10.000000
179.034820 171.000000
179.996930 12.000000
180.033370 28.000000
182.038380 10.000000
184.058410 11.000000
186.097080 21.000000
187.024220 10.000000
188.058240 10.000000
188.996120 13.000000
189.010770 28.000000
189.030060 15.000000
189.056170 41.000000
190.027420 20.000000
191.031020 10.000000
195.024310 19.000000
195.035160 33.000000
199.036130 78.000000
200.045960 15.000000
203.034480 103.000000
204.030080 20.000000
204.044850 20.000000
205.057340 14.000000
206.055100 11.000000
206.419430 14.000000
206.974620 13.000000
207.026890 16.000000
217.045460 214.000000
217.054080 191.000000
218.043990 15.000000
218.061390 19.000000
219.017490 13.000000
219.030080 12.000000
221.008790 15.000000
221.044220 15.000000
227.027240 16.000000
227.037640 24.000000
227.054440 12.000000
228.713290 13.000000
229.053410 13.000000
231.011370 10.000000
231.019620 20.000000
232.027570 11.000000
233.034150 39.000000
234.045910 10.000000
235.013150 15.000000
235.061050 32.000000
236.059690 15.000000
239.030200 11.000000
240.232670 10.000000
244.039660 29.000000
244.527820 25.000000
244.940860 14.000000
245.009750 29.000000
245.029430 69.000000
245.047030 300.000000
246.044080 37.000000
246.056050 42.000000
246.650470 10.000000
247.052470 10.000000
248.022980 15.000000
249.035260 15.000000
254.999570 19.000000
255.018010 38.000000
255.034160 35.000000
256.036010 19.000000
259.048000 11.000000
261.027340 18.000000
261.035860 13.000000
263.053680 16.000000
263.139160 14.000000
272.022190 32.000000
272.039460 12.000000
272.994600 12.000000
273.028440 55.000000
273.041140 161.000000
273.070250 26.000000
273.331240 12.000000
274.042760 99.000000
274.671660 20.000000
275.037930 25.000000
275.049500 24.000000
277.007110 10.000000
290.041500 84.000000
291.045380 24.000000
301.036350 18.000000
319.018890 11.000000
319.041320 267.000000

>ms2peaks
55.014400 246.000000
56.016570 52.000000
65.035310 62.000000
67.011880 77.000000
68.994610 92.000000
69.000730 52.000000
77.038710 357.000000
79.020590 145.000000
80.021460 62.000000
80.968950 62.000000
91.054760 234.000000
92.023450 58.000000
92.047960 80.000000
93.033530 71.000000
95.015220 62.000000
96.013210 86.000000
97.020370 74.000000
103.052990 163.000000
106.077130 89.000000
109.027360 203.000000
112.010040 83.000000
115.054340 249.000000
116.053990 108.000000
119.006310 65.000000
121.026070 338.000000
123.042240 228.000000
124.015710 71.000000
124.054540 71.000000
126.031590 62.000000
127.060330 92.000000
131.048610 182.000000
133.064120 108.000000
133.161420 89.000000
134.036290 86.000000
136.019330 83.000000
137.023410 185.000000
137.062880 74.000000
147.031970 62.000000
149.063450 102.000000
152.013050 163.000000
152.995800 77.000000
153.007170 138.000000
153.019070 1000.000000
154.039960 62.000000
155.052150 126.000000
160.050190 62.000000
161.026350 68.000000
161.053120 65.000000
171.036440 98.000000
171.046220 471.000000
172.199680 117.000000
175.016420 92.000000
177.046300 92.000000
179.029480 55.000000
188.036270 83.000000
190.061200 95.000000
200.051770 55.000000
203.037810 77.000000
203.303470 52.000000
204.045010 71.000000
216.036610 74.000000
217.044540 65.000000
217.057280 71.000000
219.041150 92.000000
227.034040 129.000000
245.036710 92.000000
255.021760 52.000000
256.040860 77.000000
319.025670 71.000000
319.041380 83.000000

>ms2peaks
68.996970 24.000000
81.035210 8.000000
109.029820 26.000000
111.006450 15.000000
111.049720 6.000000
125.013940 9.000000
131.043500 6.000000
133.065460 7.000000
137.021960 8.000000
137.030270 9.000000
153.015760 85.000000
153.023530 52.000000
154.025040 11.000000
155.012820 7.000000
161.059590 6.000000
162.829960 6.000000
164.005360 7.000000
164.052540 7.000000
165.016110 65.000000
166.023800 8.000000
167.027310 6.000000
175.040480 7.000000
186.036320 6.000000
189.053270 21.000000
190.061890 12.000000
191.042280 5.000000
194.975850 10.000000
195.023970 5.000000
199.016080 11.000000
200.043500 6.000000
201.051830 6.000000
203.032680 5.000000
205.011170 6.000000
207.041260 5.000000
208.032040 15.000000
216.042880 9.000000
217.040150 16.000000
217.052440 51.000000
221.021900 5.000000
222.217380 6.000000
227.021620 6.000000
227.032000 9.000000
229.038650 9.000000
231.054920 7.000000
231.318040 9.000000
232.029400 12.000000
232.042920 9.000000
234.668000 7.000000
245.042370 38.000000
245.053940 14.000000
246.033290 5.000000
246.052800 19.000000
246.058870 8.000000
250.312500 6.000000
273.027100 11.000000
273.036800 46.000000
275.993160 6.000000
290.037510 13.000000
301.033330 6.000000
301.938230 12.000000
318.983800 6.000000
319.003720 22.000000
319.046020 1000.000000
319.071380 22.000000

>ms2peaks
317.027620 7.000000
318.031070 12.000000
318.999730 14.000000
319.044590 1000.000000

>ms2peaks
67.015210 11.000000
68.993710 10.000000
80.030620 17.000000
93.040450 26.000000
105.036110 20.000000
109.025180 45.000000
109.031390 48.000000
110.032200 13.000000
111.009550 150.000000
111.016250 35.000000
111.041500 41.000000
115.050980 18.000000
116.050460 13.000000
121.030780 12.000000
121.068930 20.000000
122.034390 11.000000
123.030910 10.000000
125.019350 29.000000
137.006350 18.000000
137.021800 42.000000
137.028610 59.000000
139.032680 14.000000
139.045470 10.000000
143.049610 9.000000
145.063490 10.000000
147.014470 20.000000
147.044340 15.000000
147.056790 19.000000
148.310380 17.000000
152.012940 16.000000
153.000560 59.000000
153.018660 1000.000000
153.049380 21.000000
154.015030 30.000000
154.021870 22.000000
155.081590 9.000000
158.032330 21.000000
159.048400 10.000000
161.025450 42.000000
161.052290 14.000000
161.060230 35.000000
164.997010 16.000000
165.016560 196.000000
165.027740 27.000000
166.018780 55.000000
166.034530 14.000000
166.978810 10.000000
167.058790 11.000000
171.036220 16.000000
171.056020 12.000000
172.051900 22.000000
173.038350 26.000000
175.030640 17.000000
175.042330 22.000000
177.056440 33.000000
179.027820 14.000000
179.035370 58.000000
181.034640 14.000000
183.040510 11.000000
186.561490 11.000000
187.036650 23.000000
189.058060 62.000000
190.050420 20.000000
190.057980 13.000000
191.031080 11.000000
192.032320 12.000000
193.010560 16.000000
193.991390 23.000000
195.027540 34.000000
199.009490 11.000000
199.025020 18.000000
202.028780 13.000000
202.765910 15.000000
203.020080 9.000000
203.033920 71.000000
204.039490 30.000000
205.048710 26.000000
205.062590 10.000000
207.031310 14.000000
211.316410 10.000000
217.014680 19.000000
217.046490 360.000000
218.019960 11.000000
218.038820 15.000000
218.046830 34.000000
218.061330 10.000000
219.027190 23.000000
219.039510 20.000000
219.048400 32.000000
219.057850 16.000000
221.024350 9.000000
222.045060 12.000000
223.040890 18.000000
227.030170 9.000000
227.039310 17.000000
228.032560 22.000000
229.045810 43.000000
230.179490 10.000000
231.024980 37.000000
232.030780 22.000000
232.042110 23.000000
232.067780 18.000000
233.032780 13.000000
233.052090 20.000000
233.066280 23.000000
234.047530 26.000000
234.698730 14.000000
235.024630 16.000000
235.062480 19.000000
237.037920 22.000000
237.070980 11.000000
244.021000 17.000000
244.038740 59.000000
244.991970 20.000000
245.005220 14.000000
245.041670 363.000000
245.054600 79.000000
245.116620 11.000000
245.362080 11.000000
246.029660 14.000000
246.041950 27.000000
246.050640 20.000000
247.970050 18.000000
248.016710 11.000000
255.032070 39.000000
256.041930 16.000000
258.048740 12.000000
263.067020 11.000000
264.053070 21.000000
272.040890 27.000000
272.826260 11.000000
273.022670 21.000000
273.041930 375.000000
273.051970 111.000000
273.099370 18.000000
274.033600 11.000000
274.053500 19.000000
276.635830 15.000000
287.046110 16.000000
290.032620 13.000000
290.048310 56.000000
291.044620 15.000000
291.523380 10.000000
301.042390 9.000000
317.033630 14.000000
319.041780 164.000000

>ms2peaks
50.017310 149.000000
65.031270 78.000000
65.040320 108.000000
65.044420 74.000000
68.997670 257.000000
77.040890 213.000000
79.053850 145.000000
81.031430 203.000000
91.012480 88.000000
91.054450 135.000000
93.031220 78.000000
97.027640 182.000000
102.040440 68.000000
105.031390 68.000000
105.548640 61.000000
109.033540 95.000000
111.043370 91.000000
115.056400 230.000000
116.058140 57.000000
118.046170 155.000000
119.009050 243.000000
121.031490 125.000000
121.062190 57.000000
123.040180 57.000000
125.019160 152.000000
125.654820 64.000000
131.044270 57.000000
137.025830 68.000000
143.020390 71.000000
143.047930 203.000000
144.618470 95.000000
145.026520 84.000000
147.041340 142.000000
148.048550 128.000000
149.309220 61.000000
152.006090 57.000000
152.999310 91.000000
153.015780 1000.000000
155.017820 108.000000
160.045170 111.000000
160.057880 81.000000
161.059020 81.000000
163.032500 118.000000
171.047000 152.000000
173.030730 68.000000
174.034710 81.000000
174.093380 81.000000
177.047590 159.000000
178.024190 74.000000
188.039490 91.000000
188.049000 182.000000
189.055310 98.000000
190.056520 74.000000
203.033710 182.000000
203.045850 61.000000
203.998380 84.000000
206.051930 118.000000
216.026600 111.000000
217.049150 61.000000
218.049910 68.000000
219.021820 105.000000
219.036410 81.000000
220.034900 203.000000
228.181670 71.000000
239.036210 84.000000

>ms2peaks
65.040560 6.000000
111.002710 15.000000
111.042660 7.000000
111.109990 7.000000
127.050510 5.000000
137.027180 14.000000
139.039860 6.000000
149.020070 5.000000
153.019420 75.000000
153.053620 8.000000
154.021260 11.000000
155.045750 7.000000
161.059710 9.000000
165.016680 11.000000
166.025850 22.000000
167.030000 7.000000
177.054240 8.000000
179.038270 10.000000
187.041500 8.000000
188.054230 7.000000
189.056270 14.000000
191.041350 7.000000
217.045750 17.000000
217.053480 16.000000
222.037340 7.000000
233.045210 5.000000
235.030260 7.000000
244.029080 11.000000
245.044890 35.000000
246.019290 7.000000
263.057950 7.000000
263.479800 6.000000
272.031650 6.000000
273.042660 31.000000
319.005950 14.000000
319.044740 1000.000000

>ms2peaks
317.023560 18.000000
318.032650 11.000000
318.992030 9.000000
319.006320 8.000000
319.044590 1000.000000

>ms2peaks
68.504410 10.000000
77.027670 10.000000
90.391750 13.000000
91.057550 20.000000
93.029130 18.000000
105.037670 17.000000
109.027550 24.000000
109.553150 10.000000
110.028010 41.000000
110.996770 31.000000
111.006460 84.000000
111.015560 21.000000
112.008930 29.000000
115.375280 12.000000
121.027710 56.000000
123.039660 11.000000
123.046460 13.000000
125.021870 29.000000
133.027330 20.000000
135.044070 16.000000
137.011430 13.000000
137.021380 205.000000
138.030410 18.000000
139.042140 46.000000
146.060410 11.000000
147.043950 16.000000
149.022020 15.000000
153.017550 1000.000000
154.015400 35.000000
154.025300 23.000000
154.060420 18.000000
157.028560 17.000000
159.044800 13.000000
161.025480 29.000000
161.056840 55.000000
161.064830 54.000000
162.059940 10.000000
164.994930 32.000000
165.011830 96.000000
165.019030 173.000000
165.028120 49.000000
165.044100 32.000000
166.020520 90.000000
166.030930 16.000000
167.813740 12.000000
168.835940 21.000000
171.046230 12.000000
172.038160 22.000000
173.062030 27.000000
174.062790 21.000000
175.020860 32.000000
175.032840 11.000000
177.014250 12.000000
177.052510 24.000000
179.014470 17.000000
179.034990 220.000000
180.041200 16.000000
181.072140 12.000000
189.052760 69.000000
190.059480 14.000000
191.029790 12.000000
192.039150 18.000000
192.996200 25.000000
194.001250 12.000000
194.021510 17.000000
194.416530 10.000000
195.028310 21.000000
195.035710 18.000000
196.032290 14.000000
198.047360 11.000000
199.037840 51.000000
199.049030 28.000000
203.032680 83.000000
203.045850 13.000000
204.038930 24.000000
205.043530 28.000000
207.026260 57.000000
207.036120 31.000000
207.047520 10.000000
207.064530 15.000000
208.027860 44.000000
209.055110 16.000000
211.047820 14.000000
212.620440 10.000000
215.025410 16.000000
215.047030 16.000000
216.048540 12.000000
217.031340 41.000000
217.049220 361.000000
217.176960 17.000000
218.058430 39.000000
219.050480 13.000000
219.062900 16.000000
220.036190 13.000000
221.017560 10.000000
222.044600 12.000000
227.032500 31.000000
227.044940 17.000000
228.831910 12.000000
229.039230 28.000000
229.050310 14.000000
231.023960 14.000000
231.036360 33.000000
232.035660 10.000000
234.050740 12.000000
235.058690 32.000000
235.072010 12.000000
240.027360 21.000000
241.053410 14.000000
243.019120 15.000000
244.003010 14.000000
244.043560 23.000000
244.200910 10.000000
244.970900 12.000000
245.038890 184.000000
245.048160 416.000000
245.905010 10.000000
246.055910 65.000000
247.043140 27.000000
248.034560 20.000000
249.037260 23.000000
254.998730 13.000000
255.024000 69.000000
255.036300 89.000000
255.540020 12.000000
261.032900 12.000000
262.041810 13.000000
263.056670 61.000000
271.024050 12.000000
273.013240 16.000000
273.038300 154.000000
274.032200 30.000000
274.054050 18.000000
275.042240 25.000000
275.055300 18.000000
275.080960 12.000000
285.032870 10.000000
285.052340 15.000000
290.040500 25.000000
290.050720 17.000000
291.041840 36.000000
292.049290 19.000000
300.775120 10.000000
301.016720 13.000000
301.029210 35.000000
301.544190 14.000000
302.034820 17.000000
318.963040 12.000000
319.027560 44.000000
319.044800 257.000000
319.094600 12.000000

>ms2peaks
68.995700 358.000000
77.039730 97.000000
77.619740 56.000000
78.035260 64.000000
79.026830 47.000000
79.039620 125.000000
80.019400 69.000000
80.946530 47.000000
81.034130 464.000000
83.015980 128.000000
89.036860 106.000000
91.054240 108.000000
95.010050 78.000000
97.027210 228.000000
101.041830 78.000000
102.040950 50.000000
103.058860 89.000000
104.054500 64.000000
105.032280 56.000000
105.067200 61.000000
107.042270 136.000000
109.026410 386.000000
115.051730 161.000000
115.059000 186.000000
116.065860 83.000000
119.003230 119.000000
119.046330 94.000000
119.052540 133.000000
120.057370 53.000000
121.027560 144.000000
121.058470 56.000000
123.325940 53.000000
124.006360 56.000000
125.022450 156.000000
126.024590 78.000000
126.268550 69.000000
127.041830 86.000000
131.020230 64.000000
133.033340 97.000000
133.059170 78.000000
133.065020 83.000000
137.022830 581.000000
138.020290 92.000000
139.034360 58.000000
146.045840 47.000000
148.051360 122.000000
151.034360 89.000000
152.018200 122.000000
153.015340 1000.000000
154.028730 114.000000
159.043010 53.000000
161.065000 108.000000
163.041960 58.000000
171.043610 136.000000
171.053070 133.000000
172.056960 131.000000
175.046570 100.000000
177.050400 69.000000
179.021480 81.000000
179.031710 58.000000
179.037860 47.000000
179.260480 50.000000
187.014820 64.000000
187.035200 106.000000
199.037900 72.000000
199.045380 58.000000
200.054810 50.000000
201.868070 83.000000
202.021190 61.000000
203.032760 56.000000
215.021990 106.000000
217.039540 72.000000
217.047850 58.000000
218.050200 125.000000
229.045700 72.000000
230.014430 89.000000
233.040910 61.000000
245.036540 122.000000

