>compound PR47704884
>parentmass 829.1868
>ionization [M+H]+
>formula C38H36O21
>rt 280.800000
>profile qtof
#smiles_iso COC1=C(C=CC(=C1)C=CC(=O)OC2C(C(C(OC2OC3C(C(C(OC3OC4=CC(=C5C(=C4)OC(=CC5=O)C6=CC(=C(C=C6)O)OC)O)C(=O)O)O)O)C(=O)O)O)O)O
#smiles_can COC1=C(C=CC(=C1)C=CC(=O)OC2C(C(C(OC2OC3C(C(C(OC3OC4=CC(=C5C(=C4)OC(=CC5=O)C6=CC(=C(C=C6)O)OC)O)C(=O)O)O)O)C(=O)O)O)O)O
#inchikey CQSOKHCNRZFEOH-UHFFFAOYSA-N
#pubchem_id 74977717
#mb_accession PR311029

>ms2peaks
177.057830 21.000000
271.064820 17.000000
301.068240 99.000000
301.082370 21.000000
302.073150 20.000000
335.063290 17.000000
354.095370 18.000000

