>compound PR47900036
>parentmass 209.09609150000003
>ionization [M+H]+
>formula C15H12O
>rt 541.150020
>profile qtof
#smiles_iso C1=CC=C(C=C1)/C=C/C(=O)C2=CC=CC=C2
#smiles_can C1=CC=C(C=C1)C=CC(=O)C2=CC=CC=C2
#inchikey DQFBYFPFKXHELB-VAWYXSNFSA-N
#pubchem_id 637760
#mb_accession PR303297,PR303299,PR303301,PR303303,PR303305,PR303307,PR303309,PR303311,PR303313,PR303315,PR303317,PR303319

>ms2
77.033890 7.000000
77.038830 7.000000
77.044770 7.000000
79.058260 7.000000
103.055050 266.000000
104.052010 9.000000
104.061670 21.000000
105.034320 126.000000
106.033210 7.000000
107.046040 9.000000
107.054480 6.000000
131.049700 622.000000
132.052310 63.000000
133.054060 11.000000
165.067980 7.000000
166.075820 6.000000
181.103390 24.000000
182.105680 5.000000
191.085830 64.000000
192.086720 6.000000
194.073620 9.000000
207.074360 9.000000
207.094530 8.000000
208.085170 13.000000
209.044830 6.000000
209.095960 1000.000000
209.135540 19.000000

>ms2
103.056140 5.000000
105.033040 16.000000
131.049220 114.000000
132.053670 9.000000
181.101940 10.000000
191.087020 14.000000
207.080830 11.000000
208.088120 7.000000
209.096540 1000.000000
209.137650 28.000000

>ms2
77.030720 9.000000
77.039360 169.000000
78.042640 28.000000
79.056360 15.000000
91.055690 16.000000
102.048270 13.000000
103.033130 5.000000
103.054030 1000.000000
104.047630 9.000000
104.059830 89.000000
105.031490 106.000000
128.599030 5.000000
131.032710 10.000000
131.048430 329.000000
132.052400 40.000000
133.045650 6.000000
152.058690 9.000000
152.436570 7.000000
153.079500 6.000000
165.065640 27.000000
165.075100 8.000000
166.076200 17.000000
166.083620 10.000000
173.033680 6.000000
178.080570 5.000000
179.086000 6.000000
189.061830 6.000000
189.074230 9.000000
190.072010 10.000000
190.083920 13.000000
191.083770 33.000000
193.065580 6.000000
194.071410 11.000000
207.061870 5.000000
207.084950 18.000000
208.091020 6.000000
209.093230 6.000000

>ms2
77.015300 50.000000
77.037610 109.000000
77.042950 141.000000
102.047490 73.000000
103.054500 1000.000000
104.059880 34.000000
105.031260 50.000000
110.564760 51.000000
131.047440 36.000000
165.071670 50.000000
165.078310 97.000000
176.062880 55.000000
189.066420 40.000000
189.077740 67.000000
206.071170 53.000000
209.098880 36.000000

>ms2
77.038540 9.000000
79.055310 6.000000
103.054020 298.000000
104.057910 40.000000
105.033190 131.000000
106.034090 6.000000
107.050670 8.000000
131.049530 667.000000
132.053130 72.000000
165.076860 11.000000
166.075390 20.000000
181.101880 25.000000
190.078200 6.000000
191.084410 53.000000
191.096650 22.000000
207.077270 16.000000
208.083650 15.000000
209.075090 7.000000
209.095750 1000.000000
209.137050 20.000000

>ms2
103.056240 5.000000
105.033910 20.000000
131.049120 126.000000
132.052660 15.000000
181.096850 5.000000
191.083980 14.000000
207.083310 5.000000
208.086360 12.000000
209.096440 1000.000000
209.137480 36.000000

>ms2
77.039350 179.000000
78.039160 12.000000
78.044570 13.000000
78.143630 5.000000
79.052850 16.000000
79.685070 5.000000
102.045310 10.000000
102.052090 21.000000
103.054430 1000.000000
104.057040 82.000000
104.066570 9.000000
105.034190 131.000000
106.032330 9.000000
106.039550 8.000000
109.207790 6.000000
131.048740 317.000000
132.050690 42.000000
165.071320 40.000000
166.080860 11.000000
178.078140 6.000000
179.076770 8.000000
189.062290 6.000000
189.076920 16.000000
190.069380 20.000000
191.082170 24.000000
191.092680 6.000000
194.075700 10.000000
207.080490 14.000000
207.091230 9.000000
208.076450 5.000000

>ms2
65.806410 30.000000
77.035380 224.000000
77.040830 227.000000
78.036050 30.000000
78.043400 35.000000
82.961140 57.000000
91.059330 27.000000
101.118160 46.000000
103.043200 90.000000
103.053340 1000.000000
104.059330 33.000000
104.141300 27.000000
131.050090 47.000000
132.622820 47.000000
165.067790 141.000000
176.054810 27.000000
209.082020 58.000000
209.095980 213.000000

>ms2
77.039960 32.000000
78.044190 7.000000
103.054480 278.000000
104.059100 18.000000
105.033890 119.000000
106.038480 11.000000
107.055860 8.000000
131.049090 582.000000
132.053270 102.000000
133.059690 5.000000
165.069610 7.000000
166.072750 10.000000
181.104520 16.000000
191.088040 56.000000
192.085660 17.000000
194.069580 9.000000
207.077820 20.000000
208.082600 17.000000
209.097080 1000.000000
209.138120 15.000000

>ms2
103.054320 6.000000
105.034770 20.000000
131.049510 124.000000
132.054820 11.000000
181.102890 13.000000
191.087130 16.000000
207.080260 11.000000
208.093830 6.000000
209.097110 1000.000000
209.138280 35.000000

>ms2
77.039960 220.000000
78.046780 16.000000
79.052800 19.000000
102.046060 8.000000
103.054530 1000.000000
104.055690 55.000000
104.061450 38.000000
105.033800 138.000000
105.060980 5.000000
131.048680 280.000000
132.049800 13.000000
134.903000 5.000000
165.069600 62.000000
166.072540 6.000000
166.082470 14.000000
178.078770 11.000000
179.083590 15.000000
189.062620 10.000000
189.070880 17.000000
190.081120 9.000000
191.087070 13.000000
194.066790 5.000000
207.077910 5.000000
207.089750 6.000000

>ms2
77.025810 57.000000
77.038020 604.000000
78.044330 143.000000
102.053780 65.000000
103.054850 1000.000000
104.063870 180.000000
105.036750 36.000000
164.064330 40.000000
165.070140 105.000000
178.063800 36.000000
178.076830 48.000000
189.066250 69.000000
209.087230 155.000000
209.100100 264.000000

