>compound PR47825348
>parentmass 257.082
>ionization [M-H2O+H]+
>formula C15H14O5
>rt 294.600000
>profile qtof
#smiles_iso C1C(C(OC2=CC(=CC(=C21)O)O)C3=CC=C(C=C3)O)O
#smiles_can C1C(C(OC2=CC(=CC(=C21)O)O)C3=CC=C(C=C3)O)O
#inchikey RSYUFYQTACJFML-UHFFFAOYSA-N
#pubchem_id 282014
#mb_accession PR311007

>ms2peaks
109.027980 29.000000
137.006520 26.000000
137.020690 29.000000
147.045350 31.000000
239.071960 26.000000
244.094800 20.000000
256.192500 40.000000
256.204900 20.000000
257.043880 17.000000
257.079930 118.000000
257.094420 38.000000

