>compound PR48239486
>parentmass 173.1073244307692
>ionization [M+H]+
>formula C11H12N2
>rt 167.821828
>profile qtof
#smiles_iso C1CC2=NC3=CC=CC=C3CN2C1
#smiles_can C1CC2=NC3=CC=CC=C3CN2C1
#inchikey WUFQLZTXIWKION-UHFFFAOYSA-N
#pubchem_id 442894
#mb_accession PR300922,PR300927,PR300932,PR300937,PR300942,PR300947,PR300952,PR300957,PR300962,PR300967,PR300972,PR300977,PR310545

>ms2
106.065190 12.000000
144.064160 9.000000
144.070920 8.000000
144.081560 7.000000
145.074840 8.000000
171.092210 8.000000
172.097820 5.000000
173.107320 1000.000000
173.142440 8.000000

>ms2
173.107960 1000.000000
173.145490 16.000000

>ms2
65.046910 14.000000
68.049770 7.000000
75.024500 7.000000
77.035160 18.000000
77.042950 9.000000
81.047440 8.000000
89.040070 8.000000
91.056180 37.000000
103.061210 10.000000
106.056710 18.000000
106.066230 108.000000
106.076170 5.000000
107.069460 15.000000
116.042340 15.000000
116.058240 6.000000
117.059190 31.000000
117.076320 18.000000
118.048640 8.000000
118.065240 102.000000
127.045360 7.000000
128.045070 5.000000
128.056810 17.000000
129.055440 5.000000
129.068280 13.000000
130.062270 26.000000
130.068300 30.000000
130.987460 5.000000
131.051710 14.000000
131.066130 29.000000
132.071370 27.000000
132.084090 28.000000
133.099140 7.000000
143.060150 6.000000
143.073820 16.000000
144.045810 5.000000
144.069520 281.000000
144.082570 64.000000
145.056340 6.000000
145.072740 30.000000
145.083850 23.000000
146.076490 6.000000
146.095260 12.000000
148.400590 5.000000
154.062120 9.000000
156.063890 7.000000
156.082050 39.000000
157.089310 18.000000
158.079450 7.000000
171.094420 43.000000
172.099560 18.000000
172.106520 10.000000
173.107190 1000.000000

>ms2
68.048160 93.000000
77.043170 198.000000
91.046120 93.000000
93.064320 137.000000
103.043320 143.000000
106.061700 209.000000
117.061730 269.000000
118.057260 170.000000
118.065040 231.000000
127.032260 104.000000
128.053740 121.000000
130.065900 137.000000
130.073870 148.000000
131.056880 110.000000
144.057170 104.000000
144.066330 99.000000
144.071930 115.000000
144.079700 126.000000
145.075700 126.000000
173.070620 104.000000
173.106090 1000.000000
173.120030 143.000000

>ms2
106.065160 8.000000
118.067860 6.000000
130.064620 11.000000
144.069400 16.000000
144.082430 8.000000
156.085360 8.000000
171.090210 5.000000
173.107420 1000.000000

>ms2
173.107570 1000.000000
173.142940 13.000000

>ms2
64.320260 6.000000
68.050130 30.000000
70.065000 8.000000
77.035350 12.000000
77.042600 18.000000
80.054120 9.000000
80.061090 7.000000
89.041180 7.000000
91.041440 10.000000
91.050190 18.000000
91.060130 5.000000
94.060840 7.000000
99.850750 6.000000
103.047090 10.000000
103.055770 55.000000
104.043560 14.000000
104.053890 12.000000
106.008580 9.000000
106.064750 91.000000
115.063760 5.000000
116.051500 6.000000
117.050160 6.000000
117.056720 20.000000
117.063000 23.000000
117.073130 7.000000
117.110410 6.000000
118.059420 24.000000
118.067410 83.000000
119.070960 7.000000
120.085850 7.000000
121.145090 6.000000
127.046510 5.000000
127.053410 7.000000
128.051510 6.000000
129.049240 6.000000
129.060760 8.000000
129.069090 22.000000
130.063200 72.000000
131.064480 37.000000
131.079610 7.000000
132.078660 10.000000
132.085240 27.000000
133.078540 6.000000
133.089020 11.000000
143.041430 8.000000
143.054210 5.000000
143.062930 23.000000
143.070280 5.000000
144.069690 183.000000
144.081860 44.000000
144.089680 6.000000
145.071810 41.000000
145.080230 22.000000
145.091510 19.000000
147.097670 5.000000
154.064290 8.000000
156.072370 5.000000
156.082050 16.000000
157.082320 14.000000
157.090230 11.000000
158.090680 5.000000
161.622440 9.000000
169.081050 6.000000
169.800490 6.000000
170.408890 6.000000
171.091420 55.000000
172.080440 5.000000
172.105620 17.000000
172.157670 10.000000
173.107970 1000.000000

>ms2
77.037800 87.000000
99.100330 112.000000
103.058480 97.000000
104.057720 228.000000
106.071530 228.000000
117.059480 117.000000
129.072190 112.000000
130.065870 257.000000
131.066800 87.000000
143.064290 121.000000
144.066220 1000.000000
144.081680 112.000000
145.074070 97.000000
171.092850 107.000000
173.107100 408.000000

>ms2
130.065900 9.000000
144.061310 6.000000
144.066470 14.000000
144.078660 13.000000
145.082260 6.000000
172.102140 6.000000
173.108030 1000.000000
173.149600 6.000000

>ms2
173.107450 1000.000000
173.145340 14.000000

>ms2
68.052400 10.000000
77.037090 20.000000
77.043350 16.000000
79.054910 10.000000
91.050100 16.000000
91.055400 28.000000
100.930090 5.000000
103.050080 15.000000
103.059140 41.000000
104.050740 29.000000
104.062300 9.000000
105.058130 12.000000
105.066700 10.000000
106.037660 7.000000
106.065970 135.000000
107.072740 12.000000
107.078410 8.000000
116.053120 11.000000
117.054890 33.000000
117.119970 5.000000
118.056300 18.000000
118.066170 100.000000
119.064060 6.000000
127.053760 5.000000
128.044560 11.000000
128.060780 11.000000
129.072340 5.000000
130.064970 74.000000
131.014920 7.000000
131.059920 39.000000
131.074660 19.000000
132.073810 22.000000
132.086010 14.000000
133.082520 13.000000
133.786800 9.000000
144.051930 7.000000
144.064270 107.000000
144.073100 128.000000
144.086270 32.000000
145.071120 33.000000
145.080870 25.000000
146.100750 6.000000
146.894070 9.000000
147.292040 6.000000
154.045650 5.000000
154.065860 5.000000
156.080230 31.000000
157.079760 7.000000
157.092730 7.000000
158.090710 21.000000
162.917080 5.000000
171.090530 44.000000
172.096480 17.000000
172.108830 7.000000
173.052640 5.000000
173.068560 5.000000
173.107910 1000.000000

>ms2
78.033350 157.000000
104.032900 119.000000
104.045340 170.000000
104.052130 138.000000
106.062930 119.000000
106.069100 321.000000
116.061840 107.000000
117.050360 126.000000
118.063390 409.000000
128.055660 126.000000
131.060010 145.000000
137.531680 220.000000
144.065350 465.000000
144.076420 107.000000
144.083800 107.000000
145.082670 176.000000
154.063160 119.000000
169.077100 201.000000
171.091960 107.000000
173.050740 132.000000
173.098980 327.000000
173.107830 1000.000000
173.113330 302.000000

>ms2
68.057700 20.000000
69.036400 18.000000
70.851590 18.000000
77.038490 35.000000
79.059270 26.000000
87.845730 17.000000
91.054400 43.000000
94.065100 24.000000
103.056620 23.000000
104.055690 37.000000
105.069310 21.000000
106.065190 216.000000
110.305700 21.000000
117.054660 54.000000
117.059610 52.000000
117.072160 26.000000
117.746320 17.000000
118.061760 22.000000
118.069600 83.000000
118.074570 27.000000
123.337660 17.000000
127.054200 21.000000
128.049580 19.000000
130.056750 39.000000
130.063900 77.000000
130.073730 21.000000
130.967320 17.000000
131.067670 53.000000
131.609730 17.000000
132.081910 38.000000
132.608490 18.000000
143.062270 22.000000
144.064160 160.000000
144.070920 150.000000
144.081560 129.000000
144.093540 24.000000
145.074840 151.000000
145.086180 17.000000
146.000230 18.000000
146.082900 21.000000
156.062810 18.000000
156.079730 36.000000
157.081300 20.000000
158.085680 39.000000
158.097640 18.000000
169.789380 19.000000
170.342590 18.000000
171.092210 146.000000
171.097150 79.000000
171.160250 22.000000
172.097820 98.000000
172.109190 41.000000
172.953170 17.000000
173.076690 35.000000
173.107320 17969.000000
173.142440 147.000000

