>compound PR48365641
>parentmass 799.1718
>ionization [M+H]+
>formula C37H34O20
>rt 285.600000
>profile qtof
#smiles_iso COC1=C(C=CC(=C1)C=CC(=O)OC2C(C(C(OC2OC3C(C(C(OC3OC4=CC=C(C=C4)C5=CC(=O)C6=C(C=C(C=C6O5)O)O)C(=O)O)O)O)C(=O)O)O)O)O
#smiles_can COC1=C(C=CC(=C1)C=CC(=O)OC2C(C(C(OC2OC3C(C(C(OC3OC4=CC=C(C=C4)C5=CC(=O)C6=C(C=C(C=C6O5)O)O)C(=O)O)O)O)C(=O)O)O)O)O
#inchikey LNCLTICCQWMCNS-UHFFFAOYSA-N
#pubchem_id 73746333
#mb_accession PR311027

>ms2
151.044420 18.000000
163.071790 24.000000
176.035340 17.000000
177.055400 115.000000
227.066730 17.000000
234.091690 23.000000
243.065480 22.000000
260.037480 17.000000
260.066410 175.000000
271.058230 826.000000
272.052800 35.000000
272.066530 97.000000
272.083190 50.000000
273.072110 80.000000
285.033750 17.000000
299.044100 18.000000
300.054350 21.000000
300.064880 20.000000
335.083130 71.000000
336.083100 17.000000
353.084500 168.000000
353.097720 86.000000
354.085050 19.000000
354.095340 18.000000
447.084290 83.000000
447.110810 18.000000
449.101070 18.000000
523.206540 19.000000
531.011660 44.000000
799.105960 22.000000
799.164250 580.000000
799.191770 345.000000

