>compound PR48049000
>parentmass 328.15433459999997
>ionization [M+H]+
>formula C19H21NO4
>rt 201.187980
>profile qtof
#smiles_iso CN1CCC2=CC(=C(C3=C2[C@@H]1CC4=CC(=C(C=C43)OC)O)OC)O
#smiles_can CN1CCC2=CC(=C(C3=C2C1CC4=CC(=C(C=C43)OC)O)OC)O
#inchikey LZJRNLRASBVRRX-ZDUSSCGKSA-N
#pubchem_id 10154
#mb_accession PR301090,PR301094,PR301098,PR301102,PR301106,PR301110,PR301114,PR301118,PR301122,PR301126,PR301130,PR301134

>ms2peaks
165.066470 7.000000
165.075610 10.000000
166.076510 13.000000
166.088580 5.000000
167.081440 5.000000
176.062970 22.000000
177.069820 124.000000
178.073580 17.000000
179.088620 9.000000
183.074750 7.000000
190.078520 6.000000
193.067120 8.000000
194.074100 100.000000
195.078380 15.000000
195.084550 6.000000
204.058650 6.000000
205.066060 235.000000
206.069240 53.000000
209.096180 6.000000
211.075650 24.000000
221.056870 15.000000
221.064450 14.000000
222.067660 152.000000
223.068620 16.000000
223.076200 17.000000
225.090130 10.000000
233.060970 71.000000
234.061920 8.000000
234.070560 13.000000
237.092880 430.000000
238.066590 6.000000
238.095580 54.000000
239.068470 50.000000
239.097670 10.000000
240.067580 6.000000
250.061780 33.000000
251.072530 22.000000
252.084090 7.000000
253.090560 16.000000
254.091050 10.000000
254.099380 11.000000
255.107280 7.000000
265.086880 734.000000
265.132570 9.000000
266.091220 166.000000
267.065580 36.000000
267.079500 15.000000
267.099730 12.000000
268.072050 13.000000
268.100860 8.000000
282.092380 69.000000
283.086460 10.000000
297.112980 421.000000
298.097410 12.000000
298.116730 98.000000
299.121370 5.000000
328.107360 7.000000
328.152860 1000.000000
328.202730 15.000000

>ms2peaks
265.087100 77.000000
266.087550 8.000000
297.111540 120.000000
298.114720 21.000000
328.153930 1000.000000
328.205900 23.000000

>ms2peaks
165.069430 19.000000
166.076680 8.000000
176.055770 6.000000
177.069840 208.000000
178.071430 10.000000
178.079730 7.000000
179.086730 10.000000
183.084950 6.000000
191.085340 17.000000
193.069320 5.000000
194.042590 9.000000
194.059800 12.000000
194.074310 74.000000
195.073260 6.000000
195.087020 8.000000
205.065380 593.000000
206.045670 7.000000
206.069690 105.000000
207.079040 21.000000
208.090610 10.000000
209.093750 18.000000
209.103440 14.000000
211.081040 7.000000
213.095660 6.000000
219.080280 7.000000
221.056750 9.000000
222.048600 8.000000
222.067200 247.000000
223.043810 7.000000
223.061480 12.000000
223.069410 45.000000
224.063520 8.000000
225.089020 32.000000
226.094650 10.000000
227.070110 5.000000
233.061400 167.000000
234.065170 40.000000
235.073560 11.000000
236.074680 7.000000
236.094440 5.000000
237.046980 6.000000
237.060100 7.000000
237.091020 1000.000000
238.088440 79.000000
238.096370 131.000000
239.070470 58.000000
239.080410 32.000000
239.099200 30.000000
240.070880 7.000000
240.082080 7.000000
240.101580 5.000000
250.060590 61.000000
250.070370 20.000000
251.065160 33.000000
251.075390 32.000000
252.074540 20.000000
253.081830 6.000000
253.099320 9.000000
254.089610 48.000000
254.099880 38.000000
255.098080 10.000000
265.054410 6.000000
265.085080 413.000000
266.066440 10.000000
266.092680 170.000000
267.062560 94.000000
267.075530 56.000000
267.101680 15.000000
268.063170 18.000000
268.075650 21.000000
282.081360 68.000000
282.097080 80.000000
283.094600 31.000000
297.109890 20.000000
297.122190 25.000000
298.125340 5.000000

>ms2peaks
55.012810 5.000000
55.019790 25.000000
115.049660 22.000000
127.053650 20.000000
128.058760 7.000000
128.065640 7.000000
129.070760 14.000000
134.813390 6.000000
140.223890 6.000000
141.069840 50.000000
141.079300 8.000000
143.459930 5.000000
146.079220 6.000000
151.048000 56.000000
151.057920 110.000000
152.062580 37.000000
153.061680 16.000000
153.070890 117.000000
154.072400 58.000000
154.082980 10.000000
155.082660 64.000000
155.090380 41.000000
155.132520 6.000000
156.090810 10.000000
159.048630 6.000000
163.047500 13.000000
164.062650 16.000000
164.238740 5.000000
165.044800 15.000000
165.070530 939.000000
165.802920 8.000000
166.054670 10.000000
166.075760 466.000000
166.100950 10.000000
167.047230 6.000000
167.072300 21.000000
167.078000 55.000000
167.086550 46.000000
167.321320 6.000000
168.054500 100.000000
168.086240 7.000000
169.061980 6.000000
170.066830 7.000000
172.725680 6.000000
176.063420 414.000000
176.080570 12.000000
176.089170 6.000000
177.029600 9.000000
177.038360 7.000000
177.069090 597.000000
177.542760 6.000000
178.075880 157.000000
178.824510 6.000000
178.935790 5.000000
179.048780 10.000000
179.086850 31.000000
179.701720 5.000000
181.053960 9.000000
181.066640 47.000000
181.106370 8.000000
182.072530 51.000000
182.085310 6.000000
183.046710 20.000000
183.076570 92.000000
183.084850 59.000000
184.075290 11.000000
184.082240 21.000000
184.091250 9.000000
189.037430 6.000000
189.063020 27.000000
189.082180 11.000000
190.080780 10.000000
190.132030 5.000000
190.601120 6.000000
191.065900 7.000000
191.079100 9.000000
191.098190 5.000000
193.043440 34.000000
193.064350 212.000000
193.112660 5.000000
194.072280 1000.000000
194.802570 7.000000
195.043370 19.000000
195.075560 222.000000
195.530140 6.000000
196.075270 16.000000
196.081210 6.000000
196.687650 6.000000
197.013900 7.000000
197.056580 14.000000
198.065220 13.000000
198.647640 6.000000
200.061230 6.000000
201.060580 9.000000
204.050570 6.000000
204.059830 17.000000
205.065320 367.000000
205.545090 6.000000
206.066240 29.000000
206.074970 39.000000
207.025450 5.000000
207.069950 17.000000
207.080050 9.000000
207.090350 18.000000
208.040820 5.000000
208.051820 8.000000
208.081540 6.000000
208.088880 6.000000
209.062210 10.000000
210.069890 12.000000
211.054900 24.000000
211.068910 59.000000
211.080980 78.000000
212.046880 6.000000
212.071320 14.000000
212.081790 15.000000
213.087920 6.000000
220.080050 5.000000
221.036100 8.000000
221.053760 32.000000
221.062090 113.000000
221.073060 35.000000
222.067090 231.000000
223.075530 188.000000
224.064730 13.000000
224.082670 23.000000
232.084500 6.000000
233.053830 9.000000
233.063750 5.000000
234.070530 19.000000
234.080280 18.000000
235.067790 8.000000
236.070270 6.000000
237.090740 27.000000
237.101180 14.000000
238.097080 19.000000
239.065060 90.000000
239.074780 39.000000
240.073430 14.000000
249.045360 6.000000
250.050600 6.000000
250.069270 6.000000
251.080840 6.000000
252.065410 5.000000
252.078870 6.000000
252.164760 6.000000
253.085420 18.000000
254.092060 12.000000
265.723080 7.000000
267.048000 8.000000
267.071900 26.000000
268.076780 6.000000
272.485350 5.000000
297.111480 9.000000
305.145870 8.000000
328.154630 10.000000

>ms2peaks
165.068240 24.000000
167.078380 7.000000
176.057820 6.000000
176.067600 8.000000
177.069500 119.000000
178.075940 19.000000
183.082340 15.000000
193.059680 6.000000
193.067670 10.000000
194.071810 108.000000
195.074430 22.000000
205.066020 238.000000
206.069210 50.000000
207.074160 6.000000
209.100650 6.000000
211.077420 20.000000
221.063390 10.000000
222.046200 6.000000
222.067600 118.000000
223.072880 35.000000
224.078160 10.000000
225.091520 11.000000
233.032470 8.000000
233.053630 25.000000
233.061870 46.000000
234.060410 18.000000
235.076280 9.000000
236.081270 8.000000
237.066910 7.000000
237.091490 410.000000
238.096590 88.000000
239.071660 43.000000
239.087660 16.000000
240.080600 9.000000
247.072880 6.000000
250.064160 19.000000
251.069470 40.000000
252.076110 6.000000
253.076980 6.000000
253.089690 14.000000
254.091520 28.000000
254.107530 9.000000
255.091640 6.000000
265.043950 6.000000
265.086610 739.000000
266.091580 191.000000
267.068390 58.000000
267.095580 33.000000
268.068080 7.000000
282.078430 22.000000
282.088990 71.000000
283.093570 12.000000
285.113680 9.000000
297.112060 432.000000
298.113650 97.000000
299.125370 8.000000
328.154450 1000.000000
328.207610 21.000000

>ms2peaks
265.087800 63.000000
266.089510 11.000000
297.114070 119.000000
298.117890 24.000000
328.110260 5.000000
328.155820 1000.000000
328.207120 22.000000

>ms2peaks
165.065440 7.000000
165.072950 8.000000
166.075270 8.000000
177.063960 73.000000
177.073930 103.000000
178.072240 36.000000
179.084990 12.000000
183.083680 6.000000
191.085460 12.000000
193.063690 5.000000
194.065440 33.000000
194.074190 39.000000
194.082720 15.000000
195.068410 11.000000
195.076870 6.000000
195.087050 5.000000
205.064640 605.000000
206.059100 21.000000
206.072100 81.000000
206.087570 7.000000
207.073320 7.000000
207.085010 10.000000
209.096590 25.000000
211.069490 17.000000
211.087590 5.000000
219.090010 11.000000
221.052760 17.000000
222.038510 6.000000
222.066960 197.000000
222.076630 81.000000
223.074140 38.000000
224.082180 12.000000
225.090260 16.000000
226.099270 16.000000
233.059110 132.000000
234.061610 27.000000
234.079450 11.000000
235.068570 9.000000
235.079220 8.000000
237.090910 1000.000000
238.068630 13.000000
238.089320 125.000000
238.100590 102.000000
239.069140 51.000000
239.094910 28.000000
240.074340 6.000000
247.080340 6.000000
250.056700 26.000000
250.067180 49.000000
251.072400 54.000000
252.068800 6.000000
253.074740 10.000000
253.095080 8.000000
254.091580 46.000000
254.107650 20.000000
255.102630 18.000000
264.084410 7.000000
265.086820 508.000000
266.091830 152.000000
266.107210 29.000000
267.046510 10.000000
267.066770 132.000000
267.092250 29.000000
267.109440 5.000000
268.061490 11.000000
268.073180 14.000000
268.084230 7.000000
269.075010 6.000000
282.087550 128.000000
282.109470 11.000000
283.080960 14.000000
283.096220 20.000000
283.110350 7.000000
297.109010 67.000000
298.105470 8.000000
298.121770 6.000000
299.114230 5.000000

>ms2peaks
55.023680 9.000000
85.028270 7.000000
115.055160 7.000000
116.061720 5.000000
128.051940 7.000000
128.062530 34.000000
128.069460 7.000000
129.064620 8.000000
129.075160 8.000000
141.040710 5.000000
141.069600 84.000000
141.079180 18.000000
143.054310 6.000000
143.074600 5.000000
143.351440 8.000000
151.054150 97.000000
152.059270 54.000000
152.067860 11.000000
153.071080 107.000000
154.069200 8.000000
154.079120 27.000000
155.085530 77.000000
157.073360 5.000000
165.045070 10.000000
165.069790 1000.000000
165.142260 5.000000
165.660860 5.000000
166.076810 316.000000
167.044190 11.000000
167.083530 25.000000
167.096300 9.000000
168.057910 34.000000
168.064300 11.000000
168.083620 9.000000
169.063510 25.000000
169.072530 7.000000
171.044140 7.000000
172.058140 5.000000
173.052400 11.000000
173.066040 8.000000
176.062210 258.000000
177.037320 6.000000
177.044540 7.000000
177.070080 419.000000
177.097530 7.000000
178.075320 119.000000
178.088620 13.000000
179.081040 22.000000
179.088520 30.000000
180.062410 8.000000
180.091310 13.000000
181.058910 10.000000
181.069260 36.000000
181.098500 11.000000
182.068300 30.000000
182.085330 7.000000
183.079740 153.000000
184.088850 39.000000
189.068590 85.000000
190.071550 20.000000
190.080470 20.000000
191.070280 6.000000
191.083680 11.000000
193.047420 15.000000
193.065380 154.000000
194.037400 5.000000
194.073070 907.000000
195.076610 154.000000
195.090650 6.000000
196.045620 11.000000
196.057220 12.000000
196.083650 15.000000
197.061660 9.000000
198.058300 11.000000
201.060910 11.000000
202.087170 5.000000
204.054760 31.000000
205.065480 293.000000
205.973430 6.000000
206.069550 90.000000
206.087770 8.000000
207.073070 11.000000
207.083270 36.000000
208.085280 13.000000
209.078080 13.000000
210.058330 5.000000
210.069600 36.000000
211.075330 151.000000
211.089650 11.000000
211.371020 7.000000
212.083480 39.000000
213.058240 5.000000
213.082050 7.000000
219.072590 5.000000
220.096800 5.000000
221.051910 46.000000
221.065290 95.000000
222.044570 5.000000
222.067760 160.000000
223.076070 168.000000
224.080580 12.000000
224.090240 6.000000
225.089750 7.000000
227.098590 7.000000
233.049130 11.000000
233.065250 10.000000
234.063770 12.000000
235.070630 13.000000
237.091490 11.000000
238.060350 19.000000
239.062000 34.000000
239.075810 61.000000
240.083010 7.000000
251.072330 21.000000
254.102540 7.000000
255.094090 16.000000
266.069760 5.000000
267.053070 12.000000
267.067050 7.000000
268.031680 5.000000
296.889010 6.000000
305.157070 6.000000
306.153840 7.000000
328.162510 9.000000

>ms2peaks
165.061980 9.000000
165.073930 10.000000
166.081990 7.000000
176.067640 7.000000
177.070860 121.000000
178.079410 17.000000
183.078110 7.000000
190.080310 7.000000
191.082760 7.000000
193.058980 12.000000
194.072270 103.000000
195.079860 21.000000
205.055210 47.000000
205.066760 182.000000
206.070180 43.000000
207.076630 5.000000
208.088710 7.000000
209.099810 10.000000
211.066990 6.000000
211.076660 14.000000
211.085860 11.000000
221.047210 6.000000
221.062840 7.000000
222.067660 148.000000
223.066570 23.000000
223.081250 16.000000
225.086270 13.000000
225.100400 7.000000
226.093250 5.000000
226.104110 6.000000
233.054120 25.000000
233.066150 25.000000
234.060760 14.000000
234.069020 16.000000
235.078000 7.000000
237.090070 367.000000
238.064560 6.000000
238.094740 65.000000
239.071610 62.000000
250.058400 17.000000
250.070620 8.000000
251.062650 18.000000
251.076050 18.000000
253.095310 13.000000
254.091870 27.000000
254.102690 11.000000
265.085720 692.000000
265.122130 6.000000
266.089260 193.000000
267.049440 6.000000
267.061710 15.000000
267.070160 25.000000
267.084110 22.000000
268.068660 8.000000
282.090700 70.000000
283.088680 10.000000
297.111940 373.000000
298.110260 51.000000
298.125090 33.000000
299.112270 9.000000
328.153470 1000.000000
328.201050 9.000000
328.211760 8.000000

>ms2peaks
265.086670 68.000000
266.087190 12.000000
297.112240 114.000000
298.117370 22.000000
327.148100 5.000000
328.154360 1000.000000
328.205600 29.000000

>ms2peaks
165.072830 15.000000
166.081010 8.000000
177.047790 5.000000
177.070920 167.000000
178.068910 18.000000
178.077500 12.000000
183.087570 7.000000
191.093200 10.000000
193.069750 5.000000
194.071430 64.000000
195.083400 5.000000
205.065260 527.000000
206.067170 106.000000
206.078000 31.000000
207.069840 13.000000
207.084230 6.000000
208.084880 6.000000
208.096660 5.000000
209.093540 12.000000
209.103440 6.000000
211.074770 15.000000
219.082890 11.000000
221.060580 11.000000
222.069170 249.000000
223.063490 16.000000
223.074340 44.000000
225.087780 19.000000
226.092130 5.000000
233.059020 122.000000
233.068180 43.000000
234.058530 28.000000
234.071960 28.000000
235.075130 15.000000
236.087830 9.000000
237.091290 1000.000000
238.094820 221.000000
239.068570 64.000000
239.095780 19.000000
239.106900 12.000000
240.075270 8.000000
247.069790 10.000000
250.064330 68.000000
250.081820 7.000000
251.055890 8.000000
251.071140 47.000000
252.072570 5.000000
253.086930 18.000000
254.095720 75.000000
255.107240 7.000000
265.086730 496.000000
266.092070 183.000000
267.065030 103.000000
267.095150 28.000000
268.066830 18.000000
268.082180 6.000000
282.088230 146.000000
283.095120 36.000000
297.113250 55.000000
298.121670 13.000000

>ms2peaks
115.051730 6.000000
116.057860 5.000000
129.068910 7.000000
132.052410 5.000000
139.057590 14.000000
141.068800 50.000000
141.077670 8.000000
144.053570 15.000000
151.048280 47.000000
151.058170 68.000000
152.049100 12.000000
152.061680 67.000000
152.068390 25.000000
153.071200 72.000000
154.075870 45.000000
154.084290 9.000000
155.057650 6.000000
155.083040 57.000000
155.092130 33.000000
156.055360 5.000000
156.090870 6.000000
164.060640 13.000000
164.069340 7.000000
165.071140 855.000000
166.041550 6.000000
166.077500 288.000000
166.095140 12.000000
167.051990 15.000000
167.082470 84.000000
167.174900 5.000000
168.040480 7.000000
168.058990 30.000000
168.078410 9.000000
168.091020 8.000000
169.054310 8.000000
169.068190 30.000000
171.067500 5.000000
173.062580 14.000000
176.032200 5.000000
176.063490 419.000000
176.571610 6.000000
177.043030 13.000000
177.070800 629.000000
178.073180 102.000000
178.081190 54.000000
179.043060 7.000000
179.052090 10.000000
179.071930 6.000000
179.084230 25.000000
180.051570 7.000000
180.062610 8.000000
180.082860 11.000000
181.064940 28.000000
181.076160 10.000000
181.103810 6.000000
182.063030 9.000000
182.073140 24.000000
182.082580 14.000000
183.079820 107.000000
183.090300 35.000000
184.078000 8.000000
184.087390 27.000000
187.080440 6.000000
189.068540 54.000000
189.076350 14.000000
190.069060 9.000000
190.082200 5.000000
190.089130 5.000000
191.081680 27.000000
192.048770 5.000000
192.056720 20.000000
193.065370 226.000000
193.075790 41.000000
194.031920 6.000000
194.072390 1000.000000
195.070310 47.000000
195.078290 128.000000
195.090640 36.000000
196.048520 24.000000
196.083300 18.000000
196.241870 5.000000
197.059740 15.000000
198.080320 7.000000
201.052700 11.000000
202.055820 11.000000
204.046260 8.000000
204.059510 15.000000
205.046520 11.000000
205.066010 391.000000
206.072850 110.000000
207.048720 6.000000
207.075550 22.000000
207.099290 7.000000
208.088650 9.000000
209.093770 12.000000
210.059600 7.000000
210.070190 7.000000
211.075180 212.000000
211.089920 20.000000
212.042710 8.000000
212.072170 6.000000
212.081300 24.000000
212.091710 8.000000
220.052610 5.000000
220.080290 6.000000
221.064090 81.000000
222.060700 46.000000
222.070650 168.000000
222.096250 9.000000
223.062000 18.000000
223.076980 86.000000
223.100110 5.000000
224.049030 8.000000
224.077990 23.000000
225.097960 13.000000
233.060060 7.000000
235.074630 7.000000
237.082640 20.000000
237.093090 29.000000
238.055630 14.000000
239.074980 98.000000
240.068820 7.000000
240.084400 9.000000
248.078780 7.000000
250.056820 5.000000
251.073530 19.000000
254.099590 7.000000
267.052060 9.000000
267.076200 6.000000
328.149050 9.000000
328.164150 10.000000

