>compound PR48572472
>parentmass 149.059706
>ionization [M+H]+
>formula C9H8O2
>rt 271.831980
>profile qtof
#smiles_iso C1=CC(=CC=C1/C=C/C=O)O
#smiles_can C1=CC(=CC=C1C=CC=O)O
#inchikey CJXMVKYNVIGQBS-OWOJBTEDSA-N
#pubchem_id 641301
#mb_accession PR304040,PR304041,PR304043,PR304045,PR304047,PR304049,PR304051,PR304053,PR304055,PR304057,PR304059,PR304061

>ms2peaks
55.017540 6.000000
56.023830 6.000000
77.036830 15.000000
77.043190 14.000000
88.980460 6.000000
91.050050 18.000000
91.059150 6.000000
93.066950 35.000000
93.071590 17.000000
95.045910 8.000000
103.053790 171.000000
104.055890 6.000000
107.013980 8.000000
107.047410 34.000000
107.057850 8.000000
108.018680 6.000000
119.047510 18.000000
120.059750 14.000000
121.025800 6.000000
121.056750 39.000000
121.067920 103.000000
122.028070 6.000000
122.068020 7.000000
122.077280 7.000000
124.031540 6.000000
131.048970 577.000000
132.049060 40.000000
132.056200 49.000000
133.059690 10.000000
147.050030 34.000000
148.054440 7.000000
149.058820 1000.000000
149.076450 13.000000

>ms2peaks
55.019030 7.000000
103.054620 28.000000
107.051910 23.000000
121.064060 76.000000
122.061940 14.000000
131.048860 272.000000
132.046920 6.000000
132.052290 15.000000
147.043900 8.000000
149.060300 1000.000000

>ms2peaks
77.037100 341.000000
77.040700 116.000000
78.041550 122.000000
78.049140 213.000000
81.038510 110.000000
91.052940 134.000000
103.051140 1000.000000
103.056360 311.000000
104.053410 122.000000
120.050050 122.000000
120.054890 122.000000
131.045530 128.000000
131.053300 134.000000
149.059010 604.000000

>ms2peaks
77.039880 333.000000
91.055510 476.000000
103.049260 667.000000
119.053050 317.000000
149.060120 1000.000000

>ms2peaks
55.017030 26.000000
56.024230 8.000000
56.570400 5.000000
77.039240 37.000000
79.051480 9.000000
91.014560 5.000000
91.044580 7.000000
91.057590 6.000000
92.984880 6.000000
93.069280 32.000000
103.023250 9.000000
103.042790 15.000000
103.055690 135.000000
104.051850 8.000000
104.058140 6.000000
107.050850 26.000000
108.050290 7.000000
108.962490 9.000000
109.047430 6.000000
111.082210 6.000000
119.049050 13.000000
121.047050 8.000000
121.064220 163.000000
123.074090 6.000000
125.638360 5.000000
130.998690 5.000000
131.049740 521.000000
131.810070 5.000000
132.051640 88.000000
134.050890 5.000000
147.048030 25.000000
147.715390 5.000000
148.164810 6.000000
148.786800 5.000000
149.059460 1000.000000
149.182040 6.000000

>ms2peaks
55.017800 5.000000
103.052380 37.000000
104.057320 8.000000
107.048900 8.000000
121.060780 38.000000
121.068210 41.000000
131.047900 285.000000
132.050370 35.000000
132.058490 9.000000
147.043180 6.000000
149.059200 1000.000000

>ms2peaks
67.406830 163.000000
77.038480 1000.000000
91.052620 433.000000
91.059960 240.000000
101.036470 192.000000
103.050410 606.000000
103.055400 327.000000
104.982090 163.000000
107.044840 288.000000
107.050960 183.000000
118.047570 462.000000
119.047780 192.000000
131.039090 202.000000
131.047380 760.000000
139.988620 192.000000
143.512760 240.000000
143.522280 192.000000
149.057040 596.000000

>ms2peaks
127.082280 526.000000
149.054530 1000.000000
149.067110 579.000000

>ms2peaks
55.011670 8.000000
55.014740 10.000000
77.040370 20.000000
79.055770 11.000000
89.504010 5.000000
90.508030 14.000000
91.053460 18.000000
92.058200 6.000000
93.068560 26.000000
93.078670 6.000000
94.072450 11.000000
98.514660 18.000000
99.506530 6.000000
99.511600 8.000000
103.054080 97.000000
104.056770 8.000000
107.050220 28.000000
120.053920 11.000000
121.029160 9.000000
121.064460 220.000000
122.070910 7.000000
131.048900 547.000000
132.030620 5.000000
132.050550 49.000000
147.044880 17.000000
147.931460 7.000000
149.059810 1000.000000

>ms2peaks
55.020810 5.000000
91.051940 8.000000
103.050610 26.000000
103.061360 7.000000
107.048730 28.000000
121.026100 5.000000
121.063230 61.000000
131.048170 288.000000
132.049840 17.000000
132.056870 20.000000
149.059570 1000.000000

>ms2peaks
55.020310 104.000000
65.040530 317.000000
77.039330 1000.000000
91.056910 128.000000
92.054450 146.000000
103.053080 652.000000
119.049510 165.000000
119.056470 110.000000
120.058700 110.000000
121.060840 128.000000
131.041580 122.000000
131.049820 640.000000
132.051850 299.000000
133.545840 104.000000
149.059390 256.000000

>ms2peaks
77.036830 140.000000
141.977160 108.000000
149.056110 1000.000000

