>compound PR48151200
>parentmass 929.5109
>ionization [M+H]+
>formula C47H76O18
>rt 363.600000
>profile qtof
#smiles_iso CC1(CCC2(C(C1)C3=CCC4C5(CCC(C(C5CCC4(C3(CC2O)C)C)(C)C)OC6C(C(C(CO6)O)OC7C(C(C(C(O7)CO)O)O)O)O)C)C(=O)OC8C(C(C(C(O8)CO)O)O)O)C
#smiles_can CC1(CCC2(C(C1)C3=CCC4C5(CCC(C(C5CCC4(C3(CC2O)C)C)(C)C)OC6C(C(C(CO6)O)OC7C(C(C(C(O7)CO)O)O)O)O)C)C(=O)OC8C(C(C(C(O8)CO)O)O)O)C
#inchikey DYJBTUINEBYYQT-UHFFFAOYSA-N
#pubchem_id 85263199
#mb_accession PR310671

>ms2peaks
141.015550 17.000000
211.193790 17.000000
268.213810 17.000000
287.222660 19.000000
381.295100 28.000000
422.327970 23.000000
439.365420 25.000000
441.379610 24.000000
455.363460 28.000000
456.370880 37.000000
458.384640 21.000000
478.227260 19.000000
479.834500 23.000000
549.420900 24.000000
585.428590 22.000000
598.369690 55.000000
633.396300 18.000000
711.406070 18.000000
762.426510 17.000000
765.295470 33.000000
796.461360 22.000000
927.498410 17.000000
927.536130 26.000000
929.464480 18.000000
929.489440 18.000000

