>compound PR48458033
>parentmass 385.2373360000001
>ionization [M+H]+
>formula C24H32O4
>rt 453.798000
>profile qtof
#smiles_iso C[C@]12CC[C@@H](C[C@H]1CC[C@@H]3[C@@H]2CC[C@]4([C@]35[C@H](O5)C[C@@H]4C6=COC(=O)C=C6)C)O
#smiles_can CC12CCC(CC1CCC3C2CCC4(C35C(O5)CC4C6=COC(=O)C=C6)C)O
#inchikey ATLJNLYIJOCWJE-CWMZOUAVSA-N
#pubchem_id 6917974
#mb_accession PR303650,PR303651,PR303652,PR303653,PR303654,PR303655,PR303656,PR303657,PR303658,PR303659

>ms2
91.053040 10.000000
93.069910 10.000000
95.089040 6.000000
105.069600 19.000000
107.084610 12.000000
109.099090 5.000000
119.085750 20.000000
121.101210 11.000000
129.073460 5.000000
131.084180 15.000000
133.096880 6.000000
133.101960 13.000000
135.117000 8.000000
143.085100 18.000000
145.065990 5.000000
145.099730 24.000000
147.118480 22.000000
149.131610 14.000000
151.037490 8.000000
155.086180 6.000000
157.098500 9.000000
159.079800 13.000000
159.116650 30.000000
161.094330 9.000000
161.128720 12.000000
161.136690 11.000000
163.076260 6.000000
167.074810 7.000000
169.100720 8.000000
171.114990 10.000000
173.132000 16.000000
175.144650 6.000000
181.098630 9.000000
184.124450 5.000000
185.132370 12.000000
187.076200 8.000000
187.146650 6.000000
189.092330 6.000000
191.073610 7.000000
193.102570 6.000000
197.133670 9.000000
199.073380 5.000000
199.148030 11.000000
205.086170 12.000000
207.118240 6.000000
211.147490 8.000000
213.164140 6.000000
217.085690 6.000000
219.102310 8.000000
239.101810 7.000000
241.122680 14.000000
253.195630 39.000000
254.198910 9.000000
255.209870 33.000000
271.198580 9.000000
271.210420 16.000000
331.204280 7.000000
339.232240 14.000000
340.240390 7.000000
349.215060 51.000000
350.212740 7.000000
350.229430 7.000000
367.226990 63.000000
368.230470 16.000000
385.237820 1000.000000
385.294560 22.000000

>ms2
349.214660 9.000000
367.227780 13.000000
385.238530 1000.000000
385.295560 24.000000

>ms2
55.020410 6.000000
55.052270 7.000000
61.906160 8.000000
67.054470 110.000000
68.058780 8.000000
68.999470 25.000000
69.065390 7.000000
69.070310 15.000000
70.074040 12.000000
73.030560 10.000000
76.313310 7.000000
77.035720 8.000000
79.033490 8.000000
79.051250 35.000000
79.058040 23.000000
80.300420 6.000000
80.754190 8.000000
81.068270 154.000000
82.072650 14.000000
82.077740 21.000000
83.086020 53.000000
84.087300 9.000000
84.095920 7.000000
85.021580 9.000000
85.030040 12.000000
85.066860 8.000000
91.029540 10.000000
91.053030 106.000000
91.057370 45.000000
92.062110 8.000000
93.035970 14.000000
93.051890 8.000000
93.070430 317.000000
93.470210 7.000000
93.934110 10.000000
94.075100 28.000000
95.046010 41.000000
95.051910 21.000000
95.068600 7.000000
95.085940 437.000000
95.736060 7.000000
96.051750 8.000000
96.087340 25.000000
97.026250 28.000000
97.057100 18.000000
97.066340 45.000000
97.101810 8.000000
99.004410 13.000000
99.079990 7.000000
103.054120 12.000000
104.417010 7.000000
105.032680 6.000000
105.069300 626.000000
105.916340 13.000000
106.009480 7.000000
106.073150 38.000000
106.873950 10.000000
107.046710 66.000000
107.052700 28.000000
107.086030 644.000000
107.954120 9.000000
108.052560 7.000000
108.083950 15.000000
108.092510 40.000000
108.099750 8.000000
108.262830 9.000000
109.017110 16.000000
109.031360 61.000000
109.067150 28.000000
109.101180 257.000000
109.106740 59.000000
109.200330 7.000000
110.030150 15.000000
110.101490 9.000000
110.108570 22.000000
110.757360 7.000000
111.034330 7.000000
111.047110 6.000000
111.076340 10.000000
112.405290 7.000000
113.022350 11.000000
113.029010 10.000000
115.054540 6.000000
116.059210 17.000000
117.068510 170.000000
117.609830 7.000000
118.067820 12.000000
118.080000 13.000000
118.086730 9.000000
119.043740 7.000000
119.051140 13.000000
119.085720 585.000000
120.005670 6.000000
120.060100 7.000000
120.086370 72.000000
120.091450 36.000000
121.064330 148.000000
121.084150 6.000000
121.100910 505.000000
121.336380 6.000000
122.067770 7.000000
122.103290 64.000000
122.112300 17.000000
123.042710 312.000000
123.075330 31.000000
123.110280 27.000000
123.900250 7.000000
124.048190 24.000000
124.114610 7.000000
125.023980 43.000000
125.047450 8.000000
125.095540 6.000000
125.101200 7.000000
125.177900 6.000000
125.629420 8.000000
126.030370 14.000000
126.559880 7.000000
127.041080 7.000000
128.063280 7.000000
128.419880 9.000000
128.491900 7.000000
129.029880 8.000000
129.054350 8.000000
129.062010 17.000000
129.072130 30.000000
130.080610 9.000000
131.045380 16.000000
131.051760 14.000000
131.085240 520.000000
131.456650 7.000000
131.927310 9.000000
132.055660 9.000000
132.084580 13.000000
132.091800 71.000000
132.335210 7.000000
133.022280 12.000000
133.038390 7.000000
133.055500 11.000000
133.065960 106.000000
133.087630 31.000000
133.101850 664.000000
133.132510 9.000000
134.035290 23.000000
134.064480 7.000000
134.071180 12.000000
134.076280 10.000000
134.101380 37.000000
134.109920 31.000000
135.046570 30.000000
135.070980 7.000000
135.080870 17.000000
135.116240 398.000000
136.045500 6.000000
136.125730 31.000000
136.474810 8.000000
137.009310 8.000000
137.038940 7.000000
137.058470 64.000000
137.064500 19.000000
139.036850 73.000000
139.076570 8.000000
140.518450 8.000000
140.555880 9.000000
140.685970 9.000000
140.795410 7.000000
140.845080 7.000000
140.893110 7.000000
141.066600 61.000000
141.082840 8.000000
142.073070 35.000000
142.082700 12.000000
142.089370 7.000000
143.053600 9.000000
143.087200 500.000000
143.101140 5.000000
143.130840 7.000000
144.052320 15.000000
144.084340 41.000000
144.099580 6.000000
145.046280 13.000000
145.064070 146.000000
145.078780 6.000000
145.101680 933.000000
145.126920 9.000000
145.392590 7.000000
145.885250 7.000000
146.070100 14.000000
146.078030 8.000000
146.088500 8.000000
146.098270 28.000000
146.106740 87.000000
147.045730 49.000000
147.066850 20.000000
147.079350 159.000000
147.117020 1000.000000
147.176070 8.000000
148.044330 7.000000
148.086440 7.000000
148.094250 9.000000
148.122910 108.000000
148.527450 6.000000
149.063550 49.000000
149.086460 7.000000
149.093550 22.000000
149.102050 52.000000
149.131300 352.000000
149.346530 6.000000
150.140880 21.000000
151.036820 285.000000
151.043900 110.000000
151.055650 10.000000
151.070450 58.000000
151.081850 7.000000
152.031370 16.000000
152.039920 48.000000
152.055160 7.000000
153.051740 65.000000
153.063250 26.000000
153.073090 7.000000
154.073180 24.000000
154.082640 14.000000
155.049070 10.000000
155.086610 176.000000
155.510440 7.000000
156.086960 37.000000
156.097120 9.000000
156.225940 7.000000
157.065090 21.000000
157.080430 23.000000
157.101810 350.000000
158.067570 8.000000
158.100230 33.000000
158.111560 20.000000
159.046690 29.000000
159.058980 18.000000
159.081450 473.000000
159.116620 768.000000
160.045000 16.000000
160.070940 25.000000
160.089220 25.000000
160.121900 141.000000
161.057010 30.000000
161.064910 14.000000
161.091290 48.000000
161.098190 46.000000
161.132460 886.000000
161.233090 7.000000
161.242860 8.000000
162.107220 8.000000
162.135160 97.000000
162.145770 25.000000
162.335890 7.000000
163.064330 14.000000
163.073290 73.000000
163.080840 52.000000
163.094450 9.000000
163.104000 7.000000
163.115650 13.000000
163.134600 7.000000
163.150620 84.000000
163.192920 7.000000
164.081620 15.000000
164.108600 8.000000
164.116380 8.000000
164.157700 14.000000
164.223390 8.000000
165.043180 7.000000
165.054930 25.000000
165.067720 49.000000
165.083950 24.000000
165.097170 33.000000
165.121610 7.000000
165.131060 7.000000
166.071850 17.000000
167.055010 6.000000
167.065610 10.000000
167.086330 55.000000
167.204940 7.000000
168.066480 14.000000
168.074600 6.000000
168.085370 9.000000
168.098650 6.000000
169.057050 7.000000
169.068880 24.000000
169.101320 220.000000
170.070370 30.000000
170.105590 43.000000
170.114580 14.000000
171.065190 7.000000
171.077500 76.000000
171.090590 6.000000
171.116650 310.000000
171.838850 6.000000
172.083040 9.000000
172.089570 7.000000
172.116850 40.000000
172.125960 8.000000
172.765370 8.000000
173.024320 7.000000
173.054930 48.000000
173.066790 12.000000
173.086810 61.000000
173.096860 107.000000
173.109390 21.000000
173.133130 291.000000
174.048070 9.000000
174.064330 18.000000
174.077590 8.000000
174.097430 18.000000
174.106280 13.000000
174.135150 8.000000
174.142650 6.000000
174.962940 9.000000
175.061110 12.000000
175.079180 171.000000
175.113570 55.000000
175.148130 157.000000
175.225230 13.000000
176.079010 18.000000
176.116040 22.000000
176.136980 9.000000
176.150700 7.000000
176.160160 9.000000
176.535200 8.000000
177.054500 23.000000
177.065660 6.000000
177.090470 225.000000
177.128190 8.000000
177.156250 22.000000
177.169780 8.000000
178.061070 7.000000
178.079850 7.000000
178.096540 15.000000
179.065260 13.000000
179.077330 7.000000
179.088170 18.000000
179.116680 12.000000
179.817080 13.000000
180.081570 7.000000
180.090730 25.000000
180.103620 8.000000
180.551610 6.000000
181.068010 35.000000
181.083980 17.000000
181.095230 43.000000
181.104780 113.000000
181.120570 7.000000
182.076600 16.000000
182.098920 14.000000
182.115370 13.000000
183.040440 9.000000
183.075000 28.000000
183.085170 46.000000
183.095760 39.000000
183.114550 226.000000
183.125660 36.000000
183.151170 6.000000
183.647060 7.000000
183.885150 8.000000
184.071500 8.000000
184.088320 17.000000
184.096420 8.000000
184.113280 37.000000
184.124570 7.000000
184.819180 8.000000
185.060270 18.000000
185.098860 56.000000
185.131160 377.000000
185.151720 13.000000
185.409350 7.000000
185.512450 7.000000
186.124620 12.000000
186.138210 102.000000
187.073580 147.000000
187.080830 71.000000
187.090700 7.000000
187.110400 55.000000
187.118530 34.000000
187.149810 146.000000
188.081360 35.000000
188.108900 25.000000
188.148030 46.000000
188.161320 16.000000
189.055600 7.000000
189.088900 60.000000
189.106170 26.000000
189.125530 47.000000
189.137510 23.000000
189.166110 58.000000
190.065550 10.000000
190.089390 8.000000
190.100330 11.000000
191.069890 164.000000
191.085280 29.000000
191.096830 28.000000
191.105260 28.000000
191.141310 13.000000
192.073230 22.000000
192.078460 10.000000
192.114360 9.000000
192.400540 7.000000
193.084050 83.000000
193.096540 143.000000
194.091080 27.000000
194.106110 39.000000
195.066960 12.000000
195.087800 16.000000
195.116330 217.000000
195.132460 37.000000
196.081380 10.000000
196.119920 15.000000
196.127940 16.000000
196.716250 7.000000
197.057300 21.000000
197.075290 6.000000
197.095840 108.000000
197.127940 115.000000
197.136750 146.000000
197.607250 8.000000
197.897980 17.000000
198.096760 23.000000
198.107730 7.000000
198.128830 33.000000
198.139140 67.000000
199.062210 14.000000
199.079700 53.000000
199.108150 97.000000
199.116810 72.000000
199.147540 276.000000
199.163410 7.000000
200.077330 16.000000
200.088680 8.000000
200.112560 7.000000
200.122630 8.000000
200.146680 6.000000
200.155320 14.000000
200.432750 11.000000
201.059330 9.000000
201.091480 164.000000
201.120650 15.000000
201.129760 26.000000
201.160280 102.000000
201.174970 55.000000
202.101260 29.000000
202.145480 8.000000
202.155590 9.000000
203.054340 15.000000
203.070570 30.000000
203.083420 15.000000
203.096910 15.000000
203.107860 22.000000
203.115940 12.000000
203.137100 17.000000
203.151050 6.000000
203.186100 8.000000
204.063320 11.000000
204.076250 17.000000
204.085390 6.000000
205.060230 7.000000
205.086000 459.000000
205.109100 13.000000
205.130520 9.000000
206.087100 54.000000
206.103900 19.000000
207.076100 10.000000
207.085430 20.000000
207.100050 50.000000
207.115910 70.000000
208.077740 10.000000
208.121020 7.000000
208.251980 7.000000
209.086750 33.000000
209.098160 38.000000
209.127110 48.000000
209.134670 54.000000
209.665600 6.000000
210.050770 9.000000
210.095500 10.000000
210.103940 7.000000
210.138440 74.000000
210.857650 7.000000
211.032780 9.000000
211.073230 19.000000
211.112640 118.000000
211.143520 52.000000
211.152270 96.000000
211.163850 15.000000
212.084780 7.000000
212.115720 52.000000
212.138840 8.000000
212.157270 35.000000
213.059970 6.000000
213.088390 91.000000
213.107090 26.000000
213.131410 196.000000
213.162000 87.000000
213.173570 17.000000
214.090190 7.000000
214.126850 38.000000
214.140440 7.000000
214.166170 51.000000
215.072250 18.000000
215.089750 7.000000
215.104800 80.000000
215.135540 20.000000
215.144520 16.000000
215.158980 13.000000
215.173540 49.000000
215.184520 45.000000
215.194110 17.000000
215.567400 7.000000
216.066740 7.000000
216.159840 11.000000
216.169770 12.000000
216.186130 28.000000
216.872860 7.000000
217.075850 14.000000
217.093570 44.000000
217.117370 8.000000
217.126400 14.000000
217.144320 8.000000
217.162930 10.000000
217.181000 16.000000
217.193880 25.000000
218.014190 12.000000
218.067340 7.000000
218.081880 7.000000
219.084780 10.000000
219.102070 165.000000
219.117980 24.000000
219.127270 6.000000
220.100450 19.000000
221.099010 40.000000
221.122560 39.000000
221.135450 77.000000
221.148790 9.000000
221.487030 8.000000
222.103440 20.000000
222.152890 7.000000
223.066800 13.000000
223.105850 50.000000
223.116390 46.000000
223.129060 10.000000
223.143260 24.000000
223.152950 80.000000
223.388120 7.000000
223.560460 7.000000
224.068440 10.000000
224.087690 9.000000
224.110660 13.000000
224.154100 14.000000
224.165860 8.000000
225.075230 8.000000
225.089740 14.000000
225.103550 7.000000
225.131760 79.000000
225.159880 100.000000
225.467620 7.000000
226.093830 6.000000
226.119740 18.000000
226.134550 14.000000
226.183290 12.000000
227.091980 18.000000
227.106090 131.000000
227.145890 26.000000
227.177310 30.000000
227.190350 21.000000
227.542240 6.000000
228.090740 7.000000
228.135380 10.000000
228.145190 8.000000
228.172610 16.000000
228.185470 10.000000
228.197190 7.000000
228.450850 9.000000
229.093050 7.000000
229.113190 24.000000
229.123470 97.000000
229.157900 26.000000
229.180130 20.000000
229.194780 36.000000
230.093080 7.000000
230.121190 16.000000
230.129090 23.000000
230.198410 17.000000
231.093350 6.000000
231.104430 47.000000
231.118450 6.000000
231.140270 18.000000
231.147540 15.000000
232.111760 12.000000
232.133790 11.000000
232.196120 8.000000
233.084930 8.000000
233.101120 7.000000
233.110530 16.000000
233.129520 43.000000
233.139660 20.000000
233.185680 7.000000
234.095840 8.000000
234.136320 7.000000
234.145030 8.000000
235.106490 20.000000
235.121930 14.000000
235.146450 54.000000
236.117220 7.000000
236.126590 12.000000
236.139940 7.000000
236.927470 7.000000
237.127500 13.000000
237.137410 12.000000
237.158650 74.000000
237.177150 9.000000
238.083330 7.000000
238.123930 19.000000
238.151140 7.000000
238.171390 33.000000
238.186650 12.000000
239.068560 7.000000
239.103670 106.000000
239.113480 35.000000
239.133120 14.000000
239.142820 27.000000
239.167080 35.000000
239.176990 70.000000
240.070330 7.000000
240.096440 7.000000
240.113160 54.000000
240.147630 16.000000
240.184070 33.000000
241.122040 217.000000
241.139310 26.000000
241.155820 7.000000
241.187970 22.000000
242.130390 16.000000
242.199330 7.000000
243.094060 10.000000
243.108050 37.000000
243.122850 6.000000
243.136250 50.000000
243.148120 19.000000
244.106720 7.000000
244.136370 17.000000
244.151060 6.000000
244.215410 8.000000
245.098460 8.000000
245.118070 63.000000
245.140370 7.000000
245.155330 14.000000
246.110900 11.000000
246.118840 7.000000
246.140990 20.000000
246.158520 7.000000
247.108220 6.000000
247.124940 51.000000
247.140560 28.000000
247.151290 18.000000
248.148590 48.000000
249.123200 28.000000
249.137120 7.000000
249.150860 7.000000
249.171400 27.000000
250.131440 20.000000
250.165100 9.000000
250.185530 7.000000
251.138980 22.000000
251.170880 16.000000
251.185610 81.000000
252.112610 8.000000
252.132190 15.000000
252.187840 27.000000
252.197160 11.000000
253.118910 71.000000
253.140500 7.000000
253.156630 6.000000
253.175290 42.000000
253.195190 440.000000
253.512860 9.000000
254.067170 10.000000
254.120790 25.000000
254.129200 15.000000
254.171690 17.000000
254.191420 49.000000
254.204480 209.000000
255.104230 11.000000
255.137160 55.000000
255.175870 6.000000
255.205290 188.000000
255.217910 101.000000
256.121800 7.000000
256.140350 10.000000
256.202640 7.000000
256.218260 88.000000
256.341950 7.000000
257.105870 24.000000
257.117890 66.000000
257.131130 18.000000
257.159150 20.000000
257.192810 17.000000
257.226290 7.000000
258.202300 9.000000
258.287320 7.000000
259.106840 6.000000
259.130040 112.000000
260.142330 9.000000
260.152560 14.000000
261.165070 20.000000
262.169250 50.000000
263.133700 10.000000
263.146850 7.000000
263.174770 24.000000
263.187590 10.000000
263.699070 8.000000
264.152040 7.000000
264.175140 8.000000
264.184750 7.000000
265.117830 32.000000
265.149480 7.000000
265.162540 8.000000
265.189150 37.000000
266.130460 16.000000
266.152280 9.000000
266.168760 15.000000
266.182460 15.000000
266.208470 14.000000
267.099300 7.000000
267.119540 10.000000
267.135010 65.000000
267.148190 19.000000
267.213070 7.000000
267.223750 8.000000
268.138890 15.000000
268.156280 10.000000
269.025600 6.000000
269.122620 8.000000
269.156220 24.000000
269.193020 9.000000
269.344670 8.000000
270.160430 24.000000
270.198360 9.000000
270.608890 8.000000
271.121090 7.000000
271.146180 43.000000
271.201660 52.000000
271.212430 45.000000
272.136080 6.000000
272.209900 24.000000
272.226780 29.000000
273.097290 9.000000
273.147980 28.000000
273.184570 15.000000
274.178590 10.000000
274.215940 8.000000
275.155550 7.000000
275.167540 18.000000
275.190430 7.000000
276.144810 7.000000
276.174650 12.000000
277.156220 16.000000
278.153930 17.000000
278.181090 7.000000
278.195160 31.000000
279.127900 10.000000
279.157870 7.000000
279.174840 21.000000
279.196320 18.000000
279.207860 59.000000
280.136780 14.000000
280.220760 17.000000
281.130460 10.000000
281.152800 53.000000
281.196040 6.000000
282.160060 7.000000
282.201390 8.000000
282.233490 6.000000
283.165370 14.000000
283.181180 7.000000
283.207090 13.000000
284.181580 8.000000
285.142550 46.000000
285.166440 14.000000
287.163940 14.000000
287.198060 9.000000
288.168950 18.000000
288.184230 6.000000
288.288940 8.000000
288.458590 8.000000
289.150330 8.000000
289.173890 7.000000
289.189000 37.000000
289.201260 25.000000
289.220210 6.000000
290.153260 12.000000
290.195010 11.000000
290.205020 22.000000
291.195400 9.000000
291.218020 7.000000
292.183530 25.000000
292.211180 7.000000
293.149260 48.000000
293.160250 24.000000
293.184940 21.000000
293.222290 16.000000
293.232390 17.000000
294.164150 21.000000
294.185270 7.000000
295.160890 15.000000
295.172150 9.000000
297.126010 7.000000
297.150910 9.000000
297.181730 15.000000
297.225280 9.000000
297.234650 7.000000
298.144650 7.000000
299.170040 7.000000
301.184910 16.000000
301.211980 25.000000
301.854460 8.000000
303.169860 21.000000
303.199280 29.000000
303.211120 50.000000
303.232910 9.000000
304.223600 16.000000
305.181270 7.000000
305.203550 14.000000
305.240330 7.000000
306.161740 8.000000
306.202550 9.000000
307.154420 20.000000
307.169340 14.000000
307.197480 7.000000
307.210450 24.000000
308.180300 9.000000
308.213780 16.000000
309.184140 7.000000
311.152560 6.000000
311.162380 7.000000
311.237240 7.000000
312.153900 7.000000
312.213650 8.000000
312.230380 14.000000
312.242340 8.000000
313.208040 11.000000
313.719480 7.000000
321.193050 84.000000
321.228180 41.000000
321.245450 16.000000
322.187100 12.000000
322.208040 16.000000
322.221340 7.000000
322.238430 10.000000
323.154850 8.000000
323.195430 6.000000
323.227510 7.000000
323.238130 22.000000
323.248780 17.000000
324.199770 12.000000
324.236910 8.000000
325.183110 26.000000
325.210630 8.000000
325.225160 22.000000
326.185300 11.000000
326.214200 7.000000
326.222780 18.000000
331.204470 13.000000
331.227570 8.000000
332.215580 33.000000
333.200440 7.000000
333.220580 9.000000
338.205870 10.000000
339.226620 10.000000
339.242950 19.000000
340.185940 7.000000
340.214020 14.000000
340.867220 6.000000
343.666290 7.000000
344.184720 6.000000
344.743380 6.000000
348.127110 9.000000
349.191380 17.000000
349.207150 60.000000
349.223330 98.000000
349.240300 6.000000
350.200530 13.000000
350.215090 38.000000
352.495270 8.000000
353.406250 7.000000
359.506200 9.000000
365.310910 6.000000
367.198120 12.000000
367.220210 151.000000
367.243130 38.000000
368.215270 15.000000
368.231110 42.000000
368.249820 7.000000
370.227260 8.000000
372.996950 6.000000
375.084500 7.000000
385.237030 142.000000
385.340120 7.000000

>ms2
67.054360 7.000000
81.071560 8.000000
91.053510 5.000000
93.070120 7.000000
105.069610 17.000000
107.083510 12.000000
109.101990 16.000000
119.087440 5.000000
121.100810 19.000000
123.042370 15.000000
128.064900 5.000000
131.084850 20.000000
132.093440 5.000000
133.100110 18.000000
135.117830 16.000000
143.085160 14.000000
145.099730 21.000000
147.115690 28.000000
149.134370 12.000000
151.038790 26.000000
157.099690 10.000000
159.078340 8.000000
159.118130 26.000000
161.130920 28.000000
162.135120 6.000000
163.077450 6.000000
171.115800 15.000000
173.131960 12.000000
175.149890 8.000000
177.086690 11.000000
183.113710 9.000000
185.131930 16.000000
187.076280 11.000000
187.145710 6.000000
187.154480 5.000000
195.115920 8.000000
197.132190 9.000000
199.146260 9.000000
201.162660 5.000000
205.084010 16.000000
205.094920 5.000000
211.150310 6.000000
213.166790 7.000000
215.100660 7.000000
227.113890 6.000000
227.140790 6.000000
239.109070 7.000000
239.142750 7.000000
241.118390 7.000000
253.194810 37.000000
254.198940 11.000000
255.212110 25.000000
256.212550 12.000000
265.199400 10.000000
271.207120 24.000000
303.211760 6.000000
307.200230 6.000000
321.221830 14.000000
339.236600 10.000000
340.237030 6.000000
349.216610 46.000000
350.223850 11.000000
367.227600 87.000000
368.231570 16.000000
385.237240 1000.000000
385.291410 18.000000

>ms2
253.194020 6.000000
349.216920 8.000000
367.222200 11.000000
385.236660 1000.000000
385.293060 25.000000

>ms2
55.018880 14.000000
55.052160 12.000000
55.278290 9.000000
67.045580 12.000000
67.054480 89.000000
68.993730 26.000000
68.998730 8.000000
69.031040 8.000000
69.068430 31.000000
71.008580 15.000000
73.021200 14.000000
77.036290 14.000000
77.044640 18.000000
79.054350 153.000000
80.056230 11.000000
80.061040 19.000000
81.033020 28.000000
81.056270 14.000000
81.069750 325.000000
82.072850 24.000000
83.081920 21.000000
83.086980 61.000000
84.090970 13.000000
87.004690 22.000000
91.010060 15.000000
91.054170 271.000000
92.053420 14.000000
93.047710 15.000000
93.069360 456.000000
94.068330 24.000000
94.074420 58.000000
94.128270 10.000000
94.825970 17.000000
95.016000 22.000000
95.033880 11.000000
95.050740 88.000000
95.085080 356.000000
95.379330 11.000000
96.049770 15.000000
96.088800 63.000000
97.029220 13.000000
97.063360 20.000000
97.098010 18.000000
97.105710 12.000000
98.107200 12.000000
103.053890 14.000000
103.060130 22.000000
105.069750 532.000000
105.081520 16.000000
106.071010 32.000000
106.076930 18.000000
107.049290 96.000000
107.055210 41.000000
107.084210 753.000000
108.083920 44.000000
108.231620 8.000000
109.027820 105.000000
109.061760 38.000000
109.102490 303.000000
109.705920 9.000000
110.103400 27.000000
110.113060 17.000000
111.039380 14.000000
113.024570 21.000000
114.097800 18.000000
116.397180 14.000000
117.063310 33.000000
117.070120 82.000000
118.072030 8.000000
118.078770 8.000000
119.072570 14.000000
119.086020 442.000000
119.101650 8.000000
119.504600 9.000000
119.556980 9.000000
120.079730 20.000000
120.086250 66.000000
120.095200 11.000000
121.050610 9.000000
121.058720 33.000000
121.063650 57.000000
121.084080 10.000000
121.101270 422.000000
121.701040 9.000000
122.102880 70.000000
122.110630 8.000000
122.726360 14.000000
123.028210 8.000000
123.043820 289.000000
123.078270 12.000000
123.083950 25.000000
123.111580 29.000000
123.118810 9.000000
124.051080 10.000000
125.016610 12.000000
125.025310 26.000000
125.058720 11.000000
125.090770 10.000000
125.097550 22.000000
126.025820 11.000000
126.252400 12.000000
128.059980 26.000000
128.638430 9.000000
129.025390 12.000000
129.065380 33.000000
129.070160 85.000000
130.078520 13.000000
130.150630 11.000000
131.067350 27.000000
131.085390 601.000000
131.899080 18.000000
132.049070 12.000000
132.087510 89.000000
132.377170 9.000000
133.033400 10.000000
133.061830 123.000000
133.080540 14.000000
133.099060 582.000000
134.068300 9.000000
134.103200 63.000000
134.109020 21.000000
135.034940 11.000000
135.043690 16.000000
135.051640 8.000000
135.076190 45.000000
135.083020 21.000000
135.089720 11.000000
135.102070 27.000000
135.115220 453.000000
136.048950 14.000000
136.121520 27.000000
136.718920 8.000000
137.064650 30.000000
137.097440 21.000000
139.001070 11.000000
139.036580 19.000000
139.041960 24.000000
139.239820 9.000000
141.051990 20.000000
141.068740 124.000000
142.055420 9.000000
143.068040 17.000000
143.083820 472.000000
144.052570 24.000000
144.060610 13.000000
144.090000 178.000000
144.652480 16.000000
145.058820 39.000000
145.066010 80.000000
145.076050 20.000000
145.099430 1000.000000
145.647890 9.000000
146.105000 115.000000
147.043120 49.000000
147.077510 94.000000
147.084980 44.000000
147.100650 25.000000
147.115680 763.000000
147.260450 8.000000
147.884480 9.000000
148.048770 11.000000
148.081130 24.000000
148.117840 177.000000
148.818450 10.000000
149.062010 94.000000
149.092620 40.000000
149.111220 12.000000
149.129230 97.000000
149.134670 167.000000
149.776790 8.000000
150.094440 17.000000
150.133930 18.000000
150.142040 13.000000
150.163250 10.000000
151.022160 10.000000
151.036830 392.000000
151.062730 9.000000
151.071330 37.000000
151.081950 10.000000
152.041630 35.000000
152.060470 10.000000
152.891950 14.000000
153.035920 21.000000
153.054630 75.000000
153.080550 17.000000
153.092440 19.000000
154.073410 54.000000
154.085800 12.000000
154.680270 9.000000
155.062270 10.000000
155.083190 144.000000
155.089660 79.000000
155.106770 9.000000
156.075130 34.000000
156.083390 7.000000
156.097580 10.000000
157.030940 10.000000
157.061110 43.000000
157.072340 12.000000
157.095410 127.000000
157.103410 216.000000
158.062180 9.000000
158.069240 30.000000
158.105680 106.000000
159.039840 27.000000
159.046300 9.000000
159.067400 24.000000
159.080280 388.000000
159.116210 727.000000
159.640730 8.000000
160.079280 26.000000
160.090970 9.000000
160.120120 127.000000
160.946350 12.000000
160.967320 11.000000
161.058670 78.000000
161.085310 22.000000
161.095380 184.000000
161.110170 14.000000
161.130940 706.000000
161.497090 9.000000
162.118650 11.000000
162.133900 85.000000
163.029860 12.000000
163.071640 133.000000
163.105990 46.000000
163.115490 18.000000
163.134400 9.000000
163.149990 96.000000
164.054210 12.000000
164.076490 8.000000
164.084430 10.000000
164.121870 10.000000
164.150010 11.000000
165.051160 10.000000
165.065170 51.000000
165.084900 20.000000
165.089920 44.000000
165.132050 20.000000
165.155780 8.000000
166.059370 13.000000
166.077000 26.000000
166.131820 12.000000
167.069120 61.000000
167.086150 69.000000
167.096890 11.000000
168.095230 27.000000
169.055020 16.000000
169.068310 29.000000
169.088380 29.000000
169.102450 223.000000
169.767700 16.000000
169.894210 11.000000
170.093750 10.000000
170.103560 41.000000
170.113340 9.000000
170.430250 14.000000
170.590010 11.000000
171.079240 106.000000
171.086200 29.000000
171.116100 465.000000
171.155150 10.000000
171.500720 8.000000
172.074720 15.000000
172.088130 10.000000
172.118150 28.000000
172.125410 30.000000
173.058460 96.000000
173.079700 8.000000
173.091920 143.000000
173.100830 60.000000
173.133270 274.000000
173.147370 10.000000
174.058430 27.000000
174.079560 11.000000
174.091610 9.000000
174.101850 8.000000
174.112400 11.000000
174.118530 10.000000
174.139890 61.000000
174.815030 10.000000
175.074310 122.000000
175.082520 34.000000
175.113100 79.000000
175.147200 260.000000
175.159500 35.000000
175.184050 9.000000
175.899220 8.000000
176.067570 8.000000
176.080750 27.000000
176.117280 12.000000
176.152070 18.000000
176.262860 13.000000
176.480380 8.000000
177.050990 46.000000
177.092010 241.000000
177.161800 24.000000
177.471660 15.000000
177.831160 8.000000
178.053760 10.000000
178.061890 26.000000
178.075730 13.000000
178.087880 21.000000
178.167140 27.000000
179.011320 9.000000
179.070570 27.000000
179.078320 22.000000
179.087720 43.000000
179.097690 29.000000
180.081530 21.000000
180.092180 18.000000
181.049320 12.000000
181.063000 11.000000
181.099030 84.000000
181.108440 19.000000
182.088910 8.000000
182.106550 77.000000
183.059450 10.000000
183.074980 40.000000
183.086610 31.000000
183.118910 168.000000
184.068390 21.000000
184.079670 11.000000
184.096120 9.000000
184.124040 16.000000
185.046710 10.000000
185.057340 37.000000
185.095210 110.000000
185.110630 18.000000
185.127850 216.000000
185.136670 106.000000
185.219480 11.000000
185.521820 13.000000
185.704220 10.000000
186.089310 8.000000
186.126540 18.000000
186.138430 88.000000
187.071030 139.000000
187.078640 65.000000
187.108760 103.000000
187.147250 155.000000
187.160690 16.000000
188.045720 8.000000
188.079710 39.000000
188.124270 18.000000
189.085560 185.000000
189.162860 10.000000
189.172000 9.000000
191.066890 184.000000
191.091140 10.000000
191.109470 32.000000
191.142430 30.000000
192.085340 13.000000
192.096650 20.000000
192.113980 21.000000
193.065250 8.000000
193.084140 40.000000
193.095290 39.000000
193.107150 110.000000
193.759370 10.000000
194.065810 10.000000
194.101720 10.000000
194.124080 10.000000
195.063670 8.000000
195.081950 64.000000
195.116300 229.000000
196.077010 11.000000
196.096340 23.000000
196.119980 58.000000
197.057620 8.000000
197.095140 130.000000
197.110730 10.000000
197.132580 189.000000
198.102390 21.000000
198.151960 12.000000
199.041980 10.000000
199.052000 13.000000
199.063480 12.000000
199.072770 41.000000
199.082140 20.000000
199.108220 96.000000
199.117740 60.000000
199.134090 19.000000
199.146530 208.000000
199.157260 26.000000
200.083240 9.000000
200.120390 28.000000
200.154330 88.000000
200.267640 8.000000
201.090760 119.000000
201.122240 18.000000
201.153590 16.000000
201.163970 74.000000
202.075990 23.000000
202.087450 10.000000
202.119600 19.000000
202.162570 23.000000
203.067380 58.000000
203.092160 12.000000
203.106890 69.000000
203.136200 8.000000
203.172610 14.000000
203.182100 11.000000
204.079330 9.000000
204.095290 10.000000
204.969600 9.000000
205.086650 377.000000
205.114440 39.000000
206.086210 52.000000
206.095370 64.000000
206.110230 8.000000
207.086410 12.000000
207.095920 31.000000
207.114470 116.000000
208.082050 50.000000
208.116350 26.000000
208.504440 9.000000
209.072160 9.000000
209.087740 41.000000
209.098770 55.000000
209.118760 25.000000
209.131960 154.000000
209.142730 23.000000
209.164030 10.000000
210.121610 8.000000
210.139590 45.000000
210.151350 10.000000
210.323500 11.000000
211.067870 48.000000
211.081800 13.000000
211.097490 14.000000
211.109710 40.000000
211.121460 44.000000
211.141250 76.000000
211.148510 180.000000
212.113020 27.000000
212.152830 60.000000
212.315030 10.000000
213.087250 161.000000
213.128570 198.000000
213.153720 21.000000
213.165050 117.000000
213.175580 35.000000
214.100300 12.000000
214.167160 38.000000
214.175640 30.000000
215.061070 20.000000
215.074520 8.000000
215.105560 92.000000
215.114900 34.000000
215.140370 20.000000
215.151500 12.000000
215.178910 192.000000
215.192760 24.000000
216.114170 21.000000
216.190830 46.000000
217.079990 39.000000
217.087250 78.000000
217.103410 10.000000
217.124360 90.000000
217.161420 9.000000
217.186550 10.000000
217.195370 8.000000
218.070680 12.000000
218.083740 37.000000
218.097180 9.000000
218.153180 9.000000
219.090150 9.000000
219.112240 123.000000
219.182720 10.000000
220.101900 27.000000
220.124330 23.000000
221.089130 17.000000
221.104280 35.000000
221.128540 79.000000
222.096210 8.000000
222.139370 14.000000
223.089870 10.000000
223.103620 8.000000
223.113650 28.000000
223.128600 11.000000
223.147080 67.000000
223.159410 13.000000
224.110400 10.000000
224.183700 10.000000
225.120190 42.000000
225.131500 30.000000
225.158360 42.000000
225.167360 18.000000
226.084080 21.000000
226.100890 14.000000
226.127780 37.000000
226.143020 10.000000
226.151950 8.000000
226.168670 37.000000
226.715320 8.000000
227.104950 59.000000
227.115770 15.000000
227.137850 48.000000
227.149340 29.000000
227.171650 20.000000
227.181410 57.000000
228.112590 10.000000
228.135860 9.000000
228.147890 23.000000
228.191350 27.000000
228.315160 10.000000
229.085390 18.000000
229.123230 115.000000
229.157930 22.000000
229.195070 37.000000
230.134580 17.000000
231.089460 15.000000
231.105800 36.000000
231.141690 67.000000
232.124020 16.000000
232.152050 10.000000
233.100080 33.000000
233.125890 55.000000
233.138730 17.000000
234.128890 18.000000
234.144500 27.000000
234.733550 9.000000
235.048340 12.000000
235.116560 28.000000
235.144700 75.000000
235.157910 10.000000
236.122180 11.000000
237.114590 15.000000
237.138280 32.000000
237.158980 18.000000
237.169820 14.000000
238.098040 8.000000
238.164990 13.000000
239.100770 116.000000
239.120160 68.000000
239.144170 68.000000
239.172150 42.000000
239.183210 34.000000
240.111010 45.000000
240.125200 14.000000
240.144970 12.000000
240.163270 9.000000
240.195760 9.000000
241.102860 37.000000
241.123520 247.000000
241.156830 41.000000
241.183140 8.000000
241.195680 22.000000
241.207630 32.000000
242.206670 14.000000
242.454820 13.000000
243.105130 18.000000
243.112750 16.000000
243.129790 22.000000
243.139950 43.000000
243.174910 13.000000
244.102870 14.000000
244.143590 29.000000
244.155930 16.000000
244.189030 8.000000
245.114430 29.000000
245.147640 24.000000
246.105360 10.000000
246.127690 12.000000
246.140880 16.000000
247.103130 42.000000
247.133530 131.000000
247.152680 21.000000
248.131560 9.000000
249.131500 32.000000
249.143720 34.000000
250.158000 27.000000
250.179870 20.000000
251.106870 14.000000
251.125310 13.000000
251.171650 43.000000
251.181300 91.000000
252.186800 41.000000
252.206270 13.000000
252.739300 23.000000
253.095920 14.000000
253.111270 38.000000
253.121540 40.000000
253.133850 29.000000
253.167510 32.000000
253.194560 531.000000
253.223390 12.000000
254.128600 28.000000
254.173750 22.000000
254.201280 126.000000
254.215700 34.000000
255.136550 71.000000
255.169220 8.000000
255.181990 10.000000
255.189910 24.000000
255.210160 287.000000
255.401080 13.000000
256.134220 8.000000
256.196320 17.000000
256.216460 68.000000
256.226140 23.000000
257.095520 9.000000
257.114900 90.000000
257.150970 33.000000
257.188350 21.000000
257.212680 11.000000
258.149170 13.000000
258.162290 10.000000
259.120030 10.000000
259.142910 18.000000
259.158450 10.000000
260.108830 9.000000
260.128630 14.000000
260.140930 20.000000
261.106660 8.000000
261.149540 64.000000
261.170530 25.000000
262.155670 14.000000
263.139740 10.000000
263.173920 8.000000
263.185210 19.000000
265.125430 11.000000
265.149140 10.000000
265.169310 8.000000
265.182530 8.000000
265.195740 19.000000
266.123290 12.000000
267.128200 11.000000
267.138340 53.000000
267.158690 24.000000
267.169980 10.000000
269.149540 28.000000
269.182890 12.000000
269.213320 28.000000
269.236970 10.000000
270.143370 11.000000
271.122830 43.000000
271.134610 28.000000
271.175140 45.000000
271.207950 164.000000
271.632810 9.000000
272.149050 9.000000
272.208400 26.000000
272.218930 20.000000
272.228240 9.000000
273.151610 41.000000
273.188720 10.000000
274.147340 9.000000
274.166230 10.000000
275.153290 12.000000
275.169920 36.000000
276.123050 10.000000
276.147800 38.000000
276.177520 10.000000
277.105040 12.000000
277.191500 9.000000
278.131070 10.000000
278.193450 24.000000
278.208860 9.000000
279.133820 8.000000
279.195280 10.000000
279.212950 65.000000
280.139620 13.000000
280.166780 10.000000
280.184020 9.000000
280.194400 8.000000
280.214900 17.000000
280.226930 10.000000
281.145320 12.000000
281.164580 14.000000
281.205570 15.000000
281.224640 10.000000
282.140960 22.000000
282.153660 8.000000
283.192440 9.000000
283.209500 12.000000
283.231020 11.000000
284.183690 13.000000
284.213290 10.000000
285.145170 21.000000
285.155400 10.000000
285.179380 8.000000
286.165250 9.000000
286.299800 10.000000
287.153350 28.000000
287.168490 12.000000
288.155940 14.000000
288.176330 10.000000
289.162140 15.000000
289.181090 9.000000
289.194550 27.000000
291.148410 14.000000
293.163420 17.000000
293.227360 18.000000
294.136600 8.000000
294.154080 13.000000
294.203520 12.000000
295.175840 16.000000
295.212130 23.000000
296.167660 9.000000
297.141140 8.000000
297.194430 20.000000
297.229520 10.000000
298.143890 9.000000
298.179170 8.000000
298.221530 11.000000
299.159000 8.000000
301.211610 8.000000
303.196530 45.000000
303.212620 88.000000
303.227840 26.000000
305.185180 10.000000
305.228060 33.000000
306.153810 9.000000
306.237980 10.000000
307.189880 18.000000
307.206880 55.000000
308.169220 10.000000
308.182890 10.000000
308.200380 12.000000
308.215270 11.000000
308.227720 9.000000
311.147710 11.000000
311.171720 20.000000
312.252870 11.000000
315.228910 10.000000
321.183750 30.000000
321.213440 82.000000
322.172520 10.000000
322.209560 28.000000
322.224240 19.000000
322.241610 9.000000
323.206730 39.000000
323.221340 17.000000
323.235200 20.000000
324.199520 11.000000
325.194760 15.000000
325.214260 12.000000
325.230500 13.000000
326.203950 11.000000
331.190090 32.000000
331.206150 16.000000
331.222930 14.000000
332.706910 11.000000
335.350890 12.000000
337.186000 10.000000
339.171690 9.000000
339.210330 12.000000
339.219910 34.000000
339.241550 41.000000
340.235930 17.000000
341.237240 14.000000
347.208890 9.000000
349.065700 9.000000
349.117920 8.000000
349.209320 97.000000
349.223480 68.000000
349.312190 14.000000
350.208560 21.000000
350.223750 17.000000
358.441710 14.000000
359.280730 16.000000
363.893710 12.000000
367.217960 110.000000
367.235810 60.000000
367.793670 8.000000
368.057010 9.000000
368.227170 64.000000
369.227540 8.000000
370.234590 14.000000
373.064330 10.000000
379.819060 16.000000
385.205170 12.000000
385.224370 42.000000
385.241790 53.000000
385.295470 8.000000

>ms2
53.039170 8.000000
55.056870 9.000000
57.036020 8.000000
63.007320 8.000000
65.039340 19.000000
67.054870 113.000000
68.060350 12.000000
68.993990 18.000000
68.999550 22.000000
69.037820 7.000000
69.067320 17.000000
69.073620 7.000000
69.882060 9.000000
70.037800 10.000000
71.053490 17.000000
77.016590 9.000000
77.028280 16.000000
77.035910 28.000000
77.040950 73.000000
78.040750 8.000000
79.053640 467.000000
79.575870 8.000000
79.932170 10.000000
80.052000 8.000000
80.057460 8.000000
81.030810 9.000000
81.035380 7.000000
81.046130 22.000000
81.057430 7.000000
81.069780 389.000000
81.600030 7.000000
82.033170 9.000000
82.071130 15.000000
82.077700 7.000000
82.465610 10.000000
83.003430 9.000000
83.016380 7.000000
83.049490 39.000000
84.089520 8.000000
85.028960 9.000000
85.255100 11.000000
87.005290 15.000000
87.012290 7.000000
88.250690 8.000000
91.041090 27.000000
91.054500 993.000000
91.088870 7.000000
91.193630 10.000000
91.412820 7.000000
92.059450 146.000000
93.057020 14.000000
93.069290 455.000000
94.073000 29.000000
95.033030 14.000000
95.040030 7.000000
95.049670 144.000000
95.084260 98.000000
95.088670 104.000000
96.050860 8.000000
96.087930 15.000000
97.030040 10.000000
97.093830 7.000000
99.004510 7.000000
99.010410 7.000000
103.054470 34.000000
104.059460 31.000000
104.406640 7.000000
104.542340 8.000000
105.070290 1000.000000
105.410930 7.000000
106.044000 18.000000
106.060710 15.000000
106.067990 25.000000
106.074280 99.000000
106.996310 7.000000
107.049510 102.000000
107.085620 385.000000
107.122620 7.000000
107.874380 8.000000
108.048670 7.000000
108.084910 7.000000
108.094060 23.000000
109.028590 98.000000
109.059380 11.000000
109.065020 22.000000
109.100390 33.000000
110.995350 8.000000
111.007520 9.000000
111.012630 8.000000
111.044650 23.000000
111.070660 16.000000
114.021150 11.000000
115.054350 187.000000
116.030570 7.000000
116.059360 100.000000
117.070370 467.000000
118.065390 10.000000
118.074290 55.000000
118.081280 8.000000
119.049390 54.000000
119.085070 467.000000
120.084380 38.000000
120.091730 21.000000
121.060860 15.000000
121.065270 25.000000
121.098960 55.000000
121.106110 45.000000
122.029290 13.000000
122.103070 10.000000
122.409480 8.000000
123.044340 187.000000
123.071680 9.000000
124.047000 8.000000
125.019780 20.000000
126.024750 7.000000
126.045880 8.000000
127.054720 59.000000
127.064530 13.000000
128.060560 311.000000
129.069700 349.000000
130.055400 13.000000
130.077360 161.000000
131.048720 7.000000
131.058140 7.000000
131.071320 15.000000
131.086440 653.000000
132.048540 9.000000
132.078520 22.000000
132.090230 53.000000
133.064290 68.000000
133.095080 66.000000
133.101670 92.000000
134.074250 11.000000
134.107090 17.000000
134.114440 12.000000
134.425900 8.000000
135.042430 26.000000
135.072010 9.000000
135.081450 22.000000
135.089320 7.000000
135.108730 8.000000
135.117030 49.000000
136.114470 9.000000
136.142460 7.000000
137.449740 7.000000
139.035110 20.000000
141.069630 161.000000
142.075160 159.000000
142.082050 57.000000
142.182390 9.000000
143.085330 320.000000
143.337170 7.000000
144.045300 7.000000
144.053130 37.000000
144.060940 24.000000
144.088470 80.000000
144.096950 19.000000
145.041820 8.000000
145.053920 18.000000
145.067460 48.000000
145.078610 12.000000
145.092510 51.000000
145.101900 264.000000
146.064560 20.000000
146.092670 10.000000
146.102050 25.000000
146.109340 22.000000
147.072020 23.000000
147.080080 54.000000
147.099440 7.000000
147.107500 14.000000
147.118680 111.000000
148.050870 9.000000
148.118500 16.000000
148.200790 7.000000
148.233950 7.000000
149.057140 18.000000
149.093930 8.000000
149.102190 17.000000
149.131300 7.000000
151.036940 46.000000
151.049790 16.000000
151.079160 22.000000
152.056200 26.000000
152.062410 61.000000
153.069000 132.000000
154.078020 139.000000
155.082930 132.000000
155.091520 62.000000
156.054580 8.000000
156.080110 23.000000
156.092160 88.000000
156.101590 20.000000
157.066500 58.000000
157.080640 11.000000
157.090120 38.000000
157.100920 143.000000
157.116960 7.000000
157.260160 7.000000
158.073070 29.000000
158.107850 16.000000
158.134250 8.000000
159.079740 142.000000
159.088670 25.000000
159.109480 35.000000
159.116960 172.000000
160.079620 9.000000
160.085820 9.000000
160.093440 15.000000
160.126390 7.000000
161.055570 8.000000
161.100220 14.000000
161.114230 11.000000
161.130620 68.000000
165.050520 24.000000
165.057020 35.000000
165.071820 223.000000
166.059720 7.000000
166.073610 96.000000
167.078800 32.000000
167.087920 88.000000
167.111540 15.000000
168.063830 15.000000
168.088130 78.000000
168.099790 22.000000
169.062670 9.000000
169.069030 28.000000
169.084780 7.000000
169.101320 132.000000
170.073200 16.000000
170.088090 9.000000
170.108490 59.000000
171.074940 14.000000
171.084500 20.000000
171.112400 35.000000
171.123060 9.000000
172.050190 8.000000
172.090030 8.000000
172.111650 14.000000
172.121380 10.000000
173.058670 22.000000
173.066570 10.000000
173.088130 13.000000
173.130370 7.000000
173.139020 27.000000
174.058440 8.000000
174.107300 7.000000
174.133900 16.000000
174.147870 11.000000
174.845110 7.000000
175.077420 26.000000
175.111910 13.000000
177.046780 9.000000
177.066930 10.000000
177.122760 9.000000
178.053250 8.000000
178.065730 9.000000
178.073030 22.000000
178.081570 21.000000
179.065660 8.000000
179.084290 136.000000
179.101730 19.000000
180.091250 75.000000
180.720690 9.000000
181.062620 50.000000
181.092560 55.000000
181.099810 83.000000
181.110310 21.000000
182.072050 40.000000
182.102370 15.000000
182.112230 18.000000
183.079540 44.000000
183.103740 28.000000
183.115250 50.000000
185.056980 15.000000
185.082890 12.000000
185.095470 50.000000
185.130510 23.000000
185.136460 65.000000
186.070270 10.000000
186.904100 8.000000
187.058900 9.000000
187.077610 15.000000
187.084720 9.000000
187.149540 9.000000
188.075120 9.000000
188.082580 19.000000
189.065800 8.000000
189.077270 7.000000
189.085510 7.000000
189.122120 23.000000
190.065320 10.000000
190.081220 20.000000
191.069060 8.000000
191.083470 41.000000
191.093220 19.000000
191.108540 7.000000
192.091460 38.000000
193.101820 54.000000
194.108400 35.000000
194.116640 26.000000
195.078280 19.000000
195.117690 67.000000
196.070770 8.000000
196.086090 14.000000
196.126250 45.000000
197.060700 10.000000
197.093780 8.000000
197.109220 10.000000
197.127810 23.000000
199.135060 8.000000
199.153950 33.000000
200.116550 20.000000
201.085220 7.000000
201.134700 7.000000
202.057050 8.000000
202.073720 25.000000
202.169240 10.000000
203.086670 11.000000
204.087250 19.000000
204.178910 7.000000
205.062010 48.000000
205.086820 34.000000
205.095500 14.000000
205.105410 9.000000
207.116130 15.000000
209.091720 38.000000
209.130910 8.000000
210.140470 8.000000
211.076450 10.000000
211.084080 8.000000
211.158550 16.000000
212.151250 8.000000
213.093540 15.000000
213.120850 16.000000
213.126040 9.000000
213.157440 7.000000
214.166200 10.000000
215.086360 8.000000
217.102400 17.000000
219.115020 22.000000
220.127400 9.000000
222.130000 8.000000
223.108570 9.000000
223.142560 18.000000
224.076580 12.000000
228.078200 23.000000
228.097240 7.000000
231.104250 8.000000
232.127440 29.000000
232.633360 7.000000
233.091830 10.000000
233.122770 9.000000
233.132200 12.000000
235.117110 8.000000
235.142930 9.000000
235.156450 8.000000
237.154750 9.000000
237.164510 9.000000
238.167940 9.000000
239.181110 10.000000
239.550290 7.000000
240.107060 13.000000
245.085590 7.000000
245.130250 9.000000
247.146380 22.000000
251.917540 11.000000
257.120150 7.000000
259.103390 8.000000
260.148800 7.000000
261.166170 13.000000
261.192660 7.000000
272.530360 15.000000
285.148650 9.000000
314.103300 7.000000
321.222050 9.000000
354.639160 7.000000
378.183870 8.000000

>ms2
93.068460 8.000000
95.084400 7.000000
105.064680 6.000000
105.070470 21.000000
107.085800 19.000000
119.079760 6.000000
119.086940 7.000000
121.101770 15.000000
131.083830 24.000000
133.101460 14.000000
135.115600 10.000000
143.080990 8.000000
143.088150 9.000000
145.101810 28.000000
147.116460 32.000000
149.133930 15.000000
151.039120 10.000000
155.083980 8.000000
157.101150 15.000000
159.078770 11.000000
159.115890 26.000000
161.131770 22.000000
161.137700 9.000000
169.098220 8.000000
171.078000 6.000000
171.116560 15.000000
173.134930 9.000000
175.077160 8.000000
175.149920 9.000000
177.091550 14.000000
181.098270 5.000000
185.130400 9.000000
187.147870 6.000000
197.130200 11.000000
199.148320 13.000000
201.093380 7.000000
201.165220 5.000000
205.084490 12.000000
213.166400 5.000000
215.112320 7.000000
227.103580 6.000000
241.121950 9.000000
253.196440 34.000000
254.198230 6.000000
255.208860 29.000000
257.117920 5.000000
271.208250 12.000000
272.208280 7.000000
293.236420 6.000000
321.220180 19.000000
339.230590 10.000000
349.219360 47.000000
350.223390 13.000000
367.228670 51.000000
368.227360 14.000000
385.238100 1000.000000
385.294400 27.000000

>ms2
349.216830 10.000000
367.227330 12.000000
385.237430 1000.000000
385.294310 27.000000

>ms2
55.016740 5.000000
55.034680 8.000000
55.050520 12.000000
55.056400 7.000000
64.261630 7.000000
65.037320 10.000000
67.053250 253.000000
68.054500 25.000000
68.997580 18.000000
69.068660 30.000000
69.998290 8.000000
70.512730 6.000000
71.114540 7.000000
77.036990 107.000000
78.049610 6.000000
79.033410 7.000000
79.039600 6.000000
79.053860 236.000000
79.057880 98.000000
79.081540 8.000000
80.057540 23.000000
81.036020 14.000000
81.070820 217.000000
83.014140 36.000000
83.044430 14.000000
83.053500 11.000000
83.085210 6.000000
84.087910 5.000000
84.092160 8.000000
84.097050 12.000000
87.403010 6.000000
90.525280 6.000000
90.822750 8.000000
91.038760 7.000000
91.054860 851.000000
92.057860 126.000000
92.750890 7.000000
93.070390 410.000000
93.631520 6.000000
93.906570 5.000000
94.070300 16.000000
94.074570 14.000000
94.470030 5.000000
94.878110 5.000000
95.011050 6.000000
95.045520 59.000000
95.049870 142.000000
95.084830 174.000000
95.089680 67.000000
95.514940 5.000000
95.934890 5.000000
96.052890 15.000000
96.086820 12.000000
97.029140 19.000000
97.053100 6.000000
97.069970 6.000000
97.771520 5.000000
103.024740 9.000000
103.054620 82.000000
104.058610 6.000000
105.038370 12.000000
105.053140 13.000000
105.070080 1000.000000
105.426960 5.000000
105.733840 6.000000
106.064460 20.000000
106.071710 86.000000
106.080920 6.000000
106.501020 12.000000
107.048500 70.000000
107.083050 214.000000
107.089030 192.000000
108.050480 8.000000
108.090040 42.000000
109.027400 138.000000
109.061260 6.000000
109.068160 26.000000
109.101140 109.000000
110.034040 19.000000
110.069690 10.000000
111.007100 5.000000
111.045850 20.000000
113.008660 6.000000
113.017370 7.000000
113.030560 7.000000
115.005090 6.000000
115.054070 216.000000
116.039470 7.000000
116.057600 71.000000
116.063030 60.000000
117.069690 432.000000
117.158580 6.000000
118.064550 7.000000
118.076020 15.000000
118.402320 7.000000
119.048720 19.000000
119.071650 27.000000
119.084490 554.000000
120.042110 9.000000
120.064550 6.000000
120.087540 31.000000
120.097950 22.000000
120.180920 13.000000
121.029480 6.000000
121.061630 66.000000
121.068820 24.000000
121.101820 104.000000
121.112670 9.000000
122.031240 6.000000
122.067980 5.000000
122.105680 6.000000
122.646050 9.000000
123.027720 6.000000
123.033270 18.000000
123.043790 158.000000
123.084550 5.000000
124.044250 8.000000
124.052600 9.000000
124.059290 7.000000
124.329280 6.000000
125.024730 27.000000
125.058720 8.000000
125.891340 12.000000
127.038730 10.000000
127.049840 34.000000
127.057990 40.000000
127.147000 9.000000
128.062760 339.000000
129.069140 425.000000
129.206450 6.000000
129.816210 7.000000
130.076780 207.000000
131.047030 8.000000
131.054760 8.000000
131.084850 681.000000
132.056050 28.000000
132.062680 7.000000
132.076340 8.000000
132.087740 66.000000
132.891190 5.000000
133.027920 6.000000
133.066300 73.000000
133.101750 204.000000
134.033280 10.000000
134.101550 14.000000
134.106290 5.000000
134.144580 6.000000
135.041840 16.000000
135.048810 9.000000
135.076870 45.000000
135.105640 7.000000
135.118870 32.000000
135.125840 19.000000
136.049560 6.000000
137.045430 6.000000
137.605900 8.000000
139.045910 10.000000
139.055330 6.000000
140.062230 5.000000
140.192840 6.000000
141.053800 19.000000
141.069960 233.000000
141.767300 5.000000
142.062300 16.000000
142.078190 170.000000
142.754530 6.000000
142.765500 6.000000
142.936040 8.000000
143.050000 6.000000
143.058430 6.000000
143.085130 472.000000
143.093140 101.000000
144.056170 20.000000
144.061950 16.000000
144.081620 15.000000
144.092030 112.000000
144.103990 16.000000
145.063580 85.000000
145.101460 269.000000
145.112210 25.000000
145.677630 5.000000
146.068250 32.000000
146.077800 6.000000
146.101930 56.000000
146.110400 27.000000
147.034880 8.000000
147.080930 35.000000
147.093150 5.000000
147.112030 75.000000
147.120350 106.000000
148.053120 26.000000
148.116100 12.000000
148.125820 13.000000
149.101440 5.000000
150.097080 6.000000
150.137270 6.000000
151.036040 40.000000
151.043270 53.000000
151.054660 7.000000
152.015720 8.000000
152.041530 12.000000
152.061370 54.000000
152.070270 26.000000
152.575530 6.000000
153.006530 7.000000
153.039280 5.000000
153.049590 15.000000
153.069350 144.000000
153.860840 6.000000
154.078260 82.000000
154.083910 29.000000
154.755510 7.000000
155.063600 9.000000
155.082610 253.000000
155.089680 78.000000
155.099300 6.000000
156.090300 114.000000
157.063690 52.000000
157.085300 7.000000
157.100680 197.000000
158.071440 45.000000
158.096130 8.000000
158.108670 27.000000
158.114670 9.000000
159.045330 14.000000
159.080800 151.000000
159.112700 89.000000
159.120670 42.000000
160.087100 14.000000
160.118870 14.000000
161.051220 7.000000
161.064150 10.000000
161.070650 6.000000
161.096510 5.000000
161.127010 14.000000
161.138490 30.000000
162.061370 10.000000
163.068650 14.000000
163.111770 6.000000
164.052750 8.000000
164.078600 6.000000
165.057590 29.000000
165.070660 213.000000
165.084370 5.000000
166.059620 6.000000
166.077330 145.000000
167.064990 8.000000
167.083720 190.000000
167.822510 8.000000
168.055740 13.000000
168.077300 33.000000
168.093310 99.000000
169.061310 30.000000
169.098050 94.000000
169.110550 14.000000
170.065310 23.000000
170.095150 17.000000
170.106860 29.000000
170.115920 7.000000
171.068920 6.000000
171.079150 31.000000
171.085950 60.000000
171.112900 54.000000
171.121350 45.000000
172.075760 7.000000
172.082240 6.000000
172.124010 20.000000
173.061810 18.000000
173.092270 29.000000
173.102360 5.000000
173.126220 11.000000
173.136750 42.000000
174.054110 7.000000
174.065950 34.000000
174.076690 6.000000
175.082980 12.000000
175.112630 21.000000
176.123790 8.000000
177.065280 8.000000
177.076220 12.000000
178.054660 13.000000
178.067500 10.000000
178.080700 53.000000
179.075230 20.000000
179.086720 121.000000
180.092880 88.000000
181.061330 56.000000
181.068080 33.000000
181.077040 13.000000
181.090240 27.000000
181.103030 97.000000
181.550230 10.000000
182.070100 28.000000
182.083510 8.000000
182.104890 26.000000
182.114170 13.000000
182.579830 11.000000
183.067110 11.000000
183.077910 32.000000
183.088460 10.000000
183.112370 71.000000
184.062160 5.000000
184.084980 7.000000
184.120030 15.000000
184.128980 13.000000
185.060700 11.000000
185.068730 12.000000
185.082090 9.000000
185.090700 6.000000
185.101300 5.000000
185.130970 49.000000
185.140790 23.000000
186.065170 9.000000
186.142030 13.000000
186.946090 8.000000
187.060680 8.000000
187.080690 13.000000
187.147920 24.000000
189.065200 6.000000
189.096130 8.000000
190.079300 32.000000
191.062330 6.000000
191.087400 46.000000
191.112670 5.000000
192.081590 17.000000
192.097640 22.000000
192.108260 8.000000
193.100720 80.000000
193.107770 34.000000
194.099610 16.000000
194.115710 25.000000
195.068630 7.000000
195.078450 16.000000
195.088420 13.000000
195.100020 7.000000
195.111370 13.000000
195.126820 6.000000
196.088870 14.000000
196.126680 24.000000
196.789250 5.000000
197.054030 5.000000
197.068040 13.000000
197.088670 6.000000
197.103440 11.000000
197.127200 22.000000
197.142010 10.000000
197.150600 8.000000
198.072460 19.000000
198.145890 14.000000
199.065430 12.000000
199.078250 9.000000
199.101870 10.000000
199.150600 26.000000
200.147160 8.000000
200.157200 20.000000
201.162450 9.000000
201.170260 8.000000
201.182460 5.000000
202.080120 21.000000
203.077880 11.000000
203.085980 6.000000
204.085160 5.000000
205.096530 21.000000
205.115010 6.000000
206.088090 5.000000
206.109800 36.000000
207.082210 27.000000
207.116290 38.000000
208.091260 12.000000
208.108900 6.000000
209.098620 21.000000
209.125440 26.000000
209.140200 8.000000
210.114410 5.000000
210.136120 8.000000
211.074390 27.000000
211.102540 8.000000
211.150990 23.000000
212.059490 6.000000
212.076310 7.000000
212.146450 12.000000
213.133240 7.000000
213.160190 11.000000
214.443940 7.000000
215.093480 8.000000
215.176620 5.000000
217.102720 6.000000
217.715880 8.000000
218.101520 29.000000
218.120670 5.000000
219.082410 18.000000
219.106900 27.000000
219.124560 6.000000
220.090840 9.000000
220.130140 10.000000
221.135740 6.000000
222.137920 12.000000
223.146840 8.000000
223.388920 8.000000
224.125690 15.000000
225.162750 12.000000
227.107510 7.000000
228.085740 5.000000
228.143170 7.000000
229.119920 8.000000
231.119720 20.000000
232.113910 18.000000
232.124880 10.000000
233.093600 6.000000
233.108660 7.000000
233.121750 7.000000
233.137300 8.000000
234.113040 6.000000
234.140240 14.000000
236.156890 10.000000
237.128720 6.000000
237.153020 6.000000
238.174640 14.000000
239.148850 5.000000
240.188540 6.000000
241.093490 21.000000
241.115570 6.000000
244.129360 8.000000
245.116520 5.000000
245.148860 6.000000
247.147830 6.000000
250.159520 10.000000
250.171390 8.000000
252.091310 7.000000
254.345210 5.000000
256.125000 9.000000
262.084380 5.000000
265.118930 7.000000
268.112430 8.000000
269.151820 5.000000
271.028470 8.000000
272.116150 14.000000
272.123930 5.000000
283.150940 8.000000
288.190090 6.000000
294.154480 7.000000
301.875210 12.000000
302.235110 5.000000
303.141940 6.000000
311.365390 5.000000
348.837770 6.000000
355.547000 6.000000

