>compound PR48075287
>parentmass 229.08592069999997
>ionization [M+H]+
>formula C14H12O3
>rt 335.593020
>profile qtof
#smiles_iso C1=CC(=CC=C1/C=C\C2=CC(=CC(=C2)O)O)O
#smiles_can C1=CC(=CC=C1C=CC2=CC(=CC(=C2)O)O)O
#inchikey LUKBXSAWLPMMSZ-UPHRSURJSA-N
#pubchem_id 1548910
#mb_accession PR304156,PR304158,PR304160,PR304162,PR304164,PR304166,PR304168,PR304170,PR304172,PR304174,PR304176,PR304178

>ms2
65.036210 16.000000
77.033520 20.000000
78.034230 7.000000
85.076260 6.000000
89.041830 12.000000
91.045620 14.000000
91.054250 65.000000
93.030330 7.000000
95.051260 15.000000
96.049460 8.000000
103.055040 19.000000
107.017910 6.000000
107.034450 7.000000
107.045350 78.000000
107.049390 174.000000
108.048750 7.000000
108.052670 13.000000
109.026500 12.000000
111.052220 7.000000
115.049860 6.000000
118.023390 7.000000
119.047260 113.000000
120.056650 61.000000
121.019410 7.000000
121.027450 11.000000
123.039820 6.000000
129.063840 6.000000
133.060460 6.000000
134.034610 13.000000
135.005170 6.000000
135.030870 12.000000
135.043490 276.000000
135.055710 6.000000
136.047780 24.000000
137.024190 5.000000
140.058910 9.000000
141.063570 13.000000
141.072710 22.000000
142.071370 9.000000
143.031270 6.000000
143.050320 6.000000
145.027040 13.000000
145.057540 6.000000
145.099520 8.000000
146.056000 8.000000
152.064710 27.000000
153.070660 24.000000
154.068850 5.000000
154.077360 14.000000
155.077620 7.000000
155.083920 16.000000
157.066910 24.000000
158.071350 6.000000
158.077960 14.000000
161.051880 6.000000
162.103330 7.000000
164.059970 5.000000
165.066100 63.000000
165.073760 40.000000
166.073150 25.000000
168.062350 7.000000
171.081790 7.000000
173.039960 8.000000
173.055450 15.000000
173.984130 7.000000
174.100880 7.000000
181.042220 14.000000
181.057160 11.000000
181.076110 14.000000
182.070310 8.000000
183.068760 18.000000
183.076290 28.000000
183.086580 31.000000
184.046140 6.000000
193.065830 19.000000
197.056200 9.000000
200.764660 6.000000
201.093060 7.000000
210.061130 17.000000
210.070630 12.000000
210.077870 7.000000
211.071290 33.000000
211.081020 49.000000
212.076690 7.000000
213.050260 16.000000
213.057280 8.000000
214.054050 6.000000
227.057300 5.000000
227.068120 20.000000
228.058870 7.000000
228.077740 163.000000
228.447190 9.000000
229.031950 7.000000
229.041000 5.000000
229.065310 11.000000
229.085160 1000.000000

>ms2
107.049580 12.000000
119.050010 20.000000
135.043620 72.000000
211.077840 26.000000
228.077770 140.000000
229.085660 1000.000000

>ms2
55.020360 15.000000
65.026110 19.000000
65.040860 45.000000
67.054530 15.000000
71.156750 13.000000
77.028530 15.000000
77.036750 102.000000
79.052820 84.000000
91.054100 341.000000
92.054930 14.000000
92.061510 57.000000
93.037970 17.000000
98.830000 13.000000
103.038060 13.000000
105.071050 13.000000
107.030880 21.000000
107.037870 44.000000
107.048620 1000.000000
108.050850 42.000000
108.056140 39.000000
108.560390 13.000000
109.024130 13.000000
109.030420 18.000000
110.032230 19.000000
110.039730 31.000000
115.054150 27.000000
115.063460 27.000000
117.073620 18.000000
118.046300 19.000000
119.046390 35.000000
119.054110 34.000000
120.053950 99.000000
120.064760 13.000000
121.026150 90.000000
121.059000 38.000000
121.233470 13.000000
127.055660 72.000000
128.061610 16.000000
129.071670 57.000000
131.050400 59.000000
131.087450 13.000000
132.080380 28.000000
134.065460 16.000000
135.043580 110.000000
136.051570 11.000000
136.058290 19.000000
137.056150 13.000000
139.054550 42.000000
139.059980 22.000000
140.061580 36.000000
141.067000 76.000000
141.072600 51.000000
143.085300 15.000000
144.057460 54.000000
145.063110 53.000000
145.070560 38.000000
152.058330 26.000000
152.066010 19.000000
153.035200 18.000000
153.060360 28.000000
153.069610 168.000000
154.074250 22.000000
154.082310 31.000000
155.045210 14.000000
155.059040 22.000000
155.081180 36.000000
155.088750 15.000000
157.048050 18.000000
157.061780 48.000000
157.069920 15.000000
164.055440 12.000000
164.065400 50.000000
165.070800 596.000000
166.049420 37.000000
166.067860 15.000000
166.077410 99.000000
168.051700 13.000000
168.062870 22.000000
171.038740 17.000000
173.057800 31.000000
181.065830 201.000000
182.063290 14.000000
182.072980 54.000000
183.058560 14.000000
183.078140 13.000000
184.082980 41.000000
185.052120 15.000000
187.039870 13.000000
192.060180 13.000000
193.068340 63.000000
194.064130 22.000000
194.078160 13.000000
199.087250 26.000000
200.071810 40.000000
201.086240 15.000000
209.075040 17.000000
210.067280 27.000000
211.067660 19.000000
213.045100 63.000000
213.059970 31.000000

>ms2
68.992570 132.000000
78.052290 139.000000
91.056170 306.000000
92.054600 160.000000
94.042620 215.000000
107.048130 493.000000
108.052310 139.000000
115.051540 188.000000
115.059830 194.000000
116.061130 139.000000
120.058650 139.000000
128.057800 153.000000
129.067750 146.000000
132.050700 243.000000
139.054500 299.000000
140.064910 118.000000
151.064130 236.000000
152.044020 118.000000
152.054080 132.000000
153.071060 1000.000000
156.062240 132.000000
164.062010 424.000000
165.071700 917.000000
168.059360 146.000000

>ms2
67.199580 9.000000
73.268120 6.000000
73.613750 13.000000
73.636430 6.000000
77.041170 15.000000
79.057030 5.000000
81.031390 7.000000
85.030870 15.000000
90.043270 5.000000
91.045390 10.000000
91.054200 90.000000
92.055440 7.000000
105.051170 6.000000
107.049550 243.000000
108.055630 6.000000
109.019100 7.000000
109.029180 19.000000
111.041180 27.000000
115.053820 8.000000
119.050550 50.000000
120.051120 32.000000
120.060520 18.000000
121.026710 22.000000
121.479870 5.000000
122.053220 5.000000
122.387330 6.000000
123.035900 6.000000
127.055590 11.000000
129.068470 6.000000
131.080230 9.000000
132.052020 6.000000
134.028790 9.000000
135.044200 193.000000
136.044020 14.000000
136.049740 34.000000
138.053650 8.000000
141.065930 6.000000
141.072540 15.000000
142.073640 8.000000
144.055560 5.000000
145.067730 20.000000
146.064800 6.000000
152.057980 10.000000
153.071500 35.000000
153.079220 18.000000
154.072690 15.000000
154.082210 12.000000
155.067080 10.000000
155.078280 11.000000
155.084290 30.000000
155.092010 8.000000
157.057540 8.000000
157.068220 25.000000
158.076450 6.000000
163.063140 16.000000
165.060670 14.000000
165.074690 62.000000
165.220630 6.000000
166.063000 6.000000
166.081160 12.000000
167.079500 9.000000
169.056340 8.000000
169.064910 6.000000
171.038930 11.000000
173.053270 13.000000
173.097780 6.000000
181.031980 6.000000
181.062440 23.000000
181.872650 6.000000
182.071430 8.000000
183.087170 25.000000
184.084050 6.000000
185.048870 6.000000
185.073200 5.000000
187.044360 6.000000
187.072270 6.000000
190.605910 7.000000
193.047070 6.000000
193.057630 17.000000
193.068080 22.000000
198.065090 7.000000
199.072950 6.000000
201.090180 6.000000
209.054870 6.000000
209.110120 6.000000
210.043260 6.000000
210.058440 11.000000
210.066100 12.000000
211.072510 51.000000
212.083480 6.000000
213.043950 7.000000
214.060870 6.000000
227.005630 5.000000
227.073500 5.000000
228.081440 111.000000
228.103580 6.000000
228.157060 10.000000
229.085360 1000.000000

>ms2
111.042400 8.000000
119.048970 17.000000
135.044820 86.000000
136.042600 6.000000
211.074660 18.000000
212.073780 5.000000
228.078290 144.000000
229.086210 1000.000000

>ms2
77.037200 15.000000
77.042640 14.000000
78.044470 11.000000
79.045540 31.000000
79.052090 33.000000
79.057700 29.000000
90.044980 17.000000
91.029940 16.000000
91.055200 180.000000
93.057120 16.000000
94.043460 20.000000
95.052820 18.000000
95.056190 10.000000
102.047570 19.000000
103.053790 15.000000
104.066520 10.000000
105.068730 12.000000
107.048240 1000.000000
107.957650 11.000000
108.052930 32.000000
108.457340 12.000000
109.020130 11.000000
109.027690 14.000000
110.037260 14.000000
115.053410 56.000000
116.063590 11.000000
117.495340 16.000000
117.888340 10.000000
118.067270 11.000000
119.045930 27.000000
119.051850 32.000000
120.054270 86.000000
120.063260 75.000000
121.026680 20.000000
121.055680 14.000000
121.062610 36.000000
127.052000 31.000000
127.056720 16.000000
128.062740 70.000000
129.063630 44.000000
129.072710 22.000000
131.044490 13.000000
132.065340 10.000000
135.041170 64.000000
136.048610 13.000000
139.051350 10.000000
140.054340 13.000000
141.068150 61.000000
141.080090 11.000000
142.083210 11.000000
144.055300 25.000000
145.062350 10.000000
145.981410 12.000000
151.056350 33.000000
152.062940 11.000000
153.043460 11.000000
153.070770 161.000000
154.078720 73.000000
155.070590 10.000000
155.080950 10.000000
155.090180 61.000000
155.098590 10.000000
156.362630 11.000000
157.062960 85.000000
158.068130 20.000000
158.305530 11.000000
159.071170 11.000000
164.049440 11.000000
164.067370 48.000000
165.059270 61.000000
165.071150 404.000000
166.073390 28.000000
167.089690 16.000000
168.054470 41.000000
169.540630 10.000000
173.065380 18.000000
181.064680 73.000000
181.073210 14.000000
182.062930 12.000000
183.071500 13.000000
183.078780 15.000000
183.085280 10.000000
194.074840 20.000000
197.077000 11.000000
210.070760 10.000000
211.079510 28.000000
212.080320 11.000000

>ms2
65.039780 132.000000
67.054810 83.000000
79.055980 137.000000
80.057100 172.000000
91.052360 88.000000
91.059570 93.000000
95.052640 98.000000
103.050600 88.000000
107.047380 176.000000
107.058560 108.000000
119.051230 196.000000
126.040100 147.000000
128.057770 324.000000
129.064480 137.000000
129.073680 118.000000
131.051930 216.000000
139.045750 167.000000
139.053790 83.000000
144.046300 88.000000
144.059570 162.000000
151.053360 127.000000
152.060910 1000.000000
153.071500 623.000000
163.039990 176.000000
164.061110 245.000000
165.066710 289.000000
181.061650 260.000000
181.073240 113.000000
181.082260 83.000000

>ms2
55.014510 7.000000
69.000490 5.000000
78.040410 6.000000
79.053570 16.000000
81.030170 6.000000
88.496120 5.000000
91.054660 60.000000
92.050080 6.000000
93.026280 8.000000
93.035800 7.000000
94.027780 9.000000
103.056520 6.000000
105.041390 15.000000
107.024420 6.000000
107.049930 277.000000
108.053440 18.000000
108.549770 6.000000
109.030520 11.000000
110.034250 6.000000
111.042660 25.000000
115.054350 15.000000
117.030960 8.000000
117.072170 8.000000
119.047690 171.000000
120.054020 31.000000
120.062190 18.000000
121.026310 12.000000
121.060080 6.000000
123.044110 22.000000
124.045500 6.000000
128.063250 14.000000
130.075880 9.000000
131.038540 6.000000
131.049480 12.000000
133.029690 8.000000
135.043530 278.000000
136.043950 7.000000
136.049380 11.000000
139.052050 6.000000
141.060420 23.000000
143.044010 9.000000
143.055280 10.000000
144.056240 6.000000
145.063900 32.000000
145.074770 8.000000
150.476230 6.000000
153.060700 13.000000
153.070080 26.000000
153.965850 11.000000
154.068130 5.000000
154.075710 9.000000
154.084090 6.000000
155.072050 8.000000
155.087250 8.000000
157.062740 9.000000
157.071840 18.000000
157.773450 10.000000
159.068660 5.000000
159.075730 6.000000
160.054140 6.000000
160.087310 8.000000
163.051320 10.000000
164.057600 19.000000
165.062580 65.000000
165.070710 87.000000
166.055190 5.000000
166.070360 9.000000
166.077770 14.000000
171.236890 6.000000
173.060900 6.000000
181.070390 29.000000
181.080730 5.000000
181.499540 6.000000
182.060780 12.000000
182.079570 6.000000
183.078890 37.000000
184.045380 7.000000
185.059860 5.000000
186.966740 13.000000
187.395070 7.000000
191.045150 6.000000
193.066420 31.000000
194.061020 5.000000
199.064990 6.000000
200.079640 8.000000
200.090420 5.000000
201.062650 6.000000
201.095690 21.000000
210.070300 10.000000
211.065510 14.000000
211.078670 19.000000
212.089200 6.000000
214.051680 6.000000
218.557860 9.000000
227.047910 8.000000
227.071690 34.000000
227.097270 5.000000
228.075940 121.000000
229.002430 8.000000
229.053910 8.000000
229.086810 1000.000000
229.111530 6.000000
229.150360 6.000000

>ms2
119.051210 26.000000
135.043840 83.000000
136.047560 7.000000
183.081050 11.000000
184.080890 7.000000
186.959470 6.000000
211.072370 13.000000
228.078610 137.000000
229.085430 1000.000000

>ms2
68.998160 14.000000
71.012540 24.000000
77.036900 52.000000
79.047890 23.000000
79.053870 79.000000
89.035310 17.000000
91.053340 407.000000
93.029850 13.000000
93.035850 66.000000
94.040360 19.000000
95.055440 17.000000
105.059280 17.000000
106.035030 14.000000
107.048670 1000.000000
108.048290 36.000000
109.030590 15.000000
109.051830 15.000000
110.039110 35.000000
111.044320 17.000000
115.056660 22.000000
116.055920 69.000000
117.060080 19.000000
117.068970 19.000000
117.122220 23.000000
119.045750 100.000000
120.056450 28.000000
120.061550 42.000000
121.031910 16.000000
121.056820 18.000000
121.065690 17.000000
123.040390 35.000000
123.050990 19.000000
127.055160 21.000000
127.060100 19.000000
128.055790 18.000000
128.065110 16.000000
129.072160 17.000000
130.080540 23.000000
131.042100 15.000000
131.081070 26.000000
132.033390 22.000000
134.037700 31.000000
135.004120 23.000000
135.044420 92.000000
136.051280 80.000000
137.054180 18.000000
141.071870 53.000000
142.065140 17.000000
142.074770 22.000000
143.083040 32.000000
144.045170 18.000000
144.056170 27.000000
145.055510 48.000000
145.065050 20.000000
146.063610 34.000000
147.044600 23.000000
152.061770 31.000000
153.064380 75.000000
153.072300 129.000000
154.078090 67.000000
155.075840 34.000000
155.091670 19.000000
156.087660 32.000000
157.061970 37.000000
158.069600 32.000000
161.058240 18.000000
164.047990 18.000000
164.059950 34.000000
165.050630 14.000000
165.071240 396.000000
166.058980 14.000000
166.066890 35.000000
166.078120 70.000000
166.214780 14.000000
167.085630 23.000000
171.036710 18.000000
173.062710 20.000000
181.063060 248.000000
182.066860 33.000000
182.081020 69.000000
183.046550 15.000000
183.077350 28.000000
184.035290 21.000000
184.322240 15.000000
185.054790 15.000000
186.058270 15.000000
186.070340 18.000000
192.131210 14.000000
194.062130 17.000000
198.068160 19.000000
199.073270 15.000000
199.085450 18.000000
209.060300 17.000000
211.069440 14.000000
213.053500 96.000000
214.064970 18.000000
227.080090 14.000000

>ms2
75.022870 220.000000
77.036930 349.000000
81.031770 156.000000
91.057030 404.000000
92.053850 174.000000
92.067710 156.000000
94.040070 165.000000
107.046990 349.000000
112.013580 257.000000
112.020100 330.000000
119.050320 633.000000
120.060040 156.000000
126.052800 202.000000
127.050740 229.000000
128.071430 165.000000
129.072530 165.000000
130.034000 183.000000
133.028990 394.000000
145.059920 156.000000
151.050980 165.000000
152.060750 450.000000
153.066380 339.000000
154.075650 156.000000
157.067020 468.000000
163.051740 349.000000
164.042970 239.000000
164.066190 422.000000
165.070630 1000.000000
165.083650 202.000000
171.076580 229.000000
181.058930 376.000000
182.073910 257.000000
228.082630 202.000000
229.092220 183.000000

