>compound PR49052334
>parentmass 433.1129233000001
>ionization [M+H]+
>formula C21H20O10
>rt 236.614980
>profile qtof
#smiles_iso C[C@H]1[C@@H]([C@H]([C@H]([C@@H](O1)OC2=C(OC3=CC(=CC(=C3C2=O)O)O)C4=CC=C(C=C4)O)O)O)O
#smiles_can CC1C(C(C(C(O1)OC2=C(OC3=CC(=CC(=C3C2=O)O)O)C4=CC=C(C=C4)O)O)O)O
#inchikey SOSLMHZOJATCCP-AEIZVZFYSA-N
#pubchem_id 5316673
#mb_accession PR302407,PR302413,PR302419,PR302425,PR302431,PR302437,PR302443,PR302449,PR302455,PR302461,PR302467,PR302473

>ms2
147.047840 6.000000
153.016340 5.000000
153.023910 7.000000
165.013260 7.000000
165.019780 16.000000
166.021790 7.000000
287.022460 16.000000
287.054470 1000.000000
288.056520 194.000000
289.057740 26.000000
289.071290 5.000000
433.112400 226.000000

>ms2
287.029020 22.000000
287.053620 354.000000
287.063720 170.000000
288.058900 77.000000
289.049040 6.000000
433.028500 8.000000
433.060420 17.000000
433.111970 1000.000000

>ms2
153.016160 6.000000
165.018170 7.000000
258.047880 5.000000
287.017270 12.000000
287.055480 1000.000000
288.041200 14.000000
288.058930 165.000000
289.058810 28.000000

>ms2
67.016850 40.000000
68.996880 44.000000
71.005230 14.000000
77.037250 9.000000
79.048540 20.000000
79.055840 31.000000
81.033530 26.000000
85.023480 16.000000
92.963800 9.000000
93.032200 64.000000
95.019470 12.000000
97.023430 17.000000
105.032990 49.000000
105.064120 11.000000
105.073500 9.000000
107.036180 12.000000
107.050740 73.000000
107.888430 12.000000
108.045280 10.000000
108.050960 15.000000
109.025430 49.000000
110.035290 17.000000
111.004010 42.000000
111.009000 70.000000
117.067320 21.000000
117.073490 10.000000
118.063510 14.000000
120.376590 12.000000
121.009740 19.000000
121.027660 371.000000
121.066020 8.000000
121.803310 11.000000
122.006700 22.000000
122.032980 49.000000
123.364140 8.000000
124.010650 13.000000
125.018690 10.000000
127.054180 30.000000
129.069140 11.000000
130.080370 25.000000
131.048830 14.000000
133.023510 29.000000
133.031230 35.000000
135.038650 9.000000
136.019490 26.000000
136.042220 19.000000
137.021190 91.000000
137.026860 117.000000
138.027450 21.000000
140.057220 13.000000
141.071300 10.000000
144.063460 9.000000
145.024380 12.000000
145.060070 15.000000
145.066960 12.000000
147.026340 35.000000
147.040010 83.000000
147.046810 73.000000
147.986790 15.000000
150.279620 8.000000
152.985320 11.000000
153.004040 74.000000
153.017810 826.000000
153.157120 9.000000
154.010510 28.000000
154.019960 20.000000
155.040860 15.000000
157.059080 51.000000
157.068010 171.000000
158.052720 13.000000
161.017850 13.000000
161.055530 35.000000
161.065190 29.000000
161.491940 12.000000
163.039000 8.000000
165.005000 40.000000
165.020250 269.000000
166.015380 29.000000
166.023700 58.000000
167.956010 8.000000
168.059650 16.000000
169.053090 22.000000
169.063580 30.000000
171.039660 68.000000
171.050250 63.000000
173.056660 12.000000
173.137160 10.000000
174.466690 11.000000
175.070370 12.000000
177.919570 10.000000
179.026670 14.000000
180.051990 16.000000
180.095830 14.000000
180.697860 8.000000
184.040500 35.000000
184.048100 15.000000
185.037830 10.000000
185.050720 66.000000
185.058530 137.000000
185.070160 44.000000
186.051880 14.000000
186.070480 11.000000
189.053440 26.000000
191.032640 17.000000
195.575650 8.000000
196.055920 9.000000
197.048540 13.000000
197.063420 31.000000
198.070740 15.000000
200.616990 10.000000
202.939190 14.000000
203.051670 10.000000
204.573580 15.000000
212.038350 18.000000
212.047990 14.000000
213.032460 37.000000
213.049820 117.000000
213.060880 148.000000
214.056670 38.000000
214.064190 11.000000
215.077970 27.000000
216.032350 18.000000
216.049760 16.000000
218.019010 14.000000
218.037410 14.000000
218.055240 11.000000
218.065060 14.000000
219.032140 15.000000
222.806670 10.000000
223.036940 12.000000
224.044650 11.000000
229.048630 38.000000
230.051130 24.000000
231.048710 12.000000
231.068890 103.000000
232.069610 30.000000
232.719700 9.000000
240.892840 11.000000
241.045300 170.000000
241.066090 12.000000
242.027730 12.000000
243.070280 28.000000
244.069520 38.000000
244.085270 10.000000
245.004100 15.000000
246.042710 24.000000
258.050110 190.000000
259.036740 15.000000
259.059630 66.000000
262.167080 8.000000
268.047240 9.000000
270.038180 11.000000
270.071320 13.000000
283.059080 13.000000
284.544950 16.000000
287.006100 12.000000
287.056370 1000.000000
287.281800 8.000000
288.053160 144.000000
288.072970 19.000000
289.052120 14.000000
289.065610 43.000000
295.755920 10.000000

>ms2
153.015720 24.000000
165.018770 19.000000
171.049680 6.000000
213.053310 13.000000
258.054750 6.000000
287.006260 6.000000
287.029690 23.000000
287.055150 1000.000000
288.059840 165.000000
289.054690 8.000000
289.070070 12.000000
433.078160 7.000000
433.113370 209.000000

>ms2
287.012600 5.000000
287.025450 13.000000
287.054080 493.000000
288.032530 6.000000
288.057680 89.000000
289.054930 10.000000
433.064880 22.000000
433.112920 1000.000000

>ms2
287.001620 5.000000
287.020600 13.000000
287.055420 1000.000000
288.058780 159.000000
289.059630 32.000000
289.074950 7.000000

>ms2
55.017080 13.000000
67.021980 9.000000
68.992420 46.000000
68.996690 21.000000
69.999340 8.000000
70.998050 15.000000
72.935210 6.000000
79.015780 15.000000
79.052020 7.000000
79.516620 20.000000
81.032530 14.000000
83.140860 10.000000
85.031860 7.000000
91.014800 6.000000
91.051980 8.000000
93.030950 111.000000
97.022260 12.000000
97.029850 15.000000
105.023770 11.000000
105.031660 41.000000
105.039290 9.000000
106.042480 14.000000
106.982080 16.000000
107.023990 8.000000
107.039220 27.000000
107.048470 27.000000
109.020890 17.000000
109.028980 55.000000
110.035980 14.000000
111.004400 54.000000
111.012460 17.000000
111.045150 8.000000
115.051070 14.000000
116.353970 9.000000
117.065330 9.000000
117.071370 7.000000
117.746770 8.000000
118.115810 8.000000
121.009030 7.000000
121.028770 410.000000
122.030490 15.000000
122.035870 9.000000
127.032790 26.000000
128.043960 6.000000
128.062410 10.000000
129.074650 17.000000
130.068600 8.000000
131.053340 8.000000
132.046840 11.000000
133.025760 48.000000
135.037090 13.000000
135.042740 9.000000
136.022480 16.000000
136.966610 8.000000
137.006200 11.000000
137.022460 167.000000
138.027690 8.000000
139.027910 10.000000
140.949630 11.000000
141.066350 23.000000
142.063320 9.000000
143.045230 27.000000
145.026720 8.000000
145.050430 12.000000
145.055880 14.000000
147.043810 67.000000
149.678630 7.000000
152.993270 9.000000
153.017760 811.000000
154.012180 21.000000
154.019090 36.000000
154.025180 37.000000
157.036000 8.000000
157.067720 125.000000
157.546800 6.000000
158.068680 26.000000
159.078570 8.000000
160.049770 17.000000
161.043010 14.000000
161.059920 19.000000
162.062870 10.000000
164.991500 10.000000
165.010070 82.000000
165.018230 298.000000
166.012330 10.000000
166.022770 23.000000
166.913130 8.000000
167.021820 16.000000
167.027040 32.000000
167.046840 10.000000
168.046590 9.000000
169.060940 11.000000
169.069110 11.000000
169.851840 7.000000
170.367540 8.000000
170.998470 11.000000
171.041960 43.000000
171.049290 24.000000
171.059560 8.000000
172.043320 9.000000
173.060590 25.000000
175.068040 9.000000
175.127690 11.000000
176.042400 11.000000
179.009870 11.000000
179.040080 20.000000
181.221280 12.000000
183.031830 9.000000
184.025990 11.000000
185.015910 12.000000
185.054730 35.000000
186.055630 8.000000
189.063740 8.000000
190.054290 11.000000
191.031780 9.000000
191.071500 18.000000
191.319980 10.000000
195.034530 11.000000
197.062270 35.000000
197.075090 11.000000
198.058430 9.000000
198.073670 11.000000
199.048950 16.000000
201.048810 8.000000
203.027270 7.000000
207.054150 11.000000
210.017720 12.000000
211.067250 9.000000
212.018330 8.000000
212.041990 9.000000
212.056630 10.000000
213.023100 18.000000
213.043060 46.000000
213.056840 211.000000
214.048110 10.000000
214.060880 9.000000
214.072650 8.000000
214.268540 9.000000
215.052980 10.000000
216.032230 13.000000
217.039460 8.000000
223.036060 8.000000
229.021620 10.000000
229.048160 39.000000
231.050170 29.000000
231.065320 56.000000
231.079360 16.000000
241.038670 32.000000
241.048160 55.000000
242.056110 41.000000
242.068300 12.000000
243.002550 6.000000
243.052640 13.000000
243.076130 8.000000
245.035750 6.000000
245.048360 14.000000
257.039610 19.000000
258.053250 139.000000
258.069820 17.000000
259.045140 30.000000
259.061460 38.000000
260.070620 16.000000
269.044800 21.000000
272.068510 9.000000
285.046140 7.000000
286.902370 8.000000
287.017180 27.000000
287.056760 1000.000000
287.076870 35.000000
287.928100 12.000000
288.055240 84.000000
288.070590 39.000000
289.057040 37.000000
292.506990 8.000000
299.055630 15.000000
354.227570 10.000000

>ms2
165.022950 7.000000
213.048250 6.000000
287.055510 1000.000000
288.030330 5.000000
288.052700 92.000000
288.064150 112.000000
289.063390 10.000000
289.075010 10.000000
433.071590 6.000000
433.113010 195.000000

>ms2
286.998200 6.000000
287.027370 8.000000
287.055420 547.000000
288.039980 9.000000
288.060090 98.000000
289.053470 11.000000
289.065060 6.000000
433.045070 5.000000
433.070860 20.000000
433.113560 1000.000000

>ms2
287.008420 9.000000
287.020690 6.000000
287.055820 1000.000000
288.059330 161.000000
289.063690 29.000000

>ms2
65.041100 12.000000
67.016370 20.000000
69.000010 32.000000
70.032490 13.000000
71.050270 27.000000
77.014950 10.000000
77.040110 25.000000
77.499280 15.000000
79.050760 23.000000
79.055550 63.000000
87.541180 13.000000
93.033070 49.000000
93.037230 15.000000
94.636620 11.000000
96.678050 10.000000
97.026300 31.000000
105.033680 102.000000
106.038400 19.000000
107.050020 12.000000
108.051670 52.000000
109.006200 10.000000
109.032310 43.000000
111.006520 44.000000
115.060090 18.000000
119.042050 21.000000
119.048650 9.000000
120.985490 11.000000
121.028140 470.000000
121.054600 14.000000
122.032630 31.000000
127.041680 19.000000
127.066120 11.000000
128.056300 36.000000
129.073060 81.000000
129.089600 18.000000
131.051240 20.000000
131.091550 27.000000
133.026080 19.000000
133.032490 30.000000
133.070660 18.000000
134.029110 10.000000
134.038130 13.000000
135.035140 13.000000
135.085250 9.000000
137.022550 248.000000
137.034810 22.000000
138.026210 17.000000
139.731170 12.000000
140.983340 11.000000
141.067140 13.000000
145.064360 55.000000
145.073790 26.000000
146.964710 18.000000
147.041580 34.000000
147.046880 71.000000
147.375430 10.000000
148.048520 55.000000
149.061340 22.000000
153.018940 1000.000000
154.007860 21.000000
154.019590 64.000000
154.027830 46.000000
155.053990 14.000000
157.054600 17.000000
157.062850 132.000000
157.076110 20.000000
160.043060 12.000000
160.052410 25.000000
161.059170 46.000000
165.018390 411.000000
165.024630 106.000000
166.016010 35.000000
166.025940 22.000000
167.022280 11.000000
167.051100 25.000000
167.404830 14.000000
169.060030 14.000000
169.068790 37.000000
170.044820 11.000000
170.069520 13.000000
171.025670 16.000000
171.040990 64.000000
172.049420 9.000000
175.051420 14.000000
176.072010 12.000000
179.031750 13.000000
183.036670 21.000000
185.009670 35.000000
185.056990 111.000000
186.063630 29.000000
190.205730 9.000000
191.051700 13.000000
191.680250 16.000000
191.863050 15.000000
197.046680 34.000000
197.064470 14.000000
199.020680 10.000000
201.045590 13.000000
201.054350 15.000000
203.029190 15.000000
203.042080 43.000000
203.078770 12.000000
207.597990 30.000000
211.075700 19.000000
212.063110 12.000000
213.027600 11.000000
213.052870 235.000000
214.050890 14.000000
214.061330 29.000000
214.076520 21.000000
216.046740 47.000000
217.060060 12.000000
218.049760 18.000000
223.023940 13.000000
225.049010 13.000000
227.079770 18.000000
229.042830 72.000000
229.057250 14.000000
230.061460 38.000000
231.067990 54.000000
231.105820 12.000000
232.075710 11.000000
237.164580 17.000000
241.036380 31.000000
241.055600 147.000000
241.100230 11.000000
242.056290 26.000000
243.049990 27.000000
243.063200 21.000000
244.073090 10.000000
245.043530 9.000000
253.052810 16.000000
255.851850 28.000000
257.041840 9.000000
258.020200 10.000000
258.053530 294.000000
259.038600 14.000000
259.057740 54.000000
259.066990 44.000000
260.055540 9.000000
266.596950 11.000000
267.052090 10.000000
269.051210 24.000000
270.048030 12.000000
277.258450 9.000000
282.038820 16.000000
286.883030 19.000000
286.936040 10.000000
287.016820 12.000000
287.057740 987.000000
288.029630 13.000000
288.056550 222.000000
289.029420 13.000000
289.047670 13.000000

