>compound PR49478034
>parentmass 595.1651980999999
>ionization [M]+
>formula C27H31O15+
>rt 175.375980
>profile qtof
#smiles_iso C[C@H]1[C@@H]([C@H]([C@H]([C@@H](O1)OC[C@@H]2[C@H]([C@@H]([C@H]([C@@H](O2)OC3=CC4=C(C=C(C=C4[O+]=C3C5=CC(=C(C=C5)O)O)O)O)O)O)O)O)O)O
#smiles_can CC1C(C(C(C(O1)OCC2C(C(C(C(O2)OC3=CC4=C(C=C(C=C4[O+]=C3C5=CC(=C(C=C5)O)O)O)O)O)O)O)O)O)O
#inchikey USNPULRDBDVJAO-FXCAAIILSA-O
#pubchem_id 441674
#mb_accession PR302272,PR302278,PR302284,PR302290,PR302301,PR302307,PR302313,PR302319,PR302325,PR302331,PR302337

>ms2peaks
287.009160 8.000000
287.055450 1000.000000
288.059540 135.000000
289.026580 6.000000
289.051730 12.000000
289.074620 15.000000
449.109560 26.000000
450.105960 18.000000
595.069820 14.000000
595.114690 14.000000
595.147770 201.000000
595.168270 462.000000

>ms2peaks
287.053650 39.000000
288.067840 7.000000
595.081480 9.000000
595.110530 17.000000
595.165040 1000.000000

>ms2peaks
287.056120 1000.000000
288.061220 191.000000
289.053410 9.000000
289.065670 19.000000
595.183290 5.000000

>ms2peaks
137.026900 21.000000
147.043880 5.000000
189.055880 9.000000
213.053380 18.000000
231.067170 8.000000
232.070530 5.000000
241.052440 10.000000
259.068300 7.000000
269.046910 5.000000
287.024690 21.000000
287.054690 1000.000000
287.105710 7.000000
288.030270 8.000000
288.057500 176.000000
288.079530 14.000000
289.047790 13.000000
289.068240 17.000000

>ms2peaks
287.051880 42.000000
288.062870 8.000000
449.113860 9.000000
595.100590 9.000000
595.165950 1000.000000

>ms2peaks
286.996860 9.000000
287.015170 7.000000
287.053470 1000.000000
288.057280 171.000000
289.053800 12.000000
289.065700 12.000000
449.097080 7.000000

>ms2peaks
137.021440 11.000000
137.030240 8.000000
185.057340 10.000000
189.049160 5.000000
213.058500 10.000000
213.067340 5.000000
214.061840 7.000000
231.070690 7.000000
286.080600 6.000000
286.992130 6.000000
287.008330 5.000000
287.054900 1000.000000
288.012910 8.000000
288.053470 150.000000
288.067660 58.000000
289.036590 10.000000
289.057860 9.000000

>ms2peaks
287.022000 12.000000
287.053560 1000.000000
288.058900 159.000000
289.056550 14.000000
449.087680 7.000000
449.115330 21.000000
450.106450 9.000000
522.179810 5.000000
594.981080 6.000000
595.111210 29.000000
595.163570 533.000000

>ms2peaks
287.050200 9.000000
287.061040 23.000000
288.067960 7.000000
449.102050 9.000000
595.085570 12.000000
595.120480 38.000000
595.167110 1000.000000

>ms2peaks
257.049070 6.000000
287.006990 7.000000
287.017850 13.000000
287.054530 1000.000000
288.057560 163.000000
289.058530 46.000000

>ms2peaks
137.022400 17.000000
185.056110 10.000000
213.042130 7.000000
213.057720 24.000000
241.049800 10.000000
286.992550 5.000000
287.009550 10.000000
287.056030 1000.000000
288.030240 12.000000
288.060580 169.000000
289.045930 6.000000
289.060940 15.000000
289.071840 9.000000

