>compound PR49217033
>parentmass 337.1910545
>ionization [M+H]+
>formula C21H24N2O2
>rt 311.901000
>profile qtof
#smiles_iso CC[C@]12CC(=C3[C@@]4([C@H]1N(CC4)CC=C2)C5=CC=CC=C5N3)C(=O)OC
#smiles_can CCC12CC(=C3C4(C1N(CC4)CC=C2)C5=CC=CC=C5N3)C(=O)OC
#inchikey FNGGIPWAZSFKCN-ACRUOGEOSA-N
#pubchem_id 20485
#mb_accession PR300064,PR300069,PR300074,PR300079,PR300084,PR300089,PR300094,PR300099,PR300104,PR300109,PR300114

>ms2peaks
107.071300 6.000000
108.081570 10.000000
122.095630 25.000000
130.067670 7.000000
134.095830 8.000000
136.111450 56.000000
144.080380 16.000000
154.064320 9.000000
156.079390 33.000000
157.086000 8.000000
167.072490 22.000000
168.080440 151.000000
169.083940 27.000000
170.059430 8.000000
170.097000 42.000000
171.095440 8.000000
196.077000 53.000000
197.078080 11.000000
198.090760 5.000000
216.101970 14.000000
228.102040 98.000000
229.100480 16.000000
230.112730 11.000000
233.104660 5.000000
235.123930 6.000000
247.124400 12.000000
248.129330 6.000000
249.138640 50.000000
250.138720 6.000000
275.121030 8.000000
277.160830 10.000000
277.170990 21.000000
278.178250 8.000000
303.151950 7.000000
305.155490 50.000000
305.165890 153.000000
306.168210 46.000000
337.144740 5.000000
337.191440 1000.000000
337.244810 27.000000

>ms2peaks
305.165710 17.000000
306.167210 5.000000
337.135010 5.000000
337.191070 1000.000000
337.244290 32.000000

>ms2peaks
68.050190 6.000000
78.033050 6.000000
79.053830 8.000000
80.048420 27.000000
81.054920 7.000000
81.070230 11.000000
91.051290 7.000000
93.069470 11.000000
94.066820 10.000000
95.085070 7.000000
105.071430 8.000000
107.072650 9.000000
107.083450 25.000000
108.080210 58.000000
110.099560 9.000000
115.053790 5.000000
117.068810 7.000000
119.067980 6.000000
119.085850 12.000000
120.071110 6.000000
120.077410 6.000000
121.086110 14.000000
122.085690 8.000000
122.096010 113.000000
123.096210 10.000000
124.111970 12.000000
128.060710 10.000000
129.069270 24.000000
130.066330 41.000000
131.070450 15.000000
132.081890 23.000000
134.086290 18.000000
134.096120 57.000000
135.101320 11.000000
136.111770 388.000000
137.086150 7.000000
137.117050 34.000000
142.061420 6.000000
142.068890 19.000000
143.064330 5.000000
143.073590 7.000000
143.081990 10.000000
143.089600 6.000000
144.081130 177.000000
145.073500 8.000000
145.082750 14.000000
146.094240 18.000000
153.067990 5.000000
154.064060 47.000000
155.071330 45.000000
156.058560 6.000000
156.079910 252.000000
156.095810 7.000000
157.072200 6.000000
157.084150 50.000000
158.088730 21.000000
160.071820 11.000000
160.112090 8.000000
162.087200 42.000000
163.097050 8.000000
167.072490 52.000000
168.044240 16.000000
168.059890 10.000000
168.079210 1000.000000
169.067290 14.000000
169.082790 195.000000
170.057890 26.000000
170.095170 311.000000
171.060180 5.000000
171.067410 5.000000
171.090900 26.000000
171.101880 41.000000
174.089830 10.000000
180.076170 5.000000
180.082600 7.000000
181.065350 6.000000
182.061130 7.000000
182.084150 8.000000
183.063320 9.000000
184.071230 58.000000
184.099120 15.000000
184.108060 8.000000
185.072270 5.000000
185.120320 6.000000
186.092700 5.000000
188.064880 10.000000
188.072240 8.000000
194.064620 5.000000
196.046390 9.000000
196.075300 400.000000
196.960910 6.000000
197.062070 9.000000
197.079710 72.000000
198.090840 46.000000
200.107540 37.000000
201.114590 9.000000
202.081420 37.000000
202.097290 5.000000
203.083220 6.000000
204.079790 8.000000
205.085970 5.000000
206.098010 21.000000
210.117780 5.000000
213.068360 5.000000
213.079250 5.000000
214.084630 12.000000
214.092930 5.000000
216.082640 8.000000
216.101810 43.000000
217.090900 8.000000
217.104570 8.000000
219.088100 19.000000
219.103100 25.000000
220.094210 19.000000
220.105820 9.000000
221.078110 7.000000
221.106480 21.000000
222.112030 13.000000
223.094210 9.000000
223.135100 5.000000
228.073320 5.000000
228.101580 300.000000
229.102230 41.000000
229.110060 18.000000
230.109770 11.000000
230.118850 23.000000
231.100830 10.000000
232.111450 20.000000
233.105360 21.000000
233.119420 16.000000
234.106810 13.000000
234.116880 26.000000
234.134350 8.000000
235.121340 62.000000
235.134640 11.000000
236.136180 22.000000
236.144580 39.000000
237.145680 13.000000
244.124680 7.000000
247.122040 35.000000
248.109130 8.000000
248.137560 43.000000
248.148350 20.000000
249.138530 330.000000
250.134540 46.000000
250.149720 32.000000
251.147310 26.000000
260.135830 10.000000
260.148860 8.000000
261.129760 13.000000
262.138370 20.000000
262.149900 16.000000
263.115170 11.000000
263.133760 8.000000
263.154940 39.000000
263.168910 8.000000
264.155850 15.000000
264.173650 11.000000
275.103550 7.000000
275.119900 33.000000
275.143550 8.000000
275.159700 28.000000
276.124510 22.000000
276.133730 11.000000
277.129210 41.000000
277.149080 22.000000
277.171080 150.000000
278.156430 23.000000
278.173610 46.000000
279.159730 5.000000
279.174260 8.000000
279.187040 6.000000
287.138550 8.000000
288.116120 7.000000
288.131500 9.000000
289.125490 5.000000
303.148710 96.000000
304.156950 12.000000
305.114260 6.000000
305.164180 416.000000
306.167600 115.000000
306.190550 5.000000
307.144650 17.000000
307.160400 9.000000
307.174990 9.000000
309.160890 10.000000
335.172330 7.000000
337.177190 29.000000
337.189210 90.000000
337.205080 18.000000

>ms2peaks
67.054950 14.000000
68.050930 7.000000
76.823030 5.000000
77.034980 16.000000
77.040280 18.000000
77.803710 5.000000
79.045010 8.000000
79.050100 17.000000
79.055310 26.000000
80.049000 53.000000
80.054320 22.000000
81.069240 22.000000
82.064400 16.000000
82.074160 5.000000
91.052600 92.000000
92.050900 9.000000
92.057870 7.000000
92.576190 7.000000
93.050930 11.000000
93.059080 69.000000
93.069730 30.000000
94.065060 47.000000
102.039700 6.000000
103.061890 10.000000
105.069340 23.000000
106.065660 125.000000
107.074110 74.000000
108.081700 80.000000
109.080310 6.000000
110.086460 8.000000
110.092530 23.000000
113.035090 6.000000
115.053280 90.000000
115.061840 32.000000
116.047450 11.000000
116.057990 21.000000
117.047980 5.000000
117.056290 27.000000
117.071690 39.000000
118.066620 33.000000
119.070240 8.000000
119.076140 6.000000
120.078700 11.000000
121.090380 36.000000
122.085680 7.000000
122.094960 24.000000
127.050620 68.000000
127.062390 9.000000
128.045170 29.000000
128.053280 77.000000
128.062360 134.000000
129.050610 7.000000
129.068080 246.000000
130.046400 6.000000
130.064870 170.000000
130.076810 23.000000
131.069790 40.000000
132.050630 6.000000
132.071960 5.000000
132.079930 31.000000
133.049380 5.000000
133.083480 16.000000
134.093350 73.000000
134.101870 33.000000
135.103100 19.000000
136.110240 54.000000
139.030940 6.000000
140.049700 39.000000
140.061780 9.000000
140.313320 6.000000
141.044850 8.000000
141.067610 134.000000
141.072920 73.000000
142.064010 158.000000
142.078080 24.000000
143.034290 8.000000
143.064910 18.000000
143.073900 80.000000
143.086590 50.000000
144.060360 14.000000
144.076230 70.000000
144.083150 42.000000
145.048680 7.000000
145.054660 5.000000
145.076980 9.000000
145.087220 16.000000
146.081670 5.000000
146.094090 5.000000
148.110120 6.000000
151.060320 5.000000
152.052340 8.000000
152.062590 18.000000
153.039920 8.000000
153.048450 8.000000
153.058780 46.000000
153.068150 17.000000
153.081240 9.000000
154.047680 17.000000
154.064760 289.000000
155.073350 251.000000
156.049240 7.000000
156.059720 6.000000
156.080280 205.000000
157.085570 40.000000
157.091930 15.000000
158.097550 8.000000
159.095900 6.000000
160.075320 14.000000
162.092410 6.000000
165.055160 7.000000
166.048370 7.000000
166.057710 20.000000
166.067250 52.000000
167.020450 13.000000
167.072360 1000.000000
167.528460 6.000000
168.080150 944.000000
168.098330 6.000000
169.081390 168.000000
169.096040 24.000000
170.050260 9.000000
170.078060 16.000000
170.094440 117.000000
171.052760 5.000000
171.070980 6.000000
171.098210 34.000000
172.107100 9.000000
177.071330 11.000000
178.066310 25.000000
179.058290 13.000000
180.080370 56.000000
180.097550 7.000000
181.055440 8.000000
181.091200 20.000000
182.052410 7.000000
182.087860 14.000000
183.045170 6.000000
183.064800 26.000000
183.072720 13.000000
183.103730 5.000000
184.051930 5.000000
184.068180 7.000000
184.104770 8.000000
188.078200 9.000000
192.060360 5.000000
192.073380 6.000000
193.083450 26.000000
193.094710 6.000000
194.062640 9.000000
194.083970 14.000000
194.100740 21.000000
195.060490 9.000000
195.091340 6.000000
195.098160 10.000000
196.073880 24.000000
196.087780 18.000000
196.096150 9.000000
197.092640 7.000000
202.446900 6.000000
204.070190 16.000000
204.081300 56.000000
205.077740 14.000000
205.086410 10.000000
206.084850 40.000000
206.098830 36.000000
207.082530 12.000000
207.089890 27.000000
207.100280 53.000000
207.492160 7.000000
208.105620 6.000000
208.118230 12.000000
209.073780 7.000000
216.069920 9.000000
216.080930 7.000000
217.086550 57.000000
218.100560 65.000000
219.093460 131.000000
219.442600 6.000000
220.080830 6.000000
220.101610 58.000000
221.095520 9.000000
221.106480 45.000000
222.104060 7.000000
230.098040 13.000000
231.074940 6.000000
231.090900 51.000000
231.103620 10.000000
232.063830 15.000000
232.085110 14.000000
232.101550 43.000000
232.110870 56.000000
232.119810 12.000000
233.076970 12.000000
233.106020 152.000000
234.109420 54.000000
234.123120 55.000000
234.566040 6.000000
235.089220 9.000000
235.112950 12.000000
235.120910 32.000000
242.100970 6.000000
243.105270 11.000000
244.080830 16.000000
244.109160 25.000000
245.086040 14.000000
245.103420 32.000000
245.117050 24.000000
246.118900 13.000000
247.116260 40.000000
247.126170 97.000000
248.113510 15.000000
248.126860 47.000000
248.149410 8.000000
249.096250 6.000000
249.120030 7.000000
249.138350 35.000000
250.153580 7.000000
255.065220 5.000000
256.099610 9.000000
257.107120 6.000000
260.123410 12.000000
260.144680 6.000000
261.090270 10.000000
263.116490 5.000000
269.471830 6.000000
272.139620 6.000000
275.112060 15.000000
275.127320 16.000000
276.112370 7.000000
277.174990 5.000000
279.113830 7.000000
292.126160 5.000000
305.169530 5.000000
337.202390 6.000000

>ms2peaks
108.079930 8.000000
122.097500 20.000000
129.069440 6.000000
130.063830 8.000000
134.097610 6.000000
136.111470 65.000000
143.077930 5.000000
144.079180 21.000000
154.064770 6.000000
155.071660 8.000000
156.075240 11.000000
156.081920 25.000000
167.073360 19.000000
168.079640 154.000000
169.080200 16.000000
169.088420 14.000000
170.095080 44.000000
171.091740 6.000000
184.078090 6.000000
196.075640 48.000000
197.076420 6.000000
198.092880 6.000000
216.103180 21.000000
228.102070 87.000000
229.108570 15.000000
230.114580 12.000000
234.121410 7.000000
247.124890 7.000000
248.139950 10.000000
249.131870 22.000000
249.142140 32.000000
250.141240 10.000000
275.113560 9.000000
277.132200 7.000000
277.168910 20.000000
303.149080 9.000000
305.164370 168.000000
306.164730 33.000000
337.190370 1000.000000
337.244230 25.000000

>ms2peaks
305.165830 21.000000
337.190550 1000.000000
337.243470 33.000000

>ms2peaks
79.045840 5.000000
79.051380 7.000000
80.048180 26.000000
91.054170 17.000000
93.063260 7.000000
93.070500 16.000000
94.067500 16.000000
95.086770 8.000000
105.066890 13.000000
106.065130 14.000000
107.073860 6.000000
107.083760 19.000000
108.080590 60.000000
109.077860 5.000000
109.100990 16.000000
110.089520 6.000000
110.096440 12.000000
111.097360 8.000000
119.074880 5.000000
119.083300 5.000000
120.083940 11.000000
120.089360 5.000000
121.089990 9.000000
122.097670 111.000000
123.101750 11.000000
129.069660 44.000000
130.064590 28.000000
131.076930 6.000000
132.079880 26.000000
134.094450 65.000000
134.100480 30.000000
135.103520 9.000000
135.112140 8.000000
136.111590 394.000000
137.115720 38.000000
142.066250 39.000000
143.072400 16.000000
143.084870 27.000000
144.080230 131.000000
144.093170 6.000000
145.080870 6.000000
145.088640 5.000000
146.099060 25.000000
147.093200 5.000000
148.115550 9.000000
154.050450 6.000000
154.063960 65.000000
155.075520 29.000000
156.061450 13.000000
156.081090 235.000000
157.087510 31.000000
158.098140 23.000000
160.072390 10.000000
162.080520 8.000000
162.089310 22.000000
162.096910 12.000000
167.071610 52.000000
168.030240 8.000000
168.080110 1000.000000
169.065630 9.000000
169.084580 153.000000
170.056470 14.000000
170.096080 275.000000
171.099240 49.000000
171.106780 17.000000
174.093610 10.000000
180.077790 8.000000
180.089170 6.000000
181.077740 5.000000
182.097470 9.000000
183.064730 11.000000
183.079610 8.000000
183.095260 7.000000
184.074140 37.000000
184.082600 10.000000
184.096980 9.000000
184.107530 18.000000
185.081340 7.000000
188.073650 14.000000
194.058670 11.000000
194.104740 8.000000
195.086640 5.000000
196.044480 8.000000
196.075380 419.000000
196.102630 6.000000
196.112080 11.000000
197.079560 63.000000
197.106610 5.000000
198.073430 6.000000
198.087340 30.000000
198.098570 10.000000
200.107560 11.000000
202.085140 22.000000
204.082730 9.000000
205.082890 6.000000
206.094910 19.000000
206.114550 23.000000
207.091640 7.000000
207.099610 6.000000
208.104750 6.000000
210.121640 9.000000
214.089520 21.000000
216.102750 68.000000
217.104190 8.000000
218.088580 7.000000
218.098270 5.000000
218.109360 6.000000
219.094160 13.000000
219.106110 13.000000
220.095950 8.000000
220.105970 10.000000
221.102780 6.000000
221.116210 12.000000
222.105450 11.000000
222.125320 10.000000
223.124360 6.000000
228.100420 307.000000
229.105410 60.000000
230.109920 13.000000
230.121080 18.000000
231.093510 11.000000
231.107280 6.000000
232.110400 15.000000
233.106320 29.000000
233.122830 8.000000
234.108690 13.000000
234.122600 27.000000
235.108260 8.000000
235.122760 39.000000
236.122970 11.000000
236.143450 34.000000
244.116470 5.000000
244.131990 7.000000
245.108260 6.000000
246.124250 6.000000
247.077800 6.000000
247.122680 37.000000
248.110900 6.000000
248.127750 21.000000
248.140720 41.000000
248.150100 15.000000
249.107120 7.000000
249.139400 293.000000
250.136760 51.000000
250.152280 17.000000
251.148710 9.000000
251.161940 7.000000
260.112880 8.000000
260.140590 21.000000
261.144260 16.000000
262.137020 18.000000
262.149720 18.000000
263.135680 7.000000
263.155760 34.000000
264.148930 8.000000
264.164520 16.000000
275.119900 37.000000
275.154690 26.000000
275.163540 10.000000
276.117830 13.000000
276.131380 13.000000
276.145200 10.000000
276.165470 10.000000
277.116360 5.000000
277.127750 26.000000
277.141110 11.000000
277.171510 141.000000
278.123960 5.000000
278.146030 12.000000
278.162350 23.000000
278.179470 20.000000
279.149510 5.000000
303.146180 76.000000
304.155210 25.000000
305.116180 6.000000
305.164730 422.000000
306.169560 80.000000
306.181400 21.000000
307.140960 8.000000
307.164150 13.000000
309.162870 9.000000
337.178960 35.000000
337.192630 52.000000

>ms2peaks
53.038340 5.000000
65.031850 6.000000
67.042740 6.000000
67.052420 22.000000
68.057940 6.000000
74.443760 5.000000
77.038120 48.000000
78.034050 8.000000
79.050870 16.000000
79.060930 13.000000
80.045110 15.000000
80.051440 39.000000
81.069720 52.000000
91.050190 21.000000
91.054910 66.000000
92.046940 17.000000
93.057220 80.000000
93.065930 17.000000
93.074720 14.000000
94.067130 38.000000
95.063270 8.000000
95.075090 6.000000
95.080510 16.000000
95.086170 25.000000
105.064450 18.000000
105.072280 11.000000
106.064960 121.000000
106.841080 5.000000
107.063510 10.000000
107.071490 38.000000
107.077580 15.000000
108.073230 33.000000
108.078120 40.000000
108.084520 23.000000
109.083660 7.000000
110.103260 5.000000
114.252140 7.000000
115.044750 31.000000
115.054790 145.000000
116.045210 5.000000
116.056230 51.000000
117.040570 6.000000
117.046500 6.000000
117.056810 37.000000
118.059500 15.000000
118.065580 31.000000
118.074040 8.000000
119.072530 58.000000
120.071460 8.000000
120.079900 26.000000
120.085830 28.000000
120.093990 7.000000
121.078290 7.000000
121.085210 23.000000
121.093640 7.000000
122.084440 5.000000
122.096280 19.000000
127.052820 55.000000
128.032040 5.000000
128.050340 49.000000
128.058260 66.000000
128.066390 62.000000
129.048450 6.000000
129.068160 224.000000
130.051960 12.000000
130.066130 194.000000
131.066570 30.000000
131.074280 20.000000
132.080810 82.000000
132.090880 11.000000
133.082670 7.000000
133.090240 6.000000
134.096130 104.000000
136.107390 30.000000
136.115250 11.000000
137.116260 13.000000
138.592290 13.000000
140.048310 10.000000
140.060010 8.000000
140.067840 9.000000
141.069990 198.000000
142.042600 6.000000
142.058240 20.000000
142.066990 107.000000
143.068300 52.000000
143.076170 84.000000
143.087710 23.000000
143.823900 6.000000
144.043870 9.000000
144.053020 5.000000
144.081530 157.000000
145.086330 8.000000
146.091060 10.000000
146.103590 14.000000
146.447570 6.000000
147.099870 8.000000
151.049010 7.000000
151.056340 21.000000
152.060470 13.000000
153.055880 50.000000
153.072690 13.000000
154.065440 317.000000
155.028120 8.000000
155.071530 173.000000
156.041730 6.000000
156.079270 171.000000
157.083190 53.000000
157.096560 7.000000
158.088420 19.000000
160.068390 7.000000
160.074480 15.000000
160.103130 6.000000
162.095630 8.000000
165.051060 5.000000
165.736040 6.000000
166.064300 60.000000
167.072530 1000.000000
167.351390 7.000000
168.058760 14.000000
168.079280 936.000000
169.071290 21.000000
169.081270 102.000000
169.090500 43.000000
170.044720 8.000000
170.056350 6.000000
170.065480 39.000000
170.091670 99.000000
170.104450 22.000000
171.085300 11.000000
171.097890 38.000000
171.106960 5.000000
174.092940 7.000000
178.068740 6.000000
179.092670 10.000000
180.077910 59.000000
181.051220 26.000000
181.068510 6.000000
181.076340 18.000000
182.053830 27.000000
182.076030 11.000000
182.101210 7.000000
183.072710 5.000000
183.094620 7.000000
184.078870 12.000000
186.121490 5.000000
191.072770 30.000000
192.084030 9.000000
193.087450 21.000000
194.091420 12.000000
194.099210 15.000000
195.081420 11.000000
195.092330 17.000000
196.077800 27.000000
202.093170 5.000000
204.059840 16.000000
204.080960 49.000000
204.106080 8.000000
205.072830 7.000000
205.088360 34.000000
206.075230 12.000000
206.091280 78.000000
206.106840 15.000000
206.116090 7.000000
207.098910 46.000000
208.061680 5.000000
208.089830 17.000000
208.108600 17.000000
209.068480 6.000000
213.078260 5.000000
216.073970 10.000000
217.075060 16.000000
217.094360 14.000000
218.092480 52.000000
218.109300 9.000000
219.083760 62.000000
219.097090 86.000000
220.077440 10.000000
220.091200 26.000000
220.108540 40.000000
221.099610 10.000000
230.080220 9.000000
230.102190 29.000000
231.085740 20.000000
231.103650 34.000000
232.079830 7.000000
232.102720 77.000000
232.116990 9.000000
233.066020 7.000000
233.079900 14.000000
233.100630 57.000000
233.111600 104.000000
234.065230 5.000000
234.099150 20.000000
234.108370 22.000000
234.120680 22.000000
234.136250 10.000000
235.104540 7.000000
235.123140 26.000000
235.140590 6.000000
236.127670 5.000000
236.140660 9.000000
237.124330 6.000000
243.085600 6.000000
244.091830 10.000000
244.104430 13.000000
245.099960 25.000000
245.116230 38.000000
246.094710 9.000000
246.110950 37.000000
246.117840 20.000000
247.096940 14.000000
247.121220 100.000000
248.098240 17.000000
248.132720 35.000000
249.132550 35.000000
249.143200 19.000000
250.139970 15.000000
251.157580 5.000000
256.103550 11.000000
257.100370 7.000000
257.108580 18.000000
258.117430 10.000000
259.117650 13.000000
261.140690 5.000000
262.142490 10.000000
270.125700 7.000000
271.130310 6.000000
273.103240 14.000000
274.151120 5.000000
275.115910 23.000000
275.159300 5.000000
276.115020 10.000000
276.131070 15.000000
276.142030 6.000000
277.164030 7.000000
289.118230 6.000000
319.303710 6.000000
332.595030 10.000000

>ms2peaks
108.081890 5.000000
122.095380 18.000000
129.071110 5.000000
130.065750 7.000000
136.111940 58.000000
142.066470 6.000000
144.075130 8.000000
144.082000 12.000000
155.071230 8.000000
156.081070 31.000000
157.085430 9.000000
162.091670 6.000000
167.073610 21.000000
168.080060 142.000000
169.082730 28.000000
170.095050 43.000000
171.101720 6.000000
184.073700 6.000000
196.075960 51.000000
216.102310 17.000000
228.102970 96.000000
229.102160 12.000000
229.113970 6.000000
230.111270 6.000000
230.122440 7.000000
233.106170 7.000000
236.143720 5.000000
247.117890 6.000000
248.137630 6.000000
249.129640 10.000000
249.139470 32.000000
250.145940 8.000000
275.119080 6.000000
277.132970 7.000000
277.158050 7.000000
277.172360 27.000000
278.168090 7.000000
303.148190 13.000000
305.165590 180.000000
306.168090 40.000000
307.172670 10.000000
337.146700 7.000000
337.191410 1000.000000
337.243530 27.000000

>ms2peaks
305.167050 20.000000
337.136990 6.000000
337.192020 1000.000000
337.244750 33.000000

>ms2peaks
67.053570 10.000000
79.055080 12.000000
80.050280 14.000000
91.054600 24.000000
93.069080 28.000000
94.063930 10.000000
95.084820 7.000000
107.070890 17.000000
107.078840 6.000000
108.070570 8.000000
108.078370 33.000000
108.083500 22.000000
109.084240 5.000000
109.093420 5.000000
109.100230 14.000000
110.095540 29.000000
115.056040 6.000000
118.062750 7.000000
119.088620 15.000000
120.081710 18.000000
121.088910 9.000000
122.083230 6.000000
122.096630 86.000000
123.099970 26.000000
129.068360 14.000000
130.064880 33.000000
131.074340 6.000000
132.078540 21.000000
132.088760 7.000000
134.096150 82.000000
135.103210 8.000000
136.095410 12.000000
136.111470 382.000000
137.111100 20.000000
137.117780 21.000000
141.074460 10.000000
142.060500 8.000000
142.065730 19.000000
143.070400 16.000000
143.084490 16.000000
144.080150 155.000000
145.081850 12.000000
146.090560 16.000000
146.098970 6.000000
147.103910 7.000000
148.108320 8.000000
153.067900 8.000000
154.063200 51.000000
155.067340 12.000000
155.074080 28.000000
156.080250 244.000000
157.082050 34.000000
157.091920 23.000000
158.063840 5.000000
158.094600 15.000000
160.076200 19.000000
162.092150 38.000000
167.059390 7.000000
167.073760 35.000000
168.039490 12.000000
168.049960 5.000000
168.062160 9.000000
168.079960 1000.000000
169.055560 5.000000
169.083020 144.000000
169.106320 5.000000
170.047970 6.000000
170.054530 15.000000
170.065380 23.000000
170.094760 291.000000
171.092580 41.000000
171.102480 33.000000
172.068680 6.000000
172.100420 7.000000
174.085590 11.000000
174.095550 20.000000
180.083760 6.000000
181.093980 5.000000
182.059920 5.000000
182.099270 5.000000
183.065110 12.000000
184.047380 6.000000
184.075580 65.000000
185.103300 7.000000
186.089660 6.000000
188.070100 25.000000
194.060170 7.000000
194.093430 10.000000
194.104430 8.000000
194.116990 11.000000
196.075100 408.000000
197.059840 12.000000
197.077760 71.000000
198.089110 31.000000
198.098070 18.000000
200.102580 16.000000
202.089080 54.000000
203.090550 6.000000
204.077560 5.000000
206.116880 22.000000
207.095340 5.000000
208.106830 11.000000
210.095920 8.000000
210.133770 6.000000
212.097840 5.000000
214.088460 14.000000
215.087370 7.000000
216.083540 5.000000
216.103790 50.000000
217.094890 14.000000
217.107100 16.000000
218.086720 6.000000
218.099000 11.000000
219.096760 29.000000
220.099380 13.000000
220.116130 7.000000
221.109180 9.000000
222.126740 11.000000
223.129750 10.000000
228.101200 308.000000
229.104610 49.000000
230.105010 5.000000
230.119770 22.000000
231.104550 23.000000
232.109250 15.000000
233.107380 27.000000
234.103870 9.000000
234.114430 8.000000
234.127150 27.000000
235.125660 55.000000
236.109760 6.000000
236.124400 16.000000
236.137160 23.000000
236.145900 30.000000
237.102800 5.000000
237.134960 6.000000
237.157420 6.000000
242.107680 6.000000
243.109530 9.000000
244.137590 8.000000
245.119020 5.000000
247.098530 5.000000
247.115780 27.000000
247.127960 31.000000
248.094380 8.000000
248.116820 9.000000
248.141170 51.000000
249.138310 294.000000
250.101140 7.000000
250.120030 7.000000
250.141820 64.000000
250.161760 10.000000
251.153180 7.000000
259.126920 9.000000
260.135380 14.000000
260.146760 22.000000
261.132690 9.000000
261.147430 14.000000
262.142360 19.000000
262.158970 7.000000
263.141300 11.000000
263.156650 28.000000
264.155270 15.000000
264.174320 7.000000
265.114650 8.000000
275.116850 31.000000
275.158200 31.000000
276.126530 12.000000
276.158230 11.000000
276.173030 10.000000
277.132110 38.000000
277.164550 81.000000
277.175870 89.000000
278.132930 12.000000
278.149050 18.000000
278.168090 46.000000
278.184270 11.000000
279.165040 5.000000
279.180480 9.000000
288.127840 9.000000
303.147130 55.000000
303.158970 27.000000
304.147220 14.000000
305.164180 427.000000
306.168330 121.000000
307.121670 6.000000
307.157560 10.000000
307.174930 15.000000
308.148620 6.000000
337.186490 103.000000

