>compound PR49366444
>parentmass 623.275178
>ionization [M+H]+
>formula C37H38N2O7
>rt 237.465000
>profile qtof
#smiles_iso CN1CCC2=C3[C@H]1CC4=CC(=C(C=C4)OC)OC5=CC=C(CC6=NCCC7=CC(=C(C=C76)OC3=C(C(=C2O)OC)OC)OC)C=C5
#smiles_can CN1CCC2=C3C1CC4=CC(=C(C=C4)OC)OC5=CC=C(CC6=NCCC7=CC(=C(C=C76)OC3=C(C(=C2O)OC)OC)OC)C=C5
#inchikey CLDCTFPNFRITPI-MUUNZHRXSA-N
#pubchem_id 16396557
#mb_accession PR301032,PR301037,PR301042,PR301047,PR301052,PR301057,PR301062,PR301067,PR301072,PR301077,PR301082,PR301087

>ms2
135.082200 6.000000
204.064900 7.000000
312.141390 33.000000
312.636230 6.000000
312.648250 8.000000
372.196870 6.000000
395.306950 5.000000
401.185240 7.000000
534.192020 12.000000
559.217960 6.000000
560.221620 6.000000
561.289310 6.000000
575.220150 7.000000
576.207950 5.000000
577.205320 21.000000
577.235050 20.000000
578.218990 6.000000
591.239010 14.000000
592.208560 5.000000
592.234440 25.000000
593.178340 6.000000
593.225400 12.000000
594.198670 8.000000
594.236450 13.000000
595.225160 12.000000
607.233280 9.000000
609.260930 5.000000
623.209470 16.000000
623.275880 1000.000000

>ms2
312.136690 7.000000
312.635530 7.000000
623.139160 7.000000
623.205440 17.000000
623.276120 1000.000000

>ms2
81.425730 5.000000
238.102920 7.000000
239.106720 7.000000
242.598450 7.000000
250.089890 5.000000
265.117400 9.000000
267.135470 5.000000
285.103910 11.000000
297.122960 11.000000
356.111360 6.000000
381.142640 6.000000
386.172850 12.000000
387.183110 14.000000
388.122770 7.000000
389.179320 6.000000
400.189390 16.000000
401.172330 6.000000
402.171600 23.000000
407.532870 10.000000
416.200380 10.000000
431.196040 9.000000
437.172420 6.000000
514.221920 6.000000
522.495670 7.000000
532.236510 5.000000
536.157290 5.000000
537.192080 8.000000
539.626220 6.000000
543.211610 9.000000
544.175720 6.000000
545.177000 9.000000
546.229430 8.000000
550.214360 6.000000
552.214720 13.000000
559.226200 6.000000
560.210330 14.000000
562.181520 10.000000
562.202700 25.000000
562.235720 6.000000
565.122310 6.000000
565.243840 6.000000
566.215330 8.000000
576.228270 5.000000
577.199710 28.000000
577.219480 25.000000
578.164730 8.000000
578.207890 18.000000
579.186580 5.000000
579.228580 5.000000
580.220700 13.000000
580.246890 8.000000
591.210630 8.000000
591.237300 38.000000
591.267270 45.000000
592.202580 14.000000
592.234620 90.000000
592.254390 72.000000
593.161990 5.000000
593.239010 99.000000
593.277400 13.000000
594.227420 9.000000
594.269900 6.000000
594.324280 6.000000
607.235780 9.000000
607.921750 5.000000
608.228820 14.000000
608.260860 19.000000
609.294680 5.000000
611.004640 5.000000
623.202760 32.000000
623.277100 1000.000000

>ms2
91.054330 66.000000
145.056580 77.000000
156.045300 66.000000
160.064160 62.000000
161.064240 66.000000
162.052190 146.000000
174.091770 102.000000
176.045210 66.000000
176.073840 150.000000
176.104350 120.000000
177.066960 69.000000
179.073560 66.000000
181.084410 77.000000
187.063350 62.000000
188.086490 62.000000
189.076690 186.000000
189.081270 73.000000
191.095320 69.000000
193.077850 69.000000
194.088320 84.000000
198.050830 124.000000
200.073990 66.000000
204.056490 91.000000
204.070650 66.000000
204.091060 77.000000
204.099410 80.000000
204.112270 106.000000
205.059160 73.000000
205.073330 168.000000
205.081940 77.000000
206.058070 62.000000
206.090190 73.000000
207.046140 84.000000
207.075440 62.000000
207.085490 288.000000
207.096770 80.000000
208.047180 106.000000
208.062010 511.000000
209.061940 62.000000
209.093830 66.000000
213.084370 73.000000
213.245440 84.000000
216.082550 109.000000
217.090500 109.000000
217.105680 77.000000
219.072430 142.000000
220.075530 66.000000
220.085800 91.000000
220.106890 62.000000
222.080030 88.000000
223.073610 69.000000
224.060330 117.000000
235.092410 77.000000
235.142240 102.000000
237.083270 66.000000
238.108720 150.000000
247.099500 146.000000
248.104250 73.000000
249.074010 135.000000
249.112380 161.000000
249.139710 193.000000
250.079900 226.000000
250.105790 66.000000
250.118150 146.000000
251.079800 62.000000
251.112180 73.000000
252.105360 88.000000
255.094570 99.000000
255.105100 73.000000
256.110320 84.000000
257.115480 91.000000
262.107820 124.000000
262.128020 66.000000
263.097960 215.000000
263.105350 69.000000
264.123750 109.000000
264.146820 88.000000
265.066560 120.000000
265.079010 84.000000
265.113070 431.000000
265.168790 175.000000
266.097560 157.000000
266.116730 248.000000
267.116610 135.000000
269.055110 62.000000
269.071930 80.000000
269.085360 146.000000
269.116210 77.000000
274.082760 62.000000
278.140350 91.000000
280.057500 66.000000
280.872500 69.000000
281.071170 62.000000
281.083220 88.000000
286.077880 117.000000
288.092040 91.000000
292.137020 88.000000
297.115260 80.000000
298.104710 120.000000
299.441130 80.000000
300.070340 66.000000
301.086210 69.000000
315.164980 77.000000
317.111510 99.000000
320.110050 77.000000
321.081970 77.000000
322.092740 102.000000
326.145840 62.000000
334.113130 69.000000
334.134060 106.000000
337.127230 62.000000
338.129670 95.000000
339.121430 62.000000
339.787690 77.000000
340.125430 66.000000
342.136290 66.000000
342.157900 109.000000
343.146550 62.000000
348.106780 77.000000
356.111210 113.000000
356.131590 88.000000
358.143890 248.000000
358.161870 62.000000
361.154020 62.000000
363.553070 142.000000
366.190280 91.000000
367.132110 77.000000
368.123380 84.000000
369.134280 62.000000
370.142090 146.000000
371.137820 182.000000
371.548250 62.000000
372.119230 66.000000
372.151520 62.000000
372.167450 62.000000
372.200560 347.000000
372.277500 73.000000
373.158870 120.000000
373.170750 77.000000
374.175510 182.000000
375.157900 95.000000
381.142490 62.000000
382.188960 73.000000
383.127440 66.000000
384.149720 139.000000
385.172450 172.000000
386.166690 580.000000
387.152830 318.000000
387.171480 182.000000
387.187620 120.000000
388.145050 146.000000
388.180420 66.000000
389.214080 69.000000
393.124690 66.000000
394.170560 80.000000
400.166690 339.000000
400.185790 73.000000
401.144320 135.000000
401.161350 80.000000
401.187290 307.000000
401.222290 69.000000
401.467860 62.000000
402.159390 146.000000
402.189880 288.000000
404.180540 142.000000
404.820620 69.000000
407.608250 73.000000
410.161590 69.000000
414.120970 142.000000
415.191040 99.000000
417.156890 73.000000
417.222470 91.000000
421.147430 73.000000
421.167240 80.000000
422.158020 73.000000
423.155000 69.000000
424.127660 131.000000
431.150150 106.000000
432.175870 73.000000
434.170500 66.000000
435.176390 62.000000
438.168550 66.000000
440.158110 142.000000
442.183690 62.000000
442.215210 91.000000
444.057400 69.000000
446.108550 77.000000
446.646300 91.000000
451.182680 62.000000
452.130980 77.000000
457.117000 91.000000
458.138520 66.000000
462.167050 88.000000
463.164060 88.000000
472.161070 128.000000
473.176360 69.000000
474.164950 62.000000
474.182830 80.000000
478.217380 190.000000
480.208560 88.000000
482.069920 77.000000
483.193020 95.000000
485.198520 73.000000
486.151090 168.000000
490.149840 66.000000
490.167330 102.000000
490.180300 73.000000
491.191500 109.000000
493.190950 69.000000
494.174290 66.000000
494.208190 66.000000
502.190950 66.000000
504.135740 128.000000
506.172550 66.000000
506.197480 314.000000
507.198150 172.000000
508.157530 62.000000
508.175930 99.000000
509.169830 66.000000
512.199160 88.000000
513.165410 69.000000
513.601260 62.000000
515.184690 99.000000
516.101200 88.000000
516.175900 193.000000
516.195070 175.000000
517.135990 62.000000
517.169490 84.000000
518.153560 168.000000
518.210020 66.000000
519.171940 259.000000
520.187380 135.000000
521.211180 73.000000
526.147400 102.000000
528.152400 69.000000
530.195250 62.000000
531.169560 201.000000
531.180540 88.000000
532.147640 69.000000
532.190250 142.000000
532.270390 80.000000
533.164860 84.000000
533.177800 153.000000
533.205690 99.000000
533.218570 186.000000
533.744380 62.000000
534.158330 73.000000
534.183650 237.000000
534.199520 314.000000
534.732910 62.000000
535.124760 120.000000
535.183470 263.000000
535.215640 91.000000
535.234560 69.000000
536.163700 131.000000
536.184020 139.000000
537.189330 230.000000
543.108700 66.000000
543.178830 109.000000
544.185420 161.000000
544.201170 135.000000
545.170470 186.000000
545.188480 62.000000
546.136410 80.000000
546.159240 99.000000
546.184450 139.000000
547.120610 73.000000
547.189820 128.000000
547.217040 66.000000
548.162720 193.000000
548.198670 204.000000
548.223690 164.000000
548.240840 69.000000
549.139830 73.000000
549.177980 168.000000
550.144530 62.000000
550.171140 88.000000
551.185360 66.000000
551.201600 91.000000
559.176880 186.000000
559.201050 131.000000
559.219540 73.000000
560.180850 77.000000
560.221560 182.000000
560.250000 102.000000
561.174560 318.000000
561.200070 515.000000
562.140620 62.000000
562.182980 383.000000
562.220830 179.000000
563.102110 99.000000
563.135190 73.000000
563.174500 80.000000
563.191410 88.000000
564.192870 153.000000
564.439030 109.000000
565.238460 179.000000
567.229310 73.000000
570.325500 91.000000
573.217040 69.000000
575.220580 212.000000
576.177860 142.000000
576.219730 120.000000
577.165100 73.000000
577.198490 157.000000
577.222470 646.000000
577.260860 226.000000
578.141480 77.000000
578.201170 383.000000
578.245060 91.000000
580.259030 62.000000
593.159910 77.000000
593.200810 157.000000
593.226260 1000.000000
594.174990 73.000000
594.221010 292.000000
594.238950 343.000000
594.265440 77.000000
607.150820 139.000000
607.252750 168.000000
608.215520 91.000000
608.250120 255.000000
608.300600 62.000000
623.248840 62.000000

>ms2
190.087780 9.000000
206.082810 6.000000
220.111910 7.000000
265.097080 10.000000
265.105290 7.000000
312.123140 6.000000
312.143860 18.000000
313.138950 6.000000
371.152560 5.000000
386.165440 8.000000
400.175930 5.000000
401.197300 6.000000
402.172970 7.000000
508.162690 5.000000
549.217290 6.000000
559.196470 13.000000
561.204590 8.000000
562.192260 14.000000
577.242740 13.000000
578.241210 16.000000
592.202150 10.000000
592.226320 17.000000
593.224790 43.000000
593.248720 25.000000
594.233830 12.000000
594.268920 5.000000
595.236510 5.000000
607.237980 8.000000
607.266850 6.000000
608.231380 5.000000
608.271480 10.000000
623.145690 7.000000
623.209290 17.000000
623.276310 1000.000000

>ms2
312.138670 20.000000
312.634120 6.000000
623.158750 5.000000
623.226200 21.000000
623.276250 1000.000000

>ms2
221.092480 8.000000
227.109440 5.000000
238.112350 8.000000
265.115480 21.000000
282.109380 5.000000
283.113710 5.000000
382.147740 6.000000
387.172700 7.000000
388.178710 8.000000
389.176300 7.000000
400.143650 7.000000
402.186860 7.000000
402.815920 5.000000
417.197720 9.000000
417.224240 7.000000
532.212650 5.000000
535.196230 7.000000
559.181210 7.000000
559.209590 6.000000
561.220520 12.000000
562.196110 6.000000
562.212710 11.000000
563.159790 7.000000
564.226870 11.000000
566.200010 7.000000
566.216370 11.000000
566.232480 8.000000
567.233460 7.000000
576.169310 6.000000
576.205990 13.000000
576.230040 6.000000
577.217590 41.000000
577.260930 7.000000
578.151790 6.000000
578.202210 21.000000
579.234070 11.000000
580.256710 6.000000
582.254760 10.000000
589.257630 6.000000
591.226010 26.000000
591.253850 19.000000
591.274410 15.000000
592.204770 27.000000
592.236270 60.000000
592.257930 61.000000
593.203430 18.000000
593.243590 73.000000
593.278690 8.000000
594.233890 40.000000
594.262760 11.000000
595.222960 10.000000
595.262150 8.000000
607.250060 18.000000
608.255310 13.000000
608.275020 9.000000
610.281190 9.000000
623.171330 7.000000
623.190550 13.000000
623.219180 14.000000
623.277950 1000.000000

>ms2
105.073680 59.000000
107.047590 53.000000
118.056990 76.000000
118.071470 143.000000
120.057370 48.000000
122.067940 62.000000
128.053560 56.000000
133.076610 143.000000
135.080150 101.000000
148.071790 70.000000
149.058590 48.000000
151.077500 67.000000
157.922150 51.000000
158.057430 62.000000
158.071900 65.000000
159.038180 115.000000
159.045440 45.000000
160.069560 62.000000
160.075150 152.000000
162.052570 121.000000
162.059830 188.000000
162.078490 73.000000
163.054310 79.000000
166.078600 59.000000
174.057590 76.000000
175.069470 51.000000
175.086520 70.000000
176.073320 121.000000
177.069870 67.000000
178.085100 143.000000
179.080150 76.000000
180.061020 51.000000
183.069670 87.000000
188.069600 53.000000
188.077330 104.000000
190.041870 79.000000
190.084240 115.000000
191.058990 76.000000
192.022750 93.000000
192.062990 73.000000
194.085830 157.000000
195.088010 56.000000
203.067350 59.000000
204.058620 62.000000
204.068660 149.000000
204.078490 140.000000
204.115510 93.000000
205.072140 289.000000
205.085140 65.000000
206.050720 211.000000
206.081710 500.000000
206.095000 197.000000
206.112170 98.000000
207.089420 112.000000
208.065670 669.000000
209.068150 112.000000
211.078740 247.000000
212.284820 65.000000
216.608690 56.000000
219.106030 228.000000
220.082750 101.000000
220.104680 124.000000
221.105390 56.000000
222.074710 107.000000
222.086410 70.000000
222.094940 84.000000
222.113800 115.000000
223.039410 59.000000
223.100080 81.000000
224.088290 292.000000
224.101200 93.000000
226.116760 51.000000
226.132100 90.000000
227.105420 59.000000
228.088520 51.000000
228.113310 51.000000
232.074570 62.000000
232.091870 56.000000
233.054470 62.000000
233.081130 56.000000
233.093720 67.000000
233.125520 59.000000
234.089390 48.000000
235.100070 126.000000
235.121440 171.000000
236.079190 112.000000
236.091140 124.000000
236.102340 67.000000
236.117780 70.000000
236.155750 56.000000
238.097980 56.000000
238.119320 343.000000
239.068650 48.000000
239.110700 219.000000
240.095400 62.000000
240.110660 70.000000
240.325500 51.000000
246.105500 51.000000
247.091960 48.000000
249.096510 62.000000
249.110260 140.000000
249.120820 118.000000
249.689590 56.000000
250.082470 81.000000
250.092420 59.000000
252.074230 59.000000
252.096010 56.000000
252.107380 79.000000
253.106370 70.000000
256.075440 65.000000
256.108030 56.000000
257.085750 76.000000
258.119690 81.000000
261.114810 67.000000
262.068570 76.000000
263.087250 143.000000
263.101140 110.000000
263.126560 191.000000
264.094090 62.000000
264.107420 48.000000
264.133760 53.000000
264.941040 56.000000
265.086300 56.000000
265.099610 152.000000
265.115450 478.000000
265.153530 51.000000
266.113890 59.000000
266.126400 53.000000
267.117190 129.000000
267.127840 51.000000
268.796020 51.000000
269.044770 56.000000
269.132450 104.000000
270.047150 51.000000
270.120030 90.000000
271.093750 62.000000
272.087860 76.000000
274.116910 53.000000
277.079040 56.000000
277.112880 56.000000
278.082210 51.000000
278.132450 104.000000
279.173980 65.000000
280.103970 51.000000
281.117070 169.000000
283.099980 230.000000
283.130130 73.000000
284.125180 51.000000
292.092100 93.000000
294.111300 59.000000
295.104370 59.000000
297.120240 98.000000
298.164460 53.000000
299.135740 112.000000
304.115600 48.000000
304.611880 48.000000
306.080320 65.000000
307.103640 70.000000
312.128630 62.000000
314.116640 70.000000
314.155060 70.000000
315.714140 56.000000
317.106080 70.000000
323.112640 65.000000
323.127840 59.000000
324.123260 70.000000
328.184360 70.000000
334.115600 56.000000
335.148100 70.000000
335.735050 48.000000
337.750270 70.000000
341.133360 59.000000
342.150700 67.000000
342.161960 48.000000
343.089750 53.000000
343.154360 48.000000
343.172090 59.000000
343.210630 56.000000
344.165340 154.000000
347.141600 56.000000
348.089200 51.000000
351.697660 65.000000
352.138370 87.000000
353.135470 59.000000
354.119420 48.000000
354.131040 53.000000
354.148530 81.000000
356.171200 96.000000
356.184880 169.000000
357.191220 98.000000
358.136960 70.000000
358.152100 96.000000
358.186950 62.000000
359.195400 121.000000
359.208620 65.000000
360.101380 48.000000
361.068760 84.000000
364.080260 70.000000
364.570590 67.000000
367.156070 65.000000
368.085660 73.000000
368.148560 112.000000
369.131810 110.000000
370.125430 323.000000
370.138700 242.000000
370.162570 104.000000
371.135160 104.000000
372.093900 62.000000
372.132080 107.000000
372.151520 56.000000
372.168090 56.000000
372.192500 51.000000
372.211120 157.000000
372.230710 56.000000
373.150760 65.000000
374.140780 84.000000
374.163880 70.000000
376.148800 51.000000
376.165710 65.000000
378.138700 67.000000
379.539430 73.000000
380.189940 90.000000
381.119780 51.000000
381.141140 98.000000
381.182310 56.000000
382.177670 84.000000
384.153350 152.000000
385.160160 76.000000
386.136410 48.000000
386.153660 188.000000
386.171720 239.000000
386.188140 149.000000
387.139220 93.000000
387.181700 76.000000
388.141300 56.000000
388.159450 382.000000
389.140470 51.000000
389.163060 62.000000
390.093870 51.000000
390.150940 110.000000
392.150760 48.000000
394.103030 118.000000
396.130160 143.000000
398.203400 53.000000
399.086120 56.000000
399.137760 73.000000
400.134430 62.000000
400.166440 115.000000
400.192440 340.000000
401.157200 48.000000
401.185640 67.000000
401.214320 48.000000
402.147550 56.000000
402.186400 48.000000
402.910800 56.000000
403.166930 107.000000
403.197450 166.000000
404.151950 81.000000
405.132900 81.000000
406.131440 48.000000
408.150480 115.000000
410.099460 48.000000
411.182770 143.000000
412.136840 67.000000
412.963750 48.000000
413.210540 76.000000
414.568510 56.000000
415.203980 48.000000
420.162750 51.000000
422.142030 62.000000
424.135280 76.000000
424.153080 65.000000
426.147670 59.000000
426.174560 62.000000
427.140620 73.000000
428.158570 101.000000
431.152470 65.000000
434.173920 118.000000
436.159550 56.000000
439.130040 48.000000
439.184110 146.000000
442.163790 51.000000
442.393920 118.000000
443.178710 48.000000
448.362060 87.000000
450.142640 73.000000
452.175570 70.000000
452.218260 59.000000
454.187500 53.000000
456.171750 56.000000
457.193480 51.000000
458.169100 171.000000
460.216950 56.000000
462.178740 81.000000
465.241880 51.000000
466.362340 56.000000
467.199800 73.000000
468.230070 70.000000
468.912450 67.000000
469.197240 53.000000
469.362790 110.000000
473.452670 48.000000
474.197050 70.000000
475.070650 53.000000
478.185180 51.000000
478.215940 65.000000
480.172360 56.000000
482.134520 53.000000
483.668060 56.000000
485.115050 70.000000
485.207310 278.000000
485.229520 59.000000
488.184940 62.000000
489.173160 53.000000
490.210420 104.000000
492.205690 56.000000
496.228150 59.000000
497.213010 73.000000
498.152370 110.000000
499.133360 51.000000
499.407500 70.000000
502.124300 98.000000
503.222080 51.000000
504.092220 51.000000
504.107300 53.000000
504.178740 115.000000
504.231230 59.000000
505.179410 51.000000
505.223850 56.000000
506.176540 84.000000
506.195010 98.000000
506.218690 180.000000
507.203060 211.000000
508.157230 65.000000
508.191470 107.000000
510.203430 62.000000
511.965970 70.000000
514.162900 76.000000
516.143620 101.000000
516.179810 343.000000
517.181150 258.000000
520.198970 146.000000
521.211790 53.000000
522.189510 247.000000
524.125980 48.000000
524.177730 65.000000
527.190670 115.000000
527.220700 70.000000
528.124820 53.000000
529.166200 56.000000
529.206730 48.000000
529.439880 67.000000
530.153380 101.000000
530.176940 48.000000
530.209660 250.000000
531.161320 76.000000
531.189700 126.000000
531.222410 87.000000
532.177550 51.000000
532.204470 56.000000
533.142520 56.000000
533.163760 107.000000
533.183110 118.000000
533.208440 258.000000
534.173950 171.000000
534.191350 73.000000
535.154480 59.000000
535.177250 320.000000
535.206790 48.000000
535.231510 51.000000
536.201290 48.000000
537.249080 56.000000
541.230530 56.000000
542.203610 51.000000
543.163450 152.000000
543.214420 51.000000
544.173770 93.000000
544.198790 216.000000
545.189580 56.000000
545.206050 73.000000
546.150390 70.000000
546.178650 48.000000
546.207700 110.000000
546.231080 48.000000
547.102110 129.000000
547.145390 140.000000
547.172360 191.000000
547.195980 199.000000
547.240720 112.000000
548.150570 48.000000
548.189760 267.000000
548.219850 351.000000
549.212100 67.000000
549.228940 79.000000
550.169370 53.000000
550.205930 185.000000
551.167910 53.000000
551.284670 51.000000
552.203370 124.000000
558.196110 146.000000
558.223330 65.000000
559.214720 56.000000
560.210820 65.000000
560.555420 56.000000
561.161070 104.000000
561.185610 216.000000
561.210450 228.000000
562.164610 115.000000
562.189820 230.000000
562.214360 166.000000
563.152710 244.000000
563.194150 160.000000
563.597470 48.000000
563.702210 67.000000
564.188960 225.000000
564.212710 93.000000
564.234680 56.000000
565.157590 62.000000
565.232300 121.000000
566.210450 180.000000
573.249820 101.000000
575.213620 107.000000
576.184510 59.000000
576.216370 174.000000
577.035640 62.000000
577.163390 48.000000
577.195560 56.000000
577.226200 303.000000
577.254210 98.000000
577.270570 84.000000
578.177000 110.000000
578.196230 59.000000
578.228640 112.000000
578.270020 48.000000
579.215030 59.000000
579.273990 56.000000
580.213440 104.000000
591.144170 62.000000
592.208800 62.000000
593.165770 48.000000
593.199770 163.000000
593.234560 1000.000000
594.205080 118.000000
594.220460 317.000000
594.247310 233.000000
595.220520 56.000000
595.266600 65.000000
595.760070 53.000000
595.899600 62.000000
607.226990 73.000000
607.278080 84.000000
608.234130 126.000000
608.257750 115.000000
609.264100 93.000000
623.259770 48.000000
623.332340 51.000000

>ms2
206.084050 5.000000
265.105040 17.000000
310.124970 5.000000
312.135960 22.000000
312.644620 18.000000
362.528690 5.000000
386.164890 5.000000
388.178960 6.000000
388.202420 5.000000
506.182770 5.000000
545.220340 6.000000
560.232360 8.000000
561.197630 9.000000
562.194820 10.000000
563.222960 7.000000
564.269590 7.000000
567.213320 5.000000
575.221920 5.000000
576.212220 6.000000
577.188230 6.000000
577.225340 30.000000
578.187560 5.000000
579.260190 5.000000
589.241760 5.000000
592.232180 18.000000
592.246580 5.000000
593.225280 50.000000
593.259950 10.000000
594.216920 12.000000
594.260930 8.000000
607.248170 7.000000
607.272160 6.000000
608.245540 14.000000
608.273800 5.000000
623.213010 14.000000
623.279360 1000.000000

>ms2
312.130370 6.000000
312.143650 19.000000
312.641820 12.000000
623.182800 10.000000
623.214230 13.000000
623.274900 1000.000000

>ms2
205.113300 8.000000
208.068010 9.000000
264.135620 8.000000
265.089020 6.000000
265.102750 6.000000
282.104400 12.000000
284.115360 7.000000
310.110720 6.000000
338.135410 7.000000
386.128080 6.000000
386.187160 11.000000
387.194310 6.000000
401.176790 7.000000
401.191710 5.000000
402.165470 12.000000
404.196140 6.000000
417.192870 7.000000
417.212650 15.000000
418.223690 7.000000
433.209500 6.000000
440.169770 6.000000
485.216400 7.000000
535.189820 9.000000
559.190310 6.000000
561.187620 7.000000
561.221440 7.000000
562.186890 31.000000
564.224240 11.000000
566.218810 14.000000
567.239380 5.000000
576.208070 22.000000
577.175840 11.000000
577.203740 24.000000
577.233090 32.000000
578.194760 12.000000
578.219970 7.000000
578.250060 7.000000
579.356750 6.000000
580.218380 15.000000
582.248780 8.000000
591.234560 24.000000
591.254330 30.000000
591.280210 6.000000
592.228390 97.000000
592.248050 101.000000
593.235110 97.000000
593.266420 19.000000
594.174740 7.000000
594.232180 17.000000
594.265080 16.000000
595.224910 7.000000
595.257570 6.000000
607.230900 12.000000
607.273380 13.000000
608.217220 11.000000
608.248350 8.000000
623.180730 9.000000
623.202090 18.000000
623.237180 47.000000
623.277650 1000.000000

>ms2
91.049410 55.000000
105.071770 79.000000
118.076660 55.000000
134.056840 55.000000
135.046550 45.000000
136.037120 76.000000
137.059620 76.000000
145.304790 45.000000
151.075880 55.000000
158.565870 58.000000
164.073360 61.000000
173.072920 71.000000
176.069760 158.000000
176.098750 58.000000
181.064390 45.000000
183.073000 53.000000
187.053180 66.000000
188.073910 66.000000
188.082930 82.000000
189.071300 76.000000
190.086700 234.000000
190.096370 58.000000
190.309660 61.000000
191.064790 155.000000
191.073730 97.000000
191.089400 45.000000
192.084640 79.000000
192.099240 100.000000
194.094640 139.000000
195.065120 47.000000
195.261950 71.000000
202.082600 47.000000
202.090990 71.000000
202.248500 58.000000
204.054660 66.000000
204.074020 237.000000
204.085920 66.000000
204.618930 55.000000
205.065660 171.000000
205.072110 55.000000
205.089710 58.000000
206.079010 179.000000
206.088410 203.000000
207.091280 300.000000
207.278590 79.000000
208.051030 45.000000
208.062900 155.000000
211.074600 66.000000
213.075010 97.000000
213.083590 42.000000
218.068790 58.000000
219.093980 50.000000
220.087270 66.000000
220.106800 53.000000
220.118350 53.000000
221.121540 103.000000
222.077760 53.000000
222.120620 71.000000
222.130170 71.000000
223.096650 118.000000
223.133680 47.000000
224.087300 139.000000
228.111940 74.000000
232.105190 53.000000
233.079880 47.000000
233.091380 61.000000
233.122740 55.000000
234.076510 66.000000
235.082060 111.000000
235.092530 174.000000
235.110340 121.000000
236.097200 45.000000
237.128040 74.000000
238.104640 53.000000
238.115550 153.000000
239.111540 55.000000
240.059230 61.000000
247.099370 89.000000
247.129060 47.000000
249.066830 66.000000
249.100430 155.000000
249.117080 142.000000
250.081820 237.000000
250.095930 68.000000
251.067210 58.000000
251.089580 71.000000
251.140140 74.000000
252.099440 113.000000
253.128170 53.000000
254.104020 45.000000
254.116390 61.000000
255.099090 71.000000
256.154630 66.000000
263.073670 168.000000
263.098330 134.000000
264.133360 113.000000
265.107060 53.000000
265.134980 66.000000
266.101040 63.000000
266.119230 129.000000
266.159390 53.000000
267.101070 53.000000
268.132660 45.000000
269.087680 147.000000
269.106230 66.000000
273.107270 53.000000
277.108980 45.000000
277.298860 74.000000
278.095980 53.000000
278.108920 47.000000
278.133940 66.000000
279.127010 66.000000
280.090330 53.000000
280.135380 105.000000
282.093260 47.000000
282.118840 116.000000
283.132320 89.000000
284.090880 45.000000
284.139470 53.000000
295.100650 53.000000
297.108090 58.000000
298.117680 50.000000
299.100710 55.000000
305.368650 50.000000
307.094300 45.000000
312.537020 63.000000
312.681550 50.000000
316.077450 50.000000
318.091030 97.000000
319.385590 50.000000
321.141270 53.000000
324.134800 58.000000
330.103420 71.000000
335.130580 53.000000
335.146030 66.000000
337.115660 45.000000
341.143860 55.000000
341.180660 47.000000
342.116210 132.000000
342.136990 292.000000
342.154750 221.000000
343.123290 105.000000
348.163020 82.000000
350.132020 61.000000
352.119930 71.000000
352.136290 118.000000
353.118160 53.000000
354.131350 47.000000
354.183900 79.000000
354.626890 53.000000
356.105830 58.000000
356.120940 47.000000
358.120850 53.000000
358.136470 63.000000
358.166500 103.000000
358.192630 116.000000
358.204190 45.000000
358.851140 55.000000
360.115780 50.000000
365.097600 63.000000
366.119720 47.000000
367.121190 111.000000
369.073060 63.000000
369.180850 84.000000
370.171390 118.000000
371.144320 118.000000
371.158360 47.000000
372.125520 53.000000
372.201390 68.000000
374.158840 71.000000
374.175170 55.000000
377.141570 50.000000
377.510990 66.000000
380.781890 53.000000
381.150760 47.000000
382.112460 76.000000
382.130190 58.000000
382.149260 76.000000
382.165220 105.000000
384.102630 47.000000
384.122340 124.000000
384.133850 58.000000
384.168210 58.000000
385.211300 55.000000
386.051390 71.000000
386.136200 145.000000
386.149260 66.000000
386.171570 239.000000
386.190030 53.000000
387.089780 61.000000
387.176210 103.000000
388.088380 71.000000
388.159390 171.000000
389.124910 45.000000
389.158080 47.000000
390.156650 113.000000
395.205170 63.000000
397.197970 100.000000
398.127170 129.000000
400.169070 100.000000
400.190430 61.000000
400.205660 92.000000
401.184600 116.000000
401.197690 108.000000
402.082760 55.000000
402.173680 253.000000
403.172580 97.000000
407.100280 45.000000
408.164700 55.000000
410.174680 47.000000
411.160160 45.000000
412.123410 50.000000
412.170960 53.000000
413.154660 53.000000
415.136510 53.000000
416.191010 139.000000
418.194000 87.000000
423.118620 116.000000
423.184480 58.000000
424.138950 121.000000
433.188900 53.000000
434.144260 92.000000
439.151340 58.000000
440.151400 108.000000
440.200380 47.000000
446.149440 55.000000
446.173370 47.000000
448.210170 45.000000
450.170290 45.000000
453.183840 53.000000
454.153440 79.000000
455.172390 58.000000
457.171880 53.000000
459.204590 87.000000
460.186710 89.000000
461.155400 45.000000
463.429840 45.000000
464.173030 47.000000
470.135280 124.000000
470.176300 100.000000
472.179140 58.000000
473.158170 45.000000
473.192470 47.000000
474.162600 53.000000
475.173130 47.000000
475.600130 50.000000
476.198030 58.000000
477.203610 84.000000
478.184140 47.000000
478.205470 45.000000
481.189760 61.000000
485.157170 45.000000
487.195100 103.000000
488.172730 45.000000
489.204500 58.000000
490.150330 50.000000
490.187740 47.000000
493.219510 53.000000
497.177860 61.000000
499.197780 45.000000
500.167180 105.000000
501.191830 47.000000
502.210630 82.000000
503.160830 58.000000
504.146700 53.000000
505.154450 71.000000
505.186000 45.000000
505.215910 84.000000
506.040710 47.000000
506.179780 53.000000
506.202610 189.000000
507.156010 53.000000
507.184020 45.000000
507.219820 47.000000
508.176060 58.000000
512.173400 45.000000
513.147770 47.000000
514.205020 66.000000
516.185790 55.000000
517.204350 47.000000
518.220400 58.000000
519.175840 74.000000
520.171570 53.000000
520.198430 47.000000
520.229060 74.000000
521.184080 55.000000
521.210690 63.000000
522.062010 58.000000
523.212400 121.000000
524.208740 171.000000
527.193180 61.000000
529.154050 47.000000
529.177370 66.000000
530.462160 61.000000
531.151670 45.000000
531.170530 68.000000
532.189150 182.000000
533.168700 105.000000
533.193480 163.000000
533.223750 226.000000
534.155330 45.000000
534.207090 268.000000
534.235530 113.000000
535.200680 50.000000
536.209590 45.000000
537.207210 66.000000
539.158080 87.000000
541.160710 63.000000
541.191530 55.000000
542.154720 47.000000
543.176090 121.000000
544.172730 121.000000
545.192570 45.000000
545.225040 47.000000
546.147640 61.000000
546.182070 55.000000
546.242610 55.000000
547.195010 418.000000
548.149350 53.000000
548.193360 47.000000
549.195860 103.000000
549.239320 137.000000
550.186890 53.000000
551.189150 166.000000
558.164120 50.000000
558.707150 47.000000
559.199280 58.000000
559.224850 89.000000
560.249570 89.000000
561.196900 97.000000
561.228330 53.000000
562.173890 55.000000
562.200620 387.000000
562.216430 153.000000
562.240300 126.000000
563.139710 45.000000
563.183410 53.000000
563.197200 113.000000
564.004330 45.000000
564.170040 166.000000
564.203550 197.000000
564.244870 116.000000
565.186160 139.000000
565.207760 63.000000
570.429750 63.000000
574.216740 111.000000
575.228820 189.000000
576.218630 89.000000
576.361210 50.000000
577.198120 226.000000
577.232300 226.000000
577.397160 82.000000
578.172730 79.000000
578.220950 97.000000
578.246460 113.000000
578.290530 58.000000
579.184020 95.000000
579.219240 111.000000
579.236760 97.000000
579.258060 45.000000
580.273070 47.000000
590.242550 50.000000
592.858150 53.000000
593.196040 95.000000
593.234440 1000.000000
593.286010 58.000000
594.186520 50.000000
594.211360 45.000000
594.231450 158.000000
594.249080 126.000000
594.271420 55.000000
595.211910 53.000000
607.230530 45.000000
608.226680 66.000000
608.251590 108.000000
609.258730 79.000000

