>compound PR49473327
>parentmass 325.19105415384615
>ionization [M+H]+
>formula C20H24N2O2
>rt 295.228578
>profile qtof
#smiles_iso CCC1C2CCN3C1C4(CC3)C5=CC=CC=C5NC4=C2C(=O)OC
#smiles_can CCC1C2CCN3C1C4(CC3)C5=CC=CC=C5NC4=C2C(=O)OC
#inchikey RLAKWLFUMAABBE-UHFFFAOYSA-N
#pubchem_id 100004
#mb_accession PR300299,PR300301,PR300303,PR300305,PR300307,PR300309,PR300311,PR300313,PR300315,PR300317,PR300319,PR300321,PR310577

>ms2peaks
130.065690 8.000000
169.077930 7.000000
180.080490 14.000000
181.080720 11.000000
193.084550 18.000000
194.096370 32.000000
195.091370 8.000000
195.102200 7.000000
206.092830 13.000000
207.090410 10.000000
207.104770 20.000000
208.073490 6.000000
208.092930 8.000000
208.107500 24.000000
208.116990 8.000000
209.105830 8.000000
209.119540 8.000000
210.120410 6.000000
220.106600 6.000000
221.107670 8.000000
221.123030 8.000000
222.089920 16.000000
222.108640 7.000000
222.119930 20.000000
222.130230 25.000000
223.079390 11.000000
235.124860 7.000000
236.140320 29.000000
236.153960 8.000000
237.139390 17.000000
238.125320 6.000000
265.126220 7.000000
265.134160 16.000000
265.172060 8.000000
293.123350 9.000000
293.164920 1000.000000
293.213650 10.000000
294.139920 7.000000
294.168730 177.000000
295.159730 8.000000
295.170290 19.000000
325.118470 8.000000
325.140750 10.000000
325.191040 866.000000
325.242650 15.000000

>ms2peaks
293.165370 94.000000
294.165190 20.000000
325.141540 10.000000
325.190430 1000.000000
325.242310 24.000000

>ms2peaks
168.083570 11.000000
180.078410 9.000000
181.087070 5.000000
193.088000 16.000000
194.096360 33.000000
195.094210 10.000000
207.103520 14.000000
208.073940 6.000000
208.088940 5.000000
208.100810 13.000000
208.110870 24.000000
209.105010 9.000000
209.116990 7.000000
210.125530 12.000000
211.125640 5.000000
220.114030 9.000000
221.113910 7.000000
222.083280 8.000000
222.093290 25.000000
222.127410 65.000000
223.085650 6.000000
223.133090 6.000000
234.126540 6.000000
235.126680 6.000000
236.106950 7.000000
236.120670 8.000000
236.133270 22.000000
236.144940 22.000000
237.131470 6.000000
237.139370 14.000000
237.151470 7.000000
238.128810 16.000000
263.120300 6.000000
264.134700 13.000000
264.151210 8.000000
265.133790 22.000000
265.156980 8.000000
265.175020 12.000000
293.107300 6.000000
293.129490 8.000000
293.165740 1000.000000
293.214020 10.000000
294.167720 238.000000
295.158570 8.000000
295.175320 23.000000
325.189580 10.000000

>ms2peaks
58.069000 14.000000
69.058890 8.000000
70.068240 11.000000
77.046030 8.000000
79.054990 19.000000
80.047120 10.000000
84.079730 24.000000
90.046420 16.000000
91.049670 8.000000
91.056720 54.000000
98.096590 12.000000
105.074250 12.000000
107.089560 11.000000
108.698520 6.000000
110.092790 7.000000
113.035220 15.000000
114.047200 15.000000
114.564570 11.000000
115.055090 16.000000
115.058780 7.000000
116.052570 21.000000
117.054540 10.000000
117.063560 14.000000
117.069310 11.000000
118.067870 8.000000
120.080370 8.000000
121.091320 13.000000
122.101460 13.000000
127.052680 23.000000
127.059870 18.000000
128.049390 9.000000
128.065060 23.000000
129.044110 8.000000
129.049940 8.000000
129.069270 25.000000
130.060240 21.000000
130.067140 80.000000
131.069000 24.000000
132.036610 7.000000
132.078980 6.000000
136.355350 15.000000
139.051830 10.000000
139.718810 9.000000
140.052170 26.000000
141.071000 34.000000
141.076430 13.000000
142.060850 33.000000
142.072160 7.000000
143.072110 26.000000
143.080180 34.000000
144.083270 39.000000
145.051040 11.000000
145.070080 9.000000
145.082960 7.000000
148.111650 21.000000
148.115840 9.000000
151.053310 17.000000
152.048450 20.000000
152.060420 15.000000
153.044540 13.000000
153.067200 50.000000
154.048430 18.000000
154.060960 59.000000
154.070880 42.000000
154.076460 15.000000
155.071110 58.000000
155.724200 6.000000
156.072070 15.000000
156.082170 54.000000
157.085850 6.000000
157.098560 18.000000
157.401150 6.000000
158.085880 25.000000
159.071760 9.000000
163.146870 8.000000
165.067180 62.000000
165.073790 28.000000
165.109850 8.000000
166.051100 6.000000
166.065380 57.000000
166.076710 8.000000
166.281880 8.000000
166.438320 6.000000
167.057190 46.000000
167.072970 596.000000
167.552400 10.000000
168.052600 9.000000
168.080720 452.000000
169.074130 27.000000
169.082760 67.000000
169.093770 8.000000
169.671920 7.000000
170.048770 18.000000
170.086410 15.000000
170.098300 7.000000
170.252610 7.000000
171.095320 14.000000
171.832990 6.000000
172.115020 10.000000
173.087070 13.000000
173.165440 11.000000
176.113170 10.000000
177.067080 16.000000
178.052780 7.000000
178.065250 25.000000
178.074830 10.000000
179.064700 35.000000
179.075270 80.000000
179.100170 8.000000
180.021150 12.000000
180.029020 9.000000
180.046520 12.000000
180.063670 70.000000
180.072460 225.000000
180.082000 467.000000
180.683690 12.000000
180.863880 11.000000
181.072450 54.000000
181.088500 537.000000
181.300380 7.000000
181.980240 6.000000
182.043880 7.000000
182.058260 19.000000
182.068820 13.000000
182.094040 253.000000
183.086380 21.000000
183.094730 63.000000
184.075840 12.000000
184.106050 21.000000
185.115740 12.000000
188.395800 6.000000
191.057590 8.000000
191.074280 61.000000
191.651580 11.000000
191.951050 6.000000
192.056200 22.000000
192.082520 309.000000
192.290160 9.000000
192.362520 6.000000
193.054280 39.000000
193.087340 844.000000
194.046510 7.000000
194.058460 6.000000
194.069230 14.000000
194.096280 1000.000000
195.030780 6.000000
195.079570 16.000000
195.089900 114.000000
195.103160 207.000000
195.255450 7.000000
196.084520 47.000000
196.101070 63.000000
196.123340 7.000000
196.356340 6.000000
197.070100 20.000000
197.079700 6.000000
197.110730 15.000000
197.297070 6.000000
197.787900 13.000000
198.642400 11.000000
199.364230 7.000000
203.067960 9.000000
203.086060 7.000000
204.058810 9.000000
204.073760 44.000000
204.082870 96.000000
205.086780 111.000000
206.058650 12.000000
206.093570 577.000000
207.017730 12.000000
207.065140 14.000000
207.079800 77.000000
207.089890 231.000000
207.098740 661.000000
207.117720 44.000000
207.170490 6.000000
208.039640 7.000000
208.076690 66.000000
208.103580 467.000000
208.117460 121.000000
208.155670 8.000000
208.185240 6.000000
208.494950 7.000000
209.046570 7.000000
209.082210 18.000000
209.105560 122.000000
209.123670 54.000000
209.237370 6.000000
210.102840 33.000000
210.125110 78.000000
211.088590 6.000000
211.112380 11.000000
211.124070 6.000000
212.494080 6.000000
215.070280 9.000000
217.088700 75.000000
218.045200 7.000000
218.084580 40.000000
218.098280 110.000000
218.241580 6.000000
219.085690 29.000000
219.102340 42.000000
220.072660 43.000000
220.090820 18.000000
220.102570 47.000000
220.115740 172.000000
220.150380 8.000000
221.069430 60.000000
221.088230 33.000000
221.098620 56.000000
221.111110 181.000000
221.124360 47.000000
221.145750 17.000000
221.399580 7.000000
221.840590 7.000000
222.091350 175.000000
222.098660 67.000000
222.123210 113.000000
222.135350 63.000000
223.092620 90.000000
223.115750 12.000000
223.127240 19.000000
223.136230 17.000000
223.285400 7.000000
223.319850 17.000000
224.059830 16.000000
224.091050 13.000000
224.132660 28.000000
224.227970 7.000000
224.764530 6.000000
225.087750 6.000000
230.080670 6.000000
230.087890 7.000000
231.022930 8.000000
231.045060 9.000000
231.075040 12.000000
231.083740 8.000000
231.094620 7.000000
231.485720 6.000000
232.099810 19.000000
232.111540 33.000000
232.125180 9.000000
233.048710 8.000000
233.079650 31.000000
233.093980 10.000000
233.113740 24.000000
234.048980 8.000000
234.087690 26.000000
234.142300 13.000000
235.064880 18.000000
235.089020 37.000000
235.102290 14.000000
235.124560 149.000000
235.138090 29.000000
236.093900 16.000000
236.110280 17.000000
236.138240 23.000000
236.155990 56.000000
237.102550 17.000000
237.139970 62.000000
237.233340 9.000000
238.080060 6.000000
238.113200 8.000000
238.128750 17.000000
241.352050 12.000000
244.115480 8.000000
245.101840 8.000000
245.111360 7.000000
246.116560 8.000000
247.091000 12.000000
247.097640 7.000000
247.118790 8.000000
248.107940 24.000000
249.091230 13.000000
249.120380 14.000000
249.139530 7.000000
250.120880 7.000000
257.102420 6.000000
258.103850 11.000000
259.114410 6.000000
259.127660 7.000000
261.110600 11.000000
263.118130 31.000000
263.134860 12.000000
263.751070 8.000000
265.171600 11.000000
277.114320 12.000000
279.136870 9.000000
290.488340 6.000000
293.124820 11.000000
293.163330 123.000000
293.528750 7.000000
294.171840 13.000000
303.050990 6.000000
305.560390 9.000000

>ms2peaks
167.073380 10.000000
168.084050 10.000000
169.080090 8.000000
180.078920 16.000000
181.087270 13.000000
182.095830 12.000000
193.084150 14.000000
193.099210 8.000000
194.094700 43.000000
195.103580 12.000000
206.100570 9.000000
207.091320 7.000000
207.102740 22.000000
208.075900 6.000000
208.095810 10.000000
208.106610 26.000000
209.101670 13.000000
209.118320 13.000000
210.129700 14.000000
219.100080 8.000000
221.086940 6.000000
221.112930 10.000000
222.086820 6.000000
222.096560 6.000000
222.114040 10.000000
222.127660 38.000000
223.086750 6.000000
223.134000 12.000000
234.128890 8.000000
235.127090 9.000000
236.104400 8.000000
236.116350 10.000000
236.126070 7.000000
236.145480 28.000000
237.130220 6.000000
237.141850 17.000000
238.120930 8.000000
263.117950 5.000000
264.132660 8.000000
265.132780 7.000000
293.131680 7.000000
293.164340 1000.000000
293.212710 10.000000
294.168520 216.000000
295.163060 11.000000
295.176570 9.000000
325.144560 8.000000
325.190800 823.000000
325.243590 14.000000

>ms2peaks
293.165680 86.000000
294.167970 15.000000
325.191380 1000.000000
325.243870 25.000000

>ms2peaks
168.081590 11.000000
180.083250 7.000000
182.095020 12.000000
193.091160 20.000000
194.096190 40.000000
195.095470 13.000000
196.109450 12.000000
206.096240 7.000000
207.107160 9.000000
208.070980 5.000000
208.103450 21.000000
208.115780 25.000000
209.114090 10.000000
210.138290 6.000000
220.112870 7.000000
221.082720 7.000000
222.092730 33.000000
222.117320 17.000000
222.128630 41.000000
223.092150 11.000000
223.127380 8.000000
235.125580 10.000000
236.098920 11.000000
236.114380 7.000000
236.127400 6.000000
236.143280 44.000000
237.105610 12.000000
237.138890 27.000000
238.125720 17.000000
238.141710 7.000000
248.148350 5.000000
250.125030 12.000000
264.134800 21.000000
265.137300 34.000000
265.169680 22.000000
293.116970 8.000000
293.132660 6.000000
293.166020 1000.000000
293.212890 8.000000
294.168120 211.000000
295.164030 13.000000
295.179470 15.000000
325.198790 8.000000

>ms2peaks
56.053620 8.000000
70.068150 10.000000
78.731770 7.000000
79.051130 13.000000
80.055500 13.000000
81.067280 10.000000
82.066350 23.000000
84.086850 7.000000
87.250120 8.000000
89.040050 7.000000
93.056130 9.000000
93.060650 13.000000
93.072590 12.000000
94.060830 13.000000
95.069700 10.000000
100.471120 8.000000
102.032230 15.000000
104.043790 11.000000
105.068530 9.000000
105.077030 10.000000
106.063370 9.000000
107.070750 7.000000
108.077600 8.000000
109.078800 15.000000
111.096950 9.000000
112.957180 7.000000
115.047800 24.000000
117.036370 27.000000
117.061940 39.000000
117.071950 11.000000
117.379650 7.000000
119.072930 15.000000
120.076360 14.000000
121.086320 9.000000
122.078870 10.000000
122.095110 10.000000
123.021480 8.000000
123.917730 15.000000
128.045240 21.000000
128.063810 27.000000
129.036040 10.000000
129.053560 17.000000
130.043840 9.000000
130.063630 127.000000
131.062820 8.000000
131.081940 12.000000
132.069820 11.000000
134.091950 19.000000
134.107740 10.000000
136.077130 14.000000
136.111080 11.000000
139.056980 11.000000
140.052630 15.000000
141.065550 12.000000
141.076480 17.000000
142.065370 29.000000
143.067020 11.000000
143.074190 9.000000
143.091250 10.000000
144.077710 60.000000
144.086260 13.000000
144.096370 12.000000
145.082700 7.000000
146.061650 7.000000
146.097750 9.000000
148.116240 24.000000
148.574360 9.000000
150.115590 8.000000
151.055530 20.000000
152.048580 12.000000
152.060580 55.000000
152.071880 12.000000
152.215030 9.000000
153.061430 36.000000
154.046420 10.000000
154.064610 230.000000
155.061310 12.000000
155.070330 55.000000
156.081880 18.000000
157.045430 11.000000
157.086780 24.000000
158.058210 8.000000
158.086750 10.000000
158.098050 9.000000
161.079910 11.000000
162.109340 7.000000
165.055620 20.000000
165.068560 72.000000
166.066910 93.000000
166.079350 35.000000
167.049680 24.000000
167.072390 649.000000
167.090380 22.000000
168.058210 10.000000
168.071290 77.000000
168.078960 261.000000
168.089810 55.000000
168.104930 10.000000
169.079850 177.000000
170.074890 7.000000
170.095250 8.000000
171.091220 17.000000
171.886280 13.000000
172.047320 7.000000
172.109760 18.000000
176.064390 8.000000
177.067370 9.000000
177.994380 10.000000
178.049030 10.000000
178.059110 27.000000
178.066210 24.000000
178.083300 25.000000
179.057210 18.000000
179.068160 93.000000
179.090120 24.000000
179.221180 10.000000
179.982100 9.000000
180.080780 1000.000000
181.057050 9.000000
181.069980 40.000000
181.080490 112.000000
181.090350 336.000000
182.074680 18.000000
182.085690 76.000000
182.096020 131.000000
183.069810 46.000000
183.086880 22.000000
183.094090 79.000000
184.097470 11.000000
184.112300 20.000000
189.077790 19.000000
190.058460 13.000000
190.065160 10.000000
190.839080 7.000000
191.060060 21.000000
191.075270 86.000000
191.090900 29.000000
192.081500 543.000000
193.044170 9.000000
193.055370 37.000000
193.080950 247.000000
193.089420 853.000000
194.062040 24.000000
194.095090 717.000000
195.031130 13.000000
195.070940 37.000000
195.084260 70.000000
195.097820 334.000000
196.058330 15.000000
196.077450 11.000000
196.096010 58.000000
196.110860 160.000000
196.412580 9.000000
197.074160 7.000000
197.114440 7.000000
198.086550 17.000000
203.076980 19.000000
204.080280 262.000000
204.982480 9.000000
205.079350 28.000000
205.086460 42.000000
205.099640 10.000000
206.068050 17.000000
206.094500 622.000000
206.112110 14.000000
206.147480 10.000000
207.074160 51.000000
207.097850 642.000000
207.109090 202.000000
207.125500 10.000000
208.075850 23.000000
208.105190 470.000000
208.116090 155.000000
209.082810 18.000000
209.094330 63.000000
209.101750 54.000000
209.111740 85.000000
209.120160 48.000000
209.400620 7.000000
209.518910 8.000000
210.101940 38.000000
210.111620 14.000000
210.131650 60.000000
211.092070 7.000000
211.118000 19.000000
211.133480 17.000000
212.085880 7.000000
213.103260 12.000000
214.207090 8.000000
214.243000 7.000000
216.080090 12.000000
217.071780 22.000000
217.083560 59.000000
217.095340 18.000000
218.097610 52.000000
219.060550 10.000000
219.097060 60.000000
219.108200 34.000000
220.073990 20.000000
220.098130 72.000000
220.114900 164.000000
220.818920 7.000000
221.053020 8.000000
221.069050 42.000000
221.084000 55.000000
221.101140 82.000000
221.110440 259.000000
221.134280 18.000000
222.069380 22.000000
222.081360 70.000000
222.097640 72.000000
222.125580 208.000000
222.144710 21.000000
222.204730 11.000000
222.986280 9.000000
223.035390 8.000000
223.088330 232.000000
223.123250 39.000000
223.134170 26.000000
224.092650 65.000000
224.108900 12.000000
224.136690 9.000000
224.811100 7.000000
225.131160 7.000000
231.079570 12.000000
231.091690 29.000000
231.104250 37.000000
232.079100 9.000000
232.097870 19.000000
232.111330 30.000000
233.080810 10.000000
233.104370 11.000000
233.121480 17.000000
233.131820 10.000000
234.084840 10.000000
234.098390 29.000000
234.120470 59.000000
235.064480 20.000000
235.086030 24.000000
235.106750 23.000000
235.124420 136.000000
235.141160 13.000000
235.159700 7.000000
236.050090 8.000000
236.083770 21.000000
236.094890 42.000000
236.120000 10.000000
236.138530 51.000000
236.151640 31.000000
236.164900 7.000000
237.104100 72.000000
237.115490 24.000000
237.139760 28.000000
237.151200 47.000000
238.109280 8.000000
238.121510 15.000000
239.123310 13.000000
239.164810 7.000000
240.767300 8.000000
242.099520 11.000000
243.111270 8.000000
244.116710 9.000000
245.045500 12.000000
245.101940 17.000000
245.112610 9.000000
247.077070 8.000000
248.074170 14.000000
248.101290 7.000000
248.135420 23.000000
249.135240 36.000000
249.153850 8.000000
250.130540 20.000000
250.147130 8.000000
252.565570 8.000000
258.127720 17.000000
259.123110 15.000000
260.110600 9.000000
263.102290 10.000000
263.115390 10.000000
263.142150 9.000000
263.163850 11.000000
264.142910 14.000000
265.137330 36.000000
265.177430 9.000000
267.156560 26.000000
268.578190 12.000000
278.127410 13.000000
279.147740 15.000000
282.876680 17.000000
293.103300 8.000000
293.169830 76.000000
294.161770 22.000000
294.170960 23.000000
294.309880 7.000000
296.339690 7.000000

>ms2peaks
167.071500 9.000000
168.076460 8.000000
168.088180 9.000000
180.074310 5.000000
181.088000 6.000000
193.091030 9.000000
194.097030 32.000000
195.098590 5.000000
195.109480 5.000000
196.099610 7.000000
206.094890 10.000000
207.100740 22.000000
208.098540 8.000000
208.109950 31.000000
209.102650 7.000000
209.117570 17.000000
210.127000 14.000000
221.114650 20.000000
222.088810 19.000000
222.127910 39.000000
223.086090 20.000000
223.134260 9.000000
236.105380 6.000000
236.143430 34.000000
237.136990 8.000000
237.146740 6.000000
238.118910 11.000000
263.123350 7.000000
264.133000 7.000000
265.171880 11.000000
293.108490 6.000000
293.119870 10.000000
293.164340 1000.000000
293.213350 15.000000
294.169860 218.000000
295.172180 21.000000
325.150510 6.000000
325.191250 787.000000
325.244020 13.000000

>ms2peaks
293.164610 78.000000
294.168270 17.000000
325.145450 10.000000
325.190890 1000.000000
325.242860 28.000000

>ms2peaks
167.070530 8.000000
168.078990 8.000000
180.082760 12.000000
181.085050 9.000000
182.093890 11.000000
193.090730 11.000000
194.096820 33.000000
195.101240 9.000000
196.112320 11.000000
207.102950 18.000000
208.080310 5.000000
208.107880 38.000000
209.111910 9.000000
210.127320 21.000000
220.113240 7.000000
221.110290 10.000000
222.089460 27.000000
222.125560 58.000000
223.088790 14.000000
223.128650 12.000000
235.117130 9.000000
236.101530 9.000000
236.113400 8.000000
236.139100 35.000000
236.151640 11.000000
237.106000 5.000000
237.135760 21.000000
237.145550 14.000000
238.120610 19.000000
238.130770 6.000000
250.123840 11.000000
264.123260 5.000000
264.139100 12.000000
265.131840 21.000000
265.155610 6.000000
265.170780 16.000000
266.138730 6.000000
293.110960 7.000000
293.127930 9.000000
293.165130 1000.000000
293.214050 12.000000
294.168520 211.000000
295.169770 28.000000

>ms2peaks
68.051060 9.000000
77.038540 9.000000
80.051510 12.000000
82.062310 8.000000
91.052570 23.000000
91.062020 21.000000
92.028800 8.000000
92.045900 8.000000
94.059680 12.000000
94.065310 13.000000
96.080420 10.000000
103.053980 8.000000
104.040930 9.000000
104.047740 8.000000
105.036840 13.000000
106.056580 8.000000
108.047260 8.000000
108.077410 8.000000
109.046470 5.000000
110.053120 8.000000
115.045920 19.000000
115.055580 16.000000
116.050330 35.000000
117.049000 8.000000
117.057430 36.000000
118.065990 17.000000
119.076060 15.000000
120.074350 7.000000
122.051630 7.000000
127.054700 11.000000
127.060710 8.000000
128.046390 7.000000
128.053820 18.000000
128.059860 11.000000
129.055300 10.000000
129.067200 32.000000
129.075420 6.000000
130.031450 11.000000
130.047840 13.000000
130.062390 72.000000
130.074110 36.000000
131.533940 5.000000
133.037660 8.000000
135.060230 7.000000
139.049470 23.000000
140.728420 9.000000
141.059710 6.000000
141.069030 33.000000
142.074540 8.000000
143.076250 15.000000
143.083540 18.000000
144.078980 83.000000
146.053330 9.000000
146.097930 8.000000
148.110460 8.000000
151.049870 14.000000
151.061100 10.000000
152.053160 47.000000
152.065460 11.000000
153.051820 15.000000
153.066560 20.000000
154.056630 46.000000
154.067690 101.000000
155.071230 59.000000
155.082670 9.000000
156.069200 5.000000
156.079070 43.000000
156.089550 6.000000
156.105420 8.000000
157.088460 40.000000
157.236860 5.000000
158.089430 13.000000
158.107500 12.000000
159.098820 12.000000
163.743350 7.000000
163.800660 6.000000
164.061740 8.000000
165.067780 88.000000
165.082030 6.000000
165.655810 8.000000
166.018460 7.000000
166.059750 42.000000
166.069990 97.000000
166.979720 12.000000
167.029270 9.000000
167.044160 17.000000
167.058040 32.000000
167.072970 729.000000
167.104710 11.000000
167.120040 7.000000
167.156830 5.000000
167.520200 6.000000
168.068860 69.000000
168.079450 301.000000
169.043180 7.000000
169.064300 6.000000
169.080630 93.000000
169.104510 13.000000
170.073590 15.000000
170.092540 56.000000
170.237180 7.000000
171.091830 16.000000
172.073180 8.000000
172.736880 13.000000
173.586090 6.000000
176.046230 10.000000
176.054150 8.000000
176.062330 8.000000
177.062030 7.000000
177.075150 12.000000
178.046590 7.000000
178.057750 22.000000
178.065730 24.000000
178.078050 42.000000
179.002870 5.000000
179.021960 13.000000
179.048630 9.000000
179.060210 14.000000
179.072630 86.000000
179.084950 15.000000
180.041920 9.000000
180.057040 34.000000
180.079280 978.000000
181.039990 9.000000
181.065280 40.000000
181.085540 478.000000
181.664830 11.000000
182.051240 34.000000
182.076860 30.000000
182.089510 123.000000
182.100140 66.000000
183.066710 6.000000
183.090680 46.000000
183.101320 14.000000
183.621400 6.000000
184.077070 9.000000
184.105220 30.000000
185.059840 11.000000
186.090470 9.000000
189.067260 15.000000
190.059780 19.000000
191.054170 7.000000
191.065600 9.000000
191.078400 66.000000
191.088910 26.000000
192.021930 9.000000
192.051670 16.000000
192.065290 53.000000
192.082340 368.000000
192.768710 8.000000
193.029770 8.000000
193.058140 7.000000
193.087970 874.000000
193.751790 7.000000
194.022810 13.000000
194.067900 42.000000
194.094710 1000.000000
194.114790 20.000000
194.128080 9.000000
194.225710 5.000000
195.010790 7.000000
195.062010 9.000000
195.071790 21.000000
195.093990 403.000000
195.779450 7.000000
196.060090 7.000000
196.083760 26.000000
196.099150 17.000000
196.117870 71.000000
196.632200 6.000000
197.064190 9.000000
197.114270 18.000000
198.070400 9.000000
198.080230 7.000000
198.109910 18.000000
198.123490 6.000000
202.077440 7.000000
203.073440 6.000000
203.081710 14.000000
203.281330 6.000000
204.032360 10.000000
204.060360 14.000000
204.074620 36.000000
204.084150 110.000000
204.112430 10.000000
205.074510 27.000000
205.087420 154.000000
205.134200 9.000000
205.600480 5.000000
205.870860 10.000000
206.065520 12.000000
206.086500 228.000000
206.096180 465.000000
206.561200 10.000000
206.722950 11.000000
207.039490 30.000000
207.055680 5.000000
207.080570 107.000000
207.097260 830.000000
207.517500 7.000000
208.057220 9.000000
208.068480 27.000000
208.075000 46.000000
208.091570 190.000000
208.109210 462.000000
208.243100 7.000000
209.078410 24.000000
209.087300 27.000000
209.099670 32.000000
209.115130 170.000000
209.138820 11.000000
209.809110 6.000000
210.098680 7.000000
210.114270 43.000000
210.126130 24.000000
210.136870 29.000000
211.070010 10.000000
211.079210 5.000000
211.136550 15.000000
214.082840 11.000000
214.751910 7.000000
216.081860 22.000000
217.053510 8.000000
217.063310 9.000000
217.085950 5.000000
217.096510 22.000000
218.070660 17.000000
218.086610 45.000000
218.099620 30.000000
219.084530 20.000000
219.096130 51.000000
219.108230 32.000000
219.922160 6.000000
220.012100 14.000000
220.078320 76.000000
220.094270 76.000000
220.104840 153.000000
220.117000 84.000000
221.009280 6.000000
221.063660 21.000000
221.075180 25.000000
221.093250 37.000000
221.111180 236.000000
221.691930 8.000000
222.066130 15.000000
222.080230 65.000000
222.091710 68.000000
222.125440 265.000000
222.455200 6.000000
223.075710 48.000000
223.086240 177.000000
223.109150 21.000000
223.120670 34.000000
223.136170 26.000000
223.144960 11.000000
224.077130 14.000000
224.091550 36.000000
224.124130 20.000000
224.137830 15.000000
224.151230 11.000000
225.056870 9.000000
225.068800 7.000000
225.091060 9.000000
229.083830 6.000000
230.072540 11.000000
230.095340 13.000000
231.057370 6.000000
231.088810 17.000000
231.099120 6.000000
231.317230 14.000000
232.047130 7.000000
232.091160 13.000000
232.105740 26.000000
233.083210 7.000000
233.094830 15.000000
233.107360 9.000000
233.134120 11.000000
234.076870 6.000000
234.092150 59.000000
234.109620 24.000000
234.126340 35.000000
234.139130 20.000000
235.069610 6.000000
235.093890 43.000000
235.124340 174.000000
236.097810 44.000000
236.127610 85.000000
236.139530 65.000000
236.164780 7.000000
237.102710 51.000000
237.137540 42.000000
237.549680 5.000000
238.113830 28.000000
238.124920 21.000000
238.152400 13.000000
239.129430 10.000000
245.104550 21.000000
245.111890 8.000000
246.081270 13.000000
247.089230 7.000000
247.119930 14.000000
248.105590 15.000000
248.123470 22.000000
248.146380 11.000000
249.099350 11.000000
249.109130 16.000000
249.123730 30.000000
249.135500 13.000000
249.155410 14.000000
250.097290 15.000000
250.148250 7.000000
250.963420 6.000000
251.105220 12.000000
260.106410 6.000000
260.159330 5.000000
261.140440 6.000000
262.140840 7.000000
263.119870 23.000000
263.149230 19.000000
264.129820 10.000000
264.137730 29.000000
265.126830 6.000000
265.138210 22.000000
265.150360 21.000000
266.110660 7.000000
266.138180 10.000000
277.127590 9.000000
277.143710 6.000000
283.761630 8.000000
284.482670 7.000000
293.125670 16.000000
293.151820 35.000000
293.161250 112.000000
293.296230 6.000000
294.167210 35.000000
312.924040 6.000000
320.409910 10.000000

>ms2peaks
61.695900 24.000000
67.516410 23.000000
77.037310 27.000000
84.042920 34.000000
94.064770 29.000000
106.178150 17.000000
108.084230 26.000000
111.103160 55.000000
112.111890 17.000000
117.065700 21.000000
120.079600 25.000000
120.768040 17.000000
130.055330 51.000000
130.065690 219.000000
132.070250 26.000000
136.111890 30.000000
143.075520 27.000000
144.081480 113.000000
145.084730 65.000000
146.085160 18.000000
154.062930 105.000000
155.054890 18.000000
155.070160 63.000000
156.092480 20.000000
158.096440 47.000000
159.090580 56.000000
165.065480 25.000000
165.859590 24.000000
167.073270 112.000000
167.079010 54.000000
168.077880 93.000000
168.088470 30.000000
168.284810 17.000000
168.707150 23.000000
169.077930 195.000000
169.084960 76.000000
170.067470 36.000000
170.099110 93.000000
171.090360 42.000000
174.091510 21.000000
179.075880 20.000000
180.052660 51.000000
180.070790 87.000000
180.080490 405.000000
181.069230 42.000000
181.080720 321.000000
181.101030 96.000000
182.047990 17.000000
182.078260 18.000000
182.091860 142.000000
182.099910 96.000000
182.120590 18.000000
183.040510 42.000000
183.089080 93.000000
184.107880 17.000000
185.819870 31.000000
186.067960 20.000000
191.074630 48.000000
192.071110 109.000000
192.084490 134.000000
193.084550 531.000000
193.101040 30.000000
193.876750 34.000000
194.063630 20.000000
194.096370 920.000000
195.041560 23.000000
195.091370 220.000000
195.102200 200.000000
195.452910 21.000000
196.091600 137.000000
196.117000 23.000000
196.937680 17.000000
197.086040 33.000000
197.115590 34.000000
197.126950 25.000000
197.134190 28.000000
198.115260 29.000000
200.641920 39.000000
203.196330 20.000000
204.071550 27.000000
204.085800 65.000000
204.096770 29.000000
205.080720 78.000000
205.098630 23.000000
205.107420 22.000000
206.075230 20.000000
206.092830 369.000000
206.120000 18.000000
207.064070 54.000000
207.072510 55.000000
207.090410 294.000000
207.104770 564.000000
208.056900 28.000000
208.073490 180.000000
208.092930 218.000000
208.107500 698.000000
208.116990 234.000000
208.694730 17.000000
209.062850 72.000000
209.075710 89.000000
209.093250 60.000000
209.105830 236.000000
209.119540 238.000000
209.129320 103.000000
209.209300 19.000000
210.109390 63.000000
210.120410 180.000000
210.129880 111.000000
210.992860 21.000000
211.103440 28.000000
211.115490 36.000000
211.126680 73.000000
211.136380 70.000000
211.235980 20.000000
211.792250 17.000000
212.123030 29.000000
213.307500 20.000000
213.591610 17.000000
213.945400 36.000000
214.073760 26.000000
214.082810 49.000000
214.091740 28.000000
215.067870 18.000000
215.089750 30.000000
216.097310 42.000000
217.083830 22.000000
217.607270 32.000000
218.098210 52.000000
218.699840 28.000000
219.011440 32.000000
219.070850 20.000000
219.103930 118.000000
219.208620 17.000000
220.072890 24.000000
220.106600 184.000000
220.115460 37.000000
220.261310 17.000000
220.813190 28.000000
220.869720 21.000000
221.087970 23.000000
221.107670 230.000000
221.123030 236.000000
222.089920 458.000000
222.108640 198.000000
222.119930 575.000000
222.130230 728.000000
223.079390 311.000000
223.093570 106.000000
223.101100 35.000000
223.116520 62.000000
223.134780 134.000000
223.152370 18.000000
223.176960 17.000000
224.079860 39.000000
224.097210 27.000000
224.106890 34.000000
224.131740 52.000000
224.145220 61.000000
225.147370 26.000000
226.085190 39.000000
226.713970 32.000000
227.633790 18.000000
230.239180 34.000000
232.080020 17.000000
233.106700 53.000000
233.115630 39.000000
234.084490 114.000000
234.096970 49.000000
234.113860 17.000000
234.129840 89.000000
235.075560 30.000000
235.086650 57.000000
235.109340 36.000000
235.124860 203.000000
236.081800 36.000000
236.092500 89.000000
236.112120 111.000000
236.140320 827.000000
236.153960 218.000000
236.757690 19.000000
237.108150 85.000000
237.121000 108.000000
237.139390 500.000000
237.151950 110.000000
237.267960 25.000000
238.088580 23.000000
238.108950 81.000000
238.125320 175.000000
238.145370 62.000000
238.163100 18.000000
238.268190 29.000000
239.095860 41.000000
239.112560 20.000000
239.124820 25.000000
240.555650 40.000000
241.357960 33.000000
246.110990 20.000000
246.123200 18.000000
246.136630 33.000000
246.875470 25.000000
247.104320 27.000000
247.123260 18.000000
248.091080 56.000000
248.105260 17.000000
248.117130 33.000000
248.129520 32.000000
249.104030 102.000000
249.122190 46.000000
249.132890 26.000000
249.143510 18.000000
250.100190 28.000000
250.117940 137.000000
250.135450 33.000000
250.162980 34.000000
251.115200 21.000000
252.103760 57.000000
252.113160 39.000000
254.085310 18.000000
254.107360 49.000000
254.123670 100.000000
255.129460 21.000000
263.120880 42.000000
263.146910 28.000000
264.124450 66.000000
264.139400 130.000000
264.323820 18.000000
265.099880 20.000000
265.126220 192.000000
265.134160 450.000000
265.172060 242.000000
265.222020 21.000000
265.375270 17.000000
265.501830 23.000000
265.835360 22.000000
266.132230 65.000000
266.145140 76.000000
266.162480 22.000000
266.291110 20.000000
268.095670 31.000000
268.139400 20.000000
269.198580 31.000000
274.690980 24.000000
276.207120 17.000000
277.129090 20.000000
278.128690 27.000000
280.673250 20.000000
289.517940 27.000000
290.044220 25.000000
292.124390 21.000000
292.449950 28.000000
292.700230 24.000000
293.083710 26.000000
293.099950 62.000000
293.123350 264.000000
293.164920 28831.000000
293.213650 298.000000
293.251770 19.000000
293.294590 18.000000
293.319180 21.000000
293.465520 17.000000
293.489870 19.000000
293.658170 17.000000
293.984620 17.000000
294.120240 73.000000
294.139920 200.000000
294.168730 5090.000000
294.214570 38.000000
294.281190 22.000000
294.408260 18.000000
294.670750 20.000000
294.722560 21.000000
294.961240 28.000000
295.111660 17.000000
295.138210 89.000000
295.159730 228.000000
295.170290 536.000000
295.490540 18.000000
295.523130 18.000000
295.546840 18.000000
296.131930 22.000000
296.172360 48.000000
296.738280 19.000000
297.139160 24.000000
297.157680 17.000000
297.937350 20.000000
298.447570 18.000000
300.457670 30.000000
304.707550 22.000000
306.288360 19.000000
310.506990 21.000000
323.181610 30.000000
324.842740 17.000000
325.008970 21.000000
325.068940 65.000000
325.100950 17.000000
325.118470 220.000000
325.140750 302.000000
325.191040 24977.000000
325.242650 445.000000
325.298580 20.000000

