>compound PR50219239
>parentmass 357.1336
>ionization [M+H]+
>formula C20H20O6
>rt 465.000000
>profile qtof
#smiles_iso CC(=CCC1=C(C(=CC(=C1)C2CC(=O)C3=C(C=C(C=C3O2)O)O)O)O)C
#smiles_can CC(=CCC1=C(C(=CC(=C1)C2CC(=O)C3=C(C=C(C=C3O2)O)O)O)O)C
#inchikey SFQIGPZCFNTPOD-UHFFFAOYSA-N
#pubchem_id 11725803
#mb_accession PR310769

>ms2peaks
55.019540 21.000000
67.015140 30.000000
68.994650 20.000000
69.071810 20.000000
79.057560 22.000000
89.034650 20.000000
100.569080 20.000000
101.758960 20.000000
109.030620 37.000000
111.005030 23.000000
111.011540 17.000000
113.339210 17.000000
116.054240 27.000000
119.048640 16.000000
119.054790 68.000000
120.046710 18.000000
120.056840 18.000000
123.037650 20.000000
127.033650 55.000000
127.043320 26.000000
131.040180 18.000000
133.030090 17.000000
136.339260 20.000000
137.020980 37.000000
137.047500 20.000000
137.703280 17.000000
139.039900 18.000000
141.072920 18.000000
142.081530 19.000000
144.050990 26.000000
145.027760 18.000000
147.041140 98.000000
147.082320 26.000000
149.058260 40.000000
151.035860 24.000000
151.053600 20.000000
151.080950 17.000000
153.018540 1215.000000
153.043230 20.000000
154.005260 19.000000
154.019730 207.000000
155.629460 21.000000
156.052320 28.000000
161.047090 17.000000
161.057390 62.000000
163.038830 87.000000
163.048430 75.000000
163.075130 29.000000
165.059570 18.000000
166.076770 22.000000
167.035860 22.000000
167.088670 41.000000
168.042040 17.000000
168.054500 21.000000
170.063980 26.000000
171.044850 20.000000
171.081050 58.000000
173.060520 84.000000
174.068470 25.000000
175.039340 205.000000
175.084720 23.000000
176.041340 25.000000
176.051480 35.000000
177.217410 20.000000
179.013820 47.000000
179.033980 1490.000000
179.102390 59.000000
180.036210 88.000000
180.341780 40.000000
181.046770 37.000000
181.066450 38.000000
181.094010 20.000000
185.043560 22.000000
185.052200 46.000000
185.066960 68.000000
185.099290 17.000000
186.060870 17.000000
187.077680 23.000000
189.044830 18.000000
189.054730 92.000000
189.064010 35.000000
189.091280 18.000000
190.048600 39.000000
191.067500 23.000000
191.080960 20.000000
191.104900 19.000000
195.066830 54.000000
195.081710 100.000000
196.072980 22.000000
197.064940 37.000000
197.423890 25.000000
199.044400 22.000000
203.069950 20.000000
203.080350 17.000000
203.103580 31.000000
205.543760 21.000000
209.053360 24.000000
210.058260 18.000000
212.041920 21.000000
213.061110 86.000000
213.091460 71.000000
213.100170 36.000000
214.051820 19.000000
214.069180 18.000000
215.065780 73.000000
215.076400 24.000000
216.080400 27.000000
216.445250 22.000000
217.050260 19.000000
218.054860 31.000000
227.080460 20.000000
227.112630 17.000000
231.102310 144.000000
231.115650 45.000000
232.105000 17.000000
233.084640 20.000000
233.103450 17.000000
237.025090 21.000000
237.053160 233.000000
238.052990 20.000000
241.051500 107.000000
255.069690 206.000000
255.100190 23.000000
255.109830 20.000000
256.066740 68.000000
256.121730 18.000000
258.050200 17.000000
265.040920 34.000000
265.047760 64.000000
266.052000 18.000000
273.035640 24.000000
273.081090 26.000000
274.076260 19.000000
276.578920 31.000000
279.094210 20.000000
283.026920 51.000000
283.061830 1129.000000
283.103030 30.000000
284.044070 20.000000
284.067720 209.000000
285.046390 26.000000
289.072450 64.000000
290.076450 19.000000
290.873170 20.000000
299.045590 22.000000
300.051330 22.000000
300.061800 17.000000
301.063720 271.000000
301.095370 18.000000
301.730290 17.000000
302.071690 112.000000
315.091160 22.000000
317.084320 17.000000
339.112580 19.000000
339.157750 19.000000
355.161250 55.000000
356.103060 23.000000
356.231630 19.000000
357.104640 19.000000
357.133820 2898.000000
357.173220 44.000000

