>compound PR50250896
>parentmass 374.1086
>ionization [M+H]+
>formula C15H19NO10
>rt 210.000000
>profile qtof
#smiles_iso COC1=CC2=C(C=C1)N(C(=O)C(O2)OC3C(C(C(C(O3)CO)O)O)O)O
#smiles_can COC1=CC2=C(C=C1)N(C(=O)C(O2)OC3C(C(C(C(O3)CO)O)O)O)O
#inchikey WTGXAWKVZMQEDA-UHFFFAOYSA-N
#pubchem_id 4480305
#mb_accession PR311128

>ms2
85.026470 17.000000
85.031140 50.000000
95.047260 19.000000
95.051340 48.000000
107.037510 38.000000
108.022060 22.000000
110.051150 33.000000
110.059510 127.000000
110.066490 148.000000
111.319990 16.000000
120.048120 30.000000
121.054400 17.000000
122.052540 40.000000
122.060250 27.000000
123.050480 42.000000
135.030610 16.000000
137.053280 48.000000
138.053130 16.000000
139.067200 17.000000
149.049800 16.000000
151.022320 30.000000
151.031280 72.000000
154.047490 53.000000
163.921310 19.000000
166.034710 36.000000
166.051040 1430.000000
167.049820 60.000000
167.057400 82.000000
178.054790 17.000000
180.552960 26.000000
183.678090 21.000000
194.019530 19.000000
194.045500 2255.000000
195.018160 28.000000
195.050640 216.000000
195.061340 68.000000
196.057240 16.000000
206.199080 20.000000
208.072420 19.000000
211.052260 20.000000
212.031650 31.000000
212.056920 1677.000000
213.046140 17.000000
213.059890 112.000000
213.067490 102.000000
214.062810 58.000000
215.154100 16.000000

