>compound PR50901520
>parentmass 339.2067041538461
>ionization [M+H]+
>formula C21H26N2O2
>rt 254.267077
>profile qtof
#smiles_iso CC1C23CCCN4C2C5(C1(C(C3)C(=O)OC)NC6=CC=CC=C65)CC4
#smiles_can CC1C23CCCN4C2C5(C1(C(C3)C(=O)OC)NC6=CC=CC=C65)CC4
#inchikey CZLWGXKWXLVFJU-UHFFFAOYSA-N
#pubchem_id 580313
#mb_accession PR301353,PR301357,PR301361,PR301365,PR301369,PR301373,PR301377,PR301381,PR301385,PR301389,PR301393,PR301397,PR310592

>ms2
96.081840 121.000000
97.080630 14.000000
97.087550 12.000000
98.003230 7.000000
144.080720 6.000000
154.065860 11.000000
170.063720 11.000000
184.067290 6.000000
216.102290 12.000000
221.118000 7.000000
253.164760 6.000000
261.154970 11.000000
262.085110 6.000000
339.170650 27.000000
339.207060 1000.000000
339.245640 10.000000

>ms2
323.139250 6.000000
339.168210 19.000000
339.207610 1000.000000

>ms2
96.080580 510.000000
96.093620 6.000000
97.079640 34.000000
122.057480 6.000000
122.086620 7.000000
144.082240 6.000000
150.126130 6.000000
154.087510 9.000000
166.093350 10.000000
167.059490 5.000000
168.083020 11.000000
168.101970 6.000000
170.058620 15.000000
170.067350 8.000000
180.095540 5.000000
182.082580 5.000000
183.060390 6.000000
184.073910 6.000000
197.111880 6.000000
202.087110 23.000000
208.093730 5.000000
208.123440 6.000000
214.056690 6.000000
216.095310 19.000000
216.106780 5.000000
217.101290 17.000000
217.109340 16.000000
220.068370 7.000000
222.125850 16.000000
223.054600 6.000000
228.098590 34.000000
236.101620 7.000000
236.144500 6.000000
244.118090 6.000000
246.110090 5.000000
250.122470 7.000000
251.120560 6.000000
253.086470 9.000000
253.097310 8.000000
253.408630 7.000000
276.158230 7.000000
277.140140 10.000000
279.094060 7.000000
279.145840 7.000000
279.178250 8.000000
279.196440 5.000000
308.184230 6.000000
309.150730 10.000000
323.123200 6.000000
334.871610 8.000000
339.170230 12.000000
339.205410 1000.000000
339.241520 10.000000
339.263400 6.000000

>ms2
69.067680 18.000000
79.051880 27.000000
79.057000 19.000000
81.054630 16.000000
81.060210 19.000000
95.078030 25.000000
96.081410 1000.000000
97.085840 73.000000
109.064620 25.000000
117.057120 29.000000
120.080380 21.000000
122.095380 39.000000
124.109620 17.000000
129.075810 89.000000
130.064450 98.000000
131.059310 23.000000
132.307620 24.000000
140.050700 20.000000
141.023500 16.000000
142.067140 54.000000
143.075590 22.000000
151.053470 17.000000
152.066130 17.000000
155.071350 22.000000
156.077330 16.000000
156.085040 44.000000
166.058590 21.000000
167.063610 62.000000
167.073930 112.000000
168.058430 22.000000
168.084870 21.000000
169.072390 21.000000
169.083860 23.000000
170.057100 191.000000
170.069780 19.000000
171.064220 52.000000
171.429860 17.000000
178.065460 23.000000
178.076420 19.000000
179.066680 23.000000
179.077240 56.000000
180.051480 17.000000
180.080290 61.000000
181.082230 50.000000
182.084690 33.000000
182.096590 21.000000
183.081990 20.000000
183.088730 20.000000
192.089800 17.000000
193.053440 19.000000
193.090330 34.000000
194.096270 68.000000
196.109510 17.000000
204.085130 25.000000
206.081100 23.000000
206.094440 17.000000
208.101290 17.000000
208.111660 52.000000
209.080900 50.000000
209.095830 16.000000
209.113070 61.000000
209.125560 33.000000
210.130020 16.000000
211.127820 22.000000
214.983830 18.000000
216.096040 69.000000
219.107820 23.000000
220.115980 19.000000
221.113600 63.000000
222.097500 21.000000
222.137370 26.000000
223.084240 20.000000
223.094920 36.000000
235.100390 42.000000
236.127320 21.000000
244.427890 40.000000
245.075300 17.000000
248.480910 17.000000
249.098010 21.000000
249.116870 21.000000
252.136950 19.000000
260.099000 19.000000
261.109860 22.000000
263.114380 20.000000
274.122340 20.000000
312.138550 21.000000
339.205540 30.000000

>ms2
96.080790 99.000000
170.066300 5.000000
202.086910 7.000000
216.099870 24.000000
218.105740 7.000000
220.085650 8.000000
221.113360 7.000000
235.928190 7.000000
262.079410 7.000000
280.099580 10.000000
309.137790 6.000000
322.171360 5.000000
339.162480 7.000000
339.208220 1000.000000

>ms2
339.155120 6.000000
339.207730 1000.000000

>ms2
56.049630 7.000000
94.065900 6.000000
95.717480 5.000000
96.080440 442.000000
97.083570 30.000000
104.045940 7.000000
108.079730 6.000000
122.093770 6.000000
131.086960 6.000000
134.099430 5.000000
156.066480 5.000000
156.077700 13.000000
157.080860 5.000000
170.056870 41.000000
170.066730 13.000000
170.084920 6.000000
170.092330 9.000000
181.086140 5.000000
183.079300 6.000000
184.115630 14.000000
188.066250 7.000000
196.102680 5.000000
197.616790 5.000000
202.088750 53.000000
203.077530 6.000000
203.084960 5.000000
206.090910 7.000000
208.073180 10.000000
208.112320 10.000000
209.085680 5.000000
209.410020 5.000000
210.062210 7.000000
211.123000 10.000000
214.958590 8.000000
215.089460 7.000000
216.096980 31.000000
216.112210 9.000000
220.102860 5.000000
220.355440 10.000000
222.091030 9.000000
222.134140 5.000000
223.120240 12.000000
228.105160 7.000000
235.133470 8.000000
236.131840 9.000000
236.145490 11.000000
247.099840 8.000000
249.087550 5.000000
251.152860 10.000000
253.172650 21.000000
261.119930 5.000000
262.084410 5.000000
277.140260 5.000000
279.089420 5.000000
281.133300 8.000000
293.119600 6.000000
293.141820 6.000000
312.161740 6.000000
339.120450 11.000000
339.169890 10.000000
339.208650 1000.000000

>ms2
67.058980 20.000000
78.038650 49.000000
79.053170 57.000000
80.053580 21.000000
93.059610 37.000000
93.066720 25.000000
96.081160 1000.000000
96.427520 19.000000
97.084100 128.000000
98.097040 24.000000
103.057190 28.000000
106.066490 25.000000
108.076780 20.000000
108.084640 29.000000
110.100680 38.000000
115.047560 19.000000
115.057110 37.000000
115.541290 34.000000
117.060750 25.000000
119.070870 21.000000
120.084580 35.000000
124.115910 23.000000
128.044630 23.000000
128.053730 26.000000
129.058490 18.000000
130.065370 102.000000
140.051610 23.000000
142.065310 29.000000
142.783190 18.000000
143.068800 19.000000
154.051740 21.000000
154.067460 135.000000
156.084990 36.000000
157.088900 21.000000
166.077270 77.000000
167.076310 30.000000
168.073410 50.000000
168.089200 27.000000
169.074970 19.000000
170.055360 29.000000
170.062090 78.000000
170.072420 22.000000
170.094990 38.000000
170.131030 18.000000
171.064040 26.000000
180.085100 58.000000
181.073820 18.000000
181.090480 56.000000
182.099290 20.000000
183.082550 27.000000
183.092670 60.000000
184.071520 19.000000
191.088260 21.000000
192.085250 97.000000
193.080310 25.000000
194.058210 22.000000
195.104200 46.000000
196.095670 26.000000
199.806920 18.000000
204.081040 45.000000
205.095490 25.000000
205.108960 21.000000
206.082080 49.000000
206.923130 35.000000
208.087400 19.000000
211.098360 29.000000
211.133450 20.000000
214.084490 18.000000
217.097890 20.000000
219.095550 22.000000
219.111160 39.000000
220.094280 26.000000
221.074890 21.000000
221.105700 23.000000
221.117200 28.000000
223.110020 27.000000
223.124180 21.000000
233.115110 18.000000
234.125660 21.000000
237.141080 18.000000
246.119580 23.000000
251.150070 30.000000
260.102390 21.000000
261.098820 23.000000
272.133540 22.000000
277.135650 22.000000
289.170780 29.000000
339.215580 23.000000

>ms2
79.055470 9.000000
90.102530 7.000000
96.082470 67.000000
97.079020 6.000000
144.079330 10.000000
158.067550 7.000000
168.077120 7.000000
168.085190 10.000000
170.062940 24.000000
184.079450 6.000000
186.098430 5.000000
187.607890 7.000000
192.085860 5.000000
194.061020 5.000000
202.085680 6.000000
222.138370 9.000000
223.127730 7.000000
228.104710 7.000000
236.141540 6.000000
254.172230 5.000000
309.126220 7.000000
339.174320 7.000000
339.208680 1000.000000

>ms2
339.163600 12.000000
339.208340 1000.000000
339.249760 7.000000

>ms2
96.068260 6.000000
96.080410 494.000000
97.074640 5.000000
97.082520 17.000000
97.089610 11.000000
120.094150 5.000000
122.097430 6.000000
123.071320 6.000000
124.117370 10.000000
130.064930 6.000000
132.039400 9.000000
136.078920 7.000000
136.112140 6.000000
144.080150 6.000000
148.076550 8.000000
150.871870 6.000000
154.069410 5.000000
156.086040 17.000000
159.039020 6.000000
168.084870 22.000000
170.046110 8.000000
170.061050 49.000000
179.066350 5.000000
182.088460 8.000000
182.117480 6.000000
184.074310 6.000000
185.076680 7.000000
186.096310 7.000000
186.608030 6.000000
188.070940 17.000000
202.074160 8.000000
202.091280 39.000000
206.085420 7.000000
206.097690 18.000000
207.094220 11.000000
208.080340 7.000000
209.997850 8.000000
211.131940 15.000000
214.046040 8.000000
216.073380 8.000000
216.086210 5.000000
216.101010 31.000000
216.115020 8.000000
217.109180 7.000000
222.052280 7.000000
223.127780 5.000000
228.106630 13.000000
234.089610 32.000000
234.098450 12.000000
234.127590 6.000000
235.080460 5.000000
235.089890 6.000000
235.136750 6.000000
235.411510 6.000000
236.101430 5.000000
236.139270 6.000000
237.109310 5.000000
237.138640 8.000000
244.135510 5.000000
248.056750 5.000000
248.075350 7.000000
250.076750 6.000000
251.134350 5.000000
251.149150 5.000000
251.161850 8.000000
262.058110 9.000000
262.083010 18.000000
263.149780 10.000000
265.097750 6.000000
265.141570 5.000000
266.087010 6.000000
266.096980 6.000000
266.129640 6.000000
277.129000 10.000000
277.138490 9.000000
278.171910 8.000000
279.145840 5.000000
280.100710 7.000000
289.835510 10.000000
294.108060 6.000000
294.547640 5.000000
307.173000 6.000000
307.186370 6.000000
308.154420 7.000000
310.189180 8.000000
311.158230 8.000000
311.178590 10.000000
339.207060 1000.000000
339.267790 5.000000

>ms2
68.048210 24.000000
79.055150 48.000000
79.059250 25.000000
81.057120 54.000000
94.064350 43.000000
96.065040 39.000000
96.080730 1000.000000
96.963290 31.000000
97.086950 44.000000
105.068760 17.000000
106.078400 16.000000
110.102070 25.000000
117.061270 24.000000
117.069600 15.000000
124.110790 48.000000
128.053650 23.000000
130.061650 46.000000
130.072190 24.000000
133.093050 16.000000
136.114460 30.000000
140.053020 19.000000
142.064530 103.000000
144.072240 16.000000
144.086070 50.000000
154.060610 54.000000
154.066700 20.000000
155.079360 15.000000
156.081670 19.000000
164.063890 16.000000
166.061140 21.000000
166.073140 22.000000
167.054340 17.000000
167.070720 93.000000
167.087130 23.000000
168.082380 133.000000
170.045350 15.000000
170.058870 72.000000
170.072280 15.000000
171.067060 24.000000
179.066770 20.000000
180.087040 24.000000
181.075850 38.000000
181.098300 30.000000
182.079570 22.000000
182.094440 48.000000
183.084300 16.000000
184.056690 34.000000
184.076290 19.000000
189.079900 19.000000
191.066010 19.000000
191.075810 16.000000
192.080250 22.000000
192.087570 15.000000
193.086090 41.000000
194.058070 21.000000
194.096220 70.000000
195.084180 22.000000
195.108400 17.000000
196.055270 28.000000
196.070470 35.000000
204.090000 15.000000
205.087230 39.000000
207.088440 39.000000
207.103150 61.000000
208.102630 22.000000
208.120740 24.000000
210.093260 16.000000
211.133290 15.000000
218.110530 18.000000
220.089020 31.000000
220.107830 35.000000
221.107470 21.000000
222.115780 70.000000
222.137860 17.000000
223.119980 16.000000
224.139630 22.000000
224.737340 18.000000
234.086990 21.000000
235.122010 18.000000
237.135960 22.000000
246.096280 19.000000
249.095110 18.000000
249.143050 22.000000
263.149630 16.000000

>ms2
95.084200 18.000000
96.081840 782.000000
96.095040 17.000000
97.080630 89.000000
97.087550 78.000000
98.003230 44.000000
106.065500 27.000000
122.096190 24.000000
129.071840 23.000000
130.063370 20.000000
138.127300 20.000000
144.080720 41.000000
147.076750 20.000000
151.073680 26.000000
154.065860 73.000000
162.127230 18.000000
169.067030 29.000000
169.077130 21.000000
170.063720 74.000000
183.098950 21.000000
184.067290 36.000000
186.146850 17.000000
195.087940 17.000000
202.086030 21.000000
205.085100 24.000000
216.102290 77.000000
217.103530 29.000000
221.118000 44.000000
221.132490 30.000000
223.109730 18.000000
225.138530 17.000000
234.092760 17.000000
234.989000 19.000000
235.117430 25.000000
236.102870 20.000000
236.119870 17.000000
250.163730 26.000000
253.117570 19.000000
253.164760 36.000000
254.163530 21.000000
256.272920 18.000000
261.154970 72.000000
262.085110 38.000000
263.123870 19.000000
265.093570 18.000000
265.146180 17.000000
265.172580 17.000000
276.144040 21.000000
278.170040 25.000000
279.100070 18.000000
280.757110 18.000000
283.584750 17.000000
290.159390 24.000000
293.104100 21.000000
296.115080 21.000000
308.302430 18.000000
311.145390 18.000000
323.139980 20.000000
336.193150 30.000000
338.753050 17.000000
339.170650 173.000000
339.207060 6445.000000
339.245640 65.000000

