>compound PR50099463
>parentmass 616.3461
>ionization [M+H]+
>formula C27H54NO12P
>rt 583.200000
>profile qtof
#smiles_iso CCCCCCCCCCCCCCCC(=O)OC[C@H](COP(=O)(O)OCCNC1C(C(C(C(O1)CO)O)O)O)O
#smiles_can CCCCCCCCCCCCCCCC(=O)OCC(COP(=O)(O)OCCNC1C(C(C(C(O1)CO)O)O)O)O
#inchikey UISOORRILGPHLE-OEYVFKEPSA-N
#pubchem_id 139292086
#mb_accession PR310848

>ms2peaks
79.058400 16.000000
85.030400 20.000000
122.064360 64.000000
134.066560 20.000000
135.057790 19.000000
141.073390 19.000000
141.080760 29.000000
142.049840 33.000000
152.071410 20.000000
153.070100 16.000000
153.078640 25.000000
170.083890 34.000000
188.066880 16.000000
188.091370 128.000000
188.100020 42.000000
189.095600 35.000000
220.030700 22.000000
294.074160 17.000000
304.100040 21.000000
306.082760 23.000000
313.271000 395.000000
314.274720 97.000000
428.339840 24.000000
437.284060 47.000000
514.268430 45.000000
514.291750 36.000000
532.269040 16.000000
532.287960 33.000000
532.312930 102.000000
533.308410 16.000000
562.288760 38.000000
580.241580 20.000000
598.339840 157.000000
599.329350 32.000000
599.354430 16.000000
615.249390 39.000000
616.300110 34.000000
616.340520 761.000000
616.366700 167.000000

