>compound PR50333885
>parentmass 771.2342201833334
>ionization [M+H]+
>formula C34H42O20
>rt 287.239565
>profile qtof
#smiles_iso CC1C(C(C(C(O1)OC2C(C(OC(C2O)OCC3C(C(C(C(O3)OC4=C(OC5=CC(=CC(=C5C4=O)O)OC)C6=CC(=C(C=C6)O)O)O)O)O)C)O)O)O)O
#smiles_can CC1C(C(C(C(O1)OC2C(C(OC(C2O)OCC3C(C(C(C(O3)OC4=C(OC5=CC(=CC(=C5C4=O)O)OC)C6=CC(=C(C=C6)O)O)O)O)O)C)O)O)O)O
#inchikey NMGVHLDIHNFGQB-UHFFFAOYSA-N
#pubchem_id 56995003
#mb_accession PR302994,PR302999,PR303004,PR303009,PR303013,PR303018,PR303023,PR303028,PR303032,PR303037,PR303042,PR310473

>ms2peaks
85.025810 11.000000
113.056610 5.000000
117.055930 12.000000
127.040310 8.000000
129.054810 6.000000
130.052950 7.000000
147.055530 7.000000
147.064150 12.000000
153.048840 6.000000
163.055950 12.000000
163.064730 10.000000
255.082870 13.000000
275.122890 6.000000
317.033330 21.000000
317.065920 1000.000000
318.068150 200.000000
319.063960 11.000000
319.074710 26.000000
366.614750 5.000000
384.097750 6.000000
445.115630 9.000000
479.120330 157.000000
480.122590 41.000000
480.139800 12.000000
481.116610 10.000000
609.194760 6.000000
625.161250 9.000000
625.186890 54.000000
626.169310 11.000000
771.237850 329.000000

>ms2peaks
67.567110 7.000000
275.124570 5.000000
293.112270 6.000000
293.128080 7.000000
309.114650 5.000000
317.031770 6.000000
317.066890 449.000000
318.072510 71.000000
319.079590 11.000000
365.104060 5.000000
379.525180 8.000000
443.100010 5.000000
463.123900 33.000000
479.066130 7.000000
479.085170 15.000000
479.116640 193.000000
480.077420 7.000000
480.127810 44.000000
481.081450 5.000000
488.471010 9.000000
537.140930 6.000000
580.099790 8.000000
589.165410 7.000000
609.182560 12.000000
614.375240 6.000000
617.233760 7.000000
625.009640 5.000000
625.128600 7.000000
625.178650 149.000000
626.091980 5.000000
626.124510 6.000000
626.169190 9.000000
626.194090 42.000000
627.179320 25.000000
627.215640 10.000000
771.018070 6.000000
771.112300 11.000000
771.173520 49.000000
771.238530 1000.000000

>ms2peaks
71.048240 12.000000
85.027470 13.000000
85.036000 7.000000
113.057110 6.000000
117.052190 5.000000
127.038130 8.000000
129.056840 41.000000
139.166630 5.000000
147.058910 8.000000
153.058000 7.000000
163.062260 30.000000
164.053680 7.000000
212.115330 6.000000
213.082870 9.000000
221.080150 7.000000
255.081470 6.000000
316.996460 6.000000
317.012910 8.000000
317.027860 27.000000
317.067570 1000.000000
318.042270 16.000000
318.068940 161.000000
319.075070 7.000000
359.072240 10.000000
463.109010 6.000000
464.136110 5.000000
479.118100 23.000000

>ms2peaks
69.034380 9.000000
71.047230 10.000000
83.048830 9.000000
85.014070 8.000000
85.028470 49.000000
91.036770 7.000000
99.045240 9.000000
117.048750 6.000000
117.052500 14.000000
122.029830 7.000000
125.023070 8.000000
127.038360 10.000000
129.057040 22.000000
130.061600 13.000000
137.062580 9.000000
149.052110 8.000000
151.035840 5.000000
167.041050 6.000000
179.028440 14.000000
179.038390 12.000000
179.961400 6.000000
183.109790 7.000000
212.051670 7.000000
216.294170 6.000000
243.057050 6.000000
243.070300 9.000000
257.043240 7.000000
299.050480 9.000000
302.033970 7.000000
317.037540 33.000000
317.066440 1000.000000
317.096370 8.000000
318.060670 166.000000
318.078920 60.000000
319.065190 11.000000
319.081330 10.000000
320.079560 11.000000
355.100310 8.000000

>ms2peaks
71.051970 6.000000
85.029370 15.000000
113.059070 14.000000
129.055600 9.000000
147.064390 16.000000
163.043700 5.000000
163.061520 20.000000
165.072270 5.000000
201.511580 6.000000
239.068590 5.000000
275.110500 7.000000
309.131470 6.000000
313.411470 8.000000
316.993160 6.000000
317.033020 16.000000
317.065860 1000.000000
318.069270 154.000000
318.101140 7.000000
319.045590 5.000000
319.062470 9.000000
319.073850 16.000000
321.068790 5.000000
401.142490 7.000000
427.103880 6.000000
463.114260 9.000000
463.131160 16.000000
464.130680 18.000000
479.118440 133.000000
480.096310 7.000000
480.119200 16.000000
480.147190 8.000000
481.122960 10.000000
505.122410 5.000000
609.168820 5.000000
609.181520 12.000000
610.173400 7.000000
625.151860 14.000000
625.184270 44.000000
626.172240 10.000000
627.189390 6.000000
771.187380 13.000000
771.234990 192.000000

>ms2peaks
275.119050 5.000000
309.127990 7.000000
317.018800 10.000000
317.066130 499.000000
317.186830 8.000000
318.059510 24.000000
318.074190 57.000000
319.058290 10.000000
319.078550 8.000000
320.070860 11.000000
359.065400 8.000000
359.082980 6.000000
386.930880 6.000000
463.097530 8.000000
463.116760 8.000000
479.084350 14.000000
479.117280 237.000000
480.121520 78.000000
481.103760 16.000000
481.122130 9.000000
482.132230 7.000000
609.150270 12.000000
609.176090 30.000000
625.125670 11.000000
625.153930 43.000000
625.176940 75.000000
625.198490 33.000000
626.180240 44.000000
627.155580 8.000000
627.180300 9.000000
629.175050 5.000000
771.065610 7.000000
771.108400 17.000000
771.152590 11.000000
771.234800 1000.000000

>ms2peaks
85.031470 10.000000
99.040970 7.000000
117.056030 6.000000
129.056840 52.000000
147.067200 5.000000
163.053890 23.000000
163.062290 15.000000
213.077410 9.000000
317.018980 11.000000
317.064820 1000.000000
318.042210 24.000000
318.069980 180.000000
319.061890 27.000000
319.081210 12.000000
381.143340 5.000000
383.074340 10.000000
444.534300 6.000000
463.115630 10.000000
469.749910 6.000000
643.134030 6.000000

>ms2peaks
73.023960 7.000000
83.047390 19.000000
85.024210 11.000000
85.029920 35.000000
85.037090 6.000000
91.043300 6.000000
101.065380 7.000000
111.043270 12.000000
117.055190 19.000000
129.057510 14.000000
145.043870 5.000000
149.072070 6.000000
151.037920 6.000000
163.062190 6.000000
215.063400 10.000000
243.075090 6.000000
271.059510 12.000000
307.351990 5.000000
317.008240 9.000000
317.024440 14.000000
317.064580 1000.000000
318.045750 10.000000
318.067870 82.000000
318.087130 31.000000
319.069030 26.000000
319.091770 11.000000
340.369540 6.000000
356.083070 5.000000
382.100650 6.000000
408.312320 5.000000

>ms2peaks
85.027300 13.000000
129.055980 24.000000
147.072890 7.000000
163.049090 12.000000
163.062450 16.000000
239.096600 7.000000
291.102170 5.000000
293.133420 7.000000
316.981900 7.000000
317.030180 21.000000
317.065980 1000.000000
317.114780 7.000000
318.031770 7.000000
318.050720 27.000000
318.072810 200.000000
319.073940 29.000000
319.082950 8.000000
320.079410 6.000000
359.075650 5.000000
383.056460 9.000000
427.079010 6.000000
463.105010 7.000000
463.126860 9.000000
479.079990 6.000000
479.116060 120.000000
480.092350 9.000000
480.118530 28.000000
480.138980 6.000000
609.206790 7.000000
625.180420 42.000000
626.178770 10.000000
627.156740 8.000000
771.201290 19.000000
771.242070 157.000000

>ms2peaks
147.060710 7.000000
213.079190 7.000000
275.108280 6.000000
293.129000 6.000000
294.132870 5.000000
302.078740 5.000000
317.032040 11.000000
317.064510 438.000000
317.097720 7.000000
318.052030 10.000000
318.072240 106.000000
425.074490 8.000000
432.917020 8.000000
456.172820 6.000000
463.105740 9.000000
463.118230 20.000000
479.095520 22.000000
479.120300 247.000000
479.138090 61.000000
480.118380 67.000000
480.143490 17.000000
480.174590 6.000000
481.123200 14.000000
557.061950 9.000000
609.171810 29.000000
609.200200 9.000000
610.164370 7.000000
611.179630 5.000000
625.170040 115.000000
625.219970 10.000000
626.148440 8.000000
626.184020 44.000000
627.157780 8.000000
771.235170 1000.000000

>ms2peaks
57.032150 5.000000
86.025880 5.000000
111.042930 14.000000
127.042210 8.000000
129.054380 34.000000
130.053440 5.000000
147.066940 6.000000
147.075530 5.000000
163.057650 29.000000
213.067520 7.000000
240.093020 5.000000
275.117550 9.000000
316.767240 9.000000
317.019100 8.000000
317.066220 1000.000000
318.066710 198.000000
319.059910 21.000000
319.069610 16.000000
319.087550 9.000000
410.126620 6.000000
463.114650 7.000000
463.136990 9.000000
479.129760 6.000000
643.160950 7.000000

>ms2peaks
71.047400 31.000000
84.771930 18.000000
85.020490 29.000000
85.025810 79.000000
113.056610 37.000000
117.055930 83.000000
127.040310 54.000000
129.054810 45.000000
130.052950 52.000000
145.044950 17.000000
147.055530 49.000000
147.064150 87.000000
147.128190 21.000000
153.048840 43.000000
153.053480 25.000000
157.048290 25.000000
159.069430 35.000000
163.055950 87.000000
163.064730 71.000000
172.072430 23.000000
177.038250 28.000000
189.070240 18.000000
191.981510 24.000000
197.038640 34.000000
212.691090 22.000000
240.107710 32.000000
241.578090 21.000000
255.082870 89.000000
257.110410 18.000000
258.109680 19.000000
275.122890 40.000000
309.122740 34.000000
315.352720 18.000000
316.991300 17.000000
317.006130 25.000000
317.033330 150.000000
317.065920 7034.000000
318.000920 17.000000
318.026400 21.000000
318.068150 1404.000000
319.063960 76.000000
319.074710 180.000000
320.058590 21.000000
320.072940 24.000000
345.086300 27.000000
357.062470 21.000000
366.614750 36.000000
384.097750 41.000000
388.011110 17.000000
411.976960 17.000000
433.767000 24.000000
445.115630 63.000000
461.115840 35.000000
463.110930 21.000000
463.128480 21.000000
464.101900 20.000000
470.289950 20.000000
479.027160 27.000000
479.060970 20.000000
479.076660 32.000000
479.120330 1106.000000
480.122590 285.000000
480.139800 83.000000
481.116610 68.000000
504.163210 23.000000
505.152800 30.000000
510.218380 22.000000
607.156860 26.000000
609.194760 40.000000
609.213870 17.000000
612.167910 24.000000
625.161250 65.000000
625.186890 378.000000
625.293640 25.000000
626.169310 76.000000
626.210510 17.000000
627.193790 22.000000
771.131710 33.000000
771.237850 2316.000000

