>compound PR50540830
>parentmass 609.1813967999999
>ionization [M+H]+
>formula C28H32O15
>rt 268.389000
>profile qtof
#smiles_iso C[C@H]1[C@@H]([C@H]([C@H]([C@@H](O1)OC2[C@H]([C@@H]([C@H](OC2OC3=CC(=C4C(=C3)OC(=CC4=O)C5=CC(=C(C=C5)OC)O)O)CO)O)O)O)O)O
#smiles_can CC1C(C(C(C(O1)OC2C(C(C(OC2OC3=CC(=C4C(=C3)OC(=CC4=O)C5=CC(=C(C=C5)OC)O)O)CO)O)O)O)O)O
#inchikey VCCNKWWXYVWTLT-LOYITBPBSA-N
#pubchem_id 24721278
#mb_accession PR302624,PR302630,PR302636,PR302642,PR302648,PR302654,PR302660,PR302666,PR302672,PR302678,PR302684,PR302690

>ms2
286.048070 53.000000
287.055540 7.000000
301.007080 10.000000
301.033200 10.000000
301.071170 1000.000000
302.074800 209.000000
303.073360 32.000000
463.118100 7.000000
463.132510 6.000000
609.182430 431.000000

>ms2
301.045590 5.000000
301.070680 145.000000
302.071560 20.000000
302.085820 6.000000
463.121370 9.000000
609.126220 38.000000
609.181880 1000.000000

>ms2
286.039490 9.000000
301.070830 1000.000000
302.067440 85.000000
302.082920 97.000000
303.047640 6.000000
303.062770 6.000000
303.076540 14.000000
304.077850 5.000000

>ms2
153.009840 7.000000
153.021610 7.000000
198.855450 7.000000
258.037540 20.000000
258.052150 121.000000
258.067810 19.000000
259.052310 15.000000
259.074830 8.000000
286.047640 819.000000
286.810520 5.000000
286.824160 6.000000
287.047120 71.000000
287.057830 68.000000
288.050660 12.000000
288.062530 22.000000
301.022710 6.000000
301.044980 38.000000
301.070920 1000.000000
301.096710 5.000000
302.074740 174.000000
302.088780 29.000000
303.080290 33.000000
303.098630 6.000000

>ms2
286.032100 5.000000
286.045930 15.000000
286.057620 10.000000
287.062190 6.000000
301.034420 12.000000
301.071110 1000.000000
302.074650 214.000000
303.062010 7.000000
303.080870 36.000000
463.111450 6.000000
463.133330 8.000000
609.128360 9.000000
609.179750 430.000000

>ms2
301.068820 128.000000
302.070830 15.000000
463.122530 14.000000
609.090450 8.000000
609.119200 19.000000
609.181210 1000.000000

>ms2
286.046780 5.000000
286.057010 9.000000
301.016880 8.000000
301.033870 8.000000
301.071350 1000.000000
302.075870 191.000000
303.074220 8.000000
303.086460 6.000000

>ms2
85.029570 8.000000
113.021370 5.000000
153.019870 18.000000
258.031740 13.000000
258.052520 108.000000
259.053740 38.000000
264.048370 5.000000
286.003170 14.000000
286.049070 1000.000000
287.049960 164.000000
288.049500 5.000000
301.021090 7.000000
301.071990 929.000000
301.114470 6.000000
302.047060 10.000000
302.075040 161.000000
303.075500 18.000000
303.086270 21.000000

>ms2
286.016910 6.000000
286.033630 5.000000
286.049500 33.000000
286.062190 8.000000
287.055180 9.000000
301.024110 7.000000
301.037780 9.000000
301.070920 1000.000000
302.047760 5.000000
302.076900 162.000000
303.067930 17.000000
303.081270 15.000000
463.131930 14.000000
609.183290 340.000000

>ms2
301.040410 7.000000
301.073120 149.000000
302.073000 23.000000
302.082150 7.000000
609.114620 21.000000
609.182920 1000.000000

>ms2
286.052580 7.000000
301.031250 15.000000
301.070500 1000.000000
302.045990 5.000000
302.073520 189.000000
303.076810 16.000000
609.164060 10.000000
609.192570 10.000000

>ms2
153.016970 11.000000
255.237950 5.000000
258.052370 176.000000
259.041290 9.000000
259.052830 19.000000
259.062810 12.000000
260.054960 8.000000
273.071900 6.000000
286.004430 12.000000
286.046810 879.000000
287.022090 5.000000
287.047760 136.000000
287.076020 7.000000
288.038820 11.000000
288.051700 62.000000
288.068210 7.000000
301.017670 12.000000
301.069060 1000.000000
302.071410 170.000000
302.095280 18.000000
303.052830 5.000000
303.073270 27.000000
303.085140 6.000000
304.065730 6.000000
609.160220 10.000000
609.190250 23.000000

