>compound PR51569562
>parentmass 595.1446173000002
>ionization [M+H]+
>formula C30H26O13
>rt 312.559020
>profile qtof
#smiles_iso C1=CC(=CC=C1/C=C/C(=O)OC[C@@H]2[C@H]([C@@H]([C@H]([C@@H](O2)OC3=C(OC4=CC(=CC(=C4C3=O)O)O)C5=CC=C(C=C5)O)O)O)O)O
#smiles_can C1=CC(=CC=C1C=CC(=O)OCC2C(C(C(C(O2)OC3=C(OC4=CC(=CC(=C4C3=O)O)O)C5=CC=C(C=C5)O)O)O)O)O
#inchikey DVGGLGXQSFURLP-VWMSDXGPSA-N
#pubchem_id 5320686
#mb_accession PR302861,PR302867,PR302873,PR302879,PR302885,PR302891,PR302897,PR302903,PR302909,PR302915,PR302921,PR302927

>ms2
109.027520 6.000000
120.046300 6.000000
127.039230 7.000000
146.970490 6.000000
147.012050 14.000000
147.042530 1000.000000
147.094060 8.000000
148.044770 108.000000
148.057590 8.000000
150.474330 7.000000
157.209700 5.000000
165.048780 87.000000
165.059740 31.000000
166.052470 10.000000
166.057950 17.000000
287.010620 13.000000
287.042240 100.000000
287.054930 330.000000
288.038880 7.000000
288.058010 85.000000
291.072480 28.000000
291.086180 83.000000
292.092830 25.000000
293.092530 8.000000
309.093260 203.000000
309.105440 47.000000
310.087650 13.000000
310.097290 41.000000
311.105900 8.000000
329.048310 6.000000
431.094330 8.000000
595.144100 172.000000

>ms2
141.492190 7.000000
142.071260 8.000000
147.021710 15.000000
147.044020 588.000000
148.045180 40.000000
149.046680 6.000000
165.054600 158.000000
166.053860 7.000000
237.082280 7.000000
259.941410 5.000000
287.055020 239.000000
287.075990 13.000000
288.029390 7.000000
288.063510 35.000000
289.061340 13.000000
291.081050 25.000000
291.094670 68.000000
292.095950 6.000000
309.054690 5.000000
309.073880 38.000000
309.096950 608.000000
310.076260 9.000000
310.099730 146.000000
310.115170 23.000000
311.104030 14.000000
324.187350 6.000000
329.031250 8.000000
329.050290 14.000000
351.366180 6.000000
368.979610 5.000000
380.745330 5.000000
400.890260 10.000000
468.171630 10.000000
577.115780 7.000000
594.948730 6.000000
595.071040 6.000000
595.150270 1000.000000

>ms2
58.944550 6.000000
63.029840 6.000000
65.456380 10.000000
72.238250 7.000000
81.036680 8.000000
85.028980 5.000000
109.030390 25.000000
119.052550 21.000000
127.033970 11.000000
147.012760 6.000000
147.023560 19.000000
147.043730 1000.000000
147.822970 5.000000
148.049100 91.000000
150.057830 7.000000
165.047200 17.000000
165.057920 56.000000
203.063720 5.000000
249.080980 5.000000
271.015990 5.000000
287.024780 5.000000
287.056820 319.000000
288.049220 20.000000
288.059330 25.000000
288.072170 8.000000
289.055390 5.000000
291.065610 18.000000
291.086850 69.000000
291.105470 6.000000
292.087860 6.000000
292.104550 24.000000
294.091890 8.000000
309.093410 23.000000
329.054350 5.000000
395.105960 10.000000
487.581210 5.000000
503.146000 8.000000
562.959350 6.000000

>ms2
69.033820 8.000000
81.034100 28.000000
85.031970 6.000000
91.053010 21.000000
118.215780 9.000000
119.048330 201.000000
120.052580 17.000000
120.066020 8.000000
121.011920 7.000000
121.029700 8.000000
128.766270 6.000000
130.232470 9.000000
146.065950 8.000000
146.969330 7.000000
147.043810 1000.000000
148.047040 50.000000
149.499820 5.000000
150.044080 8.000000
153.013780 6.000000
186.068650 6.000000
204.033260 9.000000
213.048870 14.000000
213.065610 16.000000
255.066960 5.000000
258.055360 5.000000
259.371310 7.000000
287.039790 43.000000
287.058470 217.000000
288.067900 72.000000
290.055910 7.000000
330.067140 6.000000
371.740750 7.000000

>ms2
64.231710 7.000000
97.025070 8.000000
99.044210 5.000000
107.152950 6.000000
109.026710 5.000000
119.048450 25.000000
127.037100 11.000000
146.993990 8.000000
147.012220 9.000000
147.022490 9.000000
147.044270 1000.000000
148.031620 8.000000
148.042680 63.000000
148.052840 28.000000
165.045150 17.000000
165.056660 61.000000
166.059100 13.000000
177.050990 6.000000
192.161450 6.000000
239.451920 5.000000
245.633580 6.000000
287.012600 7.000000
287.033690 18.000000
287.054170 292.000000
288.064210 53.000000
290.800230 5.000000
291.060820 8.000000
291.080690 39.000000
291.093630 52.000000
292.080320 6.000000
293.086060 10.000000
309.039000 6.000000
309.096620 158.000000
309.125640 11.000000
310.066830 8.000000
310.100100 13.000000
329.051850 5.000000
329.068700 15.000000
330.072450 5.000000
595.143490 146.000000
595.159480 46.000000

>ms2
63.233510 8.000000
68.668590 8.000000
97.033910 8.000000
126.360800 5.000000
147.015470 5.000000
147.021870 18.000000
147.043670 536.000000
147.351390 6.000000
147.510820 5.000000
148.039660 10.000000
148.049770 14.000000
148.058930 7.000000
148.444200 5.000000
149.029310 11.000000
165.055730 115.000000
166.059860 14.000000
239.109560 11.000000
287.047520 174.000000
287.058990 138.000000
288.045620 5.000000
288.059940 46.000000
289.046780 7.000000
289.056610 20.000000
291.078860 30.000000
292.091580 8.000000
308.726470 5.000000
309.066310 31.000000
309.091460 301.000000
309.102940 323.000000
309.124970 15.000000
309.324280 5.000000
310.100190 89.000000
310.126190 7.000000
311.100250 29.000000
311.110930 18.000000
312.111940 10.000000
329.062680 7.000000
330.065090 5.000000
340.067990 8.000000
376.504270 5.000000
380.028410 8.000000
431.110350 8.000000
470.161500 8.000000
530.946530 9.000000
595.045230 10.000000
595.073670 20.000000
595.104250 79.000000
595.146910 1000.000000
595.199710 19.000000

>ms2
59.193970 5.000000
69.035770 5.000000
71.052330 6.000000
99.045840 6.000000
109.026570 20.000000
109.032960 5.000000
119.051030 10.000000
147.020450 5.000000
147.044040 1000.000000
147.252320 7.000000
148.046050 45.000000
148.052190 22.000000
165.055440 44.000000
287.017240 5.000000
287.054810 281.000000
288.041230 8.000000
288.062810 58.000000
289.052860 6.000000
291.065730 7.000000
291.089420 52.000000
292.052250 5.000000
310.530550 5.000000
329.081760 11.000000

>ms2
58.925200 6.000000
59.167320 14.000000
59.221150 6.000000
62.848340 6.000000
64.432440 7.000000
69.027390 11.000000
77.041630 8.000000
81.034770 13.000000
82.039850 20.000000
85.025440 7.000000
91.058780 10.000000
95.395420 7.000000
95.443280 5.000000
96.859270 8.000000
97.030340 21.000000
102.022000 6.000000
106.631640 6.000000
109.028760 14.000000
111.010830 6.000000
118.987540 13.000000
119.031530 15.000000
119.048780 193.000000
119.061650 9.000000
120.040850 6.000000
120.053350 12.000000
120.060440 10.000000
144.217620 6.000000
146.784730 8.000000
147.002900 7.000000
147.022050 16.000000
147.043880 1000.000000
148.040220 19.000000
148.049100 70.000000
148.141740 7.000000
149.042050 13.000000
153.011460 25.000000
153.019910 9.000000
155.595440 7.000000
164.638140 9.000000
165.018050 14.000000
165.024890 7.000000
165.053700 6.000000
165.119370 7.000000
165.811170 7.000000
165.846120 6.000000
171.045580 7.000000
189.050520 8.000000
201.060410 7.000000
204.706210 10.000000
211.216930 5.000000
214.061100 7.000000
241.051390 7.000000
258.033720 8.000000
258.046570 9.000000
287.004330 9.000000
287.029880 24.000000
287.060420 295.000000
287.951900 9.000000
288.021120 6.000000
288.057920 37.000000
291.092470 9.000000
310.105190 5.000000
354.725340 5.000000
436.152310 7.000000
595.105960 7.000000
595.139100 32.000000
595.160830 13.000000

>ms2
61.726230 5.000000
106.880990 6.000000
109.023580 7.000000
109.508610 7.000000
119.047070 11.000000
147.043200 1000.000000
148.045240 78.000000
148.051030 26.000000
149.044820 11.000000
165.050660 70.000000
165.060560 35.000000
166.046520 6.000000
166.055470 8.000000
287.051700 273.000000
287.066280 81.000000
288.037870 24.000000
288.067320 11.000000
289.052700 15.000000
289.069890 12.000000
291.085630 76.000000
291.894290 8.000000
292.095830 6.000000
293.084660 11.000000
309.091520 127.000000
309.102910 58.000000
310.093480 36.000000
310.113490 5.000000
311.103520 11.000000
329.068020 13.000000
344.999150 7.000000
383.396910 8.000000
402.838530 7.000000
595.080320 8.000000
595.140560 119.000000
595.169430 23.000000

>ms2
58.974810 5.000000
94.479280 6.000000
113.560040 5.000000
147.021510 5.000000
147.036250 128.000000
147.043720 449.000000
147.901140 8.000000
148.052760 20.000000
151.849610 8.000000
165.037510 6.000000
165.055210 102.000000
165.489970 9.000000
166.057530 12.000000
179.055420 6.000000
205.385100 12.000000
214.632720 7.000000
287.023130 10.000000
287.055850 246.000000
288.050230 21.000000
288.067110 17.000000
291.062810 10.000000
291.086180 32.000000
292.091280 10.000000
293.103210 6.000000
308.591640 7.000000
309.046780 9.000000
309.069490 26.000000
309.096890 633.000000
310.093840 40.000000
310.102970 104.000000
311.103640 12.000000
318.377660 12.000000
329.080900 8.000000
395.093570 8.000000
421.710140 7.000000
423.132450 9.000000
435.612090 9.000000
445.375150 10.000000
475.097170 13.000000
532.790040 6.000000
563.941160 7.000000
577.095760 7.000000
577.117740 5.000000
594.086360 8.000000
594.541380 5.000000
595.056150 9.000000
595.076480 7.000000
595.147090 1000.000000
595.203670 8.000000

>ms2
81.034230 6.000000
97.028750 7.000000
127.040020 12.000000
147.012500 14.000000
147.023540 12.000000
147.043990 1000.000000
148.034180 14.000000
148.044390 94.000000
148.054050 23.000000
148.061830 6.000000
149.011900 5.000000
149.054470 8.000000
165.054140 45.000000
242.285740 5.000000
266.691310 8.000000
287.055480 271.000000
288.046690 31.000000
288.066620 21.000000
289.086550 6.000000
291.088130 87.000000
292.085540 6.000000
309.097630 7.000000
353.082890 6.000000
396.078400 6.000000

>ms2
81.035440 9.000000
91.049350 7.000000
92.054870 6.000000
98.998340 8.000000
109.018900 11.000000
109.025280 6.000000
110.030400 8.000000
114.663700 5.000000
119.034320 6.000000
119.045270 100.000000
119.052090 128.000000
120.048060 17.000000
120.056150 20.000000
135.041900 7.000000
136.519780 6.000000
137.026340 9.000000
146.904880 9.000000
147.003860 6.000000
147.022080 8.000000
147.031170 56.000000
147.044570 1000.000000
148.035690 13.000000
148.044880 103.000000
148.052720 61.000000
148.336460 5.000000
153.004430 6.000000
153.015730 16.000000
153.261350 5.000000
157.054090 6.000000
165.017990 10.000000
165.243420 9.000000
165.630460 6.000000
169.065520 9.000000
197.046620 10.000000
223.974490 7.000000
231.076890 5.000000
241.050640 29.000000
258.049740 9.000000
260.155000 8.000000
270.024630 10.000000
284.057980 9.000000
285.036960 9.000000
287.018740 14.000000
287.055150 307.000000
288.051850 38.000000
288.065670 38.000000
289.057800 7.000000
289.293820 5.000000
299.045930 10.000000
339.234530 12.000000
353.066860 7.000000
595.137270 14.000000

