>compound PR51311540
>parentmass 203.13975
>ionization [M+H]+
>formula C9H18N2O3
>rt 145.200000
>profile qtof
#smiles_iso CC(C)CC(C(=O)O)NC(=O)C(C)N
#smiles_can CC(C)CC(C(=O)O)NC(=O)C(C)N
#inchikey RDIKFPRVLJLMER-UHFFFAOYSA-N
#pubchem_id 259583
#mb_accession PR311067,PR311068

>ms2peaks
86.099920 51.000000
132.097900 48.000000
157.054730 55.000000
157.134220 17.000000
166.093030 20.000000
203.139880 98.000000

>ms2peaks
72.085220 21.000000
86.095520 60.000000
95.050350 21.000000
132.101910 176.000000
132.111860 20.000000
133.111940 20.000000
157.124940 71.000000
157.133670 17.000000
186.951420 27.000000
197.133760 18.000000
203.135190 221.000000
203.143950 66.000000

