>compound PR51752493
>parentmass 595.1657467000001
>ionization [M+H]+
>formula C27H30O15
>rt 249.070980
>profile qtof
#smiles_iso C[C@H]1[C@@H]([C@H]([C@H]([C@@H](O1)O[C@H]2[C@@H]([C@H](O[C@H]([C@@H]2O)OC3=C(OC4=CC(=CC(=C4C3=O)O)O)C5=CC=C(C=C5)O)CO)O)O)O)O
#smiles_can CC1C(C(C(C(O1)OC2C(C(OC(C2O)OC3=C(OC4=CC(=CC(=C4C3=O)O)O)C5=CC=C(C=C5)O)CO)O)O)O)O
#inchikey YFPYXTNSQOUHPS-NIILUQFKSA-N
#pubchem_id 23815431
#mb_accession PR302993,PR302998,PR303003,PR303008,PR303012,PR303017,PR303022,PR303027,PR303031,PR303036,PR303041,PR303046

>ms2
71.054760 10.000000
85.031280 17.000000
111.903410 5.000000
127.037040 7.000000
129.051350 40.000000
145.052320 9.000000
147.061710 15.000000
164.465260 6.000000
165.078980 7.000000
280.258970 6.000000
286.976260 6.000000
287.017520 16.000000
287.054900 1000.000000
287.068330 227.000000
288.043850 36.000000
288.060520 89.000000
289.049930 15.000000
289.070920 17.000000
329.060460 5.000000
425.656460 11.000000
433.104190 17.000000
449.090480 64.000000
449.127500 34.000000
450.093870 10.000000
450.116910 21.000000
450.142760 9.000000
517.049320 7.000000
595.099300 15.000000
595.146480 39.000000
595.168400 87.000000

>ms2
147.065550 21.000000
156.883740 9.000000
255.090620 8.000000
273.092530 11.000000
273.103120 8.000000
286.973450 8.000000
286.995570 11.000000
287.021300 8.000000
287.056820 636.000000
288.009060 7.000000
288.052030 50.000000
290.017150 11.000000
290.067260 13.000000
293.008760 10.000000
337.663480 8.000000
433.117310 50.000000
435.000550 8.000000
448.656160 12.000000
449.105130 417.000000
450.086210 33.000000
450.104520 67.000000
450.135500 11.000000
451.104830 14.000000
451.120510 21.000000
451.173250 9.000000
474.119600 7.000000
566.277830 10.000000
594.222900 22.000000
595.118710 21.000000
595.167180 1000.000000
595.218690 11.000000

>ms2
71.051130 13.000000
71.054010 5.000000
85.016660 8.000000
85.029010 86.000000
86.031550 7.000000
89.026960 6.000000
96.466340 6.000000
99.046800 16.000000
127.037710 8.000000
129.052370 12.000000
129.059360 16.000000
139.043300 12.000000
147.065280 8.000000
186.410160 5.000000
214.009320 12.000000
225.067350 8.000000
255.084810 6.000000
286.996920 8.000000
287.016360 28.000000
287.054720 1000.000000
287.093930 9.000000
287.627720 5.000000
288.004090 6.000000
288.062260 191.000000
289.058620 20.000000
299.048920 12.000000
299.062770 8.000000
353.069310 7.000000
380.064880 6.000000
449.081850 9.000000

>ms2
71.045770 13.000000
71.051370 26.000000
85.028620 121.000000
99.039640 13.000000
111.005890 21.000000
111.044560 13.000000
121.025120 62.000000
127.033840 42.000000
129.050540 12.000000
135.432300 11.000000
153.018110 27.000000
157.059170 12.000000
165.022670 17.000000
178.572080 10.000000
213.029600 10.000000
218.666640 26.000000
231.070890 14.000000
241.038890 25.000000
242.057160 12.000000
286.972960 11.000000
287.021060 15.000000
287.046720 271.000000
287.058990 1000.000000
287.313780 10.000000
288.038850 10.000000
288.055880 30.000000
288.068330 34.000000
288.383910 15.000000
289.049740 36.000000
289.081450 66.000000
297.537990 14.000000
329.066960 12.000000

>ms2
71.044400 6.000000
85.007780 6.000000
85.022710 19.000000
85.026700 14.000000
85.033330 11.000000
121.615660 5.000000
127.032910 6.000000
129.034240 6.000000
129.055910 33.000000
145.047160 17.000000
147.053120 9.000000
186.531950 7.000000
234.444810 8.000000
286.996310 15.000000
287.012330 8.000000
287.056370 1000.000000
287.086910 7.000000
288.057250 141.000000
289.053920 13.000000
289.064090 17.000000
291.876400 5.000000
299.056730 10.000000
329.055450 7.000000
415.143490 7.000000
431.087800 5.000000
433.104000 6.000000
434.124940 7.000000
449.090670 35.000000
449.111940 45.000000
449.128170 18.000000
449.991060 5.000000
450.088780 5.000000
450.113830 28.000000
595.150820 58.000000
595.174380 67.000000

>ms2
129.050990 9.000000
147.062190 17.000000
225.083970 13.000000
229.072480 14.000000
255.086360 15.000000
285.648740 8.000000
287.021000 8.000000
287.029360 18.000000
287.054600 823.000000
288.047760 12.000000
288.064640 32.000000
288.074920 25.000000
289.066220 24.000000
297.528690 9.000000
309.108860 15.000000
383.726230 15.000000
433.105290 61.000000
434.118290 14.000000
434.130340 20.000000
449.037380 30.000000
449.090820 175.000000
449.112790 243.000000
449.125610 107.000000
450.085480 8.000000
450.106900 50.000000
450.120880 63.000000
451.077120 15.000000
451.119200 29.000000
456.404790 9.000000
486.718020 10.000000
595.038020 18.000000
595.166440 1000.000000
595.214050 18.000000

>ms2
71.050770 19.000000
85.030410 29.000000
86.034280 6.000000
127.049320 6.000000
129.040880 7.000000
129.049290 9.000000
129.056340 10.000000
145.042280 8.000000
163.068180 7.000000
179.016430 9.000000
181.025340 9.000000
182.834750 6.000000
219.768280 8.000000
286.232030 6.000000
287.021300 8.000000
287.055690 1000.000000
287.958890 8.000000
288.059360 235.000000
289.039550 9.000000
289.053380 19.000000
289.070650 7.000000
299.049770 8.000000
329.061400 7.000000
353.082150 6.000000
377.025730 13.000000

>ms2
69.029860 22.000000
71.047590 23.000000
85.027240 19.000000
110.034080 14.000000
116.251460 15.000000
119.054410 20.000000
121.027500 40.000000
123.010150 12.000000
127.043250 21.000000
146.075130 18.000000
147.048570 13.000000
164.999940 17.000000
165.012180 64.000000
201.052840 14.000000
213.054780 17.000000
231.082550 18.000000
258.064880 34.000000
287.028870 54.000000
287.055270 1000.000000
287.086360 38.000000
287.986150 12.000000
288.046720 23.000000
288.065220 228.000000
289.055420 23.000000
289.078980 19.000000
353.086300 21.000000
362.448790 11.000000

>ms2
85.007610 6.000000
85.028850 11.000000
129.054670 18.000000
129.060240 9.000000
130.061750 9.000000
145.050350 7.000000
147.060580 21.000000
157.727800 5.000000
188.036390 7.000000
225.075120 8.000000
238.330060 13.000000
265.840580 5.000000
287.006200 9.000000
287.027190 20.000000
287.054320 1000.000000
288.037690 10.000000
288.055730 107.000000
288.067930 40.000000
289.045780 6.000000
289.058110 39.000000
289.065670 17.000000
407.382780 5.000000
433.126100 6.000000
433.964140 6.000000
434.096950 9.000000
449.055240 5.000000
449.105680 122.000000
450.093230 8.000000
450.111820 38.000000
457.133820 7.000000
556.165220 6.000000
595.122680 6.000000
595.158330 35.000000
595.178590 52.000000

>ms2
86.027530 13.000000
129.050860 11.000000
129.057660 16.000000
145.038240 13.000000
148.064240 14.000000
167.831670 11.000000
286.965120 10.000000
286.981870 12.000000
287.004820 15.000000
287.021450 10.000000
287.055020 1000.000000
288.048610 115.000000
288.062290 126.000000
288.078890 29.000000
289.069430 10.000000
309.117490 8.000000
329.054410 13.000000
382.637420 12.000000
384.284520 13.000000
386.352050 17.000000
433.086910 11.000000
433.104030 38.000000
433.126310 51.000000
442.979460 8.000000
448.901980 9.000000
449.033600 11.000000
449.078370 54.000000
449.102600 433.000000
449.119750 156.000000
450.057340 11.000000
450.106870 52.000000
450.124110 42.000000
451.126620 27.000000
460.094510 10.000000
594.998350 18.000000
595.073970 17.000000
595.095030 41.000000
595.150630 525.000000
595.175780 548.000000

>ms2
59.094980 5.000000
71.045660 5.000000
71.051500 9.000000
85.023940 8.000000
85.030510 21.000000
129.050400 11.000000
129.057710 55.000000
146.049580 9.000000
147.065600 9.000000
148.071550 10.000000
179.080050 7.000000
189.108000 6.000000
215.426510 6.000000
264.927120 12.000000
285.194030 5.000000
287.011540 23.000000
287.055630 1000.000000
288.032530 11.000000
288.055080 48.000000
288.068360 101.000000
289.059140 29.000000
290.056700 7.000000
299.063570 5.000000
330.078950 7.000000
570.007690 6.000000

>ms2
71.043880 31.000000
71.050710 16.000000
83.049190 13.000000
85.021770 45.000000
86.032400 15.000000
107.051060 34.000000
112.010800 23.000000
121.024820 30.000000
127.028610 18.000000
137.026900 12.000000
157.061600 14.000000
161.056850 13.000000
165.027830 23.000000
167.075210 20.000000
173.065000 25.000000
185.053600 24.000000
185.063920 17.000000
203.030320 13.000000
223.048080 13.000000
231.068050 17.000000
241.043170 13.000000
258.052310 10.000000
259.058500 28.000000
287.015930 31.000000
287.035580 119.000000
287.057830 1000.000000
288.051210 104.000000
288.067540 69.000000
288.075710 47.000000
289.063450 35.000000
290.632750 11.000000
299.048610 20.000000

