>compound PR51850706
>parentmass 773.4241
>ionization [M-H2O+H]+
>formula C39H66O16
>rt 281.400000
>profile qtof
#smiles_iso CC1C2C(CC3C2(CCC4C3CCC5(C4(CC(C(C5)OC6C(C(C(C(O6)CO)O)O)O)O)C)O)C)OC1(CCC(C)COC7C(C(C(C(O7)CO)O)O)O)O
#smiles_can CC1C2C(CC3C2(CCC4C3CCC5(C4(CC(C(C5)OC6C(C(C(C(O6)CO)O)O)O)O)C)O)C)OC1(CCC(C)COC7C(C(C(C(O7)CO)O)O)O)O
#inchikey URCCSSSNMZAVQK-UHFFFAOYSA-N
#pubchem_id 72982328
#mb_accession PR310702

>ms2
115.079900 18.000000
225.167830 17.000000
251.165120 54.000000
251.175140 27.000000
252.171710 17.000000
253.183110 30.000000
269.191250 20.000000
270.189730 16.000000
271.197240 18.000000
287.209900 27.000000
352.836210 18.000000
379.330750 18.000000
395.277980 18.000000
413.306060 17.000000
431.201480 17.000000
431.239560 16.000000
450.317290 18.000000
507.206300 23.000000
577.355410 33.000000
611.389950 33.000000
612.362300 20.000000
613.395570 17.000000
744.567200 24.000000
773.395630 18.000000
773.431210 157.000000

