>compound PR52202692
>parentmass 342.1349
>ionization [M+H]+
>formula C19H19NO5
>rt 262.800000
>profile qtof
#smiles_iso COC1=C(C=CC(=C1)/C=C/C(=O)N/C=C/C2=CC(=C(C=C2)O)OC)O
#smiles_can COC1=C(C=CC(=C1)C=CC(=O)NC=CC2=CC(=C(C=C2)O)OC)O
#inchikey IQGMDSXKRPLDBE-CPSCNVPRSA-N
#pubchem_id 139291895
#mb_accession PR311022

>ms2peaks
87.883180 21.000000
89.038200 25.000000
144.094860 22.000000
145.032620 60.000000
147.074750 25.000000
149.055740 20.000000
177.033650 25.000000
177.055310 120.000000
216.984950 18.000000
218.083510 18.000000
342.135500 35.000000

