>compound PR52061047
>parentmass 152.0712
>ionization [M+H]+
>formula C8H9NO2
>rt 120.000000
>profile qtof
#smiles_iso C1=CC=C(C=C1)C(C(=O)O)N
#smiles_can C1=CC=C(C=C1)C(C(=O)O)N
#inchikey ZGUNAGUHMKGQNY-UHFFFAOYSA-N
#pubchem_id 3866
#mb_accession PR311154

>ms2peaks
95.051260 38.000000
106.065700 241.000000
113.961060 17.000000
124.080870 16.000000
134.060960 87.000000
135.044940 16.000000
137.081570 18.000000
151.072800 21.000000
152.066850 79.000000
152.078250 16.000000

