>compound PR52518772
>parentmass 581.1864820166666
>ionization [M+H]+
>formula C27H32O14
>rt 262.647870
>profile qtof
#smiles_iso CC1C(C(C(C(O1)OC2C(C(C(OC2OC3=CC(=C4C(=O)CC(OC4=C3)C5=CC=C(C=C5)O)O)CO)O)O)O)O)O
#smiles_can CC1C(C(C(C(O1)OC2C(C(C(OC2OC3=CC(=C4C(=O)CC(OC4=C3)C5=CC=C(C=C5)O)O)CO)O)O)O)O)O
#inchikey DFPMSGMNTNDNHN-UHFFFAOYSA-N
#pubchem_id 4441
#mb_accession PR303709,PR303712,PR303715,PR303720,PR303723,PR303726,PR303729,PR303732,PR303735,PR303738,PR303741,PR310487

>ms2peaks
71.048800 18.000000
85.028340 39.000000
127.040920 9.000000
129.054820 88.000000
130.052780 8.000000
130.059540 12.000000
133.261320 12.000000
137.057570 25.000000
147.040130 24.000000
147.060030 8.000000
147.069980 9.000000
148.048140 10.000000
153.016650 121.000000
153.027210 42.000000
154.014340 12.000000
165.013870 10.000000
195.013720 9.000000
195.032320 113.000000
195.044510 12.000000
196.030380 20.000000
205.007350 12.000000
219.015500 40.000000
219.030870 20.000000
219.049220 18.000000
231.040310 19.000000
231.082870 9.000000
232.024520 12.000000
235.066560 19.000000
237.031020 9.000000
243.027020 13.000000
243.067660 10.000000
244.044720 12.000000
245.040040 8.000000
245.049800 10.000000
249.045070 9.000000
261.017150 10.000000
261.030180 11.000000
261.043300 11.000000
263.054960 21.000000
271.060700 130.000000
272.041750 24.000000
272.067410 49.000000
273.048400 9.000000
273.075500 1000.000000
274.075900 170.000000
274.092500 18.000000
281.054930 8.000000
281.070560 13.000000
282.055880 12.000000
282.233150 10.000000
285.086330 8.000000
286.075380 20.000000
297.059570 10.000000
297.074950 8.000000
301.488950 8.000000
309.121700 13.000000
315.086300 103.000000
315.101780 20.000000
316.087400 8.000000
316.098020 10.000000
339.076930 10.000000
339.095700 10.000000
365.085910 9.000000
366.071010 11.000000
369.095790 10.000000
373.082210 10.000000
381.088870 22.000000
381.106350 35.000000
382.103330 12.000000
382.856990 14.000000
383.110470 25.000000
384.117980 9.000000
399.099790 20.000000
401.105500 10.000000
401.123540 73.000000
417.110750 25.000000
417.125640 11.000000
417.774930 10.000000
418.138520 39.000000
419.054320 9.000000
419.089480 10.000000
419.127620 228.000000
420.134190 13.000000
420.144200 28.000000
425.117890 10.000000
435.133610 148.000000
435.340000 16.000000
436.128390 10.000000
436.142300 13.000000
437.125370 16.000000
437.150270 21.000000
441.095400 10.000000
443.139310 8.000000
459.138340 9.000000
461.143160 21.000000
498.141270 9.000000
528.165410 8.000000
545.144960 8.000000
545.160100 11.000000
545.187810 9.000000
546.167790 8.000000
564.175540 8.000000
565.182010 8.000000
566.183040 9.000000
579.190860 9.000000
580.173520 62.000000
581.152220 9.000000
581.187320 90.000000

>ms2peaks
85.027440 8.000000
111.047940 9.000000
129.055330 20.000000
145.047740 8.000000
147.067060 45.000000
196.751160 9.000000
226.812440 8.000000
244.156250 7.000000
255.089610 9.000000
262.847260 16.000000
271.063750 16.000000
272.962460 7.000000
273.040160 14.000000
273.076840 644.000000
274.072300 24.000000
274.095120 10.000000
275.088990 8.000000
281.052760 8.000000
281.071500 10.000000
297.071750 7.000000
309.113680 19.000000
309.126310 16.000000
315.078980 45.000000
315.091090 53.000000
316.086090 7.000000
316.095730 17.000000
332.524780 9.000000
339.065950 10.000000
339.090940 7.000000
351.596920 12.000000
358.825130 10.000000
360.781250 7.000000
363.626430 10.000000
370.466060 7.000000
372.294590 12.000000
381.103850 7.000000
383.123540 14.000000
384.115940 8.000000
384.128360 14.000000
401.085080 7.000000
401.129150 65.000000
402.125150 57.000000
411.910890 7.000000
417.105990 21.000000
417.122500 68.000000
417.770810 10.000000
418.114870 15.000000
418.147000 11.000000
419.093440 7.000000
419.135530 534.000000
419.195070 12.000000
420.135800 132.000000
420.189640 16.000000
421.112300 12.000000
421.134250 8.000000
422.139340 7.000000
431.641020 12.000000
435.096410 7.000000
435.131470 173.000000
436.121670 75.000000
436.145260 6.000000
437.136840 7.000000
437.162320 8.000000
443.136660 13.000000
459.146510 10.000000
461.121770 7.000000
461.147460 25.000000
462.150940 16.000000
478.118470 8.000000
485.137820 8.000000
491.896760 8.000000
497.150540 8.000000
509.145420 13.000000
515.927490 8.000000
522.276120 9.000000
545.167660 52.000000
545.194400 9.000000
546.179570 14.000000
547.188960 19.000000
548.155210 7.000000
563.146970 8.000000
563.181210 48.000000
564.159910 8.000000
565.188660 33.000000
579.154110 9.000000
579.168520 18.000000
579.205200 7.000000
580.170040 55.000000
580.197200 11.000000
581.104250 7.000000
581.186160 1000.000000

>ms2peaks
71.049370 29.000000
72.052250 9.000000
83.042760 11.000000
85.003320 11.000000
85.024530 39.000000
85.029040 125.000000
99.044650 13.000000
129.055980 104.000000
130.061840 10.000000
147.043240 10.000000
147.062040 10.000000
147.068280 10.000000
148.066570 31.000000
149.020230 11.000000
151.031630 10.000000
152.853850 13.000000
153.013990 94.000000
153.021160 96.000000
179.034610 12.000000
179.041170 10.000000
184.830570 10.000000
195.006390 11.000000
195.028920 101.000000
196.031400 10.000000
196.048460 10.000000
204.643050 9.000000
205.018570 11.000000
219.030230 66.000000
220.029830 10.000000
227.035630 10.000000
238.038450 9.000000
245.051880 52.000000
246.027440 13.000000
261.023740 9.000000
261.033110 20.000000
261.047580 37.000000
263.020260 19.000000
263.054470 29.000000
263.063390 43.000000
264.057190 12.000000
267.975310 15.000000
271.018920 10.000000
271.060670 261.000000
272.056460 61.000000
272.065340 119.000000
273.049410 12.000000
273.076690 1000.000000
273.101230 16.000000
273.707430 9.000000
274.068480 31.000000
274.077880 95.000000
275.077060 9.000000
275.096950 18.000000
279.050990 12.000000
281.059720 25.000000
282.061580 14.000000
283.386690 9.000000
285.024260 10.000000
285.076170 51.000000
286.071900 12.000000
286.093410 13.000000
287.038670 9.000000
287.054960 9.000000
291.050110 10.000000
297.060970 19.000000
297.083470 32.000000
298.080840 19.000000
299.080660 12.000000
304.053220 10.000000
304.254210 21.000000
304.822200 17.000000
311.060460 11.000000
315.047880 10.000000
315.081700 39.000000
329.063200 25.000000
339.037200 13.000000
339.076110 17.000000
339.095180 21.000000
340.101720 10.000000
341.102170 9.000000
351.071990 9.000000
351.097110 52.000000
352.092380 10.000000
353.095670 12.000000
359.080720 10.000000
365.097260 35.000000
369.102810 10.000000
371.080440 11.000000
376.733280 13.000000
383.102870 28.000000
383.122560 12.000000
383.135310 10.000000
395.106720 10.000000
407.113950 9.000000
408.102510 14.000000
412.101780 10.000000
417.120540 24.000000
419.129210 24.000000
431.125030 9.000000
435.110230 9.000000

>ms2peaks
55.967240 15.000000
57.034460 16.000000
69.028670 8.000000
69.033160 8.000000
71.046230 21.000000
71.051970 19.000000
72.055530 11.000000
85.020870 9.000000
85.026680 20.000000
85.355070 9.000000
86.031460 8.000000
91.037000 17.000000
114.641520 8.000000
119.043460 8.000000
123.041940 8.000000
127.034640 15.000000
127.042150 8.000000
129.052750 82.000000
129.064650 26.000000
132.060500 8.000000
147.030090 9.000000
147.040180 40.000000
147.070040 51.000000
148.069980 8.000000
153.018890 134.000000
154.019670 19.000000
167.031540 9.000000
177.000960 11.000000
177.011980 8.000000
177.025510 14.000000
179.005570 12.000000
189.055970 8.000000
195.027050 90.000000
196.026900 22.000000
201.078290 8.000000
215.026930 11.000000
215.083050 13.000000
217.399400 8.000000
219.030700 44.000000
222.971340 9.000000
226.877270 8.000000
229.892900 11.000000
245.036790 17.000000
245.047490 26.000000
249.094300 11.000000
255.957150 12.000000
261.031890 9.000000
261.040010 8.000000
263.002750 9.000000
263.050630 39.000000
263.060700 19.000000
264.053220 8.000000
271.060970 127.000000
271.076570 8.000000
272.072970 15.000000
273.028200 8.000000
273.074040 1000.000000
274.046050 8.000000
274.077420 63.000000
274.089050 52.000000
274.398350 16.000000
275.064000 10.000000
275.089480 16.000000
275.582760 8.000000
276.026250 11.000000
280.057430 8.000000
281.067110 20.000000
281.080050 8.000000
285.071410 20.000000
285.093570 12.000000
286.084690 25.000000
287.059080 10.000000
287.439120 9.000000
291.048100 9.000000
297.063630 28.000000
297.084050 31.000000
298.067350 10.000000
315.077790 40.000000
315.089230 38.000000
316.100740 29.000000
317.075960 25.000000
327.078250 12.000000
338.996860 8.000000
339.069550 16.000000
339.084870 31.000000
340.079070 11.000000
341.074070 9.000000
342.622530 8.000000
351.078090 30.000000
362.160460 9.000000
365.095000 24.000000
366.089690 12.000000
367.099760 13.000000
369.098020 15.000000
381.095950 29.000000
382.106930 19.000000
383.094970 12.000000
383.118040 64.000000
384.109590 8.000000
384.134950 8.000000
391.094880 9.000000
395.124080 9.000000
399.090000 9.000000
399.130650 11.000000
399.924930 9.000000
400.121550 8.000000
401.109440 30.000000
401.125270 43.000000
401.142180 45.000000
402.135500 16.000000
413.128940 9.000000
417.112490 63.000000
417.127590 35.000000
417.146850 8.000000
418.152920 10.000000
419.068050 8.000000
419.134980 209.000000
420.125370 15.000000
420.154170 25.000000
421.147000 15.000000
429.126980 8.000000
435.109920 15.000000
435.130280 95.000000
435.147370 29.000000
436.119050 12.000000
436.147830 38.000000
437.154970 8.000000
437.273500 9.000000
443.126370 8.000000
444.139800 10.000000
459.119900 8.000000
459.148010 22.000000
461.130650 9.000000
480.981660 8.000000
510.137820 10.000000
527.118100 10.000000
527.169250 8.000000
528.151430 9.000000
545.171140 11.000000
546.163390 8.000000
547.180850 8.000000
563.182800 16.000000
579.185850 40.000000
580.176390 16.000000
580.193910 18.000000
581.139160 20.000000
581.172180 38.000000
581.206670 116.000000

>ms2peaks
85.025200 17.000000
129.051330 15.000000
129.059950 15.000000
147.055920 7.000000
147.061460 8.000000
147.071150 11.000000
148.065370 7.000000
187.625760 7.000000
210.712840 9.000000
232.758130 6.000000
255.081910 7.000000
263.059360 6.000000
271.052400 15.000000
271.067170 18.000000
273.074620 470.000000
273.083710 150.000000
273.104550 7.000000
273.144380 6.000000
274.076540 111.000000
275.075260 8.000000
276.606260 9.000000
279.188630 7.000000
285.091130 10.000000
294.801880 7.000000
298.073150 7.000000
304.294310 8.000000
309.116670 7.000000
315.082860 51.000000
327.731230 8.000000
339.070530 6.000000
339.090700 20.000000
339.104890 7.000000
341.074680 9.000000
356.756620 12.000000
381.114500 9.000000
383.116580 43.000000
399.086460 7.000000
400.091490 8.000000
401.125920 112.000000
401.704860 7.000000
402.102630 15.000000
402.119960 7.000000
417.117070 112.000000
417.131130 68.000000
418.126010 23.000000
419.130920 473.000000
420.089690 8.000000
420.139160 154.000000
420.180690 12.000000
421.128940 16.000000
421.151460 13.000000
425.103610 8.000000
429.113010 6.000000
430.099520 9.000000
435.127560 343.000000
435.146120 56.000000
436.133910 67.000000
437.143100 27.000000
443.120850 7.000000
452.986660 7.000000
459.120970 9.000000
460.127620 7.000000
460.153380 10.000000
461.148130 38.000000
481.195800 10.000000
497.125820 6.000000
497.158940 7.000000
527.130370 7.000000
527.450810 8.000000
529.175900 7.000000
541.778200 10.000000
545.174620 20.000000
546.144040 7.000000
563.158080 10.000000
563.174620 27.000000
563.201660 27.000000
564.174070 9.000000
567.864930 6.000000
579.115840 8.000000
579.173770 49.000000
579.199710 6.000000
580.168820 66.000000
580.186400 38.000000
581.117130 7.000000
581.184750 1000.000000

>ms2peaks
57.034140 8.000000
71.049790 7.000000
71.053550 8.000000
72.046570 10.000000
72.051520 10.000000
73.031860 10.000000
85.028640 83.000000
85.040700 9.000000
86.029140 11.000000
87.048650 10.000000
97.032540 9.000000
107.049760 7.000000
111.041090 7.000000
123.049530 7.000000
129.052220 114.000000
135.037320 8.000000
135.050640 8.000000
145.050220 7.000000
147.039290 17.000000
147.058440 15.000000
147.065770 21.000000
153.019500 222.000000
154.022570 32.000000
155.019680 7.000000
165.021390 25.000000
166.021120 8.000000
171.069980 8.000000
177.056210 7.000000
178.051540 8.000000
179.037960 7.000000
193.018940 8.000000
195.028750 190.000000
196.027220 7.000000
196.033520 21.000000
203.035100 8.000000
219.029160 96.000000
231.024000 23.000000
233.050640 8.000000
243.033230 7.000000
243.042040 12.000000
244.032440 10.000000
245.028580 8.000000
245.044130 19.000000
245.057400 22.000000
258.342930 8.000000
260.119110 10.000000
261.047240 10.000000
263.046840 17.000000
263.060730 33.000000
264.057830 9.000000
271.059510 180.000000
272.048030 19.000000
272.059810 56.000000
272.072970 38.000000
273.046910 17.000000
273.075130 1000.000000
274.054230 10.000000
274.074620 105.000000
274.089870 28.000000
275.060910 9.000000
275.075530 22.000000
279.035190 9.000000
279.938110 8.000000
281.065580 7.000000
281.082790 10.000000
285.071720 88.000000
285.083160 22.000000
286.085970 9.000000
297.046910 11.000000
297.074920 16.000000
297.085850 9.000000
298.072940 7.000000
305.063480 7.000000
309.062650 7.000000
315.070070 11.000000
315.084410 32.000000
315.098820 8.000000
316.039700 10.000000
316.088560 7.000000
325.063570 8.000000
329.067690 10.000000
335.088470 11.000000
339.038730 8.000000
339.074310 42.000000
339.093510 36.000000
340.071440 9.000000
340.090550 9.000000
351.086180 38.000000
351.097350 11.000000
352.098540 19.000000
353.059880 7.000000
363.078250 11.000000
363.097560 8.000000
365.094880 31.000000
366.078800 8.000000
369.198210 8.000000
381.094730 7.000000
382.107270 10.000000
383.107640 51.000000
389.070070 8.000000
394.099670 8.000000
400.117100 7.000000
417.117950 9.000000
419.138820 7.000000
423.099000 10.000000
429.109010 16.000000
435.135560 7.000000

>ms2peaks
67.013440 36.000000
68.991870 13.000000
69.034000 17.000000
70.039400 23.000000
71.046510 81.000000
71.051670 18.000000
75.036960 17.000000
85.023720 79.000000
85.030570 67.000000
85.034710 16.000000
86.033840 16.000000
91.055790 14.000000
93.585590 16.000000
111.006260 14.000000
119.048430 21.000000
119.054820 12.000000
120.033460 17.000000
122.029660 30.000000
123.046910 18.000000
129.056440 23.000000
135.041110 14.000000
135.049990 16.000000
136.052570 17.000000
147.037640 153.000000
147.045620 294.000000
152.987880 16.000000
153.017760 1000.000000
153.121990 13.000000
153.464720 14.000000
154.017550 66.000000
154.028000 27.000000
162.033890 16.000000
163.040210 18.000000
164.951810 13.000000
165.016450 126.000000
173.032640 19.000000
174.218960 13.000000
177.020800 36.000000
189.025180 17.000000
190.023100 14.000000
190.982620 18.000000
191.036510 33.000000
195.022540 87.000000
195.033600 156.000000
203.029070 39.000000
205.008770 22.000000
205.049990 15.000000
214.060500 15.000000
215.067210 15.000000
216.076970 16.000000
217.049800 17.000000
218.916610 13.000000
219.019900 13.000000
219.031560 29.000000
227.053850 23.000000
231.010540 14.000000
231.027360 92.000000
231.064440 39.000000
233.045360 28.000000
237.041260 14.000000
243.036070 17.000000
245.046950 49.000000
247.061070 14.000000
251.051850 15.000000
262.050510 19.000000
263.051360 16.000000
271.045780 13.000000
271.063660 113.000000
272.043850 17.000000
272.058230 36.000000
272.071560 36.000000
273.050320 16.000000
273.076600 170.000000
273.089600 36.000000
274.075130 35.000000
275.076690 15.000000
283.061610 29.000000
285.060060 15.000000
297.077330 15.000000
309.074340 14.000000
313.067900 14.000000
323.087980 23.000000
339.078640 13.000000
534.696590 20.000000

>ms2peaks
71.043410 12.000000
71.048580 27.000000
72.055160 13.000000
85.018000 9.000000
85.029300 45.000000
85.035990 18.000000
89.779980 15.000000
102.021240 12.000000
115.037980 9.000000
121.070080 10.000000
129.054350 67.000000
129.495250 10.000000
136.439770 7.000000
147.043060 47.000000
147.061780 27.000000
147.073790 10.000000
152.984300 8.000000
153.004930 23.000000
153.012180 69.000000
153.019200 39.000000
153.025910 16.000000
154.021470 16.000000
156.001420 8.000000
163.056840 7.000000
165.012040 9.000000
175.005200 8.000000
179.037990 12.000000
192.200580 7.000000
193.044780 9.000000
195.023610 40.000000
195.037480 10.000000
196.026550 7.000000
202.962950 7.000000
203.036060 8.000000
215.067720 7.000000
219.026000 9.000000
219.034880 12.000000
231.030580 11.000000
244.259260 9.000000
245.043110 9.000000
245.082120 9.000000
246.043780 10.000000
261.039890 24.000000
263.052060 46.000000
271.055510 74.000000
272.052890 15.000000
272.063960 25.000000
272.986300 10.000000
273.051120 15.000000
273.075260 1000.000000
274.028900 9.000000
274.074680 59.000000
274.085300 115.000000
274.098080 24.000000
274.224180 11.000000
275.094120 10.000000
276.908290 8.000000
285.072910 31.000000
285.088960 15.000000
286.081760 8.000000
297.064180 18.000000
298.075680 9.000000
299.074490 7.000000
306.067020 10.000000
315.084930 97.000000
316.091580 31.000000
316.262240 9.000000
333.525180 8.000000
339.075680 21.000000
339.095430 30.000000
351.083950 9.000000
351.096710 11.000000
365.101960 8.000000
381.088590 18.000000
383.091770 7.000000
383.115840 15.000000
384.121830 7.000000
389.086980 7.000000
399.097720 11.000000
399.111510 18.000000
399.128910 7.000000
400.118100 10.000000
401.113710 33.000000
401.134700 9.000000
402.143370 15.000000
403.125670 9.000000
417.073670 8.000000
417.114500 18.000000
418.114170 9.000000
419.072660 11.000000
419.134670 96.000000
420.109500 18.000000
420.127780 19.000000
420.146760 37.000000
421.146700 16.000000
421.161250 9.000000
425.083470 8.000000
425.896240 8.000000
429.101900 7.000000
435.126920 58.000000
435.143590 37.000000
436.090420 8.000000
436.107540 9.000000
436.130710 9.000000
436.157560 13.000000
437.143800 11.000000
459.102690 9.000000
459.137450 8.000000
461.138280 8.000000
461.172970 8.000000
462.150360 7.000000
477.139190 9.000000
483.128110 9.000000
527.178830 7.000000
545.162540 29.000000
563.150760 8.000000
563.176210 9.000000
564.149900 9.000000
564.198730 8.000000
575.243590 18.000000
579.176150 15.000000
580.215390 9.000000
581.180660 172.000000

>ms2peaks
85.025120 12.000000
85.029780 11.000000
93.856360 14.000000
119.093340 14.000000
129.047470 9.000000
129.057620 27.000000
130.060670 9.000000
163.057140 11.000000
243.800780 12.000000
255.101960 11.000000
267.117340 10.000000
271.051180 34.000000
271.064940 9.000000
272.062710 11.000000
272.072570 13.000000
273.032500 11.000000
273.052830 9.000000
273.077670 705.000000
273.102480 10.000000
274.010530 10.000000
274.077670 58.000000
281.077550 9.000000
283.763280 9.000000
289.764950 10.000000
297.078640 13.000000
305.051210 10.000000
309.117310 12.000000
310.111660 11.000000
313.078220 18.000000
315.080600 58.000000
315.099550 49.000000
316.081790 11.000000
339.096830 10.000000
340.092470 9.000000
383.104250 31.000000
383.123780 35.000000
384.112520 18.000000
400.862520 10.000000
401.109010 11.000000
401.126590 45.000000
401.174770 10.000000
402.121250 9.000000
402.153500 19.000000
407.118040 9.000000
417.118100 154.000000
417.143430 10.000000
418.102910 10.000000
418.890690 11.000000
419.075130 9.000000
419.091520 23.000000
419.135160 752.000000
419.565980 15.000000
420.114620 27.000000
420.139830 176.000000
421.130370 59.000000
425.056980 12.000000
428.460330 11.000000
429.112790 12.000000
435.077270 11.000000
435.104030 34.000000
435.129940 398.000000
436.082890 10.000000
436.132020 41.000000
437.123290 11.000000
449.124050 9.000000
459.095120 10.000000
459.130800 57.000000
460.150880 24.000000
461.146910 20.000000
461.166690 10.000000
462.148990 13.000000
462.168790 19.000000
477.149600 10.000000
481.074370 11.000000
483.140930 10.000000
496.632140 12.000000
528.142700 19.000000
546.157230 13.000000
546.196410 16.000000
563.134770 30.000000
563.187440 22.000000
564.057370 11.000000
564.169310 20.000000
579.166020 104.000000
580.171690 145.000000
580.196040 38.000000
581.114260 11.000000
581.188230 1000.000000

>ms2peaks
71.046410 33.000000
71.051210 21.000000
72.047550 8.000000
83.046070 12.000000
85.029150 123.000000
110.030490 11.000000
127.043050 13.000000
129.054210 81.000000
147.042630 38.000000
147.065380 18.000000
152.999800 10.000000
153.013950 37.000000
153.019560 118.000000
165.016220 18.000000
165.025480 9.000000
169.332640 9.000000
171.061390 11.000000
176.154500 8.000000
177.017240 9.000000
178.455520 13.000000
179.023120 10.000000
191.003920 10.000000
195.015340 24.000000
195.029500 142.000000
197.032960 8.000000
198.520290 16.000000
212.681950 8.000000
218.983490 9.000000
219.030320 78.000000
220.034770 25.000000
225.085360 19.000000
237.040910 12.000000
246.039200 11.000000
261.045560 35.000000
262.048680 8.000000
263.051820 33.000000
263.065830 11.000000
269.090520 10.000000
271.058290 41.000000
273.046020 8.000000
273.074770 1000.000000
274.011140 10.000000
274.068820 56.000000
274.084350 128.000000
275.051090 8.000000
275.071620 10.000000
275.082490 17.000000
276.084870 8.000000
277.067410 8.000000
281.062900 11.000000
281.071080 24.000000
285.076510 54.000000
285.095370 11.000000
286.080780 8.000000
291.047270 11.000000
297.074860 39.000000
298.101900 27.000000
303.045560 8.000000
315.092680 16.000000
323.057430 8.000000
323.105040 16.000000
327.095610 9.000000
339.080350 22.000000
339.091800 38.000000
340.072880 9.000000
340.099430 8.000000
353.089420 8.000000
365.063390 8.000000
365.086150 27.000000
366.106050 17.000000
369.097350 8.000000
371.077640 11.000000
379.099730 10.000000
381.121460 8.000000
382.102140 10.000000
383.123230 27.000000
399.106020 23.000000
399.121730 10.000000
401.100430 10.000000
401.132020 23.000000
417.111660 11.000000
474.132200 8.000000

>ms2peaks
69.035690 17.000000
70.294770 16.000000
71.043720 28.000000
71.048320 89.000000
72.053880 20.000000
81.035350 26.000000
85.007280 24.000000
85.029850 167.000000
91.055270 16.000000
97.026380 19.000000
99.043440 24.000000
107.048390 42.000000
109.026380 42.000000
111.006340 25.000000
119.048250 49.000000
121.023800 73.000000
123.046950 18.000000
125.057050 18.000000
129.054200 16.000000
129.059480 17.000000
135.042240 33.000000
135.054200 17.000000
147.038510 202.000000
147.046780 286.000000
147.843900 17.000000
151.034470 17.000000
151.038990 30.000000
152.983000 24.000000
152.998140 18.000000
153.016970 1000.000000
153.023650 250.000000
153.041110 24.000000
154.017810 26.000000
154.023670 77.000000
154.051770 24.000000
155.024290 25.000000
155.038910 17.000000
161.030500 24.000000
165.003660 17.000000
165.014740 43.000000
165.022600 56.000000
167.030040 16.000000
167.037780 22.000000
177.013550 83.000000
177.021880 57.000000
179.038060 21.000000
185.015270 26.000000
189.014100 20.000000
189.058820 20.000000
191.028090 18.000000
191.036380 20.000000
192.035310 17.000000
194.953870 17.000000
195.028340 198.000000
195.040340 26.000000
195.998030 16.000000
200.047390 17.000000
203.033140 16.000000
215.038420 20.000000
216.041730 34.000000
219.025820 93.000000
220.023100 18.000000
220.035660 18.000000
231.031200 58.000000
231.049150 19.000000
243.030470 24.000000
245.046050 63.000000
245.059220 16.000000
246.042620 37.000000
261.046510 21.000000
271.034880 35.000000
271.058410 146.000000
271.072480 45.000000
272.064790 130.000000
272.077850 46.000000
273.025420 23.000000
273.063690 64.000000
273.074800 284.000000
273.861880 17.000000
274.081730 43.000000
275.062440 19.000000
312.098360 17.000000

>ms2peaks
71.048800 37.000000
85.028340 80.000000
127.040920 18.000000
129.054820 179.000000
130.052780 17.000000
130.059540 24.000000
133.261320 24.000000
137.057570 51.000000
147.040130 48.000000
147.060030 17.000000
147.069980 19.000000
148.048140 20.000000
153.016650 247.000000
153.027210 85.000000
154.014340 25.000000
165.013870 21.000000
195.013720 18.000000
195.032320 230.000000
195.044510 25.000000
196.030380 40.000000
205.007350 24.000000
219.015500 81.000000
219.030870 40.000000
219.049220 36.000000
231.040310 39.000000
231.082870 19.000000
232.024520 25.000000
235.066560 39.000000
237.031020 19.000000
243.027020 26.000000
243.067660 20.000000
244.044720 24.000000
245.040040 17.000000
245.049800 20.000000
249.045070 18.000000
261.017150 21.000000
261.030180 22.000000
261.043300 22.000000
263.054960 43.000000
271.060700 266.000000
272.041750 48.000000
272.067410 100.000000
273.048400 18.000000
273.075500 2042.000000
274.075900 348.000000
274.092500 37.000000
281.054930 17.000000
281.070560 26.000000
282.055880 24.000000
282.233150 20.000000
285.086330 17.000000
286.075380 40.000000
297.059570 21.000000
297.074950 17.000000
301.488950 17.000000
309.121700 27.000000
315.086300 210.000000
315.101780 41.000000
316.087400 17.000000
316.098020 20.000000
339.076930 21.000000
339.095700 21.000000
365.085910 18.000000
366.071010 23.000000
369.095790 21.000000
373.082210 21.000000
381.088870 44.000000
381.106350 71.000000
382.103330 24.000000
382.856990 29.000000
383.110470 52.000000
384.117980 19.000000
399.099790 41.000000
401.105500 21.000000
401.123540 149.000000
417.110750 52.000000
417.125640 22.000000
417.774930 20.000000
418.138520 80.000000
419.054320 18.000000
419.089480 20.000000
419.127620 466.000000
420.134190 26.000000
420.144200 58.000000
425.117890 21.000000
435.133610 303.000000
435.340000 32.000000
436.128390 20.000000
436.142300 27.000000
437.125370 33.000000
437.150270 43.000000
441.095400 21.000000
443.139310 17.000000
459.138340 18.000000
461.143160 43.000000
498.141270 18.000000
528.165410 17.000000
545.144960 17.000000
545.160100 22.000000
545.187810 18.000000
546.167790 17.000000
564.175540 17.000000
565.182010 17.000000
566.183040 18.000000
579.190860 19.000000
580.173520 127.000000
581.152220 19.000000
581.187320 183.000000

