>compound PR52490766
>parentmass 354.1335992615385
>ionization [M+H]+
>formula C20H19NO5
>rt 261.756018
>profile qtof
#smiles_iso CN1CCC2=CC3=C(C=C2C(=O)CC4=C(C1)C5=C(C=C4)OCO5)OCO3
#smiles_can CN1CCC2=CC3=C(C=C2C(=O)CC4=C(C1)C5=C(C=C4)OCO5)OCO3
#inchikey GPTFURBXHJWNHR-UHFFFAOYSA-N
#pubchem_id 4970
#mb_accession PR301814,PR301818,PR301822,PR301826,PR301830,PR301832,PR301836,PR301839,PR301843,PR301847,PR301850,PR301853,PR310606

>ms2peaks
119.048520 8.000000
135.045960 10.000000
147.042710 5.000000
149.060470 77.000000
150.065090 6.000000
159.073150 12.000000
163.039050 7.000000
165.054990 26.000000
175.040190 11.000000
177.074710 7.000000
178.084900 6.000000
188.071170 183.000000
189.078550 198.000000
190.076460 16.000000
190.084560 31.000000
195.080260 12.000000
206.082690 37.000000
207.086460 14.000000
209.060230 7.000000
217.066770 12.000000
223.076390 9.000000
225.091630 5.000000
235.077770 11.000000
237.089580 10.000000
247.063870 5.000000
247.077100 31.000000
265.082280 11.000000
267.067470 7.000000
275.071170 38.000000
276.078860 8.000000
278.119260 9.000000
293.089170 7.000000
295.089140 6.000000
305.082090 6.000000
320.090360 12.000000
323.088320 7.000000
323.097900 5.000000
336.126830 19.000000
354.079470 6.000000
354.133820 1000.000000
354.188140 24.000000

>ms2peaks
354.132970 1000.000000
354.186800 31.000000

>ms2peaks
91.056480 7.000000
107.043460 7.000000
107.053310 7.000000
119.050880 52.000000
120.053060 10.000000
130.064540 6.000000
131.049150 9.000000
135.043090 67.000000
135.052690 8.000000
136.048420 8.000000
143.048570 5.000000
147.043440 14.000000
149.041210 6.000000
149.060120 351.000000
150.053830 8.000000
150.063950 32.000000
151.065140 6.000000
159.050090 6.000000
159.070340 39.000000
160.073550 18.000000
163.033650 9.000000
163.042920 9.000000
165.036820 8.000000
165.056140 123.000000
166.053800 5.000000
166.062560 6.000000
167.087360 19.000000
168.088870 5.000000
173.062350 9.000000
174.055820 5.000000
175.039260 42.000000
176.043170 5.000000
176.067630 20.000000
176.081650 6.000000
177.061480 14.000000
177.077870 50.000000
178.085950 35.000000
179.086900 8.000000
180.085300 5.000000
187.038350 14.000000
188.071200 763.000000
189.046940 5.000000
189.078380 1000.000000
190.083300 225.000000
191.084790 13.000000
191.093230 13.000000
195.082140 54.000000
196.076970 6.000000
204.076450 5.000000
205.064530 16.000000
206.082000 148.000000
207.082630 83.000000
208.082340 12.000000
209.058460 17.000000
210.066760 7.000000
217.059050 15.000000
217.067780 20.000000
218.075490 9.000000
219.077820 13.000000
223.067520 6.000000
223.080570 33.000000
224.081700 7.000000
225.090240 14.000000
226.098600 11.000000
235.076310 104.000000
236.080230 17.000000
237.044450 7.000000
237.056810 27.000000
237.089600 35.000000
238.059340 7.000000
238.093460 5.000000
245.064650 15.000000
247.074950 169.000000
248.066700 14.000000
248.081420 27.000000
249.082780 11.000000
249.118030 6.000000
251.064540 6.000000
251.079500 9.000000
253.088900 17.000000
263.070040 38.000000
263.083160 8.000000
264.080600 5.000000
265.086700 72.000000
266.054810 6.000000
266.090940 11.000000
267.066440 46.000000
275.071040 195.000000
276.076600 73.000000
277.082550 8.000000
277.093290 9.000000
278.120300 38.000000
280.072420 7.000000
283.100400 8.000000
293.057980 6.000000
293.071590 9.000000
293.086910 35.000000
294.086240 16.000000
295.094450 38.000000
296.103060 8.000000
297.106140 6.000000
304.096100 6.000000
305.074950 16.000000
305.094270 5.000000
306.085910 13.000000
306.112790 23.000000
307.088170 9.000000
307.112580 7.000000
311.093320 7.000000
320.090270 47.000000
321.080810 6.000000
321.100560 47.000000
322.114470 7.000000
323.089900 18.000000
324.107300 6.000000
332.096130 12.000000
334.109620 41.000000
335.114200 12.000000
336.117370 31.000000
336.130100 45.000000
337.121030 16.000000
354.101870 6.000000
354.134830 209.000000

>ms2peaks
71.014400 7.000000
77.032140 10.000000
77.040880 48.000000
79.052270 16.000000
84.043040 8.000000
89.032230 12.000000
91.054410 130.000000
92.057620 25.000000
93.069630 5.000000
94.045620 6.000000
102.050610 6.000000
103.052260 25.000000
103.058900 10.000000
107.045940 30.000000
107.053050 71.000000
107.069530 7.000000
108.054580 9.000000
115.043980 7.000000
115.055500 24.000000
117.030430 8.000000
117.038990 8.000000
118.034450 14.000000
118.061210 12.000000
119.039380 10.000000
119.051010 93.000000
119.068730 8.000000
123.376870 9.000000
126.051940 6.000000
127.055590 15.000000
130.055050 15.000000
130.060730 44.000000
130.068390 71.000000
130.282930 6.000000
131.042620 18.000000
131.049440 18.000000
131.058940 15.000000
131.070660 112.000000
131.078190 114.000000
131.220250 7.000000
132.084530 48.000000
133.086030 16.000000
135.016430 5.000000
135.044220 85.000000
135.053250 22.000000
141.256260 5.000000
144.057800 5.000000
144.079120 9.000000
144.089420 12.000000
146.060750 6.000000
147.037960 56.000000
147.048690 69.000000
147.056690 19.000000
148.040420 8.000000
148.052080 14.000000
148.067780 9.000000
148.680800 5.000000
149.060700 234.000000
150.055600 15.000000
150.066330 22.000000
151.050770 8.000000
151.058270 19.000000
151.068440 16.000000
152.053760 7.000000
152.063200 29.000000
153.070020 59.000000
154.066910 9.000000
157.033220 9.000000
158.062880 17.000000
159.048780 15.000000
159.064440 210.000000
159.074340 59.000000
160.047850 9.000000
160.074620 151.000000
160.086530 29.000000
161.044680 7.000000
161.062350 29.000000
161.073640 6.000000
161.084030 16.000000
161.609190 5.000000
162.098650 8.000000
163.035960 15.000000
163.049820 29.000000
164.061550 14.000000
164.073730 5.000000
165.064650 40.000000
165.072490 31.000000
165.082280 25.000000
166.074010 26.000000
167.055100 6.000000
167.076840 24.000000
167.094960 41.000000
168.084210 9.000000
169.094480 5.000000
171.036820 8.000000
172.076600 7.000000
174.051070 82.000000
175.043490 21.000000
176.061050 26.000000
176.074110 8.000000
177.052430 20.000000
177.073120 114.000000
177.088970 8.000000
177.632430 10.000000
178.053920 14.000000
178.073000 109.000000
178.083650 68.000000
178.095780 6.000000
179.041660 8.000000
179.080780 71.000000
179.091000 108.000000
180.077220 8.000000
180.091170 28.000000
181.071550 8.000000
187.041090 9.000000
187.061480 8.000000
188.023610 6.000000
188.071300 1000.000000
189.023330 7.000000
189.053920 31.000000
189.073410 808.000000
190.076490 162.000000
191.051700 5.000000
191.062680 6.000000
191.082630 48.000000
191.093350 37.000000
192.053380 7.000000
192.062440 8.000000
193.072390 11.000000
195.073150 29.000000
195.083790 13.000000
195.100100 5.000000
201.081240 6.000000
202.079280 20.000000
203.099080 8.000000
204.060300 10.000000
204.081670 5.000000
205.060700 22.000000
205.071000 39.000000
206.063930 18.000000
206.075730 29.000000
206.090770 11.000000
207.083690 87.000000
208.056590 11.000000
208.088810 10.000000
208.102940 5.000000
209.060390 120.000000
209.082570 9.000000
210.062740 9.000000
210.073870 10.000000
212.000050 5.000000
214.999800 7.000000
215.049130 5.000000
217.059810 63.000000
217.074070 61.000000
218.005130 5.000000
218.058820 8.000000
218.076020 42.000000
218.091280 13.000000
218.114750 5.000000
219.067690 12.000000
220.071270 6.000000
220.096830 9.000000
220.120450 7.000000
221.067440 9.000000
222.063230 36.000000
222.076080 9.000000
223.066360 11.000000
224.049930 6.000000
224.099380 10.000000
226.061870 5.000000
233.052930 7.000000
233.069460 15.000000
234.067790 8.000000
235.078770 52.000000
236.066590 9.000000
236.101390 5.000000
237.058090 11.000000
237.102400 12.000000
238.103040 10.000000
245.071460 5.000000
246.065260 15.000000
246.076490 7.000000
246.088130 9.000000
247.064500 21.000000
247.083100 65.000000
247.106890 7.000000
248.073820 6.000000
248.084990 11.000000
252.084990 5.000000
260.974490 6.000000
261.065980 9.000000
262.090670 24.000000
262.118040 5.000000
263.069490 16.000000
263.096130 8.000000
264.078580 9.000000
274.085750 9.000000
275.078610 5.000000
276.102360 19.000000
276.195920 7.000000
277.081540 8.000000
277.122410 6.000000
278.107510 5.000000
279.067050 10.000000
279.129460 6.000000
288.068790 9.000000
290.088170 6.000000
291.075810 8.000000
292.103060 10.000000
293.090580 7.000000
304.120510 8.000000
306.065730 9.000000
320.093960 14.000000
320.177800 6.000000
321.101930 10.000000
333.081420 6.000000
333.104190 8.000000

>ms2peaks
107.050220 7.000000
119.050130 9.000000
135.042430 12.000000
147.047380 6.000000
149.059950 70.000000
150.063950 6.000000
159.067110 11.000000
165.051830 12.000000
175.037260 7.000000
177.070270 5.000000
177.080640 6.000000
188.072280 171.000000
189.077470 184.000000
190.080510 28.000000
195.079730 11.000000
206.080050 31.000000
207.080350 17.000000
217.064040 11.000000
223.075180 8.000000
235.074100 11.000000
247.070070 16.000000
247.084410 18.000000
253.091110 5.000000
265.088230 15.000000
267.067320 7.000000
275.073360 30.000000
278.123690 5.000000
293.069000 6.000000
295.099430 5.000000
320.093600 9.000000
323.086210 8.000000
336.105830 6.000000
336.125030 21.000000
354.134800 1000.000000
354.189540 25.000000

>ms2peaks
354.080930 7.000000
354.135740 1000.000000
354.190220 29.000000

>ms2peaks
91.055000 24.000000
107.050090 31.000000
119.041810 12.000000
119.049460 36.000000
119.056400 8.000000
120.051640 7.000000
131.072690 10.000000
135.038120 19.000000
135.044820 74.000000
136.044940 16.000000
147.041350 25.000000
149.060040 310.000000
150.063520 24.000000
150.073640 6.000000
159.061540 21.000000
159.070100 22.000000
159.078320 7.000000
160.059650 9.000000
160.075410 21.000000
161.057140 6.000000
163.039370 17.000000
163.071210 6.000000
165.055510 134.000000
166.060900 11.000000
167.079330 6.000000
167.090130 9.000000
173.057980 12.000000
174.054210 16.000000
175.029590 7.000000
175.040180 42.000000
176.039860 11.000000
176.069560 29.000000
177.048770 7.000000
177.079530 30.000000
178.084520 19.000000
179.087430 20.000000
188.044630 6.000000
188.070040 824.000000
189.053990 5.000000
189.078050 1000.000000
190.061280 10.000000
190.082310 174.000000
191.086990 11.000000
195.075090 35.000000
195.086580 34.000000
196.082920 12.000000
201.077210 13.000000
204.069700 9.000000
205.059110 6.000000
206.081050 178.000000
207.071530 12.000000
207.083510 50.000000
208.067610 6.000000
208.089290 11.000000
209.060420 14.000000
217.063950 35.000000
217.075740 11.000000
218.073060 8.000000
219.073820 7.000000
219.085880 9.000000
223.076260 23.000000
224.078260 10.000000
224.084260 5.000000
225.080400 8.000000
225.091570 17.000000
226.093370 7.000000
233.062670 7.000000
235.077790 86.000000
236.066910 10.000000
236.075970 23.000000
237.055310 11.000000
237.066310 5.000000
237.082340 9.000000
237.091830 29.000000
238.056440 10.000000
238.091670 5.000000
240.064090 6.000000
245.054760 7.000000
245.064300 5.000000
247.056980 9.000000
247.069580 45.000000
247.080830 87.000000
248.078610 41.000000
249.080030 6.000000
249.097030 17.000000
250.086380 5.000000
251.069820 13.000000
253.086960 19.000000
261.037750 9.000000
261.096100 6.000000
262.061650 6.000000
263.073090 35.000000
263.103000 5.000000
264.074490 8.000000
265.067200 8.000000
265.087130 58.000000
266.090420 9.000000
266.101040 8.000000
267.055270 14.000000
267.068150 23.000000
268.066190 13.000000
275.037570 6.000000
275.070430 201.000000
276.071080 30.000000
277.075160 11.000000
277.090450 12.000000
278.117550 18.000000
280.072780 5.000000
283.083830 7.000000
291.089870 7.000000
292.077850 6.000000
293.077330 37.000000
293.087710 24.000000
294.081630 5.000000
295.090030 13.000000
295.102660 23.000000
295.115480 7.000000
296.098240 5.000000
305.075900 12.000000
305.090480 12.000000
306.083800 14.000000
306.110840 12.000000
307.082000 6.000000
307.096830 9.000000
307.123960 8.000000
320.087040 34.000000
321.096310 42.000000
322.098420 6.000000
323.079960 5.000000
323.094270 17.000000
332.097140 10.000000
334.090150 6.000000
334.106230 13.000000
334.121520 11.000000
335.113190 9.000000
336.121800 49.000000
336.144710 6.000000
337.133360 16.000000
354.133910 215.000000

>ms2peaks
74.830610 5.000000
77.031390 13.000000
77.040180 38.000000
79.040100 6.000000
79.051700 9.000000
79.058530 10.000000
81.071460 10.000000
89.495510 6.000000
90.959530 6.000000
91.042640 11.000000
91.056010 104.000000
92.058620 7.000000
93.070790 6.000000
102.046030 10.000000
103.045480 8.000000
103.054920 53.000000
107.047010 22.000000
107.052980 30.000000
107.742320 6.000000
108.049920 8.000000
109.072220 7.000000
115.053760 16.000000
117.035600 17.000000
117.065800 9.000000
118.058570 8.000000
118.064990 11.000000
119.048620 131.000000
120.047240 8.000000
123.446820 7.000000
129.032440 8.000000
130.049640 9.000000
130.065280 114.000000
131.045410 9.000000
131.054630 9.000000
131.070130 66.000000
131.077160 71.000000
132.076600 31.000000
132.083630 31.000000
133.090040 6.000000
135.045000 95.000000
136.051120 10.000000
138.054920 7.000000
141.072560 6.000000
143.288700 5.000000
144.047910 11.000000
144.074310 8.000000
146.052630 9.000000
146.060150 7.000000
146.066330 7.000000
147.043560 175.000000
148.043300 18.000000
148.592650 7.000000
149.028660 5.000000
149.060150 172.000000
150.062500 18.000000
151.045230 13.000000
151.053470 13.000000
152.061540 51.000000
152.078250 5.000000
153.059510 7.000000
153.070130 11.000000
154.068180 10.000000
158.049100 7.000000
158.065920 10.000000
159.038880 19.000000
159.068020 227.000000
160.051700 6.000000
160.069550 64.000000
160.075350 126.000000
161.057600 11.000000
161.072200 11.000000
161.080110 21.000000
162.063460 7.000000
163.026980 8.000000
163.045030 25.000000
163.052290 19.000000
163.075120 6.000000
164.056900 9.000000
164.924930 6.000000
165.049870 16.000000
165.068480 59.000000
166.068240 11.000000
166.080750 23.000000
167.042650 11.000000
167.069840 8.000000
167.086900 79.000000
171.042710 5.000000
172.075850 11.000000
173.055360 7.000000
174.053360 50.000000
174.061070 27.000000
175.033690 8.000000
175.060650 24.000000
176.046230 5.000000
176.061360 34.000000
176.071120 18.000000
176.079850 9.000000
177.065170 67.000000
177.074750 77.000000
178.040760 9.000000
178.054580 5.000000
178.078090 226.000000
178.095690 9.000000
179.040910 7.000000
179.052750 9.000000
179.085050 162.000000
180.088870 33.000000
181.051900 7.000000
188.070280 1000.000000
189.071030 807.000000
190.057600 14.000000
190.078090 242.000000
191.072530 31.000000
191.085720 78.000000
192.062520 27.000000
193.064740 18.000000
193.085270 7.000000
193.764390 5.000000
194.061610 9.000000
195.082030 30.000000
197.916900 5.000000
201.067250 9.000000
201.078700 8.000000
202.074720 8.000000
203.074360 7.000000
204.062090 9.000000
204.071000 9.000000
205.061630 49.000000
205.070590 25.000000
205.083650 8.000000
206.063810 27.000000
206.075870 27.000000
207.078720 104.000000
208.056050 7.000000
208.086110 22.000000
208.094420 10.000000
209.045030 11.000000
209.062180 127.000000
210.063290 25.000000
211.066450 8.000000
216.082470 6.000000
217.053050 17.000000
217.064530 70.000000
217.073940 35.000000
218.051820 5.000000
218.068980 37.000000
218.091030 13.000000
219.073290 6.000000
219.079960 19.000000
221.057210 15.000000
221.088090 8.000000
222.070280 20.000000
223.076800 16.000000
232.049480 11.000000
233.082030 14.000000
233.249130 7.000000
234.071370 14.000000
234.099010 13.000000
235.055470 12.000000
235.066800 22.000000
235.084820 22.000000
235.099440 7.000000
236.072890 12.000000
237.055740 6.000000
237.097670 8.000000
238.058690 11.000000
238.078220 7.000000
238.095550 9.000000
246.075880 12.000000
246.100650 6.000000
247.048900 6.000000
247.070020 22.000000
247.078430 57.000000
247.087250 15.000000
248.070390 9.000000
248.084320 19.000000
248.103670 5.000000
249.056200 12.000000
249.078690 7.000000
250.059910 9.000000
250.071090 8.000000
254.399900 6.000000
262.080870 26.000000
262.092620 14.000000
263.063600 13.000000
263.078800 17.000000
263.091430 11.000000
265.088380 15.000000
275.051150 7.000000
275.066710 17.000000
276.075870 7.000000
276.097530 11.000000
276.121000 5.000000
277.065770 12.000000
279.066680 10.000000
280.082920 6.000000
282.907840 7.000000
290.074310 9.000000
292.074070 7.000000
292.103820 9.000000
293.082860 13.000000
304.096310 5.000000
306.081330 7.000000
320.086270 8.000000
320.095730 26.000000
321.091090 11.000000
325.156950 5.000000
354.142090 6.000000

>ms2peaks
107.050660 8.000000
119.047570 9.000000
135.043430 11.000000
147.046430 6.000000
149.059970 72.000000
159.067550 12.000000
165.053620 23.000000
167.088610 5.000000
176.069370 8.000000
178.087430 6.000000
179.091280 9.000000
188.070310 164.000000
189.077990 187.000000
190.081440 34.000000
195.083110 9.000000
206.083130 36.000000
207.088470 5.000000
209.065230 6.000000
217.064090 9.000000
223.076930 7.000000
235.065350 6.000000
235.077350 15.000000
237.055360 5.000000
247.076520 27.000000
253.082760 5.000000
263.071870 7.000000
265.080810 9.000000
275.071380 41.000000
278.118320 6.000000
293.080570 6.000000
295.099980 8.000000
305.078160 9.000000
320.087370 7.000000
323.085360 6.000000
334.103820 7.000000
336.107640 5.000000
336.123750 15.000000
354.133360 1000.000000
354.185360 24.000000

>ms2peaks
188.070920 6.000000
354.134310 1000.000000
354.188840 30.000000

>ms2peaks
91.050510 5.000000
91.056040 10.000000
107.049550 27.000000
109.064850 9.000000
119.048390 28.000000
119.056020 10.000000
131.051800 7.000000
131.075990 5.000000
132.080340 8.000000
135.046330 77.000000
136.044620 6.000000
146.053090 8.000000
146.060580 13.000000
147.038800 17.000000
147.044370 23.000000
147.055310 6.000000
149.036210 7.000000
149.060270 374.000000
150.054490 6.000000
150.065140 26.000000
159.047040 6.000000
159.060840 19.000000
159.070590 34.000000
160.070890 9.000000
160.081480 6.000000
161.079670 6.000000
163.037120 6.000000
163.044880 5.000000
165.055440 108.000000
166.059510 13.000000
167.086880 12.000000
174.051160 7.000000
175.027730 6.000000
175.040130 32.000000
176.038680 5.000000
176.073140 15.000000
177.051130 9.000000
177.078220 38.000000
178.079650 12.000000
178.089290 35.000000
179.075900 7.000000
179.085830 22.000000
188.049330 8.000000
188.071380 849.000000
189.077960 1000.000000
190.082900 165.000000
191.086580 42.000000
192.103700 8.000000
195.081300 41.000000
196.080900 13.000000
201.079700 6.000000
204.066620 7.000000
205.064030 9.000000
206.082140 182.000000
207.071840 12.000000
207.085450 72.000000
208.085310 9.000000
209.055680 6.000000
209.062240 14.000000
217.059630 10.000000
217.069810 41.000000
219.081830 20.000000
223.074570 33.000000
223.085620 8.000000
225.088490 8.000000
225.100810 11.000000
233.058000 14.000000
235.075970 86.000000
236.080340 22.000000
237.034070 6.000000
237.046920 8.000000
237.055020 18.000000
237.088620 26.000000
237.099560 10.000000
239.075210 6.000000
247.053330 6.000000
247.077190 195.000000
248.071430 19.000000
248.081420 18.000000
249.099910 9.000000
252.068300 7.000000
253.083310 6.000000
253.095150 11.000000
263.070070 46.000000
264.069730 5.000000
265.086090 66.000000
266.076510 5.000000
266.095580 23.000000
267.053220 9.000000
267.066070 34.000000
269.068910 5.000000
275.047730 6.000000
275.070070 251.000000
276.072880 32.000000
276.087460 10.000000
277.073910 7.000000
277.086000 6.000000
278.113010 24.000000
278.125890 7.000000
283.081940 6.000000
283.099430 8.000000
292.080780 5.000000
293.079800 41.000000
293.091640 18.000000
294.086400 15.000000
295.099790 43.000000
305.066470 10.000000
305.076350 26.000000
306.092350 6.000000
306.105100 14.000000
306.121770 7.000000
307.109190 8.000000
311.089780 5.000000
311.098660 12.000000
320.092500 55.000000
321.092710 21.000000
321.105590 28.000000
323.079800 6.000000
323.091280 8.000000
323.102110 9.000000
334.108580 50.000000
335.119380 5.000000
336.109100 24.000000
336.122770 56.000000
337.115940 7.000000
337.132690 12.000000
338.119350 5.000000
354.134090 220.000000

>ms2peaks
77.038830 40.000000
78.040500 10.000000
79.018220 5.000000
79.056050 76.000000
89.027250 5.000000
89.035900 7.000000
89.040410 6.000000
91.056470 192.000000
92.055030 17.000000
92.061940 11.000000
94.073770 8.000000
101.036850 6.000000
102.045490 13.000000
102.051780 8.000000
103.053280 41.000000
104.062610 11.000000
105.072890 9.000000
107.049690 98.000000
117.033870 22.000000
117.062930 21.000000
117.801740 10.000000
118.042650 12.000000
118.064650 9.000000
119.048360 77.000000
119.065700 6.000000
119.072930 10.000000
120.052220 26.000000
120.129190 6.000000
127.053500 7.000000
129.074720 6.000000
130.065000 120.000000
130.070420 36.000000
131.048900 28.000000
131.073730 254.000000
131.085490 14.000000
132.047990 6.000000
132.056700 11.000000
132.080030 42.000000
132.086640 14.000000
133.039140 6.000000
133.058070 6.000000
133.078870 16.000000
134.057220 6.000000
135.001750 6.000000
135.025740 6.000000
135.045620 108.000000
136.050950 19.000000
143.075070 6.000000
144.047590 13.000000
144.082210 15.000000
146.053960 11.000000
146.063520 11.000000
147.045910 124.000000
148.051130 30.000000
149.054660 54.000000
149.062910 121.000000
150.050060 5.000000
150.057080 15.000000
150.066160 10.000000
151.049790 10.000000
151.058490 19.000000
152.050830 12.000000
152.058300 27.000000
152.064450 59.000000
153.059980 10.000000
153.068740 9.000000
153.079180 13.000000
153.559660 7.000000
155.044740 6.000000
158.007110 6.000000
158.030460 7.000000
159.037460 27.000000
159.047610 19.000000
159.068570 163.000000
159.079090 29.000000
159.088000 10.000000
160.075070 185.000000
161.056820 19.000000
161.082430 31.000000
163.037310 36.000000
164.046660 8.000000
164.065480 18.000000
164.907170 6.000000
165.043380 9.000000
165.070910 85.000000
165.081920 12.000000
166.075650 58.000000
167.042100 5.000000
167.062100 7.000000
167.085720 57.000000
167.091710 17.000000
168.093350 12.000000
171.043590 7.000000
173.044460 5.000000
174.055970 92.000000
175.033490 8.000000
176.062120 31.000000
176.074020 8.000000
177.067520 42.000000
177.083250 21.000000
177.108440 5.000000
178.049620 11.000000
178.064040 7.000000
178.077910 190.000000
179.039030 5.000000
179.046300 6.000000
179.062480 15.000000
179.085650 209.000000
180.086440 19.000000
180.218090 7.000000
180.930280 10.000000
181.092220 11.000000
181.106660 7.000000
186.056120 5.000000
188.041610 14.000000
188.070560 874.000000
189.042510 10.000000
189.073100 1000.000000
189.094270 30.000000
190.072970 126.000000
190.083130 81.000000
190.815060 7.000000
191.059520 9.000000
191.078520 53.000000
191.092300 25.000000
192.043520 10.000000
192.051440 16.000000
192.060270 15.000000
192.081380 18.000000
192.090930 9.000000
193.062190 19.000000
194.076100 7.000000
194.107560 6.000000
195.082200 32.000000
196.087250 5.000000
201.077610 13.000000
202.069400 9.000000
202.078980 10.000000
203.086330 20.000000
204.054370 7.000000
204.062320 5.000000
204.078310 6.000000
205.065020 102.000000
205.087520 5.000000
206.071900 21.000000
206.079820 19.000000
207.082580 109.000000
208.038730 11.000000
208.067050 9.000000
208.085490 27.000000
209.061000 163.000000
209.079220 8.000000
210.079100 5.000000
216.054060 5.000000
217.064330 140.000000
218.039090 8.000000
218.069950 40.000000
218.079860 16.000000
218.094740 9.000000
219.084640 31.000000
220.059140 5.000000
220.124280 5.000000
221.056520 14.000000
222.060620 13.000000
222.069790 9.000000
223.087680 11.000000
224.088620 5.000000
227.071880 7.000000
228.084440 6.000000
233.064450 8.000000
233.078810 11.000000
235.068560 27.000000
235.078600 25.000000
236.086910 21.000000
237.052190 8.000000
237.087510 16.000000
240.478100 6.000000
245.079380 5.000000
246.032620 5.000000
246.064010 8.000000
246.076840 37.000000
247.069270 45.000000
247.084270 36.000000
248.069120 8.000000
248.080290 10.000000
248.103410 25.000000
249.052800 6.000000
251.094480 11.000000
261.061430 8.000000
261.086090 27.000000
262.058470 8.000000
262.085880 29.000000
263.077060 18.000000
263.096310 14.000000
263.108890 7.000000
265.092130 8.000000
266.067930 8.000000
275.067440 36.000000
277.078640 10.000000
279.071230 7.000000
290.046140 5.000000
290.075680 13.000000
290.086910 11.000000
291.066530 9.000000
293.102020 8.000000
294.084900 6.000000
318.072880 5.000000
318.082090 6.000000
320.083650 22.000000
320.101780 22.000000
322.094210 5.000000

>ms2peaks
58.065110 19.000000
59.761170 22.000000
74.019430 18.000000
79.055680 17.000000
91.013490 22.000000
91.054910 94.000000
91.059100 143.000000
92.053010 18.000000
103.046330 17.000000
103.057210 30.000000
107.038270 75.000000
107.048840 109.000000
107.056630 103.000000
108.057660 44.000000
109.065510 61.000000
117.025510 19.000000
119.019620 17.000000
119.030580 22.000000
119.048520 228.000000
120.057510 31.000000
126.026730 27.000000
129.027480 36.000000
130.069370 29.000000
131.049710 68.000000
131.075930 32.000000
131.564620 36.000000
132.077650 21.000000
135.045960 311.000000
136.047870 116.000000
137.051990 19.000000
137.067000 18.000000
142.850690 37.000000
143.049880 27.000000
144.081330 18.000000
147.042710 158.000000
147.051910 27.000000
148.014770 25.000000
148.061160 17.000000
149.045380 46.000000
149.060470 2329.000000
149.564320 22.000000
150.065090 174.000000
151.057020 18.000000
151.067370 75.000000
151.491710 17.000000
152.064220 20.000000
155.888530 18.000000
159.017730 32.000000
159.029010 23.000000
159.036650 81.000000
159.046020 73.000000
159.062990 101.000000
159.073150 369.000000
160.051700 43.000000
160.068730 55.000000
160.077060 119.000000
161.058900 58.000000
161.078260 27.000000
161.087600 69.000000
162.090260 17.000000
163.039050 216.000000
164.062320 21.000000
164.077940 55.000000
164.962070 32.000000
165.054990 774.000000
165.122890 21.000000
166.058140 74.000000
167.048930 25.000000
167.087070 100.000000
167.100510 29.000000
169.083160 20.000000
172.051380 49.000000
172.941820 19.000000
173.056990 86.000000
174.059600 78.000000
175.040190 346.000000
175.064240 18.000000
176.041550 50.000000
176.072560 150.000000
177.061810 17.000000
177.074710 226.000000
177.090120 53.000000
178.056960 30.000000
178.065220 24.000000
178.084900 195.000000
178.096360 70.000000
179.048770 18.000000
179.087540 133.000000
179.094700 55.000000
180.084580 20.000000
180.101090 20.000000
181.059420 50.000000
181.268590 44.000000
183.859410 19.000000
185.045760 17.000000
186.454970 21.000000
186.489140 20.000000
187.040100 24.000000
187.460140 20.000000
188.029910 24.000000
188.071170 5552.000000
189.020690 22.000000
189.047780 31.000000
189.078550 5996.000000
189.774520 17.000000
190.059710 29.000000
190.076460 477.000000
190.084560 932.000000
191.076980 47.000000
191.093030 95.000000
192.058690 17.000000
192.067410 26.000000
192.104610 92.000000
193.100510 48.000000
194.078370 18.000000
195.080260 365.000000
196.084580 18.000000
197.089510 20.000000
197.864090 20.000000
198.094540 19.000000
202.085300 59.000000
204.068980 67.000000
205.062810 127.000000
205.078840 43.000000
206.082690 1130.000000
207.020190 20.000000
207.034790 20.000000
207.075500 134.000000
207.086460 433.000000
207.271260 18.000000
208.086580 40.000000
209.028270 29.000000
209.060230 205.000000
210.054690 20.000000
210.066960 88.000000
210.099410 19.000000
211.068800 36.000000
211.517560 31.000000
213.382740 18.000000
214.556880 17.000000
216.504070 29.000000
217.066770 361.000000
218.058300 23.000000
218.069750 79.000000
219.076080 49.000000
219.083530 55.000000
220.090360 35.000000
220.981660 18.000000
221.066880 18.000000
221.081470 29.000000
221.100950 28.000000
222.064450 27.000000
222.396180 17.000000
223.076390 288.000000
225.091630 159.000000
227.098910 27.000000
231.897950 41.000000
233.039290 23.000000
233.054760 21.000000
233.070210 20.000000
233.079960 21.000000
233.113450 23.000000
234.086850 22.000000
234.954830 20.000000
235.063720 74.000000
235.077770 344.000000
235.708130 28.000000
236.090870 23.000000
236.120500 40.000000
237.056340 40.000000
237.066100 58.000000
237.089580 293.000000
238.046490 20.000000
238.062790 39.000000
238.083830 61.000000
238.098270 20.000000
238.110610 31.000000
239.059370 17.000000
242.048800 19.000000
245.062130 107.000000
246.072860 36.000000
247.063870 166.000000
247.077100 941.000000
248.051760 97.000000
248.072680 89.000000
248.088300 123.000000
248.354660 19.000000
249.078170 38.000000
249.093020 47.000000
249.117130 27.000000
250.180150 17.000000
251.067180 48.000000
253.089690 67.000000
253.899400 19.000000
254.080510 20.000000
254.093830 58.000000
255.111340 28.000000
256.561430 18.000000
257.806580 36.000000
259.075840 30.000000
261.073610 24.000000
261.097080 25.000000
262.054200 21.000000
262.089660 17.000000
263.064940 71.000000
263.079560 74.000000
264.077970 39.000000
264.100370 31.000000
264.956450 24.000000
265.050840 41.000000
265.082280 336.000000
265.099820 40.000000
266.064970 20.000000
266.078060 25.000000
266.093320 42.000000
266.103330 18.000000
266.604060 20.000000
267.052000 36.000000
267.067470 198.000000
267.093720 25.000000
267.939150 19.000000
268.086850 20.000000
269.081420 121.000000
275.071170 1166.000000
276.048000 17.000000
276.060820 77.000000
276.078860 233.000000
276.096740 27.000000
277.091580 125.000000
278.119260 288.000000
279.000370 20.000000
279.072170 73.000000
279.127440 60.000000
280.065460 63.000000
281.066680 24.000000
281.092380 19.000000
283.094640 143.000000
284.100430 90.000000
284.123840 21.000000
284.449890 18.000000
284.584470 33.000000
285.352230 41.000000
289.077450 35.000000
291.072630 18.000000
292.101840 18.000000
292.120940 18.000000
292.963500 24.000000
293.089170 220.000000
295.089140 175.000000
295.105560 104.000000
296.065610 20.000000
296.087130 17.000000
296.813140 19.000000
301.286650 18.000000
304.089940 46.000000
304.103420 54.000000
305.070280 75.000000
305.082090 191.000000
305.108760 20.000000
306.073910 83.000000
306.092530 17.000000
306.114560 148.000000
307.020420 18.000000
307.077790 20.000000
307.092680 66.000000
307.118070 55.000000
309.107880 46.000000
309.527920 17.000000
311.085820 44.000000
312.103270 23.000000
312.407530 24.000000
316.380340 17.000000
318.083160 21.000000
318.115020 21.000000
320.074100 24.000000
320.090360 356.000000
321.082030 38.000000
321.097530 102.000000
321.111080 97.000000
321.269680 27.000000
321.316440 17.000000
322.095980 84.000000
322.213780 25.000000
323.088320 203.000000
323.097900 152.000000
323.686770 24.000000
324.096100 39.000000
324.121030 17.000000
326.139530 17.000000
330.495730 28.000000
332.090060 61.000000
334.093840 23.000000
334.105350 74.000000
334.122010 134.000000
335.112730 23.000000
335.248320 20.000000
336.106020 57.000000
336.126830 590.000000
337.136380 100.000000
340.283630 19.000000
347.374880 17.000000
348.315890 20.000000
351.294830 20.000000
352.915890 20.000000
353.155730 20.000000
353.292720 20.000000
353.679080 20.000000
353.759740 20.000000
353.815640 17.000000
353.842800 17.000000
354.004120 22.000000
354.058350 17.000000
354.079470 182.000000
354.097870 27.000000
354.133820 30321.000000
354.188140 737.000000
354.224550 24.000000
354.238800 20.000000

