>compound PR52599214
>parentmass 257.0814
>ionization [M+H]+
>formula C15H12O4
>rt 318.600000
>profile qtof
#smiles_iso C1C(OC2=C(C1=O)C=CC(=C2)O)C3=CC=C(C=C3)O
#smiles_can C1C(OC2=C(C1=O)C=CC(=C2)O)C3=CC=C(C=C3)O
#inchikey FURUXTVZLHCCNA-UHFFFAOYSA-N
#pubchem_id 1889
#mb_accession PR310996

>ms2peaks
119.047370 48.000000
137.023360 227.000000
138.029080 20.000000
147.042540 116.000000
147.053270 59.000000
148.047210 24.000000
159.082730 22.000000
163.044510 23.000000
168.063710 22.000000
211.075270 29.000000
212.085370 20.000000
239.075970 60.000000
242.051540 20.000000
257.082460 744.000000

