>compound PR52502968
>parentmass 409.2005
>ionization [M+H]+
>formula C25H28O5
>rt 567.000000
>profile qtof
#smiles_iso CC(=CCC1=C(C=CC(=C1)C2COC3=C(C2=O)C(=C(C(=C3)O)CC=C(C)C)O)O)C
#smiles_can CC(=CCC1=C(C=CC(=C1)C2COC3=C(C2=O)C(=C(C(=C3)O)CC=C(C)C)O)O)C
#inchikey CEBSROOTTDEPKN-UHFFFAOYSA-N
#pubchem_id 12972420
#mb_accession PR310758

>ms2
55.015020 17.000000
69.037190 20.000000
69.714580 20.000000
99.003610 20.000000
107.050360 39.000000
123.000270 24.000000
123.007220 133.000000
133.067210 36.000000
137.018570 44.000000
137.027450 17.000000
140.753110 25.000000
143.083630 24.000000
158.103380 25.000000
161.091480 17.000000
161.416320 21.000000
162.087950 19.000000
163.037890 37.000000
164.993700 20.000000
165.017730 2552.000000
165.034850 45.000000
165.053360 41.000000
166.015060 93.000000
166.022130 95.000000
167.014630 19.000000
167.024770 31.000000
167.035840 147.000000
169.085210 22.000000
179.017430 17.000000
187.112290 17.000000
189.126590 237.000000
191.016010 22.000000
192.031480 17.000000
192.636230 17.000000
193.024600 21.000000
193.039550 21.000000
193.050930 148.000000
193.062500 19.000000
194.050200 25.000000
194.057100 29.000000
195.080110 47.000000
196.082960 24.000000
196.420330 19.000000
198.067320 22.000000
201.057370 25.000000
209.041410 18.000000
211.113630 17.000000
213.089430 95.000000
214.081340 25.000000
214.088440 46.000000
215.104260 36.000000
219.062380 122.000000
219.072310 46.000000
220.076130 19.000000
221.071870 76.000000
221.081530 56.000000
221.091060 45.000000
222.084090 19.000000
223.036190 20.000000
235.074650 25.000000
237.087170 20.000000
247.097990 20.000000
248.031770 33.000000
269.613650 25.000000
279.047820 28.000000
279.061860 26.000000
279.075200 38.000000
279.137880 17.000000
285.079040 18.000000
311.125180 28.000000
313.132750 17.000000
325.158910 25.000000
342.145780 22.000000
353.139100 1627.000000
354.077120 24.000000
354.116360 124.000000
354.143040 278.000000
355.112060 21.000000
355.135800 51.000000
355.151640 21.000000
407.259980 18.000000
408.978790 19.000000
409.148320 17.000000
409.198610 2424.000000

