>compound PR52079989
>parentmass 328.1388
>ionization [M+H]+
>formula C15H21NO7
>rt 139.800000
>profile qtof
#smiles_iso C1=CC=C(C=C1)CC(C(=O)O)NCC2(C(C(C(O2)CO)O)O)O
#smiles_can C1=CC=C(C=C1)CC(C(=O)O)NCC2(C(C(C(O2)CO)O)O)O
#inchikey FAVRCIXPIVJIPN-UHFFFAOYSA-N
#pubchem_id 85152457
#mb_accession PR310826

>ms2peaks
84.046520 24.000000
87.033760 17.000000
91.052630 21.000000
97.028860 74.000000
99.048470 29.000000
102.041520 18.000000
103.057550 26.000000
105.076190 31.000000
107.049390 21.000000
108.052520 21.000000
120.046210 25.000000
120.080590 43.000000
120.142880 16.000000
127.031000 31.000000
130.056900 20.000000
131.049180 18.000000
132.077910 17.000000
132.083860 28.000000
132.091280 24.000000
133.095640 19.000000
143.062640 20.000000
143.073030 18.000000
143.083620 33.000000
144.059940 21.000000
144.083830 55.000000
145.087840 17.000000
154.076750 21.000000
155.663540 17.000000
161.073970 20.000000
162.090480 50.000000
165.058760 16.000000
166.079210 60.000000
166.093260 23.000000
167.065830 27.000000
167.097340 24.000000
170.081330 16.000000
178.083650 16.000000
182.097110 24.000000
198.089430 20.000000
219.954860 16.000000
234.108120 18.000000
264.113430 19.000000
264.129210 59.000000
265.121000 43.000000
292.084440 16.000000
292.115570 143.000000
292.130000 19.000000
292.921080 17.000000
292.959410 25.000000
293.114930 20.000000
293.134740 47.000000
293.281920 20.000000
310.129820 563.000000
311.109220 25.000000
311.116850 58.000000
311.136660 59.000000
312.138610 19.000000
328.120880 43.000000
328.142150 233.000000

