>compound PR52799431
>parentmass 627.155576
>ionization [M+H]+
>formula C27H30O17
>rt 212.109000
>profile qtof
#smiles_iso C1=CC(=C(C=C1C2=C(C(=O)C3=C(C=C(C=C3O2)O)O)O[C@H]4[C@@H]([C@H]([C@@H]([C@H](O4)CO)O)O)O)O)O[C@H]5[C@@H]([C@H]([C@@H]([C@H](O5)CO)O)O)O
#smiles_can C1=CC(=C(C=C1C2=C(C(=O)C3=C(C=C(C=C3O2)O)O)OC4C(C(C(C(O4)CO)O)O)O)O)OC5C(C(C(C(O5)CO)O)O)O
#inchikey RPVIQWDFJPYNJM-DEFKTLOSSA-N
#pubchem_id 5320835
#mb_accession PR302992,PR302997,PR303002,PR303007,PR303011,PR303016,PR303021,PR303026,PR303030,PR303035,PR303040,PR303045

>ms2
85.026300 24.000000
127.042020 10.000000
127.047810 9.000000
145.037640 8.000000
145.051610 11.000000
163.055370 11.000000
216.130800 10.000000
247.063250 6.000000
253.068530 9.000000
258.042540 8.000000
302.618190 7.000000
303.010220 45.000000
303.051300 1000.000000
304.024350 16.000000
304.048650 107.000000
304.060790 107.000000
305.042850 8.000000
305.053800 31.000000
305.067810 18.000000
305.458440 7.000000
305.770720 7.000000
306.070310 9.000000
307.009120 6.000000
310.835330 6.000000
393.313200 18.000000
401.073550 8.000000
412.064580 9.000000
429.042880 12.000000
464.984770 8.000000
465.033290 11.000000
465.060300 24.000000
465.099120 642.000000
465.200350 10.000000
466.109070 230.000000
467.086520 20.000000
467.114650 29.000000
468.096130 7.000000
537.178830 6.000000
622.326900 11.000000
627.112550 17.000000
627.138430 93.000000
627.166140 75.000000

>ms2
164.064300 6.000000
206.088360 6.000000
248.583020 6.000000
273.118470 19.000000
299.483890 6.000000
303.049290 166.000000
304.048340 16.000000
305.058440 6.000000
305.331120 6.000000
312.351100 20.000000
315.192900 8.000000
391.021360 12.000000
453.084200 8.000000
460.575560 7.000000
465.037170 7.000000
465.050230 22.000000
465.100220 1000.000000
466.056460 16.000000
466.088900 118.000000
466.105070 294.000000
466.989930 13.000000
467.066860 7.000000
467.114410 47.000000
468.079960 11.000000
571.219060 10.000000
572.944150 9.000000
627.083130 12.000000
627.158200 472.000000

>ms2
71.054020 6.000000
85.023360 12.000000
85.030670 16.000000
127.037360 12.000000
145.046830 16.000000
171.304820 10.000000
200.335080 9.000000
262.726290 6.000000
285.040950 6.000000
303.050690 1000.000000
304.052830 134.000000
305.052090 28.000000
306.056820 6.000000
381.061190 9.000000
442.037020 6.000000
465.070040 5.000000
465.096220 29.000000
465.116330 10.000000
467.098880 8.000000

>ms2
61.028730 8.000000
73.027460 9.000000
85.026700 12.000000
85.162200 9.000000
93.030540 11.000000
99.040930 8.000000
109.024660 8.000000
109.029540 7.000000
137.022740 17.000000
153.023220 21.000000
163.033310 12.000000
165.016280 23.000000
166.004240 9.000000
183.040280 8.000000
185.056530 10.000000
195.029110 9.000000
209.949680 8.000000
218.244810 7.000000
229.048480 20.000000
229.741960 12.000000
231.026960 9.000000
233.055730 17.000000
247.067730 28.000000
248.021060 14.000000
257.038970 33.000000
257.050020 21.000000
257.067380 13.000000
258.040770 19.000000
258.055510 17.000000
258.945620 10.000000
274.016880 11.000000
274.047060 7.000000
275.068510 11.000000
285.047610 91.000000
301.340180 13.000000
303.001190 7.000000
303.026820 96.000000
303.050260 1000.000000
303.079280 19.000000
303.667850 7.000000
304.057430 195.000000
305.045650 7.000000
305.061040 34.000000
306.049900 9.000000
306.795930 7.000000
620.347290 8.000000

>ms2
85.031700 5.000000
127.014760 8.000000
145.037830 5.000000
145.047730 17.000000
146.045170 6.000000
229.047990 8.000000
257.039890 14.000000
303.003110 9.000000
303.017490 29.000000
303.050320 1000.000000
304.040800 18.000000
304.056120 119.000000
304.090910 6.000000
305.056210 24.000000
325.108830 7.000000
339.043670 10.000000
345.077000 12.000000
353.064790 6.000000
465.051030 7.000000
465.072940 25.000000
465.103850 472.000000
466.107060 149.000000
467.092830 13.000000
471.645110 5.000000
495.072910 8.000000
542.680970 7.000000
627.130550 29.000000
627.145260 72.000000
627.176090 68.000000

>ms2
145.050610 11.000000
302.972930 7.000000
303.020320 13.000000
303.048890 228.000000
304.041690 10.000000
304.061860 21.000000
304.373020 15.000000
380.714840 15.000000
447.097530 10.000000
465.012970 13.000000
465.039180 9.000000
465.101320 1000.000000
466.102660 381.000000
467.111760 87.000000
467.263670 7.000000
477.963870 6.000000
487.220890 9.000000
627.065490 7.000000
627.083070 15.000000
627.137150 200.000000
627.159420 584.000000

>ms2
85.025220 40.000000
91.041640 6.000000
98.032190 5.000000
127.038600 25.000000
132.927780 8.000000
145.043550 17.000000
145.055310 7.000000
153.011350 8.000000
244.509160 8.000000
254.622700 13.000000
284.802250 5.000000
301.119510 5.000000
302.595670 5.000000
302.975560 7.000000
303.005550 7.000000
303.049260 1000.000000
303.089780 8.000000
303.409730 6.000000
304.003540 11.000000
304.046260 54.000000
304.062560 103.000000
304.489780 8.000000
304.787080 6.000000
305.057040 13.000000
305.067630 10.000000
306.048740 5.000000
310.992800 10.000000
345.079160 7.000000
464.814000 9.000000
465.042360 7.000000
465.104430 38.000000
465.201110 7.000000
467.109590 8.000000

>ms2
69.035640 11.000000
84.981060 8.000000
85.029470 9.000000
85.035890 13.000000
85.731730 13.000000
91.042760 12.000000
97.024860 16.000000
97.032750 41.000000
109.024850 9.000000
122.231500 11.000000
137.025880 25.000000
149.025500 11.000000
153.019070 28.000000
163.044160 11.000000
165.025530 9.000000
166.027770 15.000000
169.581700 11.000000
173.032550 10.000000
173.053280 8.000000
181.526790 9.000000
188.040950 10.000000
201.057940 35.000000
204.267230 11.000000
217.062560 10.000000
217.584880 27.000000
229.001310 16.000000
229.047760 99.000000
247.061430 11.000000
248.067110 10.000000
256.031860 8.000000
257.016170 11.000000
257.035000 54.000000
257.061160 8.000000
267.020720 10.000000
274.042970 9.000000
285.044100 8.000000
302.977170 11.000000
302.995670 13.000000
303.009190 17.000000
303.050840 1000.000000
303.070370 126.000000
303.094330 8.000000
303.388790 10.000000
303.628480 11.000000
304.038910 46.000000
304.058010 109.000000
304.397060 8.000000
305.015960 22.000000
305.057220 11.000000
305.067990 13.000000
356.402950 9.000000

>ms2
97.033520 21.000000
127.033980 37.000000
146.052720 10.000000
214.863680 23.000000
257.046360 7.000000
302.993710 17.000000
303.003630 14.000000
303.049130 1000.000000
303.962680 9.000000
304.043640 78.000000
304.054690 133.000000
305.054230 7.000000
306.042420 8.000000
308.470520 9.000000
310.551210 7.000000
327.059970 9.000000
331.039550 9.000000
341.719150 8.000000
345.083250 13.000000
464.094150 7.000000
464.556090 8.000000
465.087190 252.000000
465.104610 487.000000
465.562160 12.000000
466.063140 16.000000
466.104920 172.000000
467.084350 16.000000
467.150420 14.000000
468.110870 7.000000
610.141660 9.000000
627.055420 16.000000
627.075070 9.000000
627.122310 15.000000
627.161560 101.000000

>ms2
145.051850 12.000000
302.995910 13.000000
303.029110 22.000000
303.048860 172.000000
304.061280 31.000000
306.512180 7.000000
438.768590 11.000000
446.747190 9.000000
462.427640 7.000000
464.126460 8.000000
465.063660 92.000000
465.105260 1000.000000
465.409940 10.000000
466.037840 14.000000
466.086120 60.000000
466.103300 279.000000
466.173740 7.000000
467.066350 10.000000
467.099150 49.000000
478.210050 7.000000
541.810550 11.000000
627.027470 8.000000
627.069210 7.000000
627.145750 373.000000
627.169490 190.000000

>ms2
85.027850 36.000000
109.030670 5.000000
110.992420 7.000000
127.033340 8.000000
127.045030 6.000000
145.045900 10.000000
145.055710 7.000000
200.608870 6.000000
217.195820 6.000000
303.050600 1000.000000
303.136110 6.000000
304.023440 6.000000
304.042480 50.000000
304.052800 158.000000
305.042270 7.000000
305.062190 24.000000
465.096830 54.000000
465.114560 22.000000
466.105040 12.000000

>ms2
85.027230 35.000000
94.041500 15.000000
97.283390 9.000000
109.024780 20.000000
110.037820 13.000000
111.012100 11.000000
115.032280 10.000000
121.020260 10.000000
121.029310 10.000000
127.036090 10.000000
127.044040 23.000000
131.044890 17.000000
137.034120 13.000000
155.056580 20.000000
163.041750 30.000000
165.014770 41.000000
165.024290 21.000000
176.992450 15.000000
177.016770 12.000000
188.046070 8.000000
201.047390 10.000000
203.036970 12.000000
204.994710 11.000000
219.029310 17.000000
219.048980 18.000000
229.041440 20.000000
229.057250 22.000000
230.029020 14.000000
230.054870 17.000000
230.065230 21.000000
241.589000 11.000000
257.047940 10.000000
257.057190 11.000000
258.023470 9.000000
258.058590 11.000000
274.013890 10.000000
274.037780 11.000000
274.050750 15.000000
283.032350 8.000000
285.028750 11.000000
285.920990 10.000000
303.049900 1000.000000
303.115540 12.000000
303.682800 11.000000
304.024570 10.000000
304.035130 16.000000
304.055630 64.000000
304.068850 24.000000
305.042270 12.000000
305.061040 41.000000
306.063900 12.000000
315.037570 16.000000
335.190830 9.000000
341.055820 13.000000

