>compound PR52099680
>parentmass 303.04938050000004
>ionization [M]+
>formula C15H11O7+
>rt 322.489020
>profile qtof
#smiles_iso C1=C(C=C(C(=C1O)O)O)C2=[O+]C3=CC(=CC(=C3C=C2O)O)O
#smiles_can C1=C(C=C(C(=C1O)O)O)C2=[O+]C3=CC(=CC(=C3C=C2O)O)O
#inchikey JKHRCGUTYDNCLE-UHFFFAOYSA-O
#pubchem_id 128853
#mb_accession PR303051,PR303056,PR303061,PR303066,PR303071,PR303076,PR303081,PR303086,PR303091,PR303096,PR303101,PR303105

>ms2peaks
65.039140 10.000000
68.998480 10.000000
89.038700 8.000000
93.032100 7.000000
109.033270 7.000000
111.001030 7.000000
121.031230 5.000000
123.043830 7.000000
127.054000 9.000000
129.066970 6.000000
131.052190 23.000000
137.001750 11.000000
137.016940 7.000000
137.025910 35.000000
145.032930 7.000000
149.020200 7.000000
153.013140 25.000000
153.020110 32.000000
153.026200 26.000000
154.017320 8.000000
155.028720 6.000000
155.039510 5.000000
155.056810 5.000000
163.075000 7.000000
165.016020 15.000000
173.050160 9.000000
173.062740 29.000000
173.449260 7.000000
176.048680 7.000000
184.039050 10.000000
187.042430 12.000000
196.041980 9.000000
199.899800 10.000000
201.019270 7.000000
201.056810 26.000000
202.056340 9.000000
202.062930 15.000000
203.028520 5.000000
204.047330 12.000000
218.052440 10.000000
219.019850 11.000000
219.057590 10.000000
219.507640 5.000000
228.046360 8.000000
228.851330 6.000000
229.049210 81.000000
230.042330 5.000000
242.341740 5.000000
245.035390 10.000000
247.047620 10.000000
257.036870 11.000000
257.044010 28.000000
257.965880 7.000000
259.054780 8.000000
261.914610 7.000000
270.384520 7.000000
274.043820 5.000000
275.062840 12.000000
275.987000 9.000000
285.035130 7.000000
285.047330 16.000000
286.026670 7.000000
286.039460 20.000000
298.751280 13.000000
301.036710 6.000000
302.049190 8.000000
303.049470 1000.000000

>ms2peaks
216.931400 5.000000
219.710240 5.000000
301.029970 7.000000
302.047150 9.000000
302.980410 5.000000
303.017330 34.000000
303.051240 1000.000000

>ms2peaks
67.016980 39.000000
68.997420 34.000000
69.032740 59.000000
81.032880 33.000000
93.029430 41.000000
93.036030 66.000000
97.029620 39.000000
105.031810 36.000000
107.005610 38.000000
109.026120 71.000000
111.007130 34.000000
111.013490 28.000000
115.329930 43.000000
121.029940 82.000000
123.035090 126.000000
127.030800 76.000000
131.047590 34.000000
134.031830 59.000000
136.022050 33.000000
137.024660 438.000000
138.021730 46.000000
145.059770 30.000000
151.041120 54.000000
153.011750 297.000000
153.018690 397.000000
154.033330 67.000000
155.051300 39.000000
161.058290 38.000000
163.038890 33.000000
165.012920 171.000000
165.026720 51.000000
165.047490 43.000000
167.027020 30.000000
171.039760 46.000000
173.068470 74.000000
177.026760 103.000000
177.059080 36.000000
179.033800 71.000000
183.036290 34.000000
183.044710 39.000000
185.059880 76.000000
187.037060 158.000000
189.017810 34.000000
191.043000 49.000000
192.070850 46.000000
201.046100 41.000000
201.056410 278.000000
201.063810 107.000000
202.052520 94.000000
204.039730 34.000000
213.048390 49.000000
213.058150 33.000000
217.054860 31.000000
219.019000 33.000000
219.062500 74.000000
228.039080 95.000000
228.052670 28.000000
229.049590 939.000000
229.566010 28.000000
230.037280 33.000000
230.051090 122.000000
230.064290 49.000000
232.037200 28.000000
233.217180 28.000000
239.037900 80.000000
241.058240 33.000000
243.024830 34.000000
247.049320 44.000000
247.066190 48.000000
257.043490 537.000000
258.038480 69.000000
258.053590 36.000000
261.046970 36.000000
268.044650 33.000000
274.047090 156.000000
276.054530 31.000000
285.026760 46.000000
285.044310 103.000000
303.027800 44.000000
303.050960 1000.000000

>ms2peaks
67.016730 158.000000
77.032070 128.000000
77.040990 158.000000
79.005450 226.000000
105.032860 263.000000
105.066240 218.000000
108.056540 128.000000
109.027450 241.000000
115.053830 1000.000000
117.066770 203.000000
121.031110 128.000000
126.044000 173.000000
127.041680 256.000000
128.068150 271.000000
136.017560 158.000000
137.024930 301.000000
141.327910 143.000000
143.048080 128.000000
153.017670 158.000000
153.026610 226.000000
155.045930 519.000000
155.054140 150.000000
164.037750 150.000000
173.012730 173.000000
179.039310 128.000000
182.024630 226.000000
183.034870 135.000000
183.044450 135.000000
184.052950 150.000000
187.036420 150.000000
203.027530 188.000000
211.029310 203.000000
219.036790 158.000000
285.047150 211.000000
303.032560 165.000000

>ms2peaks
65.041000 6.000000
68.996430 23.000000
81.035140 9.000000
95.082760 8.000000
107.049620 11.000000
111.012990 8.000000
121.026340 13.000000
123.041090 10.000000
129.072080 8.000000
135.045940 11.000000
137.016680 8.000000
145.033290 6.000000
149.019940 7.000000
150.021300 9.000000
152.976620 9.000000
153.014250 80.000000
155.043580 8.000000
155.051700 9.000000
158.233370 6.000000
164.998470 7.000000
165.014620 20.000000
165.020290 6.000000
173.051330 10.000000
183.040770 9.000000
187.135680 8.000000
189.638640 11.000000
201.044390 10.000000
201.054090 26.000000
204.038380 6.000000
228.041520 7.000000
229.028980 7.000000
229.041370 23.000000
229.052690 19.000000
230.049930 13.000000
230.059250 16.000000
238.062190 6.000000
239.029370 8.000000
242.693770 9.000000
246.045970 6.000000
247.048100 10.000000
248.194930 7.000000
257.034580 20.000000
257.044800 15.000000
258.056820 6.000000
258.384920 11.000000
274.043490 8.000000
275.047120 9.000000
275.076750 14.000000
277.030240 7.000000
285.047000 10.000000
303.015440 16.000000
303.049320 1000.000000

>ms2peaks
303.014010 8.000000
303.049990 1000.000000

>ms2peaks
93.065220 46.000000
95.047380 40.000000
105.035740 119.000000
107.010080 35.000000
110.036720 81.000000
111.004900 40.000000
111.458180 71.000000
120.331480 42.000000
121.023780 71.000000
122.033420 42.000000
122.324940 54.000000
131.049120 38.000000
133.059860 52.000000
135.037700 71.000000
136.014510 69.000000
137.012330 165.000000
137.025300 523.000000
138.034990 60.000000
139.021650 56.000000
145.039020 42.000000
151.728470 48.000000
153.004300 71.000000
153.016890 540.000000
156.052310 44.000000
157.062210 44.000000
158.059270 42.000000
159.045460 98.000000
161.058410 81.000000
163.027050 35.000000
165.000030 50.000000
165.019870 477.000000
166.028500 115.000000
173.058170 77.000000
177.015380 44.000000
179.030870 106.000000
183.039630 38.000000
183.050090 48.000000
186.032440 56.000000
187.021850 100.000000
187.034880 100.000000
188.039060 48.000000
193.063450 65.000000
195.024800 71.000000
201.046510 229.000000
201.054550 425.000000
201.066180 142.000000
202.053830 94.000000
206.052320 35.000000
211.028990 46.000000
211.054820 48.000000
212.051760 65.000000
213.054500 119.000000
215.021820 75.000000
215.031270 56.000000
217.055130 60.000000
219.033510 48.000000
219.043300 77.000000
228.040650 119.000000
228.949330 35.000000
229.033040 152.000000
229.050610 1000.000000
230.040540 69.000000
230.052640 42.000000
230.065370 104.000000
231.047040 42.000000
231.072250 71.000000
233.046740 60.000000
239.033780 44.000000
245.037490 38.000000
248.048030 52.000000
256.040680 42.000000
257.022370 50.000000
257.045200 58.000000
258.053500 69.000000
262.039340 40.000000
274.025850 50.000000
284.972050 44.000000
285.023250 56.000000
285.050050 115.000000
292.036900 40.000000
296.428190 48.000000
302.998750 52.000000
303.045870 562.000000
303.064670 108.000000

>ms2peaks
68.992990 164.000000
71.013310 151.000000
81.041890 438.000000
89.036110 253.000000
90.037860 288.000000
91.028650 178.000000
93.034260 322.000000
96.023330 137.000000
103.049840 164.000000
105.032970 267.000000
107.017240 151.000000
107.046590 226.000000
109.027910 295.000000
110.029170 123.000000
115.048830 295.000000
115.054960 171.000000
117.028510 144.000000
117.035800 137.000000
118.040790 151.000000
121.025310 404.000000
121.031170 486.000000
122.026740 116.000000
122.033260 171.000000
123.046190 226.000000
126.048840 116.000000
127.048450 185.000000
128.056350 171.000000
131.055020 205.000000
137.022480 171.000000
138.013670 158.000000
139.555600 192.000000
144.056530 164.000000
145.073430 253.000000
146.067460 151.000000
153.009520 205.000000
153.017560 315.000000
155.012040 322.000000
155.043700 637.000000
155.053480 1000.000000
159.036010 178.000000
173.062850 253.000000
179.018280 205.000000
203.028440 432.000000
240.021650 185.000000
245.029220 123.000000

>ms2peaks
68.983910 8.000000
107.013550 7.000000
109.014790 9.000000
109.029450 21.000000
111.011050 9.000000
111.023680 11.000000
117.062870 11.000000
121.029990 10.000000
127.058540 9.000000
128.052080 9.000000
137.022690 32.000000
138.033540 5.000000
145.026550 9.000000
145.068500 7.000000
146.040730 7.000000
149.018230 11.000000
152.047100 7.000000
153.019850 90.000000
155.042620 6.000000
156.053380 12.000000
161.066120 7.000000
162.062730 7.000000
165.020980 17.000000
165.052020 11.000000
172.015850 6.000000
173.063020 8.000000
175.697570 17.000000
177.059390 7.000000
179.037430 7.000000
182.784100 5.000000
183.054370 6.000000
183.807690 5.000000
184.063030 5.000000
187.038190 10.000000
187.051590 6.000000
197.621580 16.000000
201.054660 17.000000
205.025740 8.000000
211.024280 11.000000
222.039410 9.000000
226.858430 7.000000
228.050860 7.000000
229.045650 19.000000
229.055970 59.000000
230.058320 43.000000
232.036820 9.000000
247.063420 18.000000
257.044770 27.000000
259.052460 6.000000
273.036250 5.000000
273.051420 20.000000
273.947330 6.000000
275.059360 6.000000
285.050600 13.000000
302.044800 9.000000
303.009460 33.000000
303.049470 1000.000000
303.093510 10.000000

>ms2peaks
302.031680 14.000000
303.020810 28.000000
303.050510 1000.000000

>ms2peaks
69.001560 89.000000
77.040330 27.000000
81.031750 33.000000
94.036770 32.000000
105.035440 63.000000
109.028520 45.000000
110.036960 45.000000
112.011880 104.000000
115.053920 27.000000
117.072510 39.000000
121.022490 30.000000
121.030120 128.000000
123.039890 75.000000
131.042310 32.000000
131.054500 68.000000
133.067630 92.000000
137.023480 533.000000
137.422260 39.000000
140.972370 39.000000
143.046020 27.000000
144.045490 38.000000
145.060710 30.000000
145.070830 41.000000
149.022430 50.000000
152.985440 53.000000
153.016600 1000.000000
154.019500 72.000000
154.029070 47.000000
154.084520 51.000000
155.020860 26.000000
155.038820 27.000000
155.046250 48.000000
155.056290 116.000000
156.044200 33.000000
157.052870 33.000000
161.050490 51.000000
163.029970 32.000000
163.045430 57.000000
165.021350 217.000000
166.021620 104.000000
173.058090 84.000000
173.066220 50.000000
179.027690 95.000000
183.035740 77.000000
183.048140 92.000000
184.049710 48.000000
187.033550 74.000000
195.033130 27.000000
197.027110 41.000000
201.007890 42.000000
201.034670 44.000000
201.049220 119.000000
201.059280 68.000000
205.315480 27.000000
207.022610 62.000000
213.053920 93.000000
215.027570 51.000000
216.034160 30.000000
228.040500 99.000000
229.002290 84.000000
229.027010 89.000000
229.052170 703.000000
230.045200 99.000000
233.048740 50.000000
239.032710 42.000000
239.048510 33.000000
245.048080 39.000000
246.060500 32.000000
247.066210 27.000000
257.046080 458.000000
257.063660 105.000000
258.041720 167.000000
258.774290 26.000000
263.153930 26.000000
266.993960 45.000000
274.047360 66.000000
275.055180 74.000000
285.034970 27.000000
303.006870 75.000000
303.045500 378.000000
303.060240 44.000000

>ms2peaks
68.994060 73.000000
68.999240 182.000000
77.042340 81.000000
89.041950 134.000000
91.051640 101.000000
91.059410 166.000000
95.006370 85.000000
97.031720 126.000000
107.034400 77.000000
109.027030 186.000000
111.010770 85.000000
115.052390 126.000000
115.059650 97.000000
116.871820 121.000000
123.041400 89.000000
124.047260 85.000000
127.054450 1000.000000
128.564060 166.000000
131.049440 215.000000
132.057370 97.000000
137.013110 93.000000
137.028490 332.000000
139.040190 117.000000
147.043590 97.000000
149.016420 206.000000
153.018590 198.000000
155.049040 211.000000
156.051830 130.000000
159.042910 166.000000
173.055890 85.000000
202.059490 73.000000
213.038970 69.000000

