>compound PR52539981
>parentmass 461.1456
>ionization [M+H]+
>formula C23H24O10
>rt 303.000000
>profile qtof
#smiles_iso COC1=CC=C(C=C1)C2=COC3=CC(=C(C=C3C2=O)OC)OC4C(C(C(C(O4)CO)O)O)O
#smiles_can COC1=CC=C(C=C1)C2=COC3=CC(=C(C=C3C2=O)OC)OC4C(C(C(C(O4)CO)O)O)O
#inchikey YLYJXNTZVUEFJZ-UHFFFAOYSA-N
#pubchem_id 12444947
#mb_accession PR310955

>ms2peaks
111.040770 31.000000
137.057680 33.000000
166.031200 18.000000
169.066380 23.000000
195.996310 24.000000
204.068730 30.000000
227.068240 21.000000
233.165600 18.000000
239.063950 26.000000
241.052960 20.000000
243.114170 87.000000
244.110960 42.000000
256.076840 56.000000
268.074620 43.000000
283.060090 17.000000
284.067200 132.000000
285.824830 22.000000
286.058960 18.000000
292.498170 20.000000
299.093780 2794.000000
300.046020 22.000000
300.095860 468.000000
300.117770 22.000000
301.083890 34.000000
301.106870 17.000000
302.098630 18.000000
302.529210 17.000000
404.609040 26.000000
446.409820 17.000000
461.111480 21.000000
461.141750 245.000000

