>compound PR52895691
>parentmass 366.16943642499996
>ionization [M]+
>formula C22H24NO4+
>rt 311.641065
>profile qtof
#smiles_iso CC1=C2C=CC(=C(C2=C[N+]3=C1C4=CC(=C(C=C4CC3)OC)OC)OC)OC
#smiles_can CC1=C2C=CC(=C(C2=C[N+]3=C1C4=CC(=C(C=C4CC3)OC)OC)OC)OC
#inchikey RFKQJTRWODZPHF-UHFFFAOYSA-N
#pubchem_id 34781
#mb_accession PR300716,PR300720,PR300725,PR300730,PR300739,PR300744,PR300749,PR300754,PR300758,PR300762,PR300766,PR310616

>ms2
264.099240 6.000000
278.122990 8.000000
292.103000 15.000000
293.105930 6.000000
305.142000 12.000000
306.115050 55.000000
307.122410 26.000000
308.128020 61.000000
309.130130 14.000000
318.114110 7.000000
319.116490 6.000000
321.146510 5.000000
322.144870 133.000000
323.146420 25.000000
332.095700 6.000000
334.107940 51.000000
334.131960 14.000000
334.147920 17.000000
334.160060 8.000000
335.115260 32.000000
335.151120 10.000000
336.122590 54.000000
337.126220 14.000000
350.099330 5.000000
350.139680 223.000000
351.145690 149.000000
352.151640 35.000000
353.154570 9.000000
366.107790 5.000000
366.123780 6.000000
366.169400 1000.000000
366.224060 32.000000

>ms2
366.170930 1000.000000
366.225620 30.000000

>ms2
278.123720 9.000000
292.105680 5.000000
293.107640 6.000000
305.142030 45.000000
306.109160 40.000000
306.125340 11.000000
306.149110 13.000000
307.123350 43.000000
308.119320 52.000000
308.131160 81.000000
309.122440 10.000000
309.138790 7.000000
319.119110 6.000000
319.131230 6.000000
321.093350 11.000000
321.116210 8.000000
321.129460 29.000000
322.110990 6.000000
322.143460 582.000000
323.096410 6.000000
323.146450 162.000000
324.142460 11.000000
324.153200 18.000000
334.104250 33.000000
334.143010 146.000000
335.107540 27.000000
335.128140 24.000000
335.145720 30.000000
335.159670 10.000000
336.121670 236.000000
337.119200 30.000000
337.134120 24.000000
338.142880 6.000000
348.130310 12.000000
349.132570 5.000000
350.087100 8.000000
350.107330 5.000000
350.139280 1000.000000
350.192690 6.000000
351.096830 10.000000
351.143710 553.000000
352.117220 5.000000
352.140230 58.000000
352.153050 88.000000
353.152530 12.000000
366.169920 226.000000

>ms2
91.054950 6.000000
147.071000 9.000000
169.943830 6.000000
202.080320 5.000000
205.094220 12.000000
206.069340 6.000000
208.070710 12.000000
217.099440 10.000000
220.074810 9.000000
220.089080 6.000000
222.086870 32.000000
230.104050 5.000000
231.102540 19.000000
232.074340 13.000000
232.086200 6.000000
232.097290 10.000000
232.110120 10.000000
232.119220 8.000000
233.081890 14.000000
233.101750 6.000000
234.069170 6.000000
234.085570 26.000000
234.096410 29.000000
234.106120 26.000000
235.096310 24.000000
235.108180 15.000000
236.067060 7.000000
236.105870 22.000000
242.090380 5.000000
246.097320 38.000000
247.099120 115.000000
248.065140 16.000000
248.087490 16.000000
248.105510 100.000000
249.069500 20.000000
249.079100 47.000000
249.100390 22.000000
249.122120 67.000000
250.085890 71.000000
250.115160 15.000000
251.087940 27.000000
251.102400 5.000000
258.099030 6.000000
260.106260 6.000000
260.115480 19.000000
260.127500 7.000000
261.063900 6.000000
261.110440 34.000000
261.124330 10.000000
262.073910 6.000000
262.092130 47.000000
262.127010 11.000000
263.088990 69.000000
263.098330 24.000000
263.115360 8.000000
263.130340 6.000000
264.043820 6.000000
264.053310 8.000000
264.062350 11.000000
264.075130 13.000000
264.101780 327.000000
265.078980 7.000000
265.095030 39.000000
265.109010 34.000000
265.374940 6.000000
266.101680 6.000000
272.109680 12.000000
273.108640 6.000000
274.078950 24.000000
274.091610 23.000000
275.051790 11.000000
275.095460 41.000000
276.101900 126.000000
277.074520 21.000000
277.111420 74.000000
277.129460 6.000000
278.036710 7.000000
278.067170 14.000000
278.088170 18.000000
278.122220 203.000000
279.085050 15.000000
279.111080 10.000000
279.127810 39.000000
285.950500 9.000000
287.084750 14.000000
288.092530 49.000000
288.114440 32.000000
289.059690 13.000000
289.081360 14.000000
289.095860 45.000000
289.110840 102.000000
290.082520 75.000000
290.103060 38.000000
290.113400 37.000000
290.126100 35.000000
290.133910 16.000000
291.061550 6.000000
291.089810 88.000000
291.111300 39.000000
292.030270 8.000000
292.062810 15.000000
292.098020 1000.000000
293.102360 378.000000
294.108490 37.000000
294.121150 10.000000
302.058620 7.000000
302.078030 7.000000
302.096950 7.000000
302.109770 8.000000
303.103520 6.000000
304.083890 47.000000
304.098600 164.000000
304.127200 12.000000
305.089360 15.000000
305.105710 75.000000
306.066280 13.000000
306.084410 19.000000
306.104640 272.000000
306.116520 544.000000
307.104400 69.000000
307.119930 111.000000
307.159120 9.000000
308.089360 10.000000
308.127380 260.000000
308.138920 76.000000
308.213930 6.000000
309.124330 27.000000
309.133940 30.000000
309.150270 6.000000
310.133330 8.000000
310.144070 6.000000
316.097960 11.000000
316.114930 7.000000
317.077760 8.000000
317.093510 6.000000
317.107390 12.000000
318.080320 18.000000
318.107210 170.000000
318.119960 119.000000
319.072540 6.000000
319.085720 14.000000
319.114720 39.000000
319.131500 22.000000
320.084080 19.000000
320.098330 31.000000
321.085240 9.000000
321.098110 5.000000
322.127960 6.000000
322.149780 44.000000
323.147130 7.000000
323.162050 8.000000
330.080470 14.000000
331.072200 7.000000
332.089200 289.000000
332.104100 94.000000
333.068730 7.000000
333.094760 89.000000
333.119320 16.000000
334.067900 12.000000
334.108340 768.000000
334.158840 15.000000
334.168730 6.000000
335.079380 7.000000
335.111600 175.000000
336.001040 5.000000
336.100220 7.000000
336.112790 23.000000
336.137270 8.000000
337.107060 10.000000
348.115510 10.000000
348.133910 24.000000
349.124210 10.000000
350.113220 13.000000
350.130490 20.000000
350.141570 44.000000
351.149200 13.000000

>ms2
366.169680 1000.000000
366.225340 28.000000

>ms2
278.115630 10.000000
290.113980 7.000000
292.091710 5.000000
293.135830 5.000000
305.141200 47.000000
306.082280 5.000000
306.117710 41.000000
306.145510 15.000000
307.118960 45.000000
308.128450 106.000000
309.117430 6.000000
309.131930 21.000000
318.113130 6.000000
319.121830 7.000000
321.133940 37.000000
322.093440 7.000000
322.111880 6.000000
322.144290 568.000000
323.147370 145.000000
324.146910 18.000000
334.107940 28.000000
334.143370 153.000000
335.113490 39.000000
335.149630 42.000000
336.078060 5.000000
336.122500 243.000000
337.127530 66.000000
338.125180 7.000000
338.138370 6.000000
348.120450 18.000000
350.092470 15.000000
350.138490 1000.000000
350.190640 6.000000
351.144680 541.000000
351.209500 5.000000
352.135380 23.000000
352.151980 87.000000
353.154600 20.000000
366.169710 223.000000

>ms2
146.057220 6.000000
183.072240 6.000000
187.057530 8.000000
192.084000 5.000000
198.293180 5.000000
206.099550 11.000000
208.075870 8.000000
209.075640 10.000000
215.086000 8.000000
216.078950 12.000000
217.088880 7.000000
218.082810 5.000000
218.100660 5.000000
220.077090 14.000000
220.468000 5.000000
222.086650 8.000000
222.099430 23.000000
228.077070 6.000000
231.100540 7.000000
232.076280 8.000000
233.079160 16.000000
233.114440 10.000000
234.088850 33.000000
234.099520 25.000000
235.101990 28.000000
236.076310 9.000000
236.105420 5.000000
246.083420 21.000000
246.102620 20.000000
247.091570 54.000000
247.102070 82.000000
248.071530 33.000000
248.099780 58.000000
248.111830 61.000000
249.082140 35.000000
249.111690 52.000000
249.120190 16.000000
250.089540 67.000000
250.103470 20.000000
250.119750 11.000000
250.462650 5.000000
251.087540 18.000000
259.108800 7.000000
260.079710 6.000000
260.096340 8.000000
260.108090 25.000000
260.117280 20.000000
260.130890 6.000000
261.062260 6.000000
261.075530 10.000000
261.095400 13.000000
261.108520 22.000000
261.118620 43.000000
261.586820 6.000000
262.071380 10.000000
262.086980 20.000000
262.097810 12.000000
262.118440 20.000000
262.136840 6.000000
263.094760 119.000000
263.105130 27.000000
263.127780 7.000000
263.322110 5.000000
264.101680 249.000000
265.072510 10.000000
265.105010 33.000000
265.118070 12.000000
266.105220 6.000000
273.102810 7.000000
273.118740 33.000000
274.081270 12.000000
274.109010 6.000000
275.097780 47.000000
276.058560 12.000000
276.097410 81.000000
276.108370 86.000000
276.117610 41.000000
277.064760 21.000000
277.079770 27.000000
277.098450 31.000000
277.108060 82.000000
278.074130 16.000000
278.097600 23.000000
278.117980 169.000000
279.088380 7.000000
279.116850 20.000000
279.129880 13.000000
286.077850 16.000000
287.101260 5.000000
288.098820 56.000000
289.081330 9.000000
289.108980 142.000000
290.078670 42.000000
290.092770 26.000000
290.110990 46.000000
290.121430 32.000000
290.226290 5.000000
291.063420 8.000000
291.086670 61.000000
291.098110 24.000000
291.115940 23.000000
291.132350 9.000000
292.097470 1000.000000
293.101900 334.000000
294.090000 12.000000
294.112980 29.000000
302.073390 6.000000
302.090390 10.000000
303.078770 20.000000
303.094540 11.000000
304.054570 10.000000
304.085570 49.000000
304.098690 186.000000
304.126980 10.000000
304.142610 9.000000
305.102170 92.000000
305.132020 10.000000
306.112580 737.000000
307.071500 6.000000
307.088200 12.000000
307.119510 223.000000
308.100430 18.000000
308.130550 233.000000
309.095280 7.000000
309.128360 32.000000
309.141780 20.000000
316.098720 14.000000
318.050080 7.000000
318.065730 8.000000
318.079470 28.000000
318.114650 291.000000
319.082890 14.000000
319.100070 11.000000
319.118470 50.000000
319.134490 6.000000
320.080170 17.000000
320.099370 37.000000
320.133150 12.000000
322.144470 42.000000
323.148040 7.000000
332.017970 7.000000
332.060460 18.000000
332.093780 330.000000
333.086580 40.000000
333.103330 54.000000
334.044070 11.000000
334.106870 657.000000
334.137880 24.000000
334.169620 8.000000
335.109160 191.000000
335.122710 90.000000
335.148410 24.000000
336.122130 67.000000
337.102110 6.000000
346.310270 7.000000
348.126190 64.000000
349.130580 10.000000
350.144500 51.000000
350.156520 14.000000
351.126100 8.000000
351.145020 12.000000
352.145200 13.000000

>ms2
292.102080 17.000000
305.132230 6.000000
305.148620 7.000000
306.098690 7.000000
306.118960 40.000000
307.129430 11.000000
308.108670 7.000000
308.130310 63.000000
309.121430 6.000000
309.140410 7.000000
318.124270 6.000000
321.146700 8.000000
322.136570 63.000000
322.152100 73.000000
323.146090 18.000000
323.160580 10.000000
334.107240 30.000000
334.135380 20.000000
334.158450 14.000000
335.110840 22.000000
335.146420 13.000000
336.113070 20.000000
336.136230 21.000000
337.121700 15.000000
348.112980 7.000000
350.139400 228.000000
351.109310 5.000000
351.146700 156.000000
352.143680 19.000000
352.157990 19.000000
353.147490 5.000000
366.109190 6.000000
366.170620 1000.000000
366.226440 27.000000

>ms2
366.169370 1000.000000
366.224820 32.000000

>ms2
278.122740 8.000000
292.089570 7.000000
293.111020 6.000000
305.139190 43.000000
305.150940 20.000000
306.113100 35.000000
306.131410 18.000000
306.151120 14.000000
307.118320 38.000000
307.134030 10.000000
308.101470 7.000000
308.128230 88.000000
309.132390 23.000000
319.122920 10.000000
320.095760 7.000000
320.123230 8.000000
321.088260 8.000000
321.109380 5.000000
321.138370 44.000000
322.111270 12.000000
322.144650 585.000000
323.148710 135.000000
324.138890 7.000000
324.158360 11.000000
334.094480 8.000000
334.107030 16.000000
334.124510 37.000000
334.145720 143.000000
335.107970 28.000000
335.125850 24.000000
335.140620 16.000000
335.153440 23.000000
336.123840 234.000000
337.121980 41.000000
337.137210 31.000000
338.133060 10.000000
348.117890 13.000000
350.139160 1000.000000
351.104280 9.000000
351.145020 524.000000
352.116360 6.000000
352.149230 132.000000
353.151250 13.000000
366.167660 202.000000

>ms2
146.061840 5.000000
148.058760 5.000000
161.062300 8.000000
175.064390 7.000000
186.046520 5.000000
191.081540 6.000000
204.083760 6.000000
205.088550 7.000000
206.098180 7.000000
208.074750 10.000000
208.088500 5.000000
218.099350 6.000000
219.068390 7.000000
219.094470 7.000000
220.078810 22.000000
222.066090 5.000000
222.089660 33.000000
222.095670 14.000000
227.352690 7.000000
228.903110 7.000000
229.035160 5.000000
230.100270 11.000000
231.103530 9.000000
232.109070 18.000000
233.071440 7.000000
233.079910 14.000000
233.095780 5.000000
234.091950 102.000000
235.093600 22.000000
235.104690 17.000000
236.103580 24.000000
237.115740 6.000000
244.076800 9.000000
245.087430 6.000000
246.074980 8.000000
246.090770 54.000000
247.067600 14.000000
247.086730 32.000000
247.100520 157.000000
248.073520 36.000000
248.109570 82.000000
248.136440 6.000000
249.080630 48.000000
249.106410 39.000000
249.114790 29.000000
250.075300 9.000000
250.089550 70.000000
250.115570 6.000000
250.124880 7.000000
251.093580 12.000000
258.088990 6.000000
259.093480 6.000000
260.107670 45.000000
261.078700 25.000000
261.108490 10.000000
261.117100 37.000000
262.085570 72.000000
262.116240 22.000000
262.127900 31.000000
263.092590 147.000000
264.052370 8.000000
264.065520 25.000000
264.077820 13.000000
264.102970 361.000000
265.076020 5.000000
265.098940 62.000000
266.117490 7.000000
273.103580 6.000000
273.119380 22.000000
274.085080 32.000000
274.125310 11.000000
275.081760 18.000000
275.104950 20.000000
276.099700 108.000000
276.111270 51.000000
277.070430 33.000000
277.081700 17.000000
277.104250 87.000000
277.119750 45.000000
278.079190 12.000000
278.101470 13.000000
278.119170 131.000000
279.081020 14.000000
279.118290 18.000000
287.093810 26.000000
288.062770 6.000000
288.100590 68.000000
289.043550 7.000000
289.073790 7.000000
289.109710 172.000000
290.074620 24.000000
290.087710 54.000000
290.112430 37.000000
290.122530 80.000000
291.060270 8.000000
291.086120 65.000000
291.098850 33.000000
291.124110 32.000000
292.098360 1000.000000
292.330930 6.000000
293.102110 339.000000
294.093170 15.000000
294.111600 39.000000
294.151060 6.000000
295.089630 7.000000
302.078610 11.000000
302.135680 6.000000
303.096100 23.000000
304.063450 12.000000
304.085330 36.000000
304.099090 172.000000
304.121800 12.000000
304.211330 7.000000
305.056240 9.000000
305.084660 19.000000
305.101200 71.000000
305.116640 30.000000
305.142300 7.000000
305.213650 5.000000
306.078120 45.000000
306.112610 828.000000
306.155270 7.000000
307.117830 211.000000
308.085050 5.000000
308.099490 22.000000
308.117740 89.000000
308.128600 308.000000
309.135350 65.000000
316.098850 6.000000
317.060420 8.000000
317.100100 5.000000
318.077910 26.000000
318.110810 272.000000
319.079160 6.000000
319.095860 13.000000
319.118840 67.000000
319.131530 19.000000
320.093630 49.000000
320.109990 17.000000
320.130490 13.000000
322.099880 6.000000
322.144260 47.000000
322.217860 6.000000
330.072910 9.000000
332.046020 12.000000
332.068390 20.000000
332.092800 378.000000
332.204160 8.000000
333.096500 103.000000
334.052250 7.000000
334.078120 20.000000
334.107640 905.000000
334.144870 38.000000
335.057620 6.000000
335.113830 206.000000
335.130890 36.000000
335.148250 7.000000
336.106170 28.000000
336.117430 45.000000
348.120120 56.000000
349.114070 16.000000
350.122160 23.000000
350.133060 50.000000
350.147980 38.000000
351.115200 7.000000
351.135440 8.000000

>ms2
54.322510 18.000000
67.993900 17.000000
102.685390 17.000000
103.480950 23.000000
118.888630 21.000000
120.061470 44.000000
155.046540 17.000000
158.318560 32.000000
172.456090 17.000000
182.312580 28.000000
190.351460 22.000000
191.940770 17.000000
198.115280 18.000000
203.907360 24.000000
209.668050 49.000000
211.452410 27.000000
212.914640 36.000000
212.933980 19.000000
216.083630 30.000000
217.466630 17.000000
219.823530 19.000000
221.898360 26.000000
222.929000 33.000000
224.002660 17.000000
229.208360 17.000000
231.531280 21.000000
231.590420 17.000000
234.717970 17.000000
236.072400 34.000000
236.584880 30.000000
237.617840 20.000000
238.377700 30.000000
238.443730 36.000000
238.875380 18.000000
239.007350 17.000000
245.094060 24.000000
247.097990 105.000000
247.119570 55.000000
248.057570 18.000000
248.095460 66.000000
248.113910 18.000000
249.070570 18.000000
249.082460 44.000000
249.109630 29.000000
249.126510 50.000000
249.519700 21.000000
250.078780 33.000000
250.095180 53.000000
250.124160 40.000000
250.356800 34.000000
251.089170 41.000000
252.153730 58.000000
253.729610 24.000000
255.930540 19.000000
257.070620 21.000000
258.093050 21.000000
258.583130 18.000000
259.014340 27.000000
259.095950 21.000000
260.108950 48.000000
260.291690 33.000000
260.373840 40.000000
261.089050 21.000000
261.114070 68.000000
261.179140 33.000000
263.108860 18.000000
264.069980 23.000000
264.084780 28.000000
264.099240 254.000000
264.113190 19.000000
264.128080 32.000000
265.121430 34.000000
266.178860 25.000000
273.956540 24.000000
274.109160 19.000000
275.051820 19.000000
275.083620 30.000000
276.088780 32.000000
276.098210 48.000000
276.113160 54.000000
277.079960 28.000000
277.113920 98.000000
278.108120 184.000000
278.122990 355.000000
278.657590 23.000000
278.797580 19.000000
279.002010 26.000000
279.109800 67.000000
280.119260 58.000000
286.087890 40.000000
288.057100 17.000000
288.086490 30.000000
288.110290 26.000000
289.060850 21.000000
289.089360 17.000000
289.104190 72.000000
289.119080 100.000000
289.130680 65.000000
290.075130 20.000000
290.088380 25.000000
290.112120 182.000000
291.075900 38.000000
291.117400 31.000000
291.127470 40.000000
292.050630 17.000000
292.064610 28.000000
292.103000 647.000000
292.131990 22.000000
292.995790 17.000000
293.094120 144.000000
293.105930 279.000000
293.125640 34.000000
293.137730 25.000000
293.163360 34.000000
293.543430 18.000000
293.793120 28.000000
293.933170 25.000000
294.106290 123.000000
294.131710 23.000000
294.675870 25.000000
295.162260 48.000000
299.272890 34.000000
302.276370 17.000000
302.975890 32.000000
303.077850 20.000000
304.087830 90.000000
304.129610 59.000000
304.557500 17.000000
305.073850 48.000000
305.091160 58.000000
305.103520 186.000000
305.142000 527.000000
305.151550 216.000000
305.246310 18.000000
305.723790 27.000000
305.789890 18.000000
306.032260 28.000000
306.050350 24.000000
306.061800 73.000000
306.115050 2434.000000
306.151400 126.000000
306.170530 50.000000
306.356510 21.000000
306.818630 23.000000
307.103640 144.000000
307.122410 1153.000000
307.270480 24.000000
307.518190 23.000000
307.718080 18.000000
307.998690 22.000000
308.065830 63.000000
308.100740 155.000000
308.128020 2707.000000
308.166290 29.000000
308.180660 29.000000
308.322390 17.000000
308.347690 17.000000
308.462250 17.000000
308.492980 20.000000
308.588260 17.000000
309.053920 20.000000
309.130130 620.000000
309.145970 122.000000
310.105650 35.000000
310.133730 59.000000
310.151340 18.000000
310.281100 41.000000
310.983490 17.000000
313.706420 17.000000
314.670350 18.000000
316.383060 24.000000
317.093020 22.000000
317.866330 22.000000
318.096310 85.000000
318.114110 298.000000
318.130370 113.000000
318.171970 26.000000
318.408170 24.000000
318.450200 17.000000
318.822690 25.000000
319.098720 24.000000
319.116490 256.000000
320.082240 36.000000
320.095830 150.000000
320.117490 70.000000
320.136690 39.000000
321.066530 22.000000
321.098450 117.000000
321.130860 217.000000
321.146510 229.000000
321.450990 20.000000
321.852330 31.000000
322.029570 20.000000
322.077700 29.000000
322.104580 20.000000
322.121400 191.000000
322.144870 5869.000000
322.189610 21.000000
322.377320 26.000000
323.096100 48.000000
323.146420 1122.000000
323.398500 20.000000
324.112670 25.000000
324.124300 20.000000
324.142360 20.000000
324.156010 64.000000
324.167630 25.000000
324.737400 20.000000
325.209350 21.000000
325.674470 21.000000
328.200530 19.000000
330.175450 17.000000
331.798490 19.000000
332.032710 24.000000
332.078770 37.000000
332.095700 253.000000
333.089420 27.000000
333.106870 69.000000
333.144350 21.000000
334.028930 29.000000
334.053680 26.000000
334.107940 2230.000000
334.131960 610.000000
334.147920 769.000000
334.160060 346.000000
334.441680 21.000000
334.738280 28.000000
334.817080 17.000000
335.083160 45.000000
335.115260 1430.000000
335.151120 422.000000
335.429050 30.000000
335.469730 18.000000
335.617890 18.000000
335.908720 41.000000
335.919650 18.000000
336.122590 2373.000000
336.200290 24.000000
336.309780 18.000000
337.049380 21.000000
337.126220 623.000000
338.130650 81.000000
338.268710 20.000000
338.760860 23.000000
340.026820 21.000000
342.300900 18.000000
344.797580 19.000000
345.413600 22.000000
347.027800 22.000000
347.981170 17.000000
348.111020 133.000000
348.124390 112.000000
348.140720 18.000000
348.736570 36.000000
349.122130 77.000000
350.060820 20.000000
350.079830 50.000000
350.099330 229.000000
350.139680 9856.000000
350.240840 17.000000
350.399930 28.000000
350.729190 20.000000
350.742550 26.000000
351.035190 21.000000
351.055760 18.000000
351.083620 48.000000
351.104520 71.000000
351.145690 6573.000000
351.463590 24.000000
351.582950 22.000000
351.786870 34.000000
351.829960 20.000000
351.928620 22.000000
352.100370 20.000000
352.117830 198.000000
352.151640 1554.000000
352.233760 26.000000
353.103880 25.000000
353.154570 403.000000
353.182370 20.000000
353.228150 34.000000
353.711120 17.000000
354.143490 46.000000
354.158330 30.000000
355.422490 34.000000
355.442140 18.000000
355.859710 26.000000
357.558990 20.000000
359.026460 20.000000
362.786900 32.000000
363.130220 26.000000
363.937230 21.000000
364.313050 24.000000
365.157200 32.000000
365.191500 18.000000
365.615750 21.000000
365.921780 25.000000
366.084010 106.000000
366.107790 241.000000
366.123780 278.000000
366.169400 44108.000000
366.224060 1390.000000
366.254640 17.000000
366.271060 46.000000
366.285520 15.000000
366.316530 18.000000
366.333190 17.000000

