>compound PR52211990
>parentmass 189.1022395
>ionization [M+H]+
>formula C11H12N2O
>rt 152.851020
>profile qtof
#smiles_iso C1CN2CC3=CC=CC=C3N=C2[C@@H]1O
#smiles_can C1CN2CC3=CC=CC=C3N=C2C1O
#inchikey YIICVSCAKJMMDJ-SNVBAGLBSA-N
#pubchem_id 442929
#mb_accession PR301185,PR301189,PR301192,PR301196,PR301200,PR301204,PR301208,PR301211,PR301215,PR301219,PR301223,PR301227

>ms2peaks
116.049960 10.000000
117.058650 7.000000
118.068100 88.000000
119.070130 6.000000
129.069670 7.000000
143.061550 6.000000
143.079470 15.000000
144.076860 8.000000
144.083850 14.000000
154.068130 21.000000
155.073870 8.000000
169.065050 5.000000
169.076800 18.000000
171.092510 186.000000
172.094760 26.000000
172.102260 7.000000
189.041990 6.000000
189.076390 11.000000
189.103120 1000.000000

>ms2peaks
118.066940 5.000000
171.091350 29.000000
189.102540 1000.000000

>ms2peaks
54.035560 12.000000
77.035700 10.000000
77.040500 28.000000
80.050090 11.000000
90.185800 9.000000
91.051190 31.000000
91.054700 82.000000
91.060460 33.000000
101.040370 18.000000
102.025860 12.000000
103.050830 13.000000
104.052220 15.000000
104.059580 10.000000
106.062450 9.000000
106.074940 10.000000
115.053600 53.000000
116.048720 30.000000
116.053360 53.000000
116.060500 15.000000
117.058770 142.000000
117.068480 22.000000
118.051930 43.000000
118.066260 1000.000000
118.108250 12.000000
119.063140 11.000000
119.072110 9.000000
120.074550 10.000000
127.053990 42.000000
128.039930 11.000000
128.048310 49.000000
128.054690 24.000000
129.045760 13.000000
130.060680 44.000000
130.068100 14.000000
131.064330 10.000000
131.073730 9.000000
132.055600 13.000000
132.064010 10.000000
140.045350 9.000000
142.047100 9.000000
142.065550 49.000000
143.056900 44.000000
143.071500 81.000000
143.077500 82.000000
144.077350 163.000000
144.088410 19.000000
145.088470 21.000000
150.058780 9.000000
150.125090 10.000000
153.061570 10.000000
154.059520 43.000000
154.071290 71.000000
155.068040 9.000000
155.075700 9.000000
155.759720 11.000000
156.069700 20.000000
157.709290 14.000000
160.066860 9.000000
163.996750 13.000000
167.034480 10.000000
167.053120 11.000000
169.076480 310.000000
170.073680 24.000000
170.084590 37.000000
171.088910 285.000000
171.097110 250.000000
172.084230 9.000000
172.099980 37.000000
172.107800 13.000000
173.097240 10.000000
189.094020 45.000000
189.105180 169.000000
189.117460 14.000000

>ms2peaks
65.038280 163.000000
77.039150 146.000000
91.051440 163.000000
103.057110 138.000000
104.053480 244.000000
115.052580 317.000000
117.058210 1000.000000
117.198260 228.000000
118.062030 797.000000
126.047380 163.000000
144.082380 268.000000
156.074830 350.000000
169.083790 187.000000
189.101940 220.000000

>ms2peaks
116.050330 7.000000
117.065640 6.000000
118.061030 27.000000
118.068250 54.000000
130.068740 5.000000
142.065840 6.000000
143.072460 12.000000
143.080600 14.000000
144.082380 25.000000
154.065260 16.000000
169.073440 17.000000
169.080980 12.000000
170.079220 7.000000
171.092010 246.000000
172.093430 10.000000
189.102110 1000.000000

>ms2peaks
171.092380 34.000000
171.098820 12.000000
189.103440 1000.000000

>ms2peaks
79.229160 13.000000
91.056060 107.000000
92.054530 38.000000
95.264590 12.000000
103.061020 13.000000
103.793130 13.000000
104.041880 19.000000
104.055270 13.000000
105.057850 33.000000
106.067550 20.000000
108.930640 11.000000
115.046130 13.000000
115.056340 61.000000
115.263670 13.000000
115.499950 13.000000
116.049290 88.000000
116.067340 41.000000
117.048860 23.000000
117.056110 43.000000
117.062450 21.000000
117.072490 38.000000
117.077670 10.000000
117.210590 9.000000
118.035710 16.000000
118.064650 1000.000000
118.081900 25.000000
118.951470 9.000000
119.069860 71.000000
120.073970 10.000000
120.716450 11.000000
121.047190 13.000000
121.185220 10.000000
121.249510 11.000000
123.114920 12.000000
127.056020 39.000000
128.041530 20.000000
128.048650 22.000000
129.044460 14.000000
130.062870 43.000000
131.063720 10.000000
132.069030 11.000000
135.485720 10.000000
142.063740 22.000000
142.073910 11.000000
143.050630 18.000000
143.060530 65.000000
143.074770 191.000000
143.088090 11.000000
144.081340 246.000000
145.081620 21.000000
145.089680 34.000000
154.049010 17.000000
154.060390 80.000000
154.066300 74.000000
155.060610 18.000000
155.070010 37.000000
155.761860 10.000000
156.066560 50.000000
168.069240 39.000000
169.072920 170.000000
169.080320 219.000000
169.943020 11.000000
170.073790 70.000000
170.095780 27.000000
171.053090 13.000000
171.077760 27.000000
171.093370 440.000000
172.095150 78.000000
172.102550 39.000000
189.103490 155.000000

>ms2peaks
89.036930 398.000000
101.043700 247.000000
106.066280 462.000000
115.054590 194.000000
118.062990 1000.000000
127.055830 204.000000
128.051470 441.000000
129.045300 290.000000
130.068420 215.000000
143.069600 183.000000
143.076350 419.000000
144.077410 247.000000
154.059160 183.000000
169.981290 269.000000
189.099840 849.000000

>ms2peaks
91.052500 9.000000
116.049940 6.000000
117.070850 5.000000
118.054660 10.000000
118.065120 109.000000
119.061990 7.000000
119.071300 5.000000
128.058400 5.000000
143.056050 9.000000
143.072490 15.000000
144.066480 7.000000
144.082200 22.000000
154.061550 17.000000
154.068340 16.000000
169.076640 35.000000
171.091690 185.000000
172.097530 43.000000
189.067430 10.000000
189.103300 1000.000000

>ms2peaks
171.092590 35.000000
189.102580 1000.000000

>ms2peaks
68.052540 11.000000
77.039730 23.000000
78.046790 9.000000
78.341670 9.000000
91.045970 12.000000
91.051980 42.000000
91.056110 43.000000
92.061700 12.000000
102.032390 11.000000
103.056020 11.000000
104.047180 44.000000
106.064350 10.000000
108.906400 14.000000
114.095570 15.000000
115.054660 17.000000
115.559680 10.000000
115.643230 10.000000
116.031030 9.000000
116.049780 138.000000
117.059010 150.000000
117.071580 11.000000
117.985310 10.000000
118.034820 11.000000
118.065150 1000.000000
119.069540 116.000000
126.042160 10.000000
127.052990 98.000000
128.053800 23.000000
130.060820 27.000000
130.068910 46.000000
131.052570 12.000000
131.067030 83.000000
142.069600 22.000000
143.046800 10.000000
143.061330 31.000000
143.073300 291.000000
144.054380 11.000000
144.068330 26.000000
144.074770 74.000000
144.082980 156.000000
144.592820 10.000000
145.082230 34.000000
154.058500 42.000000
154.067730 95.000000
155.063670 22.000000
155.068500 54.000000
156.069060 9.000000
157.085530 9.000000
168.067920 14.000000
169.035640 12.000000
169.060490 13.000000
169.077610 227.000000
170.061980 14.000000
170.083480 27.000000
171.049730 12.000000
171.093480 694.000000
172.091710 41.000000
172.100190 10.000000
173.092420 15.000000
175.803220 9.000000
189.097170 49.000000
189.105550 46.000000

>ms2peaks
65.039130 127.000000
77.038890 420.000000
77.043240 253.000000
78.356470 133.000000
89.036790 167.000000
91.052510 167.000000
92.062190 140.000000
116.062690 113.000000
117.054950 147.000000
117.074680 133.000000
118.065770 1000.000000
119.069000 113.000000
131.058790 133.000000
140.050750 173.000000
142.063080 113.000000
143.072250 560.000000
154.064410 147.000000
154.073730 120.000000
169.078540 133.000000
170.084900 120.000000
189.098160 120.000000

