>compound PR52831091
>parentmass 401.2070985
>ionization [M+H]+
>formula C22H28N2O5
>rt 233.392020
>profile qtof
#smiles_iso CO[C@H]1[C@@H](C[C@@H]2CN3CCC4=C([C@H]3C[C@@H]2[C@@H]1C(=O)O)NC5=C4C=CC(=C5)OC)O
#smiles_can COC1C(CC2CN3CCC4=C(C3CC2C1C(=O)O)NC5=C4C=CC(=C5)OC)O
#inchikey JVHNBFFHWQQPLL-WOXROFTLSA-N
#pubchem_id 65747
#mb_accession PR301742,PR301745,PR301748,PR301751,PR301754,PR301757,PR301760,PR301763,PR301766,PR301769,PR301772,PR301775

>ms2
159.069840 21.000000
160.075270 7.000000
161.084260 5.000000
162.092150 8.000000
174.091960 260.000000
175.095310 41.000000
178.085680 7.000000
188.108510 29.000000
226.104830 7.000000
226.117650 5.000000
228.124190 52.000000
238.127260 5.000000
240.124910 115.000000
241.127370 22.000000
372.182590 13.000000
383.200530 9.000000
384.181400 12.000000
401.152280 7.000000
401.204960 1000.000000
401.260470 20.000000
401.270290 9.000000

>ms2
401.151120 7.000000
401.207030 1000.000000
401.264920 29.000000

>ms2
117.064660 5.000000
117.072030 7.000000
131.074740 15.000000
133.065780 7.000000
142.072720 5.000000
143.075030 23.000000
159.059340 7.000000
159.070050 32.000000
160.072160 11.000000
160.080860 23.000000
161.087460 26.000000
162.084920 5.000000
162.093190 18.000000
164.111940 9.000000
173.090680 6.000000
174.091780 1000.000000
175.095790 119.000000
176.105440 20.000000
178.078450 14.000000
178.089580 40.000000
179.076250 6.000000
187.099240 6.000000
188.106020 70.000000
188.112690 29.000000
189.107160 15.000000
189.116210 6.000000
190.088680 6.000000
194.073930 6.000000
194.087050 17.000000
196.100270 26.000000
200.108780 8.000000
208.100070 18.000000
210.107030 21.000000
210.119950 18.000000
222.116420 14.000000
224.117220 7.000000
226.107880 32.000000
226.121670 15.000000
228.122330 122.000000
228.132250 48.000000
229.118590 12.000000
229.131940 11.000000
236.111340 6.000000
238.125170 20.000000
239.135880 6.000000
240.125000 434.000000
241.124070 52.000000
241.133000 23.000000
242.133910 10.000000
250.123990 10.000000
251.122760 9.000000
252.131380 6.000000
261.111660 11.000000
275.139100 8.000000
294.146580 5.000000
296.170260 6.000000
308.168610 8.000000
322.133480 9.000000
322.151460 6.000000
323.159790 8.000000
334.136540 10.000000
340.155910 8.000000
340.172670 9.000000
351.166260 8.000000
352.145140 12.000000
352.164090 15.000000
354.178380 10.000000
358.164730 5.000000
367.166630 5.000000
369.182800 10.000000
372.170720 15.000000
372.193660 11.000000
383.185460 11.000000
383.211730 11.000000
384.167820 11.000000
384.190060 13.000000
399.208830 5.000000
400.187070 6.000000
401.161710 5.000000
401.208470 164.000000

>ms2
55.058090 7.000000
79.056820 12.000000
91.055530 31.000000
92.055630 7.000000
93.055920 15.000000
94.065730 22.000000
95.068730 5.000000
105.070690 45.000000
106.068030 31.000000
107.056340 12.000000
107.068720 10.000000
107.075190 19.000000
108.041220 9.000000
108.056840 16.000000
115.045250 8.000000
115.053670 48.000000
117.055510 22.000000
117.070660 37.000000
118.062170 12.000000
118.071090 10.000000
119.054610 9.000000
119.073150 13.000000
119.087270 8.000000
120.047050 5.000000
120.054640 8.000000
120.078170 11.000000
120.084430 23.000000
121.062570 28.000000
122.068350 6.000000
123.079800 6.000000
128.065720 5.000000
129.068160 18.000000
130.065550 132.000000
131.046250 11.000000
131.073580 421.000000
132.047710 6.000000
132.059830 24.000000
132.073320 48.000000
132.082820 54.000000
133.046420 10.000000
133.064410 12.000000
133.083910 11.000000
134.096370 18.000000
135.044370 16.000000
135.080690 8.000000
137.049320 6.000000
138.092060 6.000000
140.058060 5.000000
142.066120 48.000000
143.073390 367.000000
144.057560 11.000000
144.077790 88.000000
144.091060 9.000000
145.055270 34.000000
145.079790 10.000000
145.089840 26.000000
146.062960 75.000000
147.044660 5.000000
147.066120 12.000000
147.074480 38.000000
147.083020 30.000000
147.109360 9.000000
148.077390 31.000000
149.087270 11.000000
150.088850 10.000000
152.071500 16.000000
153.095700 5.000000
154.067960 7.000000
156.079770 6.000000
157.064970 6.000000
157.086440 14.000000
158.061450 54.000000
158.074830 9.000000
158.513370 6.000000
159.068120 739.000000
160.037460 7.000000
160.071980 151.000000
160.086240 9.000000
161.059920 11.000000
161.082180 69.000000
162.086980 13.000000
162.100750 6.000000
163.098880 9.000000
164.102580 6.000000
164.114300 8.000000
167.071120 17.000000
168.086720 12.000000
170.057220 22.000000
170.788250 7.000000
171.085070 5.000000
172.069520 35.000000
172.080410 31.000000
173.082600 114.000000
174.055770 15.000000
174.072880 14.000000
174.091660 1000.000000
175.087450 34.000000
175.096980 92.000000
176.068340 22.000000
176.091460 9.000000
178.086490 17.000000
178.098790 8.000000
179.077180 5.000000
180.081850 10.000000
181.091220 8.000000
182.059780 7.000000
182.108440 6.000000
184.071060 11.000000
184.076740 29.000000
185.083010 25.000000
185.095570 9.000000
186.094650 35.000000
187.080110 6.000000
187.090550 14.000000
187.100250 24.000000
188.090480 6.000000
188.103010 24.000000
188.111470 20.000000
190.093290 17.000000
191.080780 6.000000
192.079860 9.000000
192.086640 7.000000
193.078490 6.000000
193.088460 8.000000
194.082920 8.000000
194.098180 15.000000
196.077640 19.000000
196.098100 14.000000
197.055540 6.000000
197.079800 7.000000
197.087620 15.000000
198.092560 23.000000
199.095610 12.000000
200.099910 16.000000
202.076310 6.000000
204.080250 17.000000
206.090100 15.000000
207.080000 7.000000
207.101210 5.000000
208.081210 7.000000
208.108200 12.000000
209.087550 12.000000
210.090160 64.000000
211.083160 7.000000
211.091710 15.000000
211.100770 7.000000
212.110310 8.000000
213.105190 8.000000
213.117870 7.000000
218.099780 13.000000
219.103700 24.000000
220.078060 10.000000
220.093950 6.000000
220.107640 6.000000
220.117340 7.000000
222.085430 10.000000
222.098570 28.000000
222.111110 9.000000
222.124860 8.000000
223.098570 28.000000
224.108840 63.000000
225.101430 7.000000
226.126330 11.000000
228.139560 8.000000
230.096070 9.000000
231.100160 7.000000
233.086470 22.000000
234.096050 27.000000
235.100140 9.000000
236.097840 30.000000
236.111890 26.000000
237.106410 20.000000
237.120000 7.000000
238.114790 11.000000
238.125610 10.000000
239.127320 19.000000
240.124570 28.000000
241.129320 6.000000
244.108700 10.000000
246.081910 13.000000
246.093780 12.000000
247.093780 10.000000
248.107410 30.000000
249.110170 13.000000
250.115680 7.000000
251.108050 10.000000
251.128080 20.000000
253.128710 11.000000
257.456910 8.000000
258.091370 5.000000
260.109410 9.000000
261.090760 8.000000
261.120700 8.000000
262.083620 6.000000
262.109100 13.000000
262.123660 19.000000
263.127930 15.000000
266.140470 6.000000
273.139830 7.000000
274.115170 10.000000
275.123170 8.000000
275.134250 7.000000
276.102480 6.000000
276.135070 6.000000
277.115230 5.000000
278.125700 6.000000
288.134060 7.000000
289.106320 6.000000
292.099460 5.000000
294.124510 5.000000
294.138210 9.000000
300.117070 7.000000
401.210170 7.000000

>ms2
143.070600 8.000000
159.068130 18.000000
160.071000 6.000000
160.077380 6.000000
161.086820 6.000000
174.091190 245.000000
175.094500 41.000000
178.087370 8.000000
188.106930 23.000000
188.117680 6.000000
226.105640 6.000000
226.117280 6.000000
228.124570 39.000000
229.121730 8.000000
240.124240 128.000000
241.119930 7.000000
241.132840 10.000000
242.129610 5.000000
372.178310 5.000000
383.197050 8.000000
384.183720 9.000000
401.153870 6.000000
401.204800 1000.000000
401.262570 23.000000

>ms2
401.153050 7.000000
401.207860 1000.000000
401.265930 29.000000

>ms2
94.063850 7.000000
106.062840 5.000000
117.066540 9.000000
131.071330 8.000000
134.096050 6.000000
147.078050 6.000000
148.079830 6.000000
159.068980 31.000000
160.073990 27.000000
161.077120 9.000000
161.087400 11.000000
162.090290 29.000000
164.107150 7.000000
173.085600 7.000000
174.092350 1000.000000
175.095610 126.000000
176.073520 9.000000
176.093380 6.000000
176.103420 8.000000
176.110930 6.000000
178.087340 45.000000
179.072860 9.000000
182.086200 6.000000
187.100880 8.000000
188.108170 94.000000
189.111770 9.000000
190.090900 6.000000
194.080110 7.000000
194.090380 10.000000
196.098620 26.000000
198.094500 5.000000
199.100130 9.000000
200.107410 9.000000
208.091750 14.000000
208.101090 25.000000
210.114410 35.000000
211.114610 7.000000
212.106840 5.000000
222.116550 10.000000
226.103820 15.000000
226.116710 28.000000
227.124470 10.000000
228.116710 59.000000
228.127080 76.000000
229.123990 22.000000
229.136350 9.000000
236.112110 8.000000
237.120590 5.000000
238.117000 11.000000
238.129180 8.000000
239.133090 6.000000
240.124740 381.000000
241.128310 67.000000
242.126220 8.000000
251.133740 6.000000
252.144260 5.000000
262.126430 5.000000
266.140960 6.000000
275.130310 6.000000
276.142910 13.000000
278.156160 8.000000
288.134640 6.000000
295.149960 6.000000
322.137510 14.000000
322.153630 18.000000
334.147610 14.000000
340.150910 15.000000
340.164280 6.000000
352.159790 17.000000
354.159060 5.000000
354.174960 15.000000
366.162320 7.000000
367.174130 7.000000
370.164460 7.000000
372.166530 6.000000
372.185610 18.000000
383.192230 7.000000
384.191010 27.000000
401.208190 127.000000

>ms2
70.065640 6.000000
79.054010 6.000000
80.050260 7.000000
81.070140 5.000000
82.064860 8.000000
91.054390 42.000000
91.059820 22.000000
93.061420 5.000000
93.073210 5.000000
94.065070 27.000000
94.069480 8.000000
95.049620 8.000000
95.085660 5.000000
96.084050 7.000000
103.057750 16.000000
105.039260 6.000000
105.071370 32.000000
105.077260 8.000000
106.068110 20.000000
106.074520 5.000000
107.050280 29.000000
107.073400 31.000000
108.043320 6.000000
108.081130 6.000000
109.061200 6.000000
115.046960 10.000000
115.054740 60.000000
116.060430 13.000000
117.048480 13.000000
117.054840 11.000000
117.063360 21.000000
117.072290 41.000000
118.060510 10.000000
118.069700 8.000000
119.086810 17.000000
120.080260 15.000000
121.065290 19.000000
122.067870 6.000000
127.057160 6.000000
130.050170 7.000000
130.064710 110.000000
130.077530 14.000000
131.048310 9.000000
131.060040 24.000000
131.074450 390.000000
132.052780 26.000000
132.075150 62.000000
132.084370 35.000000
133.045550 7.000000
133.067140 12.000000
133.082370 10.000000
134.101490 8.000000
136.079350 9.000000
138.089280 8.000000
142.055330 12.000000
142.062850 55.000000
142.070540 27.000000
143.073270 307.000000
144.048430 8.000000
144.073970 34.000000
144.081210 41.000000
145.045560 7.000000
145.055010 6.000000
145.062150 6.000000
145.069030 9.000000
145.078700 26.000000
145.090390 11.000000
146.060390 80.000000
146.095090 23.000000
147.068820 27.000000
147.079210 46.000000
147.089870 5.000000
148.071610 21.000000
148.084810 6.000000
149.084350 10.000000
150.090880 27.000000
150.100140 6.000000
151.094680 6.000000
152.068470 7.000000
154.065700 9.000000
154.074750 7.000000
156.085310 9.000000
157.085970 9.000000
158.055130 25.000000
158.063130 23.000000
159.068480 685.000000
160.060680 16.000000
160.074550 156.000000
161.083530 52.000000
161.100710 10.000000
162.085820 28.000000
162.100040 16.000000
163.102430 7.000000
164.068470 11.000000
164.105010 5.000000
170.062870 20.000000
172.059050 5.000000
172.073230 30.000000
172.081830 20.000000
173.084410 152.000000
173.102600 6.000000
174.055710 8.000000
174.069020 7.000000
174.092440 1000.000000
175.086030 29.000000
175.096560 115.000000
176.081470 9.000000
176.101000 9.000000
178.070450 8.000000
178.090550 18.000000
179.090520 7.000000
180.090710 9.000000
182.081250 8.000000
182.092500 6.000000
183.065800 8.000000
184.080730 12.000000
185.091160 6.000000
186.089690 18.000000
186.103910 9.000000
187.099430 17.000000
188.066770 6.000000
188.108060 59.000000
189.101470 9.000000
189.110350 9.000000
192.076900 7.000000
192.088210 6.000000
193.089750 15.000000
194.074070 6.000000
194.091890 10.000000
196.074550 12.000000
196.083100 7.000000
196.097080 9.000000
197.078660 9.000000
197.091930 13.000000
198.093050 22.000000
199.084210 9.000000
199.095810 9.000000
200.081990 7.000000
200.107770 21.000000
201.112530 6.000000
204.080180 15.000000
205.087680 12.000000
206.098160 22.000000
207.088230 9.000000
207.105930 5.000000
208.080510 16.000000
208.110920 8.000000
210.092800 43.000000
210.116500 12.000000
211.098100 22.000000
211.110090 6.000000
212.108310 12.000000
213.106580 7.000000
218.101940 8.000000
220.080990 10.000000
221.079680 15.000000
221.092040 6.000000
221.116460 5.000000
222.091320 38.000000
222.107880 7.000000
223.096390 34.000000
223.115750 6.000000
224.104230 36.000000
224.120160 12.000000
225.120290 13.000000
226.110350 7.000000
226.124860 21.000000
232.107120 7.000000
233.088840 10.000000
234.080930 12.000000
234.096080 17.000000
235.090130 7.000000
235.100920 13.000000
236.102620 15.000000
236.109250 36.000000
237.104350 19.000000
237.114810 7.000000
238.120270 21.000000
238.129960 8.000000
240.123840 17.000000
240.143550 7.000000
242.092530 14.000000
244.104370 8.000000
245.126710 7.000000
246.082200 6.000000
246.095310 5.000000
246.107890 5.000000
248.100110 14.000000
248.112500 10.000000
249.118100 14.000000
250.087430 8.000000
250.098940 8.000000
250.124570 18.000000
250.137970 6.000000
251.122060 19.000000
252.142180 7.000000
259.115420 7.000000
260.106870 9.000000
260.117520 7.000000
261.114750 8.000000
262.111480 12.000000
262.125430 14.000000
263.122530 9.000000
264.136410 19.000000
265.134550 7.000000
266.140500 5.000000
274.131710 22.000000
276.097410 6.000000
276.136720 9.000000
278.159550 8.000000
288.139860 8.000000
292.096070 5.000000
294.155330 7.000000

>ms2
117.070850 7.000000
143.076580 5.000000
159.068590 16.000000
160.075030 14.000000
162.087690 7.000000
174.091290 269.000000
175.095210 44.000000
178.084980 12.000000
188.106930 22.000000
208.096190 5.000000
210.110600 6.000000
226.109910 5.000000
228.123430 38.000000
236.110200 5.000000
240.124100 132.000000
241.128280 20.000000
322.147000 9.000000
372.176360 6.000000
372.187620 10.000000
383.199650 7.000000
384.174130 8.000000
401.207150 1000.000000
401.265900 25.000000

>ms2
240.120830 7.000000
401.156370 5.000000
401.207340 1000.000000
401.264530 31.000000

>ms2
94.065350 5.000000
107.071360 5.000000
117.072940 10.000000
131.070650 8.000000
132.081510 8.000000
133.065170 6.000000
134.100230 6.000000
147.081940 14.000000
148.079450 6.000000
149.094620 5.000000
159.067630 40.000000
160.075790 29.000000
161.061690 6.000000
161.086720 20.000000
162.091310 33.000000
164.104930 5.000000
164.111560 5.000000
174.091380 1000.000000
175.095340 145.000000
176.100310 7.000000
178.086590 48.000000
179.081700 6.000000
180.101780 5.000000
182.083600 7.000000
186.091600 8.000000
187.098220 8.000000
188.107880 82.000000
189.109700 17.000000
190.088120 15.000000
194.083570 27.000000
196.088530 10.000000
196.097560 16.000000
198.096270 5.000000
199.101820 5.000000
200.107220 9.000000
208.099110 34.000000
210.098940 6.000000
210.115220 37.000000
212.108290 6.000000
222.104810 7.000000
222.114260 11.000000
224.103470 6.000000
226.109100 33.000000
226.123060 13.000000
227.114270 6.000000
228.123630 166.000000
229.117650 14.000000
229.132100 13.000000
236.104480 5.000000
238.119800 16.000000
238.132570 7.000000
239.130860 7.000000
240.085510 5.000000
240.123700 404.000000
241.125530 64.000000
242.130910 12.000000
250.115550 5.000000
250.127850 9.000000
251.128360 10.000000
251.139820 12.000000
252.137990 7.000000
276.143740 13.000000
288.138640 7.000000
290.147400 5.000000
290.164700 5.000000
306.153170 5.000000
308.165530 7.000000
322.144410 18.000000
334.150940 7.000000
340.146270 8.000000
340.161410 7.000000
341.158660 5.000000
351.170230 6.000000
352.155150 18.000000
353.159640 5.000000
354.169370 12.000000
365.187440 5.000000
366.169920 9.000000
367.173980 7.000000
369.176910 7.000000
372.180570 23.000000
373.182590 5.000000
383.193700 7.000000
383.210020 11.000000
384.173160 7.000000
384.189670 9.000000
384.206480 7.000000
399.186800 7.000000
400.199980 7.000000
401.207950 154.000000

>ms2
79.056300 5.000000
82.065150 5.000000
83.045440 6.000000
83.056820 6.000000
91.049640 6.000000
91.056260 31.000000
93.054110 9.000000
93.065930 6.000000
93.076180 7.000000
94.061180 34.000000
94.069540 7.000000
95.071590 6.000000
97.031020 5.000000
105.052700 5.000000
105.068230 14.000000
105.075120 6.000000
106.065540 14.000000
107.048690 14.000000
107.066100 9.000000
107.076350 15.000000
108.052960 5.000000
108.081720 6.000000
109.058650 10.000000
115.044640 14.000000
115.056720 31.000000
117.052820 7.000000
117.065370 24.000000
117.072360 18.000000
117.078180 10.000000
118.063740 22.000000
118.077700 5.000000
119.046510 8.000000
119.085350 6.000000
120.072280 6.000000
120.082770 22.000000
121.064810 10.000000
127.062770 12.000000
129.067400 8.000000
129.076230 6.000000
130.041200 7.000000
130.065890 138.000000
130.080250 10.000000
131.048720 28.000000
131.069560 171.000000
131.075900 253.000000
132.039750 10.000000
132.072010 51.000000
132.083860 56.000000
133.061630 17.000000
133.075790 7.000000
134.058120 7.000000
134.064410 6.000000
134.101440 13.000000
135.047390 8.000000
135.081130 15.000000
142.051740 7.000000
142.066250 64.000000
142.073240 18.000000
143.067520 102.000000
143.073880 211.000000
144.053710 5.000000
144.067310 17.000000
144.077350 53.000000
144.084520 21.000000
145.047850 25.000000
145.087910 25.000000
146.054980 16.000000
146.065350 40.000000
146.072070 14.000000
146.098980 18.000000
147.062560 12.000000
147.071430 52.000000
147.083160 28.000000
148.066480 9.000000
148.075160 21.000000
148.083280 11.000000
149.062760 9.000000
150.090580 19.000000
152.128040 6.000000
154.067470 5.000000
154.078260 6.000000
155.073900 10.000000
157.091720 21.000000
158.061250 49.000000
159.042690 6.000000
159.068860 689.000000
160.070710 113.000000
160.079190 62.000000
161.070940 12.000000
161.081570 31.000000
161.090620 15.000000
162.068470 5.000000
162.083310 17.000000
162.094060 36.000000
163.097930 6.000000
164.097050 6.000000
164.106510 7.000000
166.063220 8.000000
168.081600 9.000000
169.093320 12.000000
170.056200 13.000000
170.070510 6.000000
172.080060 28.000000
173.082730 129.000000
174.054550 8.000000
174.091690 1000.000000
175.058410 8.000000
175.094880 134.000000
176.066250 10.000000
177.091830 5.000000
178.078890 10.000000
178.096070 28.000000
179.090180 9.000000
180.087570 6.000000
182.059130 13.000000
183.064320 19.000000
183.111600 6.000000
184.064320 6.000000
184.075650 26.000000
185.083110 13.000000
185.096620 7.000000
186.091160 22.000000
187.093960 11.000000
187.106870 10.000000
188.105740 31.000000
189.114440 6.000000
192.082890 6.000000
192.094450 5.000000
193.088240 18.000000
193.098620 10.000000
194.093480 9.000000
196.068950 13.000000
196.091690 10.000000
196.102940 6.000000
197.080660 21.000000
198.103810 5.000000
199.091870 16.000000
200.107740 7.000000
200.118270 7.000000
201.106230 7.000000
204.080990 8.000000
204.091190 8.000000
205.082570 18.000000
206.086120 6.000000
206.105190 7.000000
208.076860 12.000000
208.088270 10.000000
208.103240 6.000000
209.091430 5.000000
210.070430 8.000000
210.092740 30.000000
210.109940 11.000000
211.088030 6.000000
211.096570 13.000000
212.104780 15.000000
212.116470 11.000000
214.079590 6.000000
217.096710 9.000000
218.101580 12.000000
220.067230 11.000000
220.087830 5.000000
220.111010 6.000000
220.123980 7.000000
221.087980 7.000000
222.080630 9.000000
222.091370 25.000000
222.104750 6.000000
222.118410 9.000000
223.103730 23.000000
224.103760 49.000000
224.130550 7.000000
225.110690 17.000000
225.126080 10.000000
226.111180 9.000000
226.122650 10.000000
227.137990 7.000000
230.108200 8.000000
231.098100 10.000000
232.104370 10.000000
234.092540 18.000000
235.078260 8.000000
235.095840 21.000000
236.100390 9.000000
236.112550 35.000000
237.121600 10.000000
238.116260 27.000000
241.089450 5.000000
245.102310 8.000000
246.087970 17.000000
247.097920 8.000000
248.108370 13.000000
248.120070 11.000000
249.092380 5.000000
249.103270 5.000000
249.120610 8.000000
250.117540 18.000000
251.112810 8.000000
251.123840 10.000000
251.140300 6.000000
252.139800 7.000000
253.088550 6.000000
258.085020 7.000000
260.092650 8.000000
260.118290 8.000000
261.109310 12.000000
262.107570 12.000000
262.121400 11.000000
262.143620 7.000000
273.104830 5.000000
274.113830 6.000000
288.099300 6.000000
289.114500 8.000000
292.140620 6.000000

