>compound PR53040152
>parentmass 975.5159213999997
>ionization [M+H]+
>formula C48H78O20
>rt 292.813020
>profile qtof
#smiles_iso C[C@@H]1CC[C@@]2(CC[C@]3(C(=CC[C@H]4[C@]3(C[C@H]([C@@H]5[C@@]4(C[C@H]([C@@H]([C@@]5(C)CO)O)O)C)O)C)[C@@H]2[C@H]1C)C)C(=O)O[C@H]6[C@@H]([C@H]([C@@H]([C@H](O6)CO[C@H]7[C@@H]([C@H]([C@@H]([C@H](O7)CO)O[C@H]8[C@@H]([C@@H]([C@H]([C@@H](O8)C)O)O)O)O)O)O)O)O
#smiles_can CC1CCC2(CCC3(C(=CCC4C3(CC(C5C4(CC(C(C5(C)CO)O)O)C)O)C)C2C1C)C)C(=O)OC6C(C(C(C(O6)COC7C(C(C(C(O7)CO)OC8C(C(C(C(O8)C)O)O)O)O)O)O)O)O
#inchikey BNMGUJRJUUDLHW-CIZDPPTDSA-N
#pubchem_id 45356919
#mb_accession PR301884,PR301885,PR301886,PR301887,PR301888,PR301889,PR301890,PR301891,PR301892,PR301893,PR301894,PR301895

>ms2peaks
129.049590 83.000000
141.082930 76.000000
145.109050 59.000000
147.055530 62.000000
147.063110 69.000000
161.092910 62.000000
165.068240 62.000000
172.068940 86.000000
177.124130 93.000000
187.147660 114.000000
189.133510 97.000000
191.143970 69.000000
192.178770 72.000000
201.162980 76.000000
210.809400 72.000000
215.147770 72.000000
217.160430 62.000000
218.157200 69.000000
225.099980 72.000000
235.160170 93.000000
235.169690 103.000000
237.160030 66.000000
248.172810 59.000000
249.185520 155.000000
255.086760 210.000000
256.091160 72.000000
261.184390 62.000000
274.100650 62.000000
291.107600 97.000000
309.103150 62.000000
309.120790 217.000000
312.276310 69.000000
325.117070 79.000000
393.273960 59.000000
393.330870 76.000000
394.301420 69.000000
396.307560 93.000000
405.317110 107.000000
407.338130 62.000000
421.305480 166.000000
422.306700 66.000000
423.333440 79.000000
424.341280 79.000000
425.344090 69.000000
433.302920 221.000000
434.326140 62.000000
435.160520 62.000000
439.309050 152.000000
439.320070 66.000000
440.324680 59.000000
441.331420 83.000000
442.326290 72.000000
449.299770 62.000000
451.298890 217.000000
451.314090 669.000000
452.328310 72.000000
452.344760 83.000000
453.321320 79.000000
469.293000 83.000000
469.334990 262.000000
470.329620 162.000000
471.154210 269.000000
487.338320 1000.000000
487.357670 307.000000
488.285980 59.000000
488.337040 190.000000
488.363160 69.000000
489.341550 93.000000
522.324280 72.000000
533.535220 83.000000
560.359800 62.000000
561.357120 59.000000
579.359990 134.000000
596.357360 69.000000
597.385250 117.000000
614.360720 66.000000
633.415410 345.000000
634.403020 69.000000
649.365050 83.000000
650.408200 69.000000
651.413210 110.000000
652.391540 62.000000
652.411500 83.000000
795.454650 255.000000
811.460510 62.000000
811.498840 62.000000
812.444700 128.000000
813.445190 141.000000
814.500850 145.000000
829.489870 62.000000
881.210940 62.000000
939.512080 59.000000
940.531130 69.000000
957.503850 66.000000
958.510620 90.000000
959.566280 83.000000
973.680600 66.000000
974.485350 66.000000
975.513550 797.000000
975.545230 269.000000

>ms2peaks
259.210880 16.000000
309.109800 15.000000
309.123410 28.000000
310.094540 19.000000
325.113830 18.000000
399.125370 15.000000
435.143980 35.000000
456.904330 23.000000
469.320770 27.000000
469.332180 14.000000
471.181670 42.000000
472.175810 31.000000
487.332520 38.000000
487.345490 44.000000
489.194270 14.000000
490.192720 27.000000
505.345430 44.000000
586.861450 15.000000
633.351750 14.000000
633.383790 58.000000
633.413090 81.000000
634.402770 14.000000
634.446350 17.000000
649.378300 18.000000
650.405460 17.000000
651.394410 14.000000
653.426330 15.000000
667.376830 22.000000
667.410100 14.000000
728.689210 15.000000
733.207340 17.000000
742.374270 18.000000
795.448910 44.000000
796.353700 17.000000
797.473880 18.000000
813.445130 65.000000
813.475950 44.000000
814.497310 47.000000
829.448490 49.000000
830.479250 15.000000
835.691650 18.000000
957.461060 32.000000
957.494020 79.000000
957.537170 35.000000
958.467900 31.000000
958.543640 33.000000
959.524170 29.000000
973.476560 23.000000
973.647710 23.000000
973.677430 15.000000
974.597350 15.000000
974.655330 44.000000
974.687810 14.000000
975.519590 1000.000000
975.553650 238.000000

>ms2peaks
129.051650 117.000000
129.058360 41.000000
145.046590 175.000000
147.012180 89.000000
147.063550 246.000000
164.150040 61.000000
165.076190 66.000000
171.063720 117.000000
177.134720 43.000000
178.162860 66.000000
181.067230 76.000000
187.147900 61.000000
191.130480 46.000000
199.145630 63.000000
200.155870 46.000000
201.139240 43.000000
203.144010 51.000000
205.159040 117.000000
207.167850 58.000000
217.158740 56.000000
221.133800 63.000000
221.153930 43.000000
231.173190 53.000000
232.031860 46.000000
233.198300 51.000000
235.166850 51.000000
239.168550 48.000000
247.151170 46.000000
250.185200 56.000000
253.171770 56.000000
254.187850 46.000000
255.089050 53.000000
261.183900 193.000000
273.101200 66.000000
274.113340 58.000000
309.113890 391.000000
324.968600 51.000000
325.106690 56.000000
343.255280 48.000000
376.311520 58.000000
388.318820 58.000000
393.276950 63.000000
393.311650 53.000000
394.305570 104.000000
403.303770 43.000000
405.310610 173.000000
406.315340 132.000000
407.320530 43.000000
421.293300 89.000000
423.331090 51.000000
433.311980 193.000000
434.318660 51.000000
435.320920 63.000000
436.331820 53.000000
439.327640 69.000000
439.348600 71.000000
440.314580 46.000000
442.315160 58.000000
443.338620 69.000000
449.426850 48.000000
451.319850 1000.000000
452.290280 63.000000
452.306520 94.000000
452.332890 195.000000
453.344270 51.000000
469.317780 112.000000
469.342930 320.000000
470.324160 170.000000
471.175990 76.000000
485.314940 43.000000
486.316250 61.000000
487.309110 102.000000
487.338530 599.000000
488.312990 43.000000
488.340550 239.000000
505.347840 43.000000
505.366420 51.000000
529.356200 61.000000
549.351440 46.000000
579.319270 46.000000
597.372070 51.000000
597.430970 58.000000
618.373960 53.000000
633.428280 53.000000
651.397340 74.000000
668.431700 43.000000
725.730160 51.000000
795.476750 43.000000

>ms2peaks
75.046830 114.000000
85.012200 168.000000
85.030620 503.000000
85.039760 168.000000
107.080640 148.000000
109.008090 208.000000
109.020400 168.000000
111.044000 322.000000
113.052490 128.000000
115.038610 201.000000
121.101230 168.000000
127.038380 342.000000
127.046180 128.000000
129.041980 154.000000
129.053730 1000.000000
130.054000 134.000000
133.105260 336.000000
135.116300 168.000000
145.040560 168.000000
145.048140 168.000000
147.065260 993.000000
147.114010 121.000000
147.120910 134.000000
148.066830 114.000000
149.121810 114.000000
159.115300 503.000000
161.136670 268.000000
163.059340 114.000000
163.140490 161.000000
163.150800 134.000000
167.113860 114.000000
171.059750 128.000000
171.069550 188.000000
176.116760 121.000000
177.161620 134.000000
177.165920 349.000000
187.140780 430.000000
188.151500 255.000000
189.131100 141.000000
189.151660 114.000000
189.165270 322.000000
191.145980 154.000000
191.184880 456.000000
193.123690 161.000000
195.064300 141.000000
197.132660 161.000000
198.144520 201.000000
201.158800 154.000000
203.184740 523.000000
204.163040 141.000000
205.197850 134.000000
211.150480 121.000000
213.172100 174.000000
215.180530 168.000000
216.180110 141.000000
217.122830 121.000000
217.145920 134.000000
217.157140 383.000000
217.197240 134.000000
227.189480 201.000000
229.149120 114.000000
230.159440 154.000000
233.153240 128.000000
233.187440 114.000000
234.163420 141.000000
235.171540 342.000000
235.182270 114.000000
241.190630 134.000000
249.165220 215.000000
254.198810 114.000000
255.081380 161.000000
259.177460 195.000000
265.183990 289.000000
267.203340 141.000000
271.657070 121.000000
273.105930 141.000000
273.176150 114.000000
273.217530 181.000000
300.229250 128.000000
309.111270 154.000000
326.194180 154.000000
335.235960 201.000000
336.238010 181.000000
363.259860 134.000000
365.249270 114.000000
365.264830 134.000000
367.269810 161.000000
377.318540 208.000000
393.308470 134.000000
393.325740 262.000000
394.294160 154.000000
394.321960 121.000000
395.323360 114.000000
404.314940 134.000000
405.309110 121.000000
405.321530 483.000000
405.339630 168.000000
406.301670 121.000000
406.318850 114.000000
406.336300 215.000000
407.297820 423.000000
409.288970 174.000000
421.308070 114.000000
433.225220 134.000000
433.274350 114.000000
433.297420 134.000000
433.325380 148.000000
434.305420 114.000000
434.323940 121.000000
451.290860 141.000000
451.327820 262.000000
451.348180 134.000000
452.274810 114.000000
452.320590 423.000000
452.335630 309.000000
469.313050 188.000000
469.339420 128.000000
470.341610 248.000000
487.371220 302.000000
572.556880 141.000000

>ms2peaks
53.035500 44.000000
112.174470 44.000000
159.118420 34.000000
177.095110 42.000000
187.143430 65.000000
189.127590 34.000000
189.136250 34.000000
191.143840 48.000000
199.150500 129.000000
215.177250 42.000000
235.168330 34.000000
237.079910 34.000000
245.692410 34.000000
251.142000 46.000000
255.095080 48.000000
261.173800 42.000000
261.199160 50.000000
264.195500 54.000000
309.092040 40.000000
309.113310 101.000000
309.134370 226.000000
309.259370 58.000000
310.121800 34.000000
325.121340 54.000000
388.305210 44.000000
389.315490 36.000000
393.325650 34.000000
405.314820 157.000000
406.316530 40.000000
407.323390 44.000000
421.288910 69.000000
421.315830 67.000000
422.314090 36.000000
433.279720 38.000000
433.298070 36.000000
439.319550 159.000000
440.302250 40.000000
440.326290 36.000000
443.355160 40.000000
451.309570 163.000000
451.345210 183.000000
452.343810 69.000000
453.304840 36.000000
453.316930 50.000000
454.314300 40.000000
469.331240 79.000000
469.349610 34.000000
470.329900 111.000000
470.347840 75.000000
471.168980 119.000000
471.360600 40.000000
472.947270 54.000000
485.313020 36.000000
487.316440 36.000000
487.341130 248.000000
487.374080 52.000000
488.348210 75.000000
489.199920 58.000000
490.336030 44.000000
529.573670 34.000000
538.903140 40.000000
562.368590 36.000000
597.365660 50.000000
612.732790 34.000000
633.388240 230.000000
633.408450 60.000000
634.304320 40.000000
634.415530 40.000000
651.394530 42.000000
668.392330 36.000000
759.458860 38.000000
792.039120 42.000000
795.424560 34.000000
796.452210 38.000000
811.456240 42.000000
813.470950 129.000000
813.515260 48.000000
814.500180 73.000000
816.482790 58.000000
830.456600 75.000000
830.493470 69.000000
957.508730 266.000000
958.491150 46.000000
958.544250 85.000000
958.568850 34.000000
959.548950 36.000000
971.923830 42.000000
975.509280 1000.000000

>ms2peaks
255.085970 27.000000
309.114170 67.000000
342.589940 26.000000
439.308440 22.000000
451.340940 19.000000
469.331360 19.000000
471.176270 82.000000
472.172970 21.000000
487.338200 20.000000
487.353490 51.000000
489.191930 46.000000
490.171630 27.000000
567.004150 20.000000
599.385740 20.000000
633.397950 184.000000
634.408260 66.000000
648.618650 25.000000
651.424930 43.000000
652.401550 19.000000
653.468200 19.000000
667.405150 20.000000
794.447270 24.000000
795.451050 42.000000
795.498960 20.000000
796.444090 118.000000
813.461980 154.000000
813.512630 25.000000
814.406070 19.000000
814.452090 65.000000
829.477110 21.000000
830.470700 27.000000
921.517580 24.000000
957.414250 20.000000
957.482360 45.000000
957.520080 88.000000
958.471800 67.000000
958.509640 73.000000
958.550720 42.000000
959.518980 22.000000
974.482240 21.000000
974.507690 21.000000
974.648320 21.000000
974.670530 22.000000
975.323550 30.000000
975.452940 39.000000
975.511470 1000.000000
975.568730 79.000000

>ms2peaks
84.914890 37.000000
85.014730 43.000000
123.076880 39.000000
127.041430 70.000000
129.041320 37.000000
129.058300 74.000000
139.040830 43.000000
145.049820 60.000000
147.063600 89.000000
148.074750 47.000000
165.079570 198.000000
177.160280 41.000000
185.123640 37.000000
187.149960 54.000000
197.131300 43.000000
199.148210 35.000000
202.169170 47.000000
203.176590 85.000000
203.182480 35.000000
205.155270 37.000000
215.164260 35.000000
215.182720 41.000000
218.158220 85.000000
231.181200 43.000000
235.175190 41.000000
237.074860 103.000000
243.093840 35.000000
247.172590 41.000000
248.164490 49.000000
249.154910 62.000000
250.194560 58.000000
253.178570 37.000000
255.077940 35.000000
255.096660 37.000000
256.101680 43.000000
259.156710 41.000000
261.183110 35.000000
273.106840 95.000000
274.103300 43.000000
305.210270 41.000000
309.101680 41.000000
309.120820 363.000000
310.113620 62.000000
327.137020 43.000000
341.211580 37.000000
387.301030 35.000000
393.314360 146.000000
394.322600 68.000000
405.328520 233.000000
407.292050 47.000000
407.325870 87.000000
408.276950 52.000000
408.322270 35.000000
408.362610 37.000000
415.278320 45.000000
421.315400 37.000000
421.335110 91.000000
423.308930 37.000000
423.339290 35.000000
423.360320 35.000000
424.338680 37.000000
425.337310 134.000000
433.302280 72.000000
433.330440 190.000000
434.322080 109.000000
435.331970 54.000000
439.306980 99.000000
439.321200 122.000000
439.359470 47.000000
440.325680 87.000000
441.336090 76.000000
442.338170 49.000000
451.289580 56.000000
451.321690 1000.000000
452.183560 37.000000
452.326140 146.000000
453.176210 35.000000
453.332640 37.000000
469.300600 37.000000
469.334530 369.000000
469.361760 70.000000
470.186610 35.000000
470.320470 56.000000
470.338100 101.000000
470.356450 37.000000
471.336730 56.000000
487.319700 124.000000
487.349030 419.000000
488.324580 107.000000
488.351960 188.000000
489.339390 87.000000
505.340360 41.000000
547.381100 43.000000
550.351320 56.000000
580.379460 91.000000
615.383120 41.000000
633.437620 54.000000
634.385560 35.000000
634.437070 54.000000
635.406680 45.000000
649.379580 37.000000
686.105040 37.000000
741.434940 41.000000
759.481630 52.000000

>ms2peaks
71.047680 140.000000
83.050570 453.000000
85.025100 100.000000
85.030980 520.000000
86.031620 113.000000
103.035490 147.000000
109.022800 113.000000
109.031120 207.000000
109.063320 133.000000
111.043040 507.000000
121.102330 160.000000
123.087630 133.000000
127.033050 273.000000
129.053890 840.000000
129.064440 133.000000
133.102220 113.000000
133.106580 267.000000
145.049970 953.000000
147.062700 1000.000000
147.110200 133.000000
148.080200 120.000000
150.108230 133.000000
151.148150 147.000000
156.084950 187.000000
159.109630 113.000000
161.096270 140.000000
163.057100 113.000000
163.146120 127.000000
167.115490 213.000000
171.064480 167.000000
171.108290 140.000000
173.125640 260.000000
174.133320 147.000000
185.132050 127.000000
185.229480 333.000000
187.143310 193.000000
187.153430 127.000000
188.151610 133.000000
191.141430 253.000000
191.175280 120.000000
191.183810 227.000000
195.116740 113.000000
199.053670 133.000000
199.149050 460.000000
201.151950 120.000000
201.165040 553.000000
203.129410 113.000000
203.138430 113.000000
203.173280 473.000000
203.189450 187.000000
203.333470 133.000000
204.156680 120.000000
205.155590 233.000000
205.167450 113.000000
205.193850 147.000000
206.153340 140.000000
206.200470 113.000000
211.145570 127.000000
213.130310 240.000000
213.159850 240.000000
213.174090 347.000000
215.146360 240.000000
215.185060 113.000000
217.155240 447.000000
217.192050 400.000000
225.158490 167.000000
227.175350 180.000000
229.174530 173.000000
229.199400 140.000000
230.207320 113.000000
235.166150 300.000000
239.173630 167.000000
241.191330 160.000000
243.179840 180.000000
245.235930 180.000000
247.171420 520.000000
249.162840 187.000000
253.176850 113.000000
253.185750 140.000000
253.205380 133.000000
256.198330 133.000000
257.186610 113.000000
261.186250 253.000000
265.198270 173.000000
267.222230 140.000000
271.165590 120.000000
273.065310 160.000000
273.092160 133.000000
275.207310 140.000000
276.201690 133.000000
277.193700 193.000000
277.223080 127.000000
281.189360 127.000000
281.227050 200.000000
283.210750 113.000000
285.181340 140.000000
289.210080 227.000000
291.117770 120.000000
295.242070 193.000000
297.170680 113.000000
298.221220 160.000000
299.201390 120.000000
303.226230 147.000000
307.240780 113.000000
311.272520 120.000000
321.271510 140.000000
325.194240 120.000000
335.240300 133.000000
342.256840 160.000000
350.295010 113.000000
357.238430 133.000000
363.242710 113.000000
375.294530 133.000000
375.322510 127.000000
386.399750 140.000000
387.293790 133.000000
388.317200 127.000000
391.293640 153.000000
393.282680 133.000000
393.317960 693.000000
395.320590 180.000000
405.279050 133.000000
405.314880 707.000000
406.336520 140.000000
407.286130 147.000000
407.309080 240.000000
407.339570 280.000000
421.292790 153.000000
421.313200 240.000000
422.300750 113.000000
422.330380 113.000000
423.340240 127.000000
425.352260 233.000000
433.300510 127.000000
433.321810 113.000000
434.302430 113.000000
439.313260 333.000000
441.322110 133.000000
442.355070 260.000000
451.319210 113.000000
452.331970 327.000000
452.349850 113.000000
453.285890 120.000000
469.296390 140.000000
469.328610 933.000000
470.338100 267.000000
471.350950 113.000000
471.862920 120.000000
487.340180 187.000000
561.356450 127.000000
620.252990 133.000000

>ms2peaks
71.966140 59.000000
129.050980 66.000000
135.109950 70.000000
145.053890 87.000000
147.065840 143.000000
147.079590 59.000000
149.137330 77.000000
163.058910 66.000000
177.164050 122.000000
197.139180 73.000000
203.151700 66.000000
203.192930 59.000000
207.140500 91.000000
213.162480 59.000000
215.173490 84.000000
217.168960 63.000000
226.092350 70.000000
235.174580 63.000000
235.182500 63.000000
237.074740 84.000000
247.168580 63.000000
254.193370 84.000000
255.087830 105.000000
257.229920 70.000000
261.183230 105.000000
273.100740 59.000000
274.095920 66.000000
289.097780 94.000000
309.125850 721.000000
310.129270 63.000000
310.141690 77.000000
327.239200 59.000000
327.486760 80.000000
355.251160 73.000000
362.231780 94.000000
387.309450 87.000000
393.315090 84.000000
394.326900 98.000000
405.320470 73.000000
406.329960 91.000000
421.306950 59.000000
422.331330 91.000000
423.333040 73.000000
426.325380 63.000000
433.317290 146.000000
434.330410 70.000000
439.305690 87.000000
439.319000 84.000000
439.341520 129.000000
443.353300 122.000000
444.351200 87.000000
451.327210 648.000000
452.315190 160.000000
452.331730 63.000000
453.179630 115.000000
469.324950 331.000000
469.350010 286.000000
470.347200 143.000000
471.141450 77.000000
471.158230 91.000000
471.183620 70.000000
487.309110 139.000000
487.344640 519.000000
488.305300 80.000000
488.357150 418.000000
489.327120 59.000000
580.383850 70.000000
613.389100 59.000000
616.420040 63.000000
631.393980 66.000000
633.365300 125.000000
633.406310 181.000000
634.396180 122.000000
649.404110 77.000000
651.396970 77.000000
651.439210 73.000000
667.405880 226.000000
667.425660 98.000000
686.295960 84.000000
758.820010 70.000000
761.311400 63.000000
769.487790 59.000000
795.433290 91.000000
795.456420 125.000000
796.419370 63.000000
796.468870 63.000000
813.477840 59.000000
813.524900 70.000000
816.528630 63.000000
819.420530 87.000000
831.423400 87.000000
891.426700 63.000000
957.482970 220.000000
957.526980 314.000000
958.492190 63.000000
958.540470 70.000000
959.516660 59.000000
975.460940 59.000000
975.498110 317.000000
975.534360 1000.000000

>ms2peaks
255.085540 11.000000
309.119870 27.000000
341.257750 28.000000
377.800350 12.000000
421.158140 20.000000
435.129850 16.000000
471.185730 12.000000
473.130680 13.000000
487.337890 39.000000
489.154080 16.000000
489.192750 23.000000
505.359440 19.000000
531.216550 11.000000
548.203060 17.000000
578.110960 15.000000
579.342530 15.000000
613.359190 16.000000
615.403500 13.000000
631.558780 11.000000
633.370610 31.000000
633.405150 41.000000
649.358150 28.000000
649.409120 41.000000
651.345150 12.000000
651.397160 16.000000
651.426090 28.000000
652.390080 11.000000
667.420780 44.000000
668.380980 25.000000
795.411560 19.000000
795.442810 19.000000
795.483890 13.000000
796.465880 11.000000
813.437440 35.000000
813.478580 26.000000
814.436710 39.000000
814.468810 11.000000
815.467710 39.000000
829.477170 12.000000
957.404600 11.000000
957.465820 24.000000
957.527950 59.000000
957.559750 26.000000
958.443240 13.000000
958.499330 46.000000
958.547300 16.000000
959.495540 19.000000
959.536010 32.000000
973.688290 11.000000
974.569210 30.000000
974.636900 25.000000
974.678890 11.000000
974.723080 14.000000
975.508850 1000.000000
975.611390 12.000000

>ms2peaks
85.031350 44.000000
86.038280 38.000000
101.060020 38.000000
111.042140 40.000000
111.078200 38.000000
129.050370 51.000000
129.057390 170.000000
145.060520 44.000000
145.105760 40.000000
147.067720 163.000000
159.110700 38.000000
163.065930 44.000000
185.048360 44.000000
189.130430 40.000000
191.184970 77.000000
201.164980 64.000000
203.175640 44.000000
217.155870 40.000000
236.174990 53.000000
247.166320 44.000000
253.192210 40.000000
255.088900 49.000000
261.186920 141.000000
273.086030 38.000000
273.096250 91.000000
287.209870 38.000000
291.115810 44.000000
292.109740 66.000000
307.203160 40.000000
309.113160 132.000000
309.128690 93.000000
310.126400 210.000000
317.224400 44.000000
325.105470 51.000000
325.117680 55.000000
377.319310 38.000000
393.308960 93.000000
393.329860 42.000000
394.304230 42.000000
405.326450 55.000000
406.317350 40.000000
406.336760 68.000000
407.287080 60.000000
408.342530 55.000000
413.301610 40.000000
421.317540 75.000000
423.332060 40.000000
424.320800 40.000000
425.342040 44.000000
433.297940 46.000000
433.315610 75.000000
439.307310 104.000000
439.322810 232.000000
439.341370 91.000000
440.319430 93.000000
440.333950 141.000000
451.275330 42.000000
451.319820 1000.000000
452.258390 46.000000
452.322850 234.000000
452.350010 38.000000
453.328670 40.000000
467.308010 38.000000
469.312260 128.000000
469.333130 349.000000
469.351590 86.000000
469.433930 42.000000
470.334170 166.000000
471.332980 42.000000
471.346500 51.000000
486.983860 51.000000
487.341310 649.000000
488.363190 143.000000
505.336150 46.000000
505.358340 44.000000
552.356870 46.000000
578.364560 38.000000
579.336060 40.000000
597.334660 51.000000
597.384580 84.000000
649.390500 42.000000
650.370730 44.000000
667.399540 79.000000
667.418460 77.000000
829.443970 51.000000

>ms2peaks
57.771740 146.000000
72.051330 160.000000
75.047190 458.000000
83.047290 139.000000
83.051160 132.000000
85.027200 507.000000
97.024660 146.000000
106.066670 181.000000
119.084920 368.000000
127.036510 583.000000
129.052290 1000.000000
137.133640 153.000000
146.515300 125.000000
147.063980 847.000000
147.082470 118.000000
147.118990 125.000000
149.091920 118.000000
149.129290 167.000000
159.122100 118.000000
161.129670 125.000000
163.056730 264.000000
165.085720 174.000000
171.117170 174.000000
173.136320 257.000000
175.139100 188.000000
176.149290 125.000000
177.122410 167.000000
177.139890 118.000000
179.133590 139.000000
183.116760 125.000000
185.134870 271.000000
186.119520 146.000000
186.135410 132.000000
187.149600 160.000000
188.154300 410.000000
189.137570 194.000000
191.138090 153.000000
191.171920 361.000000
191.177750 146.000000
199.147200 146.000000
201.162800 285.000000
201.179660 118.000000
203.139630 431.000000
203.170430 479.000000
203.184540 312.000000
205.071820 139.000000
212.148540 229.000000
213.164990 382.000000
213.172010 125.000000
215.147770 125.000000
215.178740 146.000000
217.144010 188.000000
217.158250 264.000000
225.156100 125.000000
229.158630 146.000000
231.173860 271.000000
233.153990 125.000000
233.190690 132.000000
233.440520 118.000000
235.162320 375.000000
237.166630 229.000000
238.160450 132.000000
243.080150 132.000000
247.161930 278.000000
247.187770 132.000000
249.182250 146.000000
249.205760 118.000000
251.174510 146.000000
253.194600 139.000000
263.183780 146.000000
266.173000 118.000000
269.186490 118.000000
269.196380 139.000000
273.107300 194.000000
275.216130 146.000000
287.208370 118.000000
299.198430 264.000000
301.211880 236.000000
304.227450 132.000000
309.115360 118.000000
313.229000 153.000000
328.225430 174.000000
348.116360 208.000000
348.275270 146.000000
353.248630 146.000000
355.249450 201.000000
364.764190 153.000000
367.281650 174.000000
377.334050 139.000000
393.308230 132.000000
393.324100 174.000000
394.284700 139.000000
394.339600 160.000000
405.282530 167.000000
405.305180 153.000000
405.325740 118.000000
406.327610 146.000000
407.302310 125.000000
407.330230 167.000000
408.326230 271.000000
421.311650 465.000000
422.312590 243.000000
423.306700 201.000000
423.340180 257.000000
435.337100 125.000000
451.291840 181.000000
451.319430 285.000000
452.313840 132.000000
452.336430 194.000000
467.324890 118.000000
487.342530 146.000000
632.164610 139.000000

