>compound PR53570426
>parentmass 609.2959135
>ionization [M+H]+
>formula C37H40N2O6
>rt 204.400020
>profile qtof
#smiles_iso CN1CCC2=CC(=C3C=C2[C@@H]1CC4=CC=C(C=C4)OC5=C6[C@@H](CC7=CC(=C(C=C7)O)O3)[N+](CCC6=CC(=C5[O-])OC)(C)C)OC
#smiles_can CN1CCC2=CC(=C3C=C2C1CC4=CC=C(C=C4)OC5=C6C(CC7=CC(=C(C=C7)O)O3)[N+](CCC6=CC(=C5[O-])OC)(C)C)OC
#inchikey JFJZZMVDLULRGK-URLMMPGGSA-N
#pubchem_id 137832347
#mb_accession PR301812,PR301816,PR301820,PR301824,PR301828,PR301834,PR301841,PR301845,PR301851

>ms2peaks
177.068480 6.000000
192.103550 6.000000
193.108800 5.000000
221.058150 6.000000
252.075900 5.000000
266.122440 7.000000
268.061040 6.000000
279.114590 6.000000
282.100950 6.000000
282.110900 7.000000
284.132260 14.000000
285.108760 8.000000
285.126220 5.000000
288.814210 5.000000
289.091090 6.000000
295.123290 19.000000
297.126070 16.000000
297.135860 11.000000
297.147710 11.000000
298.135470 7.000000
299.135350 5.000000
307.122800 6.000000
308.119080 6.000000
310.156890 6.000000
311.085660 5.000000
323.155670 7.000000
325.174560 5.000000
363.103670 6.000000
369.441500 11.000000
386.143070 6.000000
386.163670 5.000000
386.180850 11.000000
387.174620 14.000000
396.146670 5.000000
397.146670 5.000000
398.135440 9.000000
398.171570 5.000000
400.172850 5.000000
411.151920 5.000000
412.185520 7.000000
413.170380 5.000000
425.176850 8.000000
442.228000 5.000000
444.057040 5.000000
456.160460 7.000000
457.211640 5.000000
490.192660 5.000000
501.958250 12.000000
505.187650 7.000000
505.227780 7.000000
506.073880 5.000000
520.210750 8.000000
521.229130 10.000000
522.208920 6.000000
523.216000 6.000000
534.197200 5.000000
534.221980 6.000000
552.252440 5.000000
553.239690 6.000000
564.223140 18.000000
564.243770 64.000000
565.232670 27.000000
566.197940 5.000000
566.265380 19.000000
566.279170 7.000000
577.258610 9.000000
578.263850 6.000000
607.739500 5.000000
608.718510 5.000000
609.235530 18.000000
609.294070 1000.000000

>ms2peaks
414.814970 7.000000
609.202030 8.000000
609.228640 7.000000
609.298280 1000.000000

>ms2peaks
58.056230 10.000000
58.064630 16.000000
58.068330 8.000000
123.042770 8.000000
174.088210 10.000000
175.102020 8.000000
176.048460 9.000000
176.124110 16.000000
188.086040 9.000000
190.085220 6.000000
192.105420 25.000000
253.092350 9.000000
255.101940 8.000000
265.100860 6.000000
267.096440 8.000000
270.119900 12.000000
283.138340 10.000000
284.128720 33.000000
284.147250 7.000000
286.142610 9.000000
293.095920 13.000000
295.085910 6.000000
295.134000 8.000000
296.109560 8.000000
297.120150 9.000000
297.135830 57.000000
298.130280 7.000000
298.149690 11.000000
308.112610 9.000000
310.133300 9.000000
310.147490 10.000000
318.496310 8.000000
334.141910 12.000000
341.047970 8.000000
342.373470 8.000000
355.776180 7.000000
356.044250 8.000000
357.096250 8.000000
374.149320 16.000000
380.869080 11.000000
385.044620 7.000000
385.135310 9.000000
385.160190 16.000000
386.168550 88.000000
386.180790 53.000000
386.684970 8.000000
386.950990 8.000000
387.120240 7.000000
387.152370 6.000000
387.179660 9.000000
387.192350 9.000000
398.141780 20.000000
402.159610 8.000000
411.144560 9.000000
412.119510 8.000000
412.176090 8.000000
412.331420 9.000000
415.176880 9.000000
423.593660 9.000000
424.154910 9.000000
429.991180 9.000000
442.173370 7.000000
444.168670 10.000000
444.543060 6.000000
458.193020 8.000000
460.170930 13.000000
503.250370 28.000000
507.178500 6.000000
508.310580 9.000000
509.191830 8.000000
517.197390 9.000000
521.192380 51.000000
521.569520 7.000000
522.203980 21.000000
522.215390 8.000000
523.220280 6.000000
523.521360 8.000000
524.230350 7.000000
524.542600 8.000000
533.185970 28.000000
533.208920 66.000000
533.336490 15.000000
534.196470 14.000000
535.171390 9.000000
535.198610 14.000000
535.507570 7.000000
535.631470 10.000000
536.207210 7.000000
547.234250 12.000000
549.076480 9.000000
550.159970 8.000000
550.218510 7.000000
550.250370 18.000000
554.789430 11.000000
564.186280 8.000000
564.238890 343.000000
565.223080 26.000000
565.243960 108.000000
565.286990 11.000000
566.246150 47.000000
566.264590 69.000000
567.183470 14.000000
567.225340 8.000000
567.241820 16.000000
567.264220 13.000000
567.288640 7.000000
577.279540 6.000000
585.721370 10.000000
598.007510 6.000000
608.672790 7.000000
608.688110 6.000000
608.849730 8.000000
609.086980 11.000000
609.198360 11.000000
609.251530 59.000000
609.295350 1000.000000
609.350650 12.000000

>ms2peaks
58.064560 55.000000
58.068000 48.000000
117.070590 57.000000
141.078630 41.000000
143.060330 41.000000
144.078460 55.000000
145.083500 51.000000
147.076260 48.000000
148.068770 62.000000
159.152360 44.000000
160.072430 46.000000
161.073300 39.000000
162.088010 53.000000
166.875640 76.000000
173.081700 106.000000
174.090730 1000.000000
175.063920 53.000000
175.089810 101.000000
175.103320 87.000000
176.105270 78.000000
177.083970 55.000000
177.110050 64.000000
178.079130 44.000000
181.054530 57.000000
181.062620 60.000000
189.059590 39.000000
189.107240 46.000000
189.116970 57.000000
190.081770 60.000000
191.085210 46.000000
192.106460 60.000000
193.118640 55.000000
194.077240 76.000000
197.054090 55.000000
198.063720 48.000000
207.147640 39.000000
209.066120 69.000000
210.097060 39.000000
213.090500 57.000000
224.086320 55.000000
228.116290 60.000000
235.114270 55.000000
238.096600 39.000000
240.076930 46.000000
243.104130 115.000000
250.138990 55.000000
251.069990 122.000000
252.071730 39.000000
254.096370 99.000000
254.857280 44.000000
256.106260 53.000000
263.096770 41.000000
264.109070 53.000000
265.916350 51.000000
266.071810 46.000000
266.101530 97.000000
266.121280 425.000000
267.093750 39.000000
267.115480 161.000000
268.452360 41.000000
269.113830 85.000000
269.131380 53.000000
274.115390 46.000000
276.076050 48.000000
278.107060 48.000000
279.094150 53.000000
280.114200 92.000000
281.105350 41.000000
281.143250 71.000000
282.089510 55.000000
282.109040 83.000000
282.120120 108.000000
283.113680 115.000000
284.138210 48.000000
285.091220 48.000000
292.148190 76.000000
294.120610 133.000000
295.121730 172.000000
296.119420 64.000000
297.121310 126.000000
297.138060 384.000000
298.138210 166.000000
299.092930 48.000000
303.139890 48.000000
306.124820 60.000000
308.127170 200.000000
310.145840 202.000000
310.160550 69.000000
311.140200 136.000000
311.169310 53.000000
328.141630 57.000000
333.386570 53.000000
339.104740 83.000000
356.100620 39.000000
356.138430 57.000000
361.132080 46.000000
370.102870 57.000000
371.161440 71.000000
382.107700 69.000000
385.156280 41.000000
386.142000 55.000000
386.165800 200.000000
386.178990 133.000000
386.200100 48.000000
387.171170 92.000000
387.194210 97.000000
390.137240 55.000000
393.144780 64.000000
394.102510 51.000000
400.148860 71.000000
400.181580 39.000000
410.140500 44.000000
412.132260 92.000000
426.133150 41.000000
427.191890 55.000000
428.121000 41.000000
428.150570 57.000000
428.191650 83.000000
429.196380 46.000000
430.154450 44.000000
430.179660 44.000000
443.178100 39.000000
444.173890 39.000000
448.150480 48.000000
457.185030 41.000000
458.133480 46.000000
458.165860 129.000000
460.168150 39.000000
475.173190 64.000000
477.149930 71.000000
488.164860 69.000000
489.090790 48.000000
501.216740 69.000000
505.162510 46.000000
516.227110 46.000000
517.171140 41.000000
520.213130 106.000000
521.198730 129.000000
522.150090 41.000000
522.174070 53.000000
530.204470 41.000000
532.210570 39.000000
533.207640 126.000000
534.216130 143.000000
536.202090 41.000000
547.275020 48.000000
548.216370 177.000000
550.202880 101.000000
550.218020 57.000000
551.245850 48.000000
554.380740 51.000000
566.228520 41.000000

>ms2peaks
58.065380 8.000000
173.999340 6.000000
175.017870 12.000000
175.102260 5.000000
240.075710 10.000000
251.072360 9.000000
266.128140 6.000000
271.145360 6.000000
282.110110 6.000000
283.121730 6.000000
284.124420 14.000000
284.138340 7.000000
295.107030 6.000000
297.126400 15.000000
297.143800 12.000000
298.134430 11.000000
309.137270 6.000000
310.137970 17.000000
319.856380 6.000000
339.273990 8.000000
364.703770 5.000000
365.251430 7.000000
386.157500 15.000000
386.170870 15.000000
386.185640 18.000000
387.183070 9.000000
401.188260 8.000000
428.174380 6.000000
458.192720 11.000000
470.007450 6.000000
497.197360 7.000000
503.288300 6.000000
519.192320 16.000000
521.173340 5.000000
521.196530 5.000000
522.191470 5.000000
522.214110 6.000000
523.187260 7.000000
533.223750 7.000000
534.187010 7.000000
538.733830 5.000000
548.216190 17.000000
564.203920 7.000000
564.228150 5.000000
564.250180 44.000000
565.227170 15.000000
565.249270 10.000000
565.759160 6.000000
566.245420 30.000000
567.239690 8.000000
567.288700 10.000000
568.265140 7.000000
577.280330 5.000000
609.263850 104.000000
609.300480 1000.000000
609.371830 18.000000

>ms2peaks
58.068270 7.000000
147.078480 8.000000
174.092650 11.000000
192.098650 11.000000
211.076870 10.000000
250.103820 11.000000
254.100850 14.000000
265.103670 7.000000
271.205630 8.000000
284.122310 11.000000
284.136900 9.000000
293.123540 7.000000
294.108730 11.000000
295.120300 8.000000
296.116090 7.000000
296.134090 10.000000
297.123350 23.000000
297.146610 13.000000
298.126860 19.000000
298.146880 7.000000
299.148710 9.000000
310.930660 7.000000
311.142120 9.000000
324.097320 11.000000
338.946080 11.000000
355.774960 12.000000
385.145360 11.000000
385.164890 8.000000
386.166350 17.000000
386.182010 42.000000
386.195770 13.000000
387.169370 7.000000
387.185030 7.000000
387.200590 9.000000
401.167080 8.000000
412.157200 8.000000
429.202700 9.000000
444.188720 7.000000
455.205410 10.000000
458.197390 10.000000
459.200530 7.000000
459.232390 8.000000
460.213900 8.000000
470.798860 13.000000
471.124510 9.000000
483.350040 7.000000
502.194980 8.000000
503.236360 11.000000
503.275820 13.000000
506.164950 9.000000
508.174470 13.000000
520.168270 10.000000
521.180970 7.000000
521.218690 14.000000
533.178650 9.000000
533.197880 28.000000
534.196170 15.000000
535.148380 7.000000
535.240420 7.000000
535.620540 7.000000
536.199830 7.000000
536.220150 19.000000
538.229800 11.000000
542.484800 9.000000
548.199580 9.000000
549.220520 7.000000
550.216740 13.000000
562.634580 7.000000
564.146420 9.000000
564.182980 14.000000
564.240420 161.000000
564.899110 7.000000
565.209840 7.000000
565.238040 60.000000
565.256530 40.000000
566.191960 7.000000
566.221500 8.000000
566.251040 27.000000
566.273070 25.000000
567.223570 8.000000
567.261900 34.000000
568.292480 13.000000
578.252620 7.000000
580.079220 14.000000
609.192260 8.000000
609.298580 1000.000000
609.434690 7.000000

>ms2peaks
149.099090 8.000000
174.086000 11.000000
175.086400 6.000000
176.100520 6.000000
253.094910 8.000000
266.095340 5.000000
266.114470 5.000000
267.101620 6.000000
281.116910 8.000000
284.115570 15.000000
284.126830 11.000000
297.125430 10.000000
297.138430 25.000000
298.132450 12.000000
298.147090 6.000000
310.131990 6.000000
359.141820 5.000000
366.821380 8.000000
386.182130 13.000000
387.195860 7.000000
400.166900 6.000000
413.686430 7.000000
424.178440 6.000000
426.022000 8.000000
426.166900 10.000000
427.152500 6.000000
438.182190 6.000000
445.183290 6.000000
505.196260 5.000000
532.229310 7.000000
533.214360 13.000000
546.154600 7.000000
550.258610 5.000000
563.237670 5.000000
564.203310 10.000000
564.245000 60.000000
565.245850 19.000000
566.112920 7.000000
566.238890 10.000000
566.257140 20.000000
566.274780 12.000000
567.229610 7.000000
608.342410 8.000000
609.185730 7.000000
609.217350 10.000000
609.297240 1000.000000

>ms2peaks
582.421260 6.000000
608.264040 6.000000
609.236450 17.000000
609.298520 1000.000000

>ms2peaks
105.067380 107.000000
122.071140 89.000000
131.044070 71.000000
135.082140 64.000000
137.057340 96.000000
140.363010 71.000000
144.082350 117.000000
146.082030 85.000000
147.099240 60.000000
157.078720 82.000000
158.072140 93.000000
160.074750 206.000000
160.085420 117.000000
161.087020 75.000000
162.064270 71.000000
162.089830 82.000000
172.081940 93.000000
174.089190 1000.000000
175.097980 185.000000
176.103820 242.000000
189.077740 71.000000
189.114590 121.000000
189.853670 68.000000
190.084950 103.000000
190.096410 96.000000
191.195310 68.000000
192.101930 192.000000
199.609970 60.000000
204.122680 93.000000
223.077840 71.000000
223.116130 71.000000
224.076160 64.000000
226.114650 64.000000
226.683730 96.000000
227.081380 100.000000
234.476260 64.000000
235.112530 75.000000
237.082580 103.000000
239.133360 85.000000
240.077870 64.000000
241.089260 78.000000
251.104140 89.000000
252.108140 64.000000
253.088350 246.000000
255.100270 71.000000
257.074160 132.000000
263.096560 64.000000
264.085330 71.000000
265.077300 68.000000
265.090700 78.000000
266.060790 89.000000
266.082920 71.000000
266.108580 238.000000
266.117340 509.000000
266.128330 260.000000
267.103730 132.000000
267.119380 64.000000
268.102360 121.000000
274.110080 100.000000
278.095580 75.000000
279.104280 299.000000
279.124730 242.000000
280.096560 75.000000
281.096470 64.000000
281.109740 89.000000
282.062350 75.000000
282.111080 192.000000
282.120150 53.000000
283.100860 100.000000
283.116460 317.000000
284.123470 64.000000
284.132600 82.000000
293.121250 85.000000
294.104250 128.000000
294.828800 82.000000
295.114560 203.000000
295.128270 60.000000
295.321590 117.000000
296.117460 78.000000
296.135500 260.000000
297.111080 110.000000
297.132080 573.000000
297.146120 352.000000
298.148350 71.000000
299.079380 64.000000
308.127590 395.000000
310.133790 164.000000
310.146420 541.000000
310.159910 82.000000
311.146580 263.000000
314.075230 60.000000
315.122220 71.000000
317.093660 89.000000
319.146760 75.000000
322.134030 64.000000
357.108520 60.000000
357.158910 100.000000
364.131870 89.000000
369.152130 75.000000
370.105320 132.000000
370.118010 85.000000
383.129910 121.000000
385.142700 157.000000
385.155360 71.000000
385.179990 110.000000
386.159640 78.000000
386.177120 577.000000
387.181790 142.000000
397.149720 60.000000
398.127780 149.000000
400.136170 60.000000
401.108890 71.000000
410.163270 71.000000
412.185880 75.000000
413.137910 82.000000
413.190860 75.000000
416.171020 71.000000
426.181430 64.000000
429.132570 142.000000
437.149410 64.000000
443.134800 85.000000
443.177280 71.000000
447.151250 64.000000
458.183110 246.000000
459.035980 114.000000
459.215910 189.000000
470.213100 89.000000
471.251280 68.000000
477.186520 60.000000
481.227050 82.000000
502.153020 82.000000
504.221070 64.000000
505.288640 68.000000
507.186740 75.000000
517.198120 110.000000
519.188540 71.000000
519.205080 82.000000
521.104490 60.000000
531.204830 68.000000
532.229060 71.000000
533.179690 64.000000
533.199160 160.000000
533.216060 82.000000
536.217040 85.000000
539.226620 71.000000
546.253850 75.000000
547.215090 132.000000
548.152470 93.000000
548.183110 64.000000
548.223450 93.000000
549.219850 82.000000
550.220460 85.000000
550.237000 68.000000
551.216130 71.000000
562.204900 68.000000
563.263610 89.000000

