>compound PR53252647
>parentmass 310.2363
>ionization [M+H]+
>formula C18H31NO3
>rt 315.000000
>profile qtof
#smiles_iso CCCCCCCCNC(CCC1=CC(=C(C=C1)O)OC)O
#smiles_can CCCCCCCCNC(CCC1=CC(=C(C=C1)O)OC)O
#inchikey HNHHAOUUFVYDEW-UHFFFAOYSA-N
#pubchem_id 139291877
#mb_accession PR311021

>ms2peaks
94.076060 18.000000
101.112550 29.000000
122.059390 20.000000
123.069470 20.000000
135.117080 27.000000
145.030400 40.000000
151.112870 25.000000
161.996340 16.000000
165.144930 19.000000
166.169330 16.000000
173.128010 20.000000
177.056960 76.000000
177.066670 36.000000
192.134520 30.000000
192.142500 19.000000
204.148830 36.000000
219.162220 18.000000
256.213440 30.000000
269.068820 22.000000
270.043640 23.000000
290.214780 33.000000
290.226500 19.000000
291.217440 24.000000
292.219330 174.000000
292.230160 115.000000
292.245090 17.000000
293.224550 18.000000
308.193970 50.000000
308.226870 137.000000
308.258360 34.000000
309.222750 56.000000
309.232090 91.000000
310.115140 20.000000
310.217800 27.000000
310.238160 712.000000

