>compound PR53052969
>parentmass 475.1292
>ionization [M+H]+
>formula C23H22O11
>rt 308.400000
>profile qtof
#smiles_iso CC(=O)OCC1C(C(C(C(O1)OC2=CC(=C3C(=C2)OC(=CC3=O)C4=CC=C(C=C4)O)O)O)O)O
#smiles_can CC(=O)OCC1C(C(C(C(O1)OC2=CC(=C3C(=C2)OC(=CC3=O)C4=CC=C(C=C4)O)O)O)O)O
#inchikey LYFXRHUNCZZUTQ-UHFFFAOYSA-N
#pubchem_id 14325222
#mb_accession PR310953

>ms2peaks
185.034910 24.000000
191.928880 21.000000
215.066360 20.000000
270.995730 27.000000
271.044710 37.000000
271.062710 279.000000
272.061100 77.000000
272.071320 20.000000
285.093600 21.000000
386.934450 29.000000
457.208590 17.000000
460.255000 17.000000
475.110780 69.000000
475.123630 104.000000

