>compound PR53710056
>parentmass 265.0858
>ionization [M+H]+
>formula C9H16N2O5S
>rt 121.200000
>profile qtof
#smiles_iso CSCC(C(=O)O)NC(=O)CCC(C(=O)O)N
#smiles_can CSCC(C(=O)O)NC(=O)CCC(C(=O)O)N
#inchikey UPCDLBPYWXOCOK-UHFFFAOYSA-N
#pubchem_id 13894650
#mb_accession PR310788

>ms2
86.094760 34.000000
102.053660 18.000000
130.046100 17.000000
136.036160 16.000000
136.061580 325.000000
167.816480 28.000000
248.058490 31.000000

