>compound PR53618082
>parentmass 323.1754044
>ionization [M+H]+
>formula C20H22N2O2
>rt 192.645000
>profile qtof
#smiles_iso CN1C[C@@]2([C@@H]3[C@H]1[C@@H]4C2C[C@H]([C@@]35C6=CC=CC=C6NC5=O)OC4)C=C
#smiles_can CN1CC2(C3CC4C5(C2C1C3CO4)C6=CC=CC=C6NC5=O)C=C
#inchikey NFYYATWFXNPTRM-ICFOCEFXSA-N
#pubchem_id 5462429
#mb_accession PR300239,PR300244,PR300249,PR300254,PR300259,PR300264,PR300269,PR300274,PR300279,PR300284,PR300289,PR300294

>ms2peaks
70.064720 27.000000
131.084010 15.000000
132.039140 5.000000
146.055920 5.000000
146.064700 6.000000
159.077000 9.000000
195.066670 24.000000
196.075230 11.000000
208.077930 7.000000
210.092130 12.000000
218.096050 17.000000
236.107360 52.000000
237.107760 6.000000
238.118990 17.000000
239.125200 7.000000
323.119810 8.000000
323.175140 1000.000000
323.228030 25.000000

>ms2peaks
323.120180 6.000000
323.176060 1000.000000
323.228270 29.000000

>ms2peaks
55.038830 6.000000
67.056340 7.000000
69.068500 7.000000
70.028560 7.000000
70.051570 22.000000
70.065480 637.000000
71.067960 39.000000
72.083560 12.000000
83.073870 5.000000
86.044160 5.000000
86.060740 63.000000
88.074170 41.000000
91.051870 41.000000
92.043130 5.000000
93.069560 6.000000
93.104750 5.000000
94.062840 18.000000
94.068670 11.000000
96.089770 6.000000
103.049070 5.000000
105.059260 6.000000
105.065530 20.000000
105.072240 8.000000
107.011060 5.000000
108.084600 15.000000
109.087900 16.000000
115.055500 38.000000
116.064320 10.000000
117.058820 20.000000
117.070130 76.000000
117.079500 9.000000
118.064790 18.000000
118.074590 15.000000
118.079520 15.000000
119.069170 8.000000
119.085880 17.000000
120.037610 6.000000
120.087460 7.000000
121.066860 14.000000
121.091480 7.000000
122.068800 7.000000
128.048970 19.000000
129.069990 21.000000
130.066640 24.000000
131.082430 169.000000
132.045100 91.000000
132.059280 5.000000
132.081360 28.000000
132.091960 11.000000
133.045970 10.000000
133.057050 12.000000
133.083950 8.000000
133.094150 7.000000
134.042530 10.000000
134.058010 27.000000
134.065460 9.000000
134.096480 38.000000
135.104930 21.000000
141.064760 8.000000
141.072770 15.000000
141.771000 5.000000
143.074420 6.000000
143.087270 7.000000
144.085570 10.000000
145.089370 10.000000
146.059560 141.000000
146.096050 13.000000
147.035460 6.000000
147.053220 8.000000
147.064700 14.000000
147.078310 11.000000
147.106080 8.000000
148.100070 5.000000
148.111920 25.000000
149.077820 8.000000
150.102800 11.000000
150.616360 5.000000
158.061070 112.000000
159.045180 9.000000
159.058410 11.000000
159.078170 79.000000
159.085970 18.000000
160.074170 25.000000
160.086900 45.000000
160.107790 23.000000
161.126110 12.000000
162.051570 8.000000
162.118210 6.000000
162.127880 9.000000
163.100430 9.000000
163.141370 7.000000
164.105150 6.000000
165.077970 7.000000
165.111500 9.000000
166.064580 9.000000
167.069600 9.000000
168.079480 13.000000
169.096370 5.000000
170.052250 9.000000
171.051910 13.000000
172.073030 25.000000
173.080870 8.000000
178.055130 20.000000
178.066240 70.000000
179.066940 17.000000
180.080490 16.000000
180.092700 6.000000
182.063490 13.000000
182.101470 8.000000
183.058840 8.000000
183.069500 12.000000
184.058470 8.000000
184.075850 47.000000
188.075120 12.000000
190.063800 7.000000
190.115480 9.000000
190.123170 17.000000
191.083190 19.000000
191.126100 53.000000
191.142910 9.000000
192.080920 20.000000
192.131470 13.000000
193.083050 6.000000
193.440460 5.000000
194.087550 5.000000
194.980730 10.000000
195.047030 6.000000
195.066150 351.000000
196.073910 303.000000
197.063670 10.000000
197.081090 75.000000
198.088390 21.000000
203.077610 7.000000
204.078870 6.000000
206.094380 21.000000
207.039570 6.000000
208.059540 9.000000
208.077390 92.000000
208.116710 26.000000
209.073170 46.000000
209.090710 9.000000
210.091830 217.000000
210.123790 6.000000
210.439090 5.000000
211.090620 14.000000
212.108020 6.000000
212.539810 7.000000
215.071840 7.000000
216.081420 12.000000
217.081340 31.000000
217.092770 12.000000
218.049530 8.000000
218.061750 8.000000
218.082500 22.000000
218.096740 228.000000
218.114000 10.000000
219.096890 47.000000
220.069720 19.000000
220.078310 10.000000
220.113110 49.000000
221.070920 8.000000
221.115140 20.000000
221.131470 6.000000
222.087740 32.000000
222.100040 7.000000
223.088260 11.000000
223.101560 19.000000
223.880450 5.000000
224.091220 7.000000
224.110670 24.000000
225.100200 5.000000
225.112180 8.000000
228.077240 11.000000
230.097550 31.000000
230.112320 6.000000
231.107070 13.000000
233.079090 29.000000
234.083130 16.000000
234.092610 33.000000
235.129170 7.000000
236.042690 6.000000
236.079010 32.000000
236.107970 865.000000
236.143300 9.000000
237.089360 13.000000
237.106450 122.000000
237.118640 62.000000
238.095400 16.000000
238.121030 213.000000
238.129040 75.000000
238.539110 7.000000
239.107700 13.000000
239.125150 51.000000
239.144850 5.000000
241.093380 5.000000
242.098710 7.000000
243.092770 7.000000
244.106290 14.000000
244.118550 11.000000
246.084530 9.000000
246.092210 27.000000
248.093720 7.000000
248.107830 7.000000
249.128630 5.000000
250.107090 7.000000
250.121550 15.000000
251.113740 10.000000
252.126140 17.000000
253.150480 9.000000
254.157350 6.000000
256.080720 6.000000
256.107060 7.000000
257.122680 8.000000
258.123470 8.000000
259.101840 14.000000
259.124540 7.000000
260.107480 11.000000
260.119840 5.000000
260.385960 6.000000
261.113830 9.000000
262.114650 28.000000
262.134980 27.000000
263.112180 10.000000
263.122680 10.000000
264.126040 8.000000
264.142240 20.000000
265.143460 7.000000
266.148560 8.000000
274.117340 38.000000
274.127870 22.000000
274.137150 8.000000
275.122560 6.000000
276.134800 7.000000
278.135470 17.000000
279.152530 24.000000
280.131230 12.000000
287.157870 10.000000
288.285190 6.000000
290.145750 5.000000
292.129550 7.000000
293.132780 12.000000
293.160770 14.000000
293.177760 5.000000
322.828610 5.000000
323.093900 8.000000
323.130340 31.000000
323.147710 23.000000
323.174190 1000.000000

>ms2peaks
65.036440 12.000000
68.054000 18.000000
70.045890 12.000000
70.058150 63.000000
70.065870 712.000000
70.774620 12.000000
71.068930 45.000000
71.378470 11.000000
71.517380 11.000000
71.887740 10.000000
73.404470 11.000000
74.695600 23.000000
75.145500 10.000000
77.037970 20.000000
78.034170 17.000000
78.038080 25.000000
79.054320 57.000000
81.036060 28.000000
86.061300 35.000000
86.069340 24.000000
88.076870 20.000000
91.045070 24.000000
91.055530 184.000000
91.060360 60.000000
92.046780 36.000000
92.057250 14.000000
92.789260 11.000000
93.057540 21.000000
94.064520 60.000000
96.083200 20.000000
101.021870 17.000000
103.051860 88.000000
103.915630 17.000000
104.049050 67.000000
105.053450 33.000000
105.072360 12.000000
105.566610 15.000000
107.090310 24.000000
108.081460 45.000000
115.034320 16.000000
115.054210 277.000000
116.063360 135.000000
116.079160 11.000000
117.037860 35.000000
117.064090 44.000000
117.071020 100.000000
118.038210 12.000000
118.064650 139.000000
119.055930 16.000000
119.067790 10.000000
119.088400 41.000000
120.081050 70.000000
121.049800 13.000000
121.067830 16.000000
122.074060 10.000000
126.095280 16.000000
127.054770 17.000000
128.022890 27.000000
128.040830 128.000000
128.050980 156.000000
128.063000 38.000000
129.053240 100.000000
129.070250 97.000000
130.038700 16.000000
130.050320 10.000000
130.062380 215.000000
130.066510 96.000000
130.073620 26.000000
131.047620 41.000000
131.062100 50.000000
131.083880 48.000000
131.093930 21.000000
132.015580 16.000000
132.040010 114.000000
132.047040 136.000000
132.078450 33.000000
132.084640 63.000000
132.211440 12.000000
133.046690 19.000000
133.077910 10.000000
133.084990 20.000000
133.093980 30.000000
134.061290 39.000000
134.102490 33.000000
135.077150 10.000000
136.118300 10.000000
139.056200 10.000000
140.052400 53.000000
141.051710 11.000000
141.061430 10.000000
142.071640 24.000000
143.072450 38.000000
143.078720 23.000000
144.038760 13.000000
144.080840 49.000000
145.068010 20.000000
145.089950 19.000000
146.023190 17.000000
146.058820 97.000000
146.089810 39.000000
146.096330 152.000000
148.078230 25.000000
148.109310 35.000000
149.125210 29.000000
150.864760 16.000000
151.056060 145.000000
151.260280 27.000000
152.045550 10.000000
152.059830 34.000000
152.067440 54.000000
153.059360 57.000000
153.067430 26.000000
153.074710 14.000000
154.063260 67.000000
156.078950 11.000000
157.085270 13.000000
158.061360 35.000000
160.034730 11.000000
162.092290 12.000000
163.055730 44.000000
164.390050 11.000000
165.056530 138.000000
165.069900 55.000000
165.079410 21.000000
166.056750 42.000000
166.068080 185.000000
166.161450 24.000000
167.045260 18.000000
167.054990 38.000000
167.072560 538.000000
168.073200 90.000000
168.272160 10.000000
169.058840 13.000000
169.074600 24.000000
169.091170 26.000000
177.042880 56.000000
177.054700 67.000000
177.065950 38.000000
178.059940 184.000000
178.075090 81.000000
178.124420 23.000000
179.064060 53.000000
179.080180 32.000000
180.070820 139.000000
180.081220 301.000000
181.086320 70.000000
181.095830 17.000000
181.558150 11.000000
182.042850 20.000000
182.059080 83.000000
183.063670 22.000000
183.090450 18.000000
183.100560 12.000000
184.041120 27.000000
184.057770 11.000000
184.069560 36.000000
185.078770 32.000000
185.089900 10.000000
189.065720 134.000000
189.081040 20.000000
189.739910 10.000000
190.063230 144.000000
190.086320 33.000000
191.071960 152.000000
191.090230 35.000000
192.075880 54.000000
192.084900 114.000000
192.090450 41.000000
193.053380 12.000000
193.076250 30.000000
193.088090 68.000000
193.097640 18.000000
193.141070 17.000000
194.059140 26.000000
194.091580 72.000000
195.039600 19.000000
195.049010 45.000000
195.069210 1000.000000
195.995760 12.000000
196.073640 223.000000
197.076000 13.000000
197.085360 36.000000
198.935580 18.000000
201.068330 48.000000
202.050690 23.000000
202.066500 21.000000
202.082890 22.000000
202.924330 12.000000
203.055220 44.000000
203.072490 259.000000
203.083080 55.000000
204.024410 10.000000
204.081730 144.000000
204.092410 86.000000
205.079320 26.000000
206.074690 15.000000
206.087620 34.000000
206.096500 32.000000
206.105030 21.000000
207.034990 13.000000
207.065320 19.000000
207.104000 21.000000
208.072970 223.000000
209.087630 27.000000
210.059680 14.000000
210.085850 98.000000
214.069000 31.000000
215.072420 30.000000
216.070850 55.000000
216.082660 146.000000
217.089430 448.000000
218.073960 33.000000
218.091960 116.000000
218.102260 50.000000
219.079740 11.000000
219.102050 92.000000
220.073970 29.000000
220.088810 10.000000
220.097580 10.000000
221.067730 13.000000
221.085130 38.000000
221.115110 13.000000
222.082960 40.000000
222.094270 33.000000
225.795760 10.000000
227.072070 36.000000
228.083830 56.000000
229.072650 23.000000
229.081310 16.000000
230.093110 55.000000
230.105320 14.000000
231.064440 15.000000
232.093110 28.000000
233.087190 19.000000
235.123570 29.000000
236.116380 18.000000
237.118930 12.000000
237.950740 11.000000
240.079530 13.000000
241.089390 12.000000
243.103200 12.000000
243.110760 11.000000
243.122530 18.000000
245.082290 21.000000
246.088300 15.000000
247.796830 13.000000
249.094300 11.000000
251.294340 25.000000
252.092730 15.000000
254.096450 17.000000
254.105010 14.000000
255.103650 10.000000
255.783920 15.000000
258.104280 35.000000
263.100800 13.000000
290.592500 13.000000
311.706150 18.000000
320.074310 19.000000
323.143800 34.000000
323.175420 55.000000

>ms2peaks
70.066220 30.000000
131.085040 11.000000
132.043590 5.000000
134.097240 6.000000
146.061390 11.000000
158.059860 7.000000
159.080440 8.000000
195.066440 19.000000
195.073670 6.000000
196.072810 8.000000
196.080950 7.000000
208.076750 7.000000
210.089310 7.000000
210.098650 6.000000
217.087800 7.000000
218.095860 20.000000
236.106630 54.000000
237.108690 11.000000
238.123980 13.000000
323.132690 7.000000
323.176820 1000.000000
323.228760 28.000000

>ms2peaks
323.123840 9.000000
323.176390 1000.000000
323.228210 31.000000

>ms2peaks
70.051620 13.000000
70.064810 678.000000
70.075040 11.000000
71.068430 31.000000
71.075840 7.000000
72.080700 11.000000
73.052490 6.000000
84.075290 11.000000
84.083320 7.000000
86.061130 96.000000
88.070730 15.000000
88.076560 45.000000
91.056140 30.000000
94.065630 20.000000
96.080850 21.000000
103.053160 9.000000
104.060810 8.000000
105.069910 37.000000
106.055400 5.000000
106.067160 9.000000
108.076970 11.000000
109.083020 7.000000
115.056120 14.000000
116.059430 6.000000
116.064640 8.000000
117.046280 6.000000
117.069620 146.000000
118.060820 6.000000
118.068640 10.000000
119.044620 5.000000
120.083820 13.000000
120.088840 7.000000
121.058230 16.000000
121.095490 6.000000
124.073020 7.000000
128.059230 6.000000
129.061460 14.000000
129.071080 16.000000
130.053880 6.000000
130.062000 13.000000
131.048600 7.000000
131.071620 17.000000
131.086320 192.000000
132.044040 60.000000
132.089190 20.000000
132.098530 7.000000
133.048570 12.000000
133.419220 5.000000
134.055040 16.000000
134.061680 5.000000
134.086690 5.000000
134.098180 17.000000
134.103940 6.000000
135.101230 6.000000
135.107130 17.000000
136.110240 5.000000
141.069870 16.000000
142.075700 6.000000
146.046140 6.000000
146.060560 148.000000
146.091900 6.000000
146.103000 14.000000
147.101120 15.000000
148.097350 6.000000
148.109090 17.000000
150.078060 9.000000
150.097370 12.000000
151.089830 7.000000
158.061230 122.000000
159.056470 10.000000
159.067350 43.000000
159.081920 96.000000
160.080080 21.000000
160.109500 25.000000
160.118010 7.000000
161.094820 9.000000
161.121000 18.000000
162.055800 12.000000
162.060580 6.000000
162.110120 7.000000
162.125050 22.000000
162.132800 25.000000
163.130430 16.000000
164.103290 12.000000
164.112000 6.000000
165.115310 9.000000
166.293500 8.000000
167.070790 10.000000
168.076640 10.000000
169.083440 5.000000
172.073070 20.000000
173.080570 16.000000
173.121410 7.000000
174.066440 5.000000
176.104810 11.000000
176.113190 11.000000
176.124740 5.000000
177.056090 6.000000
178.056980 11.000000
178.066570 29.000000
179.083480 5.000000
180.082990 27.000000
182.057710 9.000000
182.063930 26.000000
183.064090 19.000000
183.071270 13.000000
184.069290 30.000000
184.077730 28.000000
185.082860 6.000000
190.121890 46.000000
191.078410 6.000000
191.127840 18.000000
192.077180 12.000000
192.084000 26.000000
193.088060 24.000000
194.091740 9.000000
194.101990 9.000000
195.066850 379.000000
196.074550 279.000000
196.114060 7.000000
197.072040 31.000000
197.085100 41.000000
198.074260 6.000000
198.093280 19.000000
202.064900 5.000000
203.076280 29.000000
204.067830 14.000000
205.086090 11.000000
206.097920 13.000000
206.502620 5.000000
207.073200 8.000000
208.050570 6.000000
208.061430 23.000000
208.078460 128.000000
208.087740 40.000000
208.105500 9.000000
208.117520 6.000000
209.079190 15.000000
209.095830 8.000000
209.105060 8.000000
210.053100 6.000000
210.091740 184.000000
210.129520 22.000000
211.087720 18.000000
211.098820 10.000000
216.079320 18.000000
216.095540 6.000000
217.059460 8.000000
217.080660 10.000000
217.089400 15.000000
218.097530 228.000000
219.095460 40.000000
219.106810 22.000000
220.062930 7.000000
220.079210 11.000000
220.098770 6.000000
220.112930 21.000000
220.120420 6.000000
221.079410 13.000000
221.123660 11.000000
222.076930 6.000000
222.086430 10.000000
222.098540 20.000000
222.109130 6.000000
223.099520 9.000000
224.062990 9.000000
224.108090 6.000000
227.124740 5.000000
228.067750 8.000000
228.076340 18.000000
228.086410 12.000000
230.094500 19.000000
230.112500 8.000000
231.099170 7.000000
231.110260 6.000000
232.074680 7.000000
232.121800 6.000000
233.078090 6.000000
233.089420 11.000000
234.086850 39.000000
234.110150 11.000000
234.129470 10.000000
235.111560 5.000000
235.957840 6.000000
236.074980 6.000000
236.108750 893.000000
237.077910 10.000000
237.101620 56.000000
237.112700 144.000000
237.122910 37.000000
238.124270 166.000000
238.235750 5.000000
239.115300 6.000000
239.126110 25.000000
240.097790 10.000000
240.125700 7.000000
241.087190 20.000000
241.132350 9.000000
244.116210 18.000000
246.095090 29.000000
246.132970 7.000000
247.097630 18.000000
247.132250 8.000000
248.105500 28.000000
249.098450 18.000000
249.116230 19.000000
251.088610 5.000000
251.118970 17.000000
252.119000 5.000000
252.129700 7.000000
254.096020 9.000000
254.116290 8.000000
256.109620 15.000000
256.123290 6.000000
257.124150 7.000000
258.081820 5.000000
259.094600 11.000000
261.134700 5.000000
262.123630 60.000000
263.112240 7.000000
263.123320 17.000000
263.135800 10.000000
264.134520 8.000000
268.118190 6.000000
268.335750 6.000000
274.116330 33.000000
274.132260 23.000000
275.122650 7.000000
275.135830 16.000000
279.147250 11.000000
280.131160 17.000000
292.132970 19.000000
293.166720 38.000000
294.184480 10.000000
295.176640 8.000000
323.105470 6.000000
323.134370 5.000000
323.175930 1000.000000

>ms2peaks
67.053500 26.000000
68.049070 19.000000
69.554430 11.000000
70.054530 23.000000
70.065050 1000.000000
70.075870 13.000000
70.323620 12.000000
71.064290 12.000000
71.069530 62.000000
71.164410 11.000000
74.150670 10.000000
77.024070 16.000000
77.038430 37.000000
78.032170 12.000000
80.047470 14.000000
81.030180 19.000000
86.060710 19.000000
91.045390 19.000000
91.053660 246.000000
92.049710 13.000000
93.071460 20.000000
94.063750 31.000000
95.074040 11.000000
96.075580 12.000000
96.080120 16.000000
101.037490 29.000000
103.056190 57.000000
104.032360 10.000000
104.042960 27.000000
104.048470 62.000000
104.055920 29.000000
105.052980 19.000000
105.068530 47.000000
105.076470 22.000000
106.067520 27.000000
107.074350 13.000000
108.084230 47.000000
108.941380 12.000000
109.084840 22.000000
115.053470 231.000000
116.049100 17.000000
116.061320 118.000000
117.052600 15.000000
117.061790 16.000000
117.066640 49.000000
117.074260 33.000000
117.603730 10.000000
118.039420 22.000000
118.066410 52.000000
119.035670 15.000000
119.048110 13.000000
120.039680 17.000000
120.062030 20.000000
120.077650 58.000000
120.083750 38.000000
120.640530 13.000000
121.083470 17.000000
122.094420 17.000000
124.112150 30.000000
127.053020 31.000000
128.008990 12.000000
128.051100 162.000000
128.062160 92.000000
129.050140 34.000000
129.057220 9.000000
129.069690 13.000000
129.079830 12.000000
130.038130 16.000000
130.060070 43.000000
130.068510 177.000000
130.409550 11.000000
131.073880 44.000000
131.084980 20.000000
132.044190 274.000000
132.063400 13.000000
132.073880 11.000000
132.080840 23.000000
133.049930 46.000000
133.511570 10.000000
134.068470 10.000000
134.086720 16.000000
134.092030 10.000000
136.073880 10.000000
139.051710 40.000000
140.035540 16.000000
140.048080 26.000000
140.057070 27.000000
141.057370 20.000000
141.070010 45.000000
144.081830 56.000000
145.062030 15.000000
145.070830 13.000000
145.087620 55.000000
145.581180 10.000000
146.059710 92.000000
146.091660 62.000000
146.100600 57.000000
147.105940 17.000000
148.080460 13.000000
148.108460 13.000000
148.115220 19.000000
149.082530 17.000000
150.047380 34.000000
150.091000 26.000000
150.101640 54.000000
151.053910 168.000000
152.052110 54.000000
152.060350 55.000000
153.064060 27.000000
153.077120 12.000000
154.065890 103.000000
155.083690 10.000000
157.089110 36.000000
158.059630 54.000000
159.057070 14.000000
159.063610 13.000000
159.117200 12.000000
160.084700 16.000000
162.105350 10.000000
162.123410 17.000000
163.060580 26.000000
164.102490 12.000000
165.057340 55.000000
165.067610 156.000000
165.079770 31.000000
166.057910 17.000000
166.068310 89.000000
166.084700 42.000000
166.102010 10.000000
166.935850 15.000000
167.053440 14.000000
167.071850 721.000000
168.076900 31.000000
168.087190 64.000000
169.054120 22.000000
169.085400 14.000000
170.026090 10.000000
170.050050 13.000000
170.057950 29.000000
170.066740 16.000000
172.053120 12.000000
172.066300 15.000000
172.864040 10.000000
175.054150 10.000000
176.069550 16.000000
176.108320 16.000000
177.059230 183.000000
177.068540 109.000000
178.043490 15.000000
178.060170 269.000000
178.068970 252.000000
178.079800 29.000000
179.054240 30.000000
179.070970 97.000000
179.085080 59.000000
180.053440 27.000000
180.073870 61.000000
180.079680 116.000000
180.089140 72.000000
181.076540 72.000000
181.092160 29.000000
182.054280 27.000000
182.091340 16.000000
182.098430 13.000000
183.062190 23.000000
183.071690 73.000000
183.094880 20.000000
184.068570 43.000000
186.051900 17.000000
186.235200 10.000000
188.063950 14.000000
189.063540 46.000000
189.076220 63.000000
190.055940 80.000000
190.066640 156.000000
190.080630 31.000000
191.067870 148.000000
191.079800 83.000000
191.089840 19.000000
192.074010 40.000000
192.083830 41.000000
192.090930 39.000000
192.099030 24.000000
193.083300 20.000000
193.095050 44.000000
193.274000 12.000000
194.067250 12.000000
194.082610 20.000000
194.099900 21.000000
195.037540 14.000000
195.068820 713.000000
196.054380 23.000000
196.073750 248.000000
201.063230 12.000000
201.074540 28.000000
202.066530 98.000000
202.083360 71.000000
202.702870 11.000000
202.985750 10.000000
203.070880 147.000000
203.080340 177.000000
204.078900 247.000000
206.069180 16.000000
206.099530 16.000000
207.090530 12.000000
207.107390 16.000000
208.060650 24.000000
208.077010 124.000000
208.110660 14.000000
209.082930 49.000000
210.071200 29.000000
210.091050 143.000000
210.106140 19.000000
211.095380 12.000000
214.067720 30.000000
215.071790 13.000000
216.067630 33.000000
216.084120 163.000000
216.188740 12.000000
216.765350 12.000000
217.069560 14.000000
217.082630 76.000000
217.091320 268.000000
218.029420 10.000000
218.041550 17.000000
218.073970 16.000000
218.085660 41.000000
218.097260 175.000000
219.103620 31.000000
219.109410 13.000000
219.827880 10.000000
220.077640 52.000000
220.111570 17.000000
221.070690 13.000000
221.090440 17.000000
221.869830 12.000000
222.075520 11.000000
222.102970 14.000000
223.080120 13.000000
223.211410 10.000000
225.649080 16.000000
226.079150 17.000000
228.070800 10.000000
228.081830 48.000000
229.072330 19.000000
229.107220 11.000000
229.704320 20.000000
230.071790 12.000000
230.083890 12.000000
230.097350 32.000000
231.091480 24.000000
231.110610 23.000000
232.079670 39.000000
233.078250 17.000000
233.126450 11.000000
234.084840 23.000000
234.129870 18.000000
235.082120 36.000000
235.104290 16.000000
235.127210 16.000000
236.074130 12.000000
236.094590 15.000000
236.106020 41.000000
237.101030 13.000000
240.060130 19.000000
240.095020 11.000000
241.091140 13.000000
242.095260 13.000000
242.637940 12.000000
243.115050 19.000000
244.100310 14.000000
245.100590 31.000000
246.093060 11.000000
246.102020 16.000000
246.112260 12.000000
248.066480 19.000000
249.099180 10.000000
249.110670 16.000000
251.119020 12.000000
252.112470 11.000000
255.096600 16.000000
258.115600 16.000000
260.103090 25.000000
268.974950 10.000000
271.612640 10.000000
291.419490 11.000000
323.142430 15.000000
323.164460 19.000000
323.172060 48.000000
323.185420 37.000000

>ms2peaks
70.064710 35.000000
86.060410 7.000000
131.087250 9.000000
132.043750 7.000000
146.061490 13.000000
158.062000 8.000000
162.126080 6.000000
195.069370 19.000000
196.074840 16.000000
208.076030 13.000000
210.093170 16.000000
218.097140 14.000000
236.107970 50.000000
237.105880 11.000000
238.122270 18.000000
323.177120 1000.000000
323.229100 29.000000

>ms2peaks
323.175900 1000.000000
323.227810 33.000000

>ms2peaks
58.065970 14.000000
68.049230 6.000000
70.044360 5.000000
70.048870 11.000000
70.065160 680.000000
71.069800 40.000000
72.082240 12.000000
86.041950 6.000000
86.059540 58.000000
87.064610 5.000000
88.072400 22.000000
91.055060 41.000000
91.059970 11.000000
93.070760 10.000000
94.067040 12.000000
94.077700 6.000000
96.081990 20.000000
97.088440 8.000000
97.818210 6.000000
105.067890 31.000000
105.076080 8.000000
107.072660 13.000000
108.083860 12.000000
110.084260 8.000000
115.054410 10.000000
116.061570 10.000000
117.066000 46.000000
117.071660 83.000000
118.065030 13.000000
118.074810 12.000000
120.079170 12.000000
122.092890 7.000000
123.068850 6.000000
128.048100 5.000000
129.051800 6.000000
129.059880 5.000000
129.071950 20.000000
130.062380 14.000000
130.069840 11.000000
131.046510 7.000000
131.070980 18.000000
131.084350 131.000000
132.042890 67.000000
132.084410 24.000000
133.054170 6.000000
133.063750 8.000000
133.085100 12.000000
134.052410 7.000000
134.059800 20.000000
134.067030 11.000000
134.092940 54.000000
134.099090 33.000000
135.057420 8.000000
135.100420 10.000000
136.111280 9.000000
144.060910 14.000000
146.039990 10.000000
146.060440 147.000000
146.092320 22.000000
147.065110 5.000000
147.083920 5.000000
147.102200 17.000000
148.068270 7.000000
148.079360 10.000000
148.111540 52.000000
148.122740 6.000000
149.083270 10.000000
149.089610 5.000000
149.107700 6.000000
150.081330 12.000000
150.089780 29.000000
154.069720 7.000000
158.039340 6.000000
158.060240 161.000000
159.072970 65.000000
159.082370 78.000000
160.062760 8.000000
160.070970 12.000000
160.080690 17.000000
160.103550 8.000000
160.115100 18.000000
161.088300 8.000000
161.107060 8.000000
161.120570 7.000000
162.054610 10.000000
162.115340 8.000000
162.126430 23.000000
163.101470 7.000000
164.100690 6.000000
165.114840 12.000000
166.065090 13.000000
166.078610 5.000000
167.075420 7.000000
170.056880 8.000000
172.072780 10.000000
176.060880 5.000000
176.111450 8.000000
176.126080 5.000000
178.063080 70.000000
178.116990 7.000000
178.121660 18.000000
179.070310 14.000000
180.080030 18.000000
180.089280 6.000000
181.087620 9.000000
182.054660 9.000000
183.067250 21.000000
183.107150 8.000000
184.071120 44.000000
184.082870 28.000000
184.093610 6.000000
185.073360 12.000000
190.064290 8.000000
190.120240 75.000000
191.080520 5.000000
191.116930 6.000000
191.127750 31.000000
191.136750 10.000000
192.070240 10.000000
192.079740 7.000000
193.072070 5.000000
193.089810 9.000000
194.091190 8.000000
195.067380 338.000000
195.107700 6.000000
196.075060 231.000000
197.066620 16.000000
197.076950 26.000000
197.089900 19.000000
198.088410 26.000000
198.098710 6.000000
202.082930 5.000000
203.073560 16.000000
204.080800 8.000000
205.087660 7.000000
208.059460 5.000000
208.075160 75.000000
208.126880 6.000000
209.081210 30.000000
210.068800 8.000000
210.091510 203.000000
210.128230 8.000000
211.098540 19.000000
216.082860 12.000000
217.084230 12.000000
217.092960 15.000000
218.063190 8.000000
218.095810 228.000000
219.082030 19.000000
219.093060 14.000000
219.102630 20.000000
220.093310 24.000000
220.114290 35.000000
221.079880 7.000000
221.115070 11.000000
221.123630 9.000000
222.091170 30.000000
224.102690 8.000000
224.233950 5.000000
225.105130 11.000000
229.928560 6.000000
230.094010 8.000000
232.084840 6.000000
233.084980 22.000000
234.076710 6.000000
234.091340 27.000000
234.101490 7.000000
234.130620 7.000000
234.997560 5.000000
235.088350 8.000000
236.065540 6.000000
236.106740 868.000000
237.092530 13.000000
237.110870 132.000000
238.072710 6.000000
238.101670 32.000000
238.121800 219.000000
239.124390 28.000000
241.084470 9.000000
244.103590 12.000000
244.113820 14.000000
245.082640 10.000000
246.076920 12.000000
246.089980 6.000000
246.132050 24.000000
247.099960 18.000000
248.105030 41.000000
248.116590 7.000000
249.105730 19.000000
250.123600 20.000000
251.083860 7.000000
251.098560 10.000000
251.115140 21.000000
253.119350 7.000000
253.133240 6.000000
254.105930 8.000000
256.113770 22.000000
257.103940 6.000000
258.090450 7.000000
260.105470 10.000000
261.096440 7.000000
262.123110 37.000000
263.102330 7.000000
263.125920 5.000000
264.147190 6.000000
266.123630 5.000000
274.107360 5.000000
274.121890 27.000000
279.143010 7.000000
280.139830 7.000000
281.130370 6.000000
281.171480 6.000000
291.159060 5.000000
292.125370 17.000000
293.160740 12.000000
294.161680 7.000000
295.145110 7.000000
295.166440 7.000000
308.149540 5.000000
323.120390 5.000000
323.174500 1000.000000
323.356350 5.000000

>ms2peaks
58.031670 15.000000
67.055540 9.000000
68.055760 24.000000
69.832880 9.000000
70.065870 1000.000000
70.485370 9.000000
70.762800 9.000000
71.062540 18.000000
71.068850 20.000000
71.074570 21.000000
72.367360 9.000000
77.023130 10.000000
77.031140 16.000000
77.036680 37.000000
79.051190 14.000000
83.075870 11.000000
86.049960 13.000000
88.086280 18.000000
91.045730 37.000000
91.053300 276.000000
92.051700 15.000000
92.058240 25.000000
92.284380 10.000000
92.976570 14.000000
94.073980 19.000000
95.069940 10.000000
103.028690 14.000000
103.049710 9.000000
103.059060 32.000000
104.041630 14.000000
104.048860 21.000000
104.059300 31.000000
105.023160 15.000000
105.061160 20.000000
105.070660 67.000000
106.046650 13.000000
106.061770 66.000000
107.070190 9.000000
107.076360 19.000000
108.076000 12.000000
108.086800 14.000000
108.106380 9.000000
109.083190 17.000000
115.045030 16.000000
115.053610 188.000000
115.794830 10.000000
116.048030 16.000000
116.057120 11.000000
116.066840 48.000000
117.056500 34.000000
117.066850 156.000000
117.073260 46.000000
118.061170 25.000000
118.067480 33.000000
118.073970 27.000000
119.052060 10.000000
119.074580 17.000000
119.082530 15.000000
119.091280 26.000000
119.315900 9.000000
120.046480 10.000000
120.067530 16.000000
120.080200 141.000000
121.055360 14.000000
121.073400 13.000000
121.088950 26.000000
121.092900 12.000000
122.085460 9.000000
122.099990 22.000000
127.045440 17.000000
127.059430 16.000000
127.317640 13.000000
128.037750 24.000000
128.050580 234.000000
128.064700 20.000000
129.041930 17.000000
129.054930 20.000000
129.062440 10.000000
129.072780 26.000000
130.054690 47.000000
130.065920 208.000000
130.075940 20.000000
131.050370 12.000000
131.067090 72.000000
131.083740 39.000000
132.034240 47.000000
132.044330 221.000000
132.056340 28.000000
132.068860 24.000000
132.081800 57.000000
133.049180 14.000000
133.060610 25.000000
133.068740 9.000000
133.087160 10.000000
133.648670 9.000000
134.076110 11.000000
134.093460 13.000000
135.103440 23.000000
136.073170 9.000000
139.056210 28.000000
140.029010 13.000000
140.045680 18.000000
140.054400 69.000000
141.053970 10.000000
141.064030 10.000000
142.059540 14.000000
142.071700 13.000000
143.077040 17.000000
144.079640 15.000000
144.088650 12.000000
145.061460 13.000000
145.082080 35.000000
145.127180 10.000000
146.056790 81.000000
146.066620 89.000000
146.096680 89.000000
147.103130 45.000000
148.102710 9.000000
148.115840 41.000000
149.105820 24.000000
151.052610 96.000000
151.058670 74.000000
152.035420 10.000000
152.060870 104.000000
154.056950 45.000000
154.070820 39.000000
155.081010 20.000000
155.343930 15.000000
157.058210 10.000000
157.069090 17.000000
157.085780 15.000000
158.052030 30.000000
158.068240 9.000000
159.035400 28.000000
159.062760 9.000000
159.099850 12.000000
160.123370 11.000000
162.052890 14.000000
162.124500 27.000000
163.057340 35.000000
163.669680 10.000000
165.046840 19.000000
165.054580 35.000000
165.069340 148.000000
165.078430 18.000000
165.104680 10.000000
166.061940 138.000000
166.071610 79.000000
167.058470 36.000000
167.072300 603.000000
167.094020 13.000000
168.068210 17.000000
168.078630 105.000000
168.590160 9.000000
169.090580 10.000000
170.061290 9.000000
173.075550 41.000000
175.096710 10.000000
176.053250 23.000000
176.061130 15.000000
177.041460 24.000000
177.058870 346.000000
177.073410 21.000000
177.696180 10.000000
177.914540 9.000000
178.064740 322.000000
179.040070 11.000000
179.071400 108.000000
180.041470 13.000000
180.063800 27.000000
180.080870 148.000000
181.216540 18.000000
181.985400 18.000000
182.066850 35.000000
182.093260 12.000000
182.208080 9.000000
183.082730 21.000000
183.091570 15.000000
183.101970 9.000000
184.063020 12.000000
189.072480 83.000000
190.037430 13.000000
190.053510 45.000000
190.069840 106.000000
190.125310 13.000000
191.024660 9.000000
191.065340 47.000000
191.076460 83.000000
191.094740 12.000000
191.885300 9.000000
192.075160 127.000000
192.081480 64.000000
192.098050 13.000000
193.079560 19.000000
193.091060 47.000000
193.831990 9.000000
194.057020 12.000000
194.068970 26.000000
194.088030 13.000000
194.099930 13.000000
195.066150 767.000000
195.095780 34.000000
195.425690 20.000000
196.062210 36.000000
196.074870 216.000000
196.102660 14.000000
196.111660 18.000000
197.091810 15.000000
199.094130 29.000000
200.067180 13.000000
200.169590 9.000000
201.053770 22.000000
201.065030 34.000000
201.074370 33.000000
202.061080 47.000000
202.075070 82.000000
202.084380 23.000000
203.056260 26.000000
203.073100 331.000000
203.116840 9.000000
204.039430 9.000000
204.048710 24.000000
204.078780 178.000000
204.087830 58.000000
205.087970 66.000000
205.098660 28.000000
205.168980 10.000000
206.055950 9.000000
206.083690 40.000000
206.096480 9.000000
207.064880 28.000000
207.093430 28.000000
207.104600 18.000000
208.064900 83.000000
208.076740 101.000000
208.110760 12.000000
209.078430 50.000000
209.710800 9.000000
210.093090 74.000000
211.092410 31.000000
214.132260 15.000000
215.039320 10.000000
215.067730 19.000000
215.079390 34.000000
215.088380 23.000000
216.058610 11.000000
216.080090 130.000000
216.091200 58.000000
217.053740 20.000000
217.061840 14.000000
217.089290 282.000000
217.145100 9.000000
217.609500 12.000000
217.826950 10.000000
218.071720 9.000000
218.082670 43.000000
218.097900 274.000000
218.346890 10.000000
219.079820 9.000000
219.099820 49.000000
219.108320 39.000000
220.051610 12.000000
220.068820 42.000000
220.081860 41.000000
220.103820 24.000000
220.116580 27.000000
220.435470 12.000000
221.080440 32.000000
222.076050 25.000000
222.099330 40.000000
223.077040 12.000000
224.133010 12.000000
227.070910 26.000000
228.076510 27.000000
229.052020 15.000000
229.094040 9.000000
230.086200 11.000000
232.043290 11.000000
232.109740 9.000000
233.052230 9.000000
233.068420 39.000000
233.088760 10.000000
234.092530 36.000000
235.095460 18.000000
235.108140 9.000000
236.104000 54.000000
237.117520 9.000000
240.082720 27.000000
241.082150 36.000000
244.109480 9.000000
245.080550 12.000000
247.101810 11.000000
249.102770 12.000000
254.094830 9.000000
255.085240 11.000000
263.122130 15.000000
266.910740 9.000000
273.100430 16.000000
273.149170 14.000000
319.393800 14.000000

