>compound PR54534619
>parentmass 625.1772
>ionization [M+H]+
>formula C28H32O16
>rt 232.200000
>profile qtof
#smiles_iso COC1=C(C=CC(=C1)C2=CC(=O)C3=C(O2)C=C(C(=C3O)C4C(C(C(C(O4)CO)O)O)OC5C(C(C(C(O5)CO)O)O)O)O)O
#smiles_can COC1=C(C=CC(=C1)C2=CC(=O)C3=C(O2)C=C(C(=C3O)C4C(C(C(C(O4)CO)O)O)OC5C(C(C(C(O5)CO)O)O)O)O)O
#inchikey AQQFWSYLUDMDBP-UHFFFAOYSA-N
#pubchem_id 74977689
#mb_accession PR310982

>ms2
64.217620 24.000000
65.852970 20.000000
69.035090 23.000000
127.033850 31.000000
127.043210 22.000000
145.051060 47.000000
145.057010 16.000000
227.236800 33.000000
301.048800 21.000000
301.072170 41.000000
301.085270 21.000000
311.075990 16.000000
313.049770 45.000000
313.071200 839.000000
313.296170 16.000000
314.069370 155.000000
314.083040 134.000000
315.085390 21.000000
321.086030 20.000000
322.957950 18.000000
324.049870 41.000000
325.064120 24.000000
325.924380 16.000000
326.071040 24.000000
326.080720 20.000000
327.070650 16.000000
337.077180 24.000000
339.062930 21.000000
339.074770 39.000000
339.093630 86.000000
340.079830 19.000000
340.541530 18.000000
342.056640 16.000000
342.866820 17.000000
343.082490 1400.000000
343.160860 24.000000
343.480870 16.000000
344.085330 125.000000
344.104160 50.000000
345.080260 37.000000
353.050600 30.000000
353.100490 145.000000
353.119870 56.000000
354.083920 24.000000
354.102020 59.000000
361.980900 16.000000
363.080750 32.000000
363.094730 26.000000
364.092070 24.000000
366.056880 20.000000
367.058290 125.000000
367.080930 774.000000
367.255950 17.000000
368.075960 91.000000
368.094600 236.000000
368.115230 18.000000
368.460020 18.000000
369.101380 16.000000
370.837400 17.000000
378.565520 17.000000
379.059140 16.000000
379.081510 113.000000
379.115140 16.000000
380.087620 80.000000
380.498780 17.000000
381.095700 76.000000
381.112640 50.000000
391.049130 17.000000
391.077880 139.000000
391.096860 74.000000
392.026340 18.000000
392.061890 39.000000
392.093630 16.000000
397.024440 20.000000
397.047550 39.000000
397.072200 39.000000
397.093900 248.000000
397.109800 199.000000
398.084290 27.000000
398.101900 68.000000
398.116210 18.000000
398.154720 16.000000
402.103150 49.000000
409.065090 34.000000
409.084720 128.000000
409.099520 223.000000
409.127560 19.000000
409.363370 28.000000
410.092590 33.000000
410.124450 23.000000
411.583340 20.000000
412.087980 19.000000
418.388850 30.000000
419.491970 30.000000
427.096250 440.000000
427.118100 94.000000
427.238160 20.000000
427.990660 17.000000
428.092650 19.000000
428.109310 39.000000
428.127110 29.000000
428.241120 27.000000
428.938290 18.000000
429.113460 18.000000
431.099460 16.000000
445.089170 107.000000
445.113040 355.000000
445.153560 18.000000
446.020720 16.000000
446.114290 116.000000
446.202120 36.000000
447.114350 28.000000
447.131900 54.000000
448.119110 17.000000
448.129390 45.000000
463.046880 18.000000
463.123320 1878.000000
463.228360 25.000000
464.122410 317.000000
464.136930 226.000000
464.166690 26.000000
465.097320 25.000000
465.139310 150.000000
528.472600 24.000000
554.928650 23.000000
557.793700 18.000000
590.163700 16.000000
625.065980 32.000000
625.096070 25.000000
625.117860 87.000000
625.180480 3754.000000

