>compound PR54001954
>parentmass 513.1911
>ionization [M+H]+
>formula C26H28N2O9
>rt 244.200000
>profile qtof
#smiles_iso C=CC1C2CC3C4=C(CN3C(=O)C2=COC1OC5C(C(C(C(O5)CO)O)O)O)C(=O)C6=CC=CC=C6N4
#smiles_can C=CC1C2CC3C4=C(CN3C(=O)C2=COC1OC5C(C(C(C(O5)CO)O)O)O)C(=O)C6=CC=CC=C6N4
#inchikey ODQBQUXGRYBRTP-UHFFFAOYSA-N
#pubchem_id 14440700
#mb_accession PR311104

>ms2peaks
91.054420 17.000000
108.122240 20.000000
120.049050 52.000000
121.049420 27.000000
122.076070 34.000000
124.031060 37.000000
124.043870 19.000000
131.086380 25.000000
138.414790 16.000000
146.062640 16.000000
148.077620 16.000000
149.055450 36.000000
149.064160 24.000000
149.078480 18.000000
150.064380 18.000000
158.025390 22.000000
158.063550 721.000000
159.060900 19.000000
160.074040 16.000000
163.041720 20.000000
172.075820 17.000000
175.057140 17.000000
176.060850 62.000000
176.070470 65.000000
176.077910 34.000000
182.060670 34.000000
183.074130 16.000000
184.061200 32.000000
184.074950 39.000000
184.083220 32.000000
185.047260 18.000000
185.072940 1445.000000
185.808750 16.000000
186.062550 138.000000
186.075060 445.000000
186.084660 406.000000
187.079790 119.000000
187.087660 78.000000
187.096790 17.000000
188.094530 17.000000
194.849400 18.000000
196.065830 58.000000
196.072110 35.000000
196.086900 18.000000
197.075960 41.000000
197.081410 18.000000
198.087660 23.000000
199.086230 121.000000
201.478740 21.000000
208.066130 52.000000
208.090480 21.000000
209.093250 24.000000
209.293060 17.000000
211.083720 45.000000
211.092290 23.000000
211.126250 22.000000
213.048250 16.000000
213.066280 16.000000
213.108310 16.000000
213.335240 16.000000
213.782490 29.000000
214.078000 37.000000
215.973460 16.000000
222.072460 16.000000
222.093810 19.000000
223.045870 20.000000
223.174610 22.000000
225.091430 18.000000
227.089190 27.000000
232.112090 17.000000
235.086200 37.000000
235.096100 71.000000
236.050310 16.000000
236.062840 16.000000
236.078050 101.000000
236.085420 59.000000
237.065400 34.000000
237.074870 24.000000
239.087710 19.000000
242.975130 18.000000
243.649640 17.000000
247.075850 37.000000
247.375030 16.000000
248.006260 16.000000
249.095030 45.000000
251.082920 46.000000
251.090090 16.000000
252.073180 48.000000
252.092680 85.000000
254.093110 34.000000
255.551970 16.000000
258.106410 17.000000
260.124360 30.000000
261.103090 17.000000
261.503540 22.000000
262.112950 20.000000
262.139830 31.000000
263.073090 123.000000
263.088470 262.000000
264.060240 134.000000
264.085540 140.000000
264.111050 24.000000
265.067080 27.000000
265.079680 16.000000
265.089390 17.000000
266.065920 23.000000
267.089020 16.000000
268.743440 17.000000
278.143160 16.000000
280.078000 40.000000
280.090150 36.000000
280.838380 16.000000
281.013760 17.000000
281.092470 4902.000000
281.171080 20.000000
282.087830 336.000000
282.102360 1072.000000
283.080140 25.000000
283.096410 125.000000
283.109410 38.000000
283.120390 17.000000
283.443940 17.000000
284.107480 20.000000
284.119540 17.000000
285.082980 20.000000
287.079800 20.000000
287.100340 20.000000
287.111210 30.000000
287.334590 20.000000
288.090450 21.000000
288.105010 20.000000
289.091460 18.000000
290.098180 38.000000
290.114620 84.000000
290.128170 41.000000
290.480530 16.000000
291.166110 20.000000
291.607760 20.000000
291.974880 17.000000
295.151520 16.000000
301.228790 16.000000
301.836240 22.000000
303.085510 16.000000
303.107090 65.000000
303.126310 89.000000
304.097170 21.000000
304.114870 76.000000
304.129880 43.000000
304.412320 17.000000
305.122860 228.000000
305.138890 304.000000
306.125120 81.000000
306.138150 113.000000
306.217900 20.000000
306.246490 17.000000
306.514890 16.000000
307.138980 17.000000
307.153230 17.000000
308.136350 16.000000
310.122530 16.000000
310.706390 17.000000
315.126340 19.000000
315.233430 26.000000
315.958370 26.000000
316.113160 20.000000
321.988680 17.000000
323.137180 35.000000
323.157320 16.000000
333.122680 1295.000000
333.132200 600.000000
333.200650 20.000000
333.803860 20.000000
333.977050 18.000000
334.107450 51.000000
334.124240 142.000000
334.138210 114.000000
335.128270 40.000000
346.533450 17.000000
349.471010 24.000000
350.284420 23.000000
351.070470 24.000000
351.133970 8732.000000
351.213440 20.000000
352.082280 21.000000
352.093750 16.000000
352.134090 1677.000000
352.148800 620.000000
352.170810 16.000000
353.126590 68.000000
353.143490 212.000000
354.142490 18.000000
354.156190 20.000000
357.776460 16.000000
420.975190 17.000000
421.298740 16.000000
429.143860 18.000000
443.148900 18.000000
474.032170 20.000000
511.228360 21.000000
512.826050 17.000000
513.109010 34.000000
513.124820 51.000000
513.185420 11217.000000

