>compound PR54572532
>parentmass 595.1651980999999
>ionization [M]+
>formula C27H31O15+
>rt 162.322020
>profile qtof
#smiles_iso C1=CC(=CC=C1C2=C(C=C3C(=CC(=CC3=[O+]2)O)O[C@H]4[C@@H]([C@H]([C@@H]([C@H](O4)CO)O)O)O)O[C@H]5[C@@H]([C@H]([C@@H]([C@H](O5)CO)O)O)O)O
#smiles_can C1=CC(=CC=C1C2=C(C=C3C(=CC(=CC3=[O+]2)O)OC4C(C(C(C(O4)CO)O)O)O)OC5C(C(C(C(O5)CO)O)O)O)O
#inchikey SLCKJKWFULXZBD-ZOTFFYTFSA-O
#pubchem_id 441772
#mb_accession PR302211,PR302216,PR302221,PR302226,PR302231,PR302236,PR302241,PR302246,PR302251,PR302256,PR302261,PR302266

>ms2
271.015440 16.000000
271.058750 1000.000000
272.048280 27.000000
272.067840 98.000000
273.057980 18.000000
433.059110 7.000000
433.109380 278.000000
434.096010 18.000000
434.113190 45.000000
434.132420 7.000000
435.125090 20.000000
464.117860 8.000000
595.112670 17.000000
595.165040 558.000000

>ms2
271.062410 18.000000
272.056950 5.000000
433.115780 56.000000
434.113560 6.000000
595.041930 11.000000
595.110350 11.000000
595.166440 1000.000000

>ms2
271.029940 12.000000
271.060910 1000.000000
272.063020 188.000000
273.069370 12.000000
433.096590 8.000000
433.120330 26.000000
434.109740 5.000000

>ms2
271.029630 13.000000
271.058690 1000.000000
272.062740 226.000000
273.063080 32.000000
273.075130 12.000000

>ms2
271.018800 7.000000
271.032780 12.000000
271.060270 1000.000000
272.064210 148.000000
273.067960 32.000000
433.080750 10.000000
433.114560 222.000000
434.116090 68.000000
434.131870 14.000000
435.128940 11.000000
595.100400 21.000000
595.167480 619.000000

>ms2
271.054780 6.000000
271.066680 8.000000
433.082640 6.000000
433.113650 57.000000
434.114720 10.000000
595.089420 7.000000
595.118040 23.000000
595.166870 1000.000000

>ms2
271.023190 15.000000
271.060150 1000.000000
272.063450 186.000000
273.059940 14.000000
273.072510 15.000000
433.103360 18.000000
433.120570 30.000000
434.115840 8.000000

>ms2
121.029560 11.000000
197.059040 9.000000
271.015470 12.000000
271.027340 6.000000
271.059050 1000.000000
272.062230 185.000000
273.052150 7.000000
273.064880 28.000000
595.143550 5.000000
595.162780 12.000000

>ms2
271.027590 12.000000
271.058870 1000.000000
272.035860 9.000000
272.062840 144.000000
273.064090 10.000000
433.057770 13.000000
433.094090 57.000000
433.107300 117.000000
433.124080 149.000000
434.094270 14.000000
434.122310 44.000000
434.146610 9.000000
435.130100 11.000000
595.111820 26.000000
595.168820 446.000000

>ms2
271.059330 11.000000
433.114110 75.000000
434.102390 9.000000
434.118650 9.000000
595.108030 21.000000
595.165650 1000.000000

>ms2
271.012120 7.000000
271.023770 6.000000
271.060120 1000.000000
272.062500 192.000000
273.061220 14.000000
273.074010 20.000000
433.097900 11.000000
433.114380 20.000000
434.108400 9.000000

>ms2
121.030030 7.000000
145.070040 7.000000
215.064670 7.000000
271.024540 11.000000
271.059540 1000.000000
272.046720 14.000000
272.066040 139.000000
273.061860 27.000000
595.164730 15.000000

