>compound PR54019276
>parentmass 943.5248
>ionization [M+H]+
>formula C48H78O18
>rt 415.200000
>profile qtof
#smiles_iso CC1C(C(C(C(O1)OC2CCC3(C(C2(C)CO)CCC4(C3CC=C5C4(CCC6(C5CC(CC6)(C)C)C(=O)O)C)C)C)O)OC7C(C(C(C(O7)CO)OC8C(C(C(C(O8)CO)O)O)O)O)O)O
#smiles_can CC1C(C(C(C(O1)OC2CCC3(C(C2(C)CO)CCC4(C3CC=C5C4(CCC6(C5CC(CC6)(C)C)C(=O)O)C)C)C)O)OC7C(C(C(C(O7)CO)OC8C(C(C(C(O8)CO)O)O)O)O)O)O
#inchikey GNMXZMIENAWWKB-UHFFFAOYSA-N
#pubchem_id 139291864
#mb_accession PR310677

>ms2peaks
51.956170 21.000000
84.966350 20.000000
85.025790 25.000000
111.050400 18.000000
129.050670 64.000000
139.918980 17.000000
145.053240 17.000000
147.063110 36.000000
147.069820 36.000000
155.143480 18.000000
166.080830 18.000000
167.137570 18.000000
189.165740 22.000000
191.170900 36.000000
193.322510 20.000000
203.184620 36.000000
205.151350 18.000000
205.169710 23.000000
224.173840 17.000000
229.189790 26.000000
231.089170 20.000000
232.185700 17.000000
239.086810 41.000000
255.085210 21.000000
256.087800 18.000000
261.216490 20.000000
273.096590 98.000000
273.125790 23.000000
274.092130 25.000000
274.104370 20.000000
283.212860 20.000000
289.100680 25.000000
309.045010 24.000000
309.117070 256.000000
309.131960 75.000000
324.485350 18.000000
325.116820 18.000000
325.127780 17.000000
339.510590 18.000000
391.341130 21.000000
391.353360 19.000000
397.294190 20.000000
397.308990 87.000000
409.351560 45.000000
410.349120 45.000000
419.344240 17.000000
423.368160 19.000000
425.335270 41.000000
437.256810 21.000000
437.329530 39.000000
437.342560 65.000000
437.360750 37.000000
438.336090 53.000000
438.347660 139.000000
455.339720 147.000000
455.357940 171.000000
455.396480 20.000000
456.349910 86.000000
456.378080 28.000000
471.183720 64.000000
472.171660 23.000000
473.342530 17.000000
473.385620 18.000000
474.369570 24.000000
519.164920 21.000000
539.432740 17.000000
565.383360 17.000000
565.424930 20.000000
581.410890 17.000000
619.394100 41.000000
619.425840 134.000000
620.391660 28.000000
620.427800 40.000000
635.382080 34.000000
635.402100 60.000000
636.348450 21.000000
636.411560 21.000000
781.404850 30.000000
781.434020 20.000000
781.486880 184.000000
782.424990 48.000000
782.481870 41.000000
783.435060 18.000000
783.463200 36.000000
783.503780 18.000000
798.515500 22.000000
824.396060 17.000000
942.496150 17.000000
942.527830 24.000000
943.504640 180.000000
943.533940 386.000000

