>compound PR54386159
>parentmass 579.1503
>ionization [M+H]+
>formula C30H26O12
>rt 171.000000
>profile qtof
#smiles_iso C1C(C(OC2=C1C(=CC(=C2C3C(C(OC4=CC(=CC(=C34)O)O)C5=CC(=C(C=C5)O)O)O)O)O)C6=CC(=C(C=C6)O)O)O
#smiles_can C1C(C(OC2=C1C(=CC(=C2C3C(C(OC4=CC(=CC(=C34)O)O)C5=CC(=C(C=C5)O)O)O)O)O)C6=CC(=C(C=C6)O)O)O
#inchikey XFZJEEAOWLFHDH-UHFFFAOYSA-N
#pubchem_id 130556
#mb_accession PR311119

>ms2peaks
123.048710 24.000000
127.042630 133.000000
128.039610 28.000000
139.022810 43.000000
139.039060 18.000000
151.021130 33.000000
163.034770 101.000000
163.045290 20.000000
189.045330 18.000000
191.037600 22.000000
203.047100 32.000000
230.043350 17.000000
232.080430 35.000000
235.546620 18.000000
245.047130 17.000000
246.045330 18.000000
247.054990 38.000000
247.069900 35.000000
257.059940 18.000000
259.062590 24.000000
260.059690 17.000000
271.061800 60.000000
273.077940 23.000000
275.046600 17.000000
275.057220 17.000000
275.970400 17.000000
287.059720 20.000000
289.073030 59.000000
291.084140 109.000000
292.098660 17.000000
301.054410 20.000000
301.066590 17.000000
301.101320 18.000000
303.077760 25.000000
303.104490 37.000000
333.080110 21.000000
379.080810 17.000000
380.079740 34.000000
409.090550 20.000000
409.106570 38.000000
427.106230 36.000000
459.122770 18.000000
474.105800 23.000000
537.866820 20.000000
562.142700 17.000000
579.138610 156.000000
579.159670 257.000000

