>compound PR54663836
>parentmass 493.1346
>ionization [M+H]+
>formula C23H24O12
>rt 274.200000
>profile qtof
#smiles_iso COC1=CC(=CC(=C1O)OC)C2=CC(=O)C3=C(C=C(C=C3O2)OC4C(C(C(C(O4)CO)O)O)O)O
#smiles_can COC1=CC(=CC(=C1O)OC)C2=CC(=O)C3=C(C=C(C=C3O2)OC4C(C(C(C(O4)CO)O)O)O)O
#inchikey JGXFMIJHKASCIZ-UHFFFAOYSA-N
#pubchem_id 13984469
#mb_accession PR310956

>ms2peaks
112.568610 17.000000
180.555560 25.000000
226.355790 23.000000
243.072690 16.000000
256.078160 18.000000
270.055110 18.000000
270.063020 20.000000
271.055330 26.000000
273.056240 18.000000
286.054320 17.000000
287.049500 53.000000
299.053410 20.000000
314.996370 18.000000
315.048800 395.000000
315.065030 59.000000
315.117130 17.000000
315.360810 19.000000
316.054870 175.000000
317.049070 18.000000
317.058620 61.000000
331.041110 51.000000
331.082700 3465.000000
331.307980 18.000000
331.765350 16.000000
332.043670 18.000000
332.058560 18.000000
332.081790 350.000000
332.093900 142.000000
332.108220 16.000000
333.070830 16.000000
333.085880 44.000000
333.112060 17.000000
334.095000 16.000000
387.113680 39.000000
397.244660 17.000000
493.070920 26.000000
493.088590 23.000000
493.136320 785.000000

