>compound PR54997100
>parentmass 358.20128443076925
>ionization [M+H]+
>formula C21H27NO4
>rt 255.422769
>profile qtof
#smiles_iso CN1CCC2=CC(=C(C=C2C1CC3=CC(=C(C=C3)OC)OC)OC)OC
#smiles_can CN1CCC2=CC(=C(C=C2C1CC3=CC(=C(C=C3)OC)OC)OC)OC
#inchikey KGPAYJZAMGEDIQ-UHFFFAOYSA-N
#pubchem_id 15548
#mb_accession PR300982,PR300986,PR300990,PR300994,PR300998,PR301002,PR301006,PR301010,PR301014,PR301018,PR301022,PR301026,PR310613

>ms2peaks
136.052600 6.000000
143.044850 6.000000
145.058200 6.000000
150.066680 9.000000
151.074510 186.000000
152.082020 10.000000
158.071900 47.000000
159.047580 5.000000
159.081220 21.000000
162.088700 10.000000
163.077380 5.000000
165.082660 14.000000
165.092300 26.000000
165.102070 10.000000
166.094150 5.000000
174.057790 9.000000
174.070250 38.000000
174.091310 8.000000
175.076900 7.000000
189.091670 176.000000
190.074630 12.000000
190.084120 37.000000
190.097320 17.000000
190.105270 6.000000
191.086040 18.000000
191.095430 13.000000
191.103070 10.000000
192.098630 9.000000
192.111340 6.000000
206.094280 8.000000
206.118100 804.000000
206.158740 6.000000
207.121020 125.000000
208.124040 8.000000
281.099180 6.000000
281.127410 8.000000
296.140140 23.000000
297.108980 9.000000
297.141200 6.000000
312.136410 8.000000
312.154720 10.000000
315.160220 7.000000
327.150510 18.000000
327.163850 44.000000
328.146730 6.000000
328.168000 7.000000
358.160800 6.000000
358.201080 1000.000000
358.253810 23.000000

>ms2peaks
206.116940 78.000000
207.116930 7.000000
207.125900 6.000000
327.156860 6.000000
358.201200 1000.000000
358.255130 26.000000

>ms2peaks
108.058280 5.000000
129.071580 11.000000
133.062520 5.000000
135.083420 8.000000
136.054860 14.000000
144.047760 5.000000
145.056750 7.000000
145.065170 7.000000
145.091920 5.000000
146.069630 9.000000
147.085270 7.000000
150.062380 7.000000
150.073620 20.000000
151.076170 436.000000
152.080540 40.000000
158.071270 53.000000
158.077820 39.000000
159.045550 6.000000
159.077530 31.000000
159.085170 14.000000
160.078930 7.000000
162.084870 5.000000
162.098480 8.000000
163.069210 6.000000
163.076950 5.000000
165.093460 83.000000
166.096770 16.000000
174.061810 68.000000
174.071910 71.000000
175.068730 8.000000
175.077150 8.000000
175.099490 8.000000
177.096120 10.000000
188.111650 11.000000
189.092710 333.000000
190.077150 18.000000
190.093350 85.000000
191.083070 15.000000
191.091280 43.000000
191.104770 26.000000
192.095670 12.000000
192.106860 15.000000
206.119250 1000.000000
207.116990 83.000000
207.127330 80.000000
208.093840 5.000000
208.119750 8.000000
208.129070 14.000000
264.108120 5.000000
265.118350 8.000000
268.111790 8.000000
269.112240 14.000000
269.124180 6.000000
281.110050 13.000000
281.125030 31.000000
282.117280 9.000000
282.133120 9.000000
284.136050 11.000000
285.116760 6.000000
296.115840 7.000000
296.127780 24.000000
296.145940 58.000000
297.107150 15.000000
297.140690 16.000000
298.128230 6.000000
300.144530 8.000000
312.119870 12.000000
312.143950 29.000000
327.150850 10.000000
327.164920 13.000000

>ms2peaks
77.037670 47.000000
78.043900 7.000000
78.054290 6.000000
79.052760 12.000000
79.057520 14.000000
79.062120 6.000000
80.065140 20.000000
90.047760 22.000000
91.052680 77.000000
91.058350 86.000000
91.160190 6.000000
92.052180 5.000000
92.060140 12.000000
92.066930 6.000000
93.070480 17.000000
95.058570 14.000000
95.086380 7.000000
101.045240 7.000000
103.046440 20.000000
103.054750 105.000000
104.055950 6.000000
105.033940 16.000000
105.055270 9.000000
105.068510 78.000000
106.043070 40.000000
107.030360 5.000000
107.048810 368.000000
108.055650 169.000000
109.027500 8.000000
109.063660 19.000000
109.069940 9.000000
110.076460 8.000000
115.033700 7.000000
115.055270 120.000000
116.049970 14.000000
116.061280 75.000000
117.058950 9.000000
117.071960 31.000000
117.080560 8.000000
117.278800 8.000000
117.787830 6.000000
118.027750 8.000000
118.036450 21.000000
118.045130 24.000000
118.070530 7.000000
119.045890 19.000000
119.053430 7.000000
119.083240 9.000000
121.063870 84.000000
122.039330 6.000000
122.059800 9.000000
122.067080 15.000000
123.041570 6.000000
123.074400 15.000000
125.063140 11.000000
126.414550 6.000000
127.033860 10.000000
127.048530 22.000000
127.055720 110.000000
128.060820 159.000000
129.034840 10.000000
129.071430 86.000000
130.068190 29.000000
130.078250 8.000000
131.043060 36.000000
131.051420 142.000000
131.072300 7.000000
131.091610 7.000000
131.167370 6.000000
132.055450 20.000000
132.071960 6.000000
132.081630 21.000000
132.241040 5.000000
133.030530 20.000000
133.064500 21.000000
133.073200 13.000000
133.087620 19.000000
133.093380 17.000000
134.058730 18.000000
134.073380 20.000000
134.096510 16.000000
135.015550 6.000000
135.044510 202.000000
135.081950 9.000000
135.101390 12.000000
136.051040 145.000000
137.053380 7.000000
137.060870 6.000000
137.617430 6.000000
138.061610 12.000000
141.070660 19.000000
141.081270 6.000000
141.689290 6.000000
142.037840 5.000000
142.050030 5.000000
142.084030 6.000000
143.047760 274.000000
143.056460 40.000000
143.068680 7.000000
144.052280 43.000000
144.058730 105.000000
144.081560 67.000000
144.920070 7.000000
145.061940 75.000000
145.068860 69.000000
145.088840 258.000000
146.057010 17.000000
146.073440 56.000000
146.088150 23.000000
146.096500 13.000000
147.046340 23.000000
147.071500 44.000000
147.094820 7.000000
148.048220 6.000000
148.053890 16.000000
148.094160 7.000000
149.060470 29.000000
149.068220 8.000000
149.081020 7.000000
150.057750 15.000000
150.069550 87.000000
150.722310 6.000000
151.075070 817.000000
151.855480 6.000000
152.062160 16.000000
152.078480 86.000000
152.084840 27.000000
153.061160 6.000000
153.072540 8.000000
153.079440 7.000000
154.083680 6.000000
155.042800 7.000000
155.053180 12.000000
156.057620 18.000000
157.063830 9.000000
158.024140 6.000000
158.040770 6.000000
158.072970 302.000000
159.045070 190.000000
159.066420 8.000000
159.079240 86.000000
160.058240 12.000000
160.074510 61.000000
161.056760 21.000000
161.067150 7.000000
161.077940 44.000000
161.086650 87.000000
162.055940 7.000000
162.076750 10.000000
162.091540 378.000000
163.081680 14.000000
163.099980 35.000000
163.111110 6.000000
164.067210 8.000000
164.078890 6.000000
164.472430 6.000000
164.497090 6.000000
165.065460 25.000000
165.072720 31.000000
165.087390 12.000000
165.098020 15.000000
166.079440 54.000000
167.061330 8.000000
167.086490 40.000000
168.085050 10.000000
172.062500 8.000000
173.058000 11.000000
173.084370 44.000000
173.094670 8.000000
174.055630 16.000000
174.068050 110.000000
174.097310 68.000000
175.067580 11.000000
175.085890 12.000000
176.055250 5.000000
176.068770 14.000000
177.074140 34.000000
177.093960 6.000000
178.079730 34.000000
178.100140 9.000000
179.086090 27.000000
180.060610 6.000000
180.085280 6.000000
181.062900 6.000000
181.111190 13.000000
182.070760 17.000000
182.079120 11.000000
182.102890 14.000000
183.077330 31.000000
183.273570 8.000000
183.420100 9.000000
185.124250 7.000000
188.072680 69.000000
189.047820 6.000000
189.075650 18.000000
189.089310 10.000000
190.058810 18.000000
190.086410 1000.000000
191.085140 162.000000
191.092580 237.000000
192.098880 27.000000
193.046420 6.000000
193.068180 12.000000
193.100720 21.000000
194.063430 20.000000
194.075130 36.000000
195.080220 47.000000
195.150390 6.000000
196.095030 6.000000
197.065750 6.000000
197.088100 6.000000
197.096270 19.000000
198.063310 8.000000
198.108520 6.000000
199.078030 7.000000
201.070100 6.000000
202.073460 31.000000
202.088470 6.000000
203.064380 8.000000
203.086490 8.000000
203.094940 7.000000
204.098790 16.000000
205.054500 6.000000
205.071410 8.000000
206.068650 22.000000
206.118160 201.000000
207.078350 37.000000
207.121110 36.000000
208.073500 14.000000
208.092350 26.000000
209.055980 7.000000
209.064590 5.000000
209.076430 6.000000
209.088230 11.000000
209.100400 75.000000
210.056980 11.000000
210.094180 6.000000
210.104720 6.000000
210.112340 8.000000
211.078200 9.000000
211.087450 10.000000
211.114290 12.000000
212.083150 17.000000
212.097000 11.000000
215.076740 12.000000
218.065310 6.000000
218.076950 6.000000
219.077620 67.000000
220.082280 11.000000
220.088650 27.000000
221.055270 7.000000
221.094120 54.000000
221.928670 8.000000
222.065770 6.000000
222.075620 6.000000
222.102080 11.000000
223.071760 64.000000
223.091610 8.000000
223.102400 7.000000
224.083920 47.000000
225.039570 6.000000
225.055540 9.000000
225.077210 14.000000
225.092740 38.000000
226.059160 7.000000
226.099730 26.000000
227.100850 6.000000
233.060420 5.000000
233.091350 5.000000
234.059420 9.000000
234.067720 8.000000
235.071010 19.000000
235.078920 6.000000
236.087510 11.000000
237.085660 54.000000
237.108990 11.000000
238.094910 61.000000
238.120590 12.000000
238.571090 9.000000
240.065810 5.000000
241.072850 10.000000
241.127850 17.000000
242.083360 7.000000
242.094390 12.000000
242.745530 7.000000
243.090480 7.000000
247.087950 7.000000
248.087840 6.000000
249.070310 5.000000
249.086910 19.000000
249.100880 15.000000
250.081410 12.000000
250.101390 7.000000
250.114170 6.000000
251.080280 16.000000
251.096080 6.000000
251.111890 7.000000
252.107190 14.000000
252.573010 10.000000
253.093150 14.000000
253.128420 18.000000
254.090930 18.000000
255.062240 7.000000
257.694850 6.000000
259.267430 6.000000
263.099030 9.000000
264.099880 6.000000
264.118440 7.000000
265.087830 6.000000
265.098910 9.000000
265.118990 6.000000
266.072200 7.000000
267.075100 7.000000
267.101200 6.000000
269.125430 13.000000
270.108460 16.000000
271.092100 7.000000
279.111850 5.000000
281.077330 8.000000
281.115510 6.000000
285.106290 9.000000
294.126370 6.000000
296.126160 14.000000
297.109190 13.000000
312.921570 7.000000
338.098970 8.000000
342.536070 6.000000
358.194150 28.000000
358.205380 36.000000

>ms2peaks
105.070370 6.000000
107.049620 6.000000
129.069670 6.000000
136.053270 5.000000
145.089480 6.000000
150.067540 18.000000
151.075160 201.000000
152.080550 21.000000
158.070500 38.000000
158.079030 9.000000
159.050370 6.000000
159.084880 8.000000
162.085750 8.000000
165.090740 45.000000
166.094470 5.000000
174.057940 6.000000
174.069110 63.000000
175.075410 8.000000
189.091190 145.000000
190.080320 19.000000
190.089510 69.000000
191.085950 9.000000
191.094880 45.000000
192.095540 8.000000
192.104610 9.000000
206.118480 859.000000
206.160220 9.000000
207.121630 133.000000
208.120420 9.000000
238.096250 8.000000
268.110900 5.000000
269.116210 6.000000
281.118160 19.000000
283.125920 5.000000
296.139980 38.000000
297.116850 9.000000
297.151950 6.000000
315.156040 6.000000
327.159580 72.000000
328.161710 18.000000
358.151550 7.000000
358.201480 1000.000000
358.254520 22.000000

>ms2peaks
206.118710 83.000000
207.125790 6.000000
358.201930 1000.000000
358.256130 29.000000

>ms2peaks
107.051250 6.000000
129.067000 11.000000
130.075010 6.000000
131.086900 7.000000
135.085570 6.000000
136.053860 16.000000
137.058840 8.000000
144.050670 8.000000
144.059910 13.000000
145.094350 5.000000
146.072530 6.000000
150.068220 32.000000
151.076000 479.000000
152.077670 47.000000
158.073760 104.000000
159.044330 9.000000
159.068330 6.000000
159.073960 14.000000
159.082720 22.000000
161.085250 7.000000
162.088680 7.000000
162.095260 8.000000
165.091000 90.000000
166.103900 8.000000
173.085110 7.000000
174.069230 167.000000
175.071370 35.000000
177.094960 8.000000
188.084700 6.000000
189.091580 313.000000
190.091340 107.000000
191.087720 30.000000
191.097990 56.000000
192.101210 36.000000
193.116260 6.000000
203.104860 8.000000
206.084980 14.000000
206.118650 1000.000000
207.078670 7.000000
207.121730 144.000000
208.122740 12.000000
208.130840 8.000000
223.111330 5.000000
238.097720 6.000000
249.090180 6.000000
253.123210 8.000000
264.115690 7.000000
265.123990 11.000000
269.115720 8.000000
281.108150 12.000000
281.120940 26.000000
282.123540 13.000000
284.141420 14.000000
295.130130 6.000000
296.142820 88.000000
297.106020 13.000000
297.125310 10.000000
297.147740 14.000000
298.123660 6.000000
300.140440 5.000000
312.132290 20.000000
312.142850 22.000000
313.128360 5.000000
313.144810 6.000000
327.158200 21.000000
328.168980 5.000000
358.210300 8.000000

>ms2peaks
71.046230 6.000000
77.034610 6.000000
78.045520 10.000000
79.052250 18.000000
79.056710 28.000000
80.053910 7.000000
80.063040 23.000000
82.072170 8.000000
89.036520 7.000000
90.044570 21.000000
91.031960 10.000000
91.052700 101.000000
91.058010 33.000000
92.061330 12.000000
93.034500 5.000000
93.074150 8.000000
93.427650 6.000000
94.043890 5.000000
95.044520 6.000000
95.054610 7.000000
97.066700 5.000000
103.055580 46.000000
103.095920 5.000000
104.057700 18.000000
104.066410 6.000000
104.877910 6.000000
104.938190 6.000000
105.034260 20.000000
105.063420 13.000000
105.072050 27.000000
105.076800 11.000000
105.142400 9.000000
106.040380 44.000000
106.046110 13.000000
106.071690 6.000000
106.700370 6.000000
107.042880 70.000000
107.050700 357.000000
107.077880 7.000000
107.551360 5.000000
108.057470 128.000000
109.066910 22.000000
109.760680 7.000000
114.043880 6.000000
115.035350 12.000000
115.053020 48.000000
115.057510 109.000000
115.188730 7.000000
116.050220 10.000000
116.057270 26.000000
116.063950 77.000000
116.509640 7.000000
117.052670 13.000000
117.061780 20.000000
117.068410 28.000000
117.078040 8.000000
118.042580 39.000000
119.042560 14.000000
119.047820 29.000000
119.054680 31.000000
119.092580 9.000000
120.058950 18.000000
120.735460 10.000000
121.063220 96.000000
121.076970 34.000000
121.968930 5.000000
122.027020 6.000000
122.062740 5.000000
122.072880 22.000000
123.048270 10.000000
123.082190 6.000000
124.049890 11.000000
127.056240 82.000000
128.061330 199.000000
129.067660 79.000000
130.036180 6.000000
130.061810 6.000000
130.071210 15.000000
130.081340 5.000000
131.049880 121.000000
131.067980 5.000000
131.076600 16.000000
132.041290 5.000000
132.048480 23.000000
132.054410 29.000000
132.080750 66.000000
133.025380 10.000000
133.037840 6.000000
133.062060 7.000000
133.067690 24.000000
133.081010 5.000000
133.090450 15.000000
133.313160 8.000000
134.059330 5.000000
134.069060 22.000000
134.079910 6.000000
134.724700 6.000000
135.023360 8.000000
135.033460 14.000000
135.044490 155.000000
135.082260 19.000000
136.051220 108.000000
136.056550 34.000000
136.071150 6.000000
137.061800 24.000000
137.425670 6.000000
138.068560 5.000000
141.073430 7.000000
141.754150 7.000000
142.033720 6.000000
142.045910 5.000000
143.043840 96.000000
143.050980 54.000000
143.063400 6.000000
143.072570 12.000000
143.091200 6.000000
144.050250 36.000000
144.058780 62.000000
144.079990 13.000000
145.036180 6.000000
145.061840 124.000000
145.072560 66.000000
145.089000 280.000000
145.835690 7.000000
146.055680 7.000000
146.064540 16.000000
146.072600 31.000000
146.083530 8.000000
146.093690 38.000000
147.063860 11.000000
147.078490 23.000000
148.057040 6.000000
148.217680 5.000000
149.054840 21.000000
149.065930 11.000000
149.087590 11.000000
150.026860 6.000000
150.054500 7.000000
150.068270 59.000000
150.078190 9.000000
150.094040 9.000000
151.057800 23.000000
151.075580 656.000000
152.052840 5.000000
152.061000 8.000000
152.078230 39.000000
152.088840 9.000000
153.071470 6.000000
153.083710 10.000000
155.484210 5.000000
156.053480 11.000000
156.086810 6.000000
157.062880 26.000000
157.073550 10.000000
158.074010 222.000000
159.029880 22.000000
159.046360 126.000000
159.072200 55.000000
159.082180 26.000000
160.057450 7.000000
160.068540 25.000000
160.077000 47.000000
160.854540 6.000000
161.053990 16.000000
161.060870 14.000000
161.079150 54.000000
161.089370 30.000000
162.049180 8.000000
162.070300 13.000000
162.084030 65.000000
162.091610 317.000000
163.031080 8.000000
163.072750 17.000000
163.082340 11.000000
163.090990 21.000000
163.104690 6.000000
164.080660 12.000000
164.097930 19.000000
165.058880 14.000000
165.071090 63.000000
165.083760 6.000000
165.094940 29.000000
166.082490 25.000000
168.054660 6.000000
171.078920 8.000000
172.071960 17.000000
173.058500 31.000000
173.083390 23.000000
174.024640 6.000000
174.055020 17.000000
174.069520 119.000000
174.088940 107.000000
174.096450 25.000000
175.069260 15.000000
175.079250 10.000000
175.095440 13.000000
176.071620 8.000000
176.081300 23.000000
176.093430 14.000000
176.999360 8.000000
177.069400 33.000000
177.865650 7.000000
178.072430 42.000000
178.088940 15.000000
179.086470 99.000000
180.097200 17.000000
181.063750 39.000000
181.107800 5.000000
182.062710 28.000000
182.076320 13.000000
183.077190 26.000000
183.700550 7.000000
186.086230 8.000000
186.098420 5.000000
187.276230 8.000000
188.055270 7.000000
188.067090 9.000000
188.075990 26.000000
188.097430 5.000000
189.065840 6.000000
189.073010 16.000000
189.094990 7.000000
189.848720 7.000000
190.036350 8.000000
190.053070 12.000000
190.085630 1000.000000
191.057950 16.000000
191.087370 180.000000
191.095990 101.000000
192.095870 48.000000
192.112170 5.000000
192.474960 11.000000
193.061080 12.000000
193.106990 8.000000
193.974270 8.000000
194.070220 14.000000
194.081280 32.000000
195.053990 5.000000
195.072430 12.000000
195.081010 25.000000
196.042450 5.000000
196.075490 22.000000
196.086170 20.000000
197.064060 9.000000
197.094090 18.000000
198.103620 12.000000
199.107770 7.000000
200.573700 5.000000
200.792430 5.000000
201.068830 14.000000
202.083340 15.000000
203.082150 6.000000
205.061480 12.000000
206.081500 6.000000
206.118230 148.000000
206.678270 10.000000
207.061040 8.000000
207.075390 11.000000
207.086110 13.000000
207.107240 6.000000
207.117080 8.000000
207.124100 6.000000
208.063060 8.000000
208.073090 9.000000
208.089450 59.000000
208.112140 6.000000
209.030330 5.000000
209.059830 5.000000
209.086750 27.000000
209.098880 40.000000
210.060300 9.000000
210.069440 22.000000
211.081410 27.000000
211.099270 18.000000
212.081630 11.000000
213.084810 11.000000
217.065020 20.000000
218.077380 5.000000
218.086560 7.000000
219.070590 5.000000
219.087130 5.000000
220.086170 5.000000
220.103740 10.000000
221.062970 10.000000
221.097080 20.000000
222.092010 8.000000
222.108960 5.000000
223.065690 29.000000
223.077710 32.000000
223.111600 17.000000
223.657580 9.000000
224.083370 10.000000
225.054580 7.000000
225.096450 34.000000
226.096340 29.000000
227.063160 7.000000
227.095120 5.000000
227.116390 7.000000
228.099350 8.000000
230.182110 5.000000
231.058980 10.000000
231.070880 5.000000
233.066590 7.000000
233.103880 6.000000
234.036100 6.000000
234.074480 5.000000
235.086780 6.000000
235.121980 6.000000
236.065110 7.000000
236.091510 6.000000
237.084320 13.000000
237.101170 20.000000
238.038190 8.000000
238.086610 11.000000
238.100430 56.000000
239.106380 33.000000
241.104160 15.000000
241.131100 11.000000
242.093020 5.000000
242.315030 5.000000
246.220110 7.000000
249.091380 17.000000
249.103120 6.000000
250.103990 18.000000
251.065340 7.000000
251.076310 6.000000
251.095380 15.000000
251.106110 5.000000
252.097060 6.000000
252.115590 11.000000
253.085360 5.000000
253.125060 9.000000
254.078310 7.000000
254.097400 15.000000
255.100100 7.000000
256.062650 8.000000
257.117160 8.000000
264.577790 6.000000
265.089690 12.000000
265.129030 5.000000
266.088530 7.000000
267.110780 8.000000
269.107360 6.000000
269.116760 8.000000
270.129210 7.000000
280.104890 6.000000
280.118500 7.000000
281.102140 8.000000
282.111540 7.000000
285.116730 7.000000
296.141880 5.000000
297.790560 8.000000
303.108640 6.000000
311.131160 6.000000
358.189090 6.000000

>ms2peaks
107.049660 7.000000
144.060840 6.000000
145.060470 7.000000
145.089740 6.000000
150.068500 17.000000
151.075240 218.000000
152.074750 9.000000
152.081950 8.000000
158.064270 9.000000
158.072630 33.000000
159.080020 10.000000
162.089260 11.000000
165.090610 36.000000
174.066440 61.000000
175.073430 6.000000
177.084750 6.000000
189.091090 171.000000
190.075710 5.000000
190.089130 57.000000
191.093410 39.000000
192.097210 6.000000
192.108370 6.000000
206.117890 873.000000
206.158100 10.000000
207.121150 136.000000
208.122410 13.000000
249.090520 5.000000
281.118470 23.000000
296.141170 30.000000
312.140440 9.000000
327.157620 77.000000
358.201290 1000.000000
358.254730 25.000000

>ms2peaks
206.118000 76.000000
207.119870 11.000000
327.162350 5.000000
358.150670 5.000000
358.201720 1000.000000
358.256200 29.000000

>ms2peaks
105.075200 6.000000
107.048530 6.000000
129.063810 5.000000
135.049650 6.000000
136.048140 7.000000
136.055500 12.000000
139.070100 6.000000
144.054500 6.000000
144.062350 9.000000
145.090130 9.000000
150.068830 27.000000
151.075740 435.000000
152.070600 7.000000
152.080220 46.000000
153.085130 6.000000
158.073230 83.000000
159.043230 7.000000
159.055240 7.000000
159.075710 15.000000
159.082960 20.000000
162.080930 6.000000
162.093120 8.000000
165.091740 88.000000
166.094090 7.000000
172.089950 5.000000
173.081440 9.000000
174.057430 16.000000
174.067920 132.000000
174.090970 6.000000
174.100230 6.000000
175.070890 36.000000
177.087950 9.000000
189.057020 5.000000
189.091460 345.000000
190.091810 90.000000
191.093510 79.000000
192.090900 7.000000
192.101320 25.000000
192.111890 7.000000
203.110050 5.000000
206.117740 1000.000000
207.121520 144.000000
208.123830 21.000000
265.121800 9.000000
268.099460 7.000000
269.118160 9.000000
281.115110 55.000000
281.131380 12.000000
282.122130 11.000000
283.139860 6.000000
284.139680 6.000000
296.123660 10.000000
296.141270 79.000000
297.101680 10.000000
297.117740 13.000000
297.146300 27.000000
300.143650 6.000000
312.123200 13.000000
312.134280 15.000000
312.145080 11.000000
327.161470 22.000000
328.163850 5.000000
358.196500 8.000000

>ms2peaks
55.020550 6.000000
66.047490 8.000000
67.051580 13.000000
77.034840 22.000000
77.039670 12.000000
78.043710 6.000000
79.051560 13.000000
79.056290 15.000000
79.062060 7.000000
80.063420 12.000000
81.066100 7.000000
89.365970 11.000000
90.046010 90.000000
91.054860 165.000000
92.054770 18.000000
92.060690 5.000000
93.038150 6.000000
93.061840 7.000000
93.072130 12.000000
94.040580 11.000000
98.141740 8.000000
99.405660 7.000000
102.047410 5.000000
103.033900 7.000000
103.047420 8.000000
103.054850 56.000000
104.059330 9.000000
104.065530 5.000000
105.038460 7.000000
105.056760 7.000000
105.065410 16.000000
105.071980 19.000000
106.043440 55.000000
106.079590 6.000000
106.969500 9.000000
107.049260 403.000000
107.061830 6.000000
107.115360 5.000000
108.051590 39.000000
108.057460 137.000000
109.054090 7.000000
109.059800 5.000000
115.051240 85.000000
115.057430 89.000000
116.058040 29.000000
116.067430 38.000000
117.048610 9.000000
117.057570 10.000000
117.069670 27.000000
118.041640 17.000000
118.070160 8.000000
119.046420 33.000000
119.059560 5.000000
120.048320 6.000000
121.027400 11.000000
121.034690 7.000000
121.062660 69.000000
121.068020 66.000000
121.077420 7.000000
122.069110 11.000000
123.080660 17.000000
127.049420 31.000000
127.056440 96.000000
128.055050 23.000000
128.064090 134.000000
128.074330 5.000000
129.054470 7.000000
129.072400 109.000000
130.042920 11.000000
131.018100 9.000000
131.031490 19.000000
131.046080 61.000000
131.054320 99.000000
131.074910 38.000000
131.086940 10.000000
132.055310 45.000000
132.069780 10.000000
132.082900 46.000000
133.002470 7.000000
133.017330 7.000000
133.032790 37.000000
133.056760 37.000000
133.069240 8.000000
133.085460 16.000000
134.073760 34.000000
134.094940 7.000000
135.042020 164.000000
135.049100 59.000000
135.068910 6.000000
135.082050 15.000000
136.051710 78.000000
136.059950 21.000000
137.056500 6.000000
137.062230 14.000000
137.841110 5.000000
143.022580 7.000000
143.039670 33.000000
143.049210 209.000000
143.061260 14.000000
144.038770 10.000000
144.055540 143.000000
144.062190 40.000000
144.073350 12.000000
144.081850 11.000000
145.054320 43.000000
145.061250 73.000000
145.069550 99.000000
145.089040 214.000000
145.115950 7.000000
145.791790 6.000000
146.037030 8.000000
146.051130 7.000000
146.063050 76.000000
146.075000 31.000000
146.097110 29.000000
147.035930 5.000000
147.042270 6.000000
147.056050 6.000000
147.073030 10.000000
147.095840 8.000000
148.049330 9.000000
148.054930 9.000000
148.074980 38.000000
149.061100 29.000000
149.080990 5.000000
150.067840 59.000000
150.093520 7.000000
150.667940 5.000000
151.076200 746.000000
152.058150 16.000000
152.081220 43.000000
152.778750 7.000000
154.084030 6.000000
155.043150 6.000000
155.052760 11.000000
155.082760 9.000000
157.057510 13.000000
157.067640 29.000000
157.101070 7.000000
158.073840 320.000000
159.045210 195.000000
159.070760 17.000000
159.081310 52.000000
159.096190 9.000000
160.051250 15.000000
160.061740 7.000000
160.070740 21.000000
160.082920 44.000000
160.406020 5.000000
161.047680 7.000000
161.061810 37.000000
161.082530 68.000000
161.103970 7.000000
162.073100 5.000000
162.091290 427.000000
163.077030 16.000000
163.090380 15.000000
163.099290 45.000000
163.230390 5.000000
164.083510 17.000000
164.089080 5.000000
165.063800 13.000000
165.072340 18.000000
165.084350 17.000000
165.097050 13.000000
166.074080 6.000000
167.080580 16.000000
167.090810 15.000000
169.051190 6.000000
169.107100 8.000000
170.103730 10.000000
172.081240 24.000000
173.045930 7.000000
173.086090 30.000000
174.068450 121.000000
174.091080 75.000000
174.662750 5.000000
175.061260 13.000000
175.070850 12.000000
175.093550 14.000000
175.862990 7.000000
176.070500 15.000000
177.068190 12.000000
177.078540 6.000000
177.110720 7.000000
178.075580 36.000000
178.081990 34.000000
179.082410 44.000000
179.091800 10.000000
179.102690 7.000000
180.080060 5.000000
180.090740 6.000000
181.057130 7.000000
181.064940 11.000000
181.082660 8.000000
182.077120 15.000000
182.236740 5.000000
183.082020 7.000000
183.091160 8.000000
186.064330 7.000000
187.051640 9.000000
188.066310 39.000000
188.077820 16.000000
189.064590 7.000000
189.074370 10.000000
189.094450 24.000000
190.061870 8.000000
190.085540 1000.000000
190.134640 6.000000
190.394470 5.000000
190.740600 8.000000
191.064960 6.000000
191.089940 316.000000
191.157760 9.000000
192.089220 13.000000
192.097440 38.000000
193.072770 6.000000
193.097660 10.000000
193.106830 6.000000
194.067140 7.000000
194.080260 30.000000
195.066740 29.000000
195.080510 75.000000
196.073730 8.000000
196.087770 21.000000
197.056000 7.000000
197.087890 6.000000
197.102110 13.000000
198.103030 8.000000
198.111980 9.000000
198.191890 6.000000
201.062150 5.000000
202.059770 6.000000
202.071010 5.000000
202.088930 6.000000
203.075680 10.000000
205.056380 7.000000
205.067150 6.000000
206.068330 10.000000
206.076200 5.000000
206.116900 221.000000
207.067250 18.000000
207.083110 41.000000
207.099270 5.000000
207.118440 24.000000
208.080290 21.000000
208.088520 41.000000
209.059340 6.000000
209.068940 13.000000
209.094450 36.000000
210.051500 10.000000
210.071200 24.000000
210.099140 15.000000
210.107480 27.000000
211.073840 29.000000
211.105670 12.000000
213.075550 11.000000
218.065720 11.000000
218.271390 5.000000
219.073210 17.000000
219.083530 21.000000
221.069090 8.000000
221.095610 60.000000
221.108600 8.000000
222.061330 15.000000
222.071120 11.000000
222.105160 8.000000
222.112610 11.000000
223.034300 8.000000
223.070010 28.000000
223.087480 7.000000
223.095250 7.000000
224.073460 13.000000
224.097290 5.000000
225.074540 6.000000
225.091930 37.000000
225.119460 6.000000
226.086790 7.000000
226.101810 39.000000
226.111890 11.000000
227.089480 5.000000
227.101360 11.000000
233.100280 7.000000
234.058360 5.000000
234.070590 11.000000
234.101500 12.000000
235.044920 6.000000
235.078260 22.000000
235.086140 6.000000
236.044200 6.000000
236.052400 7.000000
236.072750 14.000000
236.082960 25.000000
237.073240 8.000000
237.090360 61.000000
238.086760 29.000000
238.100770 56.000000
239.049650 5.000000
239.068630 7.000000
239.106610 15.000000
240.100310 7.000000
240.691850 6.000000
242.102690 8.000000
248.102740 5.000000
249.062970 11.000000
249.095780 18.000000
250.053960 7.000000
250.073500 6.000000
250.112840 10.000000
251.068920 31.000000
251.082150 16.000000
251.099720 10.000000
252.080950 13.000000
252.099350 27.000000
252.106670 14.000000
253.085980 13.000000
253.095580 10.000000
253.130290 11.000000
254.085270 8.000000
255.120090 5.000000
265.079320 5.000000
265.120850 7.000000
265.221100 7.000000
266.073700 9.000000
266.092960 12.000000
267.098600 7.000000
268.110780 5.000000
281.106990 24.000000
283.122340 8.000000
298.540620 7.000000
311.113650 8.000000
311.132570 7.000000
319.285680 8.000000
324.655240 5.000000
343.186460 10.000000
352.487550 7.000000
358.177730 5.000000
358.201420 20.000000
358.224300 6.000000

>ms2peaks
75.530400 20.000000
79.053610 52.000000
91.047430 27.000000
91.052200 47.000000
91.057580 38.000000
92.061710 33.000000
94.560950 19.000000
95.052980 34.000000
95.935550 29.000000
98.028660 20.000000
103.046550 21.000000
103.065810 21.000000
105.029270 21.000000
105.034290 25.000000
105.062770 20.000000
105.072720 41.000000
106.046710 21.000000
106.078370 27.000000
107.047750 107.000000
107.058540 17.000000
108.050300 42.000000
108.058000 83.000000
112.230320 17.000000
115.054910 28.000000
116.062100 73.000000
117.056890 19.000000
117.063340 28.000000
117.074520 27.000000
118.963470 18.000000
119.030490 31.000000
121.058330 44.000000
121.064250 60.000000
122.061680 28.000000
122.068020 22.000000
123.620300 24.000000
124.055770 20.000000
124.090940 43.000000
125.061660 51.000000
125.313430 17.000000
127.050600 18.000000
127.055840 19.000000
127.075280 28.000000
128.076900 26.000000
128.608660 27.000000
128.625000 18.000000
129.066860 36.000000
129.076400 80.000000
130.081950 18.000000
130.674840 22.000000
131.042100 17.000000
131.083820 35.000000
131.088700 98.000000
131.780990 17.000000
132.081380 18.000000
132.622210 26.000000
133.059740 96.000000
133.069310 27.000000
135.040420 41.000000
135.046200 58.000000
135.078430 27.000000
135.091420 24.000000
136.041950 78.000000
136.052600 126.000000
137.047810 38.000000
137.057980 41.000000
138.079240 20.000000
138.142680 18.000000
138.911900 18.000000
139.076660 44.000000
142.041690 18.000000
143.044850 124.000000
143.053040 51.000000
144.003650 22.000000
144.047850 92.000000
144.060610 108.000000
145.058200 130.000000
145.066940 85.000000
145.076800 99.000000
145.093050 41.000000
146.075740 37.000000
146.093380 17.000000
147.079560 24.000000
148.047160 38.000000
148.059370 29.000000
149.059130 28.000000
150.066680 197.000000
150.086110 29.000000
151.054170 20.000000
151.074510 4176.000000
151.116970 20.000000
151.695600 18.000000
152.071140 76.000000
152.082020 221.000000
152.092560 43.000000
153.067790 19.000000
153.081890 28.000000
155.047550 24.000000
156.210190 21.000000
157.065520 70.000000
158.052570 18.000000
158.071900 1055.000000
159.036180 24.000000
159.047580 115.000000
159.068210 106.000000
159.081220 475.000000
160.054430 23.000000
160.088700 97.000000
161.076890 44.000000
161.099610 19.000000
162.068410 20.000000
162.077650 33.000000
162.088700 214.000000
162.103210 53.000000
163.077380 114.000000
163.089920 40.000000
164.066650 18.000000
164.083570 63.000000
165.082660 317.000000
165.092300 590.000000
165.102070 222.000000
166.063260 18.000000
166.074400 20.000000
166.094150 116.000000
166.106090 19.000000
172.098500 20.000000
173.074780 37.000000
173.089770 40.000000
173.098510 17.000000
173.908330 32.000000
174.020280 17.000000
174.042850 55.000000
174.057790 195.000000
174.070250 844.000000
174.091310 184.000000
174.102860 18.000000
174.632570 29.000000
174.689650 18.000000
175.055830 25.000000
175.076900 151.000000
175.093690 90.000000
175.105330 32.000000
175.833530 17.000000
176.068370 28.000000
176.083280 51.000000
176.102490 29.000000
176.175600 19.000000
176.735730 23.000000
177.078200 46.000000
177.095230 99.000000
177.601320 33.000000
177.789690 17.000000
178.087170 93.000000
181.104030 48.000000
189.063260 66.000000
189.091670 3947.000000
190.074630 270.000000
190.084120 836.000000
190.097320 386.000000
190.105270 139.000000
190.115910 17.000000
190.175060 23.000000
190.830780 28.000000
190.898540 20.000000
191.086040 406.000000
191.095430 290.000000
191.103070 220.000000
191.370640 17.000000
192.076340 19.000000
192.086880 96.000000
192.098630 203.000000
192.111340 129.000000
193.098220 20.000000
193.109860 81.000000
194.085770 21.000000
195.113910 25.000000
198.072860 18.000000
199.465290 20.000000
201.106290 28.000000
202.088650 18.000000
203.092930 29.000000
203.102250 21.000000
204.089100 18.000000
204.108930 24.000000
204.163120 25.000000
205.947490 17.000000
206.050320 17.000000
206.083110 38.000000
206.094280 170.000000
206.118100 18086.000000
206.158740 143.000000
206.182710 20.000000
207.032840 23.000000
207.085460 19.000000
207.121020 2808.000000
207.516430 21.000000
207.851550 20.000000
207.895230 18.000000
208.079010 41.000000
208.102370 17.000000
208.124040 170.000000
209.095540 36.000000
209.109710 23.000000
209.125990 18.000000
210.482500 17.000000
210.998690 18.000000
215.103100 17.000000
216.312910 24.000000
217.393160 28.000000
219.062230 22.000000
219.291240 23.000000
220.086700 43.000000
220.138120 17.000000
221.249940 18.000000
223.086650 19.000000
223.114790 22.000000
223.641540 25.000000
224.047490 34.000000
224.065750 21.000000
224.121230 19.000000
225.071850 19.000000
225.084060 20.000000
225.102170 19.000000
225.601470 20.000000
226.079710 19.000000
226.090040 20.000000
226.108890 40.000000
227.086240 23.000000
227.108540 30.000000
227.123760 23.000000
227.938840 20.000000
228.899730 18.000000
233.077190 20.000000
233.100250 22.000000
233.112350 27.000000
234.575820 19.000000
235.107210 42.000000
235.208560 18.000000
236.114090 17.000000
237.082690 55.000000
237.092960 23.000000
237.108570 17.000000
237.141050 18.000000
238.084900 24.000000
238.100430 62.000000
238.110060 31.000000
239.091770 19.000000
239.104170 22.000000
240.080630 18.000000
240.117690 17.000000
245.291080 30.000000
249.069950 36.000000
249.092680 57.000000
249.104100 17.000000
250.051070 23.000000
250.086690 37.000000
250.096660 25.000000
251.096390 18.000000
251.112670 41.000000
252.119930 64.000000
253.075640 20.000000
253.103530 28.000000
253.119380 25.000000
254.079570 27.000000
254.110570 36.000000
254.124890 20.000000
255.102220 61.000000
255.149490 21.000000
256.134700 40.000000
263.099120 54.000000
264.071470 27.000000
264.107670 68.000000
264.126070 21.000000
265.069210 35.000000
265.082730 23.000000
265.101930 20.000000
265.116060 38.000000
265.130250 17.000000
265.146940 19.000000
266.080630 17.000000
266.130800 28.000000
268.083920 27.000000
268.100620 17.000000
268.116420 93.000000
269.077270 21.000000
269.118290 20.000000
269.385160 26.000000
273.913940 31.000000
276.425350 18.000000
279.097840 44.000000
279.136170 39.000000
280.109280 28.000000
281.099180 136.000000
281.113430 79.000000
281.127410 178.000000
281.138150 86.000000
282.120820 57.000000
282.136750 22.000000
283.083950 44.000000
283.100070 20.000000
283.119110 20.000000
283.132110 66.000000
283.151150 24.000000
284.140900 49.000000
285.130490 26.000000
285.142150 20.000000
286.124300 23.000000
292.975370 21.000000
293.091830 19.000000
295.130770 55.000000
295.146550 53.000000
296.140140 515.000000
297.081790 17.000000
297.108980 206.000000
297.141200 139.000000
298.106080 24.000000
298.123080 17.000000
298.140230 34.000000
298.154420 44.000000
299.109250 49.000000
300.111940 17.000000
300.128020 95.000000
300.153200 63.000000
301.144500 40.000000
308.298740 22.000000
308.821260 32.000000
310.158870 17.000000
311.118070 17.000000
311.131870 18.000000
311.184360 18.000000
312.112640 21.000000
312.136410 177.000000
312.154720 218.000000
313.131810 20.000000
313.141420 25.000000
315.128600 26.000000
315.143590 82.000000
315.160220 151.000000
316.176850 39.000000
317.182160 39.000000
318.787480 17.000000
321.603210 17.000000
327.150510 399.000000
327.163850 992.000000
328.146730 130.000000
328.168000 158.000000
328.183440 73.000000
329.151490 23.000000
329.166990 49.000000
335.316770 17.000000
343.990200 33.000000
346.633670 18.000000
351.363770 18.000000
351.708370 24.000000
356.751830 29.000000
357.183620 40.000000
357.613620 17.000000
357.811430 27.000000
357.916290 29.000000
358.047420 25.000000
358.135960 69.000000
358.160800 133.000000
358.201080 22486.000000
358.253810 524.000000
358.322510 17.000000
358.348180 18.000000

