>compound PR55066238
>parentmass 285.0757499076924
>ionization [M+H]+
>formula C16H12O5
>rt 436.332923
>profile qtof
#smiles_iso COC1=C(C=C(C2=C1OC(=CC2=O)C3=CC=CC=C3)O)O
#smiles_can COC1=C(C=C(C2=C1OC(=CC2=O)C3=CC=CC=C3)O)O
#inchikey XLTFNNCXVBYBSX-UHFFFAOYSA-N
#pubchem_id 5281703
#mb_accession PR303577,PR303578,PR303579,PR303580,PR303581,PR303582,PR303583,PR303584,PR303585,PR303586,PR303587,PR303588,PR310477

>ms2peaks
131.046600 5.000000
140.009780 9.000000
144.053250 6.000000
151.046690 7.000000
151.056150 12.000000
155.046590 10.000000
168.003010 18.000000
168.056340 22.000000
171.042340 14.000000
172.048810 7.000000
179.048780 48.000000
200.043080 7.000000
224.042400 8.000000
241.046450 14.000000
242.053240 16.000000
252.039890 27.000000
253.046010 7.000000
269.040920 15.000000
270.050810 579.000000
271.055080 90.000000
272.053250 10.000000
285.075960 1000.000000
285.125550 16.000000

>ms2peaks
270.051700 6.000000
285.075900 1000.000000
285.124330 29.000000

>ms2peaks
105.031650 6.000000
116.059940 6.000000
131.052090 6.000000
140.009690 10.000000
140.059340 6.000000
144.057740 18.000000
151.055190 8.000000
158.073460 6.000000
168.005710 33.000000
168.056750 26.000000
171.045150 14.000000
172.049500 9.000000
179.049640 53.000000
180.050630 14.000000
185.060500 7.000000
196.050510 14.000000
199.035250 5.000000
200.048220 15.000000
213.060580 10.000000
224.047000 15.000000
225.048680 6.000000
241.047960 28.000000
242.057370 50.000000
243.063140 10.000000
252.042510 96.000000
253.051760 6.000000
269.045560 45.000000
270.052580 1000.000000
270.099330 8.000000
271.057100 182.000000
272.055850 25.000000
285.072140 12.000000
285.084080 9.000000

>ms2peaks
56.026150 7.000000
66.011090 24.000000
66.016830 9.000000
67.013020 20.000000
67.687070 7.000000
68.989730 12.000000
68.997500 100.000000
69.996170 6.000000
70.008100 10.000000
76.026860 6.000000
77.031330 20.000000
77.039530 67.000000
78.049960 14.000000
78.538090 8.000000
84.019210 222.000000
85.023780 17.000000
90.008770 7.000000
90.054730 6.000000
91.021060 8.000000
91.049140 15.000000
91.056180 7.000000
94.000800 8.000000
94.009330 8.000000
95.003370 7.000000
96.011150 7.000000
96.986130 7.000000
101.033530 10.000000
102.046980 14.000000
103.040590 9.000000
103.048230 63.000000
103.055300 218.000000
104.056240 50.000000
104.061340 115.000000
105.029160 19.000000
105.035560 74.000000
106.041110 9.000000
108.703610 7.000000
109.026280 6.000000
111.009020 14.000000
112.016350 169.000000
113.016780 31.000000
113.032590 7.000000
113.042720 12.000000
114.047050 57.000000
115.021400 9.000000
115.053410 250.000000
116.048450 14.000000
116.058380 146.000000
116.272680 6.000000
116.382890 6.000000
117.063870 27.000000
117.074120 16.000000
121.993520 8.000000
124.005070 7.000000
125.041530 7.000000
126.046170 40.000000
126.050590 11.000000
127.054180 297.000000
127.920620 7.000000
128.057920 78.000000
128.067670 20.000000
129.030850 6.000000
129.038470 14.000000
129.067260 66.000000
130.032870 10.000000
130.068800 8.000000
130.075840 32.000000
131.028200 6.000000
131.043990 64.000000
131.051790 107.000000
131.083010 8.000000
131.248320 12.000000
137.019590 6.000000
137.542310 8.000000
138.041090 12.000000
138.976150 6.000000
138.991330 18.000000
139.000730 87.000000
139.008300 108.000000
139.032320 9.000000
139.054400 552.000000
140.008680 150.000000
140.022800 6.000000
140.060240 282.000000
140.238910 9.000000
141.008870 11.000000
141.067400 119.000000
142.042250 15.000000
142.066380 8.000000
142.076430 9.000000
142.708590 14.000000
143.043790 9.000000
143.050900 16.000000
143.059480 8.000000
144.053600 50.000000
144.059020 109.000000
145.062380 25.000000
147.040770 17.000000
147.053390 13.000000
149.037690 15.000000
150.044100 123.000000
150.052030 61.000000
151.015320 6.000000
151.028380 10.000000
151.054430 1000.000000
152.017750 8.000000
152.045300 8.000000
152.054890 53.000000
152.062580 72.000000
153.031400 39.000000
153.046130 6.000000
153.059140 9.000000
153.068360 7.000000
153.110320 6.000000
153.951520 7.000000
154.041170 10.000000
155.034990 7.000000
155.051650 114.000000
156.050400 7.000000
157.061770 17.000000
157.070420 28.000000
158.068600 8.000000
158.263790 7.000000
159.040310 7.000000
160.053190 6.000000
163.065030 7.000000
166.997630 26.000000
167.030120 6.000000
167.042250 10.000000
167.056640 6.000000
168.004410 123.000000
168.046140 22.000000
168.059040 121.000000
168.073910 9.000000
169.066970 14.000000
169.078340 11.000000
169.315540 8.000000
170.036450 7.000000
171.013850 6.000000
171.040080 76.000000
171.049100 137.000000
171.067400 6.000000
172.054230 13.000000
172.669540 6.000000
173.058850 21.000000
177.917020 6.000000
179.050540 275.000000
180.054320 52.000000
183.045640 12.000000
183.473570 7.000000
184.055950 8.000000
185.056560 7.000000
185.065090 7.000000
186.060870 6.000000
187.850880 7.000000
195.044540 47.000000
196.050810 9.000000
196.062290 8.000000
196.995670 6.000000
197.047560 18.000000
197.063710 23.000000
198.062910 6.000000
199.037450 9.000000
199.045290 6.000000
200.043880 13.000000
201.037160 6.000000
213.059130 43.000000
215.490300 6.000000
215.560100 6.000000
223.031480 8.000000
223.734790 6.000000
224.005430 8.000000
224.040300 7.000000
225.056140 14.000000
228.155040 9.000000
241.051240 71.000000
241.066790 10.000000
242.061650 28.000000
243.063170 6.000000
251.428340 7.000000
252.041820 10.000000
253.046600 6.000000
269.031950 8.000000
269.045680 37.000000
270.027890 7.000000
270.038600 17.000000
270.052760 34.000000
270.081150 7.000000
273.037690 9.000000
273.214260 6.000000

>ms2peaks
116.060090 8.000000
131.048810 9.000000
140.007810 7.000000
140.060750 8.000000
144.051670 6.000000
144.058330 6.000000
151.054260 20.000000
155.048370 7.000000
168.003780 22.000000
168.055020 13.000000
168.063220 6.000000
171.043080 9.000000
172.053180 5.000000
179.048110 41.000000
196.052510 5.000000
199.031860 6.000000
224.048480 6.000000
241.049270 21.000000
242.053100 18.000000
252.042940 29.000000
269.039860 18.000000
269.050900 10.000000
270.015350 9.000000
270.053100 568.000000
271.055600 111.000000
272.063420 15.000000
285.075200 1000.000000
285.123290 18.000000

>ms2peaks
270.048580 7.000000
285.076110 1000.000000
285.124210 28.000000

>ms2peaks
105.035420 8.000000
116.060240 9.000000
131.047850 8.000000
140.009800 14.000000
144.057600 21.000000
151.050550 7.000000
151.058150 7.000000
155.047360 7.000000
168.005940 31.000000
168.059270 26.000000
171.045620 12.000000
172.053190 6.000000
173.059600 6.000000
179.048430 63.000000
180.053300 7.000000
186.066150 8.000000
196.051860 11.000000
197.054080 6.000000
199.040680 13.000000
200.040620 11.000000
200.050020 5.000000
213.052540 17.000000
224.039120 7.000000
224.050490 16.000000
225.049210 5.000000
241.050750 35.000000
242.056580 55.000000
252.040270 91.000000
253.039670 9.000000
269.043640 54.000000
270.052060 1000.000000
271.055730 185.000000
272.050170 11.000000
272.060000 18.000000
285.073300 24.000000

>ms2peaks
51.024800 6.000000
55.018170 19.000000
56.023280 8.000000
56.027320 22.000000
66.007770 6.000000
66.013610 7.000000
67.015690 5.000000
68.992900 15.000000
68.998670 69.000000
70.000470 7.000000
70.004690 16.000000
71.001390 7.000000
71.006480 6.000000
71.013540 6.000000
71.017490 18.000000
77.032670 35.000000
77.039190 57.000000
78.044110 15.000000
79.016180 7.000000
84.019040 89.000000
84.024440 62.000000
85.023810 10.000000
89.510800 6.000000
92.997540 37.000000
94.004590 25.000000
94.080410 6.000000
96.021330 11.000000
101.039030 11.000000
102.046300 32.000000
103.054570 148.000000
103.560680 6.000000
103.604330 8.000000
104.060770 125.000000
104.400210 6.000000
105.033910 144.000000
105.066610 9.000000
105.847760 6.000000
106.036880 6.000000
107.012530 7.000000
109.030880 5.000000
109.992160 5.000000
110.007350 5.000000
110.994800 6.000000
111.007640 33.000000
111.609750 6.000000
112.003650 5.000000
112.014010 83.000000
112.020910 29.000000
113.016400 15.000000
113.027810 13.000000
113.045190 7.000000
114.046460 31.000000
115.042020 31.000000
115.052330 134.000000
115.057140 98.000000
116.053760 32.000000
116.061340 88.000000
116.067190 25.000000
117.027590 11.000000
117.069440 36.000000
118.060450 10.000000
118.074890 13.000000
119.047330 9.000000
122.006880 25.000000
124.004360 8.000000
125.040070 7.000000
126.032650 11.000000
126.048070 52.000000
127.036120 6.000000
127.053050 97.000000
128.059800 75.000000
129.031520 25.000000
129.052830 6.000000
129.062100 11.000000
129.070480 54.000000
129.080860 10.000000
130.074550 31.000000
131.049790 161.000000
138.044800 6.000000
139.002960 177.000000
139.009770 43.000000
139.036290 29.000000
139.054340 393.000000
139.106960 6.000000
139.685520 9.000000
139.775540 9.000000
140.009250 195.000000
140.060390 162.000000
140.623030 6.000000
140.898740 5.000000
141.022610 7.000000
141.058690 13.000000
141.065290 63.000000
141.074300 15.000000
142.042330 8.000000
142.071560 32.000000
142.144930 5.000000
143.048280 23.000000
143.054520 16.000000
143.072270 6.000000
143.186140 6.000000
144.049260 15.000000
144.059890 81.000000
145.033280 6.000000
145.062330 29.000000
147.042300 14.000000
147.048810 11.000000
149.030820 6.000000
150.039460 90.000000
150.049120 150.000000
151.003970 15.000000
151.012010 6.000000
151.053530 1000.000000
151.404510 7.000000
151.492420 6.000000
151.523240 6.000000
152.059570 189.000000
153.029950 36.000000
153.037340 25.000000
153.054140 7.000000
153.067060 8.000000
155.030120 8.000000
155.047780 74.000000
156.052150 20.000000
156.059890 11.000000
157.054610 6.000000
157.067080 53.000000
158.066440 5.000000
165.007550 7.000000
167.051620 20.000000
167.994570 6.000000
168.009140 32.000000
168.056660 102.000000
169.003270 6.000000
169.057560 13.000000
169.068050 22.000000
170.070980 6.000000
170.699490 6.000000
171.000120 9.000000
171.042570 155.000000
171.055180 9.000000
172.054600 16.000000
173.062870 5.000000
174.055040 5.000000
178.044570 6.000000
179.049190 179.000000
180.027040 7.000000
180.054170 44.000000
181.056400 10.000000
182.024230 6.000000
185.062550 6.000000
186.060500 6.000000
194.029050 8.000000
195.028200 5.000000
195.039920 12.000000
195.048280 26.000000
196.050260 14.000000
196.316380 8.000000
199.043170 26.000000
199.063740 6.000000
212.828490 7.000000
213.046810 23.000000
213.057540 45.000000
221.991820 7.000000
223.044450 5.000000
224.046260 41.000000
225.052760 6.000000
236.605560 8.000000
241.026350 6.000000
241.051470 58.000000
242.054690 53.000000
242.073940 6.000000
252.032880 6.000000
253.054080 6.000000
255.216780 5.000000
259.496730 7.000000
269.047300 7.000000
270.054720 49.000000
271.064030 6.000000
285.073610 39.000000

>ms2peaks
112.012540 5.000000
131.050460 10.000000
139.001750 7.000000
139.053330 5.000000
140.012020 14.000000
140.063450 9.000000
144.056200 7.000000
151.054520 21.000000
168.006930 18.000000
168.057390 19.000000
171.044200 14.000000
179.049000 42.000000
197.057360 5.000000
200.048430 5.000000
213.054410 6.000000
241.043690 15.000000
242.049930 9.000000
242.064530 5.000000
252.036510 16.000000
252.047010 10.000000
253.048800 5.000000
269.043880 15.000000
270.052890 530.000000
271.056460 82.000000
272.055020 13.000000
285.076050 1000.000000
285.123600 24.000000

>ms2peaks
270.051030 5.000000
285.074710 1000.000000
285.123170 30.000000

>ms2peaks
105.033460 8.000000
112.015620 6.000000
131.049820 8.000000
140.011660 12.000000
140.061370 9.000000
144.057690 17.000000
151.052630 8.000000
155.048540 6.000000
168.005750 34.000000
168.057920 24.000000
171.042800 14.000000
179.049210 58.000000
180.055440 9.000000
196.052250 7.000000
197.063780 7.000000
199.039810 7.000000
200.042880 10.000000
213.055300 12.000000
224.048800 19.000000
241.048190 34.000000
242.056580 46.000000
243.064580 7.000000
252.042020 83.000000
253.045030 10.000000
269.046940 47.000000
270.053160 1000.000000
270.096560 10.000000
270.105350 7.000000
271.056430 164.000000
272.051820 15.000000
272.067410 8.000000
285.075960 20.000000

>ms2peaks
56.921430 36.000000
68.996860 37.000000
70.000380 41.000000
70.005440 49.000000
71.014020 39.000000
77.040590 88.000000
80.021540 36.000000
84.020550 73.000000
85.021860 30.000000
92.998440 39.000000
94.012580 36.000000
101.027570 30.000000
102.042570 36.000000
103.047370 52.000000
103.055490 103.000000
104.063440 78.000000
105.033080 83.000000
111.007640 76.000000
112.017070 294.000000
112.060840 36.000000
115.053900 168.000000
116.056660 112.000000
116.063870 86.000000
125.035490 29.000000
126.046690 32.000000
127.048160 30.000000
127.056120 144.000000
128.148510 42.000000
129.028880 41.000000
129.056110 27.000000
129.062960 85.000000
131.038970 29.000000
131.046040 29.000000
131.055480 100.000000
132.053560 30.000000
135.899250 32.000000
138.997130 127.000000
139.053050 279.000000
139.059360 149.000000
140.002990 66.000000
140.011870 37.000000
140.064220 108.000000
140.072720 30.000000
141.052250 37.000000
141.071790 34.000000
142.079560 36.000000
144.052310 36.000000
145.060940 32.000000
148.164350 49.000000
150.040970 88.000000
151.056270 1000.000000
152.050840 105.000000
152.066510 29.000000
153.030300 42.000000
154.094440 29.000000
155.036420 30.000000
155.047790 36.000000
155.054890 34.000000
155.798540 29.000000
156.047580 44.000000
157.056440 56.000000
157.064290 51.000000
166.992740 51.000000
167.051880 34.000000
168.010240 36.000000
168.057340 80.000000
171.044010 156.000000
172.050030 37.000000
179.044140 100.000000
179.053890 69.000000
181.062680 61.000000
186.069720 29.000000
196.049880 44.000000
219.174730 29.000000
223.042220 46.000000
269.044190 39.000000
285.076420 30.000000

>ms2peaks
56.024210 20.000000
66.010220 18.000000
68.979280 19.000000
78.045560 17.000000
81.031140 17.000000
84.009880 28.000000
84.014560 20.000000
84.020220 20.000000
84.026260 22.000000
103.049740 50.000000
103.055820 56.000000
104.059860 50.000000
105.028350 79.000000
105.035130 75.000000
106.032100 30.000000
109.650010 29.000000
111.004360 18.000000
112.010720 41.000000
112.016980 50.000000
115.045850 20.000000
115.054020 64.000000
116.050410 23.000000
116.063670 69.000000
117.064810 37.000000
118.064340 62.000000
118.079080 25.000000
122.491400 28.000000
126.042720 19.000000
127.044040 24.000000
127.056760 20.000000
128.053090 25.000000
128.063230 34.000000
129.067840 36.000000
131.046600 130.000000
132.701220 17.000000
137.025970 36.000000
138.994710 19.000000
139.004470 113.000000
139.053540 72.000000
139.999020 20.000000
140.009780 235.000000
140.056920 97.000000
140.065350 68.000000
140.533330 19.000000
141.000320 18.000000
141.053760 18.000000
141.067280 85.000000
142.019470 20.000000
142.685940 21.000000
142.762950 20.000000
143.033970 24.000000
143.054890 30.000000
144.053250 149.000000
144.061420 77.000000
145.058460 107.000000
145.068250 38.000000
146.059340 19.000000
147.042850 17.000000
150.040560 17.000000
151.032380 17.000000
151.046690 179.000000
151.056150 300.000000
152.019550 20.000000
152.042850 22.000000
152.054230 80.000000
152.065600 29.000000
153.065310 21.000000
154.035170 26.000000
155.046590 247.000000
155.054670 73.000000
155.228000 30.000000
156.047610 37.000000
157.059020 27.000000
158.064480 24.000000
159.034640 19.000000
160.797040 20.000000
162.900510 22.000000
163.132780 31.000000
166.990330 18.000000
167.991270 16.000000
168.003010 457.000000
168.056340 558.000000
169.029140 21.000000
169.055250 21.000000
169.479200 17.000000
169.564500 22.000000
170.030550 40.000000
171.042340 348.000000
171.159060 17.000000
172.048810 179.000000
172.167130 17.000000
173.054350 45.000000
178.748180 21.000000
179.048780 1224.000000
180.047030 79.000000
180.057450 42.000000
182.548770 38.000000
183.038680 17.000000
184.326890 20.000000
185.062040 51.000000
185.336780 30.000000
186.065140 20.000000
186.072430 57.000000
187.066420 25.000000
192.867830 17.000000
193.721080 23.000000
194.999450 17.000000
195.042740 44.000000
196.040910 20.000000
196.054310 58.000000
197.055340 103.000000
199.026700 19.000000
199.041900 121.000000
199.265960 25.000000
200.026260 20.000000
200.043080 171.000000
200.058180 17.000000
200.200120 19.000000
210.029040 19.000000
211.062160 20.000000
211.143110 23.000000
213.048600 80.000000
213.061330 45.000000
213.790650 23.000000
214.026990 27.000000
214.059190 24.000000
219.473400 25.000000
223.047240 18.000000
223.903080 24.000000
224.015610 18.000000
224.042400 203.000000
224.054350 100.000000
224.124920 19.000000
226.047030 21.000000
228.205570 17.000000
228.898590 19.000000
238.420940 22.000000
239.063140 20.000000
241.046450 349.000000
241.694920 33.000000
242.035350 24.000000
242.053240 404.000000
242.322010 17.000000
243.055390 17.000000
243.064500 26.000000
243.537030 17.000000
244.073900 33.000000
250.017620 35.000000
251.201540 20.000000
252.013810 21.000000
252.039890 692.000000
252.058170 74.000000
252.195020 24.000000
253.046010 186.000000
253.065090 19.000000
253.891770 18.000000
261.933870 17.000000
269.040920 388.000000
269.055970 88.000000
269.753940 32.000000
270.006410 20.000000
270.016510 76.000000
270.050810 14912.000000
270.099950 73.000000
270.496670 18.000000
270.841280 20.000000
270.935420 19.000000
271.055080 2308.000000
271.627810 28.000000
272.053250 249.000000
272.230470 20.000000
273.059450 42.000000
274.636470 24.000000
274.727660 19.000000
275.579530 20.000000
278.898350 37.000000
280.712590 23.000000
283.703310 17.000000
283.906490 17.000000
284.792760 24.000000
284.838040 22.000000
284.981450 43.000000
285.012240 36.000000
285.023350 62.000000
285.039180 105.000000
285.075960 25764.000000
285.125550 424.000000

