>compound PR55409995
>parentmass 639.1913
>ionization [M+H]+
>formula C29H34O16
>rt 261.600000
>profile qtof
#smiles_iso CC1C(C(C(C(O1)OC2C(C(C(OC2OC3=CC(=C4C(=C3)OC(=CC4=O)C5=CC(=C(C(=C5)OC)O)OC)O)CO)O)O)O)O)O
#smiles_can CC1C(C(C(C(O1)OC2C(C(C(OC2OC3=CC(=C4C(=C3)OC(=CC4=O)C5=CC(=C(C(=C5)OC)O)OC)O)CO)O)O)O)O)O
#inchikey AIBMPOJXBGZIPQ-UHFFFAOYSA-N
#pubchem_id 74977750
#mb_accession PR310970

>ms2peaks
291.063140 30.000000
317.067810 60.000000
318.074370 16.000000
331.085600 214.000000
332.085820 50.000000
493.135410 115.000000
494.152710 38.000000
616.562810 21.000000
639.146420 22.000000
639.184750 238.000000
639.246950 22.000000

