>compound PR55156334
>parentmass 521.1292
>ionization [M+H]+
>formula C24H24O13
>rt 292.800000
>profile qtof
#smiles_iso C1C(C(=[O+]C2=CC(=CC(=C21)O)O)C3=CC=C(C=C3)O)OC4C(C(C(C(O4)COC(=O)CC(=O)[O-])O)O)O
#smiles_can C1C(C(=[O+]C2=CC(=CC(=C21)O)O)C3=CC=C(C=C3)O)OC4C(C(C(C(O4)COC(=O)CC(=O)[O-])O)O)O
#inchikey AUERTCYCVFTFJX-UHFFFAOYSA-N
#pubchem_id 139291783
#mb_accession PR311139

>ms2
85.027120 18.000000
87.005250 20.000000
109.025970 24.000000
147.044560 18.000000
153.011640 77.000000
153.022490 98.000000
154.018100 17.000000
173.055390 24.000000
209.078900 17.000000
247.996950 19.000000
271.053860 19.000000
271.072360 59.000000
272.055080 44.000000
273.072540 482.000000
273.082150 192.000000
274.082730 97.000000
275.077970 19.000000
297.082890 30.000000
485.077610 18.000000
485.105930 24.000000
510.414000 17.000000
519.123780 21.000000
520.124150 34.000000
521.116460 81.000000
521.133670 125.000000

