>compound PR55068146
>parentmass 611.1606613000001
>ionization [M+H]+
>formula C27H30O16
>rt 186.010020
>profile qtof
#smiles_iso C1=CC(=C(C=C1C2=CC(=O)C3=C(C(=C(C(=C3O2)C4C(C(C(C(O4)CO)O)O)O)O)[C@H]5[C@@H]([C@H]([C@@H]([C@H](O5)CO)O)O)O)O)O)O
#smiles_can C1=CC(=C(C=C1C2=CC(=O)C3=C(C(=C(C(=C3O2)C4C(C(C(C(O4)CO)O)O)O)O)C5C(C(C(C(O5)CO)O)O)O)O)O)O
#inchikey ZLPSOQFIIQIIAX-FCSQLNSJSA-N
#pubchem_id 137832354
#mb_accession PR303377,PR303380,PR303383,PR303386,PR303389,PR303392,PR303395,PR303398,PR303400,PR303403,PR303406,PR303409

>ms2
137.024870 6.000000
218.853330 9.000000
267.071990 6.000000
283.038640 6.000000
283.063110 12.000000
302.073700 9.000000
309.033450 8.000000
310.049840 6.000000
311.037870 13.000000
311.057190 14.000000
311.070890 6.000000
312.060150 6.000000
312.080690 6.000000
313.055080 6.000000
314.065800 7.000000
323.014220 8.000000
323.023500 13.000000
323.046810 27.000000
323.056820 91.000000
324.051880 15.000000
324.065340 11.000000
325.059630 26.000000
329.078770 13.000000
330.068390 9.000000
334.093440 6.000000
335.053250 9.000000
337.014650 5.000000
337.073000 29.000000
338.037570 6.000000
339.042570 5.000000
340.066310 6.000000
341.064120 209.000000
342.064850 38.000000
343.073270 16.000000
343.085140 6.000000
347.046230 7.000000
349.066130 6.000000
349.086980 6.000000
351.068210 10.000000
351.089140 14.000000
352.058810 10.000000
352.099180 9.000000
353.026890 9.000000
353.053100 23.000000
353.068660 119.000000
354.060700 25.000000
359.098630 7.000000
360.071080 6.000000
363.085940 35.000000
364.078120 6.000000
365.054930 38.000000
365.070190 75.000000
366.061280 24.000000
366.606600 5.000000
367.057860 11.000000
367.085660 28.000000
367.116330 7.000000
368.099430 5.000000
368.126770 8.000000
369.055940 15.000000
370.089510 5.000000
371.073210 36.000000
371.089810 24.000000
372.083650 10.000000
372.094700 11.000000
377.049410 14.000000
377.081240 19.000000
377.107640 9.000000
378.070620 10.000000
379.061650 11.000000
379.076900 15.000000
379.096370 13.000000
381.097780 38.000000
381.114590 6.000000
384.083100 6.000000
387.074310 6.000000
389.061980 10.000000
389.757660 7.000000
391.057010 11.000000
391.071810 17.000000
391.087100 14.000000
392.089900 6.000000
393.064970 12.000000
394.035280 5.000000
394.059970 5.000000
395.058140 38.000000
395.075380 165.000000
396.022190 6.000000
396.063960 19.000000
396.077790 12.000000
404.076450 10.000000
404.940640 5.000000
407.058870 21.000000
407.072330 88.000000
408.081700 28.000000
410.087340 11.000000
410.104060 5.000000
413.077760 12.000000
417.043730 8.000000
417.108030 5.000000
419.072850 88.000000
419.092960 36.000000
420.075840 8.000000
420.088990 10.000000
421.081730 6.000000
425.077330 77.000000
425.103000 51.000000
425.989560 7.000000
426.074310 16.000000
426.100460 18.000000
431.067630 6.000000
431.084930 15.000000
432.084080 15.000000
435.066310 11.000000
437.079830 82.000000
437.102840 39.000000
438.071530 18.000000
438.094850 25.000000
443.057460 10.000000
443.082090 72.000000
443.105770 92.000000
443.119570 27.000000
444.081390 13.000000
444.109860 17.000000
444.990540 6.000000
445.056580 5.000000
445.087770 8.000000
446.098880 6.000000
449.078740 29.000000
452.077480 10.000000
453.088590 7.000000
455.047700 6.000000
455.087250 51.000000
455.103850 59.000000
456.068660 8.000000
456.095700 5.000000
456.111240 10.000000
456.129120 7.000000
461.091490 20.000000
461.118770 11.000000
462.078490 19.000000
462.094330 8.000000
463.094760 9.000000
463.259310 6.000000
467.075990 5.000000
467.097350 9.000000
471.112030 17.000000
472.102420 6.000000
472.115540 6.000000
473.055690 6.000000
473.073430 11.000000
473.108250 237.000000
473.230770 8.000000
474.086790 17.000000
474.113250 62.000000
474.131160 31.000000
475.097530 5.000000
479.090670 15.000000
479.123140 8.000000
485.099910 12.000000
489.112370 8.000000
490.128810 5.000000
491.053680 6.000000
491.091340 14.000000
491.117460 114.000000
491.148930 6.000000
492.102940 10.000000
492.125790 10.000000
492.142850 6.000000
497.061220 10.000000
497.095920 60.000000
497.130160 17.000000
498.124820 25.000000
503.071410 18.000000
503.093200 6.000000
503.129090 6.000000
504.084660 8.000000
509.105710 12.000000
510.106960 6.000000
510.647980 5.000000
515.092040 5.000000
515.122800 54.000000
516.113220 20.000000
516.133540 20.000000
517.130070 9.000000
521.115970 10.000000
522.104430 10.000000
523.102050 7.000000
527.113890 44.000000
527.135620 17.000000
528.111760 23.000000
528.125610 9.000000
528.143920 5.000000
533.296140 6.000000
539.088130 11.000000
539.113590 34.000000
539.144900 14.000000
540.037050 6.000000
540.106450 15.000000
540.129760 16.000000
544.141110 10.000000
545.109740 12.000000
545.132810 42.000000
545.154790 17.000000
546.126460 11.000000
548.116150 6.000000
557.122440 116.000000
557.159360 7.000000
557.415890 13.000000
558.117800 6.000000
558.139470 32.000000
559.155210 12.000000
563.383610 6.000000
573.110290 6.000000
575.077580 6.000000
575.105960 13.000000
575.145690 92.000000
576.096250 9.000000
576.144780 15.000000
577.171330 5.000000
591.080510 11.000000
593.077450 6.000000
593.144780 251.000000
593.986080 5.000000
594.118840 17.000000
594.158570 34.000000
595.148440 13.000000
595.178590 24.000000
597.163880 7.000000
609.137510 20.000000
609.170530 7.000000
609.260010 6.000000
610.136720 16.000000
610.906010 5.000000
611.028870 11.000000
611.069340 21.000000
611.098630 19.000000
611.161130 1000.000000
611.177490 309.000000
611.221010 14.000000

>ms2
473.102230 9.000000
473.119570 11.000000
491.117680 18.000000
515.107790 5.000000
527.105590 6.000000
545.138980 7.000000
557.121220 5.000000
593.130550 22.000000
593.147090 61.000000
593.169620 25.000000
594.150150 31.000000
609.149410 21.000000
610.133540 15.000000
610.155820 29.000000
611.081240 7.000000
611.159120 1000.000000

>ms2
79.713100 12.000000
103.041610 9.000000
137.021710 9.000000
138.024380 23.000000
177.015580 14.000000
189.014800 14.000000
205.440120 8.000000
219.029110 11.000000
221.854050 11.000000
230.015960 14.000000
247.516130 12.000000
259.057430 11.000000
275.126400 12.000000
279.273190 9.000000
280.064330 13.000000
280.282260 12.000000
283.238770 23.000000
285.037660 14.000000
286.511870 17.000000
300.058040 11.000000
303.339260 13.000000
305.034030 21.000000
310.407960 15.000000
311.051820 266.000000
312.058440 45.000000
313.722750 11.000000
316.989140 10.000000
319.099980 12.000000
321.050960 10.000000
322.055820 14.000000
323.020840 10.000000
323.043090 81.000000
323.058200 179.000000
324.057890 81.000000
325.065250 13.000000
325.733830 14.000000
326.059660 15.000000
329.058200 12.000000
329.080350 17.000000
330.432010 9.000000
335.066070 10.000000
337.077580 27.000000
338.787320 8.000000
339.049960 34.000000
340.021760 10.000000
340.045440 16.000000
340.840090 9.000000
340.909640 16.000000
341.000670 16.000000
341.029600 13.000000
341.063390 1000.000000
341.110500 26.000000
341.173130 11.000000
341.355710 11.000000
342.007510 12.000000
342.068700 225.000000
343.067140 27.000000
345.072020 17.000000
347.087650 30.000000
351.007750 11.000000
351.036130 12.000000
351.076260 35.000000
352.081940 34.000000
352.863620 10.000000
353.026980 9.000000
353.056550 230.000000
353.072080 354.000000
354.046390 8.000000
354.068790 131.000000
354.086460 22.000000
354.234190 9.000000
354.406040 13.000000
354.714320 12.000000
355.033870 10.000000
355.080200 10.000000
361.009370 13.000000
362.073240 19.000000
363.082180 10.000000
363.098020 23.000000
364.995700 17.000000
365.010990 10.000000
365.060360 230.000000
365.090030 34.000000
366.060970 55.000000
366.076450 51.000000
367.084010 65.000000
367.663120 9.000000
368.064180 15.000000
369.060390 11.000000
370.043610 8.000000
370.755250 16.000000
371.068700 169.000000
371.080410 204.000000
372.086670 70.000000
374.075590 10.000000
374.369290 9.000000
375.100280 9.000000
377.055050 131.000000
377.072240 81.000000
378.076350 51.000000
379.023470 9.000000
379.044530 12.000000
379.089870 36.000000
381.072140 15.000000
381.098270 81.000000
382.095920 40.000000
383.071350 81.000000
383.092250 30.000000
388.214420 14.000000
389.033570 10.000000
389.053070 46.000000
389.071290 28.000000
390.069820 48.000000
391.044340 12.000000
391.078520 90.000000
392.053830 8.000000
393.049930 41.000000
393.066380 45.000000
394.071110 9.000000
395.029330 19.000000
395.075810 928.000000
396.045780 9.000000
396.079960 243.000000
396.168910 8.000000
397.061800 29.000000
397.087250 37.000000
397.257050 11.000000
401.049990 31.000000
402.067200 22.000000
404.076630 17.000000
405.090000 22.000000
405.099610 12.000000
406.061860 10.000000
406.102720 9.000000
407.075320 317.000000
408.074100 69.000000
408.514310 8.000000
409.081700 87.000000
415.071350 17.000000
417.083340 12.000000
418.073820 10.000000
419.031220 12.000000
419.066280 151.000000
419.078370 253.000000
419.103670 16.000000
419.979280 12.000000
420.070250 94.000000
420.105290 8.000000
421.087280 10.000000
421.099120 30.000000
422.075010 13.000000
423.046360 8.000000
423.092620 14.000000
424.055420 13.000000
424.079130 25.000000
425.039550 10.000000
425.087430 644.000000
426.091860 178.000000
426.460910 14.000000
427.101530 35.000000
427.113100 10.000000
427.409420 22.000000
428.074490 9.000000
429.094360 8.000000
431.075710 41.000000
431.094150 23.000000
431.107790 10.000000
433.072780 12.000000
433.095830 37.000000
433.113740 10.000000
435.112980 12.000000
436.069520 11.000000
437.049190 30.000000
437.085910 567.000000
437.176910 22.000000
438.064090 24.000000
438.086880 22.000000
438.098720 56.000000
438.156340 9.000000
439.099880 99.000000
442.089200 8.000000
443.052220 37.000000
443.086790 215.000000
443.101380 225.000000
443.150330 18.000000
444.051150 10.000000
444.073640 31.000000
444.091770 92.000000
444.111690 78.000000
445.064240 17.000000
445.091550 41.000000
445.104490 41.000000
446.082550 10.000000
446.117190 20.000000
447.076230 19.000000
447.094450 22.000000
447.551420 9.000000
448.084470 11.000000
449.085970 84.000000
449.125210 14.000000
450.095060 32.000000
450.149810 11.000000
451.405030 10.000000
455.029630 11.000000
455.061000 17.000000
455.097630 358.000000
455.168060 9.000000
456.079800 54.000000
456.103210 69.000000
457.110900 14.000000
458.650600 8.000000
459.120790 13.000000
459.909090 12.000000
460.083070 14.000000
461.002720 8.000000
461.073550 56.000000
461.089170 61.000000
461.108150 35.000000
465.123570 31.000000
466.130310 15.000000
467.091160 25.000000
467.110960 10.000000
468.098750 9.000000
470.092770 11.000000
471.708250 11.000000
473.067720 37.000000
473.105130 454.000000
473.145940 11.000000
474.069980 12.000000
474.108830 84.000000
474.132750 20.000000
475.101410 12.000000
475.118840 24.000000
478.098910 18.000000
479.038390 14.000000
479.072510 30.000000
479.103640 45.000000
480.101140 14.000000
481.914400 13.000000
483.114040 8.000000
485.080780 41.000000
485.108760 14.000000
486.093320 36.000000
487.120390 12.000000
491.030300 14.000000
491.095340 53.000000
491.122620 34.000000
492.078800 20.000000
492.102480 23.000000
493.093630 10.000000
493.125400 29.000000
494.121670 12.000000
497.093110 149.000000
497.114200 158.000000
497.143620 9.000000
497.485840 8.000000
498.096190 25.000000
498.120030 48.000000
498.142880 12.000000
503.088440 112.000000
503.120210 12.000000
504.060790 17.000000
504.081020 22.000000
504.109590 27.000000
509.087460 14.000000
509.106810 36.000000
510.706330 9.000000
512.155760 14.000000
514.111630 12.000000
515.103270 20.000000
515.129030 54.000000
516.128910 36.000000
521.086300 19.000000
521.114500 102.000000
522.052430 12.000000
522.121700 13.000000
523.109800 24.000000
527.089360 16.000000
527.114870 86.000000
528.048650 16.000000
528.104430 26.000000
529.112610 21.000000
534.599300 9.000000
538.862300 12.000000
539.101500 98.000000
539.122250 121.000000
540.101810 10.000000
540.120060 37.000000
540.975770 12.000000
542.120970 10.000000
545.100040 12.000000
546.125670 9.000000
557.119080 71.000000
557.149290 18.000000
557.357910 9.000000
558.078000 10.000000
564.216920 10.000000
575.144170 11.000000
576.256530 16.000000

>ms2
70.160830 15.000000
81.035070 16.000000
82.811180 17.000000
85.030460 54.000000
109.023810 19.000000
110.032500 26.000000
115.058010 15.000000
117.068410 29.000000
133.022920 16.000000
135.029390 24.000000
135.083050 16.000000
137.024660 207.000000
139.043060 23.000000
145.024150 18.000000
159.044400 34.000000
161.029310 40.000000
161.057420 15.000000
163.000580 35.000000
165.007870 14.000000
173.022350 35.000000
173.032240 21.000000
177.016750 27.000000
177.024260 17.000000
179.021960 23.000000
179.037050 47.000000
185.056760 24.000000
187.036650 18.000000
187.049770 30.000000
189.013600 162.000000
190.023800 63.000000
190.037630 19.000000
191.032000 33.000000
191.041290 21.000000
193.864530 20.000000
197.509890 16.000000
199.034410 29.000000
200.998370 15.000000
201.008320 37.000000
201.017300 15.000000
201.058260 20.000000
202.079040 15.000000
203.033080 206.000000
205.061940 19.000000
207.027860 19.000000
208.044140 27.000000
208.092450 16.000000
208.729160 20.000000
209.822330 33.000000
211.040470 41.000000
213.060330 19.000000
215.030090 44.000000
217.036180 15.000000
217.051350 24.000000
218.896790 16.000000
219.020400 22.000000
219.035950 35.000000
219.051510 17.000000
219.854630 14.000000
220.032300 16.000000
221.034990 16.000000
221.054700 14.000000
225.062090 17.000000
226.952640 19.000000
227.039410 35.000000
229.047810 20.000000
229.060850 25.000000
231.021590 19.000000
232.054900 25.000000
234.044460 29.000000
237.059390 23.000000
239.020830 38.000000
239.031950 34.000000
239.061680 23.000000
239.538640 30.000000
241.043230 23.000000
241.058780 16.000000
243.023830 18.000000
243.039050 17.000000
243.064760 29.000000
245.022920 23.000000
247.023760 19.000000
249.065250 29.000000
251.070760 17.000000
252.042040 23.000000
253.056210 38.000000
254.991990 23.000000
255.025740 77.000000
255.065750 38.000000
256.038820 21.000000
256.542300 15.000000
257.044160 37.000000
257.055330 26.000000
258.051330 19.000000
261.026760 16.000000
264.084200 15.000000
267.024380 33.000000
267.062680 19.000000
268.074830 25.000000
269.060030 35.000000
270.054750 15.000000
271.008300 36.000000
271.057310 47.000000
273.022890 19.000000
273.031710 20.000000
273.065520 16.000000
278.053500 18.000000
280.071040 16.000000
281.033050 14.000000
282.040410 36.000000
282.062870 19.000000
283.044530 23.000000
283.059970 38.000000
284.054410 16.000000
284.067660 49.000000
285.012450 14.000000
285.034790 31.000000
285.046540 17.000000
286.035860 16.000000
286.557500 22.000000
289.052220 27.000000
289.109190 17.000000
290.050350 24.000000
290.060700 25.000000
293.036500 17.000000
294.053130 52.000000
295.058350 51.000000
295.069210 71.000000
295.114200 25.000000
296.068660 59.000000
296.082180 15.000000
297.059300 28.000000
297.075230 108.000000
298.049740 16.000000
298.086300 29.000000
299.033660 25.000000
299.054570 90.000000
299.073730 52.000000
300.066040 15.000000
301.067690 20.000000
303.061650 27.000000
306.050350 15.000000
307.060670 64.000000
308.063140 36.000000
308.075710 34.000000
309.042050 66.000000
309.064000 16.000000
309.076510 47.000000
310.046420 527.000000
311.022830 51.000000
311.039180 136.000000
311.055820 1000.000000
311.085750 78.000000
311.104710 19.000000
312.053990 97.000000
312.066070 207.000000
312.607450 19.000000
312.774630 14.000000
313.055020 34.000000
313.069430 178.000000
314.063200 23.000000
314.075040 48.000000
319.055760 25.000000
321.069150 52.000000
321.083370 58.000000
322.983830 21.000000
323.014680 24.000000
323.055210 532.000000
323.090150 37.000000
324.056370 365.000000
324.078770 52.000000
324.587680 14.000000
325.041930 25.000000
325.074550 160.000000
325.096250 17.000000
325.110990 37.000000
325.773220 32.000000
326.071380 46.000000
327.069760 34.000000
329.057340 49.000000
329.068730 20.000000
330.077880 19.000000
331.050720 23.000000
331.067350 14.000000
331.101650 15.000000
333.067570 37.000000
333.084900 40.000000
334.067630 31.000000
335.018250 20.000000
335.055850 150.000000
335.070590 38.000000
335.887730 16.000000
336.037750 14.000000
336.059200 35.000000
336.070770 55.000000
336.105710 29.000000
337.015140 26.000000
337.039920 38.000000
337.058320 173.000000
337.074800 314.000000
337.092800 34.000000
338.058200 80.000000
338.076170 265.000000
338.089020 58.000000
339.063660 15.000000
339.088170 235.000000
339.674620 23.000000
340.051450 16.000000
340.065400 69.000000
340.081210 26.000000
340.093110 36.000000
341.061000 692.000000
341.071530 333.000000
342.055690 103.000000
342.074130 84.000000
342.087980 52.000000
343.050510 27.000000
343.069000 63.000000
343.083370 49.000000
344.062010 15.000000
344.079470 15.000000
345.016510 19.000000
345.054570 19.000000
345.079990 19.000000
345.263730 19.000000
346.077610 37.000000
347.054960 29.000000
347.075870 18.000000
347.089750 23.000000
347.113590 14.000000
349.067720 95.000000
349.087710 20.000000
349.103030 28.000000
349.116970 22.000000
349.694820 15.000000
350.073270 123.000000
350.197240 14.000000
351.054990 56.000000
351.082580 159.000000
351.096250 148.000000
351.434270 15.000000
352.060580 43.000000
352.084410 31.000000
352.973020 19.000000
353.032070 40.000000
353.056880 273.000000
353.070310 307.000000
353.103520 55.000000
353.208620 15.000000
354.052640 44.000000
354.065090 156.000000
354.105290 19.000000
355.054050 88.000000
355.087040 21.000000
359.052030 27.000000
361.063140 22.000000
361.082310 14.000000
363.052490 15.000000
363.074770 60.000000
363.091090 86.000000
364.059840 24.000000
364.081570 15.000000
364.099030 56.000000
365.055540 109.000000
365.068330 107.000000
365.088010 23.000000
365.106140 28.000000
366.065460 114.000000
366.083220 35.000000
367.028560 24.000000
367.055480 44.000000
367.074950 103.000000
367.085690 153.000000
367.103490 51.000000
367.824920 14.000000
368.068240 31.000000
368.097780 83.000000
369.089450 38.000000
373.072240 94.000000
374.070740 20.000000
374.089200 21.000000
375.079130 42.000000
375.103300 20.000000
377.048130 31.000000
377.058930 73.000000
377.075010 124.000000
377.102630 65.000000
377.116390 19.000000
378.075960 92.000000
378.621610 26.000000
379.010740 23.000000
379.035860 34.000000
379.065220 80.000000
379.094020 27.000000
380.031100 14.000000
380.118710 24.000000
380.168580 16.000000
381.056460 27.000000
381.086120 71.000000
381.098690 189.000000
382.106870 43.000000
383.056400 15.000000
383.082400 59.000000
383.120970 14.000000
384.087680 17.000000
387.054720 52.000000
387.075990 29.000000
387.098850 21.000000
389.049010 29.000000
389.066800 137.000000
390.071350 77.000000
391.069430 102.000000
391.080990 114.000000
391.097080 119.000000
391.457520 31.000000
392.051450 18.000000
393.034940 24.000000
393.085600 19.000000
394.054600 24.000000
394.104340 16.000000
395.034550 25.000000
395.051510 63.000000
395.077060 131.000000
396.071810 67.000000
400.051030 16.000000
400.450040 26.000000
401.048030 50.000000
401.081360 44.000000
402.061000 16.000000
402.080320 35.000000
402.101230 15.000000
403.090610 79.000000
404.102780 16.000000
405.026520 20.000000
405.098970 46.000000
406.739440 25.000000
407.077610 164.000000
407.110290 19.000000
408.092470 32.000000
411.096920 17.000000
415.079220 49.000000
417.091280 33.000000
419.042180 14.000000
419.070500 81.000000
419.084470 77.000000
419.101100 17.000000
420.058140 47.000000
420.080600 31.000000
425.089780 27.000000
425.112760 19.000000
429.104640 18.000000
430.070130 20.000000
431.061680 17.000000
431.078580 23.000000
431.091980 18.000000
432.074010 21.000000
433.080510 16.000000
433.140780 14.000000
434.103700 18.000000
437.095340 19.000000
438.081970 24.000000
439.108150 24.000000
443.084960 21.000000
447.113220 19.000000
451.106810 14.000000
457.080750 15.000000
457.090300 35.000000
463.107570 18.000000
475.104830 15.000000
492.098140 15.000000
509.109190 27.000000
513.115050 17.000000

>ms2
137.013500 9.000000
202.062030 6.000000
231.056880 7.000000
266.056670 5.000000
267.272800 5.000000
278.616580 8.000000
286.061520 5.000000
288.071440 7.000000
294.055510 7.000000
295.046110 5.000000
295.056300 5.000000
310.043460 12.000000
311.051910 83.000000
312.056730 17.000000
323.041600 14.000000
323.054930 35.000000
324.047760 9.000000
325.070370 28.000000
330.354100 7.000000
335.038820 9.000000
335.066130 5.000000
337.068970 18.000000
337.085080 5.000000
339.056460 8.000000
340.064700 9.000000
341.035550 18.000000
341.064850 139.000000
341.086980 14.000000
342.067930 66.000000
343.068360 11.000000
343.076570 5.000000
346.437380 7.000000
349.032810 5.000000
349.071780 16.000000
351.068330 10.000000
351.078950 8.000000
352.087740 12.000000
353.028900 6.000000
353.061460 92.000000
353.074920 60.000000
354.063540 15.000000
355.050480 5.000000
355.071470 8.000000
357.376980 6.000000
362.080020 6.000000
362.697910 6.000000
363.043760 5.000000
363.089970 7.000000
365.072300 56.000000
366.062990 6.000000
367.072480 14.000000
367.090360 7.000000
368.078400 14.000000
371.036380 9.000000
371.067500 36.000000
372.089360 15.000000
377.065280 41.000000
378.060820 6.000000
378.075470 5.000000
379.081630 9.000000
381.093020 19.000000
381.105620 15.000000
382.094790 5.000000
383.071380 14.000000
384.075650 7.000000
384.087130 7.000000
389.056580 9.000000
390.908200 8.000000
391.041960 8.000000
391.086640 5.000000
394.980740 7.000000
395.040280 19.000000
395.058440 24.000000
395.077850 151.000000
396.051240 5.000000
396.073180 34.000000
398.091060 13.000000
399.094330 5.000000
401.046940 6.000000
401.070220 11.000000
401.181850 6.000000
402.083280 6.000000
407.065190 36.000000
407.079320 60.000000
407.566190 5.000000
408.062500 7.000000
411.074340 7.000000
412.072780 6.000000
419.053560 7.000000
419.071230 19.000000
419.084050 31.000000
423.081020 8.000000
425.080750 90.000000
426.082340 18.000000
426.103420 7.000000
427.101590 5.000000
431.093480 6.000000
435.069700 5.000000
437.071840 14.000000
437.091550 28.000000
437.108180 18.000000
438.087830 11.000000
443.095280 110.000000
443.107030 44.000000
444.069980 12.000000
444.108120 31.000000
448.055970 6.000000
449.071350 7.000000
449.097110 6.000000
451.111570 10.000000
453.094640 6.000000
455.067110 12.000000
455.096860 62.000000
455.111720 19.000000
456.080990 12.000000
456.110440 5.000000
457.100460 9.000000
459.073670 5.000000
461.069120 10.000000
461.090550 34.000000
461.106170 18.000000
463.422610 8.000000
471.103730 5.000000
472.064700 7.000000
472.113890 7.000000
473.104060 225.000000
474.072910 8.000000
474.106600 79.000000
474.134340 9.000000
474.246520 9.000000
475.115720 16.000000
479.075100 8.000000
479.092990 7.000000
480.097560 9.000000
489.090210 10.000000
490.102110 6.000000
491.080020 16.000000
491.110320 68.000000
491.137910 30.000000
492.136080 5.000000
497.079040 35.000000
497.111690 67.000000
498.093230 10.000000
498.114070 20.000000
498.131900 7.000000
503.079130 11.000000
503.103880 13.000000
509.102230 6.000000
515.114500 26.000000
515.131230 26.000000
516.098940 11.000000
516.139340 10.000000
521.100650 22.000000
525.104430 10.000000
527.101380 39.000000
527.119320 55.000000
527.139040 15.000000
528.126650 26.000000
539.119570 88.000000
540.112980 28.000000
541.147160 5.000000
544.154300 5.000000
545.106570 12.000000
545.121280 25.000000
545.145200 6.000000
546.116880 7.000000
546.131590 9.000000
548.151180 7.000000
557.041080 9.000000
557.111020 16.000000
557.129460 26.000000
557.141970 9.000000
575.110410 23.000000
575.148250 86.000000
576.109560 12.000000
576.137510 15.000000
576.168640 8.000000
577.157650 12.000000
578.171880 5.000000
591.141110 8.000000
592.153200 9.000000
593.137940 145.000000
593.167970 73.000000
594.145260 54.000000
594.164180 49.000000
595.147220 8.000000
595.169190 11.000000
596.165220 5.000000
601.121580 8.000000
609.141360 8.000000
610.069340 6.000000
610.125120 11.000000
610.171510 16.000000
610.416630 7.000000
611.045470 5.000000
611.091610 25.000000
611.161620 1000.000000

>ms2
473.099030 18.000000
473.125580 14.000000
491.122010 17.000000
515.107970 6.000000
545.138000 7.000000
575.142030 20.000000
593.153690 73.000000
594.122920 5.000000
594.156560 31.000000
595.147160 6.000000
609.125980 6.000000
609.146480 7.000000
610.143860 19.000000
610.162110 14.000000
611.083310 9.000000
611.163330 1000.000000

>ms2
103.038990 42.000000
130.060090 10.000000
152.505910 11.000000
172.513020 9.000000
212.022830 22.000000
229.049270 9.000000
232.388820 8.000000
261.772980 9.000000
279.666500 12.000000
290.721220 8.000000
293.475950 9.000000
299.058650 7.000000
300.059910 24.000000
301.082670 10.000000
310.056850 23.000000
311.026150 15.000000
311.036560 37.000000
311.055480 146.000000
311.064330 52.000000
312.060790 71.000000
312.080810 9.000000
313.073270 8.000000
316.114840 10.000000
323.052700 219.000000
323.255280 7.000000
324.045380 20.000000
324.058690 91.000000
325.064880 12.000000
326.077550 9.000000
326.634700 8.000000
327.019870 13.000000
327.042850 10.000000
327.089260 12.000000
329.070190 17.000000
330.076930 9.000000
331.667720 8.000000
332.875270 8.000000
333.399230 11.000000
336.060820 11.000000
337.066440 12.000000
338.032100 8.000000
338.055360 8.000000
338.076450 20.000000
338.089510 12.000000
339.022830 12.000000
339.053070 39.000000
339.068390 9.000000
339.087100 15.000000
339.890410 10.000000
341.066220 1000.000000
341.684420 9.000000
342.061400 87.000000
342.088620 8.000000
343.066440 13.000000
351.047790 23.000000
351.072540 20.000000
351.107640 11.000000
352.058260 23.000000
352.076780 8.000000
353.029820 27.000000
353.064360 386.000000
353.080660 99.000000
353.588290 23.000000
354.061460 68.000000
354.075900 21.000000
355.067810 32.000000
355.085690 15.000000
355.226290 10.000000
361.075840 9.000000
362.062870 13.000000
363.076690 8.000000
363.560420 10.000000
364.071810 14.000000
365.040130 46.000000
365.052700 98.000000
365.067600 158.000000
365.085270 54.000000
366.063170 106.000000
366.083190 16.000000
367.037290 14.000000
367.066310 44.000000
367.080320 37.000000
367.269170 9.000000
368.095640 13.000000
369.052370 8.000000
369.826450 13.000000
370.054020 14.000000
370.065090 18.000000
371.047270 33.000000
371.075500 256.000000
372.065860 32.000000
372.081420 19.000000
373.085360 10.000000
373.099150 11.000000
374.076930 8.000000
374.967410 12.000000
375.852570 10.000000
377.045040 56.000000
377.064390 54.000000
377.078250 48.000000
377.096800 28.000000
378.071840 96.000000
379.043550 7.000000
379.071110 34.000000
380.079190 14.000000
381.046780 23.000000
381.068760 25.000000
381.089540 43.000000
381.103820 22.000000
382.097930 10.000000
382.232910 14.000000
383.067470 27.000000
383.086980 23.000000
384.239870 20.000000
389.039790 10.000000
389.068630 12.000000
390.074890 14.000000
391.073090 28.000000
391.089140 60.000000
392.098300 21.000000
393.062010 10.000000
393.102420 10.000000
394.045010 15.000000
394.113190 12.000000
395.016630 23.000000
395.054410 107.000000
395.077550 574.000000
395.927400 17.000000
396.037380 10.000000
396.080020 233.000000
396.195650 9.000000
397.078950 48.000000
398.073670 16.000000
398.418760 14.000000
399.076350 10.000000
400.306550 8.000000
401.057250 10.000000
401.078120 21.000000
402.062230 8.000000
405.052860 14.000000
405.065640 16.000000
405.087430 7.000000
405.102290 21.000000
406.076170 18.000000
406.742160 9.000000
407.075040 337.000000
407.158840 11.000000
407.215180 14.000000
408.016780 9.000000
408.034550 8.000000
408.069820 54.000000
408.082670 44.000000
409.071620 22.000000
409.095550 68.000000
411.071990 13.000000
413.082610 25.000000
414.086300 13.000000
414.218170 24.000000
415.056640 10.000000
417.070430 24.000000
417.083370 10.000000
418.071900 27.000000
418.364960 10.000000
419.009340 10.000000
419.039310 7.000000
419.076350 378.000000
419.336640 7.000000
419.378480 7.000000
420.066990 37.000000
420.079410 68.000000
421.057100 30.000000
421.087920 11.000000
421.298680 8.000000
422.591860 9.000000
423.071990 10.000000
423.546940 8.000000
424.053800 12.000000
425.008300 10.000000
425.038240 10.000000
425.086910 524.000000
425.147220 7.000000
425.955690 9.000000
426.017060 13.000000
426.037720 10.000000
426.079220 55.000000
426.100100 63.000000
426.124660 14.000000
427.105770 31.000000
428.808810 10.000000
429.097230 7.000000
429.830600 7.000000
430.114900 8.000000
431.041410 9.000000
431.082980 10.000000
431.095580 11.000000
432.071200 10.000000
433.099370 19.000000
433.711150 8.000000
434.113160 10.000000
435.072750 8.000000
435.096440 10.000000
436.126370 8.000000
437.034090 13.000000
437.051540 57.000000
437.088960 509.000000
437.235170 7.000000
438.094540 50.000000
439.100620 9.000000
441.098660 9.000000
443.051820 12.000000
443.070680 79.000000
443.091030 350.000000
443.106900 168.000000
444.037900 9.000000
444.105040 102.000000
444.210330 12.000000
445.108060 42.000000
445.291840 11.000000
446.080630 14.000000
446.106810 7.000000
447.106320 55.000000
447.122800 16.000000
448.079500 11.000000
448.115630 13.000000
449.086980 26.000000
450.089230 29.000000
454.998810 11.000000
455.050810 29.000000
455.093750 248.000000
455.120570 24.000000
456.068450 14.000000
456.110140 82.000000
456.915500 7.000000
457.105190 11.000000
457.117550 12.000000
458.129820 11.000000
458.700560 12.000000
459.112400 13.000000
461.024930 12.000000
461.042210 14.000000
461.078640 49.000000
461.097870 117.000000
462.051120 10.000000
462.079470 13.000000
462.094970 11.000000
462.113160 7.000000
465.109220 21.000000
465.138520 8.000000
467.090610 28.000000
468.129300 8.000000
469.105530 10.000000
470.070430 9.000000
471.036220 9.000000
471.105220 11.000000
472.101960 13.000000
473.097080 175.000000
473.114990 240.000000
474.106170 138.000000
475.099910 9.000000
475.117130 46.000000
476.063510 8.000000
476.831760 8.000000
477.066650 11.000000
479.071200 27.000000
479.091280 118.000000
479.107540 119.000000
479.934750 8.000000
480.083530 11.000000
480.102480 17.000000
480.116060 16.000000
483.119780 8.000000
484.070950 7.000000
485.013950 11.000000
485.066310 17.000000
485.101010 9.000000
486.067470 9.000000
486.091770 27.000000
491.104610 107.000000
491.121610 34.000000
492.111110 42.000000
492.139800 9.000000
493.066830 10.000000
493.853450 12.000000
495.813080 12.000000
497.101560 129.000000
497.116520 149.000000
497.156250 8.000000
498.064790 11.000000
498.114810 131.000000
499.124660 12.000000
503.091310 71.000000
503.115450 34.000000
504.112030 14.000000
505.679110 10.000000
509.099490 34.000000
510.096590 25.000000
510.117190 12.000000
515.107540 75.000000
515.122740 29.000000
516.115910 11.000000
516.143190 10.000000
521.069150 9.000000
521.096860 22.000000
521.113460 51.000000
522.078490 7.000000
522.120060 16.000000
523.091310 9.000000
527.094970 17.000000
527.119930 34.000000
528.116940 24.000000
539.069340 12.000000
539.108400 72.000000
539.133120 100.000000
540.122310 49.000000
540.144170 15.000000
541.127870 21.000000
545.111570 9.000000
557.096130 24.000000
557.124330 45.000000
557.145870 75.000000
557.841000 9.000000
558.082640 10.000000
558.135860 25.000000
575.114990 40.000000
575.161680 30.000000
576.116520 9.000000
577.128360 10.000000
594.168760 12.000000

>ms2
86.030260 11.000000
109.028080 9.000000
133.016850 16.000000
135.042220 26.000000
136.999110 9.000000
137.019210 79.000000
137.027470 65.000000
137.161990 19.000000
138.025010 15.000000
138.635590 10.000000
148.021880 10.000000
149.013670 13.000000
149.023590 13.000000
159.045790 10.000000
163.041380 10.000000
172.046460 13.000000
172.986500 15.000000
173.019390 27.000000
173.035680 12.000000
174.111190 9.000000
176.039290 22.000000
177.018650 24.000000
177.049960 12.000000
179.035230 13.000000
189.013720 52.000000
189.021900 31.000000
189.049910 13.000000
190.023740 40.000000
191.022200 16.000000
195.039470 13.000000
196.071760 10.000000
199.031310 12.000000
200.045380 24.000000
201.010380 27.000000
201.024220 19.000000
201.058870 14.000000
202.021270 9.000000
202.067870 12.000000
203.031330 79.000000
204.043110 16.000000
204.071180 13.000000
205.042760 15.000000
207.029660 36.000000
207.040310 19.000000
208.039570 27.000000
211.036360 32.000000
212.042820 9.000000
213.021970 10.000000
214.961940 12.000000
215.044890 12.000000
215.071790 16.000000
216.092590 11.000000
217.041720 9.000000
217.057560 12.000000
220.035520 15.000000
220.060030 13.000000
220.549840 10.000000
223.924820 44.000000
225.064090 22.000000
226.070760 22.000000
227.028460 15.000000
227.066730 11.000000
229.004170 9.000000
229.022690 11.000000
229.034290 26.000000
229.051960 16.000000
229.081630 9.000000
230.067860 10.000000
232.029420 15.000000
233.050110 14.000000
237.059780 16.000000
238.045030 12.000000
239.033260 23.000000
239.052660 15.000000
240.031100 30.000000
242.058030 14.000000
245.344220 13.000000
246.045670 17.000000
247.035550 16.000000
247.054320 18.000000
253.043470 55.000000
254.055620 11.000000
255.029510 44.000000
256.028590 16.000000
257.046450 40.000000
258.046230 13.000000
262.032960 13.000000
263.073610 28.000000
267.041630 11.000000
269.040650 20.000000
270.050170 13.000000
272.056550 9.000000
273.037170 13.000000
275.034670 11.000000
276.047520 10.000000
279.073820 13.000000
281.035680 14.000000
281.046540 18.000000
283.022830 12.000000
283.042420 14.000000
283.064700 11.000000
283.862880 13.000000
284.057340 28.000000
284.080630 29.000000
285.034520 34.000000
285.068020 15.000000
287.065000 11.000000
292.661530 19.000000
293.027590 11.000000
293.068300 11.000000
295.051760 29.000000
295.068660 15.000000
295.987030 10.000000
296.050780 19.000000
296.073210 14.000000
297.043850 20.000000
297.061800 27.000000
297.078120 47.000000
297.091920 17.000000
298.036350 12.000000
298.067170 38.000000
299.045100 31.000000
299.058960 54.000000
304.067780 19.000000
304.091920 23.000000
306.047730 11.000000
307.054260 23.000000
307.068630 9.000000
308.073520 11.000000
309.047270 15.000000
309.094390 17.000000
309.994080 13.000000
310.008510 12.000000
310.045380 127.000000
311.026860 23.000000
311.056270 1000.000000
311.090450 13.000000
312.054410 169.000000
312.066960 139.000000
313.009920 11.000000
313.070650 97.000000
314.075530 33.000000
314.184360 12.000000
315.073000 9.000000
319.336820 9.000000
321.049590 10.000000
321.094600 10.000000
323.018650 9.000000
323.029600 9.000000
323.055360 421.000000
323.119320 18.000000
324.027040 37.000000
324.060390 341.000000
324.929900 9.000000
325.036040 45.000000
325.064000 93.000000
325.082280 71.000000
325.102540 10.000000
326.052190 15.000000
326.069030 32.000000
328.055600 19.000000
329.068330 44.000000
331.073030 22.000000
332.240540 10.000000
333.060520 17.000000
333.074860 13.000000
333.087890 13.000000
335.054840 60.000000
335.071040 18.000000
335.089510 19.000000
336.032780 32.000000
336.062960 63.000000
336.074740 38.000000
337.030940 10.000000
337.068730 317.000000
337.087430 62.000000
337.699710 10.000000
338.025420 10.000000
338.081240 265.000000
338.100740 18.000000
338.332730 16.000000
338.754490 9.000000
339.059840 24.000000
339.077360 26.000000
339.089390 88.000000
339.109920 18.000000
340.949860 9.000000
341.002900 12.000000
341.039000 23.000000
341.065490 708.000000
341.150240 23.000000
342.054660 45.000000
342.072050 143.000000
343.068850 14.000000
343.080440 12.000000
345.091580 13.000000
347.056850 34.000000
347.079130 29.000000
347.229640 15.000000
349.029970 11.000000
349.053130 33.000000
349.071110 111.000000
350.062680 12.000000
350.073850 26.000000
350.090330 12.000000
350.324040 10.000000
351.041930 33.000000
351.063450 79.000000
351.081790 93.000000
351.096100 121.000000
352.055390 91.000000
352.085080 55.000000
352.317500 12.000000
353.065890 632.000000
353.095120 37.000000
353.111630 13.000000
354.062900 30.000000
354.080110 29.000000
355.088010 16.000000
356.074250 38.000000
361.077730 26.000000
362.053560 15.000000
362.071320 49.000000
362.089900 11.000000
363.020140 10.000000
363.076900 81.000000
363.093200 65.000000
364.029110 17.000000
364.076540 22.000000
364.268620 10.000000
364.674100 13.000000
365.064670 226.000000
365.104060 56.000000
366.074190 74.000000
366.115230 32.000000
367.039890 12.000000
367.074680 266.000000
367.104980 23.000000
368.078030 43.000000
368.105040 16.000000
373.071040 38.000000
374.076510 16.000000
374.106750 11.000000
375.083980 39.000000
377.037350 17.000000
377.048400 55.000000
377.069850 164.000000
377.096470 10.000000
378.062530 10.000000
379.081240 73.000000
380.082670 31.000000
381.069060 20.000000
381.093200 128.000000
382.063720 20.000000
382.099880 15.000000
382.112550 16.000000
383.049590 23.000000
383.071320 15.000000
383.851870 13.000000
387.071750 41.000000
388.095760 10.000000
389.055240 11.000000
389.070650 12.000000
389.110900 11.000000
389.740810 10.000000
390.065030 36.000000
391.073330 13.000000
391.088590 45.000000
392.045010 11.000000
392.088900 30.000000
392.124050 10.000000
393.076780 12.000000
393.998080 9.000000
395.044370 42.000000
395.078250 84.000000
399.083590 12.000000
400.071930 18.000000
400.969700 11.000000
401.031400 23.000000
401.067500 16.000000
402.069760 10.000000
403.061250 10.000000
403.078250 38.000000
404.087800 13.000000
405.061130 9.000000
405.094120 11.000000
407.075200 120.000000
407.099430 19.000000
408.070590 21.000000
408.088840 10.000000
409.081180 10.000000
410.092620 13.000000
413.075620 11.000000
414.045170 13.000000
417.062590 14.000000
417.088650 12.000000
417.107120 18.000000
419.068970 20.000000
419.086240 51.000000
420.070280 13.000000
425.092680 23.000000
425.113430 13.000000
429.041470 17.000000
429.096950 10.000000
431.059540 12.000000
431.092070 13.000000
432.084290 26.000000
437.095610 12.000000
442.383730 13.000000
443.080410 17.000000
443.101680 13.000000
447.503540 18.000000
449.087830 19.000000
452.112920 17.000000
475.099030 15.000000
482.561070 10.000000
491.087710 22.000000
491.104860 20.000000
510.259830 9.000000
521.111570 13.000000
561.611880 10.000000
611.169920 10.000000

>ms2
99.037900 6.000000
129.342960 5.000000
175.516100 5.000000
203.037140 6.000000
213.635040 9.000000
247.172200 8.000000
255.024350 7.000000
276.380040 6.000000
293.069670 13.000000
309.041020 7.000000
310.051510 11.000000
311.048550 72.000000
311.060640 41.000000
311.075040 6.000000
312.049070 8.000000
312.066990 16.000000
313.066500 5.000000
319.056060 6.000000
322.967160 7.000000
323.048160 18.000000
323.065060 23.000000
325.063390 12.000000
331.685640 8.000000
335.061430 7.000000
336.046230 8.000000
337.066310 14.000000
337.085970 8.000000
341.059050 76.000000
341.070740 186.000000
342.044370 6.000000
342.069340 38.000000
342.083440 10.000000
342.945160 8.000000
343.061680 10.000000
345.608180 6.000000
346.618590 6.000000
350.087100 10.000000
351.058320 5.000000
351.093260 17.000000
351.528810 5.000000
353.064880 123.000000
353.097810 6.000000
354.067690 10.000000
363.010310 6.000000
363.093350 14.000000
365.069980 60.000000
366.069980 23.000000
366.086360 12.000000
367.085360 19.000000
370.056980 6.000000
371.066740 37.000000
371.087220 45.000000
372.062530 8.000000
373.048250 6.000000
377.067200 53.000000
379.073670 15.000000
379.094270 8.000000
381.082550 15.000000
382.104000 9.000000
383.075350 9.000000
383.588470 7.000000
389.064880 9.000000
389.084870 10.000000
393.060730 5.000000
393.088380 6.000000
394.099270 6.000000
395.040770 10.000000
395.063140 89.000000
395.084500 67.000000
395.105990 15.000000
396.006740 5.000000
396.053310 8.000000
396.077640 27.000000
396.092380 17.000000
397.098600 6.000000
401.080510 12.000000
405.107970 21.000000
407.067470 32.000000
407.081270 39.000000
408.065400 14.000000
408.093780 7.000000
409.078980 8.000000
409.101810 9.000000
410.058110 5.000000
415.091250 5.000000
419.073300 46.000000
419.100770 14.000000
420.069580 22.000000
420.087860 7.000000
421.073820 13.000000
423.086030 7.000000
425.063170 16.000000
425.088010 118.000000
425.116060 7.000000
426.088780 36.000000
426.103240 21.000000
427.947170 7.000000
431.065730 12.000000
431.084320 13.000000
431.096800 10.000000
431.119540 6.000000
432.096800 6.000000
433.097560 8.000000
437.075440 36.000000
437.091430 25.000000
437.106380 23.000000
437.226170 6.000000
437.961330 5.000000
438.076690 8.000000
438.116420 5.000000
440.097140 6.000000
443.069310 11.000000
443.094390 47.000000
443.111080 40.000000
444.083310 14.000000
444.102110 7.000000
449.068940 7.000000
449.099880 18.000000
452.116180 7.000000
454.040160 6.000000
455.094510 51.000000
456.096620 17.000000
461.035280 6.000000
461.087130 15.000000
461.104490 16.000000
462.075710 13.000000
471.093230 11.000000
473.058410 8.000000
473.072080 28.000000
473.108120 301.000000
474.071590 6.000000
474.102290 39.000000
474.123690 19.000000
474.140200 10.000000
475.101990 11.000000
475.117310 6.000000
476.378600 5.000000
479.049190 6.000000
479.080170 10.000000
479.104950 15.000000
483.113590 10.000000
489.091770 14.000000
489.118230 6.000000
491.090820 18.000000
491.126220 89.000000
492.088040 5.000000
492.106260 9.000000
492.125000 20.000000
497.086210 41.000000
497.102970 69.000000
497.123900 16.000000
498.052120 7.000000
498.076540 6.000000
498.094180 7.000000
498.113560 8.000000
501.090180 6.000000
503.087650 14.000000
504.030580 7.000000
504.099550 6.000000
505.201600 8.000000
509.066010 10.000000
509.114440 8.000000
510.143370 8.000000
515.112550 25.000000
515.141360 7.000000
517.133060 7.000000
521.105040 16.000000
522.102230 25.000000
527.109740 45.000000
527.137940 22.000000
537.083010 6.000000
539.039920 6.000000
539.119750 42.000000
539.144710 23.000000
540.116460 33.000000
540.152710 7.000000
540.507200 6.000000
541.126710 12.000000
541.152220 7.000000
544.991390 6.000000
545.127080 28.000000
545.151730 11.000000
546.137510 10.000000
546.167180 11.000000
557.111570 28.000000
557.133670 31.000000
557.175230 5.000000
558.121700 21.000000
558.142210 14.000000
558.161440 13.000000
575.096500 10.000000
575.127560 51.000000
575.147460 52.000000
575.170100 10.000000
575.917790 8.000000
576.133790 14.000000
576.148990 10.000000
577.124630 11.000000
593.150330 281.000000
594.125000 15.000000
594.158570 73.000000
594.189270 8.000000
595.157900 38.000000
603.493470 6.000000
609.100650 8.000000
610.140080 30.000000
611.092710 8.000000
611.160580 1000.000000

>ms2
473.109010 34.000000
491.113530 9.000000
491.134220 9.000000
515.122620 6.000000
545.140380 6.000000
575.134890 15.000000
575.160220 6.000000
576.146850 8.000000
593.151980 114.000000
594.138610 10.000000
594.162480 11.000000
609.152340 21.000000
610.152340 21.000000
611.099790 13.000000
611.162230 1000.000000

>ms2
109.033580 16.000000
137.015990 10.000000
189.135390 10.000000
207.521180 9.000000
207.799450 11.000000
231.016310 22.000000
236.324430 10.000000
248.460270 8.000000
266.928470 19.000000
293.641330 15.000000
297.080440 10.000000
299.055820 20.000000
302.070310 9.000000
307.067350 12.000000
309.045290 9.000000
309.628170 10.000000
310.046110 10.000000
311.046140 48.000000
311.058380 187.000000
312.038090 9.000000
312.056880 27.000000
312.076140 23.000000
312.164730 8.000000
313.058140 8.000000
318.319270 8.000000
321.088410 9.000000
323.033810 18.000000
323.054990 210.000000
323.065280 71.000000
324.037140 8.000000
324.058230 60.000000
324.074680 11.000000
325.079350 15.000000
327.048770 10.000000
329.064700 35.000000
329.079530 19.000000
330.040710 10.000000
330.156590 17.000000
335.050720 11.000000
336.072510 8.000000
337.318210 10.000000
338.084260 11.000000
339.052800 68.000000
341.017640 9.000000
341.065830 1000.000000
342.043060 12.000000
342.060240 79.000000
342.075960 69.000000
343.037840 25.000000
343.069060 42.000000
343.087800 9.000000
344.070160 31.000000
345.123470 14.000000
347.090450 9.000000
348.054630 8.000000
349.065220 26.000000
351.046480 8.000000
351.075930 11.000000
352.064450 16.000000
352.090700 11.000000
353.013120 13.000000
353.065860 474.000000
353.819700 16.000000
354.049900 15.000000
354.074250 44.000000
359.043430 15.000000
361.065830 13.000000
363.084140 36.000000
363.100560 20.000000
364.089970 9.000000
364.911350 8.000000
365.000090 15.000000
365.035220 25.000000
365.057800 201.000000
365.072780 262.000000
365.100800 8.000000
365.161410 8.000000
366.027740 13.000000
366.057710 39.000000
366.074890 35.000000
367.045840 8.000000
367.061070 9.000000
368.093140 10.000000
369.028560 9.000000
371.071320 155.000000
371.084690 111.000000
372.061800 22.000000
372.084110 70.000000
373.050170 27.000000
373.076480 32.000000
375.037960 14.000000
377.051480 29.000000
377.069580 191.000000
378.064730 18.000000
378.394870 8.000000
379.071530 10.000000
379.093410 19.000000
380.000760 9.000000
381.050290 24.000000
381.097500 91.000000
381.970550 16.000000
382.101230 36.000000
382.273830 8.000000
383.018920 8.000000
383.109100 22.000000
386.329250 19.000000
389.068450 36.000000
390.055970 27.000000
391.061370 64.000000
391.083950 36.000000
392.067870 20.000000
392.085660 23.000000
393.030210 10.000000
394.085880 9.000000
395.032290 9.000000
395.077820 713.000000
396.077300 164.000000
397.081420 39.000000
397.260130 10.000000
397.675990 10.000000
399.103730 9.000000
401.022520 8.000000
401.054570 32.000000
401.067570 42.000000
402.070860 9.000000
404.096040 12.000000
405.067500 11.000000
405.096100 9.000000
405.109590 10.000000
407.078090 488.000000
407.120730 13.000000
408.057740 8.000000
408.079250 49.000000
409.092680 38.000000
410.091000 15.000000
410.404480 10.000000
410.837070 15.000000
413.080410 23.000000
413.096160 12.000000
416.077670 11.000000
416.410280 8.000000
417.085450 36.000000
417.100370 15.000000
419.053740 19.000000
419.082060 200.000000
420.075810 61.000000
420.103330 10.000000
420.133540 11.000000
421.085170 38.000000
422.088930 8.000000
422.725490 9.000000
423.074680 10.000000
423.087830 15.000000
424.060030 10.000000
425.086980 542.000000
426.084320 63.000000
426.099090 72.000000
427.105130 48.000000
431.064330 15.000000
431.085420 29.000000
432.084440 9.000000
432.102870 8.000000
433.082610 8.000000
434.060580 9.000000
435.048100 10.000000
435.070620 8.000000
435.088410 9.000000
435.113490 10.000000
436.073240 13.000000
436.992220 11.000000
437.054690 38.000000
437.065340 82.000000
437.092100 179.000000
438.090610 46.000000
439.080660 41.000000
439.101530 11.000000
439.116460 9.000000
441.072810 19.000000
442.089110 17.000000
443.037720 45.000000
443.091090 350.000000
443.115420 130.000000
443.273320 12.000000
444.086880 35.000000
444.104800 93.000000
445.089540 11.000000
445.126770 21.000000
445.351320 8.000000
445.572140 13.000000
445.725100 11.000000
447.114870 9.000000
448.097500 10.000000
448.110440 11.000000
448.322600 9.000000
449.002350 14.000000
449.068790 38.000000
449.106110 46.000000
450.077700 10.000000
452.974980 15.000000
453.798190 9.000000
454.990480 10.000000
455.066350 44.000000
455.098970 347.000000
455.171540 13.000000
456.079500 21.000000
456.096370 28.000000
456.115260 31.000000
456.837040 8.000000
457.108520 12.000000
457.124600 11.000000
458.478730 8.000000
459.094150 14.000000
461.090330 91.000000
462.080960 19.000000
462.133330 9.000000
462.487760 8.000000
463.870420 8.000000
464.672790 10.000000
465.131620 10.000000
465.146450 15.000000
467.119720 8.000000
469.041020 11.000000
470.148100 12.000000
473.070160 53.000000
473.088260 155.000000
473.117310 209.000000
473.915160 9.000000
474.069580 13.000000
474.108550 58.000000
474.133330 8.000000
475.093870 58.000000
475.127110 22.000000
476.109130 9.000000
478.101900 32.000000
479.081940 18.000000
479.102230 72.000000
479.129060 21.000000
480.110990 66.000000
481.092620 17.000000
485.082210 44.000000
485.097200 18.000000
485.117370 10.000000
485.166200 8.000000
486.095980 20.000000
491.088870 34.000000
491.116970 39.000000
492.077390 9.000000
492.118010 8.000000
494.030850 10.000000
494.118160 11.000000
496.011230 14.000000
496.642120 21.000000
497.069240 24.000000
497.114260 247.000000
497.159610 18.000000
498.123840 32.000000
499.119260 9.000000
503.086360 8.000000
503.108860 72.000000
503.158260 8.000000
504.084500 15.000000
507.575840 9.000000
509.109310 44.000000
510.119140 8.000000
511.117550 10.000000
515.088260 12.000000
515.121890 103.000000
516.120060 8.000000
516.144710 11.000000
521.069030 8.000000
521.095830 22.000000
521.118840 32.000000
521.143800 8.000000
522.102420 34.000000
523.100040 10.000000
526.779360 8.000000
527.113650 29.000000
527.131410 10.000000
528.114620 30.000000
539.115360 211.000000
539.255370 10.000000
540.121830 22.000000
545.110780 9.000000
547.721560 10.000000
557.106930 33.000000
557.139400 87.000000
558.126280 38.000000
559.106570 12.000000
559.131290 12.000000
559.158140 20.000000
560.148070 14.000000
575.114010 16.000000
575.147890 10.000000
593.184750 10.000000

>ms2
70.509510 10.000000
85.285660 9.000000
104.041240 15.000000
108.051860 15.000000
109.030860 12.000000
133.063280 9.000000
134.543050 11.000000
135.043880 33.000000
137.022090 160.000000
156.096830 16.000000
161.020580 21.000000
163.037260 9.000000
165.019820 10.000000
170.028430 17.000000
171.042600 10.000000
172.048890 9.000000
175.032910 10.000000
176.044270 12.000000
177.016740 14.000000
177.047240 9.000000
178.615140 12.000000
178.717380 10.000000
179.075910 12.000000
184.058120 19.000000
189.015350 103.000000
189.062320 13.000000
191.030810 28.000000
199.030870 32.000000
201.019610 40.000000
201.033540 12.000000
201.051350 14.000000
203.022740 8.000000
203.036150 22.000000
203.046830 10.000000
203.709850 10.000000
207.035060 27.000000
210.028810 14.000000
211.020450 23.000000
211.039720 22.000000
213.050720 11.000000
213.062880 16.000000
215.023640 13.000000
215.041000 18.000000
216.041080 14.000000
218.798740 9.000000
219.023390 10.000000
223.042040 10.000000
225.027440 11.000000
226.062390 11.000000
226.733810 10.000000
227.028140 57.000000
230.064160 15.000000
231.028490 14.000000
233.040360 16.000000
239.038590 38.000000
239.064250 14.000000
239.219560 19.000000
240.082820 17.000000
241.045900 14.000000
241.058360 9.000000
241.096530 13.000000
243.028880 20.000000
244.034840 10.000000
247.057650 11.000000
251.808850 8.000000
253.037670 19.000000
255.007420 13.000000
255.027680 46.000000
255.079380 19.000000
255.105740 12.000000
256.032230 9.000000
257.030880 9.000000
258.040920 14.000000
258.086640 16.000000
264.064730 15.000000
265.054290 10.000000
266.037900 14.000000
267.033720 17.000000
268.510040 22.000000
269.037510 11.000000
269.085940 17.000000
271.068760 10.000000
274.070920 8.000000
276.041900 11.000000
279.060120 14.000000
280.079190 20.000000
281.040770 28.000000
281.079740 10.000000
282.032990 22.000000
282.047520 24.000000
283.050450 31.000000
283.073060 10.000000
283.109010 11.000000
284.048680 14.000000
284.472750 11.000000
285.022640 10.000000
285.048710 47.000000
287.054020 9.000000
287.066960 10.000000
289.091610 8.000000
293.068540 10.000000
294.049770 10.000000
294.598390 9.000000
295.060240 58.000000
296.056880 12.000000
296.072020 17.000000
297.057800 23.000000
297.081850 28.000000
298.045650 18.000000
298.087980 13.000000
299.028840 21.000000
299.055420 63.000000
300.068940 19.000000
300.082340 12.000000
301.072810 15.000000
306.037290 9.000000
307.049990 10.000000
307.097660 9.000000
307.954500 10.000000
308.069000 10.000000
309.025390 14.000000
309.054320 15.000000
309.077060 45.000000
310.046050 199.000000
310.082120 14.000000
310.563140 21.000000
311.007350 11.000000
311.055880 1000.000000
311.221860 14.000000
312.022770 9.000000
312.044190 34.000000
312.072850 33.000000
312.093140 9.000000
312.108400 17.000000
313.061740 52.000000
313.081210 27.000000
314.082490 25.000000
314.201290 8.000000
317.066010 10.000000
320.038850 12.000000
320.067720 17.000000
320.082580 11.000000
321.046020 15.000000
321.064330 10.000000
321.081480 21.000000
322.052550 10.000000
322.091460 16.000000
323.012540 10.000000
323.050320 205.000000
323.063930 269.000000
323.092560 9.000000
323.985720 14.000000
324.037840 17.000000
324.065030 66.000000
324.078520 22.000000
325.054440 32.000000
325.070980 76.000000
326.066440 15.000000
326.082890 51.000000
326.099700 12.000000
327.074860 13.000000
329.047420 18.000000
329.068910 9.000000
329.080470 15.000000
330.084050 15.000000
331.046420 18.000000
331.066380 16.000000
331.096950 14.000000
333.060880 36.000000
335.054600 99.000000
335.072020 15.000000
335.091310 31.000000
336.012450 19.000000
336.041810 12.000000
336.061710 81.000000
337.029690 11.000000
337.043090 11.000000
337.067570 265.000000
337.080930 148.000000
338.036320 14.000000
338.063690 59.000000
338.076720 148.000000
338.099300 11.000000
339.046200 59.000000
339.088590 50.000000
339.100460 20.000000
340.050930 11.000000
340.079040 10.000000
340.365910 10.000000
341.032290 23.000000
341.049260 87.000000
341.067200 399.000000
342.045350 10.000000
342.072330 28.000000
342.085390 27.000000
343.053620 12.000000
343.072140 16.000000
343.694240 8.000000
345.069730 37.000000
346.065190 22.000000
347.028930 21.000000
348.044010 40.000000
349.033020 13.000000
349.055420 26.000000
349.077550 98.000000
350.083620 27.000000
351.053710 12.000000
351.083470 131.000000
351.100920 36.000000
352.013460 16.000000
352.035950 11.000000
352.053410 12.000000
352.091770 71.000000
353.052060 143.000000
353.069000 247.000000
353.087430 51.000000
354.067600 71.000000
355.067780 27.000000
356.093900 17.000000
357.079900 8.000000
358.092990 14.000000
359.075470 20.000000
359.093660 29.000000
359.874110 14.000000
361.054500 10.000000
361.074370 35.000000
362.093380 10.000000
362.358030 14.000000
363.070040 27.000000
363.087340 44.000000
363.104430 22.000000
364.057980 10.000000
364.152250 26.000000
365.067350 158.000000
365.089540 9.000000
366.046450 12.000000
366.076290 95.000000
367.031620 10.000000
367.053130 45.000000
367.083830 270.000000
367.458800 10.000000
368.057160 10.000000
368.078550 24.000000
368.092620 14.000000
369.049410 11.000000
369.082860 23.000000
369.099030 22.000000
370.084110 12.000000
371.077790 12.000000
372.085570 26.000000
373.072330 29.000000
373.130800 16.000000
375.062130 22.000000
375.075960 10.000000
377.061800 175.000000
377.083250 48.000000
378.060610 13.000000
378.082370 17.000000
379.061280 8.000000
379.081820 59.000000
381.086550 27.000000
381.100650 13.000000
382.073060 10.000000
382.115050 14.000000
383.106750 24.000000
383.313080 9.000000
387.100830 12.000000
387.393070 8.000000
388.080840 15.000000
389.061830 64.000000
389.075290 47.000000
390.066710 17.000000
390.080690 10.000000
391.061160 38.000000
391.084380 57.000000
391.102720 15.000000
391.119380 17.000000
392.070890 10.000000
393.056610 24.000000
395.078190 91.000000
396.069270 13.000000
397.083920 14.000000
401.068600 9.000000
401.084260 8.000000
401.137390 16.000000
402.047700 9.000000
403.086300 12.000000
404.081120 11.000000
404.096220 10.000000
405.048550 13.000000
405.100710 23.000000
407.072240 75.000000
407.090450 62.000000
408.064270 11.000000
408.083950 36.000000
408.846470 15.000000
415.065980 25.000000
416.080930 9.000000
416.091610 18.000000
417.098510 47.000000
419.060970 45.000000
419.077060 41.000000
420.063350 11.000000
421.096130 15.000000
425.076600 9.000000
425.090730 13.000000
426.098850 12.000000
429.099330 46.000000
429.792720 14.000000
431.055390 38.000000
431.071810 19.000000
431.165830 11.000000
433.090150 32.000000
434.089540 9.000000
435.121980 15.000000
437.099580 14.000000
443.069820 12.000000
452.105680 13.000000
455.100800 11.000000
457.105500 8.000000
475.115170 18.000000
492.442720 13.000000
504.100310 10.000000
611.148930 29.000000

