>compound PR55499150
>parentmass 157.01389999999998
>ionization [M+H-H2O]+
>formula C6H6O6
>rt 106.500000
>profile qtof
#smiles_iso C(C(=CC(=O)O)C(=O)O)C(=O)O
#smiles_can C(C(=CC(=O)O)C(=O)O)C(=O)O
#inchikey GTZCVFVGUGFEME-UHFFFAOYSA-N
#pubchem_id 309
#mb_accession PR310803,PR310804

>ms2peaks
68.997450 97.000000
69.999560 17.000000
105.111010 21.000000
111.003850 57.000000
111.009540 151.000000
139.002610 799.000000
157.011730 41.000000

>ms2peaks
68.997650 431.000000
70.001070 52.000000
110.994190 20.000000
111.008030 1627.000000
112.011390 89.000000
113.019410 27.000000
115.557350 31.000000
120.775220 17.000000
138.975450 24.000000
139.003170 2733.000000
140.005050 229.000000
140.011120 74.000000
140.019300 15.000000
141.005520 33.000000
141.014070 23.000000
157.013310 79.000000

