>compound PR55383977
>parentmass 357.13405
>ionization [M+H]+
>formula C20H20O6
>rt 480.000000
>profile qtof
#smiles_iso CC(=CCC1=C2C(=C(C=C1O)O)C(=O)C(CO2)C3=C(C=C(C=C3)O)O)C
#smiles_can CC(=CCC1=C2C(=C(C=C1O)O)C(=O)C(CO2)C3=C(C=C(C=C3)O)O)C
#inchikey MERHMOCEIBOOMA-UHFFFAOYSA-N
#pubchem_id 119269
#mb_accession PR310768,PR310773

>ms2peaks
58.753500 23.000000
68.995650 26.000000
69.002320 33.000000
97.025180 25.000000
99.011050 39.000000
119.506640 24.000000
123.009190 32.000000
123.040100 45.000000
123.050110 30.000000
124.012120 22.000000
124.045780 40.000000
135.043930 24.000000
137.019260 41.000000
137.026670 35.000000
137.058440 36.000000
147.005580 26.000000
163.025560 24.000000
163.036820 125.000000
164.034760 53.000000
164.043320 54.000000
165.001250 32.000000
165.017320 2717.000000
165.423430 21.000000
166.008210 17.000000
166.022800 359.000000
167.022490 20.000000
177.057340 34.000000
179.030120 40.000000
181.062420 20.000000
191.030910 40.000000
191.139080 19.000000
192.038790 44.000000
205.036190 20.000000
211.031690 20.000000
213.050420 20.000000
221.082520 60.000000
221.543590 23.000000
222.072530 29.000000
237.057710 18.000000
266.086330 17.000000
283.055240 66.000000
301.071230 726.000000
301.652890 22.000000
302.068270 41.000000
302.078890 54.000000
303.031370 29.000000
303.075410 17.000000
304.094420 23.000000
304.523500 17.000000
356.123350 20.000000
356.138760 17.000000
357.133450 2484.000000

>ms2peaks
137.021640 121.000000
138.023450 18.000000
150.026380 24.000000
153.059140 25.000000
165.050420 18.000000
205.070790 19.000000
205.083850 46.000000
301.030460 17.000000
301.071010 151.000000
302.092560 27.000000
357.124690 84.000000
357.142030 185.000000
357.205960 18.000000

