>compound PR55629484
>parentmass 203.081504
>ionization [M+H]+
>formula C11H10N2O2
>rt 205.432020
>profile qtof
#smiles_iso C1CN2C(=NC3=CC=CC=C3C2=O)C1O
#smiles_can C1CN2C(=NC3=CC=CC=C3C2=O)C1O
#inchikey SDIVYZXRQHWCKF-UHFFFAOYSA-N
#pubchem_id 10242
#mb_accession PR301352,PR301356,PR301360,PR301364,PR301368,PR301372,PR301376,PR301380,PR301384,PR301388,PR301392,PR301396

>ms2peaks
77.039150 8.000000
82.029620 47.000000
115.051350 5.000000
116.053270 6.000000
130.026950 6.000000
130.060670 7.000000
130.068190 25.000000
131.051380 6.000000
140.046480 15.000000
140.052660 5.000000
155.055860 6.000000
155.062410 6.000000
157.071330 11.000000
157.079420 23.000000
158.060640 11.000000
158.070040 8.000000
158.079670 8.000000
167.059200 38.000000
168.063870 8.000000
184.063400 31.000000
185.072050 938.000000
186.074660 97.000000
186.082600 26.000000
187.077000 9.000000
203.083280 1000.000000
203.124850 14.000000

>ms2peaks
185.071300 151.000000
186.069370 7.000000
186.077670 12.000000
203.040710 6.000000
203.082140 1000.000000
203.122510 23.000000

>ms2peaks
54.026600 5.000000
54.034180 11.000000
77.033720 11.000000
77.041180 69.000000
82.029390 275.000000
83.033390 11.000000
90.036260 6.000000
92.048620 8.000000
102.033250 31.000000
103.038380 20.000000
103.055220 55.000000
104.052700 20.000000
104.884090 6.000000
105.034320 34.000000
105.052710 5.000000
113.037450 13.000000
115.052890 28.000000
115.059030 16.000000
116.048930 19.000000
117.041920 8.000000
117.051190 16.000000
117.058200 20.000000
118.063710 27.000000
120.046540 9.000000
122.786440 8.000000
128.048170 77.000000
128.053250 45.000000
129.048390 12.000000
129.061600 40.000000
130.028310 14.000000
130.036390 7.000000
130.051420 9.000000
130.064940 397.000000
131.044950 7.000000
131.052190 8.000000
131.064640 16.000000
131.070940 14.000000
140.024750 6.000000
140.049390 170.000000
141.046020 8.000000
141.055220 23.000000
142.061490 17.000000
143.072780 38.000000
144.041080 8.000000
144.048950 13.000000
145.033390 8.000000
145.041370 14.000000
155.060910 59.000000
156.068420 77.000000
157.075440 159.000000
158.058910 161.000000
158.081100 10.000000
159.067950 10.000000
167.061290 226.000000
168.043670 26.000000
168.060940 32.000000
168.069020 11.000000
183.059880 22.000000
184.046690 15.000000
184.065140 190.000000
185.071640 1000.000000
186.055070 14.000000
186.076140 116.000000
187.081210 19.000000
203.077500 13.000000

>ms2peaks
55.039680 74.000000
65.030270 70.000000
65.038500 62.000000
75.023790 147.000000
76.030140 74.000000
77.045150 140.000000
79.059010 74.000000
82.030720 147.000000
92.045380 92.000000
94.851420 103.000000
101.035430 224.000000
102.030750 228.000000
103.044030 213.000000
104.048620 213.000000
105.033350 272.000000
117.047700 74.000000
118.050510 62.000000
118.059340 85.000000
128.039030 107.000000
128.050960 169.000000
128.065660 114.000000
129.053880 77.000000
130.035980 66.000000
130.064270 1000.000000
131.067200 176.000000
140.038670 99.000000
140.045930 70.000000
144.072430 81.000000
155.061660 114.000000
156.071380 125.000000
157.073530 62.000000
158.080250 77.000000
168.070800 66.000000
183.050540 103.000000
185.071490 232.000000
186.070540 125.000000
203.075730 136.000000
203.089920 81.000000

>ms2peaks
77.035190 6.000000
77.041080 6.000000
82.029430 46.000000
115.053910 5.000000
115.059820 5.000000
116.050210 8.000000
128.047840 14.000000
129.043290 6.000000
130.064650 51.000000
140.047530 6.000000
140.053420 12.000000
143.075880 7.000000
155.060410 18.000000
156.066620 5.000000
156.074100 7.000000
157.071810 20.000000
157.078310 18.000000
158.062620 27.000000
167.059510 49.000000
168.062590 8.000000
184.057370 13.000000
184.065950 26.000000
185.036330 9.000000
185.071440 870.000000
186.075550 154.000000
187.076000 7.000000
203.082730 1000.000000
203.123310 14.000000

>ms2peaks
185.070650 145.000000
186.073780 18.000000
203.081410 1000.000000
203.122020 27.000000

>ms2peaks
54.032170 8.000000
54.037010 15.000000
76.167140 6.000000
77.035200 12.000000
77.041830 62.000000
79.052180 6.000000
82.025150 95.000000
82.031460 139.000000
91.038480 6.000000
92.048820 9.000000
92.056080 9.000000
102.034070 21.000000
102.041970 7.000000
103.023900 6.000000
103.054420 23.000000
103.060920 26.000000
104.047260 6.000000
104.051160 14.000000
105.031720 12.000000
113.032520 8.000000
115.022320 6.000000
115.050800 10.000000
115.058340 54.000000
116.048740 35.000000
116.061450 8.000000
117.055680 26.000000
117.064380 12.000000
119.490380 6.000000
120.040660 7.000000
128.050050 64.000000
129.043580 31.000000
129.062300 6.000000
130.023990 6.000000
130.032990 11.000000
130.064500 348.000000
130.641780 6.000000
131.048220 9.000000
131.062810 8.000000
131.074140 28.000000
140.032970 10.000000
140.048320 122.000000
140.060590 25.000000
141.048920 7.000000
141.059080 11.000000
142.058140 22.000000
142.067370 14.000000
143.049060 10.000000
143.067210 25.000000
143.074080 26.000000
144.040530 10.000000
144.049150 6.000000
145.042630 7.000000
145.051100 26.000000
155.052540 20.000000
155.061080 22.000000
155.071140 11.000000
155.181500 6.000000
156.053100 9.000000
156.068420 42.000000
157.060750 9.000000
157.072880 99.000000
157.082670 66.000000
158.038220 8.000000
158.059720 231.000000
158.078450 13.000000
158.623790 7.000000
167.038790 12.000000
167.064680 163.000000
168.044250 14.000000
168.053820 26.000000
168.066990 26.000000
169.076720 9.000000
183.050260 8.000000
183.064440 9.000000
184.062290 134.000000
185.047930 13.000000
185.070130 1000.000000
186.070540 92.000000
186.081500 60.000000
187.080900 16.000000
203.073120 11.000000

>ms2peaks
63.027720 150.000000
76.032620 275.000000
77.037260 170.000000
77.590140 111.000000
82.030370 464.000000
89.040540 118.000000
102.032230 353.000000
102.042230 157.000000
103.056880 542.000000
113.044090 163.000000
114.036030 216.000000
117.049580 124.000000
117.058940 118.000000
118.054020 176.000000
118.065470 131.000000
118.254660 111.000000
119.059480 111.000000
120.045320 275.000000
128.044390 111.000000
128.054290 137.000000
130.067090 1000.000000
131.069840 111.000000
140.050340 242.000000
141.059680 405.000000
155.049160 118.000000
155.058720 157.000000
156.064360 144.000000
166.040630 118.000000
186.077290 163.000000
203.091800 144.000000

>ms2peaks
77.040110 9.000000
82.028900 58.000000
102.033060 6.000000
103.053440 6.000000
128.046310 11.000000
129.058180 5.000000
130.065670 45.000000
140.049680 18.000000
155.062740 6.000000
157.076660 38.000000
158.060760 37.000000
167.053130 9.000000
167.062680 24.000000
168.064270 5.000000
168.075470 5.000000
184.062060 30.000000
185.041310 11.000000
185.071640 909.000000
186.074620 114.000000
187.076290 17.000000
203.082720 1000.000000
203.122040 13.000000

>ms2peaks
185.071670 148.000000
186.075390 21.000000
203.082170 1000.000000
203.122380 25.000000

>ms2peaks
54.032440 13.000000
67.044320 6.000000
77.040280 49.000000
82.028820 272.000000
83.031750 11.000000
85.194260 5.000000
92.048630 13.000000
102.032170 24.000000
103.044520 11.000000
103.053050 13.000000
103.058470 8.000000
104.025570 6.000000
104.047790 11.000000
104.058590 7.000000
105.029660 9.000000
107.032780 7.000000
115.055600 64.000000
116.044550 6.000000
116.049590 7.000000
116.059940 9.000000
117.055500 6.000000
117.064180 8.000000
120.044730 16.000000
128.048740 50.000000
129.043530 13.000000
129.051680 6.000000
129.061100 12.000000
130.032900 23.000000
130.048420 6.000000
130.065380 335.000000
131.049240 18.000000
131.070650 38.000000
140.048780 121.000000
141.054210 12.000000
142.051970 16.000000
142.064270 31.000000
143.065610 6.000000
143.076000 36.000000
144.044020 10.000000
145.035960 14.000000
145.047040 16.000000
145.054490 9.000000
155.061780 51.000000
156.068500 92.000000
157.072190 91.000000
157.079930 74.000000
158.060390 151.000000
158.079830 21.000000
159.067020 16.000000
167.060960 223.000000
168.040240 13.000000
168.054180 26.000000
168.065840 23.000000
169.057140 8.000000
169.064360 5.000000
183.053190 10.000000
184.063580 185.000000
185.037780 6.000000
185.071470 1000.000000
186.065990 29.000000
186.074920 113.000000
187.078990 9.000000

>ms2peaks
75.030280 117.000000
77.034390 177.000000
77.040110 198.000000
78.010700 113.000000
82.024310 60.000000
82.029970 60.000000
92.055910 71.000000
102.030640 240.000000
102.036380 187.000000
103.055800 64.000000
104.056340 64.000000
113.039060 71.000000
114.035650 64.000000
117.042710 92.000000
117.058180 60.000000
117.100140 88.000000
128.049510 74.000000
129.049300 60.000000
129.056920 141.000000
130.038760 88.000000
130.063030 1000.000000
130.071930 314.000000
140.040010 64.000000
140.054340 212.000000
146.098310 78.000000
155.058850 304.000000
156.043670 60.000000
157.075670 88.000000
184.071140 279.000000
186.082810 92.000000

