>compound PR56133415
>parentmass 551.1039
>ionization [M+H]+
>formula C24H22O15
>rt 253.200000
>profile qtof
#smiles_iso C1=CC(=C(C=C1C2=C(C(=O)C3=C(C=C(C=C3O2)O)O)OC4C(C(C(C(O4)COC(=O)CC(=O)O)O)O)O)O)O
#smiles_can C1=CC(=C(C=C1C2=C(C(=O)C3=C(C=C(C=C3O2)O)O)OC4C(C(C(C(O4)COC(=O)CC(=O)O)O)O)O)O)O
#inchikey NBQPHANHNTWDML-UHFFFAOYSA-N
#pubchem_id 14730813
#mb_accession PR310913

>ms2
54.981730 20.000000
73.029800 42.000000
80.013630 17.000000
81.031430 49.000000
82.037870 21.000000
84.016910 20.000000
85.028750 242.000000
86.034900 42.000000
87.005680 46.000000
87.011010 86.000000
91.036720 17.000000
97.030420 43.000000
99.042690 59.000000
99.048450 28.000000
100.049420 18.000000
105.013470 21.000000
107.015370 30.000000
109.027550 397.000000
114.192750 19.000000
117.017520 17.000000
122.751400 21.000000
123.050090 21.000000
127.038940 774.000000
128.041140 20.000000
129.011030 23.000000
129.020950 58.000000
129.045700 26.000000
137.015930 44.000000
145.049700 406.000000
145.142090 19.000000
146.043200 17.000000
146.053240 27.000000
146.157650 21.000000
147.029070 18.000000
148.031540 18.000000
150.034130 24.000000
150.116060 25.000000
153.014050 82.000000
159.001480 18.000000
159.028180 552.000000
160.035900 17.000000
165.897450 20.000000
175.142090 23.000000
175.253780 23.000000
177.025360 20.000000
183.028260 21.000000
190.263260 21.000000
197.923100 17.000000
201.056050 27.000000
213.045780 47.000000
229.051190 104.000000
231.019130 21.000000
231.032700 25.000000
231.048650 257.000000
232.040020 45.000000
247.051040 25.000000
247.062770 70.000000
249.064220 17.000000
256.950320 41.000000
257.037350 47.000000
257.045440 36.000000
257.394200 18.000000
258.059330 21.000000
279.716220 18.000000
285.041350 59.000000
285.888640 25.000000
288.699010 18.000000
297.306340 18.000000
298.021360 18.000000
298.869080 17.000000
299.046690 18.000000
300.426640 18.000000
301.155060 17.000000
301.627530 22.000000
302.033020 25.000000
302.047210 19.000000
302.856840 22.000000
302.981930 43.000000
302.997040 42.000000
303.016820 59.000000
303.049930 14904.000000
303.670930 20.000000
304.008030 24.000000
304.053130 2751.000000
305.054690 499.000000
305.145320 17.000000
306.044280 18.000000
306.286930 17.000000
306.810820 18.000000
307.096310 17.000000
308.640620 31.000000
323.820920 19.000000
328.041350 24.000000
341.373960 17.000000
345.052640 30.000000
345.069890 20.000000
361.724700 45.000000
369.071140 30.000000
383.059690 18.000000
384.866760 17.000000
399.196440 20.000000
404.048030 23.000000
411.073210 33.000000
411.093600 24.000000
429.099520 17.000000
533.092590 19.000000
547.062010 18.000000
549.077330 29.000000
549.102910 18.000000
551.057190 65.000000
551.105040 4457.000000

