>compound PR56436466
>parentmass 165.0551
>ionization [M+H-H2O]+
>formula C9H10O4
>rt 230.400000
>profile qtof
#smiles_iso COC1=C(C=CC(=C1)CC(=O)O)O
#smiles_can COC1=C(C=CC(=C1)CC(=O)O)O
#inchikey QRMZSPFSDQBLIX-UHFFFAOYSA-N
#pubchem_id 1738
#mb_accession PR311155

>ms2peaks
77.039190 18.000000
79.048720 22.000000
79.055910 32.000000
81.045970 17.000000
85.028690 16.000000
91.060610 41.000000
92.055100 18.000000
93.063100 16.000000
93.070610 40.000000
105.030970 26.000000
133.027710 16.000000
137.061800 73.000000
137.095950 21.000000
165.052190 628.000000

