>compound PR56053595
>parentmass 415.1208
>ionization [M+H]+
>formula C14H26N2O8S2
>rt 197.400000
>profile qtof
#smiles_iso CCSSCC(C(=O)NCCC(=O)O)NCC1(C(C(C(CO1)O)O)O)O
#smiles_can CCSSCC(C(=O)NCCC(=O)O)NCC1(C(C(C(CO1)O)O)O)O
#inchikey PFYVANXTRYLUEB-UHFFFAOYSA-N
#pubchem_id 139292007
#mb_accession PR310819

>ms2
87.037540 25.000000
114.055470 17.000000
124.017610 16.000000
127.035000 17.000000
130.051650 191.000000
136.074690 17.000000
157.067660 25.000000
162.019450 22.000000
162.026140 18.000000
199.025480 21.000000
202.002150 19.000000
202.078080 20.000000
203.076710 16.000000
204.079240 29.000000
233.157060 20.000000
241.076020 16.000000
253.071730 38.000000
253.082310 16.000000
255.069050 18.000000
257.017550 17.000000
282.180790 16.000000
285.054660 17.000000
286.056090 24.000000
317.654790 23.000000
331.071500 33.000000
331.094020 33.000000
332.082090 43.000000
361.032040 19.000000
361.085780 53.000000
361.100770 21.000000
361.116790 20.000000
362.094270 16.000000
379.079470 16.000000
379.103670 77.000000
381.098360 17.000000
396.038790 49.000000
397.085110 18.000000
397.108950 51.000000
397.129550 30.000000
415.087650 33.000000
415.112950 124.000000
415.130740 36.000000

