>compound PR56493482
>parentmass 815.2009
>ionization [M+H]+
>formula C38H38O20
>rt 294.000000
>profile qtof
#smiles_iso COC1=CC(=CC(=C1O)OC)C2=CC(=O)C3=C(C=C(C=C3O2)OC4C(C(C(C(O4)C(=O)O)O)O)OC5C(C(C(C(O5)COC(=O)/C=C/C6=CC=C(C=C6)O)O)O)O)O
#smiles_can COC1=CC(=CC(=C1O)OC)C2=CC(=O)C3=C(C=C(C=C3O2)OC4C(C(C(C(O4)C(=O)O)O)O)OC5C(C(C(C(O5)COC(=O)C=CC6=CC=C(C=C6)O)O)O)O)O
#inchikey BGFPUQODHQFMFB-VMPITWQZSA-N
#pubchem_id 139291794
#mb_accession PR310973

>ms2
177.059720 39.000000
245.074980 24.000000
291.085510 35.000000
309.091520 19.000000
315.052700 16.000000
331.087040 173.000000
383.074650 20.000000
507.115140 61.000000
539.192930 19.000000
815.213990 59.000000

