>compound PR56599904
>parentmass 294.1558
>ionization [M+H]+
>formula C12H23NO7
>rt 118.800000
>profile qtof
#smiles_iso CCC(C)C(C(=O)O)NCC1(C(C(C(O1)CO)O)O)O
#smiles_can CCC(C)C(C(=O)O)NCC1(C(C(C(O1)CO)O)O)O
#inchikey VYGRYVGDPYFVCA-UHFFFAOYSA-N
#pubchem_id 139292115
#mb_accession PR310824

>ms2peaks
69.033160 30.000000
81.036830 23.000000
85.029050 17.000000
85.087620 33.000000
86.097030 88.000000
87.031540 22.000000
88.035820 70.000000
97.033870 46.000000
99.035830 18.000000
101.023150 24.000000
111.042140 46.000000
112.037330 86.000000
113.044120 21.000000
123.039640 16.000000
127.034760 16.000000
128.110240 25.000000
129.112140 20.000000
132.100810 18.000000
132.105800 53.000000
143.056520 21.000000
144.104100 79.000000
152.099950 48.000000
152.106290 21.000000
153.106750 18.000000
161.070660 45.000000
165.105480 17.000000
170.117720 17.000000
174.101620 50.000000
182.117000 22.000000
194.118320 33.000000
203.852920 16.000000
212.117810 68.000000
212.127240 254.000000
213.133510 23.000000
220.087490 16.000000
230.110960 21.000000
230.136610 540.000000
230.151120 84.000000
231.142030 76.000000
232.129910 16.000000
248.153760 26.000000
248.160390 42.000000
249.158260 20.000000
258.123600 136.000000
258.138030 467.000000
258.150020 104.000000
259.138580 138.000000
259.154940 34.000000
260.133910 22.000000
262.050930 17.000000
276.146480 1983.000000
276.166600 153.000000
277.149600 223.000000
278.153990 26.000000
278.162380 17.000000
294.160400 374.000000
294.188810 23.000000

