>compound PR56900341
>parentmass 481.0967
>ionization [M+H]+
>formula C21H20O13
>rt 223.200000
>profile qtof
#smiles_iso C1=CC(=C(C=C1C2=C(C(=O)C3=C(C(=C(C=C3O2)OC4C(C(C(C(O4)CO)O)O)O)O)O)O)O)O
#smiles_can C1=CC(=C(C=C1C2=C(C(=O)C3=C(C(=C(C=C3O2)OC4C(C(C(C(O4)CO)O)O)O)O)O)O)O)O
#inchikey IDTDRZPBDLMCLB-UHFFFAOYSA-N
#pubchem_id 12314844
#mb_accession PR310908

>ms2peaks
81.036470 18.000000
97.027950 23.000000
111.000950 18.000000
127.037940 20.000000
153.025250 18.000000
153.046800 18.000000
154.024290 18.000000
165.013240 40.000000
165.021840 117.000000
176.470730 17.000000
177.059070 43.000000
187.035900 20.000000
199.031810 22.000000
255.030550 18.000000
261.042820 20.000000
273.035920 76.000000
291.045100 22.000000
301.023100 43.000000
319.043820 2349.000000
320.042420 294.000000
320.055540 315.000000
321.000980 17.000000
321.033170 18.000000
321.050720 120.000000
322.052250 20.000000
362.037900 18.000000
480.168850 17.000000
481.096440 99.000000

