>compound PR56950565
>parentmass 183.091674608
>ionization [M+H]+
>formula C12H10N2
>rt 221.795059
>profile qtof
#smiles_iso CC1=NC=CC2=C1NC3=CC=CC=C23
#smiles_can CC1=NC=CC2=C1NC3=CC=CC=C23
#inchikey PSFDQSOCUJVVGF-UHFFFAOYSA-N
#pubchem_id 5281404
#mb_accession PR301031,PR301036,PR301041,PR301046,PR301051,PR301056,PR301061,PR301066,PR301071,PR301076,PR301081,PR301086,PR301540,PR301544,PR301548,PR301552,PR301555,PR301559,PR301563,PR301567,PR301571,PR301575,PR301579,PR301583,PR310546

>ms2peaks
115.055040 81.000000
116.060170 6.000000
142.066470 17.000000
167.057270 7.000000
168.068570 29.000000
182.079390 10.000000
182.087750 17.000000
183.091740 1000.000000
183.129580 25.000000

>ms2peaks
183.091810 1000.000000
183.129750 40.000000

>ms2peaks
89.040650 7.000000
115.025110 5.000000
115.054340 1000.000000
116.058010 114.000000
118.069640 6.000000
127.055170 8.000000
128.061110 10.000000
129.070080 22.000000
130.069530 8.000000
140.043750 8.000000
140.054730 18.000000
141.057360 44.000000
142.064930 67.000000
143.066800 6.000000
154.068770 42.000000
155.070560 15.000000
155.078780 10.000000
156.085690 24.000000
166.065440 13.000000
167.062300 48.000000
167.070560 11.000000
168.068210 227.000000
169.069050 22.000000
181.077680 27.000000
182.085980 146.000000
183.092210 736.000000
183.147370 5.000000

>ms2peaks
71.756190 24.000000
79.295430 21.000000
87.018860 24.000000
89.042900 205.000000
90.045390 19.000000
114.042980 38.000000
114.048650 91.000000
115.055660 1000.000000
116.051660 33.000000
116.061620 112.000000
117.060900 72.000000
127.043890 22.000000
128.063400 52.000000
129.053040 52.000000
140.048400 18.000000
140.055970 76.000000
141.058140 72.000000
141.804080 19.000000
142.059770 42.000000
152.547900 21.000000
154.067690 40.000000
154.080520 51.000000
155.061080 33.000000
155.075900 26.000000
167.058990 22.000000
168.057420 19.000000
168.065370 54.000000
169.075130 31.000000
179.058560 33.000000
181.061900 22.000000
183.086410 60.000000

>ms2peaks
115.054210 71.000000
116.057720 7.000000
142.066020 12.000000
167.064500 6.000000
168.069210 23.000000
182.080640 8.000000
182.089870 11.000000
183.092330 1000.000000
183.130800 32.000000

>ms2peaks
183.090970 1000.000000
183.129380 40.000000

>ms2peaks
89.034180 6.000000
90.050930 7.000000
114.048100 14.000000
115.037060 8.000000
115.054890 1000.000000
116.046950 8.000000
116.058230 111.000000
117.055270 6.000000
127.051540 7.000000
127.058120 12.000000
128.060350 35.000000
129.067870 29.000000
129.074520 8.000000
140.050490 68.000000
141.056290 18.000000
142.066500 118.000000
143.070470 16.000000
154.064700 49.000000
155.062880 10.000000
155.074580 10.000000
156.067630 5.000000
156.080280 30.000000
158.088850 5.000000
166.061570 13.000000
167.045060 5.000000
167.060150 27.000000
168.038990 7.000000
168.069230 228.000000
169.054760 6.000000
169.067370 13.000000
169.075090 19.000000
181.072560 23.000000
181.081530 13.000000
182.084530 147.000000
183.069490 7.000000
183.092380 887.000000

>ms2peaks
63.020490 18.000000
65.014600 25.000000
65.041660 15.000000
74.018700 15.000000
75.022090 22.000000
89.043350 17.000000
89.048000 15.000000
90.044720 15.000000
93.057010 38.000000
104.036180 20.000000
114.051830 44.000000
115.055270 1000.000000
115.295710 46.000000
115.982510 17.000000
116.050870 22.000000
116.058270 37.000000
117.052830 38.000000
128.037200 15.000000
128.058180 43.000000
129.074390 15.000000
130.058470 20.000000
140.047710 151.000000
141.056170 15.000000
142.067500 20.000000
154.065230 196.000000
156.078740 40.000000
167.053860 31.000000
167.061310 20.000000
168.070860 56.000000
170.068740 15.000000
179.055860 34.000000
181.075180 32.000000
182.076200 88.000000
182.090150 62.000000
183.092560 115.000000

>ms2peaks
115.054820 80.000000
116.055730 11.000000
142.071040 5.000000
168.067810 22.000000
182.083800 12.000000
183.091640 1000.000000
183.129990 30.000000

>ms2peaks
183.091920 1000.000000
183.130490 37.000000

>ms2peaks
89.036470 18.000000
114.045790 14.000000
115.054750 1000.000000
116.057770 134.000000
117.063260 14.000000
127.055340 22.000000
128.052440 14.000000
128.060580 13.000000
129.067570 21.000000
129.074650 7.000000
130.070500 9.000000
139.051030 7.000000
140.050450 65.000000
141.051680 25.000000
141.059420 28.000000
142.047350 6.000000
142.066180 119.000000
143.070650 7.000000
154.062230 44.000000
154.073360 16.000000
155.064360 12.000000
156.071040 6.000000
156.081300 19.000000
156.087570 9.000000
166.059050 17.000000
166.069610 14.000000
167.062390 46.000000
167.070080 19.000000
167.082520 5.000000
168.054980 19.000000
168.069270 221.000000
169.050990 5.000000
169.061860 9.000000
169.071820 21.000000
181.066350 15.000000
181.078870 30.000000
181.091830 7.000000
182.083940 125.000000
183.067840 13.000000
183.092930 800.000000

>ms2peaks
65.041720 25.000000
87.022860 15.000000
89.033330 52.000000
89.042070 21.000000
112.032970 31.000000
114.029530 19.000000
114.046410 37.000000
115.039470 36.000000
115.054890 1000.000000
116.051350 66.000000
116.059940 61.000000
116.065750 20.000000
117.058580 15.000000
117.068790 26.000000
126.044900 40.000000
127.054870 16.000000
128.053280 16.000000
128.061260 39.000000
140.050160 115.000000
140.057130 45.000000
141.050020 18.000000
142.062680 24.000000
153.054670 15.000000
154.049960 18.000000
154.066650 99.000000
166.048400 24.000000
166.059570 21.000000
167.059200 15.000000
168.031270 21.000000
168.071660 53.000000
181.070470 17.000000
181.083300 19.000000
182.082600 48.000000
182.093720 21.000000
183.076390 32.000000
183.089810 43.000000

>ms2peaks
115.054240 80.000000
116.058270 8.000000
142.064760 17.000000
167.058900 8.000000
168.067550 21.000000
182.085390 17.000000
183.092000 1000.000000
183.130840 23.000000

>ms2peaks
183.058030 5.000000
183.091930 1000.000000
183.130260 38.000000

>ms2peaks
89.038090 16.000000
90.030140 6.000000
114.049660 8.000000
115.054590 1000.000000
115.083610 5.000000
116.056340 117.000000
117.063480 6.000000
128.061920 25.000000
129.071660 16.000000
130.074680 11.000000
140.048420 35.000000
141.058210 33.000000
142.052460 10.000000
142.064670 83.000000
142.070140 25.000000
143.058760 6.000000
143.067170 6.000000
154.056490 20.000000
154.064960 33.000000
155.075870 11.000000
156.083630 28.000000
166.051610 7.000000
166.059740 9.000000
166.069750 13.000000
167.061310 59.000000
168.057630 15.000000
168.070190 187.000000
169.072460 17.000000
170.069900 8.000000
181.045720 7.000000
181.069110 12.000000
181.076460 29.000000
181.084720 7.000000
182.069350 9.000000
182.081820 92.000000
182.090990 29.000000
183.066830 7.000000
183.092190 846.000000

>ms2peaks
77.041110 20.000000
89.032940 30.000000
89.045270 95.000000
102.035880 22.000000
113.036930 21.000000
114.037120 38.000000
114.864500 17.000000
115.054060 1000.000000
116.050420 108.000000
116.058480 127.000000
127.051480 29.000000
128.052320 20.000000
128.060460 27.000000
128.067310 20.000000
139.050520 17.000000
140.044080 24.000000
141.057980 41.000000
141.067860 40.000000
142.007430 17.000000
152.047100 36.000000
154.052860 24.000000
154.059810 17.000000
154.069930 21.000000
155.070010 22.000000
167.060620 20.000000
168.067750 145.000000
181.065050 30.000000
182.076490 64.000000
183.078170 36.000000
183.098390 19.000000
183.106890 37.000000

>ms2peaks
115.054950 69.000000
116.057360 8.000000
142.066990 15.000000
156.085490 7.000000
168.067900 25.000000
182.082240 19.000000
183.092120 1000.000000
183.130220 27.000000

>ms2peaks
183.091980 1000.000000
183.130550 36.000000

>ms2peaks
89.036720 5.000000
114.051540 6.000000
115.041970 8.000000
115.054630 1000.000000
116.041980 8.000000
116.057120 97.000000
117.063960 21.000000
127.056120 6.000000
128.048580 11.000000
128.058290 7.000000
128.067400 13.000000
129.068370 31.000000
130.072200 5.000000
140.051800 40.000000
141.058870 30.000000
142.065670 110.000000
143.071230 24.000000
154.064640 25.000000
155.074230 21.000000
156.075610 8.000000
156.082730 8.000000
157.085170 11.000000
166.062060 10.000000
167.055250 21.000000
167.065830 31.000000
168.069520 177.000000
169.068500 26.000000
181.077290 32.000000
182.086530 133.000000
183.059660 5.000000
183.069980 11.000000
183.093090 809.000000

>ms2peaks
75.021000 18.000000
76.032420 17.000000
89.021280 21.000000
89.040990 24.000000
113.038380 21.000000
115.055250 1000.000000
115.202490 17.000000
116.043370 15.000000
116.049360 37.000000
116.055350 70.000000
116.060740 23.000000
117.059570 24.000000
126.052440 25.000000
127.044750 26.000000
128.067200 40.000000
138.036610 45.000000
140.042370 18.000000
140.051350 47.000000
140.058670 47.000000
141.042560 25.000000
141.058240 19.000000
142.050220 25.000000
154.041630 28.000000
154.065250 47.000000
155.075210 45.000000
166.049010 25.000000
166.056840 19.000000
167.073640 17.000000
168.055080 21.000000
168.068190 101.000000
168.078640 26.000000
181.068070 49.000000
181.077470 17.000000
181.090030 26.000000
182.086720 21.000000
183.091340 135.000000

>ms2peaks
115.054470 78.000000
140.051480 6.000000
142.066620 9.000000
154.067750 6.000000
168.069700 17.000000
182.086700 21.000000
183.091920 1000.000000
183.130230 29.000000

>ms2peaks
183.092010 1000.000000
183.130620 32.000000

>ms2peaks
89.036420 11.000000
114.045510 14.000000
115.055190 1000.000000
116.055260 110.000000
116.062290 36.000000
117.058070 11.000000
128.050580 5.000000
128.062180 25.000000
129.064180 9.000000
129.069670 22.000000
130.071370 13.000000
140.038360 10.000000
140.052000 39.000000
141.058880 57.000000
142.052060 5.000000
142.064540 99.000000
143.078460 7.000000
154.068150 23.000000
155.076250 32.000000
155.083400 6.000000
156.080810 44.000000
167.061200 40.000000
168.048860 11.000000
168.070040 173.000000
169.064330 13.000000
169.075090 14.000000
181.077650 39.000000
182.083570 144.000000
183.054150 5.000000
183.091800 847.000000

>ms2peaks
89.030170 52.000000
89.045250 44.000000
101.039770 93.000000
113.034290 40.000000
115.031000 30.000000
115.037540 55.000000
115.054040 1000.000000
115.065050 100.000000
116.051210 67.000000
117.061110 48.000000
117.069980 26.000000
128.051390 57.000000
128.066010 27.000000
129.061160 31.000000
129.075090 55.000000
130.063230 29.000000
140.050960 51.000000
141.060270 34.000000
142.052260 38.000000
142.067990 51.000000
154.064480 71.000000
154.069610 31.000000
155.064640 27.000000
167.054140 25.000000
167.069400 41.000000
167.077270 33.000000
168.058670 41.000000
168.066440 23.000000
181.066330 31.000000
181.075610 27.000000
182.085160 27.000000
183.075550 33.000000
183.089630 85.000000

>ms2peaks
66.036420 22.000000
89.039590 22.000000
111.810390 33.000000
114.043610 35.000000
115.030770 60.000000
115.055040 2839.000000
115.097060 29.000000
116.053260 135.000000
116.060170 227.000000
117.049710 48.000000
117.334430 27.000000
127.049030 36.000000
128.022190 56.000000
128.055040 41.000000
128.065870 80.000000
129.058180 42.000000
129.065810 53.000000
130.069200 27.000000
139.052760 47.000000
140.048610 62.000000
140.054980 41.000000
140.816150 28.000000
141.052370 38.000000
141.056780 95.000000
141.982760 17.000000
142.066470 587.000000
143.068590 24.000000
143.074690 18.000000
145.540080 20.000000
148.320600 17.000000
148.862950 22.000000
150.926070 17.000000
152.044170 20.000000
154.069820 62.000000
154.926220 30.000000
155.066220 18.000000
155.073030 25.000000
156.081560 112.000000
156.476470 21.000000
159.640840 21.000000
166.063130 57.000000
167.057270 228.000000
167.072400 132.000000
167.557660 43.000000
168.055250 60.000000
168.068570 1000.000000
169.069720 67.000000
169.078570 22.000000
173.319600 20.000000
180.300130 18.000000
181.071470 72.000000
181.079010 47.000000
181.506210 29.000000
182.079390 334.000000
182.087750 580.000000
182.254150 17.000000
182.702070 27.000000
182.933430 20.000000
182.945280 17.000000
182.956600 17.000000
183.038650 47.000000
183.050870 38.000000
183.063800 44.000000
183.091740 35017.000000
183.129580 889.000000
183.164900 18.000000
183.253630 18.000000
183.277690 20.000000

