>compound PR56600960
>parentmass 883.4647
>ionization [M+H]+
>formula C45H70O17
>rt 442.800000
>profile qtof
#smiles_iso CC1C2C(CC3C2(CCC4C3CC=C5C4(CCC(C5)OC6C(C(C(C(O6)CO)O)O)OC7C(C(C(C(O7)C)O)O)O)C)C)OC18CCC(CO8)COC(=O)CC(C)(CC(=O)O)O
#smiles_can CC1C2C(CC3C2(CCC4C3CC=C5C4(CCC(C5)OC6C(C(C(C(O6)CO)O)O)OC7C(C(C(C(O7)C)O)O)O)C)C)OC18CCC(CO8)COC(=O)CC(C)(CC(=O)O)O
#inchikey KRFYMPRAIPKTAI-UHFFFAOYSA-N
#pubchem_id 14633180
#mb_accession PR310705

>ms2peaks
109.061510 19.000000
128.040620 21.000000
129.053770 51.000000
147.065160 49.000000
163.061940 26.000000
193.077640 17.000000
229.905120 17.000000
240.118580 17.000000
275.109440 22.000000
276.108400 17.000000
281.176730 26.000000
384.276030 24.000000
411.271820 20.000000
411.310670 19.000000
412.299680 27.000000
429.281130 19.000000
429.297150 73.000000
429.323240 20.000000
430.333160 19.000000
573.321350 20.000000
574.344670 18.000000
579.664120 17.000000
583.478640 21.000000
591.360780 18.000000
592.351560 29.000000
592.374820 19.000000
721.386290 17.000000
733.386350 25.000000
737.438960 18.000000
738.452270 21.000000
779.385930 23.000000
865.455870 17.000000
883.428040 95.000000
883.465390 392.000000
883.505980 96.000000

