>compound PR57937731
>parentmass 227.1287
>ionization [M+H]+
>formula C12H18O4
>rt 203.400000
>profile qtof
#smiles_iso C1CC(=O)C(C1CC(=O)O)CC=CCCO
#smiles_can C1CC(=O)C(C1CC(=O)O)CC=CCCO
#inchikey RZGFUGXQKMEMOO-UHFFFAOYSA-N
#pubchem_id 69604805
#mb_accession PR310789

>ms2peaks
50.091650 19.000000
84.049970 24.000000
85.059930 29.000000
93.070870 27.000000
109.026330 34.000000
117.072140 20.000000
123.043690 21.000000
125.069460 30.000000
131.085720 64.000000
137.056370 17.000000
146.105290 17.000000
167.108310 73.000000
168.912960 23.000000
174.092800 18.000000
191.111150 20.000000
192.111310 20.000000
209.116810 89.000000
209.125210 47.000000
210.126040 22.000000
227.132060 34.000000

