>compound PR57615319
>parentmass 333.0608
>ionization [M+H]+
>formula C16H12O8
>rt 322.200000
>profile qtof
#smiles_iso COC1=CC(=CC(=C1O)O)C2=C(C(=O)C3=C(C=C(C=C3O2)O)O)O
#smiles_can COC1=CC(=CC(=C1O)O)C2=C(C(=O)C3=C(C=C(C=C3O2)O)O)O
#inchikey CFYMYCCYMJIYAB-UHFFFAOYSA-N
#pubchem_id 5282154
#mb_accession PR310902

>ms2peaks
111.008360 17.000000
125.055000 17.000000
139.043950 21.000000
152.015380 18.000000
153.016890 17.000000
154.025890 17.000000
161.026790 17.000000
167.043580 18.000000
188.051060 36.000000
189.059230 18.000000
195.036000 36.000000
205.050090 17.000000
208.043520 20.000000
212.757220 20.000000
216.024690 20.000000
216.033810 20.000000
217.041060 44.000000
219.028410 53.000000
234.017410 21.000000
245.037930 17.000000
246.055340 18.000000
258.057190 27.000000
259.067900 20.000000
273.047730 20.000000
287.057280 21.000000
289.041900 23.000000
291.083470 19.000000
300.135680 20.000000
301.037260 19.000000
302.047730 42.000000
304.060520 41.000000
318.031980 73.000000
324.690550 17.000000
331.047060 20.000000
333.022190 22.000000
333.060000 1217.000000

