>compound PR57313924
>parentmass 767.4545
>ionization [M+H]+
>formula C41H66O13
>rt 446.400000
>profile qtof
#smiles_iso CC1(CC2C3=CCC4C5(CCC(C(C5CCC4(C3(CCC2(C(C1)O)C)C)C)(C)CO)OC6C(C(C(C(O6)C(=O)O)O)O)OC7C(C(C(CO7)O)O)O)C)C
#smiles_can CC1(CC2C3=CCC4C5(CCC(C(C5CCC4(C3(CCC2(C(C1)O)C)C)C)(C)CO)OC6C(C(C(C(O6)C(=O)O)O)O)OC7C(C(C(CO7)O)O)O)C)C
#inchikey LASVNNIDKPXXMG-UHFFFAOYSA-N
#pubchem_id 71264311
#mb_accession PR310660

>ms2
134.053890 18.000000
159.029040 18.000000
163.152740 24.000000
173.135010 23.000000
177.160920 28.000000
185.126310 21.000000
209.118000 20.000000
217.198270 24.000000
233.105410 18.000000
233.200820 18.000000
257.222110 17.000000
269.225590 23.000000
289.163790 25.000000
291.065030 20.000000
295.246580 17.000000
383.334050 41.000000
405.343540 27.000000
423.353490 109.000000
423.370540 62.000000
424.351500 18.000000
424.385440 18.000000
441.361880 25.000000
441.383880 61.000000
442.381040 73.000000
461.272280 29.000000
584.395020 17.000000
599.384400 17.000000
617.390140 20.000000
617.402530 39.000000
618.424930 19.000000
635.382390 23.000000
635.418270 23.000000
635.442990 38.000000
636.399780 17.000000
767.416020 18.000000
767.447080 141.000000
767.474790 229.000000

