>compound PR57169620
>parentmass 325.1137
>ionization [M+H-H2O]+
>formula C12H22O11
>rt 104.400000
>profile qtof
#smiles_iso C(C1C(C(C(C(O1)OCC2C(C(C(O2)(CO)O)O)O)O)O)O)O
#smiles_can C(C1C(C(C(C(O1)OCC2C(C(C(O2)(CO)O)O)O)O)O)O)O
#inchikey PVXPPJIGRGXGCY-UHFFFAOYSA-N
#pubchem_id 3749604
#mb_accession PR310692

>ms2peaks
85.024480 33.000000
85.030270 119.000000
85.036610 34.000000
86.032120 17.000000
87.039210 21.000000
88.028980 28.000000
97.033290 56.000000
106.038670 22.000000
109.028500 23.000000
119.052390 24.000000
123.053090 20.000000
127.030130 28.000000
127.036650 102.000000
127.046000 87.000000
128.050200 22.000000
145.050920 297.000000
148.079880 37.000000
163.053310 27.000000
163.063390 142.000000
164.060960 23.000000
168.073460 28.000000
214.069610 16.000000
214.084180 46.000000
215.070860 17.000000
230.073850 23.000000
261.101350 21.000000
272.008180 21.000000
272.083280 16.000000
279.107270 20.000000
289.088930 42.000000
290.093290 25.000000
324.097500 21.000000
325.118290 71.000000

