>compound PR57128008
>parentmass 165.05462059999996
>ionization [M+H]+
>formula C9H8O3
>rt 264.904020
>profile qtof
#smiles_iso C1=CC(=CC(=C1)O)/C=C/C(=O)O
#smiles_can C1=CC(=CC(=C1)O)C=CC(=O)O
#inchikey KKSDGJDHHZEWEP-SNAWJCMRSA-N
#pubchem_id 637541
#mb_accession PR302005,PR302011,PR302017,PR302023,PR302029,PR302035,PR302041,PR302052,PR302058,PR302064

>ms2
119.043840 110.000000
125.960280 99.000000
147.026000 154.000000
147.042050 1000.000000
147.052900 511.000000
148.052380 137.000000

>ms2
119.047490 95.000000
126.948520 56.000000
147.044200 1000.000000
147.056430 277.000000
163.030060 43.000000
165.062290 97.000000

>ms2
91.056230 1000.000000
119.045640 763.000000

>ms2
75.019300 1000.000000

>ms2
92.054310 137.000000
95.090070 85.000000
119.043720 89.000000
119.050640 101.000000
147.042570 1000.000000
147.053820 60.000000

>ms2
126.948910 52.000000
139.044330 31.000000
147.044020 1000.000000
148.044170 87.000000
165.056870 32.000000

>ms2
91.053890 1000.000000
92.057880 350.000000

>ms2
77.032870 105.000000
119.049960 690.000000
119.970750 246.000000
120.053340 129.000000
125.966840 181.000000
147.041320 1000.000000
148.041520 345.000000
148.050540 339.000000

>ms2
103.048810 49.000000
119.042030 59.000000
147.029570 207.000000
147.045070 1000.000000
148.049260 345.000000
164.036820 61.000000
164.044780 68.000000
165.055080 97.000000

>ms2
91.047550 186.000000
91.055380 1000.000000
119.048130 206.000000

