>compound PR57430567
>parentmass 773.2156
>ionization [M+H]+
>formula C33H40O21
>rt 177.000000
>profile qtof
#smiles_iso CC1C(C(C(C(O1)OC2=CC(=C3C(=C2)OC(=C(C3=O)OC4C(C(C(C(O4)CO)O)O)OC5C(C(C(C(O5)CO)O)O)O)C6=CC(=C(C=C6)O)O)O)O)O)O
#smiles_can CC1C(C(C(C(O1)OC2=CC(=C3C(=C2)OC(=C(C3=O)OC4C(C(C(C(O4)CO)O)O)OC5C(C(C(C(O5)CO)O)O)O)C6=CC(=C(C=C6)O)O)O)O)O)O
#inchikey CAXLTZYEJPQCKD-UHFFFAOYSA-N
#pubchem_id 74978168
#mb_accession PR310936

>ms2peaks
133.053310 18.000000
190.071670 18.000000
285.113920 18.000000
302.095250 18.000000
303.046540 296.000000
303.070100 45.000000
304.016570 16.000000
304.050810 90.000000
304.068330 41.000000
305.055240 20.000000
351.966890 19.000000
449.111300 36.000000
449.129150 17.000000
459.131410 21.000000
465.101100 248.000000
465.132720 22.000000
466.089260 28.000000
466.115970 103.000000
611.166690 20.000000
627.153440 45.000000
627.181270 16.000000
771.386110 16.000000
773.150020 29.000000
773.200130 17.000000
773.233890 38.000000
773.262880 16.000000

