>compound PR57695828
>parentmass 625.1763114000001
>ionization [M+H]+
>formula C28H32O16
>rt 250.285980
>profile qtof
#smiles_iso C[C@H]1[C@@H]([C@H]([C@H]([C@@H](O1)OC[C@@H]2[C@@H]([C@@H]([C@H]([C@@H](O2)OC3=C(OC4=CC(=CC(=C4C3=O)O)O)C5=CC(=C(C=C5)O)OC)O)O)O)O)O)O
#smiles_can CC1C(C(C(C(O1)OCC2C(C(C(C(O2)OC3=C(OC4=CC(=CC(=C4C3=O)O)O)C5=CC(=C(C=C5)O)OC)O)O)O)O)O)O
#inchikey UIDGLYUNOUKLBM-ZLADREHTSA-N
#pubchem_id 5487249
#mb_accession PR303204,PR303209,PR303214,PR303219,PR303224,PR303229,PR303234,PR303239,PR303244,PR303249,PR303253,PR303258

>ms2peaks
86.036130 8.000000
129.052430 16.000000
147.070040 11.000000
165.002760 7.000000
200.068040 7.000000
224.511110 7.000000
305.282900 15.000000
317.004970 8.000000
317.034390 24.000000
317.064790 1000.000000
317.313110 7.000000
318.063480 64.000000
318.075230 97.000000
319.069850 38.000000
319.081180 16.000000
329.079220 8.000000
331.058750 7.000000
341.064610 15.000000
419.692810 6.000000
464.135890 10.000000
478.990720 11.000000
479.081940 6.000000
479.110440 68.000000
479.130830 21.000000
479.148590 9.000000
480.128080 37.000000
480.148590 9.000000
487.134860 7.000000
625.165830 14.000000
625.192630 94.000000

>ms2peaks
244.179550 27.000000
275.195770 21.000000
309.133300 16.000000
311.108730 20.000000
317.066440 1000.000000
318.059910 54.000000
318.069270 170.000000
319.027560 25.000000
319.076660 16.000000
320.083400 24.000000
330.159330 13.000000
384.304290 15.000000
455.919340 22.000000
463.132570 15.000000
479.053770 16.000000
479.119260 429.000000
479.133180 121.000000
480.099950 35.000000
480.121460 32.000000
480.133760 53.000000
482.143680 15.000000
620.636900 13.000000
625.130430 113.000000
625.169740 340.000000
625.186580 785.000000

>ms2peaks
61.019590 10.000000
71.046870 15.000000
72.048250 11.000000
80.407520 13.000000
85.013880 7.000000
85.025800 34.000000
85.030730 46.000000
111.713400 8.000000
129.051410 12.000000
129.059620 19.000000
147.069610 18.000000
198.080290 16.000000
205.539050 9.000000
261.079990 8.000000
302.052580 26.000000
317.016910 9.000000
317.041320 56.000000
317.065580 1000.000000
318.040220 18.000000
318.066530 46.000000
318.077580 179.000000
319.056790 14.000000
319.066440 39.000000
359.087920 8.000000
383.041960 9.000000
461.115140 15.000000

>ms2peaks
71.053940 20.000000
86.033570 22.000000
139.039230 43.000000
147.065000 24.000000
151.039110 69.000000
153.012390 33.000000
183.049330 29.000000
200.052990 30.000000
201.054440 33.000000
218.057980 26.000000
228.037310 21.000000
245.073380 40.000000
257.052400 29.000000
265.629700 22.000000
272.057830 17.000000
274.038090 55.000000
284.030490 41.000000
285.030090 22.000000
285.042630 48.000000
287.871580 26.000000
289.076600 20.000000
298.026890 46.000000
302.044830 243.000000
302.875090 19.000000
302.995480 25.000000
303.043370 20.000000
304.050480 26.000000
316.893400 25.000000
317.005040 24.000000
317.065340 1000.000000
318.065160 74.000000
318.078520 17.000000
319.072330 27.000000
327.035160 18.000000
329.076970 20.000000
359.072750 17.000000

>ms2peaks
75.043750 21.000000
85.026960 8.000000
98.028440 11.000000
103.377790 9.000000
129.053940 15.000000
135.052020 7.000000
198.796970 11.000000
214.841460 7.000000
229.056380 11.000000
273.094420 6.000000
274.045170 7.000000
298.506990 8.000000
317.016540 7.000000
317.064580 1000.000000
318.068600 133.000000
318.090000 9.000000
318.417300 6.000000
319.073760 5.000000
320.077000 6.000000
321.715480 5.000000
341.071840 6.000000
381.065610 6.000000
479.098140 35.000000
479.111180 38.000000
479.124510 37.000000
479.156950 9.000000
480.099240 6.000000
480.122650 22.000000
625.178770 150.000000
625.198300 32.000000

>ms2peaks
85.031130 60.000000
129.056640 16.000000
147.064240 23.000000
152.691590 17.000000
196.231890 9.000000
255.091160 9.000000
273.109740 8.000000
274.097720 18.000000
283.830930 21.000000
317.022250 8.000000
317.033910 9.000000
317.064790 1000.000000
318.060390 13.000000
318.074250 51.000000
318.086910 22.000000
319.071170 11.000000
319.085020 30.000000
320.078610 9.000000
354.667510 19.000000
463.135680 30.000000
464.119140 26.000000
470.105800 13.000000
479.057830 9.000000
479.120420 374.000000
480.083040 28.000000
480.117430 48.000000
480.150510 14.000000
481.107970 11.000000
481.128630 9.000000
597.163020 10.000000
625.073300 9.000000
625.179750 704.000000
625.345280 20.000000

>ms2peaks
71.031020 9.000000
71.039670 9.000000
83.047690 8.000000
85.028970 46.000000
129.054870 9.000000
145.047760 7.000000
193.406880 9.000000
195.438550 5.000000
317.021640 56.000000
317.067540 1000.000000
318.042240 21.000000
318.064060 181.000000
319.051120 9.000000
319.071530 52.000000
319.088620 7.000000
319.248540 6.000000
320.075200 8.000000
322.113980 5.000000
328.673890 7.000000
398.440370 9.000000
413.107180 9.000000
479.115450 6.000000
480.124050 11.000000

>ms2peaks
71.045680 27.000000
74.282490 21.000000
85.025510 72.000000
86.032280 26.000000
92.043610 21.000000
123.036450 26.000000
129.045430 21.000000
139.024670 35.000000
151.047520 37.000000
152.966570 62.000000
153.018010 18.000000
219.067280 27.000000
227.031800 23.000000
228.049760 22.000000
229.034640 21.000000
229.052860 46.000000
243.065050 34.000000
248.500890 23.000000
257.034180 42.000000
258.026310 29.000000
274.047150 21.000000
274.062190 46.000000
275.063750 21.000000
284.029330 31.000000
285.049100 136.000000
301.037660 53.000000
302.017670 29.000000
302.042790 391.000000
304.056880 30.000000
315.029080 25.000000
317.018340 25.000000
317.066100 1000.000000
317.084900 116.000000
318.035550 50.000000
318.074490 244.000000
330.071960 50.000000
355.836030 18.000000
384.093540 18.000000
395.087860 29.000000

>ms2peaks
85.029970 9.000000
111.044200 12.000000
127.035560 11.000000
129.055180 16.000000
147.064450 26.000000
207.882200 7.000000
257.039670 6.000000
273.105410 10.000000
274.041230 8.000000
286.064730 12.000000
310.122890 11.000000
317.015960 34.000000
317.053160 291.000000
317.065730 1000.000000
317.105350 7.000000
317.323700 6.000000
317.874210 6.000000
318.025850 8.000000
318.062100 124.000000
318.076970 68.000000
319.062740 48.000000
319.084840 7.000000
360.081940 9.000000
385.070010 12.000000
408.083980 7.000000
447.118930 13.000000
462.112150 10.000000
463.107910 9.000000
479.043030 6.000000
479.102780 47.000000
479.134980 50.000000
480.127560 24.000000
498.421690 9.000000
625.169490 50.000000
625.198910 62.000000

>ms2peaks
129.052220 33.000000
316.987340 20.000000
317.031370 26.000000
317.065580 1000.000000
318.024200 11.000000
318.062740 97.000000
318.076140 66.000000
319.064910 19.000000
319.086730 13.000000
320.063320 8.000000
321.323910 8.000000
327.841770 11.000000
338.664340 22.000000
342.987430 13.000000
402.410460 12.000000
460.639740 12.000000
463.121640 35.000000
464.118500 20.000000
470.267030 9.000000
474.367980 10.000000
479.111880 447.000000
480.110110 83.000000
480.135040 42.000000
480.975590 13.000000
481.132540 8.000000
482.126070 9.000000
485.495790 12.000000
527.464110 13.000000
594.236390 8.000000
625.039980 13.000000
625.067630 12.000000
625.128110 38.000000
625.175290 773.000000
625.191160 312.000000

>ms2peaks
71.051770 8.000000
72.036550 6.000000
85.021420 9.000000
85.028120 19.000000
127.032160 10.000000
128.040500 11.000000
129.056020 24.000000
141.058400 14.000000
158.246810 8.000000
166.554980 13.000000
181.050000 13.000000
235.239870 9.000000
255.083080 7.000000
264.867000 11.000000
279.627780 7.000000
316.992740 6.000000
317.018550 47.000000
317.062260 1000.000000
317.078090 305.000000
317.182890 7.000000
317.347110 8.000000
318.039950 14.000000
318.059390 55.000000
318.079590 47.000000
318.248350 6.000000
319.059140 7.000000
319.074580 32.000000
320.061310 8.000000
329.048310 7.000000
359.063450 7.000000
383.087950 18.000000
449.117920 8.000000
479.120820 9.000000

>ms2peaks
53.964210 19.000000
71.050400 64.000000
85.029160 30.000000
91.041730 45.000000
97.026760 19.000000
111.042870 24.000000
126.034360 30.000000
129.055210 28.000000
134.044740 21.000000
153.020290 58.000000
154.489960 20.000000
164.991850 39.000000
217.050690 16.000000
218.053340 16.000000
229.045330 32.000000
257.034210 22.000000
257.046420 39.000000
274.041990 99.000000
285.018860 33.000000
285.046420 36.000000
285.257750 33.000000
286.037750 16.000000
286.052610 20.000000
289.067050 33.000000
302.022130 45.000000
302.037900 257.000000
302.052120 88.000000
302.176180 16.000000
303.045930 47.000000
303.057130 40.000000
304.035460 47.000000
317.003880 27.000000
317.032140 44.000000
317.066830 1000.000000
317.989350 20.000000
318.011080 16.000000
318.061220 16.000000
318.076450 41.000000
318.086580 30.000000
319.076260 51.000000
329.073270 19.000000
343.070830 23.000000
395.086270 24.000000

