>compound PR57956395
>parentmass 195.06518529999997
>ionization [M+H]+
>formula C10H10O4
>rt 254.371020
>profile qtof
#smiles_iso COC1=C(C=CC(=C1)/C=C/C(=O)O)O
#smiles_can COC1=C(C=CC(=C1)C=CC(=O)O)O
#inchikey KSEBMYQBYZTDHS-HWKANZROSA-N
#pubchem_id 445858
#mb_accession PR303436,PR303438,PR303440,PR303442,PR303444,PR303446,PR303448,PR303450,PR303452,PR303454,PR303456,PR303458

>ms2peaks
80.522290 29.000000
95.016760 19.000000
102.999890 18.000000
108.958030 22.000000
113.605630 20.000000
115.965640 31.000000
117.032180 59.000000
118.036350 66.000000
119.052470 31.000000
123.041680 72.000000
134.039750 43.000000
145.010640 24.000000
145.026140 195.000000
146.034090 31.000000
149.032420 39.000000
149.055370 119.000000
149.062990 59.000000
150.066160 23.000000
152.963820 34.000000
156.967900 32.000000
158.364590 21.000000
162.041870 25.000000
167.113490 20.000000
177.055680 1000.000000
178.059310 27.000000
179.056490 31.000000
179.069430 48.000000
193.047320 39.000000
194.047650 35.000000
194.060290 38.000000
195.069260 130.000000

>ms2peaks
115.962930 8.000000
145.012770 9.000000
145.029420 168.000000
146.035190 11.000000
146.352690 7.000000
148.052730 8.000000
154.994750 23.000000
155.972050 12.000000
163.567580 8.000000
177.035860 27.000000
177.055440 1000.000000
177.093980 20.000000
177.680110 8.000000
178.037480 9.000000
178.045640 18.000000
178.056060 46.000000
178.062530 54.000000
178.218550 8.000000
179.025020 15.000000
179.060850 8.000000
179.876300 8.000000
180.119050 11.000000
180.997790 8.000000
193.089320 12.000000
194.058910 119.000000
195.061050 113.000000
195.068330 52.000000
195.111650 24.000000

>ms2peaks
63.021640 275.000000
65.036640 110.000000
76.033930 78.000000
77.032390 118.000000
89.037500 1000.000000
90.041160 157.000000
101.039030 129.000000
106.043500 114.000000
107.033580 86.000000
107.045220 90.000000
117.033860 651.000000
118.040610 71.000000
121.063260 122.000000
123.048950 110.000000
134.038360 90.000000
135.041790 82.000000
145.031490 169.000000

>ms2peaks
63.024780 1000.000000

>ms2peaks
89.033240 32.000000
94.966550 22.000000
105.030620 31.000000
105.037030 29.000000
111.081530 30.000000
117.027980 47.000000
117.034740 86.000000
133.036970 49.000000
145.029880 256.000000
147.028140 35.000000
149.057880 39.000000
150.684430 23.000000
151.038040 31.000000
152.040890 43.000000
153.127290 48.000000
177.052640 1000.000000
178.052720 38.000000
194.042390 27.000000
194.050920 22.000000
194.062730 58.000000
195.059070 73.000000

>ms2peaks
95.375260 10.000000
139.993180 12.000000
145.028440 113.000000
147.173900 12.000000
154.993500 10.000000
162.037080 9.000000
177.038600 20.000000
177.055270 1000.000000
178.033260 10.000000
178.050520 33.000000
178.058850 159.000000
193.037140 9.000000
194.060350 82.000000
195.057680 59.000000
195.066710 74.000000
195.101610 11.000000
195.109830 10.000000

>ms2peaks
73.795710 98.000000
89.039020 242.000000
89.043260 371.000000
89.609140 129.000000
93.031110 144.000000
103.053970 134.000000
105.029210 98.000000
105.036640 124.000000
106.038240 108.000000
110.036600 113.000000
117.034740 1000.000000
117.151880 119.000000
133.023120 134.000000
134.033950 98.000000
134.041660 93.000000
145.026920 113.000000
179.119580 103.000000

>ms2peaks
90.044490 1000.000000

>ms2peaks
91.949840 36.000000
106.045220 59.000000
107.050190 53.000000
115.967800 48.000000
117.034870 89.000000
133.026250 64.000000
134.037830 84.000000
135.029850 61.000000
145.000440 39.000000
145.026520 446.000000
145.033430 283.000000
149.049300 48.000000
149.059220 32.000000
150.056660 59.000000
156.971050 43.000000
177.052920 1000.000000
178.065800 209.000000
178.678040 36.000000
179.107970 55.000000
194.057270 137.000000
195.059230 32.000000
195.068270 46.000000

>ms2peaks
99.083520 25.000000
113.063730 13.000000
126.053540 14.000000
145.016140 10.000000
145.028530 67.000000
153.054120 22.000000
177.054350 1000.000000
178.017490 11.000000
178.057660 45.000000
179.029020 11.000000
179.059890 12.000000
194.052700 58.000000
194.069340 39.000000
194.088650 19.000000
195.043620 11.000000
195.064930 156.000000
195.108380 12.000000
195.118710 15.000000
195.129840 16.000000

>ms2peaks
72.924950 293.000000
89.038080 1000.000000
106.039290 207.000000
117.033390 271.000000
133.033390 279.000000
134.038380 443.000000
179.044020 129.000000

>ms2peaks
105.032330 659.000000
135.039980 1000.000000

