>compound PR57855156
>parentmass 518.3243
>ionization [M+H]+
>formula C26H48NO7P
>rt 528.000000
>profile qtof
#smiles_iso CCCCCC=CCC=CCC=CCCCCC(=O)OCC(COP(=O)([O-])OCC[N+](C)(C)C)O
#smiles_can CCCCCC=CCC=CCC=CCCCCC(=O)OCC(COP(=O)([O-])OCC[N+](C)(C)C)O
#inchikey MRTUWVDDQVMUCR-UHFFFAOYSA-N
#pubchem_id 133017440
#mb_accession PR310840,PR310841

>ms2
86.094960 60.000000
86.100740 31.000000
104.099970 60.000000
104.107640 147.000000
125.001240 74.000000
130.193850 27.000000
163.110290 20.000000
184.071000 359.000000
184.078200 131.000000
185.073230 39.000000
186.090410 26.000000
333.170170 18.000000
357.092470 19.000000
405.147030 27.000000
500.311800 107.000000
501.265440 20.000000
501.313600 30.000000
518.269040 44.000000
518.322750 552.000000
518.351070 36.000000

>ms2
67.057580 23.000000
86.094680 47.000000
86.104850 21.000000
95.088970 16.000000
104.109870 396.000000
104.117830 40.000000
105.112010 49.000000
107.123210 20.000000
120.094020 23.000000
125.000070 103.000000
125.009350 16.000000
125.391570 45.000000
132.101680 28.000000
159.113880 21.000000
166.059540 16.000000
166.067370 23.000000
167.068980 22.000000
183.348920 16.000000
184.056060 38.000000
184.076280 1343.000000
185.076490 106.000000
185.085800 63.000000
193.137620 18.000000
256.529820 16.000000
258.099580 23.000000
311.048310 17.000000
335.256680 19.000000
441.234530 16.000000
447.512150 18.000000
500.305570 186.000000
500.319670 117.000000
500.341460 22.000000
501.281980 34.000000
501.314390 113.000000
516.255190 16.000000
518.251590 40.000000
518.326480 2584.000000

