>compound PR58373752
>parentmass 300.1805494
>ionization [M+H]+
>formula C15H25NO5
>rt 164.976000
>profile qtof
#smiles_iso C[C@H]([C@@](C(C)C)(C(=O)OCC1=CCN2[C@H]1[C@H](CC2)O)O)O
#smiles_can CC(C)C(C(C)O)(C(=O)OCC1=CCN2C1C(CC2)O)O
#inchikey SFVVQRJOGUKCEG-ZRQNBYAXSA-N
#pubchem_id 442758
#mb_accession PR300921,PR300926,PR300931,PR300936,PR300941,PR300946,PR300951,PR300956,PR300961,PR300966,PR300971,PR300976

>ms2peaks
80.050380 5.000000
82.064450 10.000000
94.066670 33.000000
95.073980 16.000000
96.081470 34.000000
108.078040 9.000000
120.081520 73.000000
121.087930 6.000000
138.091750 282.000000
139.097850 60.000000
156.102200 148.000000
157.103900 20.000000
256.151610 6.000000
300.181610 1000.000000
300.230530 21.000000

>ms2peaks
138.090700 31.000000
300.179750 1000.000000
300.229800 29.000000

>ms2peaks
67.053740 7.000000
79.054870 7.000000
80.048960 37.000000
81.057840 6.000000
82.066190 77.000000
83.068790 7.000000
86.061440 10.000000
91.053530 12.000000
92.054860 9.000000
93.068360 30.000000
94.047970 5.000000
94.066220 321.000000
95.072850 149.000000
96.081510 276.000000
97.083340 12.000000
103.053340 8.000000
103.059240 6.000000
105.057190 7.000000
108.082620 108.000000
109.065640 13.000000
110.060140 28.000000
110.094640 5.000000
110.101620 5.000000
112.077390 26.000000
118.060500 7.000000
118.067120 9.000000
120.081420 432.000000
121.085990 50.000000
138.060650 5.000000
138.092220 924.000000
139.097990 369.000000
140.083600 6.000000
140.100200 25.000000
140.106370 16.000000
156.076070 11.000000
156.103610 1000.000000
157.106020 92.000000
158.112260 7.000000
210.144790 6.000000
300.180080 48.000000

>ms2peaks
55.061410 12.000000
58.066440 12.000000
64.901890 10.000000
65.037160 10.000000
65.474430 12.000000
66.047740 10.000000
67.042090 78.000000
67.047330 116.000000
67.058730 51.000000
68.042160 12.000000
68.054470 91.000000
69.049900 23.000000
69.056080 11.000000
69.071460 56.000000
73.064900 28.000000
77.038610 37.000000
78.031970 12.000000
79.054040 104.000000
79.058820 36.000000
79.675480 13.000000
80.049190 419.000000
80.057180 28.000000
80.458150 12.000000
81.054210 72.000000
81.058570 72.000000
81.067540 53.000000
81.075330 46.000000
81.872960 10.000000
82.062870 141.000000
82.069450 142.000000
83.049840 15.000000
83.086370 19.000000
84.045010 12.000000
84.243080 11.000000
85.048900 13.000000
85.065890 16.000000
86.058590 41.000000
86.062980 12.000000
86.359560 12.000000
91.052950 186.000000
91.061680 25.000000
92.045830 26.000000
92.051580 33.000000
93.039220 24.000000
93.050480 17.000000
93.059360 80.000000
93.069990 80.000000
93.094130 13.000000
94.066130 1000.000000
95.046640 11.000000
95.056180 11.000000
95.074170 239.000000
95.089060 11.000000
96.079150 109.000000
96.085340 78.000000
98.082730 10.000000
98.089040 18.000000
103.040270 13.000000
103.051220 44.000000
103.055610 54.000000
104.054560 11.000000
105.048470 22.000000
105.054020 13.000000
106.067330 29.000000
107.060160 12.000000
107.071300 16.000000
108.061780 10.000000
108.080940 433.000000
109.046550 30.000000
109.064900 21.000000
109.085200 66.000000
110.055560 15.000000
110.061990 42.000000
110.089650 32.000000
110.098040 51.000000
112.057750 13.000000
112.079090 106.000000
117.056200 31.000000
118.059510 17.000000
118.066120 74.000000
119.072880 39.000000
119.766040 10.000000
120.049410 14.000000
120.061810 10.000000
120.081100 837.000000
120.101750 18.000000
121.062600 18.000000
121.082900 28.000000
121.089520 28.000000
121.352290 11.000000
122.089750 11.000000
125.080220 20.000000
126.092730 24.000000
138.088930 111.000000
138.095790 39.000000
139.080750 12.000000
139.099010 25.000000
156.097380 97.000000
156.105790 155.000000
157.105970 11.000000
183.923510 11.000000
256.038360 12.000000
300.168400 22.000000
300.188870 40.000000

>ms2peaks
80.051770 5.000000
82.065110 13.000000
94.065070 37.000000
94.070140 14.000000
96.080230 31.000000
108.081540 17.000000
112.077750 6.000000
120.080710 69.000000
121.088900 7.000000
138.091690 294.000000
139.096860 61.000000
156.102390 153.000000
157.105500 18.000000
282.166600 8.000000
300.180330 1000.000000
300.228880 26.000000

>ms2peaks
138.091220 21.000000
300.180240 1000.000000
300.229520 34.000000

>ms2peaks
67.055430 8.000000
73.061410 5.000000
79.056130 8.000000
80.044430 10.000000
80.051230 28.000000
81.059220 7.000000
81.072790 9.000000
82.066830 136.000000
86.060870 21.000000
92.047780 15.000000
93.070600 10.000000
94.065030 323.000000
95.072910 169.000000
96.081370 286.000000
97.085590 17.000000
103.056880 10.000000
108.081700 97.000000
108.086750 37.000000
109.065800 15.000000
109.079110 6.000000
109.086440 10.000000
109.094540 6.000000
110.060640 19.000000
110.067090 9.000000
110.091980 8.000000
112.077860 26.000000
117.093170 5.000000
118.060050 11.000000
118.068500 6.000000
119.073360 7.000000
120.062130 5.000000
120.081470 429.000000
121.086240 60.000000
121.095060 10.000000
122.098470 8.000000
138.065950 5.000000
138.073260 6.000000
138.091600 1000.000000
139.098480 324.000000
140.099230 19.000000
140.106900 17.000000
156.102920 900.000000
157.106110 85.000000
236.169690 6.000000
300.171080 20.000000
300.187770 29.000000

>ms2peaks
53.036670 10.000000
56.049480 9.000000
57.070510 10.000000
57.881040 9.000000
65.042600 35.000000
66.049730 9.000000
67.037440 18.000000
67.044200 149.000000
67.051670 41.000000
67.055820 68.000000
67.062230 16.000000
68.044200 18.000000
68.050450 26.000000
68.063990 14.000000
69.045820 11.000000
69.073140 9.000000
77.039730 22.000000
77.044740 14.000000
78.036360 42.000000
78.130390 10.000000
79.054000 11.000000
79.058620 15.000000
80.033720 9.000000
80.050230 511.000000
80.570870 13.000000
80.623850 9.000000
81.054900 60.000000
81.060360 38.000000
81.070490 57.000000
82.064690 252.000000
82.070820 98.000000
82.553740 11.000000
82.899930 10.000000
83.051000 9.000000
83.062130 10.000000
83.069570 34.000000
83.937160 9.000000
84.043060 10.000000
84.280090 9.000000
85.054020 23.000000
86.060320 41.000000
86.070560 18.000000
87.066000 11.000000
91.055870 159.000000
91.980010 11.000000
92.018520 12.000000
92.029760 12.000000
92.051380 98.000000
93.048520 11.000000
93.056500 61.000000
93.071430 48.000000
94.065930 1000.000000
95.050570 10.000000
95.072270 340.000000
95.664720 9.000000
96.078050 119.000000
96.083080 177.000000
96.100780 10.000000
97.077610 32.000000
97.084540 17.000000
103.052060 12.000000
103.059170 64.000000
108.066530 9.000000
108.081210 451.000000
109.063880 10.000000
109.068950 20.000000
109.076610 12.000000
110.061780 10.000000
110.068900 23.000000
110.097800 26.000000
110.584210 9.000000
112.068210 51.000000
112.080850 12.000000
118.056850 9.000000
118.065050 60.000000
119.069890 20.000000
119.077960 31.000000
120.081500 698.000000
120.103700 9.000000
120.976010 9.000000
121.065860 29.000000
121.085060 139.000000
122.800830 14.000000
126.093030 11.000000
127.091930 10.000000
128.524380 11.000000
138.078740 11.000000
138.094890 185.000000
139.096480 42.000000
139.103790 38.000000
140.098720 11.000000
156.086820 9.000000
156.102430 142.000000
157.105240 11.000000

>ms2peaks
82.067420 10.000000
94.066410 27.000000
95.071080 7.000000
95.077130 6.000000
96.081370 41.000000
108.081380 20.000000
120.081300 60.000000
121.090100 6.000000
138.092090 318.000000
139.096760 59.000000
139.103910 21.000000
140.098280 5.000000
156.103030 161.000000
157.107190 15.000000
300.181820 1000.000000
300.230680 28.000000

>ms2peaks
138.092010 24.000000
300.180510 1000.000000
300.229920 32.000000

>ms2peaks
67.041220 18.000000
67.052660 7.000000
68.049780 8.000000
73.065730 6.000000
77.039570 10.000000
79.057720 15.000000
80.049860 37.000000
80.056050 6.000000
81.052250 5.000000
82.054180 9.000000
82.066270 81.000000
86.059370 12.000000
91.056810 24.000000
93.058780 10.000000
93.070410 17.000000
94.066130 318.000000
95.051690 5.000000
95.073170 146.000000
96.081800 287.000000
103.052570 16.000000
108.080670 120.000000
109.064160 15.000000
109.083030 7.000000
110.060130 16.000000
110.066780 14.000000
110.098020 10.000000
112.069680 11.000000
112.077130 15.000000
118.066620 13.000000
120.065080 12.000000
120.081570 502.000000
121.069790 6.000000
121.088200 63.000000
122.085990 6.000000
122.098600 9.000000
124.080280 5.000000
138.062820 5.000000
138.091400 1000.000000
139.098040 398.000000
140.095780 14.000000
140.106660 34.000000
156.080000 16.000000
156.102010 971.000000
157.106110 110.000000
192.134160 5.000000
210.149600 7.000000
300.177760 53.000000

>ms2peaks
55.055120 13.000000
56.050910 11.000000
65.042430 12.000000
65.160770 11.000000
67.028620 21.000000
67.040630 113.000000
67.045940 40.000000
67.055050 75.000000
68.047250 60.000000
68.054830 33.000000
74.064420 11.000000
77.016370 13.000000
77.029200 17.000000
77.039290 75.000000
78.010830 14.000000
78.036170 28.000000
78.678860 15.000000
79.053230 72.000000
80.040910 22.000000
80.050460 486.000000
81.056340 98.000000
81.072090 77.000000
81.793660 18.000000
82.056110 17.000000
82.063710 130.000000
82.067980 174.000000
83.052700 13.000000
83.075450 26.000000
84.045770 19.000000
85.055210 15.000000
85.243570 18.000000
86.060870 67.000000
91.043820 20.000000
91.054160 125.000000
92.052670 44.000000
92.547450 11.000000
93.050460 22.000000
93.059040 28.000000
93.064780 18.000000
93.074900 32.000000
94.065860 1000.000000
94.081430 31.000000
95.046360 17.000000
95.052360 22.000000
95.070310 154.000000
95.075970 178.000000
96.041140 17.000000
96.066560 15.000000
96.080210 266.000000
97.063890 13.000000
98.054290 15.000000
99.067970 11.000000
103.054010 42.000000
103.059760 30.000000
105.053680 13.000000
105.059290 17.000000
106.064670 34.000000
108.063540 16.000000
108.073970 70.000000
108.080870 405.000000
108.353680 32.000000
109.068700 30.000000
109.085080 49.000000
110.049170 25.000000
110.055850 28.000000
110.064510 20.000000
110.070120 13.000000
110.077840 28.000000
110.096460 46.000000
111.064830 12.000000
112.072560 70.000000
113.078830 15.000000
117.062930 15.000000
118.065110 130.000000
119.068360 32.000000
120.041280 13.000000
120.061460 14.000000
120.079540 787.000000
120.086340 178.000000
121.066340 14.000000
121.081620 62.000000
121.089980 53.000000
122.099460 15.000000
126.087520 12.000000
136.082720 20.000000
138.090930 246.000000
139.099550 88.000000
156.089450 14.000000
156.103040 308.000000
156.116410 26.000000
157.097870 13.000000
157.112810 15.000000
175.019330 15.000000
260.665040 12.000000

