>compound PR58680544
>parentmass 306.1699843384615
>ionization [M+H]+
>formula C17H23NO4
>rt 236.863366
>profile qtof
#smiles_iso CN1C2CCC1CC(C2)OC(=O)C3=CC(=C(C=C3)OC)OC
#smiles_can CN1C2CCC1CC(C2)OC(=O)C3=CC(=C(C=C3)OC)OC
#inchikey AEFPCFUCFQBXDQ-UHFFFAOYSA-N
#pubchem_id 420422
#mb_accession PR301541,PR301545,PR301549,PR301553,PR301556,PR301560,PR301564,PR301568,PR301572,PR301576,PR301580,PR301584,PR310572

>ms2
91.058470 9.000000
93.070900 83.000000
94.070780 6.000000
94.077680 5.000000
124.112740 288.000000
125.115230 23.000000
165.055620 16.000000
306.171230 1000.000000
306.221280 28.000000

>ms2
124.112020 20.000000
306.171170 1000.000000
306.221410 35.000000

>ms2
67.054890 38.000000
70.063540 6.000000
77.039100 18.000000
77.042880 9.000000
91.051030 23.000000
91.056200 83.000000
93.070550 532.000000
94.067150 8.000000
94.075230 49.000000
95.073540 6.000000
95.085060 42.000000
96.081680 12.000000
109.087500 9.000000
124.112550 1000.000000
125.115240 111.000000
137.061690 6.000000
165.054810 122.000000
306.163730 25.000000
306.174260 54.000000

>ms2
55.544820 11.000000
62.444260 13.000000
65.010170 8.000000
65.032130 8.000000
65.037770 18.000000
67.052570 137.000000
67.056430 183.000000
68.044100 8.000000
68.053000 42.000000
69.035700 23.000000
70.065450 44.000000
70.069320 15.000000
76.992930 17.000000
77.025220 9.000000
77.039950 662.000000
78.040950 20.000000
78.047130 28.000000
78.051160 13.000000
79.038250 11.000000
79.051860 76.000000
79.056220 31.000000
79.082820 9.000000
80.052140 9.000000
80.538450 8.000000
81.039020 10.000000
81.062090 11.000000
81.071180 39.000000
82.061420 27.000000
82.069470 27.000000
83.075950 13.000000
90.748530 11.000000
91.036510 8.000000
91.054870 802.000000
91.664360 8.000000
91.717240 8.000000
92.027750 20.000000
92.056560 87.000000
92.762660 8.000000
93.071080 1000.000000
93.093940 8.000000
94.032870 21.000000
94.040970 10.000000
94.048020 8.000000
94.064050 50.000000
94.072940 127.000000
94.394780 9.000000
95.045000 8.000000
95.048280 18.000000
95.073010 84.000000
95.082340 62.000000
95.088910 69.000000
96.079550 59.000000
96.090620 8.000000
97.088630 10.000000
98.091150 12.000000
105.036060 8.000000
107.010060 10.000000
107.039280 8.000000
108.055940 9.000000
108.078340 19.000000
108.904140 8.000000
109.066220 37.000000
109.079080 9.000000
109.089840 66.000000
121.024980 11.000000
121.030720 34.000000
121.081830 8.000000
122.032780 78.000000
122.099510 10.000000
124.084560 10.000000
124.112400 473.000000
124.484110 8.000000
125.113610 33.000000
125.121410 41.000000
136.054170 11.000000
137.061280 83.000000
138.065200 11.000000
149.024900 11.000000
165.048160 27.000000
165.056640 187.000000
166.056960 18.000000
167.025920 11.000000

>ms2
91.054370 11.000000
93.070560 74.000000
94.074860 7.000000
124.112790 313.000000
125.116360 35.000000
165.049850 6.000000
165.056340 15.000000
306.170810 1000.000000
306.221040 30.000000

>ms2
124.113230 15.000000
306.171260 1000.000000
306.221370 35.000000

>ms2
67.054850 22.000000
77.035960 17.000000
77.040720 14.000000
81.070170 5.000000
82.064990 13.000000
91.054790 122.000000
92.057750 12.000000
93.070350 582.000000
94.073620 52.000000
95.078000 13.000000
95.086490 30.000000
96.082140 17.000000
109.088470 8.000000
124.112460 1000.000000
125.115550 97.000000
137.062230 5.000000
165.055680 94.000000
166.060460 7.000000
306.160770 15.000000
306.172880 41.000000

>ms2
58.064960 10.000000
65.041020 46.000000
66.042790 10.000000
66.048690 18.000000
67.037960 10.000000
67.054250 220.000000
67.060840 28.000000
67.119650 8.000000
68.046050 14.000000
68.052410 65.000000
68.057010 41.000000
68.080240 6.000000
69.066440 6.000000
69.074900 8.000000
70.066220 20.000000
71.084010 8.000000
77.027690 18.000000
77.039060 573.000000
78.042100 16.000000
78.047040 10.000000
78.052780 8.000000
78.594370 9.000000
79.048200 11.000000
79.055760 88.000000
80.032370 10.000000
80.044830 6.000000
80.052780 18.000000
80.059580 11.000000
81.053220 9.000000
81.071580 26.000000
82.061680 16.000000
82.066610 19.000000
83.074420 37.000000
89.101080 8.000000
91.031800 8.000000
91.054530 787.000000
91.537230 6.000000
91.705480 6.000000
91.753650 8.000000
92.027300 13.000000
92.058880 62.000000
92.066770 17.000000
92.825450 7.000000
93.030610 7.000000
93.069610 1000.000000
93.094120 7.000000
94.039390 104.000000
94.045720 61.000000
94.068880 107.000000
94.074320 65.000000
95.068570 16.000000
95.077670 25.000000
95.085780 119.000000
96.051320 8.000000
96.081110 51.000000
96.088530 9.000000
96.444730 6.000000
97.086700 15.000000
98.997320 13.000000
103.731170 6.000000
105.037190 13.000000
107.012750 10.000000
107.052700 8.000000
107.087750 8.000000
108.082210 62.000000
109.063700 25.000000
109.087390 39.000000
109.168220 16.000000
120.073650 13.000000
121.029530 21.000000
121.754550 6.000000
122.034970 39.000000
122.041020 50.000000
122.100230 8.000000
124.111240 379.000000
124.123050 14.000000
125.105320 7.000000
125.115010 23.000000
125.124670 15.000000
135.051450 11.000000
137.016570 8.000000
137.059450 101.000000
137.068600 31.000000
137.134170 10.000000
138.058590 19.000000
139.039400 11.000000
164.911960 6.000000
165.047970 104.000000
165.056490 92.000000
165.114120 6.000000
192.287430 11.000000
196.309460 9.000000
245.149190 10.000000

>ms2
91.055270 13.000000
93.070880 75.000000
95.086300 7.000000
124.112520 288.000000
125.114960 30.000000
165.054350 14.000000
306.170960 1000.000000
306.221220 31.000000

>ms2
124.112800 14.000000
306.172060 1000.000000
306.221770 35.000000

>ms2
67.055800 36.000000
70.070120 6.000000
77.032900 9.000000
77.040340 31.000000
79.053790 6.000000
82.062930 6.000000
82.068630 15.000000
83.073810 6.000000
91.054530 91.000000
92.062810 12.000000
93.070340 520.000000
94.072560 56.000000
95.074950 7.000000
95.078840 12.000000
95.087720 37.000000
96.077710 7.000000
96.083760 27.000000
107.086690 13.000000
109.085230 11.000000
109.092810 5.000000
124.113150 1000.000000
125.114730 101.000000
125.121800 27.000000
137.059720 9.000000
165.046650 34.000000
165.055160 76.000000
165.061970 23.000000
166.060850 11.000000
306.148470 7.000000
306.171570 64.000000

>ms2
53.105650 12.000000
56.049060 12.000000
56.053020 13.000000
56.548680 9.000000
65.037640 58.000000
66.039270 10.000000
66.045390 14.000000
66.050930 17.000000
67.052150 66.000000
67.056240 182.000000
67.566980 14.000000
68.050160 86.000000
68.056400 9.000000
69.068910 17.000000
70.066260 11.000000
76.030430 10.000000
77.040600 575.000000
77.388010 11.000000
78.043190 24.000000
78.054020 18.000000
79.050150 40.000000
79.054690 114.000000
79.059790 42.000000
80.054000 10.000000
80.061340 10.000000
80.067310 11.000000
81.059800 11.000000
81.071300 10.000000
81.934150 12.000000
82.065930 109.000000
82.073070 25.000000
83.073310 11.000000
88.056470 12.000000
90.736010 11.000000
91.055370 909.000000
91.885600 10.000000
92.029170 14.000000
92.055640 18.000000
92.059330 52.000000
92.064440 31.000000
92.433390 24.000000
93.030960 11.000000
93.053980 14.000000
93.070530 1000.000000
93.450860 17.000000
93.623730 10.000000
94.033620 14.000000
94.043330 74.000000
94.065250 96.000000
94.074600 46.000000
95.066860 18.000000
95.073530 15.000000
95.084720 62.000000
95.092700 11.000000
96.082590 24.000000
96.090390 13.000000
97.806080 11.000000
104.023970 16.000000
105.029130 12.000000
105.073160 10.000000
107.014850 26.000000
107.035470 11.000000
107.051120 34.000000
108.076180 18.000000
108.083880 39.000000
109.089980 14.000000
109.096340 31.000000
110.060340 10.000000
120.023050 15.000000
121.014660 10.000000
121.024130 23.000000
121.030620 10.000000
122.030360 76.000000
122.038440 65.000000
122.096520 42.000000
122.102040 23.000000
123.043130 14.000000
124.045340 10.000000
124.112580 417.000000
125.115620 42.000000
135.045090 9.000000
137.042790 16.000000
137.059430 55.000000
137.068180 26.000000
138.060970 11.000000
140.109280 10.000000
156.344770 10.000000
165.042480 15.000000
165.055760 139.000000
242.768600 9.000000
271.986760 12.000000
285.119600 16.000000

>ms2
65.040130 17.000000
65.974530 24.000000
67.052120 17.000000
68.049510 22.000000
68.264020 19.000000
70.072540 21.000000
77.037700 180.000000
77.723330 18.000000
78.043490 27.000000
79.056300 35.000000
79.746860 18.000000
82.066780 39.000000
90.506410 18.000000
91.058470 342.000000
92.058660 21.000000
92.713190 17.000000
93.050440 30.000000
93.055430 65.000000
93.070900 3344.000000
93.647300 19.000000
94.047580 20.000000
94.070780 250.000000
94.077680 208.000000
95.064050 33.000000
95.073840 105.000000
95.085950 175.000000
95.092390 62.000000
96.080400 181.000000
96.092350 60.000000
96.100140 27.000000
108.077310 18.000000
108.090500 26.000000
119.235890 25.000000
122.033970 17.000000
122.091740 30.000000
122.100590 51.000000
124.075740 24.000000
124.088130 134.000000
124.112740 11544.000000
124.141820 49.000000
125.115230 921.000000
125.131760 17.000000
126.114230 23.000000
126.123070 37.000000
126.203390 18.000000
127.214680 22.000000
128.433760 17.000000
129.226410 18.000000
129.999400 17.000000
135.047040 19.000000
135.496780 20.000000
137.061000 79.000000
139.057100 24.000000
139.076430 20.000000
151.882310 24.000000
155.323780 20.000000
160.060380 26.000000
165.040120 89.000000
165.055620 625.000000
166.054870 84.000000
178.014590 18.000000
178.071520 30.000000
181.134950 18.000000
183.067170 17.000000
183.679960 22.000000
184.251270 17.000000
191.888690 23.000000
194.782670 20.000000
209.039610 21.000000
220.279740 20.000000
222.805970 26.000000
224.697890 20.000000
248.382520 53.000000
250.205900 35.000000
255.354900 29.000000
259.121400 31.000000
261.475250 20.000000
262.147550 20.000000
264.008030 34.000000
276.119450 20.000000
281.673890 20.000000
290.140620 17.000000
290.897030 23.000000
291.143220 30.000000
300.456630 27.000000
304.981720 17.000000
305.146120 19.000000
305.704190 21.000000
305.772220 17.000000
305.875920 23.000000
306.033360 17.000000
306.050810 24.000000
306.075990 22.000000
306.103420 107.000000
306.124730 186.000000
306.171230 40103.000000
306.221280 1124.000000
306.262760 17.000000
306.277160 41.000000

