>compound PR58523798
>parentmass 257.08083530000005
>ionization [M+H]+
>formula C15H12O4
>rt 386.034000
>profile qtof
#smiles_iso C1=CC(=CC=C1/C=C/C(=O)C2=C(C=C(C=C2)O)O)O
#smiles_can C1=CC(=CC=C1C=CC(=O)C2=C(C=C(C=C2)O)O)O
#inchikey DXDRHHKMWQZJHT-FPYGCLRLSA-N
#pubchem_id 638278
#mb_accession PR302697,PR302702,PR302707,PR302712,PR302717,PR302722,PR302727,PR302732,PR302737,PR302742,PR302747,PR302752

>ms2
81.033120 22.000000
91.050350 8.000000
91.054620 16.000000
93.034070 7.000000
107.047270 8.000000
109.028790 21.000000
110.033660 5.000000
117.029660 6.000000
117.037170 14.000000
119.047220 54.000000
123.041830 12.000000
137.023040 526.000000
138.024060 32.000000
147.042890 190.000000
148.043730 6.000000
148.052780 6.000000
165.069050 21.000000
211.075970 44.000000
215.075810 8.000000
239.059400 12.000000
239.072780 36.000000
240.074070 11.000000
242.051940 11.000000
257.037780 6.000000
257.080810 1000.000000
257.126370 8.000000

>ms2
137.022430 15.000000
147.039350 6.000000
147.045490 14.000000
239.072050 13.000000
257.040070 11.000000
257.080990 1000.000000
257.127810 18.000000

>ms2
68.997700 12.000000
80.480800 6.000000
81.033360 90.000000
91.048420 34.000000
91.055340 57.000000
93.033730 18.000000
95.048610 19.000000
95.054700 11.000000
107.047210 12.000000
109.029570 70.000000
117.032860 19.000000
119.047460 234.000000
120.050510 30.000000
120.061770 5.000000
123.046630 8.000000
135.043620 13.000000
137.001830 12.000000
137.022740 1000.000000
138.006260 11.000000
138.025340 85.000000
139.030610 6.000000
141.072780 11.000000
147.042880 128.000000
148.046490 19.000000
153.066530 11.000000
163.037570 5.000000
165.059880 10.000000
165.072800 32.000000
166.067260 11.000000
168.056200 9.000000
181.067640 5.000000
183.086640 7.000000
187.075610 7.000000
193.062040 6.000000
197.058980 5.000000
211.070330 24.000000
211.086060 6.000000
213.047440 10.000000
221.052640 6.000000
242.045090 6.000000
257.083530 22.000000

>ms2
53.035990 35.000000
65.025560 63.000000
68.997380 37.000000
77.040690 89.000000
81.018590 61.000000
81.033140 821.000000
89.034520 125.000000
91.054990 1000.000000
92.053340 54.000000
92.058680 129.000000
95.047290 35.000000
95.051600 35.000000
101.037840 70.000000
104.063010 30.000000
106.610420 44.000000
107.053260 44.000000
109.021630 44.000000
109.027450 73.000000
109.034710 30.000000
109.075280 38.000000
110.032030 40.000000
115.055300 52.000000
115.540150 49.000000
116.056170 37.000000
118.038230 44.000000
119.042180 85.000000
119.051520 148.000000
121.058290 38.000000
137.022230 246.000000
137.030730 329.000000
139.059710 42.000000
139.156420 30.000000
140.058270 47.000000
145.033620 31.000000
147.042270 30.000000
152.025190 35.000000
164.058520 127.000000
165.071730 336.000000
181.059880 40.000000
183.057250 77.000000

>ms2
81.035550 36.000000
91.049940 19.000000
91.055520 20.000000
92.055530 6.000000
109.033220 7.000000
117.034750 23.000000
118.039780 7.000000
119.035150 7.000000
119.049090 71.000000
123.047710 8.000000
137.022110 459.000000
138.024920 42.000000
138.032170 10.000000
139.025630 11.000000
147.043930 198.000000
148.047880 16.000000
163.030880 5.000000
163.039600 20.000000
165.069780 13.000000
181.060900 6.000000
183.084380 15.000000
193.064060 7.000000
211.060580 13.000000
211.076770 51.000000
239.067550 40.000000
242.046130 23.000000
242.061360 6.000000
257.079770 1000.000000
257.126340 11.000000

>ms2
137.023910 18.000000
138.030180 5.000000
147.044590 12.000000
239.070650 14.000000
257.041930 7.000000
257.081090 1000.000000
257.127140 18.000000

>ms2
81.024850 14.000000
81.031430 50.000000
81.037860 43.000000
91.054510 125.000000
92.059050 6.000000
93.035490 14.000000
95.048470 18.000000
107.050450 17.000000
109.020610 10.000000
109.028080 62.000000
117.033650 32.000000
119.030750 7.000000
119.049290 239.000000
120.052140 25.000000
120.058980 9.000000
123.039210 13.000000
123.048460 9.000000
135.041110 9.000000
136.989910 8.000000
137.003480 8.000000
137.023240 1000.000000
138.012950 8.000000
138.026440 76.000000
141.074020 7.000000
147.043430 171.000000
147.054200 22.000000
148.047240 11.000000
153.069930 10.000000
155.083940 9.000000
163.040220 18.000000
165.068620 40.000000
182.076920 10.000000
194.072780 5.000000
197.055630 7.000000
197.064360 7.000000
221.050080 6.000000
239.062160 5.000000
239.076930 6.000000
242.058490 10.000000

>ms2
53.040550 63.000000
65.039510 87.000000
68.999540 53.000000
69.998960 78.000000
81.027210 91.000000
81.033420 638.000000
82.038930 66.000000
89.040650 55.000000
91.045320 47.000000
91.055830 605.000000
93.029810 36.000000
95.055190 72.000000
95.979830 40.000000
96.045060 61.000000
99.071350 36.000000
107.048570 53.000000
109.012810 76.000000
109.029660 80.000000
115.052600 156.000000
118.037380 44.000000
119.036320 51.000000
119.045740 99.000000
119.054280 66.000000
137.022200 1000.000000
137.033220 40.000000
139.048320 42.000000
139.057650 63.000000
140.048340 78.000000
147.040470 59.000000
150.055630 49.000000
151.053390 116.000000
151.060760 53.000000
152.053800 87.000000
152.069960 57.000000
153.061770 91.000000
153.070880 63.000000
154.074390 44.000000
157.061160 63.000000
164.061050 80.000000
181.067460 101.000000
257.076080 114.000000

>ms2
68.997330 5.000000
81.030660 27.000000
81.036360 9.000000
91.051200 21.000000
91.057100 6.000000
95.053100 9.000000
109.035810 11.000000
119.049090 63.000000
123.041630 10.000000
123.049040 5.000000
137.022540 542.000000
138.026020 44.000000
139.023900 8.000000
147.041350 133.000000
147.048020 85.000000
148.041060 8.000000
148.050610 13.000000
153.066240 8.000000
163.044080 5.000000
165.068940 33.000000
183.078660 6.000000
197.056870 9.000000
211.075060 55.000000
239.070020 33.000000
239.082900 16.000000
240.056730 5.000000
240.070570 6.000000
240.080200 6.000000
242.050370 14.000000
242.059250 14.000000
257.037990 7.000000
257.080840 1000.000000
257.129240 7.000000

>ms2
137.021560 27.000000
147.042950 14.000000
239.071960 12.000000
257.041140 7.000000
257.080660 1000.000000
257.127080 18.000000

>ms2
53.039790 5.000000
77.038490 11.000000
81.023030 6.000000
81.031820 65.000000
81.036350 28.000000
82.040180 7.000000
91.054620 62.000000
92.057590 9.000000
93.030070 6.000000
95.046130 9.000000
95.052060 18.000000
107.047510 23.000000
109.028430 51.000000
110.030950 7.000000
115.048550 7.000000
117.028190 14.000000
117.034180 14.000000
119.048090 203.000000
120.048940 13.000000
123.044000 40.000000
124.045070 7.000000
137.022540 1000.000000
138.027590 79.000000
139.029850 7.000000
141.063960 6.000000
141.070850 9.000000
147.044490 179.000000
148.043150 16.000000
148.050600 8.000000
152.063600 5.000000
153.068340 22.000000
154.072750 8.000000
155.088120 5.000000
159.080730 6.000000
165.064770 23.000000
165.071560 42.000000
166.071990 13.000000
169.059330 11.000000
170.067990 5.000000
176.066300 6.000000
177.074630 7.000000
181.065770 10.000000
183.079220 7.000000
193.065840 6.000000
197.062380 6.000000
211.071120 16.000000
257.080230 11.000000

>ms2
65.038520 248.000000
66.046430 41.000000
68.995110 44.000000
69.000160 34.000000
71.159360 32.000000
81.033450 1000.000000
82.031590 51.000000
82.035950 59.000000
82.045110 46.000000
89.040530 104.000000
91.054790 912.000000
92.057370 92.000000
93.020750 31.000000
93.030240 53.000000
93.943950 29.000000
107.048390 53.000000
108.941350 34.000000
109.029830 175.000000
109.062550 31.000000
112.046180 41.000000
115.057980 97.000000
117.034450 61.000000
119.018300 44.000000
119.046770 375.000000
120.049800 36.000000
127.054460 53.000000
129.067750 34.000000
132.369780 29.000000
137.023650 497.000000
138.026380 58.000000
139.042130 71.000000
139.059770 75.000000
141.065400 110.000000
141.073060 48.000000
147.044390 54.000000
150.046460 31.000000
151.053380 75.000000
152.061360 34.000000
153.073640 37.000000
156.049910 42.000000
163.070010 61.000000
164.042540 31.000000
164.062740 80.000000
167.068310 76.000000
168.047820 73.000000
169.070480 46.000000
257.086120 51.000000

