>compound PR58328138
>parentmass 399.19144839999996
>ionization [M+H]+
>formula C22H26N2O5
>rt 216.864000
>profile qtof
#smiles_iso COC(=O)[C@@]1(C[C@]23CCCN4[C@@H]2[C@@]5([C@]1(CC3)NC6=C5C=CC7=C6OCO7)CC4)O
#smiles_can COC(=O)C1(CC23CCCN4C2C5(C1(CC3)NC6=C5C=CC7=C6OCO7)CC4)O
#inchikey JVIKUDVTJCANPX-NBYDKTAJSA-N
#pubchem_id 137832348
#mb_accession PR300061,PR300066,PR300071,PR300076,PR300081,PR300086,PR300091,PR300096,PR300101,PR300106,PR300111,PR300116

>ms2peaks
174.053280 7.000000
222.093640 12.000000
241.097870 34.000000
269.129180 46.000000
270.128630 7.000000
339.170750 24.000000
340.172670 10.000000
399.138550 14.000000
399.191160 1000.000000
399.249300 19.000000

>ms2peaks
399.133670 10.000000
399.191010 1000.000000
399.249760 25.000000

>ms2peaks
188.068700 6.000000
222.091960 23.000000
239.119520 18.000000
241.097990 55.000000
252.103260 12.000000
268.127290 8.000000
269.130190 115.000000
270.133390 22.000000
311.135280 5.000000
321.117580 5.000000
339.169160 90.000000
340.175320 14.000000
353.151980 12.000000
371.164280 8.000000
399.141540 18.000000
399.192020 1000.000000
399.252410 9.000000

>ms2peaks
51.761800 7.000000
53.392100 7.000000
59.011910 12.000000
59.070420 7.000000
64.121600 7.000000
67.051700 20.000000
69.043730 6.000000
70.062990 9.000000
70.066830 6.000000
72.031240 11.000000
77.036880 6.000000
77.043150 8.000000
78.426540 10.000000
79.053970 43.000000
81.065160 24.000000
82.065530 17.000000
82.069310 8.000000
84.072330 19.000000
84.080510 48.000000
88.039610 10.000000
89.035240 15.000000
91.053520 44.000000
91.058060 17.000000
93.062280 9.000000
93.067380 12.000000
94.064520 32.000000
95.046330 31.000000
95.055210 28.000000
95.078580 12.000000
95.085370 19.000000
96.079930 55.000000
96.089240 6.000000
97.064630 10.000000
97.085990 24.000000
98.095380 8.000000
100.071400 12.000000
100.078990 25.000000
103.033960 11.000000
103.041950 31.000000
105.066060 10.000000
105.073470 7.000000
105.546070 6.000000
105.660590 6.000000
106.043790 6.000000
106.061680 55.000000
106.068760 35.000000
107.046870 8.000000
107.088270 9.000000
108.041000 6.000000
108.076120 6.000000
108.082920 20.000000
109.080260 8.000000
110.058260 6.000000
110.085210 6.000000
110.089840 9.000000
113.053700 8.000000
114.034670 16.000000
115.059600 15.000000
117.030840 10.000000
117.055880 20.000000
117.067860 10.000000
118.054310 11.000000
118.062640 41.000000
118.070010 22.000000
119.046760 13.000000
119.066760 8.000000
119.075590 6.000000
120.083850 40.000000
121.063010 6.000000
121.075710 14.000000
121.093500 9.000000
122.061680 6.000000
122.096630 66.000000
122.107990 6.000000
123.083400 6.000000
123.098380 8.000000
124.074230 18.000000
127.088560 7.000000
128.045040 13.000000
128.072160 12.000000
129.063670 25.000000
129.072250 19.000000
130.068560 124.000000
131.052930 8.000000
131.089630 7.000000
132.072110 10.000000
132.081250 30.000000
133.057690 11.000000
133.092990 10.000000
134.050890 6.000000
134.071330 9.000000
134.098310 36.000000
134.492710 7.000000
135.061750 11.000000
135.085660 7.000000
135.109450 17.000000
135.795430 6.000000
136.069640 11.000000
136.076770 19.000000
136.091230 6.000000
136.112060 47.000000
136.122700 10.000000
136.131560 6.000000
137.082570 15.000000
137.112440 9.000000
138.055480 8.000000
138.084460 7.000000
138.091960 10.000000
139.056870 6.000000
140.048650 8.000000
140.404690 6.000000
141.060490 8.000000
142.046540 7.000000
142.062940 27.000000
142.068300 44.000000
143.045290 12.000000
143.074080 9.000000
143.456760 16.000000
144.062840 7.000000
144.081500 39.000000
144.510790 6.000000
145.041950 18.000000
146.057340 124.000000
146.094970 11.000000
146.102360 15.000000
147.059220 23.000000
147.067440 40.000000
147.084550 6.000000
148.051770 7.000000
148.114520 18.000000
150.062290 49.000000
150.088850 18.000000
152.059560 18.000000
152.076810 10.000000
153.055210 6.000000
153.076540 10.000000
153.118770 6.000000
153.730730 6.000000
154.064210 13.000000
154.072200 9.000000
155.069460 6.000000
156.074620 24.000000
156.083250 32.000000
156.090390 10.000000
157.058170 16.000000
157.072020 20.000000
158.037020 6.000000
158.059340 147.000000
158.074040 14.000000
158.092770 19.000000
158.101090 13.000000
159.062160 12.000000
159.100920 10.000000
159.294390 7.000000
160.074400 29.000000
160.098180 9.000000
161.044340 15.000000
161.082860 9.000000
163.040510 6.000000
163.619550 8.000000
164.063170 14.000000
164.107500 22.000000
164.156070 9.000000
164.861390 13.000000
165.068950 20.000000
165.077900 9.000000
166.072850 7.000000
166.087020 8.000000
167.051960 7.000000
167.071150 62.000000
167.085890 51.000000
167.091640 24.000000
168.045360 20.000000
168.058520 24.000000
168.075090 45.000000
168.083040 55.000000
168.092160 17.000000
169.076800 10.000000
169.089780 18.000000
170.054530 70.000000
170.065570 11.000000
170.088150 13.000000
170.100690 16.000000
171.053390 52.000000
171.067400 11.000000
171.096760 7.000000
171.420200 6.000000
172.063580 13.000000
172.075990 36.000000
172.114650 7.000000
173.047350 7.000000
173.079590 8.000000
173.969350 8.000000
174.036730 18.000000
174.055160 427.000000
174.095700 13.000000
174.131810 23.000000
175.037120 6.000000
175.049090 12.000000
175.059940 43.000000
176.040130 9.000000
176.067280 29.000000
176.075440 10.000000
176.088910 18.000000
176.102750 22.000000
177.067700 8.000000
178.073090 38.000000
178.082790 38.000000
178.186070 6.000000
178.647170 9.000000
179.069490 7.000000
179.081670 6.000000
179.092420 18.000000
180.070880 6.000000
180.085660 22.000000
181.049180 6.000000
181.087570 30.000000
181.107390 9.000000
182.055040 11.000000
182.065980 59.000000
182.085140 14.000000
182.098400 27.000000
182.106280 15.000000
183.059010 6.000000
183.070760 82.000000
183.082240 21.000000
183.099930 16.000000
183.111510 20.000000
183.529950 6.000000
184.069170 11.000000
184.082000 122.000000
184.120130 9.000000
184.898390 7.000000
185.078410 41.000000
186.047410 13.000000
186.057620 24.000000
186.076520 19.000000
186.097000 18.000000
186.106670 19.000000
187.062760 18.000000
187.083880 6.000000
187.092560 6.000000
188.050860 7.000000
188.070620 153.000000
188.090240 6.000000
189.074070 18.000000
190.076160 38.000000
191.070480 28.000000
191.079640 15.000000
191.093350 8.000000
192.062530 11.000000
192.079090 52.000000
193.068010 6.000000
193.079270 30.000000
193.092070 45.000000
194.052410 18.000000
194.071460 21.000000
194.083890 50.000000
194.097850 357.000000
194.131870 19.000000
194.672130 14.000000
194.980100 7.000000
195.065110 17.000000
195.101330 87.000000
195.117100 11.000000
195.127030 8.000000
195.174130 6.000000
196.056660 7.000000
196.076510 171.000000
196.101290 27.000000
196.117190 22.000000
196.226300 8.000000
196.453510 11.000000
197.055280 8.000000
197.067320 9.000000
197.080930 31.000000
197.100200 8.000000
197.555100 6.000000
198.042400 18.000000
198.058430 39.000000
198.091600 45.000000
198.107850 17.000000
199.035340 6.000000
199.059080 10.000000
199.069000 20.000000
199.081740 50.000000
199.094770 17.000000
199.123310 29.000000
200.033130 7.000000
200.043980 21.000000
200.067630 177.000000
200.102630 7.000000
200.125890 23.000000
200.898410 7.000000
201.034670 16.000000
201.064250 6.000000
201.076600 40.000000
202.055050 6.000000
202.089130 13.000000
202.096270 12.000000
202.671220 6.000000
203.088880 9.000000
203.097490 7.000000
204.041950 14.000000
204.083620 76.000000
204.148570 13.000000
205.082240 7.000000
205.094180 6.000000
205.460680 6.000000
206.085280 21.000000
206.097810 9.000000
207.061200 15.000000
207.079970 17.000000
207.091520 36.000000
208.032230 6.000000
208.070470 63.000000
208.116490 81.000000
209.069400 6.000000
209.088210 30.000000
209.105550 90.000000
209.119720 14.000000
210.059710 15.000000
210.077060 19.000000
210.089680 125.000000
210.108760 9.000000
210.116060 8.000000
210.440630 6.000000
211.048680 8.000000
211.058010 29.000000
211.086350 122.000000
211.097810 37.000000
211.124270 40.000000
211.142430 7.000000
212.061810 10.000000
212.070680 50.000000
212.084410 20.000000
212.097460 26.000000
212.104830 76.000000
212.127030 25.000000
212.953860 6.000000
213.061810 7.000000
213.074010 24.000000
213.092410 36.000000
213.105450 105.000000
213.121230 7.000000
213.139720 14.000000
213.382480 8.000000
214.050750 12.000000
214.065550 16.000000
214.086850 89.000000
215.055800 9.000000
215.069460 23.000000
215.091230 13.000000
215.211700 7.000000
216.058140 12.000000
216.078630 10.000000
216.104580 16.000000
216.540300 7.000000
218.093340 24.000000
218.108930 38.000000
219.068470 20.000000
219.084750 8.000000
219.112700 6.000000
220.053670 6.000000
220.063550 13.000000
220.078600 52.000000
220.106120 24.000000
220.144390 12.000000
220.433360 13.000000
221.031950 6.000000
221.074580 20.000000
221.087860 68.000000
221.119130 13.000000
221.659190 7.000000
222.042970 6.000000
222.070850 54.000000
222.093890 1000.000000
222.653350 6.000000
223.064580 30.000000
223.087810 77.000000
223.097960 107.000000
223.106950 39.000000
223.326350 16.000000
224.012730 14.000000
224.034320 14.000000
224.069950 628.000000
224.100420 62.000000
224.114140 14.000000
224.134450 6.000000
224.462170 9.000000
225.049640 14.000000
225.062650 18.000000
225.077580 118.000000
225.102220 35.000000
225.112560 18.000000
226.040620 20.000000
226.051500 42.000000
226.087630 158.000000
226.119690 19.000000
226.131790 26.000000
227.084320 23.000000
227.096360 56.000000
227.125400 6.000000
227.272830 7.000000
228.055390 6.000000
228.068770 6.000000
228.085040 34.000000
228.094530 35.000000
228.104510 17.000000
228.628400 6.000000
229.099300 11.000000
230.672210 6.000000
231.102280 16.000000
231.592040 7.000000
232.120970 6.000000
233.093110 10.000000
233.118230 8.000000
233.358950 9.000000
234.070400 32.000000
234.082730 34.000000
234.093310 37.000000
234.114750 15.000000
234.137860 9.000000
235.068480 8.000000
235.082320 26.000000
235.092640 45.000000
235.104950 17.000000
235.113910 23.000000
235.125000 15.000000
235.143490 12.000000
235.294390 18.000000
235.472630 6.000000
236.039080 6.000000
236.052470 6.000000
236.072630 11.000000
236.086140 6.000000
236.099560 24.000000
236.112810 48.000000
237.081070 21.000000
237.101520 117.000000
237.716370 6.000000
238.034640 8.000000
238.052370 9.000000
238.062230 16.000000
238.086320 149.000000
238.100710 17.000000
238.124100 20.000000
238.480150 8.000000
238.712550 7.000000
239.041260 10.000000
239.079640 49.000000
239.087330 101.000000
239.105210 56.000000
239.120850 227.000000
239.225280 6.000000
240.061630 26.000000
240.084960 56.000000
240.098430 162.000000
240.110690 107.000000
240.129010 59.000000
241.049210 28.000000
241.062100 14.000000
241.097900 879.000000
241.131060 66.000000
242.092850 40.000000
242.106200 104.000000
242.137330 36.000000
242.149770 8.000000
244.144550 8.000000
245.011430 8.000000
245.084060 6.000000
245.121290 6.000000
246.091310 42.000000
247.089080 9.000000
247.096630 9.000000
248.075440 34.000000
248.097950 26.000000
248.113160 24.000000
248.133440 9.000000
249.113820 9.000000
250.028880 8.000000
250.048160 30.000000
250.061540 6.000000
250.079570 40.000000
250.092350 58.000000
250.124850 32.000000
251.080220 14.000000
251.090820 46.000000
251.109040 34.000000
252.056520 14.000000
252.072940 6.000000
252.100540 110.000000
252.112320 52.000000
252.144120 10.000000
253.059010 13.000000
253.094620 65.000000
253.111970 81.000000
253.130830 27.000000
253.930010 6.000000
254.070310 9.000000
254.079070 25.000000
254.110760 26.000000
254.119090 24.000000
254.149990 6.000000
254.742280 6.000000
255.075380 19.000000
255.088550 6.000000
255.108370 8.000000
255.125270 11.000000
256.049560 6.000000
256.099000 7.000000
256.106840 9.000000
258.053500 8.000000
258.078640 39.000000
259.088130 6.000000
259.101070 10.000000
262.094880 26.000000
262.113950 22.000000
262.129580 6.000000
263.079620 35.000000
263.091710 22.000000
263.119930 71.000000
263.786290 6.000000
263.888340 10.000000
264.052760 15.000000
264.067080 26.000000
264.085510 9.000000
264.097600 22.000000
264.112850 83.000000
264.136230 10.000000
264.897430 6.000000
265.036620 7.000000
265.056730 10.000000
265.098510 16.000000
265.116820 43.000000
265.136540 31.000000
266.080690 34.000000
266.111720 101.000000
266.916020 10.000000
266.949520 6.000000
267.040160 8.000000
267.067200 7.000000
267.111240 197.000000
267.120150 124.000000
267.141570 8.000000
268.078550 15.000000
268.110080 48.000000
268.123440 177.000000
268.153530 6.000000
269.023040 6.000000
269.040370 13.000000
269.089260 9.000000
269.101100 18.000000
269.115420 71.000000
269.131350 384.000000
270.109340 9.000000
270.131810 65.000000
270.144350 54.000000
271.081150 6.000000
271.131560 8.000000
271.144040 18.000000
272.091800 7.000000
274.070770 9.000000
274.093780 12.000000
275.063630 13.000000
275.075620 10.000000
276.076510 15.000000
276.100280 7.000000
277.077670 7.000000
277.097780 32.000000
277.121460 6.000000
277.139040 9.000000
278.035740 6.000000
278.058590 6.000000
278.077970 19.000000
278.113010 12.000000
278.130430 6.000000
278.148470 7.000000
279.077940 8.000000
279.093660 6.000000
279.115420 36.000000
279.131930 9.000000
280.127140 7.000000
280.143190 7.000000
281.102910 9.000000
281.138400 28.000000
282.097870 6.000000
282.116640 7.000000
282.136290 17.000000
283.110630 11.000000
284.091190 16.000000
284.187740 12.000000
285.122280 9.000000
286.125060 10.000000
288.104460 6.000000
290.104160 8.000000
291.022370 10.000000
291.098910 24.000000
291.119110 29.000000
291.147860 6.000000
291.626530 8.000000
292.019780 8.000000
292.068760 6.000000
292.097930 12.000000
292.134490 12.000000
293.088930 32.000000
293.100430 21.000000
293.125670 47.000000
293.140350 10.000000
293.158870 7.000000
293.242030 13.000000
293.388340 8.000000
294.105770 19.000000
294.134400 28.000000
294.149290 18.000000
295.131960 5.000000
295.144170 19.000000
297.166500 7.000000
297.494840 8.000000
301.115420 6.000000
303.114930 6.000000
304.124240 6.000000
304.149080 16.000000
306.131290 9.000000
307.055540 11.000000
308.090940 8.000000
308.123050 7.000000
311.108430 9.000000
311.147250 13.000000
311.154750 6.000000
311.202880 7.000000
311.723600 8.000000
311.983800 6.000000
312.147980 18.000000
318.118130 10.000000
321.104950 11.000000
321.131160 7.000000
322.102840 8.000000
322.122440 6.000000
322.159300 6.000000
324.085720 7.000000
324.109560 6.000000
329.111020 8.000000
339.150670 28.000000
339.172790 276.000000
339.213960 6.000000
340.141820 7.000000
340.170560 32.000000
340.186830 7.000000
349.155790 8.000000
371.158660 9.000000
371.177030 19.000000
373.736720 10.000000
381.280520 8.000000
382.209170 9.000000
399.128910 7.000000
399.182800 40.000000
399.197330 103.000000

>ms2peaks
222.091450 14.000000
224.073560 8.000000
226.086870 6.000000
241.097470 31.000000
242.101880 7.000000
252.097720 6.000000
268.118960 8.000000
269.126430 41.000000
270.131840 7.000000
339.172120 39.000000
340.173310 7.000000
399.132260 17.000000
399.190550 1000.000000
399.249150 18.000000

>ms2peaks
399.133300 13.000000
399.190370 1000.000000
399.247990 24.000000

>ms2peaks
174.052260 5.000000
222.093770 15.000000
236.109340 7.000000
239.118120 12.000000
240.111850 11.000000
241.086910 13.000000
241.098910 48.000000
242.100950 8.000000
252.102250 12.000000
267.111300 5.000000
268.124850 10.000000
269.128690 90.000000
270.127900 10.000000
270.137880 6.000000
293.129640 8.000000
311.143920 6.000000
339.168550 90.000000
340.170870 16.000000
353.152650 12.000000
399.145940 14.000000
399.191380 1000.000000
399.250490 12.000000

>ms2peaks
54.031050 8.000000
58.067650 26.000000
70.066910 9.000000
73.087300 13.000000
77.038780 5.000000
78.051540 14.000000
80.050030 6.000000
81.056170 18.000000
82.064880 20.000000
83.047580 6.000000
84.079920 11.000000
91.055120 7.000000
93.064960 6.000000
95.052350 13.000000
96.055540 7.000000
96.077780 24.000000
96.084140 22.000000
97.087080 12.000000
98.093730 9.000000
101.042970 8.000000
101.077290 15.000000
103.028420 11.000000
103.040150 14.000000
105.067620 9.000000
106.029250 6.000000
106.068220 23.000000
107.048260 7.000000
107.067560 9.000000
108.077870 15.000000
109.095290 9.000000
110.061590 31.000000
110.095410 55.000000
110.101520 22.000000
111.096980 6.000000
111.102900 6.000000
115.049670 21.000000
115.058350 13.000000
116.049590 20.000000
116.069720 16.000000
117.029530 5.000000
117.055180 15.000000
117.061580 5.000000
118.049090 7.000000
118.061450 32.000000
118.065530 53.000000
119.042710 7.000000
119.049450 5.000000
119.064970 6.000000
120.072200 11.000000
120.083400 17.000000
121.059900 9.000000
121.980250 6.000000
122.087070 13.000000
122.095890 68.000000
123.102070 8.000000
124.075650 6.000000
124.105550 23.000000
126.082530 9.000000
127.058790 5.000000
128.041610 9.000000
130.064740 57.000000
130.781920 15.000000
131.049640 7.000000
132.072560 6.000000
132.086000 12.000000
133.062500 5.000000
133.086400 8.000000
133.104510 11.000000
134.054950 19.000000
134.063000 5.000000
134.096050 10.000000
135.033570 6.000000
135.086060 8.000000
136.068820 17.000000
136.079030 70.000000
136.089320 12.000000
136.111150 24.000000
140.098210 10.000000
141.060760 9.000000
141.071780 8.000000
142.056590 5.000000
142.069110 14.000000
143.055570 5.000000
143.070270 15.000000
143.076540 15.000000
144.083600 12.000000
144.201140 11.000000
145.051350 7.000000
145.065520 5.000000
145.088060 5.000000
146.027630 9.000000
146.053150 39.000000
146.061430 101.000000
146.089170 5.000000
146.100880 6.000000
147.040500 6.000000
147.062290 16.000000
150.055240 11.000000
152.082780 10.000000
153.059370 7.000000
153.073140 6.000000
154.059370 7.000000
154.065950 14.000000
154.082730 8.000000
154.720920 6.000000
155.058010 13.000000
155.074430 15.000000
155.094130 7.000000
156.046520 9.000000
156.070650 7.000000
156.083040 5.000000
156.093520 8.000000
157.063860 8.000000
157.077220 13.000000
157.094710 6.000000
157.994190 7.000000
158.039980 6.000000
158.054750 65.000000
158.067410 23.000000
158.313900 6.000000
159.036940 6.000000
159.069790 8.000000
159.077640 8.000000
160.077420 28.000000
161.050420 18.000000
165.067410 8.000000
166.058430 19.000000
166.075090 30.000000
166.087980 78.000000
166.803890 6.000000
167.069930 52.000000
167.080400 28.000000
168.037780 6.000000
168.042720 15.000000
168.071900 28.000000
168.084490 45.000000
168.677640 16.000000
169.068540 6.000000
169.079610 10.000000
169.087020 6.000000
170.038510 6.000000
170.051570 20.000000
170.060120 9.000000
170.075590 5.000000
170.096190 28.000000
170.103650 12.000000
171.059160 11.000000
171.070040 24.000000
171.082750 6.000000
171.954240 5.000000
172.047210 15.000000
172.060210 10.000000
172.070690 36.000000
172.078570 18.000000
172.093840 6.000000
172.103700 12.000000
173.046220 8.000000
173.090290 6.000000
173.800030 6.000000
174.056170 347.000000
175.014890 7.000000
175.048310 21.000000
175.058400 31.000000
175.072720 23.000000
175.084980 9.000000
176.281050 6.000000
177.071080 7.000000
177.725970 7.000000
178.069630 9.000000
178.076610 31.000000
178.087310 47.000000
178.095790 11.000000
180.044360 17.000000
180.065190 9.000000
180.073090 24.000000
180.080870 13.000000
181.060550 8.000000
181.081180 12.000000
181.089720 6.000000
181.828380 10.000000
182.046800 19.000000
182.061490 29.000000
182.089890 10.000000
182.105640 11.000000
183.059810 25.000000
183.070680 72.000000
183.087460 8.000000
183.095000 15.000000
183.287110 6.000000
184.067440 35.000000
184.077000 27.000000
184.111850 10.000000
184.197890 5.000000
185.077990 7.000000
185.089080 10.000000
186.011700 6.000000
186.052220 21.000000
186.064510 6.000000
186.085450 82.000000
186.100200 12.000000
186.385790 6.000000
187.053860 6.000000
187.064540 20.000000
187.073880 5.000000
188.057480 31.000000
188.072340 134.000000
189.077710 7.000000
190.686330 8.000000
191.074010 43.000000
192.046450 6.000000
192.055970 5.000000
192.066100 8.000000
192.072910 11.000000
192.083830 11.000000
193.074110 11.000000
193.088820 36.000000
193.128040 7.000000
194.057500 5.000000
194.073170 5.000000
194.096420 473.000000
194.141400 6.000000
194.281340 6.000000
195.053220 8.000000
195.064070 12.000000
195.073670 11.000000
195.087910 12.000000
195.097020 50.000000
195.106890 29.000000
195.130940 6.000000
195.986040 8.000000
196.016220 9.000000
196.037290 9.000000
196.052290 25.000000
196.073680 162.000000
196.084110 67.000000
196.105290 6.000000
196.115840 23.000000
196.948840 12.000000
197.042980 8.000000
197.066710 9.000000
197.077800 59.000000
197.106600 11.000000
198.031070 8.000000
198.053220 47.000000
198.061230 12.000000
198.089340 78.000000
198.104100 9.000000
199.050600 10.000000
199.067350 6.000000
199.078090 6.000000
199.092680 18.000000
199.116820 26.000000
199.128040 22.000000
200.037250 6.000000
200.068300 139.000000
200.116650 17.000000
200.127350 5.000000
201.075870 54.000000
201.106600 15.000000
202.069380 18.000000
202.087570 14.000000
202.123540 8.000000
202.786040 10.000000
203.038880 12.000000
203.083180 8.000000
203.483490 5.000000
204.068760 20.000000
204.083560 67.000000
205.062440 6.000000
205.087680 16.000000
206.108540 13.000000
206.865550 6.000000
207.065810 14.000000
207.077530 34.000000
207.101140 25.000000
208.036250 6.000000
208.056490 6.000000
208.078140 53.000000
208.093540 25.000000
208.110580 39.000000
209.037510 18.000000
209.058120 9.000000
209.073500 7.000000
209.085370 27.000000
209.110720 70.000000
209.371980 8.000000
210.053100 19.000000
210.063980 12.000000
210.083510 21.000000
210.096850 119.000000
210.112700 12.000000
210.124800 8.000000
210.166140 8.000000
211.056320 13.000000
211.071780 57.000000
211.087300 115.000000
211.120410 62.000000
211.143230 10.000000
211.256360 5.000000
212.071260 89.000000
212.086550 15.000000
212.108670 36.000000
212.172180 7.000000
213.040680 7.000000
213.069580 29.000000
213.080870 19.000000
213.096890 41.000000
213.108220 50.000000
213.121250 11.000000
213.133900 5.000000
213.905590 6.000000
214.040150 10.000000
214.049180 6.000000
214.074600 16.000000
214.087310 55.000000
214.095660 51.000000
214.411500 5.000000
214.826510 7.000000
215.043440 6.000000
215.063750 5.000000
215.080060 6.000000
215.887020 13.000000
216.080840 8.000000
217.089830 8.000000
218.065020 8.000000
218.095460 10.000000
218.103880 5.000000
219.106050 9.000000
219.258260 6.000000
220.073590 34.000000
220.083830 19.000000
220.092000 6.000000
220.109440 6.000000
220.119230 7.000000
221.072270 9.000000
221.085720 7.000000
221.349320 6.000000
222.052930 6.000000
222.091000 934.000000
222.126750 17.000000
222.159710 5.000000
222.562760 5.000000
223.072530 13.000000
223.093700 164.000000
223.112750 23.000000
224.038640 9.000000
224.072460 382.000000
224.104800 117.000000
224.125870 12.000000
224.518280 7.000000
225.075820 268.000000
225.106170 14.000000
226.037610 13.000000
226.045700 17.000000
226.056340 21.000000
226.083660 134.000000
226.094510 90.000000
226.116940 35.000000
227.063320 17.000000
227.084440 10.000000
227.094070 24.000000
228.078950 6.000000
228.098340 45.000000
228.110490 10.000000
229.050200 6.000000
229.075150 10.000000
230.093990 18.000000
230.100520 8.000000
231.067610 7.000000
232.076640 17.000000
232.909500 10.000000
233.088380 31.000000
233.869510 11.000000
234.054610 8.000000
234.087520 14.000000
234.097870 19.000000
234.343250 8.000000
234.593370 6.000000
235.044080 9.000000
235.075990 7.000000
235.087190 25.000000
235.098970 30.000000
235.121340 17.000000
235.127170 37.000000
236.070950 26.000000
236.101960 48.000000
236.113040 19.000000
236.128980 7.000000
237.076640 13.000000
237.094710 39.000000
237.107330 71.000000
238.057970 19.000000
238.074400 22.000000
238.084950 115.000000
238.100940 76.000000
238.122380 23.000000
238.133590 8.000000
238.256180 5.000000
238.991420 5.000000
239.037640 9.000000
239.049670 15.000000
239.074310 34.000000
239.088680 88.000000
239.114620 121.000000
239.153080 11.000000
240.092800 64.000000
240.100300 158.000000
240.114690 36.000000
240.130510 9.000000
240.359800 7.000000
240.970380 6.000000
241.053730 5.000000
241.097850 1000.000000
241.132220 110.000000
242.082580 33.000000
242.095630 52.000000
242.107760 56.000000
242.140200 5.000000
242.550600 6.000000
242.936340 5.000000
243.105160 16.000000
244.069960 9.000000
244.124300 12.000000
245.083980 8.000000
245.112260 23.000000
245.947040 8.000000
246.056290 6.000000
246.079220 22.000000
246.096650 68.000000
246.871950 8.000000
247.104400 16.000000
247.832810 5.000000
248.095250 44.000000
248.112260 10.000000
249.108440 11.000000
250.074550 18.000000
250.089710 16.000000
250.105730 9.000000
250.489170 10.000000
251.091340 25.000000
251.118270 23.000000
252.066040 6.000000
252.076890 20.000000
252.096070 58.000000
252.105030 140.000000
252.145800 5.000000
252.177930 6.000000
253.053730 7.000000
253.072590 32.000000
253.087740 29.000000
253.105550 98.000000
253.120000 21.000000
253.135730 7.000000
254.076220 17.000000
254.087770 23.000000
254.105620 41.000000
254.117680 38.000000
254.131990 17.000000
254.570340 8.000000
255.063170 5.000000
255.097990 15.000000
255.120700 14.000000
256.069490 8.000000
256.080900 9.000000
257.067050 5.000000
257.083830 5.000000
258.059940 21.000000
258.075740 26.000000
259.329650 6.000000
262.058900 5.000000
262.103970 7.000000
262.124880 6.000000
262.174010 12.000000
262.940430 5.000000
263.059840 6.000000
263.080660 26.000000
263.097900 17.000000
263.113010 50.000000
263.123200 19.000000
263.140960 15.000000
264.102480 44.000000
264.120450 38.000000
264.131160 10.000000
264.328310 9.000000
264.522000 12.000000
265.021610 7.000000
265.058440 8.000000
265.073910 8.000000
265.083280 15.000000
265.095950 21.000000
265.108370 44.000000
265.161410 6.000000
265.768430 5.000000
266.080840 21.000000
266.108060 47.000000
266.135710 20.000000
267.067660 5.000000
267.085210 25.000000
267.116240 215.000000
267.147920 12.000000
267.770690 8.000000
268.033230 7.000000
268.119810 181.000000
268.954620 8.000000
269.063600 6.000000
269.130100 388.000000
269.259830 6.000000
270.117250 18.000000
270.134800 81.000000
271.156040 11.000000
271.747280 9.000000
272.231870 6.000000
273.090060 6.000000
274.078490 5.000000
274.095490 11.000000
274.554810 8.000000
276.086820 13.000000
276.094700 6.000000
278.081540 7.000000
278.098600 35.000000
278.116060 45.000000
278.195980 14.000000
279.088930 6.000000
279.098110 12.000000
279.117610 12.000000
279.132450 7.000000
279.150700 11.000000
280.091190 11.000000
280.118870 23.000000
280.134830 14.000000
280.292420 11.000000
281.116790 20.000000
281.132230 20.000000
281.231990 5.000000
282.045530 8.000000
282.069700 6.000000
282.079710 7.000000
282.136380 13.000000
283.106630 45.000000
283.153720 10.000000
286.627900 7.000000
288.087950 6.000000
289.123930 6.000000
290.091670 11.000000
291.105900 26.000000
292.096130 16.000000
292.109530 16.000000
292.127590 11.000000
292.160770 6.000000
293.045380 9.000000
293.064730 13.000000
293.091190 12.000000
293.110380 37.000000
293.124540 25.000000
293.138210 16.000000
293.145870 6.000000
293.599150 6.000000
294.092320 19.000000
294.106750 8.000000
294.131290 23.000000
295.121490 14.000000
295.134190 15.000000
295.145510 8.000000
295.167420 16.000000
295.181300 29.000000
296.126860 14.000000
298.142030 6.000000
298.157010 6.000000
298.170290 6.000000
302.115840 8.000000
305.124450 6.000000
306.095580 6.000000
308.145230 7.000000
311.138610 21.000000
311.174070 10.000000
312.149480 14.000000
321.141360 9.000000
322.104860 17.000000
322.137270 6.000000
323.110020 7.000000
328.737300 6.000000
335.044310 5.000000
335.106480 8.000000
338.493070 6.000000
339.164400 94.000000
339.175900 132.000000
340.171140 69.000000
341.064090 6.000000
341.188720 5.000000
341.975830 5.000000
344.141970 8.000000
349.096440 6.000000
349.241210 12.000000
353.145720 7.000000
354.127810 7.000000
354.157230 10.000000
365.502440 7.000000
369.145420 5.000000
382.192720 5.000000
399.142240 6.000000
399.163020 6.000000
399.190250 47.000000
399.207400 44.000000
399.228450 5.000000

>ms2peaks
222.089160 15.000000
226.081860 5.000000
241.095930 38.000000
269.126680 46.000000
270.128200 6.000000
339.159060 8.000000
339.172670 27.000000
399.136170 12.000000
399.190700 1000.000000
399.248170 21.000000

>ms2peaks
399.139560 5.000000
399.191930 1000.000000
399.250670 21.000000

>ms2peaks
174.048750 6.000000
174.064320 5.000000
222.090450 10.000000
239.108750 6.000000
239.126400 11.000000
240.107710 6.000000
241.096410 43.000000
241.107120 11.000000
242.108170 6.000000
252.107120 17.000000
269.128570 104.000000
270.125310 8.000000
270.139040 10.000000
339.173550 72.000000
340.177400 12.000000
399.124450 10.000000
399.146180 10.000000
399.192720 1000.000000

>ms2peaks
53.041620 7.000000
58.066990 5.000000
66.035720 6.000000
67.052600 8.000000
67.057300 12.000000
70.054220 14.000000
70.062310 8.000000
71.395050 8.000000
72.050550 7.000000
77.040370 20.000000
79.054790 35.000000
81.033910 7.000000
82.063920 37.000000
84.081200 35.000000
88.074840 11.000000
91.052700 30.000000
93.070900 17.000000
94.055270 11.000000
94.064250 9.000000
95.048500 6.000000
95.053890 7.000000
95.068940 11.000000
96.077670 21.000000
96.083350 27.000000
97.079220 6.000000
97.086160 15.000000
100.073620 23.000000
100.079650 7.000000
101.066720 6.000000
103.015190 6.000000
103.041240 50.000000
103.057910 6.000000
104.050000 8.000000
105.069810 7.000000
106.052170 8.000000
106.059680 21.000000
106.066570 24.000000
107.044150 6.000000
107.050870 16.000000
107.069820 14.000000
108.080860 11.000000
108.089370 7.000000
109.061900 11.000000
109.083390 10.000000
110.057530 16.000000
110.062820 13.000000
110.082320 5.000000
110.095460 46.000000
110.100950 19.000000
111.026030 10.000000
111.060290 8.000000
115.057400 26.000000
115.065930 11.000000
116.049390 17.000000
116.060870 12.000000
117.015340 5.000000
117.066090 5.000000
117.069770 12.000000
118.062700 68.000000
118.071760 18.000000
119.050310 7.000000
119.056540 11.000000
120.071750 8.000000
120.084690 34.000000
121.032720 10.000000
121.076770 5.000000
121.104270 8.000000
122.060010 6.000000
122.095230 72.000000
123.067110 11.000000
123.090100 10.000000
124.069120 11.000000
124.109810 5.000000
127.050830 15.000000
127.845160 8.000000
128.052410 10.000000
128.071660 12.000000
130.061830 69.000000
131.038010 5.000000
131.066270 9.000000
131.077130 8.000000
132.037810 15.000000
132.051420 7.000000
132.083040 6.000000
132.087780 14.000000
133.043780 5.000000
133.060730 7.000000
133.088290 14.000000
134.051450 12.000000
134.060640 22.000000
134.091370 14.000000
135.041210 7.000000
136.075180 16.000000
136.082200 9.000000
136.105130 5.000000
136.113480 8.000000
137.070890 6.000000
139.085560 8.000000
140.100020 8.000000
140.112760 5.000000
141.044420 5.000000
142.044160 12.000000
142.058780 9.000000
142.069490 14.000000
142.080800 5.000000
143.054410 15.000000
143.065380 19.000000
143.076750 8.000000
143.213710 8.000000
143.229520 7.000000
144.052950 14.000000
144.074200 19.000000
144.083010 7.000000
145.077150 6.000000
145.083790 7.000000
145.534910 8.000000
146.042070 21.000000
146.058700 152.000000
146.091660 18.000000
147.095280 5.000000
148.077040 33.000000
148.787430 6.000000
149.844440 8.000000
150.046910 6.000000
150.056460 32.000000
150.091230 17.000000
152.065110 7.000000
152.099820 17.000000
152.108180 6.000000
153.073640 14.000000
154.062330 15.000000
154.067760 8.000000
155.046360 10.000000
155.064180 6.000000
155.077710 10.000000
156.066820 8.000000
156.086110 29.000000
157.084560 8.000000
157.728700 5.000000
158.056000 81.000000
158.065520 45.000000
158.090330 9.000000
159.064510 23.000000
159.111880 13.000000
160.015260 6.000000
160.076600 17.000000
160.094130 9.000000
161.053410 8.000000
161.529100 12.000000
162.130280 5.000000
162.442000 6.000000
164.061720 7.000000
164.079850 5.000000
164.454940 15.000000
165.062230 15.000000
165.073120 24.000000
166.063310 40.000000
166.073210 11.000000
166.084380 18.000000
167.068020 21.000000
167.073410 66.000000
167.088560 17.000000
168.045000 13.000000
168.056260 12.000000
168.074830 28.000000
168.081970 118.000000
169.066710 8.000000
169.073300 14.000000
169.084380 31.000000
169.094440 5.000000
169.124390 5.000000
170.048830 12.000000
170.057660 46.000000
170.068080 13.000000
170.095570 27.000000
171.048900 20.000000
171.060260 23.000000
171.065660 10.000000
171.099690 25.000000
171.110790 6.000000
171.756530 5.000000
172.044940 17.000000
172.050660 7.000000
172.073760 69.000000
172.091220 9.000000
173.047940 5.000000
173.072400 5.000000
173.081500 17.000000
174.012440 27.000000
174.035870 8.000000
174.050490 173.000000
174.059140 166.000000
174.068880 28.000000
175.038240 10.000000
175.047560 23.000000
175.057540 57.000000
176.075320 6.000000
176.678710 12.000000
177.064250 16.000000
177.670780 6.000000
178.056260 5.000000
178.087330 78.000000
179.069230 8.000000
179.075560 8.000000
179.091690 5.000000
180.065230 6.000000
180.078520 52.000000
180.087450 15.000000
180.105790 14.000000
180.911900 7.000000
181.029650 7.000000
181.054210 21.000000
181.071840 6.000000
181.086690 23.000000
182.056350 30.000000
182.067470 9.000000
182.092320 65.000000
182.105730 5.000000
183.052830 8.000000
183.065890 45.000000
183.081620 6.000000
183.093890 24.000000
184.038100 11.000000
184.058500 5.000000
184.074010 77.000000
184.735730 6.000000
185.080280 14.000000
185.101030 14.000000
185.148940 7.000000
185.950360 5.000000
186.060230 18.000000
186.075070 6.000000
186.094680 41.000000
186.156590 6.000000
186.729720 10.000000
187.061690 5.000000
187.808410 5.000000
188.054760 14.000000
188.070510 150.000000
188.084500 5.000000
189.069180 24.000000
190.066160 8.000000
191.057690 5.000000
191.085510 9.000000
192.064510 10.000000
192.076080 50.000000
192.092860 23.000000
192.106320 6.000000
192.949050 11.000000
193.052610 9.000000
193.068450 8.000000
193.083680 23.000000
193.091950 32.000000
194.087460 96.000000
194.096420 396.000000
194.120800 16.000000
194.146560 5.000000
195.052380 8.000000
195.099430 52.000000
195.107640 23.000000
195.130340 9.000000
196.033600 30.000000
196.044940 15.000000
196.056400 15.000000
196.074770 160.000000
196.094130 37.000000
196.110930 11.000000
196.119520 8.000000
196.977190 8.000000
197.074540 31.000000
197.084110 71.000000
197.115330 13.000000
198.041550 10.000000
198.053510 57.000000
198.061980 32.000000
198.076080 8.000000
198.087250 16.000000
198.094380 17.000000
198.118850 19.000000
198.124950 6.000000
199.057430 32.000000
199.093700 5.000000
199.111080 29.000000
199.124880 33.000000
200.030650 19.000000
200.042760 5.000000
200.071690 92.000000
200.126340 9.000000
200.928620 7.000000
201.046170 9.000000
201.077990 9.000000
201.085370 9.000000
202.045750 13.000000
202.074460 7.000000
202.087310 8.000000
202.119420 6.000000
204.079160 58.000000
204.091770 10.000000
205.069460 15.000000
205.086640 20.000000
205.102650 8.000000
206.047880 8.000000
206.062940 10.000000
206.077680 6.000000
206.094250 42.000000
206.106870 6.000000
207.065480 37.000000
207.087110 38.000000
207.103010 32.000000
208.000240 7.000000
208.026860 7.000000
208.044400 6.000000
208.055570 5.000000
208.069660 40.000000
208.086620 44.000000
208.102650 12.000000
208.113010 26.000000
208.177430 5.000000
209.078950 7.000000
209.108030 48.000000
209.115920 25.000000
209.239460 5.000000
209.278520 6.000000
210.060960 15.000000
210.071210 18.000000
210.086990 96.000000
210.095600 35.000000
210.113850 9.000000
210.122510 9.000000
211.044430 11.000000
211.060930 44.000000
211.089540 104.000000
211.121060 12.000000
211.131560 31.000000
211.143260 5.000000
211.518130 6.000000
212.024840 9.000000
212.051130 5.000000
212.069750 82.000000
212.090480 14.000000
212.106110 38.000000
212.119310 20.000000
212.135010 15.000000
213.079280 20.000000
213.100880 81.000000
213.125020 8.000000
213.140110 12.000000
214.031330 11.000000
214.040180 5.000000
214.054440 7.000000
214.086550 96.000000
214.103000 8.000000
214.415390 5.000000
215.055510 19.000000
215.092530 12.000000
215.129440 10.000000
215.179380 6.000000
216.063490 6.000000
216.078110 6.000000
217.093870 8.000000
218.058350 6.000000
218.075810 8.000000
218.098330 26.000000
218.116030 11.000000
219.087010 17.000000
219.101960 13.000000
219.832600 12.000000
220.060870 17.000000
220.070270 76.000000
220.082550 26.000000
220.102740 13.000000
220.110900 17.000000
220.178470 11.000000
221.064320 30.000000
221.074780 50.000000
221.092380 23.000000
221.107300 12.000000
221.423110 5.000000
221.928890 8.000000
222.048980 23.000000
222.063030 27.000000
222.092350 787.000000
222.300260 6.000000
223.039150 7.000000
223.066060 7.000000
223.091750 117.000000
223.102140 73.000000
223.122440 10.000000
223.130920 6.000000
223.147540 11.000000
223.418170 7.000000
223.639220 5.000000
223.957020 6.000000
224.023250 5.000000
224.033620 23.000000
224.070080 658.000000
224.092450 95.000000
224.109880 46.000000
224.119350 26.000000
225.030880 14.000000
225.047410 5.000000
225.058670 17.000000
225.075910 131.000000
225.102940 14.000000
225.115690 12.000000
225.138080 6.000000
225.450380 11.000000
226.022930 9.000000
226.033260 6.000000
226.047000 11.000000
226.068280 20.000000
226.086460 190.000000
226.104740 38.000000
226.116270 16.000000
226.217670 9.000000
226.677310 13.000000
227.054150 7.000000
227.088010 67.000000
227.104800 26.000000
227.137370 5.000000
227.270000 6.000000
227.319550 5.000000
227.418210 5.000000
227.587170 7.000000
228.062970 7.000000
228.095960 29.000000
228.672870 6.000000
228.805650 5.000000
229.085740 11.000000
229.807130 14.000000
230.092070 7.000000
230.104430 7.000000
231.077900 15.000000
232.072830 17.000000
233.084730 9.000000
233.106380 8.000000
234.055020 14.000000
234.088030 56.000000
234.103520 28.000000
235.055400 13.000000
235.069930 34.000000
235.088320 66.000000
235.121110 50.000000
235.966550 10.000000
235.990370 5.000000
236.050580 12.000000
236.063080 17.000000
236.073910 17.000000
236.088910 73.000000
236.107250 89.000000
236.128100 6.000000
237.078520 7.000000
237.103490 91.000000
237.119830 9.000000
238.026900 10.000000
238.046680 12.000000
238.068850 19.000000
238.087660 125.000000
238.099210 50.000000
238.118550 13.000000
238.129210 25.000000
238.353100 14.000000
239.078720 55.000000
239.089660 50.000000
239.103090 58.000000
239.118040 283.000000
239.138840 8.000000
240.063570 6.000000
240.090700 105.000000
240.103070 121.000000
240.123690 67.000000
241.044480 11.000000
241.069380 37.000000
241.096010 1000.000000
241.124800 52.000000
241.138290 42.000000
241.262700 5.000000
242.031540 6.000000
242.077580 17.000000
242.096500 148.000000
242.108340 48.000000
242.133450 6.000000
243.058180 14.000000
245.079420 16.000000
245.116740 6.000000
246.046340 10.000000
246.069400 9.000000
246.091800 45.000000
247.029860 7.000000
247.096020 23.000000
247.110580 7.000000
247.438570 14.000000
248.067640 25.000000
248.078660 15.000000
248.099560 32.000000
249.115770 19.000000
249.139880 6.000000
250.045870 6.000000
250.068450 14.000000
250.085740 77.000000
250.109880 16.000000
250.124600 38.000000
250.404340 5.000000
251.065370 26.000000
251.095370 48.000000
251.109760 16.000000
251.127260 46.000000
251.138600 20.000000
252.064910 5.000000
252.092160 54.000000
252.104220 158.000000
252.119350 11.000000
253.071200 17.000000
253.103780 107.000000
253.124450 44.000000
253.132020 18.000000
253.448470 9.000000
254.109770 95.000000
254.128110 8.000000
255.069980 17.000000
255.082370 28.000000
255.117840 9.000000
259.077580 14.000000
260.044800 8.000000
260.056610 6.000000
260.082820 11.000000
260.298310 5.000000
260.771730 7.000000
261.317260 6.000000
262.082550 16.000000
262.167820 5.000000
263.070190 9.000000
263.110660 90.000000
263.122380 45.000000
264.057890 8.000000
264.074490 14.000000
264.091580 55.000000
264.105870 33.000000
264.129330 19.000000
265.068210 6.000000
265.084900 9.000000
265.109280 79.000000
265.130920 15.000000
266.065890 13.000000
266.087800 26.000000
266.104640 19.000000
266.116790 57.000000
267.071810 5.000000
267.084140 29.000000
267.110660 201.000000
267.118560 89.000000
268.078220 17.000000
268.098080 23.000000
268.115170 67.000000
268.132390 44.000000
268.912720 8.000000
269.070530 7.000000
269.112180 81.000000
269.128480 390.000000
269.153200 6.000000
269.726840 5.000000
270.076450 5.000000
270.097560 12.000000
270.125580 46.000000
270.398380 9.000000
271.901490 6.000000
274.101170 11.000000
274.119960 6.000000
274.875120 7.000000
275.066590 13.000000
275.122740 6.000000
276.084840 9.000000
276.102570 24.000000
276.118010 5.000000
277.079770 8.000000
277.094270 9.000000
277.117920 6.000000
278.059510 16.000000
278.071590 7.000000
278.086980 31.000000
278.112610 67.000000
279.095580 30.000000
279.115110 7.000000
279.134370 17.000000
279.559420 6.000000
280.081760 12.000000
280.097260 12.000000
280.107300 13.000000
280.127690 18.000000
281.108150 7.000000
281.119320 22.000000
281.139190 14.000000
282.055690 6.000000
282.118010 23.000000
282.393100 6.000000
283.102230 8.000000
283.114010 17.000000
284.116940 6.000000
286.097990 5.000000
288.810850 9.000000
289.102970 6.000000
291.082820 6.000000
291.090580 11.000000
291.109920 18.000000
291.128110 17.000000
292.057310 8.000000
292.106930 8.000000
292.128140 13.000000
293.068880 7.000000
293.087250 41.000000
293.101590 17.000000
293.128780 69.000000
294.083530 6.000000
294.104220 11.000000
294.132510 46.000000
295.109010 9.000000
295.120150 14.000000
295.141200 10.000000
295.150570 35.000000
296.140620 11.000000
297.151700 10.000000
298.097440 8.000000
298.168580 6.000000
301.102940 8.000000
306.139560 11.000000
307.145170 7.000000
308.082340 12.000000
309.929870 8.000000
310.110960 5.000000
311.069520 5.000000
311.142030 12.000000
311.153750 20.000000
312.090420 8.000000
312.122040 8.000000
319.107760 7.000000
319.145600 6.000000
319.155270 7.000000
320.117000 5.000000
320.928470 7.000000
321.123840 19.000000
321.157320 9.000000
322.122530 5.000000
323.087370 6.000000
323.111050 8.000000
323.123600 9.000000
325.126070 7.000000
326.123500 6.000000
328.114500 7.000000
335.353760 10.000000
338.124050 5.000000
339.135070 8.000000
339.163790 173.000000
339.181850 81.000000
340.165890 33.000000
340.183070 21.000000
340.341430 11.000000
340.799740 6.000000
341.101720 7.000000
353.142970 6.000000
353.155520 5.000000
399.175260 26.000000
399.195920 87.000000

