>compound PR58878054
>parentmass 220.1202
>ionization [M+H]+
>formula C9H17NO5
>rt 148.800000
>profile qtof
#smiles_iso CC(C)(CO)C(C(=O)NCCC(=O)O)O
#smiles_can CC(C)(CO)C(C(=O)NCCC(=O)O)O
#inchikey GHOKWGTUZJEAQD-UHFFFAOYSA-N
#pubchem_id 988
#mb_accession PR310801

>ms2peaks
90.052060 81.000000
90.056950 63.000000
91.061240 17.000000
100.042310 19.000000
103.077720 20.000000
116.033350 43.000000
120.086780 21.000000
136.032100 37.000000
136.040820 39.000000
138.961330 19.000000
164.039490 16.000000
164.047450 31.000000
182.057210 26.000000
184.096650 48.000000
185.108630 23.000000
202.109270 27.000000
220.113780 218.000000

