>compound PR58596643
>parentmass 549.126
>ionization [M+H]+
>formula C25H24O14
>rt 288.000000
>profile qtof
#smiles_iso COC1=C(C=CC(=C1)C2=CC(=O)C3=C(C=C(C=C3O2)OC4C(C(C(C(O4)COC(=O)CC(=O)O)O)O)O)O)O
#smiles_can COC1=C(C=CC(=C1)C2=CC(=O)C3=C(C=C(C=C3O2)OC4C(C(C(C(O4)COC(=O)CC(=O)O)O)O)O)O)O
#inchikey PLQBKZOSLQNLOX-UHFFFAOYSA-N
#pubchem_id 74977711
#mb_accession PR310959

>ms2peaks
135.048830 22.000000
152.005780 27.000000
202.064480 34.000000
268.031280 36.000000
269.047610 53.000000
286.024410 20.000000
286.039430 57.000000
286.064480 40.000000
287.052520 28.000000
301.016110 20.000000
301.072300 1343.000000
302.063600 108.000000
302.078060 177.000000
303.084170 20.000000
332.959200 17.000000
340.647130 18.000000
355.163210 18.000000
427.300660 32.000000
463.109280 21.000000
465.738620 17.000000
548.959350 20.000000
549.126400 580.000000

