>compound PR58419273
>parentmass 178.1263
>ionization [M+H]+
>formula C8H19NOS
>rt 124.800000
>profile qtof
#smiles_iso CS(=O)CCCCCCCN
#smiles_can CS(=O)CCCCCCCN
#inchikey NEMIGFQIONIZCH-UHFFFAOYSA-N
#pubchem_id 121232645
#mb_accession PR310893

>ms2peaks
95.084490 20.000000
95.864820 18.000000
97.099340 19.000000
114.129940 94.000000
117.078590 19.000000
178.126280 18.000000
178.133930 20.000000

