>compound PR58730799
>parentmass 332.1343
>ionization [M+H]+
>formula C14H21NO8
>rt 102.000000
>profile qtof
#smiles_iso CC1=NC=C(C(=C1O)CO)COC2C(C(C(C(O2)CO)O)O)O
#smiles_can CC1=NC=C(C(=C1O)CO)COC2C(C(C(C(O2)CO)O)O)O
#inchikey MDLTWTOQCHCLSZ-UHFFFAOYSA-N
#pubchem_id 3321053
#mb_accession PR310797

>ms2peaks
91.058270 17.000000
106.063840 20.000000
108.083050 221.000000
108.090730 22.000000
124.068840 16.000000
124.077380 71.000000
125.085000 20.000000
128.038740 33.000000
134.053330 32.000000
134.072560 16.000000
135.062970 21.000000
136.077940 55.000000
152.067960 135.000000
152.073730 82.000000
153.069890 60.000000
153.077650 49.000000
170.075060 22.000000
170.089550 33.000000
204.468600 23.000000
216.026500 21.000000
218.984700 28.000000
296.121310 31.000000
314.107030 73.000000
314.122560 187.000000
315.143620 17.000000
317.131040 22.000000
332.056370 19.000000

