>compound PR58785447
>parentmass 957.5035
>ionization [M+H]+
>formula C48H76O19
>rt 423.600000
>profile qtof
#smiles_iso CC1C(C(C(C(O1)OC2C(C(C(OC2OC3C(C(C(OC3OC4CCC5(C(C4(C)CO)CCC6(C5CC=C7C6(CCC8(C7CC(CC8O)(C)C)C)C)C)C)C(=O)O)O)O)C(=O)O)O)O)O)O)O
#smiles_can CC1C(C(C(C(O1)OC2C(C(C(OC2OC3C(C(C(OC3OC4CCC5(C(C4(C)CO)CCC6(C5CC=C7C6(CCC8(C7CC(CC8O)(C)C)C)C)C)C)C(=O)O)O)O)C(=O)O)O)O)O)O)O
#inchikey SZHUMUJGHFQABW-UHFFFAOYSA-N
#pubchem_id 75614526
#mb_accession PR310675

>ms2peaks
95.083240 21.000000
107.088230 23.000000
109.098570 24.000000
109.102630 56.000000
111.040270 55.000000
111.076930 20.000000
131.213940 21.000000
134.107360 21.000000
139.111240 24.000000
141.005070 22.000000
141.010150 51.000000
141.031850 19.000000
147.065780 54.000000
159.026930 244.000000
159.036930 40.000000
160.032180 23.000000
160.397280 21.000000
162.141560 17.000000
162.887760 17.000000
177.030120 20.000000
177.042880 92.000000
177.156850 17.000000
178.149580 22.000000
179.179920 58.000000
189.162290 69.000000
189.173420 72.000000
190.160710 22.000000
191.152020 32.000000
191.171230 58.000000
193.155140 17.000000
195.056550 22.000000
195.172960 40.000000
202.166980 18.000000
203.167020 21.000000
203.182480 120.000000
204.393690 26.000000
205.150710 20.000000
206.204940 38.000000
215.188130 74.000000
217.162580 24.000000
217.194730 176.000000
219.041000 27.000000
219.159670 18.000000
220.190080 17.000000
221.194410 110.000000
225.037460 18.000000
227.184010 48.000000
229.201290 21.000000
231.207950 18.000000
235.213090 22.000000
236.828340 43.000000
243.051710 28.000000
245.191790 41.000000
247.188810 25.000000
247.203430 36.000000
253.206990 19.000000
255.200620 20.000000
255.211990 20.000000
256.218170 23.000000
257.228000 17.000000
259.202910 50.000000
261.065520 56.000000
261.204620 18.000000
269.061070 17.000000
271.884770 41.000000
277.258420 38.000000
283.190310 20.000000
283.251160 18.000000
287.079830 48.000000
302.248630 24.000000
305.082280 61.000000
305.093930 30.000000
305.894620 23.000000
306.092590 45.000000
311.137790 31.000000
311.277890 50.000000
315.253110 20.000000
317.026890 22.000000
317.051360 121.000000
318.045900 17.000000
320.052890 26.000000
323.105530 17.000000
329.277280 20.000000
335.054990 55.000000
336.055730 18.000000
336.069980 21.000000
336.084500 20.000000
353.069980 182.000000
354.063510 20.000000
365.302520 18.000000
365.332980 50.000000
366.323270 35.000000
379.228300 42.000000
383.330410 18.000000
403.088170 21.000000
405.334960 22.000000
405.355410 83.000000
405.378540 21.000000
406.359620 21.000000
407.358250 34.000000
411.380130 21.000000
415.565700 17.000000
421.342220 17.000000
423.292330 18.000000
423.363340 804.000000
424.353760 116.000000
424.370120 50.000000
424.397400 17.000000
425.369110 64.000000
441.254520 21.000000
441.314850 21.000000
441.373080 1160.000000
441.565580 18.000000
442.379820 364.000000
442.406040 45.000000
443.315800 21.000000
443.371400 99.000000
443.391110 49.000000
447.102810 19.000000
449.945340 19.000000
452.623200 17.000000
453.386110 22.000000
460.353700 18.000000
460.371730 18.000000
461.393460 26.000000
463.087130 20.000000
464.108670 18.000000
470.772250 19.000000
499.143550 39.000000
521.587520 20.000000
522.180850 17.000000
545.191410 17.000000
551.399780 37.000000
569.419250 80.000000
569.437440 34.000000
570.460690 20.000000
572.242920 18.000000
577.717530 19.000000
581.374150 18.000000
582.378170 18.000000
582.399350 25.000000
599.399960 224.000000
600.393370 148.000000
601.392760 48.000000
601.408810 43.000000
605.413090 33.000000
605.439880 101.000000
605.460570 120.000000
606.448970 125.000000
607.458440 40.000000
613.266720 19.000000
617.404300 118.000000
617.422060 33.000000
618.121030 20.000000
618.407350 18.000000
618.428340 44.000000
627.696410 20.000000
631.378970 18.000000
635.373840 19.000000
635.410160 99.000000
635.430240 144.000000
636.323850 20.000000
636.424870 18.000000
637.412840 17.000000
638.421020 45.000000
650.425110 23.000000
685.088620 17.000000
713.451970 22.000000
766.435300 21.000000
782.488460 18.000000
782.511110 18.000000
793.391420 20.000000
793.428890 24.000000
795.483280 22.000000
797.197140 17.000000
808.582280 20.000000
811.392760 62.000000
811.440670 966.000000
811.486690 160.000000
811.531920 27.000000
812.446350 610.000000
813.440670 60.000000
813.469670 59.000000
813.561650 17.000000
814.444520 39.000000
814.472530 20.000000
815.450560 24.000000
877.018070 20.000000
903.414730 18.000000
926.179690 19.000000
939.492310 20.000000
953.474240 24.000000
955.096440 18.000000
955.616090 20.000000
957.401610 19.000000
957.504520 2394.000000

