>compound PR58606025
>parentmass 689.2088
>ionization [M+H]+
>formula C33H36O16
>rt 274.200000
>profile qtof
#smiles_iso COC1=CC(=CC(=C1OC(COC2C(C(C(C(O2)CO)O)O)O)C(C3=CC(=C(C=C3)O)OC)O)OC)C4=CC(=O)C5=C(C=C(C=C5O4)O)O
#smiles_can COC1=CC(=CC(=C1OC(COC2C(C(C(C(O2)CO)O)O)O)C(C3=CC(=C(C=C3)O)OC)O)OC)C4=CC(=O)C5=C(C=C(C=C5O4)O)O
#inchikey WTKUHKWWAMSHEE-UHFFFAOYSA-N
#pubchem_id 77136544
#mb_accession PR310971

>ms2peaks
331.081090 466.000000
332.073610 71.000000
332.092560 65.000000
333.083440 18.000000
492.139950 22.000000
527.150630 383.000000
527.172550 35.000000
528.003780 22.000000
528.169740 75.000000
528.195500 23.000000
627.833980 29.000000
686.379580 16.000000
689.159420 31.000000
689.202090 151.000000

