>compound PR58882478
>parentmass 284.1285
>ionization [M+H]+
>formula C17H17NO3
>rt 303.600000
>profile qtof
#smiles_iso C1=CC(=CC=C1CCNC(=O)C=CC2=CC=C(C=C2)O)O
#smiles_can C1=CC(=CC=C1CCNC(=O)C=CC2=CC=C(C=C2)O)O
#inchikey RXGUTQNKCXHALN-UHFFFAOYSA-N
#pubchem_id 89322
#mb_accession PR311081

>ms2
91.052770 31.000000
91.059130 18.000000
93.070960 58.000000
119.045710 22.000000
119.050300 24.000000
119.058110 20.000000
121.062810 236.000000
122.069940 22.000000
147.029940 20.000000
147.043930 876.000000
147.065170 23.000000
148.046880 81.000000
148.055770 54.000000
155.942200 19.000000
283.173830 20.000000
284.095670 20.000000
284.125730 417.000000
284.145810 23.000000

