>compound PR58207000
>parentmass 295.228
>ionization [M+H]+
>formula C18H30O3
>rt 611.100000
>profile qtof
#smiles_iso CCCCCC=CC=CC(=O)CCCCCCCC(=O)O
#smiles_can CCCCCC=CC=CC(=O)CCCCCCCC(=O)O
#inchikey LUZSWWYKKLTDHU-UHFFFAOYSA-N
#pubchem_id 193923
#mb_accession PR310793,PR310794

>ms2peaks
55.052880 22.000000
67.057970 18.000000
79.053790 17.000000
79.057780 21.000000
83.082770 26.000000
91.054520 37.000000
93.073040 73.000000
94.902090 16.000000
95.043040 18.000000
95.087460 39.000000
107.091610 50.000000
109.096240 21.000000
119.084250 30.000000
121.104970 16.000000
125.092610 20.000000
132.083360 25.000000
135.082810 36.000000
139.077670 37.000000
147.078480 16.000000
147.095810 21.000000
147.114990 18.000000
149.133060 19.000000
151.114240 63.000000
151.127460 25.000000
153.094330 27.000000
159.114380 20.000000
161.096620 16.000000
165.118350 30.000000
168.143140 16.000000
171.125320 20.000000
173.133590 17.000000
183.122510 18.000000
199.140720 16.000000
199.149630 17.000000
249.195070 18.000000
249.211900 16.000000
249.231370 16.000000
255.678820 24.000000
256.913790 16.000000
259.208280 17.000000
277.216060 673.000000
278.222810 45.000000
279.219640 21.000000
295.215670 25.000000
295.225680 41.000000
295.237120 17.000000

>ms2peaks
69.072390 16.000000
81.041080 40.000000
81.069630 17.000000
83.088230 20.000000
95.051480 20.000000
99.081120 28.000000
105.069690 18.000000
107.089430 19.000000
119.086430 16.000000
125.095980 16.000000
133.100300 19.000000
135.079090 30.000000
135.116960 16.000000
147.114870 45.000000
151.100560 29.000000
151.112990 52.000000
161.132900 45.000000
161.140270 24.000000
164.149600 17.000000
171.119420 18.000000
193.121380 24.000000
199.151580 27.000000
203.148620 25.000000
259.204100 18.000000
276.265440 46.000000
277.216060 348.000000
278.209170 36.000000
278.221710 27.000000
295.215610 18.000000
295.226350 32.000000

