>compound PR58721449
>parentmass 271.0609
>ionization [M+H]+
>formula C15H10O5
>rt 277.800000
>profile qtof
#smiles_iso C1=CC(=C(C=C1C2=COC3=C(C2=O)C=CC(=C3)O)O)O
#smiles_can C1=CC(=C(C=C1C2=COC3=C(C2=O)C=CC(=C3)O)O)O
#inchikey DDKGKOOLFLYZDL-UHFFFAOYSA-N
#pubchem_id 5284648
#mb_accession PR310856

>ms2peaks
98.729630 23.000000
106.036480 21.000000
107.056090 33.000000
109.033810 23.000000
115.052090 47.000000
131.050810 42.000000
134.031520 33.000000
137.020140 67.000000
137.028850 43.000000
141.061020 20.000000
141.069200 25.000000
147.038360 17.000000
151.048810 29.000000
152.056300 50.000000
156.039660 18.000000
157.054110 20.000000
159.076430 17.000000
159.091980 17.000000
160.999680 17.000000
161.023100 22.000000
162.032440 20.000000
169.069490 23.000000
173.060180 19.000000
184.051010 19.000000
187.038850 23.000000
197.058610 79.000000
197.079850 24.000000
198.036240 28.000000
215.061890 39.000000
215.071490 73.000000
215.079850 18.000000
216.083240 39.000000
220.108580 19.000000
224.042340 17.000000
225.023730 19.000000
225.048110 17.000000
225.066650 17.000000
226.051760 24.000000
227.063550 21.000000
253.060810 18.000000
254.056990 64.000000
269.050260 26.000000
271.061040 1455.000000
271.085910 29.000000

