>compound PR58828075
>parentmass 581.1495481000001
>ionization [M]+
>formula C26H29O15+
>rt 172.375020
>profile qtof
#smiles_iso C1[C@H]([C@@H]([C@H]([C@@H](O1)O[C@@H]2[C@H]([C@@H]([C@H](O[C@H]2OC3=CC4=C(C=C(C=C4[O+]=C3C5=CC(=C(C=C5)O)O)O)O)CO)O)O)O)O)O
#smiles_can C1C(C(C(C(O1)OC2C(C(C(OC2OC3=CC4=C(C=C(C=C4[O+]=C3C5=CC(=C(C=C5)O)O)O)O)CO)O)O)O)O)O
#inchikey ZPPQIOUITZSYAO-AOBOYTTNSA-O
#pubchem_id 6602304
#mb_accession PR303165,PR303168,PR303171,PR303174,PR303177,PR303180,PR303183,PR303186,PR303189,PR303192,PR303195,PR303198

>ms2
148.994030 6.000000
286.995390 7.000000
287.019470 12.000000
287.055020 1000.000000
288.035460 10.000000
288.059200 168.000000
289.063510 32.000000
581.082890 7.000000
581.150270 443.000000

>ms2
287.058040 83.000000
288.062230 17.000000
581.071530 6.000000
581.090210 14.000000
581.149480 1000.000000

>ms2
287.007540 10.000000
287.055300 1000.000000
288.032170 16.000000
288.059020 128.000000
289.055150 17.000000
289.066500 19.000000

>ms2
137.013730 5.000000
137.021300 19.000000
137.029310 10.000000
149.033220 6.000000
213.058270 7.000000
231.050350 5.000000
231.071620 11.000000
242.059340 5.000000
287.018860 13.000000
287.054200 1000.000000
288.033870 9.000000
288.054080 97.000000
288.065430 72.000000
289.007390 12.000000
289.049160 13.000000
289.060760 20.000000
289.075410 15.000000

>ms2
286.996670 7.000000
287.019780 15.000000
287.055110 1000.000000
288.022400 6.000000
288.059720 140.000000
289.053560 24.000000
289.068760 6.000000
581.087040 13.000000
581.151920 446.000000

>ms2
287.054410 80.000000
288.066250 9.000000
581.050480 8.000000
581.083250 12.000000
581.106690 16.000000
581.150210 1000.000000

>ms2
287.014470 5.000000
287.056150 1000.000000
288.017000 8.000000
288.058620 165.000000
289.059750 40.000000

>ms2
129.066240 9.000000
137.024670 13.000000
185.065750 5.000000
189.054920 8.000000
213.048320 11.000000
213.058300 11.000000
231.059740 6.000000
231.069410 8.000000
241.049580 21.000000
259.073360 7.000000
286.998290 10.000000
287.055050 1000.000000
288.059880 161.000000
289.061680 25.000000
318.999910 5.000000

>ms2
287.009400 11.000000
287.025760 16.000000
287.055790 1000.000000
288.030430 6.000000
288.057280 182.000000
289.062590 32.000000
581.077510 7.000000
581.151000 359.000000

>ms2
287.054810 122.000000
288.057920 16.000000
581.065190 10.000000
581.088440 18.000000
581.149410 1000.000000

>ms2
137.024660 5.000000
287.008970 5.000000
287.019960 10.000000
287.054290 1000.000000
288.046510 40.000000
288.060490 115.000000
289.061950 29.000000
290.057190 6.000000

>ms2
137.024730 13.000000
138.019060 5.000000
149.025800 6.000000
175.044920 5.000000
185.053560 6.000000
213.053450 27.000000
231.055820 9.000000
231.066450 9.000000
241.016690 5.000000
241.052020 5.000000
259.064330 8.000000
269.048830 14.000000
286.997530 10.000000
287.019870 17.000000
287.053500 1000.000000
288.039030 18.000000
288.056490 149.000000
288.072080 41.000000
289.064330 27.000000

