>compound PR59177533
>parentmass 303.04992916923084
>ionization [M+H]+
>formula C15H10O7
>rt 322.006154
>profile qtof
#smiles_iso C1=CC(=C(C=C1C2=C(C(=O)C3=C(C=C(C=C3O2)O)O)O)O)O
#smiles_can C1=CC(=C(C=C1C2=C(C(=O)C3=C(C=C(C=C3O2)O)O)O)O)O
#inchikey REFJWTPEDVJJIY-UHFFFAOYSA-N
#pubchem_id 5280343
#mb_accession PR302802,PR302807,PR302812,PR302817,PR302822,PR302827,PR302832,PR302837,PR302842,PR302847,PR302852,PR302857,PR310899

>ms2
109.030620 5.000000
122.030290 9.000000
127.056400 9.000000
135.040890 5.000000
137.023860 55.000000
153.002470 6.000000
153.019130 68.000000
155.041640 6.000000
159.040370 9.000000
165.006620 5.000000
165.017870 40.000000
173.057920 6.000000
173.066380 8.000000
183.043690 15.000000
187.038130 18.000000
191.036740 5.000000
201.052690 34.000000
213.061980 6.000000
217.053280 8.000000
219.029130 7.000000
229.047260 53.000000
229.057400 15.000000
230.054700 8.000000
257.047330 43.000000
258.057190 8.000000
274.047420 22.000000
285.035400 8.000000
301.039790 11.000000
302.997860 7.000000
303.018100 21.000000
303.050080 1000.000000

>ms2
303.051480 1000.000000
303.102840 6.000000

>ms2
65.034950 26.000000
67.013760 10.000000
67.019540 15.000000
67.055670 12.000000
68.991420 55.000000
68.996940 48.000000
69.263120 9.000000
81.029940 24.000000
81.033710 59.000000
81.070340 12.000000
82.038720 18.000000
85.026740 11.000000
93.034500 90.000000
95.041130 12.000000
95.048840 55.000000
95.407520 13.000000
105.027950 11.000000
106.255350 10.000000
107.011000 25.000000
107.051240 26.000000
109.027730 111.000000
109.036640 18.000000
110.038210 9.000000
111.003970 53.000000
111.009490 46.000000
111.037010 11.000000
113.902720 13.000000
115.052950 20.000000
115.522990 10.000000
116.201840 12.000000
117.070440 84.000000
119.055320 13.000000
121.029520 128.000000
123.002970 9.000000
123.038200 11.000000
123.044680 18.000000
123.849270 13.000000
124.043100 14.000000
127.034900 11.000000
127.055110 67.000000
128.057850 13.000000
131.047760 36.000000
133.023970 17.000000
133.061900 15.000000
135.040680 63.000000
135.049390 13.000000
136.011550 12.000000
136.037550 17.000000
137.009520 42.000000
137.022250 706.000000
137.785780 13.000000
138.025160 62.000000
138.035280 18.000000
138.695310 9.000000
139.025600 15.000000
143.054550 32.000000
145.056700 33.000000
145.074370 13.000000
149.018720 13.000000
149.026280 42.000000
149.056240 16.000000
150.028000 26.000000
153.005950 123.000000
153.017810 1000.000000
153.422150 10.000000
154.013990 57.000000
154.023940 99.000000
155.031920 20.000000
155.046620 177.000000
157.060760 32.000000
157.070430 16.000000
158.062190 15.000000
159.039810 29.000000
160.031420 14.000000
161.055130 24.000000
161.064090 60.000000
163.039000 130.000000
163.048900 19.000000
164.036220 12.000000
165.018550 525.000000
166.021220 79.000000
166.029710 44.000000
167.018420 13.000000
167.048480 10.000000
173.022780 20.000000
173.038360 9.000000
173.047810 39.000000
173.060010 147.000000
174.059840 34.000000
174.779100 11.000000
175.044170 17.000000
175.061610 18.000000
177.012730 26.000000
177.023120 39.000000
177.055370 31.000000
179.019070 9.000000
179.030840 75.000000
180.012990 12.000000
180.033650 10.000000
183.040970 170.000000
183.051560 54.000000
183.703370 10.000000
184.043470 10.000000
184.057240 13.000000
185.047210 20.000000
187.036870 134.000000
187.043910 57.000000
188.042850 16.000000
189.050280 27.000000
190.917080 10.000000
190.956880 11.000000
191.029510 28.000000
191.038390 34.000000
191.061480 44.000000
192.038360 14.000000
192.732210 13.000000
192.995650 17.000000
195.024670 12.000000
195.033130 28.000000
197.021190 10.000000
199.042970 18.000000
200.045640 18.000000
201.023410 13.000000
201.054550 554.000000
202.052980 21.000000
202.072860 18.000000
202.949160 15.000000
203.024950 15.000000
204.040420 42.000000
205.019820 32.000000
205.048870 60.000000
208.036530 12.000000
208.202100 14.000000
209.361070 9.000000
210.939190 20.000000
211.042940 16.000000
212.043180 12.000000
212.254760 11.000000
212.390590 17.000000
213.045910 31.000000
213.059920 30.000000
214.062130 10.000000
215.021360 10.000000
215.029940 10.000000
216.046040 11.000000
216.054400 12.000000
217.017180 9.000000
217.036030 14.000000
217.054310 18.000000
219.021010 14.000000
219.030720 18.000000
219.061190 45.000000
221.006040 11.000000
221.060070 17.000000
222.875870 13.000000
227.027850 24.000000
228.043950 98.000000
228.985950 16.000000
229.038040 252.000000
229.049100 995.000000
229.153750 11.000000
229.872180 9.000000
230.052830 73.000000
230.065200 47.000000
230.114240 23.000000
230.786940 10.000000
230.876980 14.000000
231.059480 45.000000
231.077350 13.000000
231.261380 15.000000
232.040730 70.000000
233.051640 26.000000
233.225720 11.000000
234.050290 26.000000
239.032010 103.000000
239.047040 31.000000
240.027830 9.000000
243.031220 21.000000
245.043470 22.000000
245.056750 15.000000
246.034420 11.000000
246.052660 51.000000
247.029600 12.000000
247.061360 89.000000
247.076070 9.000000
248.068630 15.000000
256.896940 14.000000
257.014340 9.000000
257.027100 45.000000
257.044530 559.000000
257.063960 16.000000
257.944310 13.000000
258.026250 22.000000
258.046510 33.000000
272.137850 10.000000
273.045350 22.000000
274.014040 11.000000
274.043580 122.000000
274.054720 66.000000
275.045930 16.000000
275.061250 16.000000
276.683040 9.000000
284.026860 10.000000
285.018100 9.000000
285.040990 142.000000
285.055110 23.000000
286.023500 10.000000
286.039950 51.000000
286.056340 11.000000
292.246370 15.000000
294.486970 13.000000
300.492580 9.000000
302.032530 13.000000
302.058350 15.000000
303.014590 11.000000
303.052520 751.000000
303.194610 10.000000

>ms2
55.015650 34.000000
67.013890 48.000000
67.020520 42.000000
68.247570 39.000000
68.993000 113.000000
68.998730 290.000000
69.032720 131.000000
71.011560 39.000000
77.032750 42.000000
77.039960 51.000000
78.043170 32.000000
79.012910 62.000000
79.017290 44.000000
79.626710 44.000000
81.026080 35.000000
81.034220 191.000000
83.017650 41.000000
91.017620 42.000000
91.055730 62.000000
92.544780 42.000000
94.286180 30.000000
95.044860 46.000000
97.021420 64.000000
98.044460 35.000000
101.037090 37.000000
103.033570 44.000000
103.041990 30.000000
103.054160 35.000000
105.030220 71.000000
105.070600 35.000000
107.036300 37.000000
107.047710 83.000000
109.018050 42.000000
109.024450 198.000000
109.029690 166.000000
109.036060 42.000000
110.030180 37.000000
111.004220 44.000000
111.016960 78.000000
111.954830 34.000000
113.035480 46.000000
115.008620 30.000000
115.050330 326.000000
115.179320 53.000000
116.057590 50.000000
117.032620 97.000000
117.068280 108.000000
117.223550 67.000000
117.858860 44.000000
118.040860 73.000000
121.018750 62.000000
121.027810 67.000000
121.033040 76.000000
123.028240 39.000000
123.040220 37.000000
126.036090 83.000000
126.046950 39.000000
127.002190 48.000000
127.039510 87.000000
127.053160 1000.000000
127.068040 39.000000
128.053620 74.000000
128.058780 179.000000
128.065780 88.000000
129.034730 30.000000
131.043140 58.000000
131.052350 50.000000
133.025710 90.000000
135.003890 65.000000
135.043720 41.000000
136.021150 112.000000
136.981980 55.000000
137.004180 32.000000
137.015340 96.000000
137.025180 97.000000
139.034270 37.000000
140.056870 48.000000
143.046860 39.000000
144.052290 53.000000
145.062790 73.000000
146.043170 35.000000
149.060210 32.000000
153.006900 60.000000
153.018480 510.000000
153.030610 104.000000
155.042760 170.000000
155.051380 708.000000
156.015180 37.000000
156.053180 219.000000
159.040500 39.000000
160.050580 41.000000
162.066240 64.000000
163.029160 41.000000
165.012130 81.000000
165.023790 64.000000
166.020970 140.000000
171.036160 37.000000
173.059390 154.000000
177.006960 44.000000
177.056630 219.000000
179.040760 53.000000
182.041560 80.000000
183.037220 42.000000
183.046770 158.000000
184.046540 44.000000
186.054630 64.000000
187.035190 96.000000
187.043640 74.000000
194.019170 37.000000
199.802950 30.000000
202.676410 30.000000
203.040920 30.000000
211.032700 35.000000
219.024610 48.000000
227.994230 48.000000
229.031110 35.000000
229.050660 117.000000

>ms2
68.995090 7.000000
109.026970 15.000000
121.027660 8.000000
135.044070 5.000000
137.017490 8.000000
137.024060 23.000000
145.067080 7.000000
149.020170 9.000000
153.017760 72.000000
155.051420 14.000000
161.059070 7.000000
163.042190 8.000000
165.016680 29.000000
173.061720 9.000000
179.033020 6.000000
183.041200 8.000000
187.037660 9.000000
201.052470 12.000000
229.043700 31.000000
229.054350 47.000000
247.062210 7.000000
257.044590 43.000000
258.053860 9.000000
274.047420 10.000000
285.040310 6.000000
303.003230 13.000000
303.050170 1000.000000

>ms2
303.002780 10.000000
303.016570 9.000000
303.049800 1000.000000
303.099030 7.000000

>ms2
69.035820 15.000000
69.997630 19.000000
81.024570 10.000000
93.031630 54.000000
93.039310 17.000000
93.224760 8.000000
95.045270 15.000000
95.050420 39.000000
103.053760 17.000000
105.031680 9.000000
106.376000 8.000000
106.999460 10.000000
109.029220 132.000000
109.043040 10.000000
110.030390 8.000000
110.997360 8.000000
111.007990 77.000000
112.859580 7.000000
113.621660 7.000000
116.561390 12.000000
117.064590 24.000000
117.072450 22.000000
118.018390 16.000000
119.010110 14.000000
121.017190 20.000000
121.026780 118.000000
122.022060 10.000000
123.016400 15.000000
123.032890 16.000000
123.039310 13.000000
123.047870 20.000000
126.021770 7.000000
126.033450 17.000000
127.058270 14.000000
129.060930 10.000000
129.071750 25.000000
130.067520 20.000000
131.049580 37.000000
133.017200 14.000000
133.024200 9.000000
134.192780 7.000000
135.025960 21.000000
135.044630 52.000000
136.015900 10.000000
137.011630 64.000000
137.020780 180.000000
137.027940 231.000000
138.019040 21.000000
138.026290 24.000000
138.037140 29.000000
145.031660 15.000000
145.060520 63.000000
145.070510 31.000000
146.039170 10.000000
146.061200 7.000000
146.068620 9.000000
147.050420 22.000000
149.021680 90.000000
149.028670 37.000000
150.031650 25.000000
151.032180 18.000000
153.008100 172.000000
153.018630 684.000000
153.178890 7.000000
154.019290 46.000000
154.026730 40.000000
155.028120 19.000000
155.044740 42.000000
155.053760 88.000000
156.053470 7.000000
156.371310 7.000000
157.053500 11.000000
157.063640 29.000000
157.082410 13.000000
159.043730 8.000000
160.006770 10.000000
160.284610 10.000000
161.057660 123.000000
162.058010 25.000000
162.069350 8.000000
163.031920 34.000000
163.045910 56.000000
163.076510 7.000000
164.014240 11.000000
164.033280 13.000000
164.043850 10.000000
164.997420 7.000000
165.018040 444.000000
165.058090 10.000000
165.391850 8.000000
165.518170 8.000000
166.024520 125.000000
166.034850 14.000000
167.016100 10.000000
167.027440 25.000000
168.172590 7.000000
171.047550 15.000000
171.726940 10.000000
173.022140 52.000000
173.048340 11.000000
173.060880 98.000000
175.223450 8.000000
177.008290 12.000000
177.026280 9.000000
177.053360 8.000000
177.061920 10.000000
178.822190 8.000000
179.029210 10.000000
179.039570 46.000000
181.055880 7.000000
183.016050 15.000000
183.046310 154.000000
184.023560 13.000000
184.031050 7.000000
184.050250 24.000000
186.721790 7.000000
187.032900 63.000000
187.048020 30.000000
189.012590 8.000000
189.027790 15.000000
193.046740 8.000000
193.852420 8.000000
194.699010 14.000000
195.021350 18.000000
195.033200 27.000000
200.051960 8.000000
200.976780 10.000000
201.005330 7.000000
201.023450 7.000000
201.053970 387.000000
201.162140 7.000000
202.056730 8.000000
202.067670 7.000000
203.035920 22.000000
203.081190 7.000000
204.046390 12.000000
205.043030 15.000000
205.056430 8.000000
207.021060 17.000000
208.035630 9.000000
208.441270 8.000000
211.022350 13.000000
211.040480 9.000000
215.031140 24.000000
215.039660 8.000000
216.038770 15.000000
217.039290 12.000000
219.021550 12.000000
219.036650 8.000000
219.063200 82.000000
220.030300 7.000000
220.066060 36.000000
220.211640 11.000000
220.252790 7.000000
221.018570 10.000000
222.063490 7.000000
228.043230 41.000000
228.055340 12.000000
228.979830 10.000000
229.049560 1000.000000
230.046770 76.000000
230.056700 76.000000
230.335300 8.000000
230.440800 9.000000
231.049220 7.000000
231.060200 20.000000
231.389630 16.000000
231.731770 16.000000
232.032410 11.000000
232.046650 18.000000
232.062060 13.000000
233.017120 14.000000
233.042680 10.000000
233.058320 10.000000
236.015750 7.000000
239.013920 9.000000
239.045650 27.000000
240.056380 8.000000
242.054980 12.000000
242.965850 10.000000
242.986510 8.000000
243.007550 8.000000
243.029850 27.000000
245.034160 12.000000
245.044680 33.000000
246.054430 12.000000
247.030380 7.000000
247.053010 56.000000
247.073720 20.000000
248.072750 8.000000
248.083160 10.000000
252.064040 11.000000
252.538410 15.000000
257.027040 20.000000
257.042940 144.000000
257.051700 167.000000
257.680600 18.000000
258.035520 73.000000
258.056150 18.000000
258.073120 8.000000
259.032230 14.000000
259.045560 32.000000
261.052800 10.000000
267.014920 9.000000
271.659910 7.000000
274.023800 38.000000
274.054930 70.000000
275.051240 21.000000
275.062410 11.000000
276.524540 8.000000
276.598600 11.000000
284.033050 10.000000
285.029820 85.000000
285.047640 76.000000
286.015320 15.000000
286.030030 17.000000
286.048000 19.000000
286.056670 7.000000
302.988370 7.000000
303.009090 26.000000
303.042390 321.000000
303.056300 343.000000
303.074280 49.000000

>ms2
54.042590 63.000000
55.013760 102.000000
67.020160 87.000000
68.994230 78.000000
69.000850 247.000000
69.033810 86.000000
74.166220 33.000000
77.039830 190.000000
78.130230 32.000000
79.021640 46.000000
81.023090 46.000000
81.034370 112.000000
91.022430 39.000000
91.039920 56.000000
91.054730 54.000000
93.030620 82.000000
93.038390 32.000000
95.046420 46.000000
95.054500 50.000000
97.029530 41.000000
101.036760 89.000000
103.055080 143.000000
104.057080 123.000000
105.035390 113.000000
105.039020 52.000000
105.068120 138.000000
106.037640 145.000000
108.012770 65.000000
108.019020 41.000000
109.019970 69.000000
109.030720 275.000000
109.059260 41.000000
109.942010 33.000000
110.028900 80.000000
110.034020 61.000000
115.052980 227.000000
116.059580 46.000000
117.069710 80.000000
118.027050 33.000000
119.051500 61.000000
121.021390 39.000000
121.062220 54.000000
122.041360 48.000000
123.044400 197.000000
126.041340 74.000000
126.046750 59.000000
126.844650 43.000000
127.054120 1000.000000
128.062680 383.000000
129.072460 39.000000
131.048720 193.000000
132.062270 48.000000
133.037720 37.000000
134.035420 41.000000
135.006060 78.000000
135.038970 87.000000
137.010560 52.000000
137.023900 325.000000
137.030460 271.000000
138.020610 46.000000
139.048860 58.000000
139.056490 45.000000
143.044710 41.000000
145.068070 50.000000
145.074630 45.000000
146.028920 50.000000
147.083660 32.000000
149.016020 43.000000
149.058260 50.000000
152.059420 69.000000
152.990770 48.000000
153.003540 45.000000
153.017880 563.000000
154.014050 56.000000
154.021560 35.000000
155.049550 619.000000
159.038410 82.000000
160.159740 32.000000
163.033480 110.000000
165.020400 48.000000
173.048050 67.000000
173.058070 48.000000
173.067020 50.000000
175.035770 50.000000
176.040160 86.000000
176.046830 37.000000
177.040070 33.000000
178.057400 46.000000
179.021410 43.000000
179.029650 119.000000
179.037490 74.000000
183.044160 43.000000
184.038760 46.000000
187.042100 87.000000
189.015080 56.000000
200.050950 78.000000
201.054030 177.000000
203.034850 197.000000
203.051090 95.000000
212.028090 37.000000
212.059340 54.000000
215.031710 46.000000
229.045140 126.000000
229.060970 33.000000
238.029390 78.000000
241.857160 52.000000
257.040680 89.000000
278.416720 52.000000
285.033570 58.000000
300.995730 39.000000

>ms2
91.054340 5.000000
111.004280 8.000000
121.027110 7.000000
131.048970 9.000000
137.013060 7.000000
137.024730 44.000000
153.017610 48.000000
155.051900 10.000000
165.020050 35.000000
173.063430 9.000000
183.044860 14.000000
201.040480 5.000000
201.054050 21.000000
228.040910 5.000000
229.046660 46.000000
245.033130 5.000000
257.034640 13.000000
257.046260 29.000000
257.058040 10.000000
274.064330 8.000000
285.034480 8.000000
285.046660 10.000000
303.019470 20.000000
303.050960 1000.000000

>ms2
303.050110 1000.000000
303.101380 7.000000

>ms2
55.012020 12.000000
60.421630 7.000000
66.137950 9.000000
67.017630 16.000000
68.999290 67.000000
77.042620 13.000000
79.017760 7.000000
81.028450 13.000000
81.034370 20.000000
81.038630 8.000000
83.050860 13.000000
92.027540 7.000000
93.020100 9.000000
93.026020 26.000000
93.033560 35.000000
95.008430 21.000000
95.049070 80.000000
95.135310 6.000000
97.033980 12.000000
107.014480 10.000000
107.053620 36.000000
108.637020 14.000000
108.964220 7.000000
109.027400 68.000000
109.032870 24.000000
109.060390 9.000000
110.031560 9.000000
110.988840 12.000000
110.995050 20.000000
111.008280 90.000000
111.016760 15.000000
111.023350 12.000000
111.998790 11.000000
113.012520 9.000000
114.454560 16.000000
115.053090 27.000000
117.070790 23.000000
117.075610 17.000000
118.068800 8.000000
120.023030 9.000000
120.990430 11.000000
121.007110 11.000000
121.015170 7.000000
121.030590 128.000000
122.035320 13.000000
123.009830 11.000000
123.043040 31.000000
124.044400 15.000000
125.017060 13.000000
126.033390 20.000000
127.038380 41.000000
127.057270 74.000000
129.070240 13.000000
131.017090 11.000000
131.037250 8.000000
131.042310 20.000000
131.049740 25.000000
131.055070 15.000000
133.026500 19.000000
133.050430 9.000000
133.069820 11.000000
135.012730 13.000000
135.039950 32.000000
135.052760 23.000000
136.017820 7.000000
136.045150 10.000000
136.984210 11.000000
137.006810 24.000000
137.023530 756.000000
137.060030 20.000000
137.524700 7.000000
138.026670 37.000000
139.053970 18.000000
139.289260 8.000000
140.865940 6.000000
141.031050 8.000000
143.045260 6.000000
143.050870 9.000000
144.060180 9.000000
144.991000 15.000000
145.029050 63.000000
145.062500 51.000000
145.074110 7.000000
145.103700 13.000000
147.041930 34.000000
149.016630 26.000000
149.025450 87.000000
150.946840 10.000000
151.034610 9.000000
151.041600 22.000000
152.009200 9.000000
152.085940 7.000000
152.890670 15.000000
152.981950 8.000000
152.992360 9.000000
153.018330 772.000000
153.211550 8.000000
154.022030 114.000000
155.046590 157.000000
156.022450 20.000000
157.063960 31.000000
159.047470 38.000000
160.047900 11.000000
161.028210 10.000000
161.059370 84.000000
162.197200 9.000000
163.039660 135.000000
163.069630 17.000000
164.040920 9.000000
164.820020 12.000000
165.017260 531.000000
166.024110 167.000000
167.027370 20.000000
167.048290 7.000000
168.055310 7.000000
170.886900 9.000000
171.056630 9.000000
172.514650 8.000000
172.766100 16.000000
173.034580 13.000000
173.058870 130.000000
173.069960 18.000000
174.063610 14.000000
175.042190 9.000000
175.058180 10.000000
175.359770 11.000000
177.016530 40.000000
177.053940 11.000000
178.995100 7.000000
179.029920 8.000000
179.041690 23.000000
180.728330 12.000000
182.793730 12.000000
183.044750 180.000000
184.049700 75.000000
185.051740 13.000000
185.060060 15.000000
187.003310 7.000000
187.033600 38.000000
187.039980 86.000000
188.046910 10.000000
189.178270 12.000000
191.019710 9.000000
191.030590 60.000000
191.067760 11.000000
191.084810 8.000000
194.054900 12.000000
195.025770 50.000000
195.038990 30.000000
195.053700 7.000000
196.021480 13.000000
196.264630 8.000000
197.044280 7.000000
200.045820 15.000000
201.018510 9.000000
201.054150 444.000000
201.081090 18.000000
201.266010 7.000000
201.336300 6.000000
202.012160 9.000000
202.046630 11.000000
202.061040 51.000000
202.125110 9.000000
203.026870 11.000000
203.042860 12.000000
203.062090 11.000000
204.039780 16.000000
205.014890 21.000000
205.028460 14.000000
205.050780 31.000000
206.062390 16.000000
207.035020 9.000000
208.016600 8.000000
211.038100 47.000000
212.040850 7.000000
213.016310 8.000000
213.049360 43.000000
214.091950 11.000000
215.003570 8.000000
215.033480 57.000000
215.430980 12.000000
216.044560 14.000000
217.049030 6.000000
218.063570 18.000000
218.876540 10.000000
219.025680 7.000000
219.038020 15.000000
219.060930 16.000000
219.068360 22.000000
219.287000 7.000000
220.036700 7.000000
220.067050 7.000000
221.068820 9.000000
228.023650 10.000000
228.044360 57.000000
228.079320 10.000000
228.940080 9.000000
229.021880 14.000000
229.049420 1000.000000
229.144450 6.000000
230.043530 25.000000
230.054760 61.000000
230.267120 7.000000
231.034790 32.000000
231.060260 43.000000
231.703400 20.000000
232.036900 23.000000
232.067050 28.000000
233.045300 21.000000
234.732530 11.000000
239.032230 33.000000
240.031980 12.000000
240.044330 10.000000
241.049160 9.000000
243.035900 10.000000
243.989910 7.000000
245.021970 9.000000
245.042250 9.000000
246.049290 14.000000
247.017260 7.000000
247.050460 24.000000
247.062240 15.000000
248.054340 22.000000
249.067920 8.000000
253.055830 7.000000
256.045930 9.000000
256.982970 7.000000
257.021970 60.000000
257.046230 293.000000
257.066410 28.000000
257.075350 7.000000
258.001650 10.000000
258.040650 102.000000
258.054080 66.000000
259.057710 19.000000
260.075040 7.000000
261.023740 13.000000
261.103030 6.000000
269.331240 11.000000
273.032930 8.000000
273.997250 8.000000
274.048680 141.000000
275.041290 28.000000
275.054990 25.000000
277.204100 7.000000
284.015720 11.000000
285.037720 224.000000
285.065030 10.000000
286.050450 16.000000
287.051540 6.000000
293.083800 6.000000
301.022400 8.000000
301.629700 11.000000
302.973180 9.000000
303.014500 13.000000
303.049650 756.000000
303.082180 7.000000
303.105220 16.000000

>ms2
55.016640 27.000000
55.023330 27.000000
65.039470 75.000000
66.040840 18.000000
67.016550 64.000000
67.020820 33.000000
67.900160 31.000000
68.993510 81.000000
68.999320 97.000000
69.006710 18.000000
69.035030 201.000000
69.318090 20.000000
77.036870 46.000000
77.042490 198.000000
78.045010 25.000000
79.019000 51.000000
79.049300 26.000000
79.056850 35.000000
81.034420 32.000000
81.040940 40.000000
82.033910 20.000000
83.012630 21.000000
85.022130 21.000000
89.038540 90.000000
90.099490 18.000000
91.018580 36.000000
91.026510 28.000000
91.053390 90.000000
92.020990 30.000000
92.053440 26.000000
93.035690 116.000000
95.028650 50.000000
95.049630 21.000000
97.024430 31.000000
102.049320 28.000000
103.046200 22.000000
103.054250 131.000000
103.061960 26.000000
105.026840 76.000000
105.036420 52.000000
107.009540 63.000000
108.016430 30.000000
108.044900 35.000000
109.016910 44.000000
109.028820 301.000000
109.036080 37.000000
110.031610 21.000000
112.010930 40.000000
112.989200 50.000000
113.039870 24.000000
115.054370 354.000000
115.987090 22.000000
116.062610 19.000000
117.030680 21.000000
117.057870 35.000000
117.068120 66.000000
121.016570 26.000000
121.024910 73.000000
121.031650 109.000000
123.012670 24.000000
123.035450 24.000000
126.041810 19.000000
127.053670 1000.000000
128.051090 28.000000
128.060620 29.000000
128.069240 65.000000
128.907150 20.000000
129.069180 19.000000
131.037840 54.000000
131.051250 147.000000
133.031880 21.000000
133.148790 30.000000
137.012590 42.000000
137.021190 62.000000
137.027600 157.000000
137.040340 64.000000
138.021620 19.000000
139.060880 29.000000
143.063670 25.000000
143.687100 29.000000
145.063130 99.000000
146.037890 44.000000
146.073000 25.000000
147.042970 52.000000
147.053960 40.000000
151.043850 33.000000
152.987210 31.000000
152.999830 74.000000
153.016450 382.000000
153.024610 89.000000
154.026030 99.000000
155.025130 22.000000
155.045700 403.000000
155.053300 239.000000
156.052510 26.000000
157.059830 18.000000
159.043150 22.000000
160.028670 19.000000
161.014070 48.000000
161.038350 19.000000
161.060040 21.000000
172.053880 19.000000
173.057280 18.000000
173.068040 56.000000
173.073640 36.000000
178.023930 57.000000
179.047040 29.000000
183.049530 92.000000
184.048650 96.000000
184.071790 19.000000
184.678710 46.000000
186.976810 24.000000
187.043780 44.000000
201.047070 21.000000
201.063060 18.000000
203.020360 18.000000
204.037770 32.000000
205.040180 42.000000
211.016600 18.000000
211.048980 18.000000
215.040070 42.000000
217.050160 35.000000
217.058750 32.000000
227.025070 31.000000
227.033250 28.000000
228.033710 18.000000
228.043660 35.000000
229.044890 18.000000
229.057660 21.000000
232.037870 19.000000
232.049740 25.000000
245.032350 37.000000
257.048580 34.000000

>ms2
67.049610 34.000000
68.998440 21.000000
70.428730 19.000000
70.491870 23.000000
80.024540 18.000000
93.031920 57.000000
94.684300 23.000000
95.054780 31.000000
105.031400 29.000000
107.630130 18.000000
109.030620 64.000000
110.032160 22.000000
110.066530 17.000000
110.996000 20.000000
111.003400 50.000000
112.000520 30.000000
115.052780 25.000000
115.059390 34.000000
120.996670 21.000000
121.026800 32.000000
122.030290 104.000000
124.045960 46.000000
127.056400 112.000000
127.071650 23.000000
128.042080 20.000000
128.063100 38.000000
131.044750 21.000000
131.052220 31.000000
132.058410 37.000000
132.993120 24.000000
135.040890 65.000000
136.009780 31.000000
137.023860 667.000000
138.035660 28.000000
139.020890 25.000000
139.443190 17.000000
144.047420 24.000000
145.000230 25.000000
145.028210 27.000000
145.062380 40.000000
148.995330 21.000000
149.022080 47.000000
149.060390 27.000000
149.990460 44.000000
150.029270 27.000000
153.002470 73.000000
153.019130 816.000000
154.012080 40.000000
154.022110 42.000000
155.025220 17.000000
155.041640 74.000000
155.048840 42.000000
156.050540 28.000000
157.068370 18.000000
159.040370 105.000000
160.056320 17.000000
161.047700 18.000000
161.058300 39.000000
162.253970 19.000000
163.038910 57.000000
163.047420 27.000000
165.006620 63.000000
165.017870 486.000000
166.033620 18.000000
167.938930 18.000000
171.042540 25.000000
173.057920 76.000000
173.066380 91.000000
174.063290 22.000000
176.724300 29.000000
176.994020 18.000000
177.061220 34.000000
178.000840 25.000000
178.029980 18.000000
178.999340 31.000000
181.861720 18.000000
183.043690 180.000000
184.052600 23.000000
187.038130 211.000000
187.047410 45.000000
189.050190 22.000000
191.022960 25.000000
191.036740 65.000000
194.014010 20.000000
194.399060 23.000000
195.028430 44.000000
200.056930 26.000000
201.052690 415.000000
201.068410 21.000000
202.050510 49.000000
204.043290 24.000000
204.053770 27.000000
205.046460 21.000000
206.040390 27.000000
207.039830 17.000000
207.453990 32.000000
208.010150 28.000000
211.047300 26.000000
211.542280 20.000000
213.051040 19.000000
213.061980 75.000000
215.034360 60.000000
217.053280 98.000000
219.029130 86.000000
219.066600 22.000000
221.004580 24.000000
221.799740 18.000000
224.179530 44.000000
225.240540 20.000000
228.026080 41.000000
228.042160 25.000000
228.982390 20.000000
229.013980 19.000000
229.022770 30.000000
229.047260 635.000000
229.057400 175.000000
229.078170 24.000000
230.037480 18.000000
230.054700 91.000000
232.056730 24.000000
233.045900 20.000000
239.038590 37.000000
246.045180 24.000000
247.063770 46.000000
248.076140 47.000000
249.060150 22.000000
256.975590 49.000000
257.047330 515.000000
258.057190 93.000000
267.044220 19.000000
268.031590 33.000000
269.030520 23.000000
271.476100 21.000000
274.047420 264.000000
279.142180 33.000000
281.375240 20.000000
281.423400 49.000000
284.028530 27.000000
284.988220 24.000000
284.998110 27.000000
285.035400 101.000000
285.053190 19.000000
286.035100 20.000000
286.045170 45.000000
286.055570 31.000000
288.087830 30.000000
301.039790 129.000000
301.243620 18.000000
301.838260 17.000000
302.005400 17.000000
302.026180 20.000000
302.047610 20.000000
302.673980 19.000000
302.997860 84.000000
303.018100 251.000000
303.050080 12057.000000
303.097530 37.000000

