>compound PR59131506
>parentmass 653.3221281999998
>ionization [M+H]+
>formula C39H44N2O7
>rt 264.744960
>profile qtof
#smiles_iso CN1CCC2=CC(=C3C=C2[C@H]1CC4=CC=C(C=C4)OC5=C(C=CC(=C5)C[C@H]6C7=C(CCN6C)C(=C(C(=C7O3)OC)OC)OC)OC)OC
#smiles_can CN1CCC2=CC(=C3C=C2C1CC4=CC=C(C=C4)OC5=C(C=CC(=C5)CC6C7=C(CCN6C)C(=C(C(=C7O3)OC)OC)OC)OC)OC
#inchikey FUZMQNZACIFDBL-IHLOFXLRSA-N
#pubchem_id 7098682
#mb_accession PR301140,PR301144,PR301148,PR301152,PR301156,PR301160,PR301164,PR301168,PR301172,PR301176,PR301180,PR301184

>ms2peaks
162.092410 9.000000
174.090260 9.000000
178.088030 5.000000
191.095840 56.000000
192.098680 35.000000
193.101040 6.000000
204.104230 10.000000
281.136440 6.000000
305.144840 8.000000
327.168210 8.000000
327.666050 14.000000
328.172940 9.000000
411.179960 12.000000
411.192350 18.000000
411.207520 21.000000
412.196810 11.000000
432.216310 8.000000
607.266170 5.000000
622.281980 44.000000
623.287840 24.000000
624.302370 7.000000
653.195370 5.000000
653.229310 14.000000
653.257750 19.000000
653.324100 1000.000000

>ms2peaks
327.162350 8.000000
327.664460 5.000000
653.102720 7.000000
653.240300 12.000000
653.268310 11.000000
653.320740 1000.000000

>ms2peaks
141.078140 6.000000
162.086840 6.000000
174.088610 6.000000
174.098370 7.000000
176.104000 11.000000
176.113270 6.000000
191.087070 22.000000
191.097810 73.000000
192.095580 18.000000
192.105260 34.000000
204.101760 8.000000
204.112520 7.000000
217.103930 5.000000
236.137160 5.000000
249.086990 6.000000
263.106080 5.000000
267.047390 5.000000
267.108220 6.000000
282.146790 6.000000
334.090760 6.000000
340.138520 7.000000
354.954740 6.000000
384.183650 5.000000
393.180690 8.000000
411.172240 10.000000
411.189180 42.000000
412.193360 14.000000
414.215120 7.000000
417.195500 14.000000
426.193970 8.000000
426.232820 6.000000
427.237240 6.000000
429.205630 5.000000
432.214540 7.000000
500.203490 5.000000
517.250550 5.000000
517.284730 5.000000
546.214360 7.000000
547.206540 5.000000
578.245610 7.000000
579.219360 8.000000
592.215760 7.000000
606.251830 15.000000
609.270320 7.000000
609.648070 6.000000
610.274170 48.000000
610.294560 21.000000
611.281490 7.000000
611.300780 19.000000
612.284970 11.000000
621.282290 14.000000
622.222350 12.000000
622.252750 32.000000
622.281430 103.000000
622.305110 37.000000
623.249630 14.000000
623.267030 14.000000
623.297120 46.000000
623.335940 6.000000
624.283750 28.000000
653.242130 7.000000
653.322690 1000.000000

>ms2peaks
77.042270 16.000000
105.073590 34.000000
108.085910 20.000000
109.058140 12.000000
117.073000 15.000000
121.062840 13.000000
123.078350 13.000000
133.081150 15.000000
133.097730 18.000000
134.100310 19.000000
137.548770 14.000000
143.050320 45.000000
145.090230 98.000000
146.094180 98.000000
146.101270 42.000000
147.097210 14.000000
148.080760 51.000000
149.054000 27.000000
149.097240 13.000000
151.073170 17.000000
151.081280 13.000000
160.083650 28.000000
160.107760 41.000000
162.072190 36.000000
162.081920 76.000000
162.091780 293.000000
162.606810 14.000000
163.076290 13.000000
163.090350 17.000000
163.099200 65.000000
164.081190 13.000000
166.064240 24.000000
171.076550 15.000000
173.082750 43.000000
173.707730 14.000000
173.831710 12.000000
174.073490 80.000000
174.091340 989.000000
174.108510 43.000000
175.070270 26.000000
175.094640 76.000000
175.107530 14.000000
176.038560 14.000000
176.071930 36.000000
176.094740 11.000000
176.104750 95.000000
177.079350 13.000000
177.113850 31.000000
178.080660 44.000000
179.080120 16.000000
180.086520 12.000000
181.066300 13.000000
186.217380 14.000000
188.098530 12.000000
189.095400 46.000000
189.108920 37.000000
189.117570 31.000000
190.061250 14.000000
190.072570 33.000000
190.087460 209.000000
191.069270 62.000000
191.096730 447.000000
192.068360 38.000000
192.098220 253.000000
192.108540 98.000000
192.170330 18.000000
193.093780 13.000000
193.110280 41.000000
194.094420 19.000000
194.106960 14.000000
195.079320 20.000000
202.086110 16.000000
203.579620 19.000000
204.084090 16.000000
204.096150 12.000000
204.104000 46.000000
205.073490 16.000000
205.109680 21.000000
206.080340 16.000000
208.102620 14.000000
209.086840 12.000000
211.080460 16.000000
217.104030 14.000000
218.084720 14.000000
218.127930 13.000000
219.107190 12.000000
220.085750 32.000000
220.096050 30.000000
221.334790 14.000000
223.084810 15.000000
225.083390 13.000000
225.093600 14.000000
225.107970 15.000000
228.066220 16.000000
232.083500 17.000000
234.078200 12.000000
234.109280 16.000000
236.083070 12.000000
236.111080 22.000000
236.128660 54.000000
237.094740 26.000000
237.135800 14.000000
238.083570 20.000000
238.123830 13.000000
239.114110 12.000000
240.111760 12.000000
249.112090 21.000000
250.106460 16.000000
251.102460 20.000000
252.099470 37.000000
253.092000 14.000000
253.110000 30.000000
264.078860 14.000000
264.115630 20.000000
266.131100 20.000000
267.099670 21.000000
267.115690 19.000000
268.097410 12.000000
268.140780 14.000000
274.209780 12.000000
277.081420 18.000000
277.114170 14.000000
278.074740 13.000000
280.130680 16.000000
281.114870 13.000000
282.143280 13.000000
291.093510 29.000000
292.094820 14.000000
293.128780 18.000000
294.107790 24.000000
294.129390 28.000000
298.151920 18.000000
298.905400 13.000000
299.130130 13.000000
305.095460 29.000000
305.136510 14.000000
307.145720 15.000000
308.092070 21.000000
309.122040 14.000000
311.107790 17.000000
311.129390 12.000000
312.085820 13.000000
312.138400 13.000000
313.134950 13.000000
314.110780 12.000000
315.135930 14.000000
315.187710 13.000000
319.091580 17.000000
320.089970 14.000000
323.109860 12.000000
323.129330 13.000000
325.096100 19.000000
325.132450 12.000000
326.181000 14.000000
330.099120 14.000000
334.093690 13.000000
337.155400 18.000000
339.138580 15.000000
339.802640 19.000000
340.096800 14.000000
340.119080 16.000000
341.164730 16.000000
342.150940 15.000000
345.112790 17.000000
345.149960 13.000000
346.122770 18.000000
348.151090 14.000000
349.128810 12.000000
351.113530 13.000000
351.138150 15.000000
351.987060 12.000000
352.133030 26.000000
352.155610 36.000000
353.128850 26.000000
354.138790 31.000000
354.173220 17.000000
356.616640 12.000000
361.086150 19.000000
361.147860 12.000000
363.114230 34.000000
363.149900 16.000000
364.105040 14.000000
364.137080 22.000000
365.123570 31.000000
365.151860 13.000000
365.163970 37.000000
366.130980 14.000000
367.950130 12.000000
368.139160 59.000000
368.165710 53.000000
368.179020 16.000000
369.148190 12.000000
370.145810 21.000000
370.161070 32.000000
370.182980 12.000000
373.126950 18.000000
375.157780 17.000000
377.160980 13.000000
379.156680 21.000000
379.173610 16.000000
380.117740 16.000000
380.135350 16.000000
380.149480 15.000000
380.176610 24.000000
381.127530 13.000000
381.136440 24.000000
381.154450 64.000000
381.184300 14.000000
382.144040 15.000000
385.149780 12.000000
386.552280 14.000000
387.103730 16.000000
393.149810 16.000000
394.153840 29.000000
394.184540 41.000000
395.155490 20.000000
395.181210 26.000000
395.195590 78.000000
396.170140 12.000000
397.168820 12.000000
398.162020 18.000000
399.094670 13.000000
400.134950 27.000000
401.118190 14.000000
401.142330 12.000000
401.159030 12.000000
402.114010 18.000000
402.170620 33.000000
402.225590 14.000000
407.980560 17.000000
409.150050 15.000000
411.121770 14.000000
411.161250 78.000000
411.191040 1000.000000
412.039090 18.000000
412.135560 13.000000
412.155270 29.000000
412.181210 95.000000
412.198820 130.000000
413.169310 14.000000
413.194490 13.000000
413.207120 16.000000
414.135280 13.000000
414.191040 16.000000
415.155730 14.000000
415.238340 13.000000
416.158420 32.000000
424.068420 16.000000
427.161350 14.000000
428.141660 19.000000
428.172610 14.000000
430.207430 17.000000
432.204530 16.000000
444.186220 19.000000
446.187870 12.000000
452.168400 16.000000
454.175450 20.000000
455.149230 14.000000
456.152740 13.000000
461.224270 20.000000
473.195680 17.000000
473.210300 12.000000
474.194310 14.000000
478.218110 22.000000
486.188630 16.000000
494.174070 13.000000
495.167210 14.000000
514.167660 14.000000
514.419560 13.000000
516.075010 13.000000
516.204710 14.000000
516.233700 13.000000
520.200620 14.000000
530.189270 19.000000
530.215640 15.000000
532.212280 17.000000
533.128230 16.000000
538.266970 16.000000
548.196040 12.000000
549.226260 26.000000
549.256040 16.000000
560.176570 20.000000
561.120670 14.000000
562.183590 16.000000
562.246400 22.000000
562.265200 20.000000
563.233220 14.000000
563.263000 20.000000
564.190550 32.000000
565.269350 18.000000
574.213990 19.000000
574.247440 17.000000
575.265260 16.000000
576.169680 15.000000
576.202760 48.000000
576.237920 14.000000
577.201900 16.000000
577.240300 14.000000
578.203190 14.000000
578.222110 13.000000
579.217710 15.000000
580.247380 36.000000
590.246520 16.000000
591.216860 14.000000
592.231810 16.000000
592.254640 27.000000
593.226750 15.000000
593.238950 36.000000
594.210510 14.000000
594.246400 19.000000
594.263920 28.000000
606.235290 88.000000
606.262330 83.000000
607.184330 14.000000
607.248350 21.000000
607.264950 30.000000
607.305240 12.000000
608.251040 14.000000
609.295170 13.000000
619.263610 14.000000
619.282230 14.000000
620.192440 13.000000
621.277100 12.000000
621.317810 28.000000
623.277890 12.000000

>ms2peaks
174.092350 6.000000
176.112290 5.000000
190.083500 7.000000
191.094640 40.000000
192.105070 22.000000
204.100310 7.000000
327.155640 10.000000
327.171880 19.000000
411.193420 56.000000
412.191500 13.000000
610.276000 9.000000
622.255860 18.000000
622.281430 30.000000
622.302120 9.000000
623.258610 9.000000
653.255920 9.000000
653.321530 1000.000000

>ms2peaks
327.165100 8.000000
653.210570 6.000000
653.263790 23.000000
653.319400 1000.000000
653.369320 11.000000

>ms2peaks
143.052750 5.000000
145.089290 6.000000
162.091200 6.000000
174.086610 5.000000
175.069840 9.000000
176.111070 19.000000
188.063060 5.000000
190.085570 10.000000
190.094150 20.000000
191.070040 7.000000
191.096920 65.000000
192.103820 46.000000
204.100710 7.000000
205.100570 6.000000
236.120390 9.000000
249.142300 8.000000
265.131840 9.000000
281.060150 5.000000
281.140290 15.000000
309.130580 6.000000
310.146180 5.000000
324.143620 10.000000
354.175420 10.000000
399.161620 6.000000
400.187900 16.000000
409.187680 10.000000
411.176300 28.000000
411.192600 30.000000
412.201600 9.000000
425.203580 7.000000
426.208440 12.000000
429.163820 6.000000
432.219820 7.000000
447.185640 6.000000
460.839170 5.000000
461.215520 8.000000
475.801450 5.000000
532.209170 5.000000
541.787350 5.000000
564.255070 5.000000
576.242490 5.000000
579.212950 6.000000
579.249330 5.000000
579.291560 6.000000
589.274960 6.000000
590.256350 10.000000
591.214600 6.000000
591.243230 12.000000
591.298220 6.000000
592.237000 7.000000
592.270140 6.000000
606.246830 7.000000
607.242000 19.000000
607.268680 8.000000
610.264710 9.000000
610.296690 21.000000
611.284240 30.000000
612.305600 10.000000
621.277100 7.000000
621.304140 12.000000
622.268130 80.000000
622.297360 59.000000
622.336790 7.000000
623.192810 8.000000
623.262080 39.000000
623.291690 57.000000
624.283630 21.000000
624.314090 16.000000
625.305110 10.000000
653.244080 10.000000
653.281620 37.000000
653.325560 1000.000000

>ms2peaks
102.401610 11.000000
110.799840 13.000000
114.580870 12.000000
115.024410 16.000000
117.069420 12.000000
121.061870 13.000000
131.042140 37.000000
133.064470 11.000000
135.196530 15.000000
136.085110 17.000000
136.093110 11.000000
138.067490 17.000000
143.047670 22.000000
143.055570 18.000000
143.075820 22.000000
144.084290 29.000000
145.082490 69.000000
145.089430 89.000000
146.096040 43.000000
147.047380 17.000000
147.100810 16.000000
148.052140 23.000000
148.078800 14.000000
149.060260 23.000000
149.226530 15.000000
155.043610 19.000000
157.088810 25.000000
157.267410 17.000000
157.743330 13.000000
157.949070 11.000000
157.990070 11.000000
158.087950 13.000000
159.082530 24.000000
159.105190 23.000000
160.069840 24.000000
160.076550 18.000000
161.079710 36.000000
161.090330 21.000000
162.082870 82.000000
162.093550 311.000000
162.104030 71.000000
163.059110 18.000000
163.074200 19.000000
163.089840 16.000000
164.108120 17.000000
165.058850 12.000000
172.074190 19.000000
172.703810 17.000000
173.065930 11.000000
173.090300 14.000000
173.961030 14.000000
174.030880 14.000000
174.060750 15.000000
174.068820 29.000000
174.092240 1000.000000
174.884370 12.000000
175.069060 27.000000
175.091980 25.000000
175.099110 49.000000
175.119950 14.000000
176.074570 49.000000
176.084630 16.000000
176.109660 95.000000
177.076390 14.000000
177.111360 13.000000
178.079210 18.000000
178.088090 12.000000
179.086150 14.000000
181.076310 14.000000
181.085750 37.000000
189.076200 17.000000
189.089050 16.000000
189.111300 29.000000
190.057420 12.000000
190.088330 415.000000
190.116320 29.000000
191.065540 15.000000
191.075730 40.000000
191.082820 40.000000
191.095580 310.000000
191.108400 26.000000
192.089160 67.000000
192.100770 211.000000
193.095960 25.000000
193.102070 14.000000
194.089110 13.000000
195.101180 16.000000
195.397840 14.000000
197.090030 25.000000
201.075500 19.000000
202.127040 16.000000
203.061840 13.000000
203.091130 13.000000
203.104400 13.000000
203.120530 13.000000
204.077350 14.000000
204.094130 44.000000
204.113100 16.000000
205.078230 12.000000
205.109820 38.000000
206.017720 14.000000
206.080630 51.000000
207.091600 27.000000
208.096530 30.000000
213.092030 35.000000
217.058350 17.000000
218.059400 12.000000
218.093700 15.000000
219.095090 11.000000
219.110000 18.000000
220.095780 13.000000
220.112960 12.000000
222.110410 48.000000
222.131230 12.000000
226.107240 19.000000
227.086820 18.000000
227.101930 49.000000
228.106080 15.000000
233.096880 27.000000
233.962070 13.000000
234.082430 20.000000
234.121030 25.000000
235.058620 15.000000
235.105640 15.000000
236.132710 17.000000
237.064010 22.000000
237.097530 34.000000
238.140080 18.000000
240.111360 13.000000
241.120620 11.000000
247.073330 14.000000
248.088030 15.000000
248.116520 11.000000
250.103940 39.000000
251.064850 13.000000
251.103420 33.000000
252.113170 15.000000
253.083400 13.000000
256.138820 15.000000
258.106960 12.000000
265.128360 19.000000
266.088230 39.000000
266.120390 17.000000
268.113770 11.000000
268.134770 14.000000
269.133610 13.000000
270.095370 17.000000
271.100190 15.000000
271.110630 13.000000
276.113160 14.000000
277.085570 12.000000
277.103580 12.000000
279.075930 20.000000
280.129670 13.000000
281.078340 12.000000
281.140990 15.000000
282.088040 17.000000
285.096530 17.000000
287.815520 15.000000
291.123930 12.000000
294.132750 25.000000
294.154240 13.000000
296.126160 15.000000
297.108580 12.000000
297.116880 19.000000
297.215300 11.000000
298.059690 15.000000
300.094760 24.000000
300.122250 14.000000
306.120480 14.000000
307.092560 13.000000
308.090090 19.000000
308.725980 11.000000
309.096650 11.000000
309.116270 28.000000
309.136170 11.000000
310.121950 14.000000
311.112700 16.000000
311.130800 13.000000
311.163420 16.000000
314.120150 12.000000
314.140960 13.000000
315.137510 14.000000
318.108370 11.000000
321.128910 18.000000
322.135280 17.000000
323.133580 17.000000
324.099700 35.000000
324.147370 13.000000
324.165530 17.000000
326.124450 23.000000
326.313450 11.000000
327.133790 22.000000
333.127990 14.000000
334.111180 19.000000
334.174710 15.000000
335.114040 48.000000
337.118160 14.000000
338.159180 13.000000
339.089110 11.000000
339.100340 13.000000
339.140080 32.000000
340.089110 14.000000
340.137150 19.000000
341.119690 26.000000
342.139980 13.000000
344.140810 15.000000
345.144990 19.000000
346.510220 15.000000
350.113860 15.000000
350.142550 28.000000
350.155090 18.000000
351.146420 15.000000
352.109500 13.000000
352.147400 13.000000
353.169890 15.000000
354.020260 18.000000
355.116460 13.000000
357.155730 38.000000
358.126160 17.000000
359.105100 15.000000
359.141240 15.000000
359.830750 15.000000
363.084260 15.000000
363.138640 12.000000
363.153810 29.000000
364.145600 35.000000
364.163540 22.000000
365.121060 11.000000
365.147000 47.000000
366.126500 13.000000
366.148710 133.000000
367.133610 11.000000
367.151210 25.000000
368.135890 53.000000
368.156460 83.000000
369.138850 31.000000
369.156710 19.000000
370.111420 13.000000
370.145630 14.000000
372.173860 15.000000
376.102970 14.000000
376.149510 17.000000
378.160740 33.000000
379.162110 31.000000
380.137970 27.000000
380.153530 37.000000
380.185240 25.000000
381.096740 12.000000
381.130370 30.000000
381.147770 123.000000
382.137240 23.000000
382.155730 17.000000
383.063450 11.000000
383.125730 13.000000
383.142640 16.000000
383.155940 16.000000
383.185520 23.000000
384.159700 17.000000
386.165950 11.000000
387.111080 15.000000
387.152440 12.000000
393.165340 13.000000
393.185420 79.000000
394.162230 28.000000
394.190120 89.000000
395.144070 16.000000
395.157290 14.000000
395.201050 33.000000
395.824190 13.000000
396.116730 14.000000
396.150730 17.000000
396.169400 30.000000
396.195220 55.000000
397.133580 13.000000
397.163820 25.000000
399.995210 13.000000
400.159450 28.000000
401.127620 27.000000
401.156070 13.000000
402.120450 13.000000
402.163020 17.000000
402.187230 16.000000
403.140200 13.000000
403.160430 13.000000
409.177920 18.000000
410.196290 15.000000
411.149480 20.000000
411.177670 339.000000
411.193540 715.000000
412.145020 27.000000
412.189760 115.000000
412.207090 57.000000
413.138400 17.000000
413.198060 57.000000
414.163540 11.000000
414.188750 17.000000
415.147340 13.000000
415.161470 24.000000
416.174040 12.000000
417.131500 18.000000
417.143550 12.000000
418.159330 15.000000
422.171810 15.000000
424.171570 13.000000
425.204100 27.000000
428.148800 13.000000
428.205870 15.000000
430.174160 23.000000
431.196080 17.000000
441.170380 13.000000
441.214570 14.000000
445.155360 13.000000
445.208100 12.000000
446.165800 11.000000
447.199130 11.000000
460.170560 14.000000
465.143100 11.000000
470.174100 13.000000
473.258420 14.000000
475.171020 15.000000
484.164250 13.000000
489.115780 11.000000
501.191040 11.000000
502.252900 15.000000
503.194950 17.000000
508.232030 15.000000
514.172180 14.000000
516.184570 17.000000
516.236150 17.000000
517.154600 22.000000
530.216370 11.000000
532.221250 17.000000
532.254700 12.000000
534.210820 12.000000
535.260190 15.000000
540.228270 11.000000
546.219910 25.000000
546.240970 27.000000
547.237430 11.000000
548.488530 18.000000
549.181150 27.000000
549.200560 32.000000
550.237980 11.000000
552.198060 15.000000
560.176150 14.000000
561.184630 31.000000
561.221500 25.000000
562.216430 27.000000
564.245610 11.000000
566.241270 12.000000
573.195010 13.000000
574.234560 13.000000
575.236940 16.000000
576.197080 13.000000
576.229980 29.000000
576.265690 18.000000
580.244630 23.000000
581.237000 13.000000
590.086670 13.000000
590.230470 23.000000
590.266050 26.000000
591.245300 11.000000
591.301090 14.000000
592.238530 24.000000
593.191160 15.000000
593.208860 12.000000
593.234740 13.000000
594.214420 11.000000
606.116330 18.000000
606.243290 50.000000
606.257020 119.000000
606.283330 13.000000
607.243900 30.000000
609.287540 18.000000
613.258910 11.000000
621.268250 16.000000
621.295530 39.000000
622.276180 15.000000
623.271850 14.000000
624.292360 12.000000
626.007930 11.000000
637.275210 11.000000
637.295960 14.000000
638.267400 14.000000
638.307070 12.000000
640.222960 13.000000
642.264530 13.000000

>ms2peaks
162.087140 6.000000
174.092830 7.000000
174.104950 6.000000
176.098430 5.000000
176.107440 6.000000
190.077220 6.000000
190.092120 7.000000
191.089940 30.000000
191.103390 10.000000
192.102370 11.000000
327.165620 19.000000
327.671970 11.000000
328.163880 6.000000
411.191770 37.000000
411.208190 18.000000
412.190220 16.000000
426.199070 7.000000
607.243470 5.000000
607.270750 10.000000
610.293820 10.000000
621.301450 6.000000
622.259830 12.000000
622.288640 26.000000
623.288090 25.000000
623.320860 7.000000
624.282100 10.000000
651.293400 5.000000
653.201350 7.000000
653.261840 22.000000
653.321660 1000.000000
653.364260 16.000000

>ms2peaks
327.174620 6.000000
653.240300 12.000000
653.323490 1000.000000
653.391360 7.000000

>ms2peaks
95.488920 7.000000
166.058690 5.000000
176.109040 14.000000
190.092820 8.000000
191.087740 33.000000
191.097110 72.000000
192.091430 12.000000
192.104630 47.000000
193.103520 16.000000
195.106280 7.000000
249.129320 11.000000
281.145320 8.000000
282.150390 10.000000
297.108180 6.000000
298.499150 6.000000
322.134640 6.000000
323.150300 7.000000
355.131840 7.000000
355.174160 10.000000
394.204280 8.000000
400.188050 11.000000
411.186550 52.000000
411.207240 22.000000
426.232640 11.000000
443.177460 7.000000
455.837070 5.000000
461.218080 9.000000
503.285370 7.000000
516.250060 8.000000
525.044800 8.000000
579.250180 6.000000
579.269100 7.000000
590.224730 12.000000
590.261230 9.000000
592.225220 14.000000
592.248540 6.000000
606.218260 6.000000
606.252440 10.000000
606.271360 9.000000
610.260070 13.000000
610.286070 30.000000
610.312990 8.000000
611.280880 13.000000
621.313660 9.000000
622.233760 20.000000
622.278690 95.000000
622.302190 63.000000
623.235350 6.000000
623.270570 62.000000
623.307980 43.000000
623.341550 8.000000
624.254820 9.000000
624.282170 16.000000
624.308960 25.000000
630.985660 5.000000
653.223210 18.000000
653.323970 1000.000000

>ms2peaks
83.074910 14.000000
97.631610 15.000000
121.067550 39.000000
131.047200 21.000000
131.069670 18.000000
131.084010 19.000000
132.057050 25.000000
132.081940 15.000000
135.067980 16.000000
135.081680 15.000000
137.052950 25.000000
143.042450 15.000000
145.061740 22.000000
145.075710 22.000000
145.090120 65.000000
146.088230 13.000000
146.095810 56.000000
146.103030 32.000000
148.052460 34.000000
149.051390 13.000000
150.077450 16.000000
151.076140 18.000000
158.100800 23.000000
160.073960 53.000000
161.053070 27.000000
161.063310 17.000000
161.083620 18.000000
162.066860 13.000000
162.092010 340.000000
162.496340 14.000000
163.071400 31.000000
163.089920 33.000000
163.103270 14.000000
165.515530 15.000000
166.061040 13.000000
172.070890 26.000000
173.055150 16.000000
173.079090 19.000000
174.047180 16.000000
174.092740 1000.000000
175.044460 13.000000
175.078060 15.000000
175.094310 101.000000
176.071690 43.000000
176.082840 16.000000
176.099090 36.000000
176.106580 77.000000
176.120910 13.000000
177.047410 16.000000
177.056400 16.000000
177.073200 29.000000
178.084930 31.000000
179.089510 19.000000
180.068910 14.000000
181.077390 15.000000
181.092700 15.000000
189.088330 19.000000
189.115910 20.000000
190.066350 42.000000
190.087570 328.000000
190.097900 63.000000
190.118520 15.000000
191.073520 17.000000
191.097240 419.000000
192.102910 445.000000
193.093000 18.000000
193.109450 15.000000
194.066040 15.000000
201.112150 14.000000
202.080000 35.000000
203.085190 22.000000
204.077760 22.000000
204.103840 129.000000
205.049390 15.000000
205.086870 21.000000
205.097850 15.000000
205.112670 17.000000
206.096890 15.000000
206.117290 13.000000
207.088000 35.000000
208.102050 13.000000
209.093430 38.000000
209.100100 22.000000
211.070690 15.000000
214.095830 17.000000
215.100010 22.000000
216.100460 13.000000
219.073670 18.000000
219.089740 17.000000
220.088420 14.000000
220.101010 46.000000
222.097260 13.000000
223.080490 18.000000
223.093370 14.000000
224.083920 15.000000
226.096510 20.000000
227.104610 23.000000
232.089260 19.000000
234.109160 43.000000
235.121030 19.000000
236.121120 22.000000
236.142170 26.000000
238.097230 61.000000
239.063630 16.000000
239.515060 25.000000
248.126100 19.000000
249.101650 19.000000
252.083690 13.000000
253.090500 19.000000
254.121410 13.000000
255.094540 13.000000
265.080630 28.000000
265.098820 14.000000
267.120540 22.000000
269.139430 25.000000
270.005220 19.000000
270.154300 15.000000
273.338840 16.000000
278.137300 21.000000
279.095760 27.000000
280.101350 43.000000
280.115390 30.000000
281.119840 13.000000
281.147340 17.000000
282.157100 13.000000
283.068730 13.000000
290.076290 15.000000
293.089080 14.000000
293.110990 22.000000
293.130310 15.000000
294.080290 21.000000
294.108150 13.000000
295.144040 15.000000
295.295780 18.000000
297.106260 17.000000
300.100590 20.000000
306.113920 20.000000
307.126460 19.000000
309.103520 15.000000
309.114560 15.000000
309.134160 15.000000
312.114720 17.000000
320.099950 15.000000
321.079160 20.000000
323.105740 22.000000
324.117860 18.000000
324.139920 23.000000
325.120570 18.000000
327.153020 22.000000
327.268620 14.000000
331.125340 21.000000
332.165920 14.000000
334.110690 18.000000
334.144320 15.000000
335.121090 13.000000
335.859280 13.000000
336.933110 21.000000
337.128270 35.000000
338.106990 14.000000
338.135740 16.000000
339.116820 19.000000
345.140930 20.000000
347.146330 21.000000
347.161100 18.000000
348.127010 17.000000
350.084290 13.000000
350.134160 19.000000
350.148770 33.000000
351.153110 18.000000
352.147550 18.000000
353.146640 15.000000
354.133730 19.000000
354.150760 16.000000
354.164430 31.000000
355.137480 15.000000
355.164090 18.000000
356.148190 22.000000
357.101140 20.000000
358.109380 15.000000
363.140010 31.000000
365.152620 63.000000
365.163480 22.000000
367.105530 18.000000
367.160340 26.000000
367.219020 19.000000
368.127230 34.000000
368.149020 43.000000
369.115510 19.000000
369.169560 32.000000
370.174040 15.000000
371.131320 13.000000
374.152680 15.000000
378.183690 14.000000
378.941160 15.000000
379.165370 74.000000
380.135890 25.000000
380.147490 15.000000
380.177550 15.000000
381.134980 29.000000
381.149510 36.000000
382.120000 26.000000
382.146580 14.000000
382.174680 15.000000
383.193970 19.000000
385.134030 29.000000
385.161220 19.000000
386.176090 14.000000
393.165160 19.000000
393.180210 14.000000
394.164890 14.000000
394.192930 82.000000
395.166750 70.000000
395.203220 14.000000
396.148860 13.000000
396.165370 37.000000
397.157500 15.000000
397.185420 14.000000
398.183810 16.000000
400.196380 29.000000
402.189820 14.000000
403.169920 19.000000
407.072570 13.000000
411.148220 18.000000
411.190830 990.000000
412.153930 13.000000
412.196010 194.000000
413.174930 26.000000
413.201570 13.000000
414.175690 19.000000
416.180880 17.000000
418.189030 19.000000
426.211000 15.000000
427.225620 19.000000
430.138090 15.000000
430.189210 38.000000
432.194980 18.000000
437.158540 19.000000
443.205080 16.000000
444.173550 22.000000
455.157900 14.000000
459.195010 13.000000
460.172450 14.000000
460.204560 19.000000
465.208590 16.000000
474.227910 14.000000
484.181670 16.000000
486.184420 14.000000
488.206480 13.000000
492.225740 16.000000
493.184880 33.000000
502.139040 15.000000
503.191830 15.000000
508.142300 19.000000
517.160830 25.000000
519.172970 15.000000
521.191350 15.000000
528.194150 19.000000
530.135680 19.000000
531.169250 14.000000
531.238710 13.000000
533.202390 13.000000
536.228700 19.000000
543.218630 13.000000
544.228090 19.000000
545.190120 13.000000
545.209230 19.000000
547.257020 14.000000
548.212520 14.000000
552.235900 22.000000
561.207340 31.000000
561.243590 21.000000
562.227660 27.000000
574.243040 16.000000
576.220950 16.000000
576.245610 39.000000
578.210390 41.000000
578.246280 18.000000
579.235900 16.000000
580.253360 15.000000
589.237980 14.000000
590.235170 13.000000
590.260190 32.000000
590.289250 27.000000
591.227720 19.000000
592.175420 15.000000
592.242610 32.000000
593.221740 35.000000
593.254030 19.000000
594.198060 18.000000
594.235410 36.000000
596.266660 21.000000
606.262630 40.000000
607.235960 62.000000
607.268860 34.000000
608.276920 26.000000
610.276180 18.000000
621.260070 13.000000
621.304380 21.000000
623.251830 14.000000
638.304630 22.000000
638.339110 13.000000

