>compound PR59221128
>parentmass 355.1176
>ionization [M+H]+
>formula C20H18O6
>rt 415.800000
>profile qtof
#smiles_iso CC(=CCC1=C(C=CC(=C1O)C2=COC3=CC(=CC(=C3C2=O)O)O)O)C
#smiles_can CC(=CCC1=C(C=CC(=C1O)C2=COC3=CC(=CC(=C3C2=O)O)O)O)C
#inchikey KCUZCRLRQVRBBV-UHFFFAOYSA-N
#pubchem_id 5281789
#mb_accession PR310756,PR310761

>ms2peaks
79.015250 35.000000
111.009140 17.000000
134.579730 23.000000
153.018050 45.000000
153.023670 17.000000
154.022810 23.000000
159.045440 23.000000
161.015430 25.000000
165.012770 21.000000
165.055470 18.000000
179.036160 31.000000
179.045880 18.000000
181.050380 18.000000
188.042800 27.000000
191.103820 18.000000
195.085400 40.000000
197.059600 23.000000
212.083160 30.000000
229.083970 20.000000
229.129030 24.000000
230.045120 22.000000
257.043400 87.000000
257.089840 29.000000
258.043060 19.000000
258.052000 20.000000
271.052250 23.000000
279.120180 18.000000
299.024840 18.000000
299.051820 393.000000
299.065400 131.000000
299.084440 23.000000
300.053860 63.000000
300.071750 20.000000
301.061920 20.000000
301.112090 22.000000
327.114070 29.000000
339.160130 18.000000
353.141570 22.000000
354.103150 18.000000
355.116420 919.000000

>ms2peaks
147.041890 18.000000
152.055710 17.000000
153.016400 244.000000
153.031250 35.000000
154.027860 45.000000
201.057600 18.000000
221.096220 23.000000
226.453020 17.000000
243.065170 21.000000
287.059480 18.000000
296.062770 20.000000
297.049260 17.000000
299.023960 21.000000
299.056670 714.000000
300.055910 48.000000
300.068210 71.000000
301.058410 20.000000
354.170380 18.000000
354.888150 19.000000
354.988190 22.000000
355.117130 854.000000

