>compound PR59156855
>parentmass 285.0847
>ionization [M+H]+
>formula C10H12N4O6
>rt 124.200000
>profile qtof
#smiles_iso C1=NC2=C(N1C3C(C(C(O3)CO)O)O)NC(=O)NC2=O
#smiles_can C1=NC2=C(N1C3C(C(C(O3)CO)O)O)NC(=O)NC2=O
#inchikey UBORTCNDUKBEOP-UHFFFAOYSA-N
#pubchem_id 1189
#mb_accession PR310807

>ms2
70.065740 16.000000
115.037090 22.000000
126.967990 20.000000
133.041210 16.000000
133.053560 44.000000
134.095920 16.000000
152.025210 20.000000
152.055040 18.000000
152.061510 27.000000
153.044050 292.000000
154.042910 33.000000
169.107510 17.000000
193.097440 18.000000
200.077620 22.000000
202.970540 27.000000
271.176790 17.000000
278.101140 40.000000
284.184880 17.000000

