>compound PR59037707
>parentmass 353.1859691
>ionization [M+H]+
>formula C21H24N2O3
>rt 243.210000
>profile qtof
#smiles_iso CN1C[C@]2([C@@H]3C[C@@H]4[C@]5([C@H]2[C@H]1[C@H]3CO4)C6=CC=CC=C6N(C5=O)OC)C=C
#smiles_can CN1CC2(C3CC4C5(C2C1C3CO4)C6=CC=CC=C6N(C5=O)OC)C=C
#inchikey SSSCMFCWHWCCEH-MTYPYGCKSA-N
#pubchem_id 14217344
#mb_accession PR300324,PR300328,PR300333,PR300338,PR300343,PR300348,PR300353,PR300358,PR300363,PR300368,PR300373,PR300378

>ms2
108.080380 16.000000
110.095890 26.000000
120.079730 9.000000
134.098710 7.000000
151.101170 11.000000
184.075070 8.000000
194.096360 8.000000
195.065810 8.000000
196.077680 5.000000
208.075330 7.000000
211.082780 17.000000
218.096340 7.000000
235.100830 7.000000
236.110210 5.000000
237.101260 10.000000
241.095870 6.000000
242.099290 8.000000
244.108570 6.000000
246.086010 5.000000
246.096010 6.000000
247.093890 5.000000
248.112230 11.000000
249.107770 5.000000
251.129440 5.000000
258.093900 10.000000
260.094850 6.000000
260.109250 39.000000
261.113220 9.000000
261.137790 7.000000
262.112700 6.000000
262.121860 8.000000
262.151980 6.000000
263.122160 7.000000
263.130920 5.000000
272.100370 11.000000
273.113190 17.000000
274.124180 8.000000
279.125980 7.000000
280.169590 9.000000
289.137570 13.000000
291.152830 33.000000
292.161380 6.000000
294.180450 7.000000
303.150820 10.000000
304.158480 24.000000
322.125150 7.000000
322.168090 392.000000
323.172030 120.000000
324.175050 19.000000
353.120390 6.000000
353.136140 8.000000
353.185880 1000.000000
353.241060 21.000000

>ms2
322.167720 71.000000
323.172880 25.000000
353.127900 8.000000
353.186160 1000.000000
353.240360 29.000000

>ms2
57.053400 12.000000
57.058110 15.000000
57.064850 6.000000
68.051810 31.000000
70.043660 20.000000
70.052350 6.000000
70.059270 6.000000
70.065670 47.000000
70.071380 13.000000
71.071850 16.000000
71.076750 6.000000
73.052120 8.000000
78.456020 5.000000
79.055110 9.000000
79.061240 8.000000
80.051700 16.000000
80.066250 8.000000
82.066530 97.000000
83.073530 32.000000
84.080470 20.000000
84.083070 8.000000
85.077770 6.000000
86.047160 11.000000
86.058750 52.000000
86.093200 7.000000
87.067640 46.000000
88.073970 12.000000
90.104550 5.000000
91.047530 6.000000
91.057300 16.000000
93.075710 7.000000
94.060330 33.000000
94.065940 39.000000
95.068800 34.000000
95.078090 10.000000
96.062090 6.000000
96.072370 5.000000
96.079990 63.000000
96.086310 14.000000
97.046550 7.000000
97.056430 7.000000
97.081930 10.000000
97.093330 12.000000
98.096560 5.000000
98.931180 7.000000
100.074310 65.000000
104.059680 6.000000
105.069840 7.000000
106.057060 6.000000
106.068450 8.000000
107.063120 15.000000
108.079900 271.000000
108.091170 6.000000
108.435950 5.000000
109.085560 100.000000
109.896630 5.000000
110.033460 6.000000
110.052990 7.000000
110.060310 7.000000
110.095270 508.000000
111.094120 14.000000
111.100940 42.000000
112.082500 10.000000
113.095600 6.000000
114.099220 11.000000
115.051990 10.000000
116.032910 7.000000
118.076990 14.000000
118.082910 7.000000
119.042600 6.000000
119.091300 7.000000
120.043480 7.000000
120.080200 222.000000
121.087720 139.000000
122.063350 7.000000
122.097050 84.000000
122.103320 23.000000
123.055340 6.000000
123.101650 15.000000
124.074500 30.000000
124.084920 7.000000
125.001070 5.000000
126.091750 39.000000
127.101940 6.000000
128.050320 15.000000
129.057590 7.000000
129.070820 27.000000
131.083970 54.000000
131.599090 7.000000
132.045230 27.000000
132.079700 92.000000
133.039960 7.000000
133.057270 28.000000
133.087510 179.000000
134.042390 10.000000
134.058900 8.000000
134.093860 86.000000
135.076800 7.000000
135.099660 6.000000
136.118240 14.000000
138.090260 19.000000
139.095340 21.000000
139.101760 45.000000
141.072080 11.000000
143.078950 13.000000
144.074510 12.000000
144.083620 10.000000
145.049970 29.000000
145.062990 17.000000
145.090150 20.000000
146.058000 42.000000
146.093640 101.000000
147.094410 27.000000
147.101810 16.000000
148.078870 6.000000
148.112430 6.000000
149.087590 6.000000
149.115220 13.000000
149.122590 15.000000
150.085770 61.000000
150.092060 37.000000
151.098800 189.000000
152.091370 5.000000
152.103010 38.000000
155.083010 13.000000
156.079320 13.000000
156.085770 10.000000
157.081270 6.000000
158.045560 7.000000
158.056140 13.000000
158.064800 25.000000
158.084260 10.000000
158.096070 53.000000
158.104100 17.000000
159.060270 13.000000
159.067540 19.000000
159.092070 22.000000
159.104390 78.000000
160.065930 10.000000
160.079180 25.000000
160.111080 17.000000
160.123280 6.000000
161.087590 8.000000
161.116170 13.000000
161.842060 10.000000
162.056060 13.000000
162.087310 16.000000
162.128110 9.000000
163.057040 10.000000
163.093150 6.000000
164.104000 8.000000
164.111940 18.000000
165.069200 7.000000
165.091190 8.000000
165.373760 15.000000
166.027390 8.000000
167.067090 13.000000
167.074630 20.000000
168.074160 8.000000
168.083100 15.000000
170.059490 20.000000
170.084340 5.000000
172.095120 27.000000
172.102540 16.000000
172.112090 24.000000
173.074770 7.000000
174.015170 8.000000
174.076680 22.000000
174.088880 5.000000
174.105800 7.000000
174.127240 15.000000
175.100010 15.000000
176.060010 5.000000
176.108250 23.000000
177.150360 9.000000
177.196820 6.000000
178.076570 6.000000
178.085750 6.000000
179.042830 6.000000
179.072880 14.000000
179.086210 17.000000
180.080840 54.000000
180.093050 10.000000
181.076540 7.000000
181.084880 8.000000
181.096740 6.000000
181.105930 10.000000
182.050860 9.000000
182.060180 14.000000
182.086750 7.000000
182.095120 7.000000
182.114150 6.000000
182.457930 8.000000
183.051710 7.000000
183.066510 56.000000
184.075670 138.000000
184.088650 12.000000
185.066300 7.000000
185.081160 8.000000
185.916170 8.000000
186.059340 7.000000
186.125320 24.000000
186.310640 6.000000
187.088910 37.000000
188.074770 24.000000
189.070210 5.000000
190.068310 6.000000
190.103130 11.000000
190.128950 30.000000
191.040210 7.000000
191.086550 11.000000
191.121770 7.000000
191.128950 8.000000
192.078980 10.000000
192.088670 11.000000
192.103180 15.000000
193.082410 8.000000
193.102780 5.000000
194.078450 9.000000
194.095860 24.000000
195.052860 13.000000
195.067580 129.000000
195.075760 33.000000
195.089020 24.000000
195.101760 34.000000
195.112900 14.000000
196.057660 6.000000
196.071120 23.000000
196.078050 32.000000
196.111340 35.000000
197.054210 13.000000
197.068710 15.000000
197.086820 28.000000
197.111850 12.000000
197.124070 8.000000
198.061980 15.000000
198.081790 5.000000
198.098130 13.000000
199.076170 18.000000
199.086170 11.000000
200.096240 25.000000
200.699830 5.000000
203.083890 8.000000
204.073520 43.000000
204.083480 25.000000
204.096800 7.000000
204.145540 15.000000
204.874080 8.000000
205.091000 22.000000
205.102740 23.000000
205.144960 7.000000
205.747990 9.000000
206.088420 30.000000
206.101200 23.000000
207.051390 7.000000
207.061200 6.000000
207.088460 16.000000
207.121930 6.000000
208.048690 11.000000
208.073040 61.000000
208.088420 15.000000
208.112980 15.000000
209.073210 13.000000
209.086150 50.000000
209.098220 14.000000
209.107450 17.000000
210.068660 7.000000
210.091030 40.000000
210.098270 26.000000
210.120850 6.000000
211.040120 6.000000
211.050960 18.000000
211.063350 5.000000
211.084790 279.000000
211.104720 7.000000
212.052190 7.000000
212.074550 46.000000
212.094970 45.000000
213.101610 86.000000
213.129940 10.000000
214.075650 8.000000
214.087490 5.000000
214.110320 13.000000
216.060640 8.000000
216.080540 9.000000
216.091080 29.000000
217.083150 25.000000
217.098920 13.000000
217.113370 7.000000
218.070220 12.000000
218.085590 17.000000
218.105360 65.000000
219.074940 7.000000
219.102370 31.000000
219.113510 16.000000
219.123750 21.000000
220.060650 9.000000
220.072830 58.000000
220.088730 12.000000
220.108720 51.000000
220.127550 19.000000
221.066530 6.000000
221.085050 41.000000
221.125290 12.000000
221.138080 15.000000
221.148500 7.000000
222.050290 7.000000
222.089660 107.000000
222.118100 13.000000
223.054600 6.000000
223.090910 51.000000
223.102770 38.000000
223.133940 7.000000
224.090680 28.000000
224.107160 24.000000
225.103360 30.000000
225.118760 5.000000
226.057430 7.000000
226.076030 6.000000
226.086990 6.000000
226.107300 20.000000
227.078430 14.000000
227.106800 7.000000
227.138670 8.000000
228.075150 14.000000
229.078280 15.000000
229.089510 17.000000
230.073670 23.000000
230.099620 49.000000
230.508450 6.000000
230.999860 7.000000
231.080060 9.000000
231.101940 47.000000
231.117810 47.000000
231.195970 8.000000
232.076000 30.000000
232.095440 13.000000
232.103420 26.000000
232.113530 36.000000
232.126630 7.000000
233.074220 18.000000
233.086900 37.000000
233.108060 27.000000
233.116760 16.000000
234.066450 5.000000
234.090040 129.000000
234.110760 15.000000
234.132520 47.000000
234.389980 7.000000
235.074010 6.000000
235.089740 47.000000
235.099300 51.000000
235.120650 27.000000
235.134990 45.000000
236.064940 7.000000
236.075380 14.000000
236.088210 22.000000
236.103040 58.000000
236.117340 21.000000
236.140340 7.000000
236.508380 7.000000
237.080410 31.000000
237.106770 267.000000
238.059130 6.000000
238.073500 15.000000
238.086300 49.000000
238.112780 86.000000
239.093430 5.000000
239.110410 46.000000
239.155870 10.000000
240.119640 20.000000
240.145220 8.000000
240.534790 5.000000
241.097470 8.000000
241.121700 7.000000
242.070830 11.000000
242.087250 72.000000
242.099290 110.000000
242.594020 9.000000
243.097120 54.000000
243.118180 11.000000
244.107940 54.000000
244.118410 25.000000
245.076020 11.000000
245.105850 30.000000
245.126100 19.000000
246.015200 8.000000
246.049700 6.000000
246.092180 152.000000
246.128650 51.000000
247.056850 11.000000
247.081090 18.000000
247.092160 42.000000
247.101380 68.000000
247.118550 21.000000
247.131300 13.000000
247.336720 7.000000
247.686370 7.000000
248.082530 23.000000
248.101620 113.000000
248.111680 128.000000
248.131070 12.000000
248.141070 8.000000
248.994170 8.000000
249.072190 14.000000
249.085940 9.000000
249.103730 82.000000
249.116610 101.000000
249.135910 16.000000
249.998630 6.000000
250.079700 8.000000
250.106110 25.000000
250.119740 34.000000
250.133090 10.000000
250.160390 39.000000
250.168290 16.000000
251.101100 16.000000
251.118640 90.000000
251.134670 25.000000
251.149920 10.000000
252.122590 12.000000
252.134930 22.000000
252.172330 7.000000
253.037950 5.000000
253.105870 29.000000
253.135620 12.000000
254.090150 7.000000
254.131060 8.000000
255.099880 17.000000
256.104550 7.000000
256.118070 16.000000
257.059200 6.000000
257.109770 5.000000
258.074040 32.000000
258.094120 124.000000
258.112300 13.000000
259.083250 12.000000
259.095430 7.000000
260.067350 6.000000
260.106600 585.000000
260.140810 10.000000
260.160370 5.000000
261.089870 27.000000
261.115510 227.000000
261.140170 37.000000
261.152920 19.000000
262.035640 6.000000
262.086270 16.000000
262.097630 14.000000
262.111880 42.000000
262.131840 74.000000
262.145630 26.000000
262.165220 13.000000
262.175720 10.000000
262.315490 8.000000
263.091250 6.000000
263.100710 18.000000
263.120510 164.000000
263.143100 69.000000
263.820470 7.000000
264.085850 8.000000
264.109530 15.000000
264.121830 41.000000
264.135590 43.000000
264.148130 14.000000
264.164980 15.000000
265.114590 8.000000
265.133180 74.000000
265.146450 16.000000
265.321470 10.000000
265.627930 9.000000
266.121670 8.000000
266.179840 14.000000
267.119780 13.000000
267.160980 5.000000
267.181980 6.000000
268.098240 7.000000
270.102780 8.000000
270.145900 9.000000
271.095920 11.000000
271.118040 7.000000
272.097530 48.000000
272.107210 154.000000
272.129850 13.000000
272.447720 13.000000
273.105440 63.000000
273.115570 89.000000
273.123960 34.000000
273.144200 7.000000
273.651180 12.000000
274.092250 16.000000
274.108980 31.000000
274.124150 59.000000
274.142730 18.000000
275.120000 12.000000
275.155910 20.000000
276.109530 6.000000
276.125580 39.000000
276.150630 27.000000
276.167660 46.000000
276.180660 13.000000
277.118650 10.000000
277.132690 47.000000
277.152860 10.000000
277.176300 10.000000
278.052550 7.000000
278.100160 5.000000
278.124480 6.000000
278.134030 21.000000
278.153050 20.000000
279.123900 60.000000
279.154240 46.000000
280.142550 16.000000
280.168730 138.000000
280.190950 6.000000
281.118440 6.000000
281.139590 11.000000
281.178340 40.000000
285.143010 6.000000
287.112640 6.000000
287.147090 5.000000
288.116580 12.000000
289.129030 201.000000
289.142030 146.000000
289.398650 6.000000
290.110230 14.000000
290.131740 105.000000
290.809140 6.000000
290.946200 5.000000
291.121000 47.000000
291.146390 529.000000
292.132840 18.000000
292.148620 77.000000
292.158450 65.000000
292.175900 12.000000
292.707890 5.000000
293.114010 6.000000
293.166810 69.000000
293.244690 8.000000
294.135740 8.000000
294.163390 50.000000
294.179470 82.000000
296.152680 15.000000
296.174320 8.000000
301.141570 6.000000
303.134800 33.000000
303.147370 150.000000
303.160610 36.000000
304.152500 133.000000
304.165950 22.000000
305.124820 5.000000
305.150970 18.000000
305.165100 25.000000
305.178920 24.000000
306.149410 6.000000
306.170170 20.000000
307.130520 48.000000
307.142210 32.000000
307.157350 30.000000
308.098570 5.000000
308.134640 15.000000
310.142090 7.000000
318.697450 5.000000
321.159060 42.000000
322.111240 14.000000
322.128450 19.000000
322.167570 1000.000000
323.136600 7.000000
323.171390 234.000000
323.188510 39.000000
324.163390 17.000000
324.179720 55.000000
333.156160 6.000000
335.329350 6.000000
339.165130 6.000000
353.173770 26.000000
353.193080 33.000000

>ms2
51.171490 28.000000
58.068910 27.000000
67.047590 28.000000
67.054530 65.000000
68.047710 121.000000
68.052510 62.000000
68.064350 23.000000
69.030850 32.000000
70.062420 16.000000
70.065690 46.000000
72.078480 20.000000
74.058870 44.000000
77.035740 176.000000
79.038700 26.000000
79.046010 20.000000
79.055210 32.000000
79.060590 16.000000
80.024200 20.000000
80.039150 28.000000
81.775330 19.000000
82.062670 92.000000
82.068980 124.000000
84.045460 23.000000
84.077750 67.000000
86.059910 23.000000
86.068500 21.000000
89.026440 22.000000
91.030990 30.000000
91.057180 167.000000
93.026370 16.000000
93.063800 38.000000
94.056050 26.000000
94.062430 68.000000
94.068820 141.000000
94.075360 20.000000
94.446780 16.000000
95.044330 37.000000
95.074860 80.000000
96.047060 39.000000
96.075390 58.000000
96.085110 20.000000
97.084800 21.000000
98.058110 20.000000
99.061580 35.000000
99.090310 19.000000
100.072980 50.000000
101.329030 16.000000
103.053510 49.000000
103.058240 35.000000
104.047480 22.000000
104.055690 79.000000
105.018060 18.000000
105.072510 65.000000
106.061100 59.000000
106.070050 40.000000
107.043000 34.000000
107.073180 20.000000
108.064510 25.000000
108.078940 210.000000
108.086980 79.000000
110.095990 447.000000
112.067270 26.000000
113.030850 24.000000
115.052410 123.000000
115.065380 23.000000
116.047210 17.000000
116.055210 19.000000
116.061780 46.000000
117.067770 124.000000
117.075310 28.000000
118.058740 100.000000
119.087530 25.000000
120.048460 36.000000
120.076350 220.000000
120.083150 120.000000
121.082330 114.000000
121.214680 16.000000
122.098460 25.000000
123.967830 17.000000
124.081200 32.000000
125.086270 20.000000
127.050520 36.000000
127.059840 103.000000
128.043550 72.000000
128.050900 151.000000
128.060290 102.000000
129.053820 57.000000
129.064450 87.000000
129.073030 116.000000
130.048490 20.000000
130.061480 232.000000
130.074310 102.000000
131.085690 64.000000
131.742100 33.000000
132.029560 28.000000
132.043180 180.000000
132.064830 39.000000
132.078890 147.000000
132.126630 17.000000
133.047260 16.000000
133.080430 41.000000
134.041700 30.000000
134.057070 22.000000
134.096850 54.000000
134.109010 20.000000
135.096630 49.000000
139.056460 144.000000
140.050490 77.000000
140.976970 22.000000
142.063080 17.000000
142.078930 20.000000
143.051280 62.000000
143.071370 80.000000
144.047330 16.000000
144.076710 58.000000
144.084230 21.000000
144.097750 19.000000
145.050490 102.000000
145.079740 24.000000
145.086960 21.000000
145.098370 25.000000
146.096130 149.000000
146.699450 16.000000
147.026810 16.000000
147.101270 65.000000
147.662930 28.000000
148.240280 16.000000
150.088030 98.000000
150.095520 76.000000
151.012040 33.000000
151.046220 16.000000
151.056000 38.000000
151.102830 31.000000
152.048650 16.000000
152.062940 61.000000
154.059480 139.000000
154.069690 94.000000
155.046430 20.000000
155.068740 18.000000
156.064190 26.000000
156.079640 201.000000
157.064250 38.000000
157.086650 44.000000
157.985440 19.000000
158.057620 44.000000
158.084790 24.000000
158.094210 124.000000
158.420240 20.000000
159.043640 19.000000
159.097270 44.000000
160.068220 18.000000
160.074710 21.000000
160.107120 34.000000
161.080760 29.000000
162.054490 19.000000
165.037610 31.000000
165.054660 60.000000
165.066530 142.000000
165.076130 130.000000
165.708440 20.000000
166.042390 26.000000
166.064850 1000.000000
166.077620 97.000000
167.035250 26.000000
167.048160 38.000000
167.066090 271.000000
167.074580 116.000000
167.087860 44.000000
168.067500 99.000000
168.080890 105.000000
168.088820 45.000000
169.056090 22.000000
169.079940 55.000000
169.111880 17.000000
170.061340 74.000000
170.090590 53.000000
170.109190 31.000000
171.081420 26.000000
172.073650 33.000000
172.097610 44.000000
173.072660 25.000000
173.081820 40.000000
176.051440 46.000000
177.039890 25.000000
177.055660 45.000000
177.072220 45.000000
178.054060 81.000000
178.068010 305.000000
178.082410 58.000000
179.053240 20.000000
179.061750 57.000000
179.076460 72.000000
179.087170 88.000000
179.509980 19.000000
180.064730 71.000000
180.080520 414.000000
181.036100 34.000000
181.073940 146.000000
181.081210 103.000000
181.092480 58.000000
182.057400 164.000000
182.074110 35.000000
182.084410 52.000000
182.099140 24.000000
183.067020 64.000000
183.093200 77.000000
184.048000 22.000000
184.063390 44.000000
184.076020 193.000000
186.124920 20.000000
187.075100 44.000000
187.087690 38.000000
188.075780 18.000000
189.063860 57.000000
189.073120 27.000000
189.717990 27.000000
190.062970 200.000000
190.081700 19.000000
191.054500 45.000000
191.068120 70.000000
191.078660 139.000000
191.801790 17.000000
192.080920 276.000000
193.070010 30.000000
193.082600 69.000000
193.093640 52.000000
194.057630 62.000000
194.087570 90.000000
194.101320 89.000000
194.197200 26.000000
195.060120 46.000000
195.072170 24.000000
195.091690 61.000000
195.103610 52.000000
195.869480 19.000000
196.074310 188.000000
196.087510 68.000000
196.104130 100.000000
196.964830 16.000000
197.037930 28.000000
197.061280 94.000000
197.076740 135.000000
197.093730 16.000000
198.055820 118.000000
198.068980 34.000000
198.080150 74.000000
199.051760 45.000000
199.070890 19.000000
199.092580 16.000000
201.055020 27.000000
201.067460 70.000000
202.058610 60.000000
202.075450 179.000000
202.097670 19.000000
202.706440 28.000000
203.059050 16.000000
203.076310 247.000000
203.099400 24.000000
203.126050 31.000000
204.073320 119.000000
204.079790 347.000000
204.090010 102.000000
204.104140 20.000000
205.094010 78.000000
206.053010 23.000000
206.082410 51.000000
206.092300 68.000000
206.108660 28.000000
207.107250 60.000000
208.068020 213.000000
208.086120 47.000000
208.103470 19.000000
208.122190 17.000000
208.787870 35.000000
209.050550 22.000000
209.068800 16.000000
209.078610 76.000000
209.113020 56.000000
210.065510 50.000000
210.074750 60.000000
210.084730 93.000000
210.097550 53.000000
210.111760 19.000000
211.026350 19.000000
211.052670 31.000000
211.082140 251.000000
211.092380 230.000000
211.125560 19.000000
212.073930 23.000000
212.092120 92.000000
212.955170 53.000000
213.061600 28.000000
213.070360 49.000000
213.956390 24.000000
214.055450 28.000000
214.061430 69.000000
214.075760 59.000000
214.110790 36.000000
215.046220 38.000000
215.076220 333.000000
215.092710 125.000000
215.107820 36.000000
216.079470 332.000000
216.090940 164.000000
216.102200 26.000000
216.127470 19.000000
217.090350 426.000000
217.106740 46.000000
218.092180 342.000000
219.095060 65.000000
219.104840 50.000000
219.204150 22.000000
220.061040 65.000000
220.073320 183.000000
220.100910 98.000000
220.114990 139.000000
220.134340 28.000000
221.084180 46.000000
221.101990 50.000000
221.117310 29.000000
222.049000 19.000000
222.080490 42.000000
222.104430 71.000000
222.119770 17.000000
223.083690 16.000000
223.091460 29.000000
224.071930 16.000000
224.107510 32.000000
225.065490 16.000000
225.073670 27.000000
226.053740 28.000000
226.071980 54.000000
226.086400 21.000000
227.074770 248.000000
227.093020 44.000000
228.065090 45.000000
228.080170 457.000000
228.094530 73.000000
229.071430 53.000000
229.086240 206.000000
229.095430 79.000000
230.069310 56.000000
230.089280 153.000000
230.097660 110.000000
230.111220 25.000000
230.432540 23.000000
231.084850 46.000000
231.095170 198.000000
231.113250 20.000000
232.064870 43.000000
232.078580 16.000000
232.097990 88.000000
232.113910 106.000000
232.121800 34.000000
233.083920 95.000000
233.106520 46.000000
233.124190 26.000000
234.079320 223.000000
234.103160 31.000000
235.089460 80.000000
237.093490 28.000000
237.103530 96.000000
237.115070 24.000000
238.103200 17.000000
239.076000 18.000000
239.129760 24.000000
239.227940 22.000000
240.053960 29.000000
240.070050 97.000000
240.079790 317.000000
241.074330 28.000000
241.090840 392.000000
242.075270 42.000000
242.090580 202.000000
242.099640 206.000000
243.063670 41.000000
243.102220 42.000000
243.113740 53.000000
244.044240 17.000000
244.066010 16.000000
244.078200 53.000000
244.096160 19.000000
244.117520 76.000000
245.079030 46.000000
245.101240 28.000000
245.108380 58.000000
246.071120 24.000000
246.090880 154.000000
246.106110 78.000000
247.079220 27.000000
247.095400 107.000000
247.124880 16.000000
247.141010 25.000000
248.026670 16.000000
248.090130 99.000000
248.104770 116.000000
248.121440 28.000000
249.094480 24.000000
249.126710 21.000000
249.139660 19.000000
250.087740 26.000000
250.109480 16.000000
251.120770 38.000000
252.082570 37.000000
252.136180 18.000000
253.107380 27.000000
253.469560 23.000000
254.072190 17.000000
254.091980 131.000000
254.108410 29.000000
254.537670 21.000000
255.097730 22.000000
255.112170 64.000000
256.097870 25.000000
256.121950 24.000000
257.082890 16.000000
258.075350 17.000000
258.092040 86.000000
258.107450 16.000000
259.096800 51.000000
259.107390 59.000000
260.077060 23.000000
260.091800 51.000000
260.109530 213.000000
260.131440 19.000000
261.091610 43.000000
261.105590 135.000000
261.132540 25.000000
262.113100 49.000000
262.156920 19.000000
270.104770 25.000000
270.114590 27.000000
271.097840 16.000000
272.099300 24.000000
272.112730 26.000000
274.105900 24.000000
274.114530 35.000000
274.129490 21.000000
275.104580 18.000000
275.123570 63.000000
276.069610 16.000000
276.112000 19.000000
278.110320 21.000000
279.104710 20.000000
279.118350 17.000000
281.694370 18.000000
288.086980 28.000000
288.107760 24.000000
288.135590 17.000000
289.123500 21.000000
289.134000 22.000000
291.157780 36.000000
293.126460 17.000000
303.149750 20.000000
306.333470 18.000000
307.148830 19.000000
327.457370 21.000000
347.082890 24.000000

>ms2
108.079950 16.000000
110.095760 35.000000
120.081180 8.000000
121.089450 6.000000
146.095350 5.000000
151.097380 9.000000
183.065890 6.000000
184.071350 6.000000
184.078170 7.000000
190.121690 5.000000
192.079130 5.000000
195.063980 9.000000
195.071980 7.000000
204.082670 7.000000
206.094700 6.000000
208.080250 7.000000
209.086170 7.000000
210.088580 7.000000
211.085280 25.000000
222.086840 9.000000
230.094010 7.000000
234.095520 6.000000
235.125610 5.000000
236.106930 8.000000
237.107970 12.000000
242.096020 14.000000
246.085540 5.000000
246.096820 9.000000
249.115460 7.000000
258.091220 13.000000
260.105500 45.000000
261.112340 12.000000
263.119750 8.000000
264.133120 7.000000
272.105560 10.000000
273.116880 8.000000
280.165500 11.000000
289.134060 18.000000
290.134640 7.000000
291.149600 38.000000
292.145720 6.000000
292.156770 8.000000
294.173280 16.000000
303.143220 8.000000
303.154210 6.000000
304.154850 17.000000
304.164790 7.000000
305.158330 5.000000
307.150700 8.000000
322.126860 6.000000
322.167420 421.000000
323.171300 109.000000
324.175080 20.000000
353.116820 9.000000
353.138640 5.000000
353.185670 1000.000000
353.240720 27.000000

>ms2
322.167790 77.000000
323.161070 6.000000
323.172820 20.000000
353.186950 1000.000000
353.241000 31.000000

>ms2
53.594340 5.000000
57.057100 8.000000
58.064740 6.000000
68.046870 21.000000
68.052390 8.000000
69.054220 7.000000
69.817860 5.000000
70.040340 11.000000
70.047680 8.000000
70.065200 94.000000
71.074050 20.000000
73.054730 11.000000
79.055970 5.000000
80.044810 9.000000
80.052630 17.000000
82.044340 6.000000
82.066160 59.000000
83.050770 8.000000
83.068270 7.000000
83.073030 17.000000
84.079350 11.000000
85.084540 17.000000
86.056620 20.000000
86.063760 15.000000
86.604890 6.000000
87.061160 18.000000
87.070860 10.000000
88.064320 6.000000
88.076280 12.000000
91.052420 28.000000
93.069450 13.000000
94.052120 10.000000
94.068020 33.000000
95.071690 37.000000
96.066610 7.000000
96.077890 78.000000
97.087180 25.000000
98.092730 18.000000
99.069500 8.000000
100.072020 37.000000
100.078400 37.000000
102.087700 6.000000
106.055890 8.000000
106.062900 10.000000
106.074810 17.000000
107.053620 5.000000
107.073350 55.000000
108.055350 7.000000
108.065870 7.000000
108.079350 149.000000
108.084030 117.000000
109.086970 50.000000
109.095160 8.000000
110.056500 44.000000
110.067180 7.000000
110.077320 18.000000
110.095790 460.000000
110.110120 6.000000
111.067280 11.000000
111.097800 56.000000
111.107410 8.000000
112.070560 33.000000
115.056300 22.000000
115.095980 9.000000
116.060440 11.000000
117.058930 10.000000
117.069700 13.000000
118.074380 34.000000
119.071540 7.000000
119.085360 7.000000
119.126820 6.000000
120.078670 140.000000
120.087330 28.000000
121.062970 7.000000
121.087340 100.000000
121.099570 5.000000
122.083830 13.000000
122.095320 59.000000
123.089330 6.000000
123.100040 12.000000
124.072030 6.000000
124.386830 7.000000
125.081830 9.000000
126.072870 9.000000
126.089200 46.000000
127.093700 8.000000
128.046200 6.000000
128.058270 13.000000
128.064500 6.000000
128.964780 5.000000
129.062900 17.000000
129.069380 9.000000
129.076480 9.000000
130.060090 15.000000
130.065690 33.000000
130.075040 9.000000
130.082600 6.000000
131.067030 8.000000
131.074220 55.000000
131.087490 22.000000
132.044020 50.000000
132.061160 11.000000
132.078900 142.000000
132.091710 20.000000
133.037490 16.000000
133.074840 12.000000
133.088810 90.000000
133.095630 34.000000
134.058230 6.000000
134.071730 8.000000
134.091290 50.000000
134.098430 101.000000
135.059400 9.000000
135.074810 12.000000
135.102980 18.000000
136.072370 12.000000
136.105960 6.000000
137.089710 6.000000
138.078190 15.000000
138.091750 28.000000
139.096190 39.000000
141.076370 9.000000
142.072920 35.000000
143.073930 11.000000
144.046980 7.000000
145.044480 8.000000
145.053010 26.000000
145.093580 5.000000
145.597730 9.000000
146.000530 7.000000
146.024020 12.000000
146.063170 36.000000
146.088620 31.000000
146.097610 63.000000
147.082120 5.000000
147.096480 38.000000
148.069240 14.000000
148.076200 8.000000
148.113130 24.000000
148.558650 6.000000
149.073200 5.000000
149.117220 23.000000
150.086520 52.000000
150.094640 43.000000
150.128330 5.000000
151.098510 197.000000
155.055590 12.000000
156.064410 11.000000
156.080870 62.000000
157.058760 6.000000
157.086010 14.000000
158.037490 12.000000
158.049670 10.000000
158.059080 25.000000
158.066760 25.000000
158.094710 37.000000
158.112080 12.000000
159.078020 8.000000
159.087070 15.000000
159.100850 69.000000
160.070710 14.000000
160.081950 9.000000
160.102010 13.000000
160.109300 52.000000
160.119890 11.000000
161.069900 27.000000
161.085240 9.000000
161.095990 7.000000
162.054700 8.000000
162.071090 7.000000
162.092190 6.000000
162.112670 7.000000
162.123900 16.000000
163.135410 11.000000
164.101140 18.000000
164.112460 36.000000
165.062710 12.000000
166.063520 47.000000
167.069850 33.000000
167.077220 36.000000
167.093520 11.000000
168.068280 10.000000
168.080440 7.000000
169.077930 7.000000
169.088810 5.000000
170.062650 17.000000
170.087190 6.000000
171.065980 14.000000
171.075930 6.000000
171.102620 9.000000
171.300420 6.000000
172.065370 6.000000
172.078520 34.000000
172.100420 20.000000
172.108220 25.000000
172.115280 21.000000
173.072600 7.000000
173.084700 8.000000
173.100620 6.000000
173.118300 12.000000
173.126240 5.000000
175.084380 15.000000
175.099790 6.000000
176.104460 48.000000
177.115400 7.000000
178.043790 7.000000
178.065570 19.000000
178.082960 11.000000
179.085750 9.000000
179.127910 6.000000
180.080350 37.000000
181.087890 15.000000
182.056500 38.000000
182.092670 12.000000
183.066250 42.000000
183.075330 26.000000
183.099700 8.000000
184.074810 125.000000
184.092820 16.000000
185.084010 25.000000
186.077470 7.000000
186.086110 8.000000
186.132400 27.000000
187.057420 7.000000
187.084630 16.000000
188.072170 5.000000
188.096150 11.000000
189.075070 7.000000
190.067210 9.000000
190.100800 11.000000
190.118440 31.000000
190.129470 32.000000
191.126250 9.000000
192.083620 6.000000
193.077380 11.000000
193.089170 17.000000
194.059460 19.000000
194.098500 67.000000
195.066330 72.000000
195.092640 18.000000
195.102220 7.000000
196.076280 165.000000
196.102450 67.000000
196.150630 5.000000
197.074370 73.000000
198.045410 6.000000
198.070330 6.000000
198.084660 23.000000
198.120470 9.000000
198.484950 8.000000
199.061330 11.000000
199.082430 11.000000
199.092240 14.000000
200.083240 6.000000
202.048340 6.000000
203.061890 10.000000
203.076580 5.000000
203.085980 5.000000
203.098630 7.000000
204.074130 25.000000
204.091520 21.000000
204.145050 7.000000
205.096560 23.000000
206.087400 28.000000
206.100220 62.000000
207.059310 6.000000
207.075130 11.000000
207.101790 16.000000
207.114590 9.000000
207.561420 6.000000
208.077180 139.000000
208.108870 6.000000
208.168990 7.000000
209.081210 79.000000
209.096650 7.000000
209.105410 11.000000
209.136700 8.000000
209.920520 7.000000
210.085250 50.000000
210.096850 34.000000
211.087360 307.000000
211.101490 28.000000
212.065220 33.000000
212.075910 28.000000
212.092070 65.000000
212.107650 9.000000
212.142610 7.000000
213.060000 5.000000
213.068620 5.000000
213.093750 48.000000
214.076550 7.000000
215.089950 7.000000
216.078460 32.000000
216.102890 6.000000
217.072510 6.000000
217.088730 24.000000
217.101200 23.000000
218.087280 23.000000
218.101850 84.000000
219.090880 14.000000
219.101530 14.000000
219.111370 15.000000
219.120830 9.000000
219.531850 5.000000
220.074490 52.000000
220.090040 10.000000
220.104170 42.000000
220.115460 30.000000
220.132770 25.000000
220.145100 9.000000
220.226070 6.000000
221.051440 6.000000
221.079530 35.000000
221.090440 60.000000
221.105190 23.000000
221.114140 19.000000
221.128970 11.000000
221.141530 7.000000
222.066470 11.000000
222.087020 97.000000
222.099170 25.000000
222.114360 9.000000
222.123200 13.000000
222.134340 24.000000
222.805830 6.000000
223.078430 21.000000
223.095430 34.000000
223.109100 37.000000
223.122990 6.000000
224.055510 6.000000
224.094860 51.000000
224.119580 12.000000
225.073170 12.000000
225.098280 68.000000
226.074370 6.000000
226.084530 6.000000
227.075590 25.000000
228.076110 17.000000
229.105970 6.000000
230.084720 9.000000
230.096530 48.000000
231.073210 10.000000
231.091860 18.000000
231.104570 29.000000
231.114400 41.000000
231.133320 6.000000
232.060210 10.000000
232.077100 10.000000
232.092670 6.000000
232.115690 66.000000
233.078280 32.000000
233.090770 43.000000
233.110790 28.000000
234.090840 166.000000
234.114550 39.000000
234.124790 19.000000
234.134610 18.000000
234.471150 8.000000
235.073090 13.000000
235.096210 62.000000
235.120040 18.000000
235.136660 17.000000
235.165600 7.000000
235.934890 6.000000
236.024510 9.000000
236.102430 62.000000
236.112170 62.000000
236.121290 38.000000
236.225660 7.000000
237.072220 19.000000
237.104280 202.000000
237.135710 6.000000
237.505250 7.000000
238.081910 52.000000
238.096130 20.000000
238.108000 38.000000
238.121860 41.000000
238.563740 8.000000
239.109390 33.000000
239.124080 36.000000
240.071880 5.000000
240.097840 30.000000
240.117720 8.000000
241.088290 12.000000
241.104520 5.000000
242.047240 11.000000
242.082790 26.000000
242.097290 204.000000
243.103000 26.000000
244.061360 13.000000
244.083950 25.000000
244.114960 96.000000
245.058030 7.000000
245.067960 20.000000
245.090160 12.000000
245.123500 34.000000
246.059140 11.000000
246.071640 20.000000
246.093150 171.000000
246.127010 49.000000
247.094730 74.000000
247.116780 17.000000
247.132400 26.000000
247.524490 7.000000
248.053770 12.000000
248.065490 10.000000
248.094440 34.000000
248.108960 200.000000
248.153560 6.000000
248.807050 7.000000
249.059920 5.000000
249.096910 94.000000
249.112180 72.000000
249.130970 11.000000
249.142150 6.000000
249.153980 11.000000
249.372740 6.000000
250.083310 6.000000
250.099580 26.000000
250.120880 101.000000
250.150130 7.000000
250.441100 7.000000
251.093540 24.000000
251.116100 112.000000
251.153410 19.000000
251.774490 10.000000
252.083710 7.000000
252.107650 8.000000
252.119050 28.000000
252.177400 10.000000
252.872360 11.000000
253.087720 13.000000
253.097850 12.000000
253.139080 13.000000
254.080150 13.000000
254.097870 69.000000
254.123460 9.000000
255.094990 11.000000
255.112270 10.000000
256.109710 29.000000
257.079040 5.000000
257.094600 14.000000
257.103580 9.000000
258.079990 20.000000
258.094270 100.000000
258.119140 6.000000
258.131680 6.000000
259.094940 20.000000
259.105960 6.000000
259.130280 14.000000
260.074770 28.000000
260.107450 684.000000
261.112090 220.000000
261.141270 24.000000
261.157260 14.000000
262.085910 23.000000
262.103180 48.000000
262.122560 132.000000
262.155270 62.000000
262.171880 12.000000
263.066930 9.000000
263.094790 18.000000
263.113950 52.000000
263.128140 94.000000
263.156310 20.000000
263.170170 12.000000
264.127320 82.000000
264.142580 20.000000
264.851900 8.000000
265.095120 9.000000
265.122340 10.000000
265.137270 50.000000
265.150360 9.000000
266.061800 7.000000
266.116700 6.000000
266.130650 10.000000
267.124420 5.000000
267.132660 5.000000
268.123660 19.000000
269.141300 10.000000
270.082490 6.000000
272.049800 6.000000
272.105130 217.000000
273.091310 49.000000
273.112820 162.000000
273.133030 17.000000
274.086240 6.000000
274.106660 13.000000
274.115630 38.000000
274.127380 11.000000
275.090580 6.000000
275.112150 51.000000
275.124210 30.000000
275.140840 20.000000
275.154940 18.000000
275.178890 7.000000
276.103790 30.000000
276.129610 16.000000
276.153780 22.000000
276.163180 49.000000
276.727020 6.000000
276.777190 5.000000
277.110020 7.000000
277.125980 39.000000
277.138000 68.000000
277.164030 12.000000
278.109500 10.000000
278.130040 27.000000
278.147280 10.000000
279.102970 8.000000
279.119260 67.000000
279.144260 15.000000
279.155520 15.000000
280.106480 11.000000
280.134890 8.000000
280.167210 211.000000
280.234040 6.000000
281.104860 7.000000
281.117430 23.000000
281.149260 5.000000
281.171330 35.000000
282.118500 6.000000
285.141300 6.000000
289.083560 7.000000
289.100770 25.000000
289.133940 278.000000
289.245610 5.000000
289.736020 8.000000
290.116550 19.000000
290.138280 90.000000
291.107760 18.000000
291.149320 639.000000
292.114320 6.000000
292.127140 18.000000
292.136440 25.000000
292.158690 156.000000
292.386410 8.000000
293.100560 10.000000
293.138640 30.000000
293.160740 74.000000
294.171420 110.000000
294.189060 11.000000
294.208770 6.000000
294.233730 6.000000
295.158940 19.000000
295.181880 22.000000
296.184880 6.000000
296.550990 6.000000
303.123200 17.000000
303.135770 58.000000
303.151760 157.000000
304.130920 15.000000
304.150420 72.000000
304.161900 46.000000
304.524960 8.000000
305.139620 6.000000
305.157260 42.000000
305.172270 21.000000
306.017270 5.000000
307.129180 23.000000
307.144350 96.000000
307.156950 35.000000
308.143680 24.000000
317.263210 8.000000
319.140930 6.000000
321.135500 10.000000
321.162840 116.000000
322.126800 17.000000
322.167630 1000.000000
323.149200 27.000000
323.166380 83.000000
323.176390 171.000000
324.178710 50.000000
340.701140 9.000000
351.173650 7.000000
353.167880 12.000000
353.187470 86.000000

>ms2
55.015220 11.000000
57.032230 15.000000
58.061890 18.000000
66.327790 20.000000
67.053760 14.000000
68.047740 15.000000
68.054710 48.000000
69.029960 14.000000
69.036840 12.000000
70.040390 23.000000
70.065700 69.000000
70.069520 22.000000
71.073980 33.000000
77.041050 47.000000
78.045730 11.000000
79.048160 15.000000
79.053810 56.000000
79.059380 27.000000
80.046260 16.000000
80.066180 25.000000
81.064770 25.000000
81.069470 58.000000
82.061630 30.000000
83.066410 41.000000
86.053620 17.000000
86.060310 63.000000
87.070510 14.000000
89.033010 19.000000
90.026470 29.000000
91.054050 191.000000
92.051280 22.000000
93.058190 11.000000
93.066690 22.000000
93.075940 15.000000
94.066830 218.000000
95.077280 19.000000
95.921370 12.000000
96.079510 209.000000
97.081760 14.000000
97.088200 30.000000
98.054140 28.000000
100.065350 15.000000
100.073810 38.000000
102.043070 21.000000
103.050310 17.000000
104.051690 12.000000
104.060100 14.000000
104.065960 14.000000
105.030530 18.000000
105.068650 26.000000
106.066600 54.000000
106.073780 11.000000
107.072100 56.000000
107.078690 43.000000
108.059660 16.000000
108.083480 207.000000
108.188660 18.000000
109.055120 16.000000
109.061400 19.000000
109.091290 54.000000
110.031810 23.000000
110.065860 20.000000
110.094840 371.000000
111.101370 40.000000
113.238700 11.000000
113.850010 12.000000
114.016760 13.000000
115.044250 39.000000
115.054280 71.000000
116.048730 49.000000
116.060170 31.000000
117.052800 43.000000
117.069940 65.000000
118.064480 104.000000
118.076900 15.000000
119.062800 61.000000
119.069960 16.000000
119.086470 38.000000
120.046360 24.000000
120.058250 20.000000
120.080580 406.000000
121.084470 72.000000
122.056300 29.000000
122.098330 37.000000
124.805270 16.000000
125.868600 13.000000
126.091480 43.000000
127.040170 11.000000
127.045850 40.000000
127.055980 90.000000
128.049380 173.000000
128.060420 27.000000
129.059270 41.000000
129.069400 212.000000
130.045780 13.000000
130.056760 75.000000
130.065750 358.000000
130.555070 12.000000
131.048780 25.000000
131.063110 21.000000
131.073010 92.000000
131.084690 17.000000
131.995100 14.000000
132.027680 12.000000
132.041730 225.000000
132.049440 114.000000
132.067110 19.000000
132.083940 182.000000
133.053220 18.000000
133.064090 15.000000
133.085770 106.000000
134.058030 11.000000
134.094860 87.000000
135.093110 19.000000
136.070790 32.000000
136.078290 56.000000
139.047820 42.000000
139.054920 38.000000
140.049380 213.000000
141.054310 11.000000
141.070420 77.000000
142.063630 81.000000
143.010620 11.000000
143.072540 84.000000
143.081680 18.000000
144.042770 11.000000
144.064900 13.000000
144.079860 138.000000
144.087590 38.000000
145.066220 39.000000
145.082610 32.000000
145.090000 44.000000
146.024380 32.000000
146.051330 13.000000
146.061360 35.000000
146.071620 17.000000
146.098950 59.000000
147.027160 13.000000
147.096570 12.000000
147.104100 24.000000
149.115770 14.000000
150.080060 57.000000
150.089740 62.000000
150.100070 12.000000
151.051940 20.000000
151.059450 48.000000
151.094160 14.000000
152.038960 11.000000
152.052020 49.000000
152.062900 15.000000
152.238560 11.000000
153.008410 15.000000
153.061100 96.000000
153.071060 79.000000
154.063930 275.000000
154.072200 37.000000
155.067290 73.000000
155.092180 11.000000
156.040770 44.000000
156.047300 16.000000
156.066040 68.000000
156.081530 185.000000
156.226200 13.000000
156.829800 21.000000
157.073040 55.000000
157.088900 43.000000
157.949160 20.000000
158.060240 81.000000
158.085250 23.000000
158.092470 46.000000
159.062410 76.000000
159.105640 48.000000
160.078200 16.000000
160.100020 15.000000
160.116230 19.000000
161.047620 16.000000
161.055280 40.000000
161.113560 16.000000
161.506070 12.000000
162.088610 11.000000
164.036290 29.000000
164.058200 16.000000
165.051090 39.000000
165.062530 73.000000
165.072330 128.000000
165.789780 12.000000
165.947920 11.000000
166.035080 12.000000
166.044800 33.000000
166.065320 1000.000000
167.030880 19.000000
167.058610 45.000000
167.064850 135.000000
167.075380 212.000000
167.089020 19.000000
168.026260 24.000000
168.058880 51.000000
168.077910 105.000000
168.162120 14.000000
168.453510 11.000000
169.051220 28.000000
169.072450 29.000000
169.089840 30.000000
170.024990 11.000000
170.059590 64.000000
170.429410 25.000000
171.042140 23.000000
171.093120 13.000000
172.412700 12.000000
173.104520 17.000000
176.040180 16.000000
176.114590 20.000000
177.061870 115.000000
177.073180 49.000000
178.019170 17.000000
178.048420 38.000000
178.065520 128.000000
178.078020 76.000000
178.087040 17.000000
178.437350 11.000000
178.867320 17.000000
179.052580 14.000000
179.059770 27.000000
179.074160 101.000000
179.087690 82.000000
179.113300 17.000000
180.071520 61.000000
180.084500 357.000000
181.062190 14.000000
181.067030 29.000000
181.076140 33.000000
181.089020 91.000000
181.103650 52.000000
181.162030 12.000000
181.855670 11.000000
182.047870 24.000000
182.059560 126.000000
182.071780 11.000000
182.109450 16.000000
183.057880 42.000000
183.070710 68.000000
183.082520 20.000000
183.092910 29.000000
183.105450 37.000000
183.784900 12.000000
184.062620 23.000000
184.072980 77.000000
184.081710 81.000000
185.082720 30.000000
187.084700 33.000000
187.894300 18.000000
189.041840 38.000000
189.054080 29.000000
189.071640 90.000000
190.044250 20.000000
190.062790 163.000000
190.070180 76.000000
190.080430 28.000000
191.072020 40.000000
191.080110 51.000000
191.126270 20.000000
191.776730 20.000000
192.073100 55.000000
192.082340 172.000000
192.090320 112.000000
193.084730 75.000000
193.101640 42.000000
194.039570 16.000000
194.056870 30.000000
194.066930 25.000000
194.091170 40.000000
194.102840 33.000000
195.064480 102.000000
195.083400 20.000000
195.105030 42.000000
196.053480 43.000000
196.073000 102.000000
196.089750 19.000000
196.098630 22.000000
196.119340 24.000000
197.069320 162.000000
197.656620 15.000000
198.052310 60.000000
198.065480 34.000000
198.102540 22.000000
199.084980 14.000000
201.058670 49.000000
201.076660 64.000000
201.927960 22.000000
202.023900 16.000000
202.051960 13.000000
202.062410 73.000000
202.074250 99.000000
202.086940 16.000000
203.026060 15.000000
203.048630 11.000000
203.072680 187.000000
204.049270 19.000000
204.069630 68.000000
204.083540 323.000000
204.095400 75.000000
205.074400 40.000000
205.089940 139.000000
205.110150 26.000000
206.057620 16.000000
206.095430 133.000000
206.118100 14.000000
207.073810 14.000000
207.092580 83.000000
207.112410 56.000000
207.606020 18.000000
208.051150 22.000000
208.064440 34.000000
208.076950 246.000000
208.112810 90.000000
209.077990 67.000000
209.100780 21.000000
210.086290 108.000000
210.109360 15.000000
211.057170 56.000000
211.072080 62.000000
211.084320 425.000000
211.091810 189.000000
211.109850 14.000000
211.776200 14.000000
212.073240 51.000000
212.085300 11.000000
212.098240 11.000000
213.102020 31.000000
214.023770 13.000000
214.067170 31.000000
214.902590 11.000000
215.071490 200.000000
215.082080 113.000000
215.092240 55.000000
216.060790 43.000000
216.083830 623.000000
216.188400 13.000000
216.691210 15.000000
217.074720 42.000000
217.085660 133.000000
217.093580 243.000000
217.108490 15.000000
217.979280 14.000000
218.062580 22.000000
218.084530 65.000000
218.091810 141.000000
218.109220 42.000000
218.777510 14.000000
219.064130 16.000000
219.074720 43.000000
219.094410 186.000000
219.107350 56.000000
219.117860 15.000000
219.972440 15.000000
220.055480 15.000000
220.065340 51.000000
220.084660 62.000000
220.098360 32.000000
220.115140 96.000000
221.088550 33.000000
222.065900 35.000000
222.083890 96.000000
222.092190 148.000000
223.300780 15.000000
224.060650 21.000000
224.068730 12.000000
224.093920 22.000000
224.123140 33.000000
225.051300 18.000000
225.076780 22.000000
225.102840 43.000000
225.834000 11.000000
226.060750 37.000000
226.074750 49.000000
227.048400 19.000000
227.071870 599.000000
227.531660 11.000000
228.081970 482.000000
228.106120 22.000000
229.054280 24.000000
229.068740 47.000000
229.087890 73.000000
229.098590 27.000000
230.072630 16.000000
230.095950 407.000000
230.411410 12.000000
231.081180 50.000000
231.094910 81.000000
231.106320 117.000000
232.064120 14.000000
232.082550 55.000000
232.101580 114.000000
232.115260 73.000000
233.084920 183.000000
233.104550 34.000000
233.986970 14.000000
234.085750 56.000000
234.099960 67.000000
234.134570 12.000000
235.056370 14.000000
235.073000 34.000000
235.089810 102.000000
235.135570 13.000000
236.071790 16.000000
236.122850 31.000000
236.452500 14.000000
237.094640 20.000000
237.106690 100.000000
237.780720 12.000000
238.076920 20.000000
238.102740 11.000000
239.126970 42.000000
240.071010 61.000000
240.083830 113.000000
240.098690 21.000000
240.131330 14.000000
241.067490 14.000000
241.087040 287.000000
241.097580 151.000000
242.080430 65.000000
242.097310 466.000000
243.101170 154.000000
243.117070 96.000000
244.072170 101.000000
244.104610 56.000000
244.115430 38.000000
244.129780 14.000000
245.077820 29.000000
245.107820 46.000000
245.127520 33.000000
246.065190 20.000000
246.092290 153.000000
247.077350 24.000000
247.090070 11.000000
247.116030 12.000000
248.069060 29.000000
248.083360 33.000000
248.103730 110.000000
248.136900 17.000000
249.099950 118.000000
249.123610 19.000000
250.077590 12.000000
250.128660 11.000000
250.891800 18.000000
251.124790 27.000000
252.091140 19.000000
253.077410 25.000000
253.086960 24.000000
254.057570 23.000000
254.085920 13.000000
254.102490 141.000000
255.101940 24.000000
256.076480 14.000000
257.079500 52.000000
258.091740 56.000000
258.109710 57.000000
259.093630 47.000000
260.099640 76.000000
260.110600 71.000000
260.134460 31.000000
261.050990 27.000000
261.098690 48.000000
261.112370 64.000000
261.142120 31.000000
261.944490 13.000000
262.114170 15.000000
263.075740 12.000000
263.106140 29.000000
263.117980 73.000000
263.144070 15.000000
263.676970 16.000000
265.127990 17.000000
265.449430 12.000000
269.013550 11.000000
269.087340 17.000000
269.110290 29.000000
271.087010 22.000000
271.122860 11.000000
272.097020 22.000000
272.109860 69.000000
272.809230 14.000000
273.126950 14.000000
274.113830 18.000000
275.109280 19.000000
275.125850 13.000000
277.142910 32.000000
287.126830 22.000000
288.122860 14.000000
289.129300 46.000000
291.106600 17.000000
291.120480 11.000000
291.141750 14.000000
291.171750 12.000000
295.219060 11.000000
301.126680 17.000000
304.140050 17.000000
307.156830 16.000000
315.867520 12.000000
317.868870 20.000000
321.157290 12.000000
322.170320 35.000000
323.170260 12.000000
331.551850 43.000000
337.205470 22.000000
353.155490 18.000000
353.171200 38.000000
353.191710 69.000000

>ms2
96.080620 5.000000
108.079660 16.000000
110.096070 25.000000
118.077080 5.000000
120.078380 5.000000
121.087730 8.000000
133.092040 6.000000
134.096070 5.000000
146.093350 6.000000
150.090880 6.000000
151.097790 7.000000
195.068070 7.000000
208.078840 6.000000
211.088810 15.000000
212.092860 8.000000
222.092010 5.000000
230.093950 8.000000
232.111430 8.000000
236.105530 7.000000
237.106260 10.000000
242.100540 8.000000
246.094820 7.000000
247.094700 9.000000
248.106340 13.000000
249.109790 8.000000
258.092350 7.000000
260.106840 46.000000
261.107910 18.000000
262.131320 6.000000
263.122620 7.000000
264.125210 7.000000
272.099430 6.000000
273.111360 10.000000
274.117070 5.000000
279.128300 9.000000
280.164400 6.000000
289.135190 15.000000
290.136200 7.000000
291.146850 43.000000
294.167690 8.000000
303.155270 6.000000
304.154210 14.000000
305.160430 6.000000
321.161960 5.000000
322.130000 6.000000
322.166960 396.000000
323.171570 115.000000
324.181340 12.000000
353.185330 1000.000000
353.240020 27.000000

>ms2
322.167020 74.000000
323.170990 25.000000
353.132050 5.000000
353.185120 1000.000000
353.239870 28.000000

>ms2
58.062180 5.000000
69.057610 9.000000
70.059790 9.000000
70.068470 33.000000
73.084470 8.000000
79.037230 5.000000
79.052640 13.000000
79.057140 8.000000
80.046940 10.000000
80.056460 9.000000
81.033270 6.000000
81.052230 5.000000
82.059400 19.000000
82.064100 19.000000
82.070000 8.000000
84.083020 6.000000
85.735060 6.000000
86.058600 26.000000
87.063370 10.000000
87.071620 19.000000
91.051780 8.000000
92.057270 8.000000
93.068310 19.000000
94.059030 17.000000
94.065650 55.000000
95.070520 11.000000
95.075610 10.000000
96.080150 21.000000
97.084550 8.000000
98.090790 15.000000
98.094750 14.000000
99.071970 7.000000
100.075680 35.000000
103.058460 6.000000
105.066320 16.000000
105.073040 6.000000
106.064080 5.000000
106.076100 6.000000
107.057740 6.000000
107.066610 24.000000
107.534360 6.000000
108.081410 294.000000
109.085730 57.000000
110.058500 29.000000
110.096440 378.000000
111.066210 8.000000
111.091470 10.000000
111.100250 33.000000
111.106020 17.000000
112.069310 13.000000
112.104410 9.000000
114.090760 8.000000
115.058780 5.000000
117.069180 22.000000
118.063480 10.000000
118.080060 8.000000
119.068210 8.000000
120.068080 12.000000
120.081090 222.000000
121.072750 9.000000
121.088360 123.000000
122.058620 7.000000
122.097220 26.000000
122.103740 11.000000
123.075270 8.000000
124.069760 7.000000
124.080000 49.000000
124.112140 5.000000
125.081680 8.000000
126.091860 25.000000
127.096530 11.000000
129.058550 5.000000
129.068250 20.000000
130.067280 27.000000
130.082820 6.000000
131.075380 11.000000
131.085140 17.000000
132.034710 10.000000
132.042540 33.000000
132.055250 7.000000
132.082020 69.000000
133.021320 7.000000
133.047130 14.000000
133.068440 11.000000
133.084490 43.000000
133.092880 59.000000
134.088360 21.000000
134.097120 19.000000
134.107160 13.000000
135.053590 5.000000
135.099720 19.000000
137.077900 6.000000
137.108440 5.000000
138.091220 15.000000
139.100620 42.000000
140.100570 18.000000
141.064190 15.000000
143.067730 8.000000
144.077320 10.000000
144.085650 14.000000
145.046490 15.000000
145.083300 14.000000
145.091800 8.000000
145.101500 11.000000
146.061130 34.000000
146.095960 98.000000
146.107390 9.000000
146.417130 8.000000
147.079970 7.000000
147.096690 11.000000
147.106200 9.000000
148.073500 19.000000
148.112180 33.000000
148.933260 8.000000
149.082080 7.000000
149.121660 10.000000
150.054170 7.000000
150.098210 9.000000
151.098950 138.000000
152.102920 18.000000
156.058560 13.000000
156.080640 32.000000
157.088970 6.000000
157.252870 6.000000
158.062740 38.000000
158.092220 8.000000
158.099590 20.000000
159.068150 21.000000
159.104280 46.000000
160.071730 8.000000
160.079710 17.000000
160.110760 38.000000
161.102710 11.000000
161.117230 16.000000
162.087160 10.000000
162.095020 9.000000
162.107880 6.000000
162.136350 7.000000
164.101970 26.000000
164.112320 29.000000
165.046140 11.000000
165.104950 6.000000
166.063370 17.000000
167.066330 17.000000
167.075090 21.000000
169.079560 14.000000
169.087370 8.000000
170.058790 12.000000
170.068710 12.000000
172.074200 16.000000
172.099010 22.000000
172.108930 22.000000
172.117390 17.000000
173.063020 7.000000
173.117710 16.000000
174.050520 6.000000
174.081380 7.000000
176.106660 18.000000
176.146210 11.000000
177.392240 6.000000
178.061720 6.000000
178.122360 6.000000
179.084400 6.000000
180.079510 73.000000
181.079990 10.000000
181.099000 6.000000
182.061000 20.000000
182.092940 12.000000
183.063860 57.000000
184.050740 9.000000
184.075780 110.000000
185.070300 20.000000
185.085110 8.000000
185.108000 6.000000
185.973500 5.000000
186.059570 6.000000
186.125210 12.000000
186.137680 8.000000
187.090440 6.000000
188.089630 7.000000
189.224460 8.000000
190.117260 15.000000
190.125560 25.000000
191.127270 5.000000
191.134840 11.000000
192.137530 12.000000
193.066420 8.000000
193.081940 7.000000
193.091980 21.000000
194.089320 14.000000
194.095960 27.000000
195.066640 122.000000
195.090070 5.000000
195.105770 11.000000
196.075420 100.000000
196.092830 18.000000
196.111510 52.000000
197.064070 20.000000
197.076140 42.000000
197.114700 14.000000
198.057690 5.000000
198.075230 18.000000
198.094120 20.000000
198.120680 7.000000
199.055470 5.000000
199.086900 26.000000
199.656780 6.000000
200.064220 8.000000
200.083240 21.000000
200.091370 8.000000
201.099550 11.000000
202.070890 11.000000
203.081510 5.000000
204.080060 18.000000
204.109380 7.000000
206.089040 18.000000
206.105930 19.000000
207.074540 15.000000
207.097600 6.000000
207.107130 5.000000
208.056640 6.000000
208.076230 112.000000
208.100430 8.000000
209.086240 34.000000
209.115430 15.000000
209.135120 5.000000
210.075180 16.000000
210.088840 48.000000
210.110460 7.000000
211.086500 270.000000
211.102010 29.000000
212.064410 42.000000
212.079450 37.000000
212.092990 43.000000
212.112000 9.000000
212.138500 5.000000
213.071840 8.000000
213.098460 42.000000
214.092000 7.000000
214.104660 9.000000
214.752910 7.000000
215.085050 15.000000
215.320540 5.000000
216.085070 20.000000
216.108400 7.000000
217.082890 32.000000
217.093960 18.000000
218.076610 5.000000
218.090730 39.000000
218.106690 18.000000
218.127610 7.000000
218.954710 7.000000
219.101470 17.000000
219.116840 28.000000
220.061000 7.000000
220.074620 32.000000
220.090450 14.000000
220.107500 26.000000
220.123990 37.000000
221.081910 12.000000
221.097500 8.000000
221.116530 27.000000
222.050000 5.000000
222.091250 85.000000
222.119050 15.000000
222.135700 20.000000
223.093280 58.000000
223.106870 9.000000
223.124850 6.000000
223.135210 9.000000
224.060530 8.000000
224.074130 5.000000
224.095060 45.000000
225.091890 12.000000
225.107710 19.000000
226.072600 5.000000
226.092380 10.000000
226.104710 12.000000
227.078030 19.000000
228.080000 15.000000
229.051120 6.000000
229.096300 23.000000
230.090880 43.000000
230.102110 49.000000
231.099780 40.000000
231.114500 16.000000
231.126920 8.000000
232.052980 6.000000
232.072750 6.000000
232.100010 12.000000
232.114580 35.000000
232.127260 5.000000
233.041980 6.000000
233.082460 41.000000
233.101640 18.000000
233.114620 52.000000
234.075880 11.000000
234.093340 151.000000
234.124910 72.000000
234.552720 8.000000
235.077530 7.000000
235.098020 59.000000
235.112110 19.000000
235.124740 18.000000
236.069930 20.000000
236.085160 7.000000
236.104930 106.000000
236.129680 40.000000
236.153320 7.000000
237.100720 154.000000
237.121430 12.000000
237.131390 6.000000
237.145780 6.000000
238.091110 44.000000
238.112870 20.000000
238.128620 6.000000
239.119130 29.000000
240.075130 10.000000
240.099150 6.000000
240.121900 15.000000
241.075650 7.000000
241.086170 20.000000
242.055890 8.000000
242.088670 59.000000
242.100040 82.000000
243.080260 7.000000
243.103010 45.000000
244.085980 11.000000
244.111070 75.000000
245.074600 8.000000
245.082780 29.000000
245.106540 14.000000
245.124890 21.000000
246.036830 9.000000
246.067670 20.000000
246.092000 202.000000
246.116210 16.000000
246.135570 8.000000
247.100100 81.000000
247.117340 15.000000
247.132600 11.000000
248.071010 8.000000
248.096760 54.000000
248.107730 216.000000
248.139270 26.000000
249.078810 15.000000
249.106800 108.000000
249.117780 41.000000
249.130630 14.000000
250.104600 14.000000
250.119710 72.000000
250.141390 10.000000
250.163830 20.000000
251.108290 17.000000
251.125310 35.000000
251.133740 23.000000
252.113080 17.000000
252.124250 9.000000
252.137770 10.000000
252.844040 6.000000
253.102400 15.000000
253.126920 9.000000
253.140180 11.000000
253.178560 5.000000
254.096210 27.000000
254.107090 18.000000
255.088680 7.000000
255.106260 11.000000
256.114200 12.000000
257.093020 7.000000
258.089690 63.000000
258.098210 44.000000
260.106780 533.000000
260.901090 6.000000
261.089080 16.000000
261.109620 177.000000
261.127960 19.000000
261.138580 13.000000
261.173070 7.000000
262.123960 78.000000
262.145510 15.000000
262.159150 24.000000
262.175810 7.000000
263.081300 10.000000
263.101780 22.000000
263.125610 114.000000
263.149380 10.000000
263.159850 5.000000
263.173400 7.000000
264.096920 6.000000
264.105380 8.000000
264.130220 94.000000
264.147030 6.000000
264.172150 8.000000
264.350620 5.000000
265.109740 16.000000
265.135470 17.000000
265.152160 24.000000
265.395630 6.000000
266.143740 12.000000
266.154570 7.000000
267.099640 6.000000
267.123570 5.000000
267.165370 5.000000
271.126500 6.000000
272.067380 14.000000
272.081180 13.000000
272.107420 131.000000
272.133060 9.000000
273.078640 12.000000
273.110470 96.000000
273.134250 10.000000
274.103210 7.000000
274.114010 16.000000
274.124790 34.000000
275.111270 40.000000
275.122960 39.000000
275.149290 17.000000
275.159450 20.000000
276.107760 19.000000
276.127530 50.000000
276.160160 20.000000
277.135130 68.000000
277.177340 24.000000
278.120670 12.000000
278.146760 30.000000
278.166750 8.000000
279.123750 19.000000
279.137390 23.000000
279.156890 16.000000
280.111480 7.000000
280.126010 24.000000
280.166170 107.000000
280.193420 6.000000
281.122410 11.000000
281.172910 17.000000
281.190000 7.000000
282.123660 5.000000
287.120360 6.000000
288.128570 9.000000
289.088560 10.000000
289.108760 20.000000
289.137330 247.000000
290.116880 17.000000
290.133240 63.000000
290.141390 19.000000
291.113130 7.000000
291.148680 562.000000
291.182560 7.000000
292.115200 6.000000
292.139920 53.000000
292.155700 113.000000
292.569890 8.000000
293.130710 31.000000
293.157990 26.000000
293.171600 13.000000
294.148440 8.000000
294.165990 58.000000
294.177950 65.000000
295.142520 8.000000
295.174870 9.000000
295.185610 7.000000
301.132050 8.000000
303.137120 53.000000
303.149660 133.000000
304.153380 87.000000
304.162170 44.000000
304.327150 7.000000
305.139920 8.000000
305.161870 47.000000
305.181300 20.000000
306.167110 10.000000
307.133510 26.000000
307.150540 53.000000
308.138820 15.000000
308.152370 38.000000
317.034850 8.000000
321.133420 9.000000
321.156620 79.000000
321.180910 13.000000
321.869350 5.000000
322.115390 6.000000
322.138820 25.000000
322.168330 1000.000000
322.854060 7.000000
323.140290 28.000000
323.162570 107.000000
323.173680 189.000000
324.158450 11.000000
324.172820 22.000000
324.596620 5.000000
326.574680 6.000000
338.183530 5.000000
353.180510 87.000000

>ms2
54.197120 15.000000
55.057750 22.000000
67.041180 17.000000
68.044340 37.000000
68.049840 146.000000
70.045090 32.000000
70.056580 17.000000
70.064510 23.000000
70.139770 15.000000
71.051100 19.000000
74.056340 23.000000
77.034300 13.000000
77.040980 39.000000
78.039690 13.000000
79.052960 40.000000
79.056920 98.000000
80.060920 15.000000
81.029350 25.000000
81.036930 33.000000
81.052500 15.000000
81.059900 47.000000
81.066380 23.000000
81.071010 27.000000
82.059010 21.000000
82.064240 60.000000
82.070900 13.000000
83.046480 13.000000
83.075040 40.000000
83.344440 43.000000
84.086240 25.000000
88.064730 18.000000
91.054730 210.000000
92.061620 37.000000
92.139520 15.000000
93.056660 86.000000
93.069110 109.000000
94.062120 89.000000
94.067210 173.000000
94.075870 23.000000
95.061390 26.000000
95.074250 110.000000
96.074620 58.000000
96.079770 65.000000
97.089980 19.000000
98.686420 15.000000
100.072060 74.000000
100.132450 13.000000
100.838020 13.000000
103.039310 15.000000
103.045010 36.000000
103.052290 32.000000
104.051700 71.000000
104.067450 29.000000
105.032930 19.000000
105.066480 20.000000
105.075530 32.000000
106.040310 19.000000
106.060240 40.000000
106.066900 18.000000
107.062270 15.000000
107.071580 49.000000
107.077040 23.000000
108.070680 24.000000
108.080760 279.000000
108.662450 12.000000
109.087150 15.000000
109.093700 44.000000
110.089260 117.000000
110.095610 167.000000
111.092150 24.000000
111.096980 19.000000
114.989430 15.000000
115.053260 211.000000
115.311710 12.000000
116.042430 14.000000
116.049500 23.000000
116.057500 63.000000
117.044980 17.000000
117.055830 33.000000
117.073460 63.000000
118.052510 18.000000
118.066040 71.000000
119.067170 27.000000
120.063720 28.000000
120.080260 312.000000
121.078060 19.000000
121.084110 22.000000
122.061310 15.000000
122.090610 12.000000
123.065060 17.000000
124.063960 15.000000
124.075100 39.000000
127.056880 66.000000
128.037480 14.000000
128.049010 91.000000
128.061020 87.000000
129.062610 64.000000
129.069700 263.000000
130.050980 30.000000
130.065370 374.000000
130.080380 41.000000
131.047610 15.000000
131.067120 191.000000
131.084430 23.000000
132.042430 188.000000
132.052900 29.000000
132.066960 25.000000
132.078350 99.000000
132.089570 31.000000
132.811100 24.000000
133.040220 80.000000
133.047000 41.000000
133.064470 17.000000
133.076390 37.000000
133.086460 90.000000
134.048870 24.000000
134.062090 12.000000
134.090580 29.000000
134.096770 28.000000
135.028020 24.000000
135.087660 15.000000
135.099430 15.000000
136.076310 15.000000
136.104830 23.000000
139.050570 60.000000
140.039260 31.000000
140.051850 39.000000
141.066930 18.000000
141.072720 49.000000
141.526640 12.000000
142.057860 16.000000
142.067630 57.000000
142.078830 21.000000
143.071430 87.000000
143.088840 15.000000
144.045500 35.000000
144.069930 63.000000
144.081130 186.000000
144.091230 24.000000
145.041350 18.000000
145.053790 45.000000
145.087490 20.000000
145.094710 21.000000
146.023040 41.000000
146.056200 24.000000
146.099140 159.000000
148.111050 31.000000
148.601790 18.000000
149.381300 14.000000
150.091710 50.000000
151.049930 57.000000
151.059690 13.000000
151.471250 13.000000
152.048980 20.000000
152.058210 33.000000
153.044720 22.000000
153.061920 47.000000
154.037750 20.000000
154.063050 246.000000
154.075240 39.000000
155.050000 17.000000
155.059560 13.000000
155.076550 101.000000
156.038730 68.000000
156.056950 20.000000
156.072240 25.000000
156.083370 145.000000
157.044860 20.000000
157.072600 56.000000
157.080520 38.000000
157.090160 68.000000
157.953720 17.000000
158.058490 89.000000
158.085720 29.000000
158.099460 122.000000
159.031620 24.000000
159.093000 20.000000
159.104420 36.000000
160.072450 34.000000
160.094180 36.000000
160.104800 36.000000
161.308170 28.000000
164.048030 23.000000
164.060170 17.000000
165.050290 70.000000
165.065570 161.000000
165.079150 12.000000
166.043640 18.000000
166.052900 74.000000
166.064740 1000.000000
167.059140 104.000000
167.070760 397.000000
167.090300 12.000000
168.052440 23.000000
168.058270 25.000000
168.069720 93.000000
168.084640 94.000000
169.070360 52.000000
169.081730 42.000000
169.091520 59.000000
170.037700 22.000000
170.060040 155.000000
170.087620 49.000000
170.147600 15.000000
171.066880 21.000000
171.090070 33.000000
172.058090 17.000000
172.076480 76.000000
172.092450 40.000000
172.114300 12.000000
173.446060 15.000000
174.128390 21.000000
174.354130 25.000000
174.365920 12.000000
175.052700 30.000000
176.066480 33.000000
177.053940 31.000000
177.065990 23.000000
177.076350 55.000000
177.095570 20.000000
178.059270 175.000000
178.069470 263.000000
179.054570 15.000000
179.064270 98.000000
179.076170 132.000000
179.093350 24.000000
180.080830 648.000000
180.936140 12.000000
181.083180 71.000000
181.090090 33.000000
181.098280 20.000000
182.062330 51.000000
182.088290 17.000000
182.100340 93.000000
182.625750 23.000000
183.050050 17.000000
183.060060 27.000000
183.070920 90.000000
183.093550 90.000000
184.054790 15.000000
184.076690 167.000000
184.088730 17.000000
184.112210 12.000000
185.065750 15.000000
185.085270 19.000000
185.102840 24.000000
186.086350 14.000000
187.083880 26.000000
188.050770 14.000000
189.071640 33.000000
190.057460 41.000000
190.068270 106.000000
190.078630 125.000000
191.039920 14.000000
191.059720 14.000000
191.073650 150.000000
191.092320 52.000000
192.056640 14.000000
192.071060 94.000000
192.084730 55.000000
193.083560 14.000000
193.092880 60.000000
193.104250 34.000000
194.042760 21.000000
194.058120 30.000000
194.096940 202.000000
195.046800 28.000000
195.062590 114.000000
195.074280 17.000000
195.090670 32.000000
195.097720 82.000000
196.024190 12.000000
196.065000 46.000000
196.075900 126.000000
196.086640 17.000000
196.534740 12.000000
197.067490 28.000000
197.076680 23.000000
197.108570 45.000000
198.041380 13.000000
198.055190 20.000000
198.078190 17.000000
198.114670 15.000000
199.054760 15.000000
199.067540 17.000000
199.090210 15.000000
200.060550 31.000000
200.084720 22.000000
200.881290 12.000000
201.054820 17.000000
201.063950 15.000000
201.072650 20.000000
201.857540 22.000000
202.059400 45.000000
202.074630 223.000000
202.090390 21.000000
203.047130 26.000000
203.070510 108.000000
203.082550 175.000000
203.132230 13.000000
204.069870 105.000000
204.080440 419.000000
204.101620 24.000000
204.408710 20.000000
205.058110 15.000000
205.078200 62.000000
205.087830 178.000000
206.059780 17.000000
206.080580 38.000000
206.095960 273.000000
207.079710 22.000000
207.092160 132.000000
207.106800 64.000000
208.058870 23.000000
208.074370 169.000000
208.111310 57.000000
209.062810 20.000000
209.075360 74.000000
209.084560 49.000000
209.100920 25.000000
209.110460 19.000000
209.125530 31.000000
210.085340 118.000000
210.129870 12.000000
211.048140 20.000000
211.085250 515.000000
212.080090 14.000000
212.093170 51.000000
212.129940 20.000000
213.085620 17.000000
213.097470 12.000000
214.033020 23.000000
214.061890 31.000000
214.078640 20.000000
214.167590 17.000000
215.064650 35.000000
215.078810 244.000000
216.044750 13.000000
216.076490 242.000000
216.088100 127.000000
217.068530 87.000000
217.088090 566.000000
218.070050 20.000000
218.086210 114.000000
218.098560 111.000000
218.109130 41.000000
219.062330 76.000000
219.083270 21.000000
219.096150 138.000000
219.115780 13.000000
220.072770 116.000000
220.096630 108.000000
220.116090 27.000000
220.124530 49.000000
221.076720 37.000000
221.097780 28.000000
221.121960 17.000000
222.079880 52.000000
222.091370 60.000000
222.137830 18.000000
223.087800 28.000000
223.129900 14.000000
224.098080 22.000000
225.070980 42.000000
225.480910 30.000000
226.064610 41.000000
226.076290 39.000000
227.047330 31.000000
227.066100 463.000000
227.078030 209.000000
227.981690 13.000000
228.078080 668.000000
228.091840 101.000000
229.042660 15.000000
229.063110 33.000000
229.073140 33.000000
229.085830 80.000000
229.102550 19.000000
230.096770 265.000000
230.107190 88.000000
230.273710 13.000000
231.075670 21.000000
231.087590 141.000000
231.106980 84.000000
232.064350 20.000000
232.081940 47.000000
232.107450 96.000000
232.116700 36.000000
233.082230 84.000000
233.094120 72.000000
233.107770 74.000000
234.036150 15.000000
234.059650 12.000000
234.074480 20.000000
234.089720 116.000000
234.107320 63.000000
234.124470 99.000000
234.595350 23.000000
234.795680 12.000000
235.091960 183.000000
235.116030 20.000000
235.125260 42.000000
235.140170 30.000000
236.107100 55.000000
236.117800 31.000000
236.134060 16.000000
237.102910 103.000000
238.091380 18.000000
238.102340 17.000000
239.104600 17.000000
240.042510 20.000000
240.081880 175.000000
241.034620 35.000000
241.087130 399.000000
241.100510 108.000000
242.061650 64.000000
242.087840 253.000000
242.100040 382.000000
243.083800 104.000000
243.100340 36.000000
244.065840 25.000000
244.082440 17.000000
244.097520 41.000000
244.115970 122.000000
245.071110 16.000000
245.103240 34.000000
245.112670 35.000000
245.120900 44.000000
246.091550 65.000000
247.077800 28.000000
247.089950 16.000000
247.106080 22.000000
247.133710 49.000000
248.073350 32.000000
248.089420 66.000000
248.103060 113.000000
249.075680 26.000000
249.103010 15.000000
249.115430 18.000000
249.147000 15.000000
250.116710 30.000000
251.114610 15.000000
251.301480 13.000000
253.096050 20.000000
253.105940 12.000000
253.388640 36.000000
254.070530 20.000000
254.094700 194.000000
255.092480 46.000000
256.080230 16.000000
256.106450 14.000000
257.096370 12.000000
257.106080 15.000000
257.119050 18.000000
258.075590 21.000000
258.092250 108.000000
258.364560 16.000000
259.093410 15.000000
259.127170 13.000000
259.180970 18.000000
259.206970 16.000000
260.092320 64.000000
260.107330 21.000000
260.119570 15.000000
260.150050 15.000000
261.081600 15.000000
261.102510 82.000000
261.134640 29.000000
261.233860 14.000000
262.085080 16.000000
262.104340 14.000000
263.100190 29.000000
263.113860 20.000000
263.135620 15.000000
264.113530 21.000000
264.133270 31.000000
265.044560 14.000000
266.091490 16.000000
267.121460 13.000000
269.113220 20.000000
269.128480 20.000000
270.096410 25.000000
272.111880 79.000000
273.106380 20.000000
274.087980 15.000000
274.102630 16.000000
274.117800 37.000000
274.413420 16.000000
275.112580 36.000000
275.125790 12.000000
276.120670 51.000000
280.174100 15.000000
280.771550 17.000000
281.171970 13.000000
287.111150 24.000000
289.130830 19.000000
289.138890 41.000000
289.367830 17.000000
290.138760 24.000000
290.831600 17.000000
291.133240 44.000000
291.156310 52.000000
292.148530 27.000000
301.119630 13.000000
303.140690 15.000000
304.151640 15.000000
307.136690 16.000000
321.145970 18.000000
322.170320 31.000000
353.182950 131.000000

