>compound PR59054427
>parentmass 527.1555
>ionization [M+H]+
>formula C27H26O11
>rt 367.200000
>profile qtof
#smiles_iso COC1=CC(=CC(=C1OC(CO)C(C2=CC(=C(C=C2)O)OC)O)OC)C3=CC(=O)C4=C(C=C(C=C4O3)O)O
#smiles_can COC1=CC(=CC(=C1OC(CO)C(C2=CC(=C(C=C2)O)OC)O)OC)C3=CC(=O)C4=C(C=C(C=C4O3)O)O
#inchikey WXNJNHFYIWEHIL-UHFFFAOYSA-N
#pubchem_id 21159153
#mb_accession PR310962,PR310963

>ms2peaks
181.137540 16.000000
270.049710 38.000000
271.064210 56.000000
316.060090 68.000000
331.080990 518.000000
332.090060 149.000000
333.073090 59.000000
333.098330 21.000000
527.113100 16.000000
527.146060 188.000000
527.167970 139.000000
527.245000 16.000000

>ms2peaks
179.069230 25.000000
254.189680 27.000000
270.052150 39.000000
270.068570 21.000000
271.057190 16.000000
286.042240 16.000000
287.037570 18.000000
294.107390 18.000000
315.053770 95.000000
316.056640 16.000000
316.068910 18.000000
316.078980 17.000000
317.036010 19.000000
317.062470 23.000000
318.141200 33.000000
323.709720 42.000000
329.646390 25.000000
331.033140 23.000000
331.079250 1193.000000
332.082090 240.000000
332.105960 15.000000
527.103270 17.000000
527.144530 126.000000
527.164120 247.000000

