>compound PR59713931
>parentmass 587.3326928999999
>ionization [M+H]+
>formula C32H46N2O8
>rt 329.995980
>profile qtof
#smiles_iso CCN1C[C@@]2(CC[C@@H]([C@@]34[C@@H]2[C@@H]([C@@](C31)([C@]5(C[C@@H]([C@H]6C[C@@H]4[C@@H]5[C@H]6OC)OC)O)O)OC)OC)COC(=O)C7=CC=CC=C7N
#smiles_can CCN1CC2(CCC(C34C2C(C(C31)(C5(CC(C6CC4C5C6OC)OC)O)O)OC)OC)COC(=O)C7=CC=CC=C7N
#inchikey NNDHDYDFEDRMGH-CAEIVAEBSA-N
#pubchem_id 441708
#mb_accession PR300879,PR300883,PR300887,PR300891,PR300895,PR300898,PR300902,PR300906,PR300910,PR300914

>ms2
108.080590 11.000000
120.045020 16.000000
354.201260 6.000000
386.228910 6.000000
386.240910 6.000000
404.241210 8.000000
505.274140 6.000000
523.268980 9.000000
523.293880 9.000000
555.308840 17.000000
556.309880 6.000000
585.319640 7.000000
586.308290 6.000000
586.332700 6.000000
587.249150 10.000000
587.333920 1000.000000
587.410710 17.000000

>ms2
585.320310 6.000000
586.322570 9.000000
587.268620 6.000000
587.332890 1000.000000
587.404850 20.000000

>ms2
108.081940 22.000000
120.044570 24.000000
122.095660 6.000000
354.207980 8.000000
355.207280 5.000000
372.217350 6.000000
386.233090 24.000000
387.236970 8.000000
404.243350 16.000000
436.274380 8.000000
468.281710 12.000000
468.304500 15.000000
477.272280 8.000000
491.256470 8.000000
505.281190 14.000000
509.304690 11.000000
523.269290 21.000000
523.286500 21.000000
524.279420 15.000000
537.276980 6.000000
537.303160 14.000000
555.305660 64.000000
556.314030 21.000000
569.324460 18.000000
586.325010 8.000000
587.249940 9.000000
587.267700 11.000000
587.332700 1000.000000
587.403690 10.000000

>ms2
58.065680 12.000000
58.070150 9.000000
71.051510 22.000000
72.077380 5.000000
72.088570 11.000000
75.041920 28.000000
75.046050 82.000000
79.055120 8.000000
82.068360 6.000000
85.023570 12.000000
85.064640 5.000000
91.056830 9.000000
92.050130 38.000000
92.054790 14.000000
93.060530 11.000000
93.071550 10.000000
94.068600 6.000000
96.079280 9.000000
98.060500 7.000000
101.060300 7.000000
105.071750 33.000000
108.063060 5.000000
108.081680 437.000000
109.065950 10.000000
109.072460 8.000000
109.084290 53.000000
110.094220 25.000000
110.100950 7.000000
111.068650 6.000000
112.071170 5.000000
114.087510 9.000000
114.096630 14.000000
115.055630 15.000000
117.068120 12.000000
118.077140 6.000000
119.047920 25.000000
119.088000 9.000000
120.045040 1000.000000
120.085740 7.000000
121.048510 107.000000
121.066060 15.000000
121.087600 26.000000
121.094700 12.000000
122.046830 7.000000
122.072750 6.000000
122.097850 323.000000
123.081500 10.000000
123.093220 7.000000
123.105390 21.000000
124.105640 14.000000
124.113550 29.000000
126.092190 31.000000
128.062770 21.000000
128.110260 9.000000
129.071670 34.000000
130.072600 11.000000
131.053130 6.000000
131.088320 8.000000
132.082090 7.000000
133.063170 7.000000
133.071850 7.000000
134.061600 10.000000
134.094510 24.000000
135.082340 27.000000
135.106160 10.000000
136.075940 27.000000
136.115330 12.000000
137.059460 21.000000
137.066100 6.000000
137.088380 6.000000
138.088650 35.000000
138.097270 11.000000
139.097520 11.000000
140.106000 14.000000
140.112430 14.000000
141.071170 22.000000
143.086840 24.000000
144.089840 6.000000
145.064160 10.000000
145.093400 6.000000
145.103230 23.000000
147.078200 12.000000
147.099960 5.000000
148.116500 22.000000
149.094300 6.000000
149.118990 9.000000
150.093800 23.000000
150.128950 5.000000
151.075700 6.000000
154.075730 11.000000
154.120500 9.000000
155.083330 18.000000
156.087830 11.000000
157.063740 9.000000
157.090990 7.000000
157.107280 14.000000
158.075670 5.000000
158.098240 16.000000
158.110280 9.000000
158.142140 7.000000
159.071520 9.000000
159.083110 27.000000
160.110090 37.000000
161.118820 9.000000
162.096220 7.000000
163.101470 6.000000
163.137570 6.000000
165.070160 14.000000
166.079560 8.000000
166.124920 6.000000
167.085240 20.000000
167.092270 11.000000
168.075070 10.000000
169.090960 6.000000
169.099060 8.000000
170.064540 5.000000
170.113370 8.000000
171.079880 28.000000
171.112210 9.000000
172.113920 29.000000
173.089830 9.000000
173.101760 16.000000
173.348910 6.000000
174.080380 5.000000
174.096440 10.000000
174.126250 22.000000
175.113750 6.000000
175.125110 5.000000
176.141780 5.000000
178.079970 20.000000
179.073700 7.000000
179.085050 20.000000
180.081090 8.000000
180.094560 14.000000
181.067630 19.000000
181.099850 29.000000
181.108980 10.000000
183.086670 7.000000
183.120830 15.000000
184.115010 8.000000
185.096020 10.000000
185.102830 9.000000
185.119220 8.000000
186.121060 5.000000
186.129300 13.000000
187.072890 8.000000
187.092640 8.000000
187.135770 10.000000
188.119200 6.000000
189.069580 7.000000
190.126110 10.000000
191.087100 19.000000
191.094360 18.000000
191.729570 6.000000
192.087880 9.000000
192.097730 18.000000
192.141370 6.000000
193.101650 43.000000
194.110410 11.000000
195.075620 11.000000
195.100360 9.000000
195.118900 26.000000
196.076020 6.000000
196.089290 8.000000
196.119710 11.000000
197.090590 11.000000
197.128650 11.000000
198.111300 9.000000
198.125820 13.000000
199.081770 6.000000
199.111770 6.000000
200.105620 5.000000
200.148510 11.000000
201.085170 6.000000
201.116040 7.000000
201.123890 11.000000
202.082240 6.000000
202.123860 40.000000
203.085270 15.000000
203.103940 12.000000
203.130810 9.000000
203.137440 6.000000
204.089230 9.000000
204.098310 16.000000
204.135180 10.000000
204.148880 8.000000
205.101380 28.000000
206.105880 17.000000
207.084000 8.000000
207.112240 19.000000
207.121410 18.000000
208.090580 6.000000
208.728270 6.000000
209.094650 13.000000
209.103360 10.000000
209.112530 9.000000
209.118530 6.000000
209.133710 10.000000
210.100200 6.000000
210.123280 8.000000
210.143080 9.000000
211.110530 23.000000
211.130280 6.000000
211.138660 11.000000
212.100370 8.000000
213.096540 8.000000
213.118230 10.000000
214.088520 5.000000
214.121610 16.000000
215.085390 5.000000
216.093190 10.000000
216.130160 11.000000
216.142260 11.000000
217.103880 19.000000
218.079620 8.000000
218.117250 9.000000
219.073000 6.000000
219.105700 9.000000
219.119090 43.000000
219.163130 5.000000
220.116640 15.000000
221.094760 24.000000
221.127560 13.000000
221.136050 20.000000
221.145260 7.000000
222.126620 17.000000
223.112610 23.000000
224.105730 10.000000
224.118790 6.000000
224.131590 9.000000
225.124690 8.000000
225.146350 8.000000
226.117340 6.000000
226.127090 7.000000
226.136520 9.000000
227.128430 6.000000
228.134310 22.000000
230.116680 8.000000
230.127300 6.000000
230.158200 6.000000
231.116940 19.000000
232.126910 16.000000
233.103820 11.000000
233.136170 11.000000
234.103180 5.000000
234.133510 10.000000
235.112590 26.000000
235.148220 8.000000
236.138140 12.000000
237.093340 5.000000
237.117450 6.000000
237.130280 19.000000
237.141050 9.000000
238.125810 7.000000
238.139910 6.000000
238.159260 9.000000
239.136780 13.000000
240.136400 15.000000
243.973510 5.000000
244.136760 7.000000
246.146800 7.000000
247.115650 13.000000
247.133790 5.000000
247.145490 8.000000
248.145250 16.000000
248.154630 12.000000
249.125380 10.000000
250.124280 6.000000
250.142300 13.000000
250.165650 8.000000
251.132250 7.000000
251.144070 9.000000
252.112150 5.000000
252.124740 7.000000
252.145870 11.000000
252.155360 5.000000
252.173650 8.000000
253.135060 8.000000
253.144390 11.000000
253.162950 12.000000
254.175540 6.000000
255.163180 5.000000
256.176640 7.000000
257.130250 14.000000
258.149900 11.000000
258.162810 8.000000
260.117070 9.000000
261.122530 6.000000
261.152070 10.000000
262.124690 18.000000
262.155150 14.000000
262.650790 6.000000
263.136080 7.000000
264.117160 8.000000
264.135680 6.000000
264.175080 9.000000
265.124050 7.000000
265.158140 5.000000
266.154420 28.000000
268.168400 11.000000
269.162900 11.000000
270.179020 5.000000
271.159060 6.000000
276.135280 9.000000
276.174870 32.000000
278.142580 5.000000
278.159300 8.000000
279.137630 12.000000
280.160220 8.000000
280.177400 16.000000
281.161320 10.000000
283.165220 7.000000
284.151790 9.000000
286.125370 6.000000
286.145230 5.000000
294.193120 8.000000
296.193700 12.000000
297.169250 10.000000
298.163570 5.000000
300.185760 7.000000
300.198120 11.000000
304.161010 11.000000
304.182340 13.000000
308.159910 15.000000
308.176180 7.000000
308.192570 16.000000
308.204530 17.000000
310.173580 13.000000
312.189090 27.000000
312.204990 22.000000
314.160130 7.000000
315.177760 6.000000
322.186190 25.000000
323.199490 9.000000
324.187350 9.000000
326.169560 6.000000
326.197300 23.000000
326.216060 36.000000
327.220670 10.000000
328.198270 6.000000
329.236790 6.000000
336.196140 17.000000
337.201050 10.000000
339.176120 5.000000
340.175750 10.000000
340.195190 6.000000
340.220370 26.000000
342.207820 12.000000
342.235260 7.000000
344.198850 9.000000
344.211980 24.000000
344.226380 12.000000
354.208500 94.000000
355.198610 9.000000
355.214140 27.000000
356.178560 8.000000
356.214140 8.000000
357.189970 8.000000
358.195250 6.000000
358.209780 9.000000
358.224850 18.000000
358.242980 59.000000
359.237400 6.000000
359.251530 5.000000
368.208280 9.000000
368.230830 17.000000
372.210940 27.000000
372.222260 33.000000
372.236110 34.000000
372.265500 6.000000
373.226870 14.000000
374.230740 6.000000
376.248870 26.000000
377.250430 5.000000
386.234340 130.000000
387.240910 26.000000
388.251400 8.000000
390.265470 15.000000
391.197170 5.000000
391.256810 6.000000
397.214750 6.000000
400.254060 11.000000
402.207580 7.000000
404.200500 5.000000
404.238070 110.000000
404.258940 46.000000
405.248960 45.000000
416.240570 5.000000
418.227780 7.000000
418.269680 19.000000
419.265780 14.000000
434.259250 5.000000
436.243840 9.000000
436.272490 46.000000
437.263340 10.000000
437.289150 6.000000
445.249760 8.000000
445.262730 8.000000
468.283630 17.000000
468.308990 32.000000
469.285060 10.000000
474.248050 6.000000
477.282840 16.000000
478.278110 8.000000
481.262760 8.000000
491.238620 8.000000
491.256740 6.000000
495.289030 9.000000
505.271090 27.000000
505.286290 11.000000
506.304600 6.000000
509.286770 7.000000
523.274780 25.000000
523.304990 6.000000
537.287110 7.000000
538.301150 6.000000
555.301880 11.000000
585.320680 5.000000
587.331970 33.000000

>ms2
108.082220 7.000000
120.044850 20.000000
122.097770 6.000000
354.204280 8.000000
386.231410 11.000000
404.239960 10.000000
505.260560 5.000000
523.276730 15.000000
555.307430 20.000000
585.318360 6.000000
586.316960 10.000000
587.257750 9.000000
587.332090 1000.000000
587.404420 20.000000

>ms2
586.314940 6.000000
587.263180 8.000000
587.332460 1000.000000
587.402470 20.000000

>ms2
108.081760 22.000000
120.045460 23.000000
122.098460 7.000000
354.209110 14.000000
368.222080 5.000000
386.232760 25.000000
387.239290 7.000000
404.229680 6.000000
404.245700 11.000000
436.266110 9.000000
437.279080 6.000000
468.297090 15.000000
477.266630 6.000000
477.285830 6.000000
491.251620 6.000000
505.269680 14.000000
509.304750 7.000000
510.302490 6.000000
523.281740 44.000000
524.286680 9.000000
537.297850 13.000000
555.297550 33.000000
555.317200 27.000000
556.301820 7.000000
556.316960 12.000000
569.296200 5.000000
569.320920 9.000000
585.310420 8.000000
586.331240 9.000000
587.271550 18.000000
587.333440 1000.000000
587.406130 11.000000

>ms2
71.050960 18.000000
72.082140 12.000000
75.039920 15.000000
75.044370 60.000000
79.054560 5.000000
81.070210 7.000000
82.062430 6.000000
84.082820 25.000000
85.027730 9.000000
87.046040 11.000000
91.048650 6.000000
91.052620 19.000000
91.057820 9.000000
92.049270 15.000000
92.054800 8.000000
93.056830 5.000000
96.079440 19.000000
97.064300 7.000000
98.061570 5.000000
98.096500 21.000000
105.071690 14.000000
108.067380 7.000000
108.081520 422.000000
109.065260 21.000000
109.083540 29.000000
110.096690 23.000000
110.102350 7.000000
112.079680 7.000000
114.090650 22.000000
115.053870 11.000000
115.079880 5.000000
117.069580 19.000000
119.050950 18.000000
119.086240 14.000000
120.045200 1000.000000
121.049680 117.000000
121.067330 25.000000
121.087100 15.000000
121.093090 15.000000
122.054540 7.000000
122.096930 227.000000
123.100780 38.000000
123.108860 8.000000
124.077430 8.000000
124.111740 39.000000
125.115610 7.000000
126.089770 22.000000
126.096440 23.000000
129.071760 32.000000
130.071960 6.000000
131.079570 8.000000
131.087600 20.000000
132.087550 6.000000
133.064580 10.000000
134.058910 13.000000
134.097270 19.000000
134.104100 6.000000
135.081710 14.000000
136.076110 19.000000
136.111270 9.000000
137.056500 13.000000
137.083150 7.000000
138.092190 54.000000
138.098750 15.000000
139.059010 6.000000
140.108750 41.000000
141.061520 10.000000
141.070140 34.000000
142.089100 5.000000
143.086650 51.000000
145.066390 12.000000
145.094060 12.000000
145.104250 8.000000
146.060500 6.000000
146.101060 9.000000
147.083360 17.000000
147.103650 7.000000
148.078430 7.000000
148.114560 18.000000
149.110840 5.000000
151.073930 17.000000
153.068470 6.000000
154.086090 6.000000
154.123150 12.000000
155.076490 7.000000
155.086470 19.000000
157.064620 22.000000
157.097840 11.000000
157.108380 8.000000
158.065720 8.000000
158.074100 8.000000
158.080830 7.000000
158.090850 9.000000
158.099760 10.000000
159.079770 24.000000
160.108410 5.000000
160.118420 25.000000
161.060580 5.000000
161.101290 14.000000
161.122070 9.000000
162.087680 9.000000
162.099120 6.000000
162.129560 9.000000
163.101720 7.000000
164.109500 7.000000
165.063350 6.000000
165.073210 11.000000
165.086820 10.000000
167.084530 33.000000
168.075650 6.000000
168.086500 11.000000
169.065900 7.000000
169.098540 32.000000
169.105270 10.000000
170.110890 6.000000
171.082210 20.000000
172.076350 6.000000
172.085630 10.000000
172.112170 15.000000
173.097660 19.000000
173.111300 5.000000
174.095140 18.000000
174.126160 16.000000
175.102830 7.000000
175.136920 10.000000
176.142820 6.000000
178.077880 7.000000
178.114090 6.000000
178.126170 6.000000
179.080990 9.000000
179.094100 10.000000
180.088420 6.000000
180.101000 10.000000
181.065510 10.000000
181.101760 44.000000
182.067550 7.000000
183.081050 26.000000
185.095050 12.000000
185.112870 6.000000
186.096330 10.000000
186.121770 6.000000
186.129550 9.000000
188.109820 9.000000
188.142780 8.000000
188.153050 6.000000
190.076510 5.000000
190.124680 13.000000
191.085600 14.000000
192.092960 26.000000
192.108150 6.000000
192.136280 7.000000
193.101150 46.000000
194.110890 8.000000
195.082370 15.000000
195.117750 26.000000
196.107760 6.000000
196.120410 12.000000
197.097890 12.000000
197.108250 7.000000
197.127750 9.000000
197.140530 7.000000
198.093120 8.000000
198.118010 8.000000
198.127840 11.000000
199.063350 7.000000
199.074140 7.000000
199.112440 14.000000
199.127060 5.000000
200.106280 17.000000
200.147960 9.000000
201.093960 24.000000
202.073200 6.000000
202.084270 5.000000
202.125980 18.000000
203.086730 10.000000
203.112810 8.000000
203.128970 16.000000
204.096050 13.000000
204.134960 16.000000
205.092620 10.000000
205.105300 23.000000
206.105970 15.000000
207.118970 19.000000
208.116290 8.000000
209.100810 28.000000
209.120380 6.000000
209.131420 9.000000
209.140300 10.000000
210.093980 6.000000
211.090120 6.000000
211.115590 7.000000
211.131420 7.000000
212.107450 6.000000
212.127940 7.000000
213.116880 7.000000
214.129390 8.000000
216.095550 19.000000
216.140140 8.000000
217.101120 12.000000
217.114070 5.000000
218.118230 18.000000
218.156400 7.000000
219.078580 7.000000
219.118910 56.000000
220.111680 9.000000
220.122160 10.000000
221.090410 5.000000
221.102540 9.000000
221.132290 19.000000
221.146320 8.000000
222.109010 10.000000
223.100490 9.000000
223.114790 12.000000
223.139450 14.000000
224.102260 7.000000
224.115980 8.000000
224.144260 8.000000
224.162630 6.000000
225.123950 10.000000
225.134570 6.000000
226.125400 18.000000
227.130190 7.000000
228.137300 8.000000
229.110720 6.000000
229.120760 6.000000
229.148760 10.000000
230.137100 5.000000
230.152480 8.000000
231.118960 16.000000
232.088270 12.000000
232.122180 7.000000
233.093570 7.000000
233.130970 9.000000
233.140470 8.000000
234.133940 14.000000
234.154130 7.000000
235.103070 16.000000
235.118820 10.000000
236.119660 7.000000
236.131840 7.000000
237.125500 24.000000
237.135680 9.000000
237.146800 5.000000
238.155430 10.000000
239.111630 8.000000
239.140900 14.000000
239.164220 7.000000
240.136810 10.000000
241.110640 8.000000
241.145490 5.000000
241.157840 6.000000
242.152910 8.000000
244.125520 6.000000
244.141300 7.000000
246.099150 7.000000
246.123350 9.000000
247.106430 14.000000
247.117540 7.000000
247.151230 6.000000
248.115300 6.000000
248.125960 8.000000
248.142440 6.000000
249.122600 13.000000
249.137270 14.000000
249.145420 10.000000
250.120160 7.000000
250.152880 7.000000
250.162490 5.000000
251.109090 5.000000
251.136110 5.000000
251.147770 9.000000
252.143890 18.000000
252.182680 8.000000
254.161870 9.000000
256.172880 15.000000
257.115390 6.000000
257.141390 6.000000
258.161960 9.000000
260.144840 20.000000
261.134400 8.000000
261.158720 7.000000
262.132080 7.000000
262.149510 7.000000
264.142060 11.000000
264.169010 9.000000
265.132020 14.000000
266.152070 12.000000
268.173220 18.000000
270.161220 15.000000
270.187290 9.000000
276.132900 11.000000
276.172490 23.000000
277.183500 14.000000
278.150730 15.000000
279.139190 15.000000
279.161800 9.000000
280.140530 7.000000
280.166720 20.000000
281.167660 7.000000
282.151700 5.000000
282.178770 7.000000
284.195620 5.000000
286.169190 6.000000
289.151820 7.000000
290.159670 8.000000
291.149660 5.000000
292.182740 10.000000
294.151790 7.000000
294.173860 15.000000
294.192960 22.000000
296.151340 9.000000
296.206330 9.000000
298.169890 10.000000
298.189210 10.000000
301.200100 6.000000
304.161130 7.000000
306.190400 7.000000
308.161320 6.000000
308.172940 5.000000
308.198460 22.000000
308.211940 10.000000
310.182650 8.000000
311.164580 5.000000
312.162170 6.000000
312.198460 42.000000
313.195220 9.000000
314.166440 12.000000
314.216030 7.000000
316.203160 6.000000
322.169740 14.000000
322.180080 18.000000
324.186100 5.000000
324.202820 7.000000
326.150300 8.000000
326.183750 17.000000
326.214360 47.000000
327.203430 7.000000
327.218050 21.000000
328.180730 6.000000
328.193910 9.000000
328.228490 11.000000
329.235170 6.000000
330.212710 6.000000
336.188450 15.000000
336.205900 14.000000
338.181490 5.000000
338.209350 6.000000
339.186040 5.000000
340.181980 9.000000
340.198030 16.000000
340.220150 12.000000
340.235500 15.000000
342.193730 6.000000
342.210850 11.000000
344.222600 52.000000
354.174410 5.000000
354.188780 9.000000
354.208650 80.000000
355.189910 5.000000
355.206570 15.000000
356.219600 19.000000
358.207760 6.000000
358.234500 37.000000
358.250060 23.000000
359.231780 8.000000
360.225680 8.000000
368.222440 10.000000
368.237090 6.000000
372.217410 84.000000
373.208560 14.000000
373.224580 21.000000
374.221160 5.000000
376.222750 5.000000
376.252140 25.000000
386.239620 117.000000
387.216190 6.000000
387.239590 28.000000
389.188780 9.000000
390.261200 10.000000
391.275570 9.000000
404.214870 8.000000
404.243800 117.000000
404.266850 26.000000
405.237340 13.000000
405.251830 31.000000
405.270230 7.000000
413.210720 5.000000
418.252110 12.000000
418.268160 21.000000
419.256500 8.000000
434.249050 6.000000
435.251370 6.000000
436.264500 33.000000
436.281950 11.000000
437.271030 19.000000
445.266110 10.000000
463.256990 10.000000
465.239500 9.000000
468.277470 14.000000
468.298610 29.000000
468.324070 8.000000
469.308560 9.000000
477.275020 15.000000
477.292570 6.000000
478.271210 5.000000
481.260470 7.000000
491.242100 6.000000
491.261720 7.000000
493.269260 5.000000
495.294280 6.000000
505.273440 13.000000
506.299800 5.000000
509.300200 14.000000
510.316190 6.000000
523.277710 11.000000
537.291930 16.000000
555.317870 5.000000
569.317020 6.000000
587.320310 22.000000
587.334170 44.000000

>ms2
108.080280 10.000000
120.047210 16.000000
354.204560 7.000000
386.231350 14.000000
404.244690 10.000000
436.261900 7.000000
468.288820 10.000000
505.267490 6.000000
509.294340 6.000000
523.282290 11.000000
537.301570 6.000000
555.292910 6.000000
555.312500 11.000000
556.321900 6.000000
585.323180 6.000000
586.326420 10.000000
587.249690 7.000000
587.333860 1000.000000
587.406010 18.000000

>ms2
587.256530 8.000000
587.333190 1000.000000
587.395870 12.000000
587.414860 10.000000

