>compound PR60280719
>parentmass 369.1808836999999
>ionization [M+H]+
>formula C21H24N2O4
>rt 295.593000
>profile qtof
#smiles_iso C[C@H]1[C@@H]2CN3CC[C@@]4([C@H]3C[C@@H]2C(=CO1)C(=O)OC)C5=CC=CC=C5NC4=O
#smiles_can CC1C2CN3CCC4(C3CC2C(=CO1)C(=O)OC)C5=CC=CC=C5NC4=O
#inchikey JMIAZDVHNCCPDM-ZUNJVLJPSA-N
#pubchem_id 168985
#mb_accession PR300384,PR300389,PR300394,PR300399,PR300404,PR300409,PR300414,PR300419,PR300424,PR300429,PR300434,PR300438

>ms2
108.081090 20.000000
110.095720 14.000000
130.066360 30.000000
132.082990 10.000000
142.065750 19.000000
158.060500 82.000000
159.064270 12.000000
160.075500 118.000000
161.077870 12.000000
173.106800 7.000000
186.080410 7.000000
187.087520 19.000000
199.089050 6.000000
201.102430 194.000000
202.105190 29.000000
213.104510 14.000000
237.102040 9.000000
239.121370 20.000000
241.134060 12.000000
265.093900 8.000000
265.134980 13.000000
267.149750 69.000000
268.153410 16.000000
283.106690 7.000000
293.129940 13.000000
309.159300 9.000000
325.154750 20.000000
337.155060 102.000000
338.159910 25.000000
341.187130 5.000000
369.182160 1000.000000
369.237090 30.000000

>ms2
337.155580 14.000000
369.181000 1000.000000
369.236080 35.000000
369.287690 6.000000

>ms2
80.051720 8.000000
108.081740 128.000000
109.087300 25.000000
110.096470 104.000000
111.100470 11.000000
115.055480 8.000000
118.067620 9.000000
120.044480 6.000000
120.050220 5.000000
121.089230 12.000000
122.091710 7.000000
122.098580 6.000000
124.038850 17.000000
130.066500 103.000000
131.069270 17.000000
132.045120 18.000000
132.082350 66.000000
133.050670 7.000000
135.104540 5.000000
136.112300 12.000000
142.064990 53.000000
143.066070 6.000000
144.080980 7.000000
146.061160 14.000000
150.090390 6.000000
158.060490 467.000000
159.064090 58.000000
160.046340 7.000000
160.075960 611.000000
161.078520 86.000000
162.082960 9.000000
166.091920 8.000000
169.085390 12.000000
172.074010 7.000000
172.081790 6.000000
173.067320 6.000000
173.099590 6.000000
173.106800 22.000000
178.086870 30.000000
183.126910 5.000000
185.067950 6.000000
186.073380 8.000000
186.084350 11.000000
187.086360 93.000000
188.091310 13.000000
199.076110 13.000000
199.089970 37.000000
200.094700 8.000000
201.102860 1000.000000
201.144010 7.000000
202.106840 164.000000
203.113880 9.000000
210.113590 18.000000
212.129460 8.000000
213.101930 100.000000
214.097110 5.000000
214.108260 10.000000
215.120900 14.000000
225.103710 14.000000
226.104260 5.000000
237.102340 38.000000
238.105330 19.000000
239.119320 138.000000
240.123860 30.000000
241.133960 47.000000
242.140410 8.000000
253.095610 7.000000
253.131590 10.000000
265.101290 51.000000
265.133480 52.000000
266.109740 8.000000
266.138060 13.000000
267.124510 5.000000
267.150760 272.000000
268.146240 26.000000
268.154450 52.000000
279.108150 7.000000
279.117490 8.000000
279.148620 6.000000
281.092620 20.000000
282.096410 6.000000
283.100710 13.000000
283.112880 10.000000
291.152100 9.000000
293.124940 14.000000
293.136140 5.000000
297.123020 5.000000
307.129210 6.000000
307.147640 10.000000
309.159180 24.000000
309.176270 5.000000
310.162690 6.000000
319.140750 6.000000
323.130430 6.000000
323.142970 12.000000
325.149140 34.000000
325.159970 44.000000
326.150390 6.000000
326.163390 11.000000
337.155520 184.000000
338.159450 46.000000
339.159580 5.000000
339.173460 17.000000
341.175750 7.000000
341.188420 14.000000
369.181270 167.000000

>ms2
55.056460 8.000000
66.048480 10.000000
77.039900 17.000000
79.056730 15.000000
80.050110 24.000000
81.058490 14.000000
82.062850 12.000000
83.013530 15.000000
91.057600 22.000000
92.060880 5.000000
93.052210 8.000000
93.060940 7.000000
93.070830 14.000000
94.065710 21.000000
95.044890 7.000000
95.054510 13.000000
96.086710 6.000000
103.055730 65.000000
104.049860 27.000000
105.057210 7.000000
105.069390 33.000000
106.055440 6.000000
106.067720 25.000000
107.078290 8.000000
108.079820 82.000000
109.058270 6.000000
110.098740 32.000000
115.054940 230.000000
116.048340 30.000000
116.055140 25.000000
117.056920 201.000000
118.062670 89.000000
118.069330 39.000000
119.071510 11.000000
120.046620 12.000000
122.025750 9.000000
122.098310 15.000000
123.079810 5.000000
124.040410 28.000000
127.048060 8.000000
127.057890 8.000000
128.048000 67.000000
128.062700 6.000000
129.045750 10.000000
129.055820 5.000000
130.065570 1000.000000
131.048190 11.000000
131.066880 94.000000
131.072710 31.000000
131.093400 6.000000
132.025760 6.000000
132.045030 251.000000
132.081700 444.000000
133.050830 19.000000
133.080320 35.000000
133.088460 18.000000
134.052260 8.000000
134.088440 7.000000
136.112300 5.000000
139.042370 6.000000
140.050160 40.000000
140.060730 6.000000
141.058810 7.000000
142.065640 374.000000
143.068920 80.000000
144.049180 13.000000
144.082550 105.000000
145.052920 60.000000
145.077320 6.000000
145.086110 12.000000
146.059420 15.000000
154.062930 57.000000
154.071730 16.000000
155.054840 6.000000
155.063690 9.000000
155.075760 10.000000
156.043760 8.000000
156.076870 6.000000
156.092160 7.000000
157.052540 5.000000
157.077840 12.000000
158.041640 8.000000
158.061840 414.000000
158.092510 20.000000
159.066240 66.000000
159.087490 13.000000
159.097580 17.000000
159.106860 18.000000
160.076290 385.000000
161.076580 46.000000
161.085980 24.000000
165.069090 12.000000
166.061160 16.000000
167.060580 30.000000
167.073230 8.000000
167.080200 10.000000
167.088530 5.000000
168.081880 15.000000
169.079530 31.000000
170.060390 5.000000
170.098920 7.000000
171.065800 5.000000
171.087660 13.000000
171.105650 9.000000
172.064420 12.000000
172.076450 35.000000
172.096970 7.000000
173.026170 6.000000
173.071040 44.000000
173.078840 12.000000
173.107180 170.000000
174.079360 10.000000
174.105670 6.000000
174.115080 26.000000
178.062990 6.000000
180.084370 16.000000
181.076430 73.000000
182.075990 8.000000
182.089320 8.000000
183.062740 6.000000
183.073490 12.000000
183.094510 31.000000
184.054400 6.000000
184.065700 11.000000
184.090550 10.000000
185.071170 51.000000
185.084240 20.000000
186.076810 79.000000
186.088880 22.000000
186.110230 10.000000
187.085160 37.000000
187.092270 22.000000
187.101180 7.000000
188.084960 10.000000
190.065780 12.000000
192.074600 7.000000
193.087590 25.000000
193.094940 8.000000
194.087650 11.000000
194.104110 7.000000
195.081480 6.000000
195.099000 9.000000
197.070980 21.000000
198.080370 13.000000
199.087420 135.000000
200.094090 46.000000
201.101960 297.000000
202.108250 38.000000
207.084500 11.000000
207.099560 9.000000
208.097140 5.000000
209.072480 6.000000
209.100050 13.000000
209.110260 10.000000
209.123310 5.000000
211.081620 7.000000
211.090820 8.000000
213.099840 29.000000
213.112750 9.000000
214.105320 7.000000
218.092730 15.000000
219.097340 14.000000
220.099400 6.000000
225.103290 7.000000
234.081990 9.000000
234.099610 6.000000
236.097980 13.000000
237.104170 65.000000
237.127030 7.000000
238.107440 20.000000
239.111020 10.000000
251.116590 13.000000
264.124050 6.000000
265.093080 9.000000
267.153750 6.000000

>ms2
108.081270 26.000000
110.097230 16.000000
130.065400 28.000000
132.081210 16.000000
142.064580 17.000000
158.059690 88.000000
159.063540 12.000000
160.076480 104.000000
161.078490 15.000000
173.108310 9.000000
178.086650 7.000000
186.081250 6.000000
187.087110 21.000000
199.089450 13.000000
201.102830 203.000000
202.106540 29.000000
213.102250 13.000000
237.105680 9.000000
239.117860 28.000000
241.126590 7.000000
265.093960 7.000000
265.135410 12.000000
267.148650 72.000000
268.150360 12.000000
281.093410 6.000000
283.111210 10.000000
293.129970 9.000000
309.163480 9.000000
325.155610 19.000000
337.154850 94.000000
338.158290 25.000000
369.127230 8.000000
369.180820 1000.000000
369.236020 32.000000

>ms2
337.155000 12.000000
369.180760 1000.000000
369.236050 35.000000
369.286190 6.000000

>ms2
80.050410 12.000000
81.058690 8.000000
103.056790 5.000000
108.081370 106.000000
109.067780 7.000000
109.087210 23.000000
110.097100 134.000000
111.099180 8.000000
115.054340 6.000000
118.065770 14.000000
121.090380 12.000000
122.098080 14.000000
124.038600 18.000000
130.065460 113.000000
131.065510 12.000000
132.044650 17.000000
132.081890 64.000000
133.054960 6.000000
133.083010 6.000000
136.112850 9.000000
139.038790 10.000000
139.080720 5.000000
142.064420 55.000000
144.075610 5.000000
146.059140 7.000000
150.093900 7.000000
158.034000 5.000000
158.060780 420.000000
158.095550 7.000000
159.064880 63.000000
160.044480 7.000000
160.076710 602.000000
161.079910 80.000000
164.071210 6.000000
166.085750 5.000000
169.086180 8.000000
172.078570 8.000000
173.068710 7.000000
173.076860 7.000000
173.108220 27.000000
178.087390 34.000000
179.088960 7.000000
183.123020 8.000000
185.076160 9.000000
186.081990 15.000000
187.087540 114.000000
188.093690 23.000000
199.088350 38.000000
200.090350 8.000000
201.103000 1000.000000
201.142010 11.000000
202.106490 165.000000
203.108890 10.000000
210.112610 6.000000
212.122010 6.000000
212.135600 5.000000
213.102920 79.000000
214.108410 12.000000
215.119200 8.000000
225.101990 12.000000
225.114270 6.000000
237.103420 35.000000
238.107220 11.000000
239.120420 125.000000
240.118930 13.000000
241.134350 42.000000
242.135220 9.000000
251.122060 6.000000
253.137910 12.000000
265.098420 45.000000
265.117610 12.000000
265.134610 38.000000
266.098720 11.000000
266.110750 6.000000
266.138670 13.000000
267.096770 5.000000
267.150480 254.000000
268.152830 60.000000
269.094390 8.000000
279.115110 12.000000
281.088810 8.000000
281.099640 12.000000
281.170560 5.000000
282.098850 5.000000
283.109190 18.000000
283.118960 7.000000
291.153660 7.000000
293.131070 12.000000
294.131100 6.000000
307.146420 20.000000
309.163390 34.000000
319.145290 7.000000
323.134700 8.000000
325.156860 71.000000
326.148070 6.000000
326.163970 20.000000
337.155580 158.000000
338.158690 51.000000
339.175230 9.000000
341.189760 14.000000
369.182920 174.000000

>ms2
65.040590 7.000000
67.056530 8.000000
68.049870 7.000000
68.062070 5.000000
70.066250 6.000000
77.041070 25.000000
79.048510 11.000000
79.056590 12.000000
80.049610 45.000000
81.071910 27.000000
82.065440 12.000000
91.053190 40.000000
92.047880 6.000000
93.056790 15.000000
93.070020 9.000000
94.066270 13.000000
95.048600 19.000000
103.056310 36.000000
104.042120 5.000000
104.052730 14.000000
104.060940 7.000000
105.071010 23.000000
106.066310 19.000000
107.071400 21.000000
107.080900 6.000000
108.076980 26.000000
108.082810 51.000000
109.049120 5.000000
109.082760 9.000000
110.097730 30.000000
115.054700 231.000000
116.049970 44.000000
116.058540 36.000000
117.046730 11.000000
117.058020 221.000000
118.065690 125.000000
119.066300 7.000000
119.072140 11.000000
120.045370 43.000000
120.080610 14.000000
121.066620 5.000000
121.088710 20.000000
122.096520 17.000000
122.103680 5.000000
124.042630 15.000000
127.052380 12.000000
127.059270 6.000000
128.050520 54.000000
129.069560 8.000000
130.065540 1000.000000
131.054180 6.000000
131.064360 34.000000
131.071790 100.000000
132.044820 284.000000
132.080830 468.000000
133.044530 7.000000
133.053180 12.000000
133.081410 45.000000
134.061080 6.000000
134.079410 8.000000
134.095730 9.000000
135.105650 7.000000
135.783310 6.000000
140.050860 41.000000
141.047230 10.000000
141.062710 13.000000
142.065730 408.000000
143.064470 12.000000
143.070250 41.000000
144.045760 46.000000
144.062270 5.000000
144.082980 91.000000
145.043090 8.000000
145.054080 21.000000
145.072770 8.000000
145.082750 15.000000
146.062560 41.000000
150.092480 5.000000
151.056610 7.000000
152.053510 8.000000
154.065090 66.000000
155.066930 13.000000
155.074750 9.000000
156.050110 9.000000
156.083690 17.000000
158.061510 352.000000
158.084840 50.000000
158.100940 17.000000
159.054610 16.000000
159.066710 67.000000
159.088870 15.000000
159.102430 35.000000
160.076200 394.000000
161.068360 11.000000
161.073680 20.000000
161.080080 28.000000
161.087430 10.000000
165.053560 7.000000
166.061940 15.000000
167.063030 12.000000
167.075200 16.000000
168.083150 12.000000
169.076050 15.000000
169.085370 9.000000
170.057240 16.000000
170.080800 8.000000
170.089940 5.000000
171.095110 6.000000
172.074250 22.000000
172.101320 7.000000
173.065030 15.000000
173.073470 36.000000
173.085980 21.000000
173.107210 140.000000
174.106550 11.000000
174.114880 8.000000
177.061050 7.000000
178.063630 9.000000
180.074370 23.000000
181.076190 57.000000
182.082210 11.000000
183.076510 11.000000
183.097810 11.000000
184.066730 19.000000
184.079910 14.000000
184.093490 16.000000
184.105030 9.000000
185.064990 21.000000
185.073470 70.000000
185.105850 6.000000
186.078290 89.000000
187.086320 52.000000
191.065050 6.000000
192.078410 6.000000
193.089360 10.000000
195.087270 8.000000
196.102800 6.000000
197.071400 16.000000
198.075320 8.000000
198.094130 7.000000
199.063400 9.000000
199.088700 177.000000
200.093460 44.000000
201.103910 280.000000
202.102830 48.000000
202.112610 9.000000
203.110570 13.000000
204.079190 7.000000
205.091280 11.000000
207.069600 5.000000
208.099670 6.000000
209.107470 18.000000
210.081710 6.000000
211.084880 9.000000
212.092540 7.000000
213.101750 15.000000
214.105800 9.000000
217.074160 6.000000
218.087770 6.000000
219.090000 14.000000
221.089020 7.000000
235.093800 6.000000
237.077900 6.000000
237.103010 81.000000
238.108440 5.000000
251.116590 9.000000
251.125080 7.000000
261.105160 5.000000
265.135770 8.000000
279.068020 7.000000
281.132720 7.000000
369.190340 13.000000

>ms2
108.081470 18.000000
110.097370 13.000000
130.065900 23.000000
132.081130 17.000000
142.065750 14.000000
144.080170 6.000000
158.060620 79.000000
159.063080 11.000000
160.076580 98.000000
161.078640 17.000000
173.109600 7.000000
186.080260 7.000000
187.087570 20.000000
199.091030 8.000000
201.103230 176.000000
202.106220 26.000000
213.103580 11.000000
237.103390 8.000000
239.117400 17.000000
241.132510 9.000000
265.132600 11.000000
267.149810 62.000000
268.150880 14.000000
283.110230 6.000000
293.128390 7.000000
309.159550 8.000000
325.156770 15.000000
326.162110 6.000000
337.155790 88.000000
338.157230 18.000000
339.168580 7.000000
369.118380 6.000000
369.181460 1000.000000
369.236760 33.000000

>ms2
201.101790 6.000000
337.153170 11.000000
369.180480 1000.000000
369.235750 36.000000
369.285250 7.000000

>ms2
80.047870 7.000000
80.052890 7.000000
81.061690 6.000000
108.081830 110.000000
109.080980 11.000000
109.090290 14.000000
110.096960 106.000000
111.098360 5.000000
115.053790 13.000000
117.056590 7.000000
118.062770 6.000000
120.041170 5.000000
120.082980 7.000000
121.086340 6.000000
122.093950 13.000000
123.080730 7.000000
124.038720 14.000000
130.066040 115.000000
131.069080 14.000000
132.042650 19.000000
132.076640 25.000000
132.081600 73.000000
133.085920 12.000000
134.096690 6.000000
135.106960 5.000000
136.116490 5.000000
139.039570 7.000000
139.073700 6.000000
142.064740 55.000000
144.081360 10.000000
146.058960 11.000000
150.088040 6.000000
158.060940 427.000000
159.062960 60.000000
159.071290 12.000000
160.076290 673.000000
160.110600 5.000000
161.080310 88.000000
164.068040 10.000000
167.073430 6.000000
169.087330 16.000000
170.095310 6.000000
172.075130 12.000000
173.072920 10.000000
173.106750 39.000000
174.106430 5.000000
178.086530 34.000000
179.085340 5.000000
180.105610 7.000000
185.067260 6.000000
185.077640 5.000000
186.084170 10.000000
187.087360 108.000000
188.091600 15.000000
199.088200 44.000000
200.086360 9.000000
201.061480 9.000000
201.102550 1000.000000
201.144100 12.000000
202.106170 154.000000
203.108080 13.000000
210.115920 10.000000
212.129210 6.000000
213.101550 98.000000
214.105290 13.000000
215.116230 11.000000
225.100560 11.000000
237.102480 44.000000
238.101680 5.000000
238.115520 10.000000
239.118150 136.000000
240.116440 15.000000
240.126650 15.000000
241.134690 60.000000
242.133560 12.000000
251.115800 9.000000
253.098560 11.000000
253.131150 14.000000
265.091550 25.000000
265.104370 32.000000
265.130250 41.000000
265.146300 10.000000
266.105100 9.000000
266.138460 14.000000
267.120700 5.000000
267.150390 291.000000
268.153350 62.000000
269.093990 5.000000
279.114620 9.000000
281.091310 16.000000
281.164490 7.000000
283.107150 13.000000
291.144680 9.000000
293.119020 5.000000
293.130520 15.000000
295.111080 8.000000
307.141240 19.000000
307.153690 7.000000
308.153050 6.000000
309.161320 32.000000
310.162410 7.000000
319.143550 8.000000
323.142850 14.000000
325.156130 90.000000
326.152130 13.000000
326.163970 10.000000
337.155460 157.000000
338.159580 53.000000
339.155180 8.000000
339.178990 6.000000
341.170260 6.000000
341.188780 13.000000
369.180480 183.000000

>ms2
67.056310 7.000000
71.045570 5.000000
77.037280 11.000000
79.019290 6.000000
79.052530 12.000000
79.057820 41.000000
80.050660 31.000000
81.058010 5.000000
81.071060 16.000000
91.055160 36.000000
93.059630 12.000000
93.070590 10.000000
94.066520 25.000000
95.050980 13.000000
95.063660 5.000000
95.084910 6.000000
98.013990 6.000000
103.054780 67.000000
104.050320 37.000000
105.066760 13.000000
105.074150 15.000000
106.065760 23.000000
106.072490 11.000000
108.082290 72.000000
109.060010 10.000000
109.084670 11.000000
110.097210 57.000000
110.102010 20.000000
115.054650 250.000000
115.066920 7.000000
116.050800 52.000000
116.064490 6.000000
117.048760 29.000000
117.058350 175.000000
118.066320 143.000000
120.041600 19.000000
120.049130 8.000000
121.090030 9.000000
122.022490 18.000000
122.098720 10.000000
124.040320 18.000000
127.049110 5.000000
127.057400 28.000000
128.049090 68.000000
129.054920 14.000000
130.037920 5.000000
130.066480 1000.000000
131.061950 31.000000
131.069690 89.000000
132.045670 274.000000
132.081570 385.000000
133.043840 19.000000
133.051030 30.000000
133.077440 16.000000
133.084460 19.000000
133.091250 19.000000
134.064450 17.000000
134.095370 6.000000
135.009400 6.000000
136.115010 12.000000
139.058140 5.000000
140.049670 40.000000
141.054660 12.000000
142.066300 448.000000
142.477690 6.000000
143.068160 65.000000
144.044750 11.000000
144.080960 98.000000
145.046040 11.000000
145.053800 31.000000
145.077990 14.000000
146.057110 25.000000
146.095550 7.000000
150.059110 6.000000
151.057010 5.000000
154.062300 36.000000
154.070740 39.000000
155.064850 6.000000
156.082960 19.000000
157.067660 7.000000
157.074910 13.000000
157.083130 7.000000
158.039060 6.000000
158.060520 312.000000
158.086990 31.000000
158.096980 13.000000
159.064330 86.000000
159.093280 27.000000
159.105380 20.000000
160.054870 8.000000
160.076600 452.000000
160.106160 5.000000
161.066300 7.000000
161.080260 45.000000
166.055770 10.000000
166.072100 6.000000
167.069080 44.000000
168.067310 10.000000
168.086640 10.000000
169.074660 26.000000
169.084780 12.000000
170.057800 12.000000
170.067700 7.000000
170.091690 5.000000
170.100780 7.000000
171.055440 12.000000
171.066510 13.000000
171.086260 5.000000
172.059740 12.000000
172.078090 52.000000
173.056530 7.000000
173.075760 38.000000
173.106780 165.000000
174.104310 8.000000
174.114460 14.000000
181.077960 71.000000
182.059980 7.000000
182.077880 22.000000
183.062320 8.000000
183.089390 20.000000
184.062670 14.000000
184.076110 24.000000
184.098860 7.000000
185.071810 52.000000
185.112700 9.000000
186.078170 105.000000
187.086360 61.000000
188.092700 11.000000
191.074040 6.000000
192.084080 6.000000
193.072300 7.000000
193.091370 5.000000
196.083560 9.000000
197.068310 11.000000
199.078260 27.000000
199.089130 128.000000
200.097000 25.000000
201.102370 330.000000
202.091490 7.000000
202.105970 33.000000
206.100050 9.000000
207.094570 5.000000
209.069810 10.000000
209.109940 10.000000
210.105000 7.000000
211.090160 17.000000
211.125640 7.000000
213.098570 15.000000
213.107090 16.000000
219.087130 8.000000
219.101180 8.000000
222.128690 5.000000
225.103530 12.000000
237.095020 16.000000
237.107060 33.000000
239.102810 7.000000
239.127990 6.000000
251.119380 10.000000
265.094300 13.000000
275.112640 6.000000

