>compound PR60111114
>parentmass 389.1438
>ionization [M+H]+
>formula C17H24O10
>rt 230.400000
>profile qtof
#smiles_iso COC(=O)C1=COC(C(C1CC=O)C=C)OC2C(C(C(C(O2)CO)O)O)O
#smiles_can COC(=O)C1=COC(C(C1CC=O)C=C)OC2C(C(C(C(O2)CO)O)O)O
#inchikey CSKKDSFETGLMSB-UHFFFAOYSA-N
#pubchem_id 369002
#mb_accession PR310691

>ms2
85.030980 24.000000
93.072270 21.000000
95.051410 16.000000
105.002450 48.000000
107.049170 455.000000
108.046040 19.000000
108.053400 33.000000
109.060590 20.000000
109.075700 17.000000
116.511310 17.000000
121.065360 16.000000
123.047900 17.000000
127.038360 17.000000
132.052440 17.000000
133.032440 16.000000
135.041230 18.000000
137.063540 18.000000
137.833010 16.000000
138.049180 16.000000
141.061260 16.000000
145.050430 35.000000
149.053600 18.000000
149.066380 20.000000
149.077240 18.000000
150.066360 17.000000
151.039990 122.000000
153.061420 20.000000
165.055180 667.000000
166.054840 53.000000
167.069030 56.000000
167.078890 65.000000
177.047700 42.000000
177.057790 87.000000
181.080690 16.000000
195.056030 19.000000
195.069820 69.000000
209.074810 138.000000
209.084400 75.000000
227.088680 425.000000
228.091090 33.000000
229.095000 19.000000
371.190950 16.000000

