>compound PR60543148
>parentmass 250.1478
>ionization [M+H]+
>formula C11H23NO3S
>rt 164.400000
>profile qtof
#smiles_iso CS(=O)CCCCCCCCC(C(=O)O)N
#smiles_can CS(=O)CCCCCCCCC(C(=O)O)N
#inchikey QRXRWDDFTQIZAV-UHFFFAOYSA-N
#pubchem_id 121232643
#mb_accession PR310890

>ms2peaks
186.134660 43.000000
204.148190 23.000000
250.147570 82.000000

