>compound PR60088046
>parentmass 375.1285734
>ionization [M+H]+
>formula C16H22O10
>rt 191.868000
>profile qtof
#smiles_iso C=C[C@H]1[C@@H](OC=C2[C@]1(CCOC2=O)O)O[C@H]3[C@@H]([C@H]([C@@H]([C@H](O3)CO)O)O)O
#smiles_can C=CC1C(OC=C2C1(CCOC2=O)O)OC3C(C(C(C(O3)CO)O)O)O
#inchikey HEYZWPRKKUGDCR-QBXMEVCASA-N
#pubchem_id 442435
#mb_accession PR303743,PR303746,PR303749,PR303752,PR303755,PR303758,PR303761,PR303764,PR303767,PR303770,PR303773,PR303776

>ms2peaks
91.050550 36.000000
94.076450 43.000000
105.070170 30.000000
121.064500 66.000000
127.039320 23.000000
137.058290 58.000000
138.059630 25.000000
139.055020 28.000000
139.075200 67.000000
140.080140 29.000000
143.034530 72.000000
149.050750 52.000000
149.060240 168.000000
159.044800 29.000000
167.070500 116.000000
168.960050 32.000000
177.052700 1000.000000
177.069350 66.000000
178.052310 28.000000
195.059110 348.000000
195.068760 814.000000
196.071750 78.000000
213.069960 51.000000
268.971560 23.000000
330.160280 25.000000

>ms2peaks
167.067200 9.000000
167.073990 28.000000
177.049130 103.000000
177.059040 29.000000
178.062970 10.000000
179.058930 9.000000
194.985090 13.000000
195.064910 1000.000000
196.060850 62.000000
196.070140 57.000000
197.060350 10.000000
197.073170 33.000000
198.069920 10.000000
213.068890 86.000000
213.079970 117.000000
214.070860 10.000000
214.088750 9.000000
287.074040 9.000000
318.002010 10.000000
339.845580 13.000000
340.112950 15.000000
357.115080 35.000000
357.139220 10.000000
358.118070 11.000000
375.126860 53.000000
375.143100 25.000000

>ms2peaks
91.055110 74.000000
93.069580 26.000000
97.025840 21.000000
97.058110 25.000000
97.068180 21.000000
103.053790 30.000000
105.068560 100.000000
106.070850 32.000000
111.088870 27.000000
121.062290 169.000000
123.075060 52.000000
125.057590 61.000000
131.054380 28.000000
137.051280 28.000000
138.058840 30.000000
139.073090 216.000000
143.030840 101.000000
143.041560 48.000000
147.043990 231.000000
148.052380 22.000000
149.061480 138.000000
151.068410 30.000000
167.067580 112.000000
167.077680 26.000000
174.987820 25.000000
176.908280 35.000000
177.051330 1000.000000
178.057160 163.000000
178.064870 48.000000
179.055470 26.000000
195.066390 25.000000

>ms2peaks
55.055100 248.000000
69.033260 118.000000
79.051980 131.000000
91.048480 131.000000
91.058270 1000.000000
91.084620 111.000000
93.071080 131.000000
96.991290 144.000000
121.065710 157.000000
125.027580 281.000000
147.034650 157.000000
147.044170 601.000000
147.053180 157.000000
148.053850 131.000000
151.317320 131.000000
177.053530 353.000000
177.065670 131.000000
199.658000 131.000000

>ms2peaks
93.071170 29.000000
98.036450 28.000000
105.070870 25.000000
108.441140 45.000000
115.005770 25.000000
125.063730 29.000000
127.034920 24.000000
133.066820 47.000000
133.435380 26.000000
139.057690 24.000000
139.067370 29.000000
143.027650 35.000000
147.023330 35.000000
147.035570 24.000000
147.044650 61.000000
147.055480 24.000000
149.067410 24.000000
167.071430 170.000000
168.069670 25.000000
177.053620 1000.000000
177.065540 160.000000
178.052640 28.000000
178.060880 47.000000
195.053820 54.000000
195.067490 592.000000
196.069350 114.000000
201.756260 29.000000
213.060730 28.000000
213.071900 25.000000
213.085630 61.000000
214.080510 36.000000
215.086240 28.000000
237.104100 24.000000
357.119080 31.000000
357.145720 58.000000

>ms2peaks
143.034670 22.000000
148.928440 12.000000
167.074190 26.000000
177.036680 22.000000
177.052950 140.000000
195.039700 12.000000
195.064740 1000.000000
196.069110 158.000000
213.071500 209.000000
213.084660 43.000000
214.079790 26.000000
262.076260 10.000000
321.080440 10.000000
339.110200 23.000000
357.110470 10.000000
358.111420 11.000000
374.149690 16.000000
375.123020 84.000000

>ms2peaks
93.065260 22.000000
93.071160 56.000000
105.068160 23.000000
105.074780 26.000000
105.719210 24.000000
121.063220 46.000000
123.071180 22.000000
125.056400 31.000000
131.042280 21.000000
139.058640 29.000000
139.071580 32.000000
139.079500 114.000000
143.032360 85.000000
147.042330 42.000000
147.051570 21.000000
149.056700 19.000000
149.064960 65.000000
149.086590 21.000000
150.060170 24.000000
161.874920 22.000000
167.052460 19.000000
167.065640 69.000000
177.054490 1000.000000
177.065840 89.000000
178.052830 25.000000
178.060240 55.000000
178.066800 29.000000
179.060550 23.000000

>ms2peaks
67.056230 505.000000
77.030940 442.000000
79.056550 200.000000
91.047190 242.000000
91.052630 505.000000
93.064290 221.000000
97.026830 263.000000
103.053310 1000.000000
115.004660 200.000000
119.051010 179.000000
120.057680 211.000000
121.063510 368.000000
139.033890 242.000000
143.035000 358.000000
147.042910 274.000000
147.050610 516.000000

>ms2peaks
79.060560 28.000000
97.028760 21.000000
103.058270 26.000000
121.063880 27.000000
134.217580 25.000000
139.073670 76.000000
140.080800 20.000000
143.033810 26.000000
147.044890 105.000000
149.072860 28.000000
167.067380 33.000000
167.076160 48.000000
168.057690 20.000000
169.046050 27.000000
177.054530 1000.000000
178.054490 86.000000
178.065460 47.000000
178.313350 21.000000
195.067020 801.000000
196.067660 95.000000
196.084810 30.000000
197.069760 21.000000
197.081210 21.000000
213.076220 106.000000
214.076450 20.000000
246.000950 21.000000
276.000000 57.000000
375.117610 26.000000
375.145940 26.000000

>ms2peaks
143.032850 47.000000
167.076680 10.000000
177.054260 76.000000
178.058620 34.000000
195.065060 1000.000000
196.070970 136.000000
212.333500 10.000000
213.075500 82.000000
213.084720 71.000000
214.081190 24.000000
335.067930 12.000000
338.003140 16.000000
339.109010 25.000000
357.117580 32.000000
375.116090 25.000000
375.132390 28.000000

>ms2peaks
85.024630 30.000000
93.069270 51.000000
97.026790 100.000000
103.034830 21.000000
103.061850 23.000000
104.053960 20.000000
105.066160 39.000000
105.071710 29.000000
106.075610 33.000000
111.083180 19.000000
121.061970 20.000000
121.071300 50.000000
126.911830 26.000000
135.044220 22.000000
139.073550 196.000000
139.082370 34.000000
140.069750 21.000000
140.077030 20.000000
143.037290 46.000000
145.054370 18.000000
147.041090 97.000000
147.052830 84.000000
148.007030 21.000000
148.045550 18.000000
148.051250 17.000000
149.066310 31.000000
150.064850 19.000000
151.082120 36.000000
167.071580 115.000000
168.078320 20.000000
177.055540 1000.000000
178.052470 17.000000
178.060560 47.000000
179.589570 18.000000
256.974150 17.000000
336.201350 25.000000

>ms2peaks
69.034990 209.000000
77.032590 240.000000
77.037220 186.000000
81.030890 155.000000
86.031010 225.000000
91.048240 132.000000
91.054180 310.000000
91.059140 264.000000
92.046000 171.000000
93.071850 209.000000
96.985770 209.000000
105.066310 233.000000
108.053450 132.000000
121.069530 140.000000
125.062740 225.000000
127.035340 132.000000
137.057500 194.000000
147.044910 1000.000000
148.050130 295.000000
149.050250 132.000000
177.055820 504.000000
177.062210 147.000000

