>compound PR60872450
>parentmass 518.3243
>ionization [M+H]+
>formula C26H48NO7P
>rt 535.800000
>profile qtof
#smiles_iso CCC=CCC=CCC=CCCCCCCCC(=O)OCC(COP(=O)([O-])OCC[N+](C)(C)C)O
#smiles_can CCC=CCC=CCC=CCCCCCCCC(=O)OCC(COP(=O)([O-])OCC[N+](C)(C)C)O
#inchikey WKQNRCYKYCKESD-UHFFFAOYSA-N
#pubchem_id 25200367
#mb_accession PR310842

>ms2
86.094580 18.000000
93.067360 16.000000
104.105460 27.000000
165.127470 20.000000
184.073590 96.000000
374.028500 19.000000
501.312010 17.000000
518.268070 17.000000
518.316470 120.000000
518.336060 34.000000

