>compound PR60042202
>parentmass 519.1139000000001
>ionization [M+H]+
>formula C24H22O13
>rt 287.400000
>profile qtof
#smiles_iso C1=CC(=CC=C1C2=COC3=CC(=CC(=C3C2=O)O)OC4C(C(C(C(O4)COC(=O)CC(=O)O)O)O)O)O
#smiles_can C1=CC(=CC=C1C2=COC3=CC(=CC(=C3C2=O)O)OC4C(C(C(C(O4)COC(=O)CC(=O)O)O)O)O)O
#inchikey FRAUJUKWSKMNJY-UHFFFAOYSA-N
#pubchem_id 131750882
#mb_accession PR310872,PR310873

>ms2
95.054500 17.000000
99.147580 17.000000
108.028920 27.000000
119.046870 24.000000
127.034740 33.000000
145.048050 17.000000
147.053770 19.000000
149.005490 20.000000
149.020130 42.000000
153.019090 117.000000
153.038940 20.000000
159.020830 18.000000
159.045930 22.000000
209.924480 25.000000
212.071410 18.000000
215.062820 21.000000
215.073750 77.000000
216.071590 23.000000
243.067730 56.000000
244.047350 20.000000
244.061890 21.000000
253.061630 18.000000
254.053940 18.000000
254.820210 17.000000
271.023470 36.000000
271.060550 7947.000000
271.310060 17.000000
271.821660 18.000000
272.032590 27.000000
272.064480 1544.000000
273.052700 41.000000
273.068180 243.000000
273.295680 21.000000
274.067290 23.000000
296.447300 21.000000
337.910950 25.000000
433.049840 18.000000
433.108250 78.000000
433.126310 50.000000
434.087520 24.000000
434.131440 17.000000
435.120000 18.000000
444.611540 32.000000
476.112370 22.000000
518.958620 24.000000
519.112980 3052.000000

>ms2
136.066770 26.000000
151.070590 20.000000
232.051570 30.000000
270.048890 18.000000
271.054900 101.000000
271.070680 92.000000
273.065370 27.000000
295.054350 21.000000
519.019100 19.000000
519.106320 56.000000

