>compound PR60026932
>parentmass 595.1657467000001
>ionization [M+H]+
>formula C27H30O15
>rt 245.775000
>profile qtof
#smiles_iso CC1C(C(C(C(O1)OCC2C(C(C(C(O2)OC3=C(OC4=CC(=CC(=C4C3=O)O)O)C5=CC=CC=C5O)O)O)O)O)O)O
#smiles_can CC1C(C(C(C(O1)OCC2C(C(C(C(O2)OC3=C(OC4=CC(=CC(=C4C3=O)O)O)C5=CC=CC=C5O)O)O)O)O)O)O
#inchikey BJJCTXDEJUWVIC-UHFFFAOYSA-N
#pubchem_id 5883291
#mb_accession PR302753,PR302757,PR302761,PR302764,PR302768,PR302772,PR302776,PR302780,PR302784,PR302787,PR302791,PR302795

>ms2
71.046260 15.000000
85.020860 11.000000
85.025850 17.000000
85.031820 30.000000
91.039820 8.000000
129.047320 6.000000
129.054690 25.000000
130.616300 9.000000
132.112810 6.000000
153.013120 9.000000
154.024670 9.000000
163.050310 14.000000
183.664980 6.000000
243.742520 9.000000
269.045720 9.000000
274.674410 7.000000
281.547180 9.000000
286.609530 6.000000
286.965150 10.000000
287.009190 7.000000
287.024080 17.000000
287.053860 1000.000000
288.036070 21.000000
288.054630 75.000000
288.066380 80.000000
288.080510 6.000000
289.058750 22.000000
289.636260 11.000000
290.018590 7.000000
327.035220 9.000000
433.113920 17.000000
433.577360 9.000000
449.091610 21.000000
449.110690 77.000000
449.131500 25.000000
450.108000 7.000000
450.123020 8.000000
451.109380 7.000000
452.095980 6.000000
595.146180 41.000000
595.171810 37.000000
595.197810 7.000000

>ms2
129.050220 10.000000
165.072620 9.000000
167.454570 17.000000
183.547740 15.000000
255.085940 9.000000
287.019960 20.000000
287.056430 1000.000000
288.051150 61.000000
288.068020 113.000000
300.434270 11.000000
309.109890 12.000000
311.120790 17.000000
329.024600 20.000000
433.090610 17.000000
433.118100 22.000000
434.090210 11.000000
436.121370 19.000000
449.065670 24.000000
449.104550 236.000000
450.100770 33.000000
475.104130 10.000000
595.120060 9.000000
595.160830 216.000000
595.180110 201.000000

>ms2
71.047290 23.000000
85.018430 9.000000
85.023450 33.000000
111.042310 11.000000
111.049680 17.000000
129.055500 40.000000
131.058840 20.000000
241.023450 16.000000
269.041380 11.000000
284.071530 7.000000
286.859070 6.000000
287.004940 8.000000
287.054690 1000.000000
288.002560 8.000000
288.054630 145.000000
289.058410 26.000000
290.048580 6.000000
300.061370 6.000000
312.050380 7.000000
325.016750 11.000000
329.046050 8.000000
329.063930 20.000000
353.038120 8.000000
414.107390 6.000000
590.645630 9.000000

>ms2
71.047740 59.000000
85.021000 26.000000
85.025630 59.000000
85.032510 50.000000
105.026050 31.000000
111.005070 47.000000
121.023790 51.000000
127.038840 54.000000
129.049330 91.000000
133.024670 66.000000
134.035370 32.000000
147.043760 56.000000
153.020110 103.000000
165.015460 141.000000
165.025670 28.000000
166.019760 41.000000
189.052720 31.000000
213.039250 59.000000
213.052750 206.000000
213.066020 97.000000
214.052440 29.000000
231.074550 34.000000
241.036760 31.000000
241.049510 159.000000
258.044250 37.000000
269.030000 31.000000
287.027650 126.000000
287.054810 1000.000000
288.043090 31.000000
288.054660 72.000000
288.067020 141.000000
311.053340 43.000000

>ms2
83.032060 5.000000
85.030500 23.000000
111.006990 15.000000
113.064040 10.000000
121.026710 6.000000
129.053280 29.000000
147.065200 13.000000
184.898240 7.000000
240.861600 8.000000
269.013370 10.000000
269.038670 7.000000
286.845060 8.000000
286.962070 7.000000
287.023620 25.000000
287.055360 1000.000000
287.248720 9.000000
288.059480 130.000000
289.076020 14.000000
311.123570 9.000000
323.324520 6.000000
329.048800 5.000000
329.058960 6.000000
329.073060 8.000000
353.069980 22.000000
396.079220 6.000000
449.110020 73.000000
450.077000 6.000000
450.114960 15.000000
450.128910 18.000000
505.091090 7.000000
595.175480 113.000000

>ms2
127.035400 10.000000
129.053410 22.000000
163.053500 18.000000
165.765720 8.000000
210.876800 8.000000
273.104770 13.000000
274.094090 12.000000
277.675510 9.000000
286.923580 10.000000
287.011900 20.000000
287.028140 18.000000
287.054380 1000.000000
288.058720 217.000000
289.059170 12.000000
311.135280 10.000000
344.525270 16.000000
364.459720 9.000000
415.138430 12.000000
433.101960 14.000000
433.117310 47.000000
434.117340 15.000000
435.098300 10.000000
437.094600 9.000000
449.056610 12.000000
449.093230 117.000000
449.109040 205.000000
449.125430 72.000000
450.111630 66.000000
450.855590 8.000000
594.952700 8.000000
595.084110 10.000000
595.170290 484.000000

>ms2
57.033910 5.000000
85.028460 11.000000
97.023910 7.000000
127.025060 5.000000
129.059130 11.000000
147.064710 14.000000
147.075060 5.000000
165.010330 6.000000
213.061190 5.000000
279.617490 6.000000
287.004760 5.000000
287.020360 7.000000
287.055110 1000.000000
287.164120 6.000000
288.041350 29.000000
288.061710 165.000000
301.034670 5.000000
448.960880 6.000000

>ms2
69.590390 33.000000
71.001030 59.000000
71.046360 172.000000
71.051110 46.000000
83.051840 29.000000
85.024120 22.000000
85.029880 25.000000
86.038440 22.000000
97.020120 38.000000
103.041890 53.000000
105.033000 25.000000
107.047210 37.000000
111.001100 38.000000
111.012600 34.000000
121.028260 44.000000
137.025130 25.000000
140.367460 25.000000
145.069500 29.000000
147.029820 24.000000
147.040190 34.000000
153.014280 121.000000
157.031450 22.000000
165.017400 80.000000
189.066960 37.000000
212.955540 66.000000
213.046100 74.000000
213.054600 63.000000
213.068510 36.000000
225.064010 96.000000
231.057940 112.000000
231.075360 280.000000
232.080260 26.000000
241.023820 30.000000
241.045870 172.000000
241.068570 26.000000
242.051410 28.000000
242.061970 24.000000
243.044390 38.000000
258.062190 84.000000
259.063320 41.000000
269.044890 132.000000
283.025820 74.000000
287.016360 29.000000
287.031950 168.000000
287.042790 562.000000
287.057370 1000.000000
288.007750 36.000000
288.029690 38.000000
288.050350 65.000000
288.063230 179.000000
288.072540 51.000000
289.051670 30.000000
329.075380 22.000000

>ms2
85.026230 9.000000
85.031000 14.000000
129.051300 13.000000
145.050350 10.000000
147.051680 9.000000
147.065480 30.000000
169.888570 13.000000
175.026790 10.000000
241.054630 8.000000
286.851040 10.000000
287.023740 33.000000
287.054200 1000.000000
288.055300 187.000000
288.070830 23.000000
289.055790 30.000000
289.068600 49.000000
353.067780 10.000000
363.253140 9.000000
433.113800 9.000000
433.134000 19.000000
449.100860 86.000000
449.137570 12.000000
450.112120 28.000000
452.125670 12.000000
500.009000 15.000000
539.160580 13.000000
595.165280 91.000000

>ms2
129.051820 13.000000
147.069670 14.000000
190.906250 9.000000
214.835920 9.000000
237.070130 8.000000
255.074480 11.000000
286.832790 9.000000
287.054810 1000.000000
287.182890 14.000000
288.035980 32.000000
288.060240 123.000000
288.486390 14.000000
289.066500 15.000000
289.075990 9.000000
290.070220 15.000000
294.496980 8.000000
310.110380 12.000000
374.888180 12.000000
431.093600 14.000000
433.123320 43.000000
434.089450 14.000000
434.122860 30.000000
449.078830 43.000000
449.108980 363.000000
450.112730 56.000000
451.101780 11.000000
451.124940 9.000000
595.083190 20.000000
595.124270 23.000000
595.165650 534.000000

>ms2
57.032770 14.000000
71.051840 17.000000
85.028250 64.000000
111.042240 13.000000
129.051850 7.000000
129.058150 8.000000
147.066760 10.000000
164.997590 6.000000
206.514660 10.000000
225.035080 12.000000
231.058410 10.000000
269.040560 7.000000
269.057190 23.000000
287.013730 15.000000
287.028990 29.000000
287.055420 1000.000000
288.056920 232.000000
288.078890 8.000000
289.054570 37.000000
329.070070 10.000000
386.091800 11.000000

>ms2
69.033830 21.000000
72.051730 41.000000
72.277500 21.000000
83.050090 48.000000
85.021580 22.000000
99.046310 31.000000
107.053530 31.000000
112.015270 27.000000
121.022670 58.000000
121.036500 37.000000
133.018280 61.000000
133.028560 53.000000
135.658480 26.000000
137.020190 35.000000
153.001050 41.000000
153.014040 80.000000
157.069890 27.000000
160.955310 35.000000
165.006580 45.000000
165.015960 127.000000
167.027280 27.000000
171.041200 26.000000
177.061750 34.000000
185.055650 22.000000
193.010070 34.000000
203.071000 40.000000
212.783660 31.000000
213.049590 124.000000
213.065810 25.000000
214.233400 22.000000
215.023960 26.000000
231.037490 30.000000
231.046920 48.000000
241.039750 31.000000
241.058040 196.000000
242.041950 21.000000
258.064030 39.000000
269.024510 57.000000
269.053130 75.000000
287.038300 51.000000
287.057800 1000.000000
288.052220 76.000000
288.059810 125.000000
288.074620 70.000000
289.065030 25.000000
292.078520 40.000000
311.116390 25.000000
329.064210 31.000000

