>compound PR60680950
>parentmass 344.1332
>ionization [M+H]+
>formula C15H21NO8
>rt 109.200000
>profile qtof
#smiles_iso C1=CC(=CC=C1CC(C(=O)O)NCC2(C(C(C(O2)CO)O)O)O)O
#smiles_can C1=CC(=CC=C1CC(C(=O)O)NCC2(C(C(C(O2)CO)O)O)O)O
#inchikey QLJKHQIODQKMNW-UHFFFAOYSA-N
#pubchem_id 139292027
#mb_accession PR310827

>ms2
58.029290 23.000000
85.030450 22.000000
107.051810 16.000000
119.056080 21.000000
136.076020 19.000000
137.018360 24.000000
147.049840 32.000000
148.078980 23.000000
151.096830 18.000000
179.077100 16.000000
181.095630 22.000000
187.133680 33.000000
199.981220 20.000000
212.968060 27.000000
280.115450 18.000000
284.106660 16.000000
298.131290 17.000000
308.070530 23.000000
308.106200 33.000000
311.127440 17.000000
326.124660 208.000000
326.143490 48.000000
327.125760 39.000000
331.055880 18.000000
344.119420 25.000000
344.135990 80.000000

