>compound PR61094570
>parentmass 781.4732686999998
>ionization [M+H]+
>formula C42H68O13
>rt 429.426000
>profile qtof
#smiles_iso C[C@@H]1[C@@H]([C@@H]([C@H]([C@@H](O1)O[C@H]2CC[C@]3([C@H]([C@]2(C)CO)CC[C@@]4([C@@H]3C=C[C@@]56[C@]4(C[C@@H]([C@@]7([C@H]5CC(CC7)(C)C)CO6)O)C)C)C)O)O[C@H]8[C@@H]([C@H]([C@@H]([C@H](O8)CO)O)O)O)O
#smiles_can CC1C(C(C(C(O1)OC2CCC3(C(C2(C)CO)CCC4(C3C=CC56C4(CC(C7(C5CC(CC7)(C)C)CO6)O)C)C)C)O)OC8C(C(C(C(O8)CO)O)O)O)O
#inchikey KYWSCMDFVARMPN-MSSMMRRTSA-N
#pubchem_id 167928
#mb_accession PR303805,PR303810,PR303813,PR303817,PR303823,PR303827,PR303830,PR303833

>ms2
75.048720 14.000000
87.037990 16.000000
135.086290 20.000000
145.047990 13.000000
149.128360 32.000000
155.083650 16.000000
163.060580 16.000000
167.104400 13.000000
171.117510 19.000000
173.136580 17.000000
176.154170 13.000000
187.138500 14.000000
187.150570 35.000000
188.117110 20.000000
189.139010 13.000000
190.127910 15.000000
195.140120 26.000000
196.140780 20.000000
201.163700 16.000000
201.175370 13.000000
204.141310 16.000000
209.135670 13.000000
214.178760 20.000000
215.177260 13.000000
216.177730 13.000000
217.196230 26.000000
225.156980 13.000000
225.166200 13.000000
225.184510 13.000000
227.188160 20.000000
230.188950 14.000000
237.150120 22.000000
239.186890 32.000000
241.181090 13.000000
241.195860 47.000000
245.189450 13.000000
250.087070 15.000000
251.188450 15.000000
251.767030 14.000000
252.192460 32.000000
253.201110 55.000000
254.194030 17.000000
255.167400 16.000000
255.213300 15.000000
259.198150 14.000000
259.214260 46.000000
265.201600 16.000000
267.215270 45.000000
268.222230 15.000000
272.201480 14.000000
281.898470 16.000000
285.213990 14.000000
285.226780 16.000000
286.227260 38.000000
287.193050 13.000000
295.235440 13.000000
309.117680 13.000000
311.113190 14.000000
317.232850 13.000000
345.271210 13.000000
346.005430 16.000000
350.280460 14.000000
380.859340 21.000000
389.328370 16.000000
393.303130 15.000000
397.304960 14.000000
398.331050 16.000000
401.313570 24.000000
401.325620 46.000000
407.332790 104.000000
407.355500 14.000000
408.370670 16.000000
410.371430 17.000000
419.308440 32.000000
419.319370 52.000000
419.338040 181.000000
419.406650 16.000000
420.325740 35.000000
420.350070 17.000000
437.295470 21.000000
437.332180 293.000000
437.347020 362.000000
438.337770 181.000000
438.359800 132.000000
439.347020 18.000000
440.351750 22.000000
453.336520 13.000000
455.281490 13.000000
455.301570 16.000000
455.353670 1000.000000
455.403750 16.000000
456.312620 16.000000
456.349950 296.000000
457.354190 64.000000
457.509800 14.000000
473.358670 61.000000
474.365510 35.000000
474.380950 25.000000
530.806700 16.000000
535.372070 20.000000
583.390440 14.000000
599.813420 16.000000
603.424680 16.000000
617.421940 14.000000
619.404110 63.000000
619.423950 34.000000
619.443660 28.000000
620.424500 15.000000
636.446840 16.000000
729.378910 16.000000
732.708980 15.000000
745.475830 33.000000
763.456540 13.000000
763.492310 49.000000
764.453610 14.000000
781.392700 20.000000
781.461850 250.000000
781.488530 173.000000
781.529300 14.000000

>ms2
75.043170 15.000000
85.026390 20.000000
123.119790 14.000000
129.055760 12.000000
135.007810 19.000000
135.118550 14.000000
135.565800 14.000000
145.052810 17.000000
147.067260 15.000000
147.119430 14.000000
150.132520 17.000000
163.051280 17.000000
163.057910 20.000000
163.146160 17.000000
164.937350 19.000000
165.127260 14.000000
173.137910 13.000000
174.132000 12.000000
175.149520 35.000000
175.157090 12.000000
187.141460 28.000000
187.152690 27.000000
193.159940 29.000000
197.125020 12.000000
199.065350 13.000000
205.149120 12.000000
205.160840 19.000000
205.169600 17.000000
208.173680 30.000000
225.167240 12.000000
227.180680 13.000000
231.092120 31.000000
231.154330 12.000000
233.179370 14.000000
233.194990 17.000000
239.171480 12.000000
240.191590 12.000000
242.190730 14.000000
248.211290 12.000000
249.180360 13.000000
249.192200 15.000000
251.176620 46.000000
253.193250 50.000000
255.148610 14.000000
255.206100 21.000000
257.185610 17.000000
257.586360 12.000000
259.210480 28.000000
267.215180 12.000000
269.179960 13.000000
271.212460 17.000000
274.110140 14.000000
291.112240 13.000000
293.241240 13.000000
307.253200 13.000000
309.116850 14.000000
311.230560 12.000000
323.257750 14.000000
329.246280 15.000000
329.825230 17.000000
351.324770 12.000000
352.967010 19.000000
361.268740 23.000000
361.308530 13.000000
365.052120 13.000000
367.262450 13.000000
383.867400 13.000000
389.332370 16.000000
390.318210 12.000000
397.302340 28.000000
397.316930 44.000000
398.322810 14.000000
401.312350 17.000000
407.327090 54.000000
407.339260 108.000000
408.322170 29.000000
408.346250 30.000000
410.316740 12.000000
410.345430 47.000000
419.139250 14.000000
419.334320 154.000000
420.330410 45.000000
420.346010 25.000000
423.759770 14.000000
425.334690 23.000000
437.319760 29.000000
437.343720 211.000000
438.304500 13.000000
438.334870 109.000000
438.347350 107.000000
439.340060 21.000000
439.355680 19.000000
439.368650 17.000000
440.363220 13.000000
455.294620 14.000000
455.352140 1000.000000
456.334690 17.000000
456.363770 260.000000
457.339660 26.000000
457.357450 30.000000
458.357790 18.000000
458.378390 14.000000
601.336910 13.000000
617.423160 19.000000

>ms2
85.028950 228.000000
95.082530 152.000000
95.088640 127.000000
96.090810 247.000000
97.022800 127.000000
97.101000 114.000000
97.106280 158.000000
101.059880 120.000000
105.068200 576.000000
107.086090 108.000000
109.108580 114.000000
111.075860 108.000000
111.084020 114.000000
113.094960 120.000000
117.064080 146.000000
123.120050 108.000000
125.025740 215.000000
125.044320 146.000000
129.034330 139.000000
129.055080 297.000000
133.098180 253.000000
133.108470 114.000000
135.117510 108.000000
137.135500 133.000000
139.114110 133.000000
145.102400 241.000000
147.110980 108.000000
149.130950 241.000000
151.112210 405.000000
151.144120 114.000000
157.099760 266.000000
159.118560 392.000000
161.130370 278.000000
162.097270 133.000000
163.152300 108.000000
165.129170 348.000000
167.141160 108.000000
173.133130 297.000000
173.141370 133.000000
173.955310 127.000000
175.136370 146.000000
176.147050 278.000000
177.127690 139.000000
177.154830 120.000000
181.099210 114.000000
185.121400 146.000000
185.132770 500.000000
187.140260 133.000000
187.149310 1000.000000
188.144500 114.000000
188.159290 127.000000
189.156310 114.000000
191.144180 133.000000
193.165240 215.000000
197.135590 196.000000
199.149340 133.000000
201.164230 241.000000
202.166780 114.000000
204.184590 108.000000
205.163710 127.000000
205.197420 139.000000
206.165080 114.000000
208.179750 114.000000
209.137190 215.000000
211.142300 323.000000
211.167070 108.000000
212.137770 152.000000
213.156220 158.000000
213.169890 316.000000
214.172130 190.000000
215.138690 266.000000
216.170040 152.000000
223.154970 114.000000
225.165680 133.000000
226.152730 158.000000
227.152770 114.000000
227.181290 171.000000
228.172910 146.000000
232.161740 133.000000
236.137630 146.000000
237.171110 177.000000
239.165250 152.000000
239.404160 120.000000
241.192350 190.000000
242.185970 139.000000
246.195420 127.000000
249.157490 114.000000
249.187410 297.000000
251.169890 127.000000
251.181080 108.000000
251.190090 114.000000
253.202590 348.000000
254.178680 127.000000
254.193890 190.000000
255.206440 247.000000
259.209530 108.000000
263.227690 127.000000
265.188450 234.000000
265.200350 234.000000
265.210420 127.000000
266.207430 165.000000
267.199220 108.000000
267.206480 323.000000
269.197540 108.000000
271.199310 177.000000
277.189390 120.000000
277.220090 310.000000
279.192630 120.000000
279.216610 316.000000
283.214110 127.000000
285.225890 127.000000
297.215300 184.000000
339.236940 127.000000
349.284610 203.000000
349.304140 209.000000
351.265010 108.000000
361.252410 108.000000
362.293580 177.000000
373.296600 133.000000
376.310270 190.000000
389.324950 215.000000
402.319490 146.000000
407.332890 127.000000
411.322540 247.000000
419.330660 842.000000
426.634000 127.000000
426.681000 108.000000
437.344540 247.000000
455.333070 127.000000
455.353970 241.000000
456.349000 158.000000

>ms2
76.043290 13.000000
111.045710 55.000000
127.042260 26.000000
131.931380 13.000000
135.116580 26.000000
145.048550 13.000000
146.149060 13.000000
147.057940 16.000000
147.068480 24.000000
147.113720 42.000000
151.114910 34.000000
157.095700 15.000000
163.148300 20.000000
173.127760 13.000000
175.150270 15.000000
177.126280 14.000000
185.133180 14.000000
187.142670 18.000000
187.157500 38.000000
188.143770 14.000000
191.179000 17.000000
191.187590 12.000000
193.154080 13.000000
201.163700 15.000000
205.160370 58.000000
213.168270 33.000000
214.172030 22.000000
215.177440 26.000000
218.158980 14.000000
227.178760 29.000000
227.184740 13.000000
231.205830 14.000000
233.190490 20.000000
235.164200 13.000000
237.161060 19.000000
239.176510 15.000000
241.196010 15.000000
249.175200 13.000000
251.168550 15.000000
251.183530 57.000000
253.190260 12.000000
253.202270 13.000000
254.206990 15.000000
261.187380 24.000000
263.208470 14.000000
265.197600 21.000000
265.717930 13.000000
267.211180 14.000000
271.207210 15.000000
272.219020 13.000000
273.086430 12.000000
273.106810 13.000000
284.218440 14.000000
291.211940 28.000000
301.246190 14.000000
305.225010 14.000000
309.104220 13.000000
309.117340 12.000000
311.236450 12.000000
318.234010 17.000000
333.233670 20.000000
333.274140 14.000000
349.244200 12.000000
349.281430 27.000000
361.296780 12.000000
363.301880 15.000000
377.081360 22.000000
389.305110 34.000000
389.325470 14.000000
390.321690 14.000000
391.349850 13.000000
397.320220 27.000000
398.327240 13.000000
401.322570 13.000000
407.304720 15.000000
407.326660 109.000000
407.346370 29.000000
408.330750 60.000000
408.360930 13.000000
419.299990 24.000000
419.319670 35.000000
419.334990 15.000000
420.319310 43.000000
420.341030 12.000000
422.323210 14.000000
437.341520 669.000000
437.409940 13.000000
437.516940 14.000000
438.335540 79.000000
438.351290 96.000000
438.532140 12.000000
439.337460 75.000000
439.366420 24.000000
439.561130 13.000000
453.331480 12.000000
455.313720 39.000000
455.352720 1000.000000
456.341710 70.000000
456.359500 183.000000
456.381470 35.000000
457.339840 12.000000
457.357790 12.000000
457.370480 12.000000
473.363070 14.000000
473.393100 32.000000
565.382140 13.000000
583.326600 14.000000
583.411800 15.000000
585.406490 13.000000
599.386470 12.000000
601.437320 17.000000
617.401370 13.000000
619.399840 25.000000
619.429080 79.000000
620.393130 13.000000
620.423770 12.000000
621.424440 13.000000
635.422300 40.000000
637.430240 12.000000
745.487370 23.000000
781.456180 181.000000
781.478330 177.000000
781.506160 159.000000

>ms2
75.040020 17.000000
75.045200 15.000000
83.052090 16.000000
85.025400 13.000000
99.046460 13.000000
101.063000 13.000000
111.038370 17.000000
111.080270 26.000000
129.063320 12.000000
135.116640 41.000000
145.043260 18.000000
145.053130 32.000000
145.106580 35.000000
146.053330 23.000000
147.119340 13.000000
149.131010 26.000000
150.136000 12.000000
157.094880 19.000000
157.105260 14.000000
159.112240 12.000000
161.134580 15.000000
163.066060 21.000000
171.113780 15.000000
172.928090 14.000000
187.146290 49.000000
193.158520 32.000000
199.054000 20.000000
205.153550 13.000000
207.178740 14.000000
209.084240 12.000000
214.162930 21.000000
215.188000 12.000000
217.072880 14.000000
223.184340 29.000000
226.158020 14.000000
227.177600 12.000000
227.186160 13.000000
233.184130 13.000000
234.201640 12.000000
235.170730 25.000000
237.189210 21.000000
239.178970 14.000000
241.184600 19.000000
241.202260 15.000000
241.214080 13.000000
241.245240 14.000000
244.935210 24.000000
251.185900 46.000000
252.197390 16.000000
253.200620 31.000000
255.096070 24.000000
255.205150 15.000000
255.213520 14.000000
259.202420 12.000000
265.196560 19.000000
267.215120 36.000000
271.198180 14.000000
285.170380 12.000000
287.202390 15.000000
297.499390 14.000000
318.252870 12.000000
321.257140 14.000000
325.249630 15.000000
333.206510 13.000000
361.292480 16.000000
381.308870 16.000000
389.325560 49.000000
390.331910 19.000000
397.309020 67.000000
397.327850 13.000000
401.279270 14.000000
401.306580 19.000000
403.348970 18.000000
407.324890 111.000000
407.339720 38.000000
408.327610 29.000000
419.332820 201.000000
419.358580 18.000000
420.335600 106.000000
424.848600 16.000000
425.330870 13.000000
437.343930 553.000000
438.315950 16.000000
438.339750 76.000000
438.361360 80.000000
439.354580 61.000000
455.237240 13.000000
455.354550 1000.000000
456.314000 16.000000
456.350220 165.000000
456.365360 125.000000
457.342590 16.000000
457.358120 71.000000
553.379150 19.000000
565.373170 21.000000
582.425170 14.000000
599.390750 13.000000
601.414860 16.000000
617.422910 12.000000
763.450930 13.000000
764.459720 16.000000

>ms2
69.068900 112.000000
75.042740 95.000000
81.068530 313.000000
83.049720 212.000000
85.027680 123.000000
85.035030 112.000000
95.085850 123.000000
101.022990 95.000000
104.865900 95.000000
109.102870 201.000000
111.041680 296.000000
111.116590 128.000000
119.085010 184.000000
119.091670 123.000000
120.092160 95.000000
121.097720 223.000000
125.099010 95.000000
129.059680 95.000000
135.089040 95.000000
135.117950 441.000000
137.129650 128.000000
145.048250 128.000000
145.095370 318.000000
146.106320 145.000000
147.116090 95.000000
149.130780 436.000000
154.106980 95.000000
155.088560 128.000000
157.101140 95.000000
159.112520 218.000000
160.116230 123.000000
161.122390 112.000000
162.102680 117.000000
163.105320 95.000000
167.103160 134.000000
169.109620 117.000000
171.110660 112.000000
175.141740 251.000000
181.118180 95.000000
185.141650 106.000000
187.140560 123.000000
187.153000 201.000000
189.161180 223.000000
190.127930 112.000000
193.159270 184.000000
195.107130 101.000000
195.119310 134.000000
199.105640 95.000000
201.129380 123.000000
201.166760 385.000000
203.174130 128.000000
204.190630 95.000000
205.159420 134.000000
205.168520 201.000000
211.145610 145.000000
212.155940 106.000000
213.165700 615.000000
215.186000 151.000000
217.159820 140.000000
218.153700 101.000000
224.152910 101.000000
225.162050 156.000000
227.138960 123.000000
227.174350 307.000000
228.160350 106.000000
231.167590 101.000000
239.179720 95.000000
241.206300 240.000000
242.174150 101.000000
245.191820 95.000000
251.191560 168.000000
253.196820 1000.000000
254.203600 106.000000
257.180910 212.000000
265.197390 95.000000
266.191100 95.000000
267.193880 117.000000
269.236020 140.000000
270.185240 112.000000
275.182800 128.000000
281.225400 117.000000
283.197750 173.000000
284.195340 112.000000
303.207490 156.000000
306.229860 218.000000
309.235690 112.000000
309.249080 101.000000
349.279300 112.000000
363.332730 106.000000
377.319150 190.000000
389.306820 117.000000
389.345030 101.000000
390.322970 101.000000
393.285100 112.000000
397.309880 151.000000
399.293790 112.000000
407.310700 112.000000
408.315490 112.000000
409.307800 128.000000
411.347870 168.000000
418.752840 134.000000
419.315060 140.000000
419.336490 101.000000
426.888090 112.000000
437.337920 425.000000
455.355500 346.000000

>ms2
75.043160 14.000000
75.047500 14.000000
85.027370 19.000000
97.021430 16.000000
121.107440 14.000000
123.111020 12.000000
127.042690 14.000000
128.936280 12.000000
129.058000 18.000000
131.067460 18.000000
133.091420 12.000000
145.050660 34.000000
147.066990 26.000000
149.128830 13.000000
164.154970 12.000000
164.927110 24.000000
169.113040 17.000000
177.130950 14.000000
177.167540 39.000000
187.154720 12.000000
188.146990 15.000000
191.079700 20.000000
192.181440 20.000000
193.160310 29.000000
195.132870 14.000000
202.163890 12.000000
204.176570 14.000000
205.159070 29.000000
207.173200 16.000000
211.159290 14.000000
215.159680 17.000000
215.180690 39.000000
215.186860 15.000000
225.169680 15.000000
233.193910 18.000000
241.195130 51.000000
251.172670 12.000000
251.197770 19.000000
253.194660 31.000000
255.076340 12.000000
255.213410 14.000000
255.223140 17.000000
267.208860 53.000000
273.093990 21.000000
279.206360 14.000000
284.226260 14.000000
291.092620 14.000000
297.223880 14.000000
307.242650 18.000000
311.284330 18.000000
312.190280 13.000000
313.258820 20.000000
320.232760 17.000000
321.281100 14.000000
322.142610 15.000000
349.274810 16.000000
349.288360 13.000000
361.297700 14.000000
362.301150 13.000000
377.269960 14.000000
379.303740 12.000000
380.300900 12.000000
385.735500 15.000000
389.311340 13.000000
389.324160 18.000000
390.322240 14.000000
392.342410 14.000000
401.318300 20.000000
401.340940 29.000000
407.333620 121.000000
407.353760 19.000000
408.338560 42.000000
408.917510 14.000000
411.321010 14.000000
411.346950 19.000000
419.329250 188.000000
419.348110 40.000000
420.333070 96.000000
421.352630 15.000000
421.408360 16.000000
434.473570 14.000000
437.343350 755.000000
438.341370 211.000000
438.368380 26.000000
439.296050 14.000000
455.206020 17.000000
455.312710 14.000000
455.352110 1000.000000
456.359380 234.000000
457.347750 41.000000
458.384370 15.000000
473.362950 36.000000
474.355710 14.000000
474.367710 38.000000
483.317500 12.000000
525.908510 17.000000
538.447080 16.000000
584.403260 14.000000
584.425290 14.000000
601.412720 26.000000
619.419130 192.000000
619.446840 83.000000
620.419490 27.000000
620.447270 13.000000
635.424010 28.000000
635.459720 41.000000
636.419250 14.000000
701.455380 14.000000
745.437740 14.000000
745.455020 12.000000
763.444700 15.000000
763.464290 16.000000
764.468510 15.000000
781.318970 26.000000
781.474670 471.000000

>ms2
273.100100 14.000000
393.321930 18.000000
412.875670 12.000000
419.296330 14.000000
419.335850 48.000000
420.326570 12.000000
420.340210 14.000000
437.306460 17.000000
437.327180 77.000000
437.339020 143.000000
437.355740 255.000000
438.337250 38.000000
438.356230 39.000000
439.340030 32.000000
453.330440 12.000000
455.329410 61.000000
455.350740 263.000000
456.357700 93.000000
457.350310 52.000000
457.392580 12.000000
473.299470 12.000000
473.365480 132.000000
475.362210 20.000000
565.399960 13.000000
601.428890 12.000000
601.443910 18.000000
608.502560 30.000000
617.452090 12.000000
618.422910 16.000000
619.376650 24.000000
619.411680 134.000000
619.435420 154.000000
620.377080 12.000000
620.420230 113.000000
620.451720 22.000000
621.404300 15.000000
621.445430 17.000000
622.410520 11.000000
622.430970 15.000000
635.406490 13.000000
636.430050 13.000000
637.437070 20.000000
668.384220 14.000000
746.433960 19.000000
746.451350 32.000000
747.478940 13.000000
763.440000 26.000000
763.473880 57.000000
771.564700 13.000000
781.412960 24.000000
781.471980 1000.000000
781.496280 255.000000

