>compound PR61667720
>parentmass 261.1459
>ionization [M+H]+
>formula C11H20N2O5
>rt 152.400000
>profile qtof
#smiles_iso CC(C)CC(C(=O)O)NC(=O)CCC(C(=O)O)N
#smiles_can CC(C)CC(C(=O)O)NC(=O)CCC(C(=O)O)N
#inchikey MYFMARDICOWMQP-UHFFFAOYSA-N
#pubchem_id 4524287
#mb_accession PR311045

>ms2peaks
84.048800 76.000000
86.096660 32.000000
129.059110 17.000000
132.102740 42.000000
197.119740 32.000000
197.130520 116.000000
198.131970 21.000000
201.999630 17.000000
243.133540 275.000000

