>compound PR61085684
>parentmass 291.08631460000004
>ionization [M+H]+
>formula C15H14O6
>rt 187.725000
>profile qtof
#smiles_iso C1[C@@H]([C@H](OC2=CC(=CC(=C21)O)O)C3=CC(=C(C=C3)O)O)O
#smiles_can C1C(C(OC2=CC(=CC(=C21)O)O)C3=CC(=C(C=C3)O)O)O
#inchikey PFTAWBLQPZVEMU-DZGCQCFKSA-N
#pubchem_id 9064
#mb_accession PR302549,PR302555,PR302561,PR302567,PR302573,PR302579,PR302585,PR302591,PR302597,PR302603,PR302609,PR302615

>ms2peaks
68.993480 57.000000
70.836900 52.000000
105.030220 37.000000
111.041470 70.000000
115.047650 56.000000
119.049500 145.000000
120.049630 37.000000
123.029850 44.000000
123.042560 1000.000000
123.117340 30.000000
124.038600 35.000000
125.056950 44.000000
127.041710 42.000000
129.129730 51.000000
137.021030 64.000000
139.025970 71.000000
139.039090 949.000000
140.019170 45.000000
147.022080 99.000000
147.039760 160.000000
147.049410 172.000000
147.121730 33.000000
147.480940 57.000000
148.041370 38.000000
151.038620 122.000000
152.043670 56.000000
157.061430 44.000000
160.046480 30.000000
161.047390 45.000000
161.055850 57.000000
161.065670 82.000000
163.032180 54.000000
163.042390 129.000000
165.050090 225.000000
166.061720 131.000000
167.591250 30.000000
169.051640 45.000000
178.822360 45.000000
181.051210 38.000000
189.044950 54.000000
201.042860 49.000000
205.093310 33.000000
207.046880 106.000000
207.062530 127.000000
213.054670 30.000000
273.072510 92.000000
279.621980 45.000000
291.035250 31.000000
291.081600 603.000000

>ms2peaks
121.032170 10.000000
123.040720 112.000000
123.049900 45.000000
124.033350 14.000000
124.590000 11.000000
139.024540 14.000000
139.038670 290.000000
139.053450 26.000000
147.045180 10.000000
151.020750 8.000000
151.031400 10.000000
151.044880 16.000000
165.041350 16.000000
165.053700 103.000000
166.060230 12.000000
167.022920 14.000000
169.044620 13.000000
180.653950 9.000000
207.076550 12.000000
250.100510 33.000000
272.076630 12.000000
273.069370 20.000000
273.078700 68.000000
274.085480 9.000000
288.736880 8.000000
289.074340 10.000000
290.081300 10.000000
290.885250 10.000000
291.007290 13.000000
291.052220 18.000000
291.071320 136.000000
291.087310 1000.000000

>ms2peaks
83.048030 45.000000
91.050190 52.000000
95.047010 37.000000
111.041310 111.000000
115.040520 75.000000
115.061940 28.000000
119.032840 58.000000
119.047030 77.000000
123.042890 658.000000
124.042950 51.000000
124.053710 92.000000
129.458220 46.000000
131.048580 43.000000
137.018910 46.000000
137.615890 32.000000
139.015000 32.000000
139.038600 1000.000000
140.044850 129.000000
143.051280 98.000000
147.041720 185.000000
152.061460 48.000000
153.062590 28.000000
159.019820 46.000000
159.032810 37.000000
159.045530 54.000000
161.058350 371.000000
169.033420 37.000000
169.053380 46.000000
177.043430 37.000000
179.069060 38.000000
189.060180 32.000000

>ms2peaks
68.993580 443.000000
89.036400 492.000000
91.053820 426.000000
93.034620 279.000000
104.058610 295.000000
115.013470 459.000000
115.053890 459.000000
123.043720 1000.000000
147.039930 295.000000
274.071170 459.000000
291.072390 803.000000

>ms2peaks
69.666510 15.000000
112.044840 21.000000
115.054810 50.000000
119.051810 36.000000
122.459370 16.000000
123.006010 31.000000
123.043260 217.000000
124.038060 21.000000
125.045000 18.000000
126.933440 25.000000
127.035550 32.000000
133.064010 17.000000
135.047090 34.000000
137.022480 32.000000
138.063130 21.000000
139.003220 35.000000
139.037920 1000.000000
140.042530 85.000000
141.042970 45.000000
147.044050 225.000000
152.038380 23.000000
164.036070 26.000000
165.053940 206.000000
166.060270 16.000000
177.056210 43.000000
189.047070 16.000000
204.082730 26.000000
207.033800 16.000000
207.060380 29.000000
207.146420 29.000000
266.461300 16.000000
273.069310 16.000000
291.080780 82.000000
291.094180 42.000000

>ms2peaks
123.043530 298.000000
124.043170 15.000000
139.037540 318.000000
139.047910 31.000000
140.047040 29.000000
147.039090 14.000000
151.034070 33.000000
151.043640 12.000000
163.034910 14.000000
165.052460 59.000000
165.059680 96.000000
182.788590 16.000000
188.038680 13.000000
207.070680 30.000000
233.066350 21.000000
239.598430 16.000000
249.068980 20.000000
249.086670 12.000000
273.078830 24.000000
274.095640 25.000000
289.061490 11.000000
290.071260 39.000000
290.089110 21.000000
291.088470 1000.000000

>ms2peaks
65.039990 75.000000
95.050650 34.000000
105.067730 37.000000
110.036990 30.000000
111.045450 71.000000
119.052330 30.000000
123.032810 109.000000
123.044720 1000.000000
125.049110 33.000000
136.044560 28.000000
137.019900 28.000000
139.032810 170.000000
139.041320 876.000000
143.041490 43.000000
147.042470 337.000000
147.050690 62.000000
148.055850 31.000000
149.034590 41.000000
149.050310 50.000000
149.061630 38.000000
151.043460 27.000000
159.037220 61.000000
161.054320 71.000000
161.062790 257.000000
163.038710 59.000000
165.057080 53.000000
165.067600 33.000000
170.753570 27.000000
177.039720 50.000000
179.031720 27.000000
184.050170 61.000000
185.631440 27.000000
189.042910 46.000000
189.055150 71.000000
190.054640 36.000000
204.436020 52.000000
207.059600 104.000000
217.116320 27.000000

>ms2peaks
65.035410 156.000000
77.038990 624.000000
91.041690 248.000000
97.028610 229.000000
105.033170 303.000000
110.416380 183.000000
115.056810 220.000000
116.062030 174.000000
121.020450 165.000000
123.044300 385.000000
123.918970 165.000000
139.038040 1000.000000
140.042970 220.000000
140.055160 156.000000
143.047710 275.000000
147.039920 248.000000

>ms2peaks
94.018230 23.000000
115.053500 91.000000
119.054850 27.000000
121.027740 23.000000
123.035470 116.000000
123.042790 422.000000
124.046700 31.000000
133.063200 36.000000
139.028290 113.000000
139.038470 1000.000000
140.035780 53.000000
140.042950 96.000000
143.051680 37.000000
147.031690 47.000000
147.046200 72.000000
148.040010 28.000000
149.050920 57.000000
152.047580 28.000000
153.061800 29.000000
159.052440 24.000000
161.047330 28.000000
161.056930 57.000000
162.062420 35.000000
165.044920 76.000000
166.050930 79.000000
169.038680 65.000000
179.075440 48.000000
189.049710 28.000000
207.065200 24.000000
231.062230 36.000000
249.065170 24.000000
256.237430 23.000000
291.063320 57.000000
291.086120 267.000000

>ms2peaks
123.038020 26.000000
123.045770 152.000000
124.044080 14.000000
127.039100 18.000000
129.939100 18.000000
139.026570 21.000000
139.038990 429.000000
147.043520 12.000000
149.044160 17.000000
151.034070 14.000000
151.042220 12.000000
165.032580 18.000000
165.054490 164.000000
165.063490 31.000000
166.062000 13.000000
169.050950 13.000000
170.056530 14.000000
177.055020 14.000000
207.059890 17.000000
207.068800 12.000000
215.067500 15.000000
250.925460 12.000000
259.229100 11.000000
273.068120 25.000000
273.076080 85.000000
273.092440 36.000000
273.099030 13.000000
289.073460 37.000000
290.044830 14.000000
291.064000 96.000000
291.084990 1000.000000

>ms2peaks
67.055950 28.000000
77.042480 71.000000
85.029040 58.000000
95.047000 30.000000
97.032080 62.000000
106.036060 69.000000
109.042900 39.000000
111.042920 79.000000
111.051770 60.000000
119.055430 71.000000
122.579510 32.000000
123.045880 437.000000
124.047770 68.000000
125.050830 38.000000
135.044340 39.000000
136.047030 36.000000
137.025860 28.000000
139.038220 1000.000000
140.042660 120.000000
141.037610 27.000000
141.067050 79.000000
142.053880 32.000000
143.039570 36.000000
144.056170 55.000000
147.039110 55.000000
147.047360 121.000000
149.063830 55.000000
151.041080 43.000000
161.056980 55.000000
162.063740 57.000000
163.045500 46.000000
163.064010 38.000000
165.049350 35.000000
166.049970 35.000000
177.047090 52.000000
186.030000 39.000000
188.115370 32.000000
189.049880 33.000000
189.062150 129.000000
203.061600 52.000000

>ms2peaks
65.035450 151.000000
77.035180 310.000000
115.049670 222.000000
123.044450 1000.000000
123.051130 397.000000
124.049490 381.000000
129.065260 373.000000
139.041310 437.000000
190.060320 159.000000

