>compound PR61478115
>parentmass 301.07066459999993
>ionization [M+H]+
>formula C16H12O6
>rt 359.188020
>profile qtof
#smiles_iso COC1=C(C2=C(C=C1O)OC=C(C2=O)C3=CC=C(C=C3)O)O
#smiles_can COC1=C(C2=C(C=C1O)OC=C(C2=O)C3=CC=C(C=C3)O)O
#inchikey OBBCRPUNCUPUOS-UHFFFAOYSA-N
#pubchem_id 5281811
#mb_accession PR303685,PR303687,PR303689,PR303691,PR303693,PR303695,PR303697,PR303699,PR303701,PR303703,PR303705,PR303707

>ms2peaks
68.993640 6.000000
118.042340 26.000000
128.061510 6.000000
140.009430 28.000000
168.006230 77.000000
169.012740 9.000000
184.049270 14.000000
212.038190 6.000000
212.050810 11.000000
213.048800 6.000000
240.041870 17.000000
257.043180 10.000000
258.052830 20.000000
269.043330 9.000000
285.038360 96.000000
286.047180 505.000000
287.052370 83.000000
301.071230 1000.000000
301.122190 13.000000

>ms2peaks
286.044190 9.000000
301.022370 7.000000
301.070310 1000.000000
301.120390 18.000000

>ms2peaks
118.042860 17.000000
119.048160 5.000000
140.011030 27.000000
156.057770 6.000000
159.041290 6.000000
160.050550 8.000000
168.005020 216.000000
169.003220 7.000000
169.011340 24.000000
184.050170 18.000000
212.040500 11.000000
212.050460 18.000000
213.050990 15.000000
229.052950 28.000000
240.042240 35.000000
241.051410 30.000000
242.054690 6.000000
255.062620 8.000000
255.075500 8.000000
257.044770 25.000000
258.053560 60.000000
259.048460 6.000000
259.059690 6.000000
268.035610 13.000000
268.047240 8.000000
269.041780 11.000000
285.040410 291.000000
286.047330 1000.000000
287.051850 164.000000
288.050230 26.000000
301.070130 29.000000

>ms2peaks
52.999020 16.000000
59.013310 16.000000
65.035760 16.000000
65.992970 13.000000
66.009800 13.000000
66.014020 20.000000
68.997990 361.000000
69.780880 13.000000
69.990820 14.000000
70.005920 95.000000
78.041900 32.000000
80.029910 16.000000
83.011700 16.000000
84.017170 30.000000
84.021740 39.000000
89.036940 76.000000
90.042700 36.000000
90.048490 69.000000
90.055580 32.000000
91.043170 13.000000
91.059010 16.000000
94.001510 15.000000
94.007250 57.000000
94.037090 20.000000
95.708050 17.000000
97.027150 17.000000
97.998550 17.000000
102.047800 20.000000
103.018680 13.000000
103.054720 49.000000
107.050320 16.000000
108.017960 36.000000
108.023280 13.000000
111.002900 16.000000
112.011800 89.000000
112.019000 140.000000
113.023560 36.000000
113.425190 20.000000
114.022350 20.000000
115.051340 45.000000
117.073280 39.000000
117.910220 13.000000
117.928040 15.000000
118.041670 1000.000000
119.040460 35.000000
119.048520 52.000000
119.723570 13.000000
120.052250 24.000000
121.026480 21.000000
121.032330 52.000000
122.011580 13.000000
123.009130 72.000000
125.023710 16.000000
126.051900 24.000000
127.047090 32.000000
127.054880 131.000000
128.061160 418.000000
128.070140 14.000000
128.426970 17.000000
129.067340 51.000000
129.072570 47.000000
130.039830 36.000000
131.045330 18.000000
131.053270 52.000000
132.057330 22.000000
134.035980 18.000000
136.002180 14.000000
137.022400 16.000000
138.042860 14.000000
138.998580 35.000000
140.010510 639.000000
140.021510 61.000000
140.053590 27.000000
140.235400 16.000000
140.977810 15.000000
141.006870 17.000000
141.016770 16.000000
142.036640 37.000000
143.040560 17.000000
145.010010 19.000000
145.026570 36.000000
145.055180 14.000000
145.067920 59.000000
153.014830 18.000000
154.016160 14.000000
155.047360 487.000000
156.050080 29.000000
157.058260 16.000000
157.064390 34.000000
162.032960 19.000000
163.003310 19.000000
166.037000 32.000000
167.047100 55.000000
168.007250 522.000000
169.009340 64.000000
169.020360 32.000000
171.035510 17.000000
171.047670 34.000000
173.060210 14.000000
182.996720 17.000000
183.043320 59.000000
183.053310 42.000000
184.049440 144.000000
184.056180 47.000000
185.050810 30.000000
185.069660 17.000000
187.043620 18.000000
192.012050 20.000000
193.016650 16.000000
195.038740 33.000000
201.050510 51.000000
211.038770 78.000000
211.047960 82.000000
212.045100 34.000000
212.055760 26.000000
213.056780 65.000000
214.215350 16.000000
223.038910 14.000000
224.044740 21.000000
229.024730 15.000000
229.045560 108.000000
229.227650 16.000000
230.055970 27.000000
239.029140 21.000000
239.037400 28.000000
239.826770 17.000000
240.039220 21.000000
240.956390 19.000000
241.048680 59.000000
251.046490 17.000000
258.052730 17.000000
259.053130 16.000000
260.022130 13.000000
267.017580 15.000000
267.035710 20.000000
269.037900 13.000000
269.255920 15.000000
271.122860 20.000000
284.019780 14.000000
285.008790 18.000000
285.027440 116.000000
285.041780 265.000000
286.038670 30.000000
287.052340 17.000000

>ms2peaks
118.042110 18.000000
121.029000 7.000000
128.062520 8.000000
140.009630 28.000000
168.004680 88.000000
169.008180 12.000000
184.051820 6.000000
211.042600 6.000000
212.046880 14.000000
213.049500 5.000000
229.054400 9.000000
240.041370 12.000000
241.054050 11.000000
257.047270 6.000000
258.055540 14.000000
268.030790 10.000000
285.040590 104.000000
286.048130 513.000000
287.053190 77.000000
288.052830 16.000000
301.013610 5.000000
301.046630 6.000000
301.070980 1000.000000
301.121190 12.000000

>ms2peaks
286.049800 7.000000
301.071380 1000.000000
301.120270 16.000000

>ms2peaks
118.040250 21.000000
119.050130 9.000000
140.008560 31.000000
156.059430 6.000000
159.044690 9.000000
160.048020 6.000000
168.005140 249.000000
169.011810 34.000000
184.046110 9.000000
184.056470 9.000000
212.046330 33.000000
213.050320 11.000000
229.044250 9.000000
230.053480 5.000000
240.036680 20.000000
240.043990 36.000000
241.049970 33.000000
242.055130 5.000000
255.060990 13.000000
257.044310 15.000000
258.050930 68.000000
258.060550 22.000000
268.030700 13.000000
268.041630 13.000000
285.038850 305.000000
286.006290 7.000000
286.046840 1000.000000
287.049620 186.000000
288.054900 19.000000
301.070070 17.000000

>ms2peaks
55.024510 17.000000
57.025100 14.000000
65.039210 55.000000
66.036060 25.000000
67.019520 33.000000
68.997150 338.000000
69.032050 14.000000
69.724350 15.000000
70.001910 105.000000
70.005480 205.000000
70.621730 19.000000
71.001430 15.000000
71.008360 17.000000
71.014080 20.000000
75.125500 14.000000
79.018560 30.000000
81.033770 14.000000
84.020870 134.000000
85.029600 19.000000
87.023700 21.000000
88.939320 21.000000
89.032190 14.000000
89.041160 91.000000
90.044360 30.000000
91.045140 17.000000
91.054370 30.000000
94.006850 189.000000
95.013240 32.000000
98.000030 29.000000
100.779500 14.000000
101.176500 13.000000
102.046550 26.000000
102.241400 13.000000
103.052940 15.000000
103.062770 17.000000
104.061910 16.000000
105.028450 26.000000
107.013570 17.000000
108.014180 17.000000
108.020620 32.000000
111.012470 19.000000
111.998080 19.000000
112.013960 154.000000
113.021000 45.000000
114.023190 18.000000
115.055640 83.000000
118.027850 16.000000
118.041520 1000.000000
118.070540 23.000000
118.079030 14.000000
118.172470 13.000000
119.044160 99.000000
119.052800 26.000000
120.235170 21.000000
121.018880 16.000000
121.025690 15.000000
121.031850 14.000000
122.011350 15.000000
123.001370 19.000000
124.014900 17.000000
126.040520 16.000000
126.049600 17.000000
127.044370 48.000000
127.057260 89.000000
127.064850 18.000000
128.060500 303.000000
128.065700 96.000000
129.063000 50.000000
129.070280 13.000000
131.043300 68.000000
131.050610 123.000000
132.051470 15.000000
132.060560 15.000000
133.028960 15.000000
133.065110 14.000000
136.285050 14.000000
137.016450 25.000000
137.033580 21.000000
138.022190 23.000000
138.045850 15.000000
138.062120 14.000000
138.999210 64.000000
139.052120 49.000000
139.968550 15.000000
139.991380 26.000000
140.006300 331.000000
140.013280 413.000000
140.056560 14.000000
141.014050 64.000000
141.070190 15.000000
141.819470 17.000000
143.045440 13.000000
143.054670 44.000000
144.045140 16.000000
144.483890 14.000000
145.027300 67.000000
145.065690 49.000000
146.063610 21.000000
147.044130 18.000000
150.992490 17.000000
152.057330 17.000000
153.020080 34.000000
154.042220 16.000000
155.018860 17.000000
155.042110 82.000000
155.050900 406.000000
156.057750 123.000000
157.066040 99.000000
157.480270 14.000000
158.489930 17.000000
159.041210 56.000000
159.747650 15.000000
160.052570 15.000000
162.029070 16.000000
164.009310 15.000000
166.042130 104.000000
168.001130 294.000000
168.016740 14.000000
169.004610 57.000000
169.013200 70.000000
170.005420 15.000000
170.015550 19.000000
170.024810 14.000000
170.970460 19.000000
173.036330 24.000000
173.059950 12.000000
173.067900 35.000000
173.081040 15.000000
174.027730 16.000000
174.051420 17.000000
174.067830 15.000000
177.039280 20.000000
183.040280 39.000000
183.047610 128.000000
184.048360 196.000000
184.065990 14.000000
185.053700 23.000000
186.026140 15.000000
187.030060 19.000000
188.322910 14.000000
194.038740 33.000000
195.046100 36.000000
196.060760 13.000000
197.050370 14.000000
200.052700 14.000000
203.125000 14.000000
211.040450 212.000000
212.038640 76.000000
213.044910 33.000000
213.061110 30.000000
217.212140 22.000000
222.027440 13.000000
228.040820 13.000000
229.049480 26.000000
229.059370 33.000000
230.047820 13.000000
239.022800 48.000000
239.036010 51.000000
239.059740 23.000000
240.050080 34.000000
241.000890 13.000000
241.046140 14.000000
256.023900 28.000000
256.041600 17.000000
256.050510 12.000000
257.032170 42.000000
257.049560 78.000000
258.041840 21.000000
258.052610 16.000000
266.069700 14.000000
267.034210 13.000000
268.034120 14.000000
268.049620 28.000000
269.047640 16.000000
285.016480 14.000000
285.038420 475.000000
286.023530 14.000000
286.036040 34.000000
286.045870 42.000000
286.486420 13.000000
287.052520 33.000000
287.852870 13.000000

>ms2peaks
118.040140 10.000000
119.047260 8.000000
128.060200 9.000000
140.010280 31.000000
156.060810 6.000000
168.005430 70.000000
169.014770 10.000000
184.053570 5.000000
212.045870 11.000000
213.050380 8.000000
229.042160 7.000000
240.042300 10.000000
241.048360 14.000000
257.045100 12.000000
258.044770 10.000000
258.057190 6.000000
285.040130 101.000000
286.047030 479.000000
287.050080 86.000000
288.054290 16.000000
301.072050 1000.000000
301.122040 14.000000

>ms2peaks
286.052030 8.000000
301.024260 5.000000
301.070830 1000.000000
301.121610 22.000000

>ms2peaks
118.037610 18.000000
118.047080 7.000000
140.004810 8.000000
140.012280 14.000000
156.057790 7.000000
159.039600 5.000000
160.050430 6.000000
168.005800 229.000000
169.009540 50.000000
184.049480 27.000000
184.059390 7.000000
212.047240 44.000000
212.060380 6.000000
213.051060 9.000000
229.046630 18.000000
229.058490 5.000000
230.045290 5.000000
240.032120 9.000000
240.043950 33.000000
241.044040 21.000000
255.066510 7.000000
257.047580 12.000000
258.049560 49.000000
258.061160 17.000000
268.037870 19.000000
269.041200 10.000000
285.004150 5.000000
285.040340 302.000000
286.047090 1000.000000
287.050960 195.000000
288.045320 8.000000
288.063450 15.000000
301.070560 24.000000

>ms2peaks
66.010760 18.000000
66.219080 17.000000
68.992760 96.000000
68.998000 205.000000
70.004440 214.000000
75.857790 15.000000
77.041660 22.000000
79.014310 13.000000
79.023220 16.000000
80.023260 13.000000
80.619220 13.000000
81.029590 16.000000
82.008740 17.000000
84.018360 114.000000
85.155200 13.000000
89.038990 147.000000
90.042250 15.000000
90.049640 14.000000
91.049160 37.000000
91.055600 58.000000
94.001610 16.000000
94.007880 63.000000
95.011510 24.000000
96.994760 19.000000
101.043930 30.000000
101.085640 16.000000
102.044180 60.000000
102.068820 20.000000
103.048100 13.000000
103.053860 29.000000
104.063870 16.000000
105.584790 15.000000
106.038760 20.000000
106.047000 20.000000
107.003750 22.000000
107.015120 13.000000
107.051540 17.000000
108.020940 18.000000
111.976190 16.000000
112.005180 16.000000
112.014960 227.000000
113.018540 53.000000
114.020740 13.000000
114.044850 16.000000
115.053910 20.000000
115.059550 56.000000
117.067150 42.000000
118.021110 16.000000
118.041080 1000.000000
118.816040 16.000000
119.007990 13.000000
119.044170 140.000000
121.025510 31.000000
121.999980 16.000000
124.016870 14.000000
125.780650 13.000000
126.041950 16.000000
127.052370 126.000000
128.051150 18.000000
128.061170 284.000000
128.068190 108.000000
128.090260 18.000000
129.064820 16.000000
129.070080 13.000000
131.046630 31.000000
133.022580 26.000000
136.009740 16.000000
136.017780 20.000000
137.015560 14.000000
137.044370 14.000000
139.001100 14.000000
139.054110 67.000000
139.059510 27.000000
140.009410 606.000000
140.015400 237.000000
141.511540 27.000000
142.044830 35.000000
143.045940 16.000000
144.049090 20.000000
145.029140 30.000000
145.036940 31.000000
145.064480 56.000000
146.076320 13.000000
147.050000 13.000000
151.044360 16.000000
152.062180 13.000000
154.254760 14.000000
155.049300 350.000000
155.074650 16.000000
156.044970 12.000000
156.055130 89.000000
157.061140 16.000000
159.049190 76.000000
160.052990 20.000000
164.013720 18.000000
166.033370 13.000000
166.046970 63.000000
167.046550 16.000000
167.978910 18.000000
168.002900 264.000000
168.999080 39.000000
169.010130 53.000000
169.028640 16.000000
171.043050 20.000000
173.053790 16.000000
173.059160 38.000000
183.023970 13.000000
183.045140 117.000000
184.041500 24.000000
184.054400 66.000000
185.051280 14.000000
186.063660 31.000000
187.026860 13.000000
187.896070 26.000000
192.762830 14.000000
194.034240 25.000000
194.039690 13.000000
197.018750 16.000000
197.863910 18.000000
200.057310 21.000000
201.054050 33.000000
202.065290 15.000000
211.029080 69.000000
211.042370 44.000000
212.027040 19.000000
212.054370 38.000000
214.054440 14.000000
215.030840 16.000000
229.045590 83.000000
230.054500 14.000000
239.016750 16.000000
239.028950 65.000000
239.041140 15.000000
240.038250 34.000000
240.051350 32.000000
241.039030 39.000000
241.052520 64.000000
257.040710 63.000000
257.056790 30.000000
258.067630 21.000000
267.014680 30.000000
267.036070 35.000000
268.039950 33.000000
285.035800 200.000000
285.054630 26.000000
286.050050 32.000000

