>compound PR61918732
>parentmass 179.0379
>ionization [M+H]+
>formula C6H10O4S
>rt 123.600000
>profile qtof
#smiles_iso C(CSCCC(=O)O)C(=O)O
#smiles_can C(CSCCC(=O)O)C(=O)O
#inchikey ODJQKYXPKWQWNK-UHFFFAOYSA-N
#pubchem_id 8096
#mb_accession PR310802

>ms2
73.005910 53.000000
89.005200 134.000000
89.024880 94.000000
91.024320 83.000000
93.036190 16.000000
133.028870 62.000000
133.038480 17.000000
134.036130 32.000000
134.088410 28.000000
135.026030 16.000000
149.024610 23.000000
161.031170 20.000000
179.038070 45.000000

