>compound PR61849901
>parentmass 957.5024
>ionization [M+H]+
>formula C48H76O19
>rt 449.400000
>profile qtof
#smiles_iso CC1(CC2C3=CCC4C5(CCC(C(C5CCC4(C3(CCC2(C(=O)C1)C)C)C)(C)CO)OC6C(C(C(C(O6)C(=O)O)O)O)OC7C(C(C(C(O7)CO)O)O)OC8C(C(C(C(O8)CO)O)O)O)C)C
#smiles_can CC1(CC2C3=CCC4C5(CCC(C(C5CCC4(C3(CCC2(C(=O)C1)C)C)C)(C)CO)OC6C(C(C(C(O6)C(=O)O)O)O)OC7C(C(C(C(O7)CO)O)O)OC8C(C(C(C(O8)CO)O)O)O)C)C
#inchikey JTXVTHCLTOUSSL-UHFFFAOYSA-N
#pubchem_id 178247
#mb_accession PR310676

>ms2peaks
109.099650 18.000000
159.032230 17.000000
163.058470 37.000000
163.154250 28.000000
195.182620 25.000000
207.179890 17.000000
213.169170 22.000000
214.161470 18.000000
219.170430 21.000000
235.197710 35.000000
285.220830 17.000000
299.229490 17.000000
303.061280 19.000000
325.099640 20.000000
381.318150 19.000000
382.314090 19.000000
405.251950 32.000000
409.357970 38.000000
422.341220 60.000000
422.359470 20.000000
423.358670 19.000000
426.534880 20.000000
437.358030 20.000000
439.359560 188.000000
439.378390 45.000000
439.410520 21.000000
440.362300 116.000000
441.339420 26.000000
441.363160 33.000000
455.356510 29.000000
457.355440 20.000000
597.362120 23.000000
597.381350 56.000000
615.394410 65.000000
616.247560 18.000000
634.401000 44.000000
782.378300 20.000000
797.422180 31.000000
957.508000 299.000000

