>compound PR61406630
>parentmass 609.1809000000001
>ionization [M+H]+
>formula C28H32O15
>rt 277.800000
>profile qtof
#smiles_iso CC1C(C(C(C(O1)OCC2C(C(C(C(O2)OC3=CC(=C4C(=C3)OC(=CC4=O)C5=CC(=C(C=C5)OC)O)O)O)O)O)O)O)O
#smiles_can CC1C(C(C(C(O1)OCC2C(C(C(C(O2)OC3=CC(=C4C(=C3)OC(=CC4=O)C5=CC(=C(C=C5)OC)O)O)O)O)O)O)O)O
#inchikey GZSOSUNBTXMUFQ-UHFFFAOYSA-N
#pubchem_id 5353588
#mb_accession PR310967,PR311173

>ms2peaks
129.060550 17.000000
191.105960 19.000000
273.075620 21.000000
287.053800 24.000000
299.047760 65.000000
301.071320 28.000000
313.050660 90.000000
313.066410 17.000000
315.039640 25.000000
315.055910 40.000000
316.043610 43.000000
325.080630 23.000000
327.072810 16.000000
329.059200 16.000000
339.063840 17.000000
339.088990 93.000000
339.107570 36.000000
340.070590 17.000000
340.089940 44.000000
343.083620 25.000000
349.076630 30.000000
351.049130 19.000000
353.025730 23.000000
354.022890 17.000000
367.078700 121.000000
367.096160 41.000000
368.090180 17.000000
372.979980 18.000000
377.064180 17.000000
395.075010 290.000000
396.067900 50.000000
409.091220 205.000000
410.101350 20.000000
413.085510 66.000000
413.103790 59.000000
414.087190 19.000000
426.086670 16.000000
427.093960 164.000000
428.099370 32.000000
428.112430 20.000000
431.094540 100.000000
432.096130 23.000000
432.117770 20.000000
433.088960 24.000000
445.115880 39.000000
446.111420 52.000000
459.201660 22.000000
462.896670 16.000000
463.119810 186.000000
463.141390 94.000000
464.110440 37.000000
464.127590 72.000000
465.105350 21.000000
465.118410 17.000000
578.124510 17.000000
578.178590 16.000000
591.152220 16.000000
592.197570 21.000000
609.144410 33.000000
609.175600 397.000000
609.195800 188.000000
609.229680 17.000000

>ms2peaks
54.123020 23.000000
64.796330 31.000000
68.718250 21.000000
69.218050 33.000000
69.564220 17.000000
71.046420 71.000000
85.017070 26.000000
85.027850 133.000000
85.035860 18.000000
98.860750 17.000000
120.674830 17.000000
126.136640 17.000000
129.052890 125.000000
146.047320 29.000000
147.063450 50.000000
183.608960 29.000000
184.516070 21.000000
187.570080 32.000000
190.429670 20.000000
205.320280 21.000000
258.045650 49.000000
270.418180 19.000000
286.046600 250.000000
286.062350 56.000000
286.698120 28.000000
287.048550 93.000000
287.802730 19.000000
295.409580 27.000000
298.542360 28.000000
300.893590 31.000000
300.956540 25.000000
300.970340 38.000000
300.995670 44.000000
301.014040 125.000000
301.030090 197.000000
301.069890 14331.000000
301.116850 18.000000
301.184170 25.000000
301.208920 17.000000
301.285340 24.000000
301.824490 21.000000
301.977390 18.000000
301.993230 21.000000
302.026090 24.000000
302.051090 241.000000
302.072810 2377.000000
302.093170 213.000000
302.323240 20.000000
303.049620 51.000000
303.080810 286.000000
303.365940 18.000000
304.078280 84.000000
304.099400 19.000000
305.627690 18.000000
308.989620 17.000000
314.310550 17.000000
316.203250 17.000000
351.406740 37.000000
354.833340 19.000000
355.529910 24.000000
365.105440 17.000000
372.216130 20.000000
380.481410 35.000000
393.102050 37.000000
393.525050 33.000000
409.803250 23.000000
411.817170 18.000000
429.097170 20.000000
434.945220 26.000000
447.146820 28.000000
450.184940 17.000000
451.179500 34.000000
458.324400 25.000000
461.921910 22.000000
462.582890 21.000000
462.618680 25.000000
463.068940 87.000000
463.121640 5920.000000
463.189390 19.000000
463.792790 17.000000
464.057560 54.000000
464.125550 1383.000000
464.943600 19.000000
465.067600 20.000000
465.097750 24.000000
465.128570 336.000000
466.129970 42.000000
467.435460 21.000000
483.947300 21.000000
543.355770 17.000000
575.146790 20.000000
597.534670 21.000000
602.934200 18.000000
607.392580 17.000000
608.275330 21.000000
608.472110 23.000000
609.096130 76.000000
609.121640 123.000000
609.181700 6482.000000
609.239750 17.000000

