>compound PR61754509
>parentmass 640.3441
>ionization [M+H]+
>formula C29H54NO12P
>rt 552.600000
>profile qtof
#smiles_iso CCCCCCCCCCCCC/C=C/C=C/C(=O)OCC(COP(=O)(O)OCCNC1C(C(C(C(O1)CO)O)O)O)O
#smiles_can CCCCCCCCCCCCCC=CC=CC(=O)OCC(COP(=O)(O)OCCNC1C(C(C(C(O1)CO)O)O)O)O
#inchikey MNNGEUSDGJJARF-JLXBFWJWSA-N
#pubchem_id 139291963
#mb_accession PR310849

>ms2
122.062020 36.000000
128.076860 23.000000
188.099550 30.000000
192.043950 16.000000
220.033950 20.000000
224.128200 22.000000
312.932130 18.000000
319.267700 29.000000
337.269530 85.000000
337.285370 45.000000
339.277220 31.000000
355.215480 21.000000
445.298680 25.000000
467.368040 22.000000
538.286680 74.000000
538.310610 40.000000
538.323060 18.000000
539.258360 37.000000
539.285830 16.000000
556.239750 17.000000
556.262390 18.000000
556.301210 40.000000
557.273010 16.000000
557.309020 41.000000
586.297360 17.000000
586.323360 37.000000
604.306150 100.000000
604.334960 18.000000
622.291200 17.000000
622.330320 71.000000
622.352480 23.000000
623.333010 16.000000
623.384030 16.000000
624.002440 17.000000
640.208500 19.000000
640.306880 48.000000
640.344120 490.000000
640.424320 18.000000

