>compound PR62799786
>parentmass 451.08710249999996
>ionization [M+H]+
>formula C20H18O12
>rt 233.826000
>profile qtof
#smiles_iso C1[C@H]([C@@H]([C@H]([C@@H](O1)OC2=C(OC3=CC(=CC(=C3C2=O)O)O)C4=CC(=C(C(=C4)O)O)O)O)O)O
#smiles_can C1C(C(C(C(O1)OC2=C(OC3=CC(=CC(=C3C2=O)O)O)C4=CC(=C(C(=C4)O)O)O)O)O)O
#inchikey SBEOEJNITMVWLK-CFSKSFDZSA-N
#pubchem_id 23900088
#mb_accession PR303119,PR303123,PR303127,PR303131,PR303135,PR303139,PR303143,PR303147,PR303151,PR303155,PR303159,PR303163

>ms2
73.026490 28.000000
73.031590 23.000000
147.011020 30.000000
153.018890 44.000000
165.002330 13.000000
187.031310 21.000000
196.260850 23.000000
217.058270 20.000000
233.033620 17.000000
234.621720 34.000000
245.045350 51.000000
246.060030 21.000000
255.030230 45.000000
259.025120 17.000000
262.048920 21.000000
273.040470 68.000000
274.052340 19.000000
287.054630 20.000000
288.053250 13.000000
296.018740 12.000000
301.010380 17.000000
317.042240 26.000000
318.968810 22.000000
318.982730 14.000000
319.043790 1000.000000
320.053010 96.000000
321.039950 12.000000
332.013520 12.000000
332.039830 14.000000
344.055360 13.000000
372.943360 14.000000
372.960240 38.000000
373.061710 12.000000
412.990630 34.000000
451.069240 48.000000
451.100590 72.000000

>ms2
147.037410 16.000000
231.106450 11.000000
257.101200 12.000000
287.040770 18.000000
287.061190 28.000000
288.085570 19.000000
293.101410 12.000000
318.034520 25.000000
319.015380 31.000000
319.042880 1000.000000
319.062560 213.000000
319.997100 13.000000
320.010190 11.000000
320.043330 46.000000
320.052760 85.000000
320.069950 12.000000
321.048800 30.000000
373.043060 13.000000
411.969390 14.000000
412.970860 11.000000
412.994110 15.000000
413.977450 42.000000
431.087460 12.000000
434.077850 22.000000
435.081760 21.000000
451.086640 341.000000
451.117220 13.000000

>ms2
68.996480 25.000000
73.029340 17.000000
153.013520 69.000000
165.012510 23.000000
195.033490 19.000000
200.145650 20.000000
245.058060 31.000000
263.054660 18.000000
265.968020 28.000000
272.972560 19.000000
273.038180 43.000000
273.053770 25.000000
274.049220 35.000000
296.297120 25.000000
313.031520 33.000000
315.957490 17.000000
318.033870 17.000000
319.044310 1000.000000
319.155090 14.000000
320.039250 136.000000
320.052830 75.000000
321.010470 43.000000
321.059020 72.000000
327.057340 17.000000
331.034120 23.000000
358.043460 17.000000
361.044530 22.000000
416.043730 17.000000

>ms2
79.055600 156.000000
85.032270 104.000000
91.042700 137.000000
97.027660 100.000000
108.933860 81.000000
109.094280 118.000000
121.022820 379.000000
121.033690 265.000000
135.046890 118.000000
137.015840 90.000000
147.043470 384.000000
153.019900 379.000000
165.018100 109.000000
166.021500 109.000000
170.060760 128.000000
183.044160 95.000000
184.047590 166.000000
185.056400 365.000000
213.063100 100.000000
214.062290 137.000000
218.018940 85.000000
227.768590 161.000000
244.080050 123.000000
258.052860 104.000000
260.061490 100.000000
287.033290 95.000000
287.056980 1000.000000
288.050480 128.000000
289.060120 85.000000
296.065580 161.000000
299.063930 147.000000

>ms2
73.021030 24.000000
73.025550 41.000000
107.049900 20.000000
119.048900 25.000000
147.051670 17.000000
153.015010 39.000000
164.880660 26.000000
165.013720 23.000000
179.033830 33.000000
180.110060 20.000000
191.024510 20.000000
217.058990 16.000000
219.023070 16.000000
245.043120 36.000000
245.056380 20.000000
263.047300 16.000000
269.951690 31.000000
301.029690 22.000000
317.934810 21.000000
319.004850 89.000000
319.045840 1000.000000
320.035680 52.000000
320.048770 96.000000
320.065190 91.000000
320.074830 34.000000
321.031040 18.000000
321.043460 55.000000
326.935730 15.000000
328.990510 22.000000
329.039640 48.000000
342.948030 24.000000
343.044920 25.000000
413.955200 18.000000
451.083560 42.000000
451.102630 24.000000

>ms2
54.984680 13.000000
115.039470 17.000000
293.092830 16.000000
318.918610 24.000000
319.016300 16.000000
319.043000 1000.000000
319.064180 71.000000
319.988560 12.000000
320.032070 58.000000
320.050260 88.000000
321.032140 23.000000
397.033660 27.000000
410.993740 17.000000
412.941990 15.000000
413.944520 17.000000
451.072110 169.000000
451.098450 157.000000
451.108920 63.000000

>ms2
105.343660 35.000000
127.042400 35.000000
147.041610 18.000000
147.047290 69.000000
191.036130 33.000000
193.016270 27.000000
195.027340 23.000000
203.031510 40.000000
219.024640 35.000000
221.051680 23.000000
231.039260 31.000000
248.402360 38.000000
255.021880 22.000000
263.063900 32.000000
272.026730 16.000000
301.047610 26.000000
309.734340 23.000000
315.055420 22.000000
319.025730 122.000000
319.045720 1000.000000
319.166320 16.000000
320.025700 24.000000
320.043790 111.000000
320.055630 67.000000
320.488130 26.000000
321.052280 39.000000
322.028290 29.000000
323.037930 19.000000
327.070430 24.000000
330.013120 21.000000
330.037840 23.000000
335.752590 31.000000
339.040010 27.000000
343.038970 37.000000
343.060460 25.000000
343.946440 16.000000
357.064150 17.000000
372.960480 22.000000
372.977020 45.000000
372.991850 31.000000
379.084810 24.000000
416.051820 25.000000

>ms2
149.043120 208.000000
153.019530 1000.000000
176.036000 323.000000
189.048580 271.000000
217.047820 375.000000
217.060780 260.000000
232.036130 406.000000
233.044600 302.000000
287.060300 240.000000

>ms2
91.043160 23.000000
97.026290 26.000000
148.073590 13.000000
169.612080 27.000000
189.058620 19.000000
195.036220 21.000000
205.027880 24.000000
207.032970 19.000000
208.029390 16.000000
209.594730 17.000000
219.051300 23.000000
245.047010 22.000000
251.836590 26.000000
259.023680 13.000000
289.047640 16.000000
290.008540 15.000000
293.114720 36.000000
301.042660 23.000000
302.984410 26.000000
318.979000 17.000000
318.994960 41.000000
319.009400 23.000000
319.043060 1000.000000
320.025210 16.000000
320.048160 89.000000
320.069850 28.000000
321.061250 30.000000
329.027010 37.000000
367.040340 18.000000
395.584500 17.000000
451.072720 46.000000
451.093870 96.000000
451.111050 27.000000

>ms2
112.921170 26.000000
133.026700 15.000000
177.076320 14.000000
184.402890 21.000000
200.791580 14.000000
275.927460 19.000000
287.047700 15.000000
312.580230 20.000000
317.937160 20.000000
319.001740 17.000000
319.019810 91.000000
319.045320 1000.000000
320.025630 13.000000
320.049040 200.000000
320.063020 43.000000
321.041410 51.000000
373.060610 22.000000
404.552310 17.000000
411.978970 14.000000
413.982570 29.000000
415.058990 23.000000
450.995120 16.000000
451.014560 19.000000
451.064510 15.000000
451.097260 299.000000
451.190730 13.000000

>ms2
57.036300 26.000000
129.053420 24.000000
130.693300 20.000000
147.034870 16.000000
192.963970 31.000000
193.766630 39.000000
271.032410 24.000000
273.043700 24.000000
287.065280 56.000000
301.022310 29.000000
301.036560 19.000000
318.970460 29.000000
319.033810 360.000000
319.045840 1000.000000
320.037140 71.000000
320.047640 97.000000
321.049260 21.000000
325.042360 26.000000
329.024570 27.000000
331.042210 22.000000
341.064850 25.000000
343.028990 15.000000
343.040440 24.000000
358.061370 24.000000
372.961210 20.000000
374.061130 30.000000

>ms2
107.012050 282.000000
137.015410 194.000000
153.004610 515.000000
153.016100 1000.000000
159.040010 282.000000
162.056460 194.000000
164.041050 272.000000
166.031010 194.000000
171.032640 369.000000
177.051620 262.000000
179.037340 291.000000
187.037770 214.000000
189.054720 311.000000
194.007570 223.000000
195.032090 583.000000
196.020550 194.000000
200.026550 320.000000
203.034000 223.000000
203.042540 388.000000
205.049040 379.000000
217.043990 282.000000
218.048580 194.000000
221.017150 233.000000
221.053510 282.000000
227.025910 340.000000
229.034000 437.000000
232.073000 262.000000
245.039060 165.000000
246.053280 282.000000
269.952240 175.000000
273.047420 485.000000
278.706880 272.000000
302.039060 194.000000
314.962710 223.000000
320.032500 233.000000

