>compound PR62004199
>parentmass 741.2236555
>ionization [M+H]+
>formula C33H40O19
>rt 213.133980
>profile qtof
#smiles_iso C[C@H]1[C@@H]([C@H]([C@H]([C@@H](O1)OC[C@@H]2[C@@H]([C@@H]([C@H]([C@@H](O2)OC3=C(OC4=CC(=CC(=C4C3=O)O)O[C@H]5[C@@H]([C@@H]([C@H]([C@@H](O5)C)O)O)O)C6=CC=C(C=C6)O)O)O)O)O)O)O
#smiles_can CC1C(C(C(C(O1)OCC2C(C(C(C(O2)OC3=C(OC4=CC(=CC(=C4C3=O)O)OC5C(C(C(C(O5)C)O)O)O)C6=CC=C(C=C6)O)O)O)O)O)O)O
#inchikey PEFASEPMJYRQBW-HKWQTAEVSA-N
#pubchem_id 5281693
#mb_accession PR302002,PR302008,PR302014,PR302020,PR302026,PR302032,PR302038,PR302044,PR302049,PR302055,PR302061,PR302067

>ms2peaks
71.054690 5.000000
99.041400 15.000000
106.646260 6.000000
111.043830 5.000000
127.034570 12.000000
127.049900 6.000000
129.046620 29.000000
129.057890 11.000000
130.059370 7.000000
147.056380 5.000000
147.072390 13.000000
163.077300 5.000000
165.085800 6.000000
182.902790 6.000000
199.058700 6.000000
266.079410 10.000000
270.622770 5.000000
287.052800 1000.000000
287.987950 6.000000
288.033330 21.000000
288.061220 165.000000
289.044280 8.000000
289.059540 26.000000
295.213590 5.000000
312.064790 5.000000
329.059080 10.000000
356.144840 6.000000
367.013090 7.000000
412.215420 9.000000
415.103120 5.000000
433.099760 351.000000
433.116150 305.000000
433.130460 208.000000
434.097260 41.000000
434.117890 204.000000
434.143800 45.000000
435.111940 13.000000
435.134830 9.000000
436.128450 12.000000
449.094060 7.000000
579.153990 13.000000
579.189090 11.000000
580.174380 5.000000
581.340150 5.000000
583.618230 6.000000
595.152590 139.000000
595.179500 158.000000
596.092650 5.000000
596.153320 72.000000
596.203980 39.000000
597.151730 28.000000
597.176450 19.000000
741.156370 11.000000
741.200560 166.000000
741.243900 207.000000

>ms2peaks
287.056700 10.000000
309.120640 10.000000
432.892730 7.000000
433.061920 7.000000
433.111690 509.000000
434.101960 46.000000
434.117070 117.000000
435.098080 9.000000
435.115880 28.000000
437.120610 7.000000
579.174010 5.000000
580.181270 7.000000
595.098940 6.000000
595.168150 326.000000
596.105830 5.000000
596.158020 81.000000
596.187810 28.000000
597.166440 25.000000
598.797420 9.000000
741.086490 7.000000
741.152470 24.000000
741.223390 1000.000000
741.281920 8.000000

>ms2peaks
71.049690 8.000000
85.027150 17.000000
85.032150 8.000000
129.051730 24.000000
147.062090 16.000000
147.067250 8.000000
287.011600 18.000000
287.054570 1000.000000
287.093050 5.000000
288.034820 5.000000
288.057160 189.000000
289.065310 23.000000
343.905790 7.000000
402.348210 8.000000
433.111420 252.000000
434.110320 61.000000
434.127810 30.000000
435.117580 15.000000
449.105830 8.000000

>ms2peaks
62.036920 6.000000
85.025080 16.000000
85.031520 15.000000
129.054180 6.000000
267.884160 6.000000
286.997920 9.000000
287.016080 7.000000
287.053410 1000.000000
288.035830 12.000000
288.059660 153.000000
289.062900 26.000000
388.582030 5.000000

>ms2peaks
85.020990 5.000000
85.028610 46.000000
127.032140 9.000000
129.048720 11.000000
129.057690 21.000000
130.057690 17.000000
145.046800 16.000000
147.054080 6.000000
147.067170 20.000000
170.050020 11.000000
209.912140 6.000000
286.957520 9.000000
287.009770 13.000000
287.026700 17.000000
287.053860 1000.000000
288.060060 263.000000
289.042390 7.000000
289.064120 14.000000
293.388240 5.000000
325.791750 6.000000
433.065190 9.000000
433.112880 763.000000
434.079530 10.000000
434.115420 207.000000
435.108430 29.000000
435.124270 13.000000
436.125430 6.000000
449.105350 14.000000
450.127840 6.000000
579.174560 14.000000
580.164120 10.000000
580.195010 6.000000
595.046330 7.000000
595.092350 7.000000
595.166500 191.000000
596.178040 91.000000
741.212770 235.000000
741.237490 165.000000

>ms2peaks
147.064830 7.000000
286.351500 6.000000
287.046880 20.000000
287.057400 15.000000
309.110570 6.000000
433.072720 8.000000
433.110600 499.000000
434.117190 137.000000
435.112550 26.000000
436.127380 6.000000
579.170720 24.000000
580.170960 10.000000
595.101870 14.000000
595.167720 376.000000
596.153930 62.000000
596.174260 68.000000
597.166750 10.000000
741.123350 10.000000
741.151860 32.000000
741.221250 1000.000000

>ms2peaks
85.029400 15.000000
129.051960 36.000000
145.053210 8.000000
147.065930 16.000000
169.049790 5.000000
286.997100 9.000000
287.054690 1000.000000
288.058750 158.000000
289.063750 28.000000
383.072600 5.000000
431.095370 5.000000
433.110810 290.000000
434.113830 54.000000
435.106750 8.000000
449.112520 7.000000

>ms2peaks
61.036020 5.000000
71.051220 13.000000
85.024730 26.000000
85.030900 26.000000
91.038050 11.000000
97.028420 10.000000
127.036380 6.000000
129.057770 13.000000
145.060960 5.000000
287.002260 6.000000
287.016300 9.000000
287.055540 1000.000000
288.051540 73.000000
288.062500 55.000000
288.074920 18.000000
289.049770 11.000000
289.066130 10.000000
290.065060 8.000000
353.068730 6.000000

>ms2peaks
85.029460 16.000000
127.678890 6.000000
129.057310 66.000000
147.065060 53.000000
184.103550 10.000000
243.068190 7.000000
287.034670 35.000000
287.054780 1000.000000
288.031160 7.000000
288.056670 163.000000
289.060420 17.000000
289.073520 6.000000
290.071750 6.000000
378.983920 6.000000
433.009250 11.000000
433.072300 30.000000
433.111970 932.000000
434.114410 273.000000
435.095610 6.000000
435.121610 34.000000
449.112120 7.000000
495.496150 6.000000
579.168400 13.000000
580.190920 8.000000
595.089840 6.000000
595.123600 6.000000
595.166320 291.000000
596.154720 44.000000
596.174320 77.000000
597.143130 12.000000
597.162960 18.000000
597.185670 8.000000
741.225890 512.000000

>ms2peaks
85.027920 7.000000
255.087620 6.000000
287.048580 8.000000
309.124300 8.000000
354.064760 10.000000
407.747410 8.000000
413.631200 6.000000
433.044740 5.000000
433.109280 523.000000
434.105500 55.000000
434.120700 67.000000
435.110690 17.000000
450.089420 7.000000
579.170290 20.000000
595.166810 226.000000
596.141240 16.000000
596.169800 79.000000
597.172730 24.000000
598.192570 6.000000
619.170040 5.000000
741.116640 10.000000
741.222110 1000.000000

>ms2peaks
71.046770 7.000000
85.026700 11.000000
85.030840 10.000000
129.052960 43.000000
130.058670 8.000000
147.064730 12.000000
200.404590 6.000000
287.029940 26.000000
287.054900 1000.000000
288.041050 35.000000
288.061980 106.000000
289.053990 19.000000
289.064910 37.000000
433.062740 6.000000
433.113370 293.000000
433.248690 6.000000
434.118500 80.000000
435.077640 6.000000
435.119050 14.000000

>ms2peaks
71.048660 32.000000
85.029720 17.000000
85.034060 6.000000
287.006410 8.000000
287.017850 7.000000
287.055940 1000.000000
288.039280 29.000000
288.060520 148.000000
289.060730 36.000000

