>compound PR62933709
>parentmass 174.0956
>ionization [M+H]+
>formula C8H15NOS
>rt 205.800000
>profile qtof
#smiles_iso CS(=O)CCCCCCC#N
#smiles_can CS(=O)CCCCCCC#N
#inchikey MVGLREOVTAENKK-UHFFFAOYSA-N
#pubchem_id 14844938
#mb_accession PR310892

>ms2peaks
110.098790 18.000000
113.959920 17.000000
174.093280 147.000000

