>compound PR62833098
>parentmass 273.07574990000006
>ionization [M+H]+
>formula C15H12O5
>rt 356.797020
>profile qtof
#smiles_iso C1[C@H](OC2=CC(=CC(=C2C1=O)O)O)C3=CC=C(C=C3)O
#smiles_can C1C(OC2=CC(=CC(=C2C1=O)O)O)C3=CC=C(C=C3)O
#inchikey FTVWIRXFELQLPI-ZDUSSCGKSA-N
#pubchem_id 439246
#mb_accession PR302007,PR302013,PR302019,PR302025,PR302031,PR302037,PR302043,PR302048,PR302054,PR302060,PR302066,PR302071

>ms2
91.048030 6.000000
91.054540 20.000000
107.049640 9.000000
111.010670 6.000000
119.047880 93.000000
120.050670 12.000000
121.058080 5.000000
123.045460 11.000000
142.250760 5.000000
147.026570 8.000000
147.042480 360.000000
148.042620 25.000000
148.052110 15.000000
153.016830 624.000000
154.020140 43.000000
155.034040 8.000000
189.061430 11.000000
237.752330 7.000000
273.034940 6.000000
273.045230 5.000000
273.075900 1000.000000
273.121610 8.000000

>ms2
147.046310 16.000000
153.017880 30.000000
273.075930 1000.000000
273.122010 13.000000

>ms2
65.044140 5.000000
67.017590 8.000000
67.022050 5.000000
69.000590 12.000000
69.034440 18.000000
69.038780 6.000000
81.033500 6.000000
83.013370 5.000000
91.053250 75.000000
92.058080 6.000000
93.036240 6.000000
95.049760 16.000000
97.028760 15.000000
107.046200 5.000000
119.048610 234.000000
120.050710 20.000000
121.023930 7.000000
123.043740 27.000000
147.042600 266.000000
148.047500 11.000000
152.988360 5.000000
153.017260 1000.000000
153.069020 5.000000
153.989380 6.000000
154.018890 69.000000
154.031950 10.000000
155.024890 14.000000
157.063520 6.000000
161.059490 6.000000
171.043120 7.000000
181.067140 12.000000
256.044490 5.000000
273.079040 10.000000

>ms2
53.038520 40.000000
65.038700 187.000000
67.021170 54.000000
68.992290 42.000000
68.999360 71.000000
69.031700 103.000000
69.040800 28.000000
77.035870 49.000000
77.042120 26.000000
79.017000 96.000000
81.023680 37.000000
83.015210 91.000000
91.054730 1000.000000
92.056610 76.000000
92.995190 133.000000
95.045170 71.000000
95.051960 56.000000
97.013840 40.000000
97.027730 170.000000
105.073090 39.000000
107.051780 28.000000
109.028790 56.000000
115.022580 39.000000
118.376740 28.000000
119.034190 40.000000
119.047740 356.000000
119.056030 59.000000
123.047490 77.000000
124.138320 35.000000
133.056640 49.000000
139.060560 39.000000
147.046310 31.000000
151.052720 28.000000
152.967500 42.000000
153.015870 448.000000
153.021480 244.000000
153.031400 42.000000

>ms2
69.036850 9.000000
83.011830 6.000000
91.055420 35.000000
95.050850 13.000000
107.048430 9.000000
119.043260 38.000000
119.048110 71.000000
120.052200 5.000000
123.043420 15.000000
147.044390 285.000000
148.041440 6.000000
148.049070 15.000000
153.017200 631.000000
154.016800 35.000000
154.026780 15.000000
155.024380 5.000000
155.030960 6.000000
161.055190 5.000000
179.037090 9.000000
231.063250 10.000000
273.075160 1000.000000
273.121090 8.000000

>ms2
147.044220 27.000000
153.017530 27.000000
273.035520 6.000000
273.076020 1000.000000
273.124910 12.000000

>ms2
68.996830 8.000000
69.033100 12.000000
91.048680 12.000000
91.055900 32.000000
91.063120 5.000000
95.048220 11.000000
97.019300 7.000000
97.023510 17.000000
107.047220 11.000000
111.006720 12.000000
119.050480 247.000000
120.053040 17.000000
123.045970 35.000000
124.045660 6.000000
146.994490 6.000000
147.042940 249.000000
147.049730 96.000000
148.043780 22.000000
148.050920 22.000000
152.993100 15.000000
153.017900 1000.000000
153.071900 5.000000
154.009480 11.000000
154.020860 60.000000
154.028380 22.000000
155.021550 13.000000
273.087770 7.000000

>ms2
55.003200 44.000000
56.024170 39.000000
65.035880 50.000000
67.017150 91.000000
67.022160 55.000000
68.995140 103.000000
69.000760 101.000000
69.033300 46.000000
70.032780 28.000000
70.037990 34.000000
77.035690 68.000000
79.054370 34.000000
80.019800 70.000000
91.042760 54.000000
91.053560 1000.000000
92.058980 80.000000
93.034250 33.000000
101.036970 57.000000
111.004280 59.000000
119.047130 130.000000
119.056340 101.000000
120.051790 186.000000
123.442330 41.000000
127.040180 34.000000
128.062120 86.000000
139.054700 65.000000
147.043290 39.000000
147.052140 33.000000
152.059810 75.000000
152.974040 64.000000
152.998580 49.000000
153.018200 531.000000
154.024890 49.000000
156.006680 33.000000
162.042390 93.000000
163.057620 55.000000
273.070250 36.000000
273.082920 29.000000

>ms2
67.018180 11.000000
91.055730 40.000000
97.031780 9.000000
119.048810 89.000000
120.050240 11.000000
123.045190 17.000000
147.045000 257.000000
148.048020 39.000000
153.017810 557.000000
154.014450 11.000000
154.021870 26.000000
155.026060 11.000000
179.030030 8.000000
189.049700 8.000000
231.072100 8.000000
273.045780 5.000000
273.075230 1000.000000
273.122860 11.000000

>ms2
147.043170 19.000000
153.018190 33.000000
273.034300 6.000000
273.076110 1000.000000
273.123170 14.000000

>ms2
67.024600 5.000000
69.031720 8.000000
83.012950 8.000000
91.054090 112.000000
95.048070 7.000000
95.054820 7.000000
97.028910 11.000000
107.048680 22.000000
111.007100 10.000000
119.020280 6.000000
119.049130 245.000000
120.050540 22.000000
120.059530 7.000000
123.043670 47.000000
125.021450 11.000000
147.025440 15.000000
147.044480 250.000000
148.046630 19.000000
148.053880 7.000000
153.018220 1000.000000
154.007100 8.000000
154.021360 103.000000
155.020870 9.000000
179.032780 6.000000
189.049470 5.000000
199.070100 5.000000

>ms2
65.005860 70.000000
65.039880 66.000000
65.042530 30.000000
67.019380 33.000000
68.995450 138.000000
69.034340 228.000000
69.454910 31.000000
70.039240 53.000000
77.035100 66.000000
77.040420 38.000000
79.059510 41.000000
80.019540 52.000000
83.008330 27.000000
85.307690 31.000000
91.055210 1000.000000
92.054750 42.000000
92.060170 78.000000
97.030490 75.000000
116.057660 39.000000
118.037670 47.000000
119.049620 162.000000
125.021940 36.000000
128.054340 58.000000
147.046050 109.000000
151.048610 31.000000
152.060300 27.000000
152.065750 56.000000
152.985370 28.000000
153.001070 50.000000
153.019440 370.000000
154.017870 86.000000

