>compound PR62955207
>parentmass 787.2086
>ionization [M+H]+
>formula C37H38O19
>rt 232.200000
>profile qtof
#smiles_iso COC1=C(C=CC(=C1)C=CC(=O)OCC2C(C(C(C(O2)OC3C(C(C(OC3C4=C(C5=C(C=C4O)OC(=CC5=O)C6=CC(=C(C=C6)O)O)O)CO)O)O)O)O)O)O
#smiles_can COC1=C(C=CC(=C1)C=CC(=O)OCC2C(C(C(C(O2)OC3C(C(C(OC3C4=C(C5=C(C=C4O)OC(=CC5=O)C6=CC(=C(C=C6)O)O)O)CO)O)O)O)O)O)O
#inchikey BKAKNBQTKDWIDR-UHFFFAOYSA-N
#pubchem_id 145994458
#mb_accession PR311028

>ms2
110.033980 19.000000
145.050630 21.000000
177.050110 140.000000
177.057500 420.000000
177.064010 129.000000
178.060380 20.000000
195.637440 38.000000
280.130370 41.000000
287.059390 48.000000
294.602970 23.000000
299.053410 138.000000
299.065580 41.000000
308.727330 16.000000
309.089900 46.000000
321.085110 63.000000
321.102720 16.000000
322.093570 17.000000
323.052760 21.000000
329.056400 34.000000
329.071810 112.000000
330.067440 16.000000
330.078460 19.000000
339.094970 68.000000
339.114470 25.000000
352.069700 25.000000
353.062470 19.000000
353.082490 21.000000
355.067630 23.000000
365.066040 56.000000
378.055630 16.000000
383.049530 17.000000
383.077880 16.000000
383.088930 21.000000
395.072330 22.000000
395.088410 44.000000
413.035430 22.000000
413.089600 16.000000
414.085300 18.000000
431.091670 86.000000
431.125210 23.000000
431.190220 18.000000
449.072970 17.000000
449.100040 106.000000
449.115880 95.000000
450.088170 20.000000
450.117580 85.000000
609.124570 16.000000
611.172970 18.000000
623.159360 34.000000
744.650150 20.000000
756.133540 22.000000
756.180300 20.000000
772.226140 33.000000
773.210210 16.000000
786.218630 22.000000
787.076480 16.000000
787.179080 202.000000
787.207460 973.000000
787.235290 240.000000

