>compound PR63589600
>parentmass 710.4110025846153
>ionization [M+H]+
>formula C37H59NO12
>rt 278.864308
>profile qtof
#smiles_iso CCC(C)C(=O)OC1C(C2C(CN3CC(CCC3C2(C)O)C)C4C1(C5C(CC6C7(C5(C4)OC6(C(CC7)OC(=O)C(C)(C(C)O)O)O)C)O)O)O
#smiles_can CCC(C)C(=O)OC1C(C2C(CN3CC(CCC3C2(C)O)C)C4C1(C5C(CC6C7(C5(C4)OC6(C(CC7)OC(=O)C(C)(C(C)O)O)O)C)O)O)O
#inchikey LWSPRPDSPCBAKK-UHFFFAOYSA-N
#pubchem_id 3818601
#mb_accession PR301268,PR301272,PR301276,PR301280,PR301284,PR301288,PR301292,PR301296,PR301299,PR301303,PR301307,PR301310,PR310655

>ms2peaks
456.276890 13.000000
474.282960 10.000000
558.339780 37.000000
559.346920 10.000000
572.329650 8.000000
590.335080 9.000000
674.383910 6.000000
674.409910 5.000000
675.399290 5.000000
692.401250 169.000000
693.406010 69.000000
694.411500 21.000000
710.295100 5.000000
710.333190 7.000000
710.412540 1000.000000
710.491940 13.000000

>ms2peaks
710.320920 5.000000
710.414920 1000.000000
710.491520 18.000000

>ms2peaks
456.277340 21.000000
457.279270 6.000000
474.270940 8.000000
474.286740 26.000000
475.291260 11.000000
558.321780 6.000000
558.342770 20.000000
559.347600 7.000000
572.323360 14.000000
576.343750 5.000000
577.364930 5.000000
590.330750 20.000000
590.352110 6.000000
591.345460 8.000000
674.395630 18.000000
692.401180 277.000000
693.337100 5.000000
693.406740 132.000000
694.403810 30.000000
694.430050 8.000000
695.413270 8.000000
710.337830 13.000000
710.412480 1000.000000
710.486690 13.000000

>ms2peaks
98.094360 10.000000
112.112580 10.000000
138.128360 11.000000
154.120300 17.000000
154.126920 14.000000
162.125050 9.000000
164.142680 7.000000
192.141850 6.000000
376.246580 16.000000
392.258480 11.000000
394.277310 6.000000
402.260220 7.000000
405.249970 7.000000
406.250060 12.000000
406.264830 5.000000
410.267400 10.000000
410.283540 9.000000
420.256230 37.000000
420.280700 5.000000
421.263820 14.000000
428.284030 6.000000
434.257320 10.000000
438.254970 31.000000
438.268710 83.000000
439.269930 35.000000
440.273320 14.000000
456.234220 8.000000
456.276210 255.000000
457.279790 89.000000
458.288600 20.000000
475.300140 6.000000
490.319240 13.000000
524.334170 7.000000
536.302920 12.000000
540.336430 44.000000
541.330930 18.000000
541.350160 10.000000
542.300350 6.000000
542.336730 17.000000
542.360780 17.000000
554.311770 32.000000
555.298890 10.000000
555.319640 7.000000
558.247740 7.000000
558.288020 29.000000
558.343440 1000.000000
558.394470 9.000000
559.283140 17.000000
559.348510 391.000000
560.344240 74.000000
560.368230 48.000000
561.346680 16.000000
561.381900 6.000000
572.304810 37.000000
572.324400 71.000000
573.325440 26.000000
573.349060 12.000000
574.343320 10.000000
576.310300 6.000000
576.355530 155.000000
577.361450 61.000000
578.365600 8.000000
590.333500 25.000000
590.356080 7.000000
656.367130 7.000000
657.383730 6.000000
674.396180 104.000000
675.371520 19.000000
675.400020 26.000000
676.391780 11.000000
692.305050 6.000000
692.332400 12.000000
692.355100 20.000000
692.403870 584.000000
693.336060 10.000000
693.406980 291.000000
694.414060 75.000000
695.418950 12.000000
710.406490 20.000000
710.436520 5.000000

>ms2peaks
456.275480 17.000000
457.275150 5.000000
474.286710 12.000000
558.344420 30.000000
559.353330 12.000000
572.323430 10.000000
590.325200 8.000000
674.387880 14.000000
692.400940 156.000000
693.404300 68.000000
694.391480 11.000000
694.415830 9.000000
710.327510 7.000000
710.410770 1000.000000
710.490300 15.000000

>ms2peaks
710.332460 6.000000
710.412050 1000.000000
710.491760 20.000000

>ms2peaks
154.121800 6.000000
456.274780 18.000000
457.277190 6.000000
474.286620 28.000000
475.285610 9.000000
558.341250 16.000000
558.360530 6.000000
572.325620 9.000000
590.338810 18.000000
674.395260 14.000000
692.402220 296.000000
693.404170 129.000000
694.410220 37.000000
695.416750 6.000000
710.311890 7.000000
710.339540 9.000000
710.413020 1000.000000
710.491390 13.000000

>ms2peaks
98.097660 12.000000
112.112950 14.000000
138.126560 8.000000
140.103900 5.000000
154.123640 35.000000
190.161300 6.000000
192.137850 6.000000
260.162200 12.000000
316.189540 6.000000
376.251340 13.000000
392.240170 5.000000
392.263700 16.000000
394.284610 7.000000
396.258060 8.000000
403.244480 6.000000
405.244230 6.000000
406.264710 19.000000
407.254850 6.000000
410.270320 16.000000
411.274380 6.000000
420.257020 49.000000
421.255520 13.000000
422.269200 5.000000
434.249760 13.000000
438.250980 21.000000
438.268890 84.000000
439.267880 28.000000
439.287290 6.000000
440.285770 8.000000
456.277500 263.000000
457.280300 86.000000
458.283050 23.000000
474.289400 18.000000
475.296690 7.000000
490.320190 7.000000
524.333440 10.000000
536.296260 6.000000
536.312620 8.000000
540.323970 34.000000
540.346190 21.000000
541.327820 6.000000
541.348270 14.000000
542.354060 24.000000
554.308230 19.000000
554.327390 15.000000
555.304140 11.000000
555.332400 7.000000
558.249210 7.000000
558.294430 28.000000
558.345400 1000.000000
558.420290 6.000000
559.299800 10.000000
559.349430 402.000000
560.355530 117.000000
561.359800 18.000000
572.323970 100.000000
573.320500 21.000000
573.343320 16.000000
574.329830 7.000000
574.353210 6.000000
576.356450 156.000000
577.359250 58.000000
578.364200 13.000000
590.337520 25.000000
591.353210 6.000000
656.358700 7.000000
656.388670 9.000000
674.340760 5.000000
674.397220 96.000000
675.395940 41.000000
676.401550 9.000000
692.316960 7.000000
692.344300 17.000000
692.402100 574.000000
693.318050 5.000000
693.357300 13.000000
693.406560 251.000000
694.410580 65.000000
695.412660 17.000000
710.415470 131.000000

>ms2peaks
456.277920 15.000000
474.287930 10.000000
558.345950 34.000000
559.348940 10.000000
572.317930 8.000000
590.340210 9.000000
674.390200 9.000000
692.403500 138.000000
693.405210 61.000000
694.411070 17.000000
695.408570 5.000000
710.329960 9.000000
710.411560 1000.000000
710.491880 14.000000

>ms2peaks
710.330260 6.000000
710.413760 1000.000000
710.493290 19.000000

>ms2peaks
154.121960 7.000000
456.266850 16.000000
456.286160 6.000000
474.276090 10.000000
474.295070 12.000000
558.320920 6.000000
558.343570 17.000000
590.335450 21.000000
591.338750 6.000000
674.386960 16.000000
692.397770 281.000000
693.402160 121.000000
694.395870 24.000000
694.427370 13.000000
695.405940 5.000000
710.314700 12.000000
710.409300 1000.000000
710.480220 8.000000
710.503600 7.000000

>ms2peaks
98.097730 10.000000
112.110470 7.000000
124.109980 8.000000
138.130430 8.000000
139.136000 5.000000
154.124600 36.000000
164.148280 8.000000
176.148650 5.000000
260.162290 12.000000
364.206150 5.000000
376.241460 12.000000
388.246950 5.000000
392.268220 7.000000
393.265110 6.000000
396.262820 9.000000
402.243440 7.000000
404.233060 5.000000
405.250370 5.000000
406.254210 9.000000
410.252780 9.000000
410.278590 14.000000
411.264370 6.000000
420.241910 15.000000
420.256160 42.000000
421.266690 13.000000
434.254790 8.000000
438.261690 90.000000
439.250790 9.000000
439.272250 17.000000
440.269320 6.000000
456.226870 7.000000
456.273800 266.000000
457.277280 53.000000
457.295530 17.000000
458.263340 5.000000
458.280330 13.000000
474.288180 19.000000
514.329470 6.000000
524.332400 10.000000
536.307980 8.000000
540.328980 49.000000
541.332210 17.000000
542.330570 14.000000
542.351750 22.000000
543.358090 8.000000
554.293520 18.000000
554.323610 18.000000
555.301820 13.000000
558.255250 10.000000
558.281130 26.000000
558.342160 1000.000000
558.407900 7.000000
559.276790 9.000000
559.346860 368.000000
559.417050 5.000000
560.352780 110.000000
561.351070 12.000000
561.376280 11.000000
572.317930 100.000000
573.325990 32.000000
574.331670 8.000000
576.302800 7.000000
576.352050 144.000000
577.302310 6.000000
577.351320 40.000000
577.373660 20.000000
578.348330 6.000000
578.374020 6.000000
590.300600 5.000000
590.331480 20.000000
591.341060 5.000000
656.373720 10.000000
674.391780 101.000000
675.387390 42.000000
675.421140 14.000000
676.395870 10.000000
692.321900 15.000000
692.401490 570.000000
692.458800 6.000000
693.329220 9.000000
693.403930 264.000000
694.409420 75.000000
695.408330 13.000000
710.408020 19.000000

>ms2peaks
89.060990 23.000000
98.752240 19.000000
105.032570 23.000000
112.111790 25.000000
126.088450 22.000000
136.111400 21.000000
154.111190 35.000000
154.126240 313.000000
155.127980 60.000000
172.130230 22.000000
202.120300 26.000000
207.102660 30.000000
210.154820 48.000000
211.847600 18.000000
218.886050 29.000000
227.125020 24.000000
231.791340 17.000000
240.133180 23.000000
245.769060 23.000000
260.172450 41.000000
264.156620 25.000000
265.856630 21.000000
267.119600 20.000000
273.568700 24.000000
279.137940 68.000000
279.151790 18.000000
281.140050 28.000000
290.388340 24.000000
291.139250 18.000000
294.971560 18.000000
297.144620 40.000000
310.883820 20.000000
311.705080 71.000000
315.173550 23.000000
318.310060 18.000000
323.170840 20.000000
327.796840 18.000000
330.201690 18.000000
331.674410 20.000000
332.222960 26.000000
334.201080 21.000000
334.219330 32.000000
344.377260 17.000000
349.171630 18.000000
351.574890 18.000000
352.901790 22.000000
360.506380 25.000000
365.174100 24.000000
368.499480 32.000000
374.870420 17.000000
375.986970 25.000000
376.227480 18.000000
378.155790 33.000000
378.228700 18.000000
379.352110 20.000000
380.996460 17.000000
383.139370 18.000000
384.542510 21.000000
385.459010 17.000000
385.739140 18.000000
386.981570 27.000000
387.496150 28.000000
389.496030 27.000000
389.661100 40.000000
390.230190 40.000000
391.354610 21.000000
391.984950 18.000000
392.245360 20.000000
393.271700 20.000000
393.535370 28.000000
393.609950 18.000000
394.255250 22.000000
395.303250 17.000000
396.430150 44.000000
397.209720 21.000000
398.237880 20.000000
400.114290 17.000000
402.376890 19.000000
403.754150 27.000000
404.242490 17.000000
405.251070 17.000000
406.263150 20.000000
406.540310 18.000000
407.267970 19.000000
407.837830 17.000000
408.235720 17.000000
408.248570 66.000000
410.777070 17.000000
410.841740 20.000000
411.286590 21.000000
411.353940 27.000000
411.881070 19.000000
412.271670 22.000000
412.470730 22.000000
415.247190 34.000000
415.888090 24.000000
417.084530 25.000000
417.192720 33.000000
417.706050 18.000000
418.296230 23.000000
418.927250 24.000000
419.288300 18.000000
420.194850 23.000000
420.235810 57.000000
420.258030 17.000000
422.238070 24.000000
424.180850 36.000000
426.866360 18.000000
428.275390 21.000000
429.260500 21.000000
430.270970 17.000000
433.204860 17.000000
433.392490 20.000000
434.090940 23.000000
434.248110 31.000000
434.264680 21.000000
435.669770 17.000000
438.206180 30.000000
438.227720 17.000000
438.259550 330.000000
438.291110 21.000000
439.137450 18.000000
439.226780 28.000000
439.242370 59.000000
439.275150 36.000000
440.290710 22.000000
440.638310 43.000000
446.451690 17.000000
447.901550 17.000000
453.296360 17.000000
456.210940 23.000000
456.234310 96.000000
456.276890 1033.000000
456.300140 179.000000
456.409270 29.000000
456.874790 29.000000
457.267730 114.000000
457.284610 277.000000
458.082400 18.000000
458.134640 25.000000
458.271390 76.000000
458.293150 20.000000
460.698670 18.000000
461.844570 19.000000
462.482060 22.000000
466.475340 28.000000
468.314640 22.000000
471.228520 21.000000
471.494050 19.000000
474.209720 18.000000
474.282960 769.000000
474.332860 19.000000
474.511080 22.000000
475.153260 17.000000
475.277680 152.000000
475.294100 244.000000
475.595580 33.000000
476.285310 18.000000
476.304960 25.000000
477.308960 21.000000
480.281770 37.000000
480.767430 17.000000
482.851230 26.000000
483.907380 18.000000
486.522980 34.000000
488.625180 21.000000
488.643100 33.000000
490.318270 75.000000
491.670410 25.000000
492.249020 18.000000
492.264830 24.000000
492.648990 25.000000
492.928310 24.000000
497.105260 19.000000
498.265590 18.000000
498.374330 21.000000
499.794830 23.000000
502.714230 22.000000
504.274140 21.000000
506.266940 17.000000
510.294250 19.000000
514.017270 17.000000
516.330320 21.000000
521.181880 26.000000
523.325810 32.000000
524.330260 19.000000
524.348690 32.000000
526.342530 17.000000
527.194090 18.000000
528.305850 23.000000
528.347410 18.000000
530.327390 29.000000
531.058170 21.000000
533.955690 28.000000
535.191960 21.000000
535.612370 36.000000
536.290340 50.000000
536.308470 29.000000
540.300420 31.000000
540.350400 36.000000
540.416810 35.000000
541.337400 46.000000
542.321900 28.000000
542.343200 63.000000
543.323730 28.000000
543.622440 24.000000
545.302730 20.000000
546.411070 20.000000
547.150880 24.000000
548.670960 43.000000
552.272770 18.000000
553.316350 27.000000
554.294430 91.000000
554.316650 257.000000
554.355770 44.000000
555.326420 64.000000
555.349240 40.000000
556.304080 17.000000
557.670900 21.000000
557.917180 19.000000
558.223940 25.000000
558.261960 50.000000
558.286010 68.000000
558.339780 2952.000000
558.407650 49.000000
559.160220 27.000000
559.249630 47.000000
559.276060 17.000000
559.318910 124.000000
559.346920 763.000000
559.376340 86.000000
559.402470 20.000000
559.633120 18.000000
559.681760 18.000000
559.774720 35.000000
559.798770 17.000000
560.249270 23.000000
560.340210 132.000000
560.365480 75.000000
560.387270 28.000000
561.315860 27.000000
561.352170 55.000000
561.372560 34.000000
561.984620 24.000000
562.372680 20.000000
570.813350 17.000000
572.276060 23.000000
572.310240 267.000000
572.329650 661.000000
572.372440 21.000000
572.405700 28.000000
573.035520 20.000000
573.182010 17.000000
573.260070 20.000000
573.299500 17.000000
573.330440 257.000000
573.716130 17.000000
574.332210 21.000000
575.505920 20.000000
575.871890 24.000000
576.308900 45.000000
576.341000 158.000000
576.366760 100.000000
576.395260 33.000000
577.112730 19.000000
577.311770 20.000000
577.349550 210.000000
577.380740 60.000000
577.402890 17.000000
578.342410 17.000000
578.356510 45.000000
578.384520 20.000000
578.490050 20.000000
578.957210 20.000000
579.346740 17.000000
580.379880 21.000000
581.933720 21.000000
582.068600 23.000000
582.285710 17.000000
585.268190 26.000000
588.398800 18.000000
590.272400 17.000000
590.335080 697.000000
591.296510 25.000000
591.335270 188.000000
592.347290 17.000000
592.378360 18.000000
593.184390 17.000000
593.343750 25.000000
595.368590 20.000000
596.434200 36.000000
600.319890 20.000000
604.732420 19.000000
608.330570 22.000000
608.352230 27.000000
608.391240 20.000000
609.337460 24.000000
609.358890 18.000000
609.509160 20.000000
612.069700 18.000000
612.465760 19.000000
617.063420 21.000000
622.973820 18.000000
625.908080 22.000000
626.737240 21.000000
626.860290 17.000000
627.110170 23.000000
628.377690 17.000000
628.953860 18.000000
629.713930 22.000000
630.348820 19.000000
630.812320 18.000000
631.354490 21.000000
633.682250 19.000000
636.918400 48.000000
638.326540 17.000000
639.356140 25.000000
640.397890 18.000000
642.787110 55.000000
644.701050 20.000000
648.373170 29.000000
650.786560 29.000000
651.666440 27.000000
652.903500 18.000000
653.391360 17.000000
654.035400 20.000000
654.132810 26.000000
654.633060 21.000000
656.080750 38.000000
656.367980 148.000000
656.387080 65.000000
656.412410 20.000000
657.414550 17.000000
658.338260 20.000000
658.380250 20.000000
661.423710 17.000000
664.541200 18.000000
668.557800 17.000000
670.508850 20.000000
673.944030 21.000000
674.289370 17.000000
674.317440 42.000000
674.383910 447.000000
674.409910 411.000000
674.539120 17.000000
675.325930 19.000000
675.399290 413.000000
675.469420 38.000000
676.386960 38.000000
676.417480 22.000000
677.998410 20.000000
679.268190 18.000000
679.950930 18.000000
680.717900 35.000000
691.403380 18.000000
691.609620 24.000000
691.987730 18.000000
692.197810 37.000000
692.245730 18.000000
692.277100 60.000000
692.304690 72.000000
692.337520 147.000000
692.401250 13357.000000
692.482360 73.000000
692.544920 18.000000
692.594540 20.000000
692.631840 25.000000
693.122380 20.000000
693.246280 19.000000
693.284850 84.000000
693.311280 73.000000
693.338810 90.000000
693.406010 5407.000000
693.453370 108.000000
694.161190 18.000000
694.205630 19.000000
694.281430 44.000000
694.324220 17.000000
694.411500 1640.000000
694.831120 17.000000
695.226140 21.000000
695.393620 217.000000
695.419860 104.000000
696.072270 38.000000
696.254270 18.000000
696.410460 75.000000
696.446350 27.000000
696.557070 18.000000
696.779660 17.000000
696.913390 18.000000
697.076780 17.000000
697.108580 33.000000
697.730650 17.000000
699.560550 25.000000
700.159420 24.000000
700.300350 17.000000
701.660580 34.000000
702.826050 17.000000
703.078550 24.000000
703.500000 18.000000
703.706790 18.000000
704.036250 17.000000
704.325740 18.000000
706.330020 30.000000
706.782350 18.000000
707.052800 19.000000
707.079960 17.000000
707.199710 23.000000
707.651430 17.000000
708.128970 37.000000
708.378110 50.000000
708.845580 36.000000
709.192750 23.000000
709.388180 24.000000
709.407650 35.000000
709.498660 23.000000
709.571230 34.000000
710.000550 22.000000
710.035340 50.000000
710.070310 21.000000
710.179380 17.000000
710.205440 58.000000
710.246700 161.000000
710.295100 396.000000
710.333190 568.000000
710.412540 78818.000000
710.491940 994.000000
710.565730 72.000000

