>compound PR63226425
>parentmass 529.182
>ionization [M+H]+
>formula C26H28N2O10
>rt 221.400000
>profile qtof
#smiles_iso C=CC1C(C(=COC1OC2C(C(C(C(O2)CO)O)O)O)C(=O)O)CC3=NC=CC4=C3NC5=C4C=C(C=C5)O
#smiles_can C=CC1C(C(=COC1OC2C(C(C(C(O2)CO)O)O)O)C(=O)O)CC3=NC=CC4=C3NC5=C4C=C(C=C5)O
#inchikey SDJXJLVNEMUOTE-UHFFFAOYSA-N
#pubchem_id 139292061
#mb_accession PR311102

>ms2peaks
124.039750 433.000000
125.043840 36.000000
130.061340 16.000000
130.068480 20.000000
142.931560 33.000000
145.055420 16.000000
146.052920 16.000000
148.071790 153.000000
148.078810 86.000000
149.081710 34.000000
158.055890 16.000000
160.054470 20.000000
171.098210 18.000000
175.084490 18.000000
176.066540 36.000000
176.075500 34.000000
176.968460 16.000000
194.074140 44.000000
194.088640 16.000000
206.089740 18.000000
209.082780 16.000000
214.057170 18.000000
243.090180 21.000000
271.097050 32.000000
271.108370 100.000000
271.120450 34.000000
272.110780 66.000000
279.087800 35.000000
289.748720 20.000000
295.130370 16.000000
299.099210 60.000000
300.094090 16.000000
300.117800 30.000000
301.104130 18.000000
309.116460 20.000000
321.086180 16.000000
322.122100 21.000000
325.128170 19.000000
334.118900 27.000000
341.122990 16.000000
341.151670 24.000000
343.174650 16.000000
351.127290 16.000000
351.142700 18.000000
368.833650 17.000000
369.145510 1225.000000
369.174380 43.000000
369.191310 16.000000
370.125120 34.000000
370.147580 389.000000
371.143770 16.000000
371.161800 26.000000

