>compound PR63882322
>parentmass 344.1492
>ionization [M+H]+
>formula C19H21NO5
>rt 317.400000
>profile qtof
#smiles_iso COC1=C(C=C(C=C1)CCNC(=O)C=CC2=CC(=C(C=C2)O)OC)O
#smiles_can COC1=C(C=C(C=C1)CCNC(=O)C=CC2=CC(=C(C=C2)O)OC)O
#inchikey ACSWAJLDOHJFNA-UHFFFAOYSA-N
#pubchem_id 67111365
#mb_accession PR311023

>ms2
117.040600 28.000000
145.019670 41.000000
145.026340 169.000000
146.031220 50.000000
149.074250 17.000000
150.065320 17.000000
151.078610 25.000000
159.044310 21.000000
168.104030 22.000000
177.033430 41.000000
177.055210 828.000000
178.047470 19.000000
178.064100 17.000000
178.072160 17.000000
183.090420 17.000000
190.659500 17.000000
302.821200 39.000000
343.189510 19.000000
344.137790 43.000000
344.154970 80.000000

