>compound PR63911191
>parentmass 353.1859691
>ionization [M+H]+
>formula C21H24N2O3
>rt 255.340020
>profile qtof
#smiles_iso CC[C@]12C[C@](N3C4=CC=CC=C4C5=C3[C@H]1N(CC5)CC=C2)(C(=O)OC)O
#smiles_can CCC12CC(N3C4=CC=CC=C4C5=C3C1N(CC5)CC=C2)(C(=O)OC)O
#inchikey BQGJXFQCMYJENQ-HLAWJBBLSA-N
#pubchem_id 182094
#mb_accession PR300298,PR300300,PR300302,PR300304,PR300306,PR300308,PR300310,PR300312,PR300314,PR300316,PR300318,PR300320

>ms2peaks
130.067180 5.000000
144.080520 194.000000
145.083800 24.000000
150.089290 7.000000
167.075290 5.000000
168.082120 21.000000
171.091320 31.000000
180.079470 6.000000
181.088700 6.000000
182.100340 5.000000
193.089370 7.000000
194.099110 5.000000
208.104140 8.000000
208.115710 8.000000
210.098080 5.000000
210.114110 8.000000
222.123960 11.000000
222.133040 10.000000
223.129880 6.000000
228.102840 9.000000
246.127750 9.000000
247.135150 12.000000
252.099200 10.000000
252.112790 7.000000
264.133150 6.000000
264.143490 7.000000
268.133580 11.000000
270.108030 10.000000
270.120030 8.000000
277.108520 14.000000
280.131990 7.000000
293.168730 18.000000
298.145230 9.000000
306.148410 42.000000
324.146820 6.000000
324.158110 7.000000
335.175690 49.000000
336.181640 9.000000
353.129120 6.000000
353.187530 1000.000000
353.242490 27.000000

>ms2peaks
144.081790 7.000000
335.176210 7.000000
353.134770 7.000000
353.186400 1000.000000
353.241330 31.000000

>ms2peaks
68.048040 7.000000
69.070620 7.000000
70.065000 8.000000
70.069790 6.000000
79.052510 9.000000
83.048390 6.000000
93.068970 14.000000
94.066310 19.000000
96.081200 35.000000
105.070320 5.000000
108.081310 13.000000
118.065830 7.000000
120.076410 15.000000
121.071710 7.000000
121.083190 8.000000
122.096570 8.000000
129.072010 7.000000
130.065670 26.000000
131.072010 9.000000
132.083300 5.000000
133.065960 12.000000
142.073840 6.000000
144.041870 6.000000
144.080430 1000.000000
144.113630 5.000000
145.073870 16.000000
145.084440 99.000000
146.087940 10.000000
146.099460 7.000000
148.074070 37.000000
150.092850 38.000000
154.062770 15.000000
154.071030 7.000000
156.071410 6.000000
156.085210 7.000000
157.082350 6.000000
158.096730 31.000000
162.093750 12.000000
166.065550 7.000000
167.070100 18.000000
168.080280 87.000000
169.081050 28.000000
170.079770 5.000000
170.093200 16.000000
170.104450 6.000000
171.070190 5.000000
171.092040 191.000000
172.075610 12.000000
172.091110 26.000000
173.097980 5.000000
180.082810 31.000000
180.099210 5.000000
181.088270 37.000000
182.082950 10.000000
182.098010 28.000000
183.094830 10.000000
184.107640 10.000000
192.080930 8.000000
193.090730 28.000000
194.055310 6.000000
194.098710 19.000000
195.108900 9.000000
196.068920 5.000000
196.105870 14.000000
196.114700 21.000000
197.110780 11.000000
197.121830 7.000000
198.128940 13.000000
205.088560 9.000000
206.096630 12.000000
207.090730 6.000000
207.098800 11.000000
208.079410 13.000000
208.103330 28.000000
208.113510 64.000000
209.101230 6.000000
209.117370 16.000000
210.093890 97.000000
210.126040 30.000000
211.090900 11.000000
211.103840 14.000000
211.128860 7.000000
217.088120 9.000000
218.094070 6.000000
218.103900 8.000000
219.104260 18.000000
220.101550 11.000000
220.114040 5.000000
221.105130 6.000000
221.120850 19.000000
222.122310 40.000000
222.131850 61.000000
223.118000 23.000000
223.129590 21.000000
223.138670 13.000000
224.105620 6.000000
224.130050 15.000000
228.099620 48.000000
228.110750 20.000000
229.097980 9.000000
231.102100 9.000000
232.101500 8.000000
232.115360 23.000000
233.118130 10.000000
234.131730 11.000000
235.100690 11.000000
235.137210 10.000000
236.094480 7.000000
236.106340 12.000000
236.134480 10.000000
237.098740 6.000000
237.111980 8.000000
237.135030 7.000000
237.149510 6.000000
238.116240 17.000000
238.125600 18.000000
239.098590 19.000000
239.122410 6.000000
240.096390 17.000000
244.108140 10.000000
244.120320 11.000000
245.119980 8.000000
246.117520 15.000000
246.127960 57.000000
247.093890 5.000000
247.130050 44.000000
247.139920 47.000000
248.113860 12.000000
248.141940 31.000000
249.138870 15.000000
251.144150 7.000000
251.158050 27.000000
252.102370 140.000000
253.108760 31.000000
254.118710 11.000000
261.135530 6.000000
262.089390 6.000000
262.124570 5.000000
263.091220 9.000000
263.115940 10.000000
263.132690 5.000000
264.122470 13.000000
264.136320 35.000000
264.146670 15.000000
265.127040 7.000000
265.141850 16.000000
268.134430 59.000000
270.112610 58.000000
271.120180 12.000000
274.111020 7.000000
274.126070 20.000000
275.133670 5.000000
275.149050 6.000000
275.160310 14.000000
276.105680 10.000000
276.164670 18.000000
277.097140 9.000000
277.112610 42.000000
278.110900 15.000000
279.122620 8.000000
280.123500 8.000000
280.134890 20.000000
290.109280 10.000000
290.122560 9.000000
291.107880 13.000000
291.129210 14.000000
292.118650 5.000000
292.129180 6.000000
292.141450 9.000000
293.164890 74.000000
294.157650 17.000000
294.173950 12.000000
295.122830 5.000000
296.134520 6.000000
298.139130 13.000000
298.152070 13.000000
299.146760 7.000000
303.152100 7.000000
304.130430 10.000000
305.122590 21.000000
305.136020 17.000000
306.145660 136.000000
306.160640 26.000000
307.153020 21.000000
308.158630 11.000000
323.139560 14.000000
324.134670 7.000000
324.165040 28.000000
325.161830 6.000000
335.169590 45.000000
335.182430 40.000000
336.174100 18.000000
336.190030 11.000000
353.187470 133.000000

>ms2peaks
65.044050 5.000000
67.056200 23.000000
68.051580 9.000000
69.067310 6.000000
70.065730 10.000000
77.029710 6.000000
77.041490 37.000000
79.054380 23.000000
80.048760 54.000000
81.047390 5.000000
83.048130 6.000000
90.488850 5.000000
91.051540 50.000000
92.046630 9.000000
92.057770 9.000000
93.054510 20.000000
93.067090 44.000000
93.071960 30.000000
94.058430 15.000000
94.066900 33.000000
95.088790 7.000000
96.079230 10.000000
103.049170 27.000000
103.055310 28.000000
103.062350 10.000000
105.032950 7.000000
105.059840 7.000000
105.071000 17.000000
107.072480 5.000000
107.079150 10.000000
108.082990 26.000000
109.057840 9.000000
115.043350 9.000000
115.055560 56.000000
116.050820 11.000000
117.049380 8.000000
117.060700 60.000000
117.069890 27.000000
117.078040 6.000000
118.058850 6.000000
118.068690 43.000000
119.049600 8.000000
119.073030 13.000000
120.080010 19.000000
120.086510 10.000000
120.285850 7.000000
121.052360 8.000000
121.064500 26.000000
121.087230 8.000000
122.085100 7.000000
122.093450 21.000000
123.100220 10.000000
127.048190 54.000000
127.056570 30.000000
128.041670 19.000000
128.051710 41.000000
128.060060 14.000000
129.057330 11.000000
129.068340 56.000000
129.987290 6.000000
130.056790 20.000000
130.065930 128.000000
131.064650 20.000000
131.072190 28.000000
132.067180 7.000000
132.077880 8.000000
132.085070 6.000000
132.958690 6.000000
133.056170 14.000000
133.064620 6.000000
134.098910 6.000000
141.933010 6.000000
142.063510 10.000000
142.071090 22.000000
143.046920 12.000000
143.073230 195.000000
144.080020 1000.000000
145.084590 173.000000
146.029420 6.000000
146.060590 10.000000
146.088440 6.000000
148.116040 6.000000
150.095550 24.000000
152.057970 25.000000
152.069060 10.000000
152.326610 5.000000
153.049180 6.000000
153.060650 15.000000
153.071460 10.000000
154.017360 6.000000
154.037920 7.000000
154.065260 219.000000
155.067760 34.000000
155.075410 46.000000
156.067260 16.000000
156.077450 7.000000
156.084750 6.000000
157.089950 19.000000
157.095790 16.000000
158.091250 6.000000
160.076190 7.000000
162.099910 5.000000
165.052960 7.000000
165.071560 20.000000
166.064390 30.000000
167.073290 376.000000
168.036320 5.000000
168.056580 11.000000
168.080150 354.000000
168.157970 5.000000
169.076170 28.000000
169.085940 24.000000
169.341060 7.000000
170.050200 6.000000
170.063830 8.000000
170.088760 26.000000
170.098790 30.000000
171.084150 41.000000
171.093870 68.000000
171.942350 6.000000
172.097670 7.000000
176.061610 6.000000
176.072020 6.000000
178.048480 5.000000
178.068210 31.000000
178.077220 7.000000
179.069200 21.000000
179.082260 13.000000
180.039660 5.000000
180.051790 6.000000
180.062620 26.000000
180.081760 246.000000
180.171750 6.000000
181.069500 9.000000
181.086560 165.000000
182.080960 13.000000
182.095310 182.000000
183.062330 9.000000
183.100880 18.000000
184.097730 14.000000
190.065440 13.000000
191.064820 18.000000
191.077070 85.000000
191.091660 12.000000
192.080060 167.000000
192.088840 47.000000
192.123600 5.000000
193.077090 53.000000
193.088500 246.000000
194.095060 212.000000
195.065350 9.000000
195.095670 23.000000
195.104860 10.000000
196.060700 6.000000
196.074260 13.000000
196.081510 14.000000
196.103240 14.000000
196.115110 17.000000
197.081330 7.000000
198.082950 10.000000
198.132250 5.000000
201.078810 9.000000
202.066210 6.000000
202.082440 9.000000
203.079620 18.000000
204.065440 27.000000
204.080470 117.000000
205.068620 8.000000
205.084400 58.000000
205.095120 37.000000
206.094450 255.000000
207.079190 10.000000
207.091740 74.000000
207.102170 137.000000
208.077180 37.000000
208.089230 14.000000
208.109380 200.000000
209.085950 26.000000
209.115980 48.000000
210.091370 50.000000
210.117190 5.000000
210.127990 12.000000
215.086200 5.000000
215.344680 7.000000
215.574250 6.000000
216.081910 51.000000
217.087200 281.000000
218.096210 184.000000
219.064180 7.000000
219.087360 23.000000
219.103500 91.000000
220.076000 51.000000
220.090130 13.000000
220.107390 62.000000
220.119780 21.000000
221.081040 20.000000
221.104810 49.000000
221.116260 27.000000
221.129390 9.000000
221.174290 6.000000
222.073030 6.000000
222.089200 16.000000
222.123750 27.000000
222.145290 5.000000
223.093280 7.000000
223.123260 6.000000
224.107220 6.000000
229.086850 8.000000
229.096390 11.000000
229.426090 6.000000
230.086980 29.000000
230.100220 51.000000
231.080730 10.000000
231.100570 128.000000
232.076600 24.000000
232.092330 21.000000
232.106980 50.000000
232.123760 12.000000
233.086320 11.000000
233.104200 14.000000
233.116520 15.000000
234.062320 5.000000
234.091610 96.000000
234.109450 9.000000
234.123610 17.000000
234.138170 13.000000
235.078930 11.000000
235.089310 9.000000
235.098390 11.000000
235.108440 5.000000
235.132540 10.000000
236.049530 7.000000
236.100770 41.000000
236.144180 22.000000
237.097180 8.000000
237.114750 6.000000
237.139080 16.000000
238.081130 45.000000
238.094940 12.000000
238.127150 12.000000
238.138260 6.000000
239.099030 8.000000
241.090160 10.000000
242.076230 5.000000
242.087160 6.000000
242.102800 9.000000
243.098790 11.000000
244.097460 8.000000
244.111220 6.000000
245.104970 33.000000
245.117190 30.000000
245.125530 9.000000
246.112730 34.000000
246.125400 41.000000
246.139530 6.000000
246.340070 9.000000
247.100490 13.000000
247.124110 30.000000
247.136370 34.000000
248.095660 11.000000
248.135390 17.000000
249.112520 8.000000
250.091000 5.000000
250.103820 11.000000
250.999760 5.000000
251.092060 51.000000
251.108080 13.000000
251.119810 6.000000
252.087460 9.000000
252.102840 48.000000
252.116910 14.000000
253.059310 5.000000
253.092190 5.000000
253.111690 13.000000
254.112660 8.000000
255.087910 5.000000
259.125270 8.000000
259.140690 5.000000
260.111570 7.000000
260.139130 7.000000
261.103490 6.000000
261.116730 13.000000
261.130280 6.000000
262.081360 8.000000
262.092320 11.000000
262.105500 9.000000
263.122590 51.000000
264.101230 10.000000
264.119050 18.000000
264.134060 11.000000
264.146550 6.000000
265.091800 5.000000
265.101650 7.000000
266.100740 6.000000
266.120570 6.000000
275.090580 17.000000
276.076080 9.000000
276.103880 147.000000
277.107790 50.000000
287.072630 7.000000
287.125270 6.000000
288.109010 5.000000
289.102450 22.000000
290.109220 37.000000
290.129330 11.000000
291.125640 8.000000
305.132540 16.000000
306.150390 10.000000

>ms2peaks
144.080380 208.000000
145.084640 22.000000
148.076140 5.000000
150.090650 6.000000
168.080110 24.000000
171.091060 31.000000
182.097350 8.000000
193.087540 6.000000
194.094010 8.000000
207.101910 7.000000
208.097000 8.000000
208.107240 6.000000
210.086360 10.000000
210.099880 8.000000
222.126270 17.000000
228.101460 10.000000
232.108180 6.000000
246.128390 9.000000
247.132720 18.000000
251.155750 9.000000
252.099960 18.000000
252.111880 6.000000
264.135530 8.000000
268.133450 18.000000
270.106230 6.000000
270.114070 11.000000
274.123260 6.000000
277.104800 5.000000
280.125240 8.000000
293.166600 23.000000
298.140440 8.000000
305.131650 7.000000
306.140930 18.000000
306.152590 23.000000
307.145660 8.000000
324.160830 17.000000
335.176270 47.000000
336.178340 13.000000
353.186550 1000.000000
353.240600 26.000000

>ms2peaks
335.173860 9.000000
353.128140 7.000000
353.185270 1000.000000
353.239350 32.000000

>ms2peaks
69.074200 8.000000
70.064960 7.000000
79.054760 17.000000
80.051150 12.000000
93.069550 13.000000
94.064870 25.000000
96.080560 29.000000
107.087560 5.000000
108.076330 15.000000
108.083650 6.000000
109.085320 5.000000
118.064290 10.000000
120.078740 11.000000
121.063770 13.000000
122.096670 6.000000
130.066010 29.000000
131.071550 6.000000
132.083660 12.000000
133.063630 8.000000
134.094530 7.000000
136.078920 9.000000
138.054750 6.000000
142.065290 8.000000
143.074860 5.000000
144.041610 5.000000
144.050430 10.000000
144.080570 1000.000000
144.115970 7.000000
145.083950 127.000000
146.090100 9.000000
146.100980 11.000000
148.073900 27.000000
148.082820 5.000000
150.090470 44.000000
154.062180 11.000000
154.067900 20.000000
155.071730 9.000000
156.082340 22.000000
157.087110 6.000000
158.095520 29.000000
159.096160 7.000000
160.074040 10.000000
162.098860 6.000000
166.069020 5.000000
167.069080 9.000000
167.083470 7.000000
168.081160 118.000000
169.073300 6.000000
169.085530 23.000000
170.088380 14.000000
171.091750 187.000000
172.068530 6.000000
172.079270 9.000000
172.088730 13.000000
172.099730 5.000000
180.079300 30.000000
180.086880 10.000000
181.069030 7.000000
181.086530 21.000000
181.099210 7.000000
182.098570 44.000000
183.087420 7.000000
183.094150 7.000000
184.100340 5.000000
184.110500 9.000000
192.075000 5.000000
193.082720 9.000000
193.090150 10.000000
194.059660 6.000000
194.090520 16.000000
194.101210 7.000000
196.100800 6.000000
196.114120 24.000000
197.108340 11.000000
197.118120 16.000000
198.128460 5.000000
200.093090 5.000000
204.093120 8.000000
205.084350 6.000000
206.092000 6.000000
207.104540 17.000000
208.077320 6.000000
208.099690 24.000000
208.112720 46.000000
209.109860 9.000000
209.119320 22.000000
210.057890 6.000000
210.092190 92.000000
210.114690 39.000000
210.131470 11.000000
211.086520 9.000000
211.097930 13.000000
211.129680 9.000000
217.082640 8.000000
217.094560 11.000000
218.093510 18.000000
218.101820 11.000000
219.105270 17.000000
220.112120 16.000000
220.122740 8.000000
221.117630 24.000000
222.089540 6.000000
222.113010 24.000000
222.129060 92.000000
223.126720 62.000000
223.140490 8.000000
224.125790 7.000000
226.124150 6.000000
228.099990 44.000000
228.109500 23.000000
229.107990 11.000000
231.105560 13.000000
232.110120 12.000000
234.124370 17.000000
234.136080 5.000000
236.107590 12.000000
236.116840 10.000000
236.141770 24.000000
237.137560 13.000000
238.096850 6.000000
238.121920 36.000000
239.081850 5.000000
239.096480 21.000000
239.127380 7.000000
240.100680 13.000000
244.108430 17.000000
245.112690 8.000000
246.108150 5.000000
246.125460 75.000000
247.113820 7.000000
247.131530 79.000000
248.123110 8.000000
248.138440 24.000000
248.152010 8.000000
250.124500 11.000000
250.140350 7.000000
251.152300 40.000000
252.102620 152.000000
252.158770 10.000000
253.103870 36.000000
253.167630 5.000000
254.114040 13.000000
259.146700 6.000000
261.141360 8.000000
262.086300 10.000000
262.124540 14.000000
263.109920 7.000000
263.125310 16.000000
264.118990 8.000000
264.140200 62.000000
265.146420 13.000000
266.127440 9.000000
267.120790 7.000000
268.131590 48.000000
269.130650 9.000000
270.114810 75.000000
271.112520 11.000000
274.116000 9.000000
274.125240 27.000000
275.146790 10.000000
275.159790 18.000000
276.104770 23.000000
276.150730 20.000000
276.165560 12.000000
277.109220 53.000000
277.129850 6.000000
277.150420 10.000000
278.117030 10.000000
280.130770 31.000000
289.108220 7.000000
290.119450 11.000000
291.114290 7.000000
291.143490 8.000000
292.129790 13.000000
292.149750 6.000000
293.122710 6.000000
293.137450 14.000000
293.166500 95.000000
294.142970 6.000000
294.156310 15.000000
294.172330 19.000000
296.163940 7.000000
298.146970 15.000000
303.126680 6.000000
303.151610 7.000000
304.128540 11.000000
305.127870 42.000000
306.131100 30.000000
306.148710 140.000000
307.145810 36.000000
307.161410 11.000000
308.160220 8.000000
323.141020 6.000000
324.149380 9.000000
324.165370 30.000000
325.159730 8.000000
335.177030 60.000000
336.181060 15.000000
337.173920 7.000000
353.185180 108.000000

>ms2peaks
68.049330 11.000000
77.033510 9.000000
77.040030 41.000000
78.041400 6.000000
79.055070 14.000000
80.051580 30.000000
81.052680 11.000000
83.042310 6.000000
83.050020 16.000000
91.043460 6.000000
91.054020 89.000000
93.053800 38.000000
93.069140 44.000000
94.064960 14.000000
96.078050 8.000000
96.083960 10.000000
96.091640 9.000000
101.036800 7.000000
103.047940 18.000000
103.053890 52.000000
104.055620 8.000000
105.070080 30.000000
105.075770 11.000000
106.065480 5.000000
107.045140 8.000000
107.074000 24.000000
107.087270 6.000000
108.079700 22.000000
109.038130 7.000000
109.086520 9.000000
115.049820 17.000000
115.055700 47.000000
116.056530 16.000000
117.059490 38.000000
117.069180 66.000000
117.076920 31.000000
118.056720 13.000000
118.064710 41.000000
118.071070 14.000000
119.072430 12.000000
120.082730 18.000000
120.262480 6.000000
121.065020 29.000000
122.097570 23.000000
127.053790 98.000000
128.042020 22.000000
128.050700 59.000000
128.060680 43.000000
129.053040 20.000000
129.060330 36.000000
129.070330 35.000000
129.652070 5.000000
130.064880 121.000000
130.078490 13.000000
131.062810 7.000000
131.072830 26.000000
131.088990 8.000000
132.044220 6.000000
132.078770 9.000000
139.053920 6.000000
140.065830 6.000000
141.050420 5.000000
141.069150 11.000000
142.059750 14.000000
142.067310 17.000000
143.059100 12.000000
143.072130 162.000000
143.975080 5.000000
144.052670 8.000000
144.080430 1000.000000
145.050310 5.000000
145.085100 107.000000
146.080890 11.000000
148.074870 13.000000
150.086650 12.000000
151.051970 8.000000
152.059140 21.000000
153.049790 5.000000
153.059720 8.000000
153.067840 12.000000
154.064730 163.000000
155.068530 92.000000
155.085570 7.000000
156.070890 26.000000
156.082750 20.000000
157.083010 18.000000
158.096510 14.000000
159.081180 6.000000
162.091510 6.000000
164.702410 7.000000
165.068300 54.000000
166.067320 24.000000
167.073410 495.000000
168.066410 31.000000
168.080640 276.000000
169.075790 45.000000
169.089970 30.000000
170.058040 11.000000
170.080610 24.000000
170.095490 7.000000
171.060470 6.000000
171.078540 14.000000
171.085220 15.000000
171.096710 66.000000
172.096160 15.000000
178.067400 7.000000
178.078830 12.000000
179.075290 17.000000
179.083710 22.000000
179.093320 6.000000
180.055770 7.000000
180.079090 258.000000
181.048490 6.000000
181.087360 147.000000
182.084440 26.000000
182.096980 86.000000
183.080870 6.000000
183.098570 21.000000
184.079360 6.000000
184.099620 15.000000
184.114400 14.000000
189.072330 7.000000
190.072270 12.000000
191.071610 72.000000
192.080460 151.000000
193.068820 7.000000
193.089020 284.000000
193.108320 6.000000
194.062150 22.000000
194.078740 6.000000
194.093890 178.000000
195.064790 9.000000
195.076430 7.000000
195.093460 12.000000
195.100690 11.000000
195.109890 12.000000
196.074220 38.000000
196.105070 19.000000
196.112820 12.000000
197.087520 12.000000
197.105670 5.000000
202.061340 7.000000
202.072910 7.000000
202.083740 9.000000
203.067890 5.000000
204.080990 118.000000
205.084880 37.000000
205.095340 19.000000
206.066360 6.000000
206.086200 34.000000
206.099840 178.000000
207.061920 7.000000
207.094920 90.000000
207.107240 83.000000
208.055650 8.000000
208.077840 27.000000
208.111690 140.000000
208.129000 6.000000
209.086670 11.000000
209.104540 11.000000
209.114460 16.000000
210.089190 27.000000
211.106350 7.000000
215.072810 9.000000
216.072280 24.000000
216.084090 23.000000
217.069240 18.000000
217.089890 246.000000
218.078450 14.000000
218.095610 198.000000
219.070790 15.000000
219.096270 70.000000
219.108600 45.000000
220.056850 9.000000
220.078640 53.000000
220.093140 30.000000
220.105180 38.000000
220.114750 47.000000
221.066020 11.000000
221.090380 6.000000
221.103930 30.000000
221.113720 65.000000
221.126680 16.000000
222.097550 8.000000
222.111800 13.000000
222.129090 33.000000
222.137920 9.000000
223.097900 5.000000
223.117020 20.000000
224.108760 5.000000
224.136860 6.000000
229.086530 9.000000
229.101670 7.000000
230.099290 59.000000
230.108470 17.000000
231.086290 13.000000
231.103960 78.000000
232.078550 6.000000
232.091370 18.000000
232.104320 20.000000
232.114640 57.000000
233.080230 10.000000
233.104510 58.000000
233.130750 18.000000
234.091260 71.000000
234.112430 11.000000
234.121990 16.000000
234.133000 6.000000
235.094240 39.000000
235.119750 15.000000
235.137650 5.000000
236.110170 49.000000
236.143890 10.000000
237.070920 6.000000
237.098420 14.000000
237.143660 7.000000
238.076890 28.000000
238.087770 66.000000
238.112640 5.000000
239.094070 27.000000
240.118010 6.000000
242.098370 11.000000
243.088990 8.000000
243.112720 11.000000
244.077820 5.000000
244.107070 12.000000
244.116790 13.000000
245.084810 6.000000
245.109830 53.000000
245.282460 6.000000
246.077530 5.000000
246.096160 10.000000
246.106750 19.000000
246.121840 34.000000
246.139740 9.000000
247.062480 6.000000
247.092210 9.000000
247.104680 7.000000
247.128830 33.000000
248.070820 11.000000
248.141160 6.000000
249.104230 6.000000
251.100450 40.000000
252.093890 9.000000
252.107590 27.000000
252.120190 7.000000
258.119020 15.000000
258.129940 6.000000
259.127870 11.000000
261.087400 7.000000
261.123320 7.000000
262.079160 11.000000
262.094090 34.000000
262.140960 5.000000
263.087710 8.000000
263.100800 12.000000
263.120060 26.000000
263.127840 9.000000
265.103730 8.000000
266.119230 13.000000
275.092320 43.000000
275.108400 6.000000
276.078800 6.000000
276.098850 50.000000
276.113830 38.000000
277.107480 46.000000
278.127780 11.000000
289.094880 6.000000
290.112180 25.000000
290.122960 35.000000
291.126560 12.000000
305.127840 17.000000
306.131130 8.000000
306.148900 8.000000
353.169560 5.000000
353.189420 33.000000

>ms2peaks
144.080640 206.000000
145.082630 26.000000
150.094360 6.000000
158.094880 6.000000
167.071150 6.000000
168.075620 8.000000
168.081920 19.000000
169.084410 5.000000
171.091140 38.000000
180.076340 5.000000
180.088090 5.000000
181.086110 8.000000
193.089070 7.000000
194.098830 6.000000
197.109220 5.000000
207.099620 6.000000
208.112270 16.000000
210.089260 9.000000
210.100420 6.000000
210.118480 10.000000
222.126460 18.000000
223.123700 8.000000
228.096360 6.000000
228.104460 7.000000
246.124660 8.000000
247.126040 9.000000
247.138960 9.000000
251.159500 7.000000
252.100420 25.000000
264.136290 14.000000
268.128630 8.000000
270.112400 17.000000
275.158810 6.000000
277.109040 9.000000
278.113890 6.000000
293.164370 19.000000
293.174410 8.000000
298.146450 10.000000
305.131470 7.000000
306.147580 43.000000
307.154510 6.000000
324.159880 16.000000
335.173830 46.000000
335.185180 15.000000
336.179570 8.000000
353.186100 1000.000000
353.239870 26.000000

>ms2peaks
144.080340 8.000000
353.185910 1000.000000
353.241120 31.000000

>ms2peaks
70.064120 12.000000
80.050100 14.000000
93.067750 8.000000
94.062560 6.000000
95.086710 6.000000
96.080460 26.000000
105.074270 7.000000
108.077820 5.000000
108.081570 11.000000
114.093040 5.000000
117.070370 7.000000
120.076380 7.000000
121.065600 14.000000
121.087360 8.000000
130.063260 38.000000
132.081010 7.000000
133.066070 6.000000
144.054610 9.000000
144.080470 1000.000000
145.084120 130.000000
146.085970 9.000000
146.095840 12.000000
148.075450 33.000000
150.091860 42.000000
154.062390 11.000000
154.071900 10.000000
155.075740 6.000000
156.074830 7.000000
158.058650 7.000000
158.098300 31.000000
160.076490 9.000000
167.071950 10.000000
168.080460 95.000000
169.080200 20.000000
169.091550 7.000000
170.098280 9.000000
171.092390 201.000000
172.075420 12.000000
172.086090 9.000000
172.097120 31.000000
180.077820 9.000000
180.086730 9.000000
180.104810 5.000000
181.086470 6.000000
181.094120 11.000000
182.096970 38.000000
183.099030 16.000000
183.110280 6.000000
184.102140 8.000000
184.113530 10.000000
185.106000 5.000000
190.087860 6.000000
192.074050 6.000000
192.102950 7.000000
193.086990 23.000000
194.060760 8.000000
194.088750 7.000000
194.096420 16.000000
195.101380 9.000000
196.111220 27.000000
197.107350 9.000000
197.118150 10.000000
202.095720 6.000000
204.088380 7.000000
204.107940 7.000000
206.095690 7.000000
207.103640 20.000000
208.103560 23.000000
208.110840 58.000000
208.125030 6.000000
209.110550 17.000000
209.123440 16.000000
210.089400 78.000000
210.097660 38.000000
210.115840 33.000000
210.131090 19.000000
211.095440 14.000000
211.126600 6.000000
217.089400 14.000000
218.097900 15.000000
219.102550 6.000000
219.114900 5.000000
220.109300 7.000000
221.119020 27.000000
222.088520 6.000000
222.115460 23.000000
222.127400 74.000000
223.124280 39.000000
223.138240 23.000000
224.100970 6.000000
224.126940 6.000000
228.103620 70.000000
229.106630 12.000000
231.108090 7.000000
232.107090 19.000000
232.117540 7.000000
233.112080 11.000000
234.124740 15.000000
235.096050 11.000000
235.125580 6.000000
235.136550 6.000000
236.101670 10.000000
236.118840 6.000000
236.138640 17.000000
237.109830 8.000000
237.156830 9.000000
238.086700 12.000000
238.112240 9.000000
238.121610 21.000000
239.092300 25.000000
239.120610 5.000000
240.094760 7.000000
240.109820 5.000000
244.111630 12.000000
245.118420 6.000000
246.109620 6.000000
246.130430 48.000000
247.116230 13.000000
247.133990 100.000000
248.107240 10.000000
248.132310 26.000000
248.149200 11.000000
249.106550 11.000000
250.111220 6.000000
250.130720 5.000000
251.151870 27.000000
251.165740 7.000000
252.095990 72.000000
252.108610 61.000000
252.141620 6.000000
252.162730 9.000000
253.096910 10.000000
253.111310 10.000000
257.091130 5.000000
259.134980 7.000000
260.138520 6.000000
261.140930 6.000000
262.079410 5.000000
262.119930 8.000000
262.136020 7.000000
263.094730 7.000000
263.122130 9.000000
264.119690 11.000000
264.136690 72.000000
265.126740 10.000000
265.140590 15.000000
266.119840 7.000000
267.115780 5.000000
268.120420 11.000000
268.132930 54.000000
269.137210 13.000000
270.114990 58.000000
271.119020 7.000000
274.120970 30.000000
274.133480 5.000000
275.154570 21.000000
276.093200 9.000000
276.109130 13.000000
276.151760 15.000000
276.170810 11.000000
277.096830 15.000000
277.112090 38.000000
277.138210 7.000000
277.168090 6.000000
278.109100 7.000000
278.126250 11.000000
280.125060 11.000000
280.134220 22.000000
280.144380 14.000000
281.125270 6.000000
290.111270 10.000000
291.119230 18.000000
292.133420 9.000000
292.148220 6.000000
293.116580 6.000000
293.133730 6.000000
293.153380 25.000000
293.168270 56.000000
294.142880 5.000000
294.167540 24.000000
295.120510 10.000000
298.146580 23.000000
299.143430 7.000000
303.136290 10.000000
305.128390 43.000000
306.146420 138.000000
307.152620 38.000000
308.147190 9.000000
318.154110 5.000000
323.125760 9.000000
323.146120 10.000000
324.150240 11.000000
324.163120 19.000000
333.158140 7.000000
335.155490 9.000000
335.175540 83.000000
336.176420 19.000000
336.191190 5.000000
353.144040 8.000000
353.185360 109.000000

>ms2peaks
67.054210 16.000000
68.049100 14.000000
70.062990 11.000000
77.038700 38.000000
77.043080 9.000000
78.033260 7.000000
79.051350 22.000000
80.050380 37.000000
80.057950 7.000000
81.059730 28.000000
83.044490 13.000000
88.941360 7.000000
91.046600 10.000000
91.057170 55.000000
92.045100 15.000000
93.051990 7.000000
93.059460 25.000000
93.068270 17.000000
93.071760 9.000000
94.059540 15.000000
94.065560 12.000000
95.046370 5.000000
96.086460 6.000000
101.030880 7.000000
103.053330 30.000000
104.053060 8.000000
105.026770 5.000000
105.070520 19.000000
106.066370 10.000000
107.066060 7.000000
107.074020 18.000000
108.080150 36.000000
109.059250 6.000000
109.089510 12.000000
111.047660 5.000000
115.018060 5.000000
115.036990 7.000000
115.043680 5.000000
115.052060 17.000000
115.057470 29.000000
116.055190 17.000000
117.057570 67.000000
117.070690 78.000000
118.066000 60.000000
118.078250 6.000000
119.045710 6.000000
120.077900 19.000000
120.084640 6.000000
121.088650 9.000000
122.074610 5.000000
122.094270 18.000000
122.101520 6.000000
123.087240 5.000000
123.098660 7.000000
123.110030 6.000000
127.053980 99.000000
128.049350 93.000000
128.059690 33.000000
129.059020 14.000000
129.073590 27.000000
130.066540 129.000000
131.068820 37.000000
131.077800 16.000000
132.071900 6.000000
132.079760 27.000000
133.050370 9.000000
133.059770 11.000000
134.059710 10.000000
136.079620 13.000000
139.054460 11.000000
140.064830 5.000000
141.069690 18.000000
142.063610 23.000000
142.250660 6.000000
143.057920 7.000000
143.073460 185.000000
143.752460 9.000000
144.021060 7.000000
144.064580 21.000000
144.079900 1000.000000
145.009120 8.000000
145.069120 6.000000
145.084410 81.000000
147.064210 7.000000
148.077010 23.000000
148.898670 8.000000
150.089100 11.000000
152.061460 37.000000
153.053050 9.000000
153.066010 39.000000
154.061920 92.000000
154.069840 80.000000
154.985670 8.000000
155.060460 12.000000
155.071930 62.000000
155.082840 22.000000
156.064210 13.000000
156.074110 57.000000
156.084550 23.000000
157.074190 14.000000
157.086460 20.000000
158.056780 9.000000
158.085370 13.000000
158.094500 24.000000
159.090500 9.000000
159.102010 7.000000
163.073290 11.000000
165.054090 12.000000
165.067600 53.000000
166.061140 35.000000
166.068950 21.000000
166.077960 12.000000
167.066360 110.000000
167.073210 322.000000
168.050810 12.000000
168.063100 16.000000
168.079760 366.000000
169.070110 24.000000
169.078980 41.000000
169.086810 58.000000
170.061920 15.000000
170.090760 29.000000
170.102630 11.000000
171.088710 43.000000
171.096210 40.000000
177.073610 8.000000
178.053880 11.000000
178.064940 27.000000
178.074080 9.000000
179.060900 15.000000
179.079100 33.000000
180.081590 337.000000
180.992230 8.000000
181.048740 6.000000
181.086010 176.000000
181.093220 64.000000
182.094040 165.000000
183.089070 16.000000
183.100800 19.000000
184.084720 9.000000
184.108930 7.000000
185.109740 7.000000
190.059770 7.000000
190.073300 25.000000
191.063020 13.000000
191.076920 50.000000
192.082340 115.000000
193.061260 15.000000
193.088990 315.000000
194.056490 7.000000
194.069760 15.000000
194.076480 12.000000
194.095080 149.000000
195.100680 40.000000
196.067170 13.000000
196.074620 21.000000
196.105390 14.000000
196.114620 20.000000
197.079380 21.000000
202.071810 5.000000
203.070340 17.000000
203.090160 5.000000
204.053650 12.000000
204.073470 61.000000
204.084610 93.000000
205.088270 67.000000
205.102520 10.000000
205.897540 6.000000
206.096690 226.000000
207.064220 6.000000
207.100770 141.000000
207.118440 6.000000
208.072420 20.000000
208.089220 5.000000
208.110580 198.000000
209.080370 10.000000
209.094680 33.000000
209.119980 58.000000
210.084050 8.000000
210.095430 37.000000
210.114490 11.000000
210.129200 9.000000
211.068760 12.000000
211.097110 30.000000
211.511180 5.000000
216.078920 57.000000
217.064190 7.000000
217.086650 315.000000
218.071330 14.000000
218.093610 322.000000
219.073850 10.000000
219.085590 22.000000
219.102680 93.000000
219.120940 6.000000
220.074040 47.000000
220.083910 21.000000
220.103380 30.000000
220.114040 38.000000
221.078810 15.000000
221.105710 51.000000
221.121830 31.000000
222.075590 5.000000
222.088550 5.000000
222.095150 11.000000
222.115890 55.000000
222.129120 28.000000
222.357880 5.000000
223.112180 7.000000
223.122970 19.000000
223.143860 8.000000
228.081390 7.000000
228.985820 5.000000
230.090070 47.000000
230.099270 46.000000
231.076160 8.000000
231.092250 30.000000
231.105680 70.000000
232.068510 5.000000
232.101930 61.000000
232.114010 92.000000
233.070430 6.000000
233.084500 14.000000
233.109540 55.000000
234.079330 14.000000
234.091980 71.000000
234.110990 21.000000
234.128370 11.000000
235.071810 5.000000
235.088240 8.000000
235.096760 14.000000
235.110490 7.000000
235.122560 12.000000
235.131300 9.000000
236.093230 8.000000
236.104370 20.000000
236.127470 9.000000
236.141340 15.000000
237.072200 7.000000
237.109710 26.000000
237.138670 12.000000
238.085360 60.000000
238.095990 21.000000
238.121200 7.000000
238.150050 5.000000
239.094480 18.000000
239.501130 8.000000
243.087220 10.000000
244.097750 19.000000
244.111820 18.000000
245.089840 12.000000
245.112090 71.000000
246.088070 12.000000
246.110380 21.000000
246.120500 28.000000
246.129300 28.000000
246.142750 11.000000
247.110110 16.000000
247.122540 9.000000
247.139620 29.000000
248.106670 14.000000
248.115780 15.000000
248.129750 5.000000
249.097720 10.000000
249.127870 8.000000
249.147030 5.000000
250.092590 7.000000
251.081090 9.000000
251.093700 50.000000
252.095440 42.000000
252.107670 31.000000
252.143080 5.000000
253.109770 12.000000
258.084260 7.000000
259.127690 15.000000
260.104370 8.000000
261.074190 7.000000
261.088840 8.000000
261.105530 11.000000
261.132200 7.000000
262.087430 41.000000
262.131380 7.000000
263.086150 12.000000
263.099950 19.000000
263.111720 23.000000
263.126460 19.000000
264.088130 22.000000
264.110410 25.000000
265.104610 10.000000
265.123200 7.000000
265.133940 10.000000
266.116940 15.000000
274.091130 5.000000
274.547610 5.000000
275.099980 27.000000
276.096920 50.000000
276.108800 60.000000
277.094120 17.000000
277.105870 47.000000
279.134740 5.000000
289.104130 15.000000
289.115970 9.000000
290.098910 12.000000
290.111390 26.000000
290.121490 52.000000
291.115360 14.000000
291.144590 5.000000
292.141880 7.000000
305.124760 20.000000
306.119750 9.000000
306.137940 8.000000
353.172060 5.000000
353.189030 26.000000

