>compound PR63274486
>parentmass 295.1295
>ionization [M+H]+
>formula C14H18N2O5
>rt 185.400000
>profile qtof
#smiles_iso C1=CC=C(C=C1)CC(C(=O)O)NC(=O)CCC(C(=O)O)N
#smiles_can C1=CC=C(C=C1)CC(C(=O)O)NC(=O)CCC(C(=O)O)N
#inchikey XHHOHZPNYFQJKL-UHFFFAOYSA-N
#pubchem_id 558649
#mb_accession PR311055,PR311056

>ms2peaks
79.055980 39.000000
84.045680 170.000000
84.052730 21.000000
103.056570 18.000000
105.072450 25.000000
107.047990 563.000000
107.060840 17.000000
108.049820 38.000000
108.057790 27.000000
130.031740 20.000000
130.042660 18.000000
130.052440 145.000000
131.034470 20.000000
131.044010 35.000000
131.053250 17.000000
149.057480 189.000000
149.065480 97.000000
149.081410 18.000000
149.121350 18.000000
150.059390 25.000000
150.066530 26.000000
166.086530 613.000000
166.095020 206.000000
167.091840 39.000000
173.061900 18.000000
232.085360 35.000000
232.104000 37.000000
258.255460 18.000000
261.042480 20.000000
278.104640 139.000000
278.119230 25.000000
294.924440 18.000000
295.131470 931.000000

>ms2peaks
79.052770 17.000000
84.041540 21.000000
84.048950 20.000000
103.059620 35.000000
103.065000 23.000000
120.080990 420.000000
121.085810 37.000000
130.043320 19.000000
130.068850 17.000000
132.085980 20.000000
136.071780 20.000000
149.059650 19.000000
166.086330 627.000000
167.093030 19.000000
186.079820 18.000000
186.088640 61.000000
232.097120 25.000000
233.092730 23.000000
249.124130 19.000000
279.110320 18.000000
295.131530 254.000000
295.147800 38.000000

