>compound PR63966663
>parentmass 959.5210069750001
>ionization [M+H]+
>formula C48H78O19
>rt 418.163315
>profile qtof
#smiles_iso CC1(CC2C3=CCC4C5(CCC(C(C5CCC4(C3(CCC2(C(C1)O)C)C)C)(C)CO)OC6C(C(C(C(O6)C(=O)O)O)O)OC7C(C(C(C(O7)CO)O)O)OC8C(C(C(C(O8)CO)O)O)O)C)C
#smiles_can CC1(CC2C3=CCC4C5(CCC(C(C5CCC4(C3(CCC2(C(C1)O)C)C)C)(C)CO)OC6C(C(C(C(O6)C(=O)O)O)O)OC7C(C(C(C(O7)CO)O)O)OC8C(C(C(C(O8)CO)O)O)O)C)C
#inchikey WFRQIKSNAYYUJZ-UHFFFAOYSA-N
#pubchem_id 15608234
#mb_accession PR304289,PR304293,PR304297,PR304301,PR304305,PR304309,PR304313,PR304315,PR304320,PR304324,PR304328,PR310679

>ms2
109.100210 5.000000
141.016980 19.000000
145.049800 24.000000
149.128590 5.000000
159.029970 13.000000
159.035770 6.000000
163.060650 84.000000
163.150340 6.000000
173.131120 5.000000
175.148410 6.000000
177.036180 7.000000
177.043880 6.000000
177.160490 10.000000
177.171920 5.000000
187.155110 5.000000
189.157230 10.000000
189.167300 11.000000
191.179960 12.000000
193.154040 6.000000
201.157940 7.000000
203.179110 38.000000
205.160870 8.000000
207.172380 5.000000
215.181590 7.000000
217.196700 29.000000
218.207170 7.000000
219.164930 7.000000
219.177800 8.000000
221.192260 8.000000
229.196370 7.000000
233.187190 16.000000
247.196900 6.000000
273.221860 6.000000
303.073390 6.000000
315.268100 9.000000
321.081510 39.000000
325.111300 17.000000
326.117860 5.000000
329.279390 5.000000
339.087710 43.000000
339.100560 18.000000
365.201480 8.000000
365.318390 12.000000
383.329440 10.000000
405.353640 22.000000
406.356540 15.000000
423.360050 231.000000
424.364620 85.000000
425.369810 9.000000
441.372890 341.000000
442.373690 93.000000
442.389860 33.000000
443.370060 7.000000
443.384460 8.000000
443.398770 6.000000
459.347690 5.000000
459.382970 13.000000
459.401310 8.000000
460.391390 7.000000
501.149350 13.000000
581.382750 15.000000
581.402400 9.000000
582.406010 6.000000
599.391300 163.000000
600.396240 71.000000
601.390010 10.000000
601.407410 5.000000
617.405640 77.000000
618.409180 30.000000
635.404360 27.000000
635.425900 53.000000
636.421080 17.000000
797.441770 6.000000
797.482060 28.000000
798.472350 10.000000
798.499820 10.000000
959.438480 9.000000
959.519780 1000.000000
959.601680 6.000000

>ms2
617.410710 9.000000
635.405580 12.000000
959.436710 7.000000
959.519290 1000.000000
959.600950 6.000000

>ms2
85.028840 16.000000
95.086210 6.000000
109.098410 15.000000
111.078720 7.000000
127.030920 7.000000
127.040630 6.000000
141.019200 15.000000
145.048490 32.000000
149.128080 9.000000
159.029530 26.000000
163.056590 177.000000
163.063740 68.000000
163.144130 6.000000
164.058110 18.000000
177.040310 20.000000
177.153370 8.000000
177.165790 22.000000
179.181460 6.000000
187.147320 10.000000
189.170430 6.000000
191.174350 5.000000
191.183140 12.000000
195.165700 7.000000
195.177340 18.000000
201.160290 18.000000
201.176040 6.000000
203.173260 22.000000
203.183460 24.000000
207.171510 24.000000
208.180400 5.000000
215.177840 12.000000
217.155230 5.000000
217.194520 57.000000
218.189730 8.000000
219.176320 16.000000
220.183440 6.000000
221.187880 23.000000
229.194050 12.000000
233.178500 10.000000
233.189220 14.000000
235.211620 6.000000
245.169190 5.000000
245.190860 7.000000
247.203960 32.000000
259.211550 8.000000
261.210020 10.000000
261.226140 6.000000
273.227780 5.000000
283.253230 5.000000
285.051330 7.000000
285.246770 5.000000
303.061580 13.000000
303.081090 9.000000
315.254090 6.000000
315.267940 15.000000
316.275970 8.000000
321.077850 72.000000
321.087860 31.000000
322.069060 9.000000
322.085850 13.000000
325.106260 19.000000
325.128850 6.000000
339.077910 18.000000
339.096470 35.000000
340.102940 6.000000
341.087980 5.000000
351.177250 7.000000
365.184020 10.000000
365.205080 6.000000
365.299160 7.000000
365.322690 10.000000
366.192780 5.000000
383.338040 10.000000
405.343570 60.000000
405.362850 29.000000
406.364380 15.000000
407.372130 11.000000
411.358090 9.000000
412.351990 6.000000
421.323910 8.000000
423.324190 14.000000
423.360720 735.000000
424.325560 7.000000
424.362030 273.000000
425.368260 30.000000
425.393550 8.000000
441.303650 6.000000
441.371000 1000.000000
442.315250 7.000000
442.373750 300.000000
443.372590 45.000000
443.394260 20.000000
444.383880 8.000000
459.376980 11.000000
501.154450 8.000000
563.365360 6.000000
581.362980 19.000000
581.386540 61.000000
582.366640 16.000000
582.404360 13.000000
583.381100 11.000000
599.380370 212.000000
599.408020 132.000000
600.374570 67.000000
600.398800 116.000000
601.373840 16.000000
601.405700 20.000000
601.435670 7.000000
617.371090 13.000000
617.415340 30.000000
618.429750 13.000000
635.393980 7.000000
635.418820 6.000000
636.400570 5.000000
636.438290 5.000000
797.467960 8.000000

>ms2
61.027350 10.000000
61.033150 8.000000
69.032000 7.000000
69.066320 8.000000
70.592970 11.000000
73.019090 8.000000
81.068830 43.000000
83.087360 8.000000
85.027960 130.000000
85.299140 8.000000
91.028800 22.000000
91.037830 126.000000
93.070650 31.000000
95.012860 27.000000
95.085660 203.000000
96.083960 7.000000
97.029450 129.000000
97.065120 10.000000
97.088100 9.000000
97.103630 8.000000
98.810930 7.000000
99.014500 7.000000
99.037150 11.000000
99.041560 8.000000
99.086180 12.000000
103.036620 18.000000
105.069700 10.000000
107.066250 7.000000
107.083660 61.000000
107.095340 8.000000
108.081610 8.000000
108.086720 18.000000
109.026520 23.000000
109.058540 14.000000
109.092860 24.000000
109.101020 144.000000
109.168390 8.000000
110.026010 8.000000
110.105730 41.000000
111.078670 84.000000
111.116210 27.000000
113.024410 8.000000
115.035100 7.000000
115.046190 11.000000
119.077220 8.000000
119.085560 43.000000
119.093570 7.000000
120.087570 15.000000
120.094330 11.000000
121.062580 9.000000
121.100460 93.000000
121.114020 7.000000
122.111270 8.000000
122.999690 8.000000
123.010810 18.000000
123.117150 115.000000
123.128920 7.000000
124.008100 8.000000
125.009260 7.000000
125.098050 9.000000
127.016990 10.000000
127.026210 9.000000
127.038960 156.000000
128.043010 18.000000
128.135590 7.000000
131.028880 10.000000
131.035460 26.000000
133.090930 16.000000
133.098300 92.000000
133.110110 13.000000
135.117400 155.000000
136.122730 36.000000
137.092760 16.000000
137.117750 8.000000
137.132680 36.000000
137.140690 32.000000
137.314640 8.000000
138.145510 9.000000
139.043270 9.000000
139.109120 18.000000
139.118190 11.000000
140.995790 16.000000
141.017270 683.000000
141.407390 11.000000
142.005780 7.000000
142.012940 14.000000
144.241090 8.000000
145.034520 14.000000
145.050510 543.000000
145.106410 19.000000
146.040650 10.000000
146.057920 7.000000
146.107280 16.000000
147.044540 8.000000
147.113660 67.000000
147.118740 169.000000
147.130810 23.000000
148.120570 35.000000
148.350740 8.000000
149.124830 48.000000
149.132660 130.000000
149.145580 11.000000
150.134510 7.000000
151.106920 24.000000
151.119370 18.000000
151.133990 9.000000
151.150130 43.000000
151.156750 10.000000
152.326190 7.000000
153.123030 7.000000
154.607880 8.000000
157.106160 8.000000
159.027650 223.000000
159.118300 60.000000
159.151930 7.000000
160.032460 15.000000
160.041520 7.000000
160.126790 16.000000
161.097320 9.000000
161.133740 217.000000
162.134520 17.000000
162.898990 7.000000
163.059300 577.000000
163.075360 14.000000
163.113360 16.000000
163.137940 28.000000
163.144640 74.000000
163.152220 114.000000
163.170840 11.000000
164.060760 15.000000
164.067700 18.000000
164.136950 8.000000
164.151150 26.000000
165.063370 8.000000
165.121930 14.000000
165.129940 46.000000
165.150130 7.000000
165.162860 16.000000
166.137730 8.000000
166.792010 8.000000
167.145900 15.000000
167.154110 11.000000
169.094530 8.000000
171.236210 8.000000
172.120210 9.000000
173.127140 16.000000
173.135180 60.000000
174.147200 10.000000
175.108570 8.000000
175.147000 198.000000
176.147800 23.000000
176.163090 19.000000
177.031230 7.000000
177.040790 45.000000
177.127690 36.000000
177.140410 38.000000
177.161770 279.000000
178.148150 8.000000
178.164950 27.000000
178.175720 12.000000
179.149310 10.000000
179.180910 27.000000
180.146930 8.000000
180.769040 7.000000
185.135830 8.000000
186.129880 8.000000
186.542540 9.000000
187.137040 39.000000
187.148640 99.000000
187.156080 47.000000
187.260820 9.000000
188.143170 8.000000
188.153150 7.000000
189.127030 17.000000
189.163970 374.000000
190.159000 8.000000
190.171200 32.000000
190.668010 8.000000
191.067730 11.000000
191.136110 16.000000
191.148900 7.000000
191.178340 220.000000
192.182850 17.000000
193.162290 62.000000
193.198040 19.000000
193.233700 7.000000
194.161930 17.000000
195.148680 8.000000
195.175380 88.000000
196.169010 7.000000
196.183580 14.000000
197.133830 9.000000
198.136510 8.000000
199.065750 9.000000
199.141710 16.000000
199.149120 46.000000
199.262190 7.000000
200.113780 8.000000
201.157910 107.000000
201.165570 142.000000
201.364820 7.000000
202.165300 33.000000
203.143250 16.000000
203.157550 13.000000
203.179860 740.000000
203.858550 8.000000
204.185290 100.000000
205.160400 94.000000
205.193480 62.000000
205.202820 28.000000
206.161100 8.000000
206.202450 8.000000
206.587540 14.000000
207.171720 133.000000
208.170300 22.000000
208.181840 9.000000
209.182220 19.000000
209.517750 8.000000
213.099790 9.000000
213.141690 9.000000
213.163960 76.000000
213.176610 19.000000
214.152790 9.000000
215.179400 258.000000
215.803040 7.000000
216.183330 8.000000
216.194110 7.000000
217.160690 7.000000
217.194210 331.000000
218.196590 47.000000
219.176800 215.000000
219.207400 7.000000
219.225920 17.000000
220.173430 25.000000
220.181150 27.000000
220.202410 8.000000
220.211000 8.000000
220.548510 7.000000
220.812910 14.000000
221.150310 9.000000
221.192310 192.000000
222.191740 23.000000
225.154910 8.000000
227.169110 8.000000
227.183640 66.000000
228.183620 11.000000
229.068500 7.000000
229.174800 8.000000
229.196290 267.000000
229.985820 13.000000
230.128680 10.000000
230.194810 28.000000
230.204130 20.000000
231.163960 7.000000
231.182480 10.000000
231.197980 8.000000
231.215710 36.000000
231.241700 10.000000
232.179500 39.000000
233.182920 66.000000
233.191410 122.000000
233.220950 9.000000
234.194350 38.000000
235.202850 27.000000
235.215560 8.000000
237.168840 8.000000
237.216930 11.000000
238.431750 8.000000
239.089580 7.000000
239.182240 9.000000
241.179410 8.000000
241.195680 109.000000
241.213760 27.000000
242.111540 8.000000
243.195360 22.000000
243.212400 130.000000
244.215970 15.000000
244.226900 8.000000
244.566360 7.000000
245.177780 15.000000
245.191670 42.000000
245.203160 17.000000
245.216260 8.000000
245.232220 11.000000
245.867200 8.000000
246.198620 8.000000
247.187560 8.000000
247.206440 144.000000
247.213870 68.000000
248.208770 30.000000
248.220580 19.000000
250.292330 7.000000
251.204130 15.000000
253.192210 30.000000
253.213750 8.000000
254.203170 15.000000
255.214130 35.000000
256.220490 22.000000
257.188900 11.000000
257.219330 20.000000
257.230010 22.000000
258.221250 9.000000
258.234530 27.000000
259.198520 7.000000
259.210300 17.000000
259.247990 9.000000
260.217160 18.000000
261.056730 9.000000
261.211400 57.000000
261.238590 7.000000
262.217500 8.000000
263.236720 8.000000
263.249390 8.000000
265.809690 7.000000
267.142520 7.000000
267.179500 15.000000
267.204130 46.000000
267.215520 34.000000
269.209290 12.000000
269.220640 31.000000
269.230500 36.000000
270.208800 11.000000
270.232060 7.000000
270.241060 8.000000
270.605380 7.000000
270.854280 8.000000
271.211520 8.000000
271.227720 49.000000
271.253750 14.000000
272.200200 11.000000
272.216610 8.000000
272.243870 7.000000
273.193570 11.000000
273.210510 13.000000
273.222840 48.000000
273.238190 17.000000
273.264400 10.000000
274.056580 9.000000
274.227170 24.000000
274.236790 10.000000
275.229890 43.000000
275.244420 30.000000
275.254700 9.000000
276.252900 7.000000
280.215640 7.000000
281.215820 8.000000
282.236510 14.000000
283.224180 8.000000
283.244780 47.000000
283.258880 7.000000
284.243130 11.000000
285.207760 11.000000
285.219330 20.000000
285.252900 44.000000
286.062590 9.000000
286.224030 9.000000
287.220060 16.000000
287.241240 27.000000
288.531040 8.000000
289.133790 7.000000
290.921080 7.000000
295.248720 39.000000
297.258060 65.000000
299.450100 8.000000
300.260190 10.000000
301.243870 8.000000
301.255580 18.000000
301.266690 10.000000
302.251130 16.000000
303.094570 7.000000
303.259890 17.000000
307.255620 8.000000
309.256990 10.000000
311.275360 49.000000
311.293700 8.000000
312.153560 7.000000
312.263760 10.000000
313.247130 70.000000
313.261350 22.000000
314.250270 13.000000
315.265500 35.000000
315.275670 35.000000
316.277890 14.000000
317.176730 8.000000
319.232150 7.000000
321.088410 8.000000
321.253880 8.000000
321.269170 9.000000
323.276920 8.000000
324.248050 14.000000
325.121800 8.000000
325.290310 8.000000
325.302310 11.000000
327.267330 8.000000
329.291660 59.000000
334.363040 12.000000
335.268770 21.000000
335.285280 24.000000
336.268430 8.000000
339.284670 7.000000
339.315120 7.000000
341.268400 8.000000
341.278930 17.000000
342.185760 10.000000
349.286770 7.000000
349.297000 12.000000
350.288360 8.000000
351.186000 8.000000
351.307650 36.000000
351.322330 11.000000
365.188690 17.000000
365.324520 60.000000
366.323760 9.000000
367.303220 40.000000
367.330140 14.000000
368.313540 11.000000
369.297240 8.000000
369.308750 19.000000
370.286250 7.000000
370.441710 8.000000
371.302730 14.000000
377.193080 9.000000
377.304020 11.000000
377.320340 10.000000
379.199130 7.000000
379.218870 8.000000
381.314420 9.000000
381.357760 9.000000
383.330870 127.000000
384.332700 21.000000
384.344450 7.000000
385.341190 8.000000
386.930570 8.000000
389.334230 8.000000
393.354220 13.000000
395.366120 8.000000
397.350430 16.000000
400.100680 11.000000
404.344090 7.000000
405.319060 21.000000
405.349270 203.000000
405.381130 8.000000
406.342070 19.000000
406.357700 98.000000
411.357180 42.000000
411.373320 17.000000
411.668330 7.000000
412.366580 7.000000
415.223240 8.000000
417.343810 18.000000
417.359380 7.000000
423.363400 1000.000000
423.413970 7.000000
424.335080 22.000000
424.365690 311.000000
424.500670 7.000000
425.356750 8.000000
425.377840 34.000000
425.405430 16.000000
437.264920 8.000000
437.341490 8.000000
441.364590 97.000000
441.384770 177.000000
441.674680 8.000000
442.354860 17.000000
442.375430 101.000000
443.370940 7.000000
445.350650 8.000000
460.288940 9.000000
476.387330 14.000000
493.369570 9.000000
520.373470 8.000000
581.346190 15.000000
581.368100 8.000000
581.395200 23.000000
582.364140 8.000000
599.398680 16.000000
600.391360 7.000000
600.406370 8.000000
634.697690 7.000000
704.219240 10.000000

>ms2
109.097210 5.000000
141.018570 6.000000
145.049040 22.000000
159.025830 8.000000
163.059170 74.000000
177.039400 14.000000
177.165790 16.000000
189.164170 15.000000
195.169540 7.000000
203.180210 28.000000
207.176220 14.000000
215.181810 9.000000
217.188900 9.000000
217.202440 8.000000
219.171100 7.000000
221.190510 13.000000
227.182920 6.000000
229.188710 6.000000
233.193410 16.000000
235.210770 6.000000
247.195620 5.000000
247.209750 10.000000
261.217960 9.000000
303.069700 7.000000
321.074860 16.000000
321.092350 14.000000
325.108060 8.000000
339.091130 23.000000
339.107640 6.000000
365.316890 8.000000
383.335330 13.000000
405.348050 38.000000
406.351810 11.000000
406.364870 10.000000
423.361510 288.000000
424.356170 46.000000
424.373080 48.000000
425.371400 9.000000
441.372710 362.000000
442.378690 101.000000
443.376890 24.000000
459.386930 16.000000
501.133850 6.000000
501.149050 9.000000
501.167240 8.000000
581.392210 32.000000
582.379520 8.000000
582.405460 8.000000
599.392820 182.000000
600.397580 72.000000
600.433040 11.000000
601.403750 6.000000
617.404970 82.000000
618.383480 12.000000
618.416380 28.000000
635.407170 31.000000
635.426940 32.000000
636.420900 20.000000
797.461980 25.000000
797.490660 9.000000
798.469790 10.000000
959.519100 1000.000000

>ms2
501.148930 8.000000
617.404910 13.000000
635.416380 8.000000
959.416990 7.000000
959.443300 11.000000
959.521730 1000.000000

>ms2
109.099540 17.000000
127.037610 11.000000
141.018770 42.000000
145.043910 13.000000
145.052610 16.000000
149.133620 13.000000
159.031110 35.000000
163.060880 222.000000
164.061460 17.000000
175.148210 9.000000
177.041500 32.000000
177.161130 19.000000
189.167160 15.000000
191.175750 18.000000
191.190290 6.000000
193.154660 6.000000
195.174350 26.000000
201.169170 10.000000
203.180820 48.000000
205.164340 9.000000
205.198180 6.000000
207.168470 10.000000
207.177920 9.000000
207.187030 6.000000
208.172260 5.000000
215.185680 13.000000
217.188020 25.000000
217.198720 21.000000
218.196460 5.000000
219.172610 5.000000
221.182400 7.000000
221.194930 24.000000
227.188110 6.000000
229.201080 6.000000
233.187770 21.000000
233.201230 10.000000
234.198210 7.000000
235.197620 7.000000
243.201520 10.000000
243.217650 10.000000
245.183260 14.000000
245.196460 11.000000
247.203060 24.000000
247.216320 7.000000
248.214650 12.000000
255.207180 6.000000
273.229280 5.000000
285.058530 7.000000
285.223210 6.000000
295.243010 6.000000
303.062350 6.000000
303.075040 13.000000
315.262480 15.000000
315.277890 13.000000
316.272060 6.000000
321.081180 141.000000
322.089110 8.000000
325.106810 26.000000
325.127960 12.000000
326.113040 10.000000
329.275880 10.000000
339.074220 9.000000
339.092160 33.000000
351.186220 11.000000
365.197450 12.000000
365.312680 8.000000
365.334200 11.000000
380.210390 6.000000
381.313720 10.000000
383.307710 5.000000
383.327670 27.000000
383.345890 10.000000
405.232450 7.000000
405.351590 94.000000
406.357600 42.000000
407.362950 15.000000
423.363370 706.000000
424.365570 235.000000
425.357330 18.000000
425.379970 19.000000
441.309840 5.000000
441.372990 1000.000000
442.377080 351.000000
443.356510 11.000000
443.377040 32.000000
443.393590 12.000000
459.381840 8.000000
460.388920 6.000000
581.360960 7.000000
581.387510 66.000000
582.334960 6.000000
582.384950 23.000000
599.395020 386.000000
600.381410 63.000000
600.401980 90.000000
601.401250 16.000000
601.423950 6.000000
617.396670 28.000000
617.420170 21.000000
617.435000 7.000000
618.400700 9.000000
618.425350 12.000000
619.417480 8.000000
635.399780 9.000000
635.424010 13.000000
797.468200 19.000000

>ms2
57.066980 9.000000
61.027920 24.000000
69.072930 20.000000
71.046170 9.000000
71.089230 10.000000
73.018840 9.000000
73.026630 26.000000
81.059100 10.000000
81.068640 43.000000
81.071940 18.000000
82.627090 8.000000
83.085900 20.000000
85.027270 183.000000
85.032040 97.000000
87.040280 21.000000
91.038350 208.000000
92.041530 12.000000
92.049280 8.000000
93.065000 18.000000
93.071550 52.000000
94.074470 9.000000
95.010820 39.000000
95.084370 210.000000
97.013360 8.000000
97.026950 164.000000
97.035970 16.000000
97.110190 11.000000
99.037210 8.000000
99.041880 8.000000
99.085120 9.000000
100.086800 8.000000
101.024600 8.000000
103.035790 8.000000
103.042840 18.000000
105.066740 8.000000
107.085820 193.000000
108.087400 11.000000
109.029060 11.000000
109.064080 9.000000
109.102280 266.000000
110.712390 9.000000
111.044650 10.000000
111.054630 12.000000
111.077690 87.000000
111.115390 19.000000
113.022990 25.000000
113.093820 11.000000
115.035460 8.000000
115.042300 28.000000
119.078710 27.000000
119.085910 104.000000
119.100380 9.000000
120.072290 8.000000
121.088490 9.000000
121.100640 127.000000
122.089290 8.000000
122.101520 18.000000
122.107340 8.000000
123.006800 8.000000
123.115300 133.000000
124.118960 8.000000
125.094440 8.000000
125.133830 8.000000
127.038700 207.000000
127.652210 11.000000
130.789230 9.000000
131.027370 10.000000
131.077040 12.000000
131.085340 24.000000
133.100270 131.000000
134.105010 16.000000
134.260070 11.000000
134.293460 8.000000
135.116100 229.000000
135.122730 55.000000
136.116060 19.000000
136.122880 7.000000
137.093810 8.000000
137.128110 21.000000
137.132930 49.000000
138.129940 19.000000
139.110570 76.000000
140.998660 11.000000
141.017900 854.000000
141.312060 8.000000
142.021440 48.000000
143.019960 8.000000
143.083620 8.000000
145.015840 9.000000
145.027070 8.000000
145.049320 541.000000
145.100850 24.000000
145.109730 24.000000
145.115170 8.000000
145.820830 9.000000
146.057390 41.000000
146.100360 8.000000
146.107770 8.000000
146.342990 8.000000
146.677290 8.000000
147.057940 16.000000
147.117750 132.000000
148.117810 26.000000
148.659290 8.000000
149.096860 12.000000
149.131970 234.000000
150.132480 8.000000
150.141920 25.000000
151.096560 9.000000
151.108730 29.000000
151.148360 9.000000
151.157230 8.000000
151.767530 11.000000
153.190090 15.000000
153.759410 9.000000
155.353390 9.000000
157.101850 8.000000
159.026790 229.000000
159.035340 50.000000
159.114330 96.000000
160.029420 48.000000
160.107330 8.000000
160.115750 9.000000
160.122240 8.000000
160.744050 8.000000
161.133300 175.000000
162.132160 24.000000
163.043550 12.000000
163.060380 628.000000
163.109100 43.000000
163.146470 401.000000
164.058620 12.000000
164.066500 30.000000
164.103100 8.000000
164.142820 22.000000
164.919950 10.000000
164.977230 14.000000
165.057270 9.000000
165.090180 8.000000
165.129270 75.000000
167.140660 24.000000
171.112730 18.000000
171.121520 9.000000
172.124330 9.000000
173.008510 8.000000
173.115300 9.000000
173.133730 88.000000
173.797200 12.000000
174.140460 24.000000
175.135380 49.000000
175.149050 260.000000
176.155140 10.000000
177.036100 40.000000
177.048030 17.000000
177.139790 9.000000
177.151200 36.000000
177.163280 349.000000
177.483150 10.000000
178.121340 9.000000
178.160280 36.000000
178.171750 16.000000
179.139050 16.000000
179.180190 12.000000
180.181200 8.000000
181.077820 8.000000
182.157180 9.000000
185.140150 13.000000
187.128560 9.000000
187.147380 165.000000
188.140340 8.000000
189.043230 9.000000
189.112030 11.000000
189.162630 321.000000
189.654560 9.000000
190.158800 20.000000
190.173580 23.000000
191.139020 18.000000
191.149490 8.000000
191.177870 183.000000
191.896190 8.000000
192.145750 8.000000
192.174090 8.000000
192.189220 24.000000
193.158660 78.000000
193.168090 16.000000
194.113650 8.000000
194.164200 9.000000
195.105700 9.000000
195.174380 88.000000
195.577590 8.000000
196.176900 15.000000
197.131240 9.000000
199.148590 57.000000
201.134120 8.000000
201.146650 18.000000
201.164220 239.000000
202.163730 18.000000
202.173520 20.000000
203.145580 40.000000
203.177220 709.000000
204.176820 36.000000
204.185730 112.000000
204.198120 16.000000
204.941560 8.000000
204.985280 8.000000
205.129000 8.000000
205.159900 68.000000
205.194870 117.000000
205.208080 9.000000
206.160140 11.000000
206.168290 13.000000
206.187740 19.000000
206.200270 8.000000
207.150250 8.000000
207.173020 100.000000
207.183300 43.000000
208.164470 9.000000
208.188110 9.000000
213.160140 31.000000
213.168810 37.000000
214.171130 17.000000
215.155010 15.000000
215.178970 360.000000
216.181560 68.000000
217.149690 8.000000
217.161790 36.000000
217.193100 267.000000
217.200450 203.000000
218.197370 65.000000
218.221390 9.000000
219.152480 8.000000
219.173860 279.000000
219.198670 17.000000
219.213550 49.000000
220.171480 32.000000
220.186360 20.000000
220.217970 11.000000
221.186550 151.000000
222.184130 11.000000
222.192870 26.000000
227.092360 9.000000
227.173870 24.000000
227.185100 40.000000
228.194290 8.000000
229.067690 11.000000
229.193760 262.000000
230.183170 8.000000
230.193180 9.000000
230.312670 8.000000
231.161470 8.000000
231.177440 26.000000
231.199280 43.000000
231.214140 32.000000
232.204800 8.000000
232.919310 12.000000
233.169460 27.000000
233.188370 135.000000
233.197420 43.000000
234.188340 48.000000
234.200180 15.000000
235.190860 28.000000
235.206050 25.000000
238.050350 8.000000
239.179180 8.000000
241.194410 39.000000
242.182330 8.000000
243.180180 8.000000
243.210680 114.000000
243.227840 8.000000
245.185170 16.000000
245.209660 8.000000
245.220000 18.000000
246.197130 16.000000
246.236970 8.000000
247.206120 281.000000
247.239960 8.000000
248.194990 13.000000
248.210620 42.000000
253.186190 15.000000
253.203570 10.000000
255.212890 62.000000
256.222050 9.000000
257.184270 9.000000
257.196170 8.000000
257.212590 21.000000
257.219880 60.000000
257.232300 89.000000
258.074980 9.000000
258.229030 16.000000
259.198520 19.000000
259.211850 9.000000
259.255620 8.000000
260.216980 9.000000
260.245940 8.000000
261.225070 69.000000
261.238280 13.000000
262.221590 28.000000
265.112820 9.000000
265.833980 9.000000
266.781980 9.000000
267.066530 8.000000
267.194400 9.000000
267.208160 25.000000
267.220090 10.000000
268.181180 9.000000
268.211240 8.000000
268.221530 8.000000
269.210780 9.000000
269.226870 37.000000
269.247100 8.000000
271.179720 8.000000
271.231960 11.000000
271.247590 39.000000
272.215450 16.000000
272.241970 10.000000
273.192200 17.000000
273.221530 78.000000
273.251830 8.000000
274.220830 24.000000
275.236240 36.000000
275.245300 36.000000
276.246830 9.000000
277.148040 8.000000
281.224180 29.000000
281.237760 10.000000
282.224460 26.000000
283.143520 8.000000
283.241520 30.000000
283.258240 12.000000
284.097470 8.000000
285.209050 9.000000
285.233580 20.000000
285.246490 7.000000
285.682250 9.000000
286.057160 8.000000
286.222080 19.000000
286.264040 10.000000
287.234770 49.000000
287.260280 9.000000
288.238340 16.000000
288.255680 8.000000
290.251590 13.000000
290.579070 11.000000
293.222500 8.000000
295.238400 29.000000
295.256200 12.000000
295.266360 8.000000
297.251010 56.000000
298.262790 8.000000
299.232760 11.000000
299.245450 24.000000
299.277250 14.000000
301.254550 24.000000
302.257660 12.000000
303.074460 8.000000
305.243680 12.000000
307.135530 8.000000
307.245030 10.000000
307.256680 11.000000
308.193540 8.000000
309.264310 10.000000
311.149840 9.000000
311.268590 47.000000
311.285400 11.000000
312.197540 8.000000
312.269810 9.000000
312.286160 16.000000
313.233490 8.000000
313.258970 35.000000
313.286070 9.000000
314.255860 8.000000
315.264980 64.000000
316.284450 9.000000
321.070340 9.000000
321.083160 8.000000
322.257570 8.000000
323.238070 8.000000
323.268950 27.000000
323.279110 22.000000
325.285160 18.000000
327.182070 8.000000
327.270570 26.000000
329.280030 25.000000
330.296080 8.000000
333.266940 8.000000
335.269680 18.000000
336.406680 12.000000
338.292330 8.000000
340.311710 8.000000
341.329160 9.000000
343.304380 17.000000
348.352940 8.000000
349.224490 8.000000
350.897130 11.000000
351.178440 8.000000
351.292690 8.000000
351.305760 44.000000
352.841310 12.000000
353.125490 8.000000
353.272310 12.000000
353.286870 32.000000
355.303070 10.000000
363.293030 25.000000
363.310580 16.000000
364.311310 25.000000
364.607150 8.000000
365.189970 8.000000
365.301910 9.000000
365.324680 68.000000
366.287510 9.000000
366.297790 10.000000
366.324370 57.000000
367.310520 9.000000
367.343900 8.000000
368.323270 11.000000
369.309450 16.000000
370.245940 9.000000
370.325160 19.000000
371.205050 8.000000
377.324520 8.000000
379.226930 8.000000
379.322690 8.000000
380.209840 8.000000
381.292270 14.000000
381.307160 18.000000
381.327090 10.000000
382.326810 8.000000
383.317900 38.000000
383.339540 26.000000
383.351440 12.000000
383.912990 8.000000
384.333340 25.000000
384.349270 24.000000
385.341400 8.000000
393.335570 9.000000
394.359380 8.000000
395.368070 9.000000
405.350800 235.000000
406.330780 16.000000
406.357210 66.000000
407.206180 8.000000
407.358980 8.000000
407.375550 27.000000
407.958130 8.000000
408.372530 8.000000
411.344880 8.000000
411.359220 58.000000
412.367860 8.000000
421.240940 8.000000
421.315670 8.000000
423.327940 28.000000
423.360570 1000.000000
423.436100 9.000000
424.334840 17.000000
424.355960 108.000000
424.372100 240.000000
425.224550 8.000000
425.240570 8.000000
425.344760 33.000000
425.375210 40.000000
429.147460 8.000000
441.038940 8.000000
441.299740 9.000000
441.371090 225.000000
442.361910 37.000000
442.378660 65.000000
443.385160 8.000000
445.252900 8.000000
453.852290 9.000000
456.952700 8.000000
459.313540 8.000000
545.352780 8.000000
546.356690 8.000000
553.386170 11.000000
563.386170 9.000000
581.354800 14.000000
581.389890 16.000000
582.354680 8.000000
582.371150 11.000000
582.596800 8.000000
599.383610 25.000000
599.410100 15.000000
609.497920 9.000000
690.365170 9.000000

>ms2
599.385680 7.000000
635.414860 11.000000
959.430240 7.000000
959.519100 1000.000000

>ms2
85.027020 12.000000
95.082950 9.000000
109.101440 9.000000
127.041770 18.000000
141.013370 19.000000
141.021380 6.000000
145.046590 41.000000
145.055390 16.000000
149.133700 8.000000
151.111540 5.000000
159.027450 39.000000
163.059950 221.000000
164.061920 8.000000
173.128330 5.000000
177.035220 23.000000
177.042500 14.000000
177.165070 18.000000
189.158280 11.000000
189.169740 12.000000
191.173900 9.000000
191.181880 11.000000
193.156300 16.000000
201.156910 10.000000
203.176120 21.000000
203.183150 39.000000
205.155580 15.000000
205.198560 5.000000
207.171160 7.000000
207.180660 10.000000
215.173450 5.000000
215.185010 8.000000
216.175520 7.000000
217.178740 12.000000
217.196330 24.000000
218.193850 7.000000
218.205440 6.000000
219.168170 9.000000
219.180010 12.000000
219.206500 5.000000
219.216020 5.000000
221.189540 21.000000
227.179780 7.000000
229.193830 8.000000
231.173570 5.000000
233.187940 9.000000
233.195300 16.000000
234.200060 5.000000
235.207870 11.000000
236.216020 5.000000
243.207520 14.000000
247.193190 5.000000
247.207870 35.000000
259.206020 13.000000
261.217290 9.000000
261.229550 7.000000
273.214290 5.000000
303.064790 10.000000
303.081940 15.000000
311.277710 5.000000
315.264710 12.000000
316.271550 6.000000
321.080720 81.000000
325.108310 39.000000
325.124760 16.000000
326.116910 8.000000
329.267970 5.000000
329.284940 5.000000
339.089570 61.000000
340.092830 7.000000
340.107360 6.000000
351.183560 7.000000
352.175750 6.000000
365.207790 7.000000
365.317410 21.000000
369.305050 9.000000
383.333680 20.000000
384.324890 7.000000
405.334960 23.000000
405.355900 79.000000
406.334170 6.000000
406.354830 25.000000
407.373630 9.000000
411.384830 7.000000
421.338230 9.000000
423.316070 9.000000
423.360660 781.000000
424.365200 288.000000
425.364840 30.000000
425.394380 10.000000
441.315860 10.000000
441.373410 1000.000000
442.376950 324.000000
443.355500 8.000000
443.381870 58.000000
444.384670 13.000000
459.383450 10.000000
459.400050 16.000000
460.395420 5.000000
501.157100 5.000000
581.331120 6.000000
581.382020 90.000000
582.317200 6.000000
582.378230 35.000000
582.413510 5.000000
599.395630 403.000000
600.390440 108.000000
600.410520 96.000000
601.391110 22.000000
601.420960 7.000000
617.389100 20.000000
617.417480 27.000000
618.402770 10.000000
618.428040 8.000000
635.424070 15.000000

>ms2
73.032270 17.000000
74.983610 9.000000
80.994690 10.000000
81.066560 28.000000
81.074060 10.000000
82.072000 10.000000
83.012710 9.000000
84.090150 10.000000
84.578620 11.000000
84.978150 11.000000
85.028060 153.000000
85.844350 10.000000
86.017780 13.000000
91.016270 11.000000
91.024090 9.000000
91.036570 67.000000
91.041020 132.000000
93.069830 36.000000
94.071270 15.000000
95.014820 20.000000
95.018420 10.000000
95.085140 216.000000
95.449810 11.000000
96.082530 11.000000
96.090090 11.000000
96.980160 13.000000
97.027530 154.000000
97.101040 23.000000
99.050850 10.000000
103.034000 17.000000
103.043140 10.000000
105.065440 9.000000
107.064730 10.000000
107.082440 35.000000
107.089590 51.000000
108.034560 11.000000
108.088680 21.000000
109.036400 10.000000
109.101630 226.000000
109.111470 9.000000
110.105520 9.000000
110.111250 9.000000
110.924320 13.000000
111.081370 63.000000
111.116730 12.000000
112.089750 10.000000
115.153000 15.000000
119.069480 9.000000
119.081710 26.000000
119.092010 12.000000
120.069790 18.000000
120.082150 12.000000
121.093580 36.000000
121.102640 101.000000
122.101720 43.000000
123.010330 20.000000
123.045610 13.000000
123.118000 117.000000
125.097190 10.000000
127.026860 9.000000
127.040530 183.000000
128.041350 9.000000
128.112610 9.000000
130.452330 16.000000
131.027710 11.000000
132.138700 10.000000
133.096740 63.000000
133.104780 222.000000
134.007130 11.000000
134.102510 21.000000
135.116180 199.000000
136.090270 11.000000
137.116420 9.000000
137.126020 12.000000
137.137190 51.000000
139.088200 9.000000
139.115400 69.000000
140.118290 9.000000
140.705890 10.000000
141.019120 812.000000
141.728090 9.000000
141.806690 9.000000
142.016570 10.000000
142.025760 65.000000
143.021870 20.000000
143.029370 17.000000
145.049500 599.000000
145.092990 30.000000
145.101150 36.000000
145.298110 9.000000
146.049740 41.000000
147.115780 196.000000
147.176330 10.000000
148.120440 19.000000
149.056720 11.000000
149.096620 9.000000
149.108110 20.000000
149.122450 22.000000
149.135390 186.000000
150.140380 10.000000
151.112080 18.000000
151.142440 9.000000
151.150420 12.000000
153.129000 21.000000
154.044620 10.000000
157.092330 19.000000
157.110960 13.000000
158.257680 9.000000
159.025360 226.000000
159.032760 118.000000
159.118880 107.000000
160.023350 27.000000
160.033360 19.000000
160.120740 11.000000
161.087280 9.000000
161.100160 12.000000
161.113100 10.000000
161.134280 299.000000
162.087460 12.000000
162.573680 11.000000
163.060520 558.000000
163.113100 19.000000
163.148970 234.000000
164.061710 10.000000
164.139690 9.000000
164.150540 34.000000
164.161100 10.000000
165.126300 51.000000
169.051530 10.000000
169.106020 9.000000
171.105270 9.000000
171.117100 33.000000
171.121950 14.000000
171.881840 12.000000
172.033870 10.000000
173.128430 41.000000
173.136810 26.000000
174.144130 22.000000
175.135740 11.000000
175.148820 146.000000
175.157500 46.000000
176.144820 9.000000
176.154330 26.000000
177.037020 68.000000
177.129900 9.000000
177.162720 367.000000
178.149930 9.000000
178.168120 50.000000
178.176760 11.000000
179.142520 20.000000
179.181350 19.000000
180.176910 9.000000
180.576170 10.000000
184.127620 11.000000
185.134090 19.000000
186.113530 9.000000
186.126890 12.000000
186.144420 14.000000
187.128370 10.000000
187.147200 190.000000
188.142750 10.000000
188.154140 19.000000
188.563630 12.000000
189.162060 475.000000
190.177870 19.000000
191.124390 10.000000
191.144180 12.000000
191.178590 204.000000
191.192790 17.000000
192.169950 24.000000
192.186130 32.000000
193.156690 124.000000
193.163100 47.000000
194.069260 10.000000
194.161100 20.000000
195.154250 10.000000
195.170620 57.000000
195.181300 63.000000
196.173100 11.000000
196.183060 22.000000
199.133640 9.000000
199.147960 47.000000
199.165390 10.000000
200.145310 18.000000
201.163280 300.000000
202.165970 76.000000
202.176680 17.000000
202.957820 9.000000
203.135500 9.000000
203.144070 23.000000
203.153050 12.000000
203.179240 869.000000
204.157560 10.000000
204.181750 68.000000
204.192580 17.000000
205.148700 21.000000
205.159700 95.000000
205.192180 79.000000
205.201340 61.000000
206.171390 10.000000
206.185070 11.000000
206.194820 10.000000
207.157730 31.000000
207.174160 190.000000
207.213320 15.000000
207.344510 9.000000
208.180360 32.000000
209.185420 19.000000
209.194230 10.000000
211.145570 12.000000
213.166890 37.000000
214.169170 9.000000
215.180950 321.000000
215.196750 26.000000
215.520840 9.000000
216.178380 43.000000
216.189150 22.000000
216.260590 9.000000
217.173780 22.000000
217.195880 431.000000
218.193770 11.000000
218.202930 9.000000
219.171300 261.000000
219.196150 10.000000
219.211270 23.000000
220.178480 32.000000
221.178450 57.000000
221.191830 192.000000
222.194140 49.000000
223.159270 13.000000
223.195400 9.000000
223.213880 9.000000
225.138020 9.000000
225.160220 21.000000
226.164830 11.000000
227.189380 23.000000
228.138280 11.000000
228.170170 8.000000
228.183530 37.000000
229.181340 31.000000
229.196060 194.000000
230.196230 52.000000
231.173370 57.000000
231.209660 57.000000
233.186840 182.000000
234.186540 10.000000
234.195920 9.000000
235.203520 23.000000
237.146700 11.000000
237.168110 9.000000
237.593430 9.000000
239.195480 13.000000
241.172580 13.000000
241.193630 77.000000
242.138060 9.000000
243.208390 121.000000
244.209180 9.000000
245.107880 9.000000
245.183900 34.000000
245.196610 20.000000
245.218440 9.000000
246.187880 18.000000
246.223950 21.000000
247.206240 316.000000
247.225400 11.000000
247.800700 9.000000
248.197280 9.000000
248.217560 44.000000
249.207350 11.000000
250.384550 9.000000
253.196290 10.000000
254.132740 11.000000
255.173580 12.000000
255.198780 31.000000
255.214710 105.000000
256.204250 9.000000
256.216190 39.000000
256.535340 11.000000
257.227170 120.000000
258.219450 15.000000
258.236690 9.000000
259.197110 11.000000
259.213440 26.000000
259.232940 19.000000
260.210140 22.000000
261.167760 10.000000
261.216580 59.000000
262.228490 12.000000
263.237580 9.000000
267.194310 9.000000
267.221980 19.000000
267.234280 9.000000
268.201140 9.000000
269.215060 11.000000
269.234410 53.000000
270.233180 27.000000
270.246890 15.000000
271.206480 20.000000
271.216400 10.000000
271.236820 9.000000
271.250210 26.000000
272.207060 13.000000
272.252110 10.000000
273.223970 97.000000
274.192140 11.000000
274.230470 36.000000
275.234830 65.000000
276.137050 10.000000
276.243960 9.000000
279.190550 11.000000
279.207730 9.000000
280.227420 9.000000
281.194310 9.000000
281.215180 9.000000
281.234590 26.000000
281.263760 11.000000
283.239650 11.000000
284.239410 9.000000
285.071590 9.000000
285.227330 10.000000
285.264800 18.000000
286.222410 32.000000
286.263920 9.000000
287.234500 11.000000
287.247160 45.000000
288.245300 23.000000
289.260470 21.000000
293.229430 10.000000
293.497440 11.000000
295.246220 67.000000
297.239810 9.000000
297.259800 79.000000
299.234740 41.000000
301.048030 10.000000
301.244600 26.000000
301.264740 19.000000
301.278410 11.000000
302.263060 10.000000
303.196200 10.000000
307.243130 9.000000
309.247100 39.000000
309.263340 15.000000
310.256440 9.000000
311.143650 10.000000
311.258880 10.000000
311.273440 60.000000
311.292240 21.000000
312.292050 10.000000
312.824550 9.000000
313.218810 9.000000
313.245450 53.000000
314.255520 49.000000
315.255430 15.000000
315.266270 48.000000
316.264590 12.000000
316.282170 14.000000
317.244350 9.000000
321.075780 9.000000
321.255370 23.000000
323.022130 9.000000
323.273250 9.000000
325.306430 11.000000
327.269230 9.000000
328.261050 12.000000
329.273410 13.000000
329.282710 27.000000
329.305510 9.000000
330.259800 9.000000
330.283940 10.000000
335.264620 9.000000
335.274930 10.000000
338.276920 10.000000
339.256100 10.000000
339.272640 9.000000
341.276280 9.000000
342.279720 9.000000
342.299290 10.000000
342.317170 12.000000
343.293060 9.000000
345.287450 9.000000
349.295470 30.000000
350.312440 9.000000
351.185210 18.000000
351.278260 9.000000
351.296360 10.000000
351.321110 18.000000
352.211820 9.000000
359.197450 14.000000
363.284450 25.000000
365.199550 26.000000
365.223420 11.000000
365.325160 106.000000
366.309720 10.000000
366.321690 19.000000
366.341090 11.000000
367.327090 10.000000
367.347720 12.000000
368.348110 9.000000
369.317470 44.000000
372.328120 9.000000
377.266970 9.000000
377.315920 10.000000
379.203830 11.000000
380.297550 9.000000
382.314030 19.000000
383.321750 57.000000
383.347140 20.000000
383.360750 12.000000
384.327330 11.000000
386.347380 11.000000
391.294620 9.000000
393.231750 11.000000
393.329010 10.000000
393.347470 10.000000
393.368960 10.000000
394.368650 18.000000
394.964110 10.000000
395.201900 9.000000
395.362180 13.000000
396.366330 9.000000
405.341000 111.000000
405.363980 106.000000
405.388210 9.000000
405.470340 16.000000
406.237090 13.000000
406.344510 32.000000
406.361270 20.000000
407.355680 10.000000
407.372530 20.000000
411.368160 31.000000
412.351990 10.000000
412.370910 10.000000
412.384980 10.000000
414.386290 9.000000
417.027500 11.000000
417.225710 23.000000
423.323490 9.000000
423.361720 1000.000000
424.306090 9.000000
424.341950 44.000000
424.369230 315.000000
425.358280 14.000000
425.375890 59.000000
425.394560 9.000000
435.365200 32.000000
441.307400 11.000000
441.372890 311.000000
441.693570 9.000000
442.374210 89.000000
442.391450 30.000000
443.359560 29.000000
443.377440 9.000000
494.682620 9.000000
505.325680 9.000000
517.366640 11.000000
545.299130 10.000000
549.025510 11.000000
553.390380 10.000000
554.399050 15.000000
581.381230 10.000000
581.409670 9.000000
582.371950 18.000000
584.387630 9.000000
599.398740 90.000000
600.399780 10.000000
601.431460 12.000000
602.146240 17.000000
602.392030 11.000000
717.354860 10.000000

>ms2
61.074470 17.000000
83.084030 30.000000
95.084930 45.000000
109.094790 32.000000
109.100210 82.000000
111.072740 18.000000
111.086450 24.000000
113.032640 21.000000
115.040700 17.000000
119.085760 19.000000
122.110020 30.000000
123.118240 27.000000
124.120970 20.000000
127.029690 17.000000
127.041610 60.000000
131.002660 21.000000
133.097320 19.000000
133.102490 28.000000
135.114960 36.000000
137.136670 46.000000
138.096280 20.000000
139.106310 18.000000
141.016980 306.000000
141.028750 53.000000
145.049800 384.000000
145.064330 21.000000
145.102070 18.000000
149.128590 89.000000
153.093990 24.000000
154.335360 18.000000
159.019100 79.000000
159.029970 204.000000
159.035770 98.000000
161.134800 17.000000
162.989700 24.000000
163.060650 1365.000000
163.129730 40.000000
163.138400 48.000000
163.150340 99.000000
164.060040 74.000000
164.075530 28.000000
166.174040 20.000000
167.156460 25.000000
170.034150 17.000000
171.895200 26.000000
173.131120 82.000000
175.148410 104.000000
177.036180 114.000000
177.043880 101.000000
177.049440 50.000000
177.160490 161.000000
177.171920 85.000000
178.163670 35.000000
179.173160 17.000000
179.185330 44.000000
187.155110 86.000000
187.636080 19.000000
188.147310 18.000000
189.157230 161.000000
189.167300 177.000000
189.178380 25.000000
189.439270 18.000000
191.179960 194.000000
193.154040 102.000000
193.166490 68.000000
195.046810 37.000000
195.170490 74.000000
195.183200 54.000000
196.173930 17.000000
198.096220 17.000000
199.114150 25.000000
199.142990 17.000000
199.154500 21.000000
200.157120 21.000000
201.157940 108.000000
201.169420 42.000000
203.179110 617.000000
204.176770 18.000000
204.187730 52.000000
205.149370 37.000000
205.160870 127.000000
205.171430 17.000000
205.194960 20.000000
207.151700 17.000000
207.163120 28.000000
207.172380 86.000000
207.182130 43.000000
212.237780 25.000000
213.167850 17.000000
215.141460 17.000000
215.181590 112.000000
216.178830 18.000000
216.193160 17.000000
217.154130 69.000000
217.196700 470.000000
218.189180 52.000000
218.207170 119.000000
219.164930 110.000000
219.177800 126.000000
219.185320 41.000000
219.212400 66.000000
221.137560 43.000000
221.170930 21.000000
221.182680 44.000000
221.192260 136.000000
222.186610 54.000000
222.198580 21.000000
225.165790 23.000000
227.181410 39.000000
229.175750 37.000000
229.196370 113.000000
230.192580 23.000000
230.204220 20.000000
231.166340 21.000000
231.184940 21.000000
231.206710 27.000000
232.219010 17.000000
233.187190 257.000000
234.181200 19.000000
234.789260 17.000000
235.196690 43.000000
235.215120 18.000000
237.080470 17.000000
241.186800 24.000000
241.210160 22.000000
243.045180 42.000000
244.210050 37.000000
245.187840 74.000000
245.218730 17.000000
247.183900 28.000000
247.196900 97.000000
247.215960 19.000000
248.205200 44.000000
250.430800 17.000000
252.449340 17.000000
253.197170 20.000000
255.208240 18.000000
255.790450 18.000000
256.215360 21.000000
256.996340 18.000000
257.192260 19.000000
257.227600 46.000000
257.241420 17.000000
259.204620 75.000000
261.209990 20.000000
261.218540 22.000000
261.229860 20.000000
262.235530 26.000000
264.849490 30.000000
267.074920 17.000000
267.197810 18.000000
267.226350 18.000000
267.606840 21.000000
269.204470 20.000000
271.230350 23.000000
271.247130 18.000000
273.192900 17.000000
273.211360 42.000000
273.221860 98.000000
274.234560 18.000000
274.648280 18.000000
275.232790 20.000000
279.205380 17.000000
281.206910 18.000000
281.224820 20.000000
281.941070 20.000000
283.243680 36.000000
284.247770 17.000000
285.051570 25.000000
285.249850 18.000000
286.241910 17.000000
287.237730 51.000000
287.245730 18.000000
288.240330 35.000000
292.177090 24.000000
297.256350 56.000000
298.265690 42.000000
299.151700 23.000000
299.241330 20.000000
303.073390 102.000000
311.257510 37.000000
311.273160 56.000000
313.256680 47.000000
313.296420 17.000000
315.268100 154.000000
315.283080 41.000000
316.273650 17.000000
320.727170 20.000000
320.973390 18.000000
321.053410 20.000000
321.081510 641.000000
322.069430 25.000000
322.086300 17.000000
322.095120 46.000000
323.098140 18.000000
325.097230 48.000000
325.111300 282.000000
325.215820 17.000000
326.117860 88.000000
326.131320 26.000000
326.310580 20.000000
326.641600 17.000000
327.117710 61.000000
327.159730 19.000000
327.258580 18.000000
328.282010 22.000000
329.279390 86.000000
329.298580 17.000000
330.279660 17.000000
332.660610 23.000000
335.274200 17.000000
337.552520 17.000000
339.087710 700.000000
339.100560 291.000000
340.094120 75.000000
341.099610 20.000000
341.319210 20.000000
342.984310 19.000000
345.167020 26.000000
347.188290 20.000000
349.117000 25.000000
349.294980 66.000000
349.317140 27.000000
351.173250 19.000000
351.304750 21.000000
357.289150 19.000000
358.093540 29.000000
361.299960 21.000000
363.205870 20.000000
365.201480 123.000000
365.318390 190.000000
366.891510 21.000000
367.291170 21.000000
367.330810 38.000000
368.228880 23.000000
369.309940 22.000000
369.321750 17.000000
370.309540 26.000000
370.320590 23.000000
371.214690 18.000000
377.209870 27.000000
379.198940 20.000000
379.215030 42.000000
383.329440 161.000000
383.755370 20.000000
384.324400 21.000000
384.340270 48.000000
384.349700 18.000000
385.295750 17.000000
385.335170 18.000000
386.341250 19.000000
389.202330 20.000000
391.200010 18.000000
392.021180 22.000000
393.233460 17.000000
393.306240 19.000000
395.215910 19.000000
395.363430 18.000000
396.835910 18.000000
404.767180 18.000000
405.241940 17.000000
405.353640 354.000000
405.382350 41.000000
406.226620 17.000000
406.297000 17.000000
406.324800 18.000000
406.356540 238.000000
407.354130 33.000000
407.366820 31.000000
407.395480 22.000000
408.375370 21.000000
411.344330 40.000000
411.373810 17.000000
412.008970 17.000000
415.951970 19.000000
417.221710 17.000000
418.987490 17.000000
419.248960 45.000000
421.319520 17.000000
422.374510 17.000000
423.152680 20.000000
423.197750 21.000000
423.360050 3748.000000
423.401030 17.000000
424.364620 1383.000000
424.398380 49.000000
425.293030 18.000000
425.369810 154.000000
426.991940 17.000000
427.982330 19.000000
436.346370 18.000000
437.235110 17.000000
440.360140 17.000000
441.317570 74.000000
441.372890 5530.000000
441.438600 17.000000
441.503390 24.000000
442.315890 17.000000
442.373690 1504.000000
442.389860 537.000000
443.370060 116.000000
443.384460 126.000000
443.398770 92.000000
443.414030 35.000000
444.329530 21.000000
444.369380 31.000000
444.392490 19.000000
445.238680 17.000000
445.299320 19.000000
451.365080 17.000000
459.185210 17.000000
459.322110 18.000000
459.347690 85.000000
459.382970 212.000000
459.401310 127.000000
460.363800 18.000000
460.391390 108.000000
460.411710 29.000000
461.391360 20.000000
462.392640 23.000000
467.948240 17.000000
477.692960 17.000000
480.563720 30.000000
482.174500 21.000000
483.124330 18.000000
486.057310 22.000000
487.002290 20.000000
491.340450 19.000000
498.236420 26.000000
501.127660 80.000000
501.149350 209.000000
501.185360 21.000000
501.521420 17.000000
502.129580 18.000000
502.148830 40.000000
504.133790 18.000000
511.325290 17.000000
513.529480 21.000000
515.173100 21.000000
515.492070 37.000000
516.302550 24.000000
531.882810 26.000000
532.190430 20.000000
534.129700 36.000000
535.021670 21.000000
539.119020 21.000000
551.528690 19.000000
563.161380 22.000000
563.407170 36.000000
563.858890 44.000000
571.857240 18.000000
574.444150 18.000000
576.508300 18.000000
577.288450 17.000000
579.384700 31.000000
581.096310 21.000000
581.340210 18.000000
581.382750 244.000000
581.402400 150.000000
582.348820 19.000000
582.379640 78.000000
582.406010 96.000000
583.427310 18.000000
599.329100 54.000000
599.391300 2646.000000
599.541750 18.000000
600.396240 1152.000000
601.390010 169.000000
601.407410 82.000000
602.389590 17.000000
602.405580 34.000000
604.127140 18.000000
604.719790 20.000000
606.370060 27.000000
609.522220 23.000000
609.782170 20.000000
617.347840 41.000000
617.405640 1255.000000
617.448240 50.000000
617.591800 17.000000
618.355830 18.000000
618.409180 480.000000
619.362670 17.000000
619.403930 66.000000
619.423950 17.000000
621.354490 47.000000
621.411930 34.000000
621.452210 38.000000
622.442500 36.000000
623.893250 19.000000
631.167300 17.000000
635.369570 39.000000
635.404360 434.000000
635.425900 861.000000
635.596250 17.000000
636.380800 17.000000
636.421080 279.000000
636.454280 37.000000
636.871280 19.000000
637.383670 22.000000
637.407590 42.000000
637.425170 35.000000
638.773010 17.000000
641.221740 17.000000
644.891970 27.000000
656.001400 24.000000
750.339360 17.000000
753.942320 21.000000
754.154170 18.000000
755.357300 18.000000
759.475460 31.000000
765.460020 20.000000
779.447080 50.000000
783.411800 24.000000
783.494510 34.000000
797.441770 99.000000
797.482060 458.000000
798.472350 157.000000
798.499820 160.000000
799.320920 23.000000
799.438600 45.000000
799.453060 17.000000
799.487730 44.000000
815.572270 17.000000
839.262020 27.000000
941.505430 17.000000
956.926940 17.000000
957.511780 20.000000
958.771610 18.000000
959.054990 17.000000
959.349490 34.000000
959.438480 139.000000
959.519780 16230.000000
959.601680 94.000000
959.676330 17.000000

