>compound PR64633109
>parentmass 597.1813967999999
>ionization [M+H]+
>formula C27H32O15
>rt 242.584980
>profile qtof
#smiles_iso C[C@H]1[C@@H]([C@H]([C@H]([C@@H](O1)O[C@@H]2[C@H]([C@@H]([C@H](O[C@H]2OC3=CC(=C4C(=O)C[C@H](OC4=C3)C5=CC(=C(C=C5)O)O)O)CO)O)O)O)O)O
#smiles_can CC1C(C(C(C(O1)OC2C(C(C(OC2OC3=CC(=C4C(=O)CC(OC4=C3)C5=CC(=C(C=C5)O)O)O)CO)O)O)O)O)O
#inchikey OBKKEZLIABHSGY-DOYQYKRZSA-N
#pubchem_id 114627
#mb_accession PR302409,PR302415,PR302421,PR302427,PR302433,PR302439,PR302445,PR302451,PR302457,PR302463,PR302469,PR302475

>ms2peaks
85.024480 52.000000
85.031490 31.000000
87.033780 18.000000
98.309470 19.000000
147.063510 24.000000
148.067700 30.000000
153.008420 29.000000
153.017820 116.000000
163.031200 25.000000
163.039520 65.000000
175.038220 29.000000
177.983690 52.000000
179.042950 33.000000
195.026060 166.000000
204.038710 42.000000
219.023820 43.000000
220.015850 19.000000
225.047180 31.000000
245.042070 22.000000
249.035610 27.000000
255.079760 18.000000
263.049840 24.000000
281.061680 84.000000
288.063140 37.000000
289.071350 1000.000000
290.079190 148.000000
301.052800 29.000000
301.067440 47.000000
313.067840 40.000000
315.070530 19.000000
328.895870 21.000000
331.060820 51.000000
331.353700 30.000000
332.095760 77.000000
339.099580 26.000000
355.079990 64.000000
381.069240 35.000000
382.067780 45.000000
399.102870 61.000000
399.120700 79.000000
400.103030 29.000000
416.108760 43.000000
417.110960 122.000000
418.084440 24.000000
418.096830 29.000000
425.104370 34.000000
433.089970 50.000000
433.115750 55.000000
435.095460 27.000000
435.122620 82.000000
435.135830 148.000000
436.138610 82.000000
437.134190 26.000000
445.501710 24.000000
450.121030 21.000000
451.081600 21.000000
451.124180 218.000000
452.138060 20.000000
475.137360 40.000000
561.182190 19.000000
579.197750 29.000000
597.146480 18.000000
597.187130 127.000000

>ms2peaks
69.029620 45.000000
129.058590 55.000000
147.059460 59.000000
274.545650 31.000000
281.057100 48.000000
281.068630 38.000000
287.058070 27.000000
288.665890 21.000000
289.051700 71.000000
289.070250 423.000000
290.063320 21.000000
290.077880 63.000000
291.078370 60.000000
309.116490 20.000000
309.127530 36.000000
311.127170 22.000000
331.072810 98.000000
331.085970 50.000000
332.077640 110.000000
334.932190 22.000000
390.887760 23.000000
395.149110 22.000000
395.660710 21.000000
405.070310 20.000000
405.746520 27.000000
415.122440 20.000000
417.115260 119.000000
418.115360 37.000000
433.098940 187.000000
434.112270 24.000000
435.080050 93.000000
435.117220 178.000000
435.133790 192.000000
436.101170 24.000000
436.127260 160.000000
436.153750 31.000000
437.135310 30.000000
437.617580 33.000000
438.120760 24.000000
451.087460 48.000000
451.127660 120.000000
452.126800 66.000000
457.120510 35.000000
467.021790 31.000000
475.128750 21.000000
478.143650 60.000000
493.111180 31.000000
495.584500 21.000000
517.110170 24.000000
561.109860 23.000000
561.161070 65.000000
562.164920 21.000000
580.173220 24.000000
597.085690 31.000000
597.141110 102.000000
597.175780 1000.000000
597.202760 380.000000

>ms2peaks
57.035450 53.000000
71.046940 22.000000
85.029060 28.000000
117.054470 27.000000
129.056560 97.000000
153.012440 22.000000
153.019990 25.000000
163.031430 86.000000
163.040470 24.000000
164.037400 30.000000
165.017400 37.000000
167.349550 41.000000
184.693420 42.000000
195.013890 32.000000
195.027080 81.000000
196.035570 28.000000
215.070830 27.000000
218.002750 27.000000
219.028170 114.000000
234.293850 24.000000
245.052540 25.000000
263.054350 25.000000
263.071290 24.000000
264.032230 23.000000
264.057890 52.000000
279.045900 37.000000
280.061610 23.000000
281.058500 44.000000
287.034880 25.000000
287.048950 33.000000
289.053280 118.000000
289.073390 1000.000000
289.100740 46.000000
289.939790 22.000000
290.055210 34.000000
290.087310 23.000000
297.056300 24.000000
301.073790 32.000000
302.052920 25.000000
302.085020 33.000000
313.066620 104.000000
355.013280 22.000000
355.087250 77.000000
367.053830 32.000000
371.059420 44.000000
379.079320 94.000000
381.095700 265.000000
386.116270 32.000000
398.083560 23.000000
400.136470 22.000000
411.118770 51.000000
411.993680 32.000000
415.091310 72.000000
425.105960 66.000000
455.097140 27.000000

>ms2peaks
71.038340 86.000000
71.044650 82.000000
81.032970 107.000000
83.050990 69.000000
85.018700 62.000000
85.029080 540.000000
95.046670 69.000000
111.053780 103.000000
123.041890 82.000000
137.061430 96.000000
145.030850 96.000000
149.020970 107.000000
153.000750 69.000000
153.017580 1000.000000
163.042250 519.000000
164.045200 110.000000
165.020220 141.000000
177.019850 76.000000
177.037660 69.000000
189.052410 93.000000
195.009670 144.000000
195.021800 96.000000
195.031510 419.000000
198.645920 96.000000
201.054060 96.000000
217.059510 69.000000
219.036540 175.000000
229.058180 137.000000
245.041790 79.000000
247.058910 93.000000
264.065800 158.000000
289.059600 251.000000
289.075410 282.000000
290.074190 72.000000
325.080080 158.000000
463.297550 79.000000
463.694890 93.000000

>ms2peaks
85.029030 32.000000
124.283570 26.000000
127.038450 37.000000
129.050460 41.000000
129.061420 58.000000
147.070160 118.000000
148.072690 46.000000
153.018360 90.000000
154.013570 43.000000
179.032170 43.000000
215.038310 47.000000
217.043550 28.000000
219.027180 28.000000
245.057510 38.000000
261.049190 31.000000
263.061950 46.000000
281.070070 29.000000
287.043980 32.000000
287.062930 28.000000
289.053830 31.000000
289.071870 1000.000000
290.056490 29.000000
290.069850 47.000000
290.084560 158.000000
291.071380 26.000000
309.080990 46.000000
313.030430 28.000000
331.063480 35.000000
331.083440 60.000000
331.096160 31.000000
332.089630 31.000000
333.087620 32.000000
334.089540 57.000000
355.053380 35.000000
355.075470 28.000000
356.085660 107.000000
356.101620 60.000000
381.100370 26.000000
393.258270 28.000000
397.077390 37.000000
399.095310 35.000000
399.104430 84.000000
416.105260 51.000000
417.123020 133.000000
421.091090 40.000000
433.123320 46.000000
435.128230 306.000000
451.121370 245.000000
451.142180 41.000000
452.117000 93.000000
452.145600 35.000000
453.121120 35.000000
477.142330 112.000000
477.152860 63.000000
498.105530 31.000000
580.170590 69.000000
581.196470 35.000000
597.136350 51.000000
597.170100 121.000000
597.200440 194.000000

>ms2peaks
196.035060 33.000000
273.096250 31.000000
281.027800 52.000000
289.070590 633.000000
290.079190 72.000000
291.057370 65.000000
307.730220 44.000000
309.107180 39.000000
310.118840 39.000000
331.077970 212.000000
331.096190 77.000000
354.067540 52.000000
355.083740 70.000000
399.107640 76.000000
399.127870 39.000000
403.152070 46.000000
417.104190 105.000000
417.127470 166.000000
433.118380 138.000000
435.092190 72.000000
435.130130 644.000000
435.861690 39.000000
436.118650 33.000000
436.145870 196.000000
437.142970 41.000000
450.932130 35.000000
451.062620 37.000000
451.103880 77.000000
451.123050 315.000000
451.143680 155.000000
452.112180 149.000000
452.134950 100.000000
452.153440 31.000000
465.135470 59.000000
475.120210 79.000000
477.124450 35.000000
493.110870 39.000000
525.142700 61.000000
561.171390 41.000000
562.161320 50.000000
579.169190 120.000000
579.199650 57.000000
581.190430 81.000000
597.058230 42.000000
597.167910 504.000000
597.195430 1000.000000

>ms2peaks
71.052220 30.000000
85.029690 69.000000
85.032750 30.000000
97.032890 37.000000
99.042460 62.000000
129.046190 60.000000
129.052750 178.000000
130.057220 63.000000
136.997470 65.000000
137.563200 35.000000
153.007390 42.000000
153.016450 97.000000
163.037860 146.000000
177.015980 30.000000
195.028920 247.000000
219.028310 402.000000
220.041530 39.000000
229.016820 42.000000
233.045380 62.000000
245.037770 69.000000
245.065550 39.000000
247.056240 32.000000
249.178010 46.000000
253.050200 46.000000
263.063510 132.000000
264.064390 35.000000
273.050990 48.000000
279.062710 32.000000
281.020510 34.000000
281.064450 63.000000
287.051700 46.000000
289.028900 32.000000
289.058690 384.000000
289.070740 1000.000000
290.048190 30.000000
290.070070 275.000000
291.058590 78.000000
291.083830 46.000000
292.748290 41.000000
297.049040 37.000000
299.087370 42.000000
301.064850 76.000000
301.076080 176.000000
302.079900 49.000000
331.094850 49.000000
355.010770 69.000000
355.063230 30.000000
355.086460 143.000000
356.085940 37.000000
356.398990 51.000000
367.093350 69.000000
379.072810 120.000000
381.094360 74.000000
436.111300 53.000000

>ms2peaks
71.051940 46.000000
85.008310 51.000000
85.016720 87.000000
85.024380 142.000000
85.031970 142.000000
87.046450 64.000000
89.025030 102.000000
111.009540 107.000000
123.049900 51.000000
129.058910 127.000000
133.063540 64.000000
135.041530 51.000000
135.048650 104.000000
145.022400 64.000000
145.040420 109.000000
153.017060 1000.000000
154.020050 43.000000
159.047620 64.000000
163.037630 501.000000
165.004060 53.000000
165.012650 97.000000
177.016800 46.000000
178.022230 53.000000
179.034240 145.000000
183.040910 71.000000
187.038930 92.000000
191.036390 112.000000
193.037060 48.000000
195.006350 69.000000
195.024260 137.000000
195.034520 275.000000
199.041630 51.000000
217.049260 135.000000
218.980610 43.000000
219.025450 285.000000
229.042740 46.000000
237.039990 56.000000
243.072920 46.000000
245.051680 43.000000
246.045680 53.000000
263.055180 43.000000
287.053920 285.000000
288.044770 53.000000
289.074070 221.000000

>ms2peaks
71.045560 41.000000
71.051380 104.000000
129.035870 57.000000
129.054980 67.000000
153.020250 124.000000
153.033080 29.000000
163.041000 31.000000
163.048690 38.000000
179.032260 47.000000
191.024860 35.000000
195.031750 287.000000
196.023330 90.000000
203.033780 33.000000
207.014510 36.000000
219.013920 35.000000
219.034190 48.000000
229.054780 52.000000
245.052260 38.000000
246.048930 33.000000
257.043730 36.000000
261.036590 55.000000
261.052250 73.000000
263.042080 33.000000
263.058560 104.000000
265.069950 54.000000
283.062590 62.000000
287.050140 62.000000
289.044890 59.000000
289.067630 1000.000000
289.088590 145.000000
290.063810 85.000000
290.082700 231.000000
291.076930 41.000000
297.070100 36.000000
301.071620 81.000000
313.060520 59.000000
331.077240 161.000000
333.099330 36.000000
339.104060 41.000000
344.084750 36.000000
355.066380 35.000000
355.078830 76.000000
356.075470 47.000000
358.093840 29.000000
380.100920 71.000000
381.087490 35.000000
381.104610 135.000000
397.091280 97.000000
399.091920 78.000000
399.103120 76.000000
399.141420 67.000000
399.338290 35.000000
417.089720 41.000000
417.133210 33.000000
418.109250 38.000000
419.069120 43.000000
419.129360 40.000000
421.083740 36.000000
433.103700 149.000000
433.126770 35.000000
434.121150 50.000000
435.024380 47.000000
435.073030 55.000000
435.114960 130.000000
435.129060 154.000000
435.149660 93.000000
436.107940 40.000000
436.133300 123.000000
437.130890 88.000000
451.111660 31.000000
451.133300 173.000000
452.114960 29.000000
452.127530 29.000000
453.146610 41.000000
459.124240 35.000000
465.109280 35.000000
475.141240 31.000000
477.120210 29.000000
477.142700 33.000000
543.159910 50.000000
558.939150 29.000000
562.166930 47.000000
579.175840 29.000000
597.134400 60.000000
597.173890 64.000000
597.192020 159.000000

>ms2peaks
147.064300 64.000000
237.076340 43.000000
281.066930 68.000000
289.062440 475.000000
289.087460 51.000000
289.177060 20.000000
290.062770 28.000000
290.076720 53.000000
299.859470 32.000000
313.071230 25.000000
319.192600 29.000000
331.041440 33.000000
331.069090 24.000000
331.080410 50.000000
331.090360 71.000000
381.135710 24.000000
399.098820 25.000000
416.100460 37.000000
417.129550 73.000000
433.074310 34.000000
433.119110 36.000000
433.137820 23.000000
434.101010 24.000000
434.595860 19.000000
435.099490 94.000000
435.113130 207.000000
435.139190 341.000000
435.406680 24.000000
436.131840 198.000000
437.122680 75.000000
450.097660 20.000000
451.045070 20.000000
451.069210 23.000000
451.092560 54.000000
451.106080 132.000000
451.131710 515.000000
452.138760 87.000000
459.133510 28.000000
460.101290 19.000000
477.145390 21.000000
500.127500 35.000000
543.153690 24.000000
561.120480 27.000000
561.192080 20.000000
562.137880 33.000000
580.163450 19.000000
595.053280 19.000000
597.119020 45.000000
597.169740 402.000000
597.183470 1000.000000
597.214050 156.000000

>ms2peaks
69.036150 36.000000
71.050230 47.000000
85.025990 195.000000
85.031300 47.000000
129.046650 44.000000
129.054000 130.000000
129.058820 36.000000
135.051500 42.000000
153.014940 54.000000
163.040050 26.000000
195.027400 192.000000
195.042330 26.000000
219.031940 136.000000
221.032580 54.000000
221.447770 26.000000
238.029370 45.000000
245.042890 95.000000
249.042390 36.000000
263.027310 36.000000
263.050870 29.000000
263.064000 54.000000
271.070830 30.000000
287.044860 62.000000
287.069430 27.000000
289.070560 1000.000000
290.075290 144.000000
291.071810 50.000000
294.736820 48.000000
314.063230 30.000000
331.064150 36.000000
331.084530 54.000000
343.071990 30.000000
355.071010 32.000000
355.094300 59.000000
356.084840 33.000000
381.089540 47.000000
397.120790 36.000000
399.119200 69.000000
412.103910 42.000000
435.071590 41.000000
584.065120 30.000000

>ms2peaks
71.050130 68.000000
71.054610 49.000000
85.017250 46.000000
85.021400 87.000000
85.028500 390.000000
103.822840 46.000000
111.041320 46.000000
125.029500 82.000000
152.989150 79.000000
153.019590 1000.000000
163.036580 689.000000
163.787890 46.000000
164.044460 71.000000
165.023010 188.000000
179.024770 65.000000
181.034350 63.000000
188.038820 68.000000
189.010130 74.000000
191.026030 136.000000
195.023680 267.000000
195.043660 202.000000
203.027770 54.000000
205.049320 213.000000
219.025050 49.000000
219.043690 87.000000
244.032170 128.000000
245.043530 76.000000
246.050610 101.000000
249.067020 65.000000
263.050540 114.000000
271.058900 71.000000
289.071170 218.000000
289.080660 60.000000
301.072850 65.000000
301.081910 54.000000

