>compound PR64225888
>parentmass 611.1606613000001
>ionization [M+H]+
>formula C27H30O16
>rt 227.983020
>profile qtof
#smiles_iso C1=CC(=CC=C1C2=C(C(=O)C3=C(C=C(C=C3O2)O)O)O[C@H]4[C@@H]([C@H]([C@@H]([C@H](O4)CO)O)O)O[C@H]5[C@@H]([C@H]([C@@H]([C@H](O5)CO)O)O)O)O
#smiles_can C1=CC(=CC=C1C2=C(C(=O)C3=C(C=C(C=C3O2)O)O)OC4C(C(C(C(O4)CO)O)O)OC5C(C(C(C(O5)CO)O)O)O)O
#inchikey LKZDFKLGDGSGEO-UJECXLDQSA-N
#pubchem_id 5282155
#mb_accession PR303411,PR303413,PR303415,PR303417,PR303419,PR303421,PR303423,PR303425,PR303427,PR303429,PR303431,PR303433

>ms2
106.726070 10.000000
127.037120 16.000000
127.044680 15.000000
145.049210 14.000000
163.063780 10.000000
231.069080 8.000000
286.871830 8.000000
287.010040 24.000000
287.055760 1000.000000
288.037230 8.000000
288.056580 83.000000
288.074370 23.000000
289.053220 11.000000
290.064510 18.000000
329.050170 12.000000
329.068700 10.000000
367.079800 9.000000
395.060060 11.000000
413.087830 8.000000
449.060000 11.000000
449.100490 45.000000
449.130650 18.000000
450.094600 18.000000
611.111210 9.000000
611.153320 84.000000

>ms2
145.053510 15.000000
286.665440 10.000000
287.056180 1000.000000
288.059540 186.000000
289.056520 17.000000
289.068510 28.000000
329.047730 11.000000
375.362460 17.000000
413.112090 12.000000
421.214480 12.000000
449.090880 47.000000
449.107090 266.000000
449.127620 132.000000
450.111240 87.000000
451.108580 50.000000
451.127260 33.000000
494.974460 20.000000
611.095580 25.000000
611.142700 107.000000
611.159180 314.000000

>ms2
74.367130 11.000000
81.035260 10.000000
85.027220 23.000000
85.033580 10.000000
109.031750 21.000000
115.037020 13.000000
119.934370 23.000000
127.036870 40.000000
127.042490 18.000000
145.039220 21.000000
145.050860 40.000000
147.060380 11.000000
163.065660 19.000000
266.507870 21.000000
287.017300 13.000000
287.053830 1000.000000
287.584720 13.000000
288.058380 99.000000
289.060390 51.000000
289.073910 16.000000
299.064210 10.000000
327.053530 19.000000
329.058260 11.000000
330.061040 13.000000
383.070160 16.000000
383.093440 34.000000
384.086270 10.000000
432.096130 11.000000
449.111630 10.000000
477.092440 14.000000

>ms2
57.034600 30.000000
85.027860 111.000000
87.030630 18.000000
97.031770 20.000000
105.032740 26.000000
111.028180 27.000000
147.048420 21.000000
153.015930 18.000000
154.014910 18.000000
158.061520 23.000000
164.999100 20.000000
170.945110 18.000000
197.052350 25.000000
214.054980 17.000000
215.040920 14.000000
258.043150 28.000000
287.021060 18.000000
287.057130 1000.000000
288.061860 107.000000
289.039550 18.000000
299.053250 15.000000
315.075840 18.000000
326.065490 19.000000

>ms2
75.672070 7.000000
85.033480 8.000000
87.044880 12.000000
97.027080 13.000000
101.352700 7.000000
103.038470 9.000000
127.040810 7.000000
128.046230 13.000000
133.028550 12.000000
145.047970 14.000000
153.008420 21.000000
171.031170 9.000000
287.054290 1000.000000
288.035680 10.000000
288.051610 40.000000
288.064330 66.000000
288.092560 8.000000
289.061370 26.000000
289.078250 15.000000
327.048250 12.000000
377.962490 10.000000
395.076200 6.000000
431.103390 8.000000
442.470400 6.000000
449.108310 72.000000
450.103120 18.000000
452.112000 7.000000
611.154050 34.000000
611.175720 9.000000

>ms2
87.043700 11.000000
145.048890 8.000000
163.057040 13.000000
287.015620 13.000000
287.025540 20.000000
287.055020 1000.000000
287.681610 11.000000
288.060030 171.000000
288.076200 42.000000
289.061580 25.000000
289.069580 11.000000
308.226870 10.000000
325.102140 10.000000
351.913670 10.000000
449.106050 428.000000
450.108370 42.000000
450.163480 9.000000
451.070160 14.000000
451.114560 19.000000
611.155760 436.000000

>ms2
69.038280 8.000000
85.027600 17.000000
85.573300 8.000000
98.027660 11.000000
127.029090 12.000000
127.038540 19.000000
144.902440 8.000000
145.047210 11.000000
145.057630 9.000000
145.332580 9.000000
285.497920 13.000000
287.029170 17.000000
287.055820 1000.000000
288.035680 19.000000
288.044370 20.000000
288.061190 110.000000
288.076810 9.000000
289.049680 9.000000
289.064060 27.000000
290.070370 14.000000
290.352780 8.000000
299.042020 8.000000
329.049500 14.000000
335.599090 10.000000

>ms2
85.031430 18.000000
91.044330 14.000000
109.029500 32.000000
121.035160 27.000000
127.044940 17.000000
133.023470 16.000000
152.994610 14.000000
153.023300 28.000000
157.056170 13.000000
165.018420 31.000000
167.066360 19.000000
201.059650 27.000000
213.059170 39.000000
241.055860 38.000000
258.052000 14.000000
259.072910 30.000000
283.057040 18.000000
286.043700 19.000000
287.011690 22.000000
287.056520 1000.000000
288.051330 37.000000
288.063450 83.000000
289.059810 14.000000
289.888060 14.000000
313.023350 24.000000
325.072690 16.000000
329.074950 52.000000
330.059330 17.000000

>ms2
97.025830 14.000000
97.031240 11.000000
109.030810 12.000000
127.047370 9.000000
227.026080 8.000000
287.028870 32.000000
287.054440 1000.000000
288.035640 7.000000
288.058110 145.000000
289.060520 11.000000
290.059720 8.000000
294.494420 7.000000
299.042510 6.000000
311.064420 6.000000
329.065860 16.000000
353.071780 9.000000
395.078030 12.000000
431.098420 9.000000
449.093320 42.000000
449.114140 72.000000
450.114040 23.000000
451.066800 11.000000
611.155030 51.000000
611.180910 19.000000

>ms2
127.041800 8.000000
163.062180 22.000000
287.017550 10.000000
287.056550 1000.000000
287.747440 11.000000
288.025730 12.000000
288.048370 53.000000
288.062530 182.000000
289.046230 13.000000
289.059750 13.000000
289.294130 9.000000
309.293910 8.000000
325.074980 10.000000
329.072810 8.000000
395.497410 8.000000
449.083010 38.000000
449.109040 359.000000
450.092590 43.000000
450.127410 22.000000
451.116820 13.000000
541.426640 8.000000
611.165040 356.000000

>ms2
81.032410 9.000000
85.026890 11.000000
85.031910 10.000000
97.037540 20.000000
99.039020 12.000000
127.037500 14.000000
127.046350 18.000000
145.047000 32.000000
145.052960 19.000000
216.239430 14.000000
286.163700 11.000000
287.024380 15.000000
287.054960 1000.000000
288.057280 161.000000
288.067290 59.000000
288.080960 11.000000
289.043880 9.000000
289.068360 32.000000
290.061370 8.000000
312.054810 8.000000
329.071170 38.000000
330.086210 22.000000
353.048370 11.000000
353.075320 19.000000
354.076540 24.000000
449.126160 9.000000

>ms2
71.052850 28.000000
81.034650 12.000000
85.026200 19.000000
85.033160 31.000000
97.026230 35.000000
107.051650 17.000000
109.032730 15.000000
133.029660 19.000000
137.024700 11.000000
153.023680 14.000000
165.012470 35.000000
165.018910 24.000000
192.533330 19.000000
192.884200 16.000000
212.036360 11.000000
214.051560 22.000000
223.233670 16.000000
252.667660 18.000000
258.056150 46.000000
269.041600 13.000000
287.053740 1000.000000
288.033910 19.000000
288.054900 206.000000
288.586400 11.000000
289.031310 16.000000
289.068330 50.000000
293.133420 11.000000
299.064060 18.000000
325.067870 31.000000
325.084230 29.000000
329.064880 12.000000
329.077270 16.000000
365.065700 11.000000
365.074890 23.000000
566.466490 22.000000

