>compound PR64818971
>parentmass 165.04045
>ionization [M+H]+
>formula C6H12OS2
>rt 317.400000
>profile qtof
#smiles_iso CCCS(=O)SC=CC
#smiles_can CCCS(=O)SC=CC
#inchikey XLVMWOFYTFNDKM-UHFFFAOYSA-N
#pubchem_id 72731117
#mb_accession PR311161,PR311162

>ms2
84.953670 17.000000
124.953790 16.000000
165.042540 16.000000

>ms2
73.013200 37.000000
74.017200 16.000000
93.035700 23.000000
104.981350 17.000000
125.010630 24.000000
126.975450 25.000000

