>compound PR64209549
>parentmass 868.5053
>ionization [M+H]+
>formula C45H73NO15
>rt 297.000000
>profile qtof
#smiles_iso CC1CCC2C(C3C(N2C1)CC4C3(CCC5C4CC=C6C5(CCC(C6)OC7C(C(C(C(O7)CO)O)OC8C(C(C(C(O8)CO)O)O)O)OC9C(C(C(C(O9)C)O)O)O)C)C)C
#smiles_can CC1CCC2C(C3C(N2C1)CC4C3(CCC5C4CC=C6C5(CCC(C6)OC7C(C(C(C(O7)CO)O)OC8C(C(C(C(O8)CO)O)O)O)OC9C(C(C(C(O9)C)O)O)O)C)C)C
#inchikey ZGVSETXHNHBTRK-UHFFFAOYSA-N
#pubchem_id 262500
#mb_accession PR310712

>ms2peaks
130.895650 18.000000
184.253520 20.000000
214.438480 20.000000
220.079860 17.000000
248.332400 19.000000
265.987820 21.000000
289.953580 18.000000
313.407170 20.000000
380.326970 18.000000
382.428010 25.000000
393.304200 37.000000
398.344300 37.000000
399.464720 22.000000
400.052400 23.000000
413.685820 19.000000
422.554960 27.000000
429.139680 22.000000
432.243410 21.000000
451.424900 17.000000
453.000520 17.000000
459.351870 27.000000
463.059390 28.000000
464.932430 17.000000
470.317540 17.000000
474.467100 24.000000
474.765720 27.000000
474.937040 20.000000
476.033170 24.000000
482.266630 21.000000
484.144810 18.000000
484.963100 19.000000
486.569580 18.000000
488.326810 27.000000
490.960940 28.000000
491.237610 24.000000
493.989560 20.000000
494.588070 20.000000
495.646580 42.000000
497.697720 18.000000
501.064450 30.000000
501.707490 22.000000
506.971860 25.000000
508.484190 19.000000
509.634430 45.000000
511.904300 21.000000
515.521300 23.000000
516.275390 20.000000
518.485840 26.000000
520.899960 50.000000
521.252260 21.000000
522.932920 20.000000
528.081670 25.000000
529.474980 27.000000
536.472960 29.000000
538.016300 17.000000
541.757140 21.000000
543.688600 24.000000
544.503300 21.000000
544.676940 27.000000
545.459470 23.000000
547.340150 27.000000
547.835330 42.000000
556.765320 20.000000
556.830810 17.000000
561.191960 40.000000
562.853270 22.000000
564.807740 18.000000
567.731690 25.000000
570.335330 20.000000
570.452390 25.000000
572.957460 42.000000
576.329710 20.000000
578.259220 19.000000
578.816960 32.000000
586.272770 27.000000
590.123900 27.000000
594.328550 25.000000
596.984070 33.000000
601.180420 17.000000
606.018550 28.000000
606.591130 52.000000
613.629090 20.000000
615.071660 20.000000
615.644530 24.000000
616.028560 20.000000
618.006040 20.000000
620.201720 33.000000
622.181760 19.000000
633.745060 25.000000
636.233340 27.000000
644.369260 19.000000
658.107730 20.000000
663.667910 17.000000
664.327090 24.000000
666.533390 17.000000
667.073360 22.000000
675.164180 24.000000
683.566960 39.000000
688.573060 33.000000
697.023930 33.000000
706.392640 24.000000
706.456540 27.000000
706.678590 47.000000
709.661990 18.000000
712.206670 25.000000
720.303890 17.000000
722.432920 20.000000
722.500610 18.000000
723.454100 22.000000
727.504700 22.000000
734.576350 23.000000
735.318850 17.000000
737.388370 27.000000
738.436280 28.000000
741.110410 18.000000
744.179020 31.000000
752.864690 24.000000
762.844180 27.000000
784.476810 23.000000
785.198550 55.000000
802.007930 19.000000
806.226070 17.000000
827.719670 17.000000
851.513000 22.000000
851.817440 17.000000
852.241820 18.000000
852.753420 48.000000
852.952640 21.000000
853.084230 17.000000
854.830080 17.000000
860.596740 18.000000
862.755800 18.000000
863.240110 18.000000
864.375180 19.000000
865.922120 19.000000
866.114810 17.000000
866.185240 18.000000
866.375240 32.000000
866.494080 18.000000
866.535710 20.000000
866.694210 42.000000
867.048340 17.000000
867.452270 54.000000
867.491880 135.000000
867.667110 37.000000
867.711300 17.000000
867.849730 17.000000
868.009520 24.000000
868.054990 17.000000
868.090940 17.000000
868.251890 96.000000
868.290280 59.000000
868.345460 262.000000
868.375180 427.000000
868.412480 1061.000000
868.502750 79910.000000
868.591490 1054.000000
868.676150 150.000000

