>compound PR64039766
>parentmass 717.364661569231
>ionization [M+H]+
>formula C43H48N4O6
>rt 347.557846
>profile qtof
#smiles_iso COC1=CC=CC2=C1N3CC45CC6C3(C27CCN8C7C9(C6)CCOC9CC8)OC4N1CCC23C1C1(C5OCC1)CC(=C2NC1=CC=CC=C31)C(=O)OC
#smiles_can COC1=CC=CC2=C1N3CC45CC6C3(C27CCN8C7C9(C6)CCOC9CC8)OC4N1CCC23C1C1(C5OCC1)CC(=C2NC1=CC=CC=C31)C(=O)OC
#inchikey RZBFPDQKWUWUCK-UHFFFAOYSA-N
#pubchem_id 182033
#mb_accession PR300326,PR300330,PR300335,PR300340,PR300345,PR300350,PR300355,PR300360,PR300365,PR300370,PR300375,PR300380,PR310656

>ms2peaks
196.074370 7.000000
227.225300 5.000000
228.098820 43.000000
245.130330 74.000000
245.144790 7.000000
246.118230 6.000000
246.131850 29.000000
247.137560 10.000000
337.193450 6.000000
347.126250 11.000000
347.141570 42.000000
348.132630 11.000000
349.204830 5.000000
357.166600 12.000000
379.165830 190.000000
379.177610 69.000000
380.153750 16.000000
380.171540 37.000000
380.182710 11.000000
381.159270 8.000000
389.170840 5.000000
465.232420 7.000000
472.241640 15.000000
487.305510 6.000000
490.264040 30.000000
490.278870 14.000000
526.483640 6.000000
667.316650 8.000000
685.325870 40.000000
685.350650 19.000000
686.326170 15.000000
686.355650 17.000000
699.350340 29.000000
700.354740 22.000000
700.390870 8.000000
701.377140 7.000000
716.335880 7.000000
716.363460 9.000000
717.220460 6.000000
717.240600 6.000000
717.283940 14.000000
717.363340 1000.000000

>ms2peaks
350.170100 6.000000
379.165560 7.000000
716.347350 8.000000
717.245120 9.000000
717.287960 19.000000
717.311280 16.000000
717.364500 1000.000000

>ms2peaks
168.087800 5.000000
225.858370 7.000000
228.104000 63.000000
229.098750 7.000000
231.108870 5.000000
245.099030 5.000000
245.129650 369.000000
246.113890 28.000000
246.130740 75.000000
252.096590 6.000000
283.128080 6.000000
303.148070 9.000000
317.455020 7.000000
323.098390 8.000000
331.163480 5.000000
335.178380 5.000000
336.735170 9.000000
337.187320 7.000000
339.207310 6.000000
347.126190 19.000000
347.145260 58.000000
347.167820 7.000000
348.140200 43.000000
352.207760 7.000000
354.156590 6.000000
357.153200 19.000000
357.169460 5.000000
363.146550 25.000000
363.176760 43.000000
365.176390 5.000000
377.835080 5.000000
379.118010 7.000000
379.165070 1000.000000
380.114530 6.000000
380.165620 280.000000
380.199130 5.000000
381.179260 40.000000
389.163910 12.000000
389.192170 14.000000
390.190800 18.000000
410.782680 7.000000
458.519680 7.000000
472.249540 25.000000
472.268040 9.000000
473.259220 8.000000
474.265530 6.000000
480.471560 6.000000
485.254580 5.000000
486.737760 7.000000
487.262020 17.000000
489.261170 5.000000
490.253510 32.000000
490.273800 59.000000
491.251430 7.000000
491.271360 41.000000
492.275880 11.000000
497.249630 23.000000
498.230530 11.000000
528.267700 9.000000
528.299190 6.000000
546.221920 13.000000
547.982360 7.000000
556.451110 14.000000
561.720950 6.000000
566.106080 7.000000
644.542720 6.000000
667.325620 22.000000
667.348020 17.000000
668.322690 11.000000
669.359740 11.000000
685.199040 5.000000
685.241210 8.000000
685.284910 7.000000
685.313960 75.000000
685.336490 186.000000
686.223270 8.000000
686.265080 8.000000
686.324400 28.000000
686.356510 70.000000
686.400150 7.000000
687.343510 42.000000
687.366030 23.000000
688.317750 6.000000
698.343440 10.000000
699.339970 71.000000
699.367740 37.000000
699.392880 10.000000
700.313350 11.000000
700.352840 58.000000
700.378910 22.000000
701.359310 11.000000
701.383910 16.000000
717.256710 12.000000
717.295470 30.000000
717.352660 509.000000
717.374510 543.000000

>ms2peaks
85.706020 11.000000
110.055400 10.000000
134.054870 17.000000
135.070740 14.000000
149.082310 17.000000
149.763020 15.000000
150.092380 16.000000
150.099590 9.000000
153.523300 17.000000
156.079500 13.000000
160.075710 19.000000
161.967970 20.000000
163.858860 10.000000
164.106140 15.000000
166.072360 10.000000
166.090210 8.000000
167.073990 9.000000
168.046770 28.000000
168.079850 918.000000
169.062300 19.000000
169.080000 60.000000
169.090700 24.000000
170.087890 9.000000
170.098710 11.000000
174.092850 9.000000
175.192320 13.000000
176.099140 12.000000
176.106570 27.000000
180.084240 8.000000
184.067860 19.000000
185.079730 15.000000
188.076970 9.000000
188.109820 22.000000
189.104250 11.000000
190.352720 9.000000
192.485240 11.000000
194.049290 8.000000
194.059920 32.000000
194.069350 9.000000
195.995320 9.000000
196.049850 8.000000
196.075710 374.000000
197.066600 24.000000
197.085590 8.000000
197.114320 10.000000
198.071430 11.000000
198.085800 14.000000
200.100740 12.000000
201.097240 9.000000
201.131470 18.000000
202.077670 39.000000
202.090910 61.000000
203.076710 10.000000
203.101550 9.000000
203.125610 20.000000
204.100710 60.000000
204.113130 9.000000
205.107390 40.000000
207.897160 18.000000
208.152050 8.000000
209.093480 13.000000
209.865600 8.000000
209.915250 10.000000
210.134670 8.000000
212.075960 67.000000
216.103030 34.000000
222.113140 11.000000
223.081040 10.000000
224.071870 11.000000
224.107390 9.000000
225.769240 9.000000
227.102340 8.000000
228.032840 12.000000
228.100020 506.000000
229.070940 9.000000
229.089510 10.000000
229.101750 82.000000
229.110050 48.000000
229.134250 10.000000
230.105610 13.000000
230.124890 39.000000
230.162230 13.000000
231.110790 27.000000
232.119220 13.000000
232.133560 14.000000
233.103330 10.000000
237.108810 14.000000
238.094330 23.000000
238.126020 12.000000
240.463070 10.000000
242.132640 8.000000
242.154110 13.000000
243.100860 11.000000
244.878570 12.000000
245.088330 14.000000
245.100910 65.000000
245.128330 1000.000000
245.829800 8.000000
246.127470 111.000000
246.138700 42.000000
246.166210 15.000000
247.138350 14.000000
249.123380 19.000000
250.113160 8.000000
251.054760 8.000000
251.120420 10.000000
252.094390 31.000000
252.142940 13.000000
253.138930 23.000000
257.158200 8.000000
257.169430 14.000000
258.150670 31.000000
260.117160 9.000000
260.168400 27.000000
261.098420 11.000000
261.609070 9.000000
262.092900 16.000000
263.122160 12.000000
264.092010 10.000000
266.107730 18.000000
266.146700 27.000000
269.130490 12.000000
271.151700 8.000000
275.112760 8.000000
275.125490 10.000000
284.172000 15.000000
285.137600 15.000000
287.151820 25.000000
287.173490 106.000000
287.192050 8.000000
289.129640 22.000000
290.119450 13.000000
291.149080 18.000000
294.151580 13.000000
296.175600 8.000000
298.166080 10.000000
301.140470 8.000000
301.159090 8.000000
303.155030 28.000000
305.134890 12.000000
309.166500 29.000000
309.747620 14.000000
312.133910 9.000000
315.217960 16.000000
319.154480 13.000000
319.179840 9.000000
320.120210 13.000000
320.149440 37.000000
320.168490 11.000000
321.145050 11.000000
321.161130 17.000000
323.180600 11.000000
325.154300 11.000000
326.193050 12.000000
328.155520 13.000000
329.148930 23.000000
330.170720 20.000000
331.022490 9.000000
331.122990 8.000000
331.137510 15.000000
331.156560 22.000000
331.186280 10.000000
332.147550 10.000000
333.121670 15.000000
333.136750 8.000000
333.151310 25.000000
333.165130 24.000000
334.175960 9.000000
335.157350 57.000000
335.175200 100.000000
335.192900 28.000000
336.142550 8.000000
336.188200 26.000000
336.195400 12.000000
337.195220 15.000000
339.165310 23.000000
344.028200 8.000000
345.644010 10.000000
346.774840 14.000000
347.108310 17.000000
347.138550 733.000000
348.110500 11.000000
348.129000 46.000000
348.145110 201.000000
349.133640 15.000000
349.176730 13.000000
349.188230 26.000000
350.130370 9.000000
351.213230 16.000000
352.208680 25.000000
356.011320 9.000000
356.130830 8.000000
356.925540 10.000000
357.132600 8.000000
357.157170 79.000000
357.177700 20.000000
358.126830 20.000000
358.163820 39.000000
358.180360 8.000000
359.143650 15.000000
359.166900 12.000000
359.641850 8.000000
361.152620 18.000000
361.202640 10.000000
363.189850 11.000000
368.190400 8.000000
375.156830 15.000000
379.110960 8.000000
379.160000 163.000000
379.186680 9.000000
379.226620 13.000000
380.157470 15.000000
380.188960 12.000000
381.164490 12.000000
389.177340 19.000000
389.213350 9.000000
392.194310 8.000000
392.222600 8.000000
399.219970 9.000000
401.235260 16.000000
406.211700 10.000000
413.214320 14.000000
414.170170 14.000000
415.190370 11.000000
427.231410 11.000000
428.253910 21.000000
429.233340 15.000000
429.373140 8.000000
430.218810 14.000000
439.245510 15.000000
445.584660 11.000000
455.220950 10.000000
455.238280 8.000000
456.251980 14.000000
457.224850 15.000000
457.252690 9.000000
461.248470 30.000000
466.202940 9.000000
468.171300 11.000000
472.218900 13.000000
472.230960 30.000000
472.260890 109.000000
473.218540 14.000000
473.241300 13.000000
473.269680 41.000000
474.231930 10.000000
475.174710 17.000000
489.784210 8.000000
490.243930 30.000000
490.280610 59.000000
491.254700 15.000000
491.270450 55.000000
491.291560 22.000000
492.215420 13.000000
495.206090 17.000000
499.216980 10.000000
504.211150 10.000000
514.209050 8.000000
526.195800 12.000000
531.257750 13.000000
546.542110 9.000000
576.289060 8.000000
586.769650 9.000000
642.237730 14.000000
656.299380 11.000000
667.323670 47.000000
667.349240 20.000000
668.092830 8.000000
668.311160 26.000000
669.099490 8.000000
669.308960 12.000000
669.807680 8.000000
685.293150 18.000000
685.349730 104.000000
686.246030 9.000000
686.322570 95.000000
686.355040 65.000000
687.327760 37.000000
687.358520 36.000000
688.327030 16.000000
688.361630 14.000000
699.348570 30.000000
699.411440 17.000000
699.839230 9.000000
700.363590 10.000000
701.375060 9.000000
717.366640 41.000000

>ms2peaks
168.080550 8.000000
228.096180 17.000000
228.106320 28.000000
245.115770 23.000000
245.126680 41.000000
245.140760 31.000000
246.129900 18.000000
347.141780 27.000000
348.149140 6.000000
349.167420 5.000000
350.695890 5.000000
351.214900 11.000000
379.162200 106.000000
379.175660 113.000000
380.138610 6.000000
380.169040 33.000000
380.190700 8.000000
381.172670 23.000000
389.166900 9.000000
389.188840 8.000000
423.429080 6.000000
472.246060 7.000000
472.265200 7.000000
490.279910 14.000000
490.302640 6.000000
491.248260 6.000000
667.338560 10.000000
685.320620 30.000000
685.357910 32.000000
686.319400 7.000000
686.351010 24.000000
688.361150 7.000000
699.329350 9.000000
699.352600 23.000000
700.381710 11.000000
716.344910 16.000000
717.225590 6.000000
717.252990 8.000000
717.367000 1000.000000

>ms2peaks
379.189640 7.000000
716.354610 17.000000
717.250610 6.000000
717.277400 14.000000
717.295780 27.000000
717.365480 1000.000000

>ms2peaks
168.090970 9.000000
169.074190 7.000000
179.133030 6.000000
196.067640 9.000000
228.073820 5.000000
228.083800 12.000000
228.099980 54.000000
228.109100 34.000000
229.116880 11.000000
231.092380 9.000000
231.111310 5.000000
243.111980 6.000000
245.079360 10.000000
245.128070 336.000000
246.126100 37.000000
246.138520 22.000000
331.131930 8.000000
337.194980 6.000000
347.129670 50.000000
347.146180 39.000000
348.130980 7.000000
348.155000 7.000000
351.191010 7.000000
351.212340 18.000000
352.210660 14.000000
359.196870 5.000000
363.112520 12.000000
363.173280 12.000000
364.187770 6.000000
379.108400 16.000000
379.164760 1000.000000
379.690030 5.000000
380.126860 8.000000
380.167760 226.000000
381.160490 16.000000
381.172490 17.000000
389.184750 17.000000
389.196750 8.000000
390.190890 31.000000
403.192140 5.000000
414.830290 5.000000
465.216800 5.000000
472.253300 29.000000
472.278020 17.000000
473.257870 10.000000
473.277160 7.000000
486.120480 7.000000
487.239170 7.000000
487.257050 6.000000
490.258300 32.000000
490.282380 27.000000
491.276340 56.000000
572.773380 6.000000
637.280330 5.000000
667.311830 15.000000
667.345830 20.000000
685.289550 12.000000
685.328060 138.000000
685.352660 129.000000
686.268430 6.000000
686.345830 152.000000
687.271420 6.000000
687.311650 6.000000
687.348750 60.000000
688.359990 7.000000
699.299010 9.000000
699.320500 22.000000
699.354680 90.000000
700.345340 19.000000
700.368770 48.000000
701.351500 6.000000
702.095640 5.000000
702.361510 5.000000
717.090030 5.000000
717.209410 9.000000
717.246770 13.000000
717.281130 21.000000
717.364930 999.000000

>ms2peaks
67.055500 6.000000
82.063130 10.000000
103.050350 6.000000
104.737110 6.000000
109.061740 7.000000
110.065890 8.000000
124.070300 13.000000
131.746110 16.000000
133.103640 15.000000
134.049180 7.000000
136.076610 33.000000
137.089320 12.000000
138.091220 9.000000
141.034410 11.000000
141.072080 15.000000
143.074340 6.000000
144.074800 8.000000
144.085300 9.000000
145.068040 6.000000
148.076310 6.000000
152.073970 10.000000
152.093370 7.000000
157.321560 8.000000
160.079610 16.000000
161.085110 7.000000
162.131820 11.000000
163.098240 8.000000
165.117030 10.000000
167.072740 9.000000
167.676620 15.000000
168.040880 14.000000
168.055730 7.000000
168.080350 809.000000
168.460330 7.000000
169.081880 74.000000
169.093510 13.000000
169.596020 8.000000
170.088460 6.000000
171.783740 6.000000
172.072070 7.000000
176.076720 7.000000
176.105330 21.000000
176.117420 7.000000
179.126690 6.000000
180.075420 13.000000
186.633800 8.000000
188.081600 12.000000
188.095870 7.000000
188.107270 8.000000
190.079670 7.000000
190.723180 9.000000
192.099260 6.000000
194.049740 10.000000
194.903750 6.000000
195.062760 6.000000
196.037950 11.000000
196.064160 93.000000
196.075230 340.000000
197.080260 155.000000
197.493800 6.000000
198.083890 6.000000
198.106950 10.000000
198.125020 9.000000
200.103200 15.000000
201.115020 11.000000
202.082960 75.000000
202.096310 18.000000
204.091290 17.000000
204.101790 7.000000
204.112630 12.000000
205.081800 10.000000
205.100220 6.000000
205.114810 9.000000
208.095920 12.000000
209.058290 7.000000
212.066470 7.000000
212.086110 7.000000
213.079560 10.000000
214.085340 7.000000
216.082640 15.000000
216.104540 61.000000
216.116330 11.000000
218.093350 6.000000
218.103010 7.000000
220.072800 28.000000
223.084610 7.000000
226.096570 6.000000
226.118190 9.000000
227.130720 11.000000
228.077420 33.000000
228.102020 664.000000
228.557620 6.000000
229.099760 77.000000
229.116390 25.000000
230.066850 8.000000
230.104320 24.000000
231.080900 10.000000
231.119430 14.000000
233.134020 14.000000
236.073140 10.000000
239.083110 7.000000
240.483460 6.000000
242.156810 20.000000
243.100910 12.000000
243.116070 10.000000
243.124160 6.000000
245.075270 18.000000
245.082500 12.000000
245.108020 37.000000
245.129610 1000.000000
246.097630 6.000000
246.119490 59.000000
246.132390 81.000000
246.143140 34.000000
247.077450 7.000000
247.142610 24.000000
247.154890 7.000000
247.733780 7.000000
249.081530 8.000000
250.666890 8.000000
251.112000 7.000000
251.130550 10.000000
251.933070 6.000000
252.099660 9.000000
252.188400 8.000000
252.861100 6.000000
254.121280 8.000000
257.137570 11.000000
257.165530 9.000000
258.114720 8.000000
258.147090 19.000000
260.114140 10.000000
260.166080 46.000000
262.078430 8.000000
264.129210 9.000000
264.157590 9.000000
266.112850 12.000000
266.157440 6.000000
269.171390 6.000000
270.149050 13.000000
284.172970 8.000000
285.153660 7.000000
286.173770 13.000000
287.133610 6.000000
287.154170 8.000000
287.172450 88.000000
288.179410 16.000000
289.099820 12.000000
289.202510 11.000000
290.145780 7.000000
291.145480 6.000000
292.158690 16.000000
293.120700 15.000000
294.155880 8.000000
295.153470 22.000000
297.176760 9.000000
298.164430 11.000000
299.170870 7.000000
300.186860 8.000000
300.758450 6.000000
301.186680 16.000000
303.147310 10.000000
303.155180 19.000000
306.494600 9.000000
308.153200 9.000000
309.155520 7.000000
309.163150 21.000000
309.188020 12.000000
310.176850 10.000000
311.171020 7.000000
312.053890 9.000000
313.170590 7.000000
316.100490 7.000000
317.067110 7.000000
318.146420 15.000000
319.110930 8.000000
319.123110 21.000000
319.152830 11.000000
320.102020 7.000000
325.571170 7.000000
327.149570 7.000000
327.162450 13.000000
329.134250 8.000000
329.159360 55.000000
331.123380 12.000000
331.154510 50.000000
332.145080 28.000000
333.139620 8.000000
333.163120 23.000000
333.476810 8.000000
334.162540 15.000000
335.139310 6.000000
335.180180 51.000000
336.167020 15.000000
340.150630 14.000000
344.287720 6.000000
345.131070 7.000000
345.156010 8.000000
347.049740 6.000000
347.061280 6.000000
347.084380 7.000000
347.114930 76.000000
347.139500 555.000000
347.172210 7.000000
347.354740 6.000000
348.106110 20.000000
348.138120 85.000000
348.162990 27.000000
348.691160 7.000000
349.126800 8.000000
349.151820 61.000000
349.172520 11.000000
349.188660 14.000000
349.203030 9.000000
350.190340 9.000000
350.984310 7.000000
351.209900 13.000000
353.188900 18.000000
357.146730 56.000000
357.162260 104.000000
358.017760 12.000000
358.115390 6.000000
358.127720 8.000000
358.150240 8.000000
358.166230 40.000000
359.150670 8.000000
359.162410 10.000000
359.184840 17.000000
363.217250 8.000000
365.158080 13.000000
365.186160 8.000000
369.205990 14.000000
371.226720 9.000000
374.603030 6.000000
375.157350 7.000000
375.207760 12.000000
379.123570 6.000000
379.165710 149.000000
380.154510 8.000000
380.171840 43.000000
380.195130 14.000000
384.083190 9.000000
385.152100 8.000000
385.214750 8.000000
387.214260 10.000000
389.173610 7.000000
393.215210 8.000000
393.405670 8.000000
394.219700 6.000000
397.468810 9.000000
397.548950 6.000000
399.204010 10.000000
405.191380 16.000000
407.563110 11.000000
414.171910 8.000000
425.190120 8.000000
425.220090 11.000000
425.257260 16.000000
427.239200 7.000000
435.230220 8.000000
441.189060 12.000000
441.225310 7.000000
444.169770 6.000000
444.221530 14.000000
444.540370 7.000000
459.220700 6.000000
461.268770 7.000000
462.270320 7.000000
465.217070 14.000000
465.247920 15.000000
466.193300 18.000000
466.407840 6.000000
467.204680 9.000000
472.176150 15.000000
472.216890 7.000000
472.246490 54.000000
472.285830 6.000000
473.195130 7.000000
473.227360 7.000000
473.270940 63.000000
473.280610 25.000000
474.262420 15.000000
480.608280 6.000000
482.226140 7.000000
482.246800 7.000000
483.261510 6.000000
483.281370 6.000000
486.230830 8.000000
489.608430 8.000000
490.246550 25.000000
490.269010 40.000000
491.194520 10.000000
491.250730 17.000000
491.277680 17.000000
496.254730 12.000000
497.253780 7.000000
498.215090 9.000000
500.239530 12.000000
514.274960 23.000000
528.295960 7.000000
548.189940 13.000000
553.244630 6.000000
599.228760 10.000000
630.297550 8.000000
640.218260 8.000000
640.339420 19.000000
648.129580 7.000000
650.287780 7.000000
656.320010 6.000000
657.324400 7.000000
657.359860 7.000000
667.254640 9.000000
667.334110 57.000000
668.302370 21.000000
668.345210 14.000000
669.336300 7.000000
670.350830 9.000000
683.328920 6.000000
685.249330 11.000000
685.277770 7.000000
685.332210 80.000000
685.363770 39.000000
685.395870 9.000000
686.275330 6.000000
686.355290 69.000000
687.207580 7.000000
687.282590 10.000000
687.352780 7.000000
687.374630 14.000000
698.193360 8.000000
699.352910 13.000000
700.325320 6.000000
702.250000 7.000000
702.742490 6.000000
717.333250 6.000000
717.384090 7.000000

>ms2peaks
168.085300 5.000000
228.100980 26.000000
228.110400 9.000000
245.103940 8.000000
245.126040 98.000000
246.130170 18.000000
287.183960 6.000000
347.139010 42.000000
347.156160 6.000000
348.127990 8.000000
348.151700 12.000000
351.183810 5.000000
351.212220 7.000000
357.162990 13.000000
379.166750 180.000000
380.155300 16.000000
380.171510 38.000000
381.159610 6.000000
389.180180 6.000000
472.258270 19.000000
473.273100 5.000000
490.246670 9.000000
490.268590 18.000000
491.266330 13.000000
667.331120 9.000000
685.334530 58.000000
685.360290 16.000000
686.324160 6.000000
686.355710 11.000000
687.352540 7.000000
699.365230 16.000000
700.342160 6.000000
701.381960 6.000000
702.357540 6.000000
716.339360 15.000000
717.248720 12.000000
717.282710 10.000000
717.367070 1000.000000

>ms2peaks
379.170720 7.000000
716.359620 17.000000
717.252320 10.000000
717.283750 26.000000
717.364750 1000.000000

>ms2peaks
168.074800 8.000000
196.061450 5.000000
228.079530 8.000000
228.100810 99.000000
243.100880 5.000000
245.087860 8.000000
245.105960 7.000000
245.126270 300.000000
246.134400 50.000000
347.106290 8.000000
347.132390 83.000000
347.154170 10.000000
348.139710 17.000000
348.757140 6.000000
351.195980 25.000000
351.212400 28.000000
351.626920 6.000000
359.172490 10.000000
363.142730 7.000000
363.164670 15.000000
364.167240 13.000000
379.165310 850.000000
380.091370 6.000000
380.168910 194.000000
381.170070 12.000000
382.173100 9.000000
389.177250 10.000000
390.180240 9.000000
391.172520 6.000000
398.216580 6.000000
445.558200 9.000000
448.272520 5.000000
472.259340 26.000000
472.290770 5.000000
473.270260 11.000000
487.230100 6.000000
488.241760 10.000000
490.239930 15.000000
490.264770 35.000000
490.286100 32.000000
491.262970 27.000000
491.289030 9.000000
497.241090 11.000000
642.307310 5.000000
657.327880 6.000000
667.306700 9.000000
667.332580 14.000000
667.355410 7.000000
668.311040 7.000000
685.242070 15.000000
685.274960 15.000000
685.336300 229.000000
686.225400 11.000000
686.284970 6.000000
686.316160 27.000000
686.343810 117.000000
687.325740 10.000000
687.356080 20.000000
699.333860 63.000000
699.366390 105.000000
700.318970 9.000000
700.364320 48.000000
700.388850 11.000000
701.374330 19.000000
702.355470 7.000000
702.381840 8.000000
716.355830 7.000000
717.255550 10.000000
717.280400 19.000000
717.363040 1000.000000

>ms2peaks
69.032110 11.000000
81.058050 8.000000
82.064600 10.000000
89.040310 7.000000
98.846280 8.000000
109.064060 13.000000
110.053730 9.000000
124.069460 24.000000
124.087670 14.000000
124.734450 9.000000
131.049060 11.000000
135.063980 7.000000
137.081420 22.000000
138.096300 15.000000
141.077560 8.000000
146.090060 13.000000
148.081680 7.000000
149.045550 9.000000
150.092910 15.000000
153.068500 14.000000
158.091060 13.000000
159.343570 12.000000
164.089750 8.000000
164.711720 11.000000
165.092860 9.000000
167.072560 21.000000
168.040120 12.000000
168.048920 15.000000
168.081210 590.000000
168.095310 18.000000
168.142090 7.000000
169.012470 7.000000
169.049620 7.000000
169.066010 14.000000
169.078510 125.000000
169.088090 143.000000
169.458720 7.000000
169.696520 6.000000
170.083620 7.000000
170.095470 10.000000
170.623540 9.000000
173.419200 8.000000
176.099960 13.000000
176.108110 6.000000
178.080750 17.000000
178.128620 12.000000
180.606190 8.000000
182.099990 6.000000
183.788020 11.000000
184.073700 10.000000
186.212200 10.000000
188.090350 7.000000
188.104340 16.000000
195.066060 6.000000
196.075330 533.000000
197.077670 47.000000
197.108430 7.000000
198.087910 7.000000
200.108310 28.000000
202.083860 119.000000
202.095250 21.000000
203.089950 7.000000
204.098970 83.000000
205.730790 7.000000
205.771330 13.000000
206.089070 6.000000
207.097790 9.000000
212.068650 7.000000
212.076430 10.000000
214.122070 9.000000
216.101150 28.000000
216.113330 30.000000
216.468960 7.000000
223.080670 10.000000
223.096300 20.000000
224.114550 9.000000
224.911440 7.000000
225.118640 8.000000
225.127880 11.000000
227.246660 7.000000
228.026250 6.000000
228.054090 7.000000
228.069900 33.000000
228.100660 556.000000
228.113510 117.000000
228.147610 13.000000
228.176940 8.000000
229.096880 73.000000
229.105640 45.000000
229.123150 16.000000
229.153980 15.000000
230.101170 7.000000
231.092500 7.000000
231.108510 31.000000
232.125180 13.000000
233.140230 10.000000
234.091430 6.000000
237.106660 11.000000
238.077900 11.000000
238.100140 7.000000
242.079390 6.000000
242.864700 7.000000
243.104870 23.000000
243.127140 20.000000
245.087780 22.000000
245.103230 24.000000
245.129000 1000.000000
246.128360 197.000000
247.127500 9.000000
250.094500 7.000000
250.125340 13.000000
252.077100 7.000000
252.086930 7.000000
252.105700 8.000000
253.105320 7.000000
253.133900 9.000000
253.148730 10.000000
256.153110 13.000000
256.867460 6.000000
257.115630 28.000000
258.137450 8.000000
258.147830 16.000000
259.154570 7.000000
260.162350 12.000000
263.153720 12.000000
264.096280 16.000000
264.108220 9.000000
264.130100 11.000000
265.125670 10.000000
267.101900 9.000000
268.111050 7.000000
268.142400 7.000000
270.146030 8.000000
272.088590 11.000000
273.159700 7.000000
275.102050 20.000000
276.098140 8.000000
277.135990 6.000000
279.155730 11.000000
281.126590 27.000000
283.154330 10.000000
286.123720 9.000000
287.177060 41.000000
287.192600 22.000000
287.281650 11.000000
288.176910 7.000000
290.099270 13.000000
290.134340 13.000000
292.140200 12.000000
294.145720 11.000000
296.163210 7.000000
297.104460 9.000000
299.167420 11.000000
300.119870 7.000000
300.163150 7.000000
301.135470 30.000000
301.181820 9.000000
302.085110 12.000000
302.116360 7.000000
302.138120 10.000000
302.149260 10.000000
302.208860 13.000000
303.100340 11.000000
303.134370 10.000000
303.158260 32.000000
303.237670 6.000000
305.125340 8.000000
306.153750 11.000000
307.103550 12.000000
308.150330 11.000000
308.169340 18.000000
309.180510 22.000000
310.117770 6.000000
310.146300 13.000000
312.169860 11.000000
316.166290 9.000000
317.132200 29.000000
319.132510 10.000000
319.151640 16.000000
320.106870 8.000000
320.154390 41.000000
321.142150 21.000000
325.193390 8.000000
326.168460 10.000000
327.171050 10.000000
329.149780 9.000000
329.171050 7.000000
331.142360 149.000000
331.168910 8.000000
331.198520 12.000000
331.798520 6.000000
332.143160 21.000000
332.876770 6.000000
333.154390 26.000000
334.127290 11.000000
335.174870 71.000000
335.193420 25.000000
336.117680 25.000000
336.170930 14.000000
336.180450 39.000000
336.194730 22.000000
337.169980 7.000000
337.198270 30.000000
337.717410 7.000000
337.960750 7.000000
338.206570 14.000000
339.173980 21.000000
339.212070 9.000000
340.167570 9.000000
344.280980 6.000000
345.158230 17.000000
346.130370 9.000000
346.158780 9.000000
346.364900 7.000000
347.089200 8.000000
347.104160 36.000000
347.135220 644.000000
347.177060 15.000000
348.142460 178.000000
349.074680 7.000000
349.132660 19.000000
349.195710 42.000000
351.148470 13.000000
351.183320 10.000000
351.213960 7.000000
357.113740 6.000000
357.149870 70.000000
357.163790 100.000000
357.198940 13.000000
358.150480 18.000000
358.167600 29.000000
359.184330 11.000000
360.182650 8.000000
363.162720 35.000000
365.172700 20.000000
365.188350 10.000000
367.152160 6.000000
373.155360 8.000000
373.175200 15.000000
379.119260 10.000000
379.163060 70.000000
379.178470 47.000000
379.196260 19.000000
379.255370 13.000000
380.167720 82.000000
380.192690 9.000000
381.197970 13.000000
382.162230 10.000000
391.197510 10.000000
392.220060 6.000000
393.213170 7.000000
403.004820 7.000000
408.061830 9.000000
411.006770 8.000000
422.540830 17.000000
427.223540 13.000000
429.213750 21.000000
432.679350 10.000000
438.264830 9.000000
439.239870 7.000000
443.106320 10.000000
446.260800 24.000000
450.476070 13.000000
455.212830 14.000000
455.247220 8.000000
455.261720 12.000000
456.277800 9.000000
457.230650 7.000000
458.196080 7.000000
458.252690 10.000000
460.252590 8.000000
461.210360 12.000000
464.820190 7.000000
465.216370 22.000000
466.225490 24.000000
470.220250 7.000000
471.232540 9.000000
472.260010 106.000000
472.274410 56.000000
473.215480 10.000000
473.256530 58.000000
474.286870 10.000000
483.236880 9.000000
483.273070 6.000000
488.229370 12.000000
490.252080 17.000000
490.275730 87.000000
491.247380 14.000000
491.284060 18.000000
492.258580 7.000000
492.279970 9.000000
496.259980 15.000000
502.209660 10.000000
503.190250 6.000000
503.597900 7.000000
508.265870 8.000000
509.359770 8.000000
511.204320 7.000000
514.203370 9.000000
515.127990 7.000000
515.241460 6.000000
536.359380 10.000000
546.206670 9.000000
557.220150 6.000000
563.293700 7.000000
638.315310 8.000000
638.332280 8.000000
667.319340 11.000000
667.362180 16.000000
668.303890 23.000000
668.345210 6.000000
683.309810 7.000000
683.923950 6.000000
684.332400 10.000000
685.297490 33.000000
685.328800 102.000000
685.369930 15.000000
686.305730 7.000000
686.342350 80.000000
686.376590 11.000000
686.393550 8.000000
687.331670 35.000000
687.366760 8.000000
689.323300 8.000000
695.062190 6.000000
699.358400 8.000000
699.390080 9.000000
700.333500 8.000000
704.133060 6.000000
717.326540 9.000000
717.350890 6.000000
717.384580 14.000000

>ms2peaks
55.578540 29.000000
110.062290 17.000000
144.087200 43.000000
148.859380 17.000000
148.879290 17.000000
168.080350 22.000000
168.093110 23.000000
176.108550 42.000000
190.096100 17.000000
196.074370 61.000000
197.072620 24.000000
200.101940 20.000000
215.095490 25.000000
217.101430 27.000000
225.984390 38.000000
227.225300 47.000000
228.098820 395.000000
228.114140 24.000000
228.124650 33.000000
229.067730 24.000000
229.083250 32.000000
229.104860 17.000000
229.121260 21.000000
229.132750 28.000000
230.242970 17.000000
243.101060 33.000000
243.913640 41.000000
245.086360 37.000000
245.096370 34.000000
245.130330 674.000000
245.144790 67.000000
246.118230 54.000000
246.131850 261.000000
247.137560 90.000000
250.659710 17.000000
252.090330 17.000000
252.103620 29.000000
258.136840 19.000000
273.259860 24.000000
277.138030 36.000000
287.172490 37.000000
293.133640 30.000000
301.179930 21.000000
305.157650 20.000000
313.146480 38.000000
319.151400 24.000000
326.168850 23.000000
331.133670 22.000000
331.159850 38.000000
333.121000 20.000000
333.141570 22.000000
333.151060 20.000000
335.177980 40.000000
336.171420 29.000000
337.193450 59.000000
338.209010 33.000000
347.126250 105.000000
347.141570 386.000000
347.158540 45.000000
348.114380 24.000000
348.132630 96.000000
349.204830 49.000000
351.189540 18.000000
356.885560 37.000000
357.132050 36.000000
357.166600 106.000000
363.169010 20.000000
364.167690 21.000000
365.086640 39.000000
367.212010 21.000000
378.187770 20.000000
379.165830 1732.000000
379.177610 627.000000
380.113830 21.000000
380.153750 149.000000
380.171540 339.000000
380.182710 98.000000
380.258210 20.000000
381.159270 74.000000
381.177400 29.000000
381.192870 43.000000
387.107420 19.000000
389.170840 47.000000
389.183560 23.000000
389.207890 37.000000
393.226870 20.000000
405.121920 21.000000
423.868410 27.000000
428.338680 20.000000
439.159090 20.000000
448.182190 36.000000
450.889980 20.000000
452.408290 22.000000
463.244780 31.000000
465.215450 25.000000
465.232420 61.000000
470.551210 23.000000
471.252470 23.000000
472.241640 133.000000
472.277680 40.000000
473.227230 41.000000
473.285340 19.000000
474.430270 34.000000
486.247100 20.000000
487.305510 56.000000
490.212890 28.000000
490.264040 274.000000
490.278870 126.000000
490.320800 21.000000
490.359010 20.000000
490.424840 17.000000
490.959840 17.000000
491.258910 24.000000
492.266450 24.000000
492.289370 29.000000
497.220980 24.000000
497.244350 27.000000
502.246730 35.000000
502.270480 20.000000
514.197020 30.000000
517.704530 29.000000
523.406680 38.000000
526.483640 56.000000
528.296020 20.000000
543.271790 22.000000
563.289550 37.000000
619.270810 30.000000
642.331240 40.000000
667.214840 20.000000
667.316650 77.000000
667.354250 23.000000
669.280400 17.000000
670.307800 19.000000
680.203610 25.000000
684.329770 25.000000
685.325870 363.000000
685.350650 178.000000
685.668090 19.000000
686.302730 25.000000
686.326170 141.000000
686.355650 157.000000
686.504150 17.000000
687.265690 17.000000
687.327390 44.000000
687.371150 43.000000
687.990110 28.000000
688.330630 25.000000
699.350340 264.000000
699.427310 32.000000
700.354740 198.000000
700.390870 69.000000
701.377140 60.000000
715.332820 25.000000
715.361390 20.000000
716.335880 62.000000
716.363460 84.000000
717.003780 17.000000
717.157230 23.000000
717.180730 18.000000
717.220460 59.000000
717.240600 58.000000
717.283940 131.000000
717.363340 9136.000000

