>compound PR64298925
>parentmass 271.1328709
>ionization [M+H]+
>formula C17H18O3
>rt 575.868960
>profile qtof
#smiles_iso COC1=CC=C(C=C1)/C=C/C2=CC(=CC(=C2)OC)OC
#smiles_can COC1=CC=C(C=C1)C=CC2=CC(=CC(=C2)OC)OC
#inchikey GDHNBPHYVRHYCC-SNAWJCMRSA-N
#pubchem_id 5388063
#mb_accession PR304276,PR304277,PR304278,PR304279,PR304280,PR304281,PR304282,PR304283,PR304284,PR304285,PR304286,PR304287

>ms2peaks
79.053960 5.000000
91.055150 47.000000
92.057990 7.000000
105.069830 15.000000
107.054280 5.000000
109.061270 7.000000
111.044990 7.000000
117.066720 5.000000
117.072710 7.000000
118.042790 7.000000
120.058900 6.000000
121.065400 52.000000
122.074910 10.000000
132.056670 8.000000
133.026610 10.000000
133.065260 13.000000
135.042710 18.000000
135.081420 49.000000
137.062290 28.000000
147.080860 109.000000
148.082150 10.000000
149.061170 10.000000
151.046940 7.000000
151.077120 21.000000
152.059250 6.000000
152.065480 16.000000
153.070280 20.000000
154.076860 21.000000
159.082380 15.000000
163.076370 23.000000
164.059190 6.000000
165.068270 38.000000
165.082410 7.000000
166.071380 18.000000
166.079250 16.000000
167.085970 9.000000
171.081620 6.000000
173.098660 13.000000
177.071990 6.000000
177.087400 7.000000
178.079180 15.000000
179.090180 8.000000
181.052470 6.000000
181.064910 34.000000
181.072010 11.000000
182.068910 14.000000
182.079470 8.000000
185.095370 5.000000
193.069060 15.000000
194.067550 7.000000
195.079190 35.000000
195.089950 6.000000
196.081480 18.000000
196.092150 23.000000
197.094860 25.000000
198.061750 8.000000
199.070850 6.000000
208.086410 7.000000
209.051740 8.000000
209.063030 17.000000
209.091480 8.000000
209.111180 9.000000
210.055860 6.000000
210.069780 8.000000
210.103150 11.000000
211.075730 6.000000
211.111800 11.000000
212.082240 12.000000
213.088180 11.000000
213.098600 9.000000
223.077210 15.000000
224.077850 16.000000
224.085920 38.000000
225.090060 41.000000
226.098720 14.000000
227.101820 10.000000
227.110050 8.000000
239.107420 80.000000
240.109760 25.000000
240.120700 28.000000
241.074070 7.000000
241.087660 24.000000
241.098660 8.000000
241.111270 11.000000
241.126400 7.000000
243.143660 9.000000
255.107670 13.000000
256.105710 27.000000
257.105070 6.000000
257.119230 6.000000
269.122250 8.000000
270.110500 9.000000
270.127500 98.000000
271.085780 8.000000
271.133120 1000.000000
271.180210 11.000000

>ms2peaks
111.043000 5.000000
147.081450 10.000000
270.125240 107.000000
271.133240 1000.000000
271.181060 17.000000

>ms2peaks
55.057990 10.000000
76.177850 8.000000
77.036480 101.000000
78.042360 11.000000
79.017690 15.000000
79.055000 77.000000
80.058950 8.000000
83.044820 8.000000
83.049090 8.000000
89.039660 10.000000
91.012380 10.000000
91.046520 49.000000
91.054950 426.000000
92.056950 63.000000
93.058010 7.000000
93.071460 8.000000
93.076790 8.000000
95.044300 12.000000
95.050170 16.000000
99.037480 7.000000
100.759730 11.000000
102.043540 8.000000
103.054870 140.000000
104.053240 20.000000
104.061210 15.000000
105.027740 11.000000
105.056180 7.000000
105.071510 225.000000
106.071060 41.000000
106.899530 15.000000
107.050540 102.000000
107.079280 22.000000
108.054290 8.000000
108.059100 10.000000
108.179180 7.000000
109.029790 8.000000
111.044210 30.000000
111.050080 10.000000
115.054890 108.000000
116.051480 12.000000
116.060390 33.000000
117.069990 170.000000
118.019400 8.000000
118.040090 65.000000
118.997370 14.000000
119.044830 64.000000
119.050310 87.000000
119.082770 43.000000
119.092640 19.000000
120.052610 29.000000
120.058140 62.000000
121.031020 12.000000
121.046150 22.000000
121.065320 639.000000
121.996080 8.000000
122.064010 13.000000
122.068570 30.000000
123.066830 9.000000
124.045000 15.000000
126.068940 14.000000
127.046880 7.000000
127.058400 10.000000
128.060010 24.000000
128.066570 19.000000
129.066390 17.000000
131.048400 46.000000
131.082410 9.000000
132.057690 135.000000
132.201160 10.000000
133.027880 35.000000
133.038220 19.000000
133.050670 9.000000
133.065140 62.000000
134.032090 13.000000
134.055660 8.000000
134.070620 61.000000
135.040910 104.000000
135.049740 50.000000
135.080610 337.000000
135.095470 11.000000
135.845730 7.000000
136.044910 18.000000
136.055740 26.000000
136.078490 18.000000
136.087510 27.000000
137.014340 8.000000
137.056590 64.000000
137.063930 70.000000
138.051420 11.000000
138.066040 22.000000
139.068050 7.000000
139.074010 10.000000
141.071230 31.000000
142.078950 32.000000
143.083710 16.000000
144.052370 48.000000
144.059110 45.000000
145.060730 36.000000
145.070190 45.000000
146.052150 7.000000
146.071080 17.000000
146.080810 12.000000
147.067720 31.000000
147.080340 205.000000
148.050140 97.000000
148.057390 57.000000
149.048190 27.000000
149.059100 67.000000
150.050810 12.000000
150.064610 21.000000
150.075070 32.000000
151.054890 19.000000
151.077470 104.000000
151.785690 10.000000
152.063060 30.000000
153.010510 7.000000
153.046540 7.000000
153.069340 147.000000
154.079830 73.000000
154.089220 12.000000
155.085490 44.000000
156.058560 19.000000
156.066350 14.000000
156.091090 9.000000
157.061630 23.000000
158.039960 11.000000
158.072630 60.000000
158.614410 7.000000
159.041660 8.000000
159.074450 18.000000
159.086260 43.000000
161.061450 8.000000
162.069810 24.000000
163.067660 8.000000
163.078000 9.000000
163.469500 8.000000
164.051910 16.000000
164.068630 10.000000
164.953630 8.000000
165.055280 12.000000
165.071490 407.000000
166.062470 7.000000
166.072020 36.000000
166.080730 44.000000
166.091000 8.000000
166.714740 16.000000
167.049070 8.000000
167.071330 46.000000
167.086260 125.000000
168.051570 11.000000
168.059560 16.000000
168.080580 8.000000
168.093320 9.000000
169.058210 8.000000
169.071530 38.000000
169.092250 20.000000
170.061860 16.000000
170.072830 59.000000
170.108320 7.000000
171.074710 21.000000
171.084590 66.000000
172.091480 15.000000
172.747990 19.000000
173.097120 43.000000
173.177720 11.000000
174.070330 24.000000
174.692110 8.000000
175.064610 8.000000
175.580030 11.000000
176.051190 11.000000
176.060470 18.000000
176.075410 16.000000
176.541980 8.000000
177.069780 57.000000
177.090550 15.000000
178.076050 94.000000
178.094620 8.000000
179.076310 42.000000
179.087130 117.000000
180.052890 44.000000
180.066530 21.000000
180.083530 19.000000
180.094070 19.000000
180.976240 11.000000
181.064010 554.000000
181.096120 26.000000
182.031100 8.000000
182.045870 8.000000
182.070560 353.000000
182.550540 8.000000
183.067150 28.000000
183.077740 51.000000
183.087490 50.000000
184.082490 36.000000
184.091220 38.000000
185.053240 18.000000
185.080870 8.000000
185.098280 135.000000
185.680010 13.000000
186.054260 7.000000
186.076860 7.000000
186.111710 13.000000
187.081540 10.000000
188.089220 7.000000
189.095080 24.000000
191.044510 8.000000
191.089360 19.000000
192.055240 37.000000
192.065440 9.000000
193.066650 84.000000
193.080610 7.000000
194.054500 10.000000
194.069750 85.000000
194.077220 94.000000
195.054080 9.000000
195.081560 435.000000
196.088420 426.000000
196.100160 70.000000
196.502030 7.000000
197.041090 39.000000
197.057040 96.000000
197.075300 43.000000
197.097600 329.000000
197.711400 7.000000
198.025300 21.000000
198.066790 130.000000
198.101360 128.000000
199.064440 15.000000
199.075270 25.000000
199.098680 16.000000
199.112050 8.000000
199.279680 10.000000
200.070770 8.000000
200.083890 8.000000
201.087680 11.000000
203.114060 7.000000
204.095080 10.000000
205.025680 7.000000
205.066770 12.000000
205.976200 7.000000
206.071370 10.000000
206.079030 10.000000
206.096880 8.000000
207.081310 24.000000
208.084990 104.000000
208.097120 57.000000
209.060130 301.000000
209.092060 127.000000
209.106580 22.000000
209.441240 7.000000
210.048800 11.000000
210.057430 35.000000
210.068910 97.000000
210.100850 27.000000
210.110290 19.000000
210.496230 8.000000
211.071380 71.000000
211.086720 8.000000
211.112370 16.000000
211.156650 7.000000
212.055620 8.000000
212.064940 20.000000
212.083890 213.000000
212.327030 11.000000
213.085910 355.000000
213.094530 450.000000
213.547300 8.000000
214.078770 17.000000
214.095320 54.000000
215.098070 21.000000
215.105390 10.000000
216.112640 8.000000
216.186900 8.000000
218.793580 8.000000
221.099660 11.000000
222.069990 11.000000
222.105880 8.000000
222.119690 8.000000
223.047070 7.000000
223.079880 66.000000
224.084590 518.000000
224.108200 10.000000
224.120040 9.000000
224.208390 11.000000
224.791180 18.000000
225.030870 8.000000
225.060910 27.000000
225.091200 1000.000000
226.051970 11.000000
226.064330 41.000000
226.091490 120.000000
226.104420 30.000000
227.048020 11.000000
227.073720 9.000000
227.104110 154.000000
228.116320 17.000000
229.123950 19.000000
230.308300 22.000000
237.080410 10.000000
238.104190 68.000000
239.063660 8.000000
239.071320 22.000000
239.106780 91.000000
239.121730 19.000000
240.054630 7.000000
240.064150 12.000000
240.072160 16.000000
240.089860 24.000000
240.113660 373.000000
241.072910 84.000000
241.080400 216.000000
241.090610 264.000000
241.121400 27.000000
241.131210 8.000000
242.088550 77.000000
242.113430 28.000000
242.142270 7.000000
243.102540 11.000000
244.100330 22.000000
247.270170 8.000000
254.088210 10.000000
254.101010 16.000000
255.098100 30.000000
255.109360 62.000000
256.083190 17.000000
256.107790 182.000000
256.117000 118.000000
257.096410 8.000000
257.115360 39.000000
258.115330 8.000000
263.484340 8.000000
269.107600 17.000000
270.132050 18.000000
271.145600 7.000000

>ms2peaks
65.039200 12.000000
65.684480 13.000000
68.985440 14.000000
69.182790 12.000000
77.037970 99.000000
78.034460 11.000000
78.041800 39.000000
78.050310 33.000000
79.055670 33.000000
89.040080 60.000000
90.046970 23.000000
91.048000 31.000000
91.052940 79.000000
91.388180 18.000000
92.025110 17.000000
92.061530 13.000000
93.034530 14.000000
101.032880 14.000000
102.053790 12.000000
103.052730 39.000000
103.061070 10.000000
104.062690 15.000000
104.069000 10.000000
104.156880 19.000000
105.030150 17.000000
105.037500 27.000000
105.061710 12.000000
107.010790 12.000000
107.043590 15.000000
107.050090 14.000000
107.056270 16.000000
109.061790 13.000000
110.843080 14.000000
113.743760 22.000000
115.052770 215.000000
116.061420 26.000000
117.054950 12.000000
117.070340 24.000000
120.053740 18.000000
121.060490 21.000000
121.068430 30.000000
121.073480 9.000000
126.044950 33.000000
127.053610 86.000000
128.061970 147.000000
128.075640 12.000000
129.060410 54.000000
129.073580 10.000000
129.084660 22.000000
129.806980 10.000000
130.044660 10.000000
131.050050 13.000000
132.051030 28.000000
132.061720 10.000000
133.022860 52.000000
133.029250 67.000000
134.025590 12.000000
135.031570 12.000000
135.084060 14.000000
138.419910 10.000000
139.046460 13.000000
139.052860 43.000000
140.063610 46.000000
141.068210 285.000000
142.073940 100.000000
143.080800 10.000000
144.060960 11.000000
148.053250 12.000000
151.044940 61.000000
151.054700 131.000000
151.198210 15.000000
152.033520 12.000000
152.043300 15.000000
152.061720 1000.000000
153.050840 30.000000
153.063920 381.000000
153.069870 810.000000
154.068040 108.000000
154.076280 194.000000
155.064180 29.000000
155.071430 52.000000
155.080870 35.000000
155.088320 16.000000
156.050460 13.000000
156.061520 12.000000
163.039900 22.000000
163.050870 11.000000
164.054090 16.000000
164.062420 42.000000
165.042830 11.000000
165.062360 166.000000
165.073410 530.000000
166.074810 74.000000
166.082780 49.000000
167.081770 67.000000
167.092450 22.000000
167.103590 11.000000
168.057310 35.000000
168.079900 11.000000
168.115620 11.000000
169.039230 12.000000
169.053500 34.000000
169.065260 123.000000
169.098190 12.000000
170.061140 55.000000
170.071750 58.000000
170.084820 11.000000
171.087590 14.000000
176.050740 14.000000
176.058870 22.000000
178.051970 12.000000
178.076810 36.000000
179.075150 14.000000
180.054730 18.000000
180.063430 47.000000
181.032460 10.000000
181.065640 238.000000
182.070240 195.000000
183.036850 16.000000
183.045010 35.000000
183.074390 14.000000
184.054440 15.000000
184.090560 14.000000
185.093840 33.000000
185.108090 12.000000
193.061740 45.000000
195.066300 15.000000
196.047060 14.000000
197.053770 30.000000
197.085820 28.000000
197.094310 17.000000
198.066650 45.000000
199.075010 21.000000
206.641390 13.000000
208.087740 26.000000
209.074160 14.000000
209.090940 15.000000
211.061160 11.000000
211.077730 40.000000
213.088500 50.000000
216.740330 10.000000
223.231490 22.000000
224.091370 17.000000
227.100140 16.000000
271.132480 92.000000

>ms2peaks
91.052690 30.000000
92.056850 5.000000
103.056590 8.000000
105.069920 7.000000
107.051280 7.000000
111.041620 7.000000
111.047680 6.000000
115.049290 8.000000
117.065570 5.000000
117.073940 8.000000
119.084030 16.000000
121.064550 62.000000
121.071070 15.000000
122.070210 9.000000
133.025670 6.000000
133.061720 16.000000
133.069180 11.000000
135.039030 12.000000
135.075700 24.000000
135.084400 14.000000
137.061520 19.000000
142.070300 5.000000
144.058120 6.000000
145.065410 7.000000
147.074310 38.000000
147.082670 72.000000
148.055860 10.000000
148.076580 8.000000
148.083740 22.000000
149.055770 22.000000
151.078800 8.000000
152.058410 7.000000
152.067830 13.000000
153.062670 6.000000
153.072080 19.000000
159.073330 10.000000
159.086410 17.000000
163.079800 9.000000
164.068600 6.000000
164.075060 5.000000
165.061360 6.000000
165.071370 33.000000
165.080310 11.000000
166.077820 5.000000
169.068710 5.000000
170.066740 9.000000
171.081420 5.000000
177.090180 6.000000
179.081380 6.000000
181.065460 46.000000
182.065410 6.000000
182.076870 13.000000
183.070280 6.000000
183.081710 5.000000
184.085830 7.000000
185.102450 6.000000
190.092250 9.000000
195.077440 19.000000
195.086290 24.000000
196.085750 30.000000
196.095260 10.000000
197.068300 7.000000
197.089610 14.000000
197.100890 14.000000
198.064120 9.000000
208.082660 10.000000
208.094650 12.000000
209.067370 9.000000
209.083480 5.000000
209.099120 7.000000
210.073030 7.000000
211.091890 5.000000
211.111620 11.000000
212.084880 11.000000
213.086460 28.000000
213.101820 5.000000
214.096560 6.000000
223.079270 6.000000
224.075960 33.000000
224.089000 33.000000
225.079910 8.000000
225.091930 28.000000
225.102400 12.000000
227.104690 13.000000
238.085750 6.000000
239.101910 58.000000
239.119340 6.000000
240.082980 7.000000
240.094090 7.000000
240.116880 41.000000
241.074020 16.000000
241.092360 18.000000
255.093690 5.000000
256.098940 18.000000
256.112120 37.000000
269.111270 8.000000
270.122010 76.000000
270.133540 58.000000
271.133880 1000.000000

>ms2peaks
147.079590 8.000000
239.105760 9.000000
270.124790 104.000000
271.132510 1000.000000
271.178530 11.000000

>ms2peaks
55.017620 10.000000
77.035710 47.000000
77.041980 49.000000
79.049480 8.000000
79.055530 27.000000
80.240100 9.000000
91.045250 51.000000
91.054080 486.000000
91.201870 8.000000
92.054340 53.000000
92.060650 33.000000
93.066930 11.000000
95.048440 11.000000
95.088870 9.000000
99.043670 9.000000
102.049290 14.000000
103.055040 100.000000
103.062860 9.000000
104.055470 26.000000
105.033560 9.000000
105.069470 165.000000
105.074910 100.000000
106.025810 9.000000
106.033790 12.000000
106.043670 17.000000
106.074550 29.000000
107.043400 59.000000
107.049660 33.000000
107.055980 9.000000
107.087870 10.000000
108.047000 8.000000
108.057770 8.000000
109.057620 9.000000
109.065820 15.000000
111.039480 22.000000
111.045880 17.000000
113.423360 8.000000
115.024330 10.000000
115.046220 19.000000
115.055680 106.000000
115.615340 10.000000
116.055070 18.000000
117.063480 38.000000
117.071210 98.000000
118.040960 28.000000
118.786980 16.000000
119.049720 61.000000
119.073310 8.000000
119.089010 18.000000
119.208960 9.000000
120.013660 17.000000
120.052830 41.000000
121.050780 33.000000
121.064700 594.000000
122.069310 48.000000
123.064410 9.000000
123.072200 11.000000
123.833310 9.000000
124.050060 15.000000
124.093230 8.000000
128.055890 26.000000
129.076890 27.000000
131.003880 17.000000
131.045040 26.000000
131.050450 36.000000
131.081070 9.000000
132.046810 9.000000
132.057590 76.000000
133.026820 8.000000
133.041050 11.000000
133.048140 11.000000
133.063400 122.000000
134.030990 31.000000
134.040680 9.000000
134.065000 18.000000
134.075740 51.000000
135.040730 126.000000
135.081160 309.000000
136.043580 10.000000
136.082020 22.000000
137.060060 125.000000
137.066820 37.000000
138.055760 11.000000
138.061660 26.000000
138.068510 19.000000
141.065380 10.000000
141.071330 13.000000
141.079960 19.000000
142.078280 13.000000
144.055160 106.000000
145.043550 20.000000
145.062010 10.000000
145.070630 9.000000
146.056920 9.000000
146.068330 36.000000
146.077680 18.000000
147.074800 39.000000
147.080630 98.000000
147.102330 12.000000
148.045730 44.000000
148.053470 102.000000
148.064580 10.000000
148.089220 46.000000
149.022930 9.000000
149.052250 30.000000
149.066350 18.000000
149.089940 16.000000
150.064620 26.000000
150.071380 18.000000
151.068310 19.000000
151.078630 43.000000
152.059110 35.000000
152.065900 42.000000
152.079910 23.000000
153.061310 42.000000
153.070680 178.000000
154.073320 77.000000
155.044430 8.000000
155.072680 8.000000
155.085010 53.000000
156.057070 9.000000
157.002350 21.000000
157.064470 10.000000
157.096650 9.000000
158.069760 36.000000
158.082050 12.000000
159.075880 8.000000
159.088940 9.000000
160.049450 9.000000
160.078930 12.000000
161.056260 12.000000
162.067340 13.000000
163.078540 13.000000
164.059710 19.000000
164.069580 11.000000
164.938190 10.000000
165.008010 9.000000
165.054060 18.000000
165.070240 377.000000
165.090190 9.000000
166.072660 81.000000
166.083620 50.000000
167.071950 16.000000
167.082570 76.000000
167.090230 50.000000
167.100100 7.000000
168.058140 18.000000
168.089970 39.000000
169.054150 12.000000
169.063600 10.000000
169.076710 11.000000
169.088990 16.000000
169.103560 14.000000
170.062060 41.000000
170.070180 21.000000
170.080080 32.000000
171.078350 55.000000
172.088070 18.000000
172.094860 9.000000
173.094390 9.000000
176.071300 12.000000
177.070940 59.000000
177.085740 12.000000
178.072220 44.000000
178.077940 124.000000
179.080540 39.000000
179.087140 93.000000
180.049420 8.000000
180.058090 10.000000
180.078700 12.000000
180.093990 42.000000
181.040700 9.000000
181.058230 154.000000
181.064990 438.000000
181.100540 9.000000
182.053960 9.000000
182.065700 111.000000
182.073960 168.000000
183.047940 14.000000
183.070210 25.000000
183.085170 38.000000
183.095750 11.000000
184.049510 14.000000
184.084870 17.000000
184.094270 26.000000
185.081300 10.000000
185.093260 81.000000
186.105870 9.000000
187.110000 11.000000
188.083270 10.000000
189.084960 28.000000
189.093810 9.000000
191.102020 12.000000
191.375310 8.000000
192.039090 9.000000
192.055370 8.000000
193.065000 80.000000
193.075870 17.000000
194.070590 207.000000
194.849790 11.000000
194.984470 10.000000
195.055910 13.000000
195.077700 308.000000
195.838940 9.000000
196.066190 34.000000
196.089140 307.000000
196.906340 10.000000
197.046300 15.000000
197.058870 73.000000
197.068250 34.000000
197.094090 352.000000
198.059940 77.000000
198.070880 61.000000
198.099080 62.000000
198.425630 8.000000
199.071030 9.000000
199.080490 33.000000
199.110440 21.000000
199.744370 17.000000
200.077740 10.000000
200.118350 10.000000
201.098630 9.000000
205.071810 11.000000
207.078260 29.000000
207.088670 27.000000
208.051740 9.000000
208.073120 25.000000
208.085860 109.000000
208.099810 20.000000
209.027620 10.000000
209.060320 256.000000
209.097430 107.000000
209.109950 14.000000
209.407870 16.000000
210.067700 118.000000
210.105060 71.000000
211.070850 95.000000
211.275410 8.000000
211.330980 13.000000
212.067840 35.000000
212.080720 106.000000
212.088240 100.000000
213.051900 9.000000
213.064500 9.000000
213.090210 665.000000
213.165270 8.000000
214.083680 20.000000
214.096970 77.000000
214.122310 8.000000
214.130570 13.000000
215.087690 10.000000
222.057970 12.000000
223.076970 77.000000
223.121570 9.000000
224.050220 8.000000
224.083560 475.000000
224.123690 8.000000
224.135180 9.000000
225.017700 9.000000
225.063630 31.000000
225.090700 1000.000000
225.830280 11.000000
225.867250 9.000000
226.059050 27.000000
226.085800 53.000000
226.092480 111.000000
227.070710 25.000000
227.083250 12.000000
227.103590 138.000000
227.113850 36.000000
228.109740 71.000000
228.118700 27.000000
229.046680 9.000000
236.695830 15.000000
238.088580 28.000000
238.100750 15.000000
239.068410 19.000000
239.077840 16.000000
239.105030 131.000000
239.940160 9.000000
240.069350 9.000000
240.082140 31.000000
240.098890 33.000000
240.111620 187.000000
240.120910 77.000000
241.075350 130.000000
241.084090 342.000000
241.113450 50.000000
242.087590 62.000000
242.122860 12.000000
243.102260 21.000000
253.114910 9.000000
254.092620 41.000000
255.049350 12.000000
255.098180 80.000000
255.110790 67.000000
255.127670 11.000000
256.109130 303.000000
257.113830 45.000000
269.108860 9.000000
269.131870 12.000000
271.125610 10.000000
271.142360 27.000000

>ms2peaks
57.210890 16.000000
57.256600 14.000000
63.021950 16.000000
77.034340 35.000000
77.041530 104.000000
78.041340 14.000000
79.060560 14.000000
80.025780 38.000000
89.037520 18.000000
91.048580 42.000000
91.055430 88.000000
92.056520 31.000000
93.069800 15.000000
95.048420 15.000000
101.032740 20.000000
103.045720 33.000000
103.054730 52.000000
104.055440 14.000000
105.030300 35.000000
106.077320 16.000000
107.022150 15.000000
107.036820 15.000000
107.045270 15.000000
107.050670 32.000000
115.050420 98.000000
115.055210 231.000000
116.061310 27.000000
118.039250 61.000000
119.047640 41.000000
121.042010 13.000000
121.065190 168.000000
121.407540 21.000000
122.068570 13.000000
124.052540 16.000000
125.114520 18.000000
127.037110 21.000000
127.051160 36.000000
128.054370 20.000000
128.061340 87.000000
128.068330 31.000000
129.059420 24.000000
129.073390 40.000000
129.084210 18.000000
130.035250 39.000000
130.046540 17.000000
131.049870 28.000000
131.056530 15.000000
132.053010 15.000000
133.024840 109.000000
133.071880 20.000000
134.069980 16.000000
135.026430 18.000000
135.046740 79.000000
139.054170 31.000000
139.062850 25.000000
140.035310 16.000000
140.058990 31.000000
140.066350 15.000000
141.068160 350.000000
142.061460 18.000000
142.075030 127.000000
143.067500 18.000000
144.664580 19.000000
146.072300 17.000000
148.050170 28.000000
150.106110 15.000000
151.054690 156.000000
151.755390 15.000000
151.910390 15.000000
152.059770 1000.000000
153.045460 53.000000
153.058910 163.000000
153.069050 949.000000
153.352980 15.000000
153.388260 18.000000
153.561390 14.000000
154.031160 22.000000
154.061000 35.000000
154.072740 155.000000
154.078950 161.000000
155.050860 14.000000
155.078350 15.000000
155.085920 33.000000
155.105150 25.000000
156.053250 15.000000
156.091930 38.000000
157.065280 14.000000
157.095980 16.000000
158.071260 17.000000
158.082400 14.000000
162.037480 18.000000
163.052200 13.000000
164.060040 97.000000
164.146190 15.000000
164.868730 14.000000
165.051860 23.000000
165.069950 832.000000
166.071470 192.000000
167.081050 77.000000
168.057340 68.000000
168.085020 44.000000
169.043080 16.000000
169.063630 240.000000
169.078260 14.000000
170.068450 140.000000
170.080430 12.000000
171.071150 13.000000
171.079280 15.000000
171.089580 36.000000
175.057980 15.000000
176.058200 20.000000
176.066010 18.000000
177.060790 14.000000
178.079180 53.000000
179.086350 35.000000
180.060650 45.000000
181.037170 15.000000
181.063250 246.000000
181.071210 120.000000
182.069230 172.000000
182.080580 35.000000
183.053510 16.000000
183.071000 41.000000
184.034040 15.000000
184.079380 14.000000
184.090560 14.000000
185.082230 37.000000
193.063640 38.000000
193.072890 15.000000
194.069320 37.000000
195.041980 14.000000
195.080840 71.000000
196.082520 15.000000
197.065160 31.000000
198.061570 84.000000
198.080030 21.000000
208.094180 16.000000
209.048000 14.000000
209.060490 15.000000
210.068650 14.000000
211.075130 42.000000
213.091280 44.000000
213.097820 16.000000
225.097430 15.000000
232.351040 13.000000
256.104580 18.000000

>ms2peaks
91.053920 60.000000
92.057060 6.000000
103.055190 15.000000
105.067220 14.000000
105.072850 5.000000
107.044880 9.000000
107.051190 8.000000
111.042500 27.000000
115.054740 8.000000
117.070090 8.000000
119.085490 12.000000
121.064340 60.000000
132.059540 9.000000
133.062180 11.000000
134.067380 6.000000
135.040240 9.000000
135.078430 43.000000
136.090480 6.000000
137.057480 13.000000
147.067580 7.000000
147.081070 79.000000
148.049330 13.000000
148.082440 16.000000
149.058720 11.000000
151.077420 15.000000
152.056750 11.000000
152.067570 5.000000
153.063780 6.000000
153.069290 10.000000
153.076420 9.000000
159.080460 22.000000
162.065730 6.000000
163.073210 14.000000
165.070530 30.000000
165.090610 6.000000
166.076680 9.000000
170.068920 9.000000
171.078410 7.000000
171.086700 10.000000
173.091250 5.000000
175.074800 5.000000
177.069050 10.000000
177.092090 13.000000
178.072080 9.000000
178.083940 12.000000
179.084930 7.000000
180.066220 5.000000
181.055760 6.000000
181.066940 30.000000
182.064500 6.000000
182.076050 21.000000
183.071550 7.000000
185.094180 5.000000
193.067050 14.000000
194.073300 16.000000
195.077040 9.000000
195.085750 8.000000
196.087230 20.000000
196.095180 6.000000
197.058490 9.000000
197.094910 21.000000
198.058260 5.000000
199.072160 8.000000
208.082210 15.000000
209.056430 12.000000
209.093660 11.000000
210.067210 11.000000
210.103560 8.000000
211.074310 8.000000
212.085340 7.000000
213.090590 46.000000
224.061080 5.000000
224.085830 54.000000
225.090290 43.000000
226.096650 9.000000
227.106160 15.000000
239.107070 69.000000
240.077970 8.000000
240.107930 23.000000
240.118440 19.000000
241.087540 25.000000
241.118620 19.000000
255.099790 5.000000
256.112180 27.000000
269.112610 11.000000
270.126010 99.000000
271.098180 8.000000
271.133700 1000.000000
271.182710 11.000000

>ms2peaks
147.081360 9.000000
239.113200 5.000000
270.125180 95.000000
271.132750 1000.000000
271.179530 19.000000

>ms2peaks
55.019150 29.000000
68.022290 7.000000
77.038650 36.000000
79.016590 6.000000
79.053410 47.000000
84.050450 7.000000
85.029260 7.000000
87.488570 8.000000
90.043820 9.000000
91.049060 88.000000
91.054760 396.000000
92.026470 7.000000
92.057750 58.000000
93.067850 14.000000
94.044610 9.000000
103.038830 8.000000
103.052400 108.000000
104.058600 60.000000
105.061640 59.000000
105.069580 144.000000
106.044410 13.000000
106.067470 8.000000
106.073520 10.000000
107.045530 62.000000
107.050170 152.000000
107.060200 7.000000
107.085620 7.000000
108.048480 7.000000
108.058530 23.000000
109.068150 24.000000
110.064110 8.000000
111.035220 8.000000
111.047420 39.000000
111.417810 11.000000
115.042330 9.000000
115.054600 158.000000
115.157130 14.000000
116.054050 6.000000
116.061630 29.000000
117.069580 133.000000
118.038390 50.000000
118.044870 44.000000
118.063750 6.000000
118.068760 7.000000
119.044180 29.000000
119.050290 48.000000
119.058590 7.000000
119.084140 126.000000
120.052540 31.000000
120.057390 62.000000
121.046270 15.000000
121.064370 777.000000
121.309810 7.000000
121.728730 7.000000
121.914540 6.000000
122.052330 8.000000
122.067830 52.000000
122.206010 6.000000
122.661050 8.000000
123.044580 6.000000
123.051280 6.000000
124.050650 14.000000
125.056950 6.000000
127.049890 10.000000
127.058120 6.000000
127.993770 8.000000
128.063480 13.000000
129.071880 38.000000
131.028560 8.000000
131.049070 8.000000
132.036220 11.000000
132.056460 115.000000
133.018430 17.000000
133.027800 17.000000
133.063840 147.000000
134.062870 8.000000
134.075780 41.000000
135.028490 11.000000
135.042800 84.000000
135.065230 23.000000
135.080020 260.000000
135.730710 6.000000
136.047500 7.000000
136.079250 38.000000
136.088100 19.000000
137.059590 218.000000
137.095660 6.000000
138.067310 42.000000
138.917800 8.000000
139.067210 7.000000
139.072940 8.000000
140.866060 8.000000
141.070910 26.000000
142.068220 8.000000
142.073970 8.000000
142.507570 6.000000
144.055820 50.000000
144.067930 6.000000
145.062730 35.000000
146.049610 11.000000
146.079650 7.000000
147.050870 7.000000
147.080720 173.000000
147.536940 7.000000
147.989640 6.000000
148.049730 110.000000
148.089190 22.000000
148.181300 6.000000
149.059130 66.000000
150.069240 46.000000
151.047290 8.000000
151.065120 19.000000
151.078050 56.000000
151.349320 8.000000
152.034840 8.000000
152.051300 19.000000
152.063260 28.000000
152.072510 7.000000
152.706410 8.000000
153.060870 36.000000
153.069730 165.000000
153.118850 10.000000
153.331920 6.000000
154.076400 67.000000
155.053910 11.000000
155.078290 7.000000
156.053820 20.000000
157.060610 27.000000
158.072940 34.000000
159.077530 15.000000
159.088650 16.000000
161.052230 24.000000
161.069020 6.000000
162.065220 8.000000
162.940600 8.000000
163.041840 11.000000
163.076460 24.000000
163.944320 13.000000
164.051240 7.000000
164.062000 47.000000
165.048540 9.000000
165.068560 307.000000
165.093510 10.000000
166.070130 29.000000
166.077560 42.000000
166.086060 34.000000
167.055860 16.000000
167.071730 10.000000
167.086780 98.000000
168.059460 27.000000
168.090240 44.000000
168.099080 11.000000
169.060230 26.000000
169.067630 19.000000
169.100100 33.000000
170.058590 8.000000
170.071780 94.000000
170.340150 7.000000
171.032560 6.000000
171.044050 7.000000
171.080870 85.000000
172.084350 23.000000
172.094680 7.000000
173.059220 8.000000
173.091380 7.000000
173.098750 7.000000
174.094380 12.000000
175.038600 7.000000
175.081010 8.000000
175.928500 9.000000
176.051770 6.000000
176.062840 26.000000
176.081670 7.000000
177.050170 8.000000
177.063390 24.000000
177.073840 57.000000
177.093810 19.000000
178.076750 96.000000
179.082890 126.000000
180.056350 56.000000
180.077480 7.000000
180.090850 8.000000
181.064150 530.000000
181.097290 9.000000
181.113560 8.000000
181.457090 7.000000
182.065190 114.000000
182.075380 170.000000
182.266390 6.000000
183.082810 79.000000
183.935500 10.000000
184.052640 10.000000
184.085010 55.000000
185.058300 20.000000
185.067320 6.000000
185.093920 114.000000
185.105120 14.000000
185.604610 8.000000
185.816620 6.000000
186.103520 16.000000
187.107440 8.000000
188.085940 6.000000
189.063000 8.000000
189.097520 6.000000
190.066830 6.000000
190.095380 9.000000
191.063140 7.000000
191.082530 11.000000
192.053850 27.000000
192.066250 8.000000
193.051800 8.000000
193.062810 72.000000
193.072040 40.000000
194.067830 103.000000
194.076490 40.000000
194.118270 11.000000
194.878460 8.000000
195.049440 10.000000
195.073380 145.000000
195.080350 314.000000
196.087620 387.000000
197.058470 61.000000
197.066970 32.000000
197.095670 435.000000
198.039980 7.000000
198.069440 107.000000
198.076230 37.000000
198.092530 26.000000
198.102710 93.000000
198.338880 6.000000
198.566710 6.000000
199.054080 8.000000
199.072370 45.000000
199.101270 10.000000
199.111940 21.000000
200.080220 6.000000
200.110670 12.000000
202.094730 8.000000
204.110750 8.000000
204.457810 9.000000
205.183610 6.000000
206.079670 10.000000
207.066800 11.000000
207.082950 31.000000
208.055820 8.000000
208.087770 169.000000
209.048080 33.000000
209.061710 265.000000
209.095350 132.000000
210.064330 149.000000
210.094450 39.000000
210.105030 29.000000
210.306810 6.000000
210.585330 8.000000
210.704090 8.000000
211.066190 40.000000
211.077510 43.000000
211.102840 6.000000
211.114330 6.000000
212.083390 195.000000
213.057570 15.000000
213.092620 529.000000
214.086850 32.000000
214.095320 32.000000
215.057620 6.000000
215.090230 6.000000
215.099470 8.000000
217.537290 6.000000
221.059230 7.000000
222.064290 7.000000
222.106090 6.000000
222.466370 6.000000
223.067730 37.000000
223.078890 93.000000
224.083720 469.000000
225.055850 20.000000
225.065960 17.000000
225.092420 1000.000000
225.866790 6.000000
226.048970 14.000000
226.060470 22.000000
226.070950 59.000000
226.090070 69.000000
226.098770 122.000000
226.112400 9.000000
227.076430 9.000000
227.098080 61.000000
227.109280 173.000000
227.126970 9.000000
228.074080 18.000000
228.086620 17.000000
228.107540 35.000000
228.126850 13.000000
234.156920 11.000000
238.096120 42.000000
239.050260 8.000000
239.061870 15.000000
239.107380 189.000000
240.070330 74.000000
240.113850 301.000000
241.085890 511.000000
241.127760 17.000000
242.071730 6.000000
242.085430 57.000000
242.093890 40.000000
242.396420 7.000000
242.868090 8.000000
243.085940 7.000000
247.084580 8.000000
254.079500 10.000000
255.088680 18.000000
255.102200 100.000000
255.114880 27.000000
256.111240 208.000000
256.131290 6.000000
257.104130 9.000000
257.115390 8.000000
257.129270 24.000000
269.108830 17.000000
269.128630 18.000000
270.101380 11.000000
271.128510 14.000000

>ms2peaks
65.036890 19.000000
77.037980 121.000000
78.039270 22.000000
78.044260 12.000000
87.019940 16.000000
89.037960 23.000000
90.038540 34.000000
90.046230 23.000000
91.053970 163.000000
91.060330 21.000000
92.022030 54.000000
93.069890 11.000000
94.043060 14.000000
94.233670 19.000000
102.045410 11.000000
103.052310 35.000000
103.058180 17.000000
104.067540 11.000000
105.029370 12.000000
107.015170 15.000000
107.047760 12.000000
108.056160 15.000000
109.065770 13.000000
109.071670 19.000000
110.059380 13.000000
114.040020 13.000000
115.053190 150.000000
116.062240 48.000000
117.032120 16.000000
117.063330 11.000000
117.815450 15.000000
118.038380 11.000000
119.045670 30.000000
119.058320 12.000000
120.043910 13.000000
120.063990 11.000000
121.061380 93.000000
122.063400 43.000000
122.072530 11.000000
123.676160 14.000000
127.051690 53.000000
127.057890 25.000000
127.523540 11.000000
128.062160 87.000000
129.070160 21.000000
131.051420 56.000000
131.961840 14.000000
132.058260 22.000000
132.062970 11.000000
132.409440 11.000000
133.025710 71.000000
133.035950 26.000000
135.043060 90.000000
136.049700 11.000000
137.054080 11.000000
138.050700 17.000000
139.048480 25.000000
139.058040 39.000000
139.074300 11.000000
139.987980 11.000000
140.064470 44.000000
141.069810 386.000000
141.082240 34.000000
142.074980 35.000000
142.081100 63.000000
142.102430 12.000000
143.079160 51.000000
145.066100 14.000000
148.050670 51.000000
149.056720 27.000000
151.053710 159.000000
151.992450 11.000000
152.024550 20.000000
152.046330 27.000000
152.060750 802.000000
153.051700 36.000000
153.070690 1000.000000
154.071750 130.000000
154.079590 145.000000
155.049030 35.000000
155.081540 36.000000
156.052720 27.000000
158.062850 12.000000
163.051040 111.000000
163.067090 13.000000
163.813390 11.000000
163.834380 11.000000
164.059880 67.000000
165.068730 386.000000
165.076640 155.000000
166.056300 11.000000
166.074480 235.000000
166.102910 21.000000
167.065700 12.000000
167.084210 104.000000
168.054260 55.000000
168.069660 11.000000
168.091660 25.000000
169.064820 254.000000
170.064590 41.000000
170.074100 169.000000
170.105330 14.000000
171.073910 20.000000
171.083450 24.000000
173.052280 15.000000
177.059920 11.000000
177.076770 23.000000
178.080440 14.000000
179.052350 18.000000
179.079640 36.000000
179.089450 14.000000
180.060040 44.000000
181.054150 87.000000
181.064220 373.000000
182.042180 14.000000
182.071120 284.000000
183.038150 11.000000
183.050250 21.000000
183.079800 11.000000
183.838350 11.000000
184.041630 12.000000
184.089890 41.000000
185.088230 12.000000
185.104080 14.000000
186.104570 12.000000
192.063810 14.000000
193.066620 18.000000
193.074160 10.000000
194.070920 25.000000
195.078830 130.000000
196.054700 11.000000
196.084730 72.000000
197.062210 55.000000
197.097240 27.000000
198.065570 35.000000
199.043730 21.000000
199.066040 11.000000
200.071080 15.000000
208.048100 11.000000
208.077650 11.000000
209.046980 11.000000
210.081730 15.000000
211.067080 16.000000
211.075550 11.000000
212.091370 11.000000
213.096860 11.000000
213.106030 27.000000
214.101590 14.000000
224.082140 23.000000
225.088330 38.000000
226.101330 15.000000
227.114530 13.000000
227.741300 14.000000
243.098430 16.000000

