>compound PR64344121
>parentmass 709.4247
>ionization [M+H]+
>formula C38H60O12
>rt 514.200000
>profile qtof
#smiles_iso CC1CCC2(C(C3C(O2)CC4C3(CCC5C4CC=C6C5(C(CC(C6)O)OC7C(C(C(CO7)O)O)OC8C(C(C(C(O8)C)O)O)O)C)C)C)OC1
#smiles_can CC1CCC2(C(C3C(O2)CC4C3(CCC5C4CC=C6C5(C(CC(C6)O)OC7C(C(C(CO7)O)O)OC8C(C(C(C(O8)C)O)O)O)C)C)C)OC1
#inchikey SKHJNNFXCKTDBG-UHFFFAOYSA-N
#pubchem_id 3509806
#mb_accession PR310699

>ms2peaks
57.030290 26.000000
147.068440 22.000000
155.091140 17.000000
183.113540 20.000000
209.123550 20.000000
250.173510 25.000000
269.161130 17.000000
269.180910 17.000000
269.194550 16.000000
281.224790 17.000000
383.221100 22.000000
390.223240 22.000000
396.306120 17.000000
413.288730 17.000000
414.308380 44.000000
518.336730 17.000000
709.404360 141.000000

