>compound PR64680105
>parentmass 369.1808836999999
>ionization [M+H]+
>formula C21H24N2O4
>rt 254.102040
>profile qtof
#smiles_iso C[C@H]1[C@@H]2CN3CC[C@]4([C@@H]3C[C@@H]2C(=CO1)C(=O)OC)C5=CC=CC=C5NC4=O
#smiles_can CC1C2CN3CCC4(C3CC2C(=CO1)C(=O)OC)C5=CC=CC=C5NC4=O
#inchikey JMIAZDVHNCCPDM-QLMFUGSGSA-N
#pubchem_id 10429112
#mb_accession PR300241,PR300246,PR300251,PR300256,PR300261,PR300266,PR300271,PR300276,PR300281,PR300286,PR300291,PR300296

>ms2
108.079490 6.000000
115.054080 6.000000
118.063630 6.000000
124.039760 7.000000
130.063660 5.000000
132.043790 14.000000
132.079730 25.000000
142.064540 31.000000
144.078810 5.000000
158.060200 17.000000
160.075090 207.000000
161.077030 27.000000
178.085850 21.000000
187.087520 9.000000
201.101650 47.000000
202.106170 6.000000
210.110720 7.000000
213.101680 43.000000
215.116490 6.000000
237.103130 7.000000
239.116230 14.000000
241.132130 6.000000
265.097410 30.000000
265.133580 8.000000
267.147430 12.000000
293.129670 16.000000
309.157350 14.000000
325.156890 6.000000
337.153470 256.000000
338.158690 55.000000
339.161070 8.000000
369.121190 7.000000
369.180020 1000.000000
369.236300 31.000000

>ms2
337.154390 22.000000
369.118160 6.000000
369.181430 1000.000000
369.236790 34.000000
369.287750 6.000000

>ms2
80.050500 9.000000
108.080630 34.000000
110.096660 12.000000
115.055310 13.000000
118.066250 16.000000
122.097560 7.000000
124.039340 24.000000
130.065840 13.000000
132.042040 22.000000
132.080950 107.000000
133.084120 10.000000
139.039470 14.000000
142.065490 82.000000
143.069140 11.000000
144.080990 10.000000
150.092450 9.000000
158.055760 25.000000
158.061800 61.000000
159.066650 16.000000
160.075390 1000.000000
160.111790 24.000000
161.078290 123.000000
162.080110 5.000000
167.069920 13.000000
168.073720 6.000000
172.076690 15.000000
178.086530 84.000000
185.070110 6.000000
186.091860 15.000000
187.086650 55.000000
199.087680 10.000000
201.102480 178.000000
202.105580 22.000000
210.113860 21.000000
213.102580 234.000000
214.106770 38.000000
215.119980 26.000000
237.102680 22.000000
239.118380 62.000000
240.120420 10.000000
241.132110 23.000000
265.075470 7.000000
265.097990 130.000000
265.135040 35.000000
266.102020 27.000000
266.141020 5.000000
267.147860 45.000000
268.156100 9.000000
269.096130 6.000000
281.092290 13.000000
281.170560 6.000000
283.111270 8.000000
291.152650 14.000000
293.121490 10.000000
293.132810 17.000000
309.160340 50.000000
310.161930 13.000000
319.144380 18.000000
325.155490 20.000000
326.158140 8.000000
337.155180 465.000000
338.158510 112.000000
339.149020 5.000000
339.161870 8.000000
339.175510 6.000000
369.181120 223.000000

>ms2
55.057180 8.000000
68.049180 15.000000
77.036920 28.000000
80.043980 7.000000
80.048280 10.000000
81.058770 6.000000
81.066410 8.000000
81.072240 6.000000
82.069780 5.000000
83.009410 6.000000
83.015760 17.000000
85.024030 6.000000
89.035870 7.000000
91.044850 10.000000
91.053670 33.000000
93.049480 5.000000
93.059330 6.000000
93.065440 7.000000
94.065520 6.000000
96.044010 6.000000
102.049850 6.000000
103.043940 5.000000
103.058200 17.000000
104.050260 39.000000
105.069370 60.000000
106.063950 19.000000
107.047640 8.000000
107.068340 7.000000
108.038720 14.000000
108.048670 6.000000
108.069660 7.000000
108.080540 117.000000
109.042840 5.000000
109.049230 6.000000
109.059360 13.000000
109.082180 9.000000
110.092480 5.000000
110.101720 6.000000
115.054040 579.000000
116.050640 82.000000
116.059040 54.000000
117.026600 8.000000
117.057150 522.000000
117.070750 12.000000
118.039250 8.000000
118.047470 8.000000
118.063880 287.000000
119.066320 25.000000
119.074510 10.000000
120.034170 5.000000
120.076840 6.000000
122.023740 29.000000
122.194270 6.000000
124.028130 9.000000
124.040850 32.000000
125.040570 6.000000
127.055060 33.000000
128.045820 15.000000
128.052490 18.000000
128.069080 9.000000
129.053820 5.000000
129.059710 8.000000
130.040590 7.000000
130.063430 332.000000
131.069580 78.000000
131.075740 26.000000
132.015910 6.000000
132.043980 667.000000
132.061070 5.000000
132.080200 945.000000
133.050190 80.000000
133.084300 128.000000
134.049710 6.000000
134.095990 15.000000
135.045560 16.000000
139.040050 33.000000
140.037860 11.000000
140.048540 99.000000
141.046400 6.000000
141.057560 18.000000
142.064900 929.000000
143.040740 6.000000
143.055020 7.000000
143.067980 127.000000
144.045650 20.000000
144.056490 7.000000
144.080750 102.000000
144.092930 8.000000
145.042500 10.000000
145.052320 36.000000
145.078280 7.000000
145.087230 6.000000
146.058040 27.000000
147.065570 13.000000
150.083850 6.000000
150.092440 10.000000
153.051280 7.000000
153.064190 14.000000
154.064160 87.000000
155.062120 7.000000
155.070530 18.000000
156.042510 5.000000
156.083240 22.000000
158.059540 184.000000
158.084030 11.000000
158.094100 26.000000
158.103160 5.000000
159.054180 9.000000
159.063630 49.000000
159.076950 6.000000
159.094770 29.000000
159.100740 9.000000
160.053620 16.000000
160.075490 1000.000000
161.078740 144.000000
162.085740 11.000000
164.043530 6.000000
166.066410 32.000000
167.055540 11.000000
167.065690 48.000000
168.046490 6.000000
168.059200 7.000000
168.080440 47.000000
168.087310 17.000000
169.076630 47.000000
170.053790 14.000000
170.081130 10.000000
170.090970 8.000000
172.066090 7.000000
172.079930 20.000000
172.103040 5.000000
173.071700 8.000000
173.108170 33.000000
174.111110 6.000000
178.087360 5.000000
179.066150 9.000000
180.081910 8.000000
181.077330 17.000000
182.062580 7.000000
182.100200 6.000000
183.069840 8.000000
184.076450 20.000000
184.092500 7.000000
185.064830 27.000000
185.080660 17.000000
185.091480 6.000000
186.068650 9.000000
186.075040 17.000000
186.086590 18.000000
186.096010 7.000000
187.085480 65.000000
194.080260 8.000000
194.092320 13.000000
194.098370 5.000000
195.077470 16.000000
195.087780 14.000000
195.098400 8.000000
197.063890 6.000000
199.070910 10.000000
199.088500 29.000000
201.100750 96.000000
202.092130 8.000000
202.100540 6.000000
204.568180 6.000000
206.083920 13.000000
207.088150 10.000000
209.065870 14.000000
211.059810 6.000000
213.096590 31.000000
213.103840 65.000000
214.107150 6.000000
218.079670 9.000000
219.091580 27.000000
219.102690 7.000000
220.076370 13.000000
222.077710 10.000000
222.115970 5.000000
235.080540 6.000000
237.068160 11.000000
237.103580 58.000000
238.108730 9.000000
247.076570 9.000000
247.088380 11.000000
264.129940 5.000000
265.059780 5.000000
265.090910 49.000000
265.104830 40.000000
265.131530 6.000000
266.095370 5.000000
266.104860 6.000000
289.142520 5.000000
303.102970 8.000000

>ms2
118.066840 8.000000
124.038360 7.000000
132.045620 11.000000
132.080630 28.000000
142.064800 28.000000
158.059110 18.000000
160.075260 211.000000
161.079190 29.000000
178.086110 18.000000
187.086000 8.000000
201.101390 35.000000
210.113460 6.000000
213.102260 48.000000
214.105650 6.000000
215.119370 6.000000
239.119110 18.000000
265.097630 31.000000
265.137910 8.000000
266.098210 6.000000
267.153020 9.000000
293.129760 16.000000
309.159300 14.000000
337.154240 263.000000
337.207340 5.000000
338.155490 50.000000
369.121310 8.000000
369.181880 1000.000000
369.237490 31.000000

>ms2
337.155850 23.000000
338.159240 6.000000
369.119320 7.000000
369.182130 1000.000000
369.237760 34.000000
369.288450 7.000000

>ms2
80.048450 9.000000
108.079670 47.000000
110.096720 7.000000
115.053530 7.000000
118.063960 19.000000
124.039580 34.000000
130.064770 16.000000
132.044170 29.000000
132.080350 105.000000
133.085570 13.000000
139.039260 15.000000
142.063520 90.000000
143.069340 12.000000
144.076780 9.000000
150.090730 10.000000
158.059280 82.000000
159.066020 15.000000
160.046310 6.000000
160.074770 1000.000000
160.110530 24.000000
161.078310 126.000000
162.081710 10.000000
167.064640 5.000000
167.072140 9.000000
168.086490 5.000000
172.074160 15.000000
178.086910 92.000000
179.087100 12.000000
184.072370 6.000000
186.084980 8.000000
186.094240 9.000000
187.086500 59.000000
188.084140 7.000000
199.087130 12.000000
201.101620 181.000000
202.102770 18.000000
202.111760 15.000000
210.112320 18.000000
213.102310 233.000000
214.104350 42.000000
215.116560 24.000000
216.119350 6.000000
237.093510 11.000000
237.105820 13.000000
238.110020 9.000000
239.102520 6.000000
239.118470 65.000000
240.123050 14.000000
241.134060 22.000000
265.076290 6.000000
265.098270 133.000000
265.121490 13.000000
265.136170 26.000000
266.102170 31.000000
266.130000 6.000000
267.148500 63.000000
268.150790 9.000000
281.093750 5.000000
281.161560 7.000000
283.100010 5.000000
283.113710 6.000000
291.146760 11.000000
293.127870 20.000000
293.138280 6.000000
309.159210 49.000000
310.160430 10.000000
319.145780 11.000000
325.155730 20.000000
337.112580 8.000000
337.153870 459.000000
338.158630 116.000000
339.163150 24.000000
369.140900 10.000000
369.179110 238.000000

>ms2
55.055340 7.000000
56.050120 17.000000
70.065700 6.000000
77.029300 6.000000
77.038730 28.000000
78.035420 8.000000
79.054770 18.000000
80.047160 19.000000
81.068120 14.000000
82.028650 7.000000
82.060620 9.000000
83.014850 8.000000
90.043630 6.000000
91.054930 60.000000
93.055870 6.000000
94.068530 10.000000
95.049460 10.000000
97.066430 8.000000
103.051500 23.000000
104.038490 5.000000
104.048970 42.000000
104.057340 6.000000
105.053560 9.000000
105.068190 45.000000
105.075930 10.000000
106.065370 24.000000
107.067720 7.000000
107.076230 7.000000
108.045850 9.000000
108.080890 98.000000
109.050550 6.000000
109.084600 10.000000
111.041940 5.000000
115.054210 547.000000
116.033610 5.000000
116.049930 49.000000
116.058560 56.000000
117.056720 463.000000
118.045610 12.000000
118.064930 279.000000
119.067410 34.000000
120.043200 7.000000
120.074800 5.000000
121.066860 5.000000
122.021680 8.000000
122.027400 9.000000
122.092490 9.000000
123.044590 5.000000
124.030600 6.000000
124.040670 61.000000
125.040770 6.000000
125.054580 5.000000
127.055060 32.000000
128.048260 42.000000
128.061550 8.000000
129.069640 8.000000
130.064590 316.000000
131.070500 68.000000
132.043840 678.000000
132.060700 9.000000
132.080670 967.000000
133.047000 82.000000
133.084010 128.000000
134.094540 8.000000
135.045290 6.000000
139.040020 8.000000
140.049550 90.000000
141.051220 12.000000
141.071430 6.000000
142.033420 9.000000
142.046770 8.000000
142.065030 930.000000
143.035780 5.000000
143.054750 13.000000
143.069430 144.000000
144.033580 6.000000
144.044020 30.000000
144.081420 95.000000
145.049030 25.000000
145.055540 8.000000
145.074310 5.000000
145.085190 11.000000
146.055860 8.000000
146.067490 5.000000
146.096120 8.000000
147.059170 7.000000
150.092680 5.000000
152.050200 6.000000
153.049560 9.000000
153.070390 9.000000
154.049680 10.000000
154.062870 51.000000
154.070110 17.000000
156.045590 5.000000
156.075990 11.000000
156.086110 27.000000
157.037050 8.000000
157.083110 7.000000
158.059460 186.000000
158.085970 8.000000
158.094890 21.000000
159.048100 7.000000
159.063080 23.000000
159.069980 23.000000
159.085750 7.000000
159.094090 12.000000
159.105180 6.000000
160.056760 9.000000
160.075330 1000.000000
161.055150 5.000000
161.079270 132.000000
162.076480 10.000000
166.066700 16.000000
167.057190 18.000000
167.064210 17.000000
167.074200 21.000000
168.055440 6.000000
168.077900 57.000000
169.075010 30.000000
169.086240 10.000000
170.084030 6.000000
171.096470 12.000000
172.075260 34.000000
172.090060 6.000000
173.062290 5.000000
173.082500 17.000000
173.100620 10.000000
173.108690 20.000000
174.112530 8.000000
178.068160 6.000000
178.088170 19.000000
180.078750 5.000000
180.086610 6.000000
181.069320 9.000000
181.076290 13.000000
181.086300 11.000000
182.062500 9.000000
183.093490 5.000000
183.099500 9.000000
184.062100 7.000000
184.076460 28.000000
184.097210 7.000000
185.057110 9.000000
185.067900 21.000000
185.079450 39.000000
185.101910 10.000000
185.110230 5.000000
186.074660 32.000000
186.086650 12.000000
187.060300 6.000000
187.083210 18.000000
187.092510 13.000000
187.103260 8.000000
192.076020 11.000000
194.061280 5.000000
195.089510 11.000000
195.104510 6.000000
196.074330 5.000000
197.072110 10.000000
198.094510 8.000000
199.085720 44.000000
200.097470 9.000000
201.094600 37.000000
201.104520 58.000000
202.107970 7.000000
207.090760 5.000000
208.081760 6.000000
208.097350 6.000000
209.075780 22.000000
209.103550 5.000000
210.070240 13.000000
213.077330 6.000000
213.103820 72.000000
214.102170 15.000000
217.094480 7.000000
218.081890 13.000000
219.091950 7.000000
220.071550 7.000000
220.087620 9.000000
222.093490 8.000000
222.118450 7.000000
225.104250 9.000000
235.089450 14.000000
236.056520 9.000000
237.076280 12.000000
237.104050 39.000000
238.123430 7.000000
239.118060 8.000000
241.130020 7.000000
247.085010 13.000000
263.122220 5.000000
263.131410 6.000000
265.096410 47.000000
265.139920 5.000000
266.105650 6.000000

>ms2
108.080760 9.000000
118.065450 7.000000
132.044340 11.000000
132.079910 29.000000
142.064410 26.000000
158.060070 21.000000
160.074950 213.000000
161.075500 20.000000
178.085800 15.000000
187.085850 12.000000
201.101490 45.000000
210.110790 5.000000
213.102430 43.000000
214.104460 7.000000
215.118260 5.000000
237.108800 5.000000
239.118180 21.000000
265.096980 30.000000
265.135410 8.000000
267.146670 14.000000
293.127350 18.000000
309.159210 13.000000
325.154690 6.000000
337.153410 256.000000
338.157930 53.000000
339.165860 8.000000
369.180300 1000.000000
369.236150 30.000000

>ms2
337.155060 24.000000
369.181580 1000.000000
369.236720 34.000000
369.288570 7.000000

>ms2
108.080990 45.000000
109.089220 5.000000
110.094960 12.000000
115.056160 5.000000
117.058810 6.000000
118.063740 18.000000
124.038080 28.000000
130.064320 10.000000
132.044220 25.000000
132.068700 6.000000
132.081040 82.000000
133.081390 7.000000
133.089980 7.000000
139.038130 24.000000
142.065120 80.000000
143.067340 13.000000
144.081500 12.000000
150.091640 11.000000
158.060750 86.000000
159.066670 14.000000
160.075490 1000.000000
160.111500 25.000000
161.079160 109.000000
162.080050 9.000000
167.069140 13.000000
169.084470 6.000000
172.074840 15.000000
173.078290 5.000000
178.086670 86.000000
179.091540 9.000000
186.092120 23.000000
187.087130 53.000000
188.085430 5.000000
192.102330 7.000000
199.080570 6.000000
199.092210 5.000000
201.102550 181.000000
202.108800 25.000000
210.111270 18.000000
213.074280 6.000000
213.102660 217.000000
214.105360 41.000000
215.117690 20.000000
237.101700 30.000000
239.117890 64.000000
240.117740 15.000000
241.132340 25.000000
253.131360 7.000000
265.098970 126.000000
265.136200 31.000000
266.099400 27.000000
266.131200 7.000000
266.141420 9.000000
267.148680 58.000000
268.149480 12.000000
281.092900 11.000000
281.167570 6.000000
283.110630 8.000000
291.144230 9.000000
291.158630 9.000000
293.121580 6.000000
293.130460 16.000000
307.148530 5.000000
309.159210 45.000000
310.167570 11.000000
319.145360 13.000000
325.154750 23.000000
337.105930 5.000000
337.155270 426.000000
338.158750 103.000000
339.158910 14.000000
369.182010 228.000000

>ms2
68.050580 8.000000
70.067310 15.000000
77.036600 15.000000
78.033870 11.000000
79.053750 24.000000
80.044360 6.000000
80.048500 13.000000
80.052830 5.000000
81.068310 10.000000
82.065160 6.000000
83.009980 10.000000
83.048310 5.000000
91.054120 51.000000
92.058180 19.000000
93.058000 7.000000
94.066010 10.000000
95.046160 8.000000
103.050130 9.000000
103.057910 14.000000
103.542710 5.000000
104.047850 49.000000
104.056300 8.000000
105.068250 56.000000
105.074690 11.000000
106.056790 12.000000
106.066850 13.000000
108.041140 7.000000
108.051050 6.000000
108.063390 7.000000
108.080880 94.000000
109.049960 8.000000
109.065160 6.000000
110.094090 18.000000
115.016720 6.000000
115.053880 543.000000
116.052290 146.000000
117.045490 22.000000
117.057030 404.000000
118.063960 278.000000
119.060350 9.000000
119.070500 20.000000
121.093150 7.000000
122.022010 25.000000
122.064410 6.000000
124.037950 69.000000
124.075240 5.000000
127.053390 19.000000
128.048110 39.000000
129.053310 6.000000
129.070500 5.000000
130.064420 353.000000
131.066680 49.000000
131.073790 18.000000
131.083210 7.000000
132.026990 9.000000
132.043930 557.000000
132.079970 1000.000000
133.044940 54.000000
133.060810 5.000000
133.085630 119.000000
134.060360 12.000000
135.040890 6.000000
135.047520 11.000000
139.041210 14.000000
140.048070 118.000000
141.055510 42.000000
142.020310 8.000000
142.037370 9.000000
142.064190 893.000000
143.066540 85.000000
143.076430 42.000000
144.041410 17.000000
144.082520 109.000000
145.053360 27.000000
145.063130 6.000000
145.086440 15.000000
146.058610 26.000000
147.055830 9.000000
150.087970 7.000000
153.055360 20.000000
154.064940 61.000000
155.077060 7.000000
156.077770 20.000000
157.049330 11.000000
157.084900 21.000000
158.047530 13.000000
158.060500 155.000000
158.084080 7.000000
158.093060 12.000000
158.100270 13.000000
159.063370 37.000000
159.070220 20.000000
159.088490 8.000000
159.099330 19.000000
160.047580 10.000000
160.075300 898.000000
161.077290 153.000000
162.087270 9.000000
166.058290 9.000000
166.068650 9.000000
167.045730 5.000000
167.060470 34.000000
167.070280 36.000000
168.080630 50.000000
169.073550 16.000000
169.084050 8.000000
169.092740 8.000000
170.092330 15.000000
171.092760 9.000000
172.067030 6.000000
172.079590 20.000000
173.077680 34.000000
173.106570 34.000000
174.094150 7.000000
178.062030 13.000000
178.074660 9.000000
178.081070 19.000000
179.082310 9.000000
180.070940 8.000000
181.086470 9.000000
182.064030 6.000000
182.085560 10.000000
184.067600 24.000000
184.079160 15.000000
185.077070 27.000000
185.107570 28.000000
186.076200 15.000000
186.093170 15.000000
187.075880 9.000000
187.087720 32.000000
188.092360 11.000000
191.644850 6.000000
192.080490 6.000000
193.073790 13.000000
193.089770 8.000000
195.072390 7.000000
195.087550 17.000000
197.073070 5.000000
198.073120 6.000000
198.089370 5.000000
199.085400 28.000000
200.089520 8.000000
201.083950 5.000000
201.100810 84.000000
202.107640 12.000000
206.094600 7.000000
207.089040 8.000000
208.079510 12.000000
208.093430 8.000000
209.060410 6.000000
209.074230 29.000000
209.113080 8.000000
210.083080 7.000000
213.103000 59.000000
214.112850 7.000000
218.083330 7.000000
218.119920 5.000000
219.089950 10.000000
220.062850 8.000000
220.079510 20.000000
221.085330 10.000000
222.095140 14.000000
223.075030 5.000000
224.076350 10.000000
225.101350 11.000000
234.088560 6.000000
235.084180 11.000000
237.075930 8.000000
237.101670 47.000000
237.122470 6.000000
238.100160 6.000000
238.112150 6.000000
239.105730 5.000000
239.119630 9.000000
248.088320 6.000000
248.098300 5.000000
251.126800 11.000000
252.096940 5.000000
253.100200 7.000000
265.095920 71.000000
265.128910 18.000000
266.108950 5.000000
369.186400 17.000000

