>compound PR65969420
>parentmass 409.20214999999996
>ionization [M+H]+
>formula C25H28O5
>rt 567.000000
>profile qtof
#smiles_iso CC(=CCC1=C(C=CC(=C1)C2C(C(=O)C3=C(O2)C(=C(C=C3)O)CC=C(C)C)O)O)C
#smiles_can CC(=CCC1=C(C=CC(=C1)C2C(C(=O)C3=C(O2)C(=C(C=C3)O)CC=C(C)C)O)O)C
#inchikey LAQLCZKPJGMFRM-UHFFFAOYSA-N
#pubchem_id 78190875
#mb_accession PR310770,PR310774

>ms2
65.041500 17.000000
109.063430 25.000000
110.027710 18.000000
121.031730 18.000000
131.005680 17.000000
131.012770 41.000000
136.459880 23.000000
148.561080 17.000000
149.021620 498.000000
149.031540 53.000000
150.021150 60.000000
150.038190 30.000000
151.028140 19.000000
151.040660 46.000000
157.067490 22.000000
161.010570 20.000000
176.039370 17.000000
177.031940 19.000000
177.053090 50.000000
178.072010 20.000000
187.038880 19.000000
187.075550 20.000000
188.072780 20.000000
203.071080 17.000000
205.088790 125.000000
205.113190 24.000000
206.126750 24.000000
211.071640 18.000000
211.079900 37.000000
227.079410 27.000000
246.595540 20.000000
255.204560 17.000000
265.079220 20.000000
292.083500 19.000000
296.105010 17.000000
302.402100 17.000000
307.144780 28.000000
312.637910 33.000000
317.098240 40.000000
317.131620 23.000000
334.109590 20.000000
335.114410 33.000000
335.127230 35.000000
335.144780 17.000000
336.128390 51.000000
336.142700 21.000000
353.139920 346.000000
354.117490 17.000000
354.135310 83.000000
354.148560 23.000000
407.170840 27.000000
409.154450 25.000000
409.200440 1237.000000
409.245850 36.000000

>ms2
73.253560 18.000000
149.013380 35.000000
149.025150 80.000000
175.034320 28.000000
177.054660 27.000000
189.082320 20.000000
197.060990 21.000000
207.080490 22.000000
207.092930 27.000000
213.052580 18.000000
215.065810 26.000000
229.087970 20.000000
255.003300 27.000000
255.066880 18.000000
259.352780 18.000000
266.046630 17.000000
267.072660 37.000000
270.553680 21.000000
279.071810 23.000000
279.174680 19.000000
283.072600 19.000000
286.110110 17.000000
294.214200 17.000000
307.139560 19.000000
321.076050 17.000000
323.113980 23.000000
323.130920 37.000000
335.081940 17.000000
335.115420 17.000000
353.121670 24.000000
353.144680 17.000000
355.138700 28.000000
368.100620 19.000000
369.031560 30.000000
380.200100 23.000000
391.194180 43.000000
408.216860 20.000000
409.170620 29.000000
409.189670 80.000000
409.206360 191.000000

