>compound PR65758718
>parentmass 193.04953556923076
>ionization [M+H]+
>formula C10H8O4
>rt 254.381502
>profile qtof
#smiles_iso COC1=C(C=C2C(=C1)C=CC(=O)O2)O
#smiles_can COC1=C(C=C2C(=C1)C=CC(=O)O2)O
#inchikey RODXRVNMMDRFIK-UHFFFAOYSA-N
#pubchem_id 5280460
#mb_accession PR303120,PR303124,PR303128,PR303132,PR303136,PR303140,PR303144,PR303148,PR303152,PR303156,PR303160,PR303164,PR311073

>ms2
77.040050 12.000000
81.033660 9.000000
94.040570 22.000000
105.030430 10.000000
117.040050 5.000000
121.020700 5.000000
122.035030 64.000000
133.027680 215.000000
134.030400 18.000000
137.059250 87.000000
138.064910 5.000000
149.056430 11.000000
149.064970 11.000000
150.028050 26.000000
150.034350 24.000000
161.021380 14.000000
164.047730 7.000000
165.053800 40.000000
178.025530 161.000000
179.031170 13.000000
192.041340 17.000000
193.049220 1000.000000
193.089510 11.000000

>ms2
133.027560 24.000000
165.055040 7.000000
178.025500 10.000000
192.034290 6.000000
192.045650 5.000000
193.049240 1000.000000
193.089420 24.000000

>ms2
53.036970 14.000000
65.033710 14.000000
65.038590 10.000000
65.823270 6.000000
66.007650 5.000000
66.046220 62.000000
66.051230 13.000000
66.375440 7.000000
67.049010 11.000000
67.054050 7.000000
68.026290 7.000000
68.990520 14.000000
69.001560 7.000000
71.536100 6.000000
74.459540 7.000000
77.037410 105.000000
77.043110 15.000000
78.039050 10.000000
78.046800 23.000000
79.015860 6.000000
79.022750 11.000000
79.053120 11.000000
81.032070 147.000000
82.037610 5.000000
82.043080 11.000000
82.301080 5.000000
89.040220 43.000000
89.374440 7.000000
91.054530 22.000000
91.081230 6.000000
93.029850 15.000000
93.034960 29.000000
93.465140 5.000000
94.031850 27.000000
94.042340 427.000000
94.173280 6.000000
95.040240 28.000000
105.027680 106.000000
105.036000 56.000000
105.040300 27.000000
106.037750 7.000000
107.047170 7.000000
108.019020 5.000000
109.029030 11.000000
109.069230 8.000000
110.031620 5.000000
111.803700 9.000000
112.535620 14.000000
119.698810 10.000000
121.024450 56.000000
121.034280 18.000000
121.975070 13.000000
122.011080 10.000000
122.035870 1000.000000
122.339900 8.000000
123.038150 55.000000
123.905000 6.000000
127.084940 5.000000
127.572230 5.000000
133.027770 888.000000
134.028430 45.000000
134.034760 72.000000
134.467120 5.000000
135.028790 8.000000
135.808670 6.000000
136.018650 8.000000
136.362240 6.000000
137.047990 40.000000
137.059800 239.000000
140.465880 6.000000
149.025540 31.000000
150.003910 12.000000
150.024810 135.000000
150.032580 442.000000
151.029600 8.000000
151.037870 13.000000
152.045900 11.000000
161.019780 31.000000
165.048280 11.000000
177.991010 5.000000
178.004430 7.000000
178.026020 409.000000
178.097500 6.000000
179.005070 5.000000
179.025410 38.000000
179.037920 33.000000
179.046230 14.000000
180.031780 6.000000
193.041410 21.000000
193.050690 24.000000

>ms2
66.043130 127.000000
66.047710 127.000000
77.038390 162.000000
91.825070 120.000000
94.294560 141.000000
104.024980 268.000000
121.031840 127.000000
122.036420 1000.000000
133.025990 261.000000
150.041720 120.000000
178.030880 521.000000
192.186360 127.000000
193.046160 232.000000

>ms2
66.047520 6.000000
77.040470 15.000000
81.034170 13.000000
89.034970 5.000000
94.039690 21.000000
105.029400 8.000000
122.031140 19.000000
122.036670 49.000000
133.028110 211.000000
134.027820 14.000000
134.033840 12.000000
137.057630 65.000000
149.061050 15.000000
150.030470 41.000000
151.030810 12.000000
164.050630 6.000000
165.052600 34.000000
178.024810 123.000000
179.023040 5.000000
193.017960 5.000000
193.048840 1000.000000
193.089200 10.000000

>ms2
133.024320 8.000000
133.029330 21.000000
178.028140 6.000000
192.040620 11.000000
193.007390 7.000000
193.049620 1000.000000
193.090290 20.000000

>ms2
65.756940 8.000000
66.027460 12.000000
66.046800 74.000000
68.996450 19.000000
69.003360 17.000000
77.039380 118.000000
79.020580 10.000000
79.049800 11.000000
79.056550 9.000000
80.929440 6.000000
81.032170 46.000000
81.065900 7.000000
81.076100 8.000000
82.033950 7.000000
89.032040 17.000000
89.633480 7.000000
91.057260 8.000000
93.035620 17.000000
94.001590 7.000000
94.040510 276.000000
95.046180 17.000000
95.190220 9.000000
95.369980 9.000000
104.026760 6.000000
105.005740 10.000000
105.030830 51.000000
105.035950 64.000000
107.046810 20.000000
108.257470 8.000000
117.036000 8.000000
118.027570 8.000000
120.045980 7.000000
120.409480 6.000000
121.022350 37.000000
121.032240 61.000000
121.916540 8.000000
121.999930 13.000000
122.010320 9.000000
122.035870 1000.000000
122.451860 7.000000
123.023680 15.000000
123.035140 10.000000
123.043040 14.000000
123.110050 7.000000
123.146170 7.000000
132.959000 13.000000
133.008620 20.000000
133.027080 543.000000
133.893750 7.000000
134.019210 16.000000
134.031040 82.000000
135.270480 6.000000
137.042070 8.000000
137.058690 286.000000
138.067230 26.000000
149.017750 13.000000
149.066020 21.000000
149.275850 8.000000
150.012420 13.000000
150.025150 242.000000
150.034480 196.000000
151.028490 13.000000
151.036320 45.000000
161.024720 53.000000
177.017910 8.000000
178.015880 78.000000
178.028470 346.000000
179.036970 21.000000
179.740020 6.000000
180.045910 10.000000
193.041670 27.000000
193.053380 27.000000

>ms2
68.029990 195.000000
77.033080 391.000000
78.033260 563.000000
94.042360 322.000000
94.048270 264.000000
121.023480 276.000000
150.034150 1000.000000
193.051830 402.000000

>ms2
77.038520 6.000000
94.042340 27.000000
105.033260 15.000000
122.035220 36.000000
133.027470 203.000000
134.030730 24.000000
137.058140 67.000000
138.062990 7.000000
149.020170 5.000000
149.058470 17.000000
150.021590 12.000000
150.032090 55.000000
161.019500 8.000000
165.056370 11.000000
178.025300 150.000000
179.024400 7.000000
179.030980 10.000000
192.040700 12.000000
193.019810 8.000000
193.049320 1000.000000
193.088840 18.000000

>ms2
133.026580 14.000000
178.023790 10.000000
192.038090 11.000000
193.009320 6.000000
193.048810 1000.000000
193.085570 11.000000
193.092510 16.000000

>ms2
65.038730 11.000000
66.047930 96.000000
68.991940 9.000000
68.998270 12.000000
69.033970 9.000000
77.027140 16.000000
77.035300 78.000000
77.041390 161.000000
77.178370 11.000000
78.042080 103.000000
79.017330 15.000000
81.023400 10.000000
81.033420 224.000000
89.039300 25.000000
91.045240 17.000000
91.054050 32.000000
94.042020 528.000000
94.189070 14.000000
95.042100 27.000000
103.050270 9.000000
105.022580 25.000000
105.028880 118.000000
105.036720 96.000000
106.031520 21.000000
106.487170 9.000000
107.048160 19.000000
117.029990 12.000000
121.026120 79.000000
121.102170 9.000000
122.023700 59.000000
122.035850 817.000000
123.042460 25.000000
123.364270 11.000000
133.005220 27.000000
133.027680 1000.000000
134.028350 34.000000
134.035610 60.000000
137.059130 343.000000
138.054780 23.000000
147.047900 16.000000
149.005940 11.000000
149.026470 31.000000
149.057480 24.000000
149.067090 13.000000
150.010820 20.000000
150.028230 341.000000
150.034120 471.000000
150.993350 9.000000
151.038940 11.000000
152.032810 29.000000
153.012440 10.000000
160.165330 10.000000
161.024250 40.000000
162.007220 9.000000
162.028180 9.000000
177.012410 9.000000
178.002030 24.000000
178.025710 731.000000
178.052840 13.000000
179.019010 35.000000
179.031330 25.000000
180.020510 19.000000
183.107670 10.000000
193.046330 61.000000

>ms2
66.040720 675.000000
77.036710 138.000000
81.034580 602.000000
94.039180 1000.000000
94.047970 350.000000
105.018330 317.000000
105.038650 244.000000
118.045840 179.000000
122.024480 171.000000
122.032490 374.000000
122.038540 220.000000
133.025600 423.000000
133.033940 163.000000
137.047360 236.000000
150.034930 358.000000
151.027530 187.000000
178.024770 325.000000

>ms2
65.039640 23.000000
66.038220 43.000000
66.047250 57.000000
67.049580 46.000000
76.470940 21.000000
77.026610 17.000000
77.032300 53.000000
77.040050 211.000000
77.648180 18.000000
78.036900 33.000000
78.042380 19.000000
81.033660 159.000000
82.034450 44.000000
82.066530 18.000000
85.694790 20.000000
90.043840 30.000000
94.040570 370.000000
95.042240 46.000000
104.056370 22.000000
105.030430 170.000000
106.036160 24.000000
107.043880 21.000000
107.049810 26.000000
109.071270 30.000000
110.797500 25.000000
111.957270 23.000000
114.014920 25.000000
117.023840 27.000000
117.040050 88.000000
119.045130 46.000000
120.426520 37.000000
121.010090 24.000000
121.020700 88.000000
121.028970 85.000000
121.037590 31.000000
122.008000 42.000000
122.020600 45.000000
122.035030 1089.000000
122.807890 18.000000
123.035360 21.000000
123.043590 82.000000
125.814740 21.000000
126.701600 20.000000
129.845150 17.000000
130.830930 23.000000
132.993040 45.000000
133.001310 20.000000
133.027680 3660.000000
133.971820 17.000000
133.981400 24.000000
134.007100 23.000000
134.030400 300.000000
134.043080 23.000000
134.146040 20.000000
134.702930 18.000000
135.039670 17.000000
135.595370 25.000000
135.763760 20.000000
135.923260 20.000000
135.931790 24.000000
136.604190 17.000000
137.059250 1483.000000
137.074780 48.000000
137.913120 19.000000
138.064910 91.000000
141.076580 17.000000
143.202180 29.000000
143.373570 18.000000
147.040360 67.000000
149.026810 41.000000
149.056430 195.000000
149.064970 184.000000
149.895390 24.000000
150.028050 435.000000
150.034350 416.000000
150.880860 21.000000
151.029650 26.000000
152.043460 21.000000
153.960160 18.000000
158.803710 22.000000
161.021380 235.000000
162.026210 37.000000
162.066190 34.000000
164.047730 118.000000
165.053800 675.000000
166.047470 35.000000
166.055910 21.000000
174.261640 27.000000
176.968610 17.000000
177.014070 73.000000
177.025730 51.000000
178.025530 2744.000000
179.011700 53.000000
179.031170 214.000000
179.380520 17.000000
180.029740 46.000000
181.738110 26.000000
183.673770 29.000000
187.413120 17.000000
192.041340 286.000000
192.069320 46.000000
192.594280 19.000000
192.830180 31.000000
192.955150 33.000000
192.989170 24.000000
193.011200 57.000000
193.049220 17044.000000
193.089510 182.000000
193.122210 18.000000

