>compound PR65128566
>parentmass 474.2603
>ionization [M+H]+
>formula C25H35N3O6
>rt 188.400000
>profile qtof
#smiles_iso C1=CC(=C(C=C1CCC(=O)NCCCCNCCCNC(=O)CCC2=CC(=C(C=C2)O)O)O)O
#smiles_can C1=CC(=C(C=C1CCC(=O)NCCCCNCCCNC(=O)CCC2=CC(=C(C=C2)O)O)O)O
#inchikey RNEHQZRKZJSYOL-UHFFFAOYSA-N
#pubchem_id 15730308
#mb_accession PR311116

>ms2
123.021130 29.000000
123.041450 58.000000
123.049220 23.000000
163.065320 18.000000
165.040020 57.000000
165.056630 213.000000
193.117460 25.000000
221.127260 25.000000
221.600890 17.000000
222.086260 18.000000
222.110210 510.000000
222.119260 750.000000
223.105100 34.000000
223.112640 55.000000
223.126110 45.000000
236.130600 62.000000
292.200620 18.000000
349.067990 17.000000
426.889070 17.000000
456.258030 23.000000
457.211730 20.000000
457.245420 67.000000
458.209530 34.000000
472.244480 42.000000
473.248110 25.000000
474.114110 20.000000
474.202970 19.000000
474.219420 41.000000
474.259190 2618.000000

