>compound PR65400598
>parentmass 341.1382
>ionization [M+H]+
>formula C20H20O5
>rt 450.600000
>profile qtof
#smiles_iso CC(=CCC1=C(C=CC2=C1OCC(C2=O)C3=C(C=C(C=C3)O)O)O)C
#smiles_can CC(=CCC1=C(C=CC2=C1OCC(C2=O)C3=C(C=C(C=C3)O)O)O)C
#inchikey JIJYZALGIIQXKE-UHFFFAOYSA-N
#pubchem_id 442770
#mb_accession PR310757

>ms2
65.035090 47.000000
84.374950 18.000000
93.024370 18.000000
107.015710 21.000000
107.045140 20.000000
121.027940 751.000000
121.134110 27.000000
122.034040 45.000000
123.040710 54.000000
124.039820 18.000000
136.048980 22.000000
137.019700 21.000000
143.495410 18.000000
146.435850 23.000000
149.021900 376.000000
149.054750 33.000000
149.098500 18.000000
153.063080 24.000000
163.028560 37.000000
163.037960 93.000000
164.044480 43.000000
196.093660 18.000000
205.052920 19.000000
205.085130 2441.000000
206.088700 311.000000
206.974060 17.000000
207.088580 17.000000
207.588210 24.000000
215.508990 27.000000
284.064880 18.000000
285.051060 23.000000
285.068180 146.000000
285.083890 86.000000
286.081670 39.000000
317.347870 20.000000
326.864990 39.000000
341.132900 360.000000
341.145720 239.000000

