>compound PR65726520
>parentmass 555.1287
>ionization [M+H]+
>formula C31H22O10
>rt 334.800000
>profile qtof
#smiles_iso COC1=CC(=C2C(=O)CC(OC2=C1)C3=CC(=C(C=C3)O)C4=C(C=C(C5=C4OC(=CC5=O)C6=CC=C(C=C6)O)O)O)O
#smiles_can COC1=CC(=C2C(=O)CC(OC2=C1)C3=CC(=C(C=C3)O)C4=C(C=C(C5=C4OC(=CC5=O)C6=CC=C(C=C6)O)O)O)O
#inchikey XMFILYNCNQOLOA-UHFFFAOYSA-N
#pubchem_id 46841213
#mb_accession PR311121

>ms2
121.025300 96.000000
256.441800 17.000000
269.087770 21.000000
299.053560 18.000000
320.174290 17.000000
345.065920 19.000000
357.063870 20.000000
402.070650 104.000000
403.044040 23.000000
403.083800 65.000000
404.083470 23.000000
417.079590 139.000000
417.101170 392.000000
418.082280 36.000000
418.100070 101.000000
419.066100 17.000000
419.096130 18.000000
435.117890 31.000000
555.127990 71.000000

