>compound PR65321590
>parentmass 683.1479
>ionization [M+H]+
>formula C29H30O19
>rt 237.600000
>profile qtof
#smiles_iso COC1=CC(=CC(=C1O)OC)C2=CC(=O)C3=C(C=C(C=C3O2)OC4C(C(C(C(O4)C(=O)O)O)O)OC5C(C(C(C(O5)C(=O)O)O)O)O)O
#smiles_can COC1=CC(=CC(=C1O)OC)C2=CC(=O)C3=C(C=C(C=C3O2)OC4C(C(C(C(O4)C(=O)O)O)O)OC5C(C(C(C(O5)C(=O)O)O)O)O)O
#inchikey RDNMWJOGZVGRGW-UHFFFAOYSA-N
#pubchem_id 131752191
#mb_accession PR310968

>ms2peaks
273.214420 20.000000
305.155330 17.000000
315.131230 21.000000
331.084320 1183.000000
332.088200 234.000000
332.106380 65.000000
333.070010 21.000000
333.083950 80.000000
340.116790 16.000000
397.092560 17.000000
416.522740 22.000000
424.707730 18.000000
508.097050 18.000000
508.132260 36.000000
508.552550 26.000000
509.118160 24.000000
620.190490 21.000000
652.130430 22.000000
668.186710 20.000000
682.182800 20.000000
682.424870 29.000000
682.690310 16.000000
683.093870 39.000000
683.114620 82.000000
683.150270 1051.000000
683.195680 59.000000

