>compound PR65304316
>parentmass 867.4709
>ionization [M-H2O+H]+
>formula C45H72O17
>rt 342.600000
>profile qtof
#smiles_iso CC1CCC2(C(C3C(O2)CC4C3(CCC5C4CC=C6C5(CCC(C6)OC7C(C(C(C(O7)CO)OC8C(C(C(C(O8)C)O)O)O)O)OC9C(C(C(C(O9)C)O)O)O)C)C)C)OC1O
#smiles_can CC1CCC2(C(C3C(O2)CC4C3(CCC5C4CC=C6C5(CCC(C6)OC7C(C(C(C(O7)CO)OC8C(C(C(C(O8)C)O)O)O)O)OC9C(C(C(C(O9)C)O)O)O)C)C)C)OC1O
#inchikey LPZCNTXUCIGYQK-UHFFFAOYSA-N
#pubchem_id 85271213
#mb_accession PR310708

>ms2
129.055150 60.000000
145.098970 20.000000
167.098420 18.000000
171.069210 24.000000
200.541340 28.000000
203.143250 21.000000
211.163420 21.000000
213.166700 25.000000
255.220060 17.000000
293.136260 23.000000
377.296390 25.000000
413.283600 31.000000
415.324890 27.000000
516.879390 20.000000
557.329220 23.000000
560.754820 19.000000
721.444520 33.000000
766.737980 17.000000
849.435060 18.000000
851.508000 25.000000
866.493160 18.000000
867.346560 20.000000
867.385500 40.000000
867.471250 1015.000000

