>compound PR65928013
>parentmass 456.34722073333336
>ionization [M+H]+
>formula C29H45NO3
>rt 441.710000
>profile qtof
#smiles_iso CC1CCC2(C(C3C(O2)CC4C3(CCC5C4CC=C6C5(CCC(C6)O)C)C)C)N(C1)C(=O)C
#smiles_can CC1CCC2(C(C3C(O2)CC4C3(CCC5C4CC=C6C5(CCC(C6)O)C)C)C)N(C1)C(=O)C
#inchikey JXAZKNVJWYDQJY-UHFFFAOYSA-N
#pubchem_id 100853
#mb_accession PR300603,PR300608,PR300613,PR300618,PR300623,PR300627,PR300632,PR300637,PR300642,PR300647,PR300652,PR310419

>ms2peaks
109.105870 32.000000
112.115160 58.000000
114.089170 223.000000
119.085050 49.000000
131.091710 32.000000
144.141710 40.000000
157.100130 37.000000
157.111400 46.000000
159.119580 57.000000
159.124540 31.000000
163.110380 37.000000
166.011060 43.000000
169.102230 45.000000
175.112560 49.000000
186.140150 31.000000
189.165340 61.000000
197.119230 28.000000
242.173170 32.000000
253.192080 436.000000
253.215390 32.000000
254.199170 57.000000
254.216080 41.000000
255.209670 29.000000
271.205600 389.000000
272.219330 31.000000
332.789730 48.000000
422.325840 35.000000
456.320250 137.000000
456.344970 1000.000000

>ms2peaks
186.142590 7.000000
253.173220 6.000000
253.200010 7.000000
255.202160 7.000000
271.182890 11.000000
271.203740 80.000000
271.225980 7.000000
272.196170 8.000000
335.448820 7.000000
368.600160 8.000000
438.323300 8.000000
454.344910 18.000000
455.337620 10.000000
456.302610 7.000000
456.345460 1000.000000

>ms2peaks
105.065240 53.000000
107.084070 86.000000
109.096790 49.000000
109.103810 141.000000
114.089030 330.000000
115.092090 31.000000
117.065030 67.000000
121.098070 28.000000
121.107650 36.000000
126.125980 30.000000
133.097990 42.000000
135.118120 31.000000
142.759670 31.000000
143.084810 36.000000
144.100070 31.000000
145.106920 55.000000
145.113830 31.000000
147.116390 80.000000
149.141830 34.000000
151.108030 41.000000
157.097690 116.000000
157.105120 213.000000
158.101260 39.000000
159.116170 67.000000
171.114430 114.000000
173.132900 144.000000
175.113360 39.000000
176.117140 28.000000
183.117480 36.000000
184.132450 42.000000
195.814670 44.000000
196.127870 45.000000
197.136310 171.000000
198.136000 31.000000
211.147370 63.000000
212.152130 27.000000
213.166430 39.000000
225.160750 44.000000
225.172420 38.000000
242.163880 44.000000
248.431900 31.000000
252.962940 53.000000
253.141850 31.000000
253.164600 61.000000
253.199170 1000.000000
253.629780 36.000000
254.200090 210.000000
271.188750 83.000000
271.219540 38.000000
272.207240 97.000000
272.221530 31.000000

>ms2peaks
77.041610 194.000000
79.056190 97.000000
81.069240 141.000000
91.047400 106.000000
91.055340 286.000000
93.067870 128.000000
93.074820 97.000000
105.071070 414.000000
109.105890 93.000000
111.081730 123.000000
114.093050 925.000000
119.084830 88.000000
120.087970 128.000000
121.105520 150.000000
131.079270 326.000000
133.100510 88.000000
135.121840 79.000000
143.092970 79.000000
144.095000 242.000000
145.102860 172.000000
147.115020 317.000000
148.121610 115.000000
149.127000 101.000000
149.151990 75.000000
155.080440 145.000000
155.091580 106.000000
157.090820 115.000000
157.100710 1000.000000
157.112530 163.000000
159.115490 123.000000
159.122680 119.000000
160.113740 88.000000
169.095180 220.000000
169.110950 110.000000
171.107360 115.000000
171.115190 194.000000
183.105240 106.000000
183.125760 93.000000
197.128970 150.000000
213.169690 106.000000
215.130840 115.000000
223.144030 97.000000
225.164510 97.000000
227.161770 75.000000
242.163190 88.000000
253.194260 123.000000
284.037750 79.000000
305.883030 75.000000

>ms2peaks
109.105320 28.000000
110.099430 28.000000
112.113360 42.000000
114.086930 31.000000
114.098480 71.000000
115.090330 23.000000
121.103210 32.000000
134.104250 28.000000
135.122120 30.000000
143.086410 50.000000
148.126100 82.000000
151.090650 24.000000
157.697020 27.000000
163.376190 34.000000
168.137180 30.000000
173.124690 23.000000
175.116300 70.000000
178.136990 24.000000
186.142620 80.000000
186.152500 28.000000
187.164660 22.000000
197.139720 77.000000
206.570400 29.000000
211.146150 34.000000
223.150820 24.000000
253.192470 215.000000
254.184390 34.000000
262.166600 44.000000
264.881680 39.000000
271.184110 39.000000
271.201630 169.000000
271.213710 245.000000
271.232330 37.000000
271.307010 26.000000
272.205080 115.000000
272.218900 28.000000
274.210210 21.000000
291.249080 23.000000
351.997680 21.000000
455.172150 22.000000
456.347350 1000.000000
456.377960 50.000000

>ms2peaks
112.111350 11.000000
166.988040 11.000000
262.286130 7.000000
271.185360 10.000000
271.207700 69.000000
272.202000 23.000000
272.211270 39.000000
299.949950 6.000000
352.139530 9.000000
447.646270 6.000000
456.287320 10.000000
456.346800 1000.000000

>ms2peaks
91.053730 73.000000
93.071690 46.000000
107.080260 55.000000
107.089960 57.000000
112.105290 80.000000
114.092290 312.000000
115.097240 114.000000
119.089470 130.000000
121.098850 39.000000
121.886690 80.000000
124.931890 48.000000
126.122440 118.000000
126.131000 71.000000
133.106280 169.000000
135.098040 39.000000
145.068020 57.000000
145.101670 55.000000
147.121060 114.000000
149.099030 62.000000
151.110990 48.000000
152.105760 68.000000
157.097600 128.000000
157.104770 166.000000
159.119190 205.000000
161.085970 46.000000
171.110750 123.000000
171.121190 50.000000
172.119090 66.000000
173.132230 82.000000
175.112760 128.000000
183.119770 41.000000
197.107350 68.000000
197.134580 180.000000
198.132050 73.000000
211.152020 103.000000
212.147960 46.000000
215.176250 82.000000
225.157640 57.000000
225.170560 71.000000
241.153990 43.000000
253.192540 1000.000000
253.204830 335.000000
254.187180 77.000000
254.207990 89.000000
255.205580 46.000000
271.196960 139.000000
271.210510 232.000000
272.201570 82.000000
272.214870 59.000000

>ms2peaks
67.056800 131.000000
91.055530 110.000000
91.060340 162.000000
95.089340 272.000000
105.063650 220.000000
109.094410 105.000000
114.079120 110.000000
114.091770 1000.000000
115.059560 110.000000
121.107170 141.000000
128.062680 377.000000
129.070020 272.000000
130.078950 115.000000
133.108280 230.000000
142.076540 126.000000
143.085490 408.000000
147.119670 152.000000
148.119930 126.000000
155.087200 105.000000
155.227020 89.000000
157.102570 749.000000
159.108280 126.000000
159.116970 209.000000
160.119030 131.000000
161.140590 262.000000
169.100950 105.000000
171.117600 120.000000
173.135270 141.000000
183.121320 372.000000
185.133640 298.000000
196.122700 424.000000
197.131200 188.000000
209.132480 126.000000
212.151380 152.000000
224.127030 89.000000
225.169820 99.000000
238.177000 173.000000

>ms2peaks
79.058940 40.000000
93.022050 20.000000
105.071440 37.000000
107.085660 31.000000
109.104330 21.000000
112.106450 32.000000
112.112440 30.000000
114.087730 211.000000
114.097890 26.000000
131.088810 37.000000
141.575200 39.000000
142.079820 22.000000
145.095350 26.000000
145.105620 48.000000
157.100280 48.000000
157.107160 59.000000
158.110110 69.000000
159.116730 115.000000
160.111080 28.000000
163.615370 22.000000
171.104580 23.000000
171.117220 26.000000
172.117600 29.000000
175.106000 42.000000
183.116840 38.000000
186.147480 26.000000
186.160020 27.000000
190.221760 36.000000
195.125170 34.000000
203.142440 22.000000
209.134290 19.000000
211.128970 22.000000
211.143890 22.000000
211.151790 26.000000
223.155170 43.000000
224.154160 20.000000
225.161210 48.000000
253.193300 311.000000
253.202670 107.000000
271.206300 608.000000
272.209320 81.000000
378.313540 53.000000
395.292970 26.000000
456.304470 28.000000
456.353240 1000.000000
456.409520 19.000000

>ms2peaks
145.102680 7.000000
186.138870 6.000000
186.147060 7.000000
253.188020 11.000000
263.569430 9.000000
271.198880 19.000000
271.210080 63.000000
272.194520 7.000000
420.875730 6.000000
454.351930 18.000000
455.319090 7.000000
456.268590 7.000000
456.292630 15.000000
456.349370 1000.000000

>ms2peaks
55.052480 65.000000
81.074650 65.000000
91.055340 100.000000
93.069700 65.000000
95.083180 97.000000
109.093450 103.000000
109.108540 70.000000
114.092450 1000.000000
115.054230 143.000000
117.067980 89.000000
121.103490 49.000000
127.051740 84.000000
129.069920 278.000000
132.086910 65.000000
133.107150 95.000000
142.072780 95.000000
142.082690 49.000000
143.086520 84.000000
144.089860 65.000000
145.100220 76.000000
146.825230 54.000000
157.100480 370.000000
157.119520 54.000000
158.107530 54.000000
159.116180 81.000000
160.116970 54.000000
171.026350 51.000000
175.142650 68.000000
182.118930 46.000000
183.113890 241.000000
187.145540 54.000000
197.127180 111.000000
238.168810 124.000000
242.165210 49.000000
253.192290 89.000000
319.202970 78.000000

>ms2peaks
109.105870 21.000000
112.115160 38.000000
114.089170 145.000000
119.085050 32.000000
131.091710 21.000000
144.141710 26.000000
157.100130 24.000000
157.111400 30.000000
159.119580 37.000000
159.124540 20.000000
163.110380 24.000000
166.011060 28.000000
169.102230 29.000000
175.112560 32.000000
186.140150 20.000000
189.165340 40.000000
197.119230 18.000000
242.173170 21.000000
253.192080 284.000000
253.215390 21.000000
254.199170 37.000000
254.216080 27.000000
255.209670 19.000000
271.205600 253.000000
272.219330 20.000000
332.789730 31.000000
422.325840 23.000000
456.320250 89.000000
456.344970 651.000000

