>compound PR65737572
>parentmass 352.175464
>ionization [M+H]+
>formula C18H25NO6
>rt 193.542000
>profile qtof
#smiles_iso C/C=C\1/C[C@H]([C@@](C(=O)OCC2=CCN3[C@H]2[C@@H](CC3)OC1=O)(CO)O)C
#smiles_can CC=C1CC(C(C(=O)OCC2=CCN3C2C(CC3)OC1=O)(CO)O)C
#inchikey BCJMNZRQJAVDLD-CQRYIUNCSA-N
#pubchem_id 5281743
#mb_accession PR300829,PR300833,PR300837,PR300841,PR300845,PR300849,PR300853,PR300856,PR300860,PR300864,PR300868,PR300872

>ms2
91.053100 7.000000
94.065630 17.000000
108.081900 6.000000
110.096050 7.000000
120.081380 48.000000
121.083290 6.000000
122.096820 9.000000
123.081180 8.000000
138.090210 54.000000
151.070370 7.000000
276.160740 8.000000
277.163670 7.000000
322.169920 9.000000
324.179720 41.000000
352.126770 8.000000
352.177060 1000.000000
352.230960 20.000000

>ms2
352.176540 1000.000000
352.229920 28.000000

>ms2
67.053020 10.000000
67.057190 13.000000
68.050390 23.000000
77.041120 14.000000
79.052510 6.000000
79.056980 12.000000
80.051290 36.000000
81.067600 22.000000
82.065030 8.000000
91.053420 20.000000
91.059570 23.000000
92.062060 6.000000
93.058500 7.000000
93.068230 41.000000
93.073110 55.000000
94.065120 236.000000
95.070250 13.000000
95.087310 43.000000
96.051540 6.000000
96.082570 79.000000
97.085080 13.000000
99.048210 6.000000
103.041670 5.000000
103.052350 31.000000
103.058440 33.000000
105.072230 22.000000
105.077750 7.000000
107.071280 10.000000
107.078770 14.000000
108.074490 15.000000
108.083600 39.000000
108.092220 10.000000
109.065750 17.000000
109.087380 12.000000
110.097800 57.000000
111.037900 7.000000
111.045800 11.000000
111.071740 5.000000
118.062010 38.000000
119.066290 5.000000
119.073260 11.000000
119.083960 5.000000
120.055230 7.000000
120.062840 12.000000
120.081070 560.000000
121.062940 7.000000
121.086730 56.000000
122.097330 109.000000
123.044590 5.000000
123.082710 58.000000
125.092640 12.000000
127.078290 5.000000
134.062500 11.000000
136.074510 8.000000
138.072070 5.000000
138.091670 432.000000
139.074400 22.000000
139.086780 9.000000
139.096760 42.000000
140.109420 23.000000
141.093140 7.000000
146.100710 6.000000
148.079440 5.000000
148.119080 10.000000
151.053470 5.000000
151.076640 80.000000
152.075670 12.000000
156.103740 20.000000
160.113280 9.000000
169.083740 28.000000
192.109910 7.000000
215.100780 6.000000
220.113070 8.000000
220.129180 18.000000
220.139660 40.000000
221.143340 16.000000
236.122160 5.000000
248.171490 5.000000
260.166600 6.000000
276.140960 11.000000
276.155270 42.000000
276.163700 82.000000
277.142820 8.000000
277.159520 9.000000
277.171880 8.000000
304.153020 13.000000
307.171940 9.000000
308.181920 15.000000
322.163600 42.000000
322.183170 13.000000
323.168700 6.000000
324.181180 365.000000
324.214840 11.000000
325.183780 78.000000
326.194760 11.000000
352.119630 6.000000
352.132480 11.000000
352.175510 1000.000000

>ms2
53.041320 18.000000
57.039110 20.000000
67.039850 15.000000
67.053130 114.000000
67.060490 43.000000
68.050530 104.000000
68.381270 15.000000
69.060260 15.000000
77.028750 25.000000
77.037090 114.000000
77.044010 42.000000
78.033560 40.000000
78.037720 32.000000
78.044560 18.000000
79.048480 58.000000
79.056370 276.000000
80.051580 206.000000
80.964420 22.000000
81.054570 197.000000
81.066830 31.000000
81.070360 82.000000
82.052950 15.000000
82.061020 16.000000
82.067710 109.000000
83.048190 28.000000
83.073520 17.000000
83.591710 15.000000
86.065780 26.000000
91.024090 15.000000
91.055380 415.000000
92.046990 61.000000
92.057330 15.000000
92.062520 56.000000
93.039560 17.000000
93.059950 179.000000
93.069630 119.000000
94.048840 15.000000
94.066350 1000.000000
94.076260 61.000000
95.049540 48.000000
95.068250 55.000000
95.075700 28.000000
95.081440 54.000000
95.086520 86.000000
96.047780 26.000000
96.080540 293.000000
96.085510 90.000000
96.092010 16.000000
96.121380 20.000000
97.032920 15.000000
97.055050 19.000000
97.071910 18.000000
99.046240 32.000000
101.872890 18.000000
103.053380 180.000000
103.059870 40.000000
104.055690 18.000000
105.051340 33.000000
105.069950 82.000000
106.065000 89.000000
106.075170 70.000000
106.698000 15.000000
107.073860 61.000000
108.048160 16.000000
108.056430 35.000000
108.080090 272.000000
109.066300 32.000000
109.089070 138.000000
110.059460 34.000000
110.093220 15.000000
110.099730 20.000000
111.068960 17.000000
111.083740 29.000000
112.079620 26.000000
116.065670 15.000000
117.056080 21.000000
118.063890 55.000000
118.070940 67.000000
118.075450 25.000000
119.068530 59.000000
120.082720 557.000000
121.083790 18.000000
121.102580 22.000000
122.096260 120.000000
123.065310 15.000000
123.079050 36.000000
123.088710 26.000000
123.099680 35.000000
124.075760 16.000000
125.103570 16.000000
128.061660 20.000000
130.068160 15.000000
132.084110 20.000000
133.066770 31.000000
134.097980 38.000000
135.079240 20.000000
135.099500 17.000000
136.076660 163.000000
138.077970 16.000000
138.092030 119.000000
138.097310 114.000000
139.088650 25.000000
140.063960 16.000000
141.097490 15.000000
141.113280 17.000000
146.087250 30.000000
148.072780 19.000000
148.114640 25.000000
151.062730 18.000000
151.072750 25.000000
151.089720 18.000000
154.056460 20.000000
154.085970 53.000000
157.059160 15.000000
158.091060 20.000000
159.094270 21.000000
162.099850 20.000000
162.121860 21.000000
162.130690 20.000000
166.082410 17.000000
182.105970 26.000000
188.118060 31.000000
196.114720 20.000000
202.131320 33.000000
220.135420 55.000000
221.130650 17.000000
225.121520 15.000000
236.128520 17.000000
278.162570 23.000000

>ms2
91.054230 9.000000
93.069310 10.000000
94.065470 21.000000
96.081050 11.000000
118.065900 5.000000
120.081490 58.000000
121.083700 5.000000
122.095530 7.000000
123.081700 8.000000
138.091570 49.000000
140.108800 5.000000
151.077440 8.000000
220.137210 5.000000
276.159390 10.000000
322.161740 7.000000
324.178340 35.000000
325.184600 7.000000
352.176760 1000.000000
352.231870 20.000000

>ms2
352.174900 1000.000000
352.229030 25.000000

>ms2
67.056320 33.000000
68.048590 11.000000
68.054380 8.000000
79.054830 24.000000
80.042050 9.000000
80.051920 35.000000
81.059520 5.000000
81.067050 5.000000
81.073150 9.000000
82.066500 26.000000
84.045020 7.000000
91.055420 59.000000
92.050420 17.000000
93.070700 121.000000
94.065620 238.000000
95.048260 6.000000
95.075650 9.000000
95.083650 29.000000
95.092510 9.000000
96.081130 82.000000
97.069590 6.000000
97.086650 7.000000
99.045990 13.000000
103.054920 57.000000
104.059140 10.000000
104.138990 8.000000
105.060000 6.000000
105.069520 31.000000
106.065560 10.000000
107.074000 6.000000
107.089650 19.000000
108.074810 6.000000
108.083010 57.000000
109.065930 24.000000
109.084270 10.000000
109.090830 9.000000
110.055700 7.000000
110.064180 6.000000
110.087070 6.000000
110.097670 41.000000
111.060200 11.000000
117.074370 5.000000
118.064740 48.000000
119.069130 10.000000
119.078930 8.000000
120.058460 10.000000
120.081370 564.000000
121.066180 15.000000
121.084340 58.000000
122.097200 114.000000
123.080960 76.000000
123.104670 6.000000
124.085370 17.000000
136.075640 9.000000
136.081020 8.000000
138.063810 6.000000
138.092270 530.000000
139.078630 17.000000
139.093510 65.000000
140.103200 19.000000
140.110530 9.000000
149.132740 5.000000
151.073960 63.000000
152.077970 6.000000
152.084760 9.000000
156.093980 7.000000
156.104520 28.000000
160.112150 6.000000
169.080690 29.000000
169.087770 30.000000
178.104250 6.000000
186.133420 6.000000
201.556020 6.000000
220.127500 34.000000
220.136430 54.000000
248.167590 15.000000
258.144260 6.000000
258.158940 6.000000
276.108640 6.000000
276.143070 8.000000
276.161220 81.000000
277.162750 11.000000
290.175080 5.000000
304.159820 8.000000
306.145780 6.000000
308.183320 7.000000
308.196780 7.000000
322.160030 15.000000
322.176540 8.000000
324.125550 9.000000
324.148220 5.000000
324.181300 325.000000
325.188020 106.000000
326.178250 7.000000
352.136900 19.000000
352.176880 1000.000000
352.204930 8.000000

>ms2
67.047080 39.000000
67.055130 303.000000
68.047760 35.000000
68.052090 102.000000
68.058770 23.000000
69.073230 47.000000
69.237080 20.000000
71.054790 21.000000
77.038630 375.000000
77.044020 92.000000
78.031620 17.000000
79.038560 18.000000
79.054920 450.000000
80.025180 28.000000
80.045330 37.000000
80.052310 254.000000
81.031840 73.000000
81.050060 28.000000
81.056840 158.000000
81.064670 59.000000
81.072260 116.000000
82.061850 51.000000
82.067520 168.000000
82.410680 38.000000
82.637120 20.000000
83.045940 19.000000
83.054040 18.000000
83.082980 57.000000
83.228390 18.000000
84.046540 24.000000
84.056650 65.000000
86.059840 63.000000
91.054730 486.000000
91.101460 46.000000
92.047920 40.000000
92.054530 54.000000
92.060510 25.000000
92.461750 20.000000
93.051340 65.000000
93.062870 170.000000
93.071470 164.000000
94.061430 240.000000
94.067880 1000.000000
94.419420 18.000000
95.043490 17.000000
95.065340 22.000000
95.071590 123.000000
95.079730 91.000000
95.086750 115.000000
96.080090 123.000000
96.085830 133.000000
97.087060 19.000000
99.045660 65.000000
100.048290 21.000000
103.042770 39.000000
103.056510 234.000000
104.046280 17.000000
105.057760 78.000000
105.073510 241.000000
105.533790 20.000000
106.063040 66.000000
106.164610 21.000000
107.047740 18.000000
107.072120 67.000000
107.085250 25.000000
108.033550 36.000000
108.058960 60.000000
108.078710 239.000000
108.088200 21.000000
108.256220 30.000000
109.054330 58.000000
109.061300 25.000000
109.075260 37.000000
109.087890 75.000000
110.059640 24.000000
110.069340 27.000000
110.081840 38.000000
111.045860 25.000000
111.062570 34.000000
112.076770 85.000000
117.048300 17.000000
118.061970 60.000000
118.067600 88.000000
119.075350 48.000000
119.082530 17.000000
119.090420 43.000000
120.063020 22.000000
120.080720 720.000000
121.071510 57.000000
121.084170 177.000000
122.059770 28.000000
122.093500 24.000000
122.102580 114.000000
123.042800 34.000000
123.077310 19.000000
123.085620 100.000000
124.074680 18.000000
124.082400 25.000000
128.061600 20.000000
129.063860 34.000000
130.080370 25.000000
132.080090 17.000000
136.077870 47.000000
138.091950 137.000000
138.104810 25.000000
139.072860 18.000000
139.093000 75.000000
139.106080 17.000000
140.099410 24.000000
142.061130 24.000000
142.397800 19.000000
144.077870 17.000000
145.087770 39.000000
147.092040 32.000000
151.072330 50.000000
151.079560 84.000000
156.081670 20.000000
156.088030 19.000000
156.110920 47.000000
159.083920 18.000000
159.610210 20.000000
161.079900 21.000000
162.085270 29.000000
162.093700 17.000000
163.111690 22.000000
169.087100 24.000000
172.116990 21.000000
176.093700 25.000000
176.111680 18.000000
176.240020 20.000000
188.115920 24.000000
206.121890 28.000000
220.123520 20.000000
220.901030 23.000000
224.087880 27.000000
230.949170 20.000000
248.172100 17.000000

>ms2
93.068160 7.000000
94.066560 23.000000
95.085040 5.000000
96.081920 8.000000
120.081470 56.000000
122.093570 6.000000
123.082700 9.000000
138.091740 40.000000
151.075990 11.000000
276.158450 14.000000
322.160370 8.000000
324.167300 8.000000
324.181920 35.000000
325.187710 7.000000
352.175810 1000.000000
352.228640 25.000000

>ms2
352.176670 1000.000000
352.231050 27.000000

>ms2
67.059800 5.000000
68.046670 9.000000
68.054570 7.000000
77.036900 7.000000
77.042460 6.000000
79.048360 6.000000
79.057010 17.000000
80.043590 8.000000
80.050950 36.000000
81.031470 6.000000
81.071590 19.000000
82.067400 11.000000
83.054440 5.000000
83.087270 7.000000
84.046400 8.000000
91.047760 7.000000
91.054790 44.000000
92.049930 11.000000
93.069160 72.000000
93.073950 44.000000
94.066060 194.000000
95.051690 6.000000
95.070690 24.000000
95.087750 47.000000
96.079760 74.000000
96.086520 23.000000
98.102630 6.000000
99.042910 5.000000
103.050880 14.000000
103.055740 47.000000
105.071550 18.000000
106.062850 6.000000
107.086770 13.000000
108.081900 52.000000
108.088940 10.000000
109.064290 10.000000
109.091980 13.000000
110.062080 12.000000
110.097770 52.000000
111.042420 9.000000
111.080380 10.000000
117.068990 5.000000
118.065460 50.000000
119.070080 20.000000
120.081350 486.000000
121.059970 6.000000
121.066840 18.000000
121.076630 8.000000
121.086980 46.000000
121.099980 7.000000
122.082780 6.000000
122.096820 107.000000
123.082330 82.000000
124.082120 7.000000
125.098070 16.000000
138.091340 464.000000
139.078170 10.000000
139.095990 76.000000
140.102600 17.000000
140.113130 6.000000
149.098510 6.000000
151.068160 16.000000
151.078480 55.000000
154.087360 9.000000
156.102280 17.000000
169.031280 6.000000
169.085310 27.000000
169.095280 5.000000
172.115630 7.000000
173.378650 6.000000
179.075290 9.000000
202.126210 8.000000
204.101360 5.000000
220.130870 34.000000
220.140790 7.000000
221.138530 18.000000
221.144230 9.000000
222.147640 7.000000
240.142110 12.000000
248.162750 15.000000
260.158020 5.000000
276.146420 14.000000
276.165220 67.000000
277.165800 15.000000
304.145200 7.000000
304.165680 7.000000
306.174590 9.000000
322.167390 32.000000
324.180820 371.000000
325.183230 67.000000
352.088320 7.000000
352.137210 9.000000
352.175630 1000.000000

>ms2
54.036380 30.000000
55.044840 16.000000
57.032860 24.000000
65.039060 49.000000
67.054650 437.000000
68.046000 32.000000
68.050200 18.000000
68.057110 50.000000
68.659750 24.000000
69.044610 18.000000
69.056400 16.000000
69.077290 17.000000
70.032440 16.000000
77.034590 78.000000
77.039190 255.000000
78.039470 46.000000
78.045520 22.000000
78.051720 65.000000
78.668070 19.000000
79.045010 21.000000
79.048740 24.000000
79.055900 151.000000
80.041480 16.000000
80.048870 83.000000
80.054040 140.000000
80.065280 36.000000
81.033100 40.000000
81.044070 20.000000
81.054450 40.000000
81.059760 72.000000
81.066990 70.000000
81.072300 183.000000
81.768260 17.000000
82.063930 117.000000
83.048830 43.000000
83.053240 19.000000
83.070110 41.000000
84.047090 44.000000
86.062680 19.000000
91.054620 543.000000
92.049550 118.000000
92.054580 39.000000
93.049020 23.000000
93.061730 363.000000
93.071910 236.000000
94.066530 1000.000000
94.076630 85.000000
95.049040 24.000000
95.066530 69.000000
95.071810 92.000000
95.079070 59.000000
95.085460 169.000000
95.092440 31.000000
96.081750 502.000000
97.086820 16.000000
103.051670 256.000000
103.062740 26.000000
104.059650 38.000000
104.064800 34.000000
104.112450 17.000000
105.058970 43.000000
105.067020 109.000000
105.074530 38.000000
106.064870 248.000000
106.329360 18.000000
107.050170 16.000000
107.056480 23.000000
107.064800 23.000000
107.070530 47.000000
107.968830 16.000000
108.045350 18.000000
108.053970 26.000000
108.063130 38.000000
108.081750 250.000000
109.052160 26.000000
109.086610 24.000000
109.095910 20.000000
110.057960 41.000000
110.068050 23.000000
111.081630 24.000000
111.095920 17.000000
112.072260 34.000000
112.082610 26.000000
113.078260 51.000000
115.055140 19.000000
117.060160 42.000000
117.069080 30.000000
117.074420 18.000000
118.065280 199.000000
119.055460 25.000000
119.073430 22.000000
120.081420 755.000000
121.088910 131.000000
122.092120 163.000000
122.102550 50.000000
123.043110 17.000000
123.080390 214.000000
126.093690 18.000000
128.067060 31.000000
130.066770 17.000000
132.075060 16.000000
132.082140 20.000000
133.055150 25.000000
133.085910 19.000000
134.102480 50.000000
136.060000 16.000000
136.072540 17.000000
136.081380 23.000000
137.079960 23.000000
138.092670 310.000000
139.094410 65.000000
141.543410 17.000000
141.712070 27.000000
145.110260 29.000000
146.062030 26.000000
147.104570 18.000000
148.078960 16.000000
151.071790 90.000000
151.077910 53.000000
152.473770 19.000000
153.075550 20.000000
154.094770 19.000000
155.089770 23.000000
156.096560 19.000000
156.115690 21.000000
157.090790 17.000000
157.102780 29.000000
158.077870 32.000000
158.097730 17.000000
159.109160 20.000000
163.489970 16.000000
171.114060 20.000000
173.092180 27.000000
176.145280 22.000000
178.120210 22.000000
186.091750 18.000000
197.076320 32.000000
220.138550 19.000000
221.141390 18.000000
222.143370 30.000000
237.121610 23.000000
256.580870 37.000000
271.535550 42.000000
275.148860 20.000000
276.171230 16.000000

