>compound PR65617214
>parentmass 463.08710249999996
>ionization [M+H]+
>formula C21H18O12
>rt 260.605980
>profile qtof
#smiles_iso C1=CC(=CC=C1C2=C(C(=O)C3=C(C=C(C=C3O2)O)O)O[C@H]4[C@@H]([C@H]([C@@H]([C@H](O4)C(=O)O)O)O)O)O
#smiles_can C1=CC(=CC=C1C2=C(C(=O)C3=C(C=C(C=C3O2)O)O)OC4C(C(C(C(O4)C(=O)O)O)O)O)O
#inchikey FNTJVYCFNVUBOL-ZUGPOPFOSA-N
#pubchem_id 5318759
#mb_accession PR303166,PR303169,PR303172,PR303175,PR303178,PR303181,PR303184,PR303187,PR303190,PR303193,PR303196,PR303199

>ms2
85.025900 19.000000
89.016490 7.000000
100.009790 6.000000
105.034780 8.000000
114.027690 7.000000
115.028760 7.000000
121.023610 6.000000
131.854890 6.000000
137.011220 7.000000
141.019120 13.000000
159.026980 38.000000
165.018080 7.000000
166.005420 8.000000
187.779800 5.000000
213.044420 5.000000
242.296620 7.000000
265.115480 6.000000
281.420720 7.000000
284.759920 8.000000
286.624880 7.000000
286.887240 6.000000
287.005070 6.000000
287.053650 1000.000000
287.081480 14.000000
287.202880 5.000000
288.025480 5.000000
288.049040 104.000000
288.060270 78.000000
288.076690 18.000000
288.303380 5.000000
289.050840 22.000000
289.064300 17.000000
298.113920 6.000000
316.990230 13.000000
325.063350 8.000000
354.067170 5.000000
384.164310 13.000000
427.079650 5.000000
463.075680 70.000000
463.094360 110.000000

>ms2
117.024310 14.000000
141.015750 11.000000
159.023880 7.000000
159.033980 6.000000
194.220610 7.000000
253.449230 11.000000
282.156980 6.000000
285.678220 6.000000
287.052800 1000.000000
287.100400 6.000000
288.043300 15.000000
288.059840 98.000000
288.068510 43.000000
289.040800 12.000000
289.063110 26.000000
290.065700 8.000000
292.167390 7.000000
301.616120 6.000000
304.654600 8.000000
311.548400 6.000000
335.207670 12.000000
384.089510 10.000000
445.088040 8.000000
463.053680 29.000000
463.086760 810.000000
463.118230 12.000000

>ms2
71.011310 9.000000
85.030200 66.000000
95.014270 11.000000
101.024210 9.000000
103.039920 17.000000
113.022030 27.000000
121.022770 12.000000
131.025330 9.000000
141.021090 10.000000
148.051570 8.000000
159.019530 8.000000
164.995240 15.000000
165.020230 8.000000
176.083390 17.000000
242.050640 12.000000
286.986970 9.000000
287.011960 11.000000
287.055390 1000.000000
287.140590 7.000000
287.777220 11.000000
288.054440 129.000000
288.068510 137.000000
289.035740 7.000000
289.053620 22.000000
289.083650 10.000000
290.698390 7.000000
293.591130 8.000000
353.967530 7.000000
365.063840 12.000000

>ms2
67.019720 151.000000
68.995350 49.000000
95.014720 91.000000
101.015460 53.000000
109.027370 49.000000
111.007310 64.000000
115.054340 47.000000
121.027810 100.000000
131.049160 82.000000
133.026200 76.000000
134.039830 78.000000
137.019960 158.000000
138.019440 53.000000
145.057800 49.000000
148.042850 38.000000
153.017670 451.000000
153.023440 124.000000
157.064990 173.000000
160.871990 38.000000
165.013020 193.000000
165.019810 82.000000
167.042110 47.000000
185.052510 178.000000
185.064680 47.000000
186.324570 62.000000
201.050350 44.000000
213.045620 64.000000
213.055800 56.000000
214.068250 53.000000
216.125240 38.000000
217.060360 62.000000
239.674070 116.000000
241.057690 96.000000
258.035280 53.000000
258.051970 49.000000
258.061190 42.000000
259.042240 69.000000
259.063870 40.000000
269.057340 67.000000
270.309270 96.000000
285.027800 44.000000
286.982510 80.000000
287.012240 76.000000
287.052610 1000.000000
287.080350 73.000000
288.043000 84.000000
288.054840 76.000000

>ms2
71.020920 6.000000
85.021120 6.000000
85.032390 6.000000
111.008060 7.000000
113.016620 11.000000
113.029050 8.000000
121.199490 5.000000
123.008060 14.000000
137.023300 9.000000
141.013840 19.000000
141.020710 9.000000
153.018550 17.000000
175.019500 6.000000
208.672870 17.000000
213.036900 10.000000
213.802580 9.000000
217.051350 12.000000
241.044820 9.000000
247.004790 6.000000
250.029890 6.000000
269.442440 6.000000
287.022800 62.000000
287.053380 1000.000000
288.057860 243.000000
289.058010 9.000000
289.075870 12.000000
290.064150 6.000000
329.075350 14.000000
391.035100 8.000000
445.095310 6.000000
463.069090 36.000000
463.092160 57.000000

>ms2
144.557130 8.000000
195.969740 7.000000
286.881740 10.000000
287.027250 26.000000
287.056820 1000.000000
288.040920 23.000000
288.058690 155.000000
289.055420 48.000000
295.141690 7.000000
304.072850 10.000000
318.151520 6.000000
362.356870 6.000000
383.074520 8.000000
404.769530 18.000000
425.970830 14.000000
427.078520 7.000000
445.038300 10.000000
445.099270 14.000000
463.007540 7.000000
463.032070 9.000000
463.089480 814.000000

>ms2
73.031600 17.000000
85.021410 15.000000
99.008000 13.000000
101.026070 13.000000
111.007780 15.000000
113.020870 60.000000
121.031860 10.000000
123.000190 8.000000
123.013660 6.000000
141.017320 20.000000
145.765560 5.000000
165.028630 6.000000
166.411710 6.000000
179.846690 13.000000
231.065400 10.000000
240.616440 6.000000
241.049060 10.000000
258.041870 7.000000
270.041200 9.000000
270.132570 9.000000
286.813930 6.000000
287.014280 22.000000
287.055600 1000.000000
288.031830 8.000000
288.053650 68.000000
288.062930 142.000000
288.079070 18.000000
288.623080 7.000000
289.026280 7.000000
289.059330 50.000000
289.074740 24.000000
289.094270 7.000000
290.323730 6.000000
297.223110 6.000000
299.045990 8.000000
299.062990 6.000000
311.042720 6.000000
315.036380 9.000000
329.062530 14.000000
337.941070 11.000000
347.070890 8.000000

>ms2
56.920410 48.000000
71.011630 93.000000
83.010960 119.000000
85.026400 246.000000
93.033300 62.000000
103.876500 65.000000
107.046820 85.000000
107.052060 105.000000
111.008670 51.000000
112.009250 93.000000
121.029780 224.000000
137.015640 62.000000
137.023320 144.000000
141.069560 88.000000
148.045150 51.000000
153.012540 482.000000
153.018340 663.000000
154.025420 96.000000
157.031690 57.000000
157.075270 62.000000
161.010160 62.000000
161.060680 96.000000
164.996800 48.000000
165.022960 99.000000
169.058910 62.000000
171.051960 96.000000
185.168410 93.000000
186.053920 96.000000
194.037000 68.000000
194.841350 48.000000
213.046260 88.000000
213.056550 425.000000
215.065720 59.000000
229.022810 71.000000
229.053830 85.000000
242.031630 102.000000
243.070300 57.000000
258.048160 221.000000
258.058930 348.000000
259.057530 57.000000
269.974400 68.000000
287.049650 1000.000000
287.071380 116.000000
288.059660 76.000000

>ms2
57.031170 11.000000
105.037860 8.000000
113.017810 14.000000
113.024220 10.000000
121.029630 14.000000
141.022780 6.000000
153.013470 12.000000
153.025990 7.000000
159.026730 18.000000
165.021090 26.000000
180.991740 7.000000
197.065870 9.000000
231.050420 11.000000
241.049070 16.000000
265.772340 11.000000
273.059390 6.000000
277.285920 5.000000
281.100490 5.000000
286.816440 8.000000
287.001100 25.000000
287.027040 58.000000
287.053590 1000.000000
287.088900 6.000000
288.057310 184.000000
289.057800 23.000000
289.072140 37.000000
289.277100 6.000000
301.127870 5.000000
302.389680 6.000000
310.052060 6.000000
330.088930 9.000000
463.083530 83.000000

>ms2
159.023800 12.000000
160.033400 8.000000
287.021510 35.000000
287.053710 1000.000000
287.083740 7.000000
287.940920 12.000000
288.026760 6.000000
288.037660 20.000000
288.059450 212.000000
289.052980 13.000000
289.063050 19.000000
290.060180 6.000000
290.777800 8.000000
311.056820 7.000000
354.705140 7.000000
389.518400 8.000000
390.074710 6.000000
425.001740 7.000000
459.707950 6.000000
461.966160 8.000000
463.027500 16.000000
463.051060 22.000000
463.086640 746.000000

>ms2
71.012240 16.000000
73.028180 5.000000
85.029140 7.000000
105.030050 6.000000
113.021690 44.000000
113.030100 7.000000
130.087550 8.000000
147.049870 12.000000
147.082110 9.000000
160.277530 5.000000
163.502520 16.000000
165.022580 8.000000
213.052440 5.000000
242.057620 13.000000
253.460010 6.000000
259.528840 9.000000
286.993320 6.000000
287.013890 13.000000
287.055390 1000.000000
287.085270 7.000000
287.477690 5.000000
287.903140 5.000000
288.050260 23.000000
288.066130 112.000000
289.069150 14.000000
289.078830 13.000000
290.064420 7.000000
290.557370 8.000000
291.998630 5.000000
297.069000 10.000000
298.504610 7.000000
299.053960 9.000000

>ms2
69.002300 72.000000
73.025730 51.000000
77.035330 43.000000
85.031340 53.000000
95.017810 45.000000
105.034520 68.000000
107.047760 72.000000
109.029750 49.000000
111.003620 55.000000
111.015410 40.000000
113.021480 91.000000
121.026420 191.000000
133.021160 62.000000
136.013000 70.000000
136.970980 47.000000
137.025730 51.000000
139.052280 36.000000
145.066100 89.000000
147.039520 70.000000
153.017930 306.000000
154.022540 138.000000
155.015980 81.000000
157.061600 177.000000
165.011950 85.000000
165.018740 209.000000
175.069150 47.000000
177.013210 45.000000
183.042980 64.000000
185.059770 43.000000
189.056000 70.000000
203.040850 60.000000
213.046840 43.000000
214.041310 45.000000
214.051540 43.000000
216.042540 40.000000
217.050630 49.000000
229.049150 43.000000
229.063710 43.000000
231.071760 36.000000
241.042660 119.000000
243.072070 77.000000
258.059480 40.000000
285.034850 68.000000
287.033170 43.000000
287.056460 1000.000000
288.056730 113.000000
288.088440 89.000000

