>compound PR65432070
>parentmass 639.1213
>ionization [M+H]+
>formula C27H26O18
>rt 240.000000
>profile qtof
#smiles_iso C1=CC(=C(C=C1C2=CC(=O)C3=C(C=C(C=C3O2)OC4C(C(C(C(O4)C(=O)O)O)O)OC5C(C(C(C(O5)C(=O)O)O)O)O)O)O)O
#smiles_can C1=CC(=C(C=C1C2=CC(=O)C3=C(C=C(C=C3O2)OC4C(C(C(C(O4)C(=O)O)O)O)OC5C(C(C(C(O5)C(=O)O)O)O)O)O)O)O
#inchikey PBBVWJQPAZYQDB-UHFFFAOYSA-N
#pubchem_id 74413803
#mb_accession PR310965

>ms2peaks
287.050990 315.000000
287.064270 194.000000
287.078550 32.000000
288.048460 33.000000
288.068910 34.000000
289.045930 45.000000
393.236820 26.000000
463.094760 52.000000
463.114170 19.000000
639.127440 434.000000

