>compound PR65246184
>parentmass 517.1343
>ionization [M+H]+
>formula C25H24O12
>rt 276.000000
>profile qtof
#smiles_iso C1C(C(C(CC1(C(=O)O)O)OC(=O)C=CC2=CC(=C(C=C2)O)O)O)OC(=O)C=CC3=CC(=C(C=C3)O)O
#smiles_can C1C(C(C(CC1(C(=O)O)O)OC(=O)C=CC2=CC(=C(C=C2)O)O)O)OC(=O)C=CC3=CC(=C(C=C3)O)O
#inchikey KRZBCHWVBQOTNZ-UHFFFAOYSA-N
#pubchem_id 60150332
#mb_accession PR310746

>ms2
89.035290 20.000000
118.033380 33.000000
134.571170 23.000000
135.039020 80.000000
145.024810 27.000000
145.033160 79.000000
146.265340 16.000000
163.019320 20.000000
163.039260 1918.000000
164.045330 334.000000
165.044010 17.000000
165.057170 16.000000
194.059920 16.000000
194.350740 16.000000
247.043760 17.000000
247.993650 16.000000
252.067230 25.000000
319.064910 20.000000
319.089940 41.000000
320.078120 20.000000
337.091220 20.000000
351.899900 29.000000
407.090550 16.000000
480.095090 16.000000
499.078190 44.000000
499.100560 83.000000
499.122010 318.000000
500.104520 34.000000
500.133390 40.000000
501.105320 16.000000
501.140900 58.000000
517.116640 16.000000

