>compound PR65718311
>parentmass 209.0808353
>ionization [M+H]+
>formula C11H12O4
>rt 284.053020
>profile qtof
#smiles_iso COC1=CC(=CC(=C1O)OC)/C=C/C=O
#smiles_can COC1=CC(=CC(=C1O)OC)C=CC=O
#inchikey CDICDSOGTRCHMG-ONEGZZNKSA-N
#pubchem_id 5280802
#mb_accession PR302274,PR302280,PR302286,PR302292,PR302297,PR302303,PR302309,PR302315,PR302321,PR302327,PR302333,PR302339

>ms2peaks
51.018790 14.000000
57.036320 38.000000
62.882120 11.000000
78.050920 20.000000
84.379000 9.000000
89.037930 25.000000
90.041570 11.000000
91.005200 14.000000
91.038350 9.000000
91.050720 57.000000
91.055840 29.000000
92.054240 56.000000
93.068150 38.000000
94.028180 17.000000
98.032970 11.000000
102.045990 38.000000
103.051370 83.000000
103.067120 13.000000
106.038040 13.000000
106.041790 24.000000
107.043330 11.000000
107.051800 21.000000
117.030350 35.000000
117.067220 22.000000
118.037540 32.000000
118.045810 18.000000
119.047980 97.000000
119.056800 12.000000
120.052460 28.000000
120.064090 11.000000
121.026660 19.000000
121.064310 113.000000
122.235350 18.000000
123.043780 11.000000
124.054240 17.000000
127.103780 21.000000
130.043270 10.000000
131.050720 56.000000
132.054470 10.000000
133.021550 15.000000
134.035510 67.000000
135.065950 14.000000
138.026020 15.000000
138.035050 14.000000
139.050540 21.000000
140.043260 16.000000
145.021420 23.000000
145.029660 97.000000
145.037060 46.000000
146.041110 15.000000
147.045210 46.000000
148.042800 24.000000
148.053670 20.000000
148.377120 10.000000
149.055390 98.000000
149.072780 15.000000
150.026860 11.000000
150.064010 23.000000
151.038790 21.000000
151.060710 14.000000
153.036940 9.000000
153.054050 68.000000
154.174790 14.000000
155.059010 12.000000
158.039760 15.000000
159.049410 29.000000
159.107420 11.000000
162.023760 10.000000
162.032910 20.000000
163.035930 10.000000
163.078250 17.000000
164.040940 40.000000
164.097180 10.000000
165.152740 17.000000
166.055510 29.000000
166.063900 65.000000
167.069870 17.000000
173.062270 14.000000
174.036700 9.000000
176.025850 21.000000
176.046540 30.000000
177.034470 10.000000
177.054120 541.000000
178.054060 34.000000
178.063770 53.000000
179.024840 12.000000
179.060260 10.000000
180.074830 19.000000
181.049560 23.000000
181.077940 18.000000
182.096570 12.000000
191.063580 57.000000
191.073820 219.000000
191.948010 9.000000
193.032680 9.000000
193.053100 46.000000
194.045620 12.000000
194.056690 18.000000
209.059560 30.000000
209.072140 248.000000
209.080250 1000.000000

>ms2peaks
121.067370 16.000000
131.050050 12.000000
145.029220 22.000000
149.052840 6.000000
149.062030 14.000000
153.052110 10.000000
176.048870 7.000000
177.054500 222.000000
178.056750 33.000000
180.082810 9.000000
181.088090 20.000000
191.073360 85.000000
208.073360 10.000000
209.080660 1000.000000

>ms2peaks
55.021990 74.000000
67.054460 88.000000
75.022200 101.000000
77.030960 74.000000
77.036220 101.000000
77.045380 80.000000
78.038220 88.000000
78.046950 170.000000
78.051230 141.000000
81.030920 53.000000
81.037160 53.000000
89.036590 210.000000
89.042170 294.000000
90.043100 50.000000
90.428470 48.000000
91.039380 66.000000
91.055790 1000.000000
92.066490 146.000000
93.040430 45.000000
93.062720 66.000000
95.047380 156.000000
102.045270 164.000000
103.051060 334.000000
103.057390 401.000000
105.030770 154.000000
105.039730 170.000000
106.042390 310.000000
110.027340 66.000000
117.032580 175.000000
117.041400 138.000000
118.040740 183.000000
119.045140 305.000000
120.018660 212.000000
120.045680 77.000000
120.062210 326.000000
121.060960 178.000000
121.070880 93.000000
121.735210 50.000000
122.038310 85.000000
123.032110 66.000000
123.042070 135.000000
126.051440 58.000000
126.486660 85.000000
127.003810 50.000000
127.034640 77.000000
130.037570 82.000000
130.041850 156.000000
130.963070 72.000000
131.046570 268.000000
132.999420 72.000000
133.010790 61.000000
133.028400 188.000000
133.036680 50.000000
134.032610 101.000000
135.042790 231.000000
135.960710 64.000000
137.027940 66.000000
137.053710 77.000000
137.067570 130.000000
138.025100 53.000000
138.036330 125.000000
146.036500 164.000000
147.029950 66.000000
147.044170 626.000000
148.051160 273.000000
149.056900 48.000000
149.067570 45.000000
150.065310 56.000000
151.028630 122.000000
151.040420 154.000000
152.015700 77.000000
153.054900 103.000000
163.037320 64.000000
163.079100 77.000000
163.086240 72.000000
167.032870 53.000000
177.047590 88.000000
179.028850 58.000000
179.262010 58.000000
193.044920 149.000000
193.056550 141.000000
209.074980 80.000000

>ms2peaks
77.034970 500.000000
89.038590 370.000000
91.057840 481.000000
119.043730 556.000000
147.043820 500.000000
209.080610 1000.000000

>ms2peaks
55.019540 21.000000
55.022810 18.000000
73.549480 20.000000
77.043430 15.000000
78.043110 8.000000
80.026200 15.000000
89.030730 23.000000
89.042890 9.000000
90.037920 7.000000
91.050690 59.000000
91.055180 27.000000
92.067540 18.000000
93.064020 7.000000
93.071090 23.000000
94.035850 8.000000
95.047820 11.000000
102.048410 21.000000
103.047400 33.000000
103.053380 57.000000
104.059190 14.000000
105.018200 19.000000
106.037750 7.000000
107.046100 25.000000
117.029890 37.000000
117.037700 41.000000
117.506240 12.000000
118.028980 12.000000
118.034320 9.000000
118.043360 12.000000
119.045850 51.000000
120.050480 9.000000
120.061450 11.000000
121.045690 7.000000
121.064570 68.000000
121.998650 8.000000
122.066410 20.000000
125.059410 16.000000
125.069850 20.000000
130.038470 13.000000
131.000460 15.000000
131.042950 20.000000
131.052170 39.000000
132.048190 9.000000
133.028700 18.000000
133.045960 13.000000
134.015170 12.000000
134.029570 44.000000
135.034500 10.000000
135.041870 9.000000
136.051610 9.000000
138.025040 12.000000
138.064190 8.000000
140.956830 9.000000
140.987180 15.000000
142.306240 9.000000
145.026730 88.000000
145.039140 24.000000
147.032470 12.000000
147.043980 12.000000
147.053920 9.000000
148.042540 8.000000
148.052510 11.000000
148.060700 8.000000
149.055530 75.000000
149.068240 15.000000
149.154400 10.000000
150.057920 8.000000
151.020130 11.000000
151.035170 33.000000
152.003100 7.000000
153.011340 10.000000
153.053960 57.000000
154.058090 14.000000
159.141010 7.000000
161.052030 13.000000
163.070970 20.000000
164.053470 11.000000
164.080200 12.000000
165.051190 11.000000
166.061340 14.000000
167.035710 21.000000
176.035230 16.000000
177.000600 23.000000
177.018910 11.000000
177.054310 297.000000
177.069180 9.000000
178.058060 16.000000
178.066670 37.000000
181.080840 42.000000
191.066760 188.000000
191.082670 14.000000
193.045650 8.000000
193.059300 10.000000
194.057020 11.000000
195.032960 7.000000
195.052990 8.000000
195.070330 9.000000
199.823070 14.000000
207.775420 8.000000
209.047090 21.000000
209.080800 1000.000000

>ms2peaks
121.064510 6.000000
125.058610 5.000000
131.048340 10.000000
145.028050 36.000000
149.054260 12.000000
149.060460 38.000000
153.049300 8.000000
153.055880 14.000000
176.045840 7.000000
177.033810 6.000000
177.053800 205.000000
178.043700 7.000000
178.058150 22.000000
181.077900 5.000000
182.087570 12.000000
191.067120 68.000000
191.080120 16.000000
192.070250 6.000000
208.071170 7.000000
209.042300 7.000000
209.055660 6.000000
209.080020 1000.000000

>ms2peaks
55.018380 69.000000
66.220710 34.000000
77.039250 296.000000
78.044470 103.000000
79.051850 50.000000
82.037960 55.000000
89.037130 247.000000
89.046100 71.000000
90.034930 35.000000
90.044170 40.000000
91.042800 153.000000
91.054620 1000.000000
92.058140 259.000000
93.071450 66.000000
94.041670 82.000000
96.022900 64.000000
96.190830 37.000000
96.952960 45.000000
102.044220 82.000000
103.040860 40.000000
103.053500 108.000000
104.060400 50.000000
105.027370 87.000000
105.032840 45.000000
106.042100 239.000000
107.013180 62.000000
107.045490 45.000000
110.033200 123.000000
110.039960 40.000000
110.842930 37.000000
111.038460 59.000000
117.031320 155.000000
117.038380 39.000000
118.034210 47.000000
118.042880 118.000000
118.120720 55.000000
118.269860 29.000000
119.041640 30.000000
119.052410 151.000000
120.055600 34.000000
120.062000 44.000000
121.034300 108.000000
121.065540 297.000000
121.095440 30.000000
121.892660 40.000000
122.037400 84.000000
123.039060 37.000000
123.045330 71.000000
125.058150 37.000000
130.038380 52.000000
131.052080 150.000000
132.050060 96.000000
132.058000 59.000000
133.025050 155.000000
133.060870 29.000000
134.036820 166.000000
135.046890 57.000000
136.050960 72.000000
137.060640 45.000000
138.027500 35.000000
138.034700 61.000000
146.036580 49.000000
147.042450 289.000000
148.046010 72.000000
148.052460 104.000000
149.024870 42.000000
150.030840 49.000000
151.034640 128.000000
153.050220 30.000000
162.029630 35.000000
163.027620 81.000000
163.039810 118.000000
165.043980 30.000000
167.034410 143.000000
168.038530 30.000000
176.041180 45.000000
177.051570 55.000000
178.019390 52.000000
191.071170 55.000000
193.057270 82.000000
194.048600 50.000000
194.056950 62.000000

>ms2peaks
65.041170 390.000000
91.056780 424.000000
107.072850 525.000000
117.028740 1000.000000
133.031190 305.000000
162.034960 593.000000

>ms2peaks
55.018680 10.000000
55.022480 13.000000
62.111890 10.000000
77.030820 11.000000
77.037700 12.000000
79.053510 9.000000
89.040140 10.000000
91.045900 8.000000
91.053080 78.000000
93.071390 7.000000
94.029750 14.000000
95.051410 11.000000
102.050060 15.000000
103.054110 81.000000
106.033490 9.000000
106.043410 27.000000
107.046540 7.000000
117.018410 7.000000
117.032970 59.000000
117.043360 7.000000
118.043800 24.000000
119.074710 10.000000
120.055560 30.000000
120.063810 9.000000
121.062210 36.000000
121.067960 29.000000
122.063420 12.000000
122.071210 15.000000
125.058670 11.000000
125.066900 8.000000
130.042220 26.000000
131.042340 47.000000
131.050030 49.000000
132.043400 15.000000
133.059010 27.000000
133.823760 8.000000
134.017200 11.000000
134.032530 11.000000
135.001360 16.000000
137.061020 8.000000
138.023090 16.000000
138.027980 7.000000
138.066880 9.000000
144.834060 9.000000
145.011110 8.000000
145.028690 90.000000
145.037230 22.000000
146.033910 24.000000
147.041400 10.000000
148.039460 8.000000
148.047590 29.000000
149.056380 90.000000
150.054080 9.000000
150.377620 9.000000
151.031690 13.000000
151.040800 15.000000
153.050490 29.000000
153.063320 14.000000
158.043400 13.000000
159.808910 15.000000
160.047440 11.000000
161.061770 15.000000
161.743350 13.000000
163.043320 11.000000
163.070470 17.000000
163.077000 20.000000
164.036180 17.000000
164.048110 28.000000
165.053310 13.000000
167.037310 10.000000
167.073350 10.000000
176.036210 12.000000
176.046100 17.000000
177.039220 43.000000
177.053340 335.000000
177.113310 9.000000
177.687820 7.000000
178.047160 21.000000
178.054570 24.000000
178.065310 7.000000
181.046810 14.000000
181.084810 48.000000
182.078720 9.000000
182.089570 13.000000
191.070500 146.000000
193.033620 13.000000
193.053770 25.000000
194.062100 13.000000
208.076950 7.000000
209.044130 13.000000
209.058580 15.000000
209.078720 1000.000000

>ms2peaks
107.053120 6.000000
121.064030 25.000000
135.041260 6.000000
145.025020 16.000000
145.030260 6.000000
149.054430 8.000000
149.062930 15.000000
153.055180 27.000000
153.061690 12.000000
177.054090 299.000000
178.058070 35.000000
180.079010 9.000000
181.077040 12.000000
181.086360 21.000000
191.069550 65.000000
192.076490 8.000000
208.071380 8.000000
209.022920 7.000000
209.044920 9.000000
209.080310 1000.000000

>ms2peaks
53.034710 76.000000
65.024250 85.000000
65.040040 186.000000
77.001670 61.000000
77.032960 162.000000
77.038040 223.000000
78.044230 165.000000
79.037290 95.000000
79.053020 213.000000
79.058000 107.000000
81.033520 82.000000
89.030880 52.000000
89.038640 323.000000
91.032870 88.000000
91.052870 1000.000000
91.060290 232.000000
92.009330 76.000000
92.058420 128.000000
93.038440 195.000000
93.056640 82.000000
93.068850 186.000000
93.078830 55.000000
94.038020 73.000000
95.048900 101.000000
96.050830 76.000000
102.045520 76.000000
103.053320 860.000000
104.055630 171.000000
105.997820 73.000000
106.031760 76.000000
106.040040 271.000000
107.042180 73.000000
107.053300 55.000000
108.022760 104.000000
110.029670 70.000000
110.035710 131.000000
110.040080 58.000000
117.014240 101.000000
117.035330 518.000000
118.039690 628.000000
119.035850 149.000000
119.047970 384.000000
120.044780 67.000000
121.055330 107.000000
121.063010 265.000000
121.068150 198.000000
123.029360 61.000000
123.039650 58.000000
123.047840 76.000000
130.033780 134.000000
130.043350 107.000000
131.049450 381.000000
133.025710 287.000000
133.032580 95.000000
134.028690 159.000000
134.041050 82.000000
135.025090 119.000000
135.037670 82.000000
137.059330 274.000000
138.029460 256.000000
138.040040 85.000000
145.029210 204.000000
147.050320 204.000000
148.041080 49.000000
148.048160 79.000000
149.017960 61.000000
149.027070 122.000000
149.065660 55.000000
151.043290 67.000000
152.002910 64.000000
153.057830 61.000000
163.031340 82.000000
163.075620 180.000000
165.944090 58.000000
166.060360 91.000000
171.056400 101.000000
175.030080 101.000000
175.046080 79.000000
176.035870 76.000000
177.064220 55.000000
178.022520 55.000000
180.082380 82.000000
193.051360 189.000000
194.051420 55.000000
195.054430 55.000000
203.589340 110.000000

>ms2peaks
51.332880 528.000000
66.048650 377.000000
105.035260 1000.000000
130.038100 396.000000
178.016660 774.000000
209.087650 943.000000

