>compound PR65777724
>parentmass 438.1427
>ionization [M+H]+
>formula C15H23N3O12
>rt 129.600000
>profile qtof
#smiles_iso C(C1C(C(C(O1)OC2C(C(C(OC2OC3=C(NC(=O)NC3=O)N)CO)O)O)O)O)O
#smiles_can C(C1C(C(C(O1)OC2C(C(C(OC2OC3=C(NC(=O)NC3=O)N)CO)O)O)O)O)O
#inchikey MZQRZWKZSAUTHQ-UHFFFAOYSA-N
#pubchem_id 139291974
#mb_accession PR310853

>ms2
61.035800 18.000000
73.025680 31.000000
73.031070 16.000000
81.037080 18.000000
85.027770 68.000000
97.026820 41.000000
99.048830 35.000000
99.180820 20.000000
100.001220 21.000000
115.041890 18.000000
119.775890 17.000000
126.032940 133.000000
126.039040 92.000000
127.037250 46.000000
128.043270 16.000000
129.037250 20.000000
133.050960 17.000000
143.972640 16.000000
144.048100 2539.000000
145.047150 71.000000
145.052310 219.000000
145.955810 17.000000
146.040080 19.000000
146.050380 47.000000
172.043090 17.000000
186.051160 17.000000
186.059490 41.000000
186.070400 16.000000
201.954320 16.000000
211.753780 17.000000
221.030240 16.000000
228.893050 16.000000
278.094730 16.000000
306.060730 18.000000
306.101140 2228.000000
306.131620 30.000000
307.106480 395.000000
308.087980 28.000000
308.100980 153.000000
308.117340 25.000000
309.099270 36.000000
310.128110 21.000000
312.859440 18.000000
327.189420 19.000000
382.046570 27.000000
383.251280 17.000000
435.488340 18.000000
438.085140 16.000000

