>compound PR66657270
>parentmass 355.20161920000004
>ionization [M+H]+
>formula C21H26N2O3
>rt 250.636020
>profile qtof
#smiles_iso COC(=O)[C@@H]1C[C@@]23CCC[N@@+]4([C@H]2[C@]5([C@@]1(CC3)NC6=CC=CC=C65)CC4)[O-]
#smiles_can COC(=O)C1CC23CCC[N+]4(C2C5(C1(CC3)NC6=CC=CC=C65)CC4)[O-]
#inchikey KWXHCCIXBUPHTG-ICLMVOIRSA-N
#pubchem_id 137832351
#mb_accession PR300062,PR300067,PR300072,PR300077,PR300082,PR300087,PR300092,PR300097,PR300102,PR300107,PR300112,PR300117

>ms2peaks
109.089410 24.000000
124.111700 360.000000
125.114110 42.000000
136.109710 14.000000
209.111650 6.000000
223.121690 6.000000
251.152300 13.000000
252.170030 9.000000
279.187290 6.000000
305.169620 9.000000
310.167180 28.000000
311.165710 6.000000
337.191710 22.000000
338.199400 166.000000
339.202030 40.000000
340.210940 8.000000
355.150940 7.000000
355.202480 1000.000000
355.256590 23.000000

>ms2peaks
124.112300 6.000000
338.198850 24.000000
339.200530 8.000000
355.201780 1000.000000
355.256380 26.000000

>ms2peaks
108.081950 13.000000
109.087810 78.000000
110.095340 10.000000
124.087650 6.000000
124.111660 1000.000000
124.145480 9.000000
125.114040 107.000000
135.103780 6.000000
136.112760 20.000000
137.117750 8.000000
156.079390 10.000000
209.105730 14.000000
215.091770 11.000000
216.101790 11.000000
223.125000 11.000000
224.124740 5.000000
224.131640 12.000000
237.140530 11.000000
251.154160 29.000000
252.154770 17.000000
252.166170 6.000000
265.173980 5.000000
278.140170 8.000000
279.174740 8.000000
279.186100 11.000000
305.164670 22.000000
306.172760 6.000000
309.161470 16.000000
310.167140 86.000000
311.171660 12.000000
337.190800 40.000000
338.198120 193.000000
339.202360 53.000000
340.208680 7.000000
355.202000 117.000000

>ms2peaks
80.049900 8.000000
81.055690 14.000000
81.071540 13.000000
93.062540 6.000000
93.072450 7.000000
94.059670 11.000000
94.065990 10.000000
95.067440 10.000000
95.074170 22.000000
96.080580 19.000000
108.077900 30.000000
108.082470 12.000000
109.088390 225.000000
110.090030 32.000000
122.094670 28.000000
124.089510 7.000000
124.111820 1000.000000
125.097370 6.000000
125.114330 121.000000
126.119220 6.000000
129.055080 5.000000
129.068280 22.000000
134.098790 5.000000
136.111470 15.000000
140.067840 5.000000
146.094160 7.000000
154.057400 8.000000
154.065250 6.000000
154.072020 6.000000
155.067200 7.000000
155.073680 9.000000
156.079150 98.000000
157.086430 9.000000
167.067760 7.000000
167.077550 5.000000
168.072810 5.000000
168.082860 9.000000
169.048690 6.000000
169.076570 6.000000
169.087540 5.000000
171.084380 7.000000
180.070300 6.000000
182.098310 9.000000
183.058780 10.000000
183.069730 8.000000
192.078200 8.000000
193.090270 9.000000
194.087170 5.000000
194.102800 6.000000
195.084580 5.000000
204.084110 11.000000
205.083850 8.000000
206.060780 9.000000
206.074460 7.000000
206.095140 11.000000
207.090060 13.000000
209.101940 21.000000
209.109950 15.000000
209.125790 6.000000
218.101680 11.000000
219.091780 5.000000
219.106230 6.000000
221.086820 17.000000
221.113360 14.000000
222.110690 7.000000
223.116100 11.000000
223.127290 13.000000
224.127430 8.000000
234.086670 6.000000
234.100780 9.000000
237.138090 5.000000
238.080060 7.000000
249.137710 15.000000
250.143490 7.000000
251.157210 16.000000

>ms2peaks
109.087650 24.000000
124.111310 385.000000
125.114490 39.000000
136.105190 6.000000
136.113130 7.000000
209.108670 7.000000
251.153460 9.000000
252.157030 9.000000
305.163360 5.000000
310.166780 38.000000
311.168520 6.000000
337.188390 29.000000
338.197420 183.000000
339.202360 51.000000
355.160830 6.000000
355.202760 1000.000000
355.258180 25.000000

>ms2peaks
124.111790 7.000000
338.195920 21.000000
355.144870 11.000000
355.201020 1000.000000
355.255770 29.000000

>ms2peaks
108.080950 10.000000
109.088290 89.000000
110.093120 7.000000
122.094640 6.000000
124.082940 6.000000
124.111260 1000.000000
124.142690 13.000000
125.114070 106.000000
135.098540 6.000000
135.107100 5.000000
136.111250 19.000000
156.076070 6.000000
209.100140 5.000000
209.109380 12.000000
215.095110 12.000000
216.102080 5.000000
223.125720 10.000000
224.126010 9.000000
237.139530 7.000000
250.153660 6.000000
251.153200 36.000000
252.149080 6.000000
252.162540 16.000000
253.108960 7.000000
253.166690 5.000000
265.174590 9.000000
279.189120 10.000000
305.164340 29.000000
306.162200 12.000000
309.162480 9.000000
310.167660 85.000000
311.168000 15.000000
337.173190 10.000000
337.193270 26.000000
338.199160 184.000000
339.192080 15.000000
339.203400 35.000000
340.209780 7.000000
355.199740 111.000000

>ms2peaks
69.070240 23.000000
79.053600 10.000000
80.051380 6.000000
81.058320 9.000000
81.063350 5.000000
93.068100 10.000000
94.066000 36.000000
95.070820 16.000000
95.084390 10.000000
96.080980 21.000000
107.071580 6.000000
108.071890 5.000000
108.081010 41.000000
109.067130 9.000000
109.088130 235.000000
110.093740 32.000000
122.090670 6.000000
122.099570 14.000000
124.073430 7.000000
124.111480 1000.000000
125.113890 79.000000
125.122610 11.000000
128.055820 8.000000
129.068590 30.000000
136.113680 8.000000
142.064710 7.000000
144.080840 5.000000
145.079450 5.000000
154.059570 20.000000
155.068650 30.000000
156.072040 18.000000
156.080250 100.000000
156.902080 7.000000
167.076980 5.000000
168.074720 17.000000
169.075380 5.000000
169.082870 5.000000
180.080120 15.000000
180.090350 5.000000
182.082700 8.000000
182.099590 8.000000
183.068500 30.000000
192.085980 9.000000
193.080600 7.000000
194.097750 15.000000
195.090210 7.000000
205.084590 9.000000
206.065190 8.000000
206.099010 13.000000
209.106550 21.000000
216.098590 8.000000
218.096370 9.000000
221.078200 8.000000
221.088180 6.000000
221.103740 11.000000
222.089580 6.000000
222.111020 6.000000
223.113040 12.000000
223.125350 8.000000
224.138660 5.000000
234.088850 5.000000
234.122180 7.000000
235.117220 7.000000
235.129380 7.000000
237.140270 10.000000
238.078810 7.000000
249.139190 14.000000
251.142760 5.000000
263.152220 6.000000
294.140320 7.000000
305.169130 6.000000

>ms2peaks
109.088810 34.000000
124.111390 395.000000
125.115050 33.000000
136.110020 10.000000
156.080310 8.000000
251.147780 11.000000
252.161270 9.000000
279.182460 5.000000
305.161770 8.000000
309.163150 7.000000
310.172030 29.000000
337.189030 22.000000
338.198030 159.000000
339.202300 55.000000
355.149570 8.000000
355.200990 1000.000000
355.254700 22.000000

>ms2peaks
338.196410 25.000000
339.200200 5.000000
355.133030 5.000000
355.201200 1000.000000
355.255860 29.000000

>ms2peaks
108.081700 11.000000
109.088580 90.000000
110.090110 6.000000
123.102330 6.000000
124.111880 1000.000000
124.144440 12.000000
125.115190 89.000000
126.118250 7.000000
135.104800 9.000000
136.114070 19.000000
156.081220 8.000000
209.103130 10.000000
209.112560 9.000000
215.096080 7.000000
216.101440 8.000000
223.124270 8.000000
224.132350 7.000000
237.131960 15.000000
251.140960 6.000000
251.156520 24.000000
252.152910 8.000000
252.162550 15.000000
265.171200 9.000000
278.140410 6.000000
279.188200 14.000000
305.160890 21.000000
306.174800 7.000000
309.154720 17.000000
310.168730 84.000000
311.173190 13.000000
337.192200 43.000000
338.199550 200.000000
339.201140 50.000000
340.206820 7.000000
355.174560 9.000000
355.201050 98.000000

>ms2peaks
69.066200 6.000000
69.071180 9.000000
80.048130 13.000000
81.056900 13.000000
81.066780 13.000000
81.071880 25.000000
82.066600 11.000000
91.048650 9.000000
91.058360 7.000000
94.067570 15.000000
95.074070 18.000000
96.079960 18.000000
108.072070 8.000000
108.081150 46.000000
109.087780 212.000000
110.093100 34.000000
122.091850 17.000000
122.097740 6.000000
124.073300 8.000000
124.081620 8.000000
124.093700 8.000000
124.111370 1000.000000
125.113110 69.000000
125.119450 44.000000
130.067670 10.000000
136.109070 14.000000
137.116670 6.000000
144.076290 6.000000
154.064500 14.000000
154.077010 7.000000
155.068500 15.000000
156.067720 5.000000
156.078450 44.000000
156.086150 20.000000
166.061100 6.000000
168.073360 23.000000
173.081380 8.000000
180.071840 5.000000
181.080930 6.000000
183.059800 8.000000
183.097120 6.000000
192.071260 6.000000
194.098210 6.000000
195.097930 12.000000
204.086580 13.000000
205.092410 6.000000
206.061390 8.000000
206.096710 9.000000
208.109240 12.000000
209.106640 22.000000
209.114700 9.000000
217.088120 5.000000
218.094970 5.000000
220.105820 10.000000
221.069410 9.000000
221.088290 12.000000
221.106700 9.000000
221.115880 6.000000
222.089570 5.000000
222.114810 18.000000
223.117650 5.000000
223.127590 11.000000
224.116330 7.000000
224.138580 5.000000
234.083250 7.000000
236.129550 9.000000
237.136430 7.000000
249.137910 11.000000
250.133090 6.000000
251.161360 7.000000
355.192750 8.000000

