>compound PR66539949
>parentmass 654.3362
>ionization [M+NH4]+
>formula C29H48O15
>rt 513.600000
>profile qtof
#smiles_iso CCCCC(=O)OC1C(OC(C(C1OC(=O)CCCC)OC(=O)CCCC)OC2(C(C(C(O2)CO)OC(=O)C)O)CO)CO
#smiles_can CCCCC(=O)OC1C(OC(C(C1OC(=O)CCCC)OC(=O)CCCC)OC2(C(C(C(O2)CO)OC(=O)C)O)CO)CO
#inchikey AKPIJPQIDBGCGR-UHFFFAOYSA-N
#pubchem_id 139291780
#mb_accession PR310739

>ms2
71.088910 19.000000
99.077930 23.000000
109.027680 16.000000
139.041890 37.000000
169.050000 17.000000
239.085310 25.000000
355.178040 16.000000
359.095210 29.000000
359.149380 20.000000
359.161500 16.000000
457.231990 158.000000
457.253780 171.000000
458.265750 36.000000
458.278690 17.000000
556.857420 19.000000
618.034910 16.000000
654.296260 34.000000
654.326050 16.000000
654.351810 20.000000

