>compound PR66874789
>parentmass 340.1543346
>ionization [M+H]+
>formula C20H21NO4
>rt 293.161020
>profile qtof
#smiles_iso CN1CCC2=CC(=C(C3=C2[C@@H]1CC4=CC5=C(C=C43)OCO5)OC)OC
#smiles_can CN1CCC2=CC(=C(C3=C2C1CC4=CC5=C(C=C43)OCO5)OC)OC
#inchikey WSVWKHTVFGTTKJ-AWEZNQCLSA-N
#pubchem_id 197001
#mb_accession PR300548,PR300557,PR300566,PR300571,PR300584,PR300589,PR300598

>ms2
165.064060 8.000000
165.073240 15.000000
177.071440 9.000000
178.074710 6.000000
189.073090 8.000000
190.076930 9.000000
191.083300 11.000000
193.066280 16.000000
205.061490 30.000000
205.070530 23.000000
206.071490 12.000000
207.083020 14.000000
208.089800 13.000000
209.062030 6.000000
217.063050 8.000000
219.068100 5.000000
219.084380 16.000000
220.090210 25.000000
221.062580 18.000000
221.097720 8.000000
222.059680 7.000000
222.071850 6.000000
223.070800 19.000000
223.080720 23.000000
223.097320 5.000000
224.078460 6.000000
233.059300 33.000000
234.067350 10.000000
235.076200 137.000000
236.078640 30.000000
236.086690 19.000000
237.084370 10.000000
237.094090 5.000000
247.075900 32.000000
248.079220 9.000000
248.087750 17.000000
249.057100 25.000000
249.089600 15.000000
250.059620 7.000000
251.065630 33.000000
251.074390 46.000000
251.106580 12.000000
252.076460 13.000000
261.054600 22.000000
262.051390 6.000000
262.061980 23.000000
263.070950 176.000000
264.075070 51.000000
265.050110 19.000000
265.070160 13.000000
265.087280 39.000000
266.053740 10.000000
266.073880 6.000000
266.095520 19.000000
277.075260 7.000000
277.087860 34.000000
278.052310 10.000000
278.093320 934.000000
278.140590 14.000000
279.066990 330.000000
279.083560 77.000000
279.100190 148.000000
280.073210 122.000000
280.106050 16.000000
281.081120 19.000000
282.082890 6.000000
294.048490 7.000000
294.089420 636.000000
294.138890 12.000000
295.092770 130.000000
296.096010 15.000000
297.115390 9.000000
309.113220 772.000000
309.164250 9.000000
310.117550 175.000000
311.111600 8.000000
311.124760 24.000000
340.084750 6.000000
340.155580 1000.000000
340.208830 29.000000

>ms2
191.082280 9.000000
205.063370 17.000000
206.076000 6.000000
208.086670 12.000000
219.082920 21.000000
220.088040 17.000000
221.062390 7.000000
221.094380 10.000000
223.075960 19.000000
233.063610 19.000000
235.075740 81.000000
236.071620 6.000000
236.085300 30.000000
237.090450 7.000000
247.076220 40.000000
248.082810 25.000000
249.044190 7.000000
249.058910 15.000000
249.092350 21.000000
250.060270 9.000000
251.069840 40.000000
251.088200 9.000000
251.109630 20.000000
252.077680 11.000000
261.048550 6.000000
261.060520 15.000000
262.063390 37.000000
263.071200 239.000000
264.075560 69.000000
265.052430 25.000000
265.086550 49.000000
266.048890 5.000000
266.058290 8.000000
266.094120 28.000000
267.093720 7.000000
277.080660 25.000000
277.092010 17.000000
278.053310 8.000000
278.094020 1000.000000
278.141940 8.000000
279.029600 9.000000
279.067410 574.000000
279.101290 115.000000
280.070800 159.000000
280.103300 15.000000
280.117370 6.000000
281.075530 29.000000
293.077700 6.000000
293.086700 9.000000
294.090000 390.000000
295.091830 102.000000
296.100010 6.000000
309.112430 80.000000
310.116880 34.000000

>ms2
165.062090 7.000000
165.071840 21.000000
177.064240 14.000000
177.074540 7.000000
179.084640 6.000000
189.070470 6.000000
190.079150 6.000000
191.081480 14.000000
191.087810 7.000000
193.055570 8.000000
193.069400 5.000000
205.058410 16.000000
205.067920 21.000000
206.076070 9.000000
207.074080 6.000000
208.080090 6.000000
208.090670 7.000000
218.075940 5.000000
219.080810 23.000000
220.089400 19.000000
221.061070 16.000000
221.099430 7.000000
223.068370 26.000000
223.081670 14.000000
224.078800 9.000000
233.049260 5.000000
233.061020 25.000000
234.066640 11.000000
235.075180 115.000000
235.085310 25.000000
236.076930 20.000000
236.091050 15.000000
237.080840 9.000000
247.071670 30.000000
247.083010 8.000000
248.075090 19.000000
249.055590 19.000000
249.090940 12.000000
250.064580 6.000000
251.071840 47.000000
251.110080 5.000000
261.052340 29.000000
261.067660 5.000000
262.062810 27.000000
263.037990 6.000000
263.069430 161.000000
264.072970 55.000000
265.039830 7.000000
265.050990 6.000000
265.081360 29.000000
265.095640 7.000000
266.054050 5.000000
266.091430 15.000000
277.071530 7.000000
277.084170 29.000000
278.057530 8.000000
278.093410 954.000000
278.141140 14.000000
279.063450 291.000000
279.074190 149.000000
279.092040 109.000000
279.102050 101.000000
280.064760 65.000000
280.079930 48.000000
280.099270 22.000000
281.081300 10.000000
283.094540 5.000000
294.088230 574.000000
295.091220 120.000000
296.098240 16.000000
297.108090 17.000000
309.051150 6.000000
309.070430 6.000000
309.111910 841.000000
309.162410 16.000000
310.115260 184.000000
311.119630 27.000000
340.153410 1000.000000
340.205570 29.000000

>ms2
278.082790 5.000000
278.095550 30.000000
294.087490 30.000000
309.112000 206.000000
310.113800 49.000000
340.154390 1000.000000
340.207670 35.000000

>ms2
165.072660 24.000000
177.071350 14.000000
178.074100 9.000000
189.069530 5.000000
190.080380 11.000000
191.086520 12.000000
193.067410 19.000000
205.065980 53.000000
206.071240 14.000000
207.081360 16.000000
219.076260 12.000000
219.087800 8.000000
220.084560 16.000000
221.063480 13.000000
221.098540 7.000000
222.064850 10.000000
223.071810 19.000000
223.081330 16.000000
224.077380 7.000000
233.060040 26.000000
234.072050 9.000000
235.076130 100.000000
236.081130 41.000000
237.081570 12.000000
237.095410 5.000000
247.078810 22.000000
248.082470 9.000000
249.050510 13.000000
249.064250 7.000000
249.095790 9.000000
251.072940 51.000000
251.108830 15.000000
252.080460 10.000000
261.045040 7.000000
261.058260 18.000000
262.062650 16.000000
263.070860 162.000000
264.074100 43.000000
265.048070 17.000000
265.081210 15.000000
265.090580 16.000000
266.095860 8.000000
277.077670 9.000000
277.093870 15.000000
278.054930 8.000000
278.094300 855.000000
278.141970 13.000000
279.069700 377.000000
279.099760 139.000000
280.071870 82.000000
280.092070 14.000000
280.105190 20.000000
281.071500 15.000000
293.082700 12.000000
294.088650 550.000000
294.135930 7.000000
295.092220 128.000000
296.091800 16.000000
297.110290 8.000000
309.112550 789.000000
309.162320 17.000000
310.116210 157.000000
311.107570 8.000000
311.120240 20.000000
340.155120 1000.000000
340.208040 29.000000

>ms2
278.093570 27.000000
279.101750 5.000000
294.088990 31.000000
295.093780 6.000000
309.113010 198.000000
310.117160 46.000000
311.121670 6.000000
340.155000 1000.000000
340.208010 32.000000

>ms2
151.045150 14.000000
151.052320 13.000000
151.059400 19.000000
152.061630 47.000000
152.068950 24.000000
153.069260 113.000000
153.609800 5.000000
154.072770 9.000000
163.045000 9.000000
163.197800 5.000000
164.059040 21.000000
164.066830 17.000000
165.070130 1000.000000
166.073410 182.000000
167.002320 6.000000
167.043090 7.000000
167.069720 15.000000
167.083940 57.000000
167.092860 23.000000
168.087650 6.000000
172.056520 7.000000
175.051160 15.000000
175.060260 13.000000
176.045410 10.000000
176.062030 276.000000
176.927510 6.000000
177.020540 7.000000
177.049740 25.000000
177.070560 879.000000
178.077700 377.000000
179.052220 7.000000
179.084080 156.000000
179.091720 111.000000
180.060270 9.000000
180.089900 49.000000
181.057880 14.000000
181.067810 26.000000
181.909650 5.000000
182.059280 7.000000
188.056530 6.000000
189.031450 5.000000
189.072070 322.000000
190.062180 21.000000
190.074620 121.000000
190.084230 64.000000
191.046080 5.000000
191.058400 10.000000
191.086490 124.000000
192.055420 12.000000
192.064040 8.000000
192.091160 25.000000
193.010070 9.000000
193.047210 16.000000
193.066700 211.000000
193.868360 9.000000
194.051180 7.000000
194.064740 38.000000
194.074630 13.000000
194.087010 7.000000
195.042940 15.000000
195.055590 6.000000
195.079470 34.000000
195.111940 6.000000
197.063250 7.000000
201.063290 14.000000
201.073780 19.000000
202.075780 31.000000
203.054930 25.000000
203.080570 8.000000
204.060460 52.000000
205.019450 11.000000
205.034790 17.000000
205.065830 910.000000
206.046690 7.000000
206.069530 224.000000
207.039090 6.000000
207.054470 10.000000
207.080780 180.000000
208.050000 12.000000
208.080830 20.000000
208.089020 44.000000
209.062620 97.000000
209.097750 11.000000
210.067230 19.000000
211.058990 7.000000
217.062650 46.000000
217.076430 10.000000
218.073730 37.000000
219.080470 87.000000
220.085570 73.000000
220.095600 13.000000
221.058590 204.000000
221.073750 23.000000
221.087140 8.000000
221.096620 13.000000
222.060040 61.000000
222.071950 59.000000
222.090870 13.000000
223.076390 293.000000
224.052570 6.000000
224.075230 42.000000
224.084530 34.000000
225.068590 5.000000
231.034500 12.000000
231.047640 40.000000
232.047710 7.000000
233.023910 10.000000
233.062190 387.000000
234.054980 35.000000
234.066450 106.000000
235.034390 5.000000
235.053850 24.000000
235.076480 754.000000
236.032700 6.000000
236.055440 15.000000
236.081310 230.000000
237.052490 38.000000
237.074740 15.000000
237.088150 58.000000
238.061980 10.000000
238.091510 17.000000
239.077900 11.000000
245.064700 10.000000
247.077270 72.000000
248.078610 35.000000
249.058460 114.000000
250.064160 12.000000
251.051350 10.000000
251.065050 58.000000
251.075810 102.000000
252.071270 33.000000
252.085330 8.000000
253.079420 13.000000
261.050630 74.000000
261.061520 49.000000
262.063960 43.000000
263.068080 190.000000
264.070190 39.000000
264.085360 18.000000
265.034520 6.000000
265.053710 17.000000
265.075530 12.000000
265.083280 20.000000
266.057740 8.000000
277.043850 7.000000
277.062350 7.000000
277.077210 8.000000
277.088260 13.000000
278.059270 7.000000
278.087650 19.000000
278.103580 15.000000
279.067750 142.000000
280.066620 56.000000
280.084900 18.000000
293.086490 6.000000
294.092830 6.000000

