>compound PR66339146
>parentmass 565.1548
>ionization [M+H]+
>formula C26H28O14
>rt 204.600000
>profile qtof
#smiles_iso C1C(C(C(C(O1)C2=C(C(=C3C(=C2O)C(=O)C=C(O3)C4=CC=C(C=C4)O)C5C(C(C(C(O5)CO)O)O)O)O)O)O)O
#smiles_can C1C(C(C(C(O1)C2=C(C(=C3C(=C2O)C(=O)C=C(O3)C4=CC=C(C=C4)O)C5C(C(C(C(O5)CO)O)O)O)O)O)O)O
#inchikey OVMFOVNOXASTPA-UHFFFAOYSA-N
#pubchem_id 13644660
#mb_accession PR310989

>ms2
121.026450 25.000000
127.092140 32.000000
271.067230 24.000000
295.032320 16.000000
295.060460 16.000000
321.080020 36.000000
329.083130 20.000000
335.067930 17.000000
335.086300 64.000000
337.072510 54.000000
349.082210 22.000000
351.084660 17.000000
361.088230 18.000000
370.143860 20.000000
373.070980 20.000000
374.220920 23.000000
377.045810 16.000000
379.076450 42.000000
380.087590 34.000000
380.100460 57.000000
386.090970 20.000000
397.076750 16.000000
397.096980 20.000000
400.481200 17.000000
403.078340 33.000000
409.073390 16.000000
409.091860 33.000000
410.097170 18.000000
411.103640 17.000000
415.798370 22.000000
416.097960 16.000000
416.114380 20.000000
419.075320 16.000000
421.120420 35.000000
422.105100 16.000000
427.087040 59.000000
427.106080 36.000000
428.103730 39.000000
433.089900 18.000000
433.102290 42.000000
439.069060 18.000000
445.093660 52.000000
445.128450 84.000000
446.098360 18.000000
451.099550 45.000000
457.078250 20.000000
457.120480 25.000000
457.135280 16.000000
470.101590 20.000000
470.115420 28.000000
475.104250 37.000000
476.115110 16.000000
481.102290 16.000000
481.129390 16.000000
482.108490 27.000000
499.118560 17.000000
499.134860 20.000000
511.101810 57.000000
511.140560 21.000000
529.133360 24.000000
529.455870 17.000000
530.143680 17.000000
547.131900 51.000000
547.159910 17.000000
548.146480 16.000000
548.160770 17.000000
565.157900 427.000000

