>compound PR66243207
>parentmass 243.14918970000005
>ionization [M+H]+
>formula C15H18N2O
>rt 175.411980
>profile qtof
#smiles_iso C/C=C\1/[C@H]2CC3=C([C@]1(CC(=C2)C)N)C=CC(=O)N3
#smiles_can CC=C1C2CC3=C(C1(CC(=C2)C)N)C=CC(=O)N3
#inchikey ZRJBHWIHUMBLCN-HNWKQCISSA-N
#pubchem_id 71308731
#mb_accession PR301089,PR301093,PR301097,PR301101,PR301105,PR301109,PR301113,PR301117,PR301121,PR301125,PR301129,PR301133

>ms2
84.083080 9.000000
106.064340 6.000000
108.037350 7.000000
108.047030 9.000000
108.080610 6.000000
110.061520 9.000000
119.053480 6.000000
119.071910 6.000000
119.077380 7.000000
128.065480 8.000000
130.068100 6.000000
134.049440 7.000000
134.065510 14.000000
134.094540 13.000000
135.095780 7.000000
142.081100 9.000000
147.070650 6.000000
151.057600 12.000000
152.057720 6.000000
154.062680 6.000000
154.073180 13.000000
155.083040 7.000000
156.085980 6.000000
165.070470 14.000000
165.401170 9.000000
166.064910 7.000000
166.073840 19.000000
167.079030 6.000000
167.089750 6.000000
168.082610 14.000000
169.074010 8.000000
170.104770 8.000000
173.097310 8.000000
175.089750 7.000000
176.115620 7.000000
177.059600 10.000000
178.065700 39.000000
179.077580 6.000000
179.089460 12.000000
180.064820 6.000000
180.082060 8.000000
180.089610 8.000000
181.087600 6.000000
181.103640 11.000000
182.092040 7.000000
182.105900 6.000000
183.060610 6.000000
183.070470 13.000000
183.102910 35.000000
183.112560 6.000000
184.076430 61.000000
185.070540 6.000000
185.119480 11.000000
185.674160 6.000000
186.088580 8.000000
187.081180 13.000000
187.090640 13.000000
188.021210 6.000000
190.069030 27.000000
191.059620 13.000000
192.075180 7.000000
192.085600 16.000000
193.082870 11.000000
193.102510 6.000000
194.094760 7.000000
195.084110 11.000000
195.965270 9.000000
196.077030 66.000000
197.061080 6.000000
197.078110 29.000000
197.088710 59.000000
198.081310 17.000000
198.091520 22.000000
198.131650 23.000000
199.062350 10.000000
199.085430 6.000000
199.098980 11.000000
205.080760 11.000000
208.121600 7.000000
209.085780 6.000000
209.101330 7.000000
209.113970 26.000000
210.072980 8.000000
210.090850 83.000000
210.115140 6.000000
211.072360 6.000000
211.097350 43.000000
211.104490 25.000000
212.097580 18.000000
224.101810 12.000000
226.122790 326.000000
227.108730 12.000000
227.120900 38.000000
227.133610 20.000000
228.104080 6.000000
228.121670 6.000000
228.899090 6.000000
239.017320 6.000000
239.621980 6.000000
243.078090 7.000000
243.121050 14.000000
243.143810 411.000000
243.152150 1000.000000

>ms2
181.212630 10.000000
186.106830 6.000000
226.116090 72.000000
226.126050 135.000000
226.147280 7.000000
227.129140 27.000000
243.106930 10.000000
243.148800 1000.000000

>ms2
79.052890 66.000000
81.888110 26.000000
92.050760 65.000000
106.049160 46.000000
106.070400 105.000000
108.051350 46.000000
110.064600 43.000000
110.100590 28.000000
115.011800 28.000000
115.055050 31.000000
116.043190 34.000000
116.055970 32.000000
117.064990 28.000000
118.062160 34.000000
118.068990 79.000000
119.075760 51.000000
120.073630 52.000000
121.078030 39.000000
123.067030 35.000000
127.055840 29.000000
128.054820 28.000000
128.463550 77.000000
129.077290 83.000000
130.064930 31.000000
132.063160 26.000000
132.082660 28.000000
133.048050 31.000000
134.096540 219.000000
135.056500 40.000000
141.058850 37.000000
141.069810 29.000000
141.081940 51.000000
142.075270 100.000000
143.084730 48.000000
144.060200 42.000000
144.067580 26.000000
144.077420 45.000000
145.056520 32.000000
145.083010 32.000000
146.041530 32.000000
146.060070 37.000000
152.031480 31.000000
152.048480 28.000000
152.064360 45.000000
153.062420 71.000000
154.033910 29.000000
154.057170 71.000000
154.063490 83.000000
154.071810 28.000000
155.079610 42.000000
155.095030 60.000000
156.075040 62.000000
156.086900 28.000000
157.075760 31.000000
157.095780 28.000000
157.753770 26.000000
158.088550 128.000000
159.082760 26.000000
159.117370 31.000000
160.068940 90.000000
161.070860 66.000000
161.083860 35.000000
164.071090 35.000000
165.058930 28.000000
165.072860 185.000000
166.067470 137.000000
166.075230 83.000000
167.057650 28.000000
167.071270 43.000000
167.084760 269.000000
168.075270 184.000000
168.083020 93.000000
168.095380 26.000000
169.071900 51.000000
169.090390 299.000000
169.100860 43.000000
170.057560 85.000000
170.097530 159.000000
171.082920 34.000000
171.105870 28.000000
172.050170 54.000000
172.074910 42.000000
173.072660 31.000000
174.079240 35.000000
178.059890 31.000000
178.070720 103.000000
179.062730 40.000000
179.087220 39.000000
180.078550 82.000000
180.086300 56.000000
181.093780 65.000000
181.101150 26.000000
182.045410 43.000000
182.061400 56.000000
182.104740 26.000000
182.111720 43.000000
183.057050 77.000000
183.073780 120.000000
183.105380 62.000000
183.114760 28.000000
183.738710 39.000000
184.072890 122.000000
184.085860 103.000000
184.117800 57.000000
185.075520 31.000000
185.082340 26.000000
185.107850 65.000000
187.084080 83.000000
188.067110 49.000000
188.092130 28.000000
189.071180 40.000000
190.064030 43.000000
190.077190 32.000000
191.059340 26.000000
191.073100 80.000000
192.076970 213.000000
192.089250 171.000000
193.089430 429.000000
194.067290 37.000000
194.083540 34.000000
194.103670 26.000000
195.082730 102.000000
195.091290 32.000000
196.057830 35.000000
196.079970 801.000000
197.047900 31.000000
197.076080 73.000000
197.084990 324.000000
197.114330 31.000000
198.094820 96.000000
198.126620 26.000000
198.139850 37.000000
199.141820 39.000000
204.060460 31.000000
204.083850 29.000000
206.082580 56.000000
206.098590 123.000000
206.115330 69.000000
207.111980 71.000000
208.082660 32.000000
208.105500 199.000000
208.116360 448.000000
208.123700 136.000000
209.091980 88.000000
209.103040 31.000000
209.118550 45.000000
209.175630 26.000000
210.090410 1000.000000
210.101200 437.000000
211.090440 247.000000
211.103360 71.000000
212.100220 116.000000
213.096210 52.000000
213.106230 159.000000
214.093030 32.000000
224.111010 154.000000
225.103900 31.000000
226.026350 40.000000
226.101550 119.000000
226.121150 522.000000
226.136960 256.000000
227.118700 485.000000
227.126650 154.000000
227.140380 39.000000
228.123400 216.000000
229.099040 46.000000
229.120620 59.000000
243.131440 43.000000
243.153490 432.000000
243.177640 31.000000
243.201770 31.000000

>ms2
65.035260 193.000000
77.036600 173.000000
79.057660 387.000000
89.036820 140.000000
91.054110 140.000000
115.059460 113.000000
116.048800 153.000000
118.064410 120.000000
119.078220 140.000000
127.055680 113.000000
128.054060 140.000000
129.060930 127.000000
130.069380 220.000000
132.446640 160.000000
138.042100 193.000000
140.049960 553.000000
141.062350 153.000000
141.069310 400.000000
142.072620 180.000000
143.086560 167.000000
144.195270 113.000000
151.042080 120.000000
151.058940 287.000000
152.066710 160.000000
153.075240 113.000000
154.074140 113.000000
155.360950 133.000000
156.077180 113.000000
156.087340 127.000000
165.070180 273.000000
166.068940 133.000000
167.068360 440.000000
167.103090 267.000000
168.071980 247.000000
168.087540 660.000000
172.059810 120.000000
177.060410 253.000000
178.061260 160.000000
178.070660 127.000000
179.079120 153.000000
180.075300 113.000000
180.095840 173.000000
181.076080 140.000000
181.092480 160.000000
183.089630 140.000000
191.075240 480.000000
191.095900 227.000000
192.077500 1000.000000
193.079970 200.000000
193.093000 273.000000
196.061110 160.000000
196.078490 273.000000
197.076480 147.000000
205.084760 113.000000
206.099430 153.000000
210.091890 387.000000
212.086030 147.000000

>ms2
106.067860 23.000000
107.060590 8.000000
127.055830 8.000000
129.069410 6.000000
131.072750 7.000000
134.065290 6.000000
134.102360 12.000000
135.054440 6.000000
152.059590 9.000000
153.069180 17.000000
155.088520 8.000000
163.072710 5.000000
165.061810 5.000000
165.070760 30.000000
166.079700 24.000000
167.074170 9.000000
168.073880 6.000000
168.087590 17.000000
168.151520 6.000000
169.086350 18.000000
170.060650 6.000000
170.096940 9.000000
172.075270 5.000000
178.063100 8.000000
179.076140 9.000000
181.107150 31.000000
182.054030 6.000000
184.066770 9.000000
184.079320 9.000000
187.086640 25.000000
191.077770 10.000000
192.081380 12.000000
193.087800 8.000000
193.094640 8.000000
194.095600 15.000000
194.104000 6.000000
195.100310 5.000000
196.071690 18.000000
196.083100 28.000000
197.079130 12.000000
197.088090 23.000000
198.075030 6.000000
198.126660 10.000000
199.071900 7.000000
206.095580 21.000000
208.114640 26.000000
209.111660 9.000000
209.121190 19.000000
210.067380 6.000000
210.085050 25.000000
210.094510 33.000000
210.113540 10.000000
211.096390 30.000000
211.111280 6.000000
212.102720 9.000000
213.101870 8.000000
213.117310 6.000000
224.110230 11.000000
225.135410 6.000000
226.120710 232.000000
226.138630 18.000000
227.114850 47.000000
227.124880 51.000000
228.127470 27.000000
243.106170 14.000000
243.149350 1000.000000

>ms2
226.121900 180.000000
227.130390 25.000000
228.132390 6.000000
243.148990 1000.000000

>ms2
79.053420 20.000000
80.052150 19.000000
92.049640 59.000000
103.059000 22.000000
107.088710 34.000000
109.059760 36.000000
110.058880 34.000000
115.052640 24.000000
116.038260 26.000000
119.077510 26.000000
120.082390 18.000000
128.050770 52.000000
129.074160 53.000000
131.073060 18.000000
132.043880 19.000000
134.092770 17.000000
134.097730 51.000000
134.105270 38.000000
135.099530 18.000000
136.060650 24.000000
141.069200 49.000000
141.074400 17.000000
142.065410 19.000000
143.066020 45.000000
143.081800 64.000000
143.087750 38.000000
144.075990 37.000000
144.083830 20.000000
146.056530 21.000000
146.063720 20.000000
152.063870 48.000000
153.049670 17.000000
153.067520 21.000000
153.077700 22.000000
154.062320 19.000000
154.071520 17.000000
154.094390 19.000000
155.076420 19.000000
155.087570 60.000000
156.070510 24.000000
156.084700 17.000000
158.056700 18.000000
158.088910 46.000000
158.094850 34.000000
160.067210 19.000000
160.108540 19.000000
161.069000 24.000000
165.038210 19.000000
165.063190 36.000000
165.071460 68.000000
166.060970 22.000000
166.072950 45.000000
166.082140 109.000000
167.056700 26.000000
167.063750 44.000000
167.077970 19.000000
167.087680 18.000000
168.083500 37.000000
169.072050 49.000000
169.081130 89.000000
169.089650 48.000000
170.094990 59.000000
171.062150 19.000000
171.112640 21.000000
172.098740 18.000000
172.117280 30.000000
173.070980 26.000000
173.081850 21.000000
176.060550 18.000000
177.664750 32.000000
178.055730 43.000000
178.064450 84.000000
179.064540 23.000000
179.075930 53.000000
179.092670 18.000000
180.080220 92.000000
181.084930 31.000000
181.103730 228.000000
182.046280 19.000000
182.062380 71.000000
182.089970 18.000000
182.101650 70.000000
183.068970 76.000000
184.075880 158.000000
184.105610 18.000000
185.088230 21.000000
187.080800 27.000000
187.094500 19.000000
188.089250 70.000000
190.056270 19.000000
190.070530 17.000000
191.084730 34.000000
192.083560 111.000000
193.068410 21.000000
193.083240 185.000000
193.092610 111.000000
194.068910 25.000000
194.095260 161.000000
195.094740 58.000000
196.076420 511.000000
197.074430 88.000000
197.084490 314.000000
198.077480 20.000000
198.086840 52.000000
198.096100 38.000000
198.123380 39.000000
198.134920 19.000000
199.088150 23.000000
200.081190 21.000000
206.094570 186.000000
207.107940 22.000000
208.094880 35.000000
208.110610 350.000000
208.384830 18.000000
208.510890 24.000000
209.068450 19.000000
209.101260 18.000000
209.116320 76.000000
209.636220 20.000000
210.069600 49.000000
210.093570 1000.000000
211.082110 17.000000
211.099670 289.000000
211.119170 24.000000
212.105550 53.000000
213.107270 105.000000
215.376010 17.000000
224.089810 27.000000
224.110380 126.000000
225.105480 38.000000
226.096160 44.000000
226.127060 364.000000
227.097230 54.000000
227.114780 150.000000
227.123260 200.000000
228.080630 17.000000
228.116620 50.000000
228.133160 57.000000
243.142290 57.000000
243.150790 189.000000
243.163380 44.000000

>ms2
102.044540 152.000000
104.047390 146.000000
115.058150 405.000000
118.074280 177.000000
127.057210 171.000000
128.056660 139.000000
128.068820 297.000000
129.072910 228.000000
132.086490 120.000000
139.052800 133.000000
140.048160 139.000000
140.054840 127.000000
143.087140 114.000000
151.051350 171.000000
151.060730 114.000000
152.051350 108.000000
152.071660 108.000000
153.054720 139.000000
153.068940 304.000000
154.069080 380.000000
154.080430 152.000000
155.073560 297.000000
156.074100 241.000000
164.061040 114.000000
165.055100 177.000000
165.071560 1000.000000
165.084010 127.000000
166.062010 184.000000
166.078990 411.000000
167.067110 108.000000
168.068340 291.000000
169.084690 152.000000
170.101100 127.000000
171.107820 184.000000
177.056000 538.000000
178.059770 120.000000
178.070500 108.000000
179.071870 165.000000
180.069350 127.000000
180.081180 114.000000
180.093510 146.000000
181.925740 171.000000
182.035420 165.000000
182.060210 291.000000
190.056350 190.000000
190.064970 108.000000
192.075200 291.000000
193.090320 392.000000
194.094480 120.000000
196.076660 152.000000
197.082980 171.000000
206.061660 171.000000
206.082790 114.000000
206.099620 203.000000
208.102290 127.000000
210.091550 139.000000
211.079790 190.000000
211.094250 367.000000
212.097380 171.000000
212.118130 108.000000
226.131520 127.000000
228.120960 127.000000

>ms2
108.044430 5.000000
110.059170 18.000000
118.068980 5.000000
120.073740 5.000000
127.056230 10.000000
128.062500 5.000000
134.050370 8.000000
134.058040 22.000000
134.093350 13.000000
134.099170 7.000000
139.053440 12.000000
140.048570 9.000000
147.076020 6.000000
149.055920 5.000000
153.072200 8.000000
154.066770 15.000000
155.066160 7.000000
155.076840 9.000000
156.089490 9.000000
164.064210 6.000000
165.070480 34.000000
166.068660 12.000000
166.077880 15.000000
167.069530 9.000000
167.080000 9.000000
168.095500 8.000000
170.101750 6.000000
171.095730 17.000000
172.065750 5.000000
172.075670 12.000000
172.084290 5.000000
178.067000 9.000000
178.077320 6.000000
179.084960 28.000000
180.079060 5.000000
181.103440 5.000000
182.063310 11.000000
183.076190 12.000000
184.075710 29.000000
184.084500 10.000000
185.084350 9.000000
185.103000 5.000000
189.076710 8.000000
192.078120 32.000000
192.085660 19.000000
193.084000 8.000000
193.094730 8.000000
196.076350 57.000000
197.084300 47.000000
198.088990 6.000000
201.025020 6.000000
203.826190 6.000000
208.113450 26.000000
208.120730 11.000000
210.093410 83.000000
211.083390 16.000000
211.103530 62.000000
212.097340 10.000000
213.105260 10.000000
224.105590 13.000000
224.115860 5.000000
226.123760 212.000000
227.123790 78.000000
228.115400 8.000000
228.130310 22.000000
243.117280 9.000000
243.149960 1000.000000

>ms2
226.123550 183.000000
227.129730 37.000000
243.104230 5.000000
243.149920 1000.000000
243.188450 6.000000

>ms2
79.060410 45.000000
92.057950 24.000000
106.057680 20.000000
108.082830 26.000000
110.053670 28.000000
110.057380 71.000000
110.767490 19.000000
115.057720 38.000000
115.110930 23.000000
116.061190 27.000000
117.073310 18.000000
118.067290 30.000000
119.066670 16.000000
119.074870 87.000000
120.607500 18.000000
127.055760 21.000000
128.052950 22.000000
128.063390 35.000000
128.068600 52.000000
129.066830 22.000000
129.076710 26.000000
130.048290 18.000000
130.062550 20.000000
131.054370 17.000000
134.065230 17.000000
134.085800 16.000000
134.096660 153.000000
135.056840 20.000000
141.070590 23.000000
142.061840 26.000000
142.081760 63.000000
143.032780 16.000000
143.065090 28.000000
143.073330 22.000000
143.089100 16.000000
146.061190 19.000000
147.054670 17.000000
147.074580 19.000000
151.058440 19.000000
152.063580 22.000000
153.069550 17.000000
153.077420 21.000000
154.062090 56.000000
154.072810 24.000000
154.148090 18.000000
155.060790 17.000000
155.074020 41.000000
156.086460 46.000000
157.093750 21.000000
157.106490 17.000000
158.054990 61.000000
159.074130 19.000000
160.061480 25.000000
160.072630 16.000000
164.063200 22.000000
165.061660 58.000000
165.070790 42.000000
165.080870 31.000000
166.055820 17.000000
166.064730 84.000000
166.077240 119.000000
166.085390 84.000000
167.067500 65.000000
167.076570 22.000000
167.083220 17.000000
168.060530 26.000000
168.074310 14.000000
168.087590 140.000000
169.056900 16.000000
169.077930 63.000000
169.095920 77.000000
170.062760 98.000000
170.093120 71.000000
170.103410 59.000000
171.059690 18.000000
171.116520 19.000000
172.071530 20.000000
172.103730 18.000000
173.079320 18.000000
174.081670 21.000000
177.055190 18.000000
177.063540 26.000000
177.113080 19.000000
178.064610 107.000000
179.069410 77.000000
179.082600 20.000000
179.092640 23.000000
179.781280 23.000000
180.077530 74.000000
180.087080 84.000000
180.189480 24.000000
181.086300 51.000000
181.102390 96.000000
182.065600 85.000000
182.090420 31.000000
182.101670 41.000000
183.033840 18.000000
183.057910 27.000000
183.069850 44.000000
183.081760 30.000000
183.106230 32.000000
184.062130 36.000000
184.076020 40.000000
184.086760 43.000000
184.114010 28.000000
185.073700 35.000000
185.116870 39.000000
186.073040 20.000000
186.083850 17.000000
186.093550 17.000000
186.111270 18.000000
187.087550 178.000000
190.068660 17.000000
190.082430 41.000000
191.072750 17.000000
192.053310 16.000000
192.067690 19.000000
192.081940 225.000000
192.104570 28.000000
192.850980 19.000000
193.093290 220.000000
194.039980 25.000000
194.076480 43.000000
194.094410 136.000000
195.105300 19.000000
196.041120 53.000000
196.075580 534.000000
197.075320 37.000000
197.084900 205.000000
197.107940 44.000000
198.077970 36.000000
198.088530 139.000000
198.097950 51.000000
198.130450 43.000000
199.138870 16.000000
200.102830 23.000000
200.315770 28.000000
205.099400 24.000000
205.646500 18.000000
206.096850 87.000000
207.094830 16.000000
207.105220 43.000000
208.105510 131.000000
208.117840 302.000000
209.096940 77.000000
209.111590 18.000000
209.119050 16.000000
210.058270 16.000000
210.066850 16.000000
210.093700 1000.000000
211.064730 27.000000
211.084240 69.000000
211.101960 250.000000
212.094270 51.000000
212.107970 37.000000
212.865110 23.000000
213.085050 16.000000
215.105830 16.000000
224.090070 19.000000
224.101470 31.000000
224.111240 86.000000
225.102020 19.000000
225.111480 61.000000
225.123230 22.000000
226.122060 542.000000
227.101030 77.000000
227.115070 373.000000
227.124510 308.000000
227.707790 17.000000
228.126790 115.000000
228.139620 17.000000
243.126390 39.000000
243.141390 23.000000
243.158170 188.000000

>ms2
76.031760 117.000000
78.046610 146.000000
91.052100 112.000000
92.056240 87.000000
105.073370 126.000000
106.067840 83.000000
109.058110 97.000000
115.053370 189.000000
116.047210 131.000000
116.064960 117.000000
117.028040 160.000000
119.070270 126.000000
119.078000 131.000000
120.084920 131.000000
127.052880 204.000000
128.819640 83.000000
134.059910 97.000000
139.033280 83.000000
139.056030 121.000000
140.039790 141.000000
140.055850 87.000000
141.053570 87.000000
141.066800 87.000000
143.079510 92.000000
150.038220 87.000000
150.052760 97.000000
151.064190 121.000000
152.049160 97.000000
152.062930 383.000000
154.064320 306.000000
155.058990 121.000000
155.679170 97.000000
156.043560 102.000000
156.091110 107.000000
156.097690 92.000000
158.069980 83.000000
158.102390 117.000000
164.055820 228.000000
165.071950 1000.000000
166.057460 97.000000
166.074490 291.000000
166.086990 165.000000
167.077840 345.000000
168.074230 107.000000
168.083110 248.000000
169.093900 160.000000
173.080430 155.000000
176.053130 112.000000
177.062440 495.000000
178.054930 92.000000
178.063960 238.000000
178.077530 364.000000
179.090530 383.000000
180.089160 83.000000
181.086320 121.000000
181.105530 175.000000
182.091030 107.000000
183.096860 87.000000
184.056080 87.000000
186.084120 87.000000
188.092970 83.000000
189.067120 126.000000
190.064990 277.000000
191.068150 92.000000
191.087490 189.000000
192.058560 87.000000
192.075700 248.000000
193.089070 204.000000
194.095960 87.000000
195.062850 92.000000
196.065660 97.000000
196.081850 121.000000
198.078020 92.000000
210.061690 97.000000
210.078120 194.000000
210.085910 131.000000
210.109990 107.000000
211.079410 150.000000

