>compound PR66321648
>parentmass 463.1229394000001
>ionization [M]+
>formula C22H23O11+
>rt 191.151000
>profile qtof
#smiles_iso COC1=C(C=CC(=C1)C2=[O+]C3=CC(=CC(=C3C=C2O[C@H]4[C@@H]([C@H]([C@@H]([C@H](O4)CO)O)O)O)O)O)O
#smiles_can COC1=C(C=CC(=C1)C2=[O+]C3=CC(=CC(=C3C=C2OC4C(C(C(C(O4)CO)O)O)O)O)O)O
#inchikey ZZWPMFROUHHAKY-OUUKCGNVSA-O
#pubchem_id 443654
#mb_accession PR302622,PR302628,PR302634,PR302640,PR302646,PR302652,PR302658,PR302664,PR302670,PR302676,PR302682,PR302688

>ms2
202.062380 12.000000
213.050810 5.000000
213.059560 5.000000
257.040440 6.000000
258.040990 14.000000
258.062530 6.000000
259.050720 6.000000
268.035430 13.000000
286.045200 158.000000
287.057340 10.000000
301.012970 6.000000
301.025050 12.000000
301.069580 1000.000000
302.076390 177.000000
303.067260 11.000000
303.081760 16.000000
378.272800 6.000000
463.079130 5.000000
463.121920 338.000000

>ms2
301.069950 212.000000
302.072420 38.000000
303.080290 5.000000
463.124020 1000.000000

>ms2
286.047970 98.000000
287.047850 8.000000
301.010280 9.000000
301.028230 12.000000
301.071200 1000.000000
302.074310 135.000000
303.061980 5.000000
303.079160 22.000000

>ms2
80.027890 9.000000
102.043500 8.000000
111.007810 36.000000
116.060600 29.000000
120.943360 13.000000
121.028050 14.000000
122.031990 15.000000
128.064960 11.000000
138.034030 15.000000
141.122120 11.000000
145.068560 7.000000
149.051090 8.000000
150.026950 23.000000
150.035720 42.000000
160.045580 10.000000
160.050580 29.000000
161.015910 8.000000
167.053180 13.000000
173.064250 23.000000
173.076540 7.000000
174.029920 19.000000
174.071090 20.000000
176.044940 8.000000
184.009120 7.000000
184.050870 18.000000
185.060130 21.000000
187.030410 22.000000
187.044010 42.000000
187.837370 10.000000
188.039320 12.000000
190.028120 9.000000
201.020830 7.000000
201.034620 12.000000
201.056810 184.000000
201.098080 15.000000
201.136020 11.000000
202.011310 11.000000
202.050480 36.000000
202.063280 303.000000
203.027240 25.000000
203.037340 17.000000
203.058460 33.000000
203.070080 32.000000
204.040910 19.000000
204.052220 39.000000
213.053960 122.000000
213.065320 55.000000
214.053600 22.000000
215.034210 13.000000
215.997830 8.000000
216.030700 13.000000
216.047000 7.000000
217.050430 8.000000
229.047820 256.000000
229.061980 21.000000
229.618840 8.000000
230.056590 339.000000
230.099640 7.000000
231.028730 8.000000
231.060030 26.000000
231.069080 15.000000
233.051090 9.000000
239.990520 8.000000
240.047710 7.000000
241.044220 7.000000
241.059660 35.000000
242.062040 7.000000
242.162280 11.000000
243.029650 65.000000
243.046420 7.000000
244.033130 21.000000
244.041820 29.000000
244.305390 14.000000
253.838900 8.000000
257.020480 22.000000
257.042180 187.000000
257.065670 7.000000
257.524960 7.000000
257.961880 7.000000
258.024570 7.000000
258.042140 195.000000
258.053380 303.000000
258.098660 11.000000
259.045560 17.000000
259.056820 37.000000
259.066220 8.000000
264.413570 27.000000
266.300320 10.000000
267.927670 12.000000
267.966950 7.000000
268.029050 31.000000
268.045930 63.000000
269.008820 7.000000
269.032040 17.000000
269.043000 18.000000
269.053920 15.000000
270.040190 15.000000
280.749390 7.000000
285.037600 41.000000
286.002320 26.000000
286.015260 53.000000
286.049680 1000.000000
286.871730 13.000000
287.050420 159.000000
288.055050 40.000000
294.062590 10.000000
295.182920 18.000000
301.019350 9.000000
301.040590 20.000000
301.068210 282.000000
302.053380 9.000000
302.076510 10.000000
302.087220 8.000000
303.080050 11.000000
409.173680 8.000000

>ms2
230.056400 9.000000
258.055880 11.000000
286.046420 146.000000
287.054500 23.000000
301.027040 24.000000
301.070800 1000.000000
302.075130 156.000000
303.074710 20.000000
463.122530 373.000000

>ms2
301.070920 207.000000
302.062810 19.000000
302.078890 17.000000
463.044310 9.000000
463.067050 16.000000
463.120940 1000.000000

>ms2
258.050290 5.000000
286.044190 91.000000
286.062530 19.000000
287.049160 7.000000
301.009400 5.000000
301.034850 14.000000
301.070620 1000.000000
302.073790 159.000000
302.085720 44.000000
303.071900 27.000000
303.084260 7.000000

>ms2
65.039820 8.000000
83.072970 7.000000
96.017190 11.000000
106.020030 6.000000
109.025670 12.000000
119.017360 8.000000
131.052120 6.000000
133.058980 10.000000
145.066010 13.000000
148.047330 9.000000
150.035130 25.000000
153.013030 6.000000
155.215190 6.000000
159.041980 7.000000
160.053250 9.000000
161.051880 8.000000
165.016600 60.000000
165.025450 44.000000
165.035420 6.000000
165.203580 5.000000
165.287520 6.000000
168.061490 7.000000
170.040890 7.000000
171.044830 6.000000
171.102570 7.000000
173.057370 18.000000
173.983230 5.000000
174.029100 7.000000
174.037610 7.000000
174.061690 10.000000
176.046400 13.000000
176.054460 10.000000
177.041180 5.000000
179.044450 14.000000
180.303960 7.000000
181.906810 7.000000
183.388640 6.000000
185.050020 9.000000
185.062260 36.000000
187.006150 16.000000
187.033170 8.000000
187.040990 10.000000
187.882260 9.000000
188.048540 19.000000
189.039580 6.000000
189.052440 38.000000
200.957020 5.000000
201.017210 7.000000
201.053220 195.000000
201.063740 51.000000
201.252140 8.000000
202.013230 8.000000
202.047060 39.000000
202.063370 246.000000
203.031390 58.000000
203.050930 8.000000
203.060880 10.000000
204.021350 11.000000
204.043230 14.000000
205.047700 6.000000
211.527180 6.000000
212.045780 5.000000
212.056490 27.000000
213.025800 9.000000
213.044910 17.000000
213.059450 74.000000
213.142270 6.000000
214.051150 35.000000
215.034650 13.000000
216.017850 8.000000
216.048250 12.000000
229.023640 16.000000
229.052050 242.000000
229.066090 26.000000
230.035640 21.000000
230.054380 271.000000
230.081890 6.000000
230.811130 9.000000
230.952800 6.000000
231.045060 23.000000
231.060350 43.000000
231.072160 12.000000
232.067350 14.000000
240.037220 21.000000
241.044880 10.000000
241.058030 17.000000
243.008970 7.000000
243.034260 50.000000
244.017790 19.000000
244.039050 26.000000
245.012950 7.000000
256.997380 5.000000
257.020420 7.000000
257.036470 77.000000
257.048770 70.000000
257.066100 14.000000
257.095980 5.000000
257.827640 7.000000
258.016570 29.000000
258.030670 84.000000
258.049680 431.000000
258.059270 202.000000
258.804960 6.000000
258.854130 8.000000
259.048340 45.000000
259.058620 30.000000
259.344880 6.000000
260.053380 31.000000
268.016080 7.000000
268.030490 36.000000
268.042570 40.000000
269.033840 39.000000
269.045680 35.000000
269.061280 24.000000
270.042330 6.000000
271.019810 8.000000
271.357180 6.000000
272.899440 8.000000
284.991640 8.000000
285.033330 21.000000
285.049070 8.000000
285.982450 7.000000
286.000980 16.000000
286.015080 26.000000
286.045200 1000.000000
286.069270 35.000000
286.196440 13.000000
286.221010 10.000000
287.021760 8.000000
287.044490 128.000000
287.058040 44.000000
288.045500 11.000000
288.958920 8.000000
289.056000 6.000000
289.816250 6.000000
293.931490 9.000000
296.121370 22.000000
299.904140 8.000000
300.621400 6.000000
301.011780 12.000000
301.037810 12.000000
301.065430 176.000000
301.080440 116.000000
302.064850 34.000000
302.078860 11.000000
303.093230 9.000000
308.025420 7.000000
313.093870 6.000000

>ms2
201.051090 5.000000
202.057480 5.000000
230.051060 6.000000
258.044250 26.000000
258.059390 15.000000
258.074950 6.000000
286.048430 167.000000
287.032750 6.000000
287.049350 18.000000
301.041140 24.000000
301.070680 1000.000000
302.073580 155.000000
303.076840 40.000000
463.123750 354.000000

>ms2
301.067990 189.000000
301.082240 42.000000
302.068390 43.000000
302.080410 13.000000
303.082400 6.000000
463.038600 5.000000
463.068820 7.000000
463.121800 1000.000000

>ms2
286.045140 95.000000
287.051030 13.000000
301.013240 10.000000
301.027950 10.000000
301.070400 1000.000000
302.048490 9.000000
302.074580 187.000000
303.077940 32.000000

>ms2
69.034610 7.000000
97.030620 7.000000
109.028300 20.000000
110.275440 6.000000
115.055360 9.000000
128.042680 7.000000
128.068300 11.000000
132.051450 9.000000
133.030620 10.000000
138.028950 7.000000
145.066350 9.000000
146.034210 9.000000
146.070360 9.000000
147.028370 11.000000
147.040190 11.000000
148.044160 12.000000
148.056320 23.000000
149.052080 8.000000
150.032030 28.000000
152.006210 12.000000
155.052030 9.000000
156.038910 11.000000
156.064010 15.000000
157.042400 9.000000
157.051300 9.000000
157.070860 8.000000
158.074920 6.000000
161.937240 9.000000
162.024690 13.000000
163.038830 25.000000
165.007390 9.000000
165.018710 6.000000
165.644270 6.000000
166.019030 9.000000
173.016100 14.000000
173.057040 13.000000
174.003890 6.000000
174.031370 41.000000
174.041150 9.000000
174.065630 12.000000
175.028580 7.000000
176.041440 13.000000
183.039080 7.000000
183.057280 10.000000
184.056640 7.000000
185.045150 22.000000
185.059280 17.000000
185.073170 9.000000
187.038650 41.000000
187.066990 10.000000
188.047470 8.000000
189.043700 11.000000
189.063630 10.000000
197.067790 7.000000
199.056400 7.000000
201.021040 10.000000
201.037140 9.000000
201.053450 359.000000
202.022090 23.000000
202.054050 114.000000
202.067090 187.000000
202.990280 7.000000
203.043900 35.000000
203.070400 6.000000
203.082210 7.000000
204.049930 27.000000
205.042280 8.000000
212.039020 35.000000
212.054400 23.000000
213.037570 18.000000
213.051880 90.000000
213.063690 60.000000
214.052890 8.000000
216.027920 24.000000
216.038160 29.000000
217.053510 25.000000
227.036880 7.000000
227.863190 6.000000
228.050900 7.000000
229.039310 33.000000
229.052020 165.000000
229.066650 28.000000
229.974530 8.000000
230.046400 79.000000
230.059430 275.000000
231.044860 22.000000
231.058090 36.000000
231.068300 30.000000
232.068040 18.000000
232.187210 6.000000
241.053590 7.000000
242.055150 15.000000
243.019390 59.000000
255.064330 8.000000
256.061310 9.000000
256.983060 8.000000
256.999390 6.000000
257.021670 9.000000
257.035640 27.000000
257.047030 139.000000
258.014340 7.000000
258.036040 75.000000
258.051700 410.000000
258.061070 205.000000
259.051940 61.000000
259.064790 19.000000
260.058930 41.000000
267.968750 7.000000
268.030270 26.000000
268.037810 55.000000
268.059540 15.000000
268.289550 8.000000
269.039090 20.000000
269.054500 14.000000
275.461210 13.000000
285.032680 6.000000
285.046390 29.000000
285.872040 7.000000
285.986940 24.000000
286.005460 21.000000
286.047060 1000.000000
286.659480 7.000000
286.815800 10.000000
287.032350 50.000000
287.049500 93.000000
287.110350 11.000000
288.054080 7.000000
288.067810 20.000000
296.879090 7.000000
300.613920 7.000000
301.033600 7.000000
301.070310 342.000000
302.058930 28.000000
302.087830 27.000000
303.094180 12.000000
310.290770 7.000000
394.044680 10.000000

