>compound PR66738199
>parentmass 459.09218806153837
>ionization [M+H]+
>formula C22H18O11
>rt 207.821538
>profile qtof
#smiles_iso C1[C@H]([C@H](OC2=CC(=CC(=C21)O)O)C3=CC(=C(C(=C3)O)O)O)OC(=O)C4=CC(=C(C(=C4)O)O)O
#smiles_can C1C(C(OC2=CC(=CC(=C21)O)O)C3=CC(=C(C(=C3)O)O)O)OC(=O)C4=CC(=C(C(=C4)O)O)O
#inchikey WMBWREPUVVBILR-WIYYLYMNSA-N
#pubchem_id 65064
#mb_accession PR302550,PR302556,PR302562,PR302568,PR302574,PR302580,PR302586,PR302592,PR302598,PR302604,PR302610,PR302616,PR310494

>ms2peaks
111.019780 23.000000
122.034790 24.000000
123.049270 67.000000
139.010620 19.000000
139.038730 1000.000000
140.040920 58.000000
140.047200 90.000000
140.054890 46.000000
141.046010 19.000000
151.018420 24.000000
151.038850 143.000000
153.006640 38.000000
153.015490 136.000000
163.006010 36.000000
163.021640 20.000000
163.039250 29.000000
181.034440 20.000000
197.052510 28.000000
259.066530 18.000000
275.065340 21.000000
289.048950 54.000000
289.068270 266.000000
289.081970 64.000000
290.060880 26.000000
290.072910 40.000000
307.093540 31.000000
459.085420 101.000000
459.101810 137.000000

>ms2peaks
139.037250 972.000000
140.592350 25.000000
141.048690 39.000000
151.041460 207.000000
152.040650 43.000000
153.016590 69.000000
154.018830 35.000000
271.055080 45.000000
289.039370 31.000000
289.068420 567.000000
290.071990 109.000000
290.083950 50.000000
291.047670 29.000000
291.062410 28.000000
307.069610 45.000000
307.089390 24.000000
308.083500 24.000000
315.052280 28.000000
334.065920 60.000000
421.011720 34.000000
459.083040 1000.000000
459.108980 125.000000

>ms2peaks
121.025550 36.000000
139.039430 1000.000000
140.043230 41.000000
141.044920 31.000000
151.028310 28.000000
151.038680 116.000000
152.899930 21.000000
153.008880 21.000000
153.018810 35.000000
154.020630 19.000000
163.039030 54.000000
178.053410 33.000000
179.070940 26.000000
181.046860 45.000000
205.053910 25.000000
247.059890 56.000000
289.061520 20.000000

>ms2peaks
69.037380 53.000000
77.038380 33.000000
93.034700 49.000000
121.015940 44.000000
125.018440 37.000000
125.024700 104.000000
133.030980 49.000000
139.038960 1000.000000
140.024120 40.000000
140.043180 58.000000
153.011080 48.000000
153.021300 40.000000
154.026750 81.000000
164.037600 65.000000
171.040600 58.000000
177.056880 81.000000
192.064300 39.000000

>ms2peaks
121.026510 26.000000
137.058670 65.000000
138.740940 22.000000
139.026170 69.000000
139.038190 1000.000000
139.676510 32.000000
140.040650 22.000000
151.038100 247.000000
153.009290 26.000000
153.016940 81.000000
179.069460 50.000000
195.059780 33.000000
205.048000 30.000000
275.050420 36.000000
289.061460 167.000000
289.075740 165.000000
333.065400 37.000000
459.080230 56.000000
459.098480 53.000000

>ms2peaks
139.029220 102.000000
139.038130 525.000000
142.853740 28.000000
151.041090 123.000000
152.046100 42.000000
289.026180 30.000000
289.069240 1000.000000
290.056610 35.000000
290.072480 59.000000
291.089290 35.000000
301.075260 38.000000
307.075780 28.000000
308.073430 31.000000
456.813170 24.000000
459.071870 137.000000
459.099950 602.000000

>ms2peaks
65.039050 37.000000
95.050640 25.000000
111.042570 51.000000
139.038510 1000.000000
140.041810 98.000000
140.959300 39.000000
151.037700 51.000000
151.044620 96.000000
151.072860 25.000000
152.042080 37.000000
153.013380 123.000000
153.022260 266.000000
163.019620 24.000000
163.033660 55.000000
164.039660 44.000000
181.049760 44.000000
204.933990 36.000000
205.046830 31.000000

>ms2peaks
65.037100 72.000000
69.033110 162.000000
123.044320 153.000000
125.022370 119.000000
125.030430 157.000000
135.037950 170.000000
139.035570 1000.000000
139.051130 200.000000
140.039080 149.000000
151.033420 111.000000
151.045170 260.000000
153.016630 119.000000
154.024510 187.000000

>ms2peaks
122.998620 44.000000
123.039790 20.000000
139.019290 40.000000
139.039150 1000.000000
140.040420 34.000000
149.059460 32.000000
151.034300 33.000000
151.042600 77.000000
153.014720 41.000000
153.029110 73.000000
154.022630 26.000000
163.034090 25.000000
163.040920 38.000000
177.053340 18.000000
179.076160 27.000000
205.036440 17.000000
243.061280 28.000000
247.055080 22.000000
271.060910 47.000000
271.073460 33.000000
289.053100 17.000000
289.067290 100.000000
289.080930 22.000000
289.098660 25.000000
291.048830 39.000000
307.048860 72.000000
307.082610 77.000000
308.080470 47.000000
459.087340 53.000000

>ms2peaks
139.038930 391.000000
139.050580 28.000000
140.039060 33.000000
140.045170 60.000000
141.040070 39.000000
142.727430 24.000000
142.744540 24.000000
151.029560 42.000000
151.040800 120.000000
153.007490 26.000000
153.012830 61.000000
153.022080 136.000000
247.047960 39.000000
289.063780 341.000000
289.078030 583.000000
290.077610 176.000000
290.100430 28.000000
307.070280 30.000000
307.085820 89.000000
308.074650 42.000000
333.050630 33.000000
342.003750 25.000000
459.082610 386.000000
459.096410 1000.000000
459.131680 29.000000

>ms2peaks
139.022980 36.000000
139.040020 1000.000000
140.027400 36.000000
140.045210 25.000000
151.020800 28.000000
151.028290 34.000000
151.037670 107.000000
151.045650 26.000000
152.041000 29.000000
153.016190 64.000000
153.021420 55.000000
154.023130 42.000000
155.019900 48.000000
163.035690 26.000000
169.058690 22.000000
179.036530 30.000000
181.049320 95.000000
205.039510 22.000000
289.058320 26.000000

>ms2peaks
65.037150 101.000000
95.044650 48.000000
111.036570 88.000000
113.010220 38.000000
125.028550 38.000000
131.045410 73.000000
139.038790 1000.000000
140.039440 42.000000
140.057680 46.000000
151.050610 111.000000
153.004700 44.000000
153.015720 96.000000
159.038120 71.000000
163.044740 117.000000
205.057710 67.000000

>ms2peaks
111.019780 22.000000
122.034790 23.000000
123.049270 65.000000
139.010620 18.000000
139.038730 971.000000
140.040920 56.000000
140.047200 87.000000
140.054890 45.000000
141.046010 18.000000
151.018420 23.000000
151.038850 139.000000
153.006640 37.000000
153.015490 132.000000
163.006010 35.000000
163.021640 19.000000
163.039250 28.000000
181.034440 19.000000
197.052510 27.000000
259.066530 17.000000
275.065340 20.000000
289.048950 52.000000
289.068270 258.000000
289.081970 62.000000
290.060880 25.000000
290.072910 39.000000
307.093540 30.000000
459.085420 98.000000
459.101810 133.000000

