>compound PR66447889
>parentmass 595.1677
>ionization [M+H]+
>formula C27H30O15
>rt 240.000000
>profile qtof
#smiles_iso CC1C(C(C(C(O1)OCC2C(C(C(C(O2)OC3=C(OC4=CC(=CC(=C4C3=O)O)O)C5=CC=C(C=C5)O)O)O)O)O)O)O
#smiles_can CC1C(C(C(C(O1)OCC2C(C(C(C(O2)OC3=C(OC4=CC(=CC(=C4C3=O)O)O)C5=CC=C(C=C5)O)O)O)O)O)O)O
#inchikey RTATXGUCZHCSNG-UHFFFAOYSA-N
#pubchem_id 12313332
#mb_accession PR310917

>ms2
85.029750 40.000000
85.035030 34.000000
145.046680 20.000000
221.498210 23.000000
237.073010 17.000000
247.124040 20.000000
255.081310 27.000000
260.148900 29.000000
287.054870 1861.000000
288.050260 85.000000
288.067170 197.000000
288.328490 20.000000
289.052550 23.000000
289.067630 58.000000
426.124940 32.000000
433.107850 19.000000
449.111270 250.000000
450.112760 84.000000
451.101650 18.000000
595.100830 22.000000
595.156560 48.000000
595.179630 155.000000

