>compound PR66465435
>parentmass 355.1538
>ionization [M+H]+
>formula C21H22O5
>rt 449.400000
>profile qtof
#smiles_iso CC(=CCC1=C(C=CC(=C1OC)C=CC(=O)C2=CC(=C(C=C2)O)O)O)C
#smiles_can CC(=CCC1=C(C=CC(=C1OC)C=CC(=O)C2=CC(=C(C=C2)O)O)O)C
#inchikey RDYZHQQZLIBKBP-UHFFFAOYSA-N
#pubchem_id 66751828
#mb_accession PR310777

>ms2
69.071130 22.000000
104.104430 20.000000
106.432940 17.000000
109.026070 58.000000
121.028860 17.000000
123.045350 17.000000
131.041790 34.000000
131.053240 54.000000
131.081190 27.000000
133.029950 22.000000
134.044430 30.000000
135.040360 75.000000
136.044270 43.000000
136.053120 18.000000
137.000500 21.000000
137.023060 1117.000000
137.058720 18.000000
138.024980 80.000000
138.063630 17.000000
139.918120 18.000000
141.013890 20.000000
141.070770 25.000000
143.706150 18.000000
146.041640 42.000000
147.033710 17.000000
147.046540 31.000000
149.020550 24.000000
149.058870 31.000000
151.045640 17.000000
152.060760 22.000000
155.086870 21.000000
159.045500 17.000000
160.061370 19.000000
161.017180 20.000000
161.062300 19.000000
163.036030 95.000000
163.043950 133.000000
164.041920 20.000000
165.045680 20.000000
165.064620 18.000000
165.076510 69.000000
166.022480 20.000000
166.075760 43.000000
167.088180 50.000000
168.055510 21.000000
174.028550 17.000000
174.036180 26.000000
176.971040 18.000000
177.051270 22.000000
177.067600 73.000000
182.071370 57.000000
185.068480 20.000000
187.051150 20.000000
187.076770 24.000000
189.044540 18.000000
189.056370 23.000000
191.061580 21.000000
191.096410 25.000000
191.113620 55.000000
192.105790 46.000000
193.055940 37.000000
193.073330 57.000000
194.069210 17.000000
195.078990 89.000000
196.081410 17.000000
197.054900 46.000000
198.071080 56.000000
199.072970 19.000000
200.081830 25.000000
205.069890 18.000000
207.093660 49.000000
208.048980 45.000000
211.075010 39.000000
212.077160 40.000000
213.053410 26.000000
215.067610 17.000000
219.100070 71.000000
220.111300 20.000000
220.956040 20.000000
221.062900 41.000000
221.084210 17.000000
223.083720 18.000000
224.063660 17.000000
224.085210 25.000000
225.054090 186.000000
225.068150 17.000000
226.058210 42.000000
227.072340 71.000000
228.063250 22.000000
229.050290 20.000000
229.084060 20.000000
229.096370 22.000000
238.071560 20.000000
239.071670 235.000000
240.068820 52.000000
240.079610 24.000000
241.087590 49.000000
245.091810 28.000000
245.118380 25.000000
245.126540 17.000000
252.037660 18.000000
252.081910 20.000000
256.875180 18.000000
257.065340 53.000000
257.082060 337.000000
258.066280 23.000000
258.090060 18.000000
258.892120 20.000000
259.085780 53.000000
262.478970 18.000000
267.061710 36.000000
267.074520 177.000000
268.074860 273.000000
269.080630 3610.000000
269.343410 17.000000
270.059420 17.000000
270.082890 633.000000
271.083470 153.000000
271.095760 35.000000
271.180540 17.000000
283.057400 43.000000
283.071410 20.000000
283.109440 17.000000
284.067990 124.000000
285.073880 24.000000
287.086330 19.000000
294.101780 23.000000
296.676820 25.000000
299.091520 1422.000000
300.074860 52.000000
300.097380 209.000000
301.065090 20.000000
301.104550 24.000000
302.114170 27.000000
313.146300 249.000000
314.146940 81.000000
323.859380 21.000000
337.113920 17.000000
341.147090 18.000000
345.338590 20.000000
353.132320 37.000000
354.588320 18.000000
355.152370 2307.000000

