>compound PR66053995
>parentmass 289.1546690769231
>ionization [M+H]+
>formula C16H20N2O3
>rt 371.748942
>profile qtof
#smiles_iso CC(C)CC(C(=O)O)NC(=O)CC1=CNC2=CC=CC=C21
#smiles_can CC(C)CC(C(=O)O)NC(=O)CC1=CNC2=CC=CC=C21
#inchikey HCZNPUHZYPPINM-UHFFFAOYSA-N
#pubchem_id 3945661
#mb_accession PR304109,PR304111,PR304113,PR304115,PR304117,PR304119,PR304121,PR304123,PR304125,PR304127,PR304129,PR304131,PR310541

>ms2
86.085180 6.000000
86.095990 156.000000
103.055080 16.000000
128.047810 8.000000
130.064900 1000.000000
131.068820 127.000000
132.101360 249.000000
133.106890 22.000000
134.104750 7.000000
243.149690 265.000000
244.154210 49.000000
245.157930 6.000000
271.146150 52.000000
272.143770 8.000000
289.154540 401.000000

>ms2
86.096630 22.000000
130.064740 137.000000
131.069210 10.000000
132.101720 182.000000
133.105820 12.000000
243.149290 404.000000
244.151840 72.000000
245.157550 6.000000
271.145140 104.000000
272.148740 21.000000
289.155940 1000.000000
289.205440 11.000000

>ms2
86.096430 114.000000
87.099240 6.000000
130.064770 1000.000000
130.097340 5.000000
131.068280 97.000000

>ms2
77.039020 61.000000
86.095570 7.000000
102.049460 13.000000
103.053310 160.000000
104.057850 11.000000
128.048830 60.000000
130.045240 5.000000
130.065290 1000.000000
131.065980 89.000000
132.065670 6.000000
132.073750 9.000000

>ms2
86.096580 156.000000
87.096660 6.000000
103.052060 6.000000
130.064710 1000.000000
131.067490 80.000000
132.071170 10.000000
132.101580 288.000000
133.103440 14.000000
243.149290 287.000000
244.152770 46.000000
271.144650 39.000000
289.156250 420.000000

>ms2
86.096180 25.000000
130.065000 151.000000
131.069350 14.000000
132.101550 173.000000
133.105270 21.000000
243.149580 371.000000
244.152110 71.000000
245.155990 6.000000
271.144010 103.000000
272.147610 23.000000
289.155090 1000.000000
289.204590 13.000000

>ms2
86.096660 90.000000
87.099530 18.000000
103.050980 6.000000
130.064870 1000.000000
130.097000 6.000000
131.067760 127.000000
132.103640 7.000000

>ms2
77.037330 69.000000
77.043840 15.000000
78.041860 8.000000
86.094930 21.000000
102.041480 8.000000
102.047580 17.000000
103.052550 142.000000
103.058610 34.000000
104.056690 14.000000
128.040570 8.000000
128.049500 63.000000
130.064820 1000.000000
131.067610 115.000000
132.069270 13.000000
289.150970 11.000000
289.160030 12.000000

>ms2
86.096280 145.000000
103.053280 12.000000
130.064640 1000.000000
131.068360 112.000000
132.071470 11.000000
132.086910 7.000000
132.102050 277.000000
133.104510 20.000000
133.111920 6.000000
243.148910 308.000000
244.152400 58.000000
271.142790 44.000000
272.140200 9.000000
289.155880 480.000000

>ms2
86.095980 27.000000
130.064880 148.000000
131.067410 16.000000
132.101640 197.000000
133.105560 13.000000
243.149320 410.000000
244.151630 74.000000
245.156230 6.000000
271.144620 101.000000
272.148410 18.000000
289.155030 1000.000000
289.204100 13.000000

>ms2
86.097040 87.000000
87.099430 8.000000
103.054630 5.000000
130.065250 1000.000000
130.097380 9.000000
131.068390 112.000000
132.072850 7.000000
132.101900 8.000000

>ms2
76.991140 5.000000
77.030240 7.000000
77.039220 66.000000
86.096780 22.000000
102.047340 13.000000
102.052350 5.000000
103.054920 207.000000
104.054530 16.000000
128.040950 16.000000
128.050580 61.000000
129.048540 12.000000
130.064820 1000.000000
131.068050 114.000000
131.074980 25.000000
132.072780 11.000000
132.079350 7.000000

>ms2
86.085180 101.000000
86.095990 2579.000000
87.092340 44.000000
87.100480 52.000000
87.105720 55.000000
89.209560 17.000000
102.436330 31.000000
103.031190 23.000000
103.055080 271.000000
103.906000 18.000000
123.085890 24.000000
123.915270 20.000000
128.047810 131.000000
129.046940 31.000000
129.856610 23.000000
130.029750 36.000000
130.043210 56.000000
130.064900 16493.000000
130.096450 34.000000
130.225800 17.000000
131.014070 21.000000
131.068820 2099.000000
131.183940 20.000000
131.504060 17.000000
131.592540 21.000000
131.971530 17.000000
132.053680 17.000000
132.070620 56.000000
132.084400 24.000000
132.101360 4114.000000
132.559220 18.000000
132.911390 22.000000
132.956590 18.000000
133.106890 357.000000
134.104750 109.000000
136.232700 18.000000
144.015670 18.000000
146.581040 18.000000
156.315230 21.000000
158.060290 42.000000
162.049760 17.000000
162.056370 26.000000
169.739490 23.000000
171.067870 21.000000
173.076970 24.000000
174.080980 20.000000
176.468520 27.000000
179.974110 20.000000
187.088610 17.000000
188.091190 18.000000
189.912220 17.000000
191.633320 22.000000
194.821910 23.000000
200.222690 17.000000
211.046510 20.000000
214.137770 22.000000
216.088670 23.000000
226.123030 24.000000
232.093460 49.000000
242.796690 21.000000
243.149690 4373.000000
244.154210 805.000000
245.157930 99.000000
271.110840 20.000000
271.146150 862.000000
272.143770 132.000000
273.141330 17.000000
273.151610 23.000000
283.412750 26.000000
287.150910 27.000000
289.114810 43.000000
289.125120 33.000000
289.154540 6616.000000
289.200500 18.000000

