>compound PR67268444
>parentmass 355.20161920000004
>ionization [M+H]+
>formula C21H26N2O3
>rt 277.975980
>profile qtof
#smiles_iso C/C=C/1\CN([C@H]2C[C@@]3([C@@H]4C[C@H]1[C@@H]2CO4)C5=CC=CC=C5N(C3=O)OC)C
#smiles_can CC=C1CN(C2CC3(C4CC1C2CO4)C5=CC=CC=C5N(C3=O)OC)C
#inchikey SJKRPUOXUNOPOP-HEXYGZIHSA-N
#pubchem_id 6441960
#mb_accession PR300122,PR300127,PR300131,PR300136,PR300141,PR300146,PR300151,PR300156,PR300161,PR300166,PR300171,PR300176

>ms2
94.065400 7.000000
108.080120 15.000000
109.090610 5.000000
110.094310 6.000000
120.080320 16.000000
121.088740 14.000000
122.095950 57.000000
123.097630 9.000000
123.103010 19.000000
132.046160 7.000000
134.096270 20.000000
135.104390 6.000000
136.111240 58.000000
137.114380 10.000000
148.109510 8.000000
149.122160 5.000000
150.090710 17.000000
150.096880 6.000000
150.130400 7.000000
152.108540 10.000000
153.114900 6.000000
164.108250 10.000000
165.116940 5.000000
178.121550 45.000000
179.130680 22.000000
192.130660 5.000000
192.140870 17.000000
225.101460 7.000000
281.158360 8.000000
281.168520 16.000000
282.172970 5.000000
282.186710 6.000000
293.163820 13.000000
294.171330 8.000000
295.142640 7.000000
295.178890 9.000000
296.189640 56.000000
297.185640 8.000000
297.201260 6.000000
309.160370 366.000000
310.164280 76.000000
311.167420 13.000000
323.174530 23.000000
324.143710 8.000000
324.183110 364.000000
325.187710 85.000000
326.191830 19.000000
355.200930 1000.000000
355.255340 26.000000

>ms2
296.188510 6.000000
309.158810 10.000000
324.183070 64.000000
325.185360 19.000000
355.202150 1000.000000
355.256320 34.000000

>ms2
84.080030 6.000000
94.065680 7.000000
98.095140 5.000000
105.067570 6.000000
107.073200 5.000000
108.077690 18.000000
108.082960 27.000000
109.081460 6.000000
109.089730 11.000000
110.095880 33.000000
111.100870 6.000000
120.082210 30.000000
121.090680 51.000000
122.096280 172.000000
123.102090 65.000000
124.104190 8.000000
124.112260 5.000000
126.093120 5.000000
132.040590 8.000000
134.095430 54.000000
135.102260 18.000000
136.111300 172.000000
137.081390 5.000000
137.116040 23.000000
144.079070 6.000000
146.058780 9.000000
146.099810 9.000000
148.087810 19.000000
148.112720 24.000000
149.118620 8.000000
150.091020 46.000000
150.125370 26.000000
151.092670 8.000000
151.099700 8.000000
151.132540 11.000000
152.105730 43.000000
153.110750 8.000000
153.119250 7.000000
156.083660 5.000000
160.113400 6.000000
162.127810 29.000000
164.105930 48.000000
164.148500 9.000000
165.112430 7.000000
165.119610 8.000000
166.120610 11.000000
178.122620 146.000000
179.125080 32.000000
179.133130 23.000000
180.134890 9.000000
181.083570 6.000000
183.063550 8.000000
192.135760 45.000000
195.099000 6.000000
196.075550 7.000000
198.071960 6.000000
199.087450 8.000000
208.110670 6.000000
210.089400 10.000000
210.123700 5.000000
213.143450 6.000000
222.147870 6.000000
225.094650 7.000000
225.109130 9.000000
234.126020 5.000000
238.117750 6.000000
239.110600 8.000000
239.120450 7.000000
250.115100 9.000000
250.127440 6.000000
252.127690 11.000000
253.137970 9.000000
260.101350 8.000000
260.114900 5.000000
265.130070 7.000000
267.144740 6.000000
278.121670 5.000000
279.150180 16.000000
281.152190 21.000000
281.165220 41.000000
282.165280 7.000000
282.184660 19.000000
291.138520 6.000000
291.152280 6.000000
293.142330 9.000000
293.165370 50.000000
294.145870 6.000000
294.168760 15.000000
295.143220 18.000000
295.176060 17.000000
296.142300 8.000000
296.186490 66.000000
297.178920 5.000000
297.188570 10.000000
309.109530 9.000000
309.123990 11.000000
309.159480 1000.000000
309.211520 8.000000
310.134430 5.000000
310.162840 242.000000
311.152770 6.000000
311.166290 21.000000
323.164760 25.000000
323.179200 51.000000
324.182340 157.000000
325.184970 32.000000
325.196170 14.000000
326.181880 6.000000
355.188540 6.000000
355.203430 14.000000

>ms2
55.057350 9.000000
56.051900 10.000000
66.036450 5.000000
67.040570 8.000000
67.187100 8.000000
68.041840 6.000000
68.049190 21.000000
69.072790 9.000000
70.067210 50.000000
72.062440 7.000000
77.039390 35.000000
78.037160 6.000000
79.028900 6.000000
79.041180 6.000000
79.051570 40.000000
79.058410 16.000000
79.976850 6.000000
80.614170 6.000000
81.057310 6.000000
81.067940 21.000000
82.068380 48.000000
83.079090 8.000000
84.045660 8.000000
84.067670 6.000000
84.075840 8.000000
84.086790 13.000000
86.042560 8.000000
86.059520 17.000000
90.028470 6.000000
90.042240 8.000000
91.054600 89.000000
91.313380 7.000000
92.050880 22.000000
92.058140 7.000000
93.055570 78.000000
93.066440 23.000000
93.072210 35.000000
94.056060 18.000000
94.064390 117.000000
95.050380 9.000000
95.074320 19.000000
95.089930 10.000000
96.074340 20.000000
96.081570 72.000000
98.099110 19.000000
100.077520 13.000000
100.255800 5.000000
103.042940 12.000000
103.051280 34.000000
103.057140 7.000000
104.053860 12.000000
104.061030 9.000000
105.069990 118.000000
106.065240 58.000000
106.077890 5.000000
107.046810 6.000000
107.058970 6.000000
107.073850 251.000000
108.080900 533.000000
109.046680 5.000000
109.060630 26.000000
109.067900 10.000000
109.085610 62.000000
109.102430 6.000000
110.095130 95.000000
110.746730 5.000000
114.045410 7.000000
115.055600 49.000000
116.051240 17.000000
116.059550 12.000000
116.065370 6.000000
117.053050 16.000000
117.061820 25.000000
117.068020 32.000000
118.017970 6.000000
118.061880 27.000000
118.071110 16.000000
119.055760 9.000000
119.072960 44.000000
119.086830 53.000000
120.019580 6.000000
120.031910 9.000000
120.056080 11.000000
120.067230 8.000000
120.081280 767.000000
120.123380 13.000000
121.068980 15.000000
121.086910 288.000000
121.100590 20.000000
121.648860 7.000000
122.057170 14.000000
122.096540 1000.000000
123.075750 5.000000
123.100620 150.000000
124.102970 7.000000
124.112080 22.000000
126.089480 7.000000
127.052640 15.000000
128.011720 5.000000
128.048250 99.000000
128.058240 34.000000
128.064620 41.000000
129.051100 6.000000
129.066510 24.000000
129.072880 48.000000
130.063690 143.000000
131.057890 19.000000
131.074420 68.000000
132.033170 19.000000
132.043700 238.000000
132.078230 106.000000
133.049260 37.000000
133.068270 17.000000
133.086470 82.000000
133.230320 7.000000
134.052490 5.000000
134.060960 23.000000
134.096620 443.000000
135.064560 20.000000
135.069310 10.000000
135.094300 26.000000
135.102460 55.000000
135.114580 9.000000
135.355670 8.000000
136.077300 34.000000
136.111020 302.000000
137.082610 39.000000
137.115300 45.000000
138.085750 10.000000
138.115450 7.000000
138.129780 14.000000
139.045850 8.000000
139.055370 16.000000
140.055150 5.000000
141.055890 7.000000
142.061890 31.000000
142.072660 10.000000
143.086520 5.000000
144.054890 11.000000
144.080320 113.000000
145.020050 8.000000
145.044220 6.000000
145.069430 6.000000
145.082870 21.000000
145.087220 15.000000
146.023500 10.000000
146.060610 42.000000
146.081190 8.000000
146.096620 161.000000
147.071030 24.000000
147.087770 6.000000
147.095350 28.000000
147.104600 18.000000
148.061740 10.000000
148.107860 28.000000
148.115690 51.000000
148.965730 5.000000
149.097810 8.000000
149.110610 12.000000
149.124590 7.000000
149.183040 5.000000
150.045550 6.000000
150.084790 45.000000
150.092530 66.000000
150.130020 48.000000
151.045100 26.000000
151.095350 28.000000
152.071240 6.000000
152.085750 6.000000
152.104920 38.000000
152.138660 7.000000
153.068950 19.000000
153.078600 8.000000
153.103320 6.000000
154.060930 47.000000
154.072070 17.000000
156.042270 8.000000
156.085170 44.000000
157.079390 6.000000
158.052800 27.000000
158.062810 70.000000
158.097400 43.000000
159.087130 5.000000
159.103270 16.000000
159.110860 6.000000
159.184780 6.000000
160.082810 7.000000
160.106190 35.000000
160.114010 50.000000
161.071720 9.000000
161.117220 13.000000
162.097340 8.000000
162.130550 16.000000
162.797360 6.000000
163.096340 7.000000
163.101940 20.000000
164.097530 29.000000
164.106720 56.000000
165.045670 9.000000
165.056780 31.000000
165.069490 45.000000
165.109940 8.000000
166.063980 69.000000
166.083390 5.000000
166.117770 8.000000
167.065770 39.000000
167.073840 64.000000
167.085970 5.000000
168.066100 16.000000
168.078430 98.000000
169.046920 17.000000
169.085910 23.000000
169.274430 7.000000
169.808320 7.000000
170.035810 7.000000
170.060260 15.000000
170.097180 34.000000
172.075010 16.000000
173.120790 9.000000
174.028870 7.000000
176.106030 29.000000
177.052140 5.000000
177.072950 12.000000
177.107480 16.000000
178.062820 68.000000
178.070220 38.000000
178.107150 13.000000
178.119110 52.000000
178.129910 37.000000
179.067890 10.000000
179.079410 15.000000
179.088810 29.000000
179.141110 8.000000
180.077820 98.000000
180.115710 7.000000
180.140900 6.000000
181.071170 13.000000
181.080990 30.000000
181.090420 20.000000
182.059940 22.000000
182.076340 11.000000
182.091220 12.000000
182.100400 14.000000
183.061450 22.000000
183.070040 50.000000
183.100980 13.000000
183.108860 5.000000
184.078450 41.000000
184.111150 8.000000
185.082550 10.000000
186.051270 7.000000
186.128710 11.000000
187.084630 5.000000
188.110660 8.000000
189.147750 6.000000
190.049410 7.000000
190.065080 20.000000
190.121870 6.000000
191.067340 5.000000
191.089770 7.000000
192.078160 32.000000
192.088670 9.000000
192.134780 48.000000
192.145830 10.000000
192.596970 6.000000
193.077840 7.000000
193.087920 58.000000
194.091950 66.000000
194.939190 7.000000
195.062420 7.000000
195.099580 11.000000
196.058270 8.000000
196.074720 20.000000
196.109050 9.000000
197.074870 6.000000
197.092180 7.000000
197.106580 16.000000
197.119380 5.000000
198.073760 13.000000
198.085590 9.000000
198.093860 12.000000
199.084350 10.000000
201.067720 18.000000
201.076720 6.000000
202.083130 22.000000
202.498950 5.000000
203.077380 20.000000
203.096690 16.000000
204.084490 83.000000
205.076450 18.000000
205.100370 9.000000
205.932600 8.000000
206.058960 19.000000
206.086550 7.000000
206.097460 33.000000
207.062120 6.000000
207.088170 16.000000
207.106960 9.000000
208.074040 74.000000
208.090410 10.000000
208.099240 9.000000
208.111450 14.000000
209.081150 16.000000
209.108570 10.000000
209.123050 17.000000
210.074720 6.000000
210.091230 18.000000
210.124680 10.000000
210.132350 7.000000
211.087430 48.000000
212.108280 20.000000
214.068150 13.000000
214.393680 6.000000
215.062700 31.000000
215.078140 11.000000
215.126210 13.000000
216.077900 41.000000
216.090040 10.000000
217.059430 5.000000
217.083100 88.000000
217.095750 23.000000
218.089750 26.000000
218.099170 10.000000
219.059520 9.000000
219.090270 7.000000
219.103580 33.000000
220.069020 15.000000
220.083160 10.000000
220.103840 21.000000
220.117860 10.000000
221.128570 8.000000
222.078260 24.000000
222.097670 43.000000
222.128940 16.000000
223.089860 6.000000
223.109390 6.000000
223.122630 37.000000
224.080490 18.000000
224.101620 18.000000
224.137420 8.000000
225.092670 6.000000
225.102230 10.000000
225.143570 5.000000
227.070370 64.000000
227.097310 5.000000
227.134400 8.000000
228.085130 31.000000
229.073790 12.000000
229.097990 16.000000
230.077320 6.000000
230.094360 36.000000
230.101990 29.000000
231.105120 27.000000
232.062030 8.000000
232.073390 12.000000
232.107860 18.000000
233.080260 25.000000
234.085800 53.000000
234.095860 12.000000
234.113370 7.000000
234.127120 28.000000
235.100200 17.000000
235.123870 31.000000
236.102710 10.000000
236.112840 9.000000
239.117130 34.000000
240.088790 26.000000
241.088560 27.000000
242.082780 8.000000
242.094960 38.000000
244.118480 10.000000
246.067470 16.000000
246.081650 5.000000
246.095840 17.000000
246.120330 6.000000
246.178090 6.000000
247.092480 37.000000
247.106580 5.000000
247.124340 17.000000
248.070140 6.000000
248.111190 10.000000
248.126690 6.000000
249.088990 6.000000
249.102830 10.000000
250.132060 5.000000
250.543620 6.000000
251.102650 7.000000
251.117940 14.000000
252.161970 5.000000
253.135680 9.000000
256.103670 6.000000
256.115260 12.000000
257.405670 5.000000
259.101260 7.000000
259.118010 9.000000
260.117460 5.000000
262.119810 9.000000
263.121090 22.000000
264.155880 7.000000
265.143250 5.000000
265.160550 6.000000
266.154630 12.000000
275.116670 6.000000
275.159970 9.000000
276.131470 6.000000
277.116460 14.000000
277.136870 20.000000
277.175140 7.000000
278.134430 7.000000
279.142060 23.000000
279.156520 13.000000
280.146880 8.000000
280.528660 6.000000
281.162600 11.000000
293.161620 10.000000
294.138490 7.000000
294.722690 6.000000
295.142520 7.000000
296.199860 5.000000
301.420650 5.000000
308.832860 6.000000
309.087070 11.000000
309.163880 200.000000
310.147670 14.000000
310.158810 30.000000
310.170170 38.000000
311.170260 5.000000
323.171910 13.000000
324.189360 19.000000
337.188510 7.000000
355.200200 35.000000

>ms2
108.080900 17.000000
110.096290 11.000000
120.078100 9.000000
120.086740 6.000000
121.089850 19.000000
122.095380 55.000000
123.100210 9.000000
123.106290 9.000000
134.091860 11.000000
134.098590 13.000000
135.104890 6.000000
136.110600 70.000000
137.114490 8.000000
148.110700 6.000000
150.090530 19.000000
151.092510 5.000000
152.107130 16.000000
164.101650 7.000000
165.112290 7.000000
178.123410 51.000000
179.121030 8.000000
179.130220 14.000000
192.132900 7.000000
192.141310 9.000000
225.109620 7.000000
260.107600 5.000000
281.161190 12.000000
281.171480 7.000000
282.189850 7.000000
293.163570 20.000000
294.168400 7.000000
295.147580 7.000000
295.178250 8.000000
296.187960 41.000000
297.194610 13.000000
309.159730 382.000000
310.161560 80.000000
311.166930 7.000000
323.177580 34.000000
324.183200 402.000000
325.186190 109.000000
326.187900 11.000000
355.138920 5.000000
355.202550 1000.000000
355.258390 25.000000

>ms2
309.157810 9.000000
324.184050 74.000000
325.185670 14.000000
355.202150 1000.000000
355.257170 32.000000

>ms2
94.065940 8.000000
96.080670 9.000000
98.095030 7.000000
107.073140 8.000000
108.080350 32.000000
109.089260 8.000000
110.091540 7.000000
110.097820 34.000000
111.100640 6.000000
119.083600 14.000000
120.081180 32.000000
121.088020 63.000000
122.096260 185.000000
123.090190 6.000000
123.103050 68.000000
124.112110 11.000000
130.066450 6.000000
131.087450 5.000000
132.043030 11.000000
134.096250 53.000000
135.103840 20.000000
136.075390 8.000000
136.111800 179.000000
137.116910 29.000000
144.085450 6.000000
148.083720 6.000000
148.092440 6.000000
148.109270 10.000000
148.117810 8.000000
149.114750 8.000000
150.090440 54.000000
150.126270 29.000000
151.096420 15.000000
151.136550 17.000000
152.101410 12.000000
152.110990 22.000000
153.112200 13.000000
156.078000 5.000000
162.126480 20.000000
164.106740 32.000000
164.144180 18.000000
165.113130 9.000000
177.115780 6.000000
178.123350 129.000000
179.129590 44.000000
180.132460 5.000000
192.139540 54.000000
193.149140 5.000000
199.087300 7.000000
208.078860 8.000000
208.111530 8.000000
211.094390 8.000000
213.099790 5.000000
222.092320 7.000000
222.129360 8.000000
225.102360 27.000000
234.098240 5.000000
237.099580 6.000000
239.117310 14.000000
241.135680 7.000000
248.109070 12.000000
252.130540 10.000000
252.146480 8.000000
253.136310 11.000000
260.107450 14.000000
262.122190 11.000000
264.136110 6.000000
265.141660 10.000000
267.147950 8.000000
279.148380 13.000000
281.165920 57.000000
282.157750 6.000000
282.168670 11.000000
282.183350 16.000000
283.192170 6.000000
291.148710 7.000000
293.137880 8.000000
293.158630 18.000000
293.169560 30.000000
294.173190 21.000000
295.145170 27.000000
295.168240 9.000000
295.187260 10.000000
296.178010 18.000000
296.192810 45.000000
297.188720 10.000000
307.174770 5.000000
309.120570 9.000000
309.160640 1000.000000
309.211430 9.000000
310.125090 8.000000
310.163700 221.000000
311.165770 31.000000
323.177700 74.000000
324.185090 161.000000
325.190160 44.000000
355.200780 19.000000

>ms2
55.051890 6.000000
67.055980 11.000000
68.051790 19.000000
69.034970 8.000000
70.058560 7.000000
70.065550 17.000000
77.036570 14.000000
77.042420 11.000000
78.001030 7.000000
79.052220 47.000000
79.058060 20.000000
81.061210 12.000000
81.069310 37.000000
81.074580 13.000000
82.052550 6.000000
82.065610 52.000000
83.073300 7.000000
84.046780 6.000000
84.078090 37.000000
84.087570 8.000000
85.089020 7.000000
86.055760 8.000000
89.033040 6.000000
91.042250 7.000000
91.053580 85.000000
92.036530 7.000000
92.054440 9.000000
92.061420 12.000000
93.055030 43.000000
93.062050 28.000000
93.069240 32.000000
94.048810 6.000000
94.064760 154.000000
95.047250 16.000000
95.073400 62.000000
95.081380 8.000000
95.091780 6.000000
96.055650 6.000000
96.076550 31.000000
96.082760 27.000000
97.054940 8.000000
98.060290 15.000000
98.092040 11.000000
102.037670 5.000000
103.053730 16.000000
104.045570 28.000000
104.052500 15.000000
104.687550 5.000000
105.070870 112.000000
105.079770 13.000000
106.053910 6.000000
106.058910 14.000000
106.067730 30.000000
107.031750 8.000000
107.052900 14.000000
107.072390 193.000000
107.089180 11.000000
108.064120 28.000000
108.079350 571.000000
108.397570 5.000000
109.066800 27.000000
109.083310 79.000000
109.099330 8.000000
109.999920 10.000000
110.057180 20.000000
110.082410 18.000000
110.094050 57.000000
110.104420 13.000000
111.093910 9.000000
112.078220 9.000000
115.046370 18.000000
115.060450 9.000000
116.049190 12.000000
116.061890 9.000000
117.051670 7.000000
117.062860 22.000000
117.071180 38.000000
118.061740 30.000000
118.069780 20.000000
118.080370 11.000000
119.071960 15.000000
119.083480 70.000000
120.079250 589.000000
120.160030 6.000000
121.087550 278.000000
122.065400 11.000000
122.078910 15.000000
122.095810 1000.000000
123.096600 35.000000
123.105040 36.000000
123.114380 5.000000
124.112180 7.000000
125.079250 6.000000
127.059180 9.000000
128.041150 13.000000
128.052120 48.000000
128.063610 5.000000
128.654390 5.000000
129.064560 35.000000
129.072780 45.000000
129.078430 15.000000
130.057920 53.000000
130.067540 104.000000
131.040190 6.000000
131.070300 29.000000
131.082200 7.000000
132.044010 283.000000
132.080150 112.000000
133.040510 6.000000
133.050130 23.000000
133.060610 10.000000
133.067630 15.000000
133.086700 81.000000
133.114720 7.000000
134.046650 9.000000
134.083330 13.000000
134.095570 342.000000
135.062450 7.000000
135.077440 9.000000
135.093700 42.000000
135.104100 80.000000
135.755220 7.000000
136.069500 9.000000
136.081830 14.000000
136.110500 328.000000
137.082320 37.000000
137.113650 15.000000
138.127810 5.000000
139.053250 6.000000
140.106060 14.000000
141.062910 5.000000
141.074360 12.000000
142.049610 5.000000
142.063670 22.000000
142.073470 8.000000
143.064800 11.000000
143.076460 20.000000
143.085130 11.000000
144.060680 14.000000
144.078190 72.000000
145.020280 7.000000
145.056460 11.000000
145.084080 7.000000
145.095930 13.000000
146.019090 20.000000
146.027850 18.000000
146.047730 8.000000
146.058040 30.000000
146.064590 11.000000
146.094270 188.000000
146.111560 6.000000
147.053100 6.000000
147.063060 13.000000
147.072600 6.000000
147.090420 8.000000
147.104900 52.000000
148.027510 7.000000
148.077210 15.000000
148.091750 6.000000
148.112290 71.000000
149.110500 7.000000
149.123060 9.000000
150.075380 6.000000
150.083020 29.000000
150.093110 73.000000
150.114590 15.000000
150.126680 85.000000
151.048130 11.000000
151.057650 16.000000
151.065090 6.000000
151.093900 34.000000
151.110370 7.000000
151.125550 8.000000
152.037980 11.000000
152.055820 5.000000
152.069870 12.000000
152.104630 32.000000
152.112960 22.000000
152.128860 6.000000
153.063600 5.000000
154.059950 9.000000
154.071720 13.000000
156.041660 14.000000
156.077180 73.000000
157.055420 7.000000
157.079570 5.000000
157.087170 7.000000
158.037430 6.000000
158.052320 26.000000
158.063020 71.000000
158.076250 24.000000
158.094070 57.000000
159.061450 6.000000
159.069720 6.000000
159.098940 9.000000
160.073590 12.000000
160.108280 37.000000
161.069900 6.000000
161.110900 7.000000
161.123830 8.000000
162.055210 5.000000
162.083150 8.000000
162.094270 25.000000
162.124600 39.000000
162.130280 16.000000
163.097490 9.000000
163.129910 13.000000
164.092530 6.000000
164.107010 77.000000
165.064380 33.000000
165.080020 28.000000
165.107160 13.000000
166.060700 47.000000
166.068950 54.000000
167.058110 8.000000
167.070130 45.000000
167.075990 21.000000
167.087450 16.000000
168.069950 15.000000
168.076710 21.000000
168.083650 25.000000
168.091020 10.000000
169.068310 8.000000
169.090500 20.000000
170.063220 16.000000
170.073700 5.000000
170.090070 9.000000
170.100850 23.000000
171.062040 11.000000
171.109820 8.000000
171.898470 6.000000
172.075670 13.000000
173.081340 6.000000
174.058960 7.000000
174.095950 8.000000
175.370220 8.000000
176.057790 8.000000
176.102290 35.000000
178.060440 21.000000
178.067230 47.000000
178.112840 42.000000
178.121720 83.000000
179.063480 30.000000
179.108600 6.000000
179.123900 7.000000
180.055330 12.000000
180.074190 88.000000
181.057690 10.000000
181.073640 8.000000
181.086520 13.000000
181.106800 7.000000
182.053830 6.000000
182.076350 5.000000
182.089550 9.000000
182.101620 28.000000
183.059310 12.000000
183.069890 42.000000
184.046710 6.000000
184.071440 17.000000
184.079880 31.000000
184.096880 9.000000
189.068150 10.000000
190.060840 15.000000
190.073960 15.000000
190.126750 6.000000
191.063550 11.000000
191.071960 19.000000
191.082170 22.000000
192.075330 16.000000
192.140260 24.000000
193.068860 6.000000
193.091220 52.000000
193.889850 6.000000
194.070100 5.000000
194.079620 20.000000
194.097890 70.000000
195.092270 28.000000
196.082240 21.000000
196.106200 12.000000
197.072370 16.000000
197.087160 8.000000
197.105730 12.000000
198.067520 9.000000
198.087480 9.000000
198.100860 9.000000
199.086840 13.000000
201.028750 5.000000
201.059560 7.000000
201.070190 18.000000
202.084820 13.000000
203.072170 21.000000
203.088970 6.000000
204.070590 45.000000
204.084200 33.000000
205.070690 13.000000
205.083710 13.000000
205.098250 5.000000
206.052150 6.000000
206.073320 12.000000
206.083010 25.000000
206.098590 15.000000
207.091960 13.000000
207.100850 17.000000
207.110890 14.000000
208.077150 41.000000
208.106690 17.000000
209.070770 9.000000
209.111660 10.000000
209.231600 6.000000
210.066210 8.000000
210.083630 9.000000
211.090480 11.000000
212.065520 5.000000
212.075470 12.000000
213.692700 9.000000
214.062270 11.000000
215.046650 8.000000
215.077190 23.000000
215.086960 11.000000
215.900600 7.000000
216.075060 13.000000
216.083720 26.000000
216.090640 8.000000
217.085010 64.000000
218.079150 8.000000
218.091810 28.000000
218.108660 5.000000
218.119050 6.000000
219.095150 7.000000
219.113490 8.000000
220.072560 9.000000
220.082460 8.000000
220.106930 15.000000
220.121630 9.000000
221.080510 13.000000
221.100720 5.000000
221.117900 5.000000
222.093190 16.000000
222.112410 9.000000
222.124450 13.000000
223.081710 19.000000
223.100270 7.000000
223.124710 16.000000
224.119400 6.000000
224.140120 18.000000
225.094120 10.000000
225.107540 18.000000
226.059650 10.000000
227.068450 31.000000
228.072860 46.000000
228.096070 7.000000
229.074130 10.000000
229.085370 17.000000
230.073290 14.000000
230.085850 20.000000
230.099780 41.000000
231.096680 10.000000
232.061020 9.000000
232.072880 12.000000
233.068800 18.000000
233.082600 30.000000
234.081040 11.000000
234.090260 15.000000
234.104570 12.000000
234.120210 11.000000
235.094220 7.000000
236.102360 12.000000
236.141940 7.000000
237.139250 10.000000
238.094860 9.000000
238.132200 10.000000
239.104220 7.000000
239.134200 20.000000
239.224010 8.000000
241.071530 13.000000
241.080170 26.000000
241.094300 18.000000
242.095150 37.000000
243.097720 6.000000
244.119110 8.000000
245.090590 13.000000
245.712340 5.000000
246.084410 5.000000
246.097790 18.000000
247.107320 15.000000
248.072980 7.000000
248.103810 15.000000
248.128980 5.000000
248.874740 6.000000
249.090590 19.000000
249.112460 12.000000
249.127260 5.000000
250.122910 6.000000
250.146640 6.000000
251.100750 6.000000
251.116460 18.000000
251.132160 7.000000
251.148120 6.000000
252.126450 7.000000
255.109500 6.000000
256.095790 8.000000
258.096920 8.000000
259.115140 7.000000
260.091740 7.000000
260.125890 6.000000
261.094330 14.000000
263.116580 8.000000
265.136380 8.000000
275.097140 5.000000
278.119930 9.000000
279.141390 12.000000
279.161130 9.000000
282.180330 13.000000
282.194370 9.000000
283.164250 7.000000
287.120120 8.000000
294.151090 6.000000
294.181400 6.000000
309.145320 77.000000
309.161500 79.000000
309.185000 9.000000
310.157290 11.000000
310.176760 33.000000
323.170960 12.000000
323.179110 7.000000

>ms2
108.080900 11.000000
110.097190 8.000000
119.087660 6.000000
120.077640 7.000000
120.083710 6.000000
121.088390 19.000000
122.096130 64.000000
123.102990 16.000000
132.044170 6.000000
134.095540 18.000000
135.100370 9.000000
136.111940 57.000000
137.117970 7.000000
150.090520 23.000000
150.130650 8.000000
151.134350 6.000000
152.105910 13.000000
158.060930 5.000000
162.127500 7.000000
164.104400 8.000000
165.113780 6.000000
178.122220 54.000000
179.129550 21.000000
192.136200 16.000000
199.088650 5.000000
225.102370 8.000000
239.120030 7.000000
279.153200 5.000000
281.165010 12.000000
282.178620 8.000000
293.163940 9.000000
295.148830 6.000000
295.171690 5.000000
296.187190 55.000000
297.194150 11.000000
309.159520 377.000000
310.163820 86.000000
311.166930 13.000000
323.172760 28.000000
324.183650 370.000000
324.235020 6.000000
325.187530 98.000000
326.192410 17.000000
355.142270 8.000000
355.201810 1000.000000
355.255650 31.000000

>ms2
309.161190 10.000000
324.183870 74.000000
325.187810 20.000000
355.141540 9.000000
355.203000 1000.000000
355.257690 34.000000
355.307890 6.000000

>ms2
82.066310 6.000000
94.065580 9.000000
96.080190 7.000000
98.096950 5.000000
105.071090 10.000000
107.074810 5.000000
108.080020 43.000000
109.086170 9.000000
110.095030 22.000000
119.081150 7.000000
119.089730 6.000000
120.079610 27.000000
120.088020 8.000000
121.088300 49.000000
122.095910 170.000000
123.103350 65.000000
124.108840 16.000000
130.066500 8.000000
132.044800 11.000000
132.079390 5.000000
134.095660 50.000000
135.102540 27.000000
136.077000 10.000000
136.111020 136.000000
137.114270 27.000000
138.124270 8.000000
140.105270 6.000000
144.079670 7.000000
146.057980 6.000000
148.086670 14.000000
148.111970 21.000000
149.118420 10.000000
150.090270 53.000000
150.126510 21.000000
151.097610 17.000000
151.132640 12.000000
152.105700 48.000000
153.110210 11.000000
156.080120 6.000000
158.059910 8.000000
162.127000 20.000000
163.130480 6.000000
164.107680 36.000000
164.141080 9.000000
165.108780 9.000000
165.115950 11.000000
178.122410 124.000000
179.127370 55.000000
180.130800 6.000000
192.138440 47.000000
193.139010 11.000000
194.094790 5.000000
196.075840 11.000000
198.077710 9.000000
208.077470 5.000000
211.087360 7.000000
211.126890 5.000000
213.140760 6.000000
220.115160 5.000000
222.092900 6.000000
225.101560 28.000000
226.102620 7.000000
234.088710 8.000000
239.118740 14.000000
248.104600 6.000000
250.114840 6.000000
251.125370 5.000000
252.132310 5.000000
252.142750 7.000000
253.135120 9.000000
260.105010 9.000000
262.127780 6.000000
265.132140 9.000000
266.176790 5.000000
279.150020 16.000000
281.162600 54.000000
282.157070 5.000000
282.172910 22.000000
282.190520 8.000000
283.187770 6.000000
293.144990 11.000000
293.163060 51.000000
294.173100 10.000000
295.143250 13.000000
295.170070 9.000000
295.178620 19.000000
295.191440 9.000000
296.148800 9.000000
296.187190 49.000000
296.197240 17.000000
297.187040 8.000000
309.115140 9.000000
309.159270 1000.000000
309.210020 10.000000
310.163330 227.000000
311.164790 32.000000
323.177120 66.000000
324.181760 139.000000
325.177430 18.000000
325.189880 18.000000
325.199130 8.000000
355.207550 14.000000

>ms2
57.053870 6.000000
66.044880 5.000000
67.045750 8.000000
70.064780 20.000000
72.076640 8.000000
72.081760 6.000000
77.031590 7.000000
77.039250 21.000000
78.037220 7.000000
79.054530 37.000000
80.047070 17.000000
80.060020 11.000000
80.065480 5.000000
81.036130 10.000000
81.048190 6.000000
81.069450 41.000000
82.063610 55.000000
82.071880 13.000000
84.083340 18.000000
85.085050 7.000000
89.030700 6.000000
91.040660 8.000000
91.054210 80.000000
92.053530 15.000000
93.051450 7.000000
93.058220 29.000000
93.063370 43.000000
93.067320 25.000000
93.073760 25.000000
94.042730 7.000000
94.051960 11.000000
94.065540 136.000000
95.068270 20.000000
95.074350 22.000000
95.086700 15.000000
96.075580 20.000000
96.081060 34.000000
98.060860 10.000000
98.096890 10.000000
103.055800 28.000000
104.044330 9.000000
104.050200 20.000000
105.031070 8.000000
105.069710 143.000000
106.062310 34.000000
106.070760 17.000000
106.076120 17.000000
107.054890 9.000000
107.067130 96.000000
107.072790 214.000000
108.047010 8.000000
108.062760 7.000000
108.080250 472.000000
108.094140 5.000000
108.951450 6.000000
109.065790 28.000000
109.081630 24.000000
109.087330 49.000000
109.102170 7.000000
110.059520 7.000000
110.084530 6.000000
110.091540 24.000000
110.097560 47.000000
111.102270 5.000000
112.074950 7.000000
112.113200 10.000000
113.119060 7.000000
114.048610 6.000000
115.046290 9.000000
115.054080 36.000000
115.059880 14.000000
116.052070 6.000000
116.063740 12.000000
117.034400 6.000000
117.069370 64.000000
118.065570 59.000000
118.079070 13.000000
119.067990 8.000000
119.084480 62.000000
120.062580 7.000000
120.080540 665.000000
121.068820 8.000000
121.087950 324.000000
122.069150 11.000000
122.078670 18.000000
122.096410 1000.000000
123.069240 5.000000
123.087350 13.000000
123.094220 30.000000
123.101810 111.000000
123.112040 9.000000
124.074980 9.000000
124.115620 9.000000
126.427260 5.000000
127.054030 14.000000
128.047450 16.000000
128.054350 63.000000
128.068660 11.000000
129.057130 19.000000
129.069240 53.000000
130.064800 114.000000
131.071720 45.000000
131.086460 25.000000
131.770080 9.000000
131.990920 5.000000
132.024480 11.000000
132.043960 321.000000
132.063640 10.000000
132.080900 97.000000
132.087590 28.000000
133.039140 10.000000
133.050230 38.000000
133.089000 64.000000
133.101550 7.000000
134.051280 5.000000
134.095170 341.000000
135.079510 9.000000
135.094710 31.000000
135.100560 77.000000
135.111560 9.000000
136.075090 13.000000
136.089900 7.000000
136.110690 307.000000
137.081670 11.000000
137.108060 10.000000
137.117250 16.000000
137.124210 14.000000
138.053340 6.000000
138.082400 5.000000
138.093570 8.000000
138.114410 7.000000
139.094250 6.000000
140.050840 6.000000
141.069630 13.000000
142.052140 7.000000
142.062850 17.000000
142.071080 20.000000
142.078640 9.000000
143.065120 11.000000
143.075290 29.000000
143.081390 10.000000
144.048800 9.000000
144.066730 8.000000
144.079960 51.000000
145.049770 6.000000
145.056060 11.000000
145.082720 37.000000
146.022370 24.000000
146.035690 6.000000
146.060620 34.000000
146.096330 169.000000
147.056440 5.000000
147.079510 11.000000
147.095890 20.000000
147.106230 44.000000
148.071000 26.000000
148.078660 7.000000
148.108580 114.000000
148.116810 38.000000
149.127150 5.000000
150.078520 18.000000
150.087040 32.000000
150.093670 43.000000
150.115160 17.000000
150.127880 63.000000
151.054900 29.000000
151.065830 8.000000
151.089970 10.000000
151.098370 14.000000
151.126070 9.000000
152.059140 8.000000
152.107380 47.000000
153.063390 6.000000
153.078250 6.000000
154.067640 44.000000
155.067370 6.000000
155.074050 9.000000
156.070830 13.000000
156.080290 18.000000
157.053090 12.000000
157.085830 9.000000
158.049060 9.000000
158.060520 29.000000
158.068730 15.000000
158.097290 30.000000
159.073910 7.000000
159.094890 9.000000
159.102160 17.000000
160.067210 15.000000
160.107540 43.000000
160.115570 30.000000
162.057690 8.000000
162.065230 6.000000
162.129640 38.000000
163.127530 6.000000
164.051280 6.000000
164.094910 12.000000
164.108170 71.000000
164.145390 15.000000
165.058180 22.000000
165.070070 16.000000
165.080860 5.000000
165.107150 5.000000
166.048750 12.000000
166.065730 79.000000
167.053160 5.000000
167.071950 63.000000
167.091770 6.000000
168.071660 34.000000
168.082340 22.000000
169.070720 5.000000
169.088750 7.000000
170.056460 17.000000
170.079530 13.000000
170.093250 16.000000
171.093670 6.000000
172.064270 7.000000
172.074360 10.000000
172.113740 8.000000
176.079210 8.000000
176.107790 36.000000
178.060410 49.000000
178.071400 33.000000
178.120590 72.000000
178.126680 38.000000
179.077010 24.000000
179.087300 13.000000
179.130480 15.000000
180.079610 104.000000
180.089320 19.000000
181.075380 27.000000
181.087650 36.000000
182.057010 22.000000
182.069930 29.000000
182.079190 16.000000
182.099260 30.000000
183.058230 6.000000
183.073610 31.000000
183.094160 7.000000
183.103870 10.000000
184.066040 12.000000
184.081600 42.000000
184.114430 14.000000
185.074630 17.000000
186.086820 5.000000
190.071690 11.000000
190.973910 5.000000
191.067490 12.000000
191.076710 27.000000
192.072040 13.000000
192.081300 29.000000
192.143040 14.000000
193.065310 8.000000
193.087540 15.000000
193.095990 14.000000
194.091430 35.000000
194.101790 37.000000
195.090060 7.000000
195.096950 18.000000
195.108350 10.000000
196.067980 11.000000
196.076220 19.000000
196.109220 9.000000
197.078120 7.000000
197.086610 17.000000
197.107650 12.000000
197.120800 8.000000
198.061020 8.000000
201.067430 5.000000
201.076490 6.000000
202.066060 10.000000
202.076290 19.000000
203.074950 6.000000
203.085680 13.000000
204.073230 26.000000
204.082120 49.000000
205.086170 73.000000
205.093930 29.000000
206.076420 8.000000
206.095430 42.000000
206.106120 7.000000
207.092380 11.000000
207.106280 11.000000
208.059070 7.000000
208.072560 32.000000
208.089950 13.000000
208.103710 9.000000
208.110400 23.000000
208.125310 7.000000
208.497820 5.000000
209.113280 10.000000
210.065260 6.000000
210.075530 13.000000
210.091830 25.000000
210.136460 5.000000
211.087430 55.000000
214.072620 23.000000
215.067750 11.000000
215.090730 21.000000
216.079990 31.000000
217.084590 25.000000
217.094250 42.000000
218.089890 53.000000
218.099230 22.000000
219.097640 21.000000
220.074550 22.000000
220.099660 7.000000
220.109770 15.000000
221.086000 14.000000
221.106450 28.000000
222.072750 7.000000
222.091800 12.000000
222.108920 9.000000
223.101550 13.000000
223.137570 10.000000
224.114030 14.000000
224.152690 7.000000
225.103490 33.000000
226.077880 9.000000
226.086560 5.000000
226.113560 5.000000
227.066410 9.000000
227.077700 25.000000
228.082060 34.000000
229.056750 7.000000
229.089580 18.000000
230.076640 7.000000
230.086990 25.000000
230.103120 18.000000
231.104660 10.000000
232.060780 6.000000
232.069660 10.000000
232.094880 6.000000
232.108000 12.000000
232.117830 6.000000
233.081600 33.000000
233.094960 12.000000
233.122220 13.000000
234.080750 11.000000
234.101240 6.000000
234.127180 27.000000
234.142380 6.000000
235.089290 7.000000
235.098850 6.000000
235.129360 8.000000
236.060270 6.000000
236.075520 7.000000
236.093260 7.000000
236.115260 13.000000
236.151180 8.000000
237.091980 7.000000
237.104260 10.000000
238.121350 7.000000
239.126420 6.000000
240.084980 6.000000
241.089650 53.000000
242.086650 10.000000
242.099410 17.000000
243.097020 12.000000
243.372650 5.000000
244.111270 15.000000
245.049320 6.000000
245.091600 6.000000
245.106870 5.000000
246.071210 10.000000
246.089860 41.000000
247.096410 23.000000
247.125460 11.000000
248.095400 18.000000
249.091720 18.000000
249.103210 12.000000
250.108960 11.000000
250.140460 15.000000
251.110080 15.000000
258.091610 19.000000
259.079860 11.000000
260.095400 6.000000
262.112920 9.000000
263.121800 12.000000
264.123170 9.000000
265.131010 13.000000
275.126950 8.000000
277.129670 9.000000
278.123020 7.000000
278.142330 11.000000
279.146120 9.000000
281.176910 8.000000
289.118070 5.000000
291.151310 5.000000
293.162410 7.000000
295.167720 5.000000
308.812560 7.000000
309.156770 190.000000
309.173370 34.000000
310.158600 29.000000
310.173490 11.000000
311.169070 7.000000
323.172330 28.000000
323.195560 7.000000
355.204900 14.000000

