>compound PR67269782
>parentmass 581.1505
>ionization [M+H]+
>formula C26H28O15
>rt 201.000000
>profile qtof
#smiles_iso C1C(C(C(C(O1)C2=C3C(=C(C(=C2O)C4C(C(C(C(O4)CO)O)O)O)O)C(=O)C=C(O3)C5=CC(=C(C=C5)O)O)O)O)O
#smiles_can C1C(C(C(C(O1)C2=C3C(=C(C(=C2O)C4C(C(C(C(O4)CO)O)O)O)O)C(=O)C=C(O3)C5=CC(=C(C=C5)O)O)O)O)O
#inchikey XBGYTZHKGMCEGE-UHFFFAOYSA-N
#pubchem_id 3542481
#mb_accession PR310992

>ms2peaks
139.025220 27.000000
206.529860 16.000000
227.040370 18.000000
251.044220 20.000000
264.064420 26.000000
272.979000 22.000000
292.031800 22.000000
297.293580 22.000000
300.051420 16.000000
307.057800 20.000000
311.049930 53.000000
311.062840 36.000000
311.198490 16.000000
312.038300 20.000000
312.058720 30.000000
318.332460 39.000000
323.039670 36.000000
323.050780 45.000000
323.065920 72.000000
323.084410 21.000000
324.053620 77.000000
328.052460 80.000000
329.059690 18.000000
334.072200 16.000000
336.099240 20.000000
337.066620 41.000000
338.071230 16.000000
340.038240 16.000000
340.098510 24.000000
341.068940 166.000000
342.067600 17.000000
342.078890 16.000000
349.051570 22.000000
349.086180 72.000000
351.058010 22.000000
351.070190 21.000000
351.101810 45.000000
352.047580 20.000000
353.059570 36.000000
353.072660 60.000000
353.085690 35.000000
354.023800 24.000000
355.114560 16.000000
362.074580 28.000000
363.102840 20.000000
365.054690 69.000000
365.083070 62.000000
366.675380 28.000000
366.960940 42.000000
367.061770 34.000000
367.083740 52.000000
369.072270 18.000000
369.394960 18.000000
371.042450 29.000000
371.077390 16.000000
371.098970 20.000000
371.157870 28.000000
375.577030 16.000000
377.058440 38.000000
377.073300 19.000000
379.084380 29.000000
380.061400 30.000000
380.083620 21.000000
381.077120 34.000000
381.090390 18.000000
382.068120 23.000000
383.080440 98.000000
384.059270 24.000000
389.064150 21.000000
391.015470 21.000000
391.081090 38.000000
391.109590 19.000000
395.034760 30.000000
395.070920 386.000000
395.091250 133.000000
396.056030 34.000000
396.072910 65.000000
396.086820 36.000000
397.058470 26.000000
397.088750 20.000000
400.771760 16.000000
401.062990 19.000000
403.036590 45.000000
403.081600 19.000000
404.077030 20.000000
407.057430 44.000000
407.084050 59.000000
409.077730 32.000000
411.046690 22.000000
412.971010 20.000000
413.078060 261.000000
413.101440 94.000000
413.191160 20.000000
414.073970 34.000000
414.097320 22.000000
414.110080 23.000000
414.500400 17.000000
415.104830 16.000000
417.104220 20.000000
418.107640 46.000000
419.070860 19.000000
419.086460 53.000000
420.081910 46.000000
421.101140 44.000000
425.073730 71.000000
425.092010 122.000000
426.076570 47.000000
426.093290 59.000000
427.080410 17.000000
431.075320 82.000000
431.094700 145.000000
432.068450 31.000000
432.096830 25.000000
432.370390 17.000000
434.061430 16.000000
435.106570 26.000000
437.068390 37.000000
437.093050 23.000000
438.078370 48.000000
438.095580 17.000000
443.073910 32.000000
443.096250 42.000000
443.119290 20.000000
444.103790 17.000000
444.120820 16.000000
449.096470 49.000000
450.095400 18.000000
450.943330 17.000000
455.059080 19.000000
455.099490 76.000000
457.112150 18.000000
461.096530 156.000000
461.123080 30.000000
462.108580 47.000000
463.102200 20.000000
463.122500 17.000000
467.087190 65.000000
467.105500 55.000000
467.151610 17.000000
467.232910 18.000000
469.658170 83.000000
473.087100 21.000000
473.114380 197.000000
474.089630 31.000000
474.125760 16.000000
479.091030 35.000000
479.111760 17.000000
480.088380 28.000000
485.091950 27.000000
485.118160 88.000000
486.112850 29.000000
486.129640 20.000000
491.095950 44.000000
493.115660 16.000000
497.107570 239.000000
498.108520 16.000000
500.092740 16.000000
508.290160 17.000000
508.519900 47.000000
509.065580 16.000000
509.101070 58.000000
509.116030 40.000000
509.133970 20.000000
510.111940 65.000000
515.131840 59.000000
516.112240 44.000000
516.149170 21.000000
517.108700 18.000000
517.158690 16.000000
518.123410 18.000000
527.089970 16.000000
527.118100 121.000000
527.144290 64.000000
528.114870 32.000000
529.129330 25.000000
530.336980 16.000000
540.950440 22.000000
545.093930 34.000000
545.140080 249.000000
546.133850 93.000000
547.127990 33.000000
547.149480 32.000000
555.305300 29.000000
561.138920 17.000000
563.112610 66.000000
563.142090 472.000000
563.264220 21.000000
564.132450 97.000000
564.170840 56.000000
565.077210 22.000000
579.134220 26.000000
580.124270 32.000000
580.149050 35.000000
580.173650 24.000000
581.087830 42.000000
581.151920 2719.000000

