>compound PR67277134
>parentmass 241.08592064615382
>ionization [M+H]+
>formula C15H12O3
>rt 430.423366
>profile qtof
#smiles_iso C1C(OC2=C(C1=O)C=C(C=C2)O)C3=CC=CC=C3
#smiles_can C1C(OC2=C(C1=O)C=C(C=C2)O)C3=CC=CC=C3
#inchikey XYHWPQUEOOBIOW-UHFFFAOYSA-N
#pubchem_id 2734580
#mb_accession PR303262,PR303265,PR303268,PR303271,PR303274,PR303277,PR303280,PR303283,PR303286,PR303289,PR303292,PR303295,PR311174

>ms2
53.035980 5.000000
81.026310 11.000000
81.034710 39.000000
103.053670 194.000000
104.058500 15.000000
105.067720 7.000000
108.058200 6.000000
109.027980 51.000000
119.046970 8.000000
128.061980 6.000000
129.071960 13.000000
131.048490 437.000000
132.030880 10.000000
132.052260 51.000000
135.047960 14.000000
136.012650 10.000000
137.007030 7.000000
137.022400 607.000000
138.017010 12.000000
138.027600 33.000000
139.031850 6.000000
141.071990 5.000000
147.044330 8.000000
147.051710 5.000000
151.600750 5.000000
152.060610 21.000000
153.066040 5.000000
158.070360 55.000000
159.072510 5.000000
163.039510 50.000000
163.051180 5.000000
164.040080 17.000000
164.050400 6.000000
165.068370 16.000000
166.072460 11.000000
167.081360 16.000000
167.091060 25.000000
168.090010 12.000000
171.080720 7.000000
177.067750 5.000000
178.073470 6.000000
181.064710 7.000000
185.094090 16.000000
193.594250 5.000000
195.081940 82.000000
196.085680 11.000000
199.065090 15.000000
199.074800 56.000000
201.084270 8.000000
206.073040 7.000000
213.089950 23.000000
223.051560 5.000000
223.075650 101.000000
224.079990 25.000000
226.057390 8.000000
239.070590 15.000000
240.076080 7.000000
241.053700 11.000000
241.085570 1000.000000

>ms2
131.048190 46.000000
132.052980 5.000000
137.022050 53.000000
158.073530 7.000000
163.040190 18.000000
195.080080 10.000000
199.072720 25.000000
199.081330 9.000000
213.091190 15.000000
223.073460 40.000000
241.043930 7.000000
241.084660 1000.000000
241.130250 11.000000

>ms2
69.001940 7.000000
76.936160 6.000000
77.034720 6.000000
77.041020 47.000000
81.025200 33.000000
81.033680 246.000000
81.958240 6.000000
82.023610 9.000000
82.032260 5.000000
82.038700 12.000000
82.067660 6.000000
82.149910 6.000000
82.377390 5.000000
84.743440 8.000000
91.053280 12.000000
102.936070 5.000000
103.035730 5.000000
103.054300 1000.000000
104.020410 9.000000
104.055890 103.000000
104.069380 10.000000
105.037290 20.000000
105.065750 9.000000
105.073620 8.000000
106.034420 8.000000
106.127710 6.000000
107.046700 25.000000
109.015010 33.000000
109.028590 193.000000
115.051020 6.000000
128.051280 6.000000
128.057940 6.000000
129.064740 15.000000
129.071560 15.000000
129.078840 7.000000
131.008500 10.000000
131.035370 15.000000
131.048600 449.000000
132.051480 34.000000
133.054140 11.000000
135.025790 6.000000
136.018810 5.000000
136.998320 8.000000
137.023300 666.000000
138.024350 34.000000
138.031190 13.000000
142.531830 6.000000
143.078310 5.000000
143.085850 22.000000
143.094300 6.000000
145.024550 6.000000
151.051610 16.000000
151.060460 10.000000
152.055800 43.000000
152.063770 37.000000
153.060680 14.000000
153.070270 57.000000
154.072490 8.000000
155.085950 9.000000
155.445040 7.000000
163.037600 33.000000
164.020980 8.000000
164.041080 5.000000
165.073290 60.000000
166.059770 9.000000
166.070950 14.000000
166.082920 17.000000
167.069930 6.000000
167.079760 49.000000
167.097780 6.000000
168.083080 6.000000
168.093140 6.000000
171.075820 8.000000
171.086320 5.000000
176.062680 5.000000
176.076350 7.000000
177.066440 14.000000
177.077700 16.000000
178.083480 16.000000
185.055470 6.000000
189.981750 5.000000
194.072070 7.000000
195.067930 7.000000
195.080200 26.000000
199.978100 9.000000
223.071140 18.000000
223.081190 8.000000
224.075290 20.000000
226.056630 9.000000
228.069240 9.000000
240.070600 5.000000

>ms2
54.037410 95.000000
77.038880 886.000000
78.039000 124.000000
81.026990 129.000000
81.032520 181.000000
81.040980 576.000000
82.017190 81.000000
91.059490 157.000000
103.041950 119.000000
103.051480 924.000000
103.057820 1000.000000
104.047550 81.000000
104.057460 148.000000
104.065010 119.000000
107.044850 248.000000
109.024980 95.000000
115.054380 167.000000
128.045330 138.000000
131.052960 119.000000
151.053280 95.000000
152.054370 119.000000
152.063280 467.000000
152.070430 381.000000
153.068600 86.000000
163.052140 143.000000
164.065220 95.000000
165.047930 162.000000
165.062230 143.000000
165.072200 100.000000
166.081820 186.000000
176.052290 243.000000
176.060390 90.000000
241.084000 367.000000
241.100140 286.000000

>ms2
77.038480 13.000000
79.056170 7.000000
81.034800 25.000000
103.053260 215.000000
104.057780 24.000000
105.032460 7.000000
105.037960 6.000000
105.068410 6.000000
105.073940 8.000000
107.034930 7.000000
107.050960 11.000000
109.027630 67.000000
127.054630 5.000000
128.066090 7.000000
131.026280 8.000000
131.048400 358.000000
132.048080 36.000000
132.054240 30.000000
136.013340 12.000000
137.022430 571.000000
138.007190 5.000000
138.024810 36.000000
153.070140 22.000000
158.069050 30.000000
158.078740 19.000000
163.037630 46.000000
163.045550 16.000000
164.049900 5.000000
165.067670 18.000000
166.072100 11.000000
167.082520 27.000000
167.091200 11.000000
170.070820 8.000000
171.074230 19.000000
177.067670 28.000000
185.059190 7.000000
185.098740 7.000000
195.079850 93.000000
196.084950 22.000000
199.077210 81.000000
200.079760 9.000000
202.857930 5.000000
213.086060 37.000000
223.066860 29.000000
223.077960 78.000000
224.078310 15.000000
226.064990 10.000000
239.064250 6.000000
240.074220 7.000000
241.053700 12.000000
241.085540 1000.000000
241.128950 6.000000

>ms2
131.046680 37.000000
131.057010 8.000000
137.022080 56.000000
158.073560 16.000000
163.041720 19.000000
185.094590 6.000000
195.080080 19.000000
199.076740 23.000000
200.079350 8.000000
213.084320 13.000000
223.075320 44.000000
224.078570 8.000000
241.085910 1000.000000
241.128250 10.000000

>ms2
53.616490 7.000000
55.018290 7.000000
65.039150 7.000000
68.992010 5.000000
75.633340 7.000000
77.035900 26.000000
77.041650 46.000000
79.055940 6.000000
80.053020 6.000000
81.016340 10.000000
81.030650 44.000000
81.035110 150.000000
81.121360 6.000000
82.038920 5.000000
91.060010 19.000000
93.031430 6.000000
102.046550 6.000000
103.000560 6.000000
103.017380 5.000000
103.041040 24.000000
103.054210 1000.000000
104.051410 26.000000
104.060620 36.000000
105.030040 9.000000
105.068860 9.000000
107.052440 9.000000
109.007830 6.000000
109.028480 268.000000
110.033710 11.000000
115.054210 16.000000
117.035140 10.000000
127.053050 8.000000
128.059200 17.000000
128.065720 17.000000
129.071060 13.000000
129.078250 6.000000
130.072310 5.000000
131.033910 8.000000
131.048220 352.000000
131.079060 5.000000
131.900670 7.000000
132.036010 6.000000
132.044450 15.000000
132.053880 21.000000
135.027560 6.000000
135.044860 15.000000
136.826420 6.000000
136.986890 7.000000
137.023700 659.000000
138.026870 106.000000
139.032240 23.000000
141.071260 30.000000
143.039570 6.000000
143.084840 9.000000
143.091960 5.000000
151.059160 9.000000
152.036250 8.000000
152.063020 79.000000
153.065190 6.000000
153.071010 13.000000
157.067110 15.000000
158.068510 15.000000
159.074660 6.000000
161.719670 8.000000
162.986880 8.000000
163.039080 8.000000
165.059170 15.000000
165.070310 75.000000
165.087400 13.000000
166.065000 12.000000
166.074110 37.000000
166.082860 23.000000
167.080870 13.000000
167.089860 45.000000
170.071080 8.000000
171.084550 11.000000
172.075780 6.000000
177.066310 11.000000
177.073030 22.000000
178.058270 8.000000
185.093080 6.000000
188.269610 6.000000
195.078870 22.000000
196.091520 5.000000
197.061050 7.000000
197.069030 8.000000
203.441650 6.000000
208.045840 6.000000
223.073560 29.000000
226.054640 5.000000

>ms2
68.999520 101.000000
77.037640 561.000000
81.026380 114.000000
81.034810 480.000000
81.054940 39.000000
85.438610 52.000000
91.047680 97.000000
102.046580 176.000000
103.053240 1000.000000
104.057720 82.000000
105.027170 82.000000
109.022900 95.000000
109.029210 41.000000
110.033630 49.000000
128.064910 62.000000
129.073550 58.000000
137.012850 52.000000
138.026810 52.000000
139.041840 67.000000
140.059230 67.000000
151.053340 58.000000
152.057160 133.000000
152.064290 101.000000
152.070850 86.000000
153.075710 52.000000
164.057540 88.000000
165.064830 110.000000
165.075240 219.000000
166.072630 58.000000
175.055820 52.000000
176.060300 52.000000
182.070360 112.000000
223.071150 43.000000

>ms2
77.039180 13.000000
81.031330 36.000000
103.054280 193.000000
109.028180 60.000000
131.048870 392.000000
132.040830 6.000000
132.051570 28.000000
135.043910 13.000000
137.006880 17.000000
137.022840 474.000000
138.026670 55.000000
141.064090 6.000000
152.064500 12.000000
153.065030 13.000000
153.072710 9.000000
158.065250 6.000000
158.073730 12.000000
159.070470 5.000000
163.041170 76.000000
165.068710 15.000000
165.080020 6.000000
166.068480 7.000000
167.072540 5.000000
167.087510 44.000000
171.075820 11.000000
172.091860 6.000000
177.068020 10.000000
181.070340 7.000000
185.094310 8.000000
195.078290 60.000000
195.085310 30.000000
197.060490 6.000000
199.075010 61.000000
213.085630 9.000000
213.097560 10.000000
214.098500 6.000000
223.051540 7.000000
223.075680 103.000000
224.078510 10.000000
225.074370 6.000000
239.071440 12.000000
241.049060 7.000000
241.085660 1000.000000
241.129320 16.000000

>ms2
131.048480 45.000000
137.023760 68.000000
158.073320 16.000000
163.038730 17.000000
167.085100 5.000000
195.078630 16.000000
195.086620 6.000000
199.077120 30.000000
213.090160 16.000000
213.098460 6.000000
223.075870 53.000000
240.075610 7.000000
241.054730 6.000000
241.085800 1000.000000
241.131670 9.000000

>ms2
68.982670 7.000000
71.465640 5.000000
76.642090 6.000000
77.037290 48.000000
77.042760 23.000000
79.055040 22.000000
81.022120 8.000000
81.033250 177.000000
82.036150 20.000000
83.017450 9.000000
91.052340 20.000000
93.041080 8.000000
94.047490 5.000000
102.044780 11.000000
103.034080 13.000000
103.053670 1000.000000
104.057450 68.000000
104.970670 5.000000
107.048810 13.000000
107.054270 7.000000
108.053690 9.000000
108.721650 6.000000
108.973010 8.000000
108.985150 6.000000
109.017310 13.000000
109.024640 69.000000
109.029530 214.000000
115.052010 5.000000
117.072020 8.000000
118.043010 5.000000
128.063230 49.000000
129.071750 10.000000
131.048610 618.000000
132.052320 90.000000
133.027110 5.000000
135.042100 5.000000
136.989940 6.000000
136.997740 9.000000
137.022770 703.000000
138.018650 12.000000
138.025700 17.000000
138.034870 9.000000
139.026840 23.000000
139.032970 15.000000
143.081650 11.000000
151.049410 18.000000
152.047470 20.000000
152.061000 60.000000
153.045530 8.000000
153.059390 13.000000
153.067020 28.000000
158.071840 13.000000
159.076970 17.000000
163.039760 14.000000
164.035640 10.000000
165.068630 54.000000
166.055850 5.000000
166.075760 31.000000
167.067000 6.000000
167.083740 37.000000
169.069380 13.000000
170.068940 7.000000
171.076370 33.000000
171.985080 7.000000
176.054470 16.000000
176.061480 10.000000
177.070910 44.000000
178.083560 9.000000
179.075550 6.000000
181.056090 7.000000
181.066990 14.000000
194.063030 6.000000
195.072710 15.000000
195.083970 34.000000
197.069150 12.000000
223.072390 16.000000
223.085370 8.000000
224.068700 5.000000
224.079330 6.000000

>ms2
53.040550 60.000000
68.995400 68.000000
69.001150 52.000000
77.030310 55.000000
77.039460 422.000000
77.892900 30.000000
81.031710 290.000000
82.035200 59.000000
89.037590 30.000000
89.953330 43.000000
102.047360 44.000000
102.537030 30.000000
103.053150 1000.000000
103.064000 32.000000
104.055560 87.000000
104.215840 34.000000
108.016100 36.000000
109.031490 77.000000
115.052390 66.000000
127.042530 68.000000
128.056580 48.000000
131.048630 43.000000
137.024110 62.000000
138.027080 36.000000
141.065600 44.000000
150.047420 60.000000
151.054890 82.000000
151.062970 37.000000
152.046590 37.000000
152.060350 75.000000
153.061290 50.000000
164.064650 48.000000
165.054490 52.000000
165.073870 201.000000
177.068070 48.000000
178.086110 75.000000
197.066270 41.000000

>ms2
53.035980 46.000000
55.020370 24.000000
67.446910 20.000000
68.994540 43.000000
77.031950 17.000000
77.038220 26.000000
77.045520 28.000000
79.055340 32.000000
81.020770 21.000000
81.026310 100.000000
81.034710 347.000000
82.034420 33.000000
92.057290 40.000000
95.085620 35.000000
103.031160 30.000000
103.053670 1730.000000
104.046970 31.000000
104.058500 137.000000
104.788860 19.000000
105.033970 37.000000
105.040210 22.000000
105.067720 65.000000
106.566160 33.000000
107.046020 20.000000
107.301100 18.000000
107.715190 20.000000
108.058200 52.000000
109.027980 457.000000
109.494860 20.000000
110.034890 26.000000
114.229860 20.000000
119.046970 74.000000
128.061980 50.000000
129.061390 24.000000
129.071960 113.000000
131.048490 3902.000000
132.030880 87.000000
132.052260 458.000000
132.588380 22.000000
133.043490 17.000000
133.700390 17.000000
134.055050 23.000000
135.047960 128.000000
136.012650 89.000000
136.039490 27.000000
136.421810 30.000000
137.007030 63.000000
137.022400 5427.000000
138.017010 108.000000
138.027600 295.000000
138.226430 19.000000
138.650710 18.000000
139.031850 56.000000
140.026920 40.000000
141.043400 36.000000
141.071990 45.000000
142.957260 21.000000
143.094380 17.000000
144.081860 43.000000
146.040600 32.000000
146.075780 18.000000
147.044330 75.000000
147.051710 47.000000
148.540020 19.000000
151.036830 30.000000
151.059430 44.000000
151.600750 45.000000
151.829390 18.000000
152.060610 187.000000
153.066040 47.000000
153.073870 36.000000
154.074260 30.000000
154.605960 25.000000
157.098620 27.000000
158.049620 25.000000
158.070360 492.000000
159.072510 48.000000
161.088230 25.000000
162.342740 18.000000
162.990890 20.000000
163.009090 27.000000
163.024920 25.000000
163.039510 444.000000
163.051180 47.000000
164.040080 151.000000
164.050400 55.000000
164.068160 18.000000
165.068370 144.000000
166.072460 101.000000
167.081360 139.000000
167.091060 222.000000
168.082110 26.000000
168.090010 106.000000
169.064770 34.000000
171.070620 34.000000
171.080720 63.000000
172.081120 20.000000
173.042630 18.000000
175.765960 20.000000
176.055770 41.000000
177.056690 28.000000
177.067750 46.000000
177.075900 34.000000
178.065800 25.000000
178.073470 54.000000
178.081920 31.000000
179.071990 24.000000
181.064710 59.000000
183.068010 25.000000
185.094090 143.000000
189.926790 26.000000
193.594250 47.000000
194.066020 23.000000
195.081940 730.000000
196.085680 95.000000
198.069310 17.000000
199.065090 132.000000
199.074800 501.000000
200.075990 42.000000
201.084270 73.000000
206.073040 62.000000
208.684160 42.000000
213.059020 18.000000
213.069950 21.000000
213.089950 206.000000
213.108930 30.000000
214.092060 18.000000
222.056260 20.000000
222.071040 25.000000
223.051560 45.000000
223.075650 904.000000
224.062380 19.000000
224.079990 222.000000
224.964000 23.000000
225.081410 18.000000
226.057390 68.000000
232.568420 31.000000
239.058640 39.000000
239.070590 132.000000
240.076080 65.000000
241.034760 22.000000
241.053700 102.000000
241.085570 8939.000000
241.129760 20.000000
241.281650 18.000000

