>compound PR67357598
>parentmass 305.1131980999999
>ionization [M+H]+
>formula C15H16N2O5
>rt 246.988020
>profile qtof
#smiles_iso C1=CC=C2C(=C1)C(=CN2)CC(=O)N[C@@H](CCC(=O)O)C(=O)O
#smiles_can C1=CC=C2C(=C1)C(=CN2)CC(=O)NC(CCC(=O)O)C(=O)O
#inchikey YRKLGWOHYXIKSF-LBPRGKRZSA-N
#pubchem_id 7097227
#mb_accession PR304132,PR304134,PR304136,PR304138,PR304140,PR304142,PR304144,PR304146,PR304148,PR304150,PR304152,PR304154

>ms2peaks
84.045270 26.000000
102.053560 16.000000
130.064290 1000.000000
131.052810 6.000000
131.069430 97.000000
148.060500 202.000000
158.059100 50.000000
196.074720 6.000000
213.105300 8.000000
214.081500 6.000000
241.097780 15.000000
259.106020 49.000000
260.117830 6.000000
287.102510 18.000000
287.112980 13.000000
288.105680 6.000000
305.112580 297.000000

>ms2peaks
102.055150 5.000000
130.040600 5.000000
130.064410 390.000000
131.068080 43.000000
148.059810 155.000000
149.060530 16.000000
157.052190 13.000000
158.059720 62.000000
176.070160 16.000000
259.107910 76.000000
287.100620 67.000000
288.102910 19.000000
303.105040 5.000000
304.103000 27.000000
305.112730 1000.000000

>ms2peaks
84.038800 6.000000
84.045230 43.000000
102.054180 25.000000
129.058260 6.000000
130.064290 1000.000000
131.067200 114.000000
132.068910 8.000000
148.058180 7.000000
196.074580 5.000000

>ms2peaks
60.794540 5.000000
77.038300 68.000000
78.033890 5.000000
84.044920 51.000000
102.047370 14.000000
103.021980 5.000000
103.042470 5.000000
103.053500 141.000000
105.014760 8.000000
110.121000 5.000000
112.566460 5.000000
128.037720 5.000000
128.049610 90.000000
129.052950 14.000000
130.049480 11.000000
130.064970 1000.000000
131.051450 5.000000
131.067380 103.000000
131.074340 41.000000
146.069320 5.000000
148.053270 6.000000
154.060040 13.000000
167.064030 5.000000
169.075550 6.000000
181.515810 6.000000
193.055690 7.000000
305.103610 15.000000

>ms2peaks
84.040680 8.000000
84.045460 13.000000
102.055380 21.000000
130.027280 7.000000
130.042480 6.000000
130.064590 1000.000000
131.053050 6.000000
131.066940 117.000000
132.071040 7.000000
148.059130 152.000000
149.056660 7.000000
149.065670 8.000000
158.058760 30.000000
158.066590 9.000000
176.070530 6.000000
214.074190 6.000000
214.087480 12.000000
259.109770 49.000000
260.108890 10.000000
287.090420 6.000000
288.094360 5.000000
304.107300 9.000000
305.113770 254.000000
305.133850 7.000000

>ms2peaks
102.054190 6.000000
130.046540 14.000000
130.064470 329.000000
131.069240 36.000000
148.060520 141.000000
158.060710 51.000000
176.072190 9.000000
259.098940 16.000000
259.109410 71.000000
260.106900 10.000000
260.119350 5.000000
287.103820 66.000000
288.096160 6.000000
288.109470 10.000000
304.097690 8.000000
304.109190 5.000000
305.072600 7.000000
305.112340 1000.000000

>ms2peaks
84.044640 37.000000
102.056300 27.000000
128.052690 6.000000
130.041410 8.000000
130.064330 1000.000000
131.060960 21.000000
131.069700 80.000000
148.059140 18.000000
214.084640 8.000000

>ms2peaks
77.038170 40.000000
84.043870 30.000000
102.044980 13.000000
103.047560 15.000000
103.054780 107.000000
104.056430 17.000000
128.047290 33.000000
128.056430 19.000000
129.051620 9.000000
130.064480 1000.000000
131.068500 82.000000
132.071370 6.000000
142.578430 7.000000
154.068180 10.000000

>ms2peaks
84.043930 14.000000
84.050230 5.000000
102.053310 14.000000
103.056640 10.000000
130.043610 11.000000
130.064360 1000.000000
131.066890 84.000000
148.060300 164.000000
158.059620 60.000000
159.062880 6.000000
176.065410 8.000000
213.101000 6.000000
213.112260 5.000000
214.083540 9.000000
241.097670 6.000000
259.098540 17.000000
259.109250 51.000000
260.113530 10.000000
287.104060 16.000000
287.122590 6.000000
288.105350 5.000000
305.078000 7.000000
305.113860 277.000000

>ms2peaks
102.055890 6.000000
130.048080 16.000000
130.065170 281.000000
131.066730 34.000000
148.060040 140.000000
158.059130 48.000000
159.057590 5.000000
259.107240 85.000000
260.114070 14.000000
287.102870 66.000000
288.105900 15.000000
304.110530 7.000000
305.113490 1000.000000

>ms2peaks
84.045620 31.000000
102.051530 9.000000
102.057530 11.000000
130.041810 10.000000
130.065350 1000.000000
131.068420 95.000000
132.074890 6.000000
148.061480 13.000000
158.064360 12.000000
168.081890 15.000000

>ms2peaks
77.038500 70.000000
78.040790 14.000000
84.045910 14.000000
85.030090 10.000000
85.049870 11.000000
103.053600 111.000000
117.058530 10.000000
128.044390 27.000000
128.051730 47.000000
129.051320 8.000000
129.058560 5.000000
129.333040 5.000000
130.038090 7.000000
130.044980 7.000000
130.065870 1000.000000
130.082840 7.000000
131.067540 99.000000
131.078510 6.000000
141.065410 6.000000
144.072600 5.000000
167.077770 15.000000
168.078670 20.000000

