>compound PR67110843
>parentmass 369.1808836999999
>ionization [M+H]+
>formula C21H24N2O4
>rt 245.668020
>profile qtof
#smiles_iso C[C@H]1[C@@H]2CN3CC[C@]4([C@H]3C[C@@H]2C(=CO1)C(=O)OC)C5=CC=CC=C5NC4=O
#smiles_can CC1C2CN3CCC4(C3CC2C(=CO1)C(=O)OC)C5=CC=CC=C5NC4=O
#inchikey JMIAZDVHNCCPDM-PMJXBNNDSA-N
#pubchem_id 12304288
#mb_accession PR300443,PR300446,PR300450,PR300454,PR300458,PR300462,PR300466,PR300470,PR300474,PR300478,PR300482,PR300486

>ms2
124.039760 11.000000
132.043730 11.000000
132.080720 22.000000
139.038670 7.000000
142.065050 20.000000
158.061230 14.000000
159.067440 7.000000
160.075840 128.000000
161.079330 16.000000
178.087650 9.000000
187.086150 35.000000
188.089800 7.000000
201.102510 15.000000
213.103490 13.000000
215.119750 10.000000
239.119490 7.000000
241.135800 8.000000
265.092160 5.000000
265.104030 5.000000
267.148190 14.000000
281.092160 9.000000
309.157750 5.000000
337.154270 56.000000
338.161560 13.000000
369.180970 1000.000000
369.236480 32.000000

>ms2
369.182340 1000.000000
369.237460 36.000000
369.288150 7.000000

>ms2
70.065790 20.000000
108.081600 37.000000
109.088840 7.000000
110.100160 5.000000
117.050470 7.000000
117.065510 7.000000
118.066410 32.000000
122.099080 5.000000
124.038940 85.000000
125.038980 7.000000
130.061200 11.000000
130.067140 14.000000
132.046010 59.000000
132.082050 134.000000
133.084640 7.000000
137.046970 9.000000
138.059430 6.000000
139.040990 48.000000
140.040890 8.000000
142.066640 81.000000
143.070740 7.000000
144.081540 30.000000
146.065690 5.000000
150.094500 7.000000
154.064380 6.000000
158.061800 107.000000
159.068100 36.000000
160.076550 986.000000
160.114030 8.000000
161.081470 121.000000
167.073120 10.000000
168.085370 5.000000
169.080810 5.000000
172.076570 34.000000
173.069270 12.000000
173.080470 8.000000
178.086580 73.000000
179.086980 7.000000
179.096220 8.000000
185.071260 14.000000
186.091080 19.000000
187.087480 282.000000
188.084000 9.000000
188.093090 44.000000
199.084630 6.000000
201.103870 134.000000
202.113280 10.000000
210.084990 6.000000
210.116500 10.000000
213.104030 101.000000
214.100720 11.000000
214.114110 16.000000
215.118320 77.000000
216.114400 6.000000
216.125080 7.000000
230.141690 6.000000
230.151550 5.000000
237.097530 10.000000
237.109600 8.000000
237.136180 6.000000
239.114300 29.000000
239.127180 16.000000
241.133590 64.000000
242.134720 8.000000
253.104370 9.000000
253.135910 8.000000
255.117520 6.000000
265.071840 6.000000
265.098080 101.000000
265.134640 20.000000
266.093630 12.000000
266.106570 8.000000
266.128750 6.000000
267.125890 5.000000
267.150850 113.000000
268.156800 22.000000
279.075840 7.000000
281.092960 90.000000
281.107150 17.000000
282.099030 37.000000
283.104710 38.000000
283.115840 14.000000
284.109040 6.000000
291.153260 9.000000
293.127870 8.000000
295.107390 16.000000
297.126220 12.000000
309.156800 31.000000
309.172790 10.000000
319.140870 10.000000
325.156710 9.000000
337.156520 258.000000
338.139800 6.000000
338.151730 28.000000
338.166630 32.000000
339.166440 7.000000
341.190000 16.000000
369.132540 9.000000
369.182430 1000.000000

>ms2
55.051820 14.000000
56.049740 16.000000
56.062770 8.000000
68.023410 7.000000
68.050140 6.000000
68.054930 6.000000
70.059490 9.000000
70.068040 9.000000
77.043430 5.000000
78.031560 12.000000
78.039120 12.000000
79.052470 6.000000
79.055890 13.000000
80.017750 5.000000
80.046750 18.000000
80.052230 17.000000
81.054720 6.000000
81.070180 14.000000
82.065370 17.000000
83.013850 19.000000
83.049040 10.000000
84.927180 7.000000
87.042980 5.000000
87.047560 6.000000
91.054700 51.000000
92.048650 9.000000
93.028980 6.000000
93.058450 9.000000
94.064980 18.000000
94.073360 7.000000
96.080470 11.000000
103.045670 11.000000
103.056080 20.000000
104.027840 6.000000
104.051040 29.000000
105.051680 5.000000
105.066960 11.000000
105.074520 23.000000
105.116910 10.000000
106.032910 8.000000
106.066180 24.000000
107.048980 7.000000
108.039410 19.000000
108.045320 23.000000
108.080280 49.000000
108.085750 25.000000
109.039670 9.000000
109.052180 55.000000
110.035050 7.000000
110.059600 16.000000
111.046310 15.000000
115.028620 8.000000
115.054880 515.000000
116.052390 134.000000
117.057480 456.000000
117.072140 16.000000
117.193290 7.000000
118.049240 7.000000
118.065670 281.000000
119.049670 9.000000
119.069860 20.000000
120.049680 17.000000
120.081490 15.000000
121.064930 11.000000
122.017850 5.000000
122.024910 29.000000
122.097820 23.000000
123.028080 10.000000
124.032650 31.000000
124.040840 100.000000
125.042270 11.000000
126.053810 8.000000
127.053870 42.000000
128.049210 105.000000
129.049500 7.000000
129.070240 7.000000
130.061310 145.000000
130.067030 446.000000
131.055300 8.000000
131.060780 25.000000
131.071820 52.000000
132.008330 9.000000
132.045060 684.000000
132.060420 39.000000
132.081220 953.000000
132.169830 6.000000
133.043440 30.000000
133.050170 38.000000
133.079590 52.000000
133.085400 61.000000
134.058380 18.000000
135.042880 6.000000
136.044170 6.000000
137.054530 6.000000
137.060100 6.000000
138.061550 19.000000
139.039670 53.000000
139.054350 7.000000
140.042770 16.000000
140.051480 81.000000
141.056760 17.000000
141.074540 8.000000
142.065400 1000.000000
143.066220 44.000000
143.072280 81.000000
143.591080 5.000000
144.046650 75.000000
144.056930 16.000000
144.082140 149.000000
145.045520 17.000000
145.052860 29.000000
145.087330 11.000000
146.059810 46.000000
150.087140 6.000000
150.094740 7.000000
152.049590 19.000000
152.068660 8.000000
153.055300 10.000000
154.057130 19.000000
154.065990 74.000000
155.068500 28.000000
156.045640 25.000000
156.088750 12.000000
157.052900 9.000000
157.089310 14.000000
158.045990 8.000000
158.059770 178.000000
158.074510 7.000000
158.093630 15.000000
158.101610 14.000000
159.067730 104.000000
159.074920 35.000000
159.086900 11.000000
159.096590 23.000000
159.113190 10.000000
160.054310 8.000000
160.076450 786.000000
161.070720 20.000000
161.080630 72.000000
162.083940 6.000000
165.060300 5.000000
165.073470 9.000000
166.065340 50.000000
166.300960 6.000000
167.058620 39.000000
167.071590 121.000000
168.072360 26.000000
168.082660 17.000000
168.089610 17.000000
169.063750 5.000000
169.077670 46.000000
169.088640 8.000000
170.056760 19.000000
170.082280 12.000000
170.095730 10.000000
172.075150 84.000000
172.103230 7.000000
172.123670 6.000000
173.061250 8.000000
173.072130 18.000000
173.081730 19.000000
174.092500 12.000000
174.107850 9.000000
178.057590 5.000000
178.089690 25.000000
180.064040 9.000000
180.084000 7.000000
182.092410 15.000000
183.064670 7.000000
183.089170 15.000000
184.076630 14.000000
185.073590 32.000000
186.078340 22.000000
186.089320 37.000000
187.082600 108.000000
187.093800 76.000000
188.088840 23.000000
192.078980 10.000000
193.084490 28.000000
194.097090 6.000000
195.065110 7.000000
195.089050 6.000000
196.077270 10.000000
197.071850 13.000000
198.089610 8.000000
198.115460 6.000000
199.082370 14.000000
201.102480 35.000000
201.114010 10.000000
204.075240 10.000000
206.082840 5.000000
206.093770 14.000000
206.102920 6.000000
207.064760 6.000000
207.098590 7.000000
208.082530 17.000000
209.070760 7.000000
209.079470 6.000000
209.090840 9.000000
209.121370 7.000000
210.049610 7.000000
210.059020 9.000000
210.076750 19.000000
210.101760 6.000000
211.125730 12.000000
213.100740 25.000000
213.109360 17.000000
214.107790 6.000000
214.745470 6.000000
216.068980 6.000000
217.074920 6.000000
218.070680 6.000000
218.084170 6.000000
218.093580 7.000000
222.085880 9.000000
223.094180 15.000000
224.062900 6.000000
225.067980 13.000000
226.098070 8.000000
234.093430 6.000000
235.077210 11.000000
235.088590 12.000000
236.068920 15.000000
237.083310 7.000000
237.104860 13.000000
238.093960 9.000000
238.113590 10.000000
245.074190 8.000000
251.081670 15.000000
253.095570 8.000000
261.154850 6.000000
265.097560 28.000000
266.098210 9.000000
279.078520 15.000000
279.088470 25.000000
280.077420 6.000000
281.087250 9.000000
282.087130 6.000000
285.277500 6.000000
349.930970 6.000000
363.236080 6.000000

>ms2
118.064980 6.000000
124.040940 13.000000
132.044160 10.000000
132.081120 19.000000
139.041290 8.000000
142.064420 17.000000
158.059430 12.000000
159.066250 5.000000
160.076130 117.000000
161.077270 15.000000
172.075710 5.000000
178.089450 8.000000
187.087020 36.000000
201.103030 16.000000
213.104830 12.000000
215.120150 9.000000
241.134170 8.000000
265.096770 13.000000
267.149600 12.000000
281.091710 14.000000
283.109280 7.000000
337.154390 46.000000
338.152340 7.000000
338.164580 6.000000
369.181300 1000.000000
369.237340 31.000000

>ms2
337.153720 5.000000
369.181790 1000.000000
369.236970 36.000000
369.287810 6.000000

>ms2
70.064560 16.000000
70.069680 11.000000
108.080450 32.000000
109.051220 5.000000
110.095920 6.000000
118.067440 25.000000
122.098440 8.000000
124.039170 81.000000
130.060100 8.000000
130.066940 9.000000
132.034070 6.000000
132.044720 42.000000
132.080460 109.000000
133.048080 8.000000
133.082810 12.000000
137.046650 6.000000
137.053220 7.000000
138.053830 8.000000
139.032420 11.000000
139.039320 44.000000
140.045120 9.000000
142.065490 103.000000
143.066930 15.000000
144.077730 11.000000
144.083880 16.000000
146.061040 10.000000
150.090040 12.000000
154.063890 6.000000
158.060380 108.000000
158.090300 7.000000
159.066410 49.000000
159.093550 9.000000
160.075560 999.000000
160.111720 12.000000
161.079670 132.000000
162.081860 9.000000
167.067260 19.000000
167.075610 5.000000
172.076130 48.000000
173.077590 8.000000
178.087690 87.000000
179.093670 9.000000
185.073720 9.000000
186.081530 8.000000
186.093720 17.000000
187.086690 281.000000
188.091090 41.000000
198.092450 6.000000
199.092420 8.000000
201.101850 123.000000
202.103500 17.000000
210.105420 7.000000
210.113510 6.000000
213.102940 113.000000
214.104140 13.000000
214.116150 7.000000
215.114820 48.000000
215.123500 26.000000
216.122280 12.000000
228.129820 5.000000
230.140930 10.000000
237.096620 11.000000
237.109300 8.000000
239.118100 45.000000
241.134840 66.000000
242.134460 10.000000
263.077970 5.000000
265.098510 112.000000
265.131710 19.000000
265.145230 5.000000
266.103450 20.000000
267.148590 116.000000
268.152100 26.000000
279.077180 9.000000
281.089480 76.000000
281.103940 20.000000
282.096500 32.000000
283.104190 54.000000
283.122410 7.000000
284.112060 6.000000
293.127810 9.000000
295.104980 17.000000
297.116270 10.000000
297.134920 8.000000
309.159820 45.000000
310.172850 7.000000
319.140660 10.000000
325.158570 17.000000
337.153870 218.000000
338.140780 12.000000
338.158840 56.000000
339.161250 8.000000
341.180390 12.000000
341.197140 7.000000
369.181880 1000.000000
369.238530 9.000000

>ms2
55.049380 5.000000
55.055790 13.000000
56.052550 14.000000
67.049160 7.000000
68.048430 14.000000
70.065040 10.000000
77.040180 22.000000
78.032510 15.000000
79.054820 17.000000
80.054090 19.000000
80.057640 7.000000
81.051480 10.000000
81.058940 27.000000
81.072010 11.000000
82.063350 7.000000
83.050170 10.000000
84.084980 5.000000
90.044610 6.000000
91.055480 52.000000
92.044230 5.000000
93.053080 6.000000
93.061090 5.000000
95.051800 9.000000
95.087960 6.000000
96.046080 9.000000
97.067200 7.000000
103.057410 15.000000
104.049380 73.000000
105.071820 61.000000
106.066690 29.000000
108.045090 23.000000
108.054060 6.000000
108.082600 44.000000
109.029990 10.000000
109.054220 70.000000
109.082030 9.000000
110.059300 6.000000
111.040910 30.000000
112.039350 6.000000
115.055280 501.000000
116.049670 56.000000
116.058470 85.000000
117.057690 390.000000
118.065610 280.000000
119.069540 13.000000
119.079520 7.000000
120.042920 12.000000
121.045810 6.000000
121.070340 7.000000
122.018260 11.000000
122.025280 26.000000
122.057110 10.000000
124.040950 156.000000
125.038380 16.000000
125.045290 10.000000
127.054730 51.000000
128.041920 8.000000
128.050090 68.000000
128.059520 22.000000
128.707310 8.000000
129.058170 7.000000
129.072340 7.000000
130.066730 498.000000
131.069350 81.000000
132.045700 781.000000
132.081250 1000.000000
133.050450 65.000000
133.070560 5.000000
133.085690 103.000000
134.063610 7.000000
135.044720 6.000000
139.039840 96.000000
139.071150 5.000000
140.043620 21.000000
140.051830 94.000000
140.062530 11.000000
141.052630 13.000000
141.058930 10.000000
142.065930 897.000000
143.026980 6.000000
143.069530 136.000000
144.045990 74.000000
144.070630 19.000000
144.081120 103.000000
145.052960 53.000000
145.072340 15.000000
145.080060 14.000000
145.087300 23.000000
145.910080 5.000000
146.058290 68.000000
146.097840 6.000000
147.071530 15.000000
151.065340 8.000000
153.054140 8.000000
153.060850 23.000000
153.073440 7.000000
154.065720 117.000000
155.064940 5.000000
155.071200 14.000000
156.046040 20.000000
156.082630 16.000000
158.060680 175.000000
158.079620 8.000000
158.090770 17.000000
158.099410 6.000000
159.058060 20.000000
159.066600 54.000000
159.092830 66.000000
160.046710 10.000000
160.076770 795.000000
161.080320 102.000000
162.080870 10.000000
165.078480 8.000000
166.062580 8.000000
166.071470 10.000000
167.050700 10.000000
167.064010 53.000000
167.075670 29.000000
168.063100 9.000000
168.079710 31.000000
169.076110 53.000000
169.087280 5.000000
169.975710 7.000000
170.052410 7.000000
170.064700 15.000000
170.089360 6.000000
171.054810 5.000000
171.066160 6.000000
171.098100 5.000000
172.068040 10.000000
172.077770 43.000000
173.065660 10.000000
173.076050 17.000000
173.101780 6.000000
173.108730 5.000000
178.088490 20.000000
180.074570 17.000000
180.082110 25.000000
181.080320 8.000000
181.087540 6.000000
182.061860 23.000000
183.070720 6.000000
183.087450 7.000000
184.061690 8.000000
184.073090 21.000000
184.084990 9.000000
185.074190 33.000000
185.081620 10.000000
185.105590 16.000000
185.313450 5.000000
186.078050 23.000000
186.093400 9.000000
187.086780 203.000000
188.059560 6.000000
188.092300 26.000000
190.056030 9.000000
192.085370 11.000000
193.084320 12.000000
194.058290 8.000000
194.103820 8.000000
195.092190 12.000000
196.079770 12.000000
196.091840 6.000000
197.069870 6.000000
199.085420 19.000000
201.098510 14.000000
201.109940 17.000000
202.118380 9.000000
206.085210 5.000000
208.076450 25.000000
209.071150 17.000000
209.083150 8.000000
209.101430 10.000000
209.116170 11.000000
210.097380 11.000000
211.092010 19.000000
211.109130 6.000000
211.120790 12.000000
213.106080 15.000000
217.084520 6.000000
219.076020 11.000000
219.092290 13.000000
223.100160 9.000000
225.072250 16.000000
227.072810 6.000000
227.127980 6.000000
235.094680 5.000000
236.056990 6.000000
236.074570 13.000000
237.101590 18.000000
237.146180 7.000000
238.080730 5.000000
239.111340 6.000000
245.075350 6.000000
247.089370 5.000000
250.073210 6.000000
254.108700 5.000000
265.102570 28.000000
267.158690 5.000000
275.122770 5.000000
279.075930 21.000000
281.082210 6.000000
281.094120 21.000000
282.092440 8.000000
293.130860 6.000000

>ms2
118.066090 6.000000
124.040310 13.000000
130.066990 6.000000
132.043640 11.000000
132.080890 24.000000
139.039430 9.000000
142.065690 22.000000
158.061050 11.000000
159.067870 6.000000
160.075420 114.000000
161.077770 16.000000
172.074580 6.000000
178.086980 10.000000
187.087140 30.000000
201.101000 18.000000
213.102740 12.000000
215.117550 7.000000
265.100490 8.000000
267.150330 12.000000
281.093600 10.000000
309.161990 5.000000
337.154790 52.000000
338.160250 10.000000
369.120180 6.000000
369.180940 1000.000000
369.236510 33.000000
369.286620 5.000000

>ms2
337.155940 6.000000
369.182710 1000.000000
369.237850 37.000000
369.288570 7.000000

>ms2
70.065940 11.000000
108.077090 12.000000
108.084620 16.000000
118.065050 23.000000
119.072950 5.000000
122.100040 5.000000
124.039540 85.000000
130.066670 16.000000
132.044660 46.000000
132.081970 129.000000
133.050600 6.000000
133.082490 14.000000
137.046430 9.000000
138.052720 13.000000
139.027450 5.000000
139.041260 41.000000
142.066130 87.000000
143.065400 7.000000
143.075290 7.000000
144.072770 7.000000
144.084720 16.000000
146.062120 5.000000
158.060130 93.000000
159.061190 11.000000
159.070920 19.000000
160.051900 7.000000
160.076390 924.000000
160.110790 10.000000
161.066300 9.000000
161.080470 119.000000
162.085750 7.000000
167.067810 8.000000
172.078890 33.000000
173.075000 9.000000
178.086150 68.000000
178.094270 25.000000
179.090990 11.000000
185.074840 11.000000
186.091890 10.000000
187.087810 281.000000
188.091170 45.000000
192.105160 6.000000
199.087340 13.000000
201.101090 88.000000
201.110460 50.000000
202.097900 9.000000
202.106410 6.000000
210.090420 5.000000
210.106930 12.000000
213.102250 113.000000
214.098500 6.000000
214.113920 18.000000
215.120420 69.000000
216.125200 14.000000
230.139970 8.000000
237.092880 7.000000
237.106050 17.000000
238.107380 7.000000
239.115330 31.000000
241.133770 60.000000
241.150440 5.000000
242.136870 11.000000
253.096270 5.000000
265.061710 5.000000
265.101260 114.000000
265.137360 15.000000
266.091830 9.000000
266.101380 13.000000
266.137420 6.000000
267.113980 6.000000
267.140140 28.000000
267.153530 91.000000
268.137180 6.000000
268.157530 18.000000
279.077480 9.000000
281.085420 42.000000
281.101100 48.000000
282.092740 11.000000
282.105870 11.000000
283.103610 31.000000
283.118870 10.000000
284.109070 11.000000
291.152250 9.000000
295.109070 23.000000
297.117460 11.000000
297.136230 9.000000
309.146060 13.000000
309.164490 25.000000
319.145900 9.000000
320.143340 5.000000
325.142430 5.000000
325.164400 8.000000
337.154850 196.000000
338.154880 46.000000
338.173070 18.000000
339.169650 9.000000
341.187350 8.000000
369.118840 7.000000
369.136900 12.000000
369.181610 1000.000000
369.231170 7.000000

>ms2
56.054600 5.000000
67.040190 6.000000
70.069300 12.000000
77.032470 9.000000
77.038520 7.000000
78.034120 13.000000
80.049470 21.000000
81.033610 20.000000
81.059480 10.000000
81.069940 20.000000
82.028670 10.000000
82.058310 10.000000
82.066860 27.000000
83.013610 16.000000
83.050060 7.000000
90.044920 7.000000
91.053890 17.000000
91.059950 11.000000
93.037380 6.000000
94.064500 8.000000
95.050130 12.000000
96.074630 7.000000
96.080180 15.000000
103.056140 23.000000
104.037170 5.000000
104.049760 32.000000
105.053960 10.000000
105.068930 40.000000
106.062900 6.000000
106.070400 24.000000
108.046850 23.000000
108.058280 9.000000
108.079860 43.000000
109.025010 6.000000
109.033290 10.000000
109.041950 15.000000
109.053250 30.000000
109.084890 6.000000
109.091320 8.000000
110.059170 7.000000
111.040350 13.000000
111.046890 17.000000
115.033980 7.000000
115.054480 540.000000
116.053410 100.000000
116.063290 11.000000
117.028830 11.000000
117.058980 418.000000
118.047010 10.000000
118.065840 299.000000
119.067990 18.000000
119.073200 13.000000
119.181870 5.000000
120.047950 7.000000
121.051720 6.000000
122.024330 34.000000
122.057360 7.000000
122.097040 6.000000
124.039630 128.000000
125.037190 5.000000
125.044330 7.000000
126.056040 7.000000
127.053090 43.000000
127.059590 14.000000
128.049760 94.000000
129.053920 11.000000
129.065490 7.000000
130.066010 445.000000
131.060620 20.000000
131.071590 85.000000
132.044480 724.000000
132.063230 8.000000
132.081050 969.000000
132.103010 6.000000
133.047940 85.000000
133.083740 88.000000
133.092060 20.000000
134.064040 10.000000
134.085110 9.000000
137.057650 7.000000
138.053830 21.000000
139.028630 6.000000
139.040830 65.000000
140.049640 112.000000
141.057420 31.000000
141.069720 9.000000
141.986690 8.000000
142.037310 10.000000
142.066470 1000.000000
143.049190 5.000000
143.067980 117.000000
143.077040 41.000000
144.046040 86.000000
144.069950 20.000000
144.082290 112.000000
145.050600 57.000000
145.062580 10.000000
145.069350 11.000000
145.082260 20.000000
146.056230 30.000000
146.070080 19.000000
151.061360 12.000000
152.044660 7.000000
152.058410 6.000000
153.057950 9.000000
153.066820 5.000000
154.064410 65.000000
155.071470 23.000000
156.039290 9.000000
156.047100 6.000000
156.082030 25.000000
157.052190 7.000000
157.084240 20.000000
158.060840 138.000000
158.085360 16.000000
158.097000 22.000000
159.067400 84.000000
159.093460 59.000000
159.110320 7.000000
160.056640 15.000000
160.076100 708.000000
161.079880 128.000000
166.057740 5.000000
166.065510 19.000000
167.059480 30.000000
167.071140 12.000000
167.077150 25.000000
168.075760 13.000000
168.085480 44.000000
169.062620 7.000000
169.074360 47.000000
169.081560 36.000000
170.055500 16.000000
170.064360 8.000000
170.092000 9.000000
171.063670 5.000000
171.073680 6.000000
172.056530 6.000000
172.062910 12.000000
172.076780 49.000000
173.050510 7.000000
173.064440 23.000000
173.078860 33.000000
173.112170 9.000000
175.077800 7.000000
178.069790 7.000000
178.083620 11.000000
180.080780 17.000000
181.080550 8.000000
181.088470 6.000000
182.063740 10.000000
183.069550 15.000000
183.082870 5.000000
184.065600 11.000000
184.075610 18.000000
185.070190 23.000000
185.090330 9.000000
186.076430 21.000000
186.099080 9.000000
187.052840 8.000000
187.087450 177.000000
188.089100 25.000000
188.102570 6.000000
190.045750 7.000000
191.078030 10.000000
193.074940 6.000000
194.037840 7.000000
195.060470 10.000000
195.070190 11.000000
195.104800 6.000000
196.093930 8.000000
197.064220 18.000000
197.075810 17.000000
198.079620 21.000000
199.082000 28.000000
201.107960 18.000000
202.100780 5.000000
202.110860 7.000000
204.083970 18.000000
206.094450 18.000000
207.063710 6.000000
208.062650 9.000000
208.073230 16.000000
208.105330 8.000000
209.089580 11.000000
209.103000 6.000000
209.111560 7.000000
210.053790 10.000000
210.064450 9.000000
210.083590 12.000000
211.079970 12.000000
211.089310 11.000000
211.120480 8.000000
213.090850 12.000000
213.110670 30.000000
215.120910 13.000000
216.079250 7.000000
219.076600 6.000000
219.098240 12.000000
220.078170 5.000000
220.097640 7.000000
223.055890 5.000000
223.086580 15.000000
225.103070 8.000000
235.090710 10.000000
237.057400 5.000000
237.078050 10.000000
237.099140 8.000000
237.106020 17.000000
238.057910 7.000000
247.115080 6.000000
251.115110 7.000000
252.094890 6.000000
265.084050 6.000000
265.103150 29.000000
265.134980 8.000000
279.077880 41.000000
280.379610 5.000000
352.289760 5.000000

