>compound PR68738148
>parentmass 299.0928
>ionization [M+H]+
>formula C17H14O5
>rt 405.000000
>profile qtof
#smiles_iso COC1=CC2=C(C=C1)C(=O)C(=C(O2)C3=CC(=CC=C3)OC)O
#smiles_can COC1=CC2=C(C=C1)C(=O)C(=C(O2)C3=CC(=CC=C3)OC)O
#inchikey PFMGWOVPHHEHAL-UHFFFAOYSA-N
#pubchem_id 688836
#mb_accession PR310903

>ms2peaks
51.277130 17.000000
79.052120 18.000000
92.024900 21.000000
95.016950 20.000000
96.016820 19.000000
102.049340 39.000000
105.069160 20.000000
107.039190 20.000000
107.046070 51.000000
108.015430 24.000000
108.050090 18.000000
109.055840 19.000000
113.750720 20.000000
115.050790 20.000000
118.038150 27.000000
119.046810 17.000000
119.612270 19.000000
120.055810 17.000000
121.062640 20.000000
122.036960 21.000000
123.005030 43.000000
124.014020 105.000000
127.977770 21.000000
128.069030 49.000000
129.066330 19.000000
131.053450 26.000000
132.054960 77.000000
132.060060 236.000000
133.031430 21.000000
133.060180 71.000000
133.067410 80.000000
134.072850 33.000000
135.040180 71.000000
135.051280 25.000000
137.056630 39.000000
140.059050 23.000000
141.073150 22.000000
141.085310 31.000000
145.056460 26.000000
145.069520 23.000000
149.020290 38.000000
150.012190 20.000000
150.997910 41.000000
151.004850 102.000000
151.035370 17.000000
151.058150 20.000000
152.013930 55.000000
153.076680 38.000000
155.048860 20.000000
155.210080 18.000000
156.001970 17.000000
156.060990 20.000000
157.052660 22.000000
157.064510 75.000000
163.042660 25.000000
163.955870 29.000000
164.037520 20.000000
165.079640 20.000000
166.025630 451.000000
166.038220 34.000000
166.073580 28.000000
166.291690 18.000000
167.012370 20.000000
167.030550 38.000000
167.040150 28.000000
167.053540 21.000000
168.056760 253.000000
168.495090 17.000000
169.040300 23.000000
169.053590 21.000000
169.075470 18.000000
170.071550 17.000000
170.663360 35.000000
171.052340 51.000000
171.087620 18.000000
172.057190 29.000000
172.089830 68.000000
172.731780 17.000000
173.100390 17.000000
174.070800 23.000000
174.084470 35.000000
175.043110 53.000000
176.040500 36.000000
176.049760 72.000000
180.061660 42.000000
181.075520 26.000000
182.049090 28.000000
182.070270 177.000000
182.085010 26.000000
182.242340 17.000000
183.078570 185.000000
183.088170 61.000000
184.081270 17.000000
185.049680 28.000000
185.058880 121.000000
185.073820 33.000000
186.046520 17.000000
186.070160 37.000000
187.059270 29.000000
187.069470 22.000000
188.072600 17.000000
190.056140 24.000000
191.945280 26.000000
193.057850 41.000000
194.054980 18.000000
195.047960 105.000000
195.058260 29.000000
196.046780 18.000000
196.057220 69.000000
197.048190 58.000000
197.055770 143.000000
197.095990 18.000000
197.107480 18.000000
197.212570 18.000000
198.064730 99.000000
199.037020 18.000000
199.045700 37.000000
199.077480 167.000000
200.080810 39.000000
208.049760 53.000000
208.217740 19.000000
209.868760 17.000000
210.061360 61.000000
210.077680 100.000000
211.065320 60.000000
211.078450 375.000000
212.044750 88.000000
212.056000 27.000000
212.078930 112.000000
212.086550 75.000000
212.303500 27.000000
213.051120 167.000000
213.061000 232.000000
213.085530 44.000000
214.053860 38.000000
214.066280 18.000000
214.118190 25.000000
216.997450 21.000000
219.907260 23.000000
224.045750 18.000000
225.050640 36.000000
225.062970 19.000000
226.050030 28.000000
226.065670 36.000000
227.069140 424.000000
227.093490 23.000000
227.895920 17.000000
228.055830 21.000000
228.068360 89.000000
228.075550 178.000000
228.088470 17.000000
229.087010 17.000000
230.062710 18.000000
230.474290 18.000000
238.066180 41.000000
238.899430 17.000000
239.069180 356.000000
239.078920 156.000000
239.402730 24.000000
239.474980 23.000000
240.049290 40.000000
240.066760 55.000000
240.078230 210.000000
241.033710 35.000000
241.050460 155.000000
241.060520 80.000000
241.080280 19.000000
242.036190 24.000000
242.049670 35.000000
243.060670 17.000000
243.103710 668.000000
243.954640 19.000000
244.109920 39.000000
246.764160 20.000000
250.061070 21.000000
252.022510 18.000000
252.046020 24.000000
253.091190 46.000000
254.054430 35.000000
255.061490 249.000000
255.081360 31.000000
256.055080 85.000000
256.073760 1278.000000
256.093570 61.000000
257.075040 289.000000
263.322300 17.000000
266.065550 19.000000
267.001800 21.000000
267.044710 25.000000
267.068570 312.000000
267.087740 20.000000
268.053890 35.000000
268.065920 58.000000
268.079410 18.000000
268.500700 21.000000
269.032590 20.000000
281.077820 32.000000
283.056300 213.000000
283.066710 185.000000
283.453460 17.000000
283.979800 18.000000
284.011720 17.000000
284.068570 2398.000000
284.898860 19.000000
285.038270 22.000000
285.076750 498.000000
285.090580 91.000000
286.068730 63.000000
287.076720 25.000000
287.088410 30.000000
293.366730 18.000000
298.082920 21.000000
299.008510 26.000000
299.037320 94.000000
299.062840 43.000000
299.092650 19768.000000
299.141690 181.000000
299.291380 18.000000

