>compound PR68707896
>parentmass 318.1335992
>ionization [M+H]+
>formula C17H19NO5
>rt 409.618980
>profile qtof
#smiles_iso COC1=CC(=CC(=C1OC)OC)/C=C/C(=O)N2CCC=CC2=O
#smiles_can COC1=CC(=CC(=C1OC)OC)C=CC(=O)N2CCC=CC2=O
#inchikey VABYUUZNAVQNPG-BQYQJAHWSA-N
#pubchem_id 637858
#mb_accession PR301590,PR301594,PR301598,PR301602,PR301606,PR301610,PR301614,PR301618,PR301622,PR301626,PR301630,PR301634

>ms2
77.039470 10.000000
77.044880 7.000000
91.057910 10.000000
98.065250 11.000000
102.045900 8.000000
103.049230 7.000000
105.061930 9.000000
115.062520 5.000000
117.037990 7.000000
118.043260 9.000000
119.041070 5.000000
119.048770 7.000000
120.822640 6.000000
129.035900 10.000000
130.039670 15.000000
131.019990 7.000000
131.053820 9.000000
132.051510 15.000000
135.043640 24.000000
144.014160 9.000000
146.039080 5.000000
147.035580 11.000000
147.047680 26.000000
149.061340 7.000000
150.228330 7.000000
159.001970 6.000000
160.054900 6.000000
161.020750 5.000000
161.052220 19.000000
161.069340 7.000000
162.056320 13.000000
162.069290 43.000000
163.028990 25.000000
163.038990 14.000000
163.047060 20.000000
163.081740 6.000000
167.076280 10.000000
174.026750 10.000000
174.065800 11.000000
175.043300 39.000000
176.019870 5.000000
176.033550 6.000000
176.051270 18.000000
177.056440 25.000000
178.056400 5.000000
178.070830 21.000000
179.073750 6.000000
181.091310 6.000000
188.052980 8.000000
189.057530 10.000000
190.036830 18.000000
190.049040 18.000000
190.064420 129.000000
190.073790 40.000000
191.023410 6.000000
191.039080 35.000000
191.065930 13.000000
192.070650 19.000000
193.033770 10.000000
193.068600 17.000000
193.083850 75.000000
193.092470 43.000000
194.089650 29.000000
194.112670 7.000000
206.049390 7.000000
206.059690 28.000000
207.068790 6.000000
212.068570 8.000000
221.005290 6.000000
221.046630 11.000000
221.080410 1000.000000
222.084950 169.000000
223.085750 25.000000
225.783950 7.000000
229.110780 6.000000
274.106900 14.000000
274.118740 7.000000
274.479770 6.000000
276.079220 7.000000
289.121220 9.000000
289.141540 19.000000
300.115200 5.000000
304.136260 7.000000
317.111690 11.000000
317.128050 56.000000
318.093540 5.000000
318.122650 22.000000
318.136600 65.000000

>ms2
205.053310 10.000000
219.455950 5.000000
221.035130 6.000000
221.081310 1000.000000
222.085750 147.000000
223.085620 28.000000
272.141390 8.000000
289.108800 8.000000
289.127590 8.000000
289.142150 10.000000
290.132570 7.000000
302.108730 8.000000
317.058530 10.000000
317.103730 13.000000
317.125520 167.000000
317.140200 51.000000
318.087590 7.000000
318.131990 370.000000
318.153020 33.000000

>ms2
91.050830 13.000000
91.056280 25.000000
92.059630 26.000000
102.049350 13.000000
104.057590 23.000000
105.036580 19.000000
105.064090 15.000000
106.023600 29.000000
115.298520 13.000000
118.034220 18.000000
119.049070 34.000000
124.400670 15.000000
129.015170 13.000000
130.035750 18.000000
130.041120 65.000000
131.039370 34.000000
131.050690 47.000000
131.059420 12.000000
132.048140 26.000000
132.060410 42.000000
133.061000 57.000000
133.070950 17.000000
135.051470 16.000000
135.083420 21.000000
145.024170 13.000000
145.030380 20.000000
146.030670 14.000000
146.036220 15.000000
146.063640 15.000000
147.043240 200.000000
148.046690 22.000000
148.054890 28.000000
149.045680 20.000000
149.055600 92.000000
149.066180 32.000000
150.076710 22.000000
151.068220 14.000000
157.035110 15.000000
158.040710 12.000000
158.047100 18.000000
159.039580 20.000000
160.889020 20.000000
161.028640 18.000000
161.062260 38.000000
162.060180 48.000000
162.069180 205.000000
162.081090 22.000000
163.034180 80.000000
163.045000 119.000000
163.070770 18.000000
164.035200 31.000000
165.072390 20.000000
165.092940 20.000000
171.046710 22.000000
174.021990 19.000000
174.065050 15.000000
175.035060 98.000000
175.042110 43.000000
175.058180 24.000000
176.036620 29.000000
176.046570 31.000000
176.055250 12.000000
176.948910 15.000000
177.040890 31.000000
177.051360 99.000000
178.029050 12.000000
178.042660 19.000000
178.062910 326.000000
179.057360 25.000000
179.064540 29.000000
179.073620 18.000000
180.080430 16.000000
188.046230 31.000000
189.053280 40.000000
190.034930 19.000000
190.062500 1000.000000
191.036300 307.000000
191.053630 32.000000
191.070270 173.000000
192.036940 34.000000
192.053150 16.000000
192.076430 29.000000
193.026690 12.000000
193.037770 12.000000
193.066240 14.000000
193.086300 690.000000
194.074230 12.000000
194.085540 64.000000
194.096530 53.000000
195.090480 18.000000
205.044490 18.000000
206.043300 18.000000
206.057280 300.000000
206.078540 15.000000
206.907140 13.000000
207.053050 80.000000
214.092100 18.000000
221.046050 24.000000
221.074650 182.000000
221.084010 349.000000
222.081100 36.000000
222.090880 17.000000
223.083280 15.000000
223.094910 45.000000
229.113300 12.000000
230.059520 24.000000
241.103350 13.000000
274.109340 29.000000
276.122990 16.000000

>ms2
77.040520 414.000000
78.046310 84.000000
79.055180 266.000000
91.056000 283.000000
92.023530 76.000000
92.058440 84.000000
101.043460 114.000000
102.038350 84.000000
102.048480 80.000000
102.053670 105.000000
103.050290 300.000000
103.056780 156.000000
104.022760 72.000000
105.072650 76.000000
107.051100 321.000000
107.058360 143.000000
116.062060 215.000000
117.034520 72.000000
117.044060 89.000000
118.039380 300.000000
119.050450 405.000000
119.057140 152.000000
120.013010 84.000000
120.021870 80.000000
120.198890 76.000000
121.023660 72.000000
129.028210 148.000000
129.037580 110.000000
130.038740 97.000000
131.043430 346.000000
131.056000 266.000000
132.020630 101.000000
132.053680 72.000000
133.034740 295.000000
134.041110 101.000000
135.044570 1000.000000
147.030000 97.000000
147.042770 966.000000
148.049240 346.000000
148.059130 152.000000
149.058650 321.000000
150.062520 110.000000
159.038860 72.000000
161.035490 198.000000
161.061630 489.000000
162.062290 84.000000
162.072600 97.000000
163.017210 84.000000
163.026780 76.000000
163.039020 637.000000
163.069900 76.000000
174.023820 110.000000
174.034030 122.000000
175.022260 84.000000
175.041060 266.000000
177.053540 76.000000
188.085740 76.000000
190.062930 127.000000
190.072980 118.000000
191.023320 72.000000
191.039660 160.000000

>ms2
107.051180 15.000000
117.031600 7.000000
118.036480 6.000000
118.045300 5.000000
119.050820 19.000000
120.061280 5.000000
121.032170 10.000000
121.067610 20.000000
122.075070 6.000000
124.338520 5.000000
129.036730 22.000000
131.047390 13.000000
131.056980 7.000000
133.029080 8.000000
135.044080 15.000000
135.076280 10.000000
147.020520 15.000000
147.045870 68.000000
148.052920 22.000000
149.048170 5.000000
150.074330 5.000000
150.523820 5.000000
150.726010 7.000000
157.029300 11.000000
158.032180 9.000000
160.053210 15.000000
160.077040 6.000000
160.692370 5.000000
161.062740 31.000000
162.060470 17.000000
162.067260 42.000000
162.079390 7.000000
163.040050 75.000000
163.177280 7.000000
164.041580 14.000000
167.068270 6.000000
173.016170 6.000000
174.031270 6.000000
174.068700 7.000000
175.034810 11.000000
175.041170 16.000000
176.043690 6.000000
177.057250 9.000000
178.065000 36.000000
180.076020 5.000000
188.044430 12.000000
189.052760 5.000000
190.060150 171.000000
191.031040 63.000000
191.040630 15.000000
191.076130 32.000000
192.035580 10.000000
192.071460 10.000000
193.064930 8.000000
193.082310 78.000000
193.089420 68.000000
194.088580 21.000000
194.097200 5.000000
195.063290 5.000000
205.051960 9.000000
206.057050 49.000000
221.048750 6.000000
221.081710 1000.000000
222.079770 86.000000
222.089540 59.000000
222.099400 21.000000
223.098390 7.000000
231.843920 5.000000
238.089020 5.000000
274.117310 5.000000
275.083860 7.000000
275.110870 15.000000
289.129330 12.000000
289.773010 6.000000
303.086240 8.000000
317.094880 6.000000
317.111390 23.000000
317.133700 50.000000
318.111790 10.000000
318.132840 116.000000

>ms2
177.050550 6.000000
193.069440 6.000000
205.042210 6.000000
221.045090 16.000000
221.081450 1000.000000
221.103910 6.000000
222.085170 113.000000
222.101330 15.000000
222.329990 6.000000
223.092670 16.000000
236.085660 5.000000
260.403050 13.000000
274.118470 10.000000
289.139860 17.000000
317.126160 313.000000
318.076750 6.000000
318.090450 8.000000
318.133090 359.000000
318.150210 53.000000

>ms2
86.530880 29.000000
89.039760 21.000000
90.044240 23.000000
99.042180 17.000000
106.074210 21.000000
107.075040 16.000000
107.715020 17.000000
118.044690 29.000000
119.053460 17.000000
130.043730 70.000000
131.010970 30.000000
131.047880 32.000000
132.052200 23.000000
132.057510 16.000000
133.055860 18.000000
134.035490 37.000000
135.044530 91.000000
136.045380 16.000000
136.054900 16.000000
143.122800 17.000000
144.052460 36.000000
146.059010 37.000000
146.850660 22.000000
147.020870 16.000000
147.043990 122.000000
148.049560 90.000000
149.052570 16.000000
149.063770 44.000000
150.065200 25.000000
156.604290 18.000000
158.038280 22.000000
158.044560 26.000000
160.045180 36.000000
161.042890 17.000000
161.062930 77.000000
162.023510 19.000000
162.062580 130.000000
162.074980 97.000000
163.027020 16.000000
163.039200 283.000000
163.072140 49.000000
163.080580 30.000000
164.033230 32.000000
164.040950 15.000000
164.081070 22.000000
165.049410 30.000000
165.091670 15.000000
166.041440 18.000000
169.026960 19.000000
173.027440 18.000000
173.060360 24.000000
174.030300 25.000000
174.038360 22.000000
175.040740 120.000000
176.041240 27.000000
176.051830 35.000000
177.058500 118.000000
178.042880 15.000000
178.060820 426.000000
178.089490 17.000000
178.783580 19.000000
179.049150 29.000000
179.070420 61.000000
180.068370 18.000000
186.087230 29.000000
188.030760 27.000000
189.053600 69.000000
190.044690 58.000000
190.064590 1000.000000
191.015170 30.000000
191.031100 166.000000
191.038820 289.000000
191.060490 75.000000
191.070660 230.000000
192.027730 24.000000
192.034390 17.000000
192.071930 16.000000
192.267720 18.000000
193.054950 47.000000
193.088550 572.000000
194.066350 24.000000
194.096830 59.000000
195.096450 17.000000
201.074190 37.000000
206.034870 15.000000
206.052260 129.000000
206.060500 210.000000
206.271960 16.000000
207.049350 15.000000
207.070250 23.000000
208.060550 24.000000
221.081150 643.000000
222.079450 92.000000
223.070600 17.000000
223.083270 15.000000
229.113490 17.000000
230.115460 23.000000
272.125610 17.000000
274.106660 42.000000

>ms2
65.044420 150.000000
75.025600 162.000000
77.036380 79.000000
78.045720 237.000000
79.053760 79.000000
90.043300 111.000000
91.055380 198.000000
92.030790 83.000000
92.059020 269.000000
102.044400 727.000000
102.051240 265.000000
103.048280 91.000000
103.054530 352.000000
105.036090 162.000000
105.070450 206.000000
107.045460 150.000000
115.049480 95.000000
116.054930 134.000000
118.040570 186.000000
119.042790 103.000000
119.052760 431.000000
119.627570 87.000000
120.021410 478.000000
120.056210 99.000000
129.038380 79.000000
130.043550 99.000000
131.034880 71.000000
131.047680 166.000000
132.013720 190.000000
132.021960 324.000000
132.041840 154.000000
132.055970 87.000000
133.026870 261.000000
133.036100 119.000000
133.057250 206.000000
134.039250 186.000000
135.045500 1000.000000
137.049760 67.000000
138.173220 83.000000
145.028270 150.000000
146.041720 79.000000
147.029360 221.000000
147.040330 617.000000
147.047180 241.000000
148.016680 87.000000
148.050130 352.000000
149.060180 482.000000
150.067640 79.000000
150.075180 75.000000
151.016620 91.000000
157.033040 71.000000
159.043840 91.000000
161.019780 83.000000
161.028610 103.000000
161.060620 281.000000
161.067250 83.000000
162.032030 79.000000
162.061800 79.000000
162.071060 316.000000
163.029970 111.000000
163.041430 660.000000
163.085540 83.000000
164.032140 91.000000
176.002760 107.000000
178.065810 134.000000
179.066800 99.000000
187.057500 99.000000
191.031390 95.000000
230.083150 71.000000

>ms2
78.049010 5.000000
98.049990 6.000000
108.682580 5.000000
119.053570 16.000000
122.066430 5.000000
122.072890 6.000000
131.047410 12.000000
133.018650 6.000000
133.031880 5.000000
133.066360 6.000000
134.075410 5.000000
135.044830 16.000000
142.042430 7.000000
147.047210 23.000000
149.060060 5.000000
149.069930 7.000000
149.292280 5.000000
150.161210 12.000000
159.042190 5.000000
160.049790 14.000000
161.061510 6.000000
162.067050 71.000000
163.032470 31.000000
163.040410 23.000000
163.074280 9.000000
167.535920 5.000000
170.180450 8.000000
174.033080 10.000000
175.043550 18.000000
176.051940 11.000000
177.052870 9.000000
178.059420 52.000000
179.065610 11.000000
188.046750 5.000000
188.366420 9.000000
189.050690 5.000000
190.062440 181.000000
191.030560 24.000000
191.038120 12.000000
191.064290 16.000000
191.076720 6.000000
193.073000 15.000000
193.084460 78.000000
194.088000 10.000000
206.045610 6.000000
206.052950 24.000000
207.063690 15.000000
208.064850 5.000000
221.014880 5.000000
221.030590 5.000000
221.080960 1000.000000
222.050870 5.000000
222.085650 126.000000
223.084380 16.000000
249.097890 6.000000
274.101590 16.000000
274.110780 17.000000
290.122160 8.000000
290.144010 17.000000
302.097290 6.000000
311.893400 5.000000
317.126280 44.000000
317.138210 26.000000
318.130620 70.000000
318.140290 25.000000

>ms2
98.055090 5.000000
98.060050 5.000000
221.082020 1000.000000
222.088610 170.000000
223.086290 8.000000
260.122560 5.000000
289.135470 11.000000
300.114560 7.000000
302.102540 16.000000
317.128200 236.000000
318.132930 404.000000

>ms2
51.024300 21.000000
77.028720 15.000000
91.049500 15.000000
91.054670 61.000000
102.042750 19.000000
106.790280 14.000000
107.055380 18.000000
108.055470 14.000000
109.071050 16.000000
119.053940 25.000000
121.063190 15.000000
131.045060 14.000000
132.058140 23.000000
133.061390 68.000000
134.034990 26.000000
134.077680 13.000000
135.030470 42.000000
135.045560 21.000000
136.087300 18.000000
145.027160 20.000000
145.067730 17.000000
145.074490 21.000000
145.093110 14.000000
146.035950 59.000000
146.060120 23.000000
147.032500 18.000000
147.043990 107.000000
147.052400 27.000000
148.049550 105.000000
148.064680 14.000000
149.038060 13.000000
149.061390 90.000000
150.062820 20.000000
152.597820 27.000000
160.046300 16.000000
161.015260 17.000000
161.024540 20.000000
161.059390 32.000000
162.052780 23.000000
162.068190 269.000000
163.038530 231.000000
163.070450 115.000000
163.080200 29.000000
164.041490 21.000000
167.067890 17.000000
174.016570 18.000000
174.027510 15.000000
174.048220 14.000000
174.054470 13.000000
175.036800 202.000000
176.044910 35.000000
177.041020 19.000000
177.052410 57.000000
177.061840 40.000000
178.063280 244.000000
178.507550 17.000000
178.826450 14.000000
179.070510 28.000000
180.087980 15.000000
181.348590 14.000000
186.034930 15.000000
187.035080 15.000000
187.045700 14.000000
189.024550 13.000000
189.049360 105.000000
189.058980 37.000000
190.062350 1000.000000
191.013820 19.000000
191.025050 105.000000
191.041900 113.000000
191.064940 128.000000
191.074570 43.000000
191.222430 16.000000
192.032590 13.000000
192.066830 19.000000
193.040470 18.000000
193.066090 13.000000
193.084780 664.000000
194.091580 100.000000
199.054140 15.000000
199.062760 19.000000
200.060390 15.000000
205.047350 88.000000
206.056900 500.000000
207.057220 49.000000
211.227220 13.000000
214.087540 21.000000
220.948530 13.000000
221.026080 18.000000
221.058010 13.000000
221.082030 685.000000
222.084300 125.000000
229.072860 15.000000
243.094120 21.000000
274.079530 17.000000
274.106290 50.000000
275.115300 19.000000
302.074580 13.000000

>ms2
77.041020 74.000000
78.050100 206.000000
79.054600 151.000000
79.064540 77.000000
89.044010 81.000000
90.047280 74.000000
91.049920 85.000000
91.057020 99.000000
94.041940 77.000000
101.033200 121.000000
102.045360 430.000000
102.050900 184.000000
103.040920 103.000000
103.056590 393.000000
103.062230 199.000000
104.988800 125.000000
105.032930 438.000000
105.063230 92.000000
107.023220 88.000000
107.055090 364.000000
115.054860 121.000000
118.035100 88.000000
118.040410 261.000000
118.048160 125.000000
119.010570 70.000000
119.049150 460.000000
120.022250 99.000000
120.048430 81.000000
121.026120 81.000000
130.037890 246.000000
130.045520 74.000000
131.050640 99.000000
132.020100 88.000000
132.054080 221.000000
133.023190 316.000000
133.062960 103.000000
134.042070 180.000000
135.034640 169.000000
135.052030 210.000000
136.049290 92.000000
145.021800 110.000000
146.042020 66.000000
147.038590 88.000000
148.041200 74.000000
148.048490 147.000000
148.058870 85.000000
150.036060 88.000000
150.065900 92.000000
159.032380 81.000000
161.022860 88.000000
161.032100 88.000000
161.057040 257.000000
161.062440 99.000000
162.049270 81.000000
162.148650 77.000000
163.019560 125.000000
163.037640 1000.000000
163.071590 107.000000
164.039900 154.000000
164.056520 143.000000
173.022990 77.000000
175.029540 66.000000
178.062990 77.000000
210.144520 62.000000

