>compound PR68456991
>parentmass 325.1910545
>ionization [M+H]+
>formula C20H24N2O2
>rt 201.245455
>profile qtof
#smiles_iso COC1=CC2=C(C=CN=C2C=C1)[C@H]([C@@H]3C[C@H]4CCN3C[C@H]4C=C)O
#smiles_can COC1=CC2=C(C=CN=C2C=C1)C(C3CC4CCN3CC4C=C)O
#inchikey LOUPRKONTZGTKE-VPCNSNALSA-N
#pubchem_id 6604605
#mb_accession PR301636,PR301639,PR301642,PR301645,PR301650,PR301655,PR301658,PR301661,PR301664,PR301667,PR301669,PR301672,PR301675,PR301678,PR301681,PR301684,PR301687,PR301690,PR301693,PR301696,PR301699,PR301702

>ms2
79.057280 8.000000
81.068640 6.000000
81.073260 9.000000
108.084190 8.000000
110.093840 8.000000
122.095860 14.000000
131.025590 5.000000
134.099750 9.000000
135.105900 10.000000
138.128630 16.000000
143.077030 5.000000
152.098460 6.000000
158.056060 9.000000
159.050260 7.000000
159.060700 6.000000
160.059070 9.000000
160.071560 25.000000
160.079040 69.000000
161.073560 8.000000
162.095490 9.000000
166.044160 8.000000
166.123670 20.000000
168.082570 7.000000
171.063640 10.000000
172.076680 59.000000
173.073720 6.000000
173.082060 17.000000
174.089830 26.000000
182.058300 7.000000
184.073030 33.000000
185.088900 9.000000
186.086320 7.000000
189.082120 5.000000
190.088060 9.000000
196.075330 6.000000
198.085860 10.000000
198.096070 11.000000
207.081670 6.000000
207.101850 7.000000
224.110210 11.000000
237.113800 7.000000
239.119420 5.000000
250.111830 10.000000
251.112270 5.000000
252.132570 8.000000
253.135790 8.000000
254.139160 8.000000
264.139470 19.000000
275.147370 8.000000
278.152340 9.000000
279.152590 7.000000
280.151760 5.000000
282.172270 8.000000
307.180910 20.000000
307.192660 6.000000
308.170260 9.000000
308.186220 6.000000
325.142760 13.000000
325.191500 1000.000000

>ms2
325.153660 5.000000
325.192080 1000.000000

>ms2
55.057800 22.000000
67.038770 26.000000
69.074170 42.000000
70.066310 49.000000
72.045820 37.000000
77.040090 25.000000
79.052160 103.000000
80.045850 19.000000
80.629040 19.000000
81.063290 38.000000
81.070640 197.000000
82.065990 67.000000
82.072330 25.000000
83.065260 19.000000
84.082870 42.000000
93.071500 17.000000
94.067580 18.000000
95.065510 18.000000
95.074480 18.000000
96.080200 44.000000
97.076120 18.000000
97.091850 22.000000
105.069340 38.000000
107.086170 20.000000
108.083870 179.000000
110.086500 27.000000
110.097140 80.000000
113.039550 20.000000
113.492320 19.000000
117.049730 18.000000
117.066780 29.000000
121.067860 22.000000
122.051510 19.000000
122.096480 53.000000
124.118480 26.000000
131.074040 17.000000
134.094530 22.000000
135.103450 32.000000
136.113160 23.000000
145.053600 43.000000
146.100110 20.000000
147.069950 20.000000
155.058790 18.000000
158.057020 29.000000
158.063720 17.000000
159.080520 24.000000
160.076570 1000.000000
160.108000 22.000000
160.844070 17.000000
161.070740 26.000000
161.078840 55.000000
162.092930 18.000000
163.091960 22.000000
166.056060 25.000000
166.120830 101.000000
166.129100 23.000000
167.117080 20.000000
169.053570 22.000000
169.852460 20.000000
170.052640 24.000000
171.062930 17.000000
171.073490 24.000000
172.078370 346.000000
172.797900 18.000000
172.863160 20.000000
173.078670 94.000000
173.085910 208.000000
174.058180 99.000000
174.092500 160.000000
175.085860 20.000000
175.632080 17.000000
176.099440 21.000000
179.895020 25.000000
182.059920 20.000000
184.074020 240.000000
184.088070 83.000000
184.287750 20.000000
185.077010 25.000000
186.056470 18.000000
186.073320 18.000000
186.087810 71.000000
186.096850 196.000000
187.063390 21.000000
187.097990 58.000000
188.061100 17.000000
188.072200 60.000000
189.065660 20.000000
189.075060 24.000000
190.086840 17.000000
194.085650 27.000000
195.668140 17.000000
196.086210 22.000000
197.068700 43.000000
197.084790 20.000000
198.092330 213.000000
198.099120 71.000000
199.060350 20.000000
199.086640 31.000000
199.096570 41.000000
199.201830 21.000000
200.099120 25.000000
200.112270 60.000000
201.280760 20.000000
202.085690 19.000000
203.098450 18.000000
203.205760 20.000000
210.085820 123.000000
210.125080 23.000000
211.089580 63.000000
212.104060 64.000000
213.094970 24.000000
213.102280 17.000000
214.068440 20.000000
214.092120 22.000000
215.079160 27.000000
215.093610 28.000000
215.117510 19.000000
220.123640 24.000000
221.079560 17.000000
221.101120 20.000000
222.094060 19.000000
223.082960 24.000000
224.092530 19.000000
224.103520 40.000000
224.117290 20.000000
225.110310 97.000000
226.111980 18.000000
227.127790 20.000000
230.104450 53.000000
234.125780 24.000000
236.110000 45.000000
237.016300 33.000000
237.114150 84.000000
238.115630 56.000000
238.133190 19.000000
239.123960 28.000000
243.120830 25.000000
244.057620 33.000000
246.112210 23.000000
247.104770 31.000000
249.103440 132.000000
250.110090 35.000000
250.129070 34.000000
251.113830 79.000000
251.127110 177.000000
252.118680 87.000000
252.139110 63.000000
253.139500 237.000000
254.115080 38.000000
254.138950 73.000000
254.150500 18.000000
254.166400 30.000000
255.149750 17.000000
261.109920 20.000000
263.134310 21.000000
264.101350 25.000000
264.131440 99.000000
265.138370 20.000000
265.569670 19.000000
266.139920 17.000000
266.150240 17.000000
275.123290 18.000000
277.124570 21.000000
277.135590 20.000000
277.149870 18.000000
277.167850 25.000000
278.129240 18.000000
278.138670 18.000000
278.162750 34.000000
279.130860 26.000000
279.150600 46.000000
279.166930 21.000000
282.139800 52.000000
282.153660 17.000000
283.144410 20.000000
283.261230 17.000000
291.143340 17.000000
293.182130 20.000000
295.176210 22.000000
297.172640 17.000000
307.150670 18.000000
307.164920 42.000000
307.183200 234.000000
308.168910 22.000000
308.182530 66.000000
309.200840 27.000000
325.192080 349.000000
325.210850 102.000000

>ms2
55.059390 115.000000
67.055560 74.000000
67.589550 70.000000
77.037510 96.000000
79.053650 467.000000
80.046410 63.000000
80.052010 78.000000
81.057620 74.000000
82.071050 115.000000
82.076770 122.000000
91.050400 189.000000
91.057350 111.000000
93.059530 126.000000
94.061460 178.000000
94.067890 74.000000
95.072200 181.000000
96.082830 63.000000
102.047450 122.000000
103.047790 67.000000
109.069840 78.000000
109.085490 63.000000
109.093500 78.000000
115.057240 133.000000
116.041580 74.000000
116.048270 163.000000
117.056990 689.000000
117.068240 237.000000
120.086910 104.000000
122.090680 74.000000
127.051810 100.000000
129.054720 141.000000
129.065600 133.000000
130.062480 89.000000
132.090940 144.000000
134.101590 144.000000
141.056140 93.000000
142.058780 204.000000
142.064640 63.000000
143.015760 81.000000
143.062290 81.000000
143.078580 163.000000
144.077970 226.000000
145.049680 222.000000
145.638290 78.000000
146.057270 248.000000
146.068770 85.000000
147.069560 96.000000
153.057710 85.000000
154.062760 337.000000
154.071870 304.000000
155.079730 130.000000
156.047040 233.000000
156.077650 144.000000
157.058210 111.000000
157.082570 89.000000
158.069690 133.000000
159.068020 200.000000
159.077800 96.000000
160.058470 189.000000
160.068940 300.000000
160.076250 1000.000000
161.074890 74.000000
161.089280 81.000000
165.066330 141.000000
167.070940 152.000000
167.079510 226.000000
168.055080 89.000000
168.069180 196.000000
168.077010 85.000000
169.081280 122.000000
170.060350 322.000000
171.065430 74.000000
172.068120 348.000000
172.079790 78.000000
174.053210 67.000000
174.060940 74.000000
180.073180 81.000000
180.084050 78.000000
181.047700 74.000000
182.058200 63.000000
182.066380 78.000000
182.094360 74.000000
183.070310 159.000000
184.080430 244.000000
184.120800 74.000000
185.085560 63.000000
186.061000 181.000000
188.086930 100.000000
189.075580 104.000000
191.066410 78.000000
193.089630 241.000000
195.068910 167.000000
196.070620 74.000000
196.095930 93.000000
197.080170 78.000000
198.098340 133.000000
204.087400 70.000000
205.076800 81.000000
206.065430 81.000000
207.071440 63.000000
208.084590 122.000000
209.088090 67.000000
210.087510 152.000000
210.096070 148.000000
211.083280 89.000000
212.098430 70.000000
217.095050 100.000000
219.704830 70.000000
221.058330 104.000000
222.094100 96.000000
225.094130 63.000000
238.129700 81.000000
248.101330 74.000000
248.127320 63.000000
251.108960 67.000000
275.153590 74.000000

>ms2
160.073410 6.000000
325.192140 1000.000000

>ms2
53.040890 61.000000
77.021970 64.000000
79.053590 240.000000
79.059150 61.000000
80.051700 152.000000
80.058780 64.000000
82.065560 67.000000
82.069240 52.000000
94.067770 58.000000
94.079660 61.000000
95.071210 55.000000
95.077480 64.000000
101.031140 52.000000
102.051280 164.000000
108.052120 73.000000
108.081890 55.000000
115.053110 140.000000
116.046470 82.000000
116.053310 94.000000
117.053700 131.000000
117.059490 556.000000
120.083130 122.000000
122.093060 64.000000
128.040680 146.000000
130.067290 73.000000
132.046860 61.000000
132.084550 76.000000
133.088240 61.000000
136.112470 73.000000
139.055220 61.000000
140.053760 70.000000
141.046310 91.000000
141.062650 100.000000
142.068070 52.000000
143.061810 85.000000
143.070720 289.000000
143.078450 152.000000
145.055240 337.000000
145.067430 146.000000
152.040570 61.000000
153.042600 70.000000
154.059160 140.000000
154.069310 559.000000
155.054210 58.000000
155.071960 249.000000
156.078140 182.000000
157.051030 158.000000
157.094130 79.000000
158.062040 277.000000
158.528640 52.000000
160.075000 1000.000000
161.073700 52.000000
161.080610 61.000000
165.038590 88.000000
166.057140 82.000000
168.034880 58.000000
168.075620 76.000000
168.082550 64.000000
169.053280 246.000000
169.076020 116.000000
170.030640 55.000000
170.067250 167.000000
170.101990 55.000000
171.064000 76.000000
172.074860 374.000000
172.087040 128.000000
173.069500 134.000000
173.079850 52.000000
174.050610 64.000000
174.058580 122.000000
181.084840 61.000000
182.083450 52.000000
183.069110 198.000000
183.113950 64.000000
186.090740 182.000000
188.065320 64.000000
188.079790 119.000000
188.100340 246.000000
192.077300 119.000000
194.060130 122.000000
194.093580 55.000000
195.104680 73.000000
196.070430 64.000000
196.079250 100.000000
197.089200 61.000000
198.094650 271.000000
200.095060 76.000000
204.072460 70.000000
206.102020 61.000000
206.115360 61.000000
208.076750 52.000000
210.076540 94.000000
211.101550 61.000000
212.104690 58.000000
217.089800 176.000000
218.100680 58.000000
219.092910 67.000000
220.096660 70.000000
221.102720 88.000000
226.089800 58.000000
232.095430 52.000000
233.115660 73.000000
235.093370 182.000000
235.120420 73.000000
249.105670 70.000000
250.122760 55.000000
271.853820 91.000000

>ms2
79.055780 8.000000
81.072560 9.000000
91.058450 8.000000
105.074630 6.000000
107.073230 11.000000
107.079800 9.000000
122.098390 7.000000
132.043590 7.000000
135.102620 8.000000
135.111980 8.000000
136.075130 6.000000
136.113010 8.000000
143.075120 10.000000
145.052230 10.000000
158.060290 9.000000
160.075440 45.000000
160.082690 27.000000
161.076510 6.000000
161.085450 9.000000
166.117860 15.000000
167.074720 7.000000
170.027100 7.000000
172.074750 16.000000
173.081280 8.000000
173.088710 6.000000
174.051530 11.000000
174.058260 7.000000
174.088710 7.000000
174.099440 13.000000
174.120390 6.000000
182.049450 10.000000
183.070530 10.000000
184.070760 9.000000
184.079320 9.000000
186.086640 7.000000
188.104260 6.000000
189.078120 20.000000
197.074330 8.000000
198.082140 8.000000
198.095840 11.000000
202.085040 7.000000
210.097260 12.000000
223.094670 7.000000
227.118530 16.000000
231.963500 6.000000
236.096500 8.000000
237.108370 10.000000
249.097870 6.000000
250.124310 11.000000
251.117650 15.000000
253.136510 39.000000
254.152270 7.000000
263.126770 8.000000
264.137300 15.000000
265.122800 7.000000
307.163850 7.000000
307.190950 70.000000
308.185180 14.000000
325.161380 16.000000
325.194270 1000.000000
325.387820 6.000000

>ms2
325.125060 5.000000
325.146510 7.000000
325.192170 1000.000000

>ms2
67.055010 15.000000
69.059640 22.000000
70.064730 24.000000
79.051410 15.000000
79.055450 30.000000
80.052380 50.000000
80.056740 35.000000
81.061750 33.000000
81.068620 61.000000
81.076250 84.000000
82.066570 65.000000
82.074880 21.000000
83.081930 27.000000
84.080890 13.000000
86.063840 20.000000
90.614270 16.000000
91.054650 39.000000
92.548950 25.000000
93.068530 15.000000
94.066920 31.000000
95.074950 27.000000
96.086130 14.000000
106.064830 42.000000
107.077840 21.000000
107.084070 24.000000
107.091070 15.000000
108.080180 141.000000
109.091090 14.000000
110.091790 33.000000
110.100020 34.000000
111.096630 53.000000
112.207600 13.000000
117.060080 37.000000
118.065850 18.000000
119.082280 18.000000
120.083030 92.000000
122.097590 62.000000
123.894040 15.000000
124.108000 20.000000
131.073900 13.000000
132.085010 21.000000
134.092470 86.000000
134.103780 13.000000
135.091490 13.000000
136.113880 77.000000
137.115860 14.000000
137.151280 22.000000
138.107240 22.000000
138.129840 35.000000
139.131710 13.000000
139.553920 18.000000
139.780980 20.000000
142.046660 13.000000
145.051670 31.000000
146.064040 24.000000
147.067430 18.000000
155.065660 20.000000
158.061400 48.000000
159.060870 35.000000
159.084240 13.000000
160.075870 1000.000000
160.784120 13.000000
161.067840 13.000000
161.078800 43.000000
161.088380 72.000000
161.099750 18.000000
162.088670 47.000000
163.075780 18.000000
163.105220 38.000000
164.110210 20.000000
166.119930 129.000000
167.071620 18.000000
167.123310 23.000000
167.129590 27.000000
168.061940 30.000000
169.042820 13.000000
169.055790 19.000000
170.061220 43.000000
172.021410 20.000000
172.046810 44.000000
172.066860 78.000000
172.077900 189.000000
173.072160 12.000000
173.081620 163.000000
174.054460 14.000000
174.078120 33.000000
174.092740 123.000000
175.040360 16.000000
175.092730 21.000000
180.280260 14.000000
183.063160 15.000000
184.074370 369.000000
185.078920 119.000000
186.053440 20.000000
186.070420 17.000000
186.093690 135.000000
186.107150 50.000000
187.083620 16.000000
187.097270 19.000000
188.062380 24.000000
188.069820 54.000000
188.094560 17.000000
189.003400 18.000000
189.069790 15.000000
189.082610 109.000000
193.077590 28.000000
193.086260 35.000000
195.055980 16.000000
195.072830 13.000000
196.069200 38.000000
196.080350 16.000000
196.103120 15.000000
197.065170 20.000000
197.112140 18.000000
197.121640 19.000000
198.062150 15.000000
198.076750 15.000000
198.087310 33.000000
198.093720 79.000000
198.105550 21.000000
198.200740 13.000000
199.066700 20.000000
199.091930 13.000000
199.111940 14.000000
200.095640 13.000000
201.085940 18.000000
201.101940 50.000000
202.082400 46.000000
202.099880 41.000000
204.078460 27.000000
209.083450 35.000000
210.080980 69.000000
210.095250 95.000000
211.052730 20.000000
211.074710 26.000000
212.100920 64.000000
212.114400 14.000000
213.102050 18.000000
214.089690 96.000000
220.067490 14.000000
221.091510 13.000000
221.103590 40.000000
222.099410 44.000000
223.098070 16.000000
223.136980 13.000000
224.112850 33.000000
225.104220 18.000000
226.126330 47.000000
227.107450 15.000000
227.129070 17.000000
231.131850 30.000000
234.119900 13.000000
236.094040 26.000000
236.107740 44.000000
236.119740 39.000000
238.112690 26.000000
238.128160 15.000000
239.112960 14.000000
239.125370 14.000000
245.114440 13.000000
247.089490 13.000000
248.093730 28.000000
248.131640 15.000000
249.115720 13.000000
250.115190 15.000000
250.127090 35.000000
251.109830 58.000000
252.099460 16.000000
252.119030 13.000000
252.141420 15.000000
253.114720 35.000000
253.129550 99.000000
253.137130 247.000000
254.140520 14.000000
260.108280 32.000000
261.122770 20.000000
263.132260 24.000000
264.127410 15.000000
264.137080 14.000000
264.153750 15.000000
265.116000 14.000000
265.142270 74.000000
265.158200 21.000000
266.149960 13.000000
266.169710 16.000000
267.165710 16.000000
268.166750 15.000000
274.130100 24.000000
275.096130 19.000000
275.155150 47.000000
276.149960 13.000000
277.130310 15.000000
278.137020 41.000000
278.154570 52.000000
278.167480 20.000000
279.138180 56.000000
279.158540 58.000000
280.116270 16.000000
280.141720 13.000000
280.153200 15.000000
281.158260 13.000000
281.171080 24.000000
282.152010 32.000000
282.167210 16.000000
282.179810 13.000000
297.169160 14.000000
297.197480 16.000000
307.164670 44.000000
307.187500 143.000000
308.172030 18.000000
308.183440 15.000000
312.122040 20.000000
325.158720 16.000000
325.184540 146.000000
325.198090 173.000000

>ms2
65.041510 104.000000
67.055500 281.000000
68.057980 61.000000
77.041090 72.000000
79.054670 403.000000
80.049160 201.000000
80.057840 65.000000
81.068310 309.000000
81.078640 76.000000
82.067660 327.000000
86.055220 83.000000
93.070750 86.000000
94.066250 97.000000
95.066660 83.000000
103.054600 61.000000
106.066930 97.000000
107.049200 65.000000
108.086060 86.000000
115.032390 137.000000
115.054450 273.000000
117.058470 737.000000
118.052790 83.000000
118.063640 133.000000
118.072570 61.000000
123.099640 65.000000
127.056630 158.000000
128.048220 72.000000
130.063580 101.000000
130.069460 61.000000
132.079880 83.000000
134.057480 61.000000
141.058110 590.000000
142.050800 86.000000
142.062990 68.000000
142.948410 72.000000
143.064730 309.000000
143.075130 612.000000
144.064670 122.000000
144.079830 61.000000
145.050460 583.000000
146.051330 155.000000
146.063750 72.000000
154.054180 68.000000
154.068540 597.000000
155.064990 349.000000
155.075560 158.000000
156.079360 187.000000
157.050220 288.000000
157.308730 65.000000
158.061290 72.000000
159.067170 489.000000
160.078090 1000.000000
160.093540 61.000000
161.073620 79.000000
166.058000 137.000000
166.069080 90.000000
166.074770 108.000000
167.062440 158.000000
167.075700 367.000000
167.096860 76.000000
168.074390 360.000000
169.043750 187.000000
169.051070 353.000000
169.079510 108.000000
170.057690 119.000000
170.067290 68.000000
172.016390 79.000000
172.068180 173.000000
172.078460 72.000000
173.033570 119.000000
174.051440 219.000000
176.072110 83.000000
179.067920 140.000000
179.081010 65.000000
180.073070 86.000000
181.100620 65.000000
182.055110 165.000000
182.063860 90.000000
183.073030 61.000000
183.082310 90.000000
183.092040 72.000000
184.075730 65.000000
185.088200 72.000000
186.086380 104.000000
186.097670 108.000000
187.059310 72.000000
188.070690 345.000000
188.095750 126.000000
189.083020 76.000000
192.086180 119.000000
193.073210 61.000000
195.091840 79.000000
196.058670 72.000000
197.065990 97.000000
197.085190 65.000000
198.070360 65.000000
198.088650 137.000000
206.087810 219.000000
206.103820 101.000000
207.084470 72.000000
207.094940 72.000000
210.067660 83.000000
210.109450 68.000000
211.080310 97.000000
212.464950 79.000000
218.082400 72.000000
219.097990 155.000000
220.075160 79.000000
221.121410 97.000000
222.089220 83.000000
224.111690 97.000000
233.109160 68.000000
234.086120 212.000000
235.135010 76.000000
235.697200 119.000000
237.274310 76.000000
237.875670 101.000000
238.096850 61.000000
248.107740 101.000000
251.121080 72.000000
252.114900 205.000000
258.121340 140.000000
261.135100 68.000000

>ms2
81.069210 21.000000
83.072170 6.000000
84.048800 7.000000
94.066830 6.000000
95.075450 13.000000
103.061640 6.000000
105.069180 11.000000
107.072810 5.000000
110.097180 9.000000
122.089440 10.000000
125.085080 6.000000
130.062090 5.000000
134.098270 24.000000
138.127910 13.000000
143.072020 18.000000
144.078020 6.000000
144.084240 11.000000
145.050430 5.000000
155.080150 6.000000
159.067980 7.000000
160.078780 89.000000
161.059420 7.000000
161.080610 19.000000
162.058590 12.000000
162.088010 7.000000
166.124920 36.000000
171.155440 5.000000
172.072420 17.000000
172.083590 14.000000
173.074950 13.000000
173.084080 23.000000
173.093840 5.000000
174.094220 41.000000
182.061370 7.000000
183.059390 5.000000
183.075380 6.000000
183.105880 7.000000
184.065730 7.000000
184.078000 17.000000
186.091460 28.000000
186.781190 6.000000
187.094410 9.000000
188.071320 12.000000
196.076510 7.000000
198.087170 17.000000
199.088670 6.000000
205.483080 6.000000
216.073500 7.000000
218.100250 6.000000
221.131420 6.000000
224.100910 12.000000
227.125000 6.000000
234.096820 5.000000
234.129100 6.000000
239.126560 6.000000
240.135530 6.000000
251.128170 5.000000
252.120770 8.000000
252.143300 5.000000
253.128490 17.000000
254.127980 6.000000
254.148280 7.000000
255.151030 10.000000
263.124360 7.000000
264.140050 8.000000
265.148040 5.000000
268.182190 5.000000
279.139310 5.000000
282.159150 6.000000
291.159180 5.000000
307.177920 14.000000
307.191740 27.000000
308.209170 8.000000
325.151210 19.000000
325.192260 1000.000000
325.247250 10.000000
325.336060 7.000000

>ms2
325.146030 17.000000
325.191560 1000.000000

>ms2
67.053410 39.000000
77.026080 18.000000
77.041260 22.000000
79.054000 34.000000
79.059780 32.000000
80.045740 15.000000
80.052860 65.000000
81.067570 90.000000
81.072410 65.000000
82.064820 68.000000
82.071210 36.000000
84.073270 21.000000
91.724080 19.000000
93.071780 52.000000
94.064990 15.000000
95.077350 16.000000
95.087230 47.000000
96.076450 19.000000
96.086100 24.000000
99.523100 21.000000
105.069250 25.000000
108.081090 45.000000
108.084630 19.000000
109.091060 17.000000
110.101100 101.000000
111.112400 21.000000
117.055150 27.000000
120.084790 21.000000
125.085670 19.000000
130.059050 20.000000
131.066470 21.000000
131.073670 18.000000
133.375560 24.000000
134.087800 19.000000
134.100740 19.000000
136.073650 16.000000
136.106310 25.000000
136.115260 16.000000
138.121950 20.000000
138.133650 19.000000
142.064970 23.000000
143.065900 23.000000
145.053600 19.000000
149.114720 20.000000
154.068130 18.000000
156.071290 22.000000
157.327560 18.000000
158.060290 44.000000
159.070800 41.000000
160.076080 1000.000000
161.067790 16.000000
161.081800 59.000000
162.086880 44.000000
162.112060 16.000000
163.216890 15.000000
166.062760 15.000000
166.119350 217.000000
167.127400 18.000000
168.079590 18.000000
168.087040 16.000000
169.051990 48.000000
169.085270 19.000000
170.065090 16.000000
172.058270 18.000000
172.072890 105.000000
172.079320 157.000000
173.078430 70.000000
173.087570 33.000000
174.050920 30.000000
174.069430 22.000000
174.096340 78.000000
176.073970 19.000000
182.057390 24.000000
182.068970 56.000000
184.066640 27.000000
184.077880 176.000000
185.078520 15.000000
185.084900 29.000000
186.052140 19.000000
186.084000 48.000000
186.092390 71.000000
186.889010 16.000000
187.089540 26.000000
188.089690 16.000000
189.077620 98.000000
189.089190 17.000000
196.074400 18.000000
197.081910 49.000000
197.092970 26.000000
198.059080 38.000000
198.091060 56.000000
199.082990 19.000000
199.104610 18.000000
200.103760 42.000000
200.120850 28.000000
202.040650 26.000000
202.094970 19.000000
204.097730 20.000000
209.082150 20.000000
210.083720 25.000000
210.092060 14.000000
210.131550 19.000000
212.106290 19.000000
213.099120 19.000000
214.077930 23.000000
214.086730 16.000000
218.101790 24.000000
219.156740 16.000000
220.105190 21.000000
221.076400 21.000000
223.095700 24.000000
223.110660 41.000000
223.529250 34.000000
224.101780 15.000000
224.110610 15.000000
225.104170 32.000000
227.119740 20.000000
231.104310 18.000000
232.096340 19.000000
232.112050 22.000000
233.113460 15.000000
233.121830 27.000000
234.088810 20.000000
234.136220 23.000000
235.093840 18.000000
236.112920 36.000000
237.106220 40.000000
237.124950 21.000000
239.096980 15.000000
242.106410 19.000000
247.101720 18.000000
248.085710 16.000000
248.106920 48.000000
249.017330 18.000000
250.127930 26.000000
251.120960 121.000000
251.134600 28.000000
252.108760 15.000000
253.130650 43.000000
254.133650 45.000000
254.159350 26.000000
259.123350 27.000000
260.114470 21.000000
262.151370 16.000000
264.138000 79.000000
264.153660 18.000000
265.140750 39.000000
266.135800 54.000000
266.149930 23.000000
267.158910 19.000000
267.830750 20.000000
270.784150 16.000000
277.143650 17.000000
277.166600 25.000000
278.130000 34.000000
278.159450 19.000000
278.856990 27.000000
279.148320 78.000000
279.163850 17.000000
281.167360 23.000000
282.136290 15.000000
283.143860 19.000000
291.156890 15.000000
292.165280 18.000000
295.175630 19.000000
307.166140 57.000000
307.177550 168.000000
307.192380 40.000000
308.175720 18.000000
310.154720 18.000000
325.168790 46.000000
325.188320 155.000000
325.203640 41.000000

>ms2
67.041020 123.000000
77.040020 129.000000
79.051320 281.000000
81.066530 117.000000
81.071220 111.000000
81.078040 146.000000
82.066020 105.000000
90.047870 105.000000
90.371770 228.000000
91.051380 251.000000
92.114070 287.000000
93.072240 310.000000
95.071660 140.000000
110.058790 146.000000
116.038380 111.000000
116.051360 135.000000
117.047460 246.000000
117.056550 561.000000
117.069900 99.000000
118.059490 99.000000
129.064560 140.000000
130.067400 246.000000
130.074400 117.000000
131.078720 421.000000
132.635090 99.000000
141.054630 158.000000
142.063930 170.000000
142.072920 193.000000
143.074430 304.000000
143.079510 111.000000
143.942320 111.000000
144.075970 146.000000
144.085040 117.000000
145.052430 468.000000
145.059890 246.000000
146.061290 117.000000
155.073930 491.000000
157.056630 117.000000
158.054810 129.000000
159.066800 170.000000
160.071870 415.000000
160.078750 1000.000000
161.079150 117.000000
166.069600 140.000000
167.076020 251.000000
167.086320 123.000000
168.081100 140.000000
169.053820 263.000000
170.064770 152.000000
172.089020 146.000000
175.102100 181.000000
182.059660 187.000000
183.054600 146.000000
183.066760 105.000000
183.077210 257.000000
184.071110 99.000000
185.052190 152.000000
186.100630 199.000000
190.077030 111.000000
191.060810 105.000000
192.083010 298.000000
193.079250 170.000000
196.073360 158.000000
197.078770 164.000000
197.089140 170.000000
198.092160 105.000000
200.076190 123.000000
205.059540 140.000000
205.088680 111.000000
206.086180 211.000000
207.070680 123.000000
208.068080 99.000000
209.068100 117.000000
209.087460 123.000000
209.504120 123.000000
211.098250 251.000000
214.075780 117.000000
216.111390 105.000000
217.087490 146.000000
218.100280 117.000000
219.109210 146.000000
220.093490 129.000000
224.100570 135.000000
233.087660 99.000000
234.116360 123.000000
235.137440 105.000000
246.090730 135.000000

>ms2
56.049710 7.000000
79.052800 8.000000
79.060260 14.000000
80.048800 21.000000
81.072470 13.000000
82.064950 10.000000
94.069690 6.000000
105.075460 5.000000
110.094470 22.000000
121.088170 13.000000
145.054050 6.000000
156.080520 9.000000
158.059650 6.000000
159.056750 6.000000
159.070450 6.000000
160.072130 46.000000
160.078920 36.000000
161.083860 8.000000
166.120290 15.000000
166.127260 6.000000
169.054340 7.000000
172.078380 13.000000
172.089480 6.000000
173.085330 12.000000
174.084430 6.000000
174.093920 14.000000
182.061490 5.000000
183.060120 8.000000
183.069750 8.000000
183.107600 7.000000
184.074690 50.000000
186.088380 32.000000
188.070050 5.000000
189.083370 13.000000
195.074780 6.000000
196.081340 8.000000
198.063160 6.000000
198.090000 8.000000
198.100140 9.000000
202.809400 6.000000
219.104340 9.000000
220.078480 5.000000
223.103150 6.000000
224.105900 5.000000
226.128010 8.000000
227.108460 7.000000
227.120510 5.000000
229.078190 7.000000
234.078190 13.000000
235.088270 5.000000
235.106630 6.000000
238.115540 9.000000
250.120350 8.000000
251.048550 5.000000
251.120120 8.000000
253.137130 19.000000
258.794530 10.000000
261.120510 6.000000
264.143220 8.000000
266.174800 5.000000
282.153020 7.000000
291.170590 5.000000
292.580630 7.000000
307.182040 56.000000
308.188960 10.000000
325.152740 16.000000
325.192380 1000.000000

>ms2
325.152340 8.000000
325.191620 1000.000000

>ms2
51.023750 42.000000
79.056240 221.000000
80.046010 34.000000
81.072160 243.000000
82.064450 28.000000
83.061620 38.000000
91.049030 28.000000
91.054820 65.000000
94.070110 25.000000
95.073040 124.000000
96.081950 28.000000
97.088660 28.000000
105.076160 39.000000
107.082500 37.000000
108.075770 34.000000
108.084230 31.000000
109.082110 24.000000
110.096980 66.000000
117.066870 25.000000
118.061040 41.000000
119.071330 67.000000
120.082310 56.000000
121.083140 24.000000
122.094840 35.000000
122.105270 38.000000
124.110100 28.000000
125.117000 32.000000
132.066350 34.000000
134.092040 79.000000
134.096360 41.000000
136.110640 73.000000
136.118230 46.000000
137.115450 31.000000
138.124830 28.000000
143.075390 28.000000
145.048280 25.000000
147.063870 37.000000
154.065310 31.000000
154.071620 34.000000
158.061000 142.000000
159.067000 37.000000
160.075350 1000.000000
161.078580 88.000000
162.080110 79.000000
162.091720 46.000000
166.120240 256.000000
166.130650 226.000000
167.121380 31.000000
168.080920 67.000000
168.086010 28.000000
169.047590 96.000000
170.062480 35.000000
171.070360 28.000000
172.074870 299.000000
173.081910 221.000000
174.065230 25.000000
174.095150 145.000000
175.097370 48.000000
180.078690 32.000000
181.088240 27.000000
182.053390 31.000000
183.065480 91.000000
183.074690 42.000000
183.102910 37.000000
184.055570 31.000000
184.075230 395.000000
185.086330 66.000000
186.050320 60.000000
186.059770 31.000000
186.087480 251.000000
187.104810 35.000000
188.066160 66.000000
189.076230 133.000000
189.083360 204.000000
190.078780 86.000000
195.061290 28.000000
195.108280 63.000000
196.080860 35.000000
196.102630 34.000000
196.182710 24.000000
197.088680 72.000000
198.091870 263.000000
199.089370 35.000000
199.097050 24.000000
200.080990 46.000000
200.107800 79.000000
202.086870 72.000000
203.072740 31.000000
204.079380 27.000000
204.102740 31.000000
207.060320 28.000000
207.095490 34.000000
209.079300 24.000000
210.077240 52.000000
210.088940 63.000000
210.107590 74.000000
211.088290 88.000000
212.083820 28.000000
212.823620 24.000000
213.105910 34.000000
214.073470 29.000000
214.082930 31.000000
216.099900 37.000000
217.084640 25.000000
217.110920 34.000000
219.467150 59.000000
221.130260 24.000000
224.112370 29.000000
225.111950 96.000000
226.129490 25.000000
227.121250 181.000000
230.091920 65.000000
232.109770 34.000000
234.083360 25.000000
234.117520 62.000000
236.110280 154.000000
237.098180 100.000000
237.151250 35.000000
238.120710 35.000000
239.084170 31.000000
239.119230 25.000000
242.099040 39.000000
244.104710 25.000000
247.126390 31.000000
249.112810 25.000000
251.110090 135.000000
251.122800 91.000000
252.104160 25.000000
252.123890 65.000000
252.144910 51.000000
253.090450 28.000000
253.106800 29.000000
253.136630 338.000000
253.213970 24.000000
254.126480 52.000000
254.134870 72.000000
255.129090 31.000000
255.142380 28.000000
262.113400 52.000000
263.113070 28.000000
264.136320 27.000000
264.146670 24.000000
266.139040 42.000000
266.149170 27.000000
276.115970 25.000000
276.159090 32.000000
277.169800 28.000000
278.158810 27.000000
279.147770 51.000000
279.164120 25.000000
280.149930 35.000000
288.134800 28.000000
293.156890 31.000000
293.528350 28.000000
296.169040 59.000000
306.168300 34.000000
307.180050 438.000000
308.185390 51.000000
318.398010 29.000000
320.765900 52.000000
325.190250 348.000000

>ms2
55.048770 166.000000
65.121120 74.000000
68.047450 79.000000
68.054580 157.000000
70.062830 105.000000
77.037460 188.000000
79.055430 74.000000
79.059870 166.000000
80.172890 74.000000
81.069440 105.000000
82.060070 118.000000
82.067300 100.000000
82.071780 188.000000
91.052010 122.000000
107.080060 92.000000
109.089840 105.000000
115.052770 92.000000
115.058160 183.000000
117.052150 288.000000
117.057990 642.000000
118.050720 157.000000
118.062730 87.000000
120.883700 79.000000
121.091320 92.000000
129.059970 122.000000
130.066180 162.000000
131.049120 79.000000
132.077390 109.000000
138.126400 105.000000
138.132130 131.000000
141.052410 231.000000
142.067930 197.000000
143.069720 284.000000
143.076480 201.000000
145.046740 223.000000
145.053100 1000.000000
145.060120 454.000000
146.055800 266.000000
146.063870 87.000000
147.069820 157.000000
154.072010 279.000000
155.072720 157.000000
156.068370 127.000000
156.078740 197.000000
157.083940 135.000000
158.047970 127.000000
160.066680 266.000000
160.073900 463.000000
161.078810 218.000000
163.884670 79.000000
165.046010 79.000000
166.064210 83.000000
167.072100 109.000000
168.064850 175.000000
168.079740 87.000000
169.062100 100.000000
170.059830 227.000000
170.072420 87.000000
170.085540 170.000000
171.050720 74.000000
171.066820 92.000000
171.076830 127.000000
172.074830 450.000000
172.084640 109.000000
173.079240 223.000000
174.056820 201.000000
174.067210 79.000000
179.863890 114.000000
180.067460 87.000000
180.084750 79.000000
181.087620 74.000000
182.058760 162.000000
183.093480 109.000000
184.065690 87.000000
184.079990 96.000000
185.080140 87.000000
186.055590 109.000000
186.086330 96.000000
186.094560 258.000000
190.079880 127.000000
193.067700 92.000000
193.077770 87.000000
193.085050 83.000000
195.069410 114.000000
198.087280 74.000000
198.098800 153.000000
199.070880 96.000000
203.097760 114.000000
204.081740 301.000000
205.093630 79.000000
206.084760 192.000000
207.092160 92.000000
207.103640 92.000000
209.083980 135.000000
210.099080 87.000000
211.084470 131.000000
219.083660 74.000000
219.105700 118.000000
220.038680 83.000000
220.084270 74.000000
222.097120 87.000000
223.078660 87.000000
223.087680 96.000000
235.080930 79.000000
239.125150 144.000000
251.109040 118.000000
274.126220 109.000000
293.108700 79.000000

>ms2
80.049840 12.000000
96.078580 6.000000
108.077960 7.000000
110.098280 8.000000
134.153930 6.000000
138.132190 15.000000
157.090070 7.000000
160.058610 16.000000
160.077510 93.000000
161.071500 9.000000
166.133670 15.000000
172.070400 9.000000
172.082050 20.000000
173.091840 15.000000
174.093090 5.000000
184.072390 19.000000
184.079390 8.000000
185.078690 9.000000
186.058850 8.000000
186.086880 10.000000
186.094060 13.000000
187.097530 12.000000
189.086670 5.000000
196.073210 10.000000
196.104920 5.000000
198.089830 12.000000
198.101610 9.000000
199.097780 15.000000
200.078290 5.000000
202.083570 14.000000
202.102370 7.000000
215.130260 6.000000
220.086670 6.000000
225.113620 9.000000
227.129790 5.000000
235.089690 7.000000
239.129230 6.000000
250.113680 7.000000
251.119430 9.000000
253.114360 7.000000
253.132890 29.000000
253.140060 15.000000
262.126430 8.000000
264.157710 7.000000
264.550420 7.000000
265.136320 8.000000
265.149480 6.000000
266.138400 5.000000
266.153230 13.000000
279.140200 11.000000
282.152310 5.000000
307.159360 13.000000
307.179720 34.000000
308.191130 5.000000
309.204040 5.000000
325.113310 6.000000
325.154110 10.000000
325.190340 1000.000000

>ms2
325.139560 7.000000
325.190640 1000.000000

>ms2
65.037570 18.000000
79.048870 24.000000
79.054550 81.000000
79.062970 22.000000
79.097010 21.000000
80.053430 57.000000
81.060870 30.000000
81.069340 88.000000
81.075610 30.000000
82.073520 33.000000
93.070760 45.000000
95.053240 22.000000
95.075210 26.000000
95.084690 19.000000
96.085450 30.000000
105.063000 21.000000
105.070550 25.000000
106.060990 47.000000
107.065990 23.000000
107.071470 32.000000
109.086790 33.000000
110.088440 37.000000
116.290660 22.000000
118.066380 18.000000
122.093620 41.000000
124.113240 39.000000
130.060680 26.000000
131.081770 19.000000
134.091190 96.000000
134.667450 20.000000
135.102570 26.000000
136.072070 23.000000
136.112210 67.000000
137.117280 18.000000
138.132050 19.000000
141.060360 29.000000
143.087050 23.000000
147.071560 21.000000
147.089940 28.000000
148.065510 21.000000
148.079800 19.000000
157.032550 25.000000
158.059300 40.000000
159.067670 21.000000
160.049670 23.000000
160.075910 1000.000000
161.082870 60.000000
162.085330 29.000000
162.096130 20.000000
166.061650 29.000000
166.118790 95.000000
166.126430 78.000000
166.431230 18.000000
169.051730 24.000000
170.059400 22.000000
172.066670 57.000000
172.078400 225.000000
173.083880 129.000000
173.090700 53.000000
174.058470 39.000000
175.096770 46.000000
176.104160 21.000000
177.106550 49.000000
181.090880 24.000000
182.068740 47.000000
184.075320 290.000000
184.112490 21.000000
185.080510 88.000000
186.054630 50.000000
186.093660 341.000000
187.059780 22.000000
189.081480 177.000000
196.067170 21.000000
196.108410 19.000000
197.096020 25.000000
198.090960 212.000000
199.093440 18.000000
200.068250 82.000000
200.105850 19.000000
200.529620 44.000000
201.084590 23.000000
202.077390 63.000000
202.092860 40.000000
203.086720 19.000000
204.067730 19.000000
206.100780 21.000000
210.086910 21.000000
210.099730 44.000000
211.099720 31.000000
212.098210 31.000000
212.108470 25.000000
214.048630 18.000000
214.090410 20.000000
216.091980 18.000000
216.101260 18.000000
219.113680 22.000000
221.076290 21.000000
221.117490 30.000000
222.116610 23.000000
223.087080 23.000000
224.078810 18.000000
224.112490 36.000000
225.102510 21.000000
226.117370 23.000000
226.127840 26.000000
227.109020 24.000000
227.121320 23.000000
234.090330 32.000000
235.081820 24.000000
236.108310 25.000000
237.098910 28.000000
237.110810 21.000000
238.106770 28.000000
240.117480 19.000000
246.094060 21.000000
248.155460 21.000000
249.099910 27.000000
249.109300 21.000000
251.113530 54.000000
251.123720 19.000000
252.130040 22.000000
253.098360 25.000000
253.112080 18.000000
253.133770 279.000000
254.120770 42.000000
254.132280 37.000000
258.129090 21.000000
262.113220 22.000000
264.139500 42.000000
265.114290 21.000000
265.139010 50.000000
266.137790 22.000000
277.128110 21.000000
277.141780 25.000000
278.149020 26.000000
278.164700 71.000000
279.134740 20.000000
279.147610 19.000000
280.155430 18.000000
280.164830 19.000000
282.142640 63.000000
282.155000 26.000000
283.147980 22.000000
284.151670 25.000000
297.203310 57.000000
307.177830 193.000000
308.101650 18.000000
308.178920 36.000000
308.187290 17.000000
325.159360 45.000000
325.174770 62.000000
325.196930 260.000000

>ms2
67.058940 79.000000
77.040310 126.000000
79.053540 173.000000
80.048110 79.000000
82.062000 145.000000
82.075390 136.000000
94.057620 140.000000
95.086460 79.000000
105.072280 220.000000
117.060310 1000.000000
117.075000 117.000000
118.052610 98.000000
118.074050 84.000000
127.050930 79.000000
129.045550 93.000000
130.062230 79.000000
131.069810 93.000000
133.083150 93.000000
134.096630 262.000000
136.107180 98.000000
136.114350 79.000000
142.042650 84.000000
142.069350 154.000000
143.035060 79.000000
143.066240 98.000000
143.077470 243.000000
144.067320 93.000000
145.042830 121.000000
145.051220 117.000000
145.061130 121.000000
146.056230 173.000000
154.059690 164.000000
155.075520 234.000000
156.074450 93.000000
157.049550 107.000000
157.057130 84.000000
158.004090 121.000000
158.058200 93.000000
158.064470 215.000000
159.061830 140.000000
159.087770 89.000000
160.074840 757.000000
162.098250 79.000000
166.063830 126.000000
167.070480 234.000000
168.070250 154.000000
169.052200 257.000000
169.059560 215.000000
169.094420 140.000000
170.058910 84.000000
172.063460 79.000000
172.072200 332.000000
172.082730 168.000000
174.049450 220.000000
181.083280 121.000000
181.095490 98.000000
182.058300 388.000000
183.068160 364.000000
184.074950 140.000000
186.082690 107.000000
186.093730 126.000000
190.066150 84.000000
193.084590 79.000000
194.088840 107.000000
194.106600 131.000000
196.072390 561.000000
197.088620 201.000000
198.065190 112.000000
198.087490 112.000000
198.096070 145.000000
199.084230 294.000000
200.069060 93.000000
200.077270 93.000000
204.077160 154.000000
205.100620 112.000000
206.087970 107.000000
207.062850 84.000000
208.078980 79.000000
209.073360 117.000000
209.099530 98.000000
212.097990 98.000000
219.080950 84.000000
224.103200 79.000000
225.101350 112.000000
232.090650 84.000000
236.104260 84.000000
246.087460 79.000000
250.113140 131.000000
251.126910 93.000000
264.126430 84.000000

