>compound PR68606140
>parentmass 287.0914000000001
>ionization [M+H]+
>formula C16H14O5
>rt 446.463000
>profile qtof
#smiles_iso COC1=CC=C(C=C1)[C@@H]2CC(=O)C3=C(C=C(C=C3O2)O)O
#smiles_can COC1=CC=C(C=C1)C2CC(=O)C3=C(C=C(C=C3O2)O)O
#inchikey HMUJXQRRKBLVOO-AWEZNQCLSA-N
#pubchem_id 160481
#mb_accession PR302276,PR302282,PR302288,PR302294,PR302299,PR302305,PR302311,PR302317,PR302323,PR302329,PR302335,PR302341

>ms2
103.053550 9.000000
109.067350 6.000000
118.042880 17.000000
121.059520 5.000000
133.064760 124.000000
134.065380 10.000000
135.076580 8.000000
135.084090 7.000000
137.049480 6.000000
137.058870 6.000000
153.017410 706.000000
154.015660 23.000000
154.023300 20.000000
155.020170 7.000000
161.059390 313.000000
162.056340 20.000000
162.065120 21.000000
179.031540 5.000000
179.041930 7.000000
203.072250 8.000000
245.077930 8.000000
269.077550 5.000000
287.091160 1000.000000
287.139400 16.000000

>ms2
153.016650 23.000000
153.025190 7.000000
161.059360 38.000000
287.046910 10.000000
287.091000 1000.000000
287.140320 23.000000

>ms2
67.018490 6.000000
69.034930 8.000000
79.044910 6.000000
79.050720 7.000000
79.056550 9.000000
91.056180 6.000000
97.028180 11.000000
103.054760 21.000000
105.071340 16.000000
106.072680 5.000000
109.066730 6.000000
118.041280 52.000000
119.040610 5.000000
121.065090 21.000000
123.049450 6.000000
133.064060 285.000000
134.066570 23.000000
135.080600 11.000000
137.060650 21.000000
152.983220 6.000000
153.017440 1000.000000
154.020680 95.000000
155.015790 5.000000
155.024700 17.000000
161.040370 7.000000
161.054310 123.000000
161.061720 142.000000
162.064650 25.000000
226.066850 5.000000
253.054990 5.000000
287.084470 7.000000

>ms2
63.967470 31.000000
65.001320 21.000000
67.017600 101.000000
68.996670 138.000000
69.001370 55.000000
69.033390 136.000000
69.660020 22.000000
70.944900 20.000000
71.455730 17.000000
77.036490 173.000000
78.044010 38.000000
78.242920 17.000000
79.014520 18.000000
79.046400 80.000000
79.053770 98.000000
81.029340 45.000000
82.032590 33.000000
83.012180 51.000000
89.028570 18.000000
89.038450 44.000000
89.046300 25.000000
90.046420 371.000000
91.044770 42.000000
91.054060 28.000000
91.058470 28.000000
92.023640 61.000000
92.029020 48.000000
94.032250 24.000000
94.036850 25.000000
94.044260 20.000000
97.024130 33.000000
97.030170 145.000000
98.032580 33.000000
101.035300 29.000000
102.049740 33.000000
103.051990 190.000000
104.051960 19.000000
105.069650 83.000000
107.043290 20.000000
108.513430 20.000000
109.066970 25.000000
110.062360 23.000000
111.006320 25.000000
112.006890 37.000000
115.054700 64.000000
116.065120 51.000000
118.039570 537.000000
119.037510 23.000000
119.046070 90.000000
121.053280 58.000000
121.064580 21.000000
123.032880 24.000000
123.039090 33.000000
127.058510 32.000000
129.065080 41.000000
133.035350 24.000000
133.051790 25.000000
133.062840 195.000000
133.068630 114.000000
134.061710 31.000000
134.071140 34.000000
135.010330 18.000000
135.021550 30.000000
135.072010 28.000000
138.046780 18.000000
139.044370 20.000000
139.054530 31.000000
139.061490 31.000000
141.066190 23.000000
141.074660 49.000000
149.528120 19.000000
151.052930 45.000000
152.057100 20.000000
152.996080 26.000000
153.018780 1000.000000
153.070620 45.000000
154.015880 50.000000
157.064760 28.000000
160.045700 17.000000
161.051860 26.000000
167.063800 22.000000
169.061330 20.000000
179.029660 34.000000
181.059780 57.000000
225.053670 29.000000

>ms2
68.995640 5.000000
97.025640 7.000000
103.056560 6.000000
109.063590 6.000000
118.040150 14.000000
121.060360 5.000000
133.062960 114.000000
135.077770 11.000000
137.060000 6.000000
153.017550 701.000000
154.006160 7.000000
154.016590 28.000000
154.025160 21.000000
161.031650 6.000000
161.058620 327.000000
162.053500 7.000000
162.059910 17.000000
162.067350 23.000000
179.034530 8.000000
261.076480 6.000000
287.028530 5.000000
287.042850 6.000000
287.090970 1000.000000
287.137850 12.000000

>ms2
153.017650 22.000000
161.059770 36.000000
287.040440 5.000000
287.091400 1000.000000
287.139770 25.000000

>ms2
67.020650 9.000000
68.998110 10.000000
69.034150 9.000000
79.052670 8.000000
79.057580 7.000000
97.030120 19.000000
103.055570 20.000000
105.061960 7.000000
105.070150 12.000000
109.061870 12.000000
109.070310 8.000000
118.040540 31.000000
121.066220 21.000000
123.044200 7.000000
133.041500 6.000000
133.064580 260.000000
134.065220 13.000000
134.071430 13.000000
135.074690 7.000000
135.081880 13.000000
137.059720 20.000000
152.990750 8.000000
153.017750 1000.000000
154.023700 86.000000
155.022320 13.000000
161.058990 260.000000
162.062730 40.000000
163.059510 8.000000
171.083220 5.000000
179.036060 6.000000

>ms2
54.995900 35.000000
55.018290 25.000000
65.041710 20.000000
67.002640 23.000000
67.014460 27.000000
67.020450 26.000000
68.980030 22.000000
68.995250 202.000000
69.002500 50.000000
69.027570 21.000000
69.033200 242.000000
69.203010 23.000000
70.046260 17.000000
77.031370 24.000000
77.037860 310.000000
77.629280 27.000000
78.042330 55.000000
78.047120 23.000000
79.001600 22.000000
79.017030 52.000000
79.053810 232.000000
79.066770 27.000000
79.410510 18.000000
80.063400 17.000000
83.004710 17.000000
84.020840 26.000000
89.039500 53.000000
90.029910 28.000000
90.046020 451.000000
90.346710 19.000000
91.052940 54.000000
91.061970 17.000000
92.022800 43.000000
92.027030 44.000000
92.999370 43.000000
93.029780 28.000000
94.038190 53.000000
94.048150 19.000000
96.024310 21.000000
97.030010 78.000000
98.026870 29.000000
101.035850 33.000000
103.054470 358.000000
104.057160 24.000000
105.070950 17.000000
106.077960 21.000000
107.015720 21.000000
107.048320 65.000000
109.064410 84.000000
111.002420 58.000000
115.039510 19.000000
115.055890 22.000000
118.042240 500.000000
118.642340 17.000000
119.043810 65.000000
121.066220 51.000000
124.158770 17.000000
125.018840 20.000000
125.656560 26.000000
127.013500 37.000000
128.061830 24.000000
131.050870 37.000000
132.054310 30.000000
133.048870 48.000000
133.061550 174.000000
133.078050 88.000000
134.070040 26.000000
140.061710 40.000000
152.061490 62.000000
152.995990 22.000000
153.004010 164.000000
153.017460 1000.000000
154.018830 41.000000
155.021450 28.000000
157.056980 19.000000
167.042590 22.000000
168.057530 28.000000
169.053440 24.000000
170.068560 52.000000
180.552190 35.000000
181.058000 23.000000
195.037490 18.000000
197.060820 24.000000
287.102570 180.000000

>ms2
67.015660 7.000000
103.050030 7.000000
105.069260 7.000000
118.040780 17.000000
133.062970 114.000000
134.065460 12.000000
137.061460 16.000000
151.036930 6.000000
152.989440 7.000000
153.017140 662.000000
154.022110 47.000000
155.020840 8.000000
155.028870 7.000000
161.059190 314.000000
162.055850 14.000000
162.063840 22.000000
163.065370 6.000000
179.033260 6.000000
203.076860 6.000000
269.082340 7.000000
287.035460 5.000000
287.092350 1000.000000
287.133700 6.000000
287.145540 7.000000

>ms2
153.016430 26.000000
161.053470 9.000000
161.060260 15.000000
162.062940 7.000000
287.053530 9.000000
287.091550 1000.000000
287.138310 19.000000

>ms2
67.017070 15.000000
67.021160 7.000000
68.994730 8.000000
69.037250 5.000000
79.056560 16.000000
94.042980 7.000000
103.051820 10.000000
105.069110 9.000000
105.076100 5.000000
109.064580 13.000000
118.034600 6.000000
118.042910 34.000000
121.067950 15.000000
133.047560 6.000000
133.065020 293.000000
134.065800 24.000000
137.060730 19.000000
152.993930 8.000000
153.017870 1000.000000
154.007890 7.000000
154.016800 31.000000
154.022600 73.000000
155.020800 16.000000
161.059910 245.000000
162.061460 24.000000

>ms2
52.550720 32.000000
55.019020 80.000000
56.358140 20.000000
67.016420 76.000000
68.019940 54.000000
68.995240 237.000000
68.999880 156.000000
69.034420 98.000000
69.038830 25.000000
70.997190 28.000000
77.029300 37.000000
77.037220 268.000000
78.043150 29.000000
79.015340 113.000000
79.021160 42.000000
79.052460 203.000000
80.036190 21.000000
81.032730 34.000000
82.942940 25.000000
83.013500 240.000000
85.022870 38.000000
89.038440 38.000000
90.036840 38.000000
90.047520 359.000000
91.058390 42.000000
94.041200 38.000000
95.048360 28.000000
97.027680 64.000000
98.346430 25.000000
98.881800 38.000000
99.407710 32.000000
101.042140 71.000000
102.035160 25.000000
103.054640 288.000000
105.064160 23.000000
105.075200 73.000000
107.049360 46.000000
109.064750 37.000000
111.001910 31.000000
114.050680 102.000000
115.052220 25.000000
115.061030 49.000000
116.055180 25.000000
118.041660 542.000000
119.037860 23.000000
119.044320 29.000000
120.424150 32.000000
121.056870 20.000000
125.018470 23.000000
127.043350 34.000000
127.052220 32.000000
128.062480 20.000000
131.050520 48.000000
133.066640 571.000000
133.079560 65.000000
140.045470 21.000000
140.065170 33.000000
141.063740 25.000000
142.044980 39.000000
151.526700 21.000000
152.060930 30.000000
152.162050 24.000000
152.853940 20.000000
153.015880 1000.000000
153.089200 34.000000
153.139850 21.000000
154.026000 115.000000
160.058400 28.000000
161.051470 29.000000
173.021380 45.000000
181.063260 28.000000
193.057770 33.000000
227.040890 23.000000
237.063290 23.000000
287.084590 124.000000
287.099490 53.000000

