>compound PR68001529
>parentmass 589.1915675
>ionization [M+H]+
>formula C29H32O13
>rt 324.060000
>profile qtof
#smiles_iso C[C@@H]1OC[C@@H]2[C@@H](O1)[C@@H]([C@H]([C@@H](O2)O[C@H]3[C@H]4COC(=O)[C@@H]4[C@@H](C5=CC6=C(C=C35)OCO6)C7=CC(=C(C(=C7)OC)O)OC)O)O
#smiles_can CC1OCC2C(O1)C(C(C(O2)OC3C4COC(=O)C4C(C5=CC6=C(C=C35)OCO6)C7=CC(=C(C(=C7)OC)O)OC)O)O
#inchikey VJJPUSNTGOMMGY-MRVIYFEKSA-N
#pubchem_id 36462
#mb_accession PR303925,PR303926,PR303927,PR303928,PR303929,PR303930,PR303931,PR303932,PR303933,PR303934

>ms2peaks
99.047330 6.000000
144.061130 5.000000
154.053540 6.000000
173.061490 38.000000
185.059170 388.000000
186.059170 21.000000
186.067980 16.000000
199.032300 8.000000
201.049760 6.000000
217.047780 15.000000
217.058140 6.000000
229.024950 5.000000
229.050740 1000.000000
229.118210 7.000000
230.054090 178.000000
231.047240 11.000000
231.058760 11.000000
247.038040 9.000000
247.063510 95.000000
248.061600 13.000000
267.070530 11.000000
275.071410 10.000000
323.086240 5.000000
365.105770 11.000000
383.086980 5.000000
383.110570 46.000000
383.125310 10.000000
384.114720 10.000000
384.137660 5.000000
435.126130 114.000000
436.122740 20.000000
571.179810 6.000000
588.172000 37.000000
588.191350 15.000000
589.192080 158.000000

>ms2peaks
127.040480 6.000000
129.056260 6.000000
171.062350 12.000000
185.058930 29.000000
186.066510 6.000000
189.075680 8.000000
217.044720 5.000000
229.049700 1000.000000
230.052980 135.000000
230.063160 34.000000
231.033450 5.000000
231.052460 19.000000
231.061900 12.000000
247.037260 6.000000
247.059840 64.000000
249.073100 6.000000
332.884980 6.000000
381.103180 6.000000
382.074980 5.000000
383.110020 153.000000
383.123230 39.000000
384.108340 19.000000
384.125730 26.000000
385.119140 8.000000
435.130000 617.000000
436.129880 165.000000
437.130190 20.000000
437.153750 8.000000
438.135190 11.000000
529.175420 6.000000
559.142030 5.000000
587.185490 17.000000
588.184940 223.000000
589.113890 6.000000
589.152160 29.000000
589.192080 738.000000

>ms2peaks
99.042980 6.000000
127.034930 6.000000
129.048450 7.000000
145.052150 5.000000
154.057680 7.000000
173.058560 14.000000
174.063100 16.000000
181.045900 6.000000
185.059910 515.000000
186.063430 85.000000
186.070890 23.000000
187.060580 6.000000
187.074260 5.000000
199.037770 11.000000
199.047360 14.000000
201.055450 8.000000
217.052140 18.000000
229.050370 1000.000000
229.078050 7.000000
230.055340 155.000000
231.051120 13.000000
231.065570 5.000000
245.046330 8.000000
246.052020 8.000000
247.049090 12.000000
247.058010 38.000000
248.080490 8.000000
267.071660 11.000000
298.076260 6.000000
305.064090 6.000000
305.083740 14.000000
306.080200 6.000000
307.113920 6.000000
323.089450 13.000000
333.080260 6.000000
337.108760 9.000000
353.092800 6.000000
382.111180 8.000000
383.102260 7.000000

>ms2peaks
129.053710 8.000000
173.057390 22.000000
174.059310 5.000000
185.059950 298.000000
186.059390 24.000000
186.066330 27.000000
189.077240 6.000000
189.729100 5.000000
199.041290 24.000000
201.046590 6.000000
217.049030 18.000000
229.049610 1000.000000
230.052060 100.000000
231.058030 6.000000
247.058520 71.000000
248.062740 19.000000
299.095280 12.000000
307.089510 9.000000
307.097470 5.000000
337.110690 6.000000
381.101870 10.000000
382.103000 8.000000
383.113310 36.000000
384.116460 6.000000
435.096590 5.000000
435.131410 67.000000
436.131840 20.000000
436.145360 12.000000
587.184940 8.000000
588.184450 48.000000
589.192200 131.000000

>ms2peaks
85.029450 6.000000
127.035260 17.000000
143.078160 6.000000
154.067230 6.000000
173.058650 40.000000
185.059170 670.000000
186.062270 101.000000
187.060360 6.000000
188.068420 6.000000
199.039930 26.000000
200.047320 9.000000
201.060290 10.000000
217.046250 19.000000
217.055770 38.000000
228.102400 5.000000
229.017930 12.000000
229.048980 1000.000000
230.052660 187.000000
231.068150 5.000000
245.046200 15.000000
247.059230 76.000000
248.062680 14.000000
249.081240 5.000000
249.101730 5.000000
293.083250 8.000000
299.096860 8.000000
305.045260 5.000000
305.084630 7.000000
309.065980 7.000000
337.071720 7.000000
337.106260 19.000000
339.120880 7.000000
365.108670 5.000000
366.097720 5.000000
382.110140 6.000000
383.090970 9.000000
383.117000 13.000000

>ms2peaks
93.034460 10.000000
95.049270 8.000000
115.052960 86.000000
117.071280 17.000000
127.029690 5.000000
127.041340 8.000000
128.057830 14.000000
129.069560 19.000000
143.049800 140.000000
144.050370 13.000000
145.058690 7.000000
153.057500 6.000000
155.038710 7.000000
155.048140 7.000000
156.042530 10.000000
167.060680 6.000000
171.040250 11.000000
171.047150 23.000000
173.054340 70.000000
173.063350 53.000000
174.062030 7.000000
175.065670 13.000000
182.072710 5.000000
185.039140 15.000000
185.060460 1000.000000
186.062380 125.000000
187.060610 7.000000
187.198730 5.000000
189.081510 10.000000
199.037950 46.000000
200.034530 7.000000
200.044080 15.000000
201.049220 6.000000
201.060550 20.000000
203.083660 6.000000
212.058820 5.000000
213.049260 6.000000
219.070850 9.000000
227.037020 7.000000
227.044370 7.000000
228.036680 7.000000
229.048570 471.000000
230.053570 72.000000
231.061830 8.000000
239.074720 22.000000
239.573300 5.000000
248.068020 16.000000
251.064540 8.000000
262.073300 9.000000
263.065830 8.000000
264.077030 8.000000
275.065800 13.000000
276.071500 6.000000
290.055880 8.000000
291.063870 6.000000
305.069400 7.000000
307.057250 5.000000
309.096710 7.000000
321.053960 7.000000
495.084230 5.000000
496.604490 7.000000

>ms2peaks
145.045960 12.000000
171.068450 5.000000
173.057140 24.000000
181.045390 5.000000
185.041150 11.000000
185.059250 311.000000
186.052670 9.000000
186.063980 43.000000
199.040010 12.000000
201.054060 6.000000
217.053700 15.000000
219.758420 5.000000
222.344650 5.000000
229.015580 7.000000
229.049840 1000.000000
230.054230 141.000000
231.051970 9.000000
231.062190 12.000000
247.059370 80.000000
248.058270 5.000000
297.083250 5.000000
299.089660 6.000000
300.089940 7.000000
337.100430 12.000000
351.093600 8.000000
383.112120 64.000000
435.127500 59.000000
436.118070 11.000000
436.130280 11.000000
587.179810 7.000000
588.154720 8.000000
588.179570 15.000000
588.197450 28.000000
589.184570 100.000000
589.217830 28.000000

>ms2peaks
111.045420 7.000000
164.061140 5.000000
171.059980 9.000000
171.068790 8.000000
185.061710 22.000000
189.082900 9.000000
229.025590 12.000000
229.049800 1000.000000
230.050800 71.000000
230.059430 71.000000
231.055150 20.000000
232.062090 10.000000
247.049850 32.000000
247.060300 47.000000
248.064290 26.000000
299.092380 7.000000
319.415800 5.000000
338.104520 5.000000
382.099180 6.000000
383.096920 32.000000
383.112700 97.000000
384.111540 35.000000
399.110780 7.000000
435.086940 6.000000
435.128050 540.000000
435.162630 11.000000
435.189240 5.000000
436.128300 113.000000
437.118650 14.000000
437.139370 15.000000
587.142640 7.000000
587.194820 18.000000
588.170530 64.000000
588.193360 140.000000
589.182560 380.000000
589.200380 381.000000

>ms2peaks
85.030250 9.000000
127.038740 11.000000
143.047490 15.000000
154.054760 5.000000
167.067030 12.000000
173.058240 31.000000
173.069170 12.000000
185.032140 6.000000
185.060520 673.000000
185.415940 5.000000
186.051900 8.000000
186.065370 56.000000
187.066090 9.000000
199.040020 44.000000
217.046400 29.000000
218.051390 18.000000
229.014450 7.000000
229.050060 1000.000000
230.026470 6.000000
230.051970 117.000000
231.059590 10.000000
247.060070 84.000000
267.065030 11.000000
275.072270 9.000000
299.092740 9.000000
337.102910 6.000000
337.113340 9.000000
338.115940 11.000000
341.072140 5.000000
366.110500 8.000000
382.096620 10.000000
383.104980 8.000000
383.131740 6.000000
384.125460 10.000000

>ms2peaks
69.036420 12.000000
115.055760 117.000000
117.076420 8.000000
127.035820 24.000000
127.053020 15.000000
129.062770 9.000000
129.070530 22.000000
140.183440 6.000000
141.032640 6.000000
143.048930 93.000000
144.048890 15.000000
147.040410 5.000000
155.049850 15.000000
157.139920 8.000000
168.036150 6.000000
171.037430 10.000000
171.048310 17.000000
173.061310 234.000000
174.059370 25.000000
174.069490 11.000000
175.071980 6.000000
181.057620 7.000000
184.640290 6.000000
185.020080 11.000000
185.059720 1000.000000
186.064500 120.000000
187.064850 8.000000
194.107730 6.000000
196.635040 7.000000
199.029630 23.000000
199.040250 45.000000
200.039600 10.000000
201.060210 32.000000
202.062640 6.000000
203.075290 5.000000
203.088090 8.000000
205.057210 5.000000
213.269700 5.000000
217.056370 6.000000
219.094270 5.000000
227.031630 15.000000
229.050600 527.000000
230.042570 20.000000
230.055360 75.000000
239.077240 21.000000
246.073380 9.000000
259.081390 7.000000
262.062130 8.000000
267.070160 10.000000
271.043640 6.000000
275.083280 6.000000
277.099180 7.000000
278.063930 6.000000
283.044400 6.000000
290.044800 9.000000
291.065980 6.000000
292.063690 7.000000
294.086820 5.000000
298.078250 9.000000
305.064850 5.000000
305.075960 6.000000
306.047300 5.000000
307.061610 15.000000
333.079320 6.000000
365.095920 8.000000

