>compound PR68685753
>parentmass 957.5053566999999
>ionization [M+H]+
>formula C48H76O19
>rt 370.671960
>profile qtof
#smiles_iso C[C@]12CC[C@@H](C([C@@H]1CC[C@@]3([C@@H]2CC=C4[C@]3(CC[C@@]5([C@H]4CC(CC5)(C)C)C(=O)O[C@H]6[C@@H]([C@H]([C@@H]([C@H](O6)CO)O)O)O)C)C)(C)C)O[C@H]7[C@@H]([C@H]([C@@H]([C@H](O7)C(=O)O)O)O)O[C@H]8[C@@H]([C@H]([C@@H]([C@H](O8)CO)O)O)O
#smiles_can CC1(CCC2(CCC3(C(=CCC4C3(CCC5C4(CCC(C5(C)C)OC6C(C(C(C(O6)C(=O)O)O)O)OC7C(C(C(C(O7)CO)O)O)O)C)C)C2C1)C)C(=O)OC8C(C(C(C(O8)CO)O)O)O)C
#inchikey NFZYDZXHKFHPGA-QQHDHSITSA-N
#pubchem_id 11815492
#mb_accession PR303804,PR303816,PR303820,PR303826,PR303836

>ms2peaks
141.009950 95.000000
146.050250 168.000000
204.191160 212.000000
303.059690 106.000000
315.219880 106.000000
321.072630 134.000000
321.091800 117.000000
336.733220 101.000000
394.358030 95.000000
439.356110 1000.000000
440.375820 140.000000
501.152890 95.000000
633.395750 128.000000

>ms2peaks
175.153150 167.000000
321.065700 181.000000
321.078610 123.000000
321.093230 196.000000
339.046050 181.000000
339.088960 413.000000
439.349270 1000.000000
439.362730 543.000000
440.366610 464.000000
441.365020 138.000000
485.116360 152.000000
633.417480 123.000000
634.394040 145.000000
705.866210 152.000000
778.416020 123.000000
795.459050 152.000000
876.974910 130.000000
957.498840 181.000000
957.543760 145.000000

>ms2peaks
321.082120 356.000000
321.094850 414.000000
325.123140 264.000000
339.085110 218.000000
340.088010 218.000000
357.099610 195.000000
357.111270 241.000000
439.350920 1000.000000
439.373990 207.000000
440.276730 230.000000
501.123870 195.000000
501.155430 897.000000
617.413090 207.000000
633.377810 391.000000
633.414370 287.000000
633.892820 322.000000
634.380920 264.000000
778.450810 195.000000
795.446410 816.000000
795.470400 218.000000
795.950070 241.000000
957.483950 207.000000

>ms2peaks
85.029650 304.000000
127.038250 804.000000
135.122800 500.000000
142.025740 339.000000
145.048840 1000.000000
163.057250 429.000000
177.041050 339.000000
177.163620 482.000000
187.151200 321.000000
189.162510 321.000000
191.176610 411.000000
203.168820 339.000000
205.197980 393.000000
243.203480 589.000000
247.174220 321.000000
249.172840 321.000000
261.199710 321.000000
270.230560 393.000000
772.279910 357.000000

>ms2peaks
145.044590 310.000000
163.062090 147.000000
164.068510 207.000000
191.178150 534.000000
192.169450 198.000000
247.174820 181.000000
321.073330 147.000000
323.089390 147.000000
325.109800 172.000000
325.137600 172.000000
357.276640 181.000000
439.358280 1000.000000
439.374790 233.000000
440.365480 164.000000
441.362270 164.000000

