>compound PR68562485
>parentmass 839.4059770000001
>ionization [M+H]+
>formula C42H62O17
>rt 381.346020
>profile qtof
#smiles_iso C[C@]12CC[C@](C[C@H]1C3=CC(=O)[C@@H]4[C@]5(CC[C@@H]([C@]([C@@H]5CC[C@]4([C@@]3(CC2)C)C)(C)CO)O[C@H]6[C@@H]([C@H]([C@@H]([C@H](O6)C(=O)O)O)O)O[C@H]7[C@@H]([C@H]([C@@H]([C@H](O7)C(=O)O)O)O)O)C)(C)C(=O)O
#smiles_can CC12CCC(CC1C3=CC(=O)C4C5(CCC(C(C5CCC4(C3(CC2)C)C)(C)CO)OC6C(C(C(C(O6)C(=O)O)O)O)OC7C(C(C(C(O7)C(=O)O)O)O)O)C)(C)C(=O)O
#inchikey WBQVRPYEEYUEBQ-OJVDLISWSA-N
#pubchem_id 14891565
#mb_accession PR304288,PR304292,PR304296,PR304300,PR304304,PR304308,PR304312,PR304323,PR304327

>ms2
141.016910 9.000000
159.026720 8.000000
159.036070 7.000000
177.039110 7.000000
189.169420 5.000000
439.315770 13.000000
439.330440 6.000000
451.320830 107.000000
452.320740 30.000000
452.341890 8.000000
453.332920 5.000000
469.330630 716.000000
470.333770 250.000000
471.342320 38.000000
487.341740 469.000000
488.345950 175.000000
489.322270 5.000000
489.355530 23.000000
627.345830 17.000000
628.358340 8.000000
645.352290 14.000000
645.369140 29.000000
645.397160 11.000000
646.365600 18.000000
646.394230 6.000000
663.375730 69.000000
664.357910 13.000000
664.377870 26.000000
665.397770 6.000000
821.397890 9.000000
822.399660 5.000000
839.407170 1000.000000

>ms2
469.314670 8.000000
469.332520 33.000000
470.336360 11.000000
487.338440 50.000000
488.350950 9.000000
645.369450 8.000000
663.375980 39.000000
664.370540 9.000000
664.394290 6.000000
839.296690 6.000000
839.328490 6.000000
839.403560 1000.000000
839.477540 6.000000

>ms2
141.015210 25.000000
142.022190 8.000000
159.028640 43.000000
177.035870 15.000000
317.057560 5.000000
439.317050 10.000000
451.314420 84.000000
451.338470 33.000000
452.310700 16.000000
452.334530 34.000000
453.325810 6.000000
469.331480 1000.000000
470.275570 6.000000
470.332030 296.000000
470.353790 70.000000
471.330200 43.000000
471.357120 17.000000
487.330440 241.000000
487.353300 253.000000
488.329320 53.000000
488.352940 119.000000
489.331540 9.000000
489.355410 15.000000
489.371520 6.000000
627.345890 16.000000
627.377500 7.000000
628.369020 8.000000
645.357850 23.000000
645.391850 14.000000
646.376460 8.000000
647.362060 6.000000
663.391910 7.000000

>ms2
85.021360 7.000000
85.028980 33.000000
95.013620 12.000000
95.084540 11.000000
95.090900 6.000000
99.081350 11.000000
103.042660 8.000000
105.058930 7.000000
105.071370 12.000000
107.083910 24.000000
109.100800 39.000000
109.110370 10.000000
111.084430 9.000000
113.018450 8.000000
113.023850 5.000000
119.079370 10.000000
119.085450 32.000000
121.095390 8.000000
121.101230 22.000000
122.105490 7.000000
123.005750 8.000000
123.080510 6.000000
123.114090 14.000000
123.121320 19.000000
131.035540 10.000000
131.082660 6.000000
133.099930 30.000000
133.108990 12.000000
134.104110 8.000000
135.082320 8.000000
135.115160 41.000000
137.094730 10.000000
137.132350 15.000000
140.691960 5.000000
141.018050 335.000000
142.022980 12.000000
145.100980 35.000000
147.080020 5.000000
147.114520 55.000000
147.122310 36.000000
148.117690 11.000000
149.133770 29.000000
157.101640 13.000000
159.029250 115.000000
159.082960 5.000000
159.114260 48.000000
160.033490 7.000000
161.091200 6.000000
161.122410 11.000000
161.132160 37.000000
161.145870 7.000000
163.134350 9.000000
163.153580 6.000000
164.151250 12.000000
165.132110 9.000000
169.108600 6.000000
173.095990 9.000000
173.130740 61.000000
174.052950 8.000000
175.112000 7.000000
175.148760 131.000000
176.145970 11.000000
176.154270 6.000000
177.036410 18.000000
177.127520 8.000000
177.159240 16.000000
177.172900 8.000000
179.042980 8.000000
181.100620 6.000000
181.121370 10.000000
185.135440 9.000000
187.096190 5.000000
187.131380 6.000000
187.147770 68.000000
188.144790 7.000000
189.129490 6.000000
189.142680 8.000000
189.162570 95.000000
189.175260 16.000000
190.155840 6.000000
191.143070 7.000000
193.160000 7.000000
199.154680 13.000000
200.152770 18.000000
201.120830 7.000000
201.148240 8.000000
201.160900 17.000000
201.180650 6.000000
202.169010 6.000000
203.136350 6.000000
205.118420 6.000000
205.136660 6.000000
205.156510 34.000000
205.169100 10.000000
211.147540 17.000000
213.165080 26.000000
214.163190 7.000000
214.175090 8.000000
215.140760 41.000000
215.182970 28.000000
217.156100 81.000000
218.155990 21.000000
219.166430 10.000000
221.153080 6.000000
222.159060 10.000000
225.161610 8.000000
225.171070 7.000000
227.141940 5.000000
227.184230 16.000000
229.155460 28.000000
231.181150 10.000000
232.169280 8.000000
233.154240 62.000000
233.171430 5.000000
234.165020 9.000000
235.169160 90.000000
236.172160 13.000000
237.144290 7.000000
239.180710 25.000000
239.839770 6.000000
241.194090 21.000000
241.206790 13.000000
243.176790 9.000000
243.202410 6.000000
245.148830 5.000000
245.202820 13.000000
246.159550 11.000000
246.167920 6.000000
249.147260 6.000000
249.188840 7.000000
250.165910 15.000000
251.164760 8.000000
252.176100 5.000000
253.189300 7.000000
253.199710 8.000000
257.179780 6.000000
257.188690 7.000000
257.200900 5.000000
259.205320 10.000000
261.168950 9.000000
261.184840 8.000000
262.188420 6.000000
263.155910 21.000000
263.168730 48.000000
264.163790 17.000000
265.187070 16.000000
265.201450 17.000000
266.203370 6.000000
267.213010 11.000000
268.229860 7.000000
269.185610 9.000000
269.205720 9.000000
269.220830 6.000000
271.213010 15.000000
272.226530 5.000000
273.177150 8.000000
273.188630 6.000000
275.194400 13.000000
279.210240 7.000000
279.240050 5.000000
283.204040 30.000000
283.214080 19.000000
285.219880 9.000000
287.192350 9.000000
287.210300 12.000000
289.178830 29.000000
289.202640 6.000000
291.186310 8.000000
295.205050 8.000000
297.184840 6.000000
297.219760 9.000000
297.233310 7.000000
299.195370 19.000000
299.204770 14.000000
301.182740 7.000000
301.220120 28.000000
303.173490 7.000000
303.186400 9.000000
303.198610 24.000000
304.201570 8.000000
311.239990 11.000000
313.217010 10.000000
314.220520 8.000000
317.196140 15.000000
317.209930 17.000000
317.227810 6.000000
318.211910 7.000000
325.213100 9.000000
327.229130 10.000000
329.254520 7.000000
331.220460 7.000000
331.235840 15.000000
332.232120 7.000000
335.250490 6.000000
339.224520 9.000000
341.257140 8.000000
343.219450 5.000000
343.235260 10.000000
349.265840 5.000000
356.226720 5.000000
357.236820 9.000000
357.252350 15.000000
365.279820 16.000000
375.317170 6.000000
377.236910 9.000000
377.250920 10.000000
383.261750 5.000000
387.297730 20.000000
387.316100 5.000000
393.265560 9.000000
393.297210 17.000000
393.317110 40.000000
394.284240 7.000000
395.249480 8.000000
395.262850 7.000000
405.300780 14.000000
405.318330 48.000000
406.326170 6.000000
407.271000 7.000000
409.270140 8.000000
411.280330 15.000000
411.296780 12.000000
411.324310 9.000000
421.299010 19.000000
421.322970 7.000000
422.302280 7.000000
422.327510 6.000000
423.260380 6.000000
423.303380 18.000000
423.326750 75.000000
424.302060 6.000000
424.324070 29.000000
424.351100 7.000000
425.360720 6.000000
433.290890 15.000000
433.307220 62.000000
433.342530 11.000000
434.322570 18.000000
435.309050 9.000000
437.307830 5.000000
439.283140 20.000000
439.319000 158.000000
439.353520 13.000000
440.300170 9.000000
440.324490 40.000000
441.316350 7.000000
451.322720 332.000000
452.322300 101.000000
453.330960 27.000000
453.343440 9.000000
469.254610 8.000000
469.281710 16.000000
469.332120 1000.000000
469.398350 6.000000
469.675510 5.000000
470.289030 6.000000
470.333920 364.000000
471.325840 22.000000
471.351380 24.000000
487.279600 9.000000
487.340210 432.000000
488.345280 144.000000
489.352360 23.000000
490.333310 6.000000
563.319950 7.000000
666.306760 5.000000

>ms2
85.029620 8.000000
141.019700 46.000000
159.030870 16.000000
177.039340 19.000000
317.056760 6.000000
353.070250 7.000000
405.311800 6.000000
423.328460 5.000000
439.304230 6.000000
439.317750 25.000000
440.334290 11.000000
451.321590 146.000000
452.322630 35.000000
453.328800 11.000000
469.281740 13.000000
469.330900 1000.000000
470.333100 327.000000
471.335480 29.000000
471.358120 18.000000
487.285640 8.000000
487.342290 623.000000
488.345000 264.000000
489.351470 31.000000
627.354550 34.000000
628.349730 11.000000
645.363710 52.000000
645.389400 8.000000
646.356080 14.000000
663.358150 29.000000
663.383240 58.000000
664.379270 49.000000
665.373470 5.000000
665.406740 9.000000
821.393370 10.000000
839.318240 16.000000
839.405820 640.000000

>ms2
469.316960 15.000000
469.335420 28.000000
470.320400 5.000000
487.339450 42.000000
487.354340 13.000000
663.338930 5.000000
663.363950 13.000000
663.385500 15.000000
664.374330 9.000000
839.320680 8.000000
839.406560 1000.000000

>ms2
141.019810 19.000000
159.021390 10.000000
159.031400 16.000000
177.037000 25.000000
317.053010 5.000000
439.331210 6.000000
451.307650 75.000000
451.328640 67.000000
452.318120 33.000000
452.340150 13.000000
453.303010 7.000000
469.288640 7.000000
469.331760 1000.000000
470.334660 360.000000
471.313140 14.000000
471.327240 18.000000
471.347810 29.000000
487.342500 526.000000
488.342620 165.000000
488.364110 41.000000
489.324710 7.000000
489.339260 16.000000
489.358920 20.000000
627.323970 6.000000
627.342410 19.000000
627.379820 7.000000
628.345150 7.000000
628.379150 5.000000
645.355040 17.000000
645.383300 11.000000
646.352360 9.000000
663.372920 9.000000
839.406740 72.000000

>ms2
141.018370 14.000000
159.023300 15.000000
159.031070 28.000000
177.040920 15.000000
317.050110 7.000000
439.323520 10.000000
451.324950 129.000000
452.297270 8.000000
452.325810 43.000000
452.344790 11.000000
453.325010 7.000000
469.286470 5.000000
469.332240 1000.000000
470.336640 331.000000
471.316130 7.000000
471.338320 33.000000
471.360530 13.000000
472.341670 5.000000
487.343870 535.000000
488.344020 162.000000
489.325410 8.000000
489.342530 17.000000
489.363100 10.000000
627.361630 17.000000
645.347900 12.000000
645.367070 15.000000
645.388980 11.000000
646.352840 10.000000
663.374630 11.000000
664.381350 9.000000

>ms2
81.069400 20.000000
85.025220 21.000000
85.032000 20.000000
89.025310 6.000000
93.071670 19.000000
95.085920 25.000000
97.063100 6.000000
101.024570 8.000000
103.039080 7.000000
105.070530 10.000000
107.079070 11.000000
107.084490 27.000000
109.098010 20.000000
111.086940 5.000000
113.023380 13.000000
119.081080 17.000000
119.087840 30.000000
121.102210 50.000000
122.106160 6.000000
123.007700 7.000000
123.075810 6.000000
123.114280 9.000000
123.121260 9.000000
125.095760 8.000000
129.942140 5.000000
131.032170 14.000000
131.039020 6.000000
131.085890 15.000000
133.096450 24.000000
133.106870 8.000000
135.039540 6.000000
135.081950 33.000000
135.100250 9.000000
135.115660 59.000000
136.121090 13.000000
140.996720 5.000000
141.003970 15.000000
141.019990 300.000000
142.018970 14.000000
142.025280 10.000000
142.097520 8.000000
143.092100 9.000000
145.102550 20.000000
146.105830 12.000000
147.082140 5.000000
147.118130 47.000000
149.095760 12.000000
149.121060 14.000000
149.133680 47.000000
157.096190 20.000000
157.102390 13.000000
159.006060 7.000000
159.027730 88.000000
159.036580 32.000000
159.114490 25.000000
160.115280 9.000000
160.122820 7.000000
161.130020 31.000000
161.137250 10.000000
163.111010 14.000000
163.146550 58.000000
165.123760 11.000000
169.130570 9.000000
171.114780 7.000000
171.123960 7.000000
173.129620 57.000000
175.108800 12.000000
175.117830 7.000000
175.147480 87.000000
176.153720 10.000000
177.040950 11.000000
177.131520 8.000000
177.165300 17.000000
178.042910 6.000000
187.149660 38.000000
189.121640 7.000000
189.140610 9.000000
189.167160 105.000000
192.145890 7.000000
197.126130 8.000000
197.139920 11.000000
199.149060 35.000000
200.154680 10.000000
201.168000 20.000000
202.174120 7.000000
203.145160 22.000000
205.129730 9.000000
205.153110 20.000000
205.162220 38.000000
206.160510 7.000000
206.918260 6.000000
207.142000 8.000000
207.163680 8.000000
211.145890 8.000000
211.154890 13.000000
213.155530 11.000000
215.133730 12.000000
215.146330 25.000000
215.177690 10.000000
216.151550 16.000000
217.159760 109.000000
217.186610 7.000000
218.162750 27.000000
219.165270 7.000000
221.158600 14.000000
225.163420 10.000000
227.104280 12.000000
227.174740 22.000000
227.188960 12.000000
227.208450 5.000000
229.160810 18.000000
229.198390 10.000000
233.155580 52.000000
233.167250 13.000000
235.169680 91.000000
236.176130 8.000000
239.180310 33.000000
241.194440 49.000000
241.215910 6.000000
245.154390 7.000000
245.191300 12.000000
249.148960 20.000000
251.186800 14.000000
253.195470 14.000000
255.159120 5.000000
259.159820 12.000000
259.202820 13.000000
261.144840 9.000000
261.184880 12.000000
263.126860 18.000000
263.161070 24.000000
265.186370 8.000000
265.196720 8.000000
265.212250 9.000000
269.186280 11.000000
271.204100 28.000000
273.196990 11.000000
275.162720 19.000000
275.191860 9.000000
275.201200 7.000000
279.105740 5.000000
279.221620 6.000000
283.185850 7.000000
283.205810 30.000000
283.227940 7.000000
284.206150 8.000000
285.221160 17.000000
287.204900 20.000000
289.174220 7.000000
291.203220 10.000000
295.160400 6.000000
299.195860 26.000000
299.243500 5.000000
301.218200 12.000000
303.189210 6.000000
303.204560 28.000000
309.227810 10.000000
311.253050 10.000000
315.192570 14.000000
315.233670 14.000000
317.216580 59.000000
318.212190 7.000000
318.230740 7.000000
323.237150 7.000000
329.219540 9.000000
331.233700 9.000000
339.228550 18.000000
343.229920 7.000000
349.257840 10.000000
351.239590 10.000000
353.247770 7.000000
355.202420 6.000000
357.247800 8.000000
359.256710 8.000000
365.274200 16.000000
371.262150 15.000000
375.314540 10.000000
377.326810 11.000000
387.299870 32.000000
388.316650 7.000000
393.267330 8.000000
393.289340 12.000000
393.304960 32.000000
393.321690 17.000000
394.284880 7.000000
395.267700 11.000000
395.320710 14.000000
405.315060 103.000000
405.346530 19.000000
406.311430 39.000000
406.330110 8.000000
409.275910 13.000000
410.285190 7.000000
411.287260 25.000000
412.289430 17.000000
421.306400 8.000000
422.310330 7.000000
423.313480 43.000000
423.335300 59.000000
424.317410 11.000000
424.329320 24.000000
425.342930 7.000000
433.271880 9.000000
433.315670 88.000000
434.303010 16.000000
434.324650 19.000000
435.320830 7.000000
439.295260 17.000000
439.324430 126.000000
440.314270 49.000000
440.337070 12.000000
441.325380 21.000000
451.274480 11.000000
451.322420 352.000000
452.292300 12.000000
452.319730 41.000000
452.335240 73.000000
453.338810 11.000000
469.260220 7.000000
469.273500 8.000000
469.292940 11.000000
469.330780 1000.000000
470.293640 7.000000
470.335140 300.000000
471.333440 40.000000
471.359990 12.000000
472.355040 6.000000
487.293030 16.000000
487.341670 468.000000
487.382260 7.000000
488.314450 12.000000
488.342070 128.000000
488.356930 62.000000
489.348240 31.000000
609.318420 7.000000
839.414860 7.000000

