>compound PR68833577
>parentmass 388.1244
>ionization [M+H]+
>formula C16H21NO10
>rt 246.000000
>profile qtof
#smiles_iso COC1=CC2=C(C=C1)N(C(=O)C(O2)OC3C(C(C(C(O3)CO)O)O)O)OC
#smiles_can COC1=CC2=C(C=C1)N(C(=O)C(O2)OC3C(C(C(C(O3)CO)O)O)O)OC
#inchikey UOASSFRPBORTCT-UHFFFAOYSA-N
#pubchem_id 25201130
#mb_accession PR311129

>ms2peaks
59.017230 23.000000
69.032460 29.000000
85.028740 33.000000
85.037120 20.000000
94.041560 17.000000
94.067170 17.000000
95.038380 22.000000
95.051770 110.000000
97.026440 41.000000
107.022430 16.000000
107.052060 17.000000
110.054450 88.000000
110.062970 143.000000
111.065180 39.000000
115.036090 53.000000
122.061600 212.000000
123.043940 381.000000
123.048690 119.000000
123.061650 20.000000
124.044450 16.000000
124.613750 20.000000
125.964050 26.000000
134.012920 18.000000
134.025790 56.000000
137.056850 22.000000
138.045810 17.000000
138.055660 200.000000
139.062350 41.000000
145.044800 17.000000
145.055850 28.000000
149.042160 26.000000
149.053760 20.000000
150.018660 68.000000
150.055570 35.000000
151.027330 23.000000
154.042470 31.000000
154.057630 31.000000
156.019650 16.000000
165.047900 79.000000
165.054750 45.000000
166.025120 98.000000
166.050830 5381.000000
166.109480 24.000000
167.051530 512.000000
168.037690 28.000000
168.053270 51.000000
175.651920 20.000000
180.073270 31.000000
184.496640 23.000000
192.184910 16.000000
193.982100 53.000000
194.010560 31.000000
194.018010 29.000000
194.046950 1892.000000
194.458310 17.000000
195.045790 156.000000
195.055770 41.000000
196.054320 98.000000
208.058730 143.000000
209.057820 53.000000
225.056790 44.000000
225.464320 18.000000
226.055450 104.000000
226.071640 1638.000000
227.077260 352.000000
228.072100 61.000000
250.726590 16.000000
275.217770 34.000000
303.986970 16.000000
321.074220 27.000000
328.200960 18.000000
340.984680 20.000000
359.635130 17.000000
372.287050 17.000000
388.132290 81.000000

