>compound PR68232058
>parentmass 547.14495
>ionization [M+H]+
>formula C26H26O13
>rt 330.900000
>profile qtof
#smiles_iso COC1=CC=C(C=C1)C2=COC3=CC(=C(C=C3C2=O)OC)OC4C(C(C(C(O4)COC(=O)CC(=O)O)O)O)O
#smiles_can COC1=CC=C(C=C1)C2=COC3=CC(=C(C=C3C2=O)OC)OC4C(C(C(C(O4)COC(=O)CC(=O)O)O)O)O
#inchikey HOWDEROVXAADRI-UHFFFAOYSA-N
#pubchem_id 25203699
#mb_accession PR310877,PR310960

>ms2
51.720480 22.000000
57.030060 20.000000
60.406750 18.000000
127.034900 21.000000
151.036960 37.000000
159.711880 17.000000
166.025710 81.000000
166.034030 38.000000
166.139480 17.000000
166.908280 28.000000
170.661670 25.000000
173.563630 21.000000
174.967990 17.000000
183.077650 20.000000
186.945080 28.000000
187.203580 19.000000
193.127910 20.000000
207.050060 19.000000
214.572560 25.000000
216.766050 21.000000
223.053630 20.000000
227.172670 18.000000
229.176470 21.000000
231.786180 23.000000
238.057080 20.000000
239.064130 37.000000
239.072880 65.000000
240.070740 22.000000
240.082730 18.000000
240.355510 18.000000
240.554730 24.000000
241.054730 32.000000
241.080090 17.000000
243.097260 118.000000
243.344570 35.000000
244.102780 54.000000
244.117400 23.000000
253.044510 31.000000
254.093720 23.000000
256.073640 119.000000
258.082280 38.000000
267.063720 25.000000
268.056370 25.000000
268.075870 21.000000
268.957310 20.000000
271.081850 20.000000
271.092130 30.000000
271.105560 34.000000
271.965580 21.000000
276.959110 17.000000
283.051640 67.000000
283.067570 39.000000
283.966580 22.000000
283.980590 23.000000
284.018520 17.000000
284.037690 29.000000
284.068180 1067.000000
284.510100 20.000000
285.066160 100.000000
285.077480 109.000000
286.052520 29.000000
286.804020 21.000000
291.191860 28.000000
291.568420 19.000000
292.257320 24.000000
295.885650 17.000000
296.963350 23.000000
298.605560 17.000000
298.665890 17.000000
298.678500 24.000000
298.973600 19.000000
299.021420 20.000000
299.045200 154.000000
299.064360 71.000000
299.092160 28690.000000
299.141330 252.000000
299.769040 20.000000
299.894070 17.000000
300.021790 19.000000
300.041720 43.000000
300.095340 5295.000000
300.170620 21.000000
300.192840 18.000000
301.090180 367.000000
301.101350 710.000000
301.160490 17.000000
302.101780 39.000000
302.116300 20.000000
303.114440 18.000000
305.312840 21.000000
307.238710 19.000000
309.033450 18.000000
310.388460 23.000000
330.417080 51.000000
343.553280 20.000000
351.947020 29.000000
356.160550 22.000000
356.360140 18.000000
368.287570 20.000000
371.293670 19.000000
375.183810 17.000000
375.912230 18.000000
394.872560 20.000000
415.270540 21.000000
436.353120 20.000000
453.458980 22.000000
546.462830 20.000000
546.941410 25.000000
547.014710 18.000000
547.034910 20.000000
547.067810 69.000000
547.143740 6563.000000

>ms2
121.025560 18.000000
199.147870 18.000000
284.051820 23.000000
284.073000 25.000000
299.090300 200.000000
299.106690 18.000000
300.078190 19.000000
300.094850 40.000000
301.103450 17.000000
337.424650 17.000000
547.132200 19.000000
547.150760 42.000000

