>compound PR68937488
>parentmass 311.1239
>ionization [M+H]+
>formula C14H18N2O6
>rt 141.600000
>profile qtof
#smiles_iso C1=CC(=CC=C1CC(C(=O)O)NC(=O)CCC(C(=O)O)N)O
#smiles_can C1=CC(=CC=C1CC(C(=O)O)NC(=O)CCC(C(=O)O)N)O
#inchikey VVLXCWVSSLFQDS-UHFFFAOYSA-N
#pubchem_id 5056755
#mb_accession PR311057

>ms2
81.071430 20.000000
84.030300 21.000000
84.037670 17.000000
84.046490 332.000000
85.047430 42.000000
91.051220 60.000000
91.064690 21.000000
92.057940 19.000000
93.073940 24.000000
95.045140 36.000000
95.049830 134.000000
96.048720 20.000000
96.054860 35.000000
107.046060 19.000000
109.339580 20.000000
109.402690 19.000000
112.484780 17.000000
114.606930 18.000000
119.020030 18.000000
119.049130 507.000000
119.058630 94.000000
119.072020 20.000000
120.045400 21.000000
120.052190 20.000000
120.063460 17.000000
121.060960 17.000000
121.065760 37.000000
123.020490 31.000000
123.043640 915.000000
124.046560 17.000000
124.050460 45.000000
127.780970 18.000000
128.984390 30.000000
130.038620 17.000000
130.048520 144.000000
132.342640 19.000000
132.516690 17.000000
136.045350 21.000000
136.054930 33.000000
136.076840 2543.000000
136.091260 18.000000
137.073350 117.000000
137.082370 208.000000
138.086380 20.000000
144.043080 17.000000
146.064090 63.000000
147.037520 141.000000
147.043580 472.000000
147.601590 19.000000
148.055070 18.000000
155.549360 17.000000
161.061770 17.000000
162.010890 17.000000
164.988710 17.000000
165.038530 34.000000
165.055530 2462.000000
166.056400 203.000000
166.070050 39.000000
166.638340 17.000000
167.047850 21.000000
167.064470 18.000000
170.049970 22.000000
174.094990 25.000000
182.061250 21.000000
182.080570 4614.000000
183.084630 428.000000
184.095630 42.000000
200.080120 18.000000
202.067140 21.000000
202.079730 136.000000
202.088330 266.000000
202.103200 52.000000
203.091690 39.000000
232.792710 17.000000
246.008070 18.000000
248.043110 28.000000
248.066820 25.000000
248.094210 219.000000
249.094220 30.000000
250.099400 18.000000
273.644710 27.000000
293.110260 49.000000
294.087740 189.000000
294.098750 243.000000
295.102080 27.000000
295.111820 61.000000
296.113400 18.000000
311.080320 21.000000
311.120180 4135.000000

