>compound PR69737632
>parentmass 688.3327525000001
>ionization [M+H]+
>formula C36H49NO12
>rt 370.408980
>profile qtof
#smiles_iso CCN1CC2([C@H]3C(C4[C@@H]1C3([C@@H]5C[C@@]6([C@H](C([C@]4([C@H]5C6OC(=O)C7=CC=CC=C7)OC(=O)C)O)OC)O)C(CC2OC(=O)C)OC)OC)COC
#smiles_can CCN1CC2(C(CC(C34C2C(C(C31)C5(C6C4CC(C6OC(=O)C7=CC=CC=C7)(C(C5O)OC)O)OC(=O)C)OC)OC)OC(=O)C)COC
#inchikey RIPYIJVYDYCPKW-WEVHBWGYSA-N
#pubchem_id 53595
#mb_accession PR301188,PR301191,PR301195,PR301199,PR301203,PR301207,PR301210,PR301214,PR301218,PR301222,PR301226,PR301230

>ms2peaks
410.198520 6.000000
536.264100 26.000000
537.272030 6.000000
568.275630 9.000000
568.291140 27.000000
569.300420 6.000000
596.286620 25.000000
597.276310 6.000000
628.261050 5.000000
628.312010 131.000000
629.320740 41.000000
630.308720 10.000000
688.245300 12.000000
688.332640 1000.000000
688.407960 13.000000

>ms2peaks
688.246950 8.000000
688.333620 1000.000000
688.413020 18.000000

>ms2peaks
105.035960 7.000000
410.193600 7.000000
504.232210 5.000000
536.265870 48.000000
537.264830 15.000000
568.289490 49.000000
569.283330 7.000000
569.308840 12.000000
596.290040 63.000000
597.283020 20.000000
597.310910 8.000000
628.219180 5.000000
628.254580 7.000000
628.313600 376.000000
629.315920 165.000000
630.298580 11.000000
630.321230 32.000000
688.219910 9.000000
688.259030 11.000000
688.335690 1000.000000
688.416560 6.000000

>ms2peaks
56.050510 5.000000
58.063400 18.000000
58.068170 12.000000
72.792400 5.000000
75.044910 42.000000
77.029530 13.000000
77.038150 10.000000
77.043500 6.000000
81.035480 6.000000
84.078440 8.000000
85.029710 17.000000
85.064220 5.000000
88.078060 22.000000
91.055560 11.000000
96.076100 7.000000
97.060040 9.000000
97.064980 9.000000
101.057280 5.000000
105.015850 13.000000
105.033160 1000.000000
105.071030 11.000000
106.037250 78.000000
106.046260 11.000000
108.081890 37.000000
109.062730 26.000000
109.069110 12.000000
110.095480 6.000000
111.040250 7.000000
111.079250 40.000000
112.077430 10.000000
115.074490 6.000000
117.072340 15.000000
120.088840 6.000000
121.067400 5.000000
122.096850 42.000000
123.098890 9.000000
129.069630 100.000000
130.080440 5.000000
130.092500 7.000000
131.077350 13.000000
131.086580 26.000000
132.074750 8.000000
132.086870 6.000000
133.026410 7.000000
133.034330 10.000000
133.063190 6.000000
134.095840 20.000000
135.079070 17.000000
137.055880 26.000000
137.061840 23.000000
138.088030 7.000000
140.109560 7.000000
141.069960 20.000000
141.092610 31.000000
142.074050 11.000000
142.087620 6.000000
142.101100 5.000000
143.081680 6.000000
143.089450 7.000000
144.079700 5.000000
145.060260 6.000000
145.075060 6.000000
146.095310 18.000000
147.038510 16.000000
147.079240 16.000000
147.088230 13.000000
148.107930 8.000000
149.119130 7.000000
150.046200 6.000000
150.096120 5.000000
152.101180 29.000000
152.107650 96.000000
153.077060 9.000000
153.103670 8.000000
153.116760 9.000000
153.123030 5.000000
154.117460 9.000000
155.086380 23.000000
155.096440 6.000000
157.067050 7.000000
158.073940 13.000000
158.097410 22.000000
159.044170 5.000000
159.083500 38.000000
159.095730 6.000000
160.108730 24.000000
161.093950 46.000000
162.081620 6.000000
162.092530 12.000000
162.102870 8.000000
164.073910 6.000000
164.108380 21.000000
165.050370 20.000000
165.059980 16.000000
165.074680 10.000000
166.074660 6.000000
167.067870 9.000000
167.084200 36.000000
169.070270 14.000000
170.065370 7.000000
171.081380 8.000000
171.098050 8.000000
171.110180 10.000000
172.115080 23.000000
173.116130 6.000000
173.123310 6.000000
174.090470 127.000000
174.099640 49.000000
174.125790 14.000000
175.070590 5.000000
175.083950 10.000000
175.093580 43.000000
177.052510 7.000000
177.059280 9.000000
177.069700 7.000000
178.071300 6.000000
178.079710 14.000000
178.107360 6.000000
178.130000 12.000000
179.081740 31.000000
179.091660 22.000000
180.091400 7.000000
180.098530 9.000000
181.065200 5.000000
181.076350 9.000000
181.097630 15.000000
182.074770 8.000000
182.097560 9.000000
182.105800 5.000000
182.116670 8.000000
183.079960 18.000000
183.101640 9.000000
184.106700 35.000000
184.115940 22.000000
185.097200 6.000000
185.109390 10.000000
185.128010 8.000000
186.119630 30.000000
186.131840 42.000000
187.076140 8.000000
188.070920 49.000000
188.143660 5.000000
189.076830 11.000000
189.086690 18.000000
189.092960 7.000000
190.079740 38.000000
190.091810 12.000000
190.122250 37.000000
191.090420 15.000000
192.083830 5.000000
192.090680 14.000000
192.104580 5.000000
193.093230 13.000000
193.101390 10.000000
194.102130 12.000000
195.057720 7.000000
195.084320 44.000000
196.086750 8.000000
196.101610 5.000000
196.114320 20.000000
197.093950 11.000000
197.113880 18.000000
198.090360 6.000000
198.126190 12.000000
198.133270 11.000000
199.077800 8.000000
199.110120 11.000000
199.121610 8.000000
200.108860 11.000000
202.069240 21.000000
202.083370 19.000000
202.091020 24.000000
202.119520 36.000000
203.083980 30.000000
203.095370 21.000000
203.131360 10.000000
203.140500 6.000000
204.088470 10.000000
204.096680 15.000000
204.140820 8.000000
205.086270 13.000000
205.099490 53.000000
205.110720 51.000000
205.143430 7.000000
206.094790 12.000000
206.108290 11.000000
206.156600 6.000000
207.069200 8.000000
207.082600 33.000000
207.118840 22.000000
208.082890 12.000000
208.107680 9.000000
208.120000 8.000000
209.095900 9.000000
209.124980 6.000000
210.063420 6.000000
210.124630 6.000000
210.153000 5.000000
211.066240 6.000000
211.113950 6.000000
211.147350 5.000000
214.109300 6.000000
215.088360 33.000000
215.118090 12.000000
216.092130 8.000000
216.103120 12.000000
216.129700 7.000000
216.139500 13.000000
217.078350 6.000000
217.098560 66.000000
218.070600 20.000000
218.101780 8.000000
218.112810 6.000000
218.152530 225.000000
218.161900 50.000000
218.181790 6.000000
219.075440 13.000000
219.084370 10.000000
219.116590 18.000000
219.162770 24.000000
220.084760 20.000000
220.101270 13.000000
220.115170 19.000000
221.089290 36.000000
221.105220 21.000000
222.127150 12.000000
223.076220 11.000000
223.102740 6.000000
223.116440 17.000000
223.128110 7.000000
224.099490 8.000000
224.111250 9.000000
224.140950 5.000000
225.096420 14.000000
225.128080 6.000000
226.121870 10.000000
227.112380 7.000000
227.125660 11.000000
228.134810 8.000000
229.081680 5.000000
229.092380 13.000000
230.111280 6.000000
230.144200 7.000000
230.162600 5.000000
231.080030 9.000000
231.108200 8.000000
232.084150 11.000000
232.125370 6.000000
233.078310 15.000000
233.096970 92.000000
234.077270 6.000000
234.094910 35.000000
234.111070 19.000000
234.124420 16.000000
235.076000 6.000000
235.112010 62.000000
235.139130 6.000000
236.073010 7.000000
236.084200 6.000000
236.095200 10.000000
236.113070 12.000000
237.094440 17.000000
237.121050 9.000000
237.132690 17.000000
238.107620 5.000000
238.127780 12.000000
239.103000 10.000000
239.119090 7.000000
240.102010 6.000000
240.138520 8.000000
241.085050 9.000000
241.108780 7.000000
241.128750 5.000000
242.116960 9.000000
242.152370 10.000000
243.079180 11.000000
243.090650 6.000000
244.095900 7.000000
244.170060 7.000000
245.075530 8.000000
245.095930 27.000000
245.119920 9.000000
246.096830 13.000000
247.076460 12.000000
247.105240 5.000000
247.118410 27.000000
247.138170 11.000000
248.072690 7.000000
248.082820 9.000000
248.097340 11.000000
248.114360 17.000000
248.126540 9.000000
248.154690 6.000000
249.077130 10.000000
249.090030 20.000000
249.120000 19.000000
249.158840 8.000000
250.089360 8.000000
250.100130 13.000000
250.113360 8.000000
250.127110 6.000000
250.140820 11.000000
251.109940 26.000000
252.106690 17.000000
252.135190 15.000000
253.109150 13.000000
253.128190 13.000000
253.134520 6.000000
254.155560 5.000000
256.081480 7.000000
256.095550 6.000000
257.111050 6.000000
258.139710 5.000000
259.112400 11.000000
260.098050 6.000000
261.094570 68.000000
262.086640 14.000000
262.102290 9.000000
262.125210 9.000000
262.157870 39.000000
263.071040 7.000000
263.102690 27.000000
263.116090 16.000000
264.102570 6.000000
264.121550 10.000000
264.132780 13.000000
265.113590 16.000000
265.125730 31.000000
266.131960 5.000000
266.164370 5.000000
267.100100 6.000000
267.126560 12.000000
268.148130 6.000000
269.153170 5.000000
269.208280 6.000000
269.914890 6.000000
270.131900 5.000000
270.147130 5.000000
271.130620 5.000000
272.128850 5.000000
272.142520 19.000000
273.101960 12.000000
275.101720 6.000000
276.130550 12.000000
276.157290 6.000000
276.956730 5.000000
277.095370 11.000000
277.134370 5.000000
277.151430 15.000000
278.121490 9.000000
278.155120 18.000000
279.097750 12.000000
279.118680 6.000000
279.142700 6.000000
279.155760 11.000000
280.141200 18.000000
280.182680 7.000000
281.127530 5.000000
281.158110 9.000000
281.178410 5.000000
284.222660 7.000000
288.108370 7.000000
288.128300 8.000000
289.148320 7.000000
290.118800 6.000000
290.151790 47.000000
291.124450 10.000000
291.152340 6.000000
291.164150 10.000000
292.111790 6.000000
292.129610 7.000000
293.104680 9.000000
293.123600 40.000000
293.180790 7.000000
294.152280 7.000000
295.129730 5.000000
295.163420 7.000000
296.108280 7.000000
296.167300 20.000000
297.134830 5.000000
297.156860 8.000000
298.158630 7.000000
300.139220 6.000000
301.147890 15.000000
304.094300 6.000000
304.132810 18.000000
304.173190 8.000000
305.140230 34.000000
306.104770 6.000000
306.147310 54.000000
307.140500 12.000000
308.183960 5.000000
309.141510 12.000000
310.111300 14.000000
310.154480 7.000000
310.182340 15.000000
311.119540 6.000000
318.146150 36.000000
319.152400 6.000000
320.127870 15.000000
322.162900 23.000000
322.178830 53.000000
323.189510 33.000000
324.148900 11.000000
324.169310 9.000000
325.149570 8.000000
326.125000 6.000000
326.204220 19.000000
326.221470 9.000000
326.230590 6.000000
327.204470 5.000000
327.218050 9.000000
328.174900 7.000000
328.198730 7.000000
332.153870 6.000000
333.189880 7.000000
335.151150 8.000000
336.136410 6.000000
336.160400 11.000000
336.190190 7.000000
337.680970 5.000000
338.169860 5.000000
338.188170 6.000000
340.181150 6.000000
340.195070 7.000000
341.193120 10.000000
343.148830 8.000000
350.138310 5.000000
350.176610 106.000000
351.165890 13.000000
351.183840 15.000000
352.192320 19.000000
354.138790 6.000000
354.203190 238.000000
355.087890 6.000000
355.144810 6.000000
355.207000 77.000000
355.224060 21.000000
355.240570 5.000000
356.217830 11.000000
358.230350 6.000000
358.259800 6.000000
364.134580 10.000000
366.169460 9.000000
367.187680 8.000000
368.176060 9.000000
369.191530 8.000000
370.118590 7.000000
372.239720 5.000000
373.149260 5.000000
378.184880 5.000000
382.195370 52.000000
382.212890 21.000000
383.202390 5.000000
384.200040 8.000000
386.223180 27.000000
386.239170 43.000000
387.187010 9.000000
387.214540 7.000000
387.239500 14.000000
388.229000 6.000000
396.225400 10.000000
400.173740 8.000000
400.509060 6.000000
401.141390 6.000000
402.177490 6.000000
410.129670 5.000000
410.183230 80.000000
410.202880 138.000000
411.166050 5.000000
411.195590 43.000000
411.216030 17.000000
411.853520 6.000000
412.202210 14.000000
412.220610 5.000000
414.213680 21.000000
414.234190 70.000000
415.161870 5.000000
415.190860 6.000000
415.230100 11.000000
415.260070 6.000000
416.221130 10.000000
418.237460 6.000000
418.259640 26.000000
418.287350 5.000000
427.179320 9.000000
429.199920 8.000000
429.212100 7.000000
430.235290 6.000000
436.244450 7.000000
440.176420 9.000000
440.203740 9.000000
444.180910 5.000000
444.206540 12.000000
444.221220 17.000000
445.225100 5.000000
446.190190 6.000000
446.203310 7.000000
446.234830 20.000000
446.255770 92.000000
446.281860 12.000000
446.304290 8.000000
447.195040 7.000000
447.261900 32.000000
447.619320 7.000000
448.279660 8.000000
450.240140 7.000000
459.210850 8.000000
460.215820 8.000000
460.227870 19.000000
461.236390 20.000000
462.251860 9.000000
464.196380 5.000000
472.210420 25.000000
472.225860 11.000000
474.234190 7.000000
476.181980 6.000000
476.227290 68.000000
476.245300 155.000000
477.242130 46.000000
478.218600 44.000000
478.230710 20.000000
478.264650 7.000000
479.221500 12.000000
481.201350 5.000000
492.200200 5.000000
492.240910 11.000000
492.260890 5.000000
497.234860 5.000000
504.143190 5.000000
504.212010 16.000000
504.237580 84.000000
504.251340 38.000000
505.204830 8.000000
505.229490 19.000000
505.245940 42.000000
506.226560 13.000000
506.242950 9.000000
506.264950 8.000000
508.190730 9.000000
508.255550 33.000000
508.277920 25.000000
509.243840 6.000000
509.265290 9.000000
510.260560 17.000000
510.282960 7.000000
511.242430 9.000000
518.266720 8.000000
522.230350 7.000000
522.264590 15.000000
524.272520 7.000000
531.145810 5.000000
536.201720 13.000000
536.264950 255.000000
537.245910 25.000000
537.267940 85.000000
537.299320 18.000000
538.259640 8.000000
538.276790 5.000000
564.242130 11.000000
564.266360 12.000000
565.255430 11.000000
566.290220 8.000000
568.237240 11.000000
568.273560 73.000000
568.291560 168.000000
568.343320 6.000000
569.269960 18.000000
569.298890 57.000000
569.317750 25.000000
570.298770 15.000000
571.311160 6.000000
596.261470 28.000000
596.279300 59.000000
596.306270 42.000000
597.249630 6.000000
597.277400 14.000000
597.304570 23.000000
597.886110 5.000000
598.293950 20.000000
628.275760 18.000000
628.311580 171.000000
629.281740 18.000000
629.312560 72.000000
629.345520 13.000000
630.301090 18.000000
630.336240 6.000000
688.319820 12.000000
688.352290 10.000000

>ms2peaks
504.235470 7.000000
536.267940 21.000000
537.274350 8.000000
568.286500 10.000000
568.306210 9.000000
569.310420 5.000000
596.281190 25.000000
596.308110 6.000000
597.285640 7.000000
628.312930 114.000000
629.315670 50.000000
630.316470 14.000000
688.334170 1000.000000
688.399960 7.000000
688.424870 7.000000

>ms2peaks
688.250790 11.000000
688.332580 1000.000000
688.410890 19.000000

>ms2peaks
105.034070 8.000000
410.198330 10.000000
476.248410 7.000000
504.239290 5.000000
536.254520 16.000000
536.272220 32.000000
537.270870 17.000000
568.287720 39.000000
568.306460 16.000000
569.287050 14.000000
596.286320 65.000000
597.291500 28.000000
628.243840 6.000000
628.312810 366.000000
629.269290 7.000000
629.313290 156.000000
630.293640 7.000000
630.325320 36.000000
688.258420 15.000000
688.284610 8.000000
688.333500 1000.000000

>ms2peaks
56.052170 14.000000
58.066040 22.000000
71.049670 25.000000
72.079760 8.000000
75.045170 14.000000
77.040760 11.000000
77.046560 5.000000
81.070850 6.000000
84.075800 7.000000
84.083860 12.000000
87.045610 7.000000
88.072530 7.000000
88.081360 13.000000
96.085380 7.000000
102.093320 6.000000
105.017270 5.000000
105.034630 1000.000000
106.032290 18.000000
106.039220 51.000000
107.033420 6.000000
108.077220 21.000000
108.083270 25.000000
109.065930 20.000000
110.073660 6.000000
110.097980 18.000000
111.080190 55.000000
111.088750 7.000000
114.087300 10.000000
115.077800 7.000000
116.062710 5.000000
117.045600 10.000000
117.067980 13.000000
118.075110 13.000000
120.081180 6.000000
121.059280 10.000000
121.067180 25.000000
122.068560 5.000000
122.094640 7.000000
122.102430 15.000000
123.080890 8.000000
125.052290 5.000000
125.060550 5.000000
128.063960 6.000000
129.067890 44.000000
130.063670 8.000000
131.045490 6.000000
131.052930 10.000000
131.085890 32.000000
132.057910 5.000000
132.083970 11.000000
133.063430 5.000000
134.099290 19.000000
135.083020 10.000000
136.078980 7.000000
137.059520 48.000000
138.092960 6.000000
139.073790 7.000000
140.102620 11.000000
141.070650 26.000000
141.093440 22.000000
141.098360 14.000000
143.069340 8.000000
143.083480 14.000000
144.081450 7.000000
144.106660 6.000000
145.066440 8.000000
145.089810 9.000000
146.038560 15.000000
146.092500 17.000000
146.100070 16.000000
147.047610 16.000000
147.083720 34.000000
148.109910 14.000000
149.057650 5.000000
150.067750 6.000000
152.096570 13.000000
152.107010 99.000000
153.068700 11.000000
153.112150 20.000000
154.079530 8.000000
154.124710 31.000000
155.089080 29.000000
156.080630 8.000000
156.122480 6.000000
157.068830 6.000000
157.099610 12.000000
158.089220 6.000000
158.097340 14.000000
158.106960 8.000000
159.075060 7.000000
159.082820 20.000000
159.101360 12.000000
159.108440 6.000000
160.080260 12.000000
160.108120 19.000000
160.115880 13.000000
161.061540 13.000000
161.095170 31.000000
162.090620 12.000000
162.096570 23.000000
162.111220 7.000000
163.082430 8.000000
163.092680 6.000000
163.105550 5.000000
164.111680 8.000000
164.992570 6.000000
165.056720 19.000000
165.078110 16.000000
165.095920 9.000000
165.114580 5.000000
166.070300 6.000000
167.067320 9.000000
167.081510 9.000000
167.088350 17.000000
169.065810 29.000000
170.093490 5.000000
171.078380 13.000000
171.089390 12.000000
171.108700 6.000000
172.112700 28.000000
173.098630 17.000000
174.064390 12.000000
174.093370 144.000000
174.130080 9.000000
175.089890 15.000000
175.098510 33.000000
175.111720 6.000000
176.097610 11.000000
177.056140 11.000000
177.090640 6.000000
178.061130 5.000000
178.069170 5.000000
178.122100 21.000000
179.076480 11.000000
179.086200 27.000000
180.077910 9.000000
180.101620 7.000000
181.067280 5.000000
181.103420 17.000000
182.100100 18.000000
182.121690 7.000000
183.086470 10.000000
183.103610 20.000000
184.050840 7.000000
184.087590 6.000000
184.101330 7.000000
184.114620 73.000000
185.055310 8.000000
185.096020 20.000000
185.120130 28.000000
186.113200 15.000000
186.123490 29.000000
186.133150 22.000000
187.066380 6.000000
187.077390 13.000000
187.090930 7.000000
187.131640 10.000000
188.056340 9.000000
188.071790 71.000000
188.104520 17.000000
189.075580 11.000000
190.058520 7.000000
190.076110 20.000000
190.088100 26.000000
190.123870 22.000000
191.069980 7.000000
191.081130 14.000000
191.090210 19.000000
191.128620 9.000000
192.091980 15.000000
192.129810 6.000000
193.063950 11.000000
193.105410 40.000000
194.103730 7.000000
195.069260 5.000000
195.084460 18.000000
195.096590 10.000000
196.102230 5.000000
196.122270 9.000000
197.077790 5.000000
197.094730 7.000000
197.117510 11.000000
198.093190 5.000000
198.109070 10.000000
198.128010 17.000000
198.146960 10.000000
199.080140 5.000000
199.125870 9.000000
201.104610 6.000000
202.067460 18.000000
202.078720 22.000000
202.089810 12.000000
202.098430 11.000000
202.123660 21.000000
203.080550 16.000000
203.091520 28.000000
203.123020 5.000000
204.081820 7.000000
204.099000 23.000000
204.109100 12.000000
204.127590 6.000000
204.137300 29.000000
205.060700 8.000000
205.069200 7.000000
205.100370 80.000000
205.125200 5.000000
205.149800 8.000000
206.079450 7.000000
206.089770 10.000000
206.101330 14.000000
206.110230 20.000000
207.062960 7.000000
207.083820 28.000000
207.115140 17.000000
208.092330 9.000000
208.110790 12.000000
208.123790 5.000000
209.084350 6.000000
209.096790 44.000000
209.123050 11.000000
210.107510 7.000000
210.124690 20.000000
212.107910 7.000000
212.146290 5.000000
213.107030 7.000000
214.093150 5.000000
215.080730 17.000000
215.094180 38.000000
215.128190 11.000000
216.088730 5.000000
216.097440 10.000000
216.109410 7.000000
216.134900 8.000000
216.144420 7.000000
217.098800 65.000000
218.059010 14.000000
218.071230 8.000000
218.081990 11.000000
218.110410 17.000000
218.154500 279.000000
219.081710 38.000000
219.116170 28.000000
219.156430 9.000000
219.165760 25.000000
220.082080 10.000000
220.096250 9.000000
220.169340 5.000000
221.078380 8.000000
221.098340 24.000000
221.144040 7.000000
222.069120 5.000000
222.103990 11.000000
222.124280 17.000000
223.116680 17.000000
224.099870 7.000000
224.118190 10.000000
225.093220 28.000000
225.110580 6.000000
228.100270 8.000000
228.141250 9.000000
229.095750 9.000000
230.105930 9.000000
230.122040 9.000000
232.086500 30.000000
232.102340 5.000000
233.063900 9.000000
233.095120 79.000000
234.068530 5.000000
234.094970 22.000000
234.106260 29.000000
235.114150 47.000000
235.140350 6.000000
236.079680 5.000000
236.109480 8.000000
236.146900 6.000000
237.090730 23.000000
237.129380 28.000000
238.126460 8.000000
239.108340 13.000000
239.130620 7.000000
240.105240 22.000000
241.126720 21.000000
242.153790 8.000000
243.079670 14.000000
244.171300 6.000000
245.096040 19.000000
246.102370 15.000000
246.119160 8.000000
247.102220 7.000000
247.113130 27.000000
247.142880 7.000000
248.073680 9.000000
248.090060 7.000000
248.106490 11.000000
248.154190 6.000000
249.095780 25.000000
249.121460 14.000000
249.135850 21.000000
250.080720 6.000000
250.099550 11.000000
250.110090 11.000000
250.130650 24.000000
251.105560 31.000000
251.130110 15.000000
254.127320 6.000000
254.145310 12.000000
255.139250 7.000000
256.125580 8.000000
257.102780 5.000000
257.118440 6.000000
258.141970 11.000000
259.075740 5.000000
259.114590 14.000000
261.091370 69.000000
261.120450 7.000000
261.149200 5.000000
262.103670 12.000000
262.111940 5.000000
262.139770 5.000000
262.164860 8.000000
263.107180 33.000000
263.139400 12.000000
264.128780 10.000000
264.140590 13.000000
265.016020 7.000000
265.100950 11.000000
265.121860 30.000000
266.131500 9.000000
266.161070 9.000000
267.121640 11.000000
267.142060 7.000000
268.128910 10.000000
269.132110 7.000000
269.140840 7.000000
269.158020 5.000000
272.134770 8.000000
272.148100 17.000000
272.174870 7.000000
273.076170 5.000000
273.092010 11.000000
274.130220 8.000000
275.108830 35.000000
276.146850 14.000000
277.131160 11.000000
277.142760 6.000000
278.090000 6.000000
278.102260 8.000000
278.134250 8.000000
278.175720 8.000000
279.095950 6.000000
279.107180 21.000000
279.137390 13.000000
280.106080 6.000000
280.137390 6.000000
280.164790 7.000000
281.145510 9.000000
281.177730 6.000000
282.146730 9.000000
284.134580 7.000000
286.117860 8.000000
288.142000 6.000000
289.091280 6.000000
290.097380 11.000000
290.155400 71.000000
291.123870 15.000000
291.163850 15.000000
292.147640 8.000000
293.110170 12.000000
293.130710 22.000000
294.127230 20.000000
294.142030 5.000000
294.177400 6.000000
294.192200 8.000000
295.132170 7.000000
296.132660 9.000000
296.161960 22.000000
297.146480 18.000000
298.135740 8.000000
299.083130 5.000000
302.160460 6.000000
304.135800 7.000000
304.172550 6.000000
305.113980 5.000000
305.128200 18.000000
305.152530 31.000000
306.130860 5.000000
306.151000 41.000000
306.163790 15.000000
307.126130 9.000000
307.144040 6.000000
307.158940 11.000000
308.138150 7.000000
308.158750 5.000000
308.174040 10.000000
309.169530 15.000000
309.188960 6.000000
310.109440 18.000000
310.126800 7.000000
310.175510 10.000000
310.192500 11.000000
312.160800 6.000000
315.176670 5.000000
318.159880 24.000000
319.157440 11.000000
320.160980 9.000000
322.147640 18.000000
322.175750 54.000000
322.198240 14.000000
323.151090 15.000000
323.176150 7.000000
324.163850 12.000000
325.151920 17.000000
325.207460 13.000000
326.164030 5.000000
326.186370 14.000000
326.201840 19.000000
326.217190 35.000000
327.212980 9.000000
327.949950 5.000000
328.190730 12.000000
329.205870 9.000000
332.139340 5.000000
335.151180 9.000000
336.201540 5.000000
337.145810 9.000000
337.174650 5.000000
338.161960 6.000000
338.180880 8.000000
339.186920 13.000000
340.173280 7.000000
341.198730 6.000000
342.140690 7.000000
342.182250 6.000000
344.166440 7.000000
350.146640 5.000000
350.176970 98.000000
351.174190 21.000000
351.191220 5.000000
352.160800 5.000000
352.188390 16.000000
353.205540 7.000000
354.171480 7.000000
354.209010 244.000000
355.211460 41.000000
355.228880 9.000000
356.191440 16.000000
356.223420 8.000000
357.166750 10.000000
358.233250 6.000000
359.236270 10.000000
368.192570 16.000000
370.209990 10.000000
371.193360 8.000000
374.214020 8.000000
382.188630 12.000000
382.203700 44.000000
383.115110 6.000000
383.209560 10.000000
384.186190 9.000000
384.210210 6.000000
384.227840 6.000000
385.175930 9.000000
385.216860 5.000000
386.191860 16.000000
386.232090 107.000000
387.234740 29.000000
387.250240 7.000000
388.219570 11.000000
392.219480 5.000000
398.176270 8.000000
410.154360 8.000000
410.199160 210.000000
411.201020 70.000000
413.152710 6.000000
414.221770 40.000000
414.235050 47.000000
415.235750 17.000000
418.187960 5.000000
418.245480 12.000000
418.275360 15.000000
426.179660 5.000000
426.208250 6.000000
428.182650 5.000000
428.492100 6.000000
441.198880 6.000000
442.205660 15.000000
442.221620 8.000000
443.225310 6.000000
444.190490 7.000000
444.218510 19.000000
445.200290 8.000000
446.197450 24.000000
446.255000 169.000000
446.288640 6.000000
447.183500 6.000000
447.222600 6.000000
447.251040 38.000000
447.285830 11.000000
448.258820 13.000000
449.200130 7.000000
460.186430 7.000000
460.212100 10.000000
460.233640 12.000000
460.253360 13.000000
461.242000 6.000000
462.199830 8.000000
472.217250 40.000000
473.199160 7.000000
473.217320 12.000000
473.571320 5.000000
476.132720 6.000000
476.242650 240.000000
476.297760 6.000000
477.241640 50.000000
477.282530 7.000000
478.215210 53.000000
478.229710 25.000000
478.253910 17.000000
479.209560 9.000000
479.231080 13.000000
490.221620 6.000000
490.242610 7.000000
492.220520 6.000000
492.241360 15.000000
504.226720 34.000000
504.249390 68.000000
505.205350 5.000000
505.241940 34.000000
505.276180 12.000000
505.883910 6.000000
506.246950 16.000000
508.233550 11.000000
508.263430 53.000000
508.291750 10.000000
509.286930 19.000000
510.217160 8.000000
510.242280 13.000000
510.267820 6.000000
511.297030 9.000000
522.239320 6.000000
536.235290 36.000000
536.264770 289.000000
537.234130 12.000000
537.274350 146.000000
537.307740 9.000000
538.252990 7.000000
538.272090 20.000000
539.260310 8.000000
564.247920 17.000000
564.271480 12.000000
565.245970 7.000000
566.268490 8.000000
568.255680 24.000000
568.291810 238.000000
569.290890 40.000000
569.312070 54.000000
570.281370 9.000000
570.306090 10.000000
570.324160 15.000000
571.300780 5.000000
585.627260 5.000000
595.816960 6.000000
596.276490 58.000000
596.296750 96.000000
597.279050 21.000000
597.327390 6.000000
598.301450 6.000000
628.263920 11.000000
628.316410 248.000000
629.310670 60.000000
629.336430 14.000000
630.327150 19.000000
688.329590 21.000000
688.354370 8.000000

>ms2peaks
105.033940 5.000000
476.242860 6.000000
536.262510 21.000000
537.263610 6.000000
568.288330 24.000000
596.267520 8.000000
596.294070 17.000000
597.286560 9.000000
628.310420 108.000000
629.312380 42.000000
630.318850 10.000000
688.231020 5.000000
688.333440 1000.000000
688.413090 13.000000

>ms2peaks
688.258300 5.000000
688.333010 1000.000000
688.412170 18.000000

>ms2peaks
105.032260 8.000000
410.201480 5.000000
504.247740 8.000000
536.261350 36.000000
537.267940 19.000000
568.282960 27.000000
568.301090 28.000000
569.299740 11.000000
596.286130 68.000000
597.282710 18.000000
597.312440 6.000000
598.293210 7.000000
628.194640 5.000000
628.256410 8.000000
628.312070 376.000000
629.315490 165.000000
630.319460 42.000000
688.241330 7.000000
688.265380 13.000000
688.333250 1000.000000
688.414550 6.000000

>ms2peaks
56.050160 9.000000
58.067580 27.000000
72.081550 10.000000
75.044720 25.000000
77.039340 8.000000
77.043510 6.000000
79.058170 5.000000
84.048870 6.000000
84.080250 5.000000
85.023120 7.000000
85.028620 9.000000
87.042830 6.000000
89.078510 6.000000
92.058650 12.000000
94.064590 8.000000
95.049570 11.000000
97.062810 5.000000
101.080240 6.000000
102.089540 5.000000
105.019130 9.000000
105.034400 1000.000000
105.076300 10.000000
106.036280 84.000000
107.039670 12.000000
107.048320 10.000000
108.077750 10.000000
108.084710 25.000000
109.064880 46.000000
109.091340 6.000000
110.097450 16.000000
111.077380 17.000000
111.082140 31.000000
112.078530 11.000000
112.084300 9.000000
114.090550 6.000000
115.054590 6.000000
115.074100 8.000000
117.070030 40.000000
119.050830 13.000000
121.064570 17.000000
122.094090 21.000000
123.080780 8.000000
127.075900 6.000000
128.107640 5.000000
129.070920 56.000000
130.071700 7.000000
131.081710 11.000000
131.088360 32.000000
133.031590 8.000000
133.089520 7.000000
134.092650 11.000000
134.099470 6.000000
135.079620 24.000000
136.077610 6.000000
136.109760 7.000000
137.056840 19.000000
137.063570 17.000000
138.094820 9.000000
139.040800 6.000000
140.106920 11.000000
141.070250 11.000000
141.094090 5.000000
142.115880 6.000000
143.069980 10.000000
143.086750 23.000000
144.081440 5.000000
145.071000 9.000000
145.101840 7.000000
146.033630 6.000000
146.098500 23.000000
147.043180 25.000000
147.075930 19.000000
147.086200 9.000000
148.086790 9.000000
148.106080 6.000000
149.055100 8.000000
149.064900 11.000000
150.093480 13.000000
152.107040 141.000000
153.049990 6.000000
153.070660 10.000000
154.086470 6.000000
154.114550 8.000000
155.081770 16.000000
155.090520 22.000000
157.062640 13.000000
158.070330 6.000000
158.090650 7.000000
158.097890 18.000000
159.083740 9.000000
160.087100 10.000000
160.109800 23.000000
161.097170 24.000000
162.108310 8.000000
162.126310 6.000000
163.096770 9.000000
165.057360 12.000000
165.070130 37.000000
165.087860 7.000000
167.057980 7.000000
167.086400 25.000000
168.052920 5.000000
168.090150 6.000000
169.070660 7.000000
170.067280 9.000000
170.075000 7.000000
171.079960 9.000000
171.092390 9.000000
171.106450 12.000000
171.116170 6.000000
172.110440 20.000000
172.121220 15.000000
173.063810 6.000000
173.096150 12.000000
173.118470 5.000000
174.086260 55.000000
174.095410 74.000000
174.122600 12.000000
174.133090 7.000000
175.040560 9.000000
175.075840 11.000000
175.093660 15.000000
175.100300 15.000000
176.100950 9.000000
176.109180 10.000000
177.050370 6.000000
177.059720 11.000000
178.065110 6.000000
178.079350 7.000000
178.122510 22.000000
179.089310 26.000000
179.126040 6.000000
180.080700 6.000000
180.095520 12.000000
181.075350 10.000000
181.103670 14.000000
182.059360 8.000000
182.097260 11.000000
183.084320 7.000000
184.111280 45.000000
184.128860 5.000000
185.068820 10.000000
185.094220 7.000000
185.102010 12.000000
185.119310 18.000000
186.105330 8.000000
186.130970 56.000000
187.067120 6.000000
187.073350 13.000000
188.070050 54.000000
188.081510 18.000000
188.133450 7.000000
189.064820 10.000000
189.075560 10.000000
189.090210 8.000000
190.070680 13.000000
190.084080 20.000000
190.105070 14.000000
190.124480 14.000000
191.054760 5.000000
191.074980 9.000000
191.088010 36.000000
191.129670 7.000000
192.095460 5.000000
193.070470 19.000000
193.090930 6.000000
193.101410 36.000000
194.078230 9.000000
195.075390 10.000000
195.087190 12.000000
195.116520 17.000000
195.123840 5.000000
196.076600 7.000000
196.088470 7.000000
196.114410 28.000000
197.057600 6.000000
197.091810 5.000000
197.103680 12.000000
198.100740 6.000000
198.129550 8.000000
199.081330 11.000000
199.129990 8.000000
200.106960 5.000000
201.066970 9.000000
202.085040 70.000000
202.118350 25.000000
203.082140 22.000000
203.091690 58.000000
203.107670 11.000000
204.088710 14.000000
204.097660 15.000000
204.109480 7.000000
204.137080 33.000000
205.045030 5.000000
205.070470 8.000000
205.083250 8.000000
205.103850 97.000000
206.099120 15.000000
206.120900 6.000000
207.080550 30.000000
207.120440 8.000000
208.059070 6.000000
208.085430 11.000000
208.121960 13.000000
209.060670 5.000000
209.094800 26.000000
209.125810 5.000000
210.099720 5.000000
210.115390 6.000000
210.125780 8.000000
210.138340 10.000000
211.076930 9.000000
211.119050 16.000000
211.130430 5.000000
212.108370 6.000000
213.141510 9.000000
214.586870 5.000000
215.080030 10.000000
215.089750 27.000000
216.091350 25.000000
216.099660 22.000000
216.138530 13.000000
217.085040 12.000000
217.096040 24.000000
217.107760 23.000000
217.145540 6.000000
218.072750 11.000000
218.112430 9.000000
218.154720 198.000000
219.081630 34.000000
219.108400 12.000000
219.118560 17.000000
219.144350 12.000000
219.156050 56.000000
220.085690 15.000000
220.096190 6.000000
220.127270 7.000000
221.098950 37.000000
221.110550 11.000000
221.123520 5.000000
221.136890 8.000000
222.124760 9.000000
223.104370 15.000000
223.117980 9.000000
224.112490 5.000000
224.132260 19.000000
225.108470 9.000000
227.067810 7.000000
227.092190 12.000000
227.106160 5.000000
228.143390 12.000000
229.083560 17.000000
229.122160 8.000000
230.107620 5.000000
230.119080 6.000000
231.070790 10.000000
231.086670 7.000000
232.089630 19.000000
232.101760 8.000000
233.097850 98.000000
233.121280 9.000000
234.095280 17.000000
234.110600 15.000000
234.124570 7.000000
234.133440 9.000000
235.073810 18.000000
235.092420 8.000000
235.110000 41.000000
235.118500 34.000000
235.135800 5.000000
236.064010 6.000000
236.081010 11.000000
236.103210 7.000000
236.114840 16.000000
236.143460 5.000000
237.092420 25.000000
237.113420 15.000000
237.135240 7.000000
238.097200 14.000000
238.122390 5.000000
238.140760 5.000000
238.162800 7.000000
239.100310 8.000000
239.119060 6.000000
239.135730 8.000000
240.100630 5.000000
240.133770 9.000000
241.080400 12.000000
242.146300 11.000000
243.085450 5.000000
244.088260 7.000000
244.138960 6.000000
245.093720 39.000000
246.092010 7.000000
246.153930 7.000000
247.084580 8.000000
247.112640 37.000000
247.128910 11.000000
247.139370 6.000000
248.077590 7.000000
248.141070 9.000000
248.151890 5.000000
249.083180 14.000000
249.096070 14.000000
249.107830 8.000000
249.122120 17.000000
249.142820 8.000000
250.090960 6.000000
250.100510 8.000000
250.121750 11.000000
251.107730 28.000000
251.122990 8.000000
251.135180 7.000000
251.164950 5.000000
252.110600 5.000000
252.120220 7.000000
253.122730 17.000000
254.120710 9.000000
254.470670 5.000000
256.126340 6.000000
257.084140 11.000000
258.147000 7.000000
259.109470 5.000000
260.085240 7.000000
260.109160 16.000000
261.074770 13.000000
261.089780 61.000000
261.103450 20.000000
262.096440 15.000000
262.119660 30.000000
262.151700 13.000000
262.165890 20.000000
263.105160 29.000000
263.167020 8.000000
264.112850 12.000000
264.134860 19.000000
264.143520 15.000000
265.067720 7.000000
265.118190 33.000000
265.128540 13.000000
266.119420 12.000000
266.130310 6.000000
266.148100 9.000000
266.169370 6.000000
267.102420 8.000000
267.138490 14.000000
268.133940 14.000000
268.188110 8.000000
269.123140 5.000000
272.132870 20.000000
273.068120 6.000000
273.093990 14.000000
273.158260 10.000000
275.105070 17.000000
275.118010 10.000000
275.140620 8.000000
276.114500 12.000000
276.128570 10.000000
276.156950 9.000000
277.147250 8.000000
278.161740 6.000000
278.173160 9.000000
279.104980 15.000000
279.153020 15.000000
280.078800 5.000000
280.133580 28.000000
281.118560 5.000000
281.138090 8.000000
281.182530 6.000000
282.159700 8.000000
284.129580 5.000000
287.119660 7.000000
288.139220 5.000000
289.125850 5.000000
289.134770 8.000000
290.121310 7.000000
290.138850 6.000000
290.152130 26.000000
290.162290 17.000000
290.241550 5.000000
291.096500 7.000000
291.156010 11.000000
291.165830 9.000000
292.141020 8.000000
293.121310 45.000000
293.145080 7.000000
294.127590 14.000000
294.147220 6.000000
294.180180 11.000000
295.122800 8.000000
296.134670 6.000000
296.159730 16.000000
296.176820 6.000000
297.051910 7.000000
297.082610 5.000000
297.114140 6.000000
298.164890 6.000000
300.145450 6.000000
302.176270 5.000000
303.125640 6.000000
304.120940 5.000000
304.140900 12.000000
304.161350 6.000000
305.141630 57.000000
306.155400 22.000000
307.166080 5.000000
307.176540 10.000000
308.159820 10.000000
308.181240 8.000000
309.172580 7.000000
310.106990 8.000000
310.122310 14.000000
310.221100 6.000000
311.129060 18.000000
318.143620 37.000000
318.161680 16.000000
319.106690 5.000000
319.149260 9.000000
321.137660 6.000000
322.119170 5.000000
322.144100 8.000000
322.154940 12.000000
322.180080 73.000000
323.147980 5.000000
323.184970 30.000000
324.156770 14.000000
324.196960 12.000000
325.139310 7.000000
326.153410 6.000000
326.185090 13.000000
326.207730 36.000000
327.211330 11.000000
328.188480 8.000000
334.176450 7.000000
336.153590 8.000000
336.173680 6.000000
336.221680 6.000000
336.877900 6.000000
337.166470 12.000000
338.172420 16.000000
340.195590 10.000000
344.177060 9.000000
346.176480 6.000000
350.174650 63.000000
350.191930 28.000000
351.179470 26.000000
352.153870 9.000000
352.348050 6.000000
354.205260 256.000000
354.221070 71.000000
354.523250 6.000000
355.167390 6.000000
355.194310 21.000000
355.217900 70.000000
356.181400 15.000000
356.220790 10.000000
358.196840 9.000000
358.221130 12.000000
358.240050 11.000000
364.181730 9.000000
366.181920 13.000000
368.186890 15.000000
368.201290 6.000000
368.238130 6.000000
372.212010 5.000000
373.125700 7.000000
373.181000 5.000000
375.180820 7.000000
382.193020 24.000000
382.203250 47.000000
383.126040 5.000000
383.214290 13.000000
385.126740 5.000000
385.913300 5.000000
386.235410 102.000000
387.220310 11.000000
387.238460 18.000000
390.166050 6.000000
396.185760 6.000000
410.151430 5.000000
410.185670 73.000000
410.202480 108.000000
411.187350 26.000000
411.202360 73.000000
412.208370 5.000000
413.205440 12.000000
414.187740 6.000000
414.216280 34.000000
414.235260 42.000000
414.249420 16.000000
415.164400 5.000000
415.219760 9.000000
415.246770 10.000000
418.188420 10.000000
418.250150 18.000000
418.269230 6.000000
418.706820 7.000000
419.252530 8.000000
419.278440 8.000000
420.272980 6.000000
428.182430 11.000000
430.217190 9.000000
434.197480 5.000000
434.215300 5.000000
436.236850 6.000000
440.182740 19.000000
443.216060 8.000000
444.170960 8.000000
444.194240 6.000000
444.222660 16.000000
444.241850 5.000000
445.234130 11.000000
446.196810 19.000000
446.244350 59.000000
446.260930 61.000000
447.163120 7.000000
447.176540 16.000000
447.192720 8.000000
447.226070 6.000000
447.258730 41.000000
447.274840 16.000000
452.204590 7.000000
458.204860 5.000000
460.204160 6.000000
460.235170 44.000000
461.191680 6.000000
461.226960 5.000000
462.250000 6.000000
472.219180 39.000000
473.207730 11.000000
474.222440 6.000000
474.245330 8.000000
474.475710 5.000000
476.184230 12.000000
476.237120 141.000000
476.253940 88.000000
477.197390 7.000000
477.227840 12.000000
477.252720 67.000000
478.188020 6.000000
478.230560 22.000000
478.250980 20.000000
478.278660 8.000000
479.217930 6.000000
479.231720 12.000000
479.291500 6.000000
480.232120 13.000000
486.244020 5.000000
490.217160 6.000000
492.245940 14.000000
493.234860 5.000000
496.234190 6.000000
504.196660 8.000000
504.238560 112.000000
505.234920 29.000000
505.255580 20.000000
506.253510 11.000000
507.282960 6.000000
508.246280 10.000000
508.272160 43.000000
509.255920 11.000000
509.308260 8.000000
510.252290 38.000000
510.280980 8.000000
522.249760 5.000000
528.264530 6.000000
536.196900 6.000000
536.241520 58.000000
536.264100 130.000000
536.282590 103.000000
537.251890 49.000000
537.269470 70.000000
537.292600 19.000000
538.271240 30.000000
552.278930 6.000000
564.226870 6.000000
564.280460 5.000000
565.270390 12.000000
568.291200 320.000000
569.290770 94.000000
569.319150 29.000000
570.283080 10.000000
570.325260 5.000000
596.253850 10.000000
596.290830 101.000000
597.232600 6.000000
597.265930 15.000000
597.295350 29.000000
628.263980 12.000000
628.301700 121.000000
628.327030 94.000000
629.299620 47.000000
629.327150 37.000000
630.272710 6.000000
630.320680 25.000000
630.351750 8.000000
630.406980 6.000000
631.308170 5.000000
688.324650 15.000000
688.350400 10.000000

