>compound PR69894278
>parentmass 339.17031899999995
>ionization [M+H]+
>formula C20H22N2O3
>rt 216.154980
>profile qtof
#smiles_iso COC1=CC2=C(C=C1)C3=C(N2)[C@@H]4C[C@@H]\5[C@@H]6CO[C@H]3[C@@H]6N4C/C5=C/CO
#smiles_can COC1=CC2=C(C=C1)C3=C(N2)C4CC5C6COC3C6N4CC5=CCO
#inchikey OUONWRIEOZGMSQ-NUUNSNFRSA-N
#pubchem_id 132557742
#mb_accession PR300120,PR300125,PR300129,PR300134,PR300139,PR300144,PR300149,PR300154,PR300159,PR300164,PR300169,PR300174

>ms2peaks
77.037280 5.000000
96.081150 7.000000
103.053620 17.000000
106.065390 37.000000
110.095860 6.000000
118.064300 6.000000
120.080760 90.000000
124.073130 6.000000
136.075610 56.000000
137.082760 5.000000
138.091190 38.000000
139.094210 9.000000
144.077820 5.000000
147.073010 6.000000
148.071270 5.000000
150.092190 5.000000
158.059050 37.000000
159.063900 6.000000
160.075330 16.000000
161.081760 6.000000
164.111800 9.000000
166.079740 5.000000
172.083910 5.000000
173.084000 62.000000
174.088470 24.000000
186.091350 10.000000
187.095810 5.000000
188.110140 8.000000
202.085280 31.000000
203.095750 7.000000
209.080760 9.000000
210.087200 10.000000
212.095610 6.000000
213.106260 7.000000
224.106220 32.000000
235.098280 9.000000
236.109240 13.000000
238.116130 7.000000
248.097700 7.000000
252.095260 11.000000
252.111180 8.000000
254.125550 7.000000
261.113010 7.000000
262.109890 5.000000
263.113830 11.000000
264.140660 6.000000
268.126070 5.000000
276.139100 6.000000
277.131650 10.000000
278.104100 6.000000
278.142700 15.000000
279.117680 7.000000
280.129430 5.000000
293.131620 14.000000
294.122440 6.000000
294.138210 23.000000
295.137480 6.000000
309.132290 7.000000
309.159450 283.000000
310.155980 34.000000
310.166600 38.000000
311.160710 11.000000
321.153350 12.000000
321.179600 6.000000
322.135960 5.000000
322.146700 13.000000
339.126980 7.000000
339.168490 1000.000000
339.223020 19.000000

>ms2peaks
138.091570 6.000000
309.160710 49.000000
310.160460 9.000000
339.170530 1000.000000
339.223570 27.000000

>ms2peaks
55.053620 5.000000
65.038730 7.000000
77.036860 7.000000
79.047100 8.000000
79.058980 10.000000
80.039110 6.000000
80.057020 11.000000
81.067940 12.000000
81.072180 10.000000
82.063870 13.000000
91.054290 56.000000
92.051120 18.000000
92.059300 6.000000
93.060330 9.000000
93.070650 44.000000
94.067040 29.000000
95.074960 6.000000
96.081420 33.000000
97.085390 6.000000
103.041410 13.000000
103.055150 95.000000
104.052460 7.000000
105.050920 6.000000
105.057980 13.000000
106.065190 352.000000
107.060040 9.000000
107.068210 65.000000
108.079890 18.000000
109.063860 19.000000
109.081310 8.000000
109.087190 5.000000
110.056470 7.000000
110.064330 17.000000
110.089780 12.000000
110.097520 70.000000
111.058850 5.000000
111.094780 8.000000
111.108380 5.000000
117.061040 6.000000
118.064780 155.000000
119.068520 20.000000
119.092190 7.000000
120.054950 5.000000
120.081120 690.000000
120.101320 5.000000
121.063680 28.000000
121.073560 18.000000
121.082570 65.000000
121.090780 7.000000
122.065440 6.000000
124.070660 26.000000
124.077060 42.000000
125.077450 15.000000
126.093180 6.000000
131.070530 15.000000
131.076480 11.000000
132.043460 7.000000
132.079830 24.000000
136.074720 381.000000
137.073180 15.000000
137.082320 9.000000
138.092680 181.000000
139.076020 6.000000
143.071290 26.000000
144.073150 10.000000
144.082210 33.000000
145.052320 18.000000
145.077180 12.000000
146.041750 7.000000
146.060580 18.000000
146.086960 6.000000
147.059010 7.000000
147.065720 14.000000
147.077640 17.000000
147.088000 12.000000
148.075780 111.000000
150.061630 5.000000
150.087540 39.000000
152.106170 5.000000
153.115450 6.000000
154.081770 8.000000
155.076220 10.000000
158.060880 220.000000
159.053180 7.000000
159.067780 59.000000
159.081100 17.000000
160.041490 7.000000
160.063190 13.000000
160.075650 172.000000
160.091840 6.000000
161.072540 19.000000
161.083010 6.000000
161.343340 5.000000
162.089320 90.000000
163.093630 17.000000
164.101040 17.000000
164.109300 16.000000
166.088030 68.000000
166.097790 16.000000
167.090930 8.000000
169.085390 8.000000
171.065220 14.000000
171.071670 10.000000
172.071590 21.000000
172.087710 13.000000
173.058840 15.000000
173.083220 816.000000
174.053890 8.000000
174.089680 319.000000
175.090420 47.000000
176.052430 7.000000
176.067580 18.000000
176.095890 5.000000
176.107280 7.000000
178.084500 12.000000
181.076950 21.000000
181.089840 20.000000
182.076160 6.000000
182.100740 15.000000
183.055970 8.000000
183.688870 7.000000
184.074140 9.000000
185.087630 19.000000
186.072810 10.000000
186.092300 84.000000
186.157850 8.000000
187.059590 7.000000
187.081390 6.000000
187.096160 39.000000
187.106770 28.000000
188.068570 69.000000
188.108120 146.000000
189.077820 17.000000
189.096240 10.000000
189.108030 13.000000
192.085680 10.000000
193.089050 68.000000
194.091420 13.000000
194.111100 8.000000
195.098970 8.000000
196.073720 24.000000
197.059570 15.000000
197.071810 24.000000
197.079150 23.000000
197.094790 7.000000
198.068790 7.000000
198.081160 21.000000
198.093840 48.000000
199.085430 70.000000
199.097350 18.000000
200.067080 40.000000
200.090160 20.000000
200.108810 18.000000
201.094830 11.000000
201.106570 7.000000
201.117810 7.000000
202.080610 19.000000
202.087280 57.000000
202.229920 7.000000
203.076370 6.000000
203.103700 6.000000
206.098480 9.000000
207.228880 7.000000
208.073150 8.000000
208.108020 8.000000
209.048100 9.000000
209.078280 28.000000
209.096240 10.000000
210.084820 27.000000
210.095960 18.000000
211.068450 9.000000
211.093290 11.000000
211.103410 20.000000
212.070710 11.000000
212.090450 30.000000
212.101750 43.000000
212.111050 38.000000
213.100190 34.000000
213.110320 34.000000
214.083770 20.000000
214.098590 8.000000
214.109100 6.000000
215.079090 34.000000
215.087660 15.000000
216.085310 8.000000
216.102740 10.000000
216.690310 5.000000
217.077220 7.000000
218.081820 8.000000
218.103300 7.000000
219.103870 9.000000
219.116640 9.000000
220.075330 8.000000
221.101730 6.000000
223.091350 13.000000
223.106020 24.000000
224.076170 9.000000
224.103930 123.000000
224.113450 51.000000
225.099900 8.000000
225.113070 31.000000
226.096880 11.000000
226.129040 15.000000
227.079910 24.000000
227.090930 8.000000
227.120820 21.000000
228.081950 13.000000
228.096370 15.000000
229.097730 17.000000
230.089460 10.000000
232.086560 12.000000
232.118070 11.000000
233.120060 8.000000
234.096980 41.000000
235.082090 20.000000
235.099840 25.000000
236.092510 12.000000
236.109740 55.000000
237.072980 9.000000
237.119160 14.000000
238.086010 7.000000
238.095460 6.000000
238.107570 13.000000
238.120970 40.000000
239.089280 7.000000
239.099760 6.000000
239.115840 26.000000
240.090700 11.000000
241.106740 18.000000
242.112460 8.000000
242.122530 6.000000
243.096080 9.000000
245.130570 6.000000
246.094440 14.000000
247.087520 10.000000
247.098110 13.000000
247.106320 8.000000
248.083360 7.000000
248.101060 29.000000
248.124390 9.000000
249.102890 86.000000
249.125500 5.000000
250.090810 9.000000
250.107600 43.000000
250.125580 92.000000
250.207150 5.000000
251.112490 28.000000
251.124080 23.000000
252.099870 31.000000
252.129590 14.000000
253.093870 17.000000
253.111340 12.000000
254.114030 29.000000
254.554580 7.000000
255.118800 12.000000
256.140140 11.000000
257.128270 7.000000
258.134120 6.000000
259.085080 13.000000
260.109560 16.000000
261.108430 32.000000
261.119780 45.000000
262.115810 44.000000
262.127320 38.000000
263.092830 9.000000
263.116460 105.000000
263.135130 15.000000
264.098630 12.000000
264.111420 17.000000
264.125310 51.000000
264.142580 13.000000
265.094300 19.000000
265.106290 8.000000
265.131100 11.000000
266.111600 7.000000
266.138670 25.000000
267.090120 9.000000
267.102050 8.000000
267.122500 12.000000
268.113100 6.000000
268.130190 16.000000
269.128600 5.000000
274.075870 5.000000
274.102600 8.000000
275.106750 9.000000
275.123570 46.000000
276.106990 5.000000
276.136750 41.000000
277.103610 11.000000
277.134550 193.000000
278.093320 7.000000
278.122470 30.000000
278.136630 44.000000
278.147980 54.000000
279.082370 11.000000
279.112950 75.000000
279.147430 74.000000
280.124850 83.000000
280.149110 9.000000
281.124820 16.000000
281.148590 5.000000
282.116460 12.000000
282.135680 11.000000
283.157140 5.000000
286.121670 9.000000
288.138520 8.000000
289.114930 8.000000
290.142640 11.000000
291.111360 7.000000
291.125430 8.000000
291.142940 33.000000
291.155790 21.000000
292.114930 5.000000
292.127900 13.000000
292.145970 9.000000
293.103210 11.000000
293.128660 229.000000
293.157380 19.000000
294.107270 13.000000
294.136690 290.000000
295.136540 91.000000
296.138120 16.000000
296.155360 12.000000
296.171260 10.000000
303.002040 6.000000
303.133330 6.000000
303.141480 13.000000
303.155700 11.000000
306.135740 6.000000
306.152590 7.000000
307.134060 17.000000
307.148220 15.000000
309.081790 5.000000
309.095000 6.000000
309.131200 23.000000
309.159730 1000.000000
310.076660 5.000000
310.117920 10.000000
310.160710 221.000000
310.182620 13.000000
311.138400 9.000000
311.152340 7.000000
311.167270 14.000000
311.182860 26.000000
312.173800 9.000000
321.127870 6.000000
321.159550 51.000000
321.176510 12.000000
322.136660 7.000000
322.156040 12.000000
330.835880 6.000000
338.157320 7.000000
339.142400 9.000000
339.173800 90.000000

>ms2peaks
65.037340 11.000000
65.042500 13.000000
67.056460 9.000000
77.039610 85.000000
78.030060 9.000000
79.053800 62.000000
79.738850 6.000000
80.036400 16.000000
80.049300 39.000000
81.033570 6.000000
81.055710 21.000000
82.064200 7.000000
86.319370 9.000000
90.042440 6.000000
91.048780 29.000000
91.054360 54.000000
91.059250 34.000000
92.048480 11.000000
92.058990 13.000000
93.057720 35.000000
93.069470 23.000000
93.075610 16.000000
94.062700 12.000000
94.067280 11.000000
94.074750 8.000000
95.065600 9.000000
95.093130 8.000000
95.392680 5.000000
96.079710 12.000000
101.429990 7.000000
103.053530 144.000000
104.059950 14.000000
105.044820 13.000000
105.051000 8.000000
105.058620 19.000000
105.069800 6.000000
106.065840 385.000000
107.052780 5.000000
107.066830 10.000000
107.074590 26.000000
107.387630 6.000000
108.046870 11.000000
108.056660 11.000000
108.082700 47.000000
109.054240 9.000000
109.090640 6.000000
110.088970 11.000000
110.097430 16.000000
115.053290 31.000000
116.057060 14.000000
116.063810 11.000000
117.043050 11.000000
117.057460 103.000000
118.034540 13.000000
118.049220 7.000000
118.056110 39.000000
118.066140 87.000000
119.054050 7.000000
119.076170 11.000000
120.067430 7.000000
120.081810 110.000000
121.058480 7.000000
121.084690 17.000000
121.092160 7.000000
122.065460 7.000000
122.665500 8.000000
123.063000 8.000000
124.055410 10.000000
127.056750 6.000000
128.049510 18.000000
128.519330 9.000000
129.064220 9.000000
129.073580 8.000000
129.373660 7.000000
130.044630 8.000000
130.052840 29.000000
130.061890 168.000000
130.068910 210.000000
131.064540 43.000000
131.069890 30.000000
131.078140 29.000000
131.087630 5.000000
132.046600 73.000000
132.059270 6.000000
132.068710 6.000000
132.078200 8.000000
132.083970 9.000000
132.098210 6.000000
133.057750 8.000000
134.077380 11.000000
135.068470 6.000000
136.065370 12.000000
136.075680 30.000000
136.080930 19.000000
138.087040 11.000000
138.095320 20.000000
141.056380 12.000000
142.054210 9.000000
142.062100 16.000000
143.034580 5.000000
143.053210 20.000000
143.058030 8.000000
143.076020 67.000000
144.044880 10.000000
144.056760 55.000000
144.078200 31.000000
144.085710 81.000000
145.051510 98.000000
145.072240 12.000000
145.086300 18.000000
145.094450 13.000000
146.059110 17.000000
146.096890 6.000000
147.068160 20.000000
147.082890 7.000000
148.076970 14.000000
150.058530 6.000000
153.050370 5.000000
153.071300 9.000000
154.058440 37.000000
154.066100 64.000000
155.048000 5.000000
155.062010 18.000000
155.071670 50.000000
155.080510 28.000000
155.983030 11.000000
156.047040 6.000000
156.066760 13.000000
156.076250 14.000000
157.046200 7.000000
157.056900 12.000000
157.084880 8.000000
157.093150 5.000000
158.032640 5.000000
158.060910 1000.000000
158.091370 14.000000
159.065380 247.000000
159.088960 7.000000
160.075550 75.000000
160.086750 21.000000
161.082320 5.000000
162.096800 11.000000
163.092510 9.000000
166.065810 5.000000
166.077120 7.000000
167.055560 6.000000
167.073470 99.000000
168.068250 13.000000
168.080520 44.000000
169.052780 6.000000
169.079740 30.000000
170.048720 5.000000
170.061680 39.000000
170.083950 19.000000
171.058840 5.000000
171.069810 21.000000
172.050860 13.000000
172.076200 93.000000
173.041280 6.000000
173.052700 32.000000
173.069430 18.000000
173.084030 126.000000
173.090840 33.000000
174.048420 7.000000
174.076770 23.000000
174.089890 40.000000
175.099850 11.000000
178.062350 7.000000
178.077320 6.000000
179.074520 24.000000
180.053240 7.000000
180.082410 119.000000
181.068480 12.000000
181.078190 17.000000
181.088640 30.000000
181.098070 24.000000
181.278590 8.000000
182.057460 50.000000
182.096100 11.000000
183.066190 29.000000
184.047680 8.000000
184.056870 24.000000
184.073850 31.000000
185.047850 6.000000
185.071670 19.000000
185.620640 5.000000
186.077590 9.000000
186.090210 30.000000
186.101090 11.000000
187.081070 10.000000
187.105290 6.000000
188.057460 12.000000
189.063580 12.000000
189.074430 9.000000
189.113250 13.000000
191.070530 38.000000
191.083050 19.000000
192.061280 5.000000
192.068830 11.000000
192.083270 54.000000
193.074650 16.000000
193.089650 121.000000
194.065920 11.000000
194.097430 28.000000
195.056270 14.000000
195.070310 10.000000
195.078450 6.000000
195.090480 5.000000
195.104610 6.000000
196.074260 5.000000
196.084880 18.000000
196.111450 8.000000
197.076810 71.000000
197.092480 14.000000
198.089770 56.000000
199.054990 7.000000
199.083790 38.000000
199.095030 28.000000
200.074400 8.000000
200.102520 6.000000
204.060670 7.000000
204.079210 24.000000
205.071580 9.000000
205.081590 27.000000
205.091830 31.000000
206.053120 6.000000
206.074280 30.000000
206.094570 32.000000
207.043140 16.000000
207.063900 8.000000
207.089740 6.000000
207.103290 8.000000
208.057720 14.000000
208.075090 34.000000
208.085330 30.000000
208.103270 8.000000
209.052750 12.000000
209.078120 21.000000
209.089800 7.000000
210.096020 35.000000
211.072430 17.000000
211.082550 11.000000
211.745730 7.000000
212.096010 14.000000
213.657840 8.000000
216.082440 14.000000
217.050870 6.000000
217.078750 15.000000
217.090730 18.000000
218.095840 68.000000
218.321760 7.000000
219.020840 8.000000
219.092150 34.000000
219.101380 41.000000
220.067180 6.000000
220.079670 21.000000
220.098070 39.000000
221.078700 7.000000
221.090360 17.000000
222.068940 6.000000
222.086090 39.000000
222.099460 6.000000
222.117200 15.000000
223.102140 28.000000
224.078920 6.000000
224.093090 7.000000
224.104480 14.000000
225.053090 7.000000
225.061140 6.000000
225.098590 13.000000
226.089430 6.000000
227.068480 6.000000
228.087660 21.000000
228.128680 6.000000
230.088060 7.000000
230.111360 5.000000
231.089070 35.000000
232.103710 39.000000
233.087370 5.000000
233.109860 14.000000
234.056340 14.000000
234.089260 32.000000
234.108690 14.000000
234.120610 15.000000
235.084320 13.000000
235.100560 29.000000
235.128720 19.000000
235.141850 7.000000
236.106670 25.000000
237.096880 11.000000
237.275120 5.000000
238.074800 19.000000
239.112610 5.000000
239.120650 9.000000
242.085540 6.000000
242.108350 6.000000
244.108250 13.000000
245.076230 9.000000
245.097960 6.000000
245.115780 8.000000
245.631300 7.000000
246.088750 14.000000
246.097750 17.000000
246.116850 19.000000
247.073840 12.000000
247.092960 64.000000
247.115400 6.000000
247.128740 7.000000
248.063250 12.000000
248.081620 9.000000
248.092580 16.000000
248.102940 33.000000
248.128920 13.000000
249.066910 7.000000
249.103090 41.000000
249.121810 11.000000
250.104770 9.000000
250.113460 25.000000
250.124500 6.000000
251.069950 11.000000
251.116200 35.000000
252.108400 6.000000
252.124620 6.000000
254.095310 7.000000
257.084990 6.000000
258.056550 6.000000
259.099460 13.000000
259.113280 6.000000
259.135890 7.000000
260.101230 14.000000
261.105960 6.000000
262.103610 26.000000
262.112980 22.000000
262.122100 11.000000
262.551060 7.000000
263.088560 9.000000
263.114290 56.000000
265.096370 5.000000
265.133450 16.000000
269.108670 5.000000
273.116850 6.000000
274.129820 8.000000
275.101070 7.000000
275.119110 16.000000
277.106020 7.000000
277.128300 28.000000
277.140260 12.000000
277.415770 5.000000
278.096620 17.000000
278.121120 30.000000
279.113980 20.000000
279.136750 9.000000
280.124660 11.000000
283.188140 9.000000
285.800960 6.000000
287.121890 13.000000
293.077420 5.000000
293.116880 6.000000
293.137940 11.000000
294.135440 7.000000
294.145050 8.000000
301.737060 5.000000
307.155790 6.000000
310.142970 9.000000

>ms2peaks
93.067600 7.000000
103.052760 12.000000
106.064580 24.000000
109.063830 7.000000
110.061600 6.000000
110.094640 6.000000
120.080070 62.000000
121.082170 8.000000
124.077770 5.000000
136.071730 23.000000
136.078830 24.000000
138.089460 53.000000
148.077040 8.000000
158.060180 37.000000
159.065890 7.000000
160.072880 10.000000
160.079360 9.000000
164.108200 8.000000
166.085740 8.000000
173.083150 71.000000
174.077480 8.000000
174.090620 24.000000
175.093400 6.000000
186.090160 23.000000
188.067320 9.000000
188.107760 16.000000
200.058380 6.000000
202.087680 25.000000
212.105290 14.000000
224.107510 26.000000
235.105440 5.000000
236.108350 6.000000
237.114530 6.000000
238.123410 6.000000
249.111570 6.000000
250.117950 7.000000
251.119960 9.000000
252.102190 16.000000
263.118190 14.000000
265.136110 6.000000
277.134340 13.000000
278.140350 16.000000
279.114260 10.000000
292.132420 6.000000
293.130130 16.000000
294.118040 5.000000
294.137240 32.000000
308.156430 5.000000
309.159120 326.000000
310.162690 83.000000
311.168550 8.000000
321.152070 11.000000
322.140440 11.000000
323.154820 7.000000
339.131010 6.000000
339.169740 1000.000000
339.223850 20.000000

>ms2peaks
309.158840 45.000000
310.163760 6.000000
339.116060 7.000000
339.170780 1000.000000
339.223790 29.000000

>ms2peaks
68.038380 5.000000
79.045650 8.000000
79.052540 24.000000
80.050870 20.000000
80.058460 6.000000
82.064350 9.000000
84.040060 6.000000
91.053730 59.000000
91.063320 7.000000
93.027370 6.000000
93.054020 7.000000
93.058060 7.000000
93.068480 71.000000
94.065090 22.000000
96.080850 30.000000
96.174730 6.000000
98.063830 7.000000
98.984290 6.000000
102.675600 10.000000
103.054340 163.000000
104.057930 9.000000
105.058040 37.000000
106.042500 10.000000
106.064830 419.000000
107.066800 10.000000
107.072430 7.000000
108.080760 16.000000
108.085720 13.000000
109.061900 6.000000
109.099820 8.000000
110.058230 7.000000
110.070080 5.000000
110.085170 6.000000
110.096380 105.000000
111.095920 8.000000
112.848080 7.000000
113.511830 5.000000
115.826770 6.000000
117.058930 6.000000
118.041660 6.000000
118.062550 37.000000
118.068480 58.000000
119.066480 8.000000
119.076270 13.000000
119.999790 6.000000
120.055880 10.000000
120.079770 802.000000
121.084670 120.000000
122.395460 5.000000
124.061660 6.000000
124.074490 43.000000
124.089350 6.000000
126.090280 10.000000
127.055330 6.000000
128.097090 7.000000
129.062640 8.000000
130.066500 24.000000
130.075780 10.000000
131.071750 31.000000
132.042920 6.000000
132.077380 8.000000
133.053670 8.000000
133.286210 11.000000
134.102660 6.000000
135.077560 8.000000
136.048890 13.000000
136.075650 320.000000
137.077190 71.000000
137.086200 14.000000
138.070950 6.000000
138.091690 241.000000
139.086170 6.000000
139.094210 26.000000
139.159270 6.000000
143.069900 24.000000
143.078690 11.000000
144.064800 8.000000
144.075900 10.000000
144.084500 38.000000
145.089320 30.000000
145.099810 5.000000
146.058260 8.000000
146.107250 7.000000
147.052750 9.000000
147.065230 49.000000
147.079740 11.000000
148.075740 76.000000
149.644520 6.000000
150.060790 9.000000
150.068850 5.000000
150.081470 10.000000
150.090440 45.000000
150.096800 21.000000
154.062940 13.000000
154.075760 6.000000
154.083400 5.000000
154.482620 8.000000
155.066120 7.000000
155.078480 6.000000
156.076280 5.000000
156.278560 5.000000
157.086360 8.000000
158.059070 228.000000
158.734380 6.000000
159.055360 30.000000
159.065460 47.000000
160.059910 10.000000
160.077300 182.000000
160.118420 8.000000
161.082690 26.000000
162.089570 103.000000
163.099700 11.000000
164.088640 8.000000
164.107940 31.000000
165.101300 5.000000
165.112340 7.000000
166.061520 6.000000
166.070560 7.000000
166.084560 27.000000
167.084850 9.000000
169.092250 10.000000
171.070660 6.000000
172.081440 33.000000
173.048980 10.000000
173.060040 7.000000
173.083210 757.000000
174.080290 68.000000
174.091610 291.000000
175.097440 40.000000
175.117370 5.000000
176.096440 7.000000
176.105390 5.000000
177.088150 5.000000
181.080570 7.000000
181.086670 18.000000
182.059750 13.000000
183.064960 7.000000
184.063570 6.000000
185.087190 8.000000
186.066300 7.000000
186.077420 24.000000
186.091290 112.000000
187.096730 17.000000
188.067050 57.000000
188.074970 35.000000
188.083620 27.000000
188.106630 131.000000
189.072220 6.000000
189.103470 20.000000
189.118940 14.000000
192.071260 12.000000
192.078200 13.000000
192.991380 5.000000
193.078260 10.000000
193.087970 38.000000
194.089510 5.000000
194.103180 9.000000
195.095460 7.000000
196.075990 13.000000
197.077800 57.000000
197.089800 7.000000
197.236080 5.000000
198.080200 13.000000
198.093320 82.000000
199.089260 89.000000
200.061950 10.000000
200.070310 13.000000
200.091340 18.000000
200.106690 41.000000
201.069430 9.000000
202.070540 7.000000
202.086620 103.000000
202.340180 6.000000
203.084640 11.000000
204.091260 12.000000
207.106230 5.000000
208.067750 11.000000
209.067350 11.000000
209.084490 61.000000
210.044070 6.000000
210.087400 73.000000
210.099580 21.000000
211.062120 10.000000
211.075580 9.000000
211.084880 8.000000
211.097030 8.000000
212.045880 8.000000
212.057450 8.000000
212.080760 14.000000
212.105420 69.000000
212.116530 23.000000
212.127010 5.000000
213.064960 11.000000
213.085140 19.000000
213.104610 27.000000
213.228850 5.000000
214.068450 11.000000
215.080110 50.000000
215.111800 6.000000
215.129410 6.000000
216.025210 8.000000
216.081850 8.000000
216.104220 25.000000
216.111020 8.000000
216.242050 8.000000
216.264650 6.000000
218.091350 19.000000
219.104980 7.000000
220.107540 7.000000
222.082260 8.000000
222.106080 8.000000
223.088760 8.000000
223.107530 25.000000
223.162050 6.000000
224.060930 6.000000
224.107010 231.000000
224.129440 6.000000
225.111500 17.000000
225.122120 8.000000
226.090560 6.000000
226.126100 7.000000
227.079970 22.000000
227.091320 19.000000
227.105390 5.000000
227.121570 8.000000
227.640640 6.000000
228.079800 21.000000
228.097810 22.000000
228.122360 8.000000
229.100170 6.000000
230.102420 10.000000
230.112980 6.000000
232.096630 7.000000
232.109710 6.000000
233.078450 10.000000
233.123490 12.000000
234.087620 33.000000
234.098360 8.000000
235.079910 6.000000
235.094970 23.000000
235.109020 5.000000
235.142170 6.000000
236.077260 5.000000
236.086940 7.000000
236.100780 22.000000
236.118240 10.000000
237.092330 5.000000
237.105150 20.000000
237.116960 25.000000
238.072080 5.000000
238.090620 12.000000
238.114620 24.000000
238.127140 34.000000
239.073430 5.000000
239.111150 17.000000
239.125700 16.000000
240.113560 19.000000
241.089100 5.000000
241.106840 9.000000
243.097340 9.000000
245.109880 7.000000
245.119780 7.000000
246.100250 10.000000
247.080990 8.000000
247.095870 11.000000
247.104540 17.000000
247.119800 15.000000
248.106350 47.000000
249.098510 49.000000
249.112840 69.000000
250.106980 43.000000
250.129990 38.000000
251.091290 10.000000
251.116930 21.000000
251.133790 40.000000
252.094420 31.000000
252.105190 22.000000
252.130390 27.000000
252.144440 7.000000
253.090290 6.000000
253.103670 20.000000
253.129140 10.000000
253.137210 9.000000
254.116900 34.000000
254.146650 7.000000
255.116180 27.000000
255.127200 6.000000
255.151570 6.000000
256.124880 8.000000
256.132480 19.000000
258.108310 6.000000
259.097380 16.000000
260.019260 7.000000
260.105960 25.000000
260.119690 12.000000
261.101990 23.000000
261.121980 12.000000
261.132420 6.000000
261.422880 6.000000
262.114380 40.000000
262.144960 7.000000
263.090180 19.000000
263.112340 43.000000
263.123320 98.000000
263.144130 10.000000
264.093080 10.000000
264.106230 16.000000
264.134460 53.000000
265.095280 32.000000
265.104830 21.000000
265.115570 11.000000
265.135830 35.000000
265.845310 6.000000
266.114410 24.000000
266.137420 40.000000
267.104030 5.000000
267.136750 8.000000
268.125060 33.000000
268.131960 13.000000
269.135250 5.000000
270.095610 6.000000
270.139130 8.000000
273.110810 7.000000
274.136140 14.000000
275.114140 35.000000
275.137390 13.000000
276.101070 11.000000
276.115570 8.000000
276.125980 18.000000
276.136320 17.000000
277.067540 5.000000
277.133060 220.000000
277.152190 31.000000
278.116700 35.000000
278.143160 98.000000
278.314940 7.000000
279.116360 94.000000
279.143710 47.000000
280.097990 6.000000
280.119570 48.000000
280.133090 59.000000
280.159790 8.000000
281.110080 12.000000
281.131810 10.000000
282.139530 9.000000
282.157010 9.000000
283.151580 9.000000
284.103180 12.000000
284.163670 5.000000
288.115570 6.000000
289.120760 8.000000
290.122130 8.000000
291.131260 5.000000
291.150050 23.000000
292.098720 7.000000
292.137700 16.000000
292.154790 20.000000
293.128420 199.000000
293.165650 7.000000
293.181300 6.000000
294.090030 12.000000
294.120180 52.000000
294.136140 252.000000
294.167110 6.000000
295.138890 67.000000
295.432220 7.000000
300.314510 6.000000
304.133150 11.000000
304.689150 6.000000
305.111880 7.000000
305.126310 13.000000
306.141880 8.000000
307.104250 5.000000
307.142030 22.000000
307.179170 19.000000
308.109410 5.000000
308.133450 7.000000
308.147310 19.000000
309.116390 17.000000
309.160980 1000.000000
310.163670 297.000000
311.143280 7.000000
311.167910 51.000000
321.154360 37.000000
321.164670 43.000000
321.177730 9.000000
322.139650 8.000000
322.157260 17.000000
333.681060 6.000000
339.116700 7.000000
339.175570 72.000000

>ms2peaks
67.040120 10.000000
67.050870 5.000000
67.054820 6.000000
70.069260 12.000000
73.684940 5.000000
77.017730 6.000000
77.037900 81.000000
78.045260 13.000000
79.047520 11.000000
79.054140 66.000000
79.062660 7.000000
79.566470 6.000000
80.046070 72.000000
80.052150 32.000000
80.057530 6.000000
81.053200 20.000000
82.064340 9.000000
83.042270 14.000000
83.051210 8.000000
83.058090 11.000000
89.036200 7.000000
91.028210 12.000000
91.054660 159.000000
92.052050 33.000000
92.060970 16.000000
93.048480 10.000000
93.055810 22.000000
93.064960 7.000000
93.071550 11.000000
93.078930 5.000000
94.057660 14.000000
94.066330 43.000000
94.075880 14.000000
95.071470 7.000000
95.845020 5.000000
103.015020 8.000000
103.034840 7.000000
103.054490 124.000000
104.054600 27.000000
104.059670 13.000000
105.032580 12.000000
105.055860 31.000000
105.067790 16.000000
105.983150 12.000000
106.066730 229.000000
107.070880 50.000000
108.067110 5.000000
108.083930 43.000000
108.997400 13.000000
109.056170 14.000000
110.089520 21.000000
110.098790 18.000000
112.081340 6.000000
113.084570 6.000000
113.235120 10.000000
113.970140 8.000000
115.056620 7.000000
117.028380 6.000000
117.051150 19.000000
117.059290 140.000000
118.062390 88.000000
118.072280 14.000000
119.051560 8.000000
119.071640 31.000000
119.076790 20.000000
120.067950 14.000000
120.082270 132.000000
121.082240 8.000000
122.061160 12.000000
122.102170 7.000000
123.827350 8.000000
124.059600 9.000000
124.075640 5.000000
125.071620 11.000000
127.051820 7.000000
127.058620 9.000000
128.050130 6.000000
128.058610 16.000000
129.059270 8.000000
129.068600 16.000000
130.030460 9.000000
130.064030 394.000000
131.066040 21.000000
131.074860 74.000000
132.039470 31.000000
132.045560 18.000000
132.054700 11.000000
132.071080 7.000000
133.054090 40.000000
133.606800 5.000000
136.070510 6.000000
136.078900 21.000000
137.072110 7.000000
137.081710 6.000000
138.084850 6.000000
139.048870 5.000000
139.168850 6.000000
140.045460 7.000000
141.058320 5.000000
142.047000 7.000000
142.061190 10.000000
142.069920 7.000000
143.060460 14.000000
143.073360 83.000000
144.056410 14.000000
144.068220 7.000000
144.081070 139.000000
144.249450 5.000000
144.800280 7.000000
145.046110 31.000000
145.054730 54.000000
145.064250 11.000000
145.085300 45.000000
146.015000 7.000000
146.022130 7.000000
146.051570 10.000000
146.059570 15.000000
146.066930 13.000000
146.084090 7.000000
147.057040 18.000000
147.068920 20.000000
147.079350 13.000000
148.077350 23.000000
149.081620 5.000000
150.087340 10.000000
150.094300 7.000000
152.057140 15.000000
153.072390 7.000000
154.057690 23.000000
154.065520 10.000000
155.074250 48.000000
156.068050 29.000000
156.079440 17.000000
157.055660 15.000000
157.075200 16.000000
157.089750 9.000000
158.059780 1000.000000
158.441500 6.000000
158.577740 6.000000
159.037170 8.000000
159.063030 170.000000
159.072220 47.000000
160.044720 6.000000
160.054840 7.000000
160.073390 181.000000
160.084580 43.000000
161.076750 6.000000
162.078740 6.000000
162.093750 10.000000
165.070590 28.000000
166.049190 13.000000
166.056870 6.000000
166.069630 8.000000
166.775050 7.000000
167.060550 9.000000
167.073760 76.000000
167.092470 9.000000
168.064350 12.000000
168.081390 65.000000
169.049090 15.000000
169.083820 31.000000
170.043720 7.000000
170.056610 25.000000
170.066300 15.000000
170.088930 23.000000
171.067000 74.000000
172.056110 12.000000
172.064770 8.000000
172.077650 103.000000
172.542760 11.000000
172.703740 7.000000
173.084460 179.000000
174.056230 8.000000
174.088130 35.000000
175.055150 6.000000
176.033050 7.000000
178.069310 5.000000
178.086810 7.000000
179.071720 10.000000
179.083680 7.000000
179.275630 8.000000
179.922450 7.000000
180.078810 64.000000
180.087070 19.000000
180.183260 7.000000
181.089200 26.000000
181.228010 10.000000
182.060380 21.000000
182.087080 7.000000
182.095630 13.000000
183.064670 37.000000
183.076130 14.000000
184.061020 11.000000
184.071590 34.000000
184.638200 7.000000
185.045610 10.000000
185.063750 7.000000
185.075620 30.000000
186.079650 21.000000
186.088420 44.000000
188.103940 26.000000
191.070970 22.000000
191.086270 26.000000
192.062180 13.000000
192.072140 52.000000
192.084780 40.000000
192.099410 12.000000
193.087860 119.000000
193.256000 7.000000
194.088210 50.000000
195.065690 8.000000
195.092190 30.000000
195.101120 18.000000
196.065490 7.000000
196.071750 18.000000
196.081510 16.000000
196.096890 8.000000
196.105270 14.000000
196.115370 7.000000
196.122470 5.000000
197.069350 7.000000
197.078900 14.000000
197.087860 14.000000
197.103810 9.000000
198.055590 6.000000
198.080760 14.000000
198.093920 24.000000
199.056750 18.000000
199.088290 24.000000
200.052190 6.000000
200.071030 15.000000
202.920120 7.000000
204.055910 6.000000
204.068510 12.000000
204.084950 37.000000
205.052310 6.000000
205.070100 12.000000
205.083620 16.000000
205.093080 38.000000
206.086490 73.000000
206.103580 46.000000
206.958340 10.000000
207.013080 6.000000
207.073850 8.000000
207.083710 23.000000
207.104510 20.000000
208.059340 11.000000
208.075740 59.000000
208.101240 45.000000
208.115340 6.000000
209.090700 11.000000
210.085680 43.000000
210.096450 30.000000
210.108140 6.000000
210.123320 7.000000
211.102720 15.000000
212.095900 5.000000
215.080750 14.000000
216.092590 7.000000
217.074370 7.000000
217.083480 7.000000
217.094060 16.000000
218.085480 32.000000
218.102130 54.000000
219.059970 21.000000
219.085740 24.000000
219.097260 34.000000
219.111300 8.000000
220.078200 33.000000
220.091550 50.000000
220.105420 19.000000
220.114990 10.000000
221.086960 41.000000
221.101230 7.000000
221.116210 7.000000
222.058060 17.000000
222.087800 12.000000
222.106020 12.000000
223.079540 9.000000
223.097700 17.000000
223.106740 7.000000
224.108410 15.000000
225.077710 19.000000
225.108410 21.000000
225.131590 7.000000
226.090060 6.000000
226.099550 6.000000
228.815870 5.000000
230.090180 16.000000
230.098110 5.000000
231.086500 6.000000
231.097350 6.000000
232.078080 45.000000
232.103620 19.000000
232.114150 21.000000
233.081440 7.000000
233.102520 29.000000
233.124510 22.000000
234.071850 9.000000
234.078310 16.000000
234.090790 33.000000
234.114000 8.000000
235.088090 31.000000
235.121050 6.000000
236.070880 10.000000
236.089170 6.000000
236.106950 10.000000
237.095250 7.000000
237.105260 7.000000
237.120150 10.000000
238.084470 8.000000
238.099400 5.000000
239.125980 6.000000
241.109210 7.000000
242.084180 6.000000
242.100510 14.000000
243.090790 11.000000
244.073100 5.000000
244.086060 7.000000
244.102360 8.000000
244.118240 5.000000
245.045840 6.000000
245.074830 8.000000
245.084640 13.000000
245.095600 20.000000
245.114090 51.000000
245.567670 8.000000
246.062230 7.000000
246.081700 42.000000
246.104020 22.000000
246.122380 46.000000
247.067350 6.000000
247.082000 15.000000
247.095980 6.000000
247.119490 25.000000
248.066410 6.000000
248.095810 55.000000
248.104710 21.000000
248.116070 7.000000
249.078810 11.000000
249.095210 9.000000
249.105870 16.000000
250.106350 19.000000
250.116740 10.000000
251.105150 6.000000
251.122070 50.000000
251.319290 7.000000
251.343670 26.000000
257.073060 5.000000
258.088590 7.000000
258.118230 7.000000
259.088960 8.000000
259.100920 25.000000
259.120760 6.000000
260.088380 21.000000
260.104860 12.000000
260.145720 11.000000
261.089260 16.000000
261.110260 44.000000
261.130130 9.000000
262.091770 5.000000
262.104950 32.000000
262.131010 10.000000
263.082950 8.000000
263.106020 6.000000
263.120730 44.000000
263.136200 5.000000
264.131070 19.000000
265.060360 9.000000
265.082370 5.000000
265.103000 28.000000
265.112180 8.000000
266.096770 9.000000
267.118960 9.000000
269.078340 6.000000
273.103420 5.000000
273.124790 7.000000
274.133060 7.000000
275.108000 21.000000
275.121090 6.000000
276.119600 7.000000
277.131960 39.000000
277.143430 22.000000
278.109130 8.000000
278.135160 14.000000
279.095890 14.000000
279.109070 18.000000
279.120940 5.000000
279.135310 5.000000
280.107240 7.000000
286.111880 6.000000
288.093630 9.000000
292.118560 10.000000
293.098480 7.000000
293.133330 37.000000
294.132200 9.000000
294.140780 5.000000
296.145170 6.000000
298.400150 7.000000

>ms2peaks
103.052690 7.000000
106.065570 29.000000
118.067120 6.000000
120.081570 71.000000
121.084130 5.000000
136.075730 48.000000
137.083540 9.000000
138.090650 51.000000
138.095920 20.000000
139.094600 6.000000
148.076130 13.000000
158.059950 21.000000
158.069780 6.000000
159.065350 6.000000
160.071200 13.000000
160.078900 11.000000
166.084000 9.000000
173.084030 41.000000
174.092990 20.000000
186.090790 7.000000
188.069900 10.000000
188.108110 13.000000
189.111100 5.000000
198.088910 7.000000
199.089740 6.000000
202.086850 28.000000
203.090320 6.000000
210.095870 6.000000
212.099260 8.000000
212.109420 7.000000
215.087980 9.000000
224.106830 24.000000
238.125110 6.000000
249.096950 6.000000
250.120620 7.000000
250.129840 6.000000
252.094740 8.000000
252.105610 12.000000
261.115720 6.000000
262.113460 8.000000
263.127140 5.000000
275.123990 5.000000
276.135380 6.000000
277.120610 5.000000
277.132840 17.000000
278.136720 7.000000
280.115970 6.000000
293.125980 18.000000
294.136900 23.000000
294.149960 6.000000
309.160030 282.000000
310.164700 67.000000
311.169800 6.000000
321.157470 10.000000
339.171360 1000.000000
339.224460 23.000000

>ms2peaks
309.160060 44.000000
310.158600 8.000000
339.170070 1000.000000
339.223690 30.000000

>ms2peaks
51.376320 6.000000
55.053540 5.000000
67.055130 6.000000
70.065850 7.000000
77.037340 27.000000
79.049940 8.000000
79.055770 24.000000
80.028940 9.000000
81.056780 6.000000
82.066230 20.000000
82.072470 6.000000
86.496770 8.000000
91.049340 10.000000
91.056330 29.000000
92.038570 6.000000
92.049810 19.000000
93.058490 6.000000
93.066380 18.000000
93.071780 32.000000
94.061440 7.000000
94.075390 13.000000
95.051000 14.000000
95.072340 13.000000
96.070520 8.000000
96.081770 46.000000
97.080740 5.000000
103.044860 8.000000
103.055440 112.000000
104.053710 7.000000
104.063290 12.000000
105.060940 8.000000
105.067690 28.000000
106.051120 13.000000
106.065180 347.000000
107.044050 5.000000
107.067120 31.000000
107.534460 5.000000
108.080620 15.000000
110.060430 30.000000
110.096040 94.000000
111.093090 7.000000
111.098490 13.000000
112.101880 10.000000
116.053180 8.000000
117.069230 7.000000
118.063510 117.000000
119.067560 13.000000
119.076450 9.000000
120.058390 12.000000
120.080510 808.000000
120.250080 6.000000
121.056450 16.000000
121.066570 19.000000
121.082940 43.000000
122.095320 15.000000
123.071880 5.000000
123.080320 7.000000
124.074370 71.000000
125.073910 17.000000
127.048610 9.000000
129.069500 16.000000
130.071460 5.000000
130.078190 7.000000
131.068860 13.000000
131.076660 7.000000
134.095810 10.000000
134.141400 6.000000
136.076070 427.000000
137.068270 6.000000
137.079270 40.000000
137.085210 12.000000
138.090760 202.000000
139.092500 21.000000
142.065930 14.000000
143.074660 23.000000
144.056000 18.000000
144.081950 63.000000
145.052870 13.000000
146.070160 6.000000
147.060910 11.000000
147.068850 27.000000
147.077160 11.000000
148.056660 8.000000
148.068850 44.000000
148.077880 77.000000
149.085750 5.000000
150.090040 62.000000
150.099150 9.000000
151.092930 9.000000
151.106200 10.000000
152.076000 11.000000
153.072400 5.000000
154.061460 8.000000
155.059660 10.000000
155.072070 11.000000
156.077710 16.000000
157.092710 8.000000
158.059660 213.000000
159.061360 47.000000
159.070300 33.000000
159.082260 7.000000
160.070570 74.000000
160.075840 167.000000
161.076510 42.000000
161.089140 12.000000
162.083720 20.000000
162.092910 42.000000
164.105510 40.000000
164.112270 11.000000
166.052660 6.000000
166.067340 9.000000
166.085300 16.000000
167.096600 5.000000
171.075070 10.000000
172.073970 9.000000
173.040600 11.000000
173.083850 848.000000
174.056920 10.000000
174.086410 261.000000
174.095320 84.000000
175.092560 27.000000
175.103070 5.000000
176.063640 14.000000
176.093020 7.000000
177.064300 5.000000
181.086870 7.000000
182.067890 7.000000
182.094620 5.000000
184.071110 13.000000
185.080890 12.000000
185.094350 8.000000
186.075210 7.000000
186.091950 99.000000
187.089130 30.000000
187.102070 7.000000
188.058300 34.000000
188.070480 108.000000
188.099810 36.000000
188.107790 89.000000
189.071780 6.000000
189.101820 10.000000
193.039000 6.000000
193.055570 6.000000
193.082550 12.000000
193.090330 35.000000
194.088930 20.000000
195.073150 8.000000
195.085650 5.000000
196.077820 19.000000
197.077470 67.000000
197.095210 11.000000
198.062520 9.000000
198.086980 50.000000
198.098750 26.000000
199.076390 42.000000
199.096650 15.000000
200.066640 24.000000
200.086650 8.000000
200.097000 11.000000
200.105620 17.000000
201.081730 11.000000
201.103590 13.000000
201.116840 9.000000
202.077070 15.000000
202.089360 110.000000
203.085880 8.000000
204.071210 11.000000
204.082440 9.000000
204.102370 8.000000
205.088120 6.000000
206.093750 7.000000
209.080670 61.000000
209.088760 20.000000
210.092530 35.000000
211.080830 20.000000
211.097290 24.000000
212.070220 13.000000
212.092010 17.000000
212.107440 67.000000
212.126130 5.000000
213.063600 17.000000
213.077840 6.000000
213.096890 27.000000
213.110670 29.000000
213.117540 10.000000
213.577300 5.000000
214.089710 11.000000
215.067370 11.000000
215.078930 7.000000
215.090330 9.000000
216.084340 8.000000
216.098020 9.000000
216.107670 6.000000
217.079680 5.000000
217.099270 12.000000
218.079940 5.000000
220.069990 10.000000
220.078780 7.000000
220.091310 5.000000
220.103710 8.000000
220.118650 23.000000
222.087740 7.000000
222.097780 8.000000
223.097240 26.000000
223.110030 6.000000
224.077820 8.000000
224.099690 113.000000
224.111740 66.000000
225.103650 21.000000
225.117600 32.000000
226.052900 6.000000
226.090590 12.000000
226.112550 10.000000
226.119230 21.000000
226.131090 14.000000
227.081310 41.000000
227.123830 8.000000
227.131990 6.000000
228.078660 7.000000
231.104030 16.000000
232.061630 6.000000
233.066250 6.000000
233.088490 7.000000
234.089390 32.000000
234.104550 5.000000
234.119290 12.000000
235.077270 6.000000
235.093870 39.000000
235.104900 14.000000
236.105510 52.000000
237.096830 20.000000
237.110960 21.000000
238.081850 10.000000
238.109050 16.000000
238.120010 24.000000
238.131820 7.000000
239.092820 8.000000
239.113160 14.000000
239.121200 33.000000
240.098510 15.000000
241.100450 9.000000
241.147000 6.000000
242.090500 5.000000
243.112290 6.000000
243.123640 7.000000
245.114180 13.000000
246.072310 5.000000
246.092770 8.000000
247.087940 6.000000
247.098420 14.000000
248.079570 15.000000
248.094940 23.000000
248.115720 15.000000
248.647460 8.000000
249.053600 5.000000
249.072340 6.000000
249.092530 19.000000
249.100980 32.000000
249.112760 42.000000
249.121980 11.000000
250.108860 44.000000
250.127210 33.000000
251.083160 11.000000
251.129520 19.000000
252.093490 21.000000
252.103350 37.000000
252.125060 10.000000
252.140730 11.000000
252.151490 6.000000
253.098630 9.000000
253.110230 13.000000
253.140550 5.000000
254.084850 5.000000
254.094330 6.000000
255.112550 7.000000
256.124360 12.000000
256.137480 20.000000
257.119540 14.000000
258.112340 6.000000
259.104770 18.000000
259.135990 7.000000
260.106260 14.000000
261.096190 9.000000
261.119810 25.000000
262.093540 22.000000
262.122990 16.000000
262.134120 12.000000
263.096620 17.000000
263.122380 131.000000
264.103970 14.000000
264.116390 20.000000
264.128850 40.000000
264.143520 17.000000
265.084350 24.000000
265.101350 26.000000
265.128970 17.000000
265.148860 12.000000
266.107940 27.000000
266.137050 21.000000
267.110720 14.000000
268.134220 23.000000
269.115840 15.000000
269.131810 15.000000
273.103090 7.000000
274.127290 6.000000
275.106290 7.000000
275.116670 13.000000
276.100830 6.000000
276.122010 40.000000
276.135770 25.000000
276.152890 9.000000
277.098660 20.000000
277.134980 147.000000
277.155150 24.000000
278.112490 29.000000
278.135960 163.000000
279.084810 5.000000
279.104680 29.000000
279.120480 41.000000
279.135440 32.000000
279.152400 21.000000
280.106350 19.000000
280.121120 44.000000
280.135160 11.000000
281.127780 14.000000
281.136350 7.000000
282.120610 8.000000
282.145870 24.000000
283.157200 7.000000
286.130130 7.000000
288.102450 6.000000
289.103360 5.000000
289.112090 8.000000
289.126010 13.000000
289.140560 11.000000
291.111940 10.000000
291.123470 8.000000
291.146150 37.000000
291.776700 9.000000
292.112730 10.000000
292.134860 28.000000
292.159480 6.000000
293.092800 9.000000
293.128910 181.000000
293.172420 7.000000
294.093600 5.000000
294.127260 98.000000
294.137570 255.000000
295.104710 6.000000
295.137880 52.000000
296.114650 5.000000
296.134030 12.000000
296.145480 7.000000
304.124050 9.000000
306.138430 9.000000
307.129330 18.000000
307.150850 21.000000
308.138850 5.000000
308.148280 7.000000
309.089750 16.000000
309.118870 40.000000
309.160370 1000.000000
310.129460 14.000000
310.161740 253.000000
311.162990 12.000000
321.145480 8.000000
321.158330 28.000000
321.171880 6.000000
322.151180 18.000000
322.168550 7.000000
324.140350 9.000000
324.167360 5.000000
339.167080 50.000000
339.183170 23.000000

>ms2peaks
63.020670 6.000000
65.037810 6.000000
67.039840 8.000000
68.049630 9.000000
70.030390 6.000000
70.065280 5.000000
74.058830 8.000000
77.030080 8.000000
77.038550 100.000000
77.042680 46.000000
78.032530 8.000000
78.048410 7.000000
79.053950 56.000000
80.024480 8.000000
80.039960 10.000000
80.050990 42.000000
80.056880 26.000000
80.062000 8.000000
81.059220 6.000000
82.062450 19.000000
82.067760 6.000000
90.420370 6.000000
91.045070 9.000000
91.054100 147.000000
92.047740 10.000000
92.053990 21.000000
92.061690 9.000000
93.043390 9.000000
93.055470 20.000000
93.061060 23.000000
93.069940 34.000000
94.065680 46.000000
94.075480 22.000000
95.071560 5.000000
96.042570 12.000000
97.067630 11.000000
98.057720 15.000000
102.002930 5.000000
102.045960 11.000000
103.015120 6.000000
103.055020 157.000000
104.042420 9.000000
104.054580 23.000000
104.299260 6.000000
105.056230 11.000000
105.066260 6.000000
106.065460 264.000000
107.040700 5.000000
107.063390 7.000000
107.069530 18.000000
108.070480 6.000000
108.078240 21.000000
108.083970 21.000000
110.092650 11.000000
110.302860 8.000000
115.055760 8.000000
116.052470 21.000000
116.061300 12.000000
117.057620 96.000000
118.058560 23.000000
118.064840 46.000000
118.070690 38.000000
119.042780 8.000000
119.063980 18.000000
119.075230 33.000000
120.063480 14.000000
120.079980 67.000000
121.061460 6.000000
121.085970 19.000000
122.057080 11.000000
123.068230 18.000000
124.074780 6.000000
124.080250 7.000000
125.083950 6.000000
127.054340 12.000000
128.057050 19.000000
128.067960 27.000000
129.043900 6.000000
129.058900 25.000000
129.066410 6.000000
129.741470 9.000000
130.031860 5.000000
130.049670 12.000000
130.065110 293.000000
130.844970 7.000000
131.065340 38.000000
131.073070 58.000000
131.094960 13.000000
132.031130 7.000000
132.043550 55.000000
132.053570 6.000000
132.064420 7.000000
132.082120 9.000000
132.087460 7.000000
133.045940 11.000000
133.054990 35.000000
133.062210 11.000000
134.049440 6.000000
136.070660 16.000000
138.065800 6.000000
138.089390 30.000000
141.058400 16.000000
142.039890 9.000000
142.056500 9.000000
142.067890 38.000000
143.063390 13.000000
143.074340 100.000000
143.643810 5.000000
144.028960 6.000000
144.055110 21.000000
144.082460 66.000000
145.033770 6.000000
145.050110 50.000000
145.060040 59.000000
145.084500 51.000000
145.092350 22.000000
146.062040 25.000000
147.062000 29.000000
148.031310 5.000000
148.071350 12.000000
149.079280 8.000000
150.086500 6.000000
150.103180 12.000000
152.063690 10.000000
153.075790 6.000000
154.064380 38.000000
155.071140 52.000000
156.047130 5.000000
156.064930 20.000000
156.077000 22.000000
156.085800 8.000000
156.206090 9.000000
157.048650 5.000000
157.057190 22.000000
157.070560 6.000000
157.084440 11.000000
158.059590 1000.000000
159.036960 8.000000
159.062850 178.000000
159.085560 5.000000
159.354540 9.000000
160.070340 58.000000
160.079760 35.000000
161.078960 13.000000
161.171970 7.000000
162.074140 7.000000
162.466670 6.000000
164.054470 6.000000
164.072100 10.000000
165.066770 21.000000
166.064640 14.000000
166.073260 9.000000
167.039180 8.000000
167.069950 52.000000
168.016620 6.000000
168.067810 10.000000
168.083980 59.000000
169.041630 11.000000
169.080510 21.000000
169.092580 6.000000
170.059420 58.000000
170.080350 6.000000
171.057080 13.000000
171.072340 51.000000
172.054900 15.000000
172.074940 58.000000
173.045320 9.000000
173.074660 63.000000
173.084820 167.000000
174.059570 6.000000
174.082730 47.000000
174.097290 24.000000
175.056460 6.000000
178.075520 30.000000
180.069630 15.000000
180.079620 63.000000
180.094500 10.000000
181.082430 40.000000
181.089970 32.000000
182.062590 17.000000
182.074810 5.000000
182.084810 13.000000
182.094940 5.000000
183.066350 50.000000
183.079130 12.000000
183.095260 9.000000
184.061860 10.000000
184.076320 23.000000
185.062730 12.000000
185.072920 27.000000
186.051360 10.000000
186.087920 19.000000
186.096390 19.000000
187.085860 6.000000
187.099080 8.000000
189.066600 5.000000
190.060610 9.000000
191.073990 18.000000
192.081530 52.000000
193.070790 12.000000
193.082060 21.000000
193.090520 58.000000
193.102660 8.000000
194.094510 55.000000
195.064830 6.000000
195.077620 5.000000
195.101240 26.000000
196.078050 49.000000
196.102140 10.000000
197.072510 36.000000
197.083660 28.000000
197.093440 8.000000
198.086790 21.000000
199.059300 8.000000
199.082430 10.000000
199.092130 23.000000
199.172070 7.000000
200.054520 12.000000
200.070890 18.000000
201.091160 9.000000
203.073990 10.000000
203.085110 46.000000
204.082520 62.000000
205.080030 15.000000
205.089000 5.000000
206.054120 16.000000
206.080700 43.000000
206.093690 33.000000
207.100340 46.000000
207.113950 8.000000
208.070140 26.000000
208.086240 12.000000
208.097720 24.000000
208.108550 7.000000
209.073350 9.000000
209.087490 42.000000
210.085650 50.000000
210.099410 17.000000
210.131290 9.000000
211.081990 18.000000
211.097030 11.000000
212.075810 8.000000
213.088790 5.000000
216.083710 14.000000
217.088870 19.000000
217.101820 5.000000
218.087750 30.000000
218.097990 30.000000
219.080510 28.000000
219.106830 52.000000
219.228520 11.000000
220.054060 15.000000
220.077420 37.000000
220.094590 24.000000
220.103560 27.000000
221.030060 9.000000
221.072710 11.000000
221.083860 6.000000
221.388980 13.000000
222.062390 6.000000
222.072710 12.000000
222.105560 6.000000
222.116780 6.000000
223.079090 9.000000
223.100040 13.000000
223.114590 6.000000
224.095810 11.000000
225.113460 11.000000
226.074040 5.000000
228.069720 8.000000
228.079160 5.000000
228.095290 15.000000
230.102020 12.000000
232.095610 10.000000
232.106770 27.000000
232.116640 11.000000
232.508480 7.000000
233.075040 8.000000
233.083820 7.000000
233.104190 12.000000
233.122920 13.000000
234.060590 6.000000
234.071900 11.000000
234.088330 48.000000
234.110570 6.000000
234.124340 9.000000
235.072080 19.000000
235.085490 13.000000
235.101440 16.000000
236.087830 16.000000
236.107330 29.000000
236.123830 9.000000
237.112120 6.000000
238.069030 6.000000
238.087980 14.000000
243.095860 10.000000
243.222090 6.000000
244.064000 8.000000
244.088940 11.000000
245.079940 19.000000
245.118100 20.000000
246.088440 7.000000
246.115130 14.000000
246.130170 10.000000
247.085140 36.000000
247.099010 22.000000
247.132680 17.000000
248.091810 59.000000
248.103530 9.000000
248.123750 16.000000
248.135500 8.000000
249.102770 32.000000
249.116820 7.000000
249.127230 5.000000
250.084010 9.000000
250.101990 6.000000
250.117340 13.000000
251.121350 11.000000
257.108980 15.000000
258.099090 9.000000
258.115110 11.000000
260.093230 18.000000
261.099400 14.000000
261.112300 15.000000
262.096740 7.000000
262.112300 5.000000
262.125090 11.000000
263.096920 18.000000
263.111300 20.000000
263.119600 25.000000
263.131380 23.000000
264.094390 6.000000
264.121340 11.000000
264.133940 14.000000
265.112980 6.000000
265.130490 8.000000
266.115480 6.000000
270.119720 6.000000
275.113130 7.000000
275.123080 7.000000
275.967380 6.000000
277.096740 13.000000
277.121060 23.000000
277.139400 17.000000
278.082060 5.000000
278.104030 6.000000
278.140930 22.000000
279.100400 10.000000
279.115810 20.000000
279.270970 6.000000
293.133850 29.000000
293.149480 13.000000
294.138980 14.000000
334.121890 6.000000

