>compound PR69314188
>parentmass 312.12445
>ionization [M+H]+
>formula C18H17NO4
>rt 257.400000
>profile qtof
#smiles_iso COC1=C(C=CC(=C1)/C=C/C(=O)N/C=C/C2=CC=C(C=C2)O)O
#smiles_can COC1=C(C=CC(=C1)C=CC(=O)NC=CC2=CC=C(C=C2)O)O
#inchikey PMRDPCAGHFQFMZ-NJNCEADSSA-N
#pubchem_id 139292013
#mb_accession PR311018,PR311019

>ms2
50.358800 23.000000
117.028790 57.000000
124.953480 23.000000
145.025630 94.000000
145.033170 119.000000
149.104430 17.000000
177.052460 472.000000
234.137800 19.000000
248.039870 20.000000
275.164150 20.000000
312.105010 28.000000
312.123080 130.000000

>ms2
117.035840 139.000000
130.004210 16.000000
133.870160 18.000000
145.029400 186.000000
146.037750 17.000000
149.062210 21.000000
149.072170 18.000000
162.062880 20.000000
177.024860 23.000000
177.057860 966.000000
178.066700 33.000000
189.074570 18.000000
273.865570 17.000000
296.108830 20.000000
312.124300 118.000000
312.161290 24.000000

