>compound PR70976683
>parentmass 235.21687530000005
>ionization [M+H]+
>formula C15H26N2
>rt 139.686000
>profile qtof
#smiles_iso C1CCN2C[C@@H]3C[C@H]([C@H]2C1)CN4[C@H]3CCCC4
#smiles_can C1CCN2CC3CC(C2C1)CN4C3CCCC4
#inchikey SLRCCWJSBJZJBV-ZQDZILKHSA-N
#pubchem_id 644020
#mb_accession PR301029,PR301034,PR301039,PR301044,PR301049,PR301054,PR301059,PR301064,PR301069,PR301074,PR301079,PR301084

>ms2peaks
98.093340 45.000000
98.099210 22.000000
98.105710 6.000000
99.104070 9.000000
168.799480 6.000000
176.146500 5.000000
190.155960 5.000000
195.910220 6.000000
233.204010 38.000000
234.199710 18.000000
235.181850 11.000000
235.218090 1000.000000

>ms2peaks
235.189710 9.000000
235.218700 1000.000000

>ms2peaks
61.342460 9.000000
70.065610 23.000000
84.078810 7.000000
97.084820 8.000000
98.097090 407.000000
99.103140 15.000000
118.108260 13.000000
122.099670 17.000000
142.888980 9.000000
149.122240 7.000000
152.140880 10.000000
158.092640 8.000000
161.118560 7.000000
164.142140 8.000000
190.167450 12.000000
190.249600 7.000000
232.648800 7.000000
233.107800 8.000000
233.191450 39.000000
233.202320 97.000000
233.984470 7.000000
234.204030 23.000000
235.134160 8.000000
235.184510 6.000000
235.218540 1000.000000
235.278430 15.000000

>ms2peaks
55.055450 185.000000
90.078590 315.000000
98.075450 212.000000
98.096480 1000.000000
99.165150 137.000000
110.103230 192.000000
118.112960 137.000000
235.211490 144.000000

>ms2peaks
96.077080 7.000000
98.059970 9.000000
98.098990 26.000000
99.101380 6.000000
152.155490 7.000000
190.862210 6.000000
215.199710 8.000000
229.035950 9.000000
233.197430 35.000000
234.208180 18.000000
235.217440 1000.000000

>ms2peaks
93.069350 5.000000
227.667390 6.000000
235.192930 17.000000
235.217710 1000.000000

>ms2peaks
81.067990 7.000000
84.083470 8.000000
95.065030 8.000000
96.069180 12.000000
96.080250 9.000000
98.078300 10.000000
98.097250 373.000000
98.101540 137.000000
98.484750 9.000000
99.096610 14.000000
99.102950 33.000000
100.120880 17.000000
110.098400 7.000000
118.106850 9.000000
124.102370 10.000000
124.118340 15.000000
134.097730 24.000000
135.250960 18.000000
138.120350 7.000000
150.128770 18.000000
150.982620 7.000000
153.645480 7.000000
214.392400 12.000000
233.201810 172.000000
234.189700 13.000000
234.208050 49.000000
234.227890 10.000000
235.165310 15.000000
235.185070 6.000000
235.217250 1000.000000

>ms2peaks
64.983190 54.000000
67.057690 75.000000
70.066350 51.000000
70.369090 84.000000
80.048370 57.000000
82.066720 111.000000
84.081600 78.000000
98.083240 63.000000
98.097890 1000.000000
98.102930 304.000000
152.141880 69.000000
235.223540 208.000000

>ms2peaks
98.093000 28.000000
98.099560 74.000000
99.100410 9.000000
118.614970 6.000000
233.192810 34.000000
233.207320 18.000000
234.209900 7.000000
235.188550 8.000000
235.217970 1000.000000

>ms2peaks
235.187240 6.000000
235.217030 1000.000000
235.238490 8.000000

>ms2peaks
70.067870 7.000000
70.887180 6.000000
84.079990 6.000000
96.082390 17.000000
96.189390 14.000000
97.721680 8.000000
98.070970 7.000000
98.096910 519.000000
99.097150 18.000000
99.101970 38.000000
110.088740 9.000000
110.100430 6.000000
118.110310 12.000000
122.672570 6.000000
134.085770 13.000000
134.099300 19.000000
134.104030 7.000000
138.117770 6.000000
139.132400 8.000000
150.123370 10.000000
152.141880 22.000000
152.152660 9.000000
153.143940 8.000000
154.618160 6.000000
157.035580 11.000000
162.105220 7.000000
162.113600 6.000000
187.823550 10.000000
192.176560 7.000000
224.096240 7.000000
233.198870 112.000000
233.209760 82.000000
234.198680 22.000000
235.055540 14.000000
235.140870 6.000000
235.181700 22.000000
235.216090 1000.000000

>ms2peaks
56.052600 65.000000
67.052450 58.000000
70.063040 103.000000
70.068100 106.000000
71.065900 68.000000
81.061470 96.000000
84.086720 79.000000
98.095610 1000.000000
99.102680 58.000000
118.109890 199.000000
134.103930 103.000000
135.099750 62.000000
235.209790 116.000000
235.222930 318.000000

