>compound PR70792084
>parentmass 188.1106
>ionization [M+H]+
>formula C9H17NOS
>rt 249.600000
>profile qtof
#smiles_iso CS(=O)CCCCCCCC#N
#smiles_can CS(=O)CCCCCCCC#N
#inchikey VRYSUGWFYFXWLB-UHFFFAOYSA-N
#pubchem_id 121232644
#mb_accession PR310894

>ms2
55.053980 20.000000
59.069000 19.000000
67.053140 48.000000
68.049090 24.000000
79.054950 100.000000
80.055530 23.000000
81.058560 17.000000
82.067140 18.000000
83.073580 24.000000
83.084140 20.000000
95.394630 21.000000
107.085270 17.000000
124.113950 63.000000
147.044270 37.000000
188.056840 18.000000
188.112080 998.000000

