>compound PR70121528
>parentmass 480.3097
>ionization [M+H]+
>formula C23H46NO7P
>rt 613.800000
>profile qtof
#smiles_iso CCCCCCCCC=CCCCCCCCC(=O)OCC(COP(=O)([O-])OCC[NH3+])O
#smiles_can CCCCCCCCC=CCCCCCCCC(=O)OCC(COP(=O)([O-])OCC[NH3+])O
#inchikey PYVRVRFVLRNJLY-UHFFFAOYSA-N
#pubchem_id 25200684
#mb_accession PR310836

>ms2peaks
155.010930 24.000000
339.282380 19.000000
339.298680 49.000000
480.284580 17.000000
480.324740 92.000000

