>compound PR70712434
>parentmass 433.22207980799993
>ionization [M+H]+
>formula C24H32O7
>rt 457.410701
>profile qtof
#smiles_iso CC1CC2=CC(=C(C(=C2C3=C(C(=C(C=C3CC1(C)O)OC)OC)OC)OC)OC)OC
#smiles_can CC1CC2=CC(=C(C(=C2C3=C(C(=C(C=C3CC1(C)O)OC)OC)OC)OC)OC)OC
#inchikey YEFOAORQXAOVJQ-UHFFFAOYSA-N
#pubchem_id 23915
#mb_accession PR303843,PR303847,PR303851,PR303855,PR303859,PR303863,PR303867,PR303871,PR303875,PR303879,PR303883,PR303887,PR304027,PR304028,PR304029,PR304030,PR304031,PR304032,PR304033,PR304034,PR304035,PR304036,PR304037,PR304038,PR310434

>ms2
131.084400 9.000000
212.111310 5.000000
240.071010 10.000000
247.095580 5.000000
256.106870 8.000000
257.079620 8.000000
269.078950 7.000000
270.084840 7.000000
271.098940 7.000000
272.103610 17.000000
277.124240 8.000000
282.103640 5.000000
283.092900 13.000000
285.066680 7.000000
285.101720 9.000000
286.111510 5.000000
286.121370 8.000000
288.092040 8.000000
288.108180 8.000000
291.130280 5.000000
292.107450 5.000000
294.117310 10.000000
296.102750 7.000000
298.119380 6.000000
299.084960 8.000000
299.120480 20.000000
300.091430 6.000000
300.101230 12.000000
300.134310 6.000000
301.086940 8.000000
307.130250 25.000000
308.104640 6.000000
308.142550 5.000000
309.143310 6.000000
310.123660 6.000000
310.158200 5.000000
311.119380 5.000000
311.142360 6.000000
312.100430 8.000000
312.139400 5.000000
313.108280 35.000000
313.135190 5.000000
314.104950 6.000000
314.120910 12.000000
315.120480 29.000000
315.133540 11.000000
316.093200 12.000000
316.124850 15.000000
317.106870 15.000000
317.128080 8.000000
322.112460 8.000000
322.124360 11.000000
322.154050 28.000000
323.126070 9.000000
323.168330 5.000000
324.132750 5.000000
324.143340 11.000000
324.175510 6.000000
325.154300 7.000000
327.113920 15.000000
327.160430 9.000000
328.132750 65.000000
329.098450 14.000000
329.132140 20.000000
329.148680 11.000000
330.141390 37.000000
331.118130 38.000000
331.151860 11.000000
332.117580 18.000000
332.128880 15.000000
332.145720 7.000000
333.129670 15.000000
337.127110 7.000000
337.149110 16.000000
338.093630 6.000000
338.149290 98.000000
339.142210 9.000000
339.155730 10.000000
340.130980 9.000000
341.143590 12.000000
341.171510 5.000000
341.186220 9.000000
342.144230 71.000000
343.116820 13.000000
343.136570 14.000000
343.166750 11.000000
344.123470 13.000000
344.137210 8.000000
345.113770 6.000000
345.130770 32.000000
346.140440 111.000000
347.146330 41.000000
348.160490 7.000000
348.203580 7.000000
350.156490 5.000000
351.165740 5.000000
352.156100 10.000000
352.173430 6.000000
353.136510 10.000000
353.149660 21.000000
353.160800 31.000000
353.179170 63.000000
354.137540 16.000000
354.167480 23.000000
355.141300 8.000000
355.153960 17.000000
357.163150 7.000000
357.176850 10.000000
358.118160 7.000000
358.136630 16.000000
358.151640 12.000000
358.179530 16.000000
359.143070 17.000000
359.157290 22.000000
360.146060 5.000000
361.159030 12.000000
368.144680 7.000000
368.159060 7.000000
369.141720 8.000000
369.170780 114.000000
370.171880 36.000000
371.160920 7.000000
371.180480 8.000000
372.162200 11.000000
373.162020 35.000000
374.162960 14.000000
374.181980 8.000000
383.186190 13.000000
384.192600 357.000000
385.153470 12.000000
385.169340 29.000000
385.193420 74.000000
385.207490 42.000000
386.171910 21.000000
386.186800 20.000000
389.203000 12.000000
400.183140 72.000000
401.202000 20.000000
415.209900 1000.000000
416.213780 281.000000
417.183690 8.000000
417.219300 27.000000
418.217930 5.000000
432.182040 11.000000
432.211180 39.000000
433.168000 6.000000
433.216980 153.000000

>ms2
384.191470 14.000000
385.197050 5.000000
415.171970 6.000000
415.210480 1000.000000
416.213650 255.000000
417.188900 5.000000
417.215910 66.000000
418.206180 6.000000
432.205810 58.000000
432.229890 28.000000
433.220580 344.000000

>ms2
75.043500 17.000000
99.077420 9.000000
116.078440 9.000000
123.045250 6.000000
129.050640 7.000000
131.088270 6.000000
139.075470 6.000000
170.062880 7.000000
170.081620 6.000000
170.355070 9.000000
172.091000 13.000000
177.094960 6.000000
181.086440 27.000000
182.085780 6.000000
183.102630 8.000000
189.056700 8.000000
189.074950 8.000000
193.558110 6.000000
201.078840 11.000000
201.090350 7.000000
203.098890 6.000000
204.102050 7.000000
205.093020 6.000000
211.340840 7.000000
213.079090 7.000000
217.083190 17.000000
217.383560 7.000000
218.099110 7.000000
225.122850 6.000000
225.646700 6.000000
231.098630 21.000000
233.080400 6.000000
233.120150 6.000000
235.118380 7.000000
235.134260 8.000000
236.148850 6.000000
237.131130 15.000000
239.057920 6.000000
239.139300 6.000000
239.406050 6.000000
240.082440 6.000000
241.079730 12.000000
243.115970 7.000000
246.087690 6.000000
247.125520 7.000000
249.107830 7.000000
250.126740 17.000000
251.107540 7.000000
252.140930 6.000000
252.289750 6.000000
253.079500 11.000000
253.095690 13.000000
254.088230 13.000000
255.092710 6.000000
255.141620 7.000000
257.090060 7.000000
258.088590 7.000000
259.088930 7.000000
261.131870 9.000000
261.201140 6.000000
263.095830 8.000000
263.106290 11.000000
263.129360 9.000000
265.091060 7.000000
266.089290 7.000000
267.068480 6.000000
267.094480 7.000000
267.127870 6.000000
268.108860 8.000000
269.911740 6.000000
270.062010 6.000000
271.103150 7.000000
271.142790 8.000000
272.080510 7.000000
272.095310 48.000000
273.114410 7.000000
273.331600 12.000000
273.463350 7.000000
274.122410 7.000000
276.701140 9.000000
277.119420 9.000000
277.395290 14.000000
278.078000 7.000000
278.141240 19.000000
279.146910 8.000000
279.740630 6.000000
280.109950 9.000000
281.077610 7.000000
283.091920 8.000000
284.091220 7.000000
284.108890 32.000000
285.101870 18.000000
285.114930 38.000000
286.077390 13.000000
286.095980 6.000000
286.125520 12.000000
286.444760 6.000000
287.089230 6.000000
287.110140 16.000000
287.129240 28.000000
287.145480 8.000000
287.162020 11.000000
287.925660 7.000000
288.099090 13.000000
290.101470 7.000000
290.118260 6.000000
291.088870 12.000000
291.099150 8.000000
292.102570 30.000000
293.109470 6.000000
294.135440 15.000000
295.137210 21.000000
296.095370 21.000000
296.122010 14.000000
296.298190 7.000000
296.393340 6.000000
297.099490 11.000000
297.111330 10.000000
297.122770 7.000000
297.144320 7.000000
298.082210 9.000000
298.114380 14.000000
298.129240 6.000000
298.161190 7.000000
298.505430 7.000000
299.085910 23.000000
299.094670 18.000000
299.119450 18.000000
299.133180 7.000000
300.057710 6.000000
300.086330 18.000000
300.103360 47.000000
300.113590 18.000000
300.131230 9.000000
301.079650 6.000000
301.098390 30.000000
301.108090 26.000000
302.078120 8.000000
302.117250 24.000000
302.846220 8.000000
302.999660 7.000000
303.113860 7.000000
303.121490 17.000000
304.120390 15.000000
305.109530 15.000000
305.520750 6.000000
306.118590 12.000000
306.131900 12.000000
307.124210 7.000000
307.138790 30.000000
308.121000 6.000000
308.142700 13.000000
308.150570 6.000000
309.099370 7.000000
309.140140 18.000000
309.162260 10.000000
310.115450 30.000000
310.129550 6.000000
310.146970 16.000000
310.158390 28.000000
310.170930 17.000000
311.134860 26.000000
311.166170 8.000000
312.094120 6.000000
312.136380 37.000000
313.110570 163.000000
313.140350 14.000000
313.153170 6.000000
314.080900 16.000000
314.119870 94.000000
314.140440 13.000000
315.050080 7.000000
315.075620 27.000000
315.088990 12.000000
315.123570 354.000000
315.159450 10.000000
316.066960 6.000000
316.083400 21.000000
316.095670 43.000000
316.124450 38.000000
316.134550 39.000000
316.799500 6.000000
317.094760 23.000000
317.108310 27.000000
317.124630 19.000000
317.136690 20.000000
317.852870 6.000000
318.141050 6.000000
320.140870 6.000000
321.102810 14.000000
321.116880 7.000000
321.126400 7.000000
322.113430 31.000000
322.154510 230.000000
322.456150 9.000000
322.671140 6.000000
323.124420 31.000000
323.149960 22.000000
323.165650 52.000000
323.385710 7.000000
324.107180 7.000000
324.126560 23.000000
324.139400 8.000000
324.161190 13.000000
325.134220 25.000000
325.155360 31.000000
326.106900 7.000000
326.139400 30.000000
326.149870 32.000000
327.121770 233.000000
327.154420 38.000000
328.090610 15.000000
328.112490 59.000000
328.129460 272.000000
329.092650 31.000000
329.109890 45.000000
329.134890 131.000000
330.082640 8.000000
330.108730 76.000000
330.142180 178.000000
330.976650 9.000000
331.006350 8.000000
331.119050 362.000000
331.160100 31.000000
332.031130 7.000000
332.122070 183.000000
332.140750 36.000000
333.121860 12.000000
333.136230 7.000000
333.148070 9.000000
334.129270 13.000000
334.735380 6.000000
335.132870 19.000000
336.126530 8.000000
336.137660 8.000000
336.407070 6.000000
337.097990 8.000000
337.140840 94.000000
338.106780 6.000000
338.152100 436.000000
338.577610 6.000000
339.151400 123.000000
339.172490 13.000000
339.632110 8.000000
340.119320 6.000000
340.155700 6.000000
341.104770 6.000000
341.137970 82.000000
341.174560 83.000000
342.114350 6.000000
342.134370 91.000000
342.144960 299.000000
342.166320 64.000000
342.186980 8.000000
343.109130 53.000000
343.141170 63.000000
343.152370 42.000000
343.168240 15.000000
343.182800 7.000000
343.371310 6.000000
344.124970 178.000000
344.154750 19.000000
345.136990 117.000000
345.161930 11.000000
345.354770 11.000000
346.063140 6.000000
346.140440 527.000000
347.093510 8.000000
347.122190 17.000000
347.143860 86.000000
348.140010 14.000000
348.154080 7.000000
351.124270 8.000000
352.135470 7.000000
352.157470 22.000000
352.178500 17.000000
353.142700 111.000000
353.174900 469.000000
353.888670 7.000000
354.117740 8.000000
354.143920 136.000000
354.180570 72.000000
354.248810 6.000000
354.517850 7.000000
355.143190 33.000000
355.161960 71.000000
355.182310 7.000000
355.197050 7.000000
356.139830 19.000000
356.162450 33.000000
357.135560 30.000000
357.155580 19.000000
357.172300 7.000000
358.139650 41.000000
358.153810 40.000000
358.171020 8.000000
358.905060 8.000000
359.083440 6.000000
359.144930 97.000000
359.163880 19.000000
360.155550 13.000000
361.167110 8.000000
362.161160 6.000000
362.181610 11.000000
367.147220 6.000000
367.158970 6.000000
368.153900 50.000000
368.171110 14.000000
369.007840 9.000000
369.117610 12.000000
369.168880 1000.000000
370.117070 6.000000
370.168520 219.000000
371.141880 45.000000
371.172820 78.000000
372.155640 27.000000
373.153810 17.000000
373.168430 18.000000
373.332490 6.000000
375.163150 7.000000
375.185270 6.000000
383.178590 16.000000
384.146820 15.000000
384.190730 679.000000
385.144740 48.000000
385.166810 172.000000
385.195770 115.000000
385.643070 6.000000
386.167850 49.000000
386.195740 23.000000
387.174040 6.000000
387.188810 15.000000
400.170070 17.000000
400.188510 86.000000
401.141910 7.000000
401.199100 77.000000
402.196780 28.000000
415.205440 25.000000
416.206210 6.000000
416.223970 32.000000
417.203430 12.000000
433.177760 8.000000
433.194730 6.000000

>ms2
109.058610 33.000000
109.066210 30.000000
121.065030 27.000000
123.040730 38.000000
131.049320 38.000000
141.070660 66.000000
143.082370 104.000000
145.100830 29.000000
146.069260 41.000000
148.085220 36.000000
151.036160 27.000000
151.079380 30.000000
151.626370 32.000000
153.072300 240.000000
154.073360 51.000000
155.077260 62.000000
159.069980 59.000000
159.087570 32.000000
163.568920 26.000000
165.069290 65.000000
168.525190 50.000000
169.062590 27.000000
170.070560 26.000000
171.043060 26.000000
171.068760 30.000000
171.080690 29.000000
172.091230 26.000000
175.035280 45.000000
175.069560 27.000000
175.113480 30.000000
176.078900 33.000000
178.067020 30.000000
178.084870 77.000000
179.078570 33.000000
180.087780 35.000000
181.058200 30.000000
181.068570 41.000000
181.087940 27.000000
182.083880 65.000000
183.033140 27.000000
183.071560 59.000000
183.082440 35.000000
183.090470 92.000000
183.891480 29.000000
184.047410 57.000000
185.062270 42.000000
185.087520 45.000000
185.097790 35.000000
186.059970 68.000000
188.082350 27.000000
189.050630 41.000000
189.097760 94.000000
189.784000 50.000000
190.078030 39.000000
191.061360 26.000000
195.079250 59.000000
196.051620 32.000000
196.082530 65.000000
196.090100 68.000000
196.117740 32.000000
197.062910 134.000000
197.079610 27.000000
198.057980 74.000000
198.071320 62.000000
199.068020 74.000000
199.115040 26.000000
200.030620 32.000000
200.089310 36.000000
201.054700 87.000000
201.088640 163.000000
202.080120 26.000000
202.096680 27.000000
203.067000 63.000000
203.085370 33.000000
204.098080 57.000000
205.057880 29.000000
205.192030 41.000000
206.064450 45.000000
206.103270 27.000000
207.079010 33.000000
207.155730 29.000000
208.045930 97.000000
208.084380 27.000000
209.055070 29.000000
209.061870 48.000000
209.088910 65.000000
210.075680 26.000000
210.084460 26.000000
211.011090 51.000000
211.036440 39.000000
211.079540 89.000000
211.120730 36.000000
212.082230 228.000000
213.043060 26.000000
213.084630 68.000000
213.095320 97.000000
213.750660 27.000000
214.064730 214.000000
214.098310 80.000000
214.104640 29.000000
214.665020 32.000000
215.003780 35.000000
215.069110 167.000000
215.092930 65.000000
216.074360 27.000000
216.097850 30.000000
217.044970 51.000000
217.088290 160.000000
218.021290 30.000000
218.070080 97.000000
218.089170 42.000000
218.102080 45.000000
219.048710 32.000000
219.078460 163.000000
220.062320 29.000000
220.090650 92.000000
220.106690 69.000000
220.925320 30.000000
221.064250 27.000000
221.090580 38.000000
221.101530 66.000000
221.135850 59.000000
222.067250 30.000000
222.101360 75.000000
222.112640 30.000000
223.029130 30.000000
223.040860 26.000000
223.071780 104.000000
223.111360 29.000000
223.119020 30.000000
224.032460 26.000000
224.085110 186.000000
224.113600 42.000000
225.057070 179.000000
225.087920 278.000000
226.027770 35.000000
226.066860 53.000000
226.087310 38.000000
226.101230 26.000000
227.037600 30.000000
227.059780 45.000000
227.074190 537.000000
228.042770 94.000000
228.053510 26.000000
228.072970 131.000000
228.084010 26.000000
228.677810 26.000000
229.021240 30.000000
229.086260 139.000000
230.054260 53.000000
230.069610 38.000000
230.088320 26.000000
230.348720 30.000000
231.062990 69.000000
231.102910 71.000000
232.047820 33.000000
233.086320 115.000000
233.098340 103.000000
233.727980 29.000000
234.065020 27.000000
235.070300 30.000000
235.078060 26.000000
235.112300 62.000000
235.120470 36.000000
236.073820 33.000000
236.115460 56.000000
237.062030 32.000000
237.073810 27.000000
237.081790 27.000000
237.094820 100.000000
237.134720 26.000000
238.052930 59.000000
238.071380 26.000000
239.063640 57.000000
239.073390 30.000000
239.104800 56.000000
240.040860 36.000000
240.058110 29.000000
240.076220 160.000000
240.090300 30.000000
241.051930 176.000000
241.075790 77.000000
241.086520 247.000000
241.113710 30.000000
242.038040 81.000000
242.059080 77.000000
242.094420 362.000000
242.155380 26.000000
243.064330 161.000000
243.086120 26.000000
243.097170 42.000000
244.082670 68.000000
245.068440 30.000000
245.082280 184.000000
245.100270 26.000000
246.076800 63.000000
246.087830 30.000000
248.053210 26.000000
248.074980 86.000000
248.089490 36.000000
249.088960 35.000000
249.124730 38.000000
250.075000 26.000000
250.095500 56.000000
250.113590 66.000000
250.135480 27.000000
250.984740 30.000000
251.101700 32.000000
251.114270 30.000000
251.126130 30.000000
251.539700 26.000000
252.074570 56.000000
252.091570 26.000000
252.109560 51.000000
253.031400 30.000000
253.054570 103.000000
253.075740 133.000000
253.088240 202.000000
253.265530 30.000000
254.042430 41.000000
254.097980 155.000000
255.070210 193.000000
255.094770 69.000000
255.106800 27.000000
256.071900 107.000000
256.079930 36.000000
256.101100 186.000000
256.116640 90.000000
257.031280 54.000000
257.052000 27.000000
257.081670 864.000000
257.117580 27.000000
257.803100 26.000000
258.055050 27.000000
258.075350 72.000000
258.091980 63.000000
258.102110 26.000000
259.015870 27.000000
259.088320 63.000000
259.104000 30.000000
260.052700 32.000000
260.086490 36.000000
260.102200 41.000000
261.069150 36.000000
261.095250 77.000000
262.061860 26.000000
262.097320 68.000000
262.118500 36.000000
263.043330 26.000000
263.063350 26.000000
263.083400 26.000000
263.106660 176.000000
263.120300 45.000000
263.897160 26.000000
264.106510 56.000000
264.115230 65.000000
264.131200 38.000000
265.058620 72.000000
265.086120 181.000000
265.105590 106.000000
265.128630 109.000000
265.902010 26.000000
266.056340 33.000000
266.092160 29.000000
266.101840 57.000000
266.129550 112.000000
267.069460 163.000000
267.085600 152.000000
267.105350 262.000000
267.132970 56.000000
267.154050 32.000000
267.380430 38.000000
268.038760 86.000000
268.065340 44.000000
268.095400 26.000000
268.112180 26.000000
268.126680 27.000000
269.042910 83.000000
269.054140 59.000000
269.071470 75.000000
269.084780 205.000000
269.111020 128.000000
269.124940 95.000000
270.044620 65.000000
270.059420 143.000000
270.085270 112.000000
270.094700 231.000000
271.057890 282.000000
271.093870 382.000000
271.143220 26.000000
272.063050 35.000000
272.076450 32.000000
272.103120 183.000000
273.075680 516.000000
273.096980 60.000000
273.113280 133.000000
273.133120 30.000000
273.446080 30.000000
274.096340 42.000000
275.079590 26.000000
275.104830 74.000000
276.056090 36.000000
276.086670 30.000000
276.103880 65.000000
276.121890 35.000000
277.085720 161.000000
277.112640 29.000000
277.125090 86.000000
277.134490 56.000000
278.088710 100.000000
278.108730 106.000000
278.133880 59.000000
279.064970 71.000000
279.086790 45.000000
279.097500 189.000000
279.112550 72.000000
279.153560 75.000000
280.057040 30.000000
280.070340 26.000000
280.084110 68.000000
280.106110 282.000000
280.129490 33.000000
280.146700 89.000000
281.075040 125.000000
281.117000 148.000000
282.043120 32.000000
282.059480 63.000000
282.082860 205.000000
282.105040 26.000000
282.124760 35.000000
283.058200 175.000000
283.101930 170.000000
283.128390 48.000000
284.081090 30.000000
284.103730 626.000000
284.148530 30.000000
285.072630 1000.000000
285.097020 134.000000
285.115780 321.000000
286.033200 59.000000
286.085630 145.000000
286.119570 81.000000
286.323060 27.000000
287.049590 66.000000
287.072630 27.000000
287.084990 81.000000
287.095430 60.000000
288.057100 41.000000
288.090940 30.000000
288.105590 27.000000
288.121430 32.000000
289.072780 26.000000
289.086760 29.000000
289.117400 42.000000
290.088900 157.000000
290.117490 26.000000
290.138640 29.000000
291.058930 35.000000
291.102420 359.000000
291.141720 54.000000
291.618160 36.000000
291.696110 27.000000
291.820590 30.000000
292.059660 27.000000
292.086880 84.000000
292.100830 92.000000
292.118070 151.000000
292.542540 27.000000
292.954560 42.000000
293.083920 39.000000
293.109530 167.000000
293.120420 219.000000
294.089720 122.000000
294.112640 97.000000
294.132930 30.000000
295.102660 136.000000
295.134280 329.000000
295.156680 30.000000
295.340420 27.000000
296.096890 65.000000
296.113920 83.000000
296.132930 198.000000
296.933200 26.000000
297.074490 30.000000
297.098880 77.000000
297.108000 201.000000
297.123260 75.000000
297.878600 33.000000
298.073300 50.000000
298.086000 100.000000
298.118900 29.000000
299.035280 33.000000
299.051510 32.000000
299.073210 30.000000
299.091770 222.000000
299.121670 57.000000
300.084470 101.000000
300.098570 259.000000
300.120970 27.000000
300.140350 33.000000
301.063630 113.000000
301.074310 134.000000
301.104550 81.000000
302.074490 57.000000
302.124080 71.000000
303.089720 38.000000
303.116120 115.000000
304.127440 30.000000
305.109920 77.000000
305.136200 36.000000
306.123440 63.000000
306.133030 33.000000
306.150090 35.000000
307.070830 38.000000
307.098540 169.000000
307.116790 118.000000
307.134890 570.000000
307.159390 26.000000
307.843350 32.000000
308.067990 48.000000
308.102450 339.000000
308.129910 42.000000
308.148380 62.000000
308.173860 27.000000
309.078800 32.000000
309.112430 121.000000
309.132750 41.000000
309.148010 57.000000
310.086730 29.000000
310.111150 80.000000
310.127350 80.000000
310.169590 35.000000
311.067470 30.000000
311.093260 30.000000
311.111820 35.000000
311.125670 56.000000
311.134980 92.000000
312.096530 35.000000
312.106510 39.000000
312.141330 87.000000
313.119200 54.000000
313.129700 65.000000
313.729580 30.000000
314.095550 38.000000
314.114140 148.000000
315.129030 100.000000
315.341310 30.000000
316.075680 35.000000
316.097110 151.000000
316.122800 45.000000
317.058350 26.000000
317.087280 35.000000
317.109470 29.000000
318.101590 45.000000
321.108760 57.000000
321.145230 26.000000
322.107790 27.000000
322.157750 216.000000
323.095210 48.000000
323.121400 516.000000
323.135190 406.000000
323.147160 112.000000
323.169130 29.000000
324.097080 101.000000
324.134030 323.000000
324.369290 38.000000
325.073460 26.000000
325.110410 33.000000
325.142460 75.000000
325.165280 36.000000
326.107420 29.000000
326.151000 44.000000
327.080080 30.000000
327.091430 26.000000
327.114260 27.000000
327.128660 48.000000
328.170200 32.000000
329.084380 27.000000
329.114990 35.000000
329.144410 30.000000
330.655700 42.000000
337.148530 44.000000
338.101720 30.000000
338.129700 30.000000
338.143710 89.000000
338.157140 172.000000
339.108800 30.000000
339.125950 241.000000
339.163600 36.000000
340.135890 54.000000
340.912840 26.000000
341.143130 30.000000
342.137850 29.000000
343.186860 26.000000
346.140010 27.000000
352.174770 36.000000
353.173580 57.000000
354.154790 53.000000
355.112610 29.000000
355.145750 80.000000
369.172090 30.000000
399.974300 26.000000

>ms2
244.106660 6.000000
268.097960 7.000000
270.088560 18.000000
271.096130 12.000000
272.105260 12.000000
281.087310 7.000000
282.101650 8.000000
283.084500 6.000000
283.100860 14.000000
285.102360 19.000000
285.115050 15.000000
286.103640 8.000000
286.114350 6.000000
288.099460 11.000000
289.099060 5.000000
291.124390 7.000000
292.108120 6.000000
294.131160 7.000000
295.105070 6.000000
295.130740 13.000000
297.073360 6.000000
299.084840 10.000000
299.122560 22.000000
300.093260 7.000000
301.091490 12.000000
305.108250 8.000000
306.110050 7.000000
307.138520 17.000000
309.108670 5.000000
309.139980 8.000000
310.118190 16.000000
312.085450 12.000000
313.105320 12.000000
313.117610 14.000000
315.097440 7.000000
315.124180 41.000000
316.095980 20.000000
316.122800 19.000000
317.111600 5.000000
317.166600 6.000000
321.118440 6.000000
322.119660 25.000000
322.157840 26.000000
323.124210 16.000000
323.153930 15.000000
323.170440 6.000000
324.135410 6.000000
325.141300 8.000000
326.127930 8.000000
326.164030 5.000000
327.085300 5.000000
327.110750 7.000000
327.122920 22.000000
327.156620 10.000000
328.122560 36.000000
328.140080 26.000000
329.097810 5.000000
329.131590 27.000000
329.147400 20.000000
330.109920 11.000000
330.144560 26.000000
330.156620 11.000000
331.098270 9.000000
331.113280 44.000000
331.154050 8.000000
332.114870 14.000000
332.123750 40.000000
335.121980 5.000000
337.144350 7.000000
338.113770 6.000000
338.136260 15.000000
338.152100 61.000000
339.116270 7.000000
339.155300 23.000000
340.138000 5.000000
340.159550 9.000000
341.118990 8.000000
341.134610 6.000000
341.176670 24.000000
341.188540 7.000000
342.144870 76.000000
343.156250 8.000000
344.134980 16.000000
345.125550 19.000000
345.142430 12.000000
346.115810 11.000000
346.141020 111.000000
346.162750 11.000000
347.127720 9.000000
347.146180 17.000000
348.148380 14.000000
349.154850 5.000000
353.151340 17.000000
353.172880 64.000000
354.143100 23.000000
355.126800 9.000000
355.173430 9.000000
355.201780 10.000000
356.158600 10.000000
357.151280 7.000000
357.168330 8.000000
358.141240 10.000000
358.176270 5.000000
359.150760 54.000000
360.143830 8.000000
360.168090 8.000000
361.153470 12.000000
361.168700 12.000000
369.140590 6.000000
369.161680 50.000000
369.175110 68.000000
370.169950 23.000000
370.180510 12.000000
371.181030 5.000000
372.168210 6.000000
373.164670 50.000000
383.190000 15.000000
384.126770 5.000000
384.193630 348.000000
385.147090 12.000000
385.160280 27.000000
385.194980 113.000000
386.179960 14.000000
386.196930 11.000000
389.202940 8.000000
400.164030 6.000000
400.187770 42.000000
401.172760 8.000000
401.193850 10.000000
415.168400 8.000000
415.209750 1000.000000
415.263820 5.000000
416.183530 7.000000
416.214020 217.000000
417.211520 43.000000
417.227200 22.000000
432.212130 75.000000
433.177860 5.000000
433.220520 149.000000

>ms2
357.175050 6.000000
384.184050 15.000000
400.197140 5.000000
401.197140 12.000000
415.163880 10.000000
415.210820 1000.000000
416.210170 218.000000
416.226560 79.000000
417.202580 14.000000
417.224760 22.000000
432.210020 102.000000
433.173340 7.000000
433.219210 338.000000

>ms2
73.064950 8.000000
98.375890 6.000000
105.053060 7.000000
109.067190 6.000000
136.043850 8.000000
154.058650 6.000000
171.079180 7.000000
178.107470 10.000000
181.084670 18.000000
183.237780 6.000000
188.125600 7.000000
189.087250 10.000000
193.048650 7.000000
195.073030 6.000000
195.106310 14.000000
206.454930 6.000000
209.068480 7.000000
215.114090 15.000000
216.097460 6.000000
218.097750 7.000000
220.067200 6.000000
221.867480 7.000000
225.084050 9.000000
226.099610 18.000000
228.087010 8.000000
229.091020 7.000000
231.440060 10.000000
235.077800 7.000000
235.113240 6.000000
235.133870 8.000000
239.107830 13.000000
240.445040 8.000000
243.106570 7.000000
245.093640 8.000000
251.108140 7.000000
253.092480 8.000000
253.113400 12.000000
254.100220 6.000000
254.129230 8.000000
255.099590 24.000000
256.043790 8.000000
256.097170 7.000000
256.119660 6.000000
257.122960 13.000000
259.062440 8.000000
259.075680 7.000000
259.096410 6.000000
259.134190 7.000000
260.143890 6.000000
265.082610 19.000000
266.091800 7.000000
267.114200 7.000000
268.105320 13.000000
268.115390 6.000000
268.477330 10.000000
269.128850 7.000000
269.625490 9.000000
270.087590 27.000000
270.100310 15.000000
270.121120 7.000000
271.093720 8.000000
271.102290 6.000000
271.122860 7.000000
272.095460 25.000000
272.107420 12.000000
272.118960 8.000000
273.120120 6.000000
277.104340 8.000000
277.119510 6.000000
277.143010 6.000000
278.094540 6.000000
278.104610 12.000000
278.134460 6.000000
278.194920 9.000000
279.101990 10.000000
279.115600 7.000000
281.085330 9.000000
281.150180 9.000000
282.092220 13.000000
283.060090 9.000000
283.099610 24.000000
283.127380 8.000000
284.104430 19.000000
284.159420 6.000000
285.024320 6.000000
285.102750 12.000000
285.119540 23.000000
285.144100 7.000000
286.091740 6.000000
286.115050 20.000000
286.129820 15.000000
287.087040 6.000000
287.101810 8.000000
287.119480 8.000000
288.085240 7.000000
288.140780 6.000000
289.142360 6.000000
290.103180 7.000000
290.144170 16.000000
292.111510 7.000000
293.109040 7.000000
293.122310 7.000000
294.126460 6.000000
295.098240 8.000000
295.122830 13.000000
295.143190 15.000000
296.071810 6.000000
296.104370 6.000000
296.119510 23.000000
296.143650 7.000000
297.088040 6.000000
297.102140 6.000000
298.090450 7.000000
298.104430 6.000000
298.123720 25.000000
298.168030 7.000000
299.059300 11.000000
299.088650 37.000000
299.119600 33.000000
299.134670 67.000000
300.092990 41.000000
300.107510 12.000000
300.122070 7.000000
300.132540 6.000000
300.167630 7.000000
301.106320 12.000000
301.139860 6.000000
302.105350 33.000000
302.120570 51.000000
305.105070 6.000000
305.139680 8.000000
305.164250 8.000000
305.897190 8.000000
306.121000 6.000000
306.902160 6.000000
307.094910 6.000000
307.120210 13.000000
307.141390 27.000000
308.143890 6.000000
309.106290 6.000000
309.121490 7.000000
309.136320 8.000000
309.148800 21.000000
310.115940 19.000000
310.157650 29.000000
310.171510 16.000000
310.493740 7.000000
310.749790 6.000000
311.085300 6.000000
311.127470 21.000000
311.139340 25.000000
311.170440 19.000000
312.097840 21.000000
312.114720 7.000000
312.140440 19.000000
313.106840 126.000000
313.137330 26.000000
314.057530 8.000000
314.113680 87.000000
314.921020 9.000000
314.972470 9.000000
315.063320 9.000000
315.079410 6.000000
315.121310 253.000000
315.137660 91.000000
315.168520 13.000000
316.032380 6.000000
316.091030 37.000000
316.109310 39.000000
316.127620 75.000000
316.139980 22.000000
316.176180 6.000000
317.071960 6.000000
317.098540 41.000000
317.133090 35.000000
318.097530 6.000000
318.131260 6.000000
318.740450 8.000000
319.740110 7.000000
320.140990 6.000000
321.108520 28.000000
321.142850 15.000000
321.158540 16.000000
321.185120 8.000000
321.407350 10.000000
322.108730 36.000000
322.124150 27.000000
322.155610 209.000000
322.170290 60.000000
323.082280 8.000000
323.114200 21.000000
323.133300 53.000000
323.163480 28.000000
323.378200 6.000000
324.003390 6.000000
324.111330 10.000000
324.128230 13.000000
324.139950 25.000000
324.158140 6.000000
324.179930 6.000000
324.435270 8.000000
325.129300 13.000000
325.146390 34.000000
325.179380 12.000000
326.121950 7.000000
326.142850 21.000000
326.155820 41.000000
326.720760 6.000000
327.083100 7.000000
327.123380 150.000000
327.155360 41.000000
328.091370 7.000000
328.129120 358.000000
328.153870 46.000000
328.176150 7.000000
328.394960 6.000000
329.098690 73.000000
329.117190 27.000000
329.135530 111.000000
329.865200 8.000000
329.961550 6.000000
330.105500 21.000000
330.133120 59.000000
330.149570 136.000000
331.085330 7.000000
331.118960 327.000000
331.150570 40.000000
331.166930 7.000000
331.323490 7.000000
332.092650 7.000000
332.123380 217.000000
332.153140 12.000000
332.367250 6.000000
332.572170 6.000000
333.091130 6.000000
333.128480 70.000000
333.155090 12.000000
334.133060 21.000000
335.133330 28.000000
336.134460 17.000000
336.175780 6.000000
337.124210 30.000000
337.140840 49.000000
337.154600 40.000000
338.035220 9.000000
338.106930 6.000000
338.152340 427.000000
339.108640 7.000000
339.148280 135.000000
339.166140 64.000000
339.862370 7.000000
340.131590 42.000000
340.163060 12.000000
340.174650 15.000000
341.125430 41.000000
341.143950 33.000000
341.154080 12.000000
341.179990 76.000000
341.620670 8.000000
342.118410 16.000000
342.146360 374.000000
342.185300 26.000000
342.327670 6.000000
343.118530 46.000000
343.141020 48.000000
343.150910 125.000000
343.357360 6.000000
344.069370 6.000000
344.131380 132.000000
344.152890 25.000000
345.130040 88.000000
345.140900 25.000000
345.172450 6.000000
346.119290 15.000000
346.142850 418.000000
346.614780 8.000000
346.717190 6.000000
347.140660 107.000000
347.159520 17.000000
348.155460 18.000000
348.167140 7.000000
351.124420 8.000000
352.153170 29.000000
352.171880 33.000000
353.129670 81.000000
353.145660 61.000000
353.176730 596.000000
354.100520 14.000000
354.145450 99.000000
354.174130 109.000000
354.187560 56.000000
354.227600 7.000000
355.152040 97.000000
355.169890 32.000000
355.194030 15.000000
356.125180 7.000000
356.159550 18.000000
356.178160 7.000000
357.122160 12.000000
357.139830 13.000000
357.154210 13.000000
357.168210 9.000000
357.190670 6.000000
358.146060 75.000000
358.177460 19.000000
358.193820 12.000000
358.275300 7.000000
359.143400 31.000000
359.169590 12.000000
360.155490 21.000000
363.349980 6.000000
365.940520 7.000000
367.141510 13.000000
367.194460 7.000000
368.132020 7.000000
368.156100 20.000000
369.138980 8.000000
369.171300 1000.000000
370.117650 9.000000
370.152530 35.000000
370.176850 251.000000
371.146790 24.000000
371.171080 43.000000
371.207400 9.000000
372.147280 9.000000
372.162600 35.000000
373.168210 25.000000
374.163120 13.000000
374.180300 22.000000
376.623470 13.000000
376.972080 6.000000
383.182370 7.000000
383.198520 8.000000
384.120210 6.000000
384.156310 17.000000
384.196140 745.000000
385.144810 18.000000
385.165560 91.000000
385.196560 207.000000
385.987670 6.000000
386.128080 6.000000
386.157530 12.000000
386.177800 83.000000
386.193080 32.000000
386.207460 14.000000
387.158510 6.000000
387.172450 13.000000
388.185580 6.000000
389.210570 7.000000
392.625150 6.000000
399.172300 8.000000
400.183470 76.000000
400.199370 53.000000
401.168760 7.000000
401.186650 13.000000
401.202550 14.000000
401.940700 6.000000
402.179930 14.000000
402.201480 16.000000
405.105960 6.000000
415.167630 7.000000
415.188630 12.000000
415.210690 26.000000
415.237030 11.000000
416.217470 6.000000
417.208310 8.000000
417.233030 8.000000

>ms2
81.068370 24.000000
91.056560 28.000000
96.062910 49.000000
97.021160 24.000000
123.044820 35.000000
128.065430 22.000000
129.070050 22.000000
131.082960 31.000000
135.070420 24.000000
135.078250 38.000000
142.076280 33.000000
147.084990 47.000000
152.057270 24.000000
153.053180 49.000000
153.065800 28.000000
154.075060 30.000000
155.085330 58.000000
155.098390 34.000000
156.049390 30.000000
157.087080 25.000000
162.102310 54.000000
165.069780 28.000000
166.075680 25.000000
167.074040 22.000000
167.087430 33.000000
168.835710 24.000000
169.066940 59.000000
171.079120 25.000000
171.085560 64.000000
172.091720 24.000000
173.062330 22.000000
173.093720 28.000000
174.068100 43.000000
175.081790 22.000000
178.077000 50.000000
179.067370 24.000000
179.075620 43.000000
179.089810 22.000000
179.555050 24.000000
181.056030 45.000000
181.067260 26.000000
181.099290 24.000000
181.107940 50.000000
181.706380 25.000000
182.030460 33.000000
182.068740 49.000000
183.038600 26.000000
183.079250 49.000000
184.094880 22.000000
184.203140 25.000000
185.056530 39.000000
185.100200 26.000000
186.080060 79.000000
187.023680 24.000000
188.337080 24.000000
189.092470 22.000000
191.095780 45.000000
192.059970 33.000000
193.075760 30.000000
193.098220 28.000000
195.046570 26.000000
196.040680 26.000000
197.060070 109.000000
197.067960 28.000000
197.090900 29.000000
198.070860 125.000000
198.109090 22.000000
199.068940 52.000000
199.079090 62.000000
199.089900 26.000000
199.118410 22.000000
199.286850 24.000000
199.846150 24.000000
200.084640 30.000000
201.090100 96.000000
202.054690 33.000000
203.067900 22.000000
203.088130 26.000000
203.097820 35.000000
204.098420 28.000000
205.102490 22.000000
207.038410 29.000000
207.070690 26.000000
208.079240 22.000000
208.090130 30.000000
209.128080 22.000000
210.058670 26.000000
210.094250 28.000000
210.102910 22.000000
210.988360 29.000000
211.034700 30.000000
211.069900 101.000000
211.080800 89.000000
211.105390 31.000000
212.036870 26.000000
212.084090 123.000000
212.956890 26.000000
213.055130 98.000000
213.082810 94.000000
214.064960 161.000000
214.093510 30.000000
214.129240 25.000000
215.065720 102.000000
215.082610 22.000000
215.097410 22.000000
216.080140 34.000000
216.117290 33.000000
217.055820 30.000000
217.087080 112.000000
218.069660 26.000000
218.106320 30.000000
219.062260 25.000000
219.081240 35.000000
219.089480 37.000000
219.101350 33.000000
221.077730 30.000000
221.224530 38.000000
222.105290 28.000000
223.044690 22.000000
223.066960 81.000000
223.079130 54.000000
223.094190 29.000000
223.106510 72.000000
224.046720 26.000000
224.121750 22.000000
225.048130 54.000000
225.058670 59.000000
225.075320 22.000000
225.092710 83.000000
226.057500 34.000000
226.074430 31.000000
226.110240 71.000000
227.040860 30.000000
227.059710 75.000000
227.074890 105.000000
227.108260 39.000000
228.070690 151.000000
228.084290 182.000000
228.109570 71.000000
228.519300 26.000000
229.697050 24.000000
230.051450 29.000000
230.060680 106.000000
230.088990 22.000000
231.066250 38.000000
231.086230 22.000000
232.085940 22.000000
233.099090 81.000000
234.110210 46.000000
234.144760 49.000000
234.550380 39.000000
235.072770 49.000000
235.090550 45.000000
235.110370 52.000000
235.119550 46.000000
236.077770 22.000000
236.100800 55.000000
237.050190 24.000000
237.060610 52.000000
237.072170 64.000000
237.086030 176.000000
237.118610 24.000000
237.130770 49.000000
237.144500 28.000000
238.054630 26.000000
238.092070 55.000000
239.061250 54.000000
239.070210 129.000000
239.108580 105.000000
239.127900 50.000000
240.065400 25.000000
240.078610 133.000000
240.105300 51.000000
241.048280 114.000000
241.081330 243.000000
241.096850 80.000000
241.116350 109.000000
242.043180 34.000000
242.056290 152.000000
242.095830 150.000000
242.129180 34.000000
243.065080 176.000000
243.079040 33.000000
244.074140 72.000000
244.996800 42.000000
245.056110 49.000000
245.075580 119.000000
246.078890 26.000000
246.088790 22.000000
247.059340 43.000000
247.076890 62.000000
248.070450 20.000000
248.086880 110.000000
248.118270 45.000000
249.088960 134.000000
249.123550 31.000000
250.053730 35.000000
250.093950 50.000000
250.104710 71.000000
251.071640 31.000000
251.095760 54.000000
251.106570 105.000000
251.121050 28.000000
252.080180 104.000000
252.108810 76.000000
252.120760 26.000000
253.043660 62.000000
253.055500 54.000000
253.091250 98.000000
253.118150 43.000000
253.972180 26.000000
254.042190 22.000000
254.061870 22.000000
254.089000 168.000000
254.099060 148.000000
255.051090 34.000000
255.064450 207.000000
255.071660 71.000000
255.103530 139.000000
255.141940 30.000000
256.045780 22.000000
256.082520 55.000000
256.107730 47.000000
256.120700 28.000000
256.169950 22.000000
256.990330 28.000000
257.042270 50.000000
257.058410 66.000000
257.073150 165.000000
257.087460 188.000000
257.118930 67.000000
257.125460 34.000000
258.046720 22.000000
258.074040 114.000000
258.086120 62.000000
258.119260 28.000000
259.058260 93.000000
259.087220 55.000000
259.108760 24.000000
261.080140 38.000000
261.088350 66.000000
261.103090 22.000000
262.079190 25.000000
262.096920 84.000000
262.109040 31.000000
263.085750 26.000000
263.106900 253.000000
264.028410 28.000000
264.075410 104.000000
264.109920 119.000000
264.122650 52.000000
264.263370 45.000000
265.085970 252.000000
265.117340 54.000000
265.131500 71.000000
266.062930 24.000000
266.079620 29.000000
266.090820 77.000000
266.102050 66.000000
266.127200 148.000000
266.146510 34.000000
267.050020 41.000000
267.068760 85.000000
267.106990 160.000000
267.129430 68.000000
267.968870 37.000000
268.045680 26.000000
268.059420 49.000000
268.071960 151.000000
268.091490 56.000000
268.109990 73.000000
268.123230 22.000000
268.160950 24.000000
269.045440 22.000000
269.081150 357.000000
269.097170 68.000000
269.107570 25.000000
270.051640 59.000000
270.078340 46.000000
270.090090 226.000000
270.113460 29.000000
271.025940 35.000000
271.041350 34.000000
271.056640 112.000000
271.085540 119.000000
271.100950 226.000000
271.126460 41.000000
271.142270 26.000000
272.062440 100.000000
272.099300 123.000000
272.112880 59.000000
272.182530 28.000000
273.074980 310.000000
273.086610 130.000000
273.107820 58.000000
274.063810 73.000000
274.074740 47.000000
274.096680 31.000000
275.098450 26.000000
276.078980 29.000000
276.101320 126.000000
276.122740 172.000000
277.084660 72.000000
277.109220 81.000000
277.125240 114.000000
278.092070 26.000000
278.131230 100.000000
279.058320 59.000000
279.080990 31.000000
279.096130 104.000000
279.114110 54.000000
279.139530 133.000000
279.150730 46.000000
280.091950 28.000000
280.112240 126.000000
280.142270 62.000000
281.079380 151.000000
281.100520 24.000000
281.120480 47.000000
281.147830 30.000000
282.087160 272.000000
282.114560 56.000000
283.037960 25.000000
283.059110 70.000000
283.093350 243.000000
283.110440 22.000000
284.076200 64.000000
284.102050 214.000000
284.115170 144.000000
285.041630 22.000000
285.075530 344.000000
285.100590 238.000000
285.116760 147.000000
285.168640 24.000000
286.020230 29.000000
286.040040 31.000000
286.076970 152.000000
286.091460 88.000000
286.120450 31.000000
287.049010 22.000000
287.088710 108.000000
287.108490 51.000000
287.128910 22.000000
288.094480 119.000000
288.119140 38.000000
288.218540 29.000000
289.077480 34.000000
289.093320 83.000000
289.118870 25.000000
290.097750 25.000000
291.073430 24.000000
291.095090 73.000000
291.109310 133.000000
291.137120 26.000000
292.101230 54.000000
292.111910 80.000000
292.126130 58.000000
292.153870 56.000000
292.892700 28.000000
292.907140 34.000000
293.077390 63.000000
293.089570 24.000000
293.116550 139.000000
293.133640 59.000000
293.150790 24.000000
294.069400 24.000000
294.081240 71.000000
294.095250 22.000000
294.120300 144.000000
294.991390 24.000000
295.060790 26.000000
295.073180 46.000000
295.098080 152.000000
295.138120 525.000000
296.102390 98.000000
296.119450 106.000000
296.132510 51.000000
296.143740 52.000000
296.552760 26.000000
297.067870 26.000000
297.081790 28.000000
297.111300 173.000000
297.527530 24.000000
298.057890 31.000000
298.076050 71.000000
298.090000 148.000000
298.112700 28.000000
299.067260 26.000000
299.076260 26.000000
299.091640 59.000000
299.128360 189.000000
300.053040 24.000000
300.085970 50.000000
300.103420 102.000000
300.117950 49.000000
301.041870 22.000000
301.065580 87.000000
301.084200 151.000000
301.109990 91.000000
302.077820 31.000000
302.108430 71.000000
302.130550 45.000000
303.065550 25.000000
303.087590 24.000000
303.128600 24.000000
305.081210 37.000000
305.093230 24.000000
305.124270 22.000000
306.082980 38.000000
307.089540 77.000000
307.104160 192.000000
307.135380 579.000000
307.154970 43.000000
307.168880 22.000000
308.080540 25.000000
308.099030 148.000000
308.114010 68.000000
308.139430 231.000000
308.174740 28.000000
309.104280 105.000000
309.115480 51.000000
309.141850 49.000000
310.096560 34.000000
310.115390 77.000000
310.143650 63.000000
311.093540 58.000000
311.104340 55.000000
311.129390 106.000000
311.157260 93.000000
311.595700 22.000000
312.098270 63.000000
312.132720 71.000000
312.159480 33.000000
313.098270 55.000000
313.111630 52.000000
313.143800 28.000000
314.122280 80.000000
315.118800 105.000000
316.083710 30.000000
316.098480 54.000000
316.118040 33.000000
316.134520 52.000000
317.103060 26.000000
321.107600 87.000000
321.128170 35.000000
322.096620 26.000000
322.111970 58.000000
322.125670 30.000000
322.147980 22.000000
322.161010 31.000000
323.096620 89.000000
323.127750 1000.000000
323.159090 151.000000
323.177920 37.000000
324.101560 62.000000
324.127780 157.000000
324.144870 77.000000
324.153110 28.000000
325.115230 56.000000
325.137360 24.000000
326.156370 28.000000
327.118650 101.000000
328.307310 37.000000
329.130070 43.000000
329.556000 26.000000
335.127660 22.000000
337.100560 31.000000
337.153350 29.000000
338.097810 29.000000
338.155270 282.000000
339.121730 164.000000
339.151370 138.000000
340.115840 56.000000
341.142730 59.000000
342.140840 26.000000
346.205810 28.000000
346.251500 28.000000
351.105930 24.000000
354.138520 56.000000
355.105900 25.000000
356.128450 25.000000
364.959050 28.000000
385.163420 31.000000

>ms2
226.097140 6.000000
257.074190 6.000000
257.089450 9.000000
258.085720 7.000000
269.078030 5.000000
270.075260 9.000000
272.107240 8.000000
273.078640 5.000000
283.137730 13.000000
285.073640 15.000000
285.118260 19.000000
286.072660 6.000000
286.157040 5.000000
287.085330 5.000000
288.091310 11.000000
294.132780 7.000000
295.134550 14.000000
295.145970 7.000000
299.089900 9.000000
299.128570 5.000000
300.091640 10.000000
300.108220 10.000000
301.070800 7.000000
301.111390 33.000000
303.128230 7.000000
306.126220 5.000000
307.097290 7.000000
310.116730 7.000000
310.157990 6.000000
311.093990 6.000000
313.108310 29.000000
313.118960 10.000000
315.120820 76.000000
316.084010 11.000000
316.107150 11.000000
316.132810 17.000000
317.086850 7.000000
317.107970 5.000000
321.115810 8.000000
322.114380 11.000000
322.128570 8.000000
322.151610 33.000000
322.172240 10.000000
323.123410 30.000000
323.179600 14.000000
324.130000 15.000000
324.148190 7.000000
325.110960 7.000000
326.109310 9.000000
327.119140 14.000000
327.131440 11.000000
328.082730 10.000000
328.112370 16.000000
328.129910 67.000000
328.152710 9.000000
329.092740 6.000000
329.115200 12.000000
329.139800 30.000000
330.110900 5.000000
330.133760 21.000000
330.152470 20.000000
331.107820 25.000000
331.121920 26.000000
331.148930 7.000000
332.120760 30.000000
333.128630 6.000000
333.142880 5.000000
337.138000 7.000000
338.149080 90.000000
338.174410 6.000000
339.130710 6.000000
339.152620 12.000000
340.130650 7.000000
341.133420 12.000000
341.183620 21.000000
342.126010 6.000000
342.147770 63.000000
343.109040 5.000000
343.126890 10.000000
343.143010 6.000000
343.158360 13.000000
344.139500 7.000000
345.126500 22.000000
345.139800 6.000000
346.116090 6.000000
346.138030 95.000000
346.161870 6.000000
347.142150 27.000000
348.161740 9.000000
352.133970 7.000000
352.164830 7.000000
353.137080 7.000000
353.159910 9.000000
353.175930 54.000000
354.146060 33.000000
354.178960 10.000000
354.192600 7.000000
355.153810 15.000000
355.181000 17.000000
357.176240 30.000000
358.145750 11.000000
358.172090 14.000000
359.146360 62.000000
360.145050 16.000000
360.155000 5.000000
361.160000 14.000000
368.151670 12.000000
369.166900 110.000000
370.166080 13.000000
370.185910 14.000000
372.134670 5.000000
372.157530 13.000000
373.153530 20.000000
373.166470 38.000000
383.185240 14.000000
384.193510 309.000000
385.146030 5.000000
385.163850 16.000000
385.196780 96.000000
385.219300 11.000000
386.171360 19.000000
386.209810 5.000000
387.177310 6.000000
400.179600 32.000000
400.194430 46.000000
401.180850 7.000000
401.198180 15.000000
415.168300 5.000000
415.210910 1000.000000
416.213530 250.000000
417.218200 28.000000
418.190730 5.000000
432.206090 32.000000
432.217440 65.000000
433.184390 23.000000
433.222840 155.000000

>ms2
384.192020 11.000000
400.187380 9.000000
415.165500 9.000000
415.211460 1000.000000
416.214720 300.000000
417.216130 54.000000
417.231510 13.000000
432.216430 108.000000
433.184750 12.000000
433.219700 343.000000

>ms2
75.043600 13.000000
99.077640 9.000000
112.050890 11.000000
154.094540 11.000000
160.085820 7.000000
169.063770 9.000000
179.100770 6.000000
181.075470 9.000000
181.089160 14.000000
189.078380 6.000000
189.093570 6.000000
191.113420 14.000000
192.077590 7.000000
192.105900 6.000000
195.089770 8.000000
198.053300 7.000000
201.091580 7.000000
202.103000 6.000000
205.051560 6.000000
205.121800 7.000000
207.103640 7.000000
207.579610 9.000000
209.107940 7.000000
210.098950 7.000000
211.108800 7.000000
217.091630 6.000000
217.123250 7.000000
218.734540 15.000000
223.192550 7.000000
231.113190 8.000000
232.093830 10.000000
232.115330 19.000000
235.135240 23.000000
236.059810 6.000000
236.078400 9.000000
238.440370 9.000000
240.124510 6.000000
241.048130 7.000000
241.276820 6.000000
241.491710 9.000000
242.959370 9.000000
244.055600 6.000000
246.113340 7.000000
249.088390 7.000000
252.114120 7.000000
254.096510 10.000000
254.133990 7.000000
254.505190 6.000000
255.096850 13.000000
255.114970 14.000000
257.086460 8.000000
258.104860 6.000000
258.170680 10.000000
259.213560 6.000000
263.128390 6.000000
265.168090 9.000000
266.050020 8.000000
266.084170 6.000000
266.140780 11.000000
267.107420 8.000000
269.061160 15.000000
269.084290 8.000000
269.119510 7.000000
269.890320 7.000000
270.075590 8.000000
270.100980 14.000000
270.132810 7.000000
271.076200 16.000000
271.100100 41.000000
271.156220 6.000000
272.085850 6.000000
272.096920 17.000000
273.075840 8.000000
273.085970 6.000000
273.107330 7.000000
277.120880 14.000000
278.083860 11.000000
279.129090 8.000000
280.147220 8.000000
282.128690 17.000000
283.059750 12.000000
283.092740 15.000000
284.103970 15.000000
284.119260 31.000000
285.064610 7.000000
285.090520 30.000000
285.104580 10.000000
285.112820 6.000000
285.126650 10.000000
286.099910 13.000000
286.122590 21.000000
287.089020 6.000000
287.101960 13.000000
287.117520 14.000000
287.137330 24.000000
288.082370 11.000000
288.108280 14.000000
289.072110 7.000000
289.104220 8.000000
289.129030 6.000000
290.127690 6.000000
293.114960 7.000000
294.026640 9.000000
294.110990 7.000000
294.125060 7.000000
295.098910 19.000000
295.129670 9.000000
295.145420 7.000000
296.093630 7.000000
296.114750 11.000000
296.882050 8.000000
297.074160 16.000000
297.087680 7.000000
297.118130 7.000000
297.149170 11.000000
297.166290 9.000000
298.018920 7.000000
298.085910 30.000000
298.118620 40.000000
298.369900 10.000000
299.065860 6.000000
299.089050 17.000000
299.103700 15.000000
299.128390 43.000000
299.138580 20.000000
299.158600 9.000000
300.076900 15.000000
300.105990 32.000000
300.125610 33.000000
301.086520 7.000000
301.103790 41.000000
301.114590 19.000000
301.150600 15.000000
301.835780 10.000000
302.095280 7.000000
302.110570 36.000000
302.126100 15.000000
302.152470 7.000000
303.100280 9.000000
303.119380 47.000000
303.141390 14.000000
304.126430 6.000000
305.083440 7.000000
305.118070 6.000000
306.122800 22.000000
307.085750 9.000000
307.106140 6.000000
307.136230 17.000000
308.143520 6.000000
308.161410 7.000000
309.099430 6.000000
309.149600 22.000000
309.196690 6.000000
310.086030 7.000000
310.118130 10.000000
310.144350 6.000000
310.159390 17.000000
310.259310 6.000000
311.091370 12.000000
311.116180 16.000000
311.142180 8.000000
311.177430 10.000000
312.101870 18.000000
312.127200 7.000000
312.144200 33.000000
312.853640 6.000000
313.094120 8.000000
313.112790 72.000000
313.303280 7.000000
314.112790 83.000000
314.127840 25.000000
315.079040 10.000000
315.091130 21.000000
315.125550 425.000000
315.151370 13.000000
316.084320 29.000000
316.097560 49.000000
316.122560 47.000000
316.138030 67.000000
316.459470 9.000000
316.486110 7.000000
317.026860 7.000000
317.089900 21.000000
317.111510 11.000000
317.129700 21.000000
317.169220 10.000000
318.108370 7.000000
318.118990 9.000000
318.129820 7.000000
320.111020 7.000000
321.007050 7.000000
321.093230 7.000000
321.102840 20.000000
321.127660 15.000000
321.148620 12.000000
322.112400 23.000000
322.121280 74.000000
322.152250 101.000000
322.167910 100.000000
322.832000 8.000000
323.105530 6.000000
323.120270 6.000000
323.142430 10.000000
323.161350 70.000000
324.132260 13.000000
324.149900 38.000000
324.179530 6.000000
324.666260 6.000000
325.109860 7.000000
325.138370 9.000000
325.148410 35.000000
325.159940 17.000000
325.186220 12.000000
326.136410 6.000000
326.152160 6.000000
326.588230 6.000000
327.075840 6.000000
327.090180 7.000000
327.113280 56.000000
327.125000 67.000000
327.140080 36.000000
327.164730 26.000000
328.067960 7.000000
328.132140 372.000000
329.096980 49.000000
329.136630 99.000000
330.090000 12.000000
330.104460 28.000000
330.117160 13.000000
330.131380 29.000000
330.150180 120.000000
331.120790 384.000000
331.152130 56.000000
331.263150 7.000000
331.665860 7.000000
331.859280 7.000000
332.125090 348.000000
332.166530 6.000000
333.117030 24.000000
333.132170 23.000000
333.146090 40.000000
334.125760 8.000000
334.141200 7.000000
334.664790 9.000000
336.132540 16.000000
337.108460 18.000000
337.127470 14.000000
337.145200 76.000000
337.348050 6.000000
338.100010 7.000000
338.114590 14.000000
338.153560 545.000000
338.183040 6.000000
339.118500 11.000000
339.134160 28.000000
339.148650 37.000000
339.162750 26.000000
340.097110 10.000000
340.129940 23.000000
340.153470 15.000000
340.171510 20.000000
340.572780 6.000000
341.117770 7.000000
341.137880 32.000000
341.149320 43.000000
341.164890 17.000000
341.184080 34.000000
341.230190 8.000000
341.644870 8.000000
342.144990 320.000000
342.165990 54.000000
342.181610 14.000000
342.978910 6.000000
343.077450 6.000000
343.110570 12.000000
343.121310 27.000000
343.137790 79.000000
343.156590 111.000000
344.088750 11.000000
344.119720 90.000000
344.151400 41.000000
344.833860 14.000000
344.997410 8.000000
345.080510 6.000000
345.092930 7.000000
345.130370 51.000000
345.172030 6.000000
346.066040 7.000000
346.085240 11.000000
346.106720 6.000000
346.144900 530.000000
347.090760 7.000000
347.113530 13.000000
347.144810 114.000000
347.156280 40.000000
348.141780 42.000000
348.923800 6.000000
349.140660 8.000000
351.162350 14.000000
352.125520 6.000000
352.140990 6.000000
352.168910 48.000000
352.190980 8.000000
352.336980 6.000000
353.089940 6.000000
353.123110 17.000000
353.174290 515.000000
353.909580 18.000000
353.978580 8.000000
354.135010 51.000000
354.150510 79.000000
354.178960 98.000000
354.194490 36.000000
354.629850 6.000000
355.138370 23.000000
355.151580 33.000000
355.174100 21.000000
355.204220 6.000000
356.164980 46.000000
357.111910 7.000000
357.136080 38.000000
357.193510 6.000000
358.117980 7.000000
358.135560 54.000000
358.151820 40.000000
358.176180 14.000000
358.242340 8.000000
359.123600 9.000000
359.139890 31.000000
359.156770 31.000000
359.179660 7.000000
360.137540 14.000000
360.149990 8.000000
360.177280 6.000000
360.192780 6.000000
363.201140 8.000000
367.780980 9.000000
368.154210 65.000000
368.177060 11.000000
369.126460 13.000000
369.169620 1000.000000
369.255490 7.000000
369.955110 8.000000
370.090240 7.000000
370.148500 44.000000
370.172180 270.000000
371.129210 8.000000
371.140350 28.000000
371.172330 83.000000
371.195740 12.000000
372.154210 37.000000
372.175600 24.000000
373.140530 14.000000
373.167880 78.000000
375.178010 6.000000
376.127750 6.000000
382.933690 6.000000
383.145840 6.000000
383.173430 19.000000
384.145690 9.000000
384.192660 586.000000
384.266540 7.000000
385.133910 8.000000
385.164490 121.000000
385.195010 179.000000
385.211060 87.000000
385.424680 6.000000
386.156830 39.000000
386.177460 39.000000
386.361330 9.000000
387.117400 7.000000
387.177730 39.000000
387.202360 8.000000
389.199710 15.000000
390.193630 7.000000
400.165830 13.000000
400.181300 34.000000
400.197720 82.000000
401.168300 6.000000
401.195800 12.000000
401.460570 6.000000
415.190770 16.000000
415.217160 34.000000
415.944270 9.000000
416.205930 12.000000
433.199860 7.000000

>ms2
75.043330 45.000000
83.050680 35.000000
105.070080 37.000000
116.068410 39.000000
117.066940 53.000000
119.091030 64.000000
119.275700 39.000000
121.062390 49.000000
129.065520 39.000000
140.067990 47.000000
141.062850 55.000000
145.101260 41.000000
147.055130 55.000000
148.049510 37.000000
152.059830 37.000000
153.073940 43.000000
155.046890 41.000000
157.059720 86.000000
158.063020 37.000000
158.075030 64.000000
160.121570 43.000000
161.062640 96.000000
161.141970 33.000000
165.044310 35.000000
165.072910 104.000000
167.055690 80.000000
167.066210 33.000000
168.054210 45.000000
168.077910 33.000000
169.052400 35.000000
169.068630 45.000000
170.071060 33.000000
172.047580 64.000000
173.067380 39.000000
175.013810 35.000000
175.070820 37.000000
177.077550 39.000000
180.088000 39.000000
181.066010 217.000000
181.082630 64.000000
181.105580 37.000000
182.021240 37.000000
182.028000 47.000000
182.081090 41.000000
182.112030 41.000000
183.063260 39.000000
183.079060 82.000000
183.087720 107.000000
183.792210 41.000000
184.084820 64.000000
185.051150 33.000000
185.059480 109.000000
186.049160 33.000000
186.062820 33.000000
186.074040 39.000000
186.512600 33.000000
188.061140 39.000000
188.092220 47.000000
188.328580 43.000000
189.091830 41.000000
190.070160 39.000000
191.085880 105.000000
192.102020 35.000000
193.089570 37.000000
194.057650 45.000000
195.082120 94.000000
196.051510 35.000000
196.086670 68.000000
196.678960 39.000000
197.051010 57.000000
197.062060 191.000000
197.130770 84.000000
197.473650 64.000000
198.068120 184.000000
198.114790 39.000000
199.069490 33.000000
199.080960 244.000000
200.052370 41.000000
200.080110 94.000000
201.078220 88.000000
201.096770 100.000000
202.051320 39.000000
202.098050 49.000000
202.825760 39.000000
203.082550 33.000000
205.084880 33.000000
207.078190 47.000000
207.123790 47.000000
208.084990 47.000000
208.092060 49.000000
209.061740 88.000000
209.086850 41.000000
209.098690 33.000000
210.050160 43.000000
210.067490 33.000000
211.038560 33.000000
211.072920 213.000000
211.083040 39.000000
211.115570 47.000000
212.044530 55.000000
212.060040 80.000000
212.080370 273.000000
213.042590 139.000000
213.079610 37.000000
214.039630 59.000000
214.049990 47.000000
214.068770 346.000000
214.096390 68.000000
215.062810 113.000000
215.108510 59.000000
216.089080 33.000000
216.113190 33.000000
217.055020 35.000000
217.085080 35.000000
217.092760 35.000000
218.063100 41.000000
218.106340 33.000000
219.077770 76.000000
220.086760 119.000000
220.883120 96.000000
221.057130 74.000000
222.061900 33.000000
222.095090 41.000000
222.626340 41.000000
223.040910 100.000000
223.080720 96.000000
223.105270 135.000000
223.571320 55.000000
224.046010 35.000000
224.069660 43.000000
224.076290 96.000000
224.089360 148.000000
224.122330 59.000000
225.066960 39.000000
225.077100 121.000000
225.091600 219.000000
225.107710 59.000000
226.052050 35.000000
226.063520 137.000000
226.083720 39.000000
227.070690 312.000000
227.103230 33.000000
228.035130 74.000000
228.082430 369.000000
228.111360 111.000000
229.062410 33.000000
229.077190 41.000000
229.090700 238.000000
230.049330 64.000000
231.065310 53.000000
231.081970 49.000000
232.060850 41.000000
233.096590 109.000000
235.069490 80.000000
235.081620 49.000000
235.094740 90.000000
236.071260 39.000000
236.090100 35.000000
236.131880 35.000000
237.057800 68.000000
237.078950 139.000000
237.091320 76.000000
237.128920 53.000000
238.051010 109.000000
238.059250 33.000000
238.097140 33.000000
239.067920 314.000000
239.083390 55.000000
239.096180 109.000000
239.110170 115.000000
240.063200 107.000000
240.076250 98.000000
240.097920 35.000000
241.049150 344.000000
241.080060 521.000000
241.091980 307.000000
241.735080 41.000000
242.035930 35.000000
242.060120 125.000000
242.086940 35.000000
242.098540 39.000000
242.106770 47.000000
242.990860 39.000000
243.063400 236.000000
243.094510 205.000000
243.112430 49.000000
243.176120 41.000000
244.044040 35.000000
244.076980 33.000000
244.107970 107.000000
245.030400 37.000000
245.059460 33.000000
245.080150 428.000000
245.113920 33.000000
246.082080 43.000000
247.070110 109.000000
247.083080 76.000000
247.100850 35.000000
247.116700 39.000000
247.126630 33.000000
248.050430 39.000000
248.079650 72.000000
248.112930 62.000000
249.037930 33.000000
249.094070 254.000000
249.108960 45.000000
249.130680 53.000000
250.092470 145.000000
250.104740 43.000000
250.140230 49.000000
250.852040 45.000000
251.043910 33.000000
251.058500 35.000000
251.069460 215.000000
251.103790 174.000000
251.115200 41.000000
251.146960 35.000000
252.063320 70.000000
252.076230 84.000000
252.086810 53.000000
253.050780 119.000000
253.083360 162.000000
253.102950 35.000000
253.116930 33.000000
253.964290 33.000000
254.006260 33.000000
254.023700 35.000000
254.065380 76.000000
254.094640 436.000000
254.988970 39.000000
255.054410 41.000000
255.072690 207.000000
255.103410 314.000000
255.120330 51.000000
255.755080 35.000000
256.029450 33.000000
256.042360 37.000000
256.059630 133.000000
256.078520 350.000000
256.107360 137.000000
256.118190 98.000000
256.130950 33.000000
257.039520 35.000000
257.081300 963.000000
257.111720 193.000000
258.055150 39.000000
258.064000 59.000000
258.083740 250.000000
259.050260 37.000000
259.070190 33.000000
259.093410 39.000000
259.106540 51.000000
259.136050 33.000000
260.022800 49.000000
260.128450 33.000000
260.151730 39.000000
261.081540 39.000000
261.100890 104.000000
261.122710 33.000000
262.088530 113.000000
262.103150 189.000000
263.068820 84.000000
263.093870 72.000000
263.112670 219.000000
264.064360 51.000000
264.073670 41.000000
264.113830 39.000000
264.123630 45.000000
265.033910 49.000000
265.056180 33.000000
265.079860 82.000000
265.091710 70.000000
265.125060 35.000000
266.093050 293.000000
266.111110 68.000000
266.123170 33.000000
266.370120 72.000000
267.036250 35.000000
267.068510 219.000000
267.095090 64.000000
267.105320 47.000000
267.131840 84.000000
268.061650 107.000000
268.076260 174.000000
268.110290 236.000000
269.042720 86.000000
269.052000 92.000000
269.069210 217.000000
269.088620 379.000000
269.110530 72.000000
269.122130 107.000000
270.043060 154.000000
270.078640 188.000000
270.091430 320.000000
270.110290 49.000000
271.040920 49.000000
271.062130 225.000000
271.088780 281.000000
271.109280 105.000000
272.040010 41.000000
272.071200 45.000000
272.084870 57.000000
272.106630 150.000000
273.070400 449.000000
273.116000 51.000000
274.066410 82.000000
274.082550 35.000000
274.096710 47.000000
275.064060 43.000000
275.099030 191.000000
275.114500 39.000000
276.092740 33.000000
276.108150 74.000000
276.118960 107.000000
276.261660 35.000000
277.069270 39.000000
277.086330 74.000000
277.108890 113.000000
277.123990 162.000000
278.084200 70.000000
278.104030 88.000000
278.122830 80.000000
278.138150 66.000000
278.205110 39.000000
279.082820 62.000000
279.100250 730.000000
279.136660 160.000000
279.154850 107.000000
279.191310 45.000000
280.104310 244.000000
280.121060 80.000000
280.143400 33.000000
281.070980 109.000000
281.082280 127.000000
281.106780 43.000000
281.123810 225.000000
281.147280 61.000000
282.078770 47.000000
282.090150 141.000000
282.104370 57.000000
282.123410 39.000000
282.370390 33.000000
283.039030 35.000000
283.065730 37.000000
283.092740 299.000000
283.113620 33.000000
284.061490 82.000000
284.076200 53.000000
284.099580 580.000000
284.113190 78.000000
284.851960 39.000000
285.027250 47.000000
285.075900 879.000000
285.101560 80.000000
285.123200 82.000000
285.999510 33.000000
286.034670 84.000000
286.081940 119.000000
286.096590 170.000000
286.112610 145.000000
287.086820 105.000000
287.129820 35.000000
288.096190 107.000000
289.072850 35.000000
289.096440 47.000000
289.140290 68.000000
290.098240 57.000000
291.099240 316.000000
291.114590 35.000000
291.136320 35.000000
291.344940 39.000000
292.105930 477.000000
292.136990 39.000000
293.067900 80.000000
293.083470 47.000000
293.110810 201.000000
293.123200 213.000000
294.084470 104.000000
294.118040 260.000000
294.138920 47.000000
295.039030 45.000000
295.093780 357.000000
295.110530 121.000000
295.126040 131.000000
295.138370 268.000000
296.094910 51.000000
296.105440 139.000000
296.128910 129.000000
296.145540 35.000000
297.067660 43.000000
297.081630 39.000000
297.094640 113.000000
297.105590 104.000000
297.139280 35.000000
297.211760 45.000000
298.036710 47.000000
298.050170 35.000000
298.066410 51.000000
298.084320 217.000000
298.113160 49.000000
298.126280 49.000000
298.644930 47.000000
299.084720 627.000000
299.123500 166.000000
299.137330 35.000000
300.083280 82.000000
300.096830 250.000000
300.109500 72.000000
300.126100 51.000000
301.073490 201.000000
301.098450 92.000000
301.119200 45.000000
302.071350 76.000000
302.086180 45.000000
302.114750 33.000000
302.541900 33.000000
302.927000 47.000000
303.110230 72.000000
303.129520 80.000000
304.086090 35.000000
304.129880 74.000000
305.114870 143.000000
306.082980 33.000000
306.115810 98.000000
306.126040 55.000000
306.140380 35.000000
307.100010 193.000000
307.122040 311.000000
307.139590 506.000000
308.058720 37.000000
308.085240 72.000000
308.104370 170.000000
308.139920 369.000000
309.109070 72.000000
309.142730 72.000000
309.158630 39.000000
310.076870 37.000000
310.095120 37.000000
310.112060 119.000000
310.152590 76.000000
311.078220 92.000000
311.094270 55.000000
311.128390 221.000000
311.151670 39.000000
312.083680 33.000000
312.101840 43.000000
312.111850 104.000000
312.130830 33.000000
312.140780 45.000000
313.073460 47.000000
313.101260 35.000000
313.114590 39.000000
314.114290 123.000000
315.087650 43.000000
315.098540 64.000000
315.122220 100.000000
315.132140 35.000000
316.090090 74.000000
316.106690 35.000000
316.123810 121.000000
317.099580 74.000000
317.128720 33.000000
321.094390 51.000000
321.121550 74.000000
321.152440 41.000000
321.354030 49.000000
322.114230 57.000000
322.158970 205.000000
322.173680 37.000000
322.351320 35.000000
323.085480 39.000000
323.107390 139.000000
323.131960 1000.000000
323.145970 338.000000
323.167420 105.000000
323.181240 33.000000
323.832400 33.000000
324.092990 35.000000
324.104980 100.000000
324.122100 113.000000
324.140290 275.000000
324.798100 33.000000
325.118560 174.000000
325.138180 43.000000
325.192540 33.000000
326.125490 74.000000
326.151210 57.000000
327.094730 41.000000
327.116790 139.000000
329.093540 33.000000
329.134520 33.000000
329.151180 39.000000
330.111570 98.000000
330.199710 35.000000
332.112950 39.000000
336.139130 51.000000
337.145970 41.000000
338.128170 68.000000
338.145630 320.000000
338.160770 184.000000
339.110900 98.000000
339.120880 135.000000
339.137050 90.000000
339.154720 145.000000
339.164760 45.000000
340.130860 70.000000
341.109130 35.000000
341.134120 62.000000
341.193270 41.000000
342.153750 47.000000
343.133120 39.000000
343.145450 35.000000
345.133820 68.000000
354.127170 39.000000
354.138550 33.000000
354.192810 33.000000
355.122280 35.000000
355.152440 33.000000
356.159240 33.000000
358.136080 39.000000

>ms2
243.101680 8.000000
257.079130 8.000000
266.099180 8.000000
271.096370 6.000000
272.100950 8.000000
282.098660 7.000000
283.083680 5.000000
283.104770 6.000000
285.069520 9.000000
285.085970 7.000000
286.115170 5.000000
288.090030 6.000000
299.086760 7.000000
300.099700 11.000000
300.137210 21.000000
301.107700 17.000000
302.103060 9.000000
303.112000 5.000000
303.126590 12.000000
307.140990 7.000000
310.116390 6.000000
310.155760 9.000000
311.083560 6.000000
311.124820 7.000000
313.098210 6.000000
313.112670 19.000000
315.124850 38.000000
316.104710 10.000000
322.101590 5.000000
322.150670 28.000000
322.170350 15.000000
323.127200 7.000000
323.166470 10.000000
324.166470 5.000000
325.144440 9.000000
327.109310 5.000000
327.118620 12.000000
327.146210 8.000000
328.127780 30.000000
329.105620 15.000000
329.125920 14.000000
329.138120 9.000000
330.142910 38.000000
331.115720 37.000000
332.115840 10.000000
332.133150 6.000000
333.127780 6.000000
338.148470 54.000000
338.163090 23.000000
339.145260 15.000000
340.156800 7.000000
341.118500 6.000000
341.146180 14.000000
341.165530 6.000000
342.145260 38.000000
343.141110 7.000000
343.153720 9.000000
344.122740 9.000000
345.120060 7.000000
345.143430 11.000000
346.140260 98.000000
347.134890 12.000000
347.146180 11.000000
348.160250 5.000000
352.156950 5.000000
353.140080 8.000000
353.166560 13.000000
353.182770 34.000000
354.139950 27.000000
354.179900 10.000000
355.147460 9.000000
356.163150 6.000000
357.162540 7.000000
357.180300 6.000000
358.130800 5.000000
358.149440 7.000000
359.149690 38.000000
360.137700 6.000000
360.147770 9.000000
361.156800 11.000000
361.172910 6.000000
369.171170 110.000000
370.149840 9.000000
370.179410 28.000000
371.178190 10.000000
372.151950 16.000000
373.161680 34.000000
373.181180 6.000000
383.193570 9.000000
384.192600 321.000000
385.156310 13.000000
385.187740 74.000000
385.205900 26.000000
386.186950 15.000000
400.183650 39.000000
402.192960 6.000000
415.210570 1000.000000
416.210910 218.000000
417.217320 20.000000
432.196170 18.000000
432.212400 51.000000
432.235230 8.000000
433.214050 109.000000
433.232570 28.000000

>ms2
361.170810 6.000000
400.189580 9.000000
415.211330 1000.000000
416.216190 233.000000
417.210570 14.000000
417.229640 15.000000
432.212160 90.000000
432.225310 28.000000
433.222470 304.000000

>ms2
69.072810 22.000000
93.066060 10.000000
125.061910 11.000000
151.079070 13.000000
166.067140 13.000000
166.074970 10.000000
178.093810 11.000000
181.079930 10.000000
181.097060 23.000000
182.094970 12.000000
205.764370 25.000000
211.207810 11.000000
219.006900 10.000000
219.104020 20.000000
221.134750 11.000000
223.105160 11.000000
233.074420 10.000000
233.119630 12.000000
235.137190 18.000000
237.945070 10.000000
242.093980 11.000000
243.094790 11.000000
244.072680 15.000000
244.114400 10.000000
247.801990 10.000000
249.105850 11.000000
250.095470 19.000000
253.068190 11.000000
254.103330 15.000000
256.077640 10.000000
256.110470 10.000000
257.107090 11.000000
258.094240 15.000000
261.995850 10.000000
265.078640 10.000000
266.140810 12.000000
268.105470 10.000000
269.079930 12.000000
269.118650 22.000000
269.158750 10.000000
270.126620 10.000000
271.089510 10.000000
271.102840 10.000000
271.133120 10.000000
272.110780 15.000000
273.104710 12.000000
275.090700 11.000000
275.568600 10.000000
276.203980 13.000000
281.150480 25.000000
283.099240 12.000000
284.085020 10.000000
284.147000 10.000000
284.600680 12.000000
285.110350 31.000000
285.132780 14.000000
286.068050 10.000000
286.112980 11.000000
287.129390 35.000000
287.141820 10.000000
288.058290 10.000000
288.104860 21.000000
289.100830 10.000000
291.104160 11.000000
291.145200 12.000000
292.118010 12.000000
293.130100 10.000000
294.009610 12.000000
294.120670 44.000000
294.133090 10.000000
295.116640 10.000000
296.108730 10.000000
296.122830 10.000000
296.150970 10.000000
296.890690 10.000000
297.099090 10.000000
298.108610 12.000000
298.118870 10.000000
298.133000 10.000000
299.123570 19.000000
300.035340 12.000000
300.092900 56.000000
300.115260 10.000000
300.558380 13.000000
301.115630 51.000000
302.103700 10.000000
302.156070 11.000000
303.118160 13.000000
305.120000 10.000000
306.131560 11.000000
307.153590 10.000000
308.090610 11.000000
309.103300 11.000000
309.136510 10.000000
309.154660 20.000000
309.683650 10.000000
310.130370 10.000000
310.150670 26.000000
311.129670 18.000000
312.089970 11.000000
312.101010 29.000000
312.118870 12.000000
312.131260 25.000000
312.142400 29.000000
312.375890 10.000000
313.106810 80.000000
313.118230 50.000000
313.146640 10.000000
314.092710 10.000000
314.105130 30.000000
314.133970 22.000000
315.091770 22.000000
315.123020 270.000000
315.152370 18.000000
315.169460 11.000000
315.744480 14.000000
316.093900 58.000000
316.113950 55.000000
316.132230 43.000000
316.847500 10.000000
317.109680 10.000000
317.127170 11.000000
317.138980 10.000000
319.129060 13.000000
320.141820 10.000000
320.152650 10.000000
321.116150 29.000000
321.912410 21.000000
322.004240 10.000000
322.114620 37.000000
322.151180 49.000000
322.161410 118.000000
322.180420 10.000000
323.060210 19.000000
323.128810 11.000000
323.148960 20.000000
323.164950 22.000000
324.140660 12.000000
324.171050 28.000000
324.178470 12.000000
325.125490 10.000000
325.138850 22.000000
325.154240 13.000000
326.103910 11.000000
326.143460 47.000000
327.095120 13.000000
327.122310 83.000000
327.149810 23.000000
327.157960 10.000000
328.131500 288.000000
329.093540 33.000000
329.108090 77.000000
329.137330 93.000000
329.163600 10.000000
330.111630 32.000000
330.145690 345.000000
330.408600 11.000000
331.071140 10.000000
331.112670 137.000000
331.125920 56.000000
331.141570 10.000000
331.163970 23.000000
332.118040 89.000000
332.133360 91.000000
333.122130 19.000000
333.141690 35.000000
334.714630 10.000000
335.132970 12.000000
336.139070 10.000000
336.569980 12.000000
337.114320 17.000000
337.132840 38.000000
337.152770 91.000000
338.147000 366.000000
338.160710 135.000000
338.949580 12.000000
339.071750 10.000000
339.116730 10.000000
339.156160 79.000000
339.169860 58.000000
340.152740 29.000000
340.166530 12.000000
340.286040 10.000000
341.070740 14.000000
341.135800 32.000000
341.147250 37.000000
341.165250 11.000000
342.110530 11.000000
342.146610 458.000000
342.191130 33.000000
342.221650 10.000000
343.096250 19.000000
343.116180 54.000000
343.150760 102.000000
343.168730 10.000000
344.114780 44.000000
344.133030 46.000000
344.164980 22.000000
345.112090 10.000000
345.133910 90.000000
345.149170 21.000000
346.085780 20.000000
346.110350 26.000000
346.140050 429.000000
346.153810 123.000000
346.237210 14.000000
347.142670 25.000000
347.151060 41.000000
348.150300 20.000000
349.130520 10.000000
350.524570 16.000000
352.126740 10.000000
352.161440 31.000000
352.172850 19.000000
353.072330 10.000000
353.135710 80.000000
353.176640 468.000000
354.145780 77.000000
354.159480 82.000000
354.178590 113.000000
354.211240 10.000000
355.138060 22.000000
355.153690 20.000000
355.166840 10.000000
355.194000 13.000000
356.130920 14.000000
356.173400 41.000000
357.113040 10.000000
357.132020 31.000000
357.164430 13.000000
357.244570 10.000000
358.010250 14.000000
358.144200 47.000000
358.158200 10.000000
358.179200 28.000000
359.140620 64.000000
359.154330 32.000000
359.186000 11.000000
359.227810 10.000000
360.143460 10.000000
362.165740 19.000000
366.371190 13.000000
367.139220 11.000000
368.171080 35.000000
368.199310 10.000000
369.125730 32.000000
369.171330 1000.000000
370.174100 141.000000
371.142520 10.000000
371.158050 20.000000
371.178040 10.000000
372.146550 12.000000
372.168120 13.000000
373.171330 11.000000
374.140350 17.000000
374.170140 20.000000
383.195500 10.000000
384.167690 57.000000
384.192600 573.000000
384.206300 135.000000
385.153590 86.000000
385.192110 213.000000
385.233340 10.000000
385.248990 10.000000
385.361450 10.000000
386.146450 10.000000
386.161070 29.000000
386.175810 40.000000
386.189700 19.000000
386.209690 10.000000
387.206390 11.000000
400.179380 62.000000
400.200590 53.000000
400.629820 11.000000
401.695500 10.000000
432.592860 10.000000

>ms2
85.026500 63.000000
115.054470 67.000000
122.065670 98.000000
130.080890 67.000000
139.075560 79.000000
145.060680 79.000000
148.056210 91.000000
153.070830 79.000000
158.672160 79.000000
160.053050 63.000000
161.385030 79.000000
165.056880 63.000000
167.063350 75.000000
169.071700 150.000000
171.327940 138.000000
173.094540 67.000000
180.080720 150.000000
181.060900 83.000000
182.079180 63.000000
183.024720 63.000000
183.081950 71.000000
184.047580 75.000000
184.083660 63.000000
185.056820 67.000000
190.073030 67.000000
191.069030 87.000000
195.070630 67.000000
197.059740 228.000000
197.073530 75.000000
197.088230 63.000000
197.801350 67.000000
198.065920 63.000000
199.071670 165.000000
199.079650 244.000000
200.069610 63.000000
200.090130 94.000000
201.092830 83.000000
202.060240 67.000000
202.102280 79.000000
203.085250 63.000000
204.072430 91.000000
205.082210 75.000000
205.093550 67.000000
209.060240 63.000000
209.071910 67.000000
209.100480 240.000000
210.138500 71.000000
211.071810 165.000000
211.088730 67.000000
212.050170 126.000000
212.074100 67.000000
212.082790 138.000000
212.088810 63.000000
213.043690 67.000000
213.052760 169.000000
213.074070 114.000000
213.083390 205.000000
213.097610 126.000000
214.018360 63.000000
214.054530 63.000000
214.100110 71.000000
215.031690 63.000000
215.061420 63.000000
215.076780 87.000000
217.079850 154.000000
218.063800 130.000000
218.074600 102.000000
218.112120 75.000000
221.068590 63.000000
221.998470 71.000000
222.107250 75.000000
223.081440 71.000000
223.117890 67.000000
224.081850 201.000000
224.093340 75.000000
224.477050 63.000000
225.008710 71.000000
225.035320 98.000000
225.047740 63.000000
225.060130 67.000000
225.090770 63.000000
226.059780 106.000000
226.088870 276.000000
227.065890 63.000000
227.078630 63.000000
227.090730 63.000000
227.100160 75.000000
228.080700 272.000000
229.078030 79.000000
230.056270 134.000000
232.556880 67.000000
233.059280 67.000000
233.096660 102.000000
234.067830 138.000000
234.096820 71.000000
235.078770 63.000000
236.128010 67.000000
237.078250 67.000000
237.091000 63.000000
237.181200 98.000000
238.070110 98.000000
238.081450 67.000000
239.065200 71.000000
239.105450 87.000000
239.618190 63.000000
240.068190 63.000000
240.081130 126.000000
240.091380 71.000000
241.014240 63.000000
241.050460 220.000000
241.058120 83.000000
241.071350 63.000000
241.090350 516.000000
241.112410 75.000000
242.057110 63.000000
242.092030 480.000000
242.245000 75.000000
243.070560 63.000000
243.089660 79.000000
243.099620 67.000000
244.113390 94.000000
245.072140 63.000000
245.088380 217.000000
247.097430 67.000000
247.111880 130.000000
249.099200 63.000000
249.122630 71.000000
250.078700 193.000000
250.101320 126.000000
251.082260 91.000000
251.111340 272.000000
252.074160 154.000000
252.097210 94.000000
252.111790 63.000000
252.634230 71.000000
253.073140 177.000000
253.088070 291.000000
254.047420 197.000000
254.062910 220.000000
254.087810 102.000000
254.097550 67.000000
255.072200 150.000000
255.095830 205.000000
255.101780 508.000000
256.071040 118.000000
256.088440 154.000000
256.105350 134.000000
256.117430 67.000000
257.061310 75.000000
257.079100 1000.000000
257.094210 185.000000
257.135280 79.000000
257.153530 67.000000
257.656520 83.000000
258.067960 79.000000
258.091950 512.000000
259.712680 83.000000
260.171080 83.000000
261.099370 130.000000
262.085690 63.000000
262.101410 224.000000
262.178040 91.000000
263.064940 83.000000
263.073940 63.000000
263.107480 209.000000
264.094850 67.000000
264.114720 260.000000
264.133820 75.000000
265.074250 276.000000
265.092680 79.000000
265.112880 79.000000
265.129270 94.000000
266.102750 67.000000
266.129700 157.000000
267.064940 63.000000
267.093780 118.000000
267.106900 189.000000
267.145200 63.000000
267.158750 63.000000
268.062740 63.000000
268.073550 197.000000
268.103360 339.000000
268.118380 134.000000
269.045170 75.000000
269.065490 291.000000
269.079590 374.000000
269.105100 157.000000
269.117490 142.000000
270.059840 122.000000
270.081850 587.000000
270.090330 232.000000
271.025910 63.000000
271.052550 150.000000
271.076170 75.000000
271.096890 366.000000
272.057800 63.000000
272.084230 181.000000
272.104280 240.000000
273.078400 402.000000
273.093900 67.000000
274.069550 75.000000
274.978450 114.000000
275.110500 67.000000
276.079350 114.000000
276.095700 63.000000
276.116330 79.000000
276.136470 126.000000
276.173950 67.000000
277.124820 291.000000
278.139250 256.000000
279.068540 67.000000
279.116520 94.000000
279.134000 201.000000
280.112950 402.000000
281.075620 185.000000
281.120970 142.000000
282.036830 114.000000
282.062680 197.000000
282.090240 260.000000
283.059420 71.000000
283.080350 157.000000
283.092620 83.000000
283.110960 276.000000
283.136750 142.000000
284.088500 201.000000
284.107120 350.000000
284.122440 362.000000
285.028140 79.000000
285.037870 110.000000
285.071690 394.000000
285.088070 79.000000
285.105440 79.000000
286.049710 252.000000
286.113280 63.000000
287.090610 63.000000
287.122620 71.000000
288.093200 67.000000
289.059780 67.000000
289.128360 71.000000
290.100800 63.000000
290.124210 83.000000
291.080810 67.000000
291.095310 126.000000
291.121520 299.000000
292.108090 535.000000
292.120510 268.000000
293.091770 71.000000
293.104950 142.000000
293.125370 421.000000
294.116000 63.000000
294.130070 248.000000
295.065920 130.000000
295.096440 142.000000
295.135190 543.000000
296.104920 142.000000
296.126370 63.000000
297.073150 181.000000
297.092220 71.000000
297.106350 63.000000
298.087460 63.000000
298.129850 130.000000
299.045010 83.000000
299.089230 83.000000
299.098790 63.000000
299.128300 134.000000
300.096070 331.000000
301.087800 67.000000
301.122770 79.000000
302.111080 130.000000
303.077580 150.000000
303.116420 224.000000
305.124820 87.000000
306.107700 79.000000
306.121830 276.000000
307.080750 161.000000
307.097080 650.000000
307.129550 323.000000
307.141450 421.000000
308.098140 63.000000
308.107910 71.000000
308.143740 205.000000
309.154970 197.000000
310.114720 134.000000
310.135500 134.000000
310.160000 138.000000
311.101070 150.000000
311.118160 110.000000
312.081700 114.000000
313.101350 154.000000
313.114170 197.000000
314.074980 63.000000
314.115690 71.000000
314.129330 75.000000
315.105320 63.000000
315.115940 79.000000
315.555850 67.000000
316.072300 63.000000
316.095430 146.000000
316.123470 63.000000
320.108950 63.000000
321.073460 71.000000
321.152280 71.000000
322.153290 169.000000
322.173650 67.000000
323.066590 67.000000
323.088410 63.000000
323.122220 535.000000
323.134340 618.000000
323.162480 63.000000
324.119260 374.000000
325.103940 67.000000
325.117340 71.000000
328.147550 67.000000
329.142580 134.000000
330.137330 67.000000
336.142300 91.000000
338.149600 63.000000
339.123630 264.000000
339.140500 189.000000
341.128750 63.000000
341.166600 67.000000
342.108280 94.000000
343.167510 71.000000
344.181580 63.000000
345.138920 63.000000
353.140440 71.000000
354.145840 63.000000
355.115940 134.000000
358.799560 126.000000
366.190120 79.000000
369.170380 67.000000
370.165590 71.000000

>ms2
115.703680 5.000000
199.089080 5.000000
255.100230 6.000000
271.100190 14.000000
272.104950 16.000000
274.071560 7.000000
282.092220 5.000000
283.099370 11.000000
284.102600 7.000000
285.076810 5.000000
285.109310 6.000000
286.098480 5.000000
287.096560 8.000000
288.096470 10.000000
292.127110 5.000000
293.088840 7.000000
294.121190 6.000000
298.117890 9.000000
299.097230 15.000000
299.117740 18.000000
299.134860 7.000000
300.103120 12.000000
301.087280 7.000000
301.110350 11.000000
302.124730 5.000000
306.123810 9.000000
307.137510 11.000000
311.123990 5.000000
313.098210 6.000000
313.117400 12.000000
314.113620 9.000000
314.124300 8.000000
315.114010 10.000000
315.125640 16.000000
317.095060 7.000000
317.155360 6.000000
322.134250 6.000000
322.150850 28.000000
322.161770 11.000000
323.108340 7.000000
323.129790 21.000000
323.165650 5.000000
327.121950 11.000000
327.135710 10.000000
328.116550 13.000000
328.134770 41.000000
329.106140 10.000000
329.136140 26.000000
330.112400 11.000000
330.149840 38.000000
331.118740 20.000000
332.119660 24.000000
338.111360 6.000000
338.150970 86.000000
339.114170 9.000000
339.128690 11.000000
341.134030 9.000000
341.174740 24.000000
342.145510 33.000000
343.115840 9.000000
343.151030 20.000000
344.125030 6.000000
344.143590 6.000000
344.158230 7.000000
345.139430 7.000000
346.132510 42.000000
346.148680 54.000000
346.615600 5.000000
347.144260 19.000000
347.157960 8.000000
348.138850 5.000000
348.161220 9.000000
353.131560 16.000000
353.172330 32.000000
353.188350 7.000000
354.137790 9.000000
354.176820 8.000000
354.191560 6.000000
355.150540 18.000000
357.166810 8.000000
358.125760 9.000000
358.141510 14.000000
358.169950 6.000000
358.182620 8.000000
359.147400 30.000000
359.164370 6.000000
360.146610 8.000000
369.169620 117.000000
370.178380 19.000000
372.145080 5.000000
372.186920 5.000000
373.164950 31.000000
373.181300 6.000000
374.157260 5.000000
374.176910 9.000000
384.191250 395.000000
385.158420 10.000000
385.193850 83.000000
386.173250 7.000000
386.190310 10.000000
400.169980 11.000000
400.181300 30.000000
401.192540 8.000000
401.209870 8.000000
402.189700 10.000000
415.157260 6.000000
415.179810 18.000000
415.211640 1000.000000
416.191500 18.000000
416.212890 245.000000
417.207980 7.000000
417.224850 17.000000
432.173430 5.000000
432.213320 59.000000
433.171140 8.000000
433.190640 8.000000
433.217990 169.000000

>ms2
384.191960 7.000000
401.188200 5.000000
415.164700 8.000000
415.212280 1000.000000
416.214870 256.000000
417.214810 22.000000
432.215700 86.000000
433.219570 294.000000

>ms2
69.067830 9.000000
105.056500 8.000000
125.060240 8.000000
137.103880 8.000000
147.083890 8.000000
151.619030 10.000000
168.079880 8.000000
173.084810 9.000000
177.142680 9.000000
178.093780 8.000000
180.070970 8.000000
182.083040 9.000000
187.062120 11.000000
190.099120 10.000000
195.101240 8.000000
200.303410 8.000000
204.094850 9.000000
204.103670 8.000000
216.103270 8.000000
220.104350 8.000000
229.083540 12.000000
229.123640 9.000000
232.106950 11.000000
235.141600 9.000000
241.126950 10.000000
244.069700 8.000000
245.109950 9.000000
254.479400 18.000000
255.106090 8.000000
256.067630 8.000000
256.082430 10.000000
257.077210 8.000000
257.119930 11.000000
259.003720 8.000000
259.089020 24.000000
261.088990 8.000000
261.102050 8.000000
261.346890 8.000000
263.096740 8.000000
265.118440 8.000000
266.085630 8.000000
267.091460 9.000000
267.134740 8.000000
269.078640 18.000000
269.104980 8.000000
269.115230 8.000000
270.081050 10.000000
270.111240 17.000000
271.094700 26.000000
271.106260 8.000000
272.111080 9.000000
274.075560 8.000000
274.522490 16.000000
276.099000 11.000000
277.112820 8.000000
277.133270 8.000000
278.132050 10.000000
279.133000 16.000000
281.789830 10.000000
282.098570 11.000000
283.085450 8.000000
283.102780 9.000000
283.126190 11.000000
284.100400 36.000000
284.135590 9.000000
284.146940 8.000000
285.016880 15.000000
285.072020 8.000000
285.085780 8.000000
285.108950 38.000000
286.109710 8.000000
286.119870 8.000000
287.121220 8.000000
287.132320 10.000000
287.164580 13.000000
288.110380 16.000000
291.691770 11.000000
293.074040 8.000000
295.742520 8.000000
296.098300 10.000000
296.109990 19.000000
298.118800 8.000000
298.140380 8.000000
298.150790 8.000000
299.080780 23.000000
299.098630 11.000000
299.113710 9.000000
299.124050 19.000000
299.140350 33.000000
300.076170 8.000000
300.105740 68.000000
300.128450 11.000000
301.076660 9.000000
301.099950 47.000000
301.119200 12.000000
303.090610 9.000000
305.095860 9.000000
305.113100 8.000000
305.137820 10.000000
306.114560 8.000000
306.143070 8.000000
307.110750 9.000000
307.125000 8.000000
307.142700 13.000000
307.731480 10.000000
308.125430 9.000000
309.111510 16.000000
309.143710 8.000000
309.153660 9.000000
310.101410 8.000000
310.127410 25.000000
310.151700 8.000000
310.166110 16.000000
311.082120 8.000000
311.101010 29.000000
311.128600 51.000000
311.688870 8.000000
312.075560 8.000000
312.137450 37.000000
312.160680 10.000000
312.285520 12.000000
313.106320 151.000000
313.128690 8.000000
313.215210 8.000000
314.070560 8.000000
314.113950 81.000000
314.244720 8.000000
314.923400 8.000000
315.113590 171.000000
315.132750 113.000000
315.185060 9.000000
316.087310 57.000000
316.129360 51.000000
317.101040 30.000000
318.121090 9.000000
318.131040 8.000000
320.128630 10.000000
320.141750 8.000000
321.096680 9.000000
321.113590 9.000000
321.123570 8.000000
321.138030 19.000000
322.106930 8.000000
322.117950 37.000000
322.141050 26.000000
322.161380 100.000000
323.080110 10.000000
323.110410 9.000000
323.141240 51.000000
323.153020 67.000000
323.169010 8.000000
324.139770 24.000000
324.153320 10.000000
325.135560 34.000000
325.158940 9.000000
326.113220 36.000000
326.130520 11.000000
326.151430 46.000000
326.174410 8.000000
327.100620 15.000000
327.117920 72.000000
327.134250 29.000000
327.164490 33.000000
328.100650 19.000000
328.130190 388.000000
328.153590 35.000000
328.172970 8.000000
329.098910 62.000000
329.115600 58.000000
329.137330 175.000000
329.449370 8.000000
330.099370 46.000000
330.113190 32.000000
330.129700 70.000000
330.148710 107.000000
330.166930 40.000000
331.114810 327.000000
331.134800 58.000000
331.153050 25.000000
331.275700 9.000000
332.107970 70.000000
332.128360 222.000000
332.150420 11.000000
333.081630 9.000000
333.123780 18.000000
333.137420 25.000000
333.259000 9.000000
335.129790 13.000000
336.136990 12.000000
337.107360 8.000000
337.127620 19.000000
337.142490 33.000000
338.040160 8.000000
338.106540 17.000000
338.148530 464.000000
338.179230 11.000000
339.109380 8.000000
339.126370 28.000000
339.144530 37.000000
339.160860 72.000000
340.130040 9.000000
340.161320 34.000000
341.022640 8.000000
341.135160 25.000000
341.163760 29.000000
341.184110 30.000000
342.115360 9.000000
342.140590 157.000000
342.153440 283.000000
342.183840 8.000000
343.121150 61.000000
343.138550 26.000000
343.159300 58.000000
343.335170 8.000000
344.086400 8.000000
344.126190 55.000000
344.145140 13.000000
344.162320 19.000000
344.173770 8.000000
345.112030 9.000000
345.134220 70.000000
346.103580 12.000000
346.138310 428.000000
346.156310 78.000000
346.417330 9.000000
347.138950 31.000000
347.156130 60.000000
348.114320 8.000000
348.142000 12.000000
348.156040 9.000000
348.473050 17.000000
351.154480 20.000000
352.119200 8.000000
352.165190 8.000000
352.176480 10.000000
353.110660 8.000000
353.142580 81.000000
353.173950 412.000000
353.185420 176.000000
354.114870 8.000000
354.132110 40.000000
354.149660 118.000000
354.172000 96.000000
354.190490 44.000000
354.672490 15.000000
355.136470 32.000000
355.149630 62.000000
355.193510 21.000000
356.116300 8.000000
356.147670 11.000000
356.170040 8.000000
357.128910 38.000000
357.156560 14.000000
358.049870 8.000000
358.136540 37.000000
358.148900 43.000000
358.173340 8.000000
358.184940 9.000000
358.219760 8.000000
359.144500 31.000000
359.158420 43.000000
359.196590 10.000000
360.135830 8.000000
360.156520 21.000000
361.158260 24.000000
361.175750 19.000000
365.170720 8.000000
367.187010 11.000000
368.166500 35.000000
369.131710 25.000000
369.171540 1000.000000
370.132080 16.000000
370.174740 155.000000
371.153990 26.000000
371.177950 8.000000
372.162020 16.000000
373.163300 15.000000
373.483610 8.000000
383.175510 8.000000
383.455840 8.000000
384.195310 549.000000
385.138120 10.000000
385.162050 151.000000
385.182800 69.000000
385.202360 88.000000
386.149110 9.000000
386.162020 20.000000
386.175600 16.000000
386.193510 9.000000
386.205410 8.000000
387.187620 33.000000
396.828160 18.000000
399.164950 8.000000
399.185420 20.000000
400.155060 8.000000
400.175810 40.000000
400.193630 48.000000
401.170750 9.000000
401.188170 15.000000
402.315250 12.000000
403.165100 8.000000
405.183560 14.000000
414.555850 9.000000
415.138490 9.000000
415.186340 11.000000
415.208710 10.000000
427.166170 8.000000

>ms2
119.052960 54.000000
127.034940 40.000000
143.089950 40.000000
144.055970 42.000000
153.071230 47.000000
157.066220 49.000000
158.067470 47.000000
160.053450 38.000000
165.075820 47.000000
166.052460 42.000000
167.053270 40.000000
167.063900 52.000000
169.072220 38.000000
169.082900 38.000000
171.088070 80.000000
174.064010 47.000000
174.600280 45.000000
175.075940 49.000000
181.064970 38.000000
182.078120 61.000000
183.073590 47.000000
183.085830 40.000000
184.045320 38.000000
184.060680 56.000000
185.054430 52.000000
187.038860 38.000000
187.073500 47.000000
187.525210 47.000000
189.087400 38.000000
191.082140 61.000000
192.091830 47.000000
192.099030 38.000000
195.086790 164.000000
196.087390 77.000000
197.054890 82.000000
197.062610 101.000000
198.077390 54.000000
198.100230 63.000000
198.115770 47.000000
199.017960 38.000000
199.046800 38.000000
199.077330 221.000000
201.073030 38.000000
202.043320 38.000000
202.063770 54.000000
203.071400 52.000000
204.049480 40.000000
206.065290 38.000000
206.074200 40.000000
207.799260 45.000000
209.066570 141.000000
209.084470 52.000000
210.079790 38.000000
210.100460 68.000000
210.777440 47.000000
211.071610 38.000000
211.087190 42.000000
212.077730 38.000000
212.089340 40.000000
212.113170 40.000000
213.055860 136.000000
213.078570 47.000000
213.088230 42.000000
214.062380 169.000000
214.084920 38.000000
215.043930 38.000000
215.077420 89.000000
217.075180 42.000000
218.091570 38.000000
218.114970 63.000000
218.766160 45.000000
219.075620 42.000000
221.098040 61.000000
221.111710 38.000000
223.039200 42.000000
223.075670 56.000000
223.120100 47.000000
224.034000 68.000000
224.088030 174.000000
224.410220 40.000000
225.052960 164.000000
225.088240 92.000000
225.097690 38.000000
225.130810 54.000000
226.065510 77.000000
226.087160 40.000000
227.063280 47.000000
227.077990 155.000000
227.500790 49.000000
228.032700 40.000000
228.079320 146.000000
229.050610 38.000000
229.081590 85.000000
229.093840 38.000000
230.053530 77.000000
230.067340 38.000000
230.083890 42.000000
231.105530 40.000000
232.079270 42.000000
232.092710 75.000000
233.063130 38.000000
235.065310 47.000000
235.082610 61.000000
235.117490 96.000000
236.084400 38.000000
236.115660 38.000000
236.981090 40.000000
237.057010 75.000000
238.063110 40.000000
239.057620 108.000000
239.086200 80.000000
239.105190 197.000000
240.046710 54.000000
240.077320 92.000000
240.089650 129.000000
240.477580 73.000000
241.059360 120.000000
241.086010 373.000000
241.112030 66.000000
242.057720 38.000000
242.094090 167.000000
243.058560 38.000000
243.068180 40.000000
243.083360 54.000000
243.166980 38.000000
244.041960 49.000000
244.076980 47.000000
245.063280 77.000000
245.101410 40.000000
245.111620 54.000000
247.077970 42.000000
247.107930 40.000000
248.067470 38.000000
248.080170 38.000000
248.102630 47.000000
249.099820 153.000000
249.122530 127.000000
250.092040 40.000000
251.064210 40.000000
251.086640 38.000000
251.099910 40.000000
251.116060 45.000000
252.079180 106.000000
252.117980 89.000000
253.088470 221.000000
253.115010 63.000000
254.075590 49.000000
254.085040 94.000000
254.098190 38.000000
254.107190 42.000000
254.124390 38.000000
255.053590 87.000000
255.068270 228.000000
255.093380 127.000000
255.106280 42.000000
256.038730 54.000000
256.067750 108.000000
256.107730 176.000000
257.083250 676.000000
257.117070 85.000000
257.163330 54.000000
258.067080 38.000000
258.080440 38.000000
258.093380 38.000000
259.077550 77.000000
259.096680 80.000000
259.684540 42.000000
260.132510 40.000000
261.105990 49.000000
262.099820 38.000000
264.081360 235.000000
264.101200 45.000000
264.116970 134.000000
264.129060 94.000000
265.076630 162.000000
265.123500 89.000000
266.050290 40.000000
266.091370 169.000000
266.119810 87.000000
266.170350 40.000000
267.066830 164.000000
267.085910 38.000000
267.102420 171.000000
267.112270 56.000000
268.043150 38.000000
268.099610 85.000000
269.089200 293.000000
269.113130 56.000000
269.158330 47.000000
270.043670 38.000000
270.057040 38.000000
270.083400 110.000000
270.099640 80.000000
270.120700 138.000000
271.019710 38.000000
271.048370 157.000000
271.065160 124.000000
271.082090 85.000000
271.097170 106.000000
271.107970 146.000000
271.155790 80.000000
272.064850 49.000000
272.085300 40.000000
272.101560 188.000000
272.291350 40.000000
273.061520 66.000000
273.078340 167.000000
273.108890 40.000000
274.090450 59.000000
274.100800 38.000000
275.070710 38.000000
275.119840 47.000000
276.126980 45.000000
277.076510 77.000000
277.093600 45.000000
278.104160 87.000000
278.136990 49.000000
279.072780 52.000000
279.096560 256.000000
279.115780 92.000000
279.137910 75.000000
280.071930 45.000000
280.108860 272.000000
280.117770 85.000000
280.150790 38.000000
281.075740 195.000000
281.117190 38.000000
281.139590 56.000000
282.023740 61.000000
282.092320 38.000000
282.126890 40.000000
283.065060 127.000000
283.100860 85.000000
284.055110 40.000000
284.075500 38.000000
284.098480 228.000000
284.110290 317.000000
285.066410 103.000000
285.078800 284.000000
285.104220 181.000000
285.113620 136.000000
285.923740 40.000000
286.000850 42.000000
286.074010 115.000000
286.090880 138.000000
287.054170 148.000000
287.333770 38.000000
288.092220 153.000000
288.106230 77.000000
288.125270 38.000000
289.119720 38.000000
290.087590 38.000000
291.105320 54.000000
291.133120 82.000000
291.958590 38.000000
292.075410 99.000000
292.110410 157.000000
292.157040 49.000000
293.114530 305.000000
293.138090 40.000000
294.076900 42.000000
294.116360 59.000000
294.140230 42.000000
295.081540 42.000000
295.107640 178.000000
295.128330 38.000000
295.140010 94.000000
296.064150 38.000000
296.092290 38.000000
296.137760 56.000000
297.064760 77.000000
297.080570 80.000000
297.128140 38.000000
298.077850 87.000000
299.082000 45.000000
299.096280 75.000000
299.107030 40.000000
299.127870 40.000000
300.056090 38.000000
300.104280 223.000000
301.066830 45.000000
301.106690 120.000000
301.129970 42.000000
302.072780 38.000000
302.087040 40.000000
303.104770 40.000000
303.133300 38.000000
304.096130 38.000000
304.110320 38.000000
305.112490 82.000000
306.133640 38.000000
307.096800 221.000000
307.132020 279.000000
307.142330 317.000000
308.116940 77.000000
308.130980 45.000000
308.145260 45.000000
309.123260 52.000000
309.141330 38.000000
309.875920 38.000000
310.123410 117.000000
310.621550 40.000000
311.087340 38.000000
311.114810 101.000000
311.130220 129.000000
312.107600 47.000000
313.073550 47.000000
313.101840 42.000000
313.133150 38.000000
315.091800 92.000000
315.118230 258.000000
316.102260 40.000000
316.135350 40.000000
317.100190 49.000000
317.111850 42.000000
321.117430 54.000000
322.112610 54.000000
322.124050 108.000000
322.158690 42.000000
322.589570 38.000000
323.125730 1000.000000
323.163300 40.000000
324.085880 42.000000
324.103390 80.000000
324.130580 270.000000
325.146300 63.000000
327.081480 38.000000
327.118440 40.000000
328.138240 42.000000
329.097780 38.000000
331.103580 47.000000
331.116060 157.000000
332.156430 40.000000
338.112820 38.000000
338.127560 38.000000
338.160460 127.000000
339.132870 70.000000
339.153320 124.000000
340.132230 38.000000
341.121580 40.000000
345.132420 38.000000
347.576230 70.000000
354.146730 38.000000
355.083160 40.000000
357.118410 38.000000
369.167140 38.000000
369.186340 47.000000
370.138700 40.000000
380.912630 38.000000
412.559300 38.000000

>ms2
155.085400 5.000000
181.081970 5.000000
212.081740 6.000000
234.095860 6.000000
257.124300 6.000000
258.082520 7.000000
271.099880 5.000000
272.101960 14.000000
273.075680 6.000000
280.067930 6.000000
282.103490 7.000000
283.096370 5.000000
283.106380 5.000000
284.103060 8.000000
285.099210 7.000000
286.119170 5.000000
291.148470 6.000000
293.074920 7.000000
295.132930 5.000000
298.114070 6.000000
299.113190 11.000000
299.126590 6.000000
300.095520 11.000000
300.115300 8.000000
301.121550 8.000000
306.116000 8.000000
307.134460 7.000000
310.162200 6.000000
311.129700 6.000000
313.112920 23.000000
314.099300 6.000000
314.114960 14.000000
315.111720 8.000000
315.127930 24.000000
316.101200 16.000000
316.135530 11.000000
317.106540 16.000000
322.154880 11.000000
322.168180 10.000000
323.122710 25.000000
323.141200 5.000000
324.135860 11.000000
327.122650 18.000000
327.136510 11.000000
327.170290 8.000000
328.127750 41.000000
329.112760 10.000000
329.133730 18.000000
330.110410 9.000000
330.144810 32.000000
330.160610 7.000000
331.120120 28.000000
331.131960 7.000000
332.123260 23.000000
337.139160 8.000000
338.152680 57.000000
339.133940 9.000000
339.153320 7.000000
339.166290 9.000000
342.146450 50.000000
343.116390 8.000000
343.167480 5.000000
344.123290 14.000000
345.136290 18.000000
346.139500 99.000000
347.149600 30.000000
352.156800 9.000000
352.173130 7.000000
353.140010 13.000000
353.170010 30.000000
353.189420 13.000000
354.139740 11.000000
354.157530 6.000000
354.172520 10.000000
354.189390 12.000000
355.135130 6.000000
355.160100 9.000000
357.167760 11.000000
357.179050 5.000000
358.157040 7.000000
358.170930 9.000000
359.151980 53.000000
360.170900 12.000000
361.169680 6.000000
368.158720 5.000000
369.140410 6.000000
369.157590 21.000000
369.172390 69.000000
370.143890 7.000000
370.171780 33.000000
371.145420 6.000000
373.152500 5.000000
373.170590 41.000000
383.188260 5.000000
384.193150 336.000000
385.159360 6.000000
385.174650 5.000000
385.194850 34.000000
385.211940 6.000000
386.168300 5.000000
400.185300 50.000000
400.196840 19.000000
401.194820 15.000000
415.159610 6.000000
415.211910 1000.000000
416.184200 12.000000
416.217830 201.000000
417.196470 6.000000
417.220700 27.000000
432.205260 23.000000
432.222110 21.000000
433.181760 10.000000
433.216770 148.000000

>ms2
384.196080 8.000000
415.211400 1000.000000
416.215210 271.000000
417.221950 16.000000
418.213650 5.000000
432.214200 96.000000
433.222720 307.000000

>ms2
75.040990 15.000000
78.025540 14.000000
153.049880 9.000000
173.098890 9.000000
174.107130 9.000000
181.091950 19.000000
183.137300 9.000000
187.074840 15.000000
194.064270 11.000000
195.103870 12.000000
196.108830 9.000000
203.069870 10.000000
204.109210 9.000000
205.084150 20.000000
208.979390 9.000000
212.096950 9.000000
218.093140 11.000000
225.812180 9.000000
229.278270 10.000000
233.103620 15.000000
236.630540 10.000000
238.603580 15.000000
241.126830 11.000000
242.100920 13.000000
246.132640 9.000000
248.110690 12.000000
250.129470 10.000000
250.965320 10.000000
254.093700 9.000000
255.099200 9.000000
256.121120 12.000000
257.060640 11.000000
258.082310 9.000000
259.095490 14.000000
259.142030 14.000000
260.099820 25.000000
261.097900 11.000000
261.112950 11.000000
265.087460 12.000000
266.095610 10.000000
267.057800 10.000000
268.661770 9.000000
270.052460 9.000000
270.089420 40.000000
270.106050 9.000000
271.082490 23.000000
271.092800 12.000000
271.136470 9.000000
272.104920 46.000000
272.123440 11.000000
273.104160 12.000000
275.089720 12.000000
280.079740 11.000000
280.108700 21.000000
282.094360 9.000000
282.406430 11.000000
283.099030 9.000000
283.119930 9.000000
283.140170 11.000000
284.099000 21.000000
284.132900 9.000000
285.079040 20.000000
286.072600 19.000000
286.088500 12.000000
286.133540 10.000000
287.135800 25.000000
287.443630 11.000000
287.526700 15.000000
288.094820 23.000000
288.110900 16.000000
288.140290 20.000000
292.100950 11.000000
293.115880 9.000000
295.097720 11.000000
295.119780 13.000000
295.341280 9.000000
296.094450 9.000000
296.108520 9.000000
296.140990 24.000000
296.434840 11.000000
297.150300 12.000000
298.111970 9.000000
298.125430 27.000000
298.316620 9.000000
299.094180 22.000000
299.105440 10.000000
299.123380 49.000000
299.135740 17.000000
300.097290 12.000000
300.135960 9.000000
300.885710 11.000000
301.116300 58.000000
302.102660 14.000000
302.113220 39.000000
303.117920 12.000000
304.128020 16.000000
306.120180 23.000000
307.100770 11.000000
307.135100 20.000000
308.150600 17.000000
308.244540 9.000000
309.150570 9.000000
310.122920 9.000000
311.039000 9.000000
312.097380 11.000000
312.129550 9.000000
312.155430 20.000000
313.092190 9.000000
313.106840 55.000000
313.117920 66.000000
313.151400 22.000000
314.114620 111.000000
314.588320 11.000000
315.087400 44.000000
315.120450 233.000000
315.132660 61.000000
316.072170 10.000000
316.099030 27.000000
316.125150 72.000000
317.087340 39.000000
317.124110 9.000000
319.851170 11.000000
321.123380 9.000000
321.167760 14.000000
322.103420 12.000000
322.126740 55.000000
322.156460 154.000000
322.176670 13.000000
323.123840 59.000000
323.164700 51.000000
324.131470 21.000000
324.164220 11.000000
325.081300 10.000000
325.107420 12.000000
325.180760 12.000000
326.144590 21.000000
327.094150 11.000000
327.110230 39.000000
327.129760 66.000000
327.165560 10.000000
328.123600 148.000000
328.135040 309.000000
329.077790 12.000000
329.089290 31.000000
329.103580 57.000000
329.130460 148.000000
329.146390 42.000000
330.088440 19.000000
330.105290 29.000000
330.119170 23.000000
330.141080 109.000000
330.157470 59.000000
331.048190 9.000000
331.119230 371.000000
331.152160 44.000000
332.097110 12.000000
332.128780 225.000000
333.125610 56.000000
336.134920 10.000000
337.122250 21.000000
337.141140 78.000000
337.163760 10.000000
338.152950 566.000000
339.138000 30.000000
339.160400 177.000000
340.112180 19.000000
340.137790 23.000000
340.153780 14.000000
341.126370 20.000000
341.138490 52.000000
341.154240 23.000000
341.170590 47.000000
342.092560 10.000000
342.107850 9.000000
342.150510 446.000000
343.116360 85.000000
343.153140 83.000000
343.170650 24.000000
344.106380 30.000000
344.128780 93.000000
344.166140 23.000000
345.106290 21.000000
345.134310 56.000000
345.149050 77.000000
346.119750 56.000000
346.142550 405.000000
346.153780 136.000000
347.147090 95.000000
347.922850 9.000000
348.144440 21.000000
348.157440 29.000000
349.160740 9.000000
350.382750 11.000000
352.122960 11.000000
352.146000 17.000000
352.174380 59.000000
353.141110 19.000000
353.173100 602.000000
353.329320 10.000000
353.918060 9.000000
354.110600 9.000000
354.145900 110.000000
354.171940 82.000000
354.199650 12.000000
354.257110 9.000000
355.112920 9.000000
355.145720 13.000000
355.170070 22.000000
355.189640 30.000000
355.205720 14.000000
356.158200 23.000000
356.169770 36.000000
356.627840 12.000000
357.122860 21.000000
357.763120 9.000000
358.119230 9.000000
358.139590 116.000000
358.171020 65.000000
358.185970 11.000000
359.145600 24.000000
359.160000 23.000000
359.180850 9.000000
360.166110 25.000000
361.060610 10.000000
361.172210 11.000000
362.165470 10.000000
365.569370 9.000000
367.642880 11.000000
368.156490 40.000000
369.124940 20.000000
369.169590 1000.000000
369.335140 10.000000
369.506650 12.000000
370.045780 11.000000
370.071470 15.000000
370.137910 10.000000
370.170100 119.000000
370.196750 11.000000
371.138060 9.000000
371.172730 12.000000
372.141080 11.000000
372.157530 24.000000
373.168150 53.000000
374.163510 34.000000
383.139160 9.000000
383.176150 33.000000
383.191530 12.000000
384.191930 675.000000
384.301510 9.000000
384.321350 13.000000
385.088350 9.000000
385.125520 11.000000
385.157680 64.000000
385.174070 122.000000
385.197330 187.000000
385.811160 9.000000
385.875980 9.000000
386.142460 12.000000
386.164760 46.000000
386.190090 74.000000
386.220150 12.000000
387.175080 10.000000
389.126220 10.000000
389.539640 11.000000
393.323490 9.000000
400.182250 77.000000
400.206880 12.000000
401.154360 15.000000
401.166870 12.000000
401.190950 10.000000
415.230680 14.000000

>ms2
83.084900 53.000000
93.077180 43.000000
105.057910 45.000000
106.090130 96.000000
123.087490 53.000000
129.068120 43.000000
148.042340 43.000000
158.076720 72.000000
161.059430 53.000000
162.068790 45.000000
165.073200 43.000000
172.043290 56.000000
173.061340 53.000000
173.092500 45.000000
175.117540 72.000000
180.059600 66.000000
181.053970 43.000000
182.068680 128.000000
185.059110 104.000000
190.062650 43.000000
194.078320 43.000000
197.042690 43.000000
197.060170 43.000000
197.071430 43.000000
198.069400 51.000000
198.087040 59.000000
199.066540 48.000000
199.081590 43.000000
201.087570 59.000000
202.048610 61.000000
202.060940 45.000000
202.092710 53.000000
206.074400 51.000000
208.068120 45.000000
208.095030 69.000000
209.075240 61.000000
209.092540 56.000000
209.844940 56.000000
210.041470 114.000000
210.073880 43.000000
211.048030 43.000000
211.065670 43.000000
211.083530 43.000000
212.089540 85.000000
213.106280 48.000000
214.058040 104.000000
215.094500 48.000000
215.961290 48.000000
217.252370 43.000000
218.090450 64.000000
220.090930 43.000000
222.066350 48.000000
223.069820 64.000000
224.083690 162.000000
225.053040 69.000000
225.077100 48.000000
225.102520 120.000000
226.056640 64.000000
226.093400 45.000000
226.105180 114.000000
227.061600 90.000000
227.662290 45.000000
228.079860 136.000000
229.070010 59.000000
229.081820 43.000000
230.048980 45.000000
230.068280 61.000000
230.095890 53.000000
231.068280 43.000000
231.566310 43.000000
231.902850 43.000000
232.093610 48.000000
234.066420 48.000000
235.081100 101.000000
235.751240 43.000000
237.089040 53.000000
238.071930 48.000000
238.084530 48.000000
239.052320 51.000000
239.070220 93.000000
239.093570 43.000000
239.114300 88.000000
239.394210 61.000000
240.071520 202.000000
241.042760 48.000000
241.053150 43.000000
241.072190 45.000000
241.090360 290.000000
242.059250 66.000000
242.077010 43.000000
242.093260 112.000000
242.118650 80.000000
243.071350 202.000000
243.090500 96.000000
243.100460 56.000000
244.074430 43.000000
245.091320 178.000000
246.095810 45.000000
248.115720 53.000000
248.122330 117.000000
249.041950 43.000000
249.090440 85.000000
249.101560 53.000000
249.138600 43.000000
250.060070 51.000000
250.069840 43.000000
250.134660 43.000000
251.075320 98.000000
251.109530 51.000000
252.112660 43.000000
252.206910 53.000000
253.085300 53.000000
253.101210 43.000000
253.124070 61.000000
254.046300 43.000000
254.086120 178.000000
255.024000 53.000000
255.058650 66.000000
255.089800 98.000000
255.110460 43.000000
255.120740 56.000000
256.049530 45.000000
256.062260 53.000000
256.072720 43.000000
256.105410 43.000000
256.116760 96.000000
256.125090 48.000000
257.069030 93.000000
257.082980 327.000000
257.114780 45.000000
257.699160 43.000000
258.060790 43.000000
258.088040 90.000000
258.402710 43.000000
259.034910 43.000000
259.117890 48.000000
260.086490 64.000000
260.096280 45.000000
261.103730 64.000000
261.128630 53.000000
261.195430 48.000000
262.109100 48.000000
263.098110 117.000000
263.113280 152.000000
264.094760 45.000000
264.111510 149.000000
264.121550 51.000000
265.094570 66.000000
265.127010 53.000000
266.090480 43.000000
266.135560 90.000000
267.054050 122.000000
267.076390 69.000000
267.096500 53.000000
267.996550 43.000000
268.072720 48.000000
268.723820 51.000000
269.083650 327.000000
269.116760 43.000000
270.081120 45.000000
270.091000 43.000000
270.104340 43.000000
270.119630 53.000000
271.043460 59.000000
271.060360 43.000000
271.098720 168.000000
272.095280 53.000000
272.109100 85.000000
273.066310 226.000000
273.080870 117.000000
273.091160 149.000000
274.078160 48.000000
274.092470 101.000000
275.107150 56.000000
275.116640 98.000000
275.147890 48.000000
276.137420 45.000000
277.074400 48.000000
277.094910 178.000000
277.114010 85.000000
277.124050 51.000000
278.086000 43.000000
278.113160 43.000000
278.126710 43.000000
279.042390 72.000000
279.055910 43.000000
279.090270 45.000000
279.097660 109.000000
279.110570 77.000000
279.134640 56.000000
280.069520 56.000000
280.150020 61.000000
281.083530 53.000000
281.131290 43.000000
282.072420 43.000000
282.125490 53.000000
283.060300 146.000000
283.093600 45.000000
283.104280 93.000000
283.128270 61.000000
284.114590 101.000000
284.800900 66.000000
285.056270 45.000000
285.080870 449.000000
285.107330 239.000000
285.122010 51.000000
286.045260 43.000000
286.077090 154.000000
286.087280 96.000000
287.079740 106.000000
287.098110 43.000000
288.104610 43.000000
288.118560 45.000000
289.902280 48.000000
290.115840 96.000000
290.143520 45.000000
291.086090 133.000000
291.101810 253.000000
291.133390 56.000000
292.113100 43.000000
293.100920 120.000000
293.116970 146.000000
293.138370 51.000000
294.114170 48.000000
294.129790 117.000000
295.058290 43.000000
295.100310 184.000000
295.140010 194.000000
295.157990 66.000000
296.099210 45.000000
297.076510 48.000000
297.086090 45.000000
297.107360 88.000000
298.076350 53.000000
299.071500 45.000000
299.084590 149.000000
299.139280 88.000000
300.107790 106.000000
301.003510 61.000000
301.067230 88.000000
301.078060 178.000000
301.095340 53.000000
303.123080 51.000000
304.103670 45.000000
304.517820 43.000000
306.083980 43.000000
307.117030 104.000000
307.129550 287.000000
308.109710 157.000000
310.128200 43.000000
311.082120 53.000000
311.094570 112.000000
311.129940 176.000000
312.096160 56.000000
312.137540 48.000000
313.036990 72.000000
313.104550 43.000000
313.118900 43.000000
313.137270 51.000000
313.151980 53.000000
314.155850 45.000000
315.118130 191.000000
315.135620 43.000000
316.087890 43.000000
317.100490 43.000000
317.111300 64.000000
321.147430 53.000000
322.079960 48.000000
322.145810 43.000000
322.157350 109.000000
323.086120 69.000000
323.130980 1000.000000
323.171970 53.000000
324.138000 114.000000
325.119900 109.000000
325.149440 85.000000
327.118740 74.000000
327.148530 43.000000
331.102050 45.000000
337.154050 51.000000
339.096710 48.000000
339.167390 168.000000
340.155150 43.000000
341.148500 45.000000
354.149990 144.000000
355.152800 45.000000

>ms2
87.078580 18.000000
97.029270 20.000000
106.000410 18.000000
131.084400 70.000000
154.080470 18.000000
166.060900 19.000000
167.075130 17.000000
175.069200 17.000000
177.054020 21.000000
178.061400 25.000000
195.085510 18.000000
196.086980 25.000000
203.072910 18.000000
203.681930 18.000000
204.107890 21.000000
204.658830 17.000000
209.096850 25.000000
212.111310 39.000000
213.084790 18.000000
219.106050 21.000000
224.831480 19.000000
225.095320 23.000000
226.066500 20.000000
227.063900 29.000000
227.114900 29.000000
228.057740 18.000000
228.080730 31.000000
229.107180 17.000000
229.766220 30.000000
231.068280 21.000000
233.115280 20.000000
235.089920 20.000000
235.115020 21.000000
235.133470 20.000000
236.832820 20.000000
240.071010 72.000000
240.115980 20.000000
241.050630 17.000000
241.081020 34.000000
242.084400 26.000000
242.099490 18.000000
243.056260 20.000000
243.094990 22.000000
243.857090 21.000000
244.097790 17.000000
244.297640 24.000000
246.742420 21.000000
247.095580 39.000000
249.107970 23.000000
251.097840 20.000000
252.071430 37.000000
252.138950 23.000000
253.088460 23.000000
253.119350 21.000000
254.092680 17.000000
255.060610 29.000000
255.100920 18.000000
256.077550 18.000000
256.106870 58.000000
257.079620 60.000000
258.071720 17.000000
258.098750 18.000000
258.127410 17.000000
259.098140 21.000000
260.094820 18.000000
262.087400 37.000000
262.097630 22.000000
263.092800 20.000000
263.185300 20.000000
265.731170 23.000000
267.100800 17.000000
268.075100 20.000000
268.115390 26.000000
269.039580 18.000000
269.070620 17.000000
269.078950 52.000000
269.100740 17.000000
269.127660 17.000000
269.967470 17.000000
270.084840 54.000000
271.045470 27.000000
271.058960 22.000000
271.070620 18.000000
271.098940 49.000000
271.118290 20.000000
271.135620 27.000000
272.055270 18.000000
272.103610 127.000000
273.102570 18.000000
273.401340 20.000000
273.695500 24.000000
275.088710 21.000000
275.104130 20.000000
276.094940 26.000000
276.115110 20.000000
277.124240 59.000000
278.082950 37.000000
278.097470 21.000000
278.121030 17.000000
279.104740 20.000000
279.114170 18.000000
279.132350 19.000000
280.066220 20.000000
280.080260 20.000000
280.128230 17.000000
280.398830 17.000000
281.080810 19.000000
281.107390 18.000000
281.122310 17.000000
281.823330 18.000000
282.103640 40.000000
283.046750 19.000000
283.062230 24.000000
283.092900 95.000000
284.038910 17.000000
284.082180 20.000000
284.101260 20.000000
285.066680 55.000000
285.081700 22.000000
285.101720 70.000000
286.069670 18.000000
286.111510 41.000000
286.121370 56.000000
287.068510 20.000000
287.095120 18.000000
287.133910 17.000000
287.387270 19.000000
288.074550 19.000000
288.092040 58.000000
288.108180 61.000000
289.069060 20.000000
291.130280 39.000000
292.075650 26.000000
292.107450 41.000000
293.098660 18.000000
293.155640 28.000000
294.117310 71.000000
294.281160 24.000000
295.094640 22.000000
295.131530 26.000000
295.703700 18.000000
296.102750 53.000000
297.041350 22.000000
297.083710 17.000000
297.106050 18.000000
297.118100 18.000000
297.157960 17.000000
298.080050 26.000000
298.119380 42.000000
298.132970 23.000000
298.256410 31.000000
299.070220 18.000000
299.084960 61.000000
299.120480 152.000000
299.147090 17.000000
300.078920 19.000000
300.091430 43.000000
300.101230 91.000000
300.112980 27.000000
300.134310 43.000000
301.086940 59.000000
301.097840 24.000000
301.136080 19.000000
302.081420 21.000000
302.115910 21.000000
303.088650 17.000000
304.115780 17.000000
305.126250 27.000000
306.059840 20.000000
306.084960 17.000000
307.107910 36.000000
307.130250 184.000000
308.104640 42.000000
308.142550 41.000000
309.075590 21.000000
309.094480 26.000000
309.110500 35.000000
309.131160 18.000000
309.143310 47.000000
309.168270 22.000000
310.089540 22.000000
310.123660 47.000000
310.158200 39.000000
311.094150 24.000000
311.119380 39.000000
311.142360 46.000000
312.100430 63.000000
312.117220 36.000000
312.139400 38.000000
313.108280 262.000000
313.135190 40.000000
314.091610 17.000000
314.104950 48.000000
314.120910 93.000000
315.057160 27.000000
315.095920 18.000000
315.120480 214.000000
315.133540 84.000000
316.093200 93.000000
316.107360 24.000000
316.124850 114.000000
317.106870 109.000000
317.128080 61.000000
321.107880 27.000000
321.147430 18.000000
322.112460 56.000000
322.124360 81.000000
322.154050 210.000000
323.014340 20.000000
323.109220 37.000000
323.126070 69.000000
323.145940 20.000000
323.168330 39.000000
324.132750 38.000000
324.143340 79.000000
324.175510 43.000000
324.397340 18.000000
325.154300 54.000000
326.120540 35.000000
326.151250 34.000000
326.279720 18.000000
327.113920 111.000000
327.127590 33.000000
327.138610 21.000000
327.160430 68.000000
328.132750 483.000000
328.160830 17.000000
329.098450 103.000000
329.132140 149.000000
329.148680 80.000000
329.530180 17.000000
330.141390 277.000000
331.118130 284.000000
331.151860 83.000000
332.078580 18.000000
332.117580 137.000000
332.128880 111.000000
332.145720 52.000000
333.129670 111.000000
334.133940 19.000000
337.127110 53.000000
337.149110 116.000000
338.093630 45.000000
338.121950 17.000000
338.149290 735.000000
339.103550 18.000000
339.142210 66.000000
339.155730 78.000000
340.113460 24.000000
340.130980 69.000000
340.175450 17.000000
341.143590 93.000000
341.171510 39.000000
341.186220 64.000000
342.144230 528.000000
342.171360 25.000000
342.193880 22.000000
343.095550 28.000000
343.116820 96.000000
343.136570 101.000000
343.166750 81.000000
344.123470 98.000000
344.137210 57.000000
344.157070 34.000000
344.169250 24.000000
344.358700 17.000000
344.814700 20.000000
344.918330 18.000000
345.113770 44.000000
345.130770 236.000000
345.156010 37.000000
346.105770 35.000000
346.140440 830.000000
347.123290 20.000000
347.146330 309.000000
347.738800 31.000000
348.160490 52.000000
348.203580 54.000000
349.154510 20.000000
349.183070 23.000000
350.156490 39.000000
351.150910 26.000000
351.165740 38.000000
351.326050 24.000000
352.156100 76.000000
352.173430 43.000000
353.136510 73.000000
353.149660 158.000000
353.160800 229.000000
353.179170 473.000000
354.110570 25.000000
354.137540 117.000000
354.167480 169.000000
354.196810 28.000000
355.123440 21.000000
355.141300 59.000000
355.153960 127.000000
355.185270 17.000000
356.159880 29.000000
356.175320 20.000000
357.163150 50.000000
357.176850 76.000000
358.118160 49.000000
358.136630 122.000000
358.151640 86.000000
358.179530 119.000000
359.143070 130.000000
359.157290 163.000000
359.176240 23.000000
360.131260 23.000000
360.146060 40.000000
361.159030 91.000000
361.174590 23.000000
362.176570 22.000000
363.123050 26.000000
363.151700 18.000000
364.181210 20.000000
368.135680 17.000000
368.144680 51.000000
368.159060 49.000000
368.175140 17.000000
368.399200 17.000000
368.728700 17.000000
369.127840 20.000000
369.141720 57.000000
369.170780 853.000000
370.151700 21.000000
370.171880 272.000000
371.160920 55.000000
371.180480 56.000000
372.146180 21.000000
372.162200 79.000000
372.182830 17.000000
373.142270 31.000000
373.162020 262.000000
373.987370 24.000000
374.162960 108.000000
374.181980 62.000000
376.478580 28.000000
383.147580 21.000000
383.165620 18.000000
383.186190 98.000000
383.204410 20.000000
384.192600 2665.000000
384.469600 20.000000
385.153470 88.000000
385.169340 216.000000
385.193420 552.000000
385.207490 310.000000
386.171910 154.000000
386.186800 148.000000
386.206670 37.000000
387.165070 36.000000
387.189510 18.000000
389.203000 89.000000
391.009860 26.000000
391.208070 35.000000
391.530210 23.000000
400.104920 17.000000
400.183140 541.000000
401.167690 20.000000
401.202000 153.000000
402.077120 24.000000
402.194270 27.000000
403.912290 17.000000
415.175080 34.000000
415.209900 7464.000000
415.262540 18.000000
416.147860 17.000000
416.213780 2094.000000
417.183690 58.000000
417.219300 198.000000
418.217930 38.000000
418.241390 23.000000
418.538940 20.000000
432.182040 81.000000
432.211180 294.000000
433.168000 45.000000
433.216980 1142.000000

