>compound PR70189334
>parentmass 425.14422339999993
>ionization [M+H]+
>formula C20H24O10
>rt 321.571980
>profile qtof
#smiles_iso C[C@@H]1C(=O)O[C@@H]2[C@]1([C@@]34C(=O)O[C@H]5[C@]3([C@H]2O)[C@@]6([C@@H](C5)C(C)(C)C)[C@H](C(=O)O[C@H]6O4)O)O
#smiles_can CC1C(=O)OC2C1(C34C(=O)OC5C3(C2O)C6(C(C5)C(C)(C)C)C(C(=O)OC6O4)O)O
#inchikey SQOJOAFXDQDRGF-MMQTXUMRSA-N
#pubchem_id 6324617
#mb_accession PR303803,PR303807,PR303809,PR303812,PR303815,PR303819,PR303822,PR303825,PR303829,PR303832,PR303835,PR303838

>ms2peaks
55.056590 5.000000
69.065590 6.000000
74.666290 5.000000
105.074870 6.000000
109.033460 10.000000
113.091830 5.000000
121.069050 8.000000
121.815430 9.000000
127.076940 6.000000
131.049670 6.000000
137.021670 6.000000
145.105970 6.000000
147.078670 11.000000
149.063110 5.000000
153.638320 10.000000
156.063200 5.000000
157.099010 24.000000
159.082150 12.000000
159.120700 5.000000
160.123150 5.000000
163.056290 6.000000
163.118100 9.000000
165.098750 6.000000
169.105560 17.000000
173.052470 6.000000
174.035340 8.000000
177.046100 16.000000
177.085570 6.000000
178.076600 8.000000
182.103960 11.000000
183.091020 7.000000
185.067730 7.000000
185.093000 24.000000
185.150020 5.000000
187.034730 8.000000
187.125230 7.000000
189.085620 6.000000
189.096420 6.000000
189.128430 11.000000
190.089220 5.000000
191.040410 8.000000
191.114810 6.000000
192.037870 6.000000
192.082660 7.000000
193.055310 6.000000
196.124110 11.000000
197.100340 11.000000
197.132370 6.000000
198.102100 5.000000
199.036090 5.000000
199.079940 13.000000
199.113490 5.000000
200.068730 8.000000
200.123720 6.000000
201.014400 7.000000
201.037550 6.000000
201.092730 22.000000
203.074980 6.000000
204.121230 6.000000
205.098280 6.000000
205.107680 5.000000
205.118740 5.000000
207.022930 5.000000
207.036150 6.000000
207.116240 5.000000
207.164250 8.000000
209.141390 7.000000
211.073680 7.000000
212.068980 12.000000
213.047870 6.000000
213.084380 14.000000
213.096740 13.000000
214.231190 6.000000
214.824540 6.000000
215.065890 6.000000
215.076490 7.000000
215.108170 10.000000
216.086180 7.000000
216.117600 6.000000
217.081940 11.000000
219.026410 13.000000
219.064560 5.000000
222.158920 6.000000
224.115690 6.000000
225.118670 10.000000
225.136930 9.000000
227.044650 7.000000
227.102660 15.000000
227.120030 6.000000
229.048660 10.000000
229.081890 13.000000
229.088850 29.000000
230.093810 10.000000
231.095760 13.000000
237.099240 6.000000
237.136340 6.000000
239.070770 10.000000
239.113310 18.000000
241.079180 11.000000
241.089540 7.000000
241.121290 12.000000
242.093290 5.000000
243.062130 5.000000
244.098050 6.000000
244.110350 6.000000
245.016800 8.000000
245.035640 7.000000
245.082090 16.000000
245.099690 6.000000
246.109470 6.000000
246.165940 6.000000
247.056920 6.000000
247.076050 6.000000
247.099620 6.000000
247.120270 6.000000
253.089630 13.000000
253.112880 12.000000
253.124180 19.000000
254.127430 6.000000
255.023560 6.000000
255.101760 6.000000
255.134280 6.000000
256.075070 10.000000
256.152280 8.000000
257.076200 13.000000
257.089810 11.000000
257.102690 6.000000
259.065220 6.000000
259.086210 23.000000
259.099910 7.000000
259.111690 5.000000
260.091430 13.000000
260.146940 6.000000
261.078310 7.000000
261.113160 6.000000
262.375730 6.000000
263.103420 10.000000
269.111240 11.000000
269.121120 5.000000
269.268950 6.000000
271.084960 6.000000
271.115570 10.000000
271.129150 5.000000
272.069790 6.000000
273.066070 12.000000
273.118190 9.000000
275.088040 29.000000
276.101100 5.000000
279.098300 22.000000
281.080930 5.000000
282.127750 11.000000
283.093050 7.000000
283.119780 13.000000
283.132110 5.000000
285.112950 11.000000
287.094420 6.000000
287.122770 7.000000
287.131990 13.000000
289.096560 12.000000
295.115540 7.000000
297.068150 9.000000
297.123720 13.000000
298.098790 9.000000
299.087430 11.000000
299.107880 6.000000
299.131200 23.000000
300.131930 6.000000
301.031400 9.000000
301.073330 9.000000
301.111570 5.000000
303.089290 22.000000
303.165190 7.000000
303.479860 5.000000
304.112120 7.000000
305.101930 46.000000
305.116030 23.000000
306.116270 18.000000
307.098450 8.000000
309.132140 12.000000
312.392400 5.000000
315.121520 24.000000
315.137210 7.000000
316.149690 6.000000
317.120090 6.000000
317.156370 6.000000
319.120270 6.000000
321.090300 12.000000
321.107420 11.000000
325.099270 5.000000
325.122380 12.000000
327.120610 10.000000
328.128020 7.000000
329.073940 6.000000
333.065310 6.000000
333.109680 6.000000
333.139980 11.000000
335.106110 5.000000
335.121220 5.000000
335.154020 7.000000
337.054470 9.000000
337.071080 7.000000
343.094880 5.000000
343.116240 30.000000
344.103000 16.000000
345.120480 10.000000
345.137700 22.000000
345.148990 6.000000
349.117740 6.000000
351.143340 9.000000
353.106510 16.000000
361.054870 5.000000
361.071440 5.000000
361.109530 15.000000
361.132510 168.000000
362.127440 10.000000
362.146670 8.000000
363.124020 5.000000
363.134700 9.000000
371.116490 16.000000
371.209010 8.000000
379.152620 10.000000
389.117650 17.000000
389.133580 32.000000
390.097440 12.000000
407.118410 10.000000
407.135160 9.000000
407.150600 10.000000
409.133970 17.000000
425.112030 17.000000
425.144260 1000.000000

>ms2peaks
361.121830 9.000000
361.136320 9.000000
389.120610 12.000000
408.130340 5.000000
425.146060 1000.000000

>ms2peaks
57.075060 41.000000
69.035550 57.000000
71.085430 41.000000
95.067210 45.000000
97.026490 35.000000
97.071260 57.000000
97.103030 35.000000
103.061650 45.000000
105.068570 51.000000
107.047200 51.000000
109.068760 98.000000
113.028300 41.000000
115.057780 43.000000
115.073880 35.000000
122.029040 53.000000
123.048380 37.000000
129.072740 179.000000
134.068800 51.000000
135.045700 93.000000
135.082610 37.000000
136.076020 41.000000
137.057300 43.000000
143.089980 71.000000
145.063420 159.000000
145.101380 71.000000
145.147930 51.000000
146.063750 43.000000
147.035540 37.000000
147.072190 35.000000
147.083050 120.000000
148.047290 43.000000
148.073960 35.000000
148.155850 53.000000
149.058440 102.000000
149.131450 35.000000
151.076290 37.000000
151.109700 35.000000
153.070720 41.000000
155.031190 39.000000
156.087970 35.000000
157.071320 47.000000
157.109620 45.000000
158.039630 43.000000
161.029240 37.000000
161.048250 35.000000
161.064070 63.000000
161.089550 43.000000
161.097600 41.000000
164.043210 47.000000
169.104770 61.000000
170.092070 41.000000
171.048400 41.000000
171.069890 41.000000
171.082230 106.000000
173.018940 41.000000
173.050980 45.000000
173.064560 49.000000
173.077180 37.000000
173.085240 47.000000
173.093990 110.000000
173.103970 102.000000
175.075740 77.000000
176.102480 41.000000
177.048400 169.000000
177.059810 232.000000
178.090100 49.000000
179.048280 47.000000
179.093580 79.000000
179.106290 67.000000
181.099520 39.000000
181.300030 67.000000
183.079510 77.000000
184.123570 41.000000
185.064510 35.000000
185.091840 287.000000
185.109180 45.000000
185.130570 37.000000
186.102510 110.000000
187.040820 45.000000
187.071560 35.000000
187.104190 112.000000
189.016300 47.000000
189.055160 67.000000
189.081800 73.000000
189.090650 41.000000
189.099230 65.000000
190.055630 35.000000
190.064030 35.000000
191.070720 128.000000
191.105100 79.000000
193.089070 35.000000
195.081070 89.000000
195.121780 57.000000
196.028200 55.000000
197.065810 51.000000
197.136550 45.000000
198.053830 35.000000
199.020070 43.000000
199.074600 165.000000
201.063170 39.000000
201.090710 224.000000
202.035050 49.000000
202.062450 39.000000
202.093290 75.000000
202.112050 39.000000
203.045430 41.000000
203.066450 240.000000
203.072590 93.000000
203.102720 81.000000
204.115880 41.000000
205.017960 37.000000
205.041760 71.000000
205.058240 41.000000
207.030670 100.000000
207.040010 75.000000
207.102800 43.000000
207.126300 39.000000
209.132800 116.000000
209.139710 35.000000
211.046620 39.000000
211.069870 47.000000
212.043960 79.000000
212.082500 45.000000
213.088030 195.000000
213.097700 79.000000
213.106800 43.000000
213.117510 41.000000
213.126890 35.000000
214.107820 41.000000
214.131790 35.000000
215.030200 43.000000
215.066330 185.000000
215.073840 104.000000
215.095500 112.000000
216.877320 35.000000
217.034970 53.000000
217.055340 89.000000
217.083190 163.000000
217.118790 35.000000
218.052090 37.000000
219.052460 35.000000
219.073700 35.000000
219.100300 110.000000
220.064290 85.000000
220.088060 49.000000
221.044780 43.000000
221.092580 35.000000
223.101910 41.000000
223.108440 112.000000
224.081250 47.000000
224.098300 49.000000
225.091750 154.000000
225.126980 51.000000
225.145630 63.000000
226.089360 55.000000
227.068820 47.000000
227.104170 41.000000
227.144580 98.000000
227.988570 35.000000
228.065930 71.000000
229.027980 41.000000
229.041380 45.000000
229.058880 39.000000
229.088210 157.000000
229.101060 51.000000
229.120560 93.000000
230.051790 37.000000
230.095930 154.000000
230.106770 37.000000
231.038880 39.000000
231.060960 108.000000
231.104830 232.000000
232.104030 35.000000
233.052700 43.000000
233.080960 124.000000
233.108840 47.000000
235.068240 83.000000
235.086850 37.000000
237.029820 37.000000
237.131580 43.000000
239.051390 43.000000
240.064820 57.000000
240.079910 47.000000
241.078860 41.000000
241.089230 83.000000
241.101990 61.000000
241.118390 87.000000
241.128080 55.000000
242.117360 35.000000
243.061570 43.000000
243.100520 197.000000
243.135410 89.000000
244.111470 35.000000
244.138380 57.000000
245.004380 47.000000
245.104780 59.000000
245.119250 41.000000
247.069840 77.000000
247.103500 130.000000
249.076030 45.000000
250.107470 47.000000
251.101730 108.000000
251.117900 144.000000
252.113940 77.000000
253.116260 77.000000
253.435320 35.000000
255.037450 43.000000
255.062820 75.000000
255.115720 35.000000
255.129150 65.000000
255.139140 89.000000
256.041840 41.000000
256.100010 47.000000
256.249420 51.000000
257.042570 59.000000
257.076690 323.000000
257.117650 83.000000
259.059780 71.000000
259.094700 254.000000
259.127410 87.000000
260.134340 53.000000
260.903960 45.000000
261.115970 77.000000
261.156950 41.000000
262.097780 43.000000
263.103150 41.000000
265.099240 33.000000
265.107270 91.000000
267.068700 47.000000
267.098390 35.000000
268.839940 55.000000
269.086910 187.000000
269.116880 293.000000
269.219210 49.000000
271.095980 79.000000
271.122830 128.000000
271.135380 83.000000
272.067350 93.000000
272.145080 35.000000
273.015080 59.000000
273.039310 116.000000
273.050080 51.000000
273.072720 91.000000
273.120540 37.000000
274.099610 47.000000
275.059230 39.000000
275.090480 91.000000
275.127110 35.000000
277.097440 73.000000
279.092190 41.000000
280.104890 35.000000
281.116240 252.000000
282.122500 53.000000
283.098570 47.000000
283.129640 142.000000
283.451570 37.000000
283.509340 37.000000
285.068020 87.000000
285.078160 55.000000
285.113740 45.000000
286.057620 35.000000
286.081820 41.000000
286.105960 41.000000
287.089780 39.000000
287.101290 116.000000
287.120820 181.000000
287.131680 140.000000
288.087980 100.000000
289.100860 77.000000
289.157650 43.000000
292.021210 45.000000
292.982820 39.000000
296.094450 39.000000
297.111880 163.000000
298.114500 163.000000
299.087830 35.000000
299.100800 96.000000
299.127040 148.000000
300.127990 51.000000
301.038300 37.000000
301.070010 71.000000
301.121670 37.000000
301.137760 93.000000
302.402280 61.000000
303.041470 41.000000
303.081450 47.000000
304.317720 51.000000
305.103730 1000.000000
305.149570 37.000000
306.087590 57.000000
306.104520 140.000000
306.112240 59.000000
307.096340 35.000000
309.100250 35.000000
309.125670 35.000000
310.079740 41.000000
315.088200 51.000000
315.122010 144.000000
315.130430 47.000000
317.152620 37.000000
318.096590 41.000000
319.051090 110.000000
319.106200 35.000000
325.112060 163.000000
327.016820 41.000000
327.117430 47.000000
327.131990 35.000000
328.124730 35.000000
333.114170 39.000000
337.070010 35.000000
343.113650 53.000000
344.110600 45.000000
344.130650 73.000000
347.070800 49.000000
348.114070 45.000000
354.102230 37.000000
355.118130 51.000000
355.477780 51.000000
361.130100 494.000000
363.124180 35.000000
371.098360 81.000000
371.113250 37.000000
389.108150 41.000000
407.127010 39.000000
425.142210 35.000000

>ms2peaks
79.049220 154.000000
79.054910 84.000000
81.067340 70.000000
81.072200 128.000000
87.081120 66.000000
91.056080 425.000000
93.070340 62.000000
95.084850 62.000000
97.031320 128.000000
105.063090 106.000000
105.070530 256.000000
105.074910 106.000000
107.091950 103.000000
111.082010 121.000000
115.047890 128.000000
115.055360 429.000000
117.055230 95.000000
117.067910 168.000000
117.072960 136.000000
119.048440 165.000000
119.080770 73.000000
121.027270 106.000000
123.081900 62.000000
127.044330 95.000000
127.060870 77.000000
128.059940 66.000000
129.067490 92.000000
129.075590 315.000000
130.066070 77.000000
130.076690 194.000000
130.084820 62.000000
131.073000 125.000000
132.051970 66.000000
134.032350 103.000000
135.041630 88.000000
135.055790 81.000000
137.048930 92.000000
138.497680 158.000000
139.426480 99.000000
141.068470 330.000000
141.078720 143.000000
142.077730 839.000000
143.086490 1000.000000
144.054580 88.000000
144.081630 136.000000
144.101320 95.000000
145.066530 447.000000
145.099110 348.000000
145.106890 99.000000
146.100190 66.000000
146.107590 95.000000
147.006770 92.000000
147.046690 66.000000
147.077040 179.000000
147.118770 136.000000
148.046050 62.000000
149.059020 158.000000
152.058820 70.000000
152.071950 227.000000
153.066190 564.000000
153.074980 128.000000
154.075580 256.000000
155.045870 62.000000
155.073910 260.000000
155.085460 410.000000
156.056730 84.000000
156.090930 212.000000
157.067930 234.000000
157.097550 308.000000
157.106400 147.000000
157.150120 84.000000
158.074750 62.000000
158.102810 84.000000
158.108510 84.000000
159.045240 414.000000
159.081800 66.000000
159.123660 147.000000
160.052830 168.000000
160.085590 70.000000
161.026670 125.000000
161.046950 168.000000
161.062450 103.000000
161.097500 66.000000
162.030810 92.000000
165.069600 681.000000
166.072190 231.000000
166.082610 62.000000
167.083940 451.000000
169.066760 399.000000
169.098770 190.000000
170.027400 73.000000
170.104390 99.000000
171.037160 70.000000
171.046230 176.000000
171.082700 147.000000
171.117540 81.000000
171.359380 77.000000
172.091000 150.000000
173.026050 62.000000
173.056440 66.000000
173.066510 92.000000
173.087780 81.000000
173.100330 205.000000
173.131710 99.000000
175.035420 139.000000
175.042540 110.000000
175.074490 249.000000
176.065250 106.000000
176.730480 70.000000
177.013810 73.000000
177.027220 62.000000
177.058090 147.000000
178.017000 88.000000
178.068920 62.000000
179.084170 150.000000
180.091830 77.000000
180.103300 77.000000
181.057220 84.000000
181.066390 95.000000
181.099140 73.000000
182.075090 125.000000
183.070590 99.000000
183.078230 275.000000
183.115010 73.000000
184.096300 88.000000
185.057270 179.000000
185.079850 66.000000
185.094680 571.000000
185.128830 73.000000
186.071530 73.000000
187.043560 154.000000
187.079010 132.000000
187.104390 125.000000
187.348680 77.000000
187.959110 62.000000
189.050830 106.000000
189.090580 77.000000
191.034610 158.000000
191.042570 172.000000
191.080340 70.000000
192.039340 92.000000
192.091520 139.000000
193.042080 66.000000
194.071850 73.000000
195.081280 242.000000
195.118900 66.000000
196.076720 62.000000
196.108570 73.000000
196.125690 77.000000
197.055080 70.000000
197.102830 88.000000
197.136340 66.000000
198.064830 62.000000
198.097290 66.000000
199.037350 179.000000
199.067890 220.000000
199.106580 66.000000
199.134750 84.000000
200.046810 125.000000
201.092500 231.000000
201.143620 70.000000
202.079390 70.000000
202.097490 99.000000
203.109850 139.000000
204.082870 106.000000
205.031360 84.000000
205.086550 62.000000
205.106900 77.000000
206.116640 66.000000
207.107740 70.000000
207.115480 201.000000
208.087750 95.000000
210.105790 139.000000
211.077060 158.000000
211.121640 73.000000
212.058300 81.000000
212.074840 165.000000
213.054290 73.000000
213.063170 81.000000
213.092760 73.000000
213.130540 73.000000
214.052340 84.000000
214.089940 95.000000
214.097850 62.000000
214.134740 88.000000
215.065510 84.000000
216.059190 121.000000
217.083940 158.000000
222.105220 66.000000
223.116760 73.000000
225.077030 62.000000
225.086580 81.000000
226.039900 66.000000
227.033630 128.000000
227.068590 66.000000
227.111770 77.000000
228.036060 125.000000
229.088900 150.000000
229.127620 88.000000
230.049220 99.000000
232.103100 81.000000
235.029390 77.000000
235.110050 150.000000
237.045170 103.000000
237.086270 70.000000
238.096600 66.000000
240.087190 110.000000
241.041430 81.000000
241.064120 81.000000
241.088350 227.000000
241.174580 62.000000
243.097760 77.000000
245.080220 62.000000
245.407030 165.000000
248.085140 132.000000
256.065920 66.000000
263.082430 70.000000
264.070650 139.000000
264.083310 77.000000
266.408720 62.000000
269.090850 99.000000
269.110530 62.000000
271.091770 73.000000
276.634190 121.000000
319.994570 66.000000
322.393130 66.000000
347.357120 62.000000

>ms2peaks
95.078300 7.000000
95.088460 6.000000
98.035860 6.000000
107.087670 8.000000
113.098880 7.000000
117.065440 5.000000
133.095790 5.000000
145.065140 6.000000
145.101760 6.000000
148.095150 6.000000
149.022080 6.000000
153.056590 5.000000
153.080230 6.000000
155.082500 6.000000
156.094830 6.000000
159.030260 7.000000
159.045730 10.000000
159.080860 6.000000
159.116010 13.000000
163.042800 15.000000
167.055280 9.000000
171.076890 5.000000
171.114410 8.000000
173.060750 7.000000
173.096080 12.000000
175.112500 6.000000
177.094860 7.000000
178.073820 5.000000
179.092350 9.000000
182.105760 6.000000
183.109920 8.000000
184.040650 6.000000
184.084120 5.000000
185.094480 14.000000
186.062090 5.000000
186.091310 12.000000
187.034760 10.000000
187.077240 9.000000
187.118550 8.000000
191.069370 5.000000
192.102310 5.000000
195.086610 7.000000
196.085160 9.000000
197.066210 6.000000
197.092070 5.000000
197.101640 5.000000
197.130920 7.000000
198.136700 10.000000
199.037490 6.000000
199.079540 10.000000
199.110470 5.000000
201.093250 20.000000
203.110090 8.000000
205.042390 5.000000
207.018590 6.000000
210.101390 5.000000
211.074570 13.000000
212.119540 6.000000
213.057070 10.000000
213.085490 6.000000
213.098140 6.000000
215.041990 5.000000
215.077800 5.000000
215.110290 6.000000
216.099530 5.000000
217.088590 13.000000
219.064730 6.000000
219.108350 10.000000
220.092380 5.000000
221.051910 8.000000
222.050490 8.000000
223.067090 10.000000
223.088910 7.000000
223.123610 6.000000
227.034840 20.000000
227.073940 12.000000
227.111950 7.000000
229.086070 20.000000
230.059040 6.000000
231.025420 5.000000
231.044600 8.000000
231.100050 23.000000
231.153260 5.000000
233.207000 5.000000
235.128540 6.000000
241.080630 7.000000
241.128330 14.000000
242.884200 5.000000
243.040410 7.000000
244.161290 5.000000
245.041890 14.000000
245.061020 8.000000
245.075620 24.000000
247.103780 6.000000
248.092820 7.000000
251.106750 9.000000
253.121030 10.000000
253.137560 6.000000
255.106720 6.000000
255.136890 16.000000
257.084290 44.000000
259.101620 11.000000
261.107790 7.000000
261.149720 11.000000
263.107360 9.000000
265.110810 5.000000
267.098420 12.000000
269.124630 11.000000
271.084930 5.000000
271.135710 17.000000
272.116880 5.000000
272.134830 15.000000
273.039610 6.000000
273.078000 13.000000
274.058110 6.000000
275.083440 23.000000
275.096340 38.000000
275.126370 6.000000
276.084840 5.000000
277.095310 15.000000
279.090940 7.000000
279.100460 16.000000
279.111720 6.000000
281.122920 18.000000
283.101990 10.000000
287.106170 9.000000
287.186220 5.000000
289.060490 11.000000
289.110990 15.000000
295.597080 5.000000
297.108800 53.000000
298.109190 11.000000
299.131990 14.000000
305.097660 25.000000
305.113430 33.000000
305.136720 7.000000
307.096280 5.000000
315.097440 6.000000
315.117550 33.000000
315.137050 24.000000
316.085750 5.000000
316.138430 9.000000
321.095980 29.000000
322.099670 5.000000
325.080320 6.000000
325.105220 12.000000
326.116060 17.000000
327.138550 5.000000
328.123870 5.000000
328.565090 6.000000
333.109710 5.000000
333.129880 8.000000
333.146760 9.000000
337.056270 16.000000
343.121190 13.000000
344.128600 11.000000
351.071690 5.000000
351.141420 18.000000
361.117250 60.000000
361.135010 104.000000
362.127750 15.000000
362.140900 15.000000
365.123200 5.000000
370.557310 5.000000
370.805360 6.000000
371.095180 8.000000
371.137880 8.000000
372.126530 7.000000
379.151340 50.000000
389.119570 10.000000
389.141510 18.000000
407.116360 12.000000
407.147190 7.000000
407.160950 14.000000
408.137450 5.000000
409.145720 11.000000
413.864990 8.000000
425.061520 5.000000
425.078160 9.000000
425.145690 1000.000000

>ms2peaks
361.126590 19.000000
379.139100 7.000000
425.143370 1000.000000

>ms2peaks
61.062790 40.000000
69.036590 49.000000
69.074360 40.000000
83.013980 165.000000
83.086650 40.000000
87.077460 47.000000
94.992540 47.000000
95.081370 63.000000
95.086740 114.000000
101.023680 49.000000
107.048720 53.000000
109.063190 40.000000
111.077540 58.000000
111.083620 56.000000
112.086800 51.000000
113.092510 105.000000
113.097860 56.000000
115.043140 60.000000
115.829930 84.000000
118.074130 47.000000
119.049630 53.000000
121.099690 40.000000
129.068130 100.000000
130.073820 47.000000
133.072570 56.000000
137.059300 40.000000
137.640290 49.000000
139.029450 114.000000
139.037770 47.000000
141.071380 86.000000
143.035610 91.000000
143.082120 177.000000
144.087360 58.000000
145.065750 93.000000
145.076400 40.000000
145.095490 42.000000
145.104430 126.000000
147.079090 91.000000
147.087340 40.000000
147.114650 56.000000
148.126340 56.000000
149.027790 109.000000
149.066890 44.000000
151.039570 49.000000
153.040330 49.000000
154.014180 40.000000
155.046720 88.000000
155.085100 195.000000
156.088360 70.000000
157.097030 53.000000
157.104570 58.000000
159.041340 42.000000
159.075650 42.000000
159.083480 88.000000
159.111740 42.000000
159.118030 102.000000
161.024950 44.000000
161.058010 77.000000
161.443980 49.000000
163.038510 47.000000
163.087450 42.000000
165.048490 47.000000
166.080860 40.000000
169.094730 42.000000
169.106170 88.000000
169.211700 58.000000
169.947890 49.000000
171.131200 49.000000
172.086640 119.000000
173.057800 235.000000
173.075930 65.000000
173.094300 84.000000
173.103780 56.000000
174.065660 42.000000
175.030290 77.000000
175.039380 128.000000
175.070630 40.000000
175.115430 181.000000
177.055480 312.000000
177.080120 49.000000
178.026280 40.000000
181.051790 56.000000
183.074140 58.000000
183.086820 74.000000
183.116620 42.000000
184.035450 42.000000
184.077550 56.000000
185.047290 65.000000
185.064160 265.000000
185.094600 358.000000
185.103970 70.000000
185.694550 40.000000
186.057160 40.000000
186.065340 95.000000
187.060710 109.000000
187.078450 133.000000
187.096270 42.000000
187.109630 200.000000
188.111150 53.000000
189.016590 49.000000
189.059570 242.000000
189.086180 53.000000
190.022640 65.000000
190.205700 40.000000
191.033400 77.000000
191.044480 56.000000
191.064470 58.000000
191.111100 56.000000
193.943470 40.000000
194.097270 40.000000
195.016400 40.000000
195.027740 95.000000
195.079900 56.000000
195.114820 79.000000
195.645360 51.000000
196.083560 84.000000
197.094760 212.000000
197.106400 58.000000
198.102550 42.000000
199.067860 47.000000
199.085160 74.000000
199.108280 123.000000
199.122470 58.000000
199.149440 53.000000
200.044600 58.000000
201.090710 184.000000
201.117740 91.000000
201.127320 51.000000
203.029860 44.000000
203.070600 107.000000
205.016140 67.000000
205.052410 84.000000
205.078250 53.000000
205.087690 44.000000
205.104950 47.000000
205.118150 114.000000
206.078510 42.000000
207.035220 40.000000
207.064510 40.000000
207.110310 47.000000
207.128020 56.000000
209.051860 63.000000
209.097690 105.000000
209.125030 40.000000
210.110890 91.000000
211.073610 40.000000
211.081390 56.000000
211.106960 95.000000
212.075200 67.000000
212.085860 47.000000
213.047900 47.000000
213.058270 47.000000
213.076750 91.000000
213.087810 140.000000
213.097530 93.000000
213.107100 42.000000
213.122440 58.000000
213.131960 86.000000
214.090530 109.000000
215.067980 123.000000
215.104630 58.000000
215.115980 98.000000
215.138900 72.000000
216.093410 47.000000
216.109800 51.000000
217.079670 40.000000
217.169630 53.000000
218.063690 51.000000
218.072590 47.000000
218.087840 56.000000
219.064900 79.000000
219.076930 40.000000
219.097470 63.000000
219.105190 49.000000
221.052990 70.000000
223.070270 93.000000
223.099240 91.000000
223.108550 42.000000
224.147310 58.000000
225.088200 316.000000
225.122920 323.000000
226.089370 47.000000
227.033870 98.000000
227.051350 49.000000
227.066350 193.000000
227.075870 156.000000
227.101530 95.000000
228.012740 42.000000
228.141100 49.000000
228.161820 51.000000
229.000260 40.000000
229.062160 70.000000
229.080630 123.000000
229.093930 251.000000
230.054290 53.000000
230.073000 47.000000
230.096470 100.000000
230.107530 47.000000
231.091060 153.000000
231.100860 360.000000
231.123210 40.000000
232.104250 47.000000
233.047030 102.000000
233.109190 49.000000
233.654680 74.000000
234.435810 40.000000
235.105270 112.000000
236.118410 44.000000
236.260620 49.000000
237.075240 40.000000
237.087590 44.000000
237.100600 47.000000
237.125470 79.000000
238.098630 47.000000
239.102130 40.000000
241.090360 221.000000
241.124160 181.000000
242.060710 47.000000
242.092190 86.000000
242.119220 47.000000
242.134770 107.000000
243.061140 81.000000
243.096540 128.000000
243.112010 51.000000
243.133030 91.000000
243.142040 84.000000
244.111820 42.000000
244.151790 47.000000
245.044560 251.000000
245.078550 435.000000
245.126140 47.000000
245.146670 112.000000
246.079710 84.000000
246.088530 40.000000
246.118680 58.000000
247.020260 81.000000
247.055630 67.000000
247.103640 40.000000
249.078890 81.000000
251.097560 133.000000
251.108810 40.000000
251.125170 77.000000
252.075960 47.000000
252.105010 40.000000
252.114780 47.000000
253.079150 95.000000
253.104520 42.000000
253.123730 374.000000
254.119080 88.000000
255.060420 47.000000
255.089430 53.000000
255.104230 156.000000
255.139100 70.000000
256.025730 40.000000
257.078700 393.000000
257.090790 102.000000
258.093630 105.000000
259.089570 393.000000
259.102510 174.000000
259.124850 91.000000
260.106020 235.000000
260.156070 58.000000
261.076230 40.000000
261.089140 47.000000
261.106260 79.000000
261.149260 137.000000
262.115570 40.000000
263.058230 42.000000
263.124940 67.000000
264.112090 47.000000
265.105770 40.000000
266.096100 40.000000
266.116520 93.000000
269.070860 133.000000
269.087070 47.000000
269.118410 519.000000
269.134700 77.000000
269.891690 47.000000
270.084660 98.000000
270.115630 158.000000
271.093990 100.000000
271.105710 202.000000
271.130950 142.000000
272.132660 84.000000
272.145230 74.000000
273.038450 105.000000
273.047550 63.000000
273.100520 42.000000
273.114070 63.000000
275.061520 165.000000
275.082980 140.000000
275.094210 91.000000
276.092160 47.000000
277.046110 42.000000
277.062160 40.000000
277.106870 47.000000
277.119840 49.000000
279.068790 40.000000
279.099030 253.000000
280.104920 53.000000
281.107480 165.000000
281.124240 200.000000
282.067540 56.000000
282.095640 47.000000
282.115690 40.000000
283.085750 44.000000
284.099000 40.000000
284.136140 53.000000
285.076080 102.000000
285.120880 40.000000
286.096190 49.000000
286.118590 47.000000
287.072850 49.000000
287.090670 177.000000
287.129460 251.000000
288.089080 53.000000
288.131320 86.000000
289.110840 216.000000
291.040160 42.000000
291.109070 44.000000
292.059480 49.000000
292.119080 56.000000
294.108980 40.000000
295.117000 47.000000
297.065030 49.000000
297.105410 435.000000
298.119350 188.000000
299.088530 81.000000
299.137790 47.000000
299.236080 42.000000
300.134520 81.000000
301.073180 40.000000
301.087770 47.000000
305.059840 40.000000
305.074650 116.000000
305.090640 326.000000
305.101930 1000.000000
306.093720 105.000000
306.112150 142.000000
306.999910 40.000000
309.101230 49.000000
309.114320 42.000000
310.091030 47.000000
314.108700 58.000000
315.051150 53.000000
315.061950 40.000000
315.083530 40.000000
315.122990 256.000000
319.040860 40.000000
319.109100 42.000000
319.128390 47.000000
321.057830 47.000000
321.079040 56.000000
321.090120 86.000000
325.099640 98.000000
325.111210 49.000000
327.119960 93.000000
334.127530 67.000000
337.047610 49.000000
343.113590 272.000000
343.134950 47.000000
345.119780 47.000000
351.140750 91.000000
361.111970 91.000000
361.122100 221.000000
361.137390 298.000000
361.154020 44.000000
362.134920 79.000000
371.110080 107.000000
373.274780 56.000000
389.122960 44.000000
409.152800 95.000000
425.116670 42.000000
425.146820 58.000000

>ms2peaks
59.051830 77.000000
63.259720 109.000000
69.071880 177.000000
78.708540 73.000000
79.734870 145.000000
81.070790 185.000000
83.007540 97.000000
83.013340 81.000000
85.027850 93.000000
91.050780 101.000000
91.057530 310.000000
95.088940 69.000000
97.031780 73.000000
101.021640 133.000000
105.072470 310.000000
108.049580 125.000000
108.083950 69.000000
109.067570 73.000000
109.096900 69.000000
112.087800 81.000000
115.050640 310.000000
116.063230 121.000000
117.024290 89.000000
117.032550 73.000000
117.069610 81.000000
118.044200 73.000000
119.072060 89.000000
119.084140 97.000000
120.058560 69.000000
120.094610 69.000000
122.035930 109.000000
123.020680 69.000000
125.019340 93.000000
128.047780 73.000000
128.060750 121.000000
128.066760 77.000000
129.069290 69.000000
131.055150 69.000000
131.064560 69.000000
131.082530 161.000000
132.068010 81.000000
133.027830 101.000000
133.061160 101.000000
133.067730 194.000000
134.070830 133.000000
135.041600 157.000000
135.050900 133.000000
141.061830 85.000000
141.069110 73.000000
142.074480 149.000000
142.082140 181.000000
143.027340 69.000000
143.084920 81.000000
144.092930 185.000000
144.099980 101.000000
145.070760 97.000000
145.100390 93.000000
147.081740 141.000000
149.091080 93.000000
151.041340 69.000000
153.074970 81.000000
154.071620 81.000000
154.079210 77.000000
155.053680 69.000000
155.085210 1000.000000
156.061980 85.000000
156.099620 93.000000
157.001510 93.000000
157.032070 69.000000
157.073380 97.000000
157.102810 435.000000
157.396930 93.000000
158.111210 73.000000
159.047970 161.000000
159.065780 81.000000
159.078170 85.000000
161.060360 81.000000
162.033360 117.000000
165.058410 89.000000
165.072950 722.000000
166.069560 133.000000
167.077000 81.000000
167.088320 198.000000
168.087660 93.000000
169.065350 137.000000
169.073990 97.000000
169.098010 149.000000
170.064620 85.000000
171.042880 81.000000
171.086640 105.000000
172.062180 89.000000
173.063080 145.000000
173.091890 242.000000
173.098880 165.000000
174.031810 81.000000
174.075440 109.000000
175.029500 105.000000
175.036090 109.000000
175.046770 97.000000
175.073650 101.000000
177.013490 81.000000
177.057040 81.000000
178.069150 109.000000
179.084530 230.000000
180.095430 448.000000
181.097460 113.000000
182.080720 77.000000
182.110950 69.000000
183.074080 347.000000
183.120610 69.000000
184.082640 137.000000
184.090740 81.000000
185.057540 85.000000
185.101910 101.000000
186.096100 73.000000
187.101000 73.000000
188.047450 81.000000
188.088990 73.000000
189.047990 81.000000
189.054890 77.000000
191.031620 435.000000
192.074550 69.000000
192.091660 81.000000
192.099950 93.000000
193.028080 93.000000
193.042660 81.000000
193.100520 73.000000
194.094920 81.000000
194.112370 101.000000
195.075440 77.000000
195.082410 81.000000
195.101940 73.000000
196.087420 121.000000
197.066800 89.000000
197.095960 206.000000
197.101790 93.000000
199.039380 93.000000
199.071240 89.000000
201.083010 69.000000
202.061770 69.000000
203.035020 113.000000
205.053270 81.000000
205.104130 69.000000
208.080760 97.000000
209.097600 141.000000
210.077910 97.000000
210.087690 145.000000
211.061100 69.000000
211.101010 81.000000
212.030290 73.000000
213.051380 77.000000
215.027110 69.000000
215.081820 153.000000
215.109150 185.000000
216.075910 73.000000
220.088750 129.000000
223.077030 77.000000
226.053590 105.000000
226.687450 97.000000
227.049160 81.000000
227.073910 109.000000
229.085110 85.000000
229.095440 77.000000
230.077440 93.000000
237.079410 73.000000
241.120650 81.000000
243.099040 73.000000
247.044750 69.000000
253.081970 73.000000
269.124330 85.000000
271.060880 93.000000
273.091890 89.000000
279.034730 97.000000

>ms2peaks
91.057210 7.000000
97.029730 13.000000
119.081380 6.000000
123.079910 6.000000
127.038210 7.000000
135.045500 6.000000
137.060620 6.000000
141.071590 10.000000
145.019180 5.000000
145.066470 39.000000
147.078020 6.000000
147.128920 5.000000
151.004640 6.000000
151.828900 7.000000
153.074630 7.000000
157.100650 14.000000
159.074430 6.000000
159.080340 16.000000
161.062810 10.000000
162.064090 8.000000
163.041640 7.000000
164.122180 6.000000
167.040880 6.000000
168.080580 6.000000
169.060410 9.000000
169.099500 6.000000
171.072880 6.000000
173.061050 6.000000
173.095760 13.000000
176.073940 6.000000
176.088380 6.000000
177.051240 24.000000
177.097110 6.000000
183.123090 6.000000
185.059190 6.000000
185.095020 6.000000
187.073680 9.000000
187.109790 9.000000
189.065430 8.000000
191.035310 6.000000
191.102310 9.000000
195.090240 5.000000
195.122150 14.000000
197.089420 6.000000
198.070540 6.000000
201.084210 9.000000
201.094620 13.000000
203.034480 11.000000
203.114640 7.000000
207.022250 5.000000
207.037280 6.000000
207.120360 10.000000
210.069090 5.000000
211.110280 7.000000
212.079800 12.000000
213.060440 5.000000
213.087430 23.000000
213.098390 21.000000
213.130650 9.000000
214.091220 5.000000
215.060240 5.000000
215.106050 11.000000
217.086140 18.000000
219.065580 6.000000
219.100510 16.000000
221.036880 5.000000
221.046680 21.000000
223.043230 6.000000
223.110020 18.000000
225.092030 12.000000
225.138530 5.000000
226.095700 10.000000
229.097900 10.000000
229.111540 12.000000
230.102950 5.000000
231.099820 13.000000
231.140780 8.000000
234.064480 6.000000
235.117230 18.000000
237.087490 5.000000
237.143880 6.000000
237.593640 6.000000
238.095230 6.000000
239.078920 5.000000
241.083940 24.000000
241.124860 13.000000
243.059160 10.000000
243.101350 10.000000
245.087910 19.000000
245.113220 10.000000
247.056440 9.000000
247.105770 10.000000
247.131880 7.000000
249.110870 5.000000
251.040790 6.000000
251.060130 8.000000
251.099060 6.000000
251.110870 10.000000
253.127640 26.000000
255.030140 5.000000
255.137890 6.000000
255.403140 5.000000
257.043730 13.000000
257.075870 25.000000
257.091670 25.000000
257.122130 10.000000
259.097870 9.000000
261.111570 5.000000
262.091250 8.000000
269.094570 5.000000
269.114500 15.000000
271.129150 19.000000
272.130860 6.000000
273.036990 7.000000
273.049800 6.000000
273.072940 8.000000
275.074550 16.000000
275.093600 35.000000
276.092900 11.000000
277.133240 5.000000
278.113130 6.000000
280.073300 5.000000
281.114110 14.000000
283.122860 5.000000
287.125850 14.000000
287.394840 5.000000
289.107240 6.000000
289.117770 5.000000
289.156920 6.000000
293.065610 7.000000
296.086060 6.000000
297.098180 5.000000
297.116270 9.000000
299.119930 21.000000
301.069000 18.000000
301.143550 14.000000
305.090330 12.000000
305.104550 73.000000
306.111330 10.000000
307.094540 15.000000
309.108120 6.000000
315.111850 14.000000
315.123320 14.000000
316.781770 6.000000
318.982540 6.000000
319.050540 7.000000
320.044860 9.000000
321.069000 6.000000
321.108310 21.000000
325.093350 8.000000
325.112920 6.000000
327.106990 9.000000
327.125000 16.000000
333.123690 16.000000
333.143430 13.000000
335.095920 13.000000
337.060820 5.000000
339.069090 9.000000
343.114840 33.000000
344.108670 6.000000
344.131770 9.000000
347.104520 6.000000
361.109530 23.000000
361.132510 127.000000
362.121120 13.000000
363.123630 7.000000
371.118260 48.000000
372.123170 6.000000
379.127010 9.000000
389.122470 47.000000
390.132970 13.000000
407.123170 21.000000
407.141300 20.000000
408.132870 10.000000
409.157470 17.000000
425.145720 1000.000000
425.189790 6.000000

>ms2peaks
361.120790 12.000000
425.143770 1000.000000

>ms2peaks
65.036830 28.000000
71.087250 41.000000
79.054020 28.000000
83.082130 35.000000
91.051510 43.000000
94.070660 41.000000
94.078570 25.000000
95.087660 32.000000
96.940200 25.000000
97.030930 53.000000
97.064860 59.000000
104.974430 50.000000
105.071840 85.000000
110.065800 28.000000
111.064350 25.000000
112.091910 37.000000
113.022420 29.000000
113.096170 31.000000
120.088210 31.000000
123.086480 49.000000
125.029340 25.000000
129.062210 35.000000
129.074940 25.000000
133.064900 32.000000
142.075640 25.000000
142.082340 31.000000
143.091450 26.000000
145.029880 26.000000
145.059680 134.000000
145.068830 165.000000
145.101100 184.000000
146.101390 32.000000
147.087480 63.000000
148.049010 26.000000
149.025820 76.000000
149.057340 59.000000
151.045410 75.000000
152.043170 56.000000
153.020580 25.000000
155.034070 35.000000
155.079190 29.000000
155.088180 60.000000
155.531850 49.000000
157.061740 29.000000
157.096910 26.000000
157.110140 38.000000
158.073490 25.000000
159.041760 26.000000
159.049100 47.000000
159.083340 66.000000
159.109530 32.000000
159.119950 32.000000
159.127530 26.000000
160.127960 29.000000
161.058070 78.000000
161.103350 50.000000
162.021620 25.000000
162.061630 44.000000
163.033170 60.000000
163.057070 25.000000
165.097240 26.000000
166.085860 26.000000
167.033950 34.000000
167.085780 84.000000
169.106120 54.000000
170.109890 35.000000
171.081240 91.000000
171.109940 63.000000
171.178500 26.000000
172.084930 43.000000
172.127090 25.000000
173.057110 32.000000
173.065280 32.000000
173.084170 29.000000
173.094560 159.000000
173.132610 29.000000
175.028500 26.000000
175.039220 59.000000
175.047850 37.000000
175.072360 62.000000
175.114410 25.000000
176.064190 31.000000
177.012300 25.000000
177.054950 93.000000
177.079730 26.000000
177.099370 26.000000
179.036270 109.000000
180.049330 26.000000
181.084060 25.000000
181.097560 25.000000
183.076800 37.000000
183.084580 29.000000
185.023450 31.000000
185.058290 29.000000
185.068050 40.000000
185.076690 32.000000
185.098100 369.000000
186.067440 29.000000
187.073700 29.000000
187.108550 128.000000
187.118760 29.000000
188.117860 72.000000
189.023900 122.000000
189.040190 26.000000
189.083760 26.000000
189.165990 34.000000
191.018430 32.000000
191.034320 34.000000
191.064240 53.000000
191.099320 34.000000
191.112670 81.000000
193.010330 25.000000
193.041580 31.000000
195.041660 54.000000
195.108540 29.000000
195.123350 94.000000
196.087050 31.000000
196.098330 29.000000
197.099590 150.000000
197.132370 26.000000
197.141100 40.000000
198.098270 65.000000
199.066820 96.000000
199.077640 99.000000
199.106610 26.000000
199.130660 29.000000
199.147280 46.000000
199.158550 26.000000
200.081590 25.000000
200.130810 32.000000
201.054860 74.000000
201.079390 31.000000
201.094410 191.000000
201.514570 57.000000
202.756160 28.000000
203.025310 26.000000
203.035980 29.000000
203.068850 122.000000
203.096590 60.000000
203.333630 25.000000
204.997440 25.000000
205.052960 28.000000
205.107740 49.000000
206.047670 28.000000
206.079060 31.000000
206.980710 26.000000
207.026760 166.000000
207.039350 63.000000
207.078290 37.000000
207.121060 51.000000
208.097080 40.000000
208.206480 25.000000
209.064290 26.000000
209.089340 31.000000
209.137510 44.000000
210.127000 29.000000
211.066540 59.000000
211.081800 35.000000
211.114170 62.000000
211.142670 60.000000
212.085600 26.000000
212.119220 29.000000
213.064210 26.000000
213.092450 250.000000
213.130110 90.000000
214.055280 46.000000
214.093860 37.000000
214.129590 35.000000
215.034910 25.000000
215.067280 43.000000
215.075790 62.000000
215.092010 56.000000
215.111980 100.000000
215.137070 25.000000
217.040910 25.000000
217.050380 134.000000
217.061890 37.000000
217.103620 26.000000
217.113880 34.000000
217.129580 37.000000
218.421190 32.000000
219.034300 103.000000
219.068440 29.000000
219.097320 29.000000
220.095960 84.000000
221.040130 81.000000
221.061680 41.000000
223.041870 28.000000
223.060240 28.000000
223.077930 26.000000
223.105700 44.000000
223.128860 49.000000
224.082180 34.000000
225.082150 26.000000
225.090960 125.000000
225.127120 125.000000
225.145450 68.000000
226.074810 76.000000
226.096020 29.000000
227.041930 54.000000
227.094130 63.000000
227.115220 59.000000
227.139190 43.000000
227.150050 28.000000
228.125230 68.000000
229.044280 81.000000
229.053800 53.000000
229.084290 341.000000
230.082980 31.000000
230.129060 35.000000
231.083340 32.000000
231.097520 165.000000
232.105000 31.000000
232.135310 26.000000
233.041500 29.000000
233.063030 28.000000
233.110720 26.000000
233.195860 29.000000
234.048050 41.000000
236.033950 29.000000
236.063110 26.000000
236.119030 25.000000
236.323290 62.000000
237.082030 34.000000
237.097270 46.000000
237.120150 29.000000
237.923890 25.000000
238.147350 31.000000
238.318500 29.000000
238.862530 25.000000
239.069350 99.000000
241.017030 26.000000
241.045550 51.000000
241.082990 318.000000
241.099590 75.000000
241.125670 84.000000
242.080930 26.000000
242.127810 31.000000
242.137270 54.000000
243.058530 25.000000
243.066930 37.000000
243.109760 25.000000
243.124500 59.000000
243.135830 62.000000
243.146010 71.000000
243.161420 31.000000
244.154160 25.000000
245.024670 31.000000
245.045210 65.000000
245.074040 71.000000
245.095050 60.000000
245.112880 179.000000
246.090870 35.000000
247.046620 34.000000
247.068180 84.000000
247.091220 71.000000
247.105990 40.000000
247.115080 31.000000
247.128630 35.000000
248.135800 53.000000
249.079120 66.000000
249.115720 35.000000
250.101810 40.000000
251.068800 29.000000
251.098340 91.000000
251.119020 25.000000
252.109950 26.000000
253.064390 26.000000
253.087970 104.000000
253.111330 56.000000
253.123280 87.000000
253.130190 34.000000
254.094730 29.000000
254.124280 97.000000
254.999050 25.000000
255.059010 35.000000
255.072270 129.000000
255.113300 82.000000
255.133180 25.000000
256.132050 31.000000
257.078160 251.000000
257.092100 38.000000
257.108030 65.000000
257.117160 113.000000
258.052640 29.000000
258.087340 181.000000
259.066960 50.000000
259.094570 276.000000
259.132840 56.000000
260.084410 29.000000
261.074950 29.000000
261.090000 32.000000
261.108400 87.000000
261.139040 34.000000
262.961400 37.000000
263.019010 26.000000
263.123470 26.000000
264.057800 25.000000
264.111630 32.000000
265.119840 82.000000
267.063320 26.000000
268.079800 28.000000
268.110080 29.000000
269.052490 44.000000
269.082000 132.000000
269.100010 32.000000
269.121190 325.000000
270.119600 60.000000
271.096650 107.000000
271.138580 78.000000
271.945950 26.000000
272.085300 29.000000
272.139250 25.000000
273.048280 28.000000
273.102480 29.000000
273.119720 32.000000
273.132690 43.000000
274.036250 25.000000
274.878850 29.000000
275.091640 149.000000
276.096190 56.000000
277.045590 29.000000
277.103940 25.000000
277.148130 28.000000
278.119630 44.000000
279.084780 38.000000
279.100400 221.000000
280.070190 53.000000
280.103000 88.000000
281.079930 69.000000
281.120940 213.000000
283.091520 37.000000
283.113220 26.000000
283.152220 25.000000
284.115600 43.000000
285.069430 53.000000
286.078310 50.000000
286.138520 29.000000
286.727170 25.000000
287.053130 28.000000
287.091130 162.000000
287.117950 88.000000
287.138370 88.000000
287.302860 25.000000
288.128570 25.000000
289.080080 41.000000
289.107480 137.000000
289.130130 54.000000
289.143070 116.000000
290.118800 28.000000
291.053220 38.000000
293.084720 60.000000
296.103730 26.000000
297.110410 201.000000
297.132840 26.000000
298.075230 31.000000
298.117710 109.000000
299.126770 107.000000
299.137540 87.000000
300.129180 40.000000
300.138640 26.000000
301.086640 29.000000
302.033480 32.000000
302.086270 35.000000
303.083440 31.000000
303.122710 32.000000
305.103520 1000.000000
305.136570 26.000000
306.106200 184.000000
307.098420 107.000000
307.118840 25.000000
308.103300 26.000000
309.119110 60.000000
311.078220 29.000000
312.091490 25.000000
313.519290 56.000000
315.097290 47.000000
315.110290 78.000000
315.128540 106.000000
316.128020 35.000000
319.048000 34.000000
321.089200 26.000000
325.097440 44.000000
325.110690 99.000000
325.123960 44.000000
326.059420 43.000000
326.097900 29.000000
326.109470 56.000000
327.131160 93.000000
328.115020 25.000000
333.141570 25.000000
335.030460 28.000000
335.095000 32.000000
335.105440 25.000000
338.048250 29.000000
343.078550 25.000000
343.103580 57.000000
343.119420 179.000000
343.128170 51.000000
344.128880 63.000000
344.144870 29.000000
347.154140 28.000000
347.574920 32.000000
351.139100 65.000000
353.096440 25.000000
353.107940 25.000000
354.108000 35.000000
361.109310 24.000000
361.128910 401.000000
362.112550 28.000000
362.143340 32.000000
364.120670 43.000000
371.099580 43.000000
371.116060 25.000000
425.133120 66.000000
425.148250 28.000000

>ms2peaks
67.057990 70.000000
79.055920 238.000000
83.015240 168.000000
83.086320 66.000000
91.050510 109.000000
93.069960 246.000000
94.075900 86.000000
95.076870 113.000000
95.089840 98.000000
96.083160 82.000000
97.028260 102.000000
101.016000 78.000000
103.046780 78.000000
103.055150 141.000000
105.031680 74.000000
105.072010 86.000000
105.077970 82.000000
107.050610 129.000000
110.068850 70.000000
113.027930 105.000000
115.051450 66.000000
115.058060 66.000000
117.062130 121.000000
117.067990 70.000000
119.087530 86.000000
121.063630 234.000000
121.068200 82.000000
123.048070 66.000000
125.029110 70.000000
125.064510 70.000000
127.058430 262.000000
128.059340 406.000000
128.066560 156.000000
129.069750 988.000000
130.062150 70.000000
130.070950 66.000000
130.080020 168.000000
131.088210 242.000000
132.053210 211.000000
133.027510 270.000000
134.039610 70.000000
135.039440 117.000000
135.089570 78.000000
136.048970 82.000000
137.061140 82.000000
137.090320 102.000000
139.040340 82.000000
139.056660 74.000000
141.066800 148.000000
141.073350 242.000000
142.042110 78.000000
142.080810 621.000000
143.045230 309.000000
143.053940 62.000000
143.081560 1000.000000
144.057270 90.000000
144.099060 74.000000
144.986390 70.000000
145.067540 277.000000
145.100690 301.000000
147.040790 207.000000
147.079190 86.000000
148.042820 98.000000
149.062700 94.000000
150.022000 74.000000
151.057110 70.000000
152.066670 66.000000
153.071490 199.000000
153.077770 125.000000
154.075700 94.000000
154.081850 66.000000
155.046010 78.000000
155.050450 164.000000
155.085110 367.000000
156.090180 301.000000
157.069870 230.000000
157.098970 574.000000
158.070950 246.000000
159.043590 172.000000
159.064580 66.000000
159.081600 227.000000
159.092860 78.000000
159.118420 102.000000
161.027160 270.000000
161.052750 102.000000
161.063280 74.000000
161.099870 168.000000
162.066240 98.000000
163.036350 203.000000
165.017930 297.000000
165.070950 418.000000
167.088350 477.000000
167.094220 148.000000
168.088460 219.000000
169.009660 74.000000
169.062850 74.000000
169.069440 78.000000
170.103060 234.000000
171.030940 102.000000
171.046050 160.000000
171.081470 164.000000
171.109820 74.000000
171.117980 145.000000
172.088150 141.000000
173.062410 98.000000
175.036470 305.000000
175.042980 152.000000
176.113910 191.000000
177.013120 70.000000
177.078540 82.000000
178.052060 90.000000
178.082610 74.000000
179.083470 82.000000
179.092300 86.000000
180.087250 86.000000
181.097930 145.000000
182.104780 152.000000
183.084110 316.000000
183.118010 90.000000
184.086330 70.000000
184.093950 66.000000
185.027740 102.000000
185.056030 434.000000
185.104160 172.000000
186.070470 105.000000
187.062680 86.000000
187.075440 340.000000
187.112870 66.000000
188.026720 86.000000
189.021960 70.000000
189.035280 66.000000
189.046170 90.000000
189.094270 82.000000
190.063830 78.000000
191.032580 66.000000
191.077130 90.000000
191.091920 86.000000
192.040500 152.000000
192.083420 109.000000
192.102360 156.000000
193.014560 74.000000
193.261860 70.000000
194.078920 195.000000
194.104810 66.000000
195.076030 117.000000
195.086430 137.000000
195.106370 113.000000
195.118990 176.000000
195.178410 152.000000
196.087190 133.000000
196.102220 70.000000
197.096540 414.000000
199.064770 70.000000
199.077350 82.000000
200.117860 74.000000
201.055110 180.000000
201.093310 188.000000
202.063670 113.000000
203.070280 242.000000
203.107760 66.000000
204.052430 113.000000
205.102780 160.000000
207.074630 199.000000
207.084690 78.000000
208.036610 66.000000
209.062120 82.000000
209.073200 70.000000
209.097720 86.000000
210.070180 70.000000
210.102800 301.000000
211.071060 219.000000
211.085040 66.000000
211.104860 129.000000
213.056080 78.000000
213.087200 78.000000
213.099370 66.000000
213.123280 66.000000
214.095290 66.000000
215.057620 78.000000
215.069500 285.000000
215.110090 277.000000
216.039860 168.000000
216.712020 70.000000
217.051830 66.000000
218.046160 78.000000
219.073140 66.000000
221.097890 78.000000
223.081500 98.000000
223.105580 82.000000
225.097400 78.000000
227.043610 74.000000
227.075130 70.000000
227.104290 105.000000
229.048980 70.000000
229.077180 78.000000
231.063220 74.000000
235.068280 74.000000
235.104320 145.000000
236.084930 70.000000
237.099350 74.000000
238.095180 215.000000
239.069410 78.000000
240.067520 66.000000
241.043410 113.000000
241.070740 86.000000
241.102660 109.000000
243.066440 82.000000
245.067440 66.000000
252.114150 78.000000
254.101910 164.000000
260.094090 66.000000
260.117280 74.000000
266.090850 70.000000
267.314850 66.000000
268.071780 66.000000
269.128630 109.000000
271.075260 90.000000
280.082000 78.000000
281.136020 66.000000
282.078670 94.000000
305.098600 70.000000

