>compound PR70349854
>parentmass 385.2121838
>ionization [M+H]+
>formula C22H28N2O4
>rt 276.688020
>profile qtof
#smiles_iso C[C@@H]([C@H]1C[C@@H]2C[C@@]3([C@H]1N(C2)CCC4=C3NC5=C4C=C(C=C5)OC)C(=O)OC)O
#smiles_can CC(C1CC2CC3(C1N(C2)CCC4=C3NC5=C4C=C(C=C5)OC)C(=O)OC)O
#inchikey OYMQKBZMKFJPMH-VJMPXSKLSA-N
#pubchem_id 196982
#mb_accession PR300004,PR300009,PR300014,PR300019,PR300024,PR300029,PR300034,PR300039,PR300044,PR300048,PR300053,PR300058

>ms2
122.094670 9.000000
136.112410 32.000000
148.109850 7.000000
174.091600 28.000000
186.091020 14.000000
187.089860 5.000000
198.092160 8.000000
200.108760 6.000000
201.105090 8.000000
210.085250 6.000000
210.094530 11.000000
244.095690 6.000000
246.114490 5.000000
251.119090 8.000000
279.148560 6.000000
292.157350 9.000000
293.162260 8.000000
307.182530 44.000000
308.174070 8.000000
308.183380 16.000000
335.174800 61.000000
336.179990 8.000000
367.201600 151.000000
368.205960 40.000000
369.206940 6.000000
385.149660 8.000000
385.211910 1000.000000
385.269130 28.000000

>ms2
385.153720 7.000000
385.212130 1000.000000
385.269170 31.000000

>ms2
93.067440 19.000000
98.096720 7.000000
107.084260 8.000000
108.076930 10.000000
110.095920 20.000000
110.100850 7.000000
111.104340 6.000000
119.084690 16.000000
120.083410 10.000000
122.095630 119.000000
123.096920 10.000000
134.100050 11.000000
135.105440 31.000000
136.110960 295.000000
137.114870 27.000000
137.121190 12.000000
147.075940 19.000000
147.085690 6.000000
148.113040 69.000000
149.117110 9.000000
158.096760 28.000000
159.095900 12.000000
160.072690 26.000000
160.081150 11.000000
161.094730 5.000000
162.091370 18.000000
162.099150 5.000000
173.079790 7.000000
174.091320 218.000000
175.081500 6.000000
175.095660 48.000000
176.098460 10.000000
177.096980 6.000000
184.073500 13.000000
185.084660 5.000000
186.091720 112.000000
187.096250 20.000000
188.093890 12.000000
188.104780 17.000000
189.102400 35.000000
194.118420 21.000000
197.084120 10.000000
198.092940 60.000000
199.087940 14.000000
199.098560 10.000000
200.069210 7.000000
200.107970 43.000000
201.100510 43.000000
201.110960 15.000000
202.113660 20.000000
203.114430 5.000000
206.118560 24.000000
210.091540 83.000000
211.094730 27.000000
212.070310 13.000000
212.095780 9.000000
212.109820 9.000000
214.078190 23.000000
214.088970 35.000000
214.121720 6.000000
215.122860 5.000000
224.074420 6.000000
224.106310 24.000000
225.111390 7.000000
226.087540 38.000000
228.106570 8.000000
228.132890 6.000000
229.103970 5.000000
232.084870 6.000000
232.098820 36.000000
233.106630 7.000000
237.104720 27.000000
238.086840 56.000000
238.112140 6.000000
238.126360 8.000000
239.090450 5.000000
239.125690 5.000000
241.098540 9.000000
244.098660 30.000000
246.113750 69.000000
247.098880 5.000000
247.113070 15.000000
250.081630 10.000000
250.117110 9.000000
250.129260 8.000000
251.117420 21.000000
252.088580 6.000000
252.101010 18.000000
252.129500 7.000000
252.145400 5.000000
253.095200 5.000000
253.132250 32.000000
254.128280 8.000000
258.102480 22.000000
258.115200 72.000000
259.115080 15.000000
260.127530 13.000000
260.135500 6.000000
261.107510 7.000000
262.122410 10.000000
263.113040 7.000000
264.101810 6.000000
264.125670 10.000000
264.141570 25.000000
265.091710 10.000000
265.100740 15.000000
265.140260 13.000000
265.151520 6.000000
266.110110 13.000000
267.112400 6.000000
270.088260 7.000000
270.106380 16.000000
270.115230 51.000000
271.108120 5.000000
276.132390 9.000000
276.145540 12.000000
277.124110 8.000000
277.156890 5.000000
278.118470 6.000000
278.155430 53.000000
279.121770 9.000000
279.152800 46.000000
280.131500 8.000000
280.152310 9.000000
280.164980 7.000000
281.166050 22.000000
282.108490 10.000000
284.119420 10.000000
284.133480 29.000000
285.135100 8.000000
290.156070 15.000000
291.139770 10.000000
291.150090 11.000000
292.123410 7.000000
292.136780 11.000000
292.151120 13.000000
292.161650 22.000000
293.160890 21.000000
293.172270 12.000000
294.145170 7.000000
294.170260 7.000000
296.135830 13.000000
305.134340 9.000000
306.152830 9.000000
307.147950 14.000000
307.181610 457.000000
307.510100 5.000000
308.182100 104.000000
308.195250 45.000000
309.186580 20.000000
311.132600 7.000000
311.151090 13.000000
312.146060 7.000000
312.160280 10.000000
320.156280 14.000000
321.154720 6.000000
324.171970 7.000000
324.188080 8.000000
335.175690 597.000000
336.178680 138.000000
337.154480 5.000000
337.182590 18.000000
338.165770 9.000000
339.194060 9.000000
339.211060 9.000000
352.162230 6.000000
352.183930 30.000000
367.113980 5.000000
367.143160 6.000000
367.166290 24.000000
367.201780 1000.000000
368.158390 8.000000
368.204440 275.000000
369.183140 5.000000
369.207640 39.000000
385.150360 11.000000
385.211670 607.000000

>ms2
55.055730 9.000000
59.009170 10.000000
67.055420 48.000000
69.071790 23.000000
77.034160 8.000000
77.038240 20.000000
78.246260 6.000000
79.040660 7.000000
79.051120 22.000000
79.057000 34.000000
80.046460 25.000000
80.052350 20.000000
80.062580 19.000000
81.053550 9.000000
81.067960 39.000000
81.076390 19.000000
82.065320 24.000000
85.066600 17.000000
90.973380 6.000000
91.044070 34.000000
91.053600 200.000000
91.063160 12.000000
92.050510 21.000000
92.058150 23.000000
93.054680 51.000000
93.070270 172.000000
93.211870 6.000000
93.863380 6.000000
94.065510 127.000000
94.082920 15.000000
94.331430 7.000000
95.066800 16.000000
95.072550 10.000000
95.077480 10.000000
95.088150 12.000000
95.239620 6.000000
96.045630 10.000000
96.070140 11.000000
96.080780 41.000000
98.095800 7.000000
100.879590 6.000000
101.012020 7.000000
101.174350 15.000000
103.024220 6.000000
103.047710 14.000000
103.056420 10.000000
104.058010 7.000000
105.027090 10.000000
105.060050 11.000000
105.070720 33.000000
106.065130 48.000000
106.072430 15.000000
106.201130 6.000000
107.052600 7.000000
107.074650 60.000000
107.087750 74.000000
108.059110 10.000000
108.080160 144.000000
108.092760 15.000000
110.059910 30.000000
110.099440 57.000000
110.783710 6.000000
111.082960 11.000000
112.052930 12.000000
113.112800 6.000000
115.032710 6.000000
115.055920 48.000000
116.041580 14.000000
116.050910 22.000000
116.059870 31.000000
117.042050 8.000000
117.052720 15.000000
117.058080 34.000000
117.070340 34.000000
117.929730 7.000000
118.051450 8.000000
118.066930 68.000000
118.079610 28.000000
119.040880 11.000000
119.046910 6.000000
119.061080 14.000000
119.071350 27.000000
119.085550 130.000000
120.049350 6.000000
120.057600 31.000000
120.079220 112.000000
120.092660 8.000000
120.110340 6.000000
120.211940 10.000000
121.062680 10.000000
121.089050 202.000000
122.060350 9.000000
122.077960 10.000000
122.094920 448.000000
122.588780 9.000000
122.888560 8.000000
123.059300 7.000000
123.073230 16.000000
123.097070 16.000000
123.102740 9.000000
125.104300 10.000000
125.706550 7.000000
126.172780 6.000000
127.019350 8.000000
127.054730 30.000000
128.050570 6.000000
128.057560 12.000000
128.062820 27.000000
128.946490 7.000000
129.060350 21.000000
129.072020 31.000000
130.053240 12.000000
130.063000 55.000000
131.059590 15.000000
131.076750 181.000000
131.219510 8.000000
132.042820 7.000000
132.066880 9.000000
132.079420 69.000000
133.053860 41.000000
133.066680 39.000000
133.088070 32.000000
133.658480 11.000000
134.061080 6.000000
134.066280 18.000000
134.097210 125.000000
134.667100 7.000000
134.817980 6.000000
135.077090 14.000000
135.084120 10.000000
135.104630 468.000000
136.075700 13.000000
136.111850 640.000000
136.131380 17.000000
136.156390 6.000000
136.938260 6.000000
137.056790 9.000000
137.104250 33.000000
137.115220 82.000000
137.201690 7.000000
138.092330 7.000000
139.056840 39.000000
140.039690 10.000000
140.062970 34.000000
141.052800 23.000000
141.060520 30.000000
142.061740 23.000000
142.067440 26.000000
142.083010 6.000000
143.039430 13.000000
143.044680 9.000000
143.073290 327.000000
143.135590 11.000000
143.709780 8.000000
144.051450 42.000000
144.060460 46.000000
144.081800 70.000000
144.090470 9.000000
145.024310 17.000000
145.046840 25.000000
145.055630 44.000000
145.063810 74.000000
145.072370 16.000000
145.086810 50.000000
146.056500 33.000000
146.074980 31.000000
146.090880 81.000000
147.067060 27.000000
147.073670 41.000000
147.102160 35.000000
148.069900 57.000000
148.077420 15.000000
148.088560 22.000000
148.112230 158.000000
148.123180 17.000000
148.141940 7.000000
149.119780 21.000000
149.127960 15.000000
150.071290 12.000000
151.030140 8.000000
151.106060 10.000000
152.051610 9.000000
152.307800 10.000000
153.063020 6.000000
153.078290 6.000000
154.038270 16.000000
154.049120 21.000000
154.066350 356.000000
154.087450 6.000000
154.126480 11.000000
154.892060 7.000000
155.072390 435.000000
155.716060 10.000000
156.050310 9.000000
156.058040 8.000000
156.073200 79.000000
156.081240 67.000000
156.094090 19.000000
156.201080 8.000000
157.046360 20.000000
157.056440 10.000000
157.064190 9.000000
157.085970 157.000000
157.469530 6.000000
158.036580 9.000000
158.056820 38.000000
158.071060 22.000000
158.084060 47.000000
158.095790 86.000000
158.550830 9.000000
159.034640 9.000000
159.051120 38.000000
159.066820 325.000000
159.073550 116.000000
159.089020 12.000000
159.100560 17.000000
160.042620 9.000000
160.052890 6.000000
160.075440 204.000000
160.104860 7.000000
160.111010 12.000000
161.064120 15.000000
161.083790 48.000000
162.083830 11.000000
162.093120 73.000000
162.329380 6.000000
163.798030 7.000000
164.106460 6.000000
165.070220 8.000000
165.152150 7.000000
165.975650 9.000000
166.068560 31.000000
166.077770 20.000000
166.088900 7.000000
166.117690 11.000000
166.255020 14.000000
166.824190 9.000000
167.035610 10.000000
167.045780 9.000000
167.074400 903.000000
167.195330 9.000000
167.314510 6.000000
167.325260 8.000000
167.989170 12.000000
168.048780 7.000000
168.063600 71.000000
168.079330 281.000000
168.090000 54.000000
168.539930 7.000000
169.051610 70.000000
169.059050 37.000000
169.072890 31.000000
169.085330 143.000000
169.265870 10.000000
169.817990 6.000000
170.041660 20.000000
170.050980 65.000000
170.058240 50.000000
170.067700 57.000000
170.080730 25.000000
170.092710 20.000000
170.104490 7.000000
171.045880 17.000000
171.056380 56.000000
171.065170 177.000000
171.084790 15.000000
171.121810 7.000000
171.158480 6.000000
172.046660 11.000000
172.068020 85.000000
172.077930 198.000000
172.089110 37.000000
172.109710 12.000000
172.148570 7.000000
173.070040 33.000000
173.080640 161.000000
173.092830 29.000000
173.106220 7.000000
173.638110 10.000000
173.756530 8.000000
174.090180 490.000000
174.240200 20.000000
175.086070 24.000000
175.097930 55.000000
175.511140 6.000000
176.067180 20.000000
176.093800 23.000000
176.109620 21.000000
178.063980 16.000000
178.071690 23.000000
178.125120 14.000000
179.071560 63.000000
179.085750 6.000000
180.051590 13.000000
180.077840 49.000000
180.085950 42.000000
181.053180 31.000000
181.074540 54.000000
181.089520 292.000000
181.562260 6.000000
182.058290 125.000000
182.088580 104.000000
182.099080 17.000000
183.062730 156.000000
183.069550 302.000000
183.095760 39.000000
184.032790 18.000000
184.039050 6.000000
184.057040 35.000000
184.073440 383.000000
184.102130 24.000000
184.110340 10.000000
184.120130 11.000000
185.061710 22.000000
185.081880 239.000000
185.117100 7.000000
185.133640 8.000000
185.548550 6.000000
185.772000 10.000000
186.009030 7.000000
186.058270 47.000000
186.077150 72.000000
186.092070 518.000000
187.063170 26.000000
187.089510 50.000000
187.105770 33.000000
188.013180 10.000000
188.087940 12.000000
188.096970 38.000000
188.106930 67.000000
189.081500 25.000000
189.101670 11.000000
189.111040 10.000000
190.085040 53.000000
191.067230 26.000000
191.083160 8.000000
191.986540 16.000000
192.072050 46.000000
192.085310 17.000000
192.102690 17.000000
193.074360 9.000000
193.086550 70.000000
193.101820 17.000000
194.061140 10.000000
194.077450 18.000000
194.086090 23.000000
194.098040 40.000000
194.116030 13.000000
194.975050 6.000000
195.023710 8.000000
195.039570 8.000000
195.068340 548.000000
195.097060 50.000000
195.621460 9.000000
196.044190 49.000000
196.075240 225.000000
196.095120 21.000000
196.114110 17.000000
196.945920 10.000000
197.054260 23.000000
197.064090 34.000000
197.083650 221.000000
197.108460 38.000000
198.047440 10.000000
198.055620 11.000000
198.090870 452.000000
198.138500 7.000000
199.067830 8.000000
199.089340 176.000000
199.101590 58.000000
200.064000 54.000000
200.071260 17.000000
200.089970 16.000000
200.109240 137.000000
201.067350 20.000000
201.089080 46.000000
201.102080 51.000000
202.087270 7.000000
202.116330 7.000000
203.079910 7.000000
203.094540 6.000000
204.065090 17.000000
204.077120 63.000000
204.089430 35.000000
204.635040 10.000000
205.071140 11.000000
205.088730 35.000000
205.103490 18.000000
206.062190 6.000000
206.072310 8.000000
206.085720 45.000000
206.098240 69.000000
206.123250 10.000000
207.057710 6.000000
207.067640 22.000000
207.088670 38.000000
207.100300 44.000000
208.079650 68.000000
208.095890 121.000000
208.111790 15.000000
208.133870 10.000000
208.623540 6.000000
209.047680 15.000000
209.058060 8.000000
209.084560 168.000000
209.107390 108.000000
209.197710 8.000000
209.442140 6.000000
210.047320 10.000000
210.090620 1000.000000
210.114550 48.000000
211.036440 14.000000
211.057880 19.000000
211.071290 32.000000
211.086380 93.000000
211.096970 138.000000
211.110660 10.000000
211.128300 8.000000
212.055400 7.000000
212.068020 31.000000
212.077970 25.000000
212.097640 70.000000
212.109150 17.000000
212.124330 16.000000
212.142300 27.000000
212.155290 13.000000
213.053220 7.000000
213.073120 30.000000
213.083510 23.000000
213.094770 28.000000
213.109440 74.000000
213.118070 16.000000
213.707930 15.000000
214.025920 12.000000
214.087110 106.000000
214.100940 19.000000
214.141690 7.000000
215.087490 25.000000
215.116420 25.000000
215.610900 6.000000
216.068620 9.000000
216.085590 23.000000
216.095290 12.000000
217.079040 16.000000
217.089720 22.000000
217.285390 9.000000
217.295040 8.000000
218.074630 18.000000
218.090770 37.000000
218.098710 116.000000
219.059270 9.000000
219.093840 39.000000
219.108570 22.000000
220.072920 28.000000
220.085100 30.000000
220.103070 97.000000
220.118120 21.000000
221.061690 9.000000
221.083890 109.000000
221.103390 26.000000
221.122800 25.000000
221.413100 8.000000
222.047590 6.000000
222.058670 19.000000
222.077210 27.000000
222.090390 70.000000
222.117580 62.000000
222.132200 35.000000
222.755570 7.000000
223.060090 27.000000
223.072680 7.000000
223.083470 31.000000
223.098080 37.000000
223.108260 13.000000
223.123170 17.000000
223.133610 13.000000
224.061950 20.000000
224.091290 129.000000
224.105330 207.000000
224.117000 66.000000
225.071780 23.000000
225.096130 70.000000
225.108110 60.000000
225.121810 12.000000
226.068480 9.000000
226.078950 25.000000
226.091250 44.000000
226.117800 37.000000
227.116710 7.000000
227.128140 6.000000
227.149340 7.000000
228.088850 6.000000
229.121350 6.000000
230.096540 13.000000
230.171100 7.000000
231.090850 11.000000
231.101490 19.000000
232.064910 15.000000
232.074110 24.000000
232.102400 43.000000
232.119060 20.000000
233.081880 95.000000
233.104200 11.000000
233.121960 86.000000
233.922550 7.000000
234.035830 6.000000
234.079130 50.000000
234.095930 183.000000
234.115280 33.000000
234.128220 47.000000
234.216800 7.000000
235.062360 16.000000
235.082090 52.000000
235.098300 200.000000
235.124650 142.000000
235.140790 20.000000
235.604310 10.000000
236.085940 77.000000
236.099120 261.000000
236.120970 50.000000
236.135670 22.000000
236.146300 14.000000
236.439010 7.000000
236.782000 6.000000
237.062680 7.000000
237.101000 488.000000
237.213710 7.000000
237.363420 7.000000
237.716870 15.000000
238.085850 103.000000
238.105800 93.000000
238.114430 146.000000
238.139710 8.000000
238.292620 7.000000
239.065230 26.000000
239.082890 22.000000
239.098540 24.000000
239.112990 87.000000
239.123570 156.000000
239.142330 7.000000
240.090130 17.000000
240.109250 6.000000
240.123840 14.000000
240.137770 19.000000
241.103870 62.000000
241.140430 19.000000
242.102830 21.000000
242.251300 7.000000
243.096040 9.000000
244.095440 15.000000
245.080150 6.000000
245.090610 7.000000
245.114260 28.000000
246.049420 14.000000
246.073730 12.000000
246.087970 35.000000
246.099470 10.000000
246.130130 14.000000
246.871610 7.000000
247.079620 24.000000
247.086780 10.000000
247.106460 45.000000
247.125730 14.000000
247.133740 13.000000
247.228560 7.000000
248.037030 9.000000
248.090840 58.000000
248.105120 125.000000
248.129870 63.000000
248.146380 7.000000
248.830980 10.000000
249.012890 13.000000
249.069340 9.000000
249.104980 123.000000
249.117280 70.000000
249.139560 219.000000
250.070540 6.000000
250.088650 46.000000
250.105500 27.000000
250.117450 93.000000
250.129840 63.000000
250.149700 10.000000
250.162410 13.000000
250.578920 15.000000
251.080430 25.000000
251.115330 509.000000
251.125810 219.000000
251.143710 19.000000
251.649800 11.000000
252.092380 26.000000
252.105070 55.000000
252.123580 205.000000
252.138470 58.000000
253.083390 7.000000
253.099180 25.000000
253.117740 26.000000
253.133240 229.000000
254.098620 18.000000
254.120160 10.000000
254.133150 49.000000
254.147690 29.000000
254.755970 14.000000
255.089870 25.000000
256.085390 9.000000
256.109710 12.000000
256.826630 6.000000
257.117100 7.000000
258.093570 14.000000
258.117980 6.000000
260.104370 38.000000
260.118990 20.000000
261.114720 31.000000
261.138640 8.000000
261.161190 9.000000
261.778960 7.000000
262.064640 7.000000
262.074550 7.000000
262.100800 21.000000
262.116730 158.000000
262.130000 43.000000
262.143620 22.000000
262.155030 10.000000
263.064210 11.000000
263.073330 13.000000
263.094850 15.000000
263.117220 140.000000
263.136630 80.000000
263.155000 347.000000
263.228670 7.000000
263.673920 8.000000
264.035890 6.000000
264.086980 43.000000
264.105870 11.000000
264.126160 45.000000
264.139980 96.000000
264.150050 179.000000
264.167270 333.000000
264.657290 6.000000
264.683560 9.000000
265.076020 10.000000
265.095920 64.000000
265.117250 92.000000
265.141050 73.000000
265.159580 155.000000
265.173160 68.000000
266.094640 14.000000
266.107600 56.000000
266.128200 18.000000
266.141360 20.000000
266.177950 28.000000
266.228450 6.000000
267.091740 16.000000
267.099240 9.000000
267.112240 9.000000
267.123570 23.000000
267.137080 6.000000
268.079130 11.000000
268.094570 13.000000
268.110990 38.000000
269.087340 12.000000
269.098970 7.000000
269.115940 13.000000
269.132630 16.000000
269.797820 22.000000
271.002290 13.000000
271.124210 10.000000
272.092590 11.000000
273.094570 9.000000
273.116460 12.000000
274.089050 6.000000
274.111790 10.000000
274.125090 11.000000
275.115330 11.000000
275.128880 17.000000
275.142520 6.000000
276.080080 12.000000
276.100520 14.000000
276.110260 16.000000
276.125790 31.000000
276.139680 20.000000
276.165280 9.000000
276.780120 7.000000
276.798250 7.000000
277.088870 14.000000
277.115630 43.000000
277.137940 251.000000
278.086270 11.000000
278.099460 20.000000
278.124180 36.000000
278.132540 90.000000
278.155400 15.000000
278.176120 6.000000
279.083710 7.000000
279.112850 73.000000
279.148770 162.000000
280.089110 9.000000
280.120540 10.000000
280.130490 8.000000
280.148320 20.000000
280.159790 10.000000
281.096800 9.000000
281.135410 9.000000
281.163790 11.000000
282.027800 6.000000
282.057860 7.000000
282.117100 11.000000
283.105620 16.000000
283.154790 7.000000
285.134160 10.000000
286.139010 14.000000
287.105320 12.000000
287.122560 20.000000
288.101290 7.000000
289.113830 7.000000
290.105220 12.000000
290.136990 48.000000
291.109590 9.000000
291.149170 282.000000
291.165500 33.000000
292.097900 15.000000
292.119630 7.000000
292.156130 371.000000
292.168210 108.000000
292.214200 10.000000
293.135160 13.000000
293.169770 173.000000
293.916560 6.000000
294.116580 8.000000
294.179380 7.000000
295.096500 9.000000
295.120820 8.000000
296.083680 9.000000
296.112060 20.000000
296.122620 12.000000
297.129760 9.000000
298.198060 6.000000
301.141270 13.000000
302.123600 11.000000
303.138640 21.000000
303.165100 14.000000
304.133790 11.000000
304.161290 9.000000
305.121280 6.000000
305.138000 37.000000
305.160400 14.000000
305.178010 36.000000
305.539250 6.000000
306.125180 41.000000
306.180540 7.000000
307.063810 7.000000
307.135530 10.000000
307.150600 23.000000
307.179260 178.000000
307.193390 57.000000
308.150330 11.000000
308.169680 16.000000
308.189120 79.000000
309.120420 8.000000
309.161160 11.000000
309.205260 7.000000
311.126920 22.000000
311.140560 26.000000
311.158110 17.000000
312.138520 20.000000
316.217560 7.000000
318.145940 19.000000
318.168910 10.000000
319.119780 10.000000
319.927400 7.000000
320.160130 17.000000
321.132630 7.000000
321.149200 10.000000
323.171110 42.000000
324.140720 8.000000
324.176450 96.000000
324.193330 23.000000
324.216550 11.000000
325.188050 33.000000
335.184810 19.000000
336.157560 10.000000
336.178960 9.000000
337.158970 19.000000
340.207820 7.000000
350.128970 6.000000
352.170140 20.000000
352.188690 7.000000
354.178860 13.000000
367.194490 22.000000
367.208530 17.000000
380.992740 6.000000

>ms2
122.095580 11.000000
136.111070 34.000000
148.112810 9.000000
174.090070 27.000000
186.093150 14.000000
189.104570 5.000000
200.106060 8.000000
201.102910 6.000000
210.091890 13.000000
214.086460 7.000000
232.098570 7.000000
238.092030 5.000000
246.116090 8.000000
258.112580 8.000000
279.150270 7.000000
292.157410 8.000000
307.181090 44.000000
308.183690 15.000000
335.174410 64.000000
336.177430 15.000000
367.145940 5.000000
367.201050 153.000000
368.205260 36.000000
369.209660 6.000000
385.159640 6.000000
385.212710 1000.000000
385.269500 28.000000

>ms2
385.156620 8.000000
385.211150 1000.000000
385.267910 29.000000

>ms2
91.055030 5.000000
93.072680 13.000000
98.098590 12.000000
107.082900 8.000000
107.087480 5.000000
108.080120 14.000000
110.097350 17.000000
112.112420 7.000000
119.088890 11.000000
120.086550 6.000000
122.097210 111.000000
123.098870 7.000000
134.098690 16.000000
135.104660 34.000000
136.076770 7.000000
136.111650 298.000000
137.108550 15.000000
137.116330 34.000000
146.100360 6.000000
147.079770 13.000000
148.074980 7.000000
148.113340 52.000000
158.096180 35.000000
160.076540 30.000000
162.095350 6.000000
172.076580 17.000000
174.090990 222.000000
175.079160 5.000000
175.096420 30.000000
177.090090 14.000000
180.107910 9.000000
184.080640 15.000000
185.082180 5.000000
186.091370 107.000000
187.085800 10.000000
187.096370 17.000000
188.091640 11.000000
188.108660 25.000000
189.102800 35.000000
192.102810 8.000000
194.120860 18.000000
197.087200 8.000000
198.077930 7.000000
198.091110 47.000000
199.095400 11.000000
200.074710 10.000000
200.108550 81.000000
201.100570 39.000000
201.110030 30.000000
202.109700 14.000000
203.116560 7.000000
206.123030 15.000000
207.124330 5.000000
210.092180 81.000000
211.093150 18.000000
212.073380 7.000000
212.092290 8.000000
212.106580 13.000000
213.109340 6.000000
214.072810 5.000000
214.086750 46.000000
215.096150 14.000000
215.120930 12.000000
218.081020 10.000000
224.108260 28.000000
225.104840 12.000000
226.086820 32.000000
227.091280 5.000000
228.104890 22.000000
232.097700 29.000000
233.100830 8.000000
236.106870 16.000000
237.106250 18.000000
238.088610 41.000000
239.090360 6.000000
239.118360 5.000000
240.112430 11.000000
240.131100 9.000000
244.095760 32.000000
245.102600 6.000000
246.113390 85.000000
249.112880 8.000000
250.119540 8.000000
251.120680 24.000000
252.107730 12.000000
252.128620 19.000000
253.134480 22.000000
254.143430 6.000000
258.113280 98.000000
259.117580 13.000000
260.129610 10.000000
261.118070 6.000000
264.100860 5.000000
264.139860 27.000000
264.158750 5.000000
265.095310 28.000000
265.143130 9.000000
266.109010 10.000000
266.153690 6.000000
268.095830 6.000000
268.108980 6.000000
269.106080 6.000000
270.113800 62.000000
271.118260 9.000000
272.122650 7.000000
272.136080 7.000000
276.141330 17.000000
277.127440 5.000000
277.139560 15.000000
278.127080 9.000000
278.154450 60.000000
279.120850 5.000000
279.138490 9.000000
279.152740 56.000000
280.153690 19.000000
281.161770 15.000000
282.113560 5.000000
284.127750 35.000000
285.133480 8.000000
290.148620 10.000000
291.144130 6.000000
291.158970 7.000000
292.123500 12.000000
292.159390 31.000000
293.149720 7.000000
293.162230 21.000000
294.163300 6.000000
295.177370 5.000000
296.127320 12.000000
298.134800 6.000000
306.136440 7.000000
307.131870 6.000000
307.147710 18.000000
307.181670 445.000000
308.185940 161.000000
309.179500 16.000000
309.200810 8.000000
311.135100 12.000000
311.148220 7.000000
312.152010 30.000000
313.155270 7.000000
317.162900 5.000000
320.143770 11.000000
320.161960 16.000000
321.141780 6.000000
324.160920 11.000000
335.138370 8.000000
335.176270 590.000000
336.178440 163.000000
337.155240 9.000000
337.170470 9.000000
337.185700 13.000000
338.165500 7.000000
338.182250 8.000000
339.179110 8.000000
339.213320 11.000000
352.183440 35.000000
353.190190 6.000000
365.183170 6.000000
367.147550 12.000000
367.169770 11.000000
367.202150 1000.000000
368.142120 5.000000
368.163180 10.000000
368.206880 272.000000
369.207090 32.000000
369.223820 8.000000
385.173160 14.000000
385.213530 642.000000

>ms2
55.052940 22.000000
56.052460 5.000000
63.655500 7.000000
65.038380 12.000000
67.055020 28.000000
70.065410 13.000000
73.065440 7.000000
77.040950 34.000000
77.823870 9.000000
78.032680 5.000000
79.049510 8.000000
79.055430 54.000000
80.047040 40.000000
80.052200 56.000000
80.606310 6.000000
81.050630 7.000000
81.058160 34.000000
81.070510 35.000000
82.061640 7.000000
82.066120 9.000000
83.035510 7.000000
85.078820 7.000000
86.104780 6.000000
88.838580 10.000000
90.251060 7.000000
90.270450 5.000000
91.054180 290.000000
91.076690 6.000000
91.552400 8.000000
92.024650 11.000000
92.057490 47.000000
92.062350 11.000000
92.393490 6.000000
93.055110 62.000000
93.069900 194.000000
94.049780 13.000000
94.065620 81.000000
94.081920 9.000000
94.407180 6.000000
94.514640 5.000000
95.057460 6.000000
95.066790 9.000000
95.074550 28.000000
95.082790 59.000000
95.612950 6.000000
96.046100 7.000000
96.072570 7.000000
96.080280 48.000000
97.114330 6.000000
98.086800 6.000000
98.090270 15.000000
98.098820 10.000000
101.450640 5.000000
102.049420 5.000000
102.529360 5.000000
103.046930 14.000000
103.053310 21.000000
104.047180 23.000000
104.060980 18.000000
105.045480 5.000000
105.058560 9.000000
105.067270 62.000000
105.075700 15.000000
106.022910 5.000000
106.049030 6.000000
106.064380 69.000000
106.289790 8.000000
106.328150 6.000000
107.043050 6.000000
107.066080 10.000000
107.070270 18.000000
107.078350 35.000000
107.086550 32.000000
108.061710 5.000000
108.077190 53.000000
108.082100 125.000000
108.094700 6.000000
109.048680 6.000000
109.080720 5.000000
109.355200 7.000000
110.097950 28.000000
113.118240 7.000000
115.055430 76.000000
115.917680 7.000000
116.047770 14.000000
116.065480 24.000000
116.889560 12.000000
117.056060 28.000000
117.069520 71.000000
118.051340 20.000000
118.065990 42.000000
118.072780 19.000000
118.076590 8.000000
119.071660 56.000000
119.085710 71.000000
120.043930 8.000000
120.072830 33.000000
120.081210 65.000000
121.075490 15.000000
121.085780 131.000000
121.093730 44.000000
122.062550 9.000000
122.075640 6.000000
122.096010 354.000000
122.995720 6.000000
123.099470 28.000000
124.117850 19.000000
127.053960 40.000000
127.767800 9.000000
128.041780 6.000000
128.046780 7.000000
128.065060 6.000000
129.013900 8.000000
129.046510 6.000000
129.062940 10.000000
129.073900 22.000000
130.050510 16.000000
130.064240 70.000000
130.070250 18.000000
131.070250 124.000000
131.077730 69.000000
132.045060 24.000000
132.059510 7.000000
132.068390 7.000000
132.080840 29.000000
133.057710 18.000000
133.088990 37.000000
133.099110 6.000000
134.084470 21.000000
134.096160 90.000000
135.103470 431.000000
135.832580 7.000000
136.076170 33.000000
136.093890 51.000000
136.111970 728.000000
136.238340 6.000000
136.898900 6.000000
137.063480 8.000000
137.112640 31.000000
137.117840 22.000000
137.994230 11.000000
138.093460 9.000000
138.121990 8.000000
138.884250 7.000000
139.053860 15.000000
139.591350 21.000000
140.059720 10.000000
140.067060 8.000000
141.053040 38.000000
141.061450 7.000000
142.062590 110.000000
143.047650 32.000000
143.058910 22.000000
143.071930 301.000000
143.077610 130.000000
143.090850 7.000000
143.649580 5.000000
143.683290 6.000000
144.044250 18.000000
144.054790 44.000000
144.064360 19.000000
144.079830 79.000000
144.356750 5.000000
145.042470 6.000000
145.060330 51.000000
145.075440 14.000000
145.087540 14.000000
145.093950 25.000000
145.986500 9.000000
146.054980 34.000000
146.063050 27.000000
146.074070 10.000000
146.079930 22.000000
146.090380 38.000000
146.100950 11.000000
146.142380 9.000000
147.060520 19.000000
147.067550 32.000000
147.080630 26.000000
147.098620 19.000000
147.597980 5.000000
148.073120 6.000000
148.083050 6.000000
148.096050 37.000000
148.112440 172.000000
149.119030 30.000000
150.085240 10.000000
150.124730 7.000000
150.680510 8.000000
152.621890 8.000000
153.069310 6.000000
153.220780 6.000000
153.287900 6.000000
153.439730 10.000000
154.038440 14.000000
154.064040 308.000000
154.940830 8.000000
155.040970 6.000000
155.053310 58.000000
155.071500 504.000000
155.524980 6.000000
155.926120 7.000000
156.050250 13.000000
156.068420 38.000000
156.076750 43.000000
156.090520 8.000000
156.961490 6.000000
157.061170 25.000000
157.069520 15.000000
157.079540 29.000000
157.088290 67.000000
158.051210 10.000000
158.062470 44.000000
158.072190 47.000000
158.092590 50.000000
158.108150 13.000000
159.066020 501.000000
159.086400 23.000000
159.100450 14.000000
160.064940 43.000000
160.075580 252.000000
160.105650 22.000000
160.115980 6.000000
160.296360 6.000000
161.073550 78.000000
162.077100 13.000000
162.094570 16.000000
162.798230 6.000000
163.065280 6.000000
163.081130 7.000000
164.049550 7.000000
164.057390 10.000000
164.106370 7.000000
165.063480 13.000000
165.072690 22.000000
165.991040 6.000000
166.050350 17.000000
166.067320 83.000000
166.074330 51.000000
166.385240 6.000000
167.000700 8.000000
167.052110 20.000000
167.073000 723.000000
167.157290 6.000000
168.045990 8.000000
168.053990 10.000000
168.079700 352.000000
168.344060 9.000000
168.720900 6.000000
169.047060 47.000000
169.056200 52.000000
169.068160 16.000000
169.083600 122.000000
169.095290 28.000000
169.583330 9.000000
170.054000 93.000000
170.063280 28.000000
170.080870 42.000000
170.097580 22.000000
170.319610 5.000000
170.824870 9.000000
171.027280 17.000000
171.054950 30.000000
171.069000 123.000000
171.088550 27.000000
171.100130 7.000000
172.042020 10.000000
172.070310 105.000000
172.076780 263.000000
172.102360 17.000000
172.119610 15.000000
172.759810 7.000000
173.083510 188.000000
173.111080 6.000000
174.048290 16.000000
174.072710 78.000000
174.078280 148.000000
174.091630 451.000000
175.060180 9.000000
175.069020 8.000000
175.082380 24.000000
175.092450 33.000000
176.110840 27.000000
177.081740 23.000000
177.096650 15.000000
178.067080 31.000000
179.052580 16.000000
179.065110 11.000000
179.074310 24.000000
179.086200 15.000000
179.571110 9.000000
180.043210 8.000000
180.059130 9.000000
180.079420 155.000000
180.612930 5.000000
180.742810 7.000000
180.981740 11.000000
181.041890 25.000000
181.072680 11.000000
181.086000 119.000000
181.093580 79.000000
181.135820 6.000000
182.060150 60.000000
182.073290 7.000000
182.091520 79.000000
182.568050 7.000000
183.061400 115.000000
183.070980 335.000000
183.098860 26.000000
183.686260 10.000000
184.017430 9.000000
184.053090 11.000000
184.068800 161.000000
184.077330 290.000000
184.095720 12.000000
184.106860 8.000000
184.121380 9.000000
184.480900 15.000000
185.053710 17.000000
185.080410 290.000000
185.119520 32.000000
185.278500 6.000000
185.877850 7.000000
185.892350 7.000000
186.056520 58.000000
186.072240 53.000000
186.088870 322.000000
186.096660 229.000000
186.110210 25.000000
186.125530 6.000000
186.137010 8.000000
187.057340 10.000000
187.075580 25.000000
187.088360 103.000000
187.096650 64.000000
187.105650 12.000000
187.531040 6.000000
188.094150 48.000000
188.113860 10.000000
189.075710 15.000000
189.096370 24.000000
189.113240 11.000000
189.463840 7.000000
190.102480 22.000000
191.062480 8.000000
191.070500 7.000000
191.080960 8.000000
192.082840 91.000000
192.640560 7.000000
193.065730 11.000000
193.076770 17.000000
193.090120 77.000000
193.099850 28.000000
194.061540 30.000000
194.082230 22.000000
194.099750 30.000000
194.493130 7.000000
194.916410 10.000000
195.030930 6.000000
195.047490 11.000000
195.067050 664.000000
195.091450 49.000000
195.106840 36.000000
195.170180 5.000000
195.251430 9.000000
195.685200 10.000000
196.047550 27.000000
196.075090 282.000000
196.093230 38.000000
196.100710 19.000000
196.849150 5.000000
197.048520 8.000000
197.081510 276.000000
197.104630 7.000000
197.225970 6.000000
198.051250 10.000000
198.059520 11.000000
198.090550 513.000000
198.129200 9.000000
198.503110 8.000000
198.670410 6.000000
199.019650 5.000000
199.048080 10.000000
199.060330 29.000000
199.082670 123.000000
199.097550 129.000000
199.456510 6.000000
200.051590 7.000000
200.066180 81.000000
200.078750 26.000000
200.108220 214.000000
201.089890 33.000000
201.100450 66.000000
201.110900 14.000000
202.086900 6.000000
202.100480 8.000000
204.081710 66.000000
204.090160 57.000000
204.101000 23.000000
205.082200 26.000000
205.094210 21.000000
206.074490 29.000000
206.084660 43.000000
206.096330 34.000000
206.113400 51.000000
206.121190 29.000000
207.068480 38.000000
207.088470 51.000000
207.102810 54.000000
208.079220 147.000000
208.100020 119.000000
208.122620 7.000000
209.058730 38.000000
209.069020 19.000000
209.083500 161.000000
209.109540 193.000000
209.129780 9.000000
209.573880 7.000000
209.751910 8.000000
210.042790 13.000000
210.057140 16.000000
210.072980 60.000000
210.090820 1000.000000
210.124080 42.000000
210.346830 9.000000
211.062900 23.000000
211.096130 397.000000
211.120530 10.000000
212.070910 41.000000
212.082920 29.000000
212.099930 104.000000
212.125150 13.000000
212.148680 20.000000
213.009450 7.000000
213.074800 30.000000
213.103380 48.000000
213.115400 13.000000
213.425720 14.000000
214.055800 6.000000
214.082750 48.000000
214.094410 20.000000
214.112960 7.000000
215.095290 33.000000
215.101910 14.000000
215.138380 13.000000
216.065120 17.000000
216.083790 22.000000
216.090500 9.000000
216.403370 5.000000
217.086470 13.000000
217.093410 13.000000
217.325730 5.000000
218.067790 7.000000
218.074830 7.000000
218.098830 71.000000
219.067180 15.000000
219.090240 18.000000
219.102710 40.000000
219.113240 7.000000
220.036410 10.000000
220.060260 8.000000
220.069580 28.000000
220.081700 51.000000
220.098040 18.000000
220.112840 25.000000
220.131060 13.000000
220.376770 5.000000
220.616840 5.000000
220.896730 5.000000
221.067250 18.000000
221.087300 48.000000
221.105220 28.000000
221.129040 17.000000
221.703830 9.000000
222.044830 7.000000
222.060500 37.000000
222.084730 124.000000
222.099910 104.000000
222.127120 5.000000
223.055010 23.000000
223.065490 33.000000
223.078800 14.000000
223.096690 141.000000
223.118580 24.000000
224.053680 10.000000
224.064130 24.000000
224.083830 33.000000
224.092390 108.000000
224.107990 246.000000
224.147250 6.000000
225.077500 25.000000
225.102940 185.000000
225.122670 12.000000
225.178740 7.000000
225.255580 6.000000
226.051410 7.000000
226.071640 19.000000
226.078410 51.000000
226.089310 38.000000
226.102160 12.000000
226.118500 8.000000
227.072850 7.000000
227.091920 20.000000
227.122590 8.000000
228.076860 13.000000
228.100340 26.000000
228.121280 8.000000
228.137680 9.000000
229.084260 8.000000
229.097730 5.000000
230.070240 6.000000
230.102220 11.000000
230.118760 11.000000
231.078870 7.000000
231.096390 7.000000
231.107010 13.000000
231.683840 17.000000
232.074480 40.000000
232.094240 12.000000
232.111850 44.000000
233.066390 8.000000
233.083590 56.000000
233.102460 10.000000
233.114170 37.000000
233.127670 23.000000
234.056300 6.000000
234.067140 7.000000
234.085190 127.000000
234.093220 95.000000
234.119230 120.000000
234.634050 6.000000
235.073470 18.000000
235.086690 76.000000
235.099700 203.000000
235.114000 71.000000
235.123700 70.000000
235.141420 24.000000
235.165650 8.000000
236.070010 8.000000
236.096160 218.000000
236.115170 22.000000
236.134450 20.000000
236.145810 6.000000
237.000550 6.000000
237.033280 8.000000
237.074810 69.000000
237.103470 342.000000
237.138700 17.000000
237.148410 15.000000
237.280140 7.000000
238.081010 39.000000
238.108030 259.000000
238.123890 53.000000
238.164220 15.000000
238.603380 8.000000
239.083020 51.000000
239.117800 220.000000
240.077030 8.000000
240.090910 8.000000
240.121750 75.000000
241.096530 13.000000
241.110060 6.000000
242.100740 22.000000
243.094420 8.000000
244.068440 11.000000
244.088640 13.000000
244.100890 28.000000
245.073290 12.000000
245.093570 12.000000
245.114230 8.000000
246.076490 21.000000
246.089870 35.000000
246.281460 5.000000
246.519300 7.000000
247.091250 43.000000
247.106340 22.000000
247.132140 14.000000
247.450960 6.000000
247.774020 5.000000
247.915710 5.000000
248.067890 20.000000
248.087040 64.000000
248.106160 263.000000
248.134200 61.000000
248.148560 17.000000
248.463590 6.000000
249.075230 34.000000
249.102080 86.000000
249.114210 144.000000
249.140950 146.000000
249.166870 20.000000
249.806340 6.000000
250.054090 20.000000
250.066640 22.000000
250.088780 18.000000
250.110990 146.000000
250.128100 54.000000
250.156520 15.000000
250.693940 8.000000
250.995390 5.000000
251.072490 16.000000
251.090900 70.000000
251.117140 566.000000
251.125690 206.000000
252.091340 29.000000
252.108920 125.000000
252.134610 87.000000
252.167020 6.000000
252.872800 8.000000
253.077620 8.000000
253.106810 8.000000
253.122060 78.000000
253.137800 201.000000
254.088300 51.000000
254.099370 11.000000
254.122310 19.000000
254.133440 40.000000
255.081600 8.000000
255.113050 12.000000
255.135100 10.000000
255.665680 6.000000
256.147130 7.000000
256.169280 18.000000
258.102660 11.000000
258.118130 11.000000
258.144320 7.000000
259.679470 11.000000
260.096680 10.000000
260.118290 7.000000
260.151280 5.000000
261.051510 7.000000
261.072510 11.000000
261.088590 23.000000
261.110230 22.000000
261.120300 31.000000
261.143620 17.000000
261.625460 6.000000
262.093510 24.000000
262.107210 42.000000
262.124420 72.000000
262.143830 33.000000
263.086060 7.000000
263.102970 27.000000
263.118070 136.000000
263.151890 141.000000
263.161710 88.000000
264.083190 20.000000
264.098880 50.000000
264.123320 127.000000
264.136840 156.000000
264.165340 471.000000
264.550990 6.000000
264.718200 6.000000
264.972380 5.000000
265.078920 26.000000
265.098450 57.000000
265.118410 56.000000
265.136630 175.000000
265.164980 142.000000
265.187810 8.000000
266.092350 5.000000
266.112520 11.000000
266.134980 12.000000
266.142120 29.000000
266.155580 7.000000
266.169400 5.000000
266.179380 5.000000
267.108180 7.000000
267.117220 12.000000
267.149290 6.000000
267.185820 9.000000
268.101620 26.000000
268.118410 34.000000
269.099270 8.000000
269.130040 8.000000
269.173190 7.000000
270.116820 15.000000
270.124110 7.000000
270.466430 5.000000
271.102600 7.000000
271.112150 7.000000
273.073820 5.000000
273.131130 7.000000
274.130620 13.000000
275.036410 9.000000
275.091340 10.000000
275.133000 22.000000
275.143740 23.000000
275.157990 7.000000
276.084560 16.000000
276.113460 30.000000
276.124420 35.000000
276.138310 15.000000
276.155850 40.000000
276.166470 14.000000
277.096920 24.000000
277.119170 74.000000
277.135990 273.000000
277.159700 8.000000
277.499210 7.000000
278.034790 11.000000
278.095980 9.000000
278.111910 15.000000
278.130460 36.000000
278.140590 45.000000
278.153470 83.000000
278.169620 23.000000
278.261930 8.000000
279.108980 21.000000
279.121430 9.000000
279.145750 157.000000
279.164790 68.000000
279.195560 7.000000
279.344480 7.000000
279.662600 6.000000
280.116150 17.000000
280.152950 36.000000
281.095920 14.000000
281.109340 10.000000
281.151860 12.000000
281.170320 9.000000
282.094360 7.000000
283.120510 8.000000
283.161500 6.000000
284.129460 29.000000
286.140500 7.000000
287.102810 6.000000
287.113460 5.000000
288.134550 6.000000
289.094820 7.000000
289.129790 24.000000
290.140170 46.000000
291.082760 8.000000
291.097410 8.000000
291.111820 18.000000
291.125490 35.000000
291.150970 261.000000
292.082950 9.000000
292.099980 8.000000
292.120910 30.000000
292.137970 42.000000
292.152650 236.000000
292.167690 206.000000
293.136510 6.000000
293.161710 237.000000
294.110810 17.000000
294.155730 10.000000
294.165680 15.000000
295.073490 7.000000
295.107180 9.000000
295.124540 8.000000
295.145570 15.000000
295.162230 8.000000
296.115540 29.000000
296.129850 17.000000
297.093900 7.000000
298.167420 6.000000
299.136200 7.000000
302.123290 13.000000
303.147190 12.000000
304.131410 25.000000
304.784300 7.000000
305.136930 34.000000
305.150970 18.000000
305.161530 16.000000
306.137270 24.000000
306.184110 6.000000
307.030210 7.000000
307.135380 9.000000
307.145510 12.000000
307.179930 233.000000
308.132020 13.000000
308.156860 8.000000
308.172330 18.000000
308.186490 61.000000
309.112700 6.000000
309.159270 18.000000
309.187260 8.000000
309.198640 6.000000
309.403840 7.000000
310.301300 5.000000
311.126010 29.000000
311.141200 24.000000
311.157470 33.000000
312.151980 11.000000
315.717620 8.000000
318.158140 7.000000
319.123350 6.000000
319.150240 28.000000
320.141880 12.000000
320.162080 14.000000
320.254580 14.000000
321.124630 9.000000
323.139920 17.000000
323.164550 6.000000
323.172420 14.000000
324.173160 62.000000
324.194640 88.000000
325.175420 21.000000
325.192630 11.000000
335.157620 14.000000
335.186430 29.000000
336.184360 23.000000
338.168490 9.000000
351.150510 9.000000
351.173860 12.000000
352.181730 41.000000
354.184080 6.000000
367.158780 5.000000
367.193210 16.000000
368.210480 9.000000
369.991390 5.000000

>ms2
122.097600 9.000000
136.110820 34.000000
148.111250 6.000000
174.084810 9.000000
174.092210 25.000000
186.093430 17.000000
198.092150 9.000000
200.106720 7.000000
210.088210 7.000000
210.097530 8.000000
238.083250 5.000000
246.113280 9.000000
253.132430 6.000000
258.117430 6.000000
270.115600 6.000000
278.145170 5.000000
307.179930 52.000000
308.182560 22.000000
335.175630 68.000000
336.181210 12.000000
367.202480 156.000000
368.202820 35.000000
385.161650 8.000000
385.212190 1000.000000
385.269960 29.000000

>ms2
385.155850 6.000000
385.211820 1000.000000
385.268460 31.000000

>ms2
93.070830 11.000000
98.097550 5.000000
107.086780 11.000000
108.081540 13.000000
110.092990 14.000000
110.099620 13.000000
119.084820 14.000000
121.086500 12.000000
122.096610 87.000000
123.095630 6.000000
134.097430 10.000000
135.103270 21.000000
136.111830 286.000000
137.114610 23.000000
146.068820 6.000000
147.076900 13.000000
147.083450 15.000000
148.074520 5.000000
148.112090 53.000000
149.119160 6.000000
158.096690 39.000000
159.100970 5.000000
160.065490 7.000000
160.074450 27.000000
161.076690 6.000000
162.093310 18.000000
172.074550 18.000000
173.079150 6.000000
174.091710 213.000000
175.093860 38.000000
177.090790 6.000000
180.097690 8.000000
184.073960 23.000000
185.075790 12.000000
186.091030 97.000000
187.090300 8.000000
187.096950 13.000000
188.100190 31.000000
188.109440 13.000000
189.098210 23.000000
192.102360 12.000000
194.116520 18.000000
195.128100 8.000000
197.081100 9.000000
198.090470 65.000000
199.088200 19.000000
200.076970 7.000000
200.092130 12.000000
200.108730 52.000000
201.102510 54.000000
202.105090 10.000000
203.115810 10.000000
206.118130 23.000000
210.085160 34.000000
210.093550 69.000000
211.094680 15.000000
212.106770 18.000000
214.081590 46.000000
214.091170 31.000000
215.089000 6.000000
215.116840 7.000000
215.127270 6.000000
224.103520 11.000000
224.112880 12.000000
225.075900 5.000000
226.084240 29.000000
228.101560 14.000000
232.089980 13.000000
232.103010 15.000000
237.103650 12.000000
238.084260 35.000000
238.096940 17.000000
238.116260 12.000000
239.091690 8.000000
239.124790 8.000000
240.103150 12.000000
244.086810 9.000000
244.099210 23.000000
245.102080 7.000000
246.094970 9.000000
246.113540 55.000000
247.114120 18.000000
249.106320 5.000000
249.124300 5.000000
250.127470 8.000000
251.091870 6.000000
251.110730 9.000000
251.119570 15.000000
252.104220 22.000000
252.127640 19.000000
253.104030 7.000000
253.124180 12.000000
253.138050 17.000000
255.119000 5.000000
258.105990 34.000000
258.114110 77.000000
259.110960 10.000000
260.121610 9.000000
260.134670 9.000000
262.118620 7.000000
263.130740 7.000000
264.111360 6.000000
264.134250 15.000000
264.144740 14.000000
265.098240 29.000000
265.129180 8.000000
265.145600 12.000000
266.101140 12.000000
266.115970 9.000000
266.152530 8.000000
267.102870 7.000000
270.109990 48.000000
270.119320 24.000000
271.114930 8.000000
272.126980 14.000000
276.126830 5.000000
276.135280 6.000000
277.132320 7.000000
278.152220 68.000000
279.145510 37.000000
279.161800 12.000000
280.125310 7.000000
280.144870 9.000000
280.155330 6.000000
281.156430 12.000000
282.114780 8.000000
283.118560 5.000000
284.126280 46.000000
285.130800 9.000000
290.142850 8.000000
290.156590 7.000000
291.142730 8.000000
292.131290 14.000000
292.156040 34.000000
292.166290 15.000000
293.164610 26.000000
296.123050 14.000000
296.133940 7.000000
297.130430 9.000000
304.132630 7.000000
306.136780 7.000000
306.168700 13.000000
307.151580 9.000000
307.181060 427.000000
308.150910 7.000000
308.185520 165.000000
309.184110 11.000000
309.194950 12.000000
311.142090 17.000000
312.148380 27.000000
312.165190 7.000000
313.161070 6.000000
318.147770 9.000000
319.148960 12.000000
320.142300 15.000000
320.160000 10.000000
321.146420 7.000000
321.160740 6.000000
324.178130 8.000000
335.137730 11.000000
335.175170 520.000000
336.147370 6.000000
336.179170 157.000000
337.182590 11.000000
338.162450 11.000000
338.177490 6.000000
339.202700 7.000000
351.171880 7.000000
352.170620 14.000000
352.185180 19.000000
365.171880 5.000000
365.188660 11.000000
367.146150 8.000000
367.200680 1000.000000
368.150210 6.000000
368.169160 6.000000
368.205200 281.000000
369.209630 48.000000
370.208440 6.000000
385.173030 27.000000
385.211240 578.000000

>ms2
55.055770 6.000000
58.055670 7.000000
58.072530 7.000000
65.030690 10.000000
67.051790 74.000000
67.057690 12.000000
68.050310 35.000000
68.058090 9.000000
69.069760 14.000000
69.203760 13.000000
70.067310 27.000000
71.047300 13.000000
72.086750 8.000000
75.700370 9.000000
77.037620 120.000000
78.034740 9.000000
79.053660 79.000000
79.908590 10.000000
80.048400 55.000000
80.054920 24.000000
80.319840 6.000000
80.574870 8.000000
81.061850 21.000000
81.067210 39.000000
81.077190 6.000000
81.313200 6.000000
81.330960 7.000000
82.058640 12.000000
82.062990 48.000000
82.069550 6.000000
82.528790 7.000000
83.072910 8.000000
83.090390 9.000000
84.943290 6.000000
91.046020 48.000000
91.053240 161.000000
91.062970 13.000000
92.058590 10.000000
92.491080 11.000000
93.022290 9.000000
93.031990 8.000000
93.058930 214.000000
93.070090 192.000000
94.056620 15.000000
94.069240 80.000000
94.897440 6.000000
95.055020 7.000000
95.078740 20.000000
95.096140 8.000000
96.074810 27.000000
96.081730 34.000000
96.464590 9.000000
98.097260 30.000000
100.007040 6.000000
103.050220 13.000000
104.046570 6.000000
104.055270 20.000000
105.070980 112.000000
105.078650 18.000000
106.040040 10.000000
106.062550 52.000000
106.073920 35.000000
107.058670 7.000000
107.070180 111.000000
107.080960 58.000000
107.086180 49.000000
107.096600 13.000000
107.239290 7.000000
108.045050 9.000000
108.081200 244.000000
109.086370 35.000000
110.082100 9.000000
110.094220 30.000000
110.879440 6.000000
111.041560 16.000000
111.073260 12.000000
111.743160 6.000000
112.977970 14.000000
114.046770 8.000000
115.041820 9.000000
115.055720 32.000000
116.049000 30.000000
116.064590 13.000000
117.053630 91.000000
117.068880 80.000000
118.044180 15.000000
118.059630 10.000000
118.064920 29.000000
118.374860 6.000000
119.047140 10.000000
119.076270 69.000000
119.086620 97.000000
119.195980 6.000000
120.041480 6.000000
120.083470 98.000000
120.598760 6.000000
121.050200 7.000000
121.086370 239.000000
121.098530 20.000000
122.075520 19.000000
122.094660 385.000000
122.912940 7.000000
123.094600 39.000000
123.101430 13.000000
123.111050 6.000000
123.938290 6.000000
126.261220 9.000000
127.051350 90.000000
128.043200 22.000000
128.064900 49.000000
129.053860 15.000000
129.069530 38.000000
130.043180 31.000000
130.055110 13.000000
130.064730 104.000000
131.037350 9.000000
131.042980 12.000000
131.056400 19.000000
131.071810 170.000000
131.082640 68.000000
131.743210 7.000000
132.045490 39.000000
132.055770 35.000000
132.071210 7.000000
132.080750 52.000000
132.213640 6.000000
132.619600 7.000000
133.052510 22.000000
133.071180 7.000000
133.086440 37.000000
133.099000 12.000000
133.343060 6.000000
134.061580 17.000000
134.097930 68.000000
134.105970 19.000000
135.085860 26.000000
135.102840 467.000000
136.064580 8.000000
136.075500 19.000000
136.081210 11.000000
136.092960 19.000000
136.112210 898.000000
137.114790 129.000000
137.364670 7.000000
137.670780 6.000000
138.114180 8.000000
140.024030 8.000000
140.060900 17.000000
141.054150 22.000000
141.063890 10.000000
141.077580 21.000000
142.065400 79.000000
142.785660 6.000000
143.054760 6.000000
143.072420 285.000000
144.038470 15.000000
144.048950 35.000000
144.057940 16.000000
144.067790 37.000000
144.079930 143.000000
145.040130 14.000000
145.051350 34.000000
145.056990 33.000000
145.064820 29.000000
145.071590 19.000000
145.081360 21.000000
145.105350 7.000000
146.056460 45.000000
146.069290 14.000000
146.088440 14.000000
146.097140 74.000000
147.029690 10.000000
147.053800 15.000000
147.071290 9.000000
147.081530 30.000000
147.095950 42.000000
147.105620 28.000000
148.069720 16.000000
148.082840 28.000000
148.110750 305.000000
149.056020 7.000000
149.078840 17.000000
149.114490 54.000000
149.124300 15.000000
149.389010 8.000000
149.829240 6.000000
150.090090 12.000000
150.121430 22.000000
151.051590 7.000000
153.049730 12.000000
153.073730 24.000000
153.672910 7.000000
154.052430 14.000000
154.064010 227.000000
154.081340 14.000000
155.073010 558.000000
156.051650 7.000000
156.072100 98.000000
156.081220 57.000000
156.090030 6.000000
156.819550 6.000000
157.059690 6.000000
157.080470 54.000000
157.088270 96.000000
157.105210 7.000000
157.185330 12.000000
158.056200 89.000000
158.062410 72.000000
158.075520 57.000000
158.095380 32.000000
158.104340 31.000000
158.808300 6.000000
159.028370 6.000000
159.055570 65.000000
159.066760 142.000000
159.074810 94.000000
159.103240 15.000000
160.050610 9.000000
160.073810 435.000000
160.095990 7.000000
160.107160 8.000000
161.063100 36.000000
161.073930 42.000000
161.085110 19.000000
161.122560 7.000000
161.424770 9.000000
162.072940 19.000000
162.082180 25.000000
162.091090 35.000000
162.964460 6.000000
163.091080 8.000000
163.929890 7.000000
165.060490 8.000000
165.068940 15.000000
166.043560 8.000000
166.059100 26.000000
166.070400 36.000000
166.520290 6.000000
166.585540 6.000000
166.697170 7.000000
166.985310 6.000000
167.046400 17.000000
167.072430 892.000000
168.013990 8.000000
168.062210 23.000000
168.078830 252.000000
168.092500 8.000000
168.339230 7.000000
169.027910 25.000000
169.040500 24.000000
169.050980 111.000000
169.076490 55.000000
169.087910 80.000000
170.058430 106.000000
170.073520 13.000000
170.086810 32.000000
170.093640 43.000000
171.028900 6.000000
171.059590 67.000000
171.066560 196.000000
171.102220 10.000000
171.800830 7.000000
171.993620 8.000000
172.059650 20.000000
172.072600 314.000000
172.095110 7.000000
172.667650 9.000000
173.063600 17.000000
173.084990 139.000000
174.055250 10.000000
174.065900 35.000000
174.090450 624.000000
175.077970 9.000000
175.092860 32.000000
175.372340 6.000000
175.545810 8.000000
176.078540 9.000000
176.108410 72.000000
177.072860 7.000000
177.084930 20.000000
177.097270 19.000000
177.383220 10.000000
178.068020 33.000000
178.088180 10.000000
178.106490 6.000000
178.860440 7.000000
179.063480 16.000000
179.074520 11.000000
179.083880 16.000000
179.115570 7.000000
179.425110 11.000000
180.072020 27.000000
180.082570 139.000000
180.105350 11.000000
181.043320 7.000000
181.052990 10.000000
181.077710 55.000000
181.086400 207.000000
181.118270 10.000000
181.191860 6.000000
181.246870 6.000000
182.020520 8.000000
182.053860 34.000000
182.062210 50.000000
182.076550 45.000000
182.088610 121.000000
182.100100 14.000000
183.061900 116.000000
183.069850 365.000000
183.093260 35.000000
183.104660 7.000000
183.213100 11.000000
184.014970 6.000000
184.065770 167.000000
184.074720 363.000000
184.082350 97.000000
184.096480 17.000000
184.652680 8.000000
185.053990 14.000000
185.080020 291.000000
185.127350 7.000000
185.991030 13.000000
186.038410 7.000000
186.056200 27.000000
186.062930 45.000000
186.078950 102.000000
186.091870 627.000000
186.111050 17.000000
186.134640 7.000000
187.085460 171.000000
187.100800 55.000000
188.059400 10.000000
188.073790 25.000000
188.098500 107.000000
188.143880 6.000000
189.082490 20.000000
189.101410 17.000000
189.112880 11.000000
190.111110 12.000000
191.051970 16.000000
191.062010 7.000000
191.073290 50.000000
192.034010 10.000000
192.080060 83.000000
192.102450 12.000000
192.365310 7.000000
193.052730 8.000000
193.070160 8.000000
193.082810 68.000000
193.618880 8.000000
194.043320 25.000000
194.063080 26.000000
194.084520 36.000000
194.094850 60.000000
194.131480 7.000000
194.860400 6.000000
194.871030 7.000000
195.029480 8.000000
195.036680 7.000000
195.058960 178.000000
195.067540 582.000000
195.092730 27.000000
195.114650 7.000000
196.029570 9.000000
196.052260 8.000000
196.070600 149.000000
196.080580 111.000000
196.098720 39.000000
196.114210 12.000000
196.270540 6.000000
196.373410 6.000000
196.433700 7.000000
196.775070 7.000000
196.958570 15.000000
197.050460 14.000000
197.066470 22.000000
197.081070 156.000000
197.100400 76.000000
197.111510 32.000000
197.519040 7.000000
198.055010 34.000000
198.089110 422.000000
198.117900 8.000000
198.406920 6.000000
199.049470 9.000000
199.066190 18.000000
199.087200 236.000000
199.100200 74.000000
199.236970 6.000000
200.052200 13.000000
200.072950 77.000000
200.095580 70.000000
200.108150 46.000000
200.924820 8.000000
201.059400 9.000000
201.096710 77.000000
201.106690 47.000000
202.054610 7.000000
202.069400 7.000000
202.096530 7.000000
202.107880 17.000000
202.537600 7.000000
203.102660 7.000000
204.063230 25.000000
204.077470 47.000000
204.089800 7.000000
204.120270 11.000000
205.052520 20.000000
205.073610 27.000000
205.083360 44.000000
205.092210 43.000000
206.000120 7.000000
206.045060 7.000000
206.059830 31.000000
206.077420 11.000000
206.092590 97.000000
206.110060 21.000000
207.046800 10.000000
207.060550 28.000000
207.075090 39.000000
207.095550 143.000000
208.041930 25.000000
208.065370 30.000000
208.076310 87.000000
208.101880 171.000000
208.121890 22.000000
209.043790 8.000000
209.058730 15.000000
209.079450 169.000000
209.109280 124.000000
209.136700 7.000000
209.475100 6.000000
210.025710 7.000000
210.035200 7.000000
210.049060 7.000000
210.063230 17.000000
210.091310 1000.000000
210.112780 52.000000
210.122730 25.000000
210.340180 6.000000
211.011990 7.000000
211.055250 36.000000
211.066800 54.000000
211.088530 153.000000
211.100400 188.000000
211.118130 46.000000
211.129780 11.000000
212.010940 7.000000
212.047040 8.000000
212.064530 21.000000
212.073940 28.000000
212.089980 49.000000
212.102970 128.000000
212.125920 8.000000
212.144380 18.000000
213.072390 16.000000
213.080960 38.000000
213.099470 107.000000
213.110530 30.000000
214.027310 8.000000
214.045120 6.000000
214.080920 55.000000
214.093110 21.000000
214.110120 17.000000
214.146730 6.000000
214.251710 7.000000
215.079930 22.000000
215.120560 10.000000
215.925980 6.000000
216.076720 7.000000
216.100360 10.000000
216.795900 15.000000
217.058210 13.000000
217.064710 7.000000
217.085160 9.000000
217.103090 19.000000
218.048900 11.000000
218.079680 30.000000
218.094500 55.000000
219.072170 20.000000
219.095410 49.000000
219.106950 7.000000
220.061940 9.000000
220.077740 76.000000
220.096220 53.000000
220.113050 54.000000
221.052000 9.000000
221.077210 75.000000
221.109450 63.000000
221.117370 39.000000
221.198120 7.000000
222.053390 17.000000
222.064130 20.000000
222.081180 109.000000
222.095460 83.000000
222.104750 58.000000
222.116990 48.000000
222.330550 13.000000
222.509290 9.000000
223.047040 16.000000
223.061000 51.000000
223.091450 72.000000
223.109010 36.000000
223.123890 18.000000
224.021360 8.000000
224.075960 53.000000
224.094890 180.000000
224.104870 151.000000
224.114350 108.000000
224.133100 6.000000
225.065960 5.000000
225.075120 16.000000
225.095490 82.000000
225.109440 58.000000
225.120390 18.000000
225.147480 9.000000
226.027300 6.000000
226.049610 7.000000
226.066440 13.000000
226.083910 19.000000
226.095090 6.000000
226.107180 9.000000
227.076800 32.000000
227.090070 25.000000
227.954270 6.000000
228.113920 6.000000
229.080840 18.000000
229.358900 10.000000
229.482700 13.000000
230.093060 15.000000
230.112580 6.000000
230.653110 18.000000
231.091350 6.000000
231.098450 14.000000
231.249970 7.000000
232.062710 8.000000
232.075820 46.000000
232.106990 122.000000
232.123730 10.000000
233.074450 37.000000
233.088040 9.000000
233.117900 85.000000
233.412200 6.000000
233.467640 7.000000
234.075500 38.000000
234.089680 175.000000
234.102970 83.000000
234.114990 72.000000
234.129560 22.000000
235.079530 58.000000
235.090970 90.000000
235.100190 162.000000
235.125520 66.000000
235.146480 12.000000
236.082660 44.000000
236.096560 170.000000
236.108700 74.000000
236.124220 27.000000
236.133990 22.000000
236.146220 6.000000
236.622560 11.000000
237.067000 10.000000
237.084520 90.000000
237.103730 398.000000
237.127270 20.000000
237.143070 6.000000
237.195310 8.000000
238.053450 7.000000
238.077420 28.000000
238.085490 63.000000
238.109420 303.000000
238.142850 33.000000
238.155760 13.000000
238.764880 9.000000
239.059510 11.000000
239.069210 8.000000
239.091670 29.000000
239.115280 125.000000
239.124950 110.000000
239.552690 6.000000
240.063720 9.000000
240.076400 12.000000
240.123150 7.000000
241.122300 9.000000
241.556170 6.000000
242.080320 6.000000
242.102450 8.000000
243.083940 13.000000
243.120030 6.000000
244.064730 14.000000
244.073140 7.000000
244.099640 20.000000
244.110200 7.000000
244.132570 8.000000
244.781980 6.000000
245.129590 8.000000
246.074080 13.000000
246.089460 33.000000
246.097870 43.000000
246.116500 21.000000
246.841750 9.000000
247.002520 8.000000
247.060590 10.000000
247.069150 11.000000
247.088700 24.000000
247.097660 66.000000
247.121320 39.000000
248.065220 9.000000
248.076250 18.000000
248.088260 20.000000
248.103520 107.000000
248.115070 97.000000
248.147000 15.000000
249.076860 25.000000
249.100330 113.000000
249.115980 119.000000
249.130160 163.000000
249.145400 72.000000
249.439870 6.000000
249.958600 7.000000
250.070330 8.000000
250.084720 30.000000
250.111020 117.000000
250.132680 80.000000
250.155330 14.000000
250.262120 6.000000
250.408170 15.000000
250.928530 8.000000
251.067920 13.000000
251.088410 33.000000
251.118380 741.000000
251.144930 9.000000
252.059460 7.000000
252.068190 7.000000
252.091000 20.000000
252.109830 42.000000
252.128560 121.000000
252.136120 45.000000
253.017680 12.000000
253.082170 25.000000
253.134870 289.000000
254.056720 7.000000
254.086720 20.000000
254.116300 16.000000
254.133800 49.000000
255.107770 6.000000
255.133960 7.000000
256.102840 10.000000
256.113310 14.000000
257.092190 7.000000
259.103180 7.000000
259.122920 6.000000
259.192720 8.000000
260.094730 38.000000
260.108060 18.000000
260.129000 11.000000
261.060790 13.000000
261.087400 7.000000
261.099880 23.000000
261.117580 63.000000
261.136170 17.000000
262.087310 23.000000
262.115720 186.000000
262.136350 25.000000
263.073330 9.000000
263.111180 148.000000
263.125370 97.000000
263.153110 350.000000
263.869570 6.000000
263.952420 10.000000
264.084750 39.000000
264.118100 82.000000
264.131840 103.000000
264.162020 537.000000
264.215450 8.000000
264.418820 8.000000
264.750370 9.000000
265.075010 8.000000
265.091310 74.000000
265.117680 16.000000
265.140170 84.000000
265.157350 56.000000
265.171940 96.000000
265.324130 7.000000
265.396820 10.000000
266.088960 8.000000
266.109500 33.000000
266.123990 44.000000
266.145510 16.000000
266.165530 45.000000
267.078490 7.000000
267.111080 29.000000
267.142030 7.000000
267.179900 8.000000
267.343900 7.000000
268.089110 14.000000
268.104460 32.000000
268.121640 17.000000
268.376800 9.000000
268.847930 6.000000
269.080440 6.000000
269.099820 26.000000
269.116420 8.000000
269.126530 18.000000
269.410830 11.000000
270.093200 6.000000
270.107480 9.000000
270.615450 8.000000
271.111110 7.000000
272.083130 8.000000
273.131040 8.000000
273.143650 6.000000
274.079830 8.000000
274.097050 6.000000
274.127960 15.000000
274.150180 9.000000
274.351380 10.000000
275.140200 14.000000
275.149320 6.000000
275.960140 6.000000
276.094730 9.000000
276.110410 11.000000
276.124510 71.000000
276.135160 32.000000
276.150120 12.000000
276.167660 11.000000
276.664490 11.000000
277.065640 7.000000
277.083560 19.000000
277.136600 309.000000
278.103150 14.000000
278.136510 91.000000
278.148860 39.000000
279.090820 8.000000
279.113680 34.000000
279.151950 184.000000
279.196530 15.000000
279.298100 6.000000
279.814480 6.000000
280.126500 7.000000
280.133880 16.000000
280.150240 9.000000
280.194640 8.000000
281.167940 19.000000
282.115450 14.000000
283.101900 8.000000
283.692780 7.000000
284.132020 7.000000
284.979460 20.000000
286.092740 9.000000
288.103790 6.000000
288.117520 8.000000
289.111330 13.000000
289.140930 27.000000
289.157230 6.000000
290.101780 22.000000
290.117520 12.000000
290.142880 23.000000
290.156800 11.000000
290.742280 6.000000
291.088130 7.000000
291.108830 7.000000
291.120970 18.000000
291.144650 258.000000
291.280000 7.000000
291.740360 9.000000
292.124510 36.000000
292.154790 449.000000
292.363800 6.000000
292.812410 9.000000
292.874480 8.000000
293.104950 7.000000
293.121640 32.000000
293.137660 11.000000
293.155550 99.000000
293.175290 62.000000
293.701480 15.000000
294.134000 6.000000
294.168330 29.000000
295.137790 7.000000
295.165590 7.000000
295.176640 11.000000
296.083070 9.000000
296.105870 9.000000
296.225070 8.000000
297.148220 8.000000
298.115720 12.000000
302.132810 7.000000
305.097500 9.000000
305.135440 29.000000
305.170680 39.000000
306.133120 25.000000
306.150020 6.000000
306.164370 8.000000
307.148440 16.000000
307.177730 189.000000
307.188020 119.000000
308.170070 39.000000
308.191830 33.000000
308.730560 7.000000
309.143340 16.000000
309.160430 9.000000
309.180970 8.000000
309.195010 27.000000
311.122830 27.000000
311.136570 37.000000
311.152010 13.000000
312.141910 24.000000
318.126710 8.000000
318.151820 6.000000
319.116180 7.000000
319.135800 10.000000
319.151120 8.000000
320.128230 11.000000
320.144130 25.000000
320.168880 7.000000
321.155240 8.000000
322.126770 12.000000
322.152340 11.000000
323.149140 9.000000
323.176030 38.000000
323.223450 7.000000
324.181460 69.000000
325.182650 15.000000
326.171970 9.000000
334.156490 9.000000
335.158940 6.000000
335.174650 17.000000
335.187680 17.000000
336.160830 7.000000
336.174010 6.000000
337.152770 16.000000
337.166260 8.000000
338.164310 7.000000
351.168180 14.000000
351.177340 7.000000
352.143460 8.000000
352.169980 26.000000
352.182680 13.000000
353.185360 7.000000
362.221100 12.000000
367.170960 9.000000
367.197600 19.000000
367.213780 14.000000
367.902340 7.000000
368.207790 7.000000
384.733340 9.000000

