>compound PR70167736
>parentmass 353.18596916923076
>ionization [M+H]+
>formula C21H24N2O3
>rt 292.372578
>profile qtof
#smiles_iso CC1C2CN3CCC4=C(C3CC2C(=CO1)C(=O)OC)NC5=CC=CC=C45
#smiles_can CC1C2CN3CCC4=C(C3CC2C(=CO1)C(=O)OC)NC5=CC=CC=C45
#inchikey GRTOGORTSDXSFK-UHFFFAOYSA-N
#pubchem_id 251561
#mb_accession PR301743,PR301746,PR301749,PR301752,PR301755,PR301758,PR301761,PR301764,PR301767,PR301770,PR301773,PR301776,PR310603

>ms2peaks
108.082820 6.000000
117.072270 11.000000
127.053380 7.000000
143.073790 13.000000
144.081410 576.000000
144.115680 7.000000
145.085370 71.000000
156.079680 5.000000
158.095640 14.000000
162.093550 6.000000
167.072830 10.000000
170.091810 7.000000
178.088780 35.000000
182.093220 7.000000
199.120450 11.000000
210.114200 54.000000
211.117220 6.000000
222.113710 57.000000
223.115430 14.000000
321.160580 19.000000
353.125850 8.000000
353.184140 1000.000000
353.238340 28.000000

>ms2peaks
144.081120 16.000000
222.111040 6.000000
353.185270 1000.000000
353.239900 30.000000

>ms2peaks
108.081950 15.000000
117.069680 22.000000
124.039830 9.000000
127.053580 11.000000
143.072530 11.000000
144.080980 1000.000000
144.114930 25.000000
145.084030 137.000000
146.087830 9.000000
156.079500 16.000000
158.096790 28.000000
162.092290 19.000000
167.071240 10.000000
170.094790 26.000000
178.087660 68.000000
179.088850 9.000000
182.091930 10.000000
182.100420 11.000000
190.085530 21.000000
199.122180 13.000000
208.112880 7.000000
210.104900 8.000000
210.112920 26.000000
222.113160 64.000000
223.124150 15.000000
251.152850 11.000000
321.160830 7.000000
353.187650 14.000000

>ms2peaks
77.042180 11.000000
81.073560 5.000000
91.052700 30.000000
95.049690 8.000000
103.055270 32.000000
108.081570 23.000000
115.055270 116.000000
116.056940 23.000000
117.057630 36.000000
117.070810 219.000000
118.071270 34.000000
119.074810 8.000000
124.034710 7.000000
127.055600 154.000000
128.047790 32.000000
128.055370 49.000000
128.066240 11.000000
129.059100 16.000000
129.070220 20.000000
130.065570 37.000000
130.076520 5.000000
134.092270 5.000000
135.049840 5.000000
142.061310 10.000000
142.068890 9.000000
143.073070 257.000000
144.080720 1000.000000
145.083280 103.000000
153.053570 5.000000
154.064450 15.000000
155.070100 19.000000
156.076830 18.000000
156.083590 20.000000
157.078090 5.000000
157.091110 7.000000
158.092510 11.000000
162.090300 10.000000
167.073300 60.000000
168.079960 40.000000
169.084030 8.000000
170.098620 16.000000
171.096980 5.000000
180.081210 44.000000
181.084660 12.000000
182.092960 14.000000
182.102720 7.000000
183.083740 7.000000
183.099010 9.000000
192.084950 6.000000
193.091000 6.000000
194.100040 5.000000
195.067720 5.000000
195.104460 5.000000
196.079350 7.000000
204.075760 5.000000
206.089520 11.000000
206.097890 7.000000
207.085490 13.000000
207.106250 19.000000
208.118800 5.000000
209.106540 19.000000
217.076740 6.000000
217.097320 8.000000
218.094530 10.000000
220.080890 9.000000
221.097110 6.000000
222.119870 6.000000
230.088680 7.000000
234.114580 7.000000

>ms2peaks
117.069440 10.000000
127.056620 8.000000
143.072220 12.000000
144.081500 572.000000
144.114750 5.000000
145.084730 73.000000
158.095810 18.000000
170.099330 11.000000
178.080380 12.000000
178.087720 24.000000
182.099000 11.000000
190.084410 7.000000
199.122330 8.000000
199.130460 6.000000
208.096890 7.000000
210.112920 65.000000
211.115590 9.000000
222.114960 53.000000
223.116650 6.000000
223.128140 5.000000
251.154620 9.000000
321.161650 23.000000
321.174770 6.000000
353.139160 10.000000
353.184810 1000.000000
353.239530 28.000000

>ms2peaks
144.080410 17.000000
210.111770 7.000000
353.186370 1000.000000
353.240050 34.000000

>ms2peaks
108.078830 7.000000
108.083950 12.000000
117.069400 19.000000
124.036040 6.000000
124.042000 8.000000
127.058380 8.000000
130.064320 5.000000
143.073260 15.000000
144.081210 1000.000000
144.115450 24.000000
145.084170 121.000000
146.092700 6.000000
156.078000 9.000000
158.096910 24.000000
162.091810 6.000000
167.070300 20.000000
168.079610 6.000000
170.095720 18.000000
178.086400 60.000000
179.088180 11.000000
182.098430 15.000000
190.086670 21.000000
199.120820 12.000000
210.111940 18.000000
210.121510 11.000000
222.113240 48.000000
223.125930 11.000000
251.153850 7.000000
321.166530 7.000000
353.185640 11.000000

>ms2peaks
68.050940 6.000000
77.037990 15.000000
79.055730 13.000000
81.069520 5.000000
90.049560 5.000000
91.050160 12.000000
91.055190 29.000000
103.050930 7.000000
103.058140 20.000000
108.081630 22.000000
109.029320 6.000000
115.055660 120.000000
116.050630 17.000000
116.060170 15.000000
117.055400 23.000000
117.069940 285.000000
118.061240 7.000000
118.069180 21.000000
118.076390 20.000000
124.037250 7.000000
124.045620 7.000000
127.054650 180.000000
128.051540 72.000000
128.061140 32.000000
129.053530 10.000000
129.063060 9.000000
129.071550 26.000000
130.067150 53.000000
142.065080 15.000000
142.070540 9.000000
143.046770 6.000000
143.072920 295.000000
144.047590 11.000000
144.060650 6.000000
144.080960 1000.000000
145.085540 124.000000
146.092830 6.000000
154.062300 13.000000
154.071620 15.000000
155.073120 31.000000
155.082570 6.000000
156.071760 8.000000
156.081500 25.000000
158.091450 6.000000
158.100830 11.000000
159.098950 7.000000
162.094880 6.000000
166.065030 8.000000
167.073700 53.000000
168.081270 38.000000
169.087550 17.000000
170.095810 19.000000
171.097240 10.000000
171.103990 5.000000
179.069950 8.000000
180.081920 62.000000
181.085720 14.000000
182.092510 15.000000
182.102630 8.000000
183.086940 5.000000
184.098950 8.000000
192.083150 10.000000
193.092730 22.000000
194.086410 10.000000
194.096620 11.000000
204.081150 20.000000
204.087890 6.000000
206.097180 22.000000
207.077590 6.000000
207.104930 12.000000
208.088330 6.000000
208.106400 14.000000
208.115880 7.000000
209.106660 13.000000
219.093580 6.000000
220.079970 6.000000
221.121090 5.000000

>ms2peaks
108.079500 6.000000
117.069600 16.000000
127.056610 6.000000
143.075900 19.000000
144.080930 581.000000
144.114380 8.000000
145.084430 62.000000
146.087250 5.000000
156.078770 6.000000
158.099110 17.000000
162.088500 7.000000
167.070010 6.000000
170.090230 6.000000
178.085650 33.000000
190.085080 9.000000
199.121960 11.000000
208.102160 6.000000
209.108090 5.000000
210.112980 59.000000
222.114140 56.000000
223.116040 5.000000
251.155670 13.000000
321.159880 18.000000
353.187260 1000.000000
353.242000 32.000000

>ms2peaks
144.081240 17.000000
222.112240 7.000000
353.186920 1000.000000
353.240600 33.000000

>ms2peaks
108.081950 14.000000
117.070570 17.000000
124.039350 14.000000
143.073100 18.000000
144.081090 1000.000000
144.114930 26.000000
145.084410 126.000000
146.086290 7.000000
155.071000 6.000000
156.078690 10.000000
158.097290 21.000000
159.098430 5.000000
162.093150 21.000000
167.072980 7.000000
168.076810 6.000000
170.097230 21.000000
178.087130 63.000000
182.096020 18.000000
190.086880 23.000000
199.119380 10.000000
208.095440 8.000000
210.107470 16.000000
210.118730 8.000000
211.114270 5.000000
222.114010 59.000000
223.112980 6.000000
223.130160 12.000000
251.158280 14.000000
321.164890 6.000000
353.182710 15.000000

>ms2peaks
77.042270 9.000000
90.044540 5.000000
91.054670 25.000000
91.060900 12.000000
93.059330 5.000000
103.052260 6.000000
103.058440 10.000000
108.081950 13.000000
115.054180 113.000000
116.048140 11.000000
116.054510 6.000000
116.063670 15.000000
117.038670 9.000000
117.070380 222.000000
118.063660 16.000000
118.073130 24.000000
122.025120 6.000000
124.043980 6.000000
127.054880 184.000000
128.039410 7.000000
128.051410 66.000000
128.059690 34.000000
129.055050 8.000000
129.069470 26.000000
130.061100 10.000000
130.071110 14.000000
131.073300 6.000000
142.066160 14.000000
142.073490 13.000000
143.074400 322.000000
143.094150 5.000000
144.058460 7.000000
144.081970 1000.000000
145.065280 6.000000
145.084290 138.000000
146.092530 11.000000
153.056460 6.000000
153.068660 5.000000
154.065670 16.000000
154.075940 9.000000
155.072270 17.000000
155.082280 8.000000
156.080830 27.000000
157.088070 16.000000
158.094220 21.000000
162.095790 6.000000
167.066280 29.000000
167.075090 44.000000
168.073530 24.000000
168.082730 60.000000
169.069400 9.000000
169.081070 8.000000
169.092440 10.000000
170.097550 20.000000
179.070910 5.000000
180.082400 41.000000
181.078450 5.000000
181.090990 12.000000
182.088470 6.000000
182.098340 6.000000
191.078520 6.000000
193.090260 10.000000
194.095960 20.000000
195.092450 5.000000
204.082150 11.000000
205.085850 12.000000
206.086910 5.000000
206.099000 13.000000
207.108110 6.000000
208.101430 8.000000
208.113980 6.000000
217.088060 7.000000
218.100590 26.000000
221.114910 6.000000
222.128650 5.000000
234.130660 5.000000
353.193120 7.000000

>ms2peaks
52.254310 25.000000
56.051770 42.000000
56.725690 17.000000
60.564160 17.000000
61.249130 24.000000
70.064410 24.000000
77.040170 18.000000
81.064930 45.000000
81.072130 25.000000
91.038190 25.000000
91.053870 48.000000
91.268660 20.000000
94.063780 17.000000
95.052670 17.000000
96.042850 27.000000
96.074870 54.000000
97.062680 18.000000
97.175180 30.000000
103.052470 24.000000
103.057040 30.000000
104.044530 24.000000
105.067890 48.000000
107.066700 24.000000
108.082820 266.000000
109.027690 17.000000
109.053270 21.000000
109.061260 21.000000
109.075440 25.000000
109.693090 22.000000
115.031590 29.000000
115.052020 117.000000
116.052710 18.000000
116.309080 20.000000
117.059110 75.000000
117.072270 456.000000
118.070140 17.000000
118.075010 22.000000
119.292880 28.000000
120.086170 34.000000
121.064670 30.000000
121.208070 44.000000
121.811320 20.000000
122.023740 41.000000
124.038990 96.000000
125.038080 20.000000
127.053380 307.000000
128.055730 61.000000
128.065780 60.000000
128.102630 22.000000
129.065280 22.000000
129.072040 25.000000
129.081360 26.000000
130.062130 43.000000
130.073910 25.000000
131.045990 23.000000
131.076900 19.000000
132.078600 23.000000
132.511960 37.000000
133.000700 18.000000
133.010130 21.000000
133.064010 20.000000
134.097370 43.000000
135.021790 24.000000
135.043320 36.000000
136.502900 21.000000
136.887160 21.000000
137.783290 19.000000
141.303760 20.000000
142.060650 18.000000
142.069720 40.000000
143.054370 17.000000
143.073790 521.000000
143.091090 17.000000
143.129620 18.000000
143.718440 19.000000
144.023640 42.000000
144.037520 23.000000
144.053730 183.000000
144.081410 23639.000000
144.115680 293.000000
144.190870 25.000000
144.226820 17.000000
144.548680 21.000000
144.636720 18.000000
144.676830 19.000000
144.715010 20.000000
144.908160 19.000000
145.048950 33.000000
145.085370 2914.000000
145.226230 17.000000
145.697480 17.000000
146.068790 18.000000
146.083880 140.000000
146.092130 74.000000
147.042160 23.000000
147.081620 37.000000
148.587300 18.000000
149.063520 56.000000
149.866440 22.000000
150.089610 41.000000
150.101460 18.000000
150.563490 20.000000
151.087050 53.000000
152.336520 24.000000
153.055220 18.000000
153.074520 43.000000
154.058590 21.000000
155.060300 18.000000
155.071590 105.000000
155.773210 22.000000
156.064800 62.000000
156.079680 213.000000
157.089460 100.000000
158.056400 21.000000
158.095640 585.000000
158.106930 86.000000
159.096850 57.000000
159.104390 54.000000
160.074750 17.000000
161.233990 27.000000
162.093550 262.000000
163.063080 18.000000
163.096440 18.000000
164.073410 25.000000
165.075100 25.000000
166.081340 43.000000
167.072830 406.000000
168.073120 104.000000
168.084240 127.000000
169.077700 22.000000
169.090500 74.000000
170.091810 280.000000
170.103810 152.000000
171.088730 54.000000
171.096280 54.000000
172.073580 36.000000
172.082470 25.000000
173.080580 28.000000
174.054900 29.000000
174.087190 19.000000
176.071810 22.000000
178.059480 21.000000
178.088780 1444.000000
179.079220 30.000000
179.094240 189.000000
179.850970 20.000000
180.070680 75.000000
180.078160 133.000000
180.087540 136.000000
180.267120 35.000000
181.070220 21.000000
181.082400 20.000000
181.092860 18.000000
181.977200 41.000000
182.093220 281.000000
182.101840 157.000000
183.052250 22.000000
183.098460 46.000000
183.112050 32.000000
184.107270 37.000000
185.105550 123.000000
185.113450 80.000000
187.083340 17.000000
187.121370 40.000000
188.954500 38.000000
190.071720 33.000000
190.086640 175.000000
190.093630 117.000000
190.439100 18.000000
191.074710 41.000000
191.089070 18.000000
192.075420 35.000000
193.095600 67.000000
194.090030 24.000000
194.100010 45.000000
194.110310 48.000000
194.609850 21.000000
195.116410 41.000000
196.100660 17.000000
196.114290 21.000000
197.088500 18.000000
197.112610 46.000000
199.092240 17.000000
199.120450 449.000000
199.134490 63.000000
200.124450 57.000000
200.132200 48.000000
201.228760 22.000000
204.082950 20.000000
204.103040 96.000000
205.377110 20.000000
205.752840 19.000000
206.072950 17.000000
206.096410 50.000000
206.698290 29.000000
207.103120 43.000000
208.041350 24.000000
208.078000 21.000000
208.089570 116.000000
208.100600 142.000000
208.112200 87.000000
209.086240 38.000000
209.102810 184.000000
209.115810 116.000000
209.130340 23.000000
209.757290 30.000000
210.091720 99.000000
210.114200 2229.000000
210.199680 25.000000
210.495220 20.000000
211.091630 42.000000
211.109530 110.000000
211.117220 248.000000
211.129330 59.000000
212.111630 17.000000
213.119490 18.000000
215.540210 26.000000
217.081950 20.000000
218.092970 19.000000
218.102920 25.000000
219.092590 55.000000
219.105470 106.000000
220.100040 27.000000
220.113080 19.000000
220.268430 29.000000
221.066510 18.000000
221.106140 46.000000
221.118790 49.000000
222.033650 50.000000
222.084900 34.000000
222.113710 2357.000000
222.144000 37.000000
222.692170 27.000000
223.115430 590.000000
223.136470 110.000000
223.685180 21.000000
224.071950 18.000000
224.101550 20.000000
224.120360 17.000000
224.131850 63.000000
224.142200 37.000000
225.085740 31.000000
225.126020 22.000000
225.131590 54.000000
225.146900 23.000000
225.654950 26.000000
226.088030 20.000000
226.833190 29.000000
229.088360 23.000000
230.095410 18.000000
231.295040 18.000000
231.414370 19.000000
231.750350 20.000000
232.109300 23.000000
232.479890 17.000000
232.505040 17.000000
233.084550 25.000000
233.520900 21.000000
234.095780 20.000000
234.122390 78.000000
234.134640 38.000000
235.127030 20.000000
236.131230 24.000000
237.095320 17.000000
237.882710 18.000000
238.116970 19.000000
239.092330 24.000000
239.128980 20.000000
239.735700 18.000000
240.106630 36.000000
240.120500 31.000000
240.909360 18.000000
241.095370 18.000000
241.119570 20.000000
241.548140 33.000000
242.118590 26.000000
243.816310 18.000000
244.087720 22.000000
246.095730 24.000000
249.139050 23.000000
249.156430 24.000000
250.117230 21.000000
250.134080 21.000000
250.147550 43.000000
251.146910 112.000000
251.158940 195.000000
251.826250 23.000000
252.073290 27.000000
252.103380 139.000000
252.160130 102.000000
253.108000 96.000000
254.115970 57.000000
255.100250 17.000000
256.096620 24.000000
258.090000 20.000000
258.572630 24.000000
260.108580 36.000000
260.127840 23.000000
260.595980 29.000000
262.118840 53.000000
262.142120 19.000000
264.087190 22.000000
264.113890 17.000000
264.146610 57.000000
265.104890 18.000000
265.112700 21.000000
265.151820 23.000000
267.058930 22.000000
267.148410 22.000000
268.125400 27.000000
272.114530 25.000000
275.162630 27.000000
275.174500 20.000000
276.105220 20.000000
276.151490 56.000000
277.121980 26.000000
277.134280 18.000000
277.174070 20.000000
278.138060 40.000000
278.819030 20.000000
279.113220 26.000000
280.122040 17.000000
280.146790 57.000000
284.132110 125.000000
286.125030 44.000000
291.115020 33.000000
291.179690 24.000000
292.121310 17.000000
292.142150 22.000000
293.157320 45.000000
293.346530 24.000000
293.708710 21.000000
294.110290 18.000000
294.150420 22.000000
294.625640 41.000000
295.321320 20.000000
297.966430 17.000000
303.147670 74.000000
304.121490 28.000000
304.140320 17.000000
306.149350 24.000000
307.150420 25.000000
309.166720 105.000000
310.127840 18.000000
310.153050 66.000000
319.155360 17.000000
321.160580 780.000000
321.917820 21.000000
322.158840 177.000000
322.174190 37.000000
323.509400 19.000000
324.139190 28.000000
324.164340 96.000000
325.125150 26.000000
325.189940 17.000000
337.155000 25.000000
338.173710 18.000000
344.852450 20.000000
346.524570 17.000000
351.160160 17.000000
351.171660 23.000000
351.613100 17.000000
351.770480 17.000000
352.159700 44.000000
352.180150 46.000000
352.197750 26.000000
352.821440 18.000000
352.853490 17.000000
353.049440 35.000000
353.066770 41.000000
353.125850 337.000000
353.152190 57.000000
353.184140 41069.000000
353.238340 1147.000000
353.280610 42.000000
353.292970 18.000000
353.370540 20.000000

