>compound PR70265499
>parentmass 581.1864821999999
>ionization [M+H]+
>formula C27H32O14
>rt 256.896000
>profile qtof
#smiles_iso C[C@H]1[C@@H]([C@H]([C@H]([C@@H](O1)OC[C@@H]2[C@H]([C@@H]([C@H]([C@@H](O2)OC3=CC(=C4C(=O)C[C@H](OC4=C3)C5=CC=C(C=C5)O)O)O)O)O)O)O)O
#smiles_can CC1C(C(C(C(O1)OCC2C(C(C(C(O2)OC3=CC(=C4C(=O)CC(OC4=C3)C5=CC=C(C=C5)O)O)O)O)O)O)O)O
#inchikey HXTFHSYLYXVTHC-AJHDJQPGSA-N
#pubchem_id 442431
#mb_accession PR302552,PR302558,PR302564,PR302570,PR302576,PR302582,PR302588,PR302594,PR302600,PR302606,PR302612,PR302618

>ms2peaks
71.047170 44.000000
83.050610 21.000000
85.022710 14.000000
85.034010 33.000000
86.023890 24.000000
127.035760 41.000000
129.046460 23.000000
129.053010 61.000000
129.059100 33.000000
130.049500 24.000000
145.051190 72.000000
146.060790 28.000000
147.066280 17.000000
148.054760 24.000000
153.015580 96.000000
161.049420 14.000000
177.056790 30.000000
191.029540 49.000000
195.025670 99.000000
196.031420 19.000000
201.056050 32.000000
219.018800 21.000000
220.026180 44.000000
231.092800 14.000000
233.040970 37.000000
235.048360 15.000000
245.042240 62.000000
263.035370 18.000000
263.045040 65.000000
263.060670 40.000000
271.036040 20.000000
271.051970 70.000000
272.064030 62.000000
273.035460 16.000000
273.075260 1000.000000
274.074620 214.000000
274.088470 41.000000
275.080810 15.000000
281.068210 20.000000
285.031280 23.000000
289.081360 16.000000
297.067140 15.000000
298.075040 29.000000
309.133270 24.000000
309.622830 23.000000
313.081760 27.000000
315.084720 77.000000
315.097960 20.000000
323.080840 30.000000
323.091770 18.000000
339.078610 19.000000
340.049650 23.000000
365.093570 74.000000
369.112090 24.000000
381.104490 17.000000
383.094390 35.000000
383.116580 162.000000
384.109190 22.000000
386.547730 16.000000
390.982600 19.000000
393.052120 19.000000
400.121280 21.000000
401.113890 36.000000
401.133730 17.000000
402.125760 18.000000
417.107880 17.000000
417.125890 45.000000
417.149870 14.000000
419.110290 69.000000
419.142910 229.000000
420.138210 56.000000
421.106410 22.000000
421.138400 21.000000
421.155030 24.000000
426.119630 42.000000
433.089390 15.000000
433.105440 16.000000
434.107790 43.000000
434.964750 19.000000
435.070980 14.000000
435.083950 19.000000
435.103730 56.000000
435.134610 91.000000
436.125090 40.000000
450.137020 24.000000
461.139070 19.000000
547.179080 20.000000
579.205630 15.000000
580.128540 28.000000
581.161800 71.000000
581.181090 183.000000

>ms2peaks
129.058850 42.000000
145.042600 25.000000
256.086730 34.000000
273.071930 235.000000
273.081270 214.000000
273.093200 114.000000
274.075130 92.000000
274.090480 65.000000
275.081300 24.000000
297.102780 41.000000
303.954470 36.000000
309.129550 23.000000
310.764920 20.000000
315.077210 151.000000
315.097750 20.000000
316.093020 54.000000
339.060180 47.000000
339.074710 38.000000
383.032170 35.000000
383.069240 24.000000
383.108000 61.000000
383.126310 22.000000
401.112700 116.000000
401.126310 50.000000
401.146670 41.000000
402.127260 62.000000
403.126560 53.000000
417.115300 77.000000
417.133670 22.000000
418.119750 25.000000
419.036380 32.000000
419.069950 20.000000
419.082430 26.000000
419.109860 134.000000
419.134920 1000.000000
419.156040 240.000000
419.421880 20.000000
420.123020 93.000000
420.145450 113.000000
422.449650 22.000000
425.089660 20.000000
433.100620 24.000000
434.108000 24.000000
435.123500 386.000000
435.137360 272.000000
436.125060 30.000000
436.138310 53.000000
436.158910 26.000000
437.393680 24.000000
443.126530 23.000000
448.543550 22.000000
461.137910 24.000000
466.160890 29.000000
478.143310 42.000000
527.137510 34.000000
527.174260 29.000000
528.163270 31.000000
529.165710 48.000000
546.172670 24.000000
563.157900 28.000000
563.183840 24.000000
579.164790 24.000000
580.158080 73.000000
581.167480 493.000000
581.192200 672.000000
581.236940 24.000000

>ms2peaks
71.046730 102.000000
71.050770 45.000000
83.049380 20.000000
85.022660 61.000000
85.030590 101.000000
86.035100 31.000000
129.050600 31.000000
129.055250 66.000000
147.058820 14.000000
147.066830 31.000000
153.021210 70.000000
177.014370 15.000000
189.016490 42.000000
195.024720 102.000000
195.035290 30.000000
219.024350 28.000000
219.031110 61.000000
220.033070 12.000000
231.061200 12.000000
233.046020 15.000000
245.039520 13.000000
255.054490 17.000000
261.041900 21.000000
263.041870 16.000000
263.055630 13.000000
271.048400 42.000000
271.063780 61.000000
273.010650 15.000000
273.035740 36.000000
273.049440 40.000000
273.073700 1000.000000
274.058350 28.000000
274.082150 114.000000
274.094570 98.000000
281.052550 17.000000
285.075230 66.000000
285.084590 31.000000
292.060090 14.000000
297.064700 15.000000
297.083650 14.000000
309.082460 23.000000
328.092130 26.000000
339.054690 14.000000
339.081360 31.000000
339.096370 20.000000
340.094730 19.000000
351.080440 14.000000
363.078580 14.000000
363.101960 15.000000
365.089510 40.000000
365.942140 13.000000
381.079900 14.000000
383.136020 38.000000
389.092860 19.000000
435.119320 14.000000
435.144620 17.000000
465.121460 18.000000

>ms2peaks
71.045460 48.000000
85.027490 238.000000
107.050960 113.000000
113.385220 37.000000
123.044400 61.000000
147.007130 31.000000
147.039550 290.000000
147.049440 72.000000
152.994230 54.000000
153.017110 1000.000000
153.027570 170.000000
155.022320 39.000000
157.029400 63.000000
166.025790 46.000000
177.012700 44.000000
177.024350 33.000000
189.017500 52.000000
191.039310 35.000000
195.022000 46.000000
195.033190 55.000000
197.028870 76.000000
203.036070 83.000000
219.030840 61.000000
229.441860 81.000000
231.032820 98.000000
245.050640 31.000000
246.038590 35.000000
259.047970 46.000000
271.056340 39.000000
272.071080 72.000000
273.059480 83.000000
273.077670 277.000000
274.062900 35.000000
274.071290 59.000000
275.078520 37.000000
297.051880 33.000000
337.112640 57.000000
365.097960 33.000000

>ms2peaks
71.050670 21.000000
85.029360 26.000000
85.033790 26.000000
129.036940 21.000000
129.055660 125.000000
130.054210 31.000000
147.063550 28.000000
147.074890 21.000000
147.084660 27.000000
148.071080 22.000000
149.060990 23.000000
153.010270 51.000000
153.023540 50.000000
165.012240 25.000000
177.015850 26.000000
179.032120 30.000000
195.022090 128.000000
217.041180 26.000000
219.015340 31.000000
219.035490 21.000000
231.064320 42.000000
246.057890 19.000000
263.041440 30.000000
263.050480 47.000000
264.053470 27.000000
271.048400 87.000000
271.061250 154.000000
271.072330 39.000000
272.065370 34.000000
273.049870 58.000000
273.073240 1000.000000
273.102810 18.000000
274.065610 26.000000
274.086270 84.000000
275.078370 34.000000
275.088200 23.000000
281.064120 48.000000
285.073270 18.000000
297.064090 18.000000
299.076690 42.000000
315.073670 36.000000
315.097410 72.000000
316.095950 19.000000
339.073550 18.000000
339.095700 27.000000
340.079470 19.000000
347.096980 27.000000
352.087980 26.000000
365.114410 21.000000
366.112060 27.000000
367.093480 35.000000
369.082860 25.000000
369.104520 29.000000
383.094150 98.000000
383.119960 29.000000
384.115230 42.000000
385.102140 32.000000
399.110810 21.000000
401.127410 143.000000
407.253750 22.000000
417.111630 38.000000
418.282780 30.000000
419.129640 252.000000
419.151730 99.000000
420.095430 19.000000
420.117830 69.000000
420.147000 76.000000
421.137540 21.000000
433.116000 146.000000
433.360140 22.000000
434.100370 55.000000
434.117550 19.000000
435.112850 113.000000
435.130340 59.000000
435.155550 19.000000
436.130340 52.000000
436.142970 38.000000
437.122620 21.000000
459.154420 18.000000
519.380680 21.000000
528.165470 37.000000
545.159910 31.000000
549.010680 22.000000
579.164610 54.000000
580.164430 64.000000
580.191590 74.000000
581.183350 248.000000

>ms2peaks
127.041730 54.000000
127.551730 25.000000
129.045850 37.000000
147.071610 35.000000
255.426450 44.000000
256.087460 57.000000
263.025150 38.000000
272.951660 47.000000
273.046420 39.000000
273.074650 472.000000
274.072660 69.000000
274.084350 235.000000
285.226200 31.000000
309.133270 37.000000
315.084690 175.000000
316.086980 31.000000
340.106540 29.000000
383.116150 39.000000
384.121920 35.000000
401.118070 272.000000
401.138430 86.000000
402.133060 37.000000
417.122470 155.000000
418.118870 42.000000
418.131870 67.000000
419.010710 37.000000
419.119660 801.000000
419.140410 1000.000000
420.124730 278.000000
420.145870 86.000000
421.116820 41.000000
421.134190 92.000000
433.107360 31.000000
434.514530 29.000000
435.115170 234.000000
435.134000 437.000000
436.089720 37.000000
436.140620 193.000000
437.122830 70.000000
441.148590 34.000000
443.142820 29.000000
459.121700 89.000000
459.134190 193.000000
483.119540 25.000000
497.158140 26.000000
528.191040 70.000000
545.142030 44.000000
545.160710 31.000000
579.187500 37.000000
580.175290 108.000000
581.102600 25.000000
581.137270 50.000000
581.162170 275.000000
581.176330 519.000000
581.202640 885.000000

>ms2peaks
85.023400 49.000000
85.032870 72.000000
85.551910 19.000000
104.820200 24.000000
129.049550 49.000000
129.064010 23.000000
147.065190 19.000000
153.021180 45.000000
163.064580 20.000000
191.022640 24.000000
195.035290 71.000000
196.042740 23.000000
219.026780 49.000000
245.036350 85.000000
245.048320 89.000000
257.034240 28.000000
261.036990 41.000000
263.022280 22.000000
263.051240 88.000000
271.045810 25.000000
271.064730 67.000000
272.061190 32.000000
273.052860 61.000000
273.075410 1000.000000
274.075930 116.000000
275.061160 18.000000
275.090610 35.000000
276.080050 17.000000
285.053860 18.000000
285.075960 32.000000
297.045380 21.000000
315.097990 29.000000
327.089080 19.000000
337.111080 35.000000
339.088590 111.000000
340.090730 28.000000
352.064000 22.000000
365.082700 28.000000
365.106230 51.000000
366.105220 45.000000
381.106750 27.000000
383.109380 35.000000
417.137360 17.000000
425.110410 29.000000
435.134490 31.000000

>ms2peaks
71.045940 62.000000
85.030670 57.000000
93.034800 46.000000
108.011600 49.000000
119.048420 92.000000
123.046710 59.000000
135.040710 186.000000
146.068850 84.000000
147.035800 54.000000
147.045760 135.000000
147.049620 54.000000
152.991730 65.000000
153.015790 1000.000000
166.008350 81.000000
166.018980 73.000000
177.020840 65.000000
177.225140 46.000000
179.035740 70.000000
203.032730 51.000000
219.010070 54.000000
219.030240 200.000000
241.041460 65.000000
269.045840 59.000000
271.058590 170.000000
271.082240 95.000000
273.082180 470.000000

>ms2peaks
71.052350 59.000000
85.028590 61.000000
85.036610 20.000000
98.968410 17.000000
129.050830 51.000000
129.058400 60.000000
147.060390 21.000000
147.071720 18.000000
153.017670 207.000000
195.029250 27.000000
195.042690 28.000000
218.898800 19.000000
219.029020 57.000000
245.048430 20.000000
263.034390 49.000000
263.054840 61.000000
263.068080 52.000000
271.033390 21.000000
271.048800 114.000000
271.070770 151.000000
272.056760 47.000000
272.068730 122.000000
273.038600 57.000000
273.066410 231.000000
273.078770 1000.000000
274.039980 24.000000
274.081020 215.000000
274.097050 28.000000
275.084260 30.000000
276.073000 21.000000
281.071080 79.000000
281.837890 20.000000
297.083220 28.000000
315.084260 50.000000
315.097230 35.000000
339.077180 22.000000
340.072780 33.000000
340.106510 33.000000
351.095950 20.000000
365.100680 18.000000
383.082640 20.000000
383.101810 49.000000
383.123630 122.000000
384.112490 41.000000
385.137970 20.000000
399.097440 26.000000
399.122470 21.000000
400.112300 32.000000
401.104340 56.000000
401.119600 85.000000
401.140290 20.000000
402.134460 74.000000
417.111630 59.000000
418.143460 20.000000
419.046300 20.000000
419.129270 316.000000
419.145750 115.000000
420.139400 18.000000
423.104160 27.000000
428.632230 24.000000
433.072270 20.000000
433.116640 169.000000
433.138210 19.000000
434.127010 36.000000
435.118500 44.000000
435.133730 104.000000
436.119200 23.000000
443.134490 17.000000
461.133640 38.000000
528.159610 18.000000
545.157900 23.000000
579.178100 52.000000
580.173100 25.000000
581.183230 281.000000
581.204100 46.000000

>ms2peaks
69.036000 22.000000
112.668850 16.000000
129.051990 65.000000
129.058910 17.000000
147.064790 57.000000
170.549790 26.000000
210.741550 23.000000
263.051180 14.000000
273.044010 14.000000
273.075740 339.000000
273.091250 16.000000
274.086460 15.000000
275.076020 16.000000
306.658480 29.000000
315.087620 95.000000
316.097410 36.000000
339.097020 22.000000
340.989170 34.000000
381.093810 24.000000
383.113010 53.000000
401.126830 219.000000
401.147220 38.000000
402.120910 14.000000
402.139500 29.000000
417.087770 16.000000
417.108860 42.000000
417.130580 18.000000
418.105440 19.000000
418.121920 18.000000
419.107150 51.000000
419.134860 703.000000
420.052400 26.000000
420.133760 179.000000
420.160710 19.000000
421.142640 19.000000
433.121920 41.000000
435.081730 22.000000
435.095670 32.000000
435.132350 326.000000
436.127750 73.000000
436.402220 24.000000
437.124330 22.000000
443.104130 19.000000
443.146760 34.000000
459.113430 16.000000
459.157750 25.000000
461.130680 45.000000
462.070100 26.000000
481.079010 36.000000
528.169980 22.000000
545.153750 82.000000
547.164000 24.000000
563.101930 21.000000
563.184140 48.000000
564.138980 18.000000
564.160030 17.000000
579.089360 22.000000
579.104310 14.000000
579.164430 58.000000
580.176210 19.000000
581.124820 14.000000
581.186710 1000.000000

>ms2peaks
71.050670 48.000000
71.055450 11.000000
71.433820 17.000000
84.974730 12.000000
85.022700 19.000000
85.028810 51.000000
86.033030 12.000000
121.063040 14.000000
129.052550 75.000000
147.047010 17.000000
147.061040 13.000000
147.073490 11.000000
152.036470 20.000000
153.006500 14.000000
153.018130 28.000000
164.738920 13.000000
189.049330 19.000000
195.025310 32.000000
195.035460 85.000000
197.032420 46.000000
205.012660 23.000000
210.376500 16.000000
219.027420 62.000000
245.042130 34.000000
245.053480 19.000000
246.047990 18.000000
258.058560 15.000000
263.046170 17.000000
263.058010 48.000000
271.056790 137.000000
271.072540 51.000000
272.065340 34.000000
273.017610 16.000000
273.046810 25.000000
273.075100 1000.000000
274.072600 50.000000
274.085780 27.000000
279.048340 17.000000
281.054290 22.000000
285.034180 16.000000
285.088130 17.000000
289.061430 13.000000
297.069790 15.000000
311.045720 15.000000
315.085140 30.000000
329.329100 13.000000
332.477840 13.000000
339.052060 17.000000
339.088100 31.000000
339.099550 13.000000
347.081880 17.000000
356.103550 30.000000
363.075810 20.000000
365.098790 40.000000
366.100100 13.000000
383.111660 54.000000
419.138730 17.000000
435.117400 12.000000

>ms2peaks
71.049950 144.000000
83.047240 88.000000
85.026530 156.000000
85.031820 140.000000
107.035100 54.000000
123.049210 65.000000
129.058760 56.000000
147.032330 50.000000
147.039520 133.000000
147.047160 248.000000
148.048980 38.000000
153.006260 106.000000
153.018540 1000.000000
154.019550 56.000000
155.153870 41.000000
163.037400 203.000000
163.139300 59.000000
165.014650 113.000000
177.015810 61.000000
179.025210 61.000000
189.016140 68.000000
193.050000 61.000000
195.022520 47.000000
195.033570 208.000000
207.945280 52.000000
219.026580 160.000000
220.031680 97.000000
245.044590 126.000000
271.066770 68.000000
273.072970 205.000000
273.085970 50.000000
274.075320 54.000000
274.083770 45.000000
287.802120 45.000000
333.072750 50.000000

