>compound PR70707348
>parentmass 385.2121838
>ionization [M+H]+
>formula C22H28N2O4
>rt 278.047980
>profile qtof
#smiles_iso CC[C@H]1CN2CC[C@@]3([C@@H]2C[C@@H]1/C(=C\OC)/C(=O)OC)C4=CC=CC=C4NC3=O
#smiles_can CCC1CN2CCC3(C2CC1C(=COC)C(=O)OC)C4=CC=CC=C4NC3=O
#inchikey DAXYUDFNWXHGBE-VKCGGMIFSA-N
#pubchem_id 3037048
#mb_accession PR300242,PR300247,PR300252,PR300257,PR300262,PR300267,PR300272,PR300277,PR300282,PR300287,PR300292,PR300297

>ms2
108.080240 9.000000
132.081510 12.000000
142.064740 8.000000
158.057790 12.000000
160.075610 76.000000
161.082110 7.000000
187.086520 45.000000
188.088610 7.000000
213.097030 6.000000
215.119340 11.000000
226.143800 6.000000
241.132840 159.000000
242.136260 28.000000
265.130680 6.000000
267.148830 38.000000
268.149110 8.000000
269.165800 20.000000
321.162260 17.000000
353.186400 143.000000
354.187710 34.000000
355.192810 5.000000
385.146850 7.000000
385.212070 1000.000000
385.269290 30.000000

>ms2
353.186490 6.000000
385.147950 5.000000
385.212980 1000.000000
385.270050 34.000000
385.321320 6.000000

>ms2
70.065680 17.000000
93.069380 8.000000
107.084400 8.000000
108.080510 74.000000
109.086170 8.000000
110.095940 54.000000
111.044110 34.000000
121.064870 7.000000
123.080000 16.000000
124.112880 14.000000
125.054890 6.000000
129.054470 7.000000
130.065580 5.000000
132.043700 16.000000
132.080520 54.000000
136.111980 5.000000
138.055370 7.000000
142.065080 27.000000
144.081530 34.000000
153.093750 8.000000
158.061430 58.000000
159.069150 10.000000
159.094790 5.000000
160.075580 438.000000
161.078290 52.000000
162.082930 8.000000
162.092770 11.000000
166.087010 6.000000
171.093230 7.000000
171.102190 21.000000
172.074390 21.000000
180.098800 5.000000
186.083210 10.000000
186.093050 12.000000
187.085880 204.000000
188.085660 21.000000
188.094360 9.000000
194.117600 16.000000
198.089140 5.000000
201.101610 18.000000
212.095120 6.000000
212.104770 7.000000
213.103520 59.000000
213.141250 6.000000
214.107890 8.000000
215.118800 45.000000
216.124280 7.000000
226.144270 24.000000
239.117340 11.000000
241.089130 10.000000
241.099730 6.000000
241.133670 1000.000000
241.177760 19.000000
242.137370 173.000000
243.139970 16.000000
251.110490 6.000000
251.124620 7.000000
265.133970 63.000000
266.127530 6.000000
266.139740 8.000000
267.104710 6.000000
267.149720 233.000000
268.154170 58.000000
269.163880 124.000000
270.169920 25.000000
281.094420 5.000000
297.123930 9.000000
303.150670 23.000000
304.155300 5.000000
321.159850 117.000000
322.164430 40.000000
335.169220 7.000000
335.183350 8.000000
353.134060 9.000000
353.185550 509.000000
354.189580 131.000000
355.177550 8.000000
355.189970 26.000000
383.195770 10.000000
385.170140 7.000000
385.211730 383.000000

>ms2
56.051540 8.000000
67.054750 5.000000
68.026880 11.000000
68.051420 9.000000
70.055660 5.000000
70.061720 11.000000
70.067030 22.000000
75.043050 18.000000
77.037950 6.000000
79.054540 22.000000
80.048390 22.000000
80.053700 18.000000
81.057620 8.000000
82.028120 7.000000
82.065380 35.000000
83.049560 8.000000
83.085780 6.000000
84.081080 15.000000
91.053500 56.000000
91.057270 22.000000
93.055270 26.000000
93.060710 8.000000
93.072280 25.000000
94.063450 46.000000
94.071190 16.000000
95.051480 14.000000
96.077320 9.000000
103.052830 6.000000
104.009440 6.000000
104.050760 22.000000
105.032490 5.000000
105.062810 8.000000
105.068250 19.000000
105.074580 5.000000
106.066450 19.000000
107.073050 6.000000
107.078360 8.000000
108.056650 27.000000
108.081460 188.000000
109.050990 31.000000
109.071010 9.000000
109.081670 9.000000
109.088570 16.000000
110.094970 91.000000
110.099620 32.000000
111.044490 31.000000
111.099690 19.000000
115.054410 312.000000
116.049060 36.000000
116.057860 31.000000
117.056690 215.000000
117.070810 43.000000
118.063870 185.000000
119.045880 6.000000
119.061080 10.000000
119.067970 18.000000
119.075970 7.000000
120.044620 17.000000
120.078740 13.000000
121.065160 16.000000
122.058810 7.000000
122.096650 17.000000
123.074670 16.000000
123.083010 52.000000
123.102880 6.000000
124.077550 12.000000
124.114380 25.000000
125.120400 6.000000
127.053920 19.000000
128.048140 58.000000
129.054630 23.000000
129.067610 13.000000
130.046750 6.000000
130.065400 589.000000
131.067810 92.000000
131.080960 9.000000
132.044970 376.000000
132.080570 575.000000
133.045910 34.000000
133.054810 12.000000
133.084430 74.000000
134.058980 31.000000
134.085160 11.000000
135.085630 7.000000
135.096660 6.000000
136.106960 6.000000
136.113530 6.000000
138.053100 23.000000
138.065090 6.000000
138.092640 5.000000
139.076140 6.000000
140.049440 44.000000
140.064270 5.000000
141.046190 5.000000
141.053020 7.000000
142.049470 15.000000
142.064940 682.000000
143.068920 173.000000
144.046130 26.000000
144.062840 13.000000
144.073910 51.000000
144.081310 168.000000
145.043050 11.000000
145.051560 18.000000
145.084730 36.000000
146.062850 33.000000
146.092900 22.000000
146.099200 8.000000
147.067370 9.000000
148.034240 6.000000
152.048220 18.000000
152.102510 12.000000
153.037430 8.000000
153.046840 12.000000
154.063540 165.000000
155.065720 21.000000
155.076020 9.000000
156.074010 7.000000
156.083280 26.000000
157.074230 6.000000
157.090350 8.000000
158.061040 340.000000
158.085770 8.000000
158.097120 17.000000
159.063250 88.000000
159.069060 43.000000
159.090260 100.000000
160.035840 9.000000
160.053480 11.000000
160.075990 1000.000000
161.073490 38.000000
161.081250 64.000000
161.094960 6.000000
161.546130 5.000000
162.078490 15.000000
162.095200 25.000000
164.070250 5.000000
165.072300 6.000000
166.065920 9.000000
166.081700 9.000000
167.062650 41.000000
167.073750 36.000000
168.059590 11.000000
168.077760 20.000000
168.085590 17.000000
169.063390 8.000000
169.074250 67.000000
169.081500 36.000000
170.059570 38.000000
170.074690 17.000000
170.089510 19.000000
170.096850 12.000000
171.056500 43.000000
171.071320 6.000000
171.080630 5.000000
171.093250 11.000000
171.111210 7.000000
172.058790 10.000000
172.074740 128.000000
174.087450 6.000000
178.062580 14.000000
179.064930 6.000000
179.084500 7.000000
181.079450 9.000000
182.061430 16.000000
182.091420 15.000000
182.102780 6.000000
183.060730 12.000000
183.068500 32.000000
183.083240 12.000000
184.080310 29.000000
184.097630 14.000000
184.110730 50.000000
185.073210 54.000000
185.110920 5.000000
186.076570 50.000000
186.086210 19.000000
187.046460 6.000000
187.086850 442.000000
188.090770 54.000000
190.067280 7.000000
192.080610 31.000000
193.075420 13.000000
194.092820 13.000000
195.066180 10.000000
195.097090 13.000000
196.072110 9.000000
196.079060 23.000000
196.088930 10.000000
196.105390 16.000000
196.115880 11.000000
197.055540 6.000000
197.071930 46.000000
197.104860 10.000000
198.073470 8.000000
198.081310 7.000000
198.089190 7.000000
199.086290 47.000000
200.094070 6.000000
201.105480 6.000000
208.088330 10.000000
208.098680 7.000000
209.095690 7.000000
209.107320 18.000000
210.078220 6.000000
210.086470 10.000000
210.104720 7.000000
210.116490 5.000000
211.090420 52.000000
211.122060 8.000000
212.086320 12.000000
212.106510 16.000000
213.102100 56.000000
213.131070 13.000000
213.143280 9.000000
214.110810 9.000000
219.094530 6.000000
222.119260 7.000000
225.101040 9.000000
235.130230 6.000000
237.098460 40.000000
237.107650 28.000000
238.105870 12.000000
238.151950 5.000000
239.115460 25.000000
241.089630 10.000000
241.135450 152.000000
242.121950 5.000000
242.139080 32.000000
243.141880 6.000000
249.119450 6.000000
250.110720 9.000000
251.116290 9.000000
263.112920 8.000000
265.107180 7.000000
265.131990 34.000000
265.139340 12.000000
266.136840 6.000000
267.123540 5.000000
267.153290 16.000000
269.159730 6.000000
281.087220 6.000000
281.112950 6.000000
291.151610 7.000000
303.150090 6.000000
385.207890 8.000000

>ms2
108.080490 10.000000
110.095310 10.000000
132.044040 7.000000
132.079540 10.000000
142.063810 10.000000
144.081820 5.000000
158.059540 12.000000
160.074200 75.000000
161.073390 6.000000
187.086430 43.000000
188.088420 6.000000
213.101910 7.000000
215.118910 9.000000
241.133930 149.000000
242.137240 25.000000
265.137510 6.000000
267.149810 40.000000
268.154240 6.000000
269.166350 22.000000
321.158600 16.000000
353.186190 139.000000
354.190000 27.000000
385.213960 1000.000000
385.271180 31.000000
385.323580 5.000000

>ms2
353.188320 6.000000
385.213230 1000.000000
385.270390 34.000000
385.322020 6.000000

>ms2
70.066050 8.000000
107.085110 6.000000
108.080090 68.000000
109.084250 9.000000
110.095620 56.000000
111.043530 27.000000
118.062690 7.000000
123.079670 13.000000
124.111400 9.000000
129.053250 6.000000
130.067150 10.000000
132.045840 12.000000
132.079850 31.000000
134.095790 5.000000
138.052750 6.000000
142.064270 29.000000
144.080200 33.000000
152.071240 7.000000
153.088700 6.000000
158.059740 54.000000
158.097200 7.000000
159.064380 9.000000
159.089770 5.000000
160.074940 392.000000
161.078090 51.000000
162.085370 12.000000
166.089370 5.000000
167.105240 9.000000
170.097790 7.000000
171.099850 13.000000
172.075440 14.000000
185.074040 6.000000
186.089480 7.000000
187.085800 184.000000
188.084950 12.000000
188.095440 10.000000
194.120360 15.000000
196.135710 5.000000
198.090580 5.000000
199.089970 7.000000
201.102220 16.000000
213.088970 5.000000
213.104280 50.000000
214.105820 10.000000
215.118000 44.000000
226.143050 21.000000
226.151030 8.000000
239.116760 6.000000
239.124770 6.000000
241.132780 1000.000000
241.177750 21.000000
242.137040 175.000000
243.141690 14.000000
251.117810 13.000000
265.105680 9.000000
265.133540 65.000000
266.138850 16.000000
267.148350 242.000000
268.153930 43.000000
269.164790 118.000000
270.165190 28.000000
281.129490 8.000000
293.159550 9.000000
297.127440 11.000000
303.152590 17.000000
321.159550 118.000000
322.161650 25.000000
322.176940 7.000000
335.179440 6.000000
353.185700 501.000000
354.189450 145.000000
355.190190 18.000000
385.211090 355.000000

>ms2
55.053680 5.000000
67.040010 8.000000
67.054890 11.000000
70.061870 11.000000
70.066280 12.000000
75.044960 18.000000
77.033950 7.000000
77.038290 13.000000
78.036830 11.000000
79.054010 20.000000
80.038130 5.000000
80.049670 21.000000
80.062050 8.000000
81.055630 5.000000
81.061870 9.000000
81.071940 9.000000
82.062500 47.000000
82.073650 7.000000
83.055640 8.000000
83.072630 5.000000
84.081890 10.000000
85.022760 5.000000
91.049280 23.000000
91.056330 34.000000
93.060070 26.000000
93.068560 20.000000
93.074510 13.000000
94.058580 15.000000
94.065730 50.000000
95.049320 8.000000
95.085720 12.000000
103.054060 18.000000
104.050020 13.000000
105.037170 7.000000
105.067570 27.000000
105.073080 20.000000
106.063840 20.000000
107.073660 6.000000
108.043270 14.000000
108.054510 11.000000
108.060630 10.000000
108.068120 11.000000
108.080660 198.000000
109.050670 36.000000
109.062820 7.000000
109.081090 13.000000
109.087140 11.000000
110.076000 6.000000
110.087240 11.000000
110.097320 94.000000
111.044560 26.000000
115.053570 258.000000
116.038580 8.000000
116.051380 42.000000
116.061810 18.000000
117.056690 232.000000
117.068270 21.000000
118.063790 208.000000
119.067210 27.000000
119.076380 8.000000
120.045050 10.000000
120.075620 8.000000
120.084110 6.000000
121.048620 5.000000
121.085320 5.000000
122.065770 11.000000
122.089370 8.000000
122.097820 16.000000
123.080220 52.000000
124.110690 14.000000
127.052390 20.000000
127.058720 17.000000
128.034270 6.000000
128.050250 90.000000
129.047590 11.000000
129.054400 22.000000
129.071080 11.000000
130.028240 7.000000
130.065600 580.000000
131.050920 6.000000
131.065870 73.000000
131.077450 12.000000
132.044280 396.000000
132.080540 626.000000
133.047870 33.000000
133.064040 21.000000
133.083330 90.000000
134.049670 5.000000
134.059480 9.000000
134.096180 16.000000
135.079830 6.000000
136.043320 6.000000
136.077800 9.000000
136.109420 9.000000
138.054640 13.000000
139.070070 9.000000
140.050630 70.000000
141.055400 8.000000
142.064610 633.000000
143.056260 17.000000
143.070010 128.000000
144.045680 36.000000
144.080460 209.000000
145.052250 30.000000
145.061750 5.000000
145.082820 21.000000
145.092150 9.000000
146.057500 37.000000
146.100040 13.000000
148.072160 6.000000
148.114970 7.000000
150.093670 9.000000
151.068070 12.000000
152.047410 19.000000
153.040390 6.000000
153.053620 22.000000
154.045350 8.000000
154.064990 238.000000
155.057040 11.000000
155.072530 20.000000
156.080870 6.000000
158.031010 7.000000
158.040760 10.000000
158.059600 341.000000
158.081760 10.000000
158.098160 12.000000
159.049670 7.000000
159.065690 108.000000
159.090640 104.000000
160.053270 16.000000
160.076250 1000.000000
160.100310 7.000000
161.041530 6.000000
161.080230 146.000000
162.095550 17.000000
164.109210 9.000000
165.058730 6.000000
166.066280 7.000000
166.088520 7.000000
167.056320 13.000000
167.063160 43.000000
167.076710 17.000000
168.067230 13.000000
168.082000 22.000000
169.058850 6.000000
169.072160 40.000000
169.081040 55.000000
170.047410 6.000000
170.060390 24.000000
170.085100 14.000000
170.096730 20.000000
171.053590 42.000000
171.092800 6.000000
172.053650 6.000000
172.074750 152.000000
172.092120 8.000000
172.112240 8.000000
173.068500 6.000000
173.076900 6.000000
179.067350 8.000000
180.053860 5.000000
180.074070 5.000000
181.080220 6.000000
182.094010 18.000000
183.069700 28.000000
183.092470 24.000000
184.065350 12.000000
184.077320 26.000000
184.099110 22.000000
184.109770 26.000000
185.072050 74.000000
185.103850 15.000000
186.078020 67.000000
187.087010 469.000000
188.091750 65.000000
191.069370 7.000000
192.075620 11.000000
192.085600 9.000000
193.072110 6.000000
194.095170 13.000000
195.088580 8.000000
195.100200 12.000000
196.059080 10.000000
196.073260 16.000000
196.083150 6.000000
196.109740 10.000000
197.066770 25.000000
197.074630 35.000000
197.094670 8.000000
197.105820 6.000000
198.071620 6.000000
198.082030 13.000000
198.092800 19.000000
199.085450 45.000000
199.126020 6.000000
200.103960 6.000000
200.112490 9.000000
204.073460 7.000000
207.095290 8.000000
208.098160 5.000000
209.072830 8.000000
209.083330 13.000000
209.107540 5.000000
210.083880 12.000000
210.093870 8.000000
211.088680 56.000000
212.093150 43.000000
213.100080 109.000000
213.116670 9.000000
214.110060 11.000000
214.129440 8.000000
215.114620 6.000000
221.104200 16.000000
222.076600 7.000000
222.124070 10.000000
223.093090 10.000000
223.120380 5.000000
226.119250 6.000000
237.090870 9.000000
237.105150 53.000000
237.136400 6.000000
238.101290 12.000000
238.110960 6.000000
239.111480 7.000000
239.120250 22.000000
240.120010 5.000000
241.104370 7.000000
241.136220 168.000000
241.247020 5.000000
242.138600 14.000000
251.122270 8.000000
263.116360 7.000000
263.135710 5.000000
265.099060 6.000000
265.122010 5.000000
265.138920 14.000000
266.126830 10.000000
266.137850 7.000000
267.153200 17.000000
268.140260 8.000000
279.154600 6.000000
281.087980 9.000000
281.130650 5.000000
291.144130 5.000000

>ms2
108.080480 12.000000
110.096840 7.000000
132.081910 10.000000
142.065540 9.000000
144.080920 6.000000
158.060560 13.000000
160.075780 77.000000
161.080760 11.000000
172.076390 6.000000
187.088150 43.000000
213.103620 11.000000
215.119140 9.000000
226.139950 5.000000
241.133160 148.000000
242.135970 30.000000
265.133730 10.000000
267.148500 42.000000
268.151060 6.000000
269.165160 18.000000
321.160000 21.000000
353.184630 136.000000
354.186770 28.000000
385.145050 9.000000
385.210540 1000.000000
385.267520 30.000000

>ms2
385.152310 6.000000
385.212620 1000.000000
385.269560 33.000000
385.320370 7.000000

>ms2
70.066950 6.000000
93.067740 6.000000
107.085360 6.000000
108.081140 64.000000
109.081700 7.000000
110.096340 47.000000
111.044420 32.000000
111.101200 5.000000
118.064610 12.000000
122.096040 5.000000
123.080170 14.000000
124.108210 6.000000
124.114700 6.000000
129.051760 10.000000
130.062100 5.000000
132.044590 12.000000
132.080020 38.000000
138.054860 11.000000
142.065290 30.000000
144.081850 30.000000
158.061390 41.000000
158.096100 8.000000
160.075930 380.000000
161.078030 62.000000
162.090760 19.000000
166.087710 5.000000
167.109250 6.000000
168.103670 6.000000
170.096340 6.000000
171.098830 8.000000
171.107040 6.000000
172.074600 17.000000
175.099550 6.000000
184.111800 6.000000
186.089510 14.000000
187.086240 195.000000
188.091860 29.000000
194.116780 18.000000
198.092470 5.000000
199.089800 6.000000
201.103040 12.000000
213.101720 54.000000
213.138930 8.000000
214.108250 9.000000
215.118210 55.000000
216.121570 10.000000
226.146160 18.000000
239.122510 5.000000
241.090900 13.000000
241.133870 1000.000000
241.178530 18.000000
242.136800 173.000000
243.141170 16.000000
251.115020 9.000000
251.126220 6.000000
265.101010 10.000000
265.135380 71.000000
266.132020 8.000000
266.147460 6.000000
267.108340 5.000000
267.149230 240.000000
268.153170 56.000000
269.164760 125.000000
270.169370 28.000000
281.132290 13.000000
297.119020 8.000000
297.129580 6.000000
298.127410 7.000000
303.153720 22.000000
321.160920 127.000000
322.160890 16.000000
322.172240 14.000000
335.176330 9.000000
353.133090 6.000000
353.153230 9.000000
353.186190 507.000000
354.189610 136.000000
355.191500 16.000000
355.205660 7.000000
383.194610 8.000000
385.170140 7.000000
385.212860 369.000000

>ms2
55.054530 13.000000
56.053590 6.000000
65.039710 6.000000
68.025870 11.000000
68.052460 6.000000
69.033520 9.000000
70.064770 19.000000
75.041320 9.000000
75.045180 16.000000
77.037810 28.000000
78.033780 12.000000
78.044860 7.000000
79.053230 17.000000
80.046370 12.000000
81.054150 6.000000
81.060340 6.000000
81.067860 8.000000
82.062280 18.000000
82.066310 51.000000
83.049480 6.000000
83.068500 7.000000
84.079450 9.000000
91.054620 60.000000
92.059970 11.000000
93.058430 33.000000
93.069160 22.000000
94.037710 8.000000
94.066480 73.000000
95.070530 6.000000
96.080790 15.000000
99.046450 5.000000
103.051470 10.000000
103.056930 18.000000
104.049130 18.000000
104.056820 10.000000
105.069060 27.000000
106.064850 37.000000
107.070500 11.000000
108.043260 17.000000
108.067710 5.000000
108.080730 209.000000
109.052120 11.000000
109.061450 12.000000
109.083190 28.000000
110.058940 7.000000
110.083990 6.000000
110.094220 106.000000
111.042270 36.000000
111.097500 8.000000
115.040470 7.000000
115.054000 290.000000
116.037560 10.000000
116.050740 30.000000
116.062200 23.000000
116.321080 7.000000
117.037590 6.000000
117.056750 196.000000
117.064930 42.000000
117.075300 7.000000
118.064220 195.000000
119.049160 8.000000
119.059630 6.000000
119.068440 22.000000
120.047230 8.000000
120.080250 8.000000
121.064540 6.000000
121.574870 6.000000
122.064130 7.000000
122.093670 9.000000
123.044240 8.000000
123.079020 47.000000
123.107570 7.000000
124.114850 19.000000
125.097630 8.000000
126.054600 11.000000
127.048360 15.000000
127.057950 10.000000
128.035100 6.000000
128.048840 71.000000
128.059970 13.000000
128.064190 6.000000
129.049880 10.000000
129.056730 17.000000
130.050080 9.000000
130.064730 598.000000
131.067690 106.000000
132.014270 6.000000
132.021940 6.000000
132.043560 367.000000
132.080230 580.000000
133.041310 17.000000
133.047380 40.000000
133.064300 11.000000
133.073610 14.000000
133.084110 57.000000
134.055690 22.000000
134.069930 12.000000
134.095230 16.000000
135.102370 7.000000
138.050060 11.000000
139.015430 9.000000
139.078720 18.000000
140.048310 81.000000
141.055480 6.000000
141.072970 5.000000
142.036800 8.000000
142.064560 571.000000
143.069670 130.000000
144.032530 5.000000
144.041140 17.000000
144.050770 20.000000
144.080410 202.000000
145.045120 6.000000
145.053250 10.000000
145.062180 8.000000
145.074450 7.000000
145.086200 43.000000
146.048930 5.000000
146.060790 42.000000
146.090360 10.000000
147.068910 6.000000
148.041760 9.000000
150.058760 5.000000
150.093410 7.000000
151.062120 9.000000
151.077120 6.000000
152.046980 6.000000
152.059710 9.000000
153.044080 21.000000
154.065930 163.000000
155.062590 12.000000
155.073810 15.000000
156.074100 8.000000
157.079380 6.000000
158.058990 350.000000
158.095660 28.000000
159.046750 8.000000
159.059880 23.000000
159.067540 96.000000
159.093200 85.000000
160.048520 15.000000
160.074910 1000.000000
161.079190 112.000000
162.075910 10.000000
162.092970 16.000000
164.111500 7.000000
165.063660 9.000000
166.069060 19.000000
166.083820 9.000000
167.058780 13.000000
167.070450 43.000000
168.077930 36.000000
168.091250 6.000000
168.104370 9.000000
169.076520 102.000000
169.089660 11.000000
170.059370 45.000000
170.075230 7.000000
170.085070 20.000000
170.097080 26.000000
171.056730 63.000000
171.085820 9.000000
171.093520 11.000000
171.102680 6.000000
172.043700 5.000000
172.054150 6.000000
172.076140 154.000000
172.111830 8.000000
173.069630 17.000000
173.079450 27.000000
178.066420 11.000000
179.087570 5.000000
180.096130 6.000000
181.090410 13.000000
182.102910 12.000000
183.061780 17.000000
183.075230 9.000000
183.088580 27.000000
184.058550 7.000000
184.070980 10.000000
184.078140 20.000000
184.090240 16.000000
184.105930 7.000000
184.114620 10.000000
185.064470 15.000000
185.072600 44.000000
185.106230 6.000000
186.076450 56.000000
186.094010 17.000000
186.107790 5.000000
187.074400 26.000000
187.087170 439.000000
188.075360 10.000000
188.090040 52.000000
188.098650 10.000000
192.062070 11.000000
192.083630 27.000000
193.084370 16.000000
194.081450 8.000000
194.093340 10.000000
195.059490 6.000000
195.094990 12.000000
196.110370 9.000000
197.072310 29.000000
198.073180 10.000000
198.087840 19.000000
199.072850 10.000000
199.088620 69.000000
200.092220 5.000000
200.115010 6.000000
201.100910 11.000000
204.080550 6.000000
207.086580 5.000000
208.090870 6.000000
209.073200 6.000000
209.098560 8.000000
210.065080 6.000000
210.089740 10.000000
210.100850 8.000000
210.114440 6.000000
211.087430 90.000000
211.123110 5.000000
211.128680 10.000000
212.083600 24.000000
212.095900 31.000000
212.112960 8.000000
212.127170 6.000000
213.101650 102.000000
213.124620 7.000000
213.137680 20.000000
214.107280 14.000000
219.092290 7.000000
220.105130 7.000000
221.104390 5.000000
222.107390 7.000000
222.119690 5.000000
223.087370 10.000000
223.114030 5.000000
223.132050 6.000000
224.093890 5.000000
224.128400 9.000000
225.101680 36.000000
226.113080 8.000000
233.108000 5.000000
237.100430 58.000000
237.112840 12.000000
237.133420 9.000000
238.107210 12.000000
239.079820 6.000000
239.119580 25.000000
241.110500 9.000000
241.133270 181.000000
242.119170 6.000000
242.135470 22.000000
243.135640 7.000000
251.123200 11.000000
263.121190 10.000000
265.100280 6.000000
265.126130 26.000000
265.139280 7.000000
266.129970 6.000000
267.134400 8.000000
267.145110 16.000000
268.151120 6.000000
281.077970 6.000000

