>compound PR70601188
>parentmass 975.5149
>ionization [M+H]+
>formula C48H78O20
>rt 348.600000
>profile qtof
#smiles_iso CC1(CC2C3=CCC4C5(CCC(C(C5CCC4(C3(CCC2(C(C1O)O)C)C)C)(C)CO)OC6C(C(C(C(O6)C(=O)O)O)O)OC7C(C(C(C(O7)CO)O)O)OC8C(C(C(C(O8)CO)O)O)O)C)C
#smiles_can CC1(CC2C3=CCC4C5(CCC(C(C5CCC4(C3(CCC2(C(C1O)O)C)C)C)(C)CO)OC6C(C(C(C(O6)C(=O)O)O)O)OC7C(C(C(C(O7)CO)O)O)OC8C(C(C(C(O8)CO)O)O)O)C)C
#inchikey SKIRLFVEHUVYJK-UHFFFAOYSA-N
#pubchem_id 139292068
#mb_accession PR310680

>ms2peaks
163.065870 18.000000
213.161730 20.000000
219.180730 20.000000
284.186100 18.000000
312.155300 17.000000
382.290440 17.000000
399.324070 22.000000
421.330960 18.000000
439.355930 71.000000
457.244350 28.000000
457.348510 34.000000
457.370570 78.000000
458.368190 20.000000
595.368770 21.000000
615.382690 46.000000
617.414860 21.000000
651.395940 35.000000
829.462890 17.000000
873.767940 17.000000
887.546510 19.000000
974.523930 19.000000
975.488650 69.000000
975.528260 295.000000

