>compound PR70895835
>parentmass 741.2012
>ionization [M+H]+
>formula C36H36O17
>rt 282.600000
>profile qtof
#smiles_iso COC1=C(C=CC(=C1)C=CC(=O)OC2C(C(C(OC2OC3COC(C(C3O)O)C4=C(C5=C(C=C4O)OC(=CC5=O)C6=CC=C(C=C6)O)O)CO)O)O)O
#smiles_can COC1=C(C=CC(=C1)C=CC(=O)OC2C(C(C(OC2OC3COC(C(C3O)O)C4=C(C5=C(C=C4O)OC(=CC5=O)C6=CC=C(C=C6)O)O)CO)O)O)O
#inchikey IWFBTVKUANPWLB-UHFFFAOYSA-N
#pubchem_id 145994464
#mb_accession PR311026

>ms2peaks
81.036110 21.000000
109.022870 21.000000
121.030550 16.000000
145.031340 20.000000
177.035050 25.000000
177.052370 280.000000
177.058960 162.000000
178.060530 18.000000
195.056560 22.000000
283.054050 17.000000
308.017300 28.000000
313.059630 39.000000
313.070590 43.000000
321.103850 37.000000
322.088410 70.000000
326.736660 16.000000
337.055850 41.000000
337.072600 81.000000
338.063110 16.000000
341.102540 20.000000
350.060090 18.000000
363.449310 20.000000
367.070430 78.000000
367.090060 89.000000
368.068080 18.000000
368.089840 21.000000
368.116940 27.000000
385.090150 16.000000
385.111020 18.000000
386.099370 29.000000
403.101100 254.000000
404.092070 36.000000
465.114070 16.000000
522.378720 31.000000
723.174380 16.000000
741.125310 16.000000
741.194700 581.000000

