>compound PR70596646
>parentmass 237.1597539692307
>ionization [M+H]+
>formula C13H20N2O2
>rt 165.115366
>profile qtof
#smiles_iso CCN(CC)CCOC(=O)C1=CC=C(C=C1)N
#smiles_can CCN(CC)CCOC(=O)C1=CC=C(C=C1)N
#inchikey MFDFERRIHVXMIY-UHFFFAOYSA-N
#pubchem_id 4914
#mb_accession PR301705,PR301708,PR301711,PR301714,PR301717,PR301720,PR301723,PR301726,PR301729,PR301732,PR301735,PR301738,PR310429

>ms2
72.076810 16.000000
72.085320 6.000000
73.083820 8.000000
92.015590 7.000000
92.051430 37.000000
100.093070 7.000000
100.098910 7.000000
100.112820 683.000000
100.812300 6.000000
101.109690 45.000000
101.121760 14.000000
120.044510 544.000000
121.043370 7.000000
121.051820 25.000000
121.377880 7.000000
123.405480 6.000000
129.523940 6.000000
154.276730 6.000000
164.058620 34.000000
164.071090 445.000000
165.029080 5.000000
165.068470 11.000000
165.076980 46.000000
170.016040 5.000000
192.595380 5.000000
236.155650 6.000000
236.675950 12.000000
237.162220 1000.000000
237.205900 6.000000

>ms2
100.101380 8.000000
100.111860 125.000000
101.118880 16.000000
120.043540 37.000000
121.048080 7.000000
164.070100 79.000000
165.074750 9.000000
237.127430 7.000000
237.160190 1000.000000

>ms2
65.041180 8.000000
70.062390 10.000000
72.070630 7.000000
72.081280 70.000000
92.045450 17.000000
92.052210 129.000000
92.573870 7.000000
93.053110 24.000000
99.500850 6.000000
100.112550 231.000000
101.111670 6.000000
101.120130 7.000000
115.791910 6.000000
120.007480 7.000000
120.029050 21.000000
120.044040 1000.000000
120.076000 6.000000
121.043790 83.000000
121.055220 15.000000
122.702900 7.000000
152.031660 10.000000
164.070250 79.000000
164.078580 69.000000
165.047940 8.000000
165.073070 14.000000
165.081560 8.000000

>ms2
65.036450 80.000000
70.064450 72.000000
72.088060 125.000000
92.037200 91.000000
92.044650 350.000000
92.052990 399.000000
120.044780 1000.000000
120.057070 68.000000
121.044010 106.000000
237.150450 76.000000
237.178960 99.000000

>ms2
72.080110 25.000000
92.050000 52.000000
92.060960 9.000000
94.725440 5.000000
100.112750 658.000000
101.107090 11.000000
101.115310 8.000000
101.123650 7.000000
112.138010 6.000000
114.992910 6.000000
118.082050 6.000000
118.126000 7.000000
118.591170 9.000000
120.044030 679.000000
121.049520 67.000000
122.052190 6.000000
126.115440 5.000000
141.964550 11.000000
154.493190 10.000000
164.050610 10.000000
164.071930 522.000000
165.050060 8.000000
165.064800 20.000000
165.075200 35.000000
166.078350 11.000000
166.084000 5.000000
176.414870 5.000000
205.046420 8.000000
207.452870 5.000000
237.075700 5.000000
237.123660 5.000000
237.159270 1000.000000

>ms2
100.113010 161.000000
101.117000 12.000000
120.043630 43.000000
120.048660 14.000000
164.069920 90.000000
164.076550 28.000000
165.071750 10.000000
237.125780 7.000000
237.158860 1000.000000

>ms2
65.037790 9.000000
72.081630 50.000000
72.545090 6.000000
92.037680 7.000000
92.046620 83.000000
92.052440 35.000000
93.042820 8.000000
93.050740 9.000000
93.061890 8.000000
100.112210 261.000000
100.687500 6.000000
101.108300 11.000000
101.115530 8.000000
117.748190 6.000000
119.048640 6.000000
119.744020 5.000000
120.021940 9.000000
120.043950 1000.000000
121.034810 6.000000
121.044010 32.000000
121.054120 8.000000
122.052380 12.000000
135.478060 5.000000
164.068040 54.000000
164.073580 120.000000
165.065920 6.000000
165.077210 13.000000
166.082090 8.000000
237.149230 8.000000

>ms2
65.042040 190.000000
92.047000 283.000000
92.053150 302.000000
120.035500 102.000000
120.045300 1000.000000
121.048710 93.000000
237.166520 107.000000

>ms2
65.042150 6.000000
72.023830 5.000000
72.080280 14.000000
72.084530 7.000000
72.209880 5.000000
88.356160 7.000000
92.049980 28.000000
99.802350 7.000000
100.111980 546.000000
101.114510 19.000000
119.121990 5.000000
119.262630 5.000000
120.044120 599.000000
121.049580 38.000000
122.571670 6.000000
145.544540 6.000000
164.070370 317.000000
165.068980 15.000000
165.076690 13.000000
185.892960 5.000000
237.159040 1000.000000

>ms2
100.113300 109.000000
120.047280 28.000000
164.055530 7.000000
164.070400 90.000000
165.075200 10.000000
237.127590 7.000000
237.160490 1000.000000

>ms2
72.060520 5.000000
72.074470 7.000000
72.081750 61.000000
73.083770 7.000000
78.285460 10.000000
92.049270 109.000000
93.051510 8.000000
100.090020 6.000000
100.101350 10.000000
100.112430 258.000000
101.114100 15.000000
120.044820 1000.000000
120.394130 5.000000
121.049580 68.000000
122.873630 6.000000
164.062910 29.000000
164.073550 168.000000
165.065890 6.000000
165.081820 9.000000
237.157930 6.000000

>ms2
65.035220 130.000000
65.041310 320.000000
92.036610 85.000000
92.049080 1000.000000
93.056250 105.000000
93.656010 90.000000
100.111720 150.000000
120.037550 250.000000
120.045600 825.000000
120.050570 275.000000
237.150410 95.000000

>ms2
72.076810 53.000000
72.085320 18.000000
73.083820 25.000000
92.015590 22.000000
92.051430 119.000000
100.093070 23.000000
100.098910 21.000000
100.112820 2199.000000
100.812300 20.000000
101.109690 146.000000
101.121760 45.000000
120.044510 1750.000000
121.043370 21.000000
121.051820 82.000000
121.377880 21.000000
123.405480 19.000000
129.523940 20.000000
154.276730 18.000000
164.058620 109.000000
164.071090 1431.000000
165.029080 17.000000
165.068470 34.000000
165.076980 148.000000
170.016040 17.000000
192.595380 17.000000
236.155650 20.000000
236.675950 40.000000
237.162220 3219.000000
237.205900 18.000000

