>compound PR70261318
>parentmass 325.1431
>ionization [M+H]+
>formula C20H20O4
>rt 454.800000
>profile qtof
#smiles_iso CC(=CCC1=C(C2=C(C=C1O)OC(CC2=O)C3=CC=CC=C3)O)C
#smiles_can CC(=CCC1=C(C2=C(C=C1O)OC(CC2=O)C3=CC=CC=C3)O)C
#inchikey UOWOIGNEFLTNAW-UHFFFAOYSA-N
#pubchem_id 480763
#mb_accession PR310762

>ms2peaks
93.072400 19.000000
136.981220 20.000000
137.024370 20.000000
137.878720 17.000000
165.078640 17.000000
183.982890 30.000000
185.048870 23.000000
187.047270 19.000000
227.079900 25.000000
232.086170 20.000000
236.114990 26.000000
251.078780 23.000000
255.066650 26.000000
255.078600 20.000000
257.081510 22.000000
269.078430 34.000000
269.091860 33.000000
270.072970 20.000000
325.133760 113.000000
325.170260 18.000000

