>compound PR70844633
>parentmass 507.1133
>ionization [M+H]+
>formula C23H22O13
>rt 272.400000
>profile qtof
#smiles_iso COC1=CC(=CC(=C1O)OC)C2=CC(=O)C3=C(C=C(C=C3O2)OC4C(C(C(C(O4)C(=O)O)O)O)O)O
#smiles_can COC1=CC(=CC(=C1O)OC)C2=CC(=O)C3=C(C=C(C=C3O2)OC4C(C(C(C(O4)C(=O)O)O)O)O)O
#inchikey HJWFFBNADKDQPV-UHFFFAOYSA-N
#pubchem_id 74977751
#mb_accession PR310954

>ms2
116.066940 19.000000
213.055970 19.000000
242.060620 25.000000
243.627440 17.000000
244.035710 18.000000
247.051620 18.000000
255.058360 18.000000
256.073060 22.000000
260.186100 17.000000
269.982880 20.000000
270.046840 60.000000
270.055880 50.000000
270.071200 18.000000
271.058260 20.000000
274.034730 17.000000
284.060360 50.000000
284.072570 58.000000
285.061460 20.000000
285.085390 21.000000
287.051120 20.000000
287.059450 39.000000
312.036290 19.000000
315.029330 17.000000
315.051940 259.000000
315.087040 19.000000
316.036070 17.000000
316.054530 100.000000
316.064270 68.000000
317.056270 21.000000
330.069920 23.000000
331.022920 20.000000
331.037200 23.000000
331.081450 4075.000000
331.876220 17.000000
332.044190 17.000000
332.087400 535.000000
333.067020 37.000000
333.090790 140.000000
383.814450 19.000000
402.099730 17.000000
407.890010 22.000000
507.076200 23.000000
507.112400 2421.000000

