>compound PR71022340
>parentmass 286.14376989999994
>ionization [M+H]+
>formula C17H19NO3
>rt 470.298000
>profile qtof
#smiles_iso C1CCN(CC1)C(=O)/C=C/C=C/C2=CC3=C(C=C2)OCO3
#smiles_can C1CCN(CC1)C(=O)C=CC=CC2=CC3=C(C=C2)OCO3
#inchikey MXXWOMGUGJBKIW-YPCIICBESA-N
#pubchem_id 638024
#mb_accession PR301779,PR301781,PR301784,PR301787,PR301790,PR301792,PR301795,PR301798,PR301801,PR301804,PR301807,PR301810

>ms2
69.072320 7.000000
84.081690 5.000000
86.099630 6.000000
112.077040 23.000000
115.054620 162.000000
116.058920 15.000000
117.070420 7.000000
127.053610 6.000000
135.044450 141.000000
136.048770 16.000000
143.049870 120.000000
144.053700 15.000000
145.063250 6.000000
151.095250 7.000000
151.102220 8.000000
159.045610 29.000000
171.046190 79.000000
172.047070 11.000000
173.060590 42.000000
201.022580 5.000000
201.056060 669.000000
201.097260 16.000000
202.059130 91.000000
203.057850 9.000000
203.071260 6.000000
286.100100 6.000000
286.146210 1000.000000
286.194270 35.000000
286.339810 7.000000

>ms2
201.054380 76.000000
202.057250 10.000000
286.143890 1000.000000
286.191890 38.000000
286.236210 7.000000
286.343440 16.000000

>ms2
69.071310 54.000000
70.071370 8.000000
77.036250 5.000000
79.053640 6.000000
81.063870 5.000000
84.077860 11.000000
84.082860 13.000000
86.095050 14.000000
86.099550 7.000000
103.055400 19.000000
105.036000 8.000000
112.074300 67.000000
115.054650 861.000000
116.058590 71.000000
117.063610 12.000000
117.072040 36.000000
127.054810 36.000000
131.051220 10.000000
134.096150 14.000000
135.043880 536.000000
136.047940 60.000000
143.049530 725.000000
144.053220 103.000000
145.060810 7.000000
145.068250 7.000000
150.093670 8.000000
151.098940 46.000000
151.107240 10.000000
159.041320 96.000000
159.048720 74.000000
160.049670 22.000000
171.044630 519.000000
172.048490 83.000000
173.060230 161.000000
174.055650 7.000000
174.065810 19.000000
174.071700 8.000000
201.055080 1000.000000
202.031800 6.000000
202.051770 40.000000
202.059780 128.000000
203.060580 14.000000
215.108430 6.000000
286.141450 7.000000

>ms2
65.041820 7.000000
77.033680 14.000000
77.040490 44.000000
79.053790 14.000000
89.034250 17.000000
89.040150 42.000000
91.051610 8.000000
103.054810 28.000000
105.037420 14.000000
115.055020 1000.000000
116.055000 65.000000
116.061830 50.000000
122.093790 8.000000
135.041080 44.000000
135.050570 27.000000
143.037630 14.000000
143.047410 63.000000
143.055420 54.000000
144.049420 15.000000
159.043790 7.000000
171.031980 9.000000
171.040280 16.000000
171.055730 10.000000

>ms2
69.071040 9.000000
84.081180 6.000000
112.075740 28.000000
115.054860 143.000000
116.051880 6.000000
116.059280 11.000000
117.068940 8.000000
135.044050 142.000000
136.048950 13.000000
143.049730 115.000000
144.049410 10.000000
144.055740 13.000000
151.101460 12.000000
159.045090 36.000000
171.044250 99.000000
172.044300 6.000000
173.055390 17.000000
173.063690 23.000000
201.054890 647.000000
201.092770 10.000000
201.100190 6.000000
202.058330 94.000000
203.063390 8.000000
286.144780 1000.000000
286.193180 35.000000
286.344020 10.000000

>ms2
201.055470 80.000000
202.058820 11.000000
286.145200 1000.000000
286.193150 39.000000
286.238070 7.000000

>ms2
69.070060 45.000000
70.072620 7.000000
77.035460 6.000000
79.055270 9.000000
84.076600 7.000000
84.082110 13.000000
86.096760 25.000000
103.056030 20.000000
112.077310 52.000000
115.055020 850.000000
116.059490 95.000000
117.070660 43.000000
122.101260 6.000000
127.055220 26.000000
135.023790 7.000000
135.044450 556.000000
136.047380 53.000000
137.046490 5.000000
143.049510 706.000000
144.052550 92.000000
145.056090 6.000000
145.066640 18.000000
150.087750 8.000000
150.094570 12.000000
151.101720 51.000000
152.102910 8.000000
157.098850 7.000000
159.044460 164.000000
160.048290 16.000000
171.044510 490.000000
172.038360 10.000000
172.048160 64.000000
173.059860 180.000000
174.063140 27.000000
185.097470 5.000000
201.013340 6.000000
201.055510 1000.000000
201.094270 5.000000
202.057850 157.000000
203.060880 14.000000

>ms2
65.041680 8.000000
69.071580 8.000000
77.035810 17.000000
77.040960 18.000000
79.056580 17.000000
81.054540 5.000000
89.041020 32.000000
91.054050 14.000000
103.055360 28.000000
105.034520 23.000000
115.027660 5.000000
115.054530 1000.000000
116.057320 103.000000
116.068230 8.000000
117.068140 6.000000
127.057190 8.000000
135.043790 71.000000
135.051590 26.000000
136.051250 14.000000
143.042240 28.000000
143.049470 68.000000
143.059010 26.000000
144.046490 7.000000
159.043590 9.000000
171.043060 19.000000
171.053360 8.000000

>ms2
69.070700 11.000000
84.081590 12.000000
86.097260 10.000000
112.075090 33.000000
115.054900 158.000000
116.057530 21.000000
117.072650 6.000000
127.054580 7.000000
135.044110 152.000000
136.047870 12.000000
143.049850 128.000000
144.052640 19.000000
150.092390 5.000000
151.100980 15.000000
159.044190 24.000000
159.050420 10.000000
171.044240 91.000000
172.048570 8.000000
173.059080 43.000000
174.066530 5.000000
201.055420 684.000000
201.095790 17.000000
202.058330 95.000000
203.062230 15.000000
286.093870 5.000000
286.144810 1000.000000
286.192870 35.000000
286.235500 6.000000
286.342560 10.000000

>ms2
201.054980 76.000000
202.058850 11.000000
286.143920 1000.000000
286.192200 39.000000
286.236760 8.000000
286.343320 17.000000

>ms2
69.070700 78.000000
77.034660 5.000000
77.039490 8.000000
79.055790 15.000000
81.057610 9.000000
84.081290 30.000000
86.092910 6.000000
86.099480 23.000000
103.054340 31.000000
112.076800 65.000000
113.079980 8.000000
115.034530 7.000000
115.054730 918.000000
115.085330 6.000000
116.058210 114.000000
117.066140 16.000000
117.073290 32.000000
122.095250 8.000000
127.053550 35.000000
129.071620 5.000000
131.047230 13.000000
131.055730 6.000000
134.096440 13.000000
135.044620 607.000000
136.047970 51.000000
137.049530 7.000000
143.049970 769.000000
144.052310 109.000000
145.054490 9.000000
145.066380 13.000000
150.087910 5.000000
150.093660 11.000000
151.101720 57.000000
159.044970 175.000000
160.046460 25.000000
160.058040 10.000000
171.024190 6.000000
171.044390 549.000000
172.048920 73.000000
173.060030 159.000000
174.059370 12.000000
174.069950 15.000000
185.094530 6.000000
201.026540 8.000000
201.055220 1000.000000
202.059480 160.000000
203.062040 25.000000

>ms2
65.039070 6.000000
77.039340 44.000000
79.054650 20.000000
84.082950 6.000000
89.039970 53.000000
90.043010 7.000000
91.057540 8.000000
103.051380 15.000000
103.057380 28.000000
105.036650 10.000000
115.054730 1000.000000
116.058330 112.000000
117.060300 10.000000
117.070830 6.000000
127.057590 7.000000
135.045750 69.000000
143.049210 91.000000
159.040920 10.000000
171.045990 22.000000

