>compound PR71510206
>parentmass 325.1434
>ionization [M+H]+
>formula C20H20O4
>rt 516.600000
>profile qtof
#smiles_iso CC(=CCC1=C(C=CC(=C1)C=CC(=O)C2=C(C=C(C=C2)O)O)O)C
#smiles_can CC(=CCC1=C(C=CC(=C1)C=CC(=O)C2=C(C=C(C=C2)O)O)O)C
#inchikey TVUGLERLRIQATC-UHFFFAOYSA-N
#pubchem_id 66751582
#mb_accession PR310775

>ms2peaks
69.069040 19.000000
95.082730 19.000000
102.045670 17.000000
121.064710 26.000000
124.048120 22.000000
128.061740 17.000000
131.046140 26.000000
135.044490 20.000000
137.017870 33.000000
137.025070 129.000000
137.065080 19.000000
157.062010 23.000000
157.125920 17.000000
165.069670 18.000000
171.079510 45.000000
173.057340 41.000000
173.100490 20.000000
175.079150 26.000000
176.047060 19.000000
179.079220 19.000000
183.072010 22.000000
195.079320 17.000000
196.081090 19.000000
199.066480 67.000000
199.078290 62.000000
200.081130 27.000000
201.016570 18.000000
201.094120 36.000000
203.097080 74.000000
203.104490 39.000000
205.069550 18.000000
208.087750 38.000000
210.051540 18.000000
214.099110 19.000000
215.062930 20.000000
215.108920 23.000000
225.081530 17.000000
225.093540 23.000000
225.105620 20.000000
227.059860 17.000000
227.071290 60.000000
227.084960 28.000000
228.037980 17.000000
229.075330 21.000000
229.090190 19.000000
234.066020 17.000000
239.070530 20.000000
240.071980 18.000000
241.089400 31.000000
241.143050 18.000000
243.067230 17.000000
243.099000 36.000000
251.069320 41.000000
251.079240 48.000000
253.096800 21.000000
254.099350 18.000000
257.070070 73.000000
257.083800 34.000000
267.098750 21.000000
267.448850 31.000000
269.075010 102.000000
269.089630 88.000000
269.553100 24.000000
270.072480 20.000000
270.088930 48.000000
271.090760 347.000000
271.100490 154.000000
271.119450 17.000000
272.095000 44.000000
281.155940 23.000000
283.098850 25.000000
286.070830 28.000000
297.229460 18.000000
307.124150 20.000000
324.291990 18.000000
324.303920 20.000000
325.109560 19.000000
325.141660 788.000000
325.337400 18.000000

