>compound PR71003479
>parentmass 251.14015
>ionization [M+H]+
>formula C13H18N2O3
>rt 139.200000
>profile qtof
#smiles_iso C1=CC(=C(C=C1C=CC(=O)NCCCCN)O)O
#smiles_can C1=CC(=C(C=C1C=CC(=O)NCCCCN)O)O
#inchikey KTZNZCYTXQYEHT-UHFFFAOYSA-N
#pubchem_id 439877
#mb_accession PR311111,PR311112

>ms2peaks
72.076520 46.000000
79.056230 30.000000
89.037840 38.000000
89.092050 33.000000
89.107990 190.000000
90.110920 21.000000
106.043590 32.000000
107.049880 18.000000
112.524120 16.000000
115.091450 17.000000
117.002770 22.000000
117.030720 34.000000
117.036700 29.000000
118.034100 18.000000
123.044200 16.000000
135.037020 20.000000
135.046020 110.000000
137.050290 27.000000
145.026960 87.000000
145.033650 36.000000
146.035200 19.000000
147.076390 18.000000
154.419370 16.000000
162.836360 16.000000
163.039170 484.000000
164.039690 16.000000
172.991230 17.000000
234.098500 16.000000
234.110930 78.000000
236.132080 16.000000
251.139880 757.000000
251.165280 19.000000
251.246660 16.000000

>ms2peaks
63.021640 19.000000
68.198390 20.000000
68.400510 25.000000
70.067850 53.000000
71.831530 17.000000
72.081320 248.000000
72.084730 97.000000
79.050960 23.000000
89.024000 17.000000
89.034010 55.000000
89.042120 37.000000
89.048470 21.000000
89.108030 431.000000
90.030790 34.000000
98.065790 30.000000
105.034620 17.000000
106.041100 21.000000
107.043370 25.000000
107.048660 40.000000
114.095120 20.000000
115.091890 36.000000
117.034320 353.000000
122.938180 21.000000
126.060870 19.000000
127.084360 50.000000
133.031220 19.000000
134.033980 17.000000
135.043240 226.000000
145.029210 578.000000
145.064190 21.000000
146.027590 17.000000
146.033860 29.000000
160.108060 29.000000
161.038010 24.000000
162.028950 17.000000
163.012370 24.000000
163.039410 2425.000000
164.029850 24.000000
164.035740 56.000000
164.046630 63.000000
165.042830 46.000000
178.053280 19.000000
202.094790 28.000000
204.107220 44.000000
205.111330 28.000000
233.108660 24.000000
234.113620 489.000000
234.983760 17.000000
235.109920 24.000000
235.123930 68.000000
236.112920 20.000000
236.986010 22.000000
241.619570 27.000000
250.123400 50.000000
250.140340 46.000000
251.099850 58.000000
251.138640 2072.000000

