>compound PR71810391
>parentmass 751.3985
>ionization [M+H]+
>formula C39H58O14
>rt 447.000000
>profile qtof
#smiles_iso CC1(CCC2(CCC3(C(=CCC4C3(CCC5C4(CC(C(C5(C)C(=O)OC6C(C(C(C(O6)COC(=O)CC(=O)O)O)O)O)O)O)C)C)C2C1)C)C(=O)O)C
#smiles_can CC1(CCC2(CCC3(C(=CCC4C3(CCC5C4(CC(C(C5(C)C(=O)OC6C(C(C(C(O6)COC(=O)CC(=O)O)O)O)O)O)O)C)C)C2C1)C)C(=O)O)C
#inchikey JTKJAIJNMZCGNN-UHFFFAOYSA-N
#pubchem_id 139291916
#mb_accession PR310659

>ms2peaks
127.036130 31.000000
162.099640 20.000000
173.131960 101.000000
174.132190 24.000000
176.146970 34.000000
177.128400 20.000000
177.134870 18.000000
187.150040 28.000000
201.159100 39.000000
203.175840 39.000000
213.044010 17.000000
219.120160 19.000000
241.151370 17.000000
247.246200 19.000000
248.179410 18.000000
259.173220 17.000000
263.047670 21.000000
265.217070 20.000000
287.198610 18.000000
294.394680 17.000000
377.317350 17.000000
384.323430 41.000000
395.337520 28.000000
395.351930 20.000000
403.296480 17.000000
403.317750 20.000000
411.333160 17.000000
412.321840 17.000000
422.324980 17.000000
423.350710 18.000000
439.326320 73.000000
442.341250 29.000000
457.337590 216.000000
458.322570 18.000000
458.350860 20.000000
459.344120 19.000000
469.242770 20.000000
485.313510 23.000000
485.340970 17.000000
486.331760 18.000000
487.190670 17.000000
503.336880 66.000000
503.357180 65.000000
504.344730 36.000000
504.363310 20.000000
511.136690 17.000000
652.280820 27.000000
660.412290 20.000000
662.417050 17.000000
670.356570 19.000000
687.378910 21.000000
689.377560 23.000000
697.352290 17.000000
697.395510 17.000000
705.396120 85.000000
706.346190 22.000000
706.403260 24.000000
733.387510 24.000000
733.418090 24.000000
734.382750 17.000000
735.403140 28.000000
749.891110 17.000000
751.376830 61.000000
751.455380 17.000000

