>compound PR71794738
>parentmass 301.07066424615374
>ionization [M+H]+
>formula C16H12O6
>rt 445.494443
>profile qtof
#smiles_iso COC1=CC=C(C=C1)C2=C(C(=O)C3=C(C=C(C=C3O2)O)O)O
#smiles_can COC1=CC=C(C=C1)C2=C(C(=O)C3=C(C=C(C=C3O2)O)O)O
#inchikey SQFSKOYWJBQGKQ-UHFFFAOYSA-N
#pubchem_id 5281666
#mb_accession PR302756,PR302760,PR302763,PR302767,PR302771,PR302775,PR302779,PR302783,PR302786,PR302790,PR302794,PR302798,PR310900

>ms2
106.041940 7.000000
135.042360 17.000000
137.027020 8.000000
139.037090 24.000000
139.042650 10.000000
152.006100 7.000000
153.018010 41.000000
161.060750 8.000000
165.017990 28.000000
171.081910 8.000000
201.054720 10.000000
202.054080 9.000000
213.055730 14.000000
228.037320 6.000000
229.047210 64.000000
230.052000 41.000000
230.059750 36.000000
231.056640 9.000000
241.053650 5.000000
245.083770 9.000000
257.047940 14.000000
258.049800 39.000000
259.058350 9.000000
269.040310 7.000000
271.063630 7.000000
272.061920 15.000000
286.041500 21.000000
286.053500 19.000000
287.053070 8.000000
301.031010 7.000000
301.069980 1000.000000
301.119870 11.000000

>ms2
301.022030 6.000000
301.069700 1000.000000
301.118840 13.000000

>ms2
60.629320 5.000000
67.016340 6.000000
68.995400 7.000000
69.000120 7.000000
77.034100 9.000000
77.038350 12.000000
91.041720 5.000000
91.055100 11.000000
103.057510 7.000000
104.051960 7.000000
105.032930 23.000000
105.064350 9.000000
105.071380 10.000000
106.038170 23.000000
107.014180 6.000000
107.048020 34.000000
109.022810 30.000000
109.060300 7.000000
111.009540 10.000000
111.041330 6.000000
115.058690 10.000000
118.496970 9.000000
119.043440 7.000000
120.051250 8.000000
121.065190 41.000000
123.014160 7.000000
123.036500 5.000000
124.010290 12.000000
124.017050 5.000000
125.019670 6.000000
126.028150 19.000000
126.035070 10.000000
128.064610 6.000000
129.061310 5.000000
130.038100 9.000000
132.893310 7.000000
133.065640 20.000000
134.030090 5.000000
134.037580 21.000000
134.067980 8.000000
134.266750 6.000000
135.038160 167.000000
135.045440 127.000000
135.081990 8.000000
136.047520 35.000000
137.011750 9.000000
137.024570 77.000000
139.010450 24.000000
139.039170 256.000000
140.037550 5.000000
140.046860 17.000000
141.049160 6.000000
146.035290 8.000000
147.038510 11.000000
147.047640 8.000000
149.062520 12.000000
152.007640 27.000000
152.017530 10.000000
152.055800 5.000000
152.988070 12.000000
152.996290 14.000000
153.016860 589.000000
154.020230 46.000000
155.024920 14.000000
155.049840 9.000000
156.047780 5.000000
156.055510 9.000000
157.054060 6.000000
158.064150 6.000000
159.864260 5.000000
160.012130 52.000000
160.047330 10.000000
160.996800 6.000000
161.023320 6.000000
161.061720 80.000000
162.065140 10.000000
164.035580 7.000000
164.999760 14.000000
165.015080 268.000000
166.017230 12.000000
166.026790 21.000000
166.574190 11.000000
167.036680 9.000000
168.056590 11.000000
171.038680 19.000000
171.046450 7.000000
171.060590 9.000000
171.078090 8.000000
171.092100 9.000000
172.037540 8.000000
173.061800 25.000000
175.075410 18.000000
176.042910 13.000000
180.674730 7.000000
183.039670 9.000000
183.939210 8.000000
184.040890 37.000000
184.051930 101.000000
185.037340 7.000000
185.059510 63.000000
186.033770 5.000000
187.043270 14.000000
187.051010 8.000000
188.046480 11.000000
188.078720 8.000000
189.051730 8.000000
189.060070 5.000000
192.177700 8.000000
199.083270 13.000000
199.957890 6.000000
201.052720 120.000000
202.021880 10.000000
202.061100 32.000000
202.075650 11.000000
203.023990 8.000000
203.058650 6.000000
204.044720 13.000000
205.012420 8.000000
209.059840 6.000000
212.048360 55.000000
212.351560 5.000000
213.020890 8.000000
213.034850 14.000000
213.052700 80.000000
214.041660 11.000000
214.060590 13.000000
215.033690 8.000000
215.044390 14.000000
216.041020 5.000000
217.075670 12.000000
218.054780 6.000000
219.035480 21.000000
223.039250 8.000000
224.029880 7.000000
225.038390 8.000000
227.066410 20.000000
227.079120 6.000000
228.032880 17.000000
229.049120 566.000000
229.105210 6.000000
230.030690 11.000000
230.055500 924.000000
231.036450 16.000000
231.049700 42.000000
231.061720 131.000000
232.027630 10.000000
232.060580 11.000000
232.072080 8.000000
233.031370 6.000000
233.049330 6.000000
233.080370 5.000000
239.588760 6.000000
240.033540 23.000000
241.022420 5.000000
241.052720 79.000000
241.071810 11.000000
242.043440 15.000000
242.054610 52.000000
243.018390 11.000000
243.027450 12.000000
243.056730 6.000000
244.034700 6.000000
244.063960 11.000000
244.084900 9.000000
245.084290 31.000000
246.077350 5.000000
255.058590 6.000000
255.071090 22.000000
256.063230 8.000000
256.992740 8.000000
257.042180 214.000000
258.007720 13.000000
258.051450 1000.000000
259.020600 6.000000
259.051970 92.000000
259.064330 19.000000
259.174260 8.000000
259.204680 6.000000
260.048580 12.000000
268.036320 25.000000
268.433810 6.000000
269.020110 14.000000
269.046140 183.000000
270.030210 6.000000
270.049800 44.000000
271.019500 17.000000
271.043370 7.000000
271.060120 9.000000
272.041660 21.000000
272.064060 102.000000
273.062930 13.000000
273.077910 16.000000
275.083770 6.000000
283.061680 8.000000
285.037230 26.000000
285.047640 12.000000
285.646760 5.000000
286.000890 7.000000
286.020720 22.000000
286.048770 466.000000
286.818600 8.000000
287.027620 13.000000
287.041440 28.000000
287.055390 25.000000
287.070560 8.000000
288.042880 5.000000
288.054660 28.000000
299.052190 5.000000
300.054630 7.000000
301.044490 26.000000
301.070340 962.000000

>ms2
49.997200 38.000000
50.011130 27.000000
67.012730 22.000000
68.965710 27.000000
68.981090 22.000000
68.997090 167.000000
69.037210 42.000000
70.148280 17.000000
71.015160 19.000000
77.036540 80.000000
77.042050 48.000000
78.033960 34.000000
78.045080 102.000000
78.063190 37.000000
79.019440 24.000000
79.040680 24.000000
79.053170 45.000000
81.033100 40.000000
83.009480 34.000000
85.023900 27.000000
85.033050 21.000000
91.041820 20.000000
91.055960 34.000000
92.026440 25.000000
92.059780 38.000000
93.040220 21.000000
95.011020 35.000000
95.046370 29.000000
96.015370 71.000000
96.023060 72.000000
96.027970 51.000000
101.037590 22.000000
103.026110 21.000000
103.054610 141.000000
103.219220 22.000000
105.033330 168.000000
105.042700 21.000000
105.062040 17.000000
105.282320 21.000000
106.033310 53.000000
106.044820 75.000000
107.050960 81.000000
108.013780 28.000000
108.023480 127.000000
108.051570 26.000000
108.304180 20.000000
108.821140 18.000000
109.022800 37.000000
111.003930 32.000000
111.010840 29.000000
112.858010 18.000000
115.054910 69.000000
116.066670 19.000000
116.985570 16.000000
117.067440 104.000000
118.043080 61.000000
119.011030 18.000000
119.045630 62.000000
119.054530 18.000000
120.023240 72.000000
120.031730 16.000000
121.029030 185.000000
121.068020 15.000000
124.013740 433.000000
124.992570 24.000000
126.028280 17.000000
127.050020 26.000000
127.056850 108.000000
128.061540 157.000000
129.051900 36.000000
129.064580 71.000000
130.034700 29.000000
130.042920 20.000000
131.043910 59.000000
131.051670 109.000000
132.060350 19.000000
133.063350 38.000000
134.036530 82.000000
134.043150 18.000000
135.004850 21.000000
135.020810 24.000000
135.028340 28.000000
135.046390 65.000000
136.013610 19.000000
136.049450 27.000000
137.018720 136.000000
138.025410 19.000000
139.049450 19.000000
139.057820 71.000000
140.061430 34.000000
143.046510 15.000000
143.052780 21.000000
144.006840 24.000000
144.054210 15.000000
145.056990 37.000000
146.031480 77.000000
146.067730 57.000000
147.036240 15.000000
147.049910 39.000000
150.034070 36.000000
150.625930 41.000000
151.040220 42.000000
152.010380 114.000000
152.996050 22.000000
153.018300 587.000000
153.067890 18.000000
154.004820 15.000000
154.017620 20.000000
154.995880 30.000000
155.045440 177.000000
155.053730 291.000000
155.243760 20.000000
156.055480 43.000000
157.054210 20.000000
159.043210 48.000000
159.055510 17.000000
160.042940 45.000000
161.022830 18.000000
161.050370 56.000000
161.065410 129.000000
163.039090 15.000000
165.022900 41.000000
168.049240 35.000000
168.061860 44.000000
171.054410 40.000000
173.017230 33.000000
173.023510 40.000000
173.051700 107.000000
173.062190 64.000000
174.065170 27.000000
175.042940 24.000000
176.043350 16.000000
176.051130 23.000000
177.045990 18.000000
178.027530 29.000000
180.194950 34.000000
181.015430 31.000000
183.047880 381.000000
184.040240 25.000000
184.052760 89.000000
185.049900 16.000000
185.241130 33.000000
187.039000 212.000000
188.046480 21.000000
189.000700 25.000000
189.029680 27.000000
192.014540 29.000000
197.021450 20.000000
201.014480 18.000000
201.046650 130.000000
201.061780 296.000000
201.092500 26.000000
202.044850 30.000000
202.052290 58.000000
202.064100 121.000000
203.023420 52.000000
203.037170 89.000000
204.038010 46.000000
211.042740 38.000000
212.035100 25.000000
212.045960 29.000000
212.053710 17.000000
213.052370 116.000000
213.062850 44.000000
215.023710 17.000000
215.032530 25.000000
216.048100 25.000000
218.058820 20.000000
219.025270 71.000000
227.977360 19.000000
228.038130 59.000000
228.645230 17.000000
229.026120 84.000000
229.050230 1000.000000
229.997680 21.000000
230.039470 20.000000
230.052570 194.000000
230.083270 25.000000
239.020260 17.000000
241.047580 18.000000
242.053360 19.000000
243.019900 44.000000
257.026550 18.000000
257.046480 21.000000
259.059940 31.000000
259.847050 15.000000
268.459440 42.000000
269.046540 54.000000
271.033170 18.000000
271.067570 19.000000
284.028720 19.000000
285.050380 15.000000

>ms2
135.043560 14.000000
137.016920 5.000000
137.027450 8.000000
139.038500 30.000000
153.014560 38.000000
153.023420 7.000000
160.014770 6.000000
165.018140 26.000000
184.050110 6.000000
201.059400 11.000000
202.057390 5.000000
213.054340 12.000000
227.069730 5.000000
229.048290 62.000000
230.054460 46.000000
230.067320 15.000000
231.064530 5.000000
257.046810 12.000000
258.045290 20.000000
258.056880 37.000000
269.033480 5.000000
271.054380 7.000000
272.068700 15.000000
286.046810 35.000000
286.057770 13.000000
287.048770 11.000000
301.007810 5.000000
301.036290 10.000000
301.071200 1000.000000
301.119660 9.000000

>ms2
301.070740 1000.000000
301.121770 17.000000

>ms2
68.997990 6.000000
79.019030 7.000000
79.055790 7.000000
81.037120 6.000000
83.014850 8.000000
91.053870 6.000000
91.058100 6.000000
93.024930 8.000000
103.056650 6.000000
105.074260 6.000000
105.381670 7.000000
106.023420 10.000000
106.041130 17.000000
107.039180 6.000000
107.046620 46.000000
107.053560 11.000000
108.054630 14.000000
108.062520 13.000000
109.023390 24.000000
109.032510 17.000000
110.029370 15.000000
119.051680 9.000000
119.088590 5.000000
121.024480 6.000000
121.057190 8.000000
121.065430 28.000000
124.013610 21.000000
126.031160 17.000000
127.273900 7.000000
129.073760 9.000000
131.055420 9.000000
132.021470 9.000000
134.037370 19.000000
135.045010 272.000000
135.363040 5.000000
136.045180 39.000000
137.023990 70.000000
137.055150 6.000000
138.022690 5.000000
139.024080 22.000000
139.037840 187.000000
139.043980 54.000000
140.041180 41.000000
141.037490 7.000000
145.064970 24.000000
146.036000 7.000000
147.040390 19.000000
149.041760 6.000000
149.056760 9.000000
149.063780 6.000000
151.998000 6.000000
152.003720 14.000000
152.014570 8.000000
152.977710 6.000000
152.990050 8.000000
153.017070 476.000000
153.058550 6.000000
153.071530 6.000000
154.009190 7.000000
154.020280 33.000000
155.027390 6.000000
156.058610 5.000000
157.068410 11.000000
160.008760 23.000000
160.017970 59.000000
160.052930 9.000000
161.002320 5.000000
161.013610 11.000000
161.020510 5.000000
161.056530 79.000000
161.069370 35.000000
162.022320 6.000000
162.070590 9.000000
164.967850 6.000000
165.017850 238.000000
166.021320 14.000000
168.056670 9.000000
171.050060 6.000000
171.081970 20.000000
171.089480 11.000000
172.043520 7.000000
173.045550 5.000000
173.058910 7.000000
173.065050 7.000000
174.037230 5.000000
175.042500 8.000000
175.080230 22.000000
180.548860 6.000000
181.065430 8.000000
183.048190 6.000000
183.914860 6.000000
184.050230 79.000000
184.967350 8.000000
185.060620 64.000000
186.059310 5.000000
187.033650 6.000000
187.074510 14.000000
188.080640 6.000000
189.051560 9.000000
189.091710 6.000000
195.026110 6.000000
196.032240 6.000000
200.030550 7.000000
201.054640 84.000000
201.062610 37.000000
201.749500 6.000000
202.058650 60.000000
202.066470 28.000000
202.747570 8.000000
203.065640 19.000000
203.073150 8.000000
211.039540 11.000000
211.073720 6.000000
212.043330 52.000000
212.059280 34.000000
212.307600 7.000000
213.031430 9.000000
213.045150 21.000000
213.055500 77.000000
214.056920 41.000000
214.069110 9.000000
214.621690 6.000000
215.023350 6.000000
216.035570 8.000000
217.042950 18.000000
217.056240 5.000000
217.079210 6.000000
218.014450 7.000000
219.022230 6.000000
219.039890 8.000000
227.069110 44.000000
228.012600 6.000000
228.035630 8.000000
228.062090 6.000000
228.070530 7.000000
229.003750 7.000000
229.022020 16.000000
229.051330 527.000000
229.962110 6.000000
229.981410 10.000000
230.005220 17.000000
230.057530 924.000000
230.119950 6.000000
230.690890 6.000000
231.054170 88.000000
231.067490 33.000000
231.406940 10.000000
237.113330 9.000000
240.042160 19.000000
241.036740 13.000000
241.051940 30.000000
242.034870 6.000000
242.048920 14.000000
242.061070 17.000000
243.029970 30.000000
243.067520 7.000000
245.081090 63.000000
246.090040 13.000000
255.057710 23.000000
257.017580 5.000000
257.043910 188.000000
257.140780 6.000000
258.019590 13.000000
258.051940 888.000000
258.861110 6.000000
259.033050 11.000000
259.045620 44.000000
259.059140 185.000000
260.060390 10.000000
268.032710 21.000000
268.045650 5.000000
268.915710 6.000000
269.046080 191.000000
270.046050 50.000000
271.006350 6.000000
271.036800 22.000000
271.060550 21.000000
272.018830 5.000000
272.046330 9.000000
272.067930 81.000000
272.085910 8.000000
283.063290 8.000000
284.034520 5.000000
285.010310 13.000000
285.042020 62.000000
286.017360 18.000000
286.048830 413.000000
286.500890 6.000000
286.836060 6.000000
287.014980 6.000000
287.032680 7.000000
287.052460 86.000000
288.024990 6.000000
288.060090 18.000000
289.056880 7.000000
299.063630 9.000000
300.051940 7.000000
300.707920 6.000000
300.848750 5.000000
301.024050 17.000000
301.037810 20.000000
301.071200 1000.000000

>ms2
65.036430 43.000000
65.042910 16.000000
66.027690 13.000000
67.013730 22.000000
67.018710 57.000000
68.026090 18.000000
68.991350 13.000000
68.997970 156.000000
69.028590 20.000000
69.034420 66.000000
69.413980 14.000000
70.040510 17.000000
74.138570 16.000000
77.002270 16.000000
77.032580 38.000000
77.038250 65.000000
77.043170 19.000000
78.011490 30.000000
78.036310 12.000000
78.047470 197.000000
78.657040 14.000000
79.057390 22.000000
79.761150 11.000000
83.013820 53.000000
85.028030 11.000000
89.036610 26.000000
90.039470 16.000000
90.050930 30.000000
91.018330 17.000000
91.053700 41.000000
91.059150 26.000000
92.022030 24.000000
92.028760 27.000000
92.046450 22.000000
92.060850 16.000000
92.997610 12.000000
93.033580 13.000000
93.550480 12.000000
96.016260 28.000000
96.020500 80.000000
97.019150 25.000000
98.026050 11.000000
102.051610 22.000000
104.032940 30.000000
104.584750 16.000000
105.026370 15.000000
105.034390 119.000000
105.043400 15.000000
105.062050 20.000000
105.070760 24.000000
105.079260 14.000000
105.305820 15.000000
105.846000 29.000000
106.041850 178.000000
107.049610 91.000000
108.020280 84.000000
109.025710 50.000000
109.031560 37.000000
111.008480 26.000000
111.048420 22.000000
115.052180 47.000000
116.057970 83.000000
116.066500 20.000000
118.042160 89.000000
118.078900 33.000000
119.050380 28.000000
120.059050 24.000000
121.026190 114.000000
121.032750 79.000000
121.060250 34.000000
121.365770 12.000000
122.060000 16.000000
123.993640 13.000000
124.001730 27.000000
124.013800 348.000000
124.038060 14.000000
125.016660 18.000000
125.025200 62.000000
126.004950 12.000000
126.021680 20.000000
127.055670 67.000000
128.060270 188.000000
128.067780 79.000000
129.000170 24.000000
129.065190 15.000000
129.072590 41.000000
131.045270 57.000000
131.051360 55.000000
132.024810 14.000000
132.043080 32.000000
132.059680 15.000000
135.006760 69.000000
135.044880 127.000000
135.994860 18.000000
136.019990 24.000000
137.012210 16.000000
137.020610 66.000000
137.060040 13.000000
138.040280 14.000000
138.054120 12.000000
139.056810 45.000000
139.066380 12.000000
140.059970 14.000000
142.693240 19.000000
144.051770 17.000000
145.032460 16.000000
145.041600 17.000000
145.062590 65.000000
146.032640 47.000000
147.044540 26.000000
147.978550 20.000000
149.153950 22.000000
150.036710 17.000000
151.037630 22.000000
151.999950 32.000000
152.008830 132.000000
152.020480 48.000000
153.005600 99.000000
153.018520 737.000000
154.014240 16.000000
154.022750 16.000000
154.028470 31.000000
155.041790 66.000000
155.049530 282.000000
156.028590 18.000000
156.053940 139.000000
157.063060 94.000000
157.989410 14.000000
158.041260 13.000000
159.038730 35.000000
159.051640 12.000000
160.055070 13.000000
161.063480 166.000000
161.096150 11.000000
161.761170 12.000000
162.026320 24.000000
162.064960 38.000000
163.013000 20.000000
165.023410 22.000000
167.044970 12.000000
171.079730 37.000000
172.041370 11.000000
172.049940 14.000000
173.043640 12.000000
173.061330 137.000000
174.027070 34.000000
174.093800 13.000000
174.309220 14.000000
175.041610 12.000000
176.043080 27.000000
176.058070 22.000000
177.012620 13.000000
178.105670 17.000000
179.030030 20.000000
181.062470 18.000000
183.027070 20.000000
183.045530 192.000000
184.048230 240.000000
185.053770 32.000000
185.065290 29.000000
187.021100 15.000000
187.035420 138.000000
187.042570 66.000000
188.021800 20.000000
188.041660 16.000000
188.050930 24.000000
188.069750 12.000000
194.045670 11.000000
200.034160 16.000000
201.056090 450.000000
201.119810 16.000000
202.054550 48.000000
202.068300 73.000000
203.028410 28.000000
203.041850 27.000000
203.062610 42.000000
209.026780 22.000000
211.022140 13.000000
211.035130 74.000000
211.047210 53.000000
212.028200 17.000000
212.039520 26.000000
213.036760 23.000000
213.050720 53.000000
213.060780 35.000000
215.032490 18.000000
215.684130 12.000000
216.042660 20.000000
217.156880 11.000000
219.031560 13.000000
227.033890 57.000000
228.757520 13.000000
229.023320 18.000000
229.035890 214.000000
229.048070 1000.000000
229.073530 46.000000
229.130110 27.000000
229.315480 12.000000
230.049100 164.000000
230.062500 153.000000
230.108810 33.000000
231.054860 53.000000
231.068770 18.000000
235.615750 12.000000
240.039380 50.000000
242.977070 19.000000
243.013380 19.000000
243.027730 55.000000
243.042300 26.000000
243.068360 18.000000
244.023300 11.000000
245.057860 16.000000
252.038970 17.000000
255.054470 13.000000
257.035490 29.000000
257.046450 66.000000
257.062100 32.000000
257.507970 18.000000
258.052280 46.000000
258.059170 20.000000
259.041470 14.000000
269.039980 16.000000
271.029020 14.000000
295.649930 12.000000
301.066040 49.000000

>ms2
135.043240 27.000000
137.020840 7.000000
139.036900 28.000000
152.010220 11.000000
153.017880 26.000000
160.015380 6.000000
161.060550 9.000000
165.018230 25.000000
166.018910 6.000000
201.057630 22.000000
212.050110 6.000000
213.056900 12.000000
229.044330 22.000000
229.052600 48.000000
230.057720 88.000000
257.038450 8.000000
257.048830 9.000000
258.037320 8.000000
258.052520 44.000000
259.067380 6.000000
269.046810 16.000000
271.057920 10.000000
272.057100 7.000000
272.075960 5.000000
286.043520 27.000000
286.054080 22.000000
287.049040 8.000000
301.023710 5.000000
301.070430 1000.000000
301.119690 10.000000

>ms2
301.070340 1000.000000
301.121700 16.000000

>ms2
67.020360 7.000000
68.996590 11.000000
69.038020 5.000000
78.043810 12.000000
81.029810 7.000000
91.054340 9.000000
92.017750 6.000000
92.027310 13.000000
97.032960 6.000000
106.040870 35.000000
107.024940 5.000000
107.040430 15.000000
107.046440 25.000000
107.054840 7.000000
108.058010 33.000000
109.027980 33.000000
109.034230 21.000000
119.045540 19.000000
121.062770 35.000000
121.068780 14.000000
124.014260 14.000000
125.019290 5.000000
126.028560 21.000000
128.059810 7.000000
129.074920 7.000000
133.036730 7.000000
133.059430 7.000000
133.065770 8.000000
134.026810 6.000000
134.043730 6.000000
135.028400 13.000000
135.043240 241.000000
136.018140 17.000000
136.048460 24.000000
137.024020 107.000000
138.030500 5.000000
139.017550 13.000000
139.038270 270.000000
140.044280 10.000000
140.049960 23.000000
141.044620 16.000000
142.037870 7.000000
144.057430 14.000000
145.064500 22.000000
146.033690 6.000000
147.042800 16.000000
149.048840 5.000000
149.059770 19.000000
150.034410 12.000000
152.005080 15.000000
152.013470 46.000000
152.768880 6.000000
153.002040 24.000000
153.017640 592.000000
153.070370 8.000000
154.025990 33.000000
154.043500 8.000000
155.025360 9.000000
156.051900 6.000000
157.053790 12.000000
158.066790 12.000000
159.092670 9.000000
160.008970 36.000000
160.016710 57.000000
161.058990 61.000000
162.017180 7.000000
162.032990 6.000000
162.062730 13.000000
164.999760 12.000000
165.018010 277.000000
166.014940 16.000000
166.022110 42.000000
170.069090 6.000000
171.082440 47.000000
172.048220 5.000000
173.556880 6.000000
174.030910 7.000000
174.067550 12.000000
174.489550 5.000000
175.043820 20.000000
175.072780 18.000000
176.078750 9.000000
183.933780 7.000000
184.051070 29.000000
185.058400 29.000000
187.305370 6.000000
187.430590 6.000000
187.642140 6.000000
188.067000 8.000000
189.045750 7.000000
191.080350 6.000000
193.012890 5.000000
195.084470 6.000000
196.372800 7.000000
197.041670 6.000000
199.040560 6.000000
201.053070 105.000000
201.228360 8.000000
201.605970 6.000000
202.027940 5.000000
202.059370 35.000000
202.071090 17.000000
203.066860 19.000000
203.101840 6.000000
203.192690 6.000000
204.033540 5.000000
211.041730 8.000000
212.024460 10.000000
212.040990 23.000000
212.052150 37.000000
213.012330 6.000000
213.056140 86.000000
214.055020 22.000000
216.040800 13.000000
216.174650 5.000000
217.038020 11.000000
217.048360 11.000000
217.084960 6.000000
218.053130 6.000000
223.044400 5.000000
224.046330 8.000000
225.058210 5.000000
227.042690 6.000000
227.063100 14.000000
227.075850 11.000000
228.045580 6.000000
229.022510 11.000000
229.050640 455.000000
229.072950 14.000000
229.989070 6.000000
230.057680 828.000000
230.891480 6.000000
231.021380 9.000000
231.047910 23.000000
231.061420 111.000000
231.401230 8.000000
232.032940 25.000000
232.055210 7.000000
232.068050 16.000000
233.297450 6.000000
233.307140 10.000000
240.041610 31.000000
241.025830 6.000000
241.046630 86.000000
241.065320 8.000000
242.025220 9.000000
242.050450 19.000000
242.060610 28.000000
242.809110 6.000000
243.041310 17.000000
243.054440 10.000000
243.066390 8.000000
244.023380 6.000000
244.064880 14.000000
245.065460 6.000000
245.079990 43.000000
246.085460 11.000000
249.508090 8.000000
252.022610 6.000000
255.070220 32.000000
256.061040 7.000000
257.024230 11.000000
257.042570 201.000000
257.994380 8.000000
258.052030 1000.000000
259.029970 7.000000
259.047580 42.000000
259.060670 90.000000
259.079320 5.000000
259.982760 7.000000
260.059230 7.000000
269.046170 243.000000
270.033840 7.000000
270.050200 56.000000
271.021480 7.000000
271.031560 6.000000
271.052830 12.000000
272.069580 126.000000
272.675420 9.000000
273.068790 10.000000
285.034420 20.000000
285.043610 69.000000
286.013700 9.000000
286.046840 620.000000
287.026180 10.000000
287.034210 28.000000
287.052220 53.000000
288.059880 14.000000
289.031490 6.000000
289.051940 7.000000
289.924560 5.000000
296.276030 7.000000
299.049710 16.000000
300.045960 6.000000
300.985750 8.000000
301.007630 12.000000
301.043640 8.000000
301.070250 832.000000

>ms2
65.033330 26.000000
66.047770 24.000000
66.762820 16.000000
67.020530 26.000000
68.993060 72.000000
68.997840 182.000000
70.041910 17.000000
77.037760 123.000000
78.007320 19.000000
78.042690 154.000000
78.048860 72.000000
78.248580 22.000000
79.050380 83.000000
79.056440 22.000000
80.064740 12.000000
81.033040 18.000000
83.007870 29.000000
85.030120 17.000000
86.424110 15.000000
87.067480 19.000000
89.038170 16.000000
90.041680 26.000000
90.051390 15.000000
91.053640 14.000000
92.017000 15.000000
93.029920 50.000000
95.960540 15.000000
96.012400 12.000000
96.019500 143.000000
102.051440 20.000000
105.028040 40.000000
105.032680 114.000000
105.733990 13.000000
106.019360 15.000000
106.041740 189.000000
106.050030 11.000000
107.044260 36.000000
107.051410 19.000000
107.838260 12.000000
108.019720 122.000000
109.025310 36.000000
110.036470 13.000000
110.570670 26.000000
111.008300 21.000000
111.047630 15.000000
115.053910 26.000000
115.058610 49.000000
118.034270 12.000000
118.691280 15.000000
120.053480 21.000000
120.843060 22.000000
121.029750 14.000000
121.062350 18.000000
121.070080 26.000000
122.029270 16.000000
123.041780 14.000000
124.013270 383.000000
124.019620 118.000000
125.019600 51.000000
126.030200 20.000000
127.036570 27.000000
127.051520 91.000000
128.021090 15.000000
128.061980 302.000000
131.046040 78.000000
131.055480 71.000000
131.067000 15.000000
131.409270 15.000000
133.061630 82.000000
134.035140 17.000000
134.913600 15.000000
135.006120 18.000000
135.035840 89.000000
135.050090 84.000000
136.010590 79.000000
137.018330 55.000000
137.029890 21.000000
137.562320 25.000000
138.048490 15.000000
139.045410 18.000000
139.056350 79.000000
140.059920 71.000000
140.066960 17.000000
141.073840 15.000000
142.038410 20.000000
143.041820 12.000000
145.038480 29.000000
145.058330 39.000000
145.063770 115.000000
147.047330 49.000000
148.344500 27.000000
149.025100 21.000000
149.773590 12.000000
150.007030 34.000000
150.026570 44.000000
150.035570 34.000000
151.057110 18.000000
151.385380 21.000000
152.010410 88.000000
153.006590 19.000000
153.019840 407.000000
154.024660 78.000000
155.019850 14.000000
155.037670 26.000000
155.047390 146.000000
155.052930 298.000000
155.071060 46.000000
156.039320 23.000000
156.051540 114.000000
156.669980 12.000000
160.038120 22.000000
160.046890 50.000000
161.057820 167.000000
161.067030 53.000000
162.040160 20.000000
162.073790 15.000000
163.035900 28.000000
165.027300 31.000000
167.049350 26.000000
168.039640 22.000000
171.048720 89.000000
172.051670 18.000000
172.390060 33.000000
173.060240 99.000000
173.071870 26.000000
174.031480 18.000000
174.057140 16.000000
175.044980 21.000000
176.032900 68.000000
176.048840 57.000000
176.979190 31.000000
183.037450 62.000000
183.046400 67.000000
184.053530 233.000000
184.989500 15.000000
185.028320 27.000000
185.048290 38.000000
185.056490 67.000000
185.063030 69.000000
185.073530 23.000000
186.215450 13.000000
186.622850 19.000000
186.987590 15.000000
187.037800 236.000000
187.045230 124.000000
188.032170 29.000000
188.050090 31.000000
188.658890 15.000000
190.908340 15.000000
199.033890 26.000000
201.048170 128.000000
201.056640 460.000000
201.074280 40.000000
202.006740 16.000000
202.057040 38.000000
203.034560 89.000000
204.036910 13.000000
204.052550 39.000000
205.045910 12.000000
211.028500 17.000000
211.047420 30.000000
212.049290 94.000000
212.839360 15.000000
213.051010 15.000000
213.058030 51.000000
214.054310 15.000000
215.033510 16.000000
219.030120 13.000000
220.042970 21.000000
227.016100 22.000000
227.044360 45.000000
227.810910 19.000000
228.990100 34.000000
229.016950 29.000000
229.030940 20.000000
229.050980 1000.000000
229.159580 26.000000
230.052200 214.000000
231.054840 18.000000
231.064990 36.000000
231.468230 18.000000
243.026730 83.000000
243.042330 24.000000
243.076130 26.000000
245.024640 15.000000
246.056870 12.000000
257.023160 18.000000
257.049130 15.000000
258.043090 12.000000
261.096010 17.000000
269.051420 33.000000
284.035580 17.000000
285.056850 17.000000
286.043980 15.000000
301.036130 18.000000
301.057040 14.000000
301.073880 34.000000

>ms2
56.635840 24.000000
68.993640 111.000000
68.997520 57.000000
69.352900 18.000000
69.999000 19.000000
71.008730 18.000000
84.017670 17.000000
85.024180 22.000000
94.000650 43.000000
94.008260 36.000000
96.701480 18.000000
101.136340 17.000000
102.857960 19.000000
111.996610 23.000000
112.013180 25.000000
112.020940 18.000000
113.016520 18.000000
114.031390 22.000000
117.053220 17.000000
118.032090 52.000000
118.042340 441.000000
119.040650 23.000000
119.049640 17.000000
121.034380 18.000000
127.050220 17.000000
128.055560 40.000000
128.061510 109.000000
131.037000 28.000000
132.058690 20.000000
136.015610 21.000000
136.031620 25.000000
140.009430 480.000000
141.013380 23.000000
145.023970 19.000000
145.060350 18.000000
145.067860 24.000000
147.042020 27.000000
153.009480 17.000000
153.017030 38.000000
155.046100 17.000000
156.057050 55.000000
156.062120 19.000000
158.039600 22.000000
158.074330 21.000000
159.040700 18.000000
159.046540 24.000000
160.049620 20.000000
162.988340 20.000000
163.000240 26.000000
168.006230 1329.000000
168.058790 20.000000
168.999660 68.000000
169.012740 162.000000
169.021120 40.000000
170.011840 45.000000
170.021120 24.000000
171.048160 22.000000
172.864820 17.000000
173.062040 47.000000
180.854390 17.000000
181.060380 20.000000
181.257290 29.000000
183.414550 28.000000
183.694410 17.000000
184.049270 245.000000
184.163410 19.000000
185.757840 17.000000
187.032410 22.000000
187.502140 25.000000
191.909870 23.000000
194.037120 76.000000
195.049580 25.000000
195.192310 23.000000
196.042770 17.000000
198.066190 29.000000
204.069080 18.000000
211.030900 23.000000
211.041210 54.000000
211.048980 17.000000
212.038190 102.000000
212.050810 189.000000
213.048800 105.000000
213.066470 39.000000
216.043690 18.000000
219.003620 17.000000
224.878080 17.000000
227.074630 52.000000
227.669850 48.000000
229.033570 39.000000
229.044600 44.000000
229.054230 57.000000
229.069850 24.000000
230.050420 51.000000
230.065030 33.000000
231.072450 26.000000
238.094300 28.000000
238.615020 18.000000
239.029370 54.000000
240.041870 287.000000
241.042560 70.000000
241.057330 57.000000
241.524830 17.000000
245.075130 29.000000
245.985290 31.000000
250.091420 18.000000
255.078370 18.000000
257.027740 20.000000
257.043180 181.000000
258.040950 80.000000
258.052830 338.000000
259.055850 19.000000
267.016970 25.000000
268.027860 51.000000
268.037630 82.000000
268.061770 25.000000
269.043330 150.000000
269.057800 44.000000
273.888980 20.000000
274.075230 19.000000
279.491790 29.000000
281.926910 30.000000
282.052640 17.000000
283.061610 58.000000
284.971130 18.000000
284.990780 37.000000
285.010620 81.000000
285.038360 1668.000000
285.137120 34.000000
285.320160 19.000000
285.365230 40.000000
286.005160 43.000000
286.047180 8732.000000
286.150270 19.000000
286.636900 20.000000
286.791140 17.000000
287.052370 1434.000000
287.329320 18.000000
287.852480 17.000000
288.022460 17.000000
288.044980 67.000000
288.065800 38.000000
288.631710 27.000000
288.946290 18.000000
289.041080 17.000000
289.061250 23.000000
289.483120 20.000000
290.066500 20.000000
290.863620 17.000000
299.288850 17.000000
300.057220 41.000000
301.025330 85.000000
301.071230 17293.000000
301.122190 232.000000

