>compound PR72768336
>parentmass 556.2173
>ionization [M+H]+
>formula C29H33NO10
>rt 280.200000
>profile qtof
#smiles_iso COC1=CC=C(C=C1)C2=COC3=C(C2=O)C=CC(=C3)OC4C(C(C(C(O4)COC(=O)CC5CCNCC5)O)O)O
#smiles_can COC1=CC=C(C=C1)C2=COC3=C(C2=O)C=CC(=C3)OC4C(C(C(C(O4)COC(=O)CC5CCNCC5)O)O)O
#inchikey PNOLBYVRLYUCIC-UHFFFAOYSA-N
#pubchem_id 139292014
#mb_accession PR310878

>ms2peaks
84.081360 80.000000
103.053540 21.000000
124.075990 20.000000
126.092250 25.000000
142.085750 18.000000
144.062070 22.000000
144.103910 99.000000
195.670670 32.000000
210.052860 19.000000
216.123430 18.000000
226.065460 22.000000
229.651580 35.000000
237.043910 17.000000
246.149550 25.000000
254.056490 25.000000
254.070470 30.000000
255.060680 17.000000
269.034330 41.000000
269.045070 23.000000
269.082280 3002.000000
270.083980 766.000000
270.117580 22.000000
271.070370 18.000000
271.100680 21.000000
272.347720 17.000000
287.131870 27.000000
288.147980 165.000000
289.146670 85.000000
313.418090 20.000000
350.120880 20.000000
405.076230 17.000000
555.577880 18.000000
556.054440 17.000000
556.079770 18.000000
556.146420 43.000000
556.173520 142.000000
556.218810 4948.000000

