>compound PR72500977
>parentmass 771.2099
>ionization [M+H]+
>formula C37H38O18
>rt 252.600000
>profile qtof
#smiles_iso COC1=C(C=CC(=C1)C=CC(=O)OCC2C(C(C(C(O2)OC3C(C(C(OC3C4=C(C5=C(C=C4O)OC(=CC5=O)C6=CC=C(C=C6)O)O)CO)O)O)O)O)O)O
#smiles_can COC1=C(C=CC(=C1)C=CC(=O)OCC2C(C(C(C(O2)OC3C(C(C(OC3C4=C(C5=C(C=C4O)OC(=CC5=O)C6=CC=C(C=C6)O)O)CO)O)O)O)O)O)O
#inchikey VJSPPRJRRDZQLT-UHFFFAOYSA-N
#pubchem_id 74977470
#mb_accession PR310986

>ms2peaks
147.041930 67.000000
177.046110 45.000000
177.053860 73.000000
177.061750 90.000000
178.063430 50.000000
195.056980 21.000000
259.153440 25.000000
271.041170 30.000000
271.068970 16.000000
283.064790 16.000000
295.063750 21.000000
313.074800 58.000000
314.071470 16.000000
321.099880 47.000000
325.060300 20.000000
337.063450 96.000000
337.077700 22.000000
339.118100 25.000000
343.080900 22.000000
344.080110 21.000000
367.083070 16.000000
379.086880 19.000000
397.087680 73.000000
398.080510 50.000000
409.102330 19.000000
433.064730 26.000000
433.077510 30.000000
433.111880 163.000000
437.221920 17.000000
445.044710 33.000000
453.977360 19.000000
463.113860 16.000000
595.145080 16.000000
652.145870 19.000000
694.198790 20.000000
753.211980 24.000000
771.134400 19.000000
771.172060 82.000000
771.208500 620.000000

