>compound PR72479836
>parentmass 595.1657469538463
>ionization [M+H]+
>formula C27H30O15
>rt 198.164326
>profile qtof
#smiles_iso C1=CC(=CC=C1C2=CC(=O)C3=C(C(=C(C(=C3O2)C4C(C(C(C(O4)CO)O)O)O)O)C5C(C(C(C(O5)CO)O)O)O)O)O
#smiles_can C1=CC(=CC=C1C2=CC(=O)C3=C(C(=C(C(=C3O2)C4C(C(C(C(O4)CO)O)O)O)O)C5C(C(C(C(O5)CO)O)O)O)O)O
#inchikey FIAAVMJLAGNUKW-UHFFFAOYSA-N
#pubchem_id 3084407
#mb_accession PR303341,PR303344,PR303347,PR303350,PR303353,PR303356,PR303359,PR303362,PR303365,PR303368,PR303371,PR303374,PR310993

>ms2
121.089220 7.000000
203.038120 7.000000
241.050830 8.000000
269.044190 10.000000
294.051270 23.000000
294.987880 15.000000
295.037750 12.000000
295.051570 48.000000
295.062380 63.000000
296.062290 45.000000
296.076870 10.000000
297.097020 10.000000
307.065340 40.000000
308.062260 19.000000
308.075100 16.000000
309.055210 10.000000
309.067990 11.000000
313.075620 10.000000
314.075560 19.000000
317.094880 7.000000
319.061100 15.000000
321.070740 39.000000
321.091190 21.000000
321.484440 16.000000
322.077820 7.000000
325.040860 24.000000
325.062930 98.000000
325.076900 115.000000
326.072200 35.000000
328.079740 11.000000
328.090910 11.000000
333.083370 7.000000
335.055240 8.000000
335.083680 16.000000
335.105620 8.000000
337.068240 217.000000
337.080750 70.000000
339.092010 9.000000
347.051880 10.000000
347.093230 15.000000
347.112880 7.000000
348.079900 9.000000
348.294740 7.000000
348.780880 13.000000
349.058750 17.000000
349.074860 48.000000
350.069520 17.000000
350.085170 18.000000
350.111910 7.000000
351.050480 9.000000
351.100430 13.000000
352.072080 7.000000
352.086980 13.000000
355.067140 24.000000
355.076020 48.000000
356.093260 23.000000
361.054930 19.000000
361.068180 22.000000
361.101100 11.000000
361.120700 20.000000
361.288270 10.000000
361.842860 7.000000
363.083400 32.000000
364.101590 7.000000
364.823150 7.000000
365.105440 19.000000
365.120120 7.000000
371.072810 10.000000
373.064150 27.000000
373.548310 7.000000
375.046480 10.000000
375.092290 30.000000
376.074550 10.000000
376.096370 7.000000
377.099700 15.000000
377.114290 9.000000
379.020940 7.000000
379.044130 17.000000
379.079470 75.000000
379.096010 59.000000
379.253780 9.000000
380.078610 39.000000
380.091980 16.000000
381.108280 11.000000
382.059570 10.000000
382.075650 7.000000
384.983060 10.000000
385.064820 9.000000
387.077910 13.000000
388.074950 12.000000
391.054870 9.000000
391.071560 53.000000
391.086000 59.000000
391.103120 9.000000
392.073090 21.000000
392.088290 7.000000
393.089720 8.000000
395.061100 9.000000
399.072420 7.000000
401.084050 8.000000
401.102970 8.000000
403.021390 7.000000
403.070220 87.000000
409.062350 8.000000
409.091190 81.000000
409.116520 33.000000
409.127870 11.000000
410.090300 29.000000
411.115940 12.000000
415.061830 8.000000
415.112520 7.000000
417.091490 16.000000
418.112580 9.000000
420.119050 12.000000
420.131680 8.000000
421.033690 7.000000
421.060420 13.000000
421.085330 67.000000
421.106320 16.000000
421.987670 7.000000
427.058560 19.000000
427.094820 24.000000
427.111080 23.000000
428.086980 22.000000
428.116880 12.000000
429.103210 11.000000
433.082030 13.000000
433.110470 10.000000
437.810550 7.000000
439.062230 8.000000
439.084230 20.000000
439.103550 71.000000
439.123290 16.000000
440.049590 7.000000
440.111910 8.000000
445.082920 13.000000
445.097750 10.000000
446.092900 14.000000
451.093630 14.000000
457.071660 14.000000
457.104860 131.000000
457.122740 162.000000
458.073120 15.000000
458.103180 51.000000
458.127590 41.000000
458.141940 12.000000
459.108370 12.000000
459.134400 16.000000
460.112610 8.000000
463.111150 17.000000
469.061220 10.000000
471.115660 8.000000
471.137910 10.000000
473.886510 12.000000
475.090030 10.000000
475.113740 54.000000
475.133970 69.000000
476.110570 17.000000
476.138520 18.000000
477.112580 7.000000
481.013670 11.000000
481.076540 28.000000
481.106410 86.000000
481.152680 7.000000
481.438960 7.000000
481.664340 8.000000
482.051760 8.000000
482.121610 15.000000
483.057740 7.000000
483.130490 12.000000
483.144440 12.000000
487.113680 28.000000
494.120510 8.000000
495.138850 7.000000
499.117550 25.000000
499.135070 15.000000
500.107330 14.000000
501.117740 12.000000
505.105190 25.000000
511.088530 8.000000
511.111600 8.000000
511.135590 44.000000
512.106930 8.000000
512.125370 7.000000
512.148250 9.000000
523.111630 24.000000
523.125550 92.000000
524.142150 12.000000
529.120120 35.000000
529.144710 12.000000
530.111510 19.000000
530.133240 10.000000
541.134580 37.000000
541.933290 10.000000
542.144470 21.000000
543.136960 21.000000
543.158450 12.000000
559.119930 17.000000
559.157230 65.000000
559.194030 10.000000
560.144170 28.000000
560.543520 7.000000
561.100710 15.000000
561.325810 8.000000
576.197510 7.000000
577.117310 28.000000
577.139340 121.000000
577.170720 126.000000
578.119870 15.000000
578.141480 8.000000
578.166140 18.000000
578.189450 15.000000
579.179690 40.000000
579.202510 8.000000
580.155820 14.000000
584.637080 7.000000
585.924010 7.000000
589.818600 7.000000
595.161440 1000.000000
595.271300 7.000000
595.321110 10.000000

>ms2
301.295960 6.000000
309.241000 5.000000
441.122380 5.000000
457.107600 16.000000
458.120450 7.000000
475.125700 12.000000
476.119080 7.000000
481.114290 7.000000
511.131260 5.000000
529.125310 6.000000
530.108700 9.000000
559.137390 15.000000
559.160580 8.000000
560.155330 5.000000
577.109070 9.000000
577.138610 30.000000
577.164490 83.000000
578.162540 22.000000
595.084410 6.000000
595.113400 15.000000
595.165470 1000.000000

>ms2
121.032090 23.000000
268.524380 35.000000
283.057250 15.000000
283.074250 15.000000
284.063080 26.000000
295.028560 24.000000
295.053220 181.000000
295.068300 191.000000
296.043610 18.000000
296.058350 48.000000
296.069890 24.000000
301.955750 22.000000
307.044310 55.000000
307.059630 225.000000
307.083100 21.000000
307.381010 15.000000
308.054230 74.000000
308.073330 74.000000
309.068730 15.000000
310.080660 42.000000
312.068240 19.000000
313.053960 18.000000
313.071470 22.000000
319.059690 26.000000
319.421660 18.000000
323.058500 22.000000
325.055150 163.000000
325.075230 1000.000000
325.462800 20.000000
325.576540 18.000000
326.073520 205.000000
326.177670 15.000000
326.230770 19.000000
327.080260 20.000000
328.085570 18.000000
333.085080 15.000000
335.048460 20.000000
335.078280 34.000000
336.093050 40.000000
336.111110 17.000000
337.071440 436.000000
338.058780 15.000000
338.078890 40.000000
339.098080 17.000000
339.263850 15.000000
343.088750 35.000000
347.089660 28.000000
347.099300 23.000000
347.600490 17.000000
349.026640 19.000000
349.054410 88.000000
349.069580 244.000000
349.090550 43.000000
350.091920 19.000000
351.082670 65.000000
351.097930 26.000000
353.059840 17.000000
353.077850 48.000000
355.072450 138.000000
355.086790 82.000000
356.071500 57.000000
356.102970 15.000000
357.079250 54.000000
361.020720 38.000000
361.035800 21.000000
361.065770 143.000000
361.085300 57.000000
362.074620 74.000000
363.089110 81.000000
364.104830 21.000000
365.102480 39.000000
366.103940 50.000000
367.083980 43.000000
368.088560 16.000000
371.272060 20.000000
373.072480 23.000000
373.092930 28.000000
375.062930 15.000000
376.037510 15.000000
376.085970 22.000000
377.064330 42.000000
377.105900 25.000000
379.077580 841.000000
379.094760 339.000000
380.058560 63.000000
380.077000 148.000000
380.092680 142.000000
380.586910 22.000000
381.065610 25.000000
382.073120 16.000000
385.048430 26.000000
385.077580 28.000000
385.100310 22.000000
386.066830 28.000000
387.045560 15.000000
389.051610 18.000000
389.063750 38.000000
389.088010 36.000000
389.443270 15.000000
391.062350 193.000000
391.088200 244.000000
392.078490 114.000000
392.093930 105.000000
393.455570 15.000000
394.099760 37.000000
395.095980 15.000000
400.953550 29.000000
401.105590 15.000000
401.123540 22.000000
403.044590 15.000000
403.083340 280.000000
403.102230 36.000000
404.015930 18.000000
404.085600 59.000000
404.109830 59.000000
405.095920 18.000000
407.079800 24.000000
409.055600 34.000000
409.093720 680.000000
410.056610 22.000000
410.092620 170.000000
410.118990 28.000000
412.718200 23.000000
415.072780 55.000000
415.093410 35.000000
417.106410 18.000000
417.148160 24.000000
418.115360 18.000000
419.095460 17.000000
421.030880 20.000000
421.063900 28.000000
421.082640 123.000000
421.101380 63.000000
421.126560 45.000000
422.065250 19.000000
422.080350 65.000000
422.098180 16.000000
423.099950 27.000000
424.112120 17.000000
427.067200 60.000000
427.092900 204.000000
427.113620 207.000000
427.949250 18.000000
428.102290 125.000000
428.838290 17.000000
429.082120 59.000000
429.108890 18.000000
430.107970 22.000000
430.123720 21.000000
430.199520 31.000000
431.080840 21.000000
431.109800 73.000000
431.132660 18.000000
431.513700 15.000000
432.108980 22.000000
432.124940 20.000000
433.093480 32.000000
433.109040 28.000000
434.112920 24.000000
435.032290 17.000000
439.049470 17.000000
439.100950 498.000000
439.135160 17.000000
440.128110 26.000000
441.107730 38.000000
442.113590 41.000000
445.096680 77.000000
445.110380 45.000000
449.132660 40.000000
451.120850 45.000000
457.052310 15.000000
457.092560 236.000000
457.123690 130.000000
458.099300 28.000000
458.118560 108.000000
459.110930 32.000000
463.090090 22.000000
463.108760 77.000000
464.114900 34.000000
465.262390 20.000000
467.112300 22.000000
469.080170 53.000000
469.143520 21.000000
470.064640 18.000000
475.079650 28.000000
475.099850 32.000000
475.124760 46.000000
478.122010 22.000000
481.071840 73.000000
481.116000 202.000000
481.812930 18.000000
482.103610 21.000000
482.136020 44.000000
483.128720 21.000000
487.097840 133.000000
493.042760 15.000000
493.075710 30.000000
493.097440 22.000000
493.110230 21.000000
493.130680 24.000000
499.143520 18.000000
500.127620 52.000000
504.954680 15.000000
505.096650 37.000000
505.118230 125.000000
506.115420 25.000000
507.137600 15.000000
510.148680 22.000000
511.110530 67.000000
512.098880 17.000000
512.112730 18.000000
523.093200 34.000000
523.111450 61.000000
523.138310 116.000000
524.106750 15.000000
524.139160 68.000000
528.222110 15.000000
529.137760 34.000000
529.158940 25.000000
541.128850 138.000000
542.116030 15.000000
542.140870 22.000000
542.172060 15.000000
559.146300 19.000000
577.820370 27.000000
595.158870 33.000000
595.177980 48.000000

>ms2
52.219610 21.000000
81.030370 29.000000
93.034280 28.000000
106.628310 50.000000
119.044800 44.000000
121.028580 82.000000
122.034650 30.000000
139.579220 37.000000
145.029510 40.000000
146.061490 29.000000
147.043610 33.000000
159.038540 22.000000
159.080060 48.000000
161.021700 28.000000
161.031130 28.000000
163.075740 32.000000
175.044950 22.000000
177.013150 28.000000
177.024140 44.000000
183.038500 27.000000
186.031230 24.000000
189.025340 28.000000
189.043850 37.000000
191.033830 46.000000
193.858260 27.000000
197.024280 40.000000
197.044980 24.000000
198.071150 26.000000
199.045880 27.000000
201.023650 104.000000
202.022780 48.000000
203.033510 170.000000
203.044890 67.000000
203.073520 51.000000
204.042910 69.000000
205.029050 30.000000
207.027530 52.000000
211.034790 30.000000
211.699540 27.000000
214.023900 26.000000
215.038930 70.000000
215.070980 24.000000
219.018490 42.000000
219.036100 20.000000
226.950590 19.000000
227.039170 37.000000
229.044820 82.000000
231.056350 22.000000
233.033630 20.000000
235.583250 20.000000
239.040560 49.000000
241.012100 34.000000
241.057950 47.000000
244.032970 33.000000
245.039830 71.000000
247.062480 31.000000
251.059370 42.000000
251.073200 29.000000
253.031910 31.000000
255.032730 44.000000
255.080180 31.000000
257.049710 20.000000
257.080780 20.000000
263.064540 37.000000
265.049960 26.000000
267.031860 65.000000
267.072330 26.000000
268.079560 20.000000
269.061950 39.000000
272.070530 26.000000
273.104920 27.000000
279.052950 46.000000
279.081730 19.000000
280.025120 20.000000
281.043550 101.000000
281.074680 28.000000
282.040710 29.000000
282.069580 20.000000
282.087710 75.000000
283.036220 37.000000
283.068450 22.000000
284.062010 74.000000
284.405640 23.000000
285.037750 33.000000
290.486760 19.000000
291.065950 33.000000
292.081760 20.000000
292.833280 33.000000
293.051910 44.000000
293.091670 64.000000
294.048490 201.000000
294.088780 33.000000
295.010530 30.000000
295.026950 29.000000
295.043090 119.000000
295.060520 1000.000000
295.094210 48.000000
296.047970 43.000000
296.064360 119.000000
296.079350 40.000000
296.093410 19.000000
297.020870 22.000000
297.040650 20.000000
297.067570 101.000000
297.083650 57.000000
305.071590 48.000000
305.118800 22.000000
306.086580 40.000000
307.057950 442.000000
307.072690 178.000000
308.060000 312.000000
308.074650 223.000000
308.577670 27.000000
309.075650 194.000000
309.102480 19.000000
310.072910 22.000000
311.058900 113.000000
313.077940 22.000000
314.102260 46.000000
317.076290 50.000000
319.054530 142.000000
319.074100 20.000000
320.060670 92.000000
321.031520 27.000000
321.068360 346.000000
321.085050 184.000000
322.047060 47.000000
322.067750 59.000000
322.085170 241.000000
322.102480 48.000000
322.287720 26.000000
322.364620 20.000000
323.066740 51.000000
323.086730 88.000000
323.102600 34.000000
324.993930 21.000000
325.031520 37.000000
325.069460 879.000000
325.088590 181.000000
326.056820 64.000000
326.078580 69.000000
326.367980 23.000000
327.077730 24.000000
327.100590 22.000000
332.062930 63.000000
333.077850 54.000000
335.062230 27.000000
335.081790 100.000000
335.096040 162.000000
336.053010 51.000000
336.071750 41.000000
336.095860 101.000000
337.053500 73.000000
337.068540 129.000000
337.082790 147.000000
338.048310 19.000000
338.093480 22.000000
338.108430 19.000000
339.081330 44.000000
340.090700 33.000000
345.029140 31.000000
346.878600 24.000000
347.084050 79.000000
347.108150 20.000000
349.036830 28.000000
349.064510 143.000000
349.079410 38.000000
350.062380 29.000000
350.080440 144.000000
351.052800 74.000000
351.093540 200.000000
351.190580 21.000000
352.065520 23.000000
352.085540 78.000000
352.395840 19.000000
353.052000 23.000000
356.070920 38.000000
357.085910 30.000000
357.109070 19.000000
358.078370 44.000000
361.076750 147.000000
361.112120 28.000000
362.108800 31.000000
363.069370 23.000000
363.087130 120.000000
363.107360 44.000000
365.059910 22.000000
365.082640 30.000000
365.110500 62.000000
367.069270 59.000000
367.077610 23.000000
368.072810 28.000000
371.085690 51.000000
373.068600 26.000000
373.507900 20.000000
375.046570 57.000000
375.083070 81.000000
375.097840 39.000000
376.109070 20.000000
379.072690 93.000000
379.087460 23.000000
379.107240 26.000000
381.087070 29.000000
385.079040 61.000000
387.044430 33.000000
387.089230 59.000000
388.126500 29.000000
391.074160 50.000000
391.095250 27.000000
391.684360 34.000000
392.070830 22.000000
393.082460 26.000000
393.187930 19.000000
399.122470 29.000000
401.087370 29.000000
402.109280 38.000000
403.073180 26.000000
403.976620 24.000000
406.089020 46.000000
407.116580 24.000000
409.090420 58.000000
417.098970 30.000000
427.091550 20.000000
502.287690 21.000000
595.148500 31.000000
595.171880 141.000000

>ms2
54.590280 9.000000
89.659480 8.000000
177.050750 9.000000
199.039840 9.000000
200.055160 8.000000
215.033660 6.000000
227.028060 11.000000
242.988190 9.000000
252.617450 6.000000
267.048830 7.000000
280.067540 10.000000
283.051270 8.000000
283.678280 8.000000
285.048980 15.000000
294.047180 27.000000
295.035280 6.000000
295.060970 132.000000
296.069400 7.000000
296.092320 9.000000
307.048610 29.000000
307.069210 36.000000
308.075200 11.000000
309.033200 6.000000
309.081760 6.000000
313.076780 7.000000
315.958500 6.000000
316.751860 5.000000
319.562380 11.000000
320.067200 8.000000
320.103670 7.000000
321.089260 14.000000
322.084230 7.000000
323.050660 10.000000
323.116490 6.000000
324.058010 7.000000
325.040920 9.000000
325.073490 224.000000
326.074220 48.000000
326.094940 10.000000
328.653870 6.000000
329.079990 5.000000
333.073030 14.000000
335.095860 17.000000
337.068730 147.000000
337.088260 24.000000
337.823300 8.000000
338.073490 32.000000
338.102330 10.000000
343.095060 11.000000
345.067780 8.000000
347.096100 19.000000
348.086300 9.000000
349.043640 8.000000
349.064420 26.000000
350.065340 23.000000
351.061520 13.000000
351.079930 30.000000
351.092930 23.000000
352.086000 7.000000
352.580540 8.000000
354.975340 18.000000
355.060390 11.000000
355.084230 53.000000
358.082090 12.000000
361.071410 16.000000
361.104190 9.000000
362.085270 26.000000
363.097810 7.000000
365.043330 6.000000
365.064300 11.000000
365.081210 7.000000
365.110660 15.000000
365.121430 5.000000
366.082610 13.000000
367.085600 15.000000
367.112950 9.000000
368.086210 10.000000
368.097990 10.000000
371.706510 8.000000
373.053310 7.000000
373.076140 32.000000
375.061100 9.000000
375.088710 39.000000
376.063080 14.000000
376.147890 13.000000
379.034580 14.000000
379.062560 58.000000
379.082430 194.000000
380.076230 23.000000
380.085690 9.000000
384.177610 6.000000
385.069790 20.000000
388.787200 6.000000
388.925350 6.000000
389.099850 8.000000
390.127750 15.000000
391.073210 66.000000
391.099980 12.000000
391.818420 9.000000
392.077270 7.000000
393.119080 6.000000
393.266330 8.000000
401.108310 7.000000
403.056000 21.000000
403.083040 104.000000
404.048190 7.000000
404.074490 10.000000
404.094570 21.000000
407.105440 5.000000
409.049290 9.000000
409.087160 148.000000
409.106720 46.000000
410.031890 11.000000
410.083620 20.000000
410.100980 36.000000
411.109500 14.000000
411.410680 7.000000
415.120270 6.000000
416.071840 6.000000
417.110470 9.000000
419.071930 9.000000
421.093990 107.000000
421.117310 8.000000
422.070590 8.000000
422.106260 8.000000
423.080260 6.000000
423.097230 6.000000
424.485690 6.000000
425.086060 5.000000
427.076390 10.000000
427.100100 89.000000
428.100620 19.000000
428.137150 7.000000
430.732540 7.000000
431.123470 14.000000
433.076970 7.000000
433.101010 11.000000
434.103850 6.000000
434.315460 5.000000
439.083190 5.000000
439.102720 55.000000
439.118840 26.000000
440.104430 5.000000
441.091430 7.000000
441.106540 6.000000
445.095460 15.000000
445.115170 8.000000
445.795290 8.000000
446.073390 16.000000
446.104770 17.000000
447.124910 9.000000
449.126680 11.000000
457.074010 9.000000
457.116700 370.000000
458.067780 6.000000
458.109800 74.000000
458.139620 34.000000
459.124690 10.000000
463.092680 19.000000
463.111660 15.000000
470.062530 12.000000
475.112150 28.000000
475.131740 76.000000
475.193050 7.000000
475.620150 6.000000
475.981230 7.000000
476.050840 8.000000
476.123320 19.000000
477.108280 15.000000
481.048250 5.000000
481.117680 80.000000
482.005550 7.000000
482.101620 19.000000
482.144100 9.000000
485.105500 8.000000
487.100740 14.000000
490.096440 9.000000
495.115880 7.000000
499.110570 22.000000
499.146700 8.000000
499.157870 17.000000
499.227290 6.000000
500.098050 8.000000
500.118650 6.000000
505.120180 24.000000
506.071290 5.000000
506.114320 24.000000
511.099790 28.000000
511.127040 43.000000
511.149290 15.000000
512.110230 7.000000
512.128660 7.000000
523.122990 111.000000
524.113100 9.000000
524.131230 17.000000
525.129700 5.000000
529.122190 60.000000
529.144650 19.000000
530.121090 6.000000
531.139220 5.000000
532.159420 6.000000
541.077090 10.000000
541.137020 107.000000
542.126950 7.000000
542.169560 5.000000
543.133000 10.000000
543.161680 13.000000
547.986760 6.000000
557.057250 8.000000
559.133970 61.000000
559.156310 49.000000
560.138180 36.000000
560.164370 13.000000
561.130680 10.000000
561.156130 22.000000
577.097840 8.000000
577.135010 66.000000
577.157470 289.000000
578.093630 7.000000
578.127260 31.000000
578.156980 69.000000
578.183110 22.000000
579.127750 6.000000
579.166320 13.000000
591.113650 6.000000
594.522830 7.000000
595.102110 20.000000
595.170470 1000.000000

>ms2
433.305730 5.000000
457.118590 31.000000
457.152620 7.000000
459.138790 8.000000
475.129610 15.000000
476.120030 6.000000
511.128910 12.000000
523.103760 6.000000
523.127560 6.000000
529.132570 8.000000
559.139590 29.000000
577.145750 72.000000
577.169310 80.000000
578.142150 13.000000
578.157710 14.000000
578.174560 8.000000
579.158330 5.000000
595.106750 18.000000
595.167970 1000.000000

>ms2
85.030400 19.000000
103.037930 13.000000
107.710550 22.000000
163.038700 16.000000
184.570530 15.000000
231.210820 14.000000
233.579650 53.000000
259.697910 27.000000
291.047150 18.000000
294.042420 23.000000
294.989290 19.000000
295.045620 34.000000
295.065030 102.000000
296.056850 15.000000
296.079010 42.000000
299.096010 15.000000
307.061400 202.000000
307.960820 13.000000
308.063080 53.000000
308.079440 20.000000
309.072750 24.000000
310.092350 13.000000
310.176060 15.000000
312.969940 34.000000
313.067500 36.000000
321.058930 22.000000
322.096040 13.000000
324.841550 18.000000
325.036830 17.000000
325.072080 1000.000000
326.052700 15.000000
326.078370 177.000000
326.418030 19.000000
327.072850 26.000000
327.092830 15.000000
327.139560 17.000000
329.089260 24.000000
333.081760 32.000000
337.053920 122.000000
337.073490 173.000000
338.062160 24.000000
338.078640 42.000000
338.089870 22.000000
339.015660 13.000000
347.091000 68.000000
348.092500 27.000000
348.109160 15.000000
348.155000 13.000000
348.834900 14.000000
349.069950 193.000000
349.082030 166.000000
350.071410 67.000000
350.084050 30.000000
351.035580 20.000000
351.055240 31.000000
351.075040 78.000000
351.092440 13.000000
351.442570 13.000000
353.054600 21.000000
355.077120 207.000000
355.092220 60.000000
356.090090 73.000000
360.060820 32.000000
361.043460 18.000000
361.073000 103.000000
361.087100 49.000000
362.054840 25.000000
362.070620 24.000000
362.086760 37.000000
363.072880 64.000000
363.090880 96.000000
365.075040 20.000000
365.100920 53.000000
366.119350 35.000000
373.050320 18.000000
373.074220 43.000000
375.019960 47.000000
375.098540 41.000000
376.101040 39.000000
377.423250 23.000000
379.035800 19.000000
379.071900 408.000000
379.087400 446.000000
380.081390 185.000000
381.079800 20.000000
385.067440 15.000000
388.095250 21.000000
389.059270 14.000000
389.097050 21.000000
391.047360 16.000000
391.077610 294.000000
391.092070 89.000000
392.067380 14.000000
392.092960 150.000000
393.025670 13.000000
393.081570 33.000000
397.078740 57.000000
397.102360 16.000000
399.288150 17.000000
403.072080 116.000000
403.091250 218.000000
404.066680 20.000000
404.087280 13.000000
404.104220 13.000000
405.613770 15.000000
409.070530 96.000000
409.085970 284.000000
409.100070 335.000000
410.096890 50.000000
410.213750 21.000000
411.955780 19.000000
412.122070 13.000000
413.123720 27.000000
415.070400 30.000000
415.107820 18.000000
415.509000 13.000000
416.108180 20.000000
417.103450 51.000000
419.068510 20.000000
421.093690 351.000000
422.087830 44.000000
423.077640 22.000000
424.088100 16.000000
427.034730 15.000000
427.068080 27.000000
427.091740 222.000000
427.107700 251.000000
428.116790 21.000000
429.095400 50.000000
430.108340 21.000000
431.113250 19.000000
431.133640 27.000000
433.098110 72.000000
434.094270 16.000000
435.103580 34.000000
437.093050 22.000000
438.081790 13.000000
439.100770 251.000000
439.117460 70.000000
440.109100 40.000000
441.093870 43.000000
441.116490 40.000000
443.075100 15.000000
445.080810 31.000000
445.107210 61.000000
445.133790 16.000000
446.102910 48.000000
447.074370 15.000000
447.091460 29.000000
449.108890 21.000000
449.125980 33.000000
450.117160 23.000000
450.720490 15.000000
451.095150 13.000000
452.102630 14.000000
457.090850 133.000000
457.123440 173.000000
458.045810 18.000000
458.100040 24.000000
458.126950 99.000000
459.113770 15.000000
459.125820 44.000000
462.077150 26.000000
463.052090 15.000000
463.086610 94.000000
463.109470 33.000000
464.091220 21.000000
464.109990 33.000000
464.126400 22.000000
465.110470 21.000000
467.112820 13.000000
469.084350 93.000000
470.115970 13.000000
475.072390 39.000000
475.090060 30.000000
475.116910 80.000000
481.056300 15.000000
481.116390 173.000000
481.143680 20.000000
482.113100 88.000000
482.431000 26.000000
487.099880 65.000000
487.125240 27.000000
488.103420 16.000000
488.130770 15.000000
489.611970 15.000000
497.099640 13.000000
499.112550 13.000000
499.141170 25.000000
499.159300 24.000000
500.142700 22.000000
505.115260 53.000000
506.090000 24.000000
506.103120 25.000000
506.120880 15.000000
509.127470 13.000000
511.113860 109.000000
511.135620 17.000000
512.132080 18.000000
523.119510 185.000000
524.102360 53.000000
524.142460 64.000000
530.141360 21.000000
541.118040 27.000000
541.138240 16.000000
541.169190 26.000000
541.313420 15.000000
542.122800 15.000000
542.134220 24.000000
543.139470 24.000000
559.135500 47.000000

>ms2
73.027740 23.000000
81.033700 16.000000
84.016940 24.000000
85.032190 34.000000
93.037620 32.000000
119.046740 40.000000
121.026540 125.000000
121.035540 28.000000
131.054150 24.000000
163.037730 20.000000
174.027250 74.000000
175.001390 19.000000
175.041550 27.000000
177.021550 25.000000
179.038700 39.000000
187.036610 105.000000
189.014920 29.000000
189.023040 19.000000
190.040560 26.000000
191.036960 26.000000
193.638700 23.000000
197.413300 19.000000
198.036940 29.000000
201.006610 17.000000
201.063080 20.000000
203.024290 21.000000
203.036330 35.000000
203.045470 32.000000
204.041810 23.000000
205.046860 35.000000
207.036480 33.000000
211.041470 57.000000
212.085490 20.000000
214.059740 20.000000
215.036830 37.000000
219.005160 38.000000
219.029750 73.000000
219.042110 32.000000
220.064610 30.000000
220.551330 23.000000
223.112560 23.000000
225.063020 26.000000
229.048870 55.000000
231.031540 22.000000
233.009690 19.000000
233.039730 19.000000
233.053710 40.000000
239.027970 31.000000
239.040010 30.000000
243.026760 40.000000
247.069820 18.000000
253.094440 25.000000
254.425190 19.000000
255.029660 86.000000
255.038790 34.000000
255.073070 29.000000
257.050810 27.000000
257.060940 40.000000
262.066740 28.000000
262.308470 16.000000
263.068050 33.000000
263.080230 17.000000
267.065340 18.000000
268.048800 41.000000
268.064790 27.000000
269.087400 63.000000
272.506840 29.000000
274.262660 19.000000
277.081360 45.000000
279.064790 34.000000
280.081210 16.000000
281.080900 105.000000
281.102510 20.000000
282.085850 54.000000
283.055690 47.000000
283.107300 31.000000
285.039220 54.000000
290.085390 17.000000
293.052920 24.000000
293.097170 17.000000
294.035550 90.000000
294.053040 277.000000
294.085450 42.000000
295.027440 60.000000
295.058870 1000.000000
295.081700 52.000000
295.099760 40.000000
295.999820 17.000000
296.052610 83.000000
296.061890 188.000000
296.076420 80.000000
297.043210 21.000000
297.068360 105.000000
297.096500 42.000000
299.071810 24.000000
300.052400 19.000000
302.106350 34.000000
304.952060 17.000000
305.051210 18.000000
305.080720 58.000000
306.728030 27.000000
307.039520 52.000000
307.060610 379.000000
307.071690 121.000000
307.095430 26.000000
307.909520 19.000000
307.996580 28.000000
308.035550 26.000000
308.057220 51.000000
308.074040 156.000000
308.412450 19.000000
309.016020 22.000000
309.055630 56.000000
309.065700 61.000000
309.083770 129.000000
310.079040 100.000000
310.177760 19.000000
313.072420 36.000000
317.090180 21.000000
318.092990 19.000000
319.045560 19.000000
319.061680 17.000000
319.108430 21.000000
320.048370 20.000000
320.072450 105.000000
320.104770 24.000000
320.992370 17.000000
321.072880 247.000000
321.087890 172.000000
322.046720 26.000000
322.075290 171.000000
322.090330 47.000000
323.027130 19.000000
323.042180 34.000000
323.086820 124.000000
324.093260 23.000000
325.013850 20.000000
325.057460 148.000000
325.074280 656.000000
325.622010 23.000000
326.078120 141.000000
327.070920 38.000000
327.082890 46.000000
328.066190 22.000000
329.097230 38.000000
331.052090 27.000000
333.005740 27.000000
333.064120 59.000000
333.084170 197.000000
334.083500 26.000000
335.071290 45.000000
335.097170 146.000000
336.079960 16.000000
337.069890 185.000000
337.085630 111.000000
338.072140 34.000000
339.040370 28.000000
339.088960 20.000000
340.083130 47.000000
340.110600 26.000000
340.800380 16.000000
343.095120 34.000000
346.071590 36.000000
347.058320 51.000000
347.089750 69.000000
347.101720 38.000000
347.115910 30.000000
348.104280 33.000000
349.070310 165.000000
349.091890 17.000000
350.070310 73.000000
350.088750 64.000000
351.045440 16.000000
351.064610 27.000000
351.087130 368.000000
351.431610 22.000000
352.074830 57.000000
352.093960 46.000000
353.095520 22.000000
355.091550 24.000000
357.087740 34.000000
358.072080 36.000000
359.110630 17.000000
361.057620 68.000000
361.075740 206.000000
361.103550 58.000000
361.138790 21.000000
362.063480 26.000000
362.090610 35.000000
363.071080 24.000000
363.084230 17.000000
365.108060 97.000000
366.106020 29.000000
367.078060 20.000000
367.092990 40.000000
373.081510 159.000000
374.070590 39.000000
375.030790 35.000000
375.076350 54.000000
375.097600 27.000000
376.066010 21.000000
377.067170 19.000000
379.068210 32.000000
379.084470 154.000000
380.090060 24.000000
384.103330 26.000000
385.079380 20.000000
387.065430 16.000000
387.097500 18.000000
387.110170 22.000000
391.033050 43.000000
391.082150 74.000000
392.041140 20.000000
396.998380 17.000000
401.101440 31.000000
403.077880 50.000000
404.068940 17.000000
405.091220 20.000000
405.107480 33.000000
408.104370 22.000000
409.096890 22.000000
414.116060 34.000000
415.095210 21.000000
417.092930 26.000000
418.101900 16.000000
419.105560 27.000000
427.090970 19.000000
429.088960 34.000000
433.087100 16.000000
435.453740 18.000000
439.083830 25.000000
447.110470 21.000000
457.048550 20.000000
459.079440 20.000000

>ms2
121.023040 11.000000
148.348160 9.000000
191.038300 7.000000
229.816150 10.000000
239.029830 10.000000
243.065080 9.000000
281.084260 6.000000
289.052920 6.000000
292.065520 8.000000
294.052700 17.000000
295.017150 7.000000
295.057770 104.000000
295.067900 65.000000
296.058590 7.000000
306.099330 10.000000
307.045810 9.000000
307.063290 45.000000
308.048030 7.000000
308.064060 8.000000
309.064450 10.000000
309.081300 12.000000
309.668210 7.000000
310.038020 14.000000
311.062870 7.000000
321.062710 7.000000
322.073910 18.000000
322.091520 6.000000
323.060700 8.000000
325.066710 162.000000
325.086090 25.000000
326.083250 50.000000
327.075440 7.000000
327.084350 22.000000
329.076290 10.000000
333.063570 8.000000
336.052280 12.000000
336.100520 14.000000
337.051330 40.000000
337.075130 40.000000
337.285160 7.000000
337.388790 8.000000
338.061000 11.000000
338.087860 37.000000
347.080840 8.000000
349.070370 132.000000
349.089230 11.000000
350.063600 11.000000
350.087710 6.000000
351.078610 52.000000
351.104370 24.000000
355.047850 8.000000
355.078670 30.000000
357.076600 10.000000
360.234800 9.000000
361.050320 14.000000
362.072570 10.000000
363.073880 8.000000
363.092900 9.000000
365.104460 42.000000
366.097840 6.000000
366.125430 18.000000
367.085450 7.000000
372.803710 6.000000
373.064150 13.000000
375.088320 30.000000
376.101750 8.000000
377.097260 7.000000
378.045500 10.000000
378.074250 9.000000
378.414250 7.000000
378.837100 7.000000
379.044280 9.000000
379.080570 209.000000
380.082180 17.000000
380.096070 19.000000
381.206570 6.000000
381.512330 7.000000
385.068970 17.000000
386.071170 6.000000
390.952420 10.000000
391.078580 85.000000
392.080720 10.000000
392.092070 12.000000
392.104920 11.000000
394.506680 10.000000
399.070950 10.000000
401.099270 14.000000
402.075500 14.000000
403.056370 12.000000
403.078310 19.000000
403.088840 43.000000
403.138980 6.000000
404.081390 24.000000
404.101140 10.000000
405.037110 11.000000
405.091460 9.000000
406.071660 8.000000
409.011570 10.000000
409.088380 120.000000
409.110260 13.000000
410.083010 13.000000
410.104400 61.000000
410.124480 13.000000
410.739350 12.000000
413.053190 11.000000
415.085910 10.000000
416.069640 14.000000
416.088960 7.000000
417.074430 7.000000
417.095000 6.000000
419.069850 8.000000
420.107360 10.000000
421.032170 6.000000
421.058170 16.000000
421.088560 30.000000
421.107120 25.000000
422.082860 22.000000
422.112150 7.000000
423.089480 8.000000
423.107150 8.000000
427.031740 8.000000
427.066830 10.000000
427.087710 71.000000
427.113460 71.000000
428.080510 21.000000
428.106870 24.000000
430.108280 16.000000
431.103000 11.000000
433.021820 8.000000
433.091980 8.000000
433.109470 8.000000
436.490510 7.000000
439.104160 120.000000
440.103760 22.000000
445.087370 11.000000
445.104030 46.000000
445.136200 6.000000
446.091060 7.000000
446.123200 10.000000
449.119290 8.000000
450.140840 8.000000
457.057010 10.000000
457.108180 226.000000
457.127590 103.000000
457.148380 15.000000
458.104100 37.000000
458.123660 50.000000
459.074370 9.000000
459.097930 7.000000
459.128630 19.000000
460.128600 8.000000
460.189060 6.000000
463.091000 13.000000
463.107700 16.000000
469.070770 19.000000
469.091060 21.000000
471.882390 6.000000
475.088260 9.000000
475.122310 54.000000
475.143340 21.000000
475.177580 8.000000
476.131410 14.000000
477.130370 26.000000
481.115360 89.000000
481.136410 18.000000
482.123200 23.000000
482.134950 9.000000
483.105070 12.000000
488.016630 10.000000
488.123990 14.000000
493.118190 7.000000
495.109310 9.000000
499.115390 65.000000
499.138580 8.000000
500.053990 7.000000
500.134890 17.000000
501.140500 10.000000
505.120510 26.000000
506.127470 6.000000
511.127900 93.000000
512.128600 12.000000
512.928100 7.000000
513.106630 7.000000
513.129640 25.000000
523.113530 43.000000
524.119450 9.000000
525.145260 12.000000
526.134090 6.000000
529.115480 14.000000
529.132390 43.000000
529.167720 6.000000
530.137450 16.000000
530.167480 6.000000
531.139890 6.000000
532.149350 12.000000
541.101990 7.000000
541.137760 45.000000
541.162900 34.000000
542.135310 11.000000
543.136600 7.000000
543.166630 6.000000
559.105040 14.000000
559.145200 101.000000
560.146180 35.000000
561.136470 6.000000
561.156680 7.000000
573.826660 8.000000
574.580630 14.000000
577.099300 18.000000
577.121220 28.000000
577.162600 239.000000
578.129880 11.000000
578.165220 127.000000
579.084530 9.000000
579.170040 11.000000
595.102910 25.000000
595.164980 1000.000000
595.235660 30.000000

>ms2
391.092560 8.000000
457.107480 21.000000
457.124540 23.000000
475.097750 5.000000
475.130400 20.000000
499.098330 5.000000
511.096770 5.000000
530.162840 6.000000
541.139400 11.000000
559.148380 18.000000
559.174320 5.000000
560.165710 6.000000
577.158330 138.000000
578.164610 38.000000
579.157100 11.000000
579.182980 7.000000
595.097410 15.000000
595.168030 1000.000000

>ms2
103.045080 13.000000
115.422100 14.000000
190.021590 16.000000
196.155900 13.000000
294.046170 23.000000
295.059050 164.000000
296.058440 93.000000
296.072360 34.000000
297.086300 19.000000
307.063660 259.000000
308.054050 16.000000
309.034550 24.000000
309.054050 27.000000
311.048830 13.000000
313.066890 40.000000
314.073300 16.000000
323.052340 51.000000
325.073790 1000.000000
325.096100 45.000000
325.116420 18.000000
326.060970 62.000000
326.075710 89.000000
333.099120 16.000000
335.090480 13.000000
337.041440 23.000000
337.062100 217.000000
337.075200 295.000000
338.047910 23.000000
338.070250 24.000000
338.080660 30.000000
338.092680 19.000000
339.050140 15.000000
339.090390 47.000000
342.601380 15.000000
347.505580 14.000000
348.069340 16.000000
349.065800 357.000000
349.078160 125.000000
349.094940 34.000000
350.060970 33.000000
350.084500 116.000000
351.043670 20.000000
351.093050 69.000000
351.898440 19.000000
352.078640 31.000000
355.042390 20.000000
355.061430 56.000000
355.075990 167.000000
355.087490 155.000000
356.079500 30.000000
356.095460 59.000000
361.013180 14.000000
361.071660 128.000000
361.556150 33.000000
363.062350 23.000000
365.068820 16.000000
365.093510 36.000000
365.104980 22.000000
366.081540 29.000000
366.111630 49.000000
367.082090 31.000000
367.093840 24.000000
368.089290 21.000000
373.080050 16.000000
375.044950 44.000000
375.087070 60.000000
377.058530 32.000000
379.044430 16.000000
379.080900 766.000000
379.153170 19.000000
380.084410 243.000000
380.096740 104.000000
381.082400 58.000000
385.075440 30.000000
386.042880 14.000000
387.081970 21.000000
387.121120 14.000000
388.354740 16.000000
389.047820 24.000000
389.102510 21.000000
391.053040 40.000000
391.083950 432.000000
392.079220 152.000000
393.103300 13.000000
395.684020 13.000000
397.072910 15.000000
397.085170 22.000000
398.093750 24.000000
401.111020 19.000000
402.097020 14.000000
403.087590 218.000000
403.127780 21.000000
404.005920 13.000000
404.069730 90.000000
404.087400 26.000000
404.104640 16.000000
405.096310 17.000000
409.043180 23.000000
409.089480 492.000000
409.130040 13.000000
409.196320 19.000000
410.091460 95.000000
410.112820 21.000000
411.086330 16.000000
411.098820 13.000000
415.074650 54.000000
415.088650 33.000000
415.111820 26.000000
417.044070 16.000000
417.060420 26.000000
417.099240 32.000000
417.116330 24.000000
418.102080 27.000000
419.084010 19.000000
421.082580 97.000000
421.100710 426.000000
422.095250 91.000000
422.111880 31.000000
423.094700 37.000000
423.104400 18.000000
425.102910 29.000000
427.098080 518.000000
427.137360 32.000000
428.068450 19.000000
428.107060 188.000000
428.174350 13.000000
429.092740 46.000000
431.105260 13.000000
431.120090 19.000000
433.019350 13.000000
433.091770 15.000000
433.129610 19.000000
434.088290 17.000000
435.061430 17.000000
435.103150 72.000000
438.920930 14.000000
439.091520 287.000000
439.118530 102.000000
440.097140 107.000000
442.104520 29.000000
444.997530 13.000000
445.057860 26.000000
445.085050 65.000000
445.098080 138.000000
445.144410 13.000000
446.090300 62.000000
448.102200 36.000000
449.090420 17.000000
449.137940 15.000000
450.987270 15.000000
452.731540 23.000000
457.070590 17.000000
457.106380 400.000000
457.136990 44.000000
458.109190 134.000000
458.184270 19.000000
459.114010 33.000000
463.051940 18.000000
463.087160 78.000000
463.104680 100.000000
464.105740 54.000000
467.173520 17.000000
469.067780 23.000000
469.086550 43.000000
469.103490 122.000000
470.096740 15.000000
475.097780 39.000000
475.113460 88.000000
475.624790 19.000000
476.120480 16.000000
478.093840 19.000000
478.152470 16.000000
481.097500 26.000000
481.121000 96.000000
482.098940 73.000000
482.120420 43.000000
484.126890 21.000000
485.631710 17.000000
487.034480 17.000000
487.105440 78.000000
493.102450 68.000000
493.118380 66.000000
494.029850 14.000000
494.117710 40.000000
499.111690 32.000000
499.121120 14.000000
500.131160 19.000000
505.107510 51.000000
506.111660 26.000000
506.130190 39.000000
506.858730 14.000000
511.120610 19.000000
512.069090 16.000000
512.122740 23.000000
517.140560 27.000000
523.046810 16.000000
523.081050 20.000000
523.129460 188.000000
524.127140 30.000000
524.138980 13.000000
525.139400 27.000000
530.866330 19.000000
540.995240 14.000000
541.120000 59.000000
541.138370 133.000000
542.122130 31.000000
542.153320 19.000000
544.137330 16.000000
559.152040 16.000000
560.161800 30.000000
595.144650 16.000000

>ms2
66.554480 17.000000
66.601620 18.000000
85.024980 16.000000
93.034770 17.000000
93.068930 52.000000
107.047940 38.000000
109.024670 64.000000
119.054300 19.000000
121.027050 99.000000
121.033050 55.000000
138.423680 19.000000
145.034990 17.000000
147.041140 25.000000
148.046070 27.000000
172.052000 22.000000
173.027970 69.000000
173.060290 27.000000
177.009990 22.000000
177.018310 25.000000
177.028460 20.000000
179.035720 20.000000
185.025480 24.000000
186.045030 31.000000
187.042600 32.000000
189.014800 94.000000
190.017000 23.000000
191.016720 28.000000
191.034680 52.000000
191.070500 21.000000
195.042910 26.000000
195.304950 18.000000
201.008350 36.000000
201.057570 32.000000
203.026400 29.000000
203.064530 16.000000
205.075760 33.000000
211.043180 19.000000
213.050090 31.000000
215.032700 69.000000
219.033170 137.000000
225.054310 39.000000
227.073640 22.000000
229.045730 46.000000
230.050490 23.000000
233.043850 27.000000
237.062910 22.000000
239.038910 44.000000
243.030850 67.000000
243.070620 17.000000
245.040650 37.000000
247.071290 35.000000
255.030140 64.000000
256.027400 25.000000
256.064850 19.000000
257.043580 37.000000
258.048460 19.000000
260.044220 19.000000
263.064120 27.000000
263.074310 25.000000
267.065120 19.000000
267.078220 16.000000
268.072140 41.000000
269.041230 18.000000
269.051700 22.000000
271.052340 22.000000
273.047000 26.000000
273.056980 21.000000
273.100070 32.000000
279.073520 41.000000
280.483830 17.000000
281.052460 45.000000
281.078580 112.000000
281.095030 21.000000
282.086730 56.000000
283.030430 22.000000
283.059420 85.000000
283.079930 25.000000
284.039220 20.000000
284.061770 19.000000
285.033230 20.000000
285.054290 21.000000
287.076870 36.000000
289.046880 17.000000
290.054140 16.000000
291.046910 40.000000
291.901460 17.000000
292.059390 24.000000
292.076970 29.000000
292.663210 16.000000
293.042420 17.000000
293.079040 20.000000
293.977390 26.000000
294.033390 66.000000
294.045380 125.000000
294.055630 144.000000
295.038760 96.000000
295.062870 1000.000000
295.108400 27.000000
296.035130 23.000000
296.062100 268.000000
296.082670 48.000000
296.107360 26.000000
297.072110 123.000000
297.087280 56.000000
298.089840 24.000000
298.992740 23.000000
299.054720 18.000000
300.096980 29.000000
303.063450 54.000000
304.076020 44.000000
305.082150 30.000000
305.758580 18.000000
306.575650 17.000000
307.059690 466.000000
307.094330 24.000000
308.002230 25.000000
308.065370 297.000000
308.871890 22.000000
309.031680 24.000000
309.044650 16.000000
309.069370 40.000000
309.077970 128.000000
309.749600 19.000000
310.072240 44.000000
310.096160 20.000000
310.348210 16.000000
311.052800 33.000000
311.062870 25.000000
313.070430 45.000000
313.079900 54.000000
314.079280 19.000000
314.266970 17.000000
317.078610 32.000000
319.096560 21.000000
319.113830 26.000000
320.051360 33.000000
320.067600 56.000000
320.077090 63.000000
321.071440 359.000000
321.095120 107.000000
322.058870 39.000000
322.074620 147.000000
322.089320 100.000000
322.102390 51.000000
323.075160 98.000000
323.099760 36.000000
324.814060 20.000000
325.070010 755.000000
325.102690 48.000000
326.075070 68.000000
327.061580 34.000000
327.087190 34.000000
329.069640 58.000000
329.091030 43.000000
329.676420 33.000000
331.084960 48.000000
332.051240 22.000000
333.044160 17.000000
333.057460 25.000000
333.074100 121.000000
333.090330 49.000000
334.071290 49.000000
335.072360 22.000000
335.091370 135.000000
335.104550 32.000000
336.061770 121.000000
336.095180 94.000000
337.014500 24.000000
337.038300 19.000000
337.070010 307.000000
337.107790 16.000000
338.077610 101.000000
339.116180 23.000000
340.076900 41.000000
345.068850 51.000000
345.081880 16.000000
346.086150 21.000000
347.083980 18.000000
347.102690 70.000000
348.066530 86.000000
348.090940 49.000000
348.106350 22.000000
349.064670 253.000000
350.044590 26.000000
350.068820 52.000000
350.088530 23.000000
351.078740 203.000000
351.097170 54.000000
352.084440 79.000000
353.068050 23.000000
353.091280 23.000000
353.102600 27.000000
355.089290 19.000000
356.057530 16.000000
356.871220 21.000000
358.103450 25.000000
359.088960 29.000000
360.062130 21.000000
361.052030 16.000000
361.074740 76.000000
361.094540 16.000000
362.106720 19.000000
363.074400 71.000000
363.085020 19.000000
364.098630 18.000000
365.100400 129.000000
367.051030 27.000000
367.070010 24.000000
367.795290 17.000000
368.068820 21.000000
369.101840 25.000000
371.092590 59.000000
372.544830 20.000000
373.071560 122.000000
373.094700 22.000000
374.075650 22.000000
374.098210 24.000000
375.039730 24.000000
375.084560 151.000000
375.119570 25.000000
376.085080 24.000000
379.076900 43.000000
379.087220 52.000000
385.078860 19.000000
385.106450 16.000000
387.081940 38.000000
388.091950 18.000000
391.044890 17.000000
391.073880 47.000000
391.097110 65.000000
401.103180 17.000000
401.118870 18.000000
401.495730 21.000000
403.077300 125.000000
403.094330 29.000000
403.137420 20.000000
404.074770 68.000000
404.087710 33.000000
407.071930 28.000000
412.836210 22.000000
415.063390 17.000000
416.074710 19.000000
417.107360 19.000000
421.087160 19.000000
423.083070 17.000000
427.077880 51.000000
429.089940 49.000000
431.133610 42.000000
446.092960 22.000000

>ms2
121.089220 17.000000
203.038120 18.000000
241.050830 22.000000
269.044190 25.000000
294.051270 59.000000
294.987880 38.000000
295.037750 32.000000
295.051570 125.000000
295.062380 164.000000
296.062290 116.000000
296.076870 26.000000
297.097020 25.000000
307.065340 105.000000
308.062260 49.000000
308.075100 41.000000
309.055210 25.000000
309.067990 28.000000
313.075620 25.000000
314.075560 48.000000
317.094880 17.000000
319.061100 39.000000
321.070740 101.000000
321.091190 55.000000
321.484440 41.000000
322.077820 18.000000
325.040860 63.000000
325.062930 254.000000
325.076900 298.000000
326.072200 92.000000
328.079740 29.000000
328.090910 29.000000
333.083370 19.000000
335.055240 22.000000
335.083680 42.000000
335.105620 21.000000
337.068240 562.000000
337.080750 181.000000
339.092010 23.000000
347.051880 25.000000
347.093230 38.000000
347.112880 17.000000
348.079900 24.000000
348.294740 18.000000
348.780880 35.000000
349.058750 44.000000
349.074860 124.000000
350.069520 44.000000
350.085170 46.000000
350.111910 19.000000
351.050480 24.000000
351.100430 35.000000
352.072080 18.000000
352.086980 35.000000
355.067140 61.000000
355.076020 124.000000
356.093260 59.000000
361.054930 49.000000
361.068180 56.000000
361.101100 28.000000
361.120700 52.000000
361.288270 25.000000
361.842860 18.000000
363.083400 83.000000
364.101590 17.000000
364.823150 18.000000
365.105440 50.000000
365.120120 18.000000
371.072810 27.000000
373.064150 70.000000
373.548310 17.000000
375.046480 25.000000
375.092290 79.000000
376.074550 27.000000
376.096370 18.000000
377.099700 38.000000
377.114290 24.000000
379.020940 18.000000
379.044130 43.000000
379.079470 194.000000
379.096010 152.000000
379.253780 24.000000
380.078610 100.000000
380.091980 42.000000
381.108280 29.000000
382.059570 27.000000
382.075650 17.000000
384.983060 26.000000
385.064820 24.000000
387.077910 33.000000
388.074950 31.000000
391.054870 24.000000
391.071560 137.000000
391.086000 152.000000
391.103120 24.000000
392.073090 54.000000
392.088290 18.000000
393.089720 21.000000
395.061100 24.000000
399.072420 18.000000
401.084050 20.000000
401.102970 20.000000
403.021390 17.000000
403.070220 225.000000
409.062350 22.000000
409.091190 211.000000
409.116520 85.000000
409.127870 29.000000
410.090300 74.000000
411.115940 30.000000
415.061830 20.000000
415.112520 18.000000
417.091490 41.000000
418.112580 23.000000
420.119050 31.000000
420.131680 21.000000
421.033690 17.000000
421.060420 35.000000
421.085330 174.000000
421.106320 41.000000
421.987670 17.000000
427.058560 49.000000
427.094820 62.000000
427.111080 60.000000
428.086980 58.000000
428.116880 30.000000
429.103210 29.000000
433.082030 34.000000
433.110470 27.000000
437.810550 18.000000
439.062230 20.000000
439.084230 51.000000
439.103550 183.000000
439.123290 41.000000
440.049590 17.000000
440.111910 20.000000
445.082920 33.000000
445.097750 26.000000
446.092900 37.000000
451.093630 36.000000
457.071660 36.000000
457.104860 340.000000
457.122740 420.000000
458.073120 38.000000
458.103180 132.000000
458.127590 107.000000
458.141940 32.000000
459.108370 30.000000
459.134400 42.000000
460.112610 20.000000
463.111150 44.000000
469.061220 26.000000
471.115660 22.000000
471.137910 25.000000
473.886510 31.000000
475.090030 27.000000
475.113740 140.000000
475.133970 180.000000
476.110570 45.000000
476.138520 46.000000
477.112580 17.000000
481.013670 28.000000
481.076540 73.000000
481.106410 223.000000
481.152680 17.000000
481.438960 18.000000
481.664340 21.000000
482.051760 21.000000
482.121610 39.000000
483.057740 17.000000
483.130490 32.000000
483.144440 30.000000
487.113680 73.000000
494.120510 21.000000
495.138850 18.000000
499.117550 65.000000
499.135070 38.000000
500.107330 36.000000
501.117740 30.000000
505.105190 64.000000
511.088530 20.000000
511.111600 20.000000
511.135590 114.000000
512.106930 21.000000
512.125370 17.000000
512.148250 23.000000
523.111630 61.000000
523.125550 239.000000
524.142150 30.000000
529.120120 92.000000
529.144710 32.000000
530.111510 50.000000
530.133240 27.000000
541.134580 95.000000
541.933290 25.000000
542.144470 55.000000
543.136960 54.000000
543.158450 30.000000
559.119930 45.000000
559.157230 169.000000
559.194030 27.000000
560.144170 73.000000
560.543520 17.000000
561.100710 39.000000
561.325810 20.000000
576.197510 19.000000
577.117310 73.000000
577.139340 314.000000
577.170720 327.000000
578.119870 38.000000
578.141480 20.000000
578.166140 46.000000
578.189450 38.000000
579.179690 103.000000
579.202510 20.000000
580.155820 37.000000
584.637080 17.000000
585.924010 17.000000
589.818600 17.000000
595.161440 2593.000000
595.271300 18.000000
595.321110 25.000000

