>compound PR72574867
>parentmass 128.14337636363635
>ionization [M+H]+
>formula C8H17N
>rt 166.769073
>profile qtof
#smiles_iso CCCC1CCCCN1
#smiles_can CCCC1CCCCN1
#inchikey NDNUANOUGZGEPO-UHFFFAOYSA-N
#pubchem_id 9985
#mb_accession PR301494,PR301498,PR301502,PR301509,PR301513,PR301517,PR301521,PR301525,PR301529,PR301533,PR310544

>ms2
69.071540 57.000000
128.143890 1000.000000

>ms2
69.070620 26.000000
128.119000 6.000000
128.143910 1000.000000
128.174900 5.000000

>ms2
69.072590 132.000000
70.075500 185.000000
128.145520 1000.000000

>ms2
69.070760 54.000000
111.115100 7.000000
128.115160 6.000000
128.143450 1000.000000

>ms2
69.071360 45.000000
128.143830 1000.000000

>ms2
69.074080 353.000000
128.136400 301.000000
128.142140 1000.000000

>ms2
83.087150 347.000000
128.137130 258.000000
128.147600 1000.000000

>ms2
69.071840 57.000000
111.119330 9.000000
128.113950 5.000000
128.121000 8.000000
128.143750 1000.000000

>ms2
69.070760 26.000000
111.121120 6.000000
128.121600 6.000000
128.143950 1000.000000
128.175110 7.000000

>ms2
128.133180 238.000000
128.139910 1000.000000

>ms2
55.057710 27.000000
57.069400 20.000000
69.060390 43.000000
69.071540 568.000000
70.077040 20.000000
75.931920 26.000000
83.082360 21.000000
84.093190 29.000000
86.097020 24.000000
95.031610 25.000000
101.749760 32.000000
101.937700 19.000000
111.120360 47.000000
115.144080 21.000000
127.708100 18.000000
128.108640 40.000000
128.125370 23.000000
128.143890 9970.000000
128.167880 22.000000
128.176180 36.000000

