>compound PR72864273
>parentmass 813.4599
>ionization [M+H]+
>formula C42H68O15
>rt 420.600000
>profile qtof
#smiles_iso CC1(CCC2(CCC3(C(=CCC4C3(CCC5C4(CC(C(C5(C)CO)OC6C(C(C(C(O6)CO)OC7C(C(C(C(O7)CO)O)O)O)O)O)O)C)C)C2C1)C)C(=O)O)C
#smiles_can CC1(CCC2(CCC3(C(=CCC4C3(CCC5C4(CC(C(C5(C)CO)OC6C(C(C(C(O6)CO)OC7C(C(C(C(O7)CO)O)O)O)O)O)O)C)C)C2C1)C)C(=O)O)C
#inchikey GQPGGSOQFNPVJI-UHFFFAOYSA-N
#pubchem_id 4483255
#mb_accession PR310667

>ms2
149.140010 25.000000
173.139680 17.000000
177.126280 22.000000
177.156510 18.000000
203.182540 46.000000
204.192260 20.000000
205.152300 17.000000
219.171170 19.000000
235.175540 18.000000
245.197490 19.000000
247.163700 22.000000
250.190160 18.000000
284.187650 21.000000
325.103270 36.000000
327.234250 20.000000
342.909610 19.000000
378.303010 25.000000
378.313690 20.000000
382.789490 18.000000
395.326570 20.000000
407.332210 40.000000
423.342990 17.000000
435.317600 18.000000
436.325040 19.000000
441.340330 17.000000
442.320860 17.000000
453.318850 18.000000
453.353970 58.000000
454.336670 36.000000
471.327970 17.000000
471.354430 189.000000
472.348020 38.000000
473.330660 43.000000
473.359280 18.000000
489.347870 27.000000
490.359190 35.000000
513.351010 18.000000
651.371150 17.000000
651.421940 31.000000
651.442870 22.000000
652.441890 20.000000
813.395940 20.000000
813.471620 55.000000

