>compound PR72927590
>parentmass 263.1407
>ionization [M+H]+
>formula C14H18N2O3
>rt 179.400000
>profile qtof
#smiles_iso C1CC(NC1)C(=O)NC(CC2=CC=CC=C2)C(=O)O
#smiles_can C1CC(NC1)C(=O)NC(CC2=CC=CC=C2)C(=O)O
#inchikey IWIANZLCJVYEFX-UHFFFAOYSA-N
#pubchem_id 5226097
#mb_accession PR311054

>ms2
70.063790 41.000000
70.069500 20.000000
84.044560 18.000000
116.070730 21.000000
187.117460 28.000000
202.106310 17.000000
237.107450 46.000000
237.470640 27.000000
258.844970 18.000000
263.136840 207.000000

