>compound PR72709814
>parentmass 293.2112
>ionization [M+H]+
>formula C18H28O3
>rt 562.200000
>profile qtof
#smiles_iso CCC=CCC1C(C=CC1=O)CCCCCCCC(=O)O
#smiles_can CCC=CCC1C(C=CC1=O)CCCCCCCC(=O)O
#inchikey PMTMAFAPLCGXGK-UHFFFAOYSA-N
#pubchem_id 188366
#mb_accession PR310790

>ms2peaks
79.058590 22.000000
81.072680 22.000000
97.063200 18.000000
107.048550 24.000000
163.107130 21.000000
219.177700 23.000000
275.203280 86.000000
293.190310 17.000000
293.210910 19.000000

