>compound PR73452258
>parentmass 357.3264257
>ionization [M+H]+
>formula C24H40N2
>rt 201.096000
>profile qtof
#smiles_iso C[C@H]1[C@H]2CC[C@@H]3[C@@]2(CC[C@H]4[C@H]3CC=C5[C@@]4(CC[C@@H](C5)N(C)C)C)CN1C
#smiles_can CC1C2CCC3C2(CCC4C3CC=C5C4(CCC(C5)N(C)C)C)CN1C
#inchikey GPLGAQQQNWMVMM-MYAJQUOBSA-N
#pubchem_id 441082
#mb_accession PR301588,PR301592,PR301596,PR301600,PR301604,PR301608,PR301612,PR301616,PR301620,PR301624,PR301628,PR301632

>ms2
81.067570 16.000000
134.099700 14.000000
146.106030 17.000000
147.116590 25.000000
157.108570 13.000000
159.111040 12.000000
159.119350 22.000000
161.140340 17.000000
162.131590 12.000000
162.139500 23.000000
173.131290 17.000000
187.148560 12.000000
188.153380 14.000000
188.236240 12.000000
269.220610 12.000000
270.228240 16.000000
312.261110 63.000000
312.278080 49.000000
313.269710 36.000000
343.197780 22.000000
356.319180 21.000000
357.325810 1000.000000

>ms2
104.950900 7.000000
312.278900 30.000000
312.309020 9.000000
313.251920 7.000000
317.147310 8.000000
357.326450 1000.000000

>ms2
83.089160 26.000000
105.074840 22.000000
109.097820 22.000000
123.118130 17.000000
135.114590 22.000000
146.103130 21.000000
147.107800 23.000000
147.115590 17.000000
149.132350 28.000000
159.117870 83.000000
159.127470 30.000000
160.109500 20.000000
160.118590 40.000000
161.135850 40.000000
171.105300 15.000000
173.132660 98.000000
187.148540 38.000000
188.153310 23.000000
212.152400 27.000000
214.171050 21.000000
227.178150 41.000000
267.282070 20.000000
269.229340 114.000000
270.234530 48.000000
312.226040 19.000000
312.259520 59.000000
312.272060 177.000000
313.269260 47.000000
357.083590 15.000000
357.255430 23.000000
357.284760 21.000000
357.327510 1000.000000

>ms2
93.073540 1000.000000
105.047970 196.000000
105.073750 186.000000
121.107860 206.000000
131.085170 433.000000
133.100830 206.000000
143.095860 278.000000
155.084030 299.000000
157.047940 206.000000
159.091220 186.000000
160.124980 299.000000
161.119780 186.000000
185.130220 175.000000
213.151780 258.000000
281.220210 381.000000
298.259030 289.000000

>ms2
82.359860 11.000000
132.094960 11.000000
145.077410 13.000000
147.116870 13.000000
159.121000 17.000000
160.117920 13.000000
161.134550 35.000000
174.135990 12.000000
187.144550 24.000000
198.896900 13.000000
227.178480 17.000000
228.174190 16.000000
269.193660 14.000000
269.219880 18.000000
284.340970 14.000000
287.665740 11.000000
312.266240 48.000000
312.284390 27.000000
313.271970 38.000000
357.280490 17.000000
357.299930 59.000000
357.324710 1000.000000

>ms2
225.406050 6.000000
249.614140 7.000000
262.717620 7.000000
312.272060 16.000000
312.283630 6.000000
357.282200 8.000000
357.326540 1000.000000

>ms2
81.065000 11.000000
81.074130 11.000000
83.085460 14.000000
84.075510 10.000000
105.074250 13.000000
121.105340 13.000000
131.093110 10.000000
133.099150 22.000000
133.105650 11.000000
135.119450 32.000000
147.119640 58.000000
149.129650 14.000000
159.114990 27.000000
159.120940 55.000000
160.117080 10.000000
161.129620 53.000000
171.110630 10.000000
175.157380 36.000000
185.136960 13.000000
187.154750 22.000000
188.156070 18.000000
199.152050 20.000000
201.152650 16.000000
213.161590 10.000000
215.182850 12.000000
215.756530 14.000000
221.131240 21.000000
269.198610 13.000000
269.217500 42.000000
269.229280 27.000000
312.274170 124.000000
313.273380 13.000000
313.280910 32.000000
354.975890 10.000000
356.321440 10.000000
357.268830 11.000000
357.280060 15.000000
357.325680 1000.000000
357.449070 12.000000

>ms2
67.051880 236.000000
79.059500 247.000000
91.057360 539.000000
96.094630 202.000000
107.092230 236.000000
109.104750 236.000000
117.064970 438.000000
121.103940 270.000000
129.068210 191.000000
129.076350 225.000000
131.093870 247.000000
133.099810 562.000000
147.118380 270.000000
159.119800 1000.000000
171.109940 191.000000
171.120760 315.000000
173.125730 225.000000

>ms2
84.082500 11.000000
107.086910 9.000000
132.086720 12.000000
135.124190 15.000000
147.115660 46.000000
147.127980 15.000000
157.100780 12.000000
161.125000 14.000000
175.149120 9.000000
176.149770 12.000000
199.149020 14.000000
213.158520 10.000000
229.290890 11.000000
269.370480 9.000000
270.251950 13.000000
311.233030 12.000000
312.256740 11.000000
312.269650 9.000000
312.282840 10.000000
355.209930 11.000000
355.313200 16.000000
356.978420 10.000000
357.327640 1000.000000

>ms2
312.263950 27.000000
312.276790 20.000000
357.287290 12.000000
357.327390 1000.000000

>ms2
72.081950 12.000000
84.084400 22.000000
105.074230 13.000000
106.072830 12.000000
109.095250 11.000000
109.105050 27.000000
110.104230 14.000000
129.066700 9.000000
133.098370 11.000000
134.101140 9.000000
135.118090 15.000000
143.092680 13.000000
145.100590 14.000000
147.115480 12.000000
147.125240 42.000000
157.065340 19.000000
159.116040 20.000000
160.127400 10.000000
161.124480 33.000000
161.136600 13.000000
162.136020 9.000000
163.149600 14.000000
163.791310 14.000000
171.123790 12.000000
173.127370 24.000000
187.148730 76.000000
197.745530 9.000000
199.143480 14.000000
214.682690 12.000000
227.176270 14.000000
230.192030 9.000000
239.179630 12.000000
269.212490 14.000000
269.226470 50.000000
270.221890 11.000000
270.245940 15.000000
296.234920 12.000000
312.060700 10.000000
312.257230 25.000000
312.267460 77.000000
313.261720 14.000000
313.278170 30.000000
357.268310 9.000000
357.324370 1000.000000
357.341060 202.000000

>ms2
67.057120 357.000000
81.071530 1000.000000
82.075650 261.000000
84.081740 243.000000
91.053110 426.000000
93.071000 209.000000
101.072110 174.000000
105.058110 243.000000
105.064340 174.000000
105.071680 443.000000
105.077260 313.000000
106.078370 235.000000
118.494740 183.000000
119.090420 243.000000
129.074840 487.000000
131.091130 235.000000
146.097210 226.000000
155.088780 157.000000
157.100810 348.000000
159.110760 252.000000
159.128140 243.000000
171.129460 304.000000
187.148300 209.000000
218.130940 157.000000
298.254850 287.000000
313.293000 200.000000
357.344240 270.000000

