>compound PR73565024
>parentmass 583.1655
>ionization [M+H]+
>formula C26H30O15
>rt 193.200000
>profile qtof
#smiles_iso C1C(OC2=C(C(=CC(=C2C1=O)OC3C(C(C(C(O3)CO)O)O)O)O)C4C(C(C(CO4)O)O)O)C5=CC(=C(C=C5)O)O
#smiles_can C1C(OC2=C(C(=CC(=C2C1=O)OC3C(C(C(C(O3)CO)O)O)O)O)C4C(C(C(CO4)O)O)O)C5=CC(=C(C=C5)O)O
#inchikey QETQPQDBDULWLC-UHFFFAOYSA-N
#pubchem_id 139292024
#mb_accession PR311006

>ms2
121.028470 45.000000
147.041870 20.000000
163.042310 18.000000
181.041340 17.000000
181.055420 22.000000
189.051940 23.000000
191.041210 22.000000
195.086580 21.000000
201.056550 20.000000
205.048370 22.000000
207.029130 51.000000
208.024220 25.000000
217.051160 19.000000
219.021360 37.000000
231.015760 17.000000
243.025940 24.000000
247.047290 37.000000
249.018720 18.000000
249.038150 21.000000
250.042690 20.000000
257.039950 17.000000
259.051610 22.000000
259.061160 17.000000
261.040190 80.000000
265.082700 21.000000
267.029750 25.000000
269.052090 21.000000
271.060730 80.000000
273.034850 17.000000
274.037230 20.000000
280.043910 38.000000
283.054290 20.000000
284.050990 18.000000
289.067350 26.000000
291.053960 21.000000
292.053340 20.000000
295.048280 53.000000
297.003750 25.000000
297.051540 44.000000
298.044070 22.000000
301.049710 28.000000
301.070370 76.000000
304.586240 18.000000
309.073060 19.000000
310.077790 27.000000
311.047820 19.000000
313.072020 19.000000
315.058410 121.000000
316.047670 19.000000
316.066100 17.000000
319.083620 24.000000
327.033600 19.000000
327.046970 27.000000
328.048030 19.000000
328.114560 25.000000
331.086670 39.000000
333.055820 25.000000
333.075960 45.000000
337.037380 17.000000
337.078250 17.000000
338.063900 20.000000
339.045560 39.000000
339.060730 27.000000
345.048220 35.000000
349.100680 17.000000
355.079410 30.000000
357.063900 52.000000
361.065250 17.000000
363.062840 19.000000
363.079530 65.000000
368.105930 20.000000
369.108000 20.000000
375.055880 19.000000
375.083220 37.000000
377.048100 23.000000
378.995030 22.000000
379.041200 24.000000
379.058780 22.000000
379.089480 40.000000
380.081940 17.000000
381.427280 17.000000
391.083650 78.000000
392.068480 18.000000
393.082060 18.000000
393.258670 20.000000
394.095670 20.000000
395.080690 18.000000
397.087830 39.000000
397.110230 37.000000
401.105010 24.000000
409.069790 20.000000
409.087100 42.000000
411.092560 111.000000
412.113830 19.000000
421.082860 39.000000
421.104130 29.000000
424.573000 17.000000
426.004970 18.000000
427.106720 113.000000
429.085420 18.000000
433.087950 45.000000
439.103090 22.000000
445.107480 45.000000
445.120880 43.000000
446.100190 49.000000
446.111480 20.000000
447.110170 17.000000
457.131960 18.000000
463.121730 119.000000
464.096710 18.000000
469.112490 19.000000
475.118440 69.000000
476.136750 22.000000
481.115720 18.000000
481.132600 23.000000
482.089320 17.000000
482.120180 57.000000
487.053650 22.000000
493.110530 37.000000
494.086000 21.000000
499.080380 17.000000
499.114070 25.000000
499.153320 19.000000
500.118380 17.000000
501.141080 18.000000
511.133000 73.000000
512.116390 39.000000
512.149780 20.000000
513.127010 20.000000
518.968200 21.000000
529.104610 19.000000
529.127620 45.000000
529.142210 17.000000
529.924930 18.000000
530.140500 21.000000
531.129030 18.000000
540.102290 20.000000
547.138310 434.000000
548.116210 20.000000
548.142640 37.000000
548.170780 90.000000
549.130250 17.000000
565.151730 314.000000
565.172550 100.000000
566.136290 24.000000
566.161560 18.000000
566.181030 41.000000
566.193660 18.000000
567.159970 40.000000
568.161010 19.000000
582.151310 26.000000
582.205930 26.000000
583.158140 114.000000
583.175170 95.000000

