>compound PR73228912
>parentmass 355.20161920000004
>ionization [M+H]+
>formula C21H26N2O3
>rt 273.276000
>profile qtof
#smiles_iso C[C@H](C1[C@@H]2CCN3[C@H]1[C@]4(CC3)C5=CC=CC=C5NC4=C2C(=O)OC)OC
#smiles_can CC(C1C2CCN3C1C4(CC3)C5=CC=CC=C5NC4=C2C(=O)OC)OC
#inchikey LTOOPESWVADEAE-JHOCLNBPSA-N
#pubchem_id 137832352
#mb_accession PR300003,PR300008,PR300013,PR300018,PR300023,PR300028,PR300033,PR300038,PR300043,PR300047,PR300052,PR300057

>ms2
168.080410 13.000000
180.080920 6.000000
193.085310 5.000000
193.092190 5.000000
194.095090 26.000000
195.101060 9.000000
206.094620 6.000000
208.113330 27.000000
218.101610 7.000000
220.075410 16.000000
220.114640 11.000000
221.087010 6.000000
221.114320 5.000000
222.090620 12.000000
234.091290 7.000000
234.126460 8.000000
236.104050 7.000000
236.114560 5.000000
237.135790 6.000000
246.091660 50.000000
247.093730 11.000000
248.108090 17.000000
248.117050 6.000000
252.102280 5.000000
263.115260 9.000000
323.175080 828.000000
323.226720 18.000000
324.178470 194.000000
325.170470 9.000000
325.182950 22.000000
355.202030 1000.000000
355.256530 29.000000

>ms2
323.175870 60.000000
324.178440 15.000000
355.143650 9.000000
355.202330 1000.000000
355.256410 32.000000

>ms2
59.047600 10.000000
59.051740 7.000000
70.064480 12.000000
168.081590 17.000000
194.096120 30.000000
194.103520 9.000000
195.101590 10.000000
206.090260 5.000000
208.110640 40.000000
209.109090 7.000000
209.117400 8.000000
217.089250 6.000000
218.094240 9.000000
218.102580 6.000000
219.096160 5.000000
220.075790 36.000000
220.111850 25.000000
221.078900 8.000000
221.115690 7.000000
222.091640 24.000000
222.119830 10.000000
223.123720 5.000000
230.093230 7.000000
234.089940 20.000000
234.129940 9.000000
235.093170 5.000000
235.127330 10.000000
236.107510 27.000000
237.103700 5.000000
237.138380 11.000000
246.091800 103.000000
247.093410 26.000000
247.108050 5.000000
248.106990 36.000000
254.115910 6.000000
262.119420 11.000000
263.120330 19.000000
263.149080 8.000000
263.161320 6.000000
268.134430 22.000000
269.128510 9.000000
280.130100 7.000000
295.144620 7.000000
323.135990 6.000000
323.175320 1000.000000
323.227750 22.000000
324.178500 236.000000
325.181060 25.000000
355.201290 12.000000
355.214140 5.000000

>ms2
55.057040 11.000000
59.040770 26.000000
59.049050 243.000000
59.750150 8.000000
60.052780 5.000000
60.056660 11.000000
68.047760 9.000000
70.060930 5.000000
70.066090 19.000000
82.056530 6.000000
85.072680 13.000000
85.476910 7.000000
86.308810 6.000000
91.052540 25.000000
91.059240 8.000000
93.056530 8.000000
93.061810 15.000000
93.067710 7.000000
93.570910 6.000000
94.065650 8.000000
96.078580 12.000000
106.058470 12.000000
106.064020 17.000000
108.046540 16.000000
108.086900 5.000000
110.058820 7.000000
116.054180 31.000000
117.056400 24.000000
117.257330 15.000000
118.048580 6.000000
118.060700 11.000000
118.068800 14.000000
119.047680 8.000000
119.071310 11.000000
122.314020 8.000000
128.058200 18.000000
129.057620 8.000000
130.058000 16.000000
130.067060 54.000000
130.582500 6.000000
131.069380 8.000000
132.083020 17.000000
134.060230 7.000000
136.115840 11.000000
140.047680 9.000000
141.052320 6.000000
142.065080 19.000000
143.071410 39.000000
144.046540 25.000000
144.081600 9.000000
144.088530 8.000000
145.458560 7.000000
151.056780 6.000000
152.053130 31.000000
152.066890 32.000000
153.056270 10.000000
153.632250 5.000000
154.058460 19.000000
154.065730 22.000000
154.071960 17.000000
154.119030 7.000000
155.065570 6.000000
155.074190 8.000000
155.080550 6.000000
156.072070 7.000000
156.083790 19.000000
157.048390 17.000000
157.073620 11.000000
157.079800 7.000000
157.093670 13.000000
157.367080 29.000000
158.075620 5.000000
158.094940 9.000000
159.099550 5.000000
160.074660 6.000000
160.907270 8.000000
164.047130 8.000000
165.063890 45.000000
165.072430 36.000000
165.078110 15.000000
165.096450 14.000000
166.054750 38.000000
166.065960 52.000000
166.079710 13.000000
166.090300 8.000000
167.046020 8.000000
167.069200 219.000000
167.076550 164.000000
167.108600 15.000000
168.064070 26.000000
168.080060 419.000000
169.076510 58.000000
169.090650 33.000000
170.056750 5.000000
170.065550 6.000000
170.085510 11.000000
170.733430 5.000000
171.109210 6.000000
172.070110 7.000000
172.204510 6.000000
174.359570 16.000000
175.869510 5.000000
176.066480 14.000000
176.077910 6.000000
176.696030 6.000000
177.058620 17.000000
177.068790 25.000000
178.047470 6.000000
178.056180 11.000000
178.066860 25.000000
178.079150 6.000000
179.020370 5.000000
179.052470 25.000000
179.068270 57.000000
179.077130 99.000000
179.748720 7.000000
180.062160 26.000000
180.081050 451.000000
180.106630 6.000000
180.906860 5.000000
181.076390 99.000000
181.086120 131.000000
181.097000 23.000000
181.115540 17.000000
182.078480 6.000000
182.086810 17.000000
182.094910 33.000000
182.104100 16.000000
183.085240 6.000000
183.094640 6.000000
183.111660 13.000000
183.788770 16.000000
184.051250 11.000000
184.101620 17.000000
186.079120 5.000000
186.095110 7.000000
189.057940 6.000000
189.069080 9.000000
190.052660 17.000000
190.064610 29.000000
190.087910 15.000000
191.054030 21.000000
191.072310 247.000000
191.094890 5.000000
191.173510 7.000000
192.051820 15.000000
192.063740 40.000000
192.081420 334.000000
193.032040 7.000000
193.047520 14.000000
193.058380 21.000000
193.086850 592.000000
193.094500 203.000000
193.125560 5.000000
193.142380 20.000000
193.226010 8.000000
193.367320 6.000000
194.031330 16.000000
194.063830 46.000000
194.072080 25.000000
194.097310 1000.000000
194.116810 9.000000
195.070100 50.000000
195.100750 125.000000
195.122250 13.000000
195.560760 5.000000
196.055390 11.000000
196.076830 7.000000
196.106190 26.000000
196.117050 7.000000
196.833970 5.000000
197.091870 21.000000
197.111270 11.000000
197.362880 7.000000
198.119450 5.000000
200.308470 10.000000
202.084760 8.000000
203.048710 6.000000
203.068280 36.000000
203.079480 44.000000
203.089950 12.000000
203.244400 10.000000
204.027370 7.000000
204.048130 5.000000
204.081560 400.000000
204.129140 6.000000
204.263850 8.000000
205.039840 7.000000
205.074940 82.000000
205.088120 189.000000
205.130190 11.000000
206.042890 9.000000
206.052260 5.000000
206.076510 33.000000
206.095610 254.000000
206.824870 8.000000
207.052430 10.000000
207.067990 52.000000
207.091930 94.000000
207.105960 91.000000
208.072850 75.000000
208.109410 491.000000
208.236470 6.000000
209.057020 10.000000
209.067920 10.000000
209.076900 5.000000
209.110400 125.000000
209.125320 8.000000
209.429200 6.000000
210.072370 5.000000
210.093770 37.000000
210.122450 12.000000
211.096940 6.000000
211.118350 7.000000
212.111710 8.000000
216.083850 5.000000
217.074450 38.000000
217.086400 94.000000
217.096880 73.000000
218.087600 96.000000
218.097580 359.000000
218.122410 20.000000
219.023830 6.000000
219.054370 24.000000
219.064910 39.000000
219.073320 25.000000
219.090150 67.000000
219.106930 79.000000
219.117580 11.000000
220.048200 5.000000
220.074020 385.000000
220.099760 117.000000
220.111740 134.000000
220.122990 34.000000
221.082980 103.000000
221.103230 38.000000
221.116390 90.000000
221.775800 6.000000
222.063740 8.000000
222.086700 58.000000
222.104310 55.000000
222.127990 68.000000
223.048310 8.000000
223.093000 21.000000
224.055100 11.000000
224.088500 6.000000
224.135710 8.000000
225.115840 5.000000
226.090410 7.000000
227.344020 5.000000
228.079270 8.000000
228.098420 14.000000
228.109990 6.000000
229.092450 7.000000
230.076310 6.000000
230.086150 9.000000
230.099730 60.000000
230.116840 15.000000
231.061400 5.000000
231.102020 44.000000
232.076580 6.000000
232.100660 29.000000
232.116650 36.000000
232.749080 7.000000
233.054430 33.000000
233.073500 43.000000
233.106520 39.000000
233.117160 49.000000
234.077210 26.000000
234.093490 141.000000
234.120800 83.000000
234.133610 35.000000
235.092820 18.000000
235.113720 65.000000
235.125430 35.000000
235.168370 6.000000
235.274960 6.000000
236.086180 5.000000
236.100340 44.000000
236.115280 36.000000
237.107090 9.000000
237.926010 12.000000
238.089310 11.000000
238.102750 5.000000
239.821640 7.000000
243.092730 15.000000
244.051210 6.000000
244.062030 8.000000
244.079830 40.000000
244.115130 6.000000
244.126130 6.000000
245.074920 11.000000
245.118410 27.000000
245.166120 8.000000
246.079790 52.000000
246.094020 196.000000
246.118070 15.000000
246.554410 9.000000
247.052120 6.000000
247.061770 9.000000
247.089980 82.000000
247.112290 42.000000
247.123990 22.000000
247.132720 21.000000
248.079380 16.000000
248.094700 18.000000
248.108730 26.000000
248.129120 18.000000
248.162660 10.000000
248.817890 7.000000
249.115830 10.000000
249.134840 18.000000
250.114840 15.000000
250.130250 15.000000
251.150130 8.000000
254.169710 12.000000
257.103300 6.000000
260.104550 7.000000
261.099030 19.000000
261.108090 15.000000
262.104890 13.000000
262.141140 5.000000
262.152370 12.000000
263.117400 53.000000
263.155940 6.000000
264.146360 14.000000
264.164920 9.000000
265.085660 5.000000
265.123020 6.000000
265.141390 9.000000
268.142120 8.000000
268.892940 7.000000
272.103030 10.000000
273.111300 8.000000
275.131320 14.000000
276.125240 9.000000
280.137050 5.000000
295.137790 10.000000
295.176730 5.000000
323.140470 7.000000
323.172330 69.000000
324.174160 19.000000
355.173340 5.000000
355.183810 22.000000
355.200780 17.000000
355.215550 19.000000

>ms2
59.050830 7.000000
168.080640 9.000000
193.085400 10.000000
194.096040 25.000000
195.095750 8.000000
206.093520 6.000000
208.112180 31.000000
209.111020 5.000000
218.098860 6.000000
220.077130 21.000000
220.111330 8.000000
221.084180 9.000000
222.095230 11.000000
230.095430 5.000000
233.084930 5.000000
234.090960 13.000000
234.127590 6.000000
236.106120 7.000000
246.090320 46.000000
247.096480 18.000000
263.110290 6.000000
263.157200 6.000000
268.137450 8.000000
295.146120 8.000000
323.175510 920.000000
323.228670 22.000000
324.178890 205.000000
325.182100 29.000000
355.201840 1000.000000
355.256840 28.000000

>ms2
323.175720 67.000000
324.179410 13.000000
355.202640 1000.000000
355.257260 32.000000

>ms2
59.048570 12.000000
70.064450 14.000000
168.080340 15.000000
182.096710 5.000000
194.096360 33.000000
195.103070 6.000000
208.112270 39.000000
209.109730 10.000000
219.098570 8.000000
220.076220 30.000000
220.099000 8.000000
220.113820 16.000000
221.082900 10.000000
221.115840 8.000000
222.089430 27.000000
222.127110 10.000000
230.098330 7.000000
234.092000 29.000000
234.120730 9.000000
234.131650 9.000000
235.123780 6.000000
236.107890 19.000000
237.138430 12.000000
246.092210 107.000000
246.129940 7.000000
247.095960 24.000000
247.127910 6.000000
248.107570 47.000000
249.110730 8.000000
262.122920 6.000000
263.119630 24.000000
263.155430 11.000000
268.132750 12.000000
268.143310 6.000000
269.133030 11.000000
291.147130 7.000000
295.151090 5.000000
295.178830 5.000000
323.110260 5.000000
323.129360 8.000000
323.175140 1000.000000
323.226560 21.000000
324.178440 219.000000
325.182250 32.000000
355.194950 9.000000
355.206540 9.000000

>ms2
59.035790 9.000000
59.049480 332.000000
60.049770 15.000000
61.053900 5.000000
68.049740 6.000000
69.331690 5.000000
70.066260 51.000000
71.066150 25.000000
71.997780 5.000000
73.064640 13.000000
73.067610 6.000000
79.040340 5.000000
79.055430 7.000000
84.064690 9.000000
85.063740 7.000000
91.058200 7.000000
93.053720 8.000000
93.060260 11.000000
102.054760 10.000000
104.051730 6.000000
105.066410 12.000000
106.054200 8.000000
109.091480 7.000000
110.060040 16.000000
115.058560 15.000000
116.046710 9.000000
116.052880 14.000000
117.058400 7.000000
118.074310 10.000000
119.044690 10.000000
119.073900 6.000000
120.083920 13.000000
122.056330 6.000000
122.099950 10.000000
128.050830 9.000000
128.058700 8.000000
128.065090 9.000000
130.064870 19.000000
130.071520 11.000000
131.055470 5.000000
131.075440 32.000000
132.077160 5.000000
134.056960 6.000000
140.060150 7.000000
141.054500 8.000000
141.059780 7.000000
142.054820 28.000000
142.836380 5.000000
143.074780 45.000000
144.024460 7.000000
144.040300 36.000000
144.048550 13.000000
144.056980 8.000000
144.086140 50.000000
145.078870 21.000000
145.092100 8.000000
152.051010 16.000000
152.059480 37.000000
152.067700 20.000000
153.059230 7.000000
153.071140 8.000000
154.056120 7.000000
154.068080 57.000000
154.440370 5.000000
156.043930 13.000000
156.079560 34.000000
156.171260 5.000000
157.066850 7.000000
157.088710 6.000000
158.086400 5.000000
158.093580 6.000000
163.054960 6.000000
163.726090 22.000000
165.070600 131.000000
166.048900 9.000000
166.059720 44.000000
166.068740 63.000000
166.086900 18.000000
167.073290 496.000000
168.061040 6.000000
168.080380 454.000000
169.069120 9.000000
169.082470 109.000000
169.095730 33.000000
170.089190 17.000000
170.554580 5.000000
171.077010 8.000000
171.097470 12.000000
176.071060 8.000000
177.034040 7.000000
177.055570 6.000000
177.069950 8.000000
177.080830 42.000000
177.186750 8.000000
178.038910 9.000000
178.054410 13.000000
178.065600 41.000000
178.077560 78.000000
179.056430 8.000000
179.074770 77.000000
179.088000 9.000000
179.098240 6.000000
179.657490 12.000000
180.049990 17.000000
180.060560 27.000000
180.081300 487.000000
180.162490 6.000000
181.084490 124.000000
181.098570 55.000000
182.086700 24.000000
182.100860 64.000000
183.071580 8.000000
183.089480 14.000000
183.102970 15.000000
184.077180 8.000000
184.087660 13.000000
185.112350 9.000000
186.102290 7.000000
190.066960 8.000000
190.081800 8.000000
190.264630 6.000000
191.051860 7.000000
191.074050 248.000000
191.872040 6.000000
192.020870 16.000000
192.039140 6.000000
192.054200 36.000000
192.080470 486.000000
193.029310 5.000000
193.040790 15.000000
193.049680 7.000000
193.086880 775.000000
193.145750 5.000000
193.462020 6.000000
194.040340 7.000000
194.058520 81.000000
194.096220 1000.000000
194.730180 5.000000
195.009800 9.000000
195.050280 11.000000
195.057970 7.000000
195.078670 13.000000
195.086580 38.000000
195.100660 159.000000
195.607930 5.000000
196.077130 33.000000
196.087490 18.000000
196.103330 5.000000
196.119710 12.000000
196.950320 5.000000
197.074130 6.000000
197.098910 5.000000
197.109740 9.000000
198.109010 7.000000
198.823440 5.000000
199.080540 12.000000
202.072750 18.000000
203.071350 74.000000
204.056780 12.000000
204.082120 461.000000
205.048570 6.000000
205.085100 293.000000
205.094120 71.000000
205.129550 10.000000
206.074650 33.000000
206.094280 290.000000
206.116820 13.000000
207.065600 11.000000
207.075230 24.000000
207.098430 138.000000
207.107930 70.000000
208.066300 33.000000
208.076900 104.000000
208.092650 50.000000
208.111020 524.000000
208.616550 7.000000
208.718900 6.000000
209.063450 10.000000
209.115660 233.000000
210.075500 10.000000
210.092880 15.000000
210.113140 8.000000
210.124940 15.000000
211.034880 5.000000
211.098400 21.000000
214.091020 10.000000
215.608810 10.000000
216.062650 5.000000
216.080090 27.000000
216.424580 6.000000
217.055650 15.000000
217.074540 43.000000
217.087630 204.000000
217.333800 5.000000
217.401280 6.000000
218.059280 7.000000
218.092410 252.000000
219.056850 20.000000
219.062550 62.000000
219.075730 21.000000
219.090840 104.000000
219.106030 154.000000
220.048930 16.000000
220.075550 476.000000
220.094790 75.000000
220.113630 185.000000
221.045990 9.000000
221.060930 14.000000
221.081120 70.000000
221.092190 86.000000
221.110170 83.000000
221.120650 46.000000
222.085830 95.000000
222.101870 17.000000
222.114850 45.000000
222.130630 49.000000
223.095140 19.000000
223.124010 11.000000
223.294370 6.000000
224.113860 7.000000
224.125870 9.000000
224.561450 6.000000
225.114330 5.000000
227.077560 9.000000
227.412730 11.000000
227.666900 16.000000
228.073260 20.000000
228.094450 12.000000
228.119900 7.000000
228.879460 12.000000
229.069270 10.000000
229.084870 10.000000
229.095170 25.000000
230.076780 24.000000
230.092510 76.000000
231.089570 10.000000
231.102600 45.000000
232.070070 36.000000
232.097410 42.000000
232.109130 19.000000
233.085330 72.000000
233.103910 110.000000
233.119130 39.000000
234.061280 5.000000
234.075390 25.000000
234.089840 166.000000
234.096980 64.000000
234.120300 36.000000
234.129810 69.000000
235.068070 16.000000
235.089050 18.000000
235.099670 38.000000
235.113540 21.000000
235.125760 52.000000
235.138690 19.000000
235.166320 6.000000
236.095310 24.000000
236.113910 51.000000
236.124940 15.000000
236.137210 6.000000
237.067900 7.000000
237.107700 62.000000
237.130650 16.000000
237.243000 5.000000
238.081680 9.000000
238.116120 9.000000
238.505200 7.000000
239.093980 23.000000
240.112610 6.000000
241.084810 13.000000
241.097240 12.000000
243.081420 7.000000
243.093190 10.000000
243.214890 6.000000
244.076520 65.000000
244.105850 18.000000
244.125050 9.000000
245.080310 50.000000
245.111790 42.000000
245.983440 8.000000
246.050490 6.000000
246.090350 240.000000
246.151980 8.000000
247.060990 14.000000
247.080460 72.000000
247.100710 39.000000
247.111400 27.000000
247.124110 41.000000
247.168910 6.000000
248.090270 31.000000
248.104230 40.000000
248.117920 29.000000
248.131440 23.000000
248.146190 8.000000
249.101930 28.000000
249.137950 25.000000
249.151050 6.000000
249.189930 5.000000
250.096440 7.000000
250.124360 7.000000
252.046810 7.000000
252.106000 12.000000
252.137390 7.000000
252.603730 5.000000
257.102420 12.000000
258.076170 6.000000
259.089360 15.000000
260.106750 11.000000
261.089360 6.000000
261.101470 28.000000
261.112300 11.000000
261.139740 9.000000
262.122100 7.000000
263.109920 15.000000
263.124300 17.000000
263.153200 31.000000
263.259220 9.000000
264.139400 8.000000
264.158480 15.000000
266.107910 23.000000
266.132810 17.000000
266.146000 7.000000
267.108370 7.000000
268.142430 7.000000
269.120270 12.000000
273.141570 7.000000
274.124110 5.000000
274.133450 5.000000
275.105560 14.000000
276.133300 8.000000
280.141880 7.000000
280.239810 6.000000
283.441190 7.000000
294.848450 9.000000
323.170990 15.000000
323.186000 36.000000
324.186710 6.000000

>ms2
70.065800 6.000000
168.082440 12.000000
193.089020 9.000000
194.097120 36.000000
195.102050 9.000000
205.092440 5.000000
208.112010 29.000000
209.106190 7.000000
219.101100 5.000000
220.076710 17.000000
220.109860 12.000000
221.082950 6.000000
222.089220 9.000000
222.130230 5.000000
234.091780 12.000000
234.111190 5.000000
234.122220 7.000000
237.106640 6.000000
246.092620 47.000000
247.099090 10.000000
248.093640 6.000000
248.110600 22.000000
263.113070 8.000000
263.154660 6.000000
323.107850 6.000000
323.128510 5.000000
323.176120 881.000000
323.227690 19.000000
324.179630 175.000000
325.180270 29.000000
355.203520 1000.000000
355.257840 31.000000

>ms2
323.174900 64.000000
324.179690 13.000000
355.141020 8.000000
355.201450 1000.000000
355.256290 33.000000

>ms2
59.049960 18.000000
70.064570 15.000000
168.082580 18.000000
193.087750 7.000000
194.096050 32.000000
206.097400 5.000000
208.073880 6.000000
208.113010 41.000000
209.106610 5.000000
209.116700 14.000000
218.095980 8.000000
220.067670 9.000000
220.074680 25.000000
220.112590 23.000000
221.082930 10.000000
221.118730 7.000000
222.090910 18.000000
222.103180 8.000000
222.130710 6.000000
223.128140 9.000000
234.091710 21.000000
234.119430 6.000000
234.132920 5.000000
235.093000 7.000000
235.126280 8.000000
236.106630 21.000000
237.107680 8.000000
237.139620 8.000000
246.090960 98.000000
247.093080 24.000000
248.106860 41.000000
263.118380 20.000000
263.159880 7.000000
265.131590 6.000000
268.124600 7.000000
268.134060 19.000000
269.126160 13.000000
291.147280 7.000000
323.123840 9.000000
323.175720 1000.000000
323.227510 20.000000
324.179020 230.000000
325.182860 28.000000
355.201480 15.000000

>ms2
50.505740 8.000000
58.845700 5.000000
59.037410 9.000000
59.047850 123.000000
59.051890 158.000000
68.048900 16.000000
70.038860 5.000000
70.066550 38.000000
71.066710 9.000000
77.035970 7.000000
77.042290 11.000000
80.048280 5.000000
82.063970 7.000000
86.002410 8.000000
91.054860 9.000000
93.052450 7.000000
94.022380 5.000000
94.070320 14.000000
95.050030 15.000000
103.705400 6.000000
105.031520 5.000000
105.077710 10.000000
106.061380 8.000000
108.037030 8.000000
108.076740 12.000000
111.043470 11.000000
113.465020 13.000000
115.054700 44.000000
116.044940 25.000000
116.052890 21.000000
117.052470 11.000000
117.061620 9.000000
117.067750 14.000000
118.061900 5.000000
118.069640 10.000000
119.046430 10.000000
120.079180 14.000000
123.078680 16.000000
127.052990 8.000000
129.070190 19.000000
130.059800 34.000000
130.067830 38.000000
131.070860 40.000000
134.055330 6.000000
139.049470 8.000000
140.043560 7.000000
141.052960 6.000000
141.072270 6.000000
142.061170 22.000000
142.073240 7.000000
143.070690 35.000000
143.078640 23.000000
144.038090 6.000000
144.081790 53.000000
148.039170 5.000000
151.046680 7.000000
151.062760 25.000000
152.054900 22.000000
152.063610 35.000000
152.981900 9.000000
154.036120 7.000000
154.064450 12.000000
155.072890 26.000000
155.460750 7.000000
156.073010 6.000000
156.083690 38.000000
158.059130 8.000000
158.838880 6.000000
163.055220 5.000000
165.059370 32.000000
165.070390 65.000000
166.060030 56.000000
166.069310 24.000000
166.076930 8.000000
166.093200 8.000000
166.730030 5.000000
167.051770 11.000000
167.073380 357.000000
167.088380 20.000000
167.101290 10.000000
167.136340 6.000000
167.908970 5.000000
168.058940 6.000000
168.078290 286.000000
168.132350 6.000000
169.080460 49.000000
169.087710 48.000000
170.056990 6.000000
170.082200 20.000000
170.096120 10.000000
176.056020 5.000000
177.056530 7.000000
177.073430 33.000000
177.651550 5.000000
178.065050 53.000000
178.080290 9.000000
178.359100 7.000000
179.071060 63.000000
179.086760 17.000000
180.081950 421.000000
181.044130 5.000000
181.074010 37.000000
181.085910 125.000000
182.056520 15.000000
182.088260 60.000000
182.097000 57.000000
189.069580 14.000000
190.067080 14.000000
190.076080 24.000000
191.029650 7.000000
191.066940 106.000000
191.077970 107.000000
191.153260 17.000000
192.043320 7.000000
192.059590 21.000000
192.079910 338.000000
192.695180 6.000000
192.962910 5.000000
193.055710 10.000000
193.074130 26.000000
193.090270 564.000000
193.565950 5.000000
194.060460 74.000000
194.078890 37.000000
194.095750 1000.000000
195.048490 17.000000
195.063810 24.000000
195.074520 10.000000
195.092910 87.000000
195.101380 82.000000
195.112320 25.000000
196.107960 24.000000
196.121670 8.000000
197.119900 9.000000
198.101150 6.000000
202.072220 42.000000
202.085400 7.000000
202.453480 5.000000
203.050370 7.000000
203.077070 71.000000
204.051160 13.000000
204.077610 333.000000
204.085910 152.000000
204.134120 13.000000
204.265580 10.000000
205.061490 12.000000
205.069050 16.000000
205.087690 253.000000
205.650880 5.000000
205.724230 6.000000
206.006040 5.000000
206.079040 24.000000
206.093660 238.000000
207.074010 56.000000
207.088680 72.000000
207.101360 172.000000
208.050870 9.000000
208.070940 41.000000
208.089750 24.000000
208.111770 465.000000
208.199430 7.000000
209.076310 8.000000
209.095200 56.000000
209.109860 93.000000
209.120740 48.000000
209.332350 5.000000
210.085890 12.000000
210.110890 29.000000
210.120770 13.000000
210.586590 11.000000
211.117980 10.000000
212.073060 15.000000
214.083660 15.000000
215.085330 6.000000
216.077300 47.000000
216.543010 5.000000
217.065800 13.000000
217.076750 62.000000
217.086990 116.000000
217.107360 22.000000
218.021390 6.000000
218.057980 7.000000
218.096240 402.000000
219.072280 83.000000
219.094830 170.000000
219.107860 73.000000
219.950900 5.000000
220.024220 5.000000
220.034270 15.000000
220.072110 247.000000
220.082310 208.000000
220.104800 236.000000
220.117390 70.000000
220.157910 6.000000
220.664410 8.000000
221.078930 210.000000
221.108370 57.000000
221.121290 30.000000
221.151670 7.000000
221.927870 5.000000
222.080640 30.000000
222.092710 24.000000
222.113240 58.000000
222.124800 10.000000
223.062130 6.000000
223.094740 31.000000
223.107500 16.000000
223.120350 16.000000
223.215130 6.000000
224.099820 7.000000
224.231350 5.000000
228.059490 6.000000
228.077670 51.000000
229.072400 11.000000
230.088440 60.000000
230.100810 49.000000
231.098070 44.000000
231.113020 26.000000
231.675420 8.000000
232.050660 7.000000
232.061490 6.000000
232.074740 5.000000
232.083210 9.000000
232.101750 10.000000
232.115260 32.000000
233.039990 17.000000
233.068850 25.000000
233.085830 77.000000
233.098720 38.000000
233.110820 80.000000
234.030910 10.000000
234.088910 128.000000
234.120300 51.000000
234.136700 30.000000
234.416320 5.000000
235.091430 32.000000
235.122880 52.000000
236.102400 20.000000
236.111720 12.000000
236.122210 16.000000
236.132930 27.000000
236.145480 17.000000
236.177320 7.000000
237.092330 9.000000
237.108030 19.000000
237.140950 52.000000
238.095890 10.000000
238.134000 10.000000
238.154040 9.000000
241.074620 7.000000
241.088940 6.000000
241.101040 5.000000
242.189930 6.000000
243.083790 6.000000
244.079390 37.000000
244.096360 10.000000
244.118840 18.000000
245.084050 24.000000
245.831670 9.000000
246.001660 7.000000
246.067120 26.000000
246.091860 310.000000
247.063630 10.000000
247.083040 40.000000
247.098750 140.000000
247.129300 33.000000
248.088590 21.000000
248.105880 47.000000
248.129790 13.000000
248.816620 11.000000
248.872410 8.000000
249.084690 12.000000
249.102010 44.000000
249.117810 8.000000
249.143010 6.000000
250.126460 6.000000
253.011430 7.000000
254.131270 11.000000
260.110230 17.000000
261.090030 5.000000
261.104890 15.000000
262.121610 16.000000
263.103360 15.000000
263.116850 64.000000
263.148710 31.000000
263.161320 6.000000
264.104890 9.000000
264.159480 10.000000
265.110110 6.000000
265.132970 14.000000
267.109740 6.000000
268.119750 5.000000
269.123660 6.000000
281.135280 7.000000
297.624420 9.000000
308.112060 8.000000
320.880770 7.000000
323.181550 26.000000
324.172180 13.000000
348.784670 7.000000

