>compound PR73461699
>parentmass 192.1414
>ionization [M+H]+
>formula C9H21NOS
>rt 149.400000
>profile qtof
#smiles_iso CS(=O)CCCCCCCCN
#smiles_can CS(=O)CCCCCCCCN
#inchikey SSWZIHDEYOORCA-UHFFFAOYSA-N
#pubchem_id 121232648
#mb_accession PR310896

>ms2
69.073720 44.000000
71.079270 18.000000
84.086850 23.000000
109.097530 17.000000
126.123730 43.000000
126.133710 24.000000
128.132260 20.000000
128.142760 165.000000
129.145020 107.000000
146.057250 18.000000
174.129530 23.000000
174.140110 20.000000
191.952730 18.000000
192.144200 954.000000
192.180570 17.000000

