>compound PR73454758
>parentmass 616.2651
>ionization [M+H]+
>formula C34H37N3O8
>rt 300.000000
>profile qtof
#smiles_iso C1=CC(=CC=C1C=CC(=O)NCCCN(CCCCNC(=O)C=CC2=CC(=C(C=C2)O)O)C(=O)C=CC3=CC(=C(C=C3)O)O)O
#smiles_can C1=CC(=CC=C1C=CC(=O)NCCCN(CCCCNC(=O)C=CC2=CC(=C(C=C2)O)O)C(=O)C=CC3=CC(=C(C=C3)O)O)O
#inchikey XYBWBOHZMFLRBQ-UHFFFAOYSA-N
#pubchem_id 73189942
#mb_accession PR311085

>ms2
147.051530 19.000000
204.113540 21.000000
220.092760 96.000000
291.164220 17.000000
402.005620 24.000000
435.084780 17.000000
437.204680 20.000000
452.212950 17.000000
454.194950 17.000000
454.234650 128.000000
455.224700 17.000000
455.237950 19.000000
455.261570 20.000000
456.233760 27.000000
565.314510 20.000000
615.268550 18.000000
616.255070 17.000000
616.275820 46.000000

