>compound PR73302376
>parentmass 330.2063701846154
>ionization [M+H]+
>formula C20H27NO3
>rt 184.039385
>profile qtof
#smiles_iso CC12CC(CC34C1C5CC67C3C(C(C(C6C4N5C2)O)C(=C)C7)O)O
#smiles_can CC12CC(CC34C1C5CC67C3C(C(C(C6C4N5C2)O)C(=C)C7)O)O
#inchikey PIWJSAMCEMZIDO-UHFFFAOYSA-N
#pubchem_id 431673
#mb_accession PR301138,PR301142,PR301146,PR301150,PR301154,PR301158,PR301162,PR301166,PR301170,PR301174,PR301178,PR301182,PR310583

>ms2
312.196900 14.000000
330.205780 1000.000000
330.257200 27.000000

>ms2
330.206760 1000.000000
330.258480 32.000000

>ms2
294.185760 5.000000
312.197330 32.000000
330.157650 8.000000
330.207060 1000.000000
330.258850 23.000000

>ms2
58.034080 10.000000
67.052810 25.000000
69.031750 6.000000
70.069820 5.000000
71.051560 9.000000
71.058440 11.000000
77.039730 6.000000
79.048760 6.000000
79.056490 89.000000
80.051250 9.000000
81.065170 11.000000
81.071730 12.000000
82.067340 32.000000
84.084170 6.000000
91.054410 66.000000
91.059970 32.000000
92.564400 6.000000
93.032640 6.000000
93.053760 20.000000
93.070920 64.000000
94.065220 61.000000
94.076020 8.000000
94.080340 7.000000
95.049440 12.000000
95.088370 34.000000
96.084390 27.000000
101.650990 7.000000
102.685650 5.000000
103.053570 14.000000
105.069840 147.000000
105.074740 48.000000
105.081240 6.000000
106.067120 22.000000
106.074130 34.000000
107.035230 6.000000
107.049420 10.000000
107.070510 15.000000
107.079130 12.000000
107.092370 8.000000
108.080640 47.000000
108.088010 6.000000
108.590320 6.000000
109.068700 10.000000
110.072320 6.000000
115.054610 19.000000
115.062710 15.000000
116.060270 31.000000
117.059050 28.000000
117.069890 78.000000
117.079140 6.000000
118.061100 15.000000
118.069650 6.000000
118.076360 6.000000
119.066920 9.000000
119.076850 13.000000
119.088440 41.000000
120.076860 58.000000
120.081920 116.000000
121.044380 5.000000
121.066120 20.000000
121.088180 17.000000
121.105160 7.000000
122.086910 7.000000
122.095820 40.000000
122.103580 18.000000
123.106090 6.000000
124.083110 6.000000
127.053730 14.000000
128.034610 6.000000
128.050340 19.000000
128.064380 139.000000
128.076480 15.000000
129.070590 108.000000
130.067470 16.000000
130.074830 50.000000
130.697420 6.000000
131.069950 30.000000
131.075740 34.000000
131.087780 136.000000
132.077480 37.000000
132.085800 25.000000
132.100740 11.000000
133.064540 10.000000
133.084080 10.000000
133.092410 12.000000
133.100660 29.000000
134.074250 5.000000
134.095960 29.000000
135.065170 6.000000
135.082320 20.000000
135.931580 7.000000
136.079450 15.000000
136.113680 6.000000
138.089250 6.000000
139.101000 5.000000
141.072250 88.000000
142.079240 124.000000
143.069790 9.000000
143.083940 170.000000
144.079150 52.000000
144.091480 21.000000
145.064100 27.000000
145.085600 11.000000
145.102390 115.000000
146.071320 7.000000
146.091740 32.000000
146.100880 18.000000
146.115780 7.000000
147.071470 6.000000
147.083370 20.000000
147.118700 8.000000
148.086300 6.000000
148.109540 32.000000
148.118620 11.000000
150.094790 6.000000
151.044740 6.000000
152.062000 35.000000
153.047930 6.000000
153.057330 11.000000
153.075930 42.000000
153.983250 6.000000
154.065050 11.000000
154.079440 79.000000
155.087100 112.000000
156.086780 35.000000
156.097900 6.000000
157.081330 5.000000
157.091780 24.000000
157.101290 71.000000
158.098240 42.000000
158.905290 5.000000
159.073040 9.000000
159.093510 13.000000
159.106480 12.000000
159.124100 18.000000
160.083360 9.000000
160.102940 19.000000
160.943890 7.000000
161.119610 10.000000
162.089810 8.000000
162.101230 5.000000
162.132420 5.000000
164.072130 6.000000
165.050990 7.000000
165.070390 128.000000
166.076400 69.000000
166.085310 21.000000
167.069050 15.000000
167.081880 81.000000
167.092730 28.000000
167.870960 7.000000
168.071950 13.000000
168.090030 26.000000
168.101900 12.000000
169.072480 7.000000
169.089460 11.000000
169.098820 67.000000
169.109940 37.000000
170.080440 7.000000
170.104840 11.000000
171.084530 5.000000
171.101700 14.000000
171.114760 14.000000
171.123430 13.000000
172.075450 16.000000
172.095500 14.000000
172.112210 35.000000
172.124920 9.000000
173.071210 6.000000
173.081830 11.000000
173.100980 11.000000
173.114000 7.000000
173.139110 8.000000
175.126100 6.000000
176.061950 9.000000
176.110290 16.000000
177.065950 6.000000
178.075470 42.000000
178.085860 16.000000
178.090470 7.000000
178.125810 7.000000
178.498540 8.000000
179.066540 6.000000
179.086320 141.000000
180.053500 5.000000
180.085400 32.000000
180.097400 18.000000
181.060010 11.000000
181.096390 60.000000
181.104840 85.000000
181.131230 8.000000
182.057430 7.000000
182.084410 6.000000
182.101090 54.000000
182.115250 9.000000
183.082570 7.000000
183.102950 24.000000
183.113010 35.000000
183.121870 23.000000
184.066060 5.000000
184.085970 27.000000
184.120620 32.000000
184.988170 11.000000
185.096830 11.000000
186.128190 7.000000
187.100720 5.000000
188.094910 11.000000
188.996400 6.000000
189.078930 11.000000
189.125810 6.000000
189.150220 6.000000
190.064300 11.000000
191.068650 5.000000
191.087070 73.000000
192.085360 49.000000
192.095690 41.000000
192.139390 6.000000
193.081560 24.000000
193.101720 132.000000
194.103640 43.000000
194.113800 27.000000
195.114590 95.000000
195.836690 6.000000
196.106080 29.000000
196.122150 19.000000
197.091600 15.000000
198.094560 5.000000
198.123890 17.000000
198.132450 9.000000
199.136430 15.000000
199.146420 10.000000
200.117230 16.000000
201.130920 12.000000
201.154170 9.000000
202.072910 15.000000
202.080900 8.000000
202.125340 7.000000
203.082950 22.000000
203.091570 16.000000
204.093460 30.000000
204.109740 7.000000
205.098430 36.000000
205.106990 19.000000
206.092000 8.000000
206.106640 32.000000
206.113360 14.000000
207.081620 10.000000
207.091740 6.000000
207.103260 21.000000
207.121020 22.000000
208.087390 6.000000
208.110410 16.000000
208.117750 15.000000
208.128560 19.000000
209.087170 6.000000
209.099580 7.000000
209.125550 10.000000
209.136630 29.000000
210.113010 7.000000
210.124770 24.000000
210.133680 11.000000
211.115220 22.000000
211.136950 50.000000
211.153080 11.000000
212.852630 8.000000
213.133300 6.000000
214.129520 10.000000
215.081480 15.000000
215.092440 20.000000
215.106450 8.000000
215.130330 8.000000
216.090550 14.000000
217.102720 60.000000
218.102860 21.000000
218.111510 10.000000
219.107330 6.000000
219.121400 39.000000
220.093120 10.000000
220.114990 25.000000
220.128910 10.000000
221.107480 9.000000
221.131180 40.000000
222.130600 42.000000
222.143710 12.000000
223.111830 17.000000
223.135930 9.000000
223.151840 12.000000
224.123310 7.000000
224.142670 8.000000
224.154890 6.000000
225.121310 7.000000
225.140320 13.000000
225.164050 6.000000
228.134370 18.000000
229.097060 36.000000
230.099180 9.000000
230.108890 15.000000
232.089370 5.000000
232.102360 9.000000
232.120590 16.000000
232.135210 9.000000
232.875850 6.000000
233.137990 5.000000
234.126430 13.000000
235.125790 13.000000
236.096690 5.000000
236.140050 16.000000
236.151990 7.000000
237.126070 6.000000
237.162000 19.000000
238.112110 5.000000
238.157910 56.000000
239.164730 7.000000
240.171260 6.000000
242.169680 17.000000
242.179570 6.000000
243.124020 8.000000
245.138950 5.000000
246.133290 15.000000
246.145320 6.000000
249.174390 6.000000
250.127520 8.000000
250.170960 5.000000
251.178650 11.000000
255.146560 6.000000
256.552860 7.000000
257.125980 7.000000
260.129150 6.000000
262.117310 5.000000
265.168090 6.000000
265.184170 9.000000
265.196930 6.000000
266.156770 11.000000
266.187620 10.000000
266.194790 28.000000
266.209590 7.000000
267.190400 12.000000
268.178340 5.000000
268.206820 6.000000
269.179810 9.000000
276.180790 5.000000
277.158720 7.000000
277.243770 7.000000
281.058990 6.000000
284.173680 21.000000
284.199430 9.000000
284.214510 7.000000
285.215940 5.000000
294.154750 5.000000
294.183840 19.000000
295.187870 22.000000
296.198060 10.000000
302.203340 5.000000
302.214230 7.000000
312.057560 8.000000
312.190920 37.000000
312.200650 104.000000
312.219730 25.000000
313.186580 8.000000
313.207820 23.000000
330.152530 11.000000
330.207760 1000.000000

>ms2
312.198300 10.000000
330.206600 1000.000000
330.258540 30.000000

>ms2
330.207610 1000.000000
330.259460 32.000000

>ms2
312.184720 9.000000
312.201050 24.000000
313.199100 5.000000
330.207920 1000.000000
330.260680 24.000000

>ms2
53.045270 6.000000
67.055150 23.000000
69.035160 8.000000
69.073860 10.000000
70.058760 12.000000
70.064830 5.000000
77.038170 25.000000
79.048580 9.000000
79.055630 54.000000
80.050480 12.000000
80.055980 5.000000
81.052900 7.000000
81.071590 36.000000
82.066360 49.000000
83.047710 14.000000
83.054960 7.000000
83.059820 10.000000
91.056330 129.000000
92.059140 28.000000
93.064800 17.000000
93.068660 44.000000
94.059810 26.000000
94.068640 18.000000
95.047250 16.000000
95.070120 6.000000
95.087140 18.000000
96.083190 66.000000
97.080470 6.000000
99.625160 6.000000
100.257220 6.000000
103.059030 24.000000
105.032050 7.000000
105.070890 192.000000
106.062810 11.000000
106.066780 28.000000
106.077280 19.000000
107.057360 5.000000
107.085630 26.000000
108.078630 67.000000
108.086220 41.000000
109.064350 15.000000
110.098520 7.000000
115.056240 87.000000
116.034860 6.000000
116.057950 34.000000
117.040490 7.000000
117.060650 23.000000
117.070430 71.000000
117.075750 19.000000
118.061420 21.000000
118.068610 18.000000
118.074420 24.000000
119.048820 6.000000
119.053590 14.000000
119.074340 23.000000
119.085330 43.000000
120.073390 20.000000
120.082630 98.000000
121.063870 12.000000
121.070980 12.000000
121.080800 20.000000
121.093740 13.000000
122.058820 5.000000
122.092770 27.000000
122.098600 29.000000
122.106580 7.000000
123.102650 10.000000
127.049670 14.000000
128.061610 115.000000
128.068700 20.000000
128.222890 8.000000
129.069920 142.000000
130.052980 6.000000
130.070310 71.000000
130.079800 21.000000
131.073780 24.000000
131.086850 173.000000
132.078250 54.000000
132.095470 20.000000
133.059510 8.000000
133.080730 12.000000
133.092380 6.000000
133.100190 11.000000
133.107880 11.000000
134.075090 5.000000
134.089070 12.000000
134.100400 32.000000
135.077410 14.000000
141.062550 27.000000
141.071730 48.000000
142.062840 8.000000
142.077610 118.000000
143.058470 9.000000
143.079930 65.000000
143.087600 102.000000
144.055740 6.000000
144.077070 73.000000
144.086470 35.000000
145.063310 14.000000
145.095500 32.000000
145.102650 77.000000
146.096890 26.000000
146.103870 39.000000
146.644270 7.000000
147.077270 20.000000
147.096800 14.000000
147.111710 7.000000
148.074110 9.000000
148.108920 19.000000
149.086810 9.000000
150.091610 17.000000
150.096480 8.000000
152.060900 34.000000
152.115370 5.000000
153.071200 45.000000
153.144850 7.000000
154.069400 33.000000
154.078140 30.000000
155.087110 158.000000
156.076460 28.000000
156.092730 55.000000
157.042430 6.000000
157.081090 6.000000
157.088200 20.000000
157.106230 51.000000
158.054150 7.000000
158.074450 7.000000
158.082600 6.000000
158.094940 40.000000
158.107730 24.000000
159.078640 29.000000
159.106230 11.000000
160.079760 19.000000
160.108150 21.000000
160.119030 11.000000
161.098180 10.000000
161.112990 8.000000
161.125490 13.000000
161.556590 8.000000
162.083690 6.000000
162.093020 7.000000
162.126690 6.000000
163.125550 7.000000
164.061940 5.000000
164.102740 6.000000
165.038930 6.000000
165.070360 137.000000
166.077300 112.000000
167.069820 46.000000
167.082080 58.000000
167.088640 44.000000
167.339610 6.000000
168.083070 68.000000
168.093900 34.000000
168.103230 6.000000
169.085300 18.000000
169.099040 36.000000
169.108430 14.000000
170.067350 18.000000
170.095440 17.000000
170.105380 5.000000
171.082890 38.000000
171.102040 6.000000
171.111450 22.000000
171.121030 10.000000
172.088000 5.000000
172.103780 6.000000
172.113280 31.000000
172.530470 9.000000
173.094890 28.000000
173.121640 5.000000
173.327180 5.000000
174.069900 5.000000
174.093830 13.000000
175.092640 5.000000
175.109420 6.000000
176.812470 9.000000
178.070240 34.000000
178.078280 54.000000
178.088010 11.000000
178.119960 13.000000
178.125180 6.000000
179.084500 111.000000
179.109450 9.000000
180.071960 5.000000
180.088930 57.000000
180.101170 28.000000
181.063610 20.000000
181.084300 10.000000
181.100810 91.000000
181.121000 9.000000
182.069430 12.000000
182.093840 39.000000
182.106460 52.000000
182.270710 7.000000
183.079030 11.000000
183.100010 9.000000
183.110320 29.000000
183.124880 12.000000
184.107700 11.000000
184.115810 10.000000
184.124220 9.000000
185.092350 14.000000
185.101910 13.000000
185.116460 24.000000
185.128190 11.000000
185.857070 7.000000
186.124020 18.000000
186.326110 8.000000
186.409760 9.000000
188.097550 11.000000
188.106030 7.000000
188.145110 13.000000
189.079930 6.000000
189.159700 5.000000
190.072560 17.000000
190.080370 9.000000
191.035290 8.000000
191.086270 48.000000
192.091020 100.000000
192.684830 5.000000
193.103470 125.000000
194.067470 10.000000
194.090520 34.000000
194.109150 46.000000
195.084660 18.000000
195.113630 83.000000
195.124250 14.000000
196.113890 27.000000
196.125640 14.000000
196.921620 12.000000
197.095340 15.000000
197.121170 9.000000
198.107710 11.000000
198.125340 33.000000
198.161190 6.000000
199.095400 9.000000
199.107560 6.000000
199.123150 7.000000
199.152760 5.000000
200.106750 14.000000
200.141540 7.000000
202.052120 6.000000
202.120940 6.000000
203.080230 47.000000
203.091000 15.000000
204.083470 12.000000
204.095570 12.000000
204.583910 7.000000
205.093090 21.000000
205.101580 39.000000
206.085020 6.000000
206.099790 26.000000
206.109240 15.000000
206.124690 9.000000
207.073230 6.000000
207.116390 77.000000
208.049880 6.000000
208.084580 6.000000
208.108930 59.000000
208.126800 15.000000
209.111150 8.000000
209.124940 12.000000
209.132460 33.000000
210.088360 9.000000
210.120700 11.000000
210.129040 12.000000
210.137970 16.000000
211.097260 13.000000
211.119780 6.000000
211.144790 20.000000
211.287770 5.000000
212.139500 10.000000
212.732600 12.000000
213.132900 6.000000
213.859240 6.000000
216.094270 6.000000
217.104020 27.000000
218.072280 6.000000
218.097290 15.000000
218.109020 14.000000
219.100810 5.000000
219.116090 28.000000
220.115680 49.000000
220.127530 7.000000
221.119490 8.000000
221.131480 17.000000
221.143710 7.000000
221.155980 6.000000
222.087040 11.000000
222.098980 11.000000
222.130070 18.000000
223.114270 16.000000
223.145550 18.000000
224.151410 15.000000
225.119580 13.000000
225.147870 9.000000
227.023220 7.000000
228.098240 6.000000
228.151470 10.000000
229.100510 29.000000
229.111570 14.000000
229.157680 5.000000
230.104740 10.000000
231.113110 7.000000
232.115040 21.000000
232.130190 9.000000
233.123400 6.000000
233.136140 27.000000
233.145870 7.000000
234.126020 8.000000
234.140440 9.000000
235.147720 13.000000
236.127440 6.000000
236.145050 5.000000
236.158370 5.000000
237.130490 10.000000
237.168320 6.000000
238.155410 24.000000
239.208040 6.000000
240.087520 5.000000
240.110020 6.000000
241.139330 9.000000
243.191090 6.000000
244.120130 10.000000
247.123860 11.000000
248.133300 11.000000
248.157470 9.000000
249.123120 5.000000
249.138310 13.000000
249.149810 15.000000
249.164630 6.000000
250.121930 7.000000
250.151140 17.000000
251.139980 8.000000
251.171070 10.000000
252.146700 6.000000
253.147030 5.000000
255.156510 6.000000
255.204760 6.000000
260.141780 11.000000
266.144680 17.000000
266.162290 9.000000
266.178010 17.000000
266.203090 7.000000
268.170530 12.000000
268.183990 8.000000
268.198150 10.000000
270.137790 6.000000
282.060940 7.000000
282.195370 10.000000
283.158260 8.000000
284.188900 5.000000
284.199800 11.000000
285.195500 11.000000
286.205600 6.000000
287.219760 6.000000
294.184660 24.000000
294.196040 11.000000
295.172700 9.000000
295.184050 11.000000
297.150970 6.000000
299.484280 9.000000
302.213590 15.000000
302.224330 9.000000
312.177920 35.000000
312.195040 127.000000
312.812930 6.000000
313.173650 15.000000
313.185700 18.000000
313.204280 21.000000
313.986330 6.000000
314.204100 7.000000
330.118040 20.000000
330.148590 5.000000
330.165370 21.000000
330.205380 1000.000000

>ms2
312.196350 12.000000
330.206700 1000.000000
330.258670 27.000000

>ms2
330.207760 1000.000000
330.259740 34.000000

>ms2
294.184080 5.000000
312.195130 26.000000
313.195010 8.000000
330.157620 5.000000
330.206300 1000.000000
330.258970 22.000000

>ms2
53.836400 10.000000
54.881030 6.000000
67.051510 11.000000
69.035960 5.000000
69.073480 12.000000
70.059500 7.000000
70.064500 5.000000
72.081760 6.000000
77.034990 9.000000
77.040930 15.000000
77.044820 20.000000
79.055660 54.000000
79.062290 7.000000
80.053310 11.000000
80.057910 9.000000
81.034810 6.000000
81.067150 45.000000
82.063800 30.000000
82.069560 38.000000
83.086710 5.000000
84.041220 13.000000
85.064380 6.000000
90.048410 10.000000
91.055630 180.000000
92.045790 10.000000
93.062770 17.000000
93.069110 55.000000
94.062640 52.000000
94.079470 7.000000
95.045540 14.000000
95.050540 6.000000
95.072490 10.000000
95.086010 30.000000
96.051140 9.000000
96.075230 11.000000
96.082810 6.000000
100.070390 6.000000
102.047820 7.000000
103.052020 33.000000
105.070370 202.000000
105.447550 11.000000
106.061610 14.000000
106.079280 10.000000
107.086270 35.000000
108.068740 7.000000
108.081340 63.000000
109.061410 6.000000
109.066900 5.000000
109.091850 10.000000
110.087220 6.000000
111.082410 6.000000
115.037750 5.000000
115.053360 68.000000
115.063670 7.000000
116.058070 45.000000
117.054980 5.000000
117.070420 99.000000
118.068860 24.000000
118.083950 6.000000
119.048860 7.000000
119.078720 8.000000
119.087680 38.000000
120.045590 10.000000
120.077770 67.000000
120.084870 46.000000
121.065690 15.000000
121.070670 11.000000
121.087520 11.000000
122.058170 9.000000
122.096590 20.000000
122.100140 8.000000
123.077380 10.000000
123.083370 7.000000
127.061490 10.000000
128.011280 6.000000
128.061220 89.000000
128.070800 28.000000
129.069020 197.000000
129.162510 5.000000
130.053880 11.000000
130.070420 56.000000
130.082140 15.000000
131.044280 8.000000
131.070050 27.000000
131.085490 168.000000
132.082210 54.000000
133.002910 6.000000
133.060240 5.000000
133.085740 10.000000
133.098500 10.000000
133.103670 6.000000
134.075070 6.000000
134.097270 16.000000
134.105000 8.000000
135.076000 9.000000
135.083130 13.000000
135.101030 6.000000
138.091460 7.000000
139.054670 6.000000
141.035890 6.000000
141.051590 12.000000
141.070850 87.000000
141.084460 7.000000
142.063130 12.000000
142.073680 91.000000
143.069930 12.000000
143.081210 94.000000
143.089390 35.000000
144.062740 6.000000
144.078980 66.000000
144.092680 25.000000
145.069270 60.000000
145.080980 10.000000
145.087080 13.000000
145.099590 106.000000
146.086070 7.000000
146.099270 45.000000
146.110760 6.000000
147.082170 12.000000
147.089550 5.000000
147.100810 6.000000
148.071490 5.000000
148.216610 5.000000
148.728070 6.000000
150.092640 5.000000
150.099790 9.000000
150.726040 5.000000
152.054310 8.000000
152.064470 29.000000
152.101040 10.000000
153.060240 8.000000
153.072660 69.000000
154.066330 17.000000
154.072600 30.000000
154.081100 45.000000
154.091200 6.000000
155.032590 13.000000
155.086290 150.000000
155.099110 11.000000
155.542300 8.000000
156.071730 9.000000
156.087450 30.000000
157.059250 11.000000
157.075520 14.000000
157.081220 11.000000
157.101640 69.000000
157.114470 7.000000
158.062410 10.000000
158.071270 10.000000
158.082430 7.000000
158.098190 49.000000
158.108260 11.000000
159.079280 23.000000
159.117600 65.000000
160.067410 6.000000
160.116610 11.000000
161.090150 13.000000
161.096800 12.000000
162.100970 5.000000
162.111360 8.000000
164.059300 6.000000
164.102970 5.000000
165.060930 31.000000
165.072780 147.000000
166.060840 8.000000
166.080760 87.000000
166.116730 6.000000
167.078160 64.000000
167.086060 110.000000
168.068130 7.000000
168.089220 32.000000
168.103580 6.000000
169.079360 13.000000
169.094060 32.000000
169.102910 84.000000
170.070760 13.000000
170.082440 6.000000
170.093430 15.000000
171.078720 19.000000
171.099320 38.000000
171.122120 16.000000
172.085750 24.000000
172.114670 27.000000
173.082720 22.000000
173.096330 25.000000
175.078140 7.000000
175.103810 5.000000
176.116870 6.000000
177.067890 6.000000
178.079830 110.000000
178.093090 8.000000
178.123990 6.000000
178.134400 9.000000
179.025360 6.000000
179.067780 13.000000
179.077420 34.000000
179.086720 63.000000
179.131180 6.000000
180.089810 60.000000
180.100800 31.000000
181.071350 15.000000
181.078830 16.000000
181.099470 146.000000
181.110670 65.000000
181.778050 7.000000
182.100720 70.000000
182.111830 14.000000
183.104370 9.000000
183.119020 44.000000
184.114260 43.000000
185.100660 11.000000
185.118710 21.000000
186.129670 9.000000
188.113300 15.000000
190.071500 7.000000
190.082980 11.000000
190.282700 6.000000
191.079940 28.000000
192.089390 59.000000
192.099840 39.000000
193.058870 5.000000
193.095750 91.000000
193.105350 48.000000
194.058290 6.000000
194.088820 11.000000
194.096480 12.000000
194.110930 83.000000
195.062290 9.000000
195.077990 21.000000
195.097960 24.000000
195.112700 101.000000
195.126130 26.000000
196.101150 23.000000
196.115200 62.000000
197.088680 10.000000
197.106980 12.000000
197.119370 5.000000
197.132900 15.000000
198.085980 13.000000
198.108200 6.000000
198.125240 7.000000
198.131620 15.000000
199.116150 8.000000
199.135830 8.000000
200.154970 10.000000
202.067060 9.000000
202.124440 6.000000
203.085270 37.000000
203.096910 6.000000
203.119860 5.000000
204.076980 9.000000
204.089840 29.000000
205.086870 15.000000
205.102040 32.000000
206.067110 7.000000
206.087070 10.000000
206.097630 14.000000
206.112080 61.000000
206.122220 13.000000
206.335300 5.000000
206.982480 6.000000
207.049360 5.000000
207.091780 6.000000
207.111160 57.000000
207.121930 14.000000
208.096330 21.000000
208.122410 63.000000
209.093520 7.000000
209.110840 16.000000
209.122150 27.000000
209.138810 22.000000
210.099180 16.000000
210.107330 13.000000
210.130360 15.000000
211.133220 19.000000
211.151750 5.000000
212.103230 12.000000
212.146590 10.000000
213.121120 6.000000
213.158710 6.000000
213.674220 6.000000
214.093150 6.000000
215.076750 17.000000
215.088240 10.000000
215.102550 6.000000
216.088900 9.000000
216.139770 7.000000
217.100130 43.000000
217.110860 13.000000
218.102860 18.000000
218.115400 14.000000
218.851040 6.000000
219.096910 9.000000
219.106870 10.000000
219.121260 27.000000
220.098790 14.000000
220.119640 45.000000
221.096830 7.000000
221.114530 7.000000
221.133390 39.000000
222.108170 11.000000
222.126970 30.000000
222.138980 8.000000
224.075240 6.000000
224.111180 11.000000
224.132870 6.000000
224.148800 27.000000
224.157490 10.000000
225.133260 6.000000
225.160540 19.000000
229.097640 32.000000
231.110060 17.000000
232.108320 12.000000
232.131820 7.000000
232.333850 8.000000
233.107380 23.000000
233.131910 17.000000
234.133910 24.000000
234.153960 7.000000
235.080720 7.000000
235.121720 7.000000
235.134450 8.000000
235.144810 24.000000
235.664810 7.000000
236.123960 6.000000
236.136090 9.000000
236.155180 6.000000
237.132220 6.000000
237.149460 18.000000
237.164380 15.000000
237.175450 6.000000
238.156070 25.000000
239.172610 13.000000
241.168750 6.000000
244.117890 5.000000
248.136760 7.000000
248.151720 6.000000
249.157380 6.000000
250.125890 5.000000
252.151110 18.000000
253.147550 7.000000
254.155530 17.000000
255.112980 6.000000
256.135190 5.000000
261.147580 6.000000
262.166840 8.000000
263.154020 13.000000
266.155850 14.000000
266.183590 17.000000
266.194980 19.000000
266.202970 10.000000
267.189700 20.000000
268.129060 6.000000
268.162170 18.000000
268.178770 26.000000
269.143520 5.000000
270.145050 6.000000
272.217410 12.000000
273.097350 6.000000
273.151060 5.000000
274.155000 6.000000
275.164120 9.000000
277.168430 7.000000
278.165920 6.000000
281.159300 5.000000
282.146480 5.000000
283.199340 7.000000
284.205020 27.000000
285.211360 9.000000
294.177640 28.000000
294.195070 35.000000
295.174590 15.000000
295.189940 9.000000
303.222320 15.000000
304.217010 6.000000
312.139500 6.000000
312.177220 12.000000
312.197540 120.000000
312.223880 6.000000
313.088130 6.000000
313.196260 26.000000
313.208250 31.000000
330.081240 6.000000
330.204560 1000.000000
330.243900 8.000000
330.258820 5.000000

>ms2
67.055920 22.000000
70.571070 24.000000
79.053250 21.000000
84.040250 22.000000
91.053360 45.000000
93.064770 20.000000
93.069750 17.000000
94.060820 43.000000
94.064700 72.000000
95.047890 49.000000
95.089260 25.000000
95.532970 18.000000
97.031570 20.000000
105.068390 19.000000
106.071070 17.000000
107.091110 60.000000
114.526110 21.000000
115.054310 20.000000
116.057330 24.000000
117.071500 35.000000
118.061640 44.000000
119.090510 20.000000
120.072560 26.000000
120.082600 104.000000
121.076990 31.000000
121.086650 24.000000
122.051830 20.000000
127.588450 19.000000
128.061510 20.000000
129.070360 54.000000
129.074280 20.000000
130.060000 18.000000
130.075240 21.000000
131.083240 41.000000
132.074540 16.000000
132.082500 99.000000
133.082670 20.000000
133.094130 43.000000
134.056790 21.000000
134.095470 51.000000
135.079900 17.000000
135.089430 24.000000
135.116840 24.000000
141.055100 18.000000
141.071300 40.000000
143.071780 22.000000
143.085450 162.000000
144.082440 58.000000
145.070560 19.000000
145.094670 50.000000
145.104030 46.000000
146.101610 77.000000
147.069980 25.000000
148.105260 20.000000
150.104550 20.000000
153.063370 24.000000
155.082960 80.000000
156.082170 28.000000
157.062000 32.000000
157.069810 47.000000
157.099560 71.000000
157.109410 33.000000
158.089870 23.000000
158.103350 94.000000
159.076900 18.000000
160.111160 104.000000
161.078660 21.000000
161.093610 23.000000
161.111220 23.000000
161.119610 17.000000
163.884350 17.000000
164.329030 33.000000
165.068050 35.000000
165.847640 31.000000
166.076050 60.000000
166.088840 20.000000
166.121250 17.000000
167.073900 16.000000
167.081480 74.000000
168.084140 17.000000
168.102550 26.000000
169.099230 70.000000
170.093380 73.000000
171.076610 20.000000
171.101290 21.000000
171.119340 36.000000
172.090260 21.000000
172.755720 43.000000
173.100390 22.000000
174.092650 23.000000
174.108830 24.000000
174.132320 21.000000
175.066060 20.000000
175.090100 17.000000
175.852020 17.000000
178.078000 26.000000
179.083450 38.000000
179.089870 23.000000
180.090190 59.000000
180.099900 23.000000
181.075730 21.000000
181.098210 151.000000
181.109710 41.000000
182.019910 24.000000
182.106830 94.000000
182.305940 36.000000
183.093930 21.000000
183.118590 32.000000
184.108990 20.000000
185.093050 21.000000
186.090230 18.000000
186.119640 18.000000
188.108990 21.000000
189.077350 36.000000
191.735660 17.000000
192.088270 26.000000
192.102330 29.000000
192.128800 18.000000
193.091690 69.000000
193.103620 78.000000
193.117130 18.000000
193.343920 20.000000
194.091480 19.000000
194.108930 58.000000
194.910810 29.000000
195.113360 147.000000
196.102950 18.000000
196.110280 18.000000
196.126310 20.000000
197.125060 35.000000
197.136520 19.000000
198.131910 22.000000
198.197330 38.000000
198.502140 30.000000
199.096010 18.000000
199.116590 25.000000
199.147370 20.000000
203.450350 18.000000
204.087720 45.000000
204.098360 35.000000
205.087360 49.000000
205.099210 20.000000
206.106520 68.000000
206.187480 34.000000
207.113880 82.000000
207.121720 65.000000
208.122670 45.000000
209.094920 17.000000
209.108860 78.000000
209.132350 156.000000
209.242920 27.000000
209.595600 17.000000
210.134980 21.000000
210.440550 20.000000
210.759700 30.000000
211.138670 19.000000
212.156680 32.000000
212.467420 29.000000
216.187320 21.000000
217.100680 61.000000
217.223720 21.000000
218.091610 20.000000
218.109070 33.000000
218.390210 46.000000
218.559840 35.000000
219.015790 39.000000
219.042860 23.000000
219.097750 19.000000
219.115750 83.000000
219.991470 24.000000
220.085280 18.000000
220.122130 20.000000
220.131700 29.000000
221.101180 21.000000
221.139370 51.000000
222.010380 20.000000
222.099960 20.000000
222.121550 17.000000
222.130890 20.000000
223.363770 27.000000
223.461620 21.000000
224.143160 25.000000
225.126310 19.000000
225.151540 22.000000
227.128830 18.000000
227.194470 24.000000
231.118160 24.000000
231.617220 19.000000
232.123310 39.000000
232.231000 20.000000
232.246190 33.000000
233.115390 25.000000
233.128860 92.000000
234.132200 20.000000
234.729310 17.000000
235.105290 21.000000
236.152250 60.000000
237.133510 18.000000
237.168030 17.000000
237.662980 20.000000
238.108110 20.000000
238.146180 19.000000
238.158140 70.000000
240.665500 18.000000
243.121340 25.000000
244.122910 37.000000
246.125200 17.000000
246.388320 19.000000
247.149120 52.000000
248.070040 43.000000
248.136020 25.000000
248.152180 20.000000
248.759830 28.000000
249.132250 20.000000
249.162350 23.000000
250.153990 72.000000
250.171080 78.000000
250.669200 20.000000
251.071090 20.000000
251.138310 18.000000
251.162060 20.000000
251.178220 19.000000
252.152770 18.000000
253.177140 22.000000
255.175200 45.000000
256.131840 22.000000
259.150670 22.000000
262.153350 28.000000
262.735530 18.000000
263.272030 25.000000
266.169560 18.000000
266.184140 37.000000
266.197450 95.000000
267.151580 25.000000
268.143400 20.000000
268.167480 41.000000
268.177190 34.000000
270.136170 20.000000
270.151370 19.000000
270.184050 29.000000
276.157290 39.000000
276.169490 57.000000
277.171480 32.000000
278.165280 42.000000
279.173740 47.000000
281.264500 30.000000
284.329960 20.000000
285.387360 17.000000
285.525510 19.000000
286.329130 21.000000
286.581790 22.000000
293.308110 18.000000
294.125430 23.000000
294.160430 27.000000
294.179140 56.000000
294.192290 47.000000
294.204380 26.000000
294.213930 17.000000
294.231630 33.000000
295.172150 23.000000
295.187230 17.000000
296.034390 26.000000
302.000370 19.000000
302.038570 21.000000
302.089570 17.000000
302.216610 179.000000
303.046840 22.000000
303.200130 19.000000
307.388760 24.000000
308.934480 52.000000
312.171970 45.000000
312.196900 983.000000
313.175290 21.000000
313.194850 229.000000
313.210270 114.000000
314.193850 23.000000
315.352230 20.000000
320.073640 45.000000
321.027340 25.000000
323.670230 18.000000
323.816220 17.000000
323.852910 17.000000
323.883510 18.000000
323.930270 17.000000
324.501430 21.000000
324.573850 25.000000
324.923070 24.000000
325.759980 17.000000
328.258330 18.000000
329.066250 17.000000
329.351870 20.000000
329.562770 18.000000
329.807770 18.000000
329.890620 19.000000
329.935670 22.000000
330.069180 20.000000
330.127620 60.000000
330.147220 238.000000
330.166810 123.000000
330.205780 72250.000000
330.257200 1938.000000
330.294560 37.000000
330.305330 62.000000
330.360230 18.000000

