>compound PR73525674
>parentmass 149.05970672727273
>ionization [M+H]+
>formula C9H8O2
>rt 327.719182
>profile qtof
#smiles_iso C1=CC=C(C=C1)C=CC(=O)O
#smiles_can C1=CC=C(C=C1)C=CC(=O)O
#inchikey WBYWAXJHAXSJNI-UHFFFAOYSA-N
#pubchem_id 8784
#mb_accession PR302995,PR303000,PR303005,PR303014,PR303019,PR303024,PR303033,PR303038,PR303043,PR310501,PR310502

>ms2
69.993680 203.000000
110.024880 424.000000
131.042890 144.000000
131.051240 1000.000000

>ms2
90.508270 93.000000
95.086100 65.000000
104.049320 65.000000
111.043940 81.000000
123.044620 43.000000
131.034240 120.000000
131.048580 1000.000000
132.045230 117.000000
132.051640 100.000000
136.056950 69.000000
147.044040 67.000000
149.059220 48.000000

>ms2
105.025070 1000.000000

>ms2
77.034000 207.000000
103.055180 593.000000
131.050090 1000.000000
147.045990 179.000000
149.090320 193.000000

>ms2
90.506050 187.000000
104.056950 146.000000
109.987950 111.000000
131.051470 1000.000000
132.035680 181.000000
147.052460 117.000000
149.061980 117.000000

>ms2
124.964550 1000.000000

>ms2
103.050660 1000.000000

>ms2
90.506970 145.000000
103.057370 82.000000
106.902790 105.000000
129.056340 328.000000
130.593260 74.000000
131.037750 94.000000
131.049840 1000.000000
132.060170 98.000000
147.044970 70.000000
149.057110 98.000000
149.064210 137.000000

>ms2
77.038930 1000.000000

>ms2
69.993680 24.000000
110.024880 50.000000
131.042890 17.000000
131.051240 118.000000

>ms2
77.042270 20.000000
82.520670 17.000000
103.054860 80.000000
131.050980 479.000000
132.046570 20.000000
132.572200 27.000000
149.056530 25.000000

