>compound PR73420688
>parentmass 611.1970468
>ionization [M+H]+
>formula C28H34O15
>rt 275.392020
>profile qtof
#smiles_iso C[C@H]1[C@@H]([C@H]([C@H]([C@@H](O1)O[C@@H]2[C@H]([C@@H]([C@H](O[C@H]2OC3=CC(=C4C(=O)C[C@H](OC4=C3)C5=CC(=C(C=C5)OC)O)O)CO)O)O)O)O)O
#smiles_can CC1C(C(C(C(O1)OC2C(C(C(OC2OC3=CC(=C4C(=O)CC(OC4=C3)C5=CC(=C(C=C5)OC)O)O)CO)O)O)O)O)O
#inchikey ARGKVCXINMKCAZ-UZRWAPQLSA-N
#pubchem_id 442439
#mb_accession PR302754,PR302758,PR302765,PR302769,PR302773,PR302777,PR302781,PR302788,PR302792,PR302796

>ms2peaks
71.051680 30.000000
85.025810 57.000000
85.029950 27.000000
96.972600 16.000000
129.049610 16.000000
129.058620 28.000000
131.059330 17.000000
142.055970 19.000000
145.023090 24.000000
147.049730 20.000000
149.450810 17.000000
153.016140 236.000000
153.028400 50.000000
153.034680 36.000000
154.018330 19.000000
167.015500 35.000000
177.012440 20.000000
177.059620 115.000000
179.027560 18.000000
179.061830 22.000000
187.880140 30.000000
195.028690 143.000000
195.044510 28.000000
195.061780 16.000000
196.034900 25.000000
204.032780 28.000000
219.028900 115.000000
219.063520 16.000000
220.029390 36.000000
231.028880 58.000000
231.042390 25.000000
244.035250 38.000000
245.040940 60.000000
246.040070 26.000000
246.055830 19.000000
261.043460 42.000000
263.054780 24.000000
263.063230 72.000000
279.049290 18.000000
280.856230 19.000000
283.079470 26.000000
285.209410 17.000000
297.047670 42.000000
297.060940 16.000000
303.036830 36.000000
303.088260 1000.000000
303.125700 25.000000
304.072940 66.000000
304.087620 131.000000
305.084010 37.000000
305.095280 18.000000
311.585450 17.000000
315.085910 38.000000
327.085510 71.000000
345.080050 46.000000
345.095670 76.000000
346.095250 20.000000
369.099400 128.000000
369.126980 29.000000
370.087550 37.000000
371.122960 23.000000
395.106960 41.000000
395.126650 16.000000
397.122890 35.000000
411.026150 19.000000
411.089630 19.000000
411.105740 25.000000
411.130100 19.000000
413.113400 16.000000
413.137420 25.000000
414.141660 42.000000
429.076690 16.000000
430.119230 21.000000
431.126890 112.000000
431.170750 23.000000
432.121340 25.000000
433.161440 24.000000
449.118190 61.000000
449.146760 431.000000
449.178960 30.000000
450.153750 29.000000
451.155880 29.000000
455.135890 22.000000
465.131740 139.000000
465.152950 118.000000
466.146150 17.000000
466.160220 39.000000
479.140780 26.000000
489.131350 24.000000
490.131770 27.000000
497.141750 30.000000
507.146940 16.000000
575.172000 38.000000
593.179440 42.000000
594.163450 17.000000
610.181700 21.000000
610.617860 17.000000
611.094180 19.000000
611.199040 234.000000

>ms2peaks
85.026910 17.000000
129.041430 11.000000
254.745540 10.000000
281.073640 40.000000
282.071810 12.000000
302.997220 12.000000
303.078220 119.000000
303.092410 139.000000
304.090060 167.000000
327.079190 12.000000
331.058350 14.000000
345.068510 12.000000
345.092530 77.000000
346.086550 11.000000
346.118040 12.000000
348.928890 28.000000
368.933140 13.000000
369.088440 20.000000
411.120640 15.000000
413.093350 10.000000
413.105900 18.000000
413.134430 12.000000
414.062410 19.000000
414.121460 18.000000
429.092470 15.000000
431.128300 31.000000
431.161710 18.000000
433.148860 32.000000
437.130430 13.000000
441.122280 12.000000
443.088290 13.000000
447.103760 24.000000
447.120330 72.000000
447.138950 63.000000
448.135740 27.000000
448.976440 15.000000
449.088260 11.000000
449.144740 799.000000
450.124180 39.000000
450.150210 158.000000
450.186220 21.000000
452.166810 18.000000
456.122680 25.000000
465.088930 13.000000
465.116060 40.000000
465.131710 96.000000
465.151730 168.000000
466.135130 84.000000
467.135470 24.000000
467.149960 41.000000
473.142940 16.000000
489.133610 46.000000
489.161040 11.000000
490.115110 21.000000
491.112790 10.000000
492.167540 22.000000
497.152650 17.000000
501.579220 21.000000
507.102450 10.000000
513.148010 20.000000
539.176330 10.000000
557.136170 13.000000
557.164000 16.000000
559.180730 15.000000
575.110290 14.000000
575.174740 58.000000
575.207820 12.000000
576.185490 10.000000
593.145630 10.000000
593.187440 84.000000
611.130680 18.000000
611.158570 45.000000
611.198610 1000.000000

>ms2peaks
72.638840 41.000000
85.020940 52.000000
85.030450 129.000000
85.048500 46.000000
107.046910 41.000000
109.027180 64.000000
111.007160 41.000000
111.049510 46.000000
114.453670 41.000000
135.043330 81.000000
137.065490 73.000000
145.028530 189.000000
149.050660 35.000000
153.002110 52.000000
153.019710 1000.000000
154.231050 50.000000
163.042140 77.000000
165.002110 52.000000
165.015000 35.000000
165.023240 133.000000
171.818010 52.000000
172.108610 37.000000
173.054870 44.000000
177.053450 778.000000
178.050570 35.000000
178.060290 66.000000
179.037770 58.000000
191.038420 35.000000
195.027160 473.000000
196.034700 48.000000
201.010250 62.000000
201.044770 93.000000
201.054000 75.000000
202.994290 46.000000
205.033690 62.000000
217.044830 44.000000
219.030910 124.000000
221.027330 56.000000
231.057450 54.000000
243.010240 54.000000
243.064420 50.000000
244.071620 64.000000
245.039700 106.000000
245.049510 48.000000
261.035400 60.000000
303.096680 95.000000
309.044560 56.000000

>ms2peaks
69.244430 13.000000
85.012310 16.000000
85.026690 112.000000
129.064420 22.000000
135.048220 28.000000
147.066180 13.000000
151.072270 29.000000
151.078630 34.000000
153.011980 40.000000
166.077700 19.000000
177.056050 188.000000
177.065290 22.000000
178.055110 17.000000
178.062010 19.000000
180.063020 22.000000
189.014920 25.000000
195.005830 15.000000
195.020490 67.000000
195.032940 159.000000
195.644240 13.000000
196.824710 34.000000
207.842830 18.000000
215.036990 19.000000
219.034070 60.000000
220.040880 14.000000
231.038150 13.000000
245.042080 31.000000
254.422390 13.000000
263.047970 28.000000
263.064820 15.000000
264.067500 14.000000
279.047390 19.000000
281.059660 34.000000
294.553310 19.000000
299.083190 13.000000
302.974430 13.000000
303.019780 20.000000
303.049260 48.000000
303.067320 162.000000
303.086670 1000.000000
303.115480 19.000000
304.080750 39.000000
304.092900 140.000000
304.108580 24.000000
315.086700 32.000000
323.070830 22.000000
327.082580 13.000000
345.085600 13.000000
345.097810 32.000000
345.110470 22.000000
345.823580 13.000000
346.103000 15.000000
351.082180 17.000000
369.090060 19.000000
369.112240 37.000000
370.101440 15.000000
381.090700 16.000000
389.083470 27.000000
389.099490 15.000000
389.120360 13.000000
394.471680 19.000000
407.113830 22.000000
413.103820 36.000000
413.128510 57.000000
414.114750 13.000000
429.102720 15.000000
429.123840 38.000000
431.093080 19.000000
431.134520 93.000000
432.123900 34.000000
432.147800 13.000000
447.129210 58.000000
448.128570 34.000000
449.128540 125.000000
449.146850 255.000000
450.151090 63.000000
451.162510 13.000000
461.122710 22.000000
464.154390 16.000000
465.120570 49.000000
465.137480 109.000000
466.142760 34.000000
468.144530 13.000000
473.151580 19.000000
477.125850 14.000000
489.109920 19.000000
489.143220 28.000000
489.186860 16.000000
490.139160 15.000000
491.162290 20.000000
524.253420 17.000000
557.189820 15.000000
575.188600 15.000000
611.173890 54.000000
611.199340 250.000000
611.242000 20.000000

>ms2peaks
71.049090 23.000000
85.024120 48.000000
129.059220 26.000000
145.044950 38.000000
255.088090 43.000000
303.040650 41.000000
303.049560 63.000000
303.079040 308.000000
303.091000 336.000000
304.087370 66.000000
309.128200 25.000000
315.089050 31.000000
327.083470 32.000000
345.085170 110.000000
369.095150 35.000000
413.123200 32.000000
413.140500 60.000000
425.095090 36.000000
431.131870 223.000000
432.119630 23.000000
447.101010 88.000000
447.116060 72.000000
447.136230 150.000000
447.154140 31.000000
448.140660 26.000000
449.132630 467.000000
449.153170 560.000000
449.189450 49.000000
450.131960 118.000000
450.162200 146.000000
450.352480 38.000000
451.142060 109.000000
465.092190 22.000000
465.140470 348.000000
465.848850 31.000000
466.119660 27.000000
466.141630 210.000000
473.135680 27.000000
473.171570 50.000000
489.144620 175.000000
491.125640 23.000000
491.142360 34.000000
491.162510 23.000000
492.161290 58.000000
521.149230 31.000000
545.467710 23.000000
557.173460 32.000000
575.152590 38.000000
575.187130 22.000000
593.165950 58.000000
593.201230 101.000000
594.171750 27.000000
611.195310 1000.000000

>ms2peaks
71.039420 12.000000
71.044760 19.000000
75.045620 10.000000
85.024600 56.000000
98.033450 19.000000
115.214900 8.000000
129.048220 16.000000
129.054140 31.000000
131.079030 8.000000
153.008730 19.000000
153.019870 64.000000
154.018200 11.000000
154.027950 12.000000
154.274860 9.000000
177.017230 16.000000
177.055010 56.000000
179.028120 27.000000
179.043000 8.000000
195.003170 13.000000
195.027910 145.000000
195.041980 24.000000
218.055440 8.000000
219.016540 13.000000
219.032410 79.000000
225.039030 10.000000
231.029390 13.000000
235.031720 13.000000
243.025510 18.000000
245.039170 42.000000
245.057250 25.000000
258.085020 9.000000
261.014710 11.000000
261.040770 12.000000
262.036900 18.000000
263.040950 33.000000
263.049220 35.000000
263.061740 38.000000
263.860870 14.000000
264.039000 23.000000
264.064060 10.000000
265.064420 14.000000
281.060390 21.000000
281.072850 10.000000
282.065120 14.000000
282.082430 11.000000
285.045960 9.000000
285.067470 13.000000
286.041410 8.000000
287.038670 12.000000
289.076810 11.000000
297.082120 13.000000
301.064180 12.000000
303.026340 11.000000
303.061460 60.000000
303.082240 1000.000000
304.086640 199.000000
315.075870 67.000000
315.092130 32.000000
316.090030 12.000000
317.094880 18.000000
327.048950 13.000000
327.092070 29.000000
328.075590 8.000000
328.087490 11.000000
329.113370 9.000000
345.083740 22.000000
346.088200 11.000000
346.103090 13.000000
347.105770 10.000000
352.094060 10.000000
358.112850 16.000000
359.050960 17.000000
369.074860 20.000000
369.089360 27.000000
369.111420 10.000000
370.089260 10.000000
381.082550 19.000000
381.099460 14.000000
381.118440 9.000000
389.097140 22.000000
389.110260 9.000000
393.116360 29.000000
395.091130 8.000000
395.104830 30.000000
396.062530 16.000000
411.090820 14.000000
412.114350 13.000000
413.130890 44.000000
423.095760 9.000000
425.112700 13.000000
426.136290 21.000000
429.106020 19.000000
431.126130 23.000000
435.100250 12.000000
447.124570 12.000000
449.112640 9.000000
465.119630 14.000000
466.152440 10.000000

>ms2peaks
71.048080 45.000000
72.371510 27.000000
75.036350 34.000000
85.018550 48.000000
85.026220 125.000000
85.031780 43.000000
86.033490 54.000000
97.029820 50.000000
109.025900 29.000000
119.052120 29.000000
123.042040 30.000000
124.056710 37.000000
125.060120 46.000000
129.059920 29.000000
145.027480 112.000000
145.034900 125.000000
146.024630 40.000000
149.103420 27.000000
150.066990 35.000000
151.030470 29.000000
151.064130 35.000000
151.076480 56.000000
152.670610 29.000000
152.992100 34.000000
153.000920 94.000000
153.018250 764.000000
153.027790 204.000000
153.035800 40.000000
153.069670 27.000000
154.019410 38.000000
163.042040 40.000000
165.021040 435.000000
170.707200 27.000000
175.077150 50.000000
177.055880 1000.000000
178.032930 29.000000
178.060380 46.000000
179.035630 121.000000
179.061490 61.000000
187.579940 62.000000
189.021100 46.000000
195.024980 144.000000
195.032270 141.000000
195.045030 46.000000
196.029040 27.000000
196.049380 32.000000
201.050350 88.000000
204.030780 37.000000
205.063740 48.000000
213.735350 29.000000
216.033740 35.000000
218.041760 32.000000
219.015400 30.000000
219.032760 198.000000
219.048130 37.000000
219.060880 29.000000
220.003040 34.000000
220.034040 80.000000
221.035000 40.000000
237.472720 29.000000
245.027600 72.000000
245.056720 32.000000
263.060700 89.000000
278.060730 35.000000
279.034090 58.000000
287.072140 43.000000
303.078160 42.000000
303.098600 78.000000
304.099820 40.000000
305.086360 129.000000
341.106900 27.000000
341.759120 45.000000
381.090450 27.000000

>ms2peaks
129.055250 15.000000
147.062930 10.000000
281.071500 13.000000
302.073970 19.000000
303.062320 68.000000
303.084010 490.000000
304.043520 11.000000
304.080410 33.000000
305.068820 16.000000
305.090180 19.000000
305.908940 11.000000
345.040220 21.000000
345.101070 90.000000
347.108920 13.000000
369.095120 47.000000
370.092650 15.000000
370.109250 24.000000
373.072080 25.000000
413.109530 35.000000
413.127110 30.000000
431.101960 21.000000
431.124150 67.000000
432.107600 10.000000
432.133610 29.000000
433.124600 11.000000
446.530300 11.000000
447.101500 14.000000
447.119570 28.000000
447.137910 42.000000
447.154970 26.000000
448.985230 11.000000
449.114650 76.000000
449.140930 551.000000
449.158170 238.000000
450.090580 10.000000
450.148620 188.000000
451.148320 62.000000
461.422550 13.000000
465.113920 59.000000
465.139430 229.000000
466.069370 13.000000
466.145360 106.000000
467.136840 12.000000
471.121640 12.000000
473.126160 13.000000
489.140080 52.000000
489.164830 16.000000
491.173770 11.000000
492.153630 15.000000
492.169560 13.000000
521.133910 36.000000
540.125000 13.000000
557.159180 16.000000
557.182070 20.000000
569.893070 15.000000
571.974180 18.000000
575.164250 25.000000
575.194270 10.000000
576.168090 55.000000
576.209720 11.000000
577.165590 17.000000
593.182980 49.000000
593.217770 12.000000
594.175230 39.000000
594.199890 22.000000
595.207340 15.000000
611.091860 14.000000
611.122800 16.000000
611.199220 1000.000000

>ms2peaks
71.050900 47.000000
84.971970 12.000000
85.026360 51.000000
85.032400 14.000000
111.041340 13.000000
127.038400 12.000000
129.054530 62.000000
147.039540 26.000000
147.060850 22.000000
152.036240 12.000000
153.013520 66.000000
154.025920 15.000000
177.051670 25.000000
177.058700 18.000000
179.037370 34.000000
195.022220 44.000000
195.034270 186.000000
196.034930 13.000000
196.212720 18.000000
197.027130 14.000000
198.295760 22.000000
207.937790 12.000000
213.073590 15.000000
219.016620 20.000000
219.025830 20.000000
219.034930 20.000000
221.048690 18.000000
237.050780 24.000000
243.045780 12.000000
245.036760 20.000000
250.049740 14.000000
261.039790 12.000000
263.046080 36.000000
263.057710 134.000000
267.196200 34.000000
297.076570 16.000000
299.043550 19.000000
303.087650 1000.000000
304.075380 14.000000
304.094210 163.000000
305.060730 18.000000
305.095150 12.000000
315.074400 36.000000
315.085690 39.000000
316.087010 18.000000
327.082060 55.000000
327.102840 25.000000
329.062010 16.000000
341.050990 21.000000
345.094880 46.000000
345.119930 19.000000
351.078700 15.000000
353.110570 11.000000
368.143920 17.000000
369.089870 27.000000
371.081510 23.000000
383.057710 16.000000
393.101470 13.000000
395.075040 16.000000
395.127010 29.000000
399.108980 17.000000
411.100980 11.000000
413.108730 17.000000
420.121090 28.000000
430.113590 15.000000
431.137240 25.000000
447.135860 11.000000
449.127660 17.000000
449.145140 12.000000
449.163540 15.000000
465.133450 19.000000

>ms2peaks
57.032550 53.000000
71.049310 103.000000
85.023860 74.000000
85.032330 121.000000
103.060140 37.000000
110.069850 29.000000
112.247120 27.000000
117.025170 39.000000
117.034130 53.000000
119.054810 71.000000
121.031350 48.000000
127.034240 40.000000
129.048710 40.000000
135.046620 37.000000
137.058790 50.000000
145.021240 132.000000
149.065800 35.000000
151.080440 29.000000
152.998140 29.000000
153.014950 1000.000000
165.018980 90.000000
177.012940 106.000000
177.020900 82.000000
177.053100 233.000000
177.060530 384.000000
179.026180 72.000000
179.038830 34.000000
189.016570 58.000000
191.033170 39.000000
195.027480 43.000000
195.039400 35.000000
195.342030 27.000000
196.030010 47.000000
197.044310 42.000000
203.032670 68.000000
203.043300 47.000000
207.026370 34.000000
214.210620 39.000000
215.294490 31.000000
219.009340 76.000000
219.026640 76.000000
219.042620 53.000000
243.020600 45.000000
245.037190 119.000000
245.050020 27.000000
246.049770 29.000000
253.049500 53.000000
255.047840 34.000000
261.031460 82.000000
264.093720 32.000000
280.070430 35.000000
285.080930 87.000000
293.163300 39.000000
303.084720 34.000000
303.093510 103.000000
318.004790 34.000000
361.499790 47.000000

