>compound PR74030767
>parentmass 449.1078379
>ionization [M+H]+
>formula C21H20O11
>rt 239.145000
>profile qtof
#smiles_iso C1=CC(=C(C=C1/C=C\2/C(=O)C3=C(O2)C(=C(C=C3)O[C@H]4[C@@H]([C@H]([C@@H]([C@H](O4)CO)O)O)O)O)O)O
#smiles_can C1=CC(=C(C=C1C=C2C(=O)C3=C(O2)C(=C(C=C3)OC4C(C(C(C(O4)CO)O)O)O)O)O)O
#inchikey SYRURBPRFQUYQS-RHEJLWEFSA-N
#pubchem_id 6450184
#mb_accession PR302931,PR302936,PR302941,PR302946,PR302951,PR302956,PR302961,PR302966,PR302971,PR302976,PR302981,PR302986

>ms2peaks
85.028500 6.000000
105.018850 8.000000
123.006580 25.000000
123.011960 7.000000
137.022800 6.000000
153.016600 78.000000
161.021160 36.000000
161.031810 14.000000
171.009290 9.000000
185.057070 5.000000
192.034900 6.000000
197.058180 7.000000
218.044490 5.000000
231.063050 30.000000
231.077560 8.000000
231.089250 6.000000
232.065140 19.000000
241.037020 5.000000
241.054230 38.000000
245.049840 6.000000
259.056730 11.000000
260.051730 8.000000
268.996550 9.000000
269.044710 25.000000
276.318940 8.000000
285.045750 26.000000
287.018340 20.000000
287.054170 1000.000000
287.608460 6.000000
288.059570 166.000000
289.050870 9.000000
289.060880 10.000000
289.073820 5.000000
449.067630 10.000000
449.108830 161.000000

>ms2peaks
161.837600 5.000000
286.039000 7.000000
286.053160 8.000000
286.983830 6.000000
287.016020 18.000000
287.053960 1000.000000
287.072570 141.000000
288.044860 35.000000
288.053440 106.000000
288.065000 74.000000
289.072170 9.000000
289.829960 5.000000
311.522860 5.000000
363.868160 8.000000
448.753110 5.000000
449.049740 17.000000
449.090060 180.000000
449.105930 440.000000
449.124600 153.000000

>ms2peaks
85.028330 7.000000
125.030300 8.000000
137.024440 25.000000
153.019620 81.000000
154.020450 20.000000
155.386690 6.000000
161.021610 60.000000
161.033200 7.000000
169.068180 12.000000
177.953410 5.000000
185.060940 21.000000
186.076890 8.000000
212.041980 8.000000
212.241260 7.000000
213.053420 13.000000
217.051450 10.000000
231.063510 29.000000
231.073260 30.000000
232.077260 7.000000
241.050350 32.000000
242.056120 7.000000
259.062040 13.000000
259.901060 8.000000
269.044890 27.000000
285.037290 7.000000
286.044950 8.000000
287.000370 6.000000
287.015260 18.000000
287.053920 1000.000000
287.088350 8.000000
287.967440 8.000000
288.017090 6.000000
288.045100 27.000000
288.059880 86.000000
288.069890 34.000000
289.052370 14.000000
289.066350 36.000000
339.233000 8.000000

>ms2peaks
65.036730 32.000000
77.039320 45.000000
79.015490 100.000000
91.048610 47.000000
95.014310 32.000000
100.662210 58.000000
105.022280 62.000000
107.008870 32.000000
109.024700 42.000000
117.032700 106.000000
122.032940 45.000000
123.007120 260.000000
124.012710 43.000000
125.021200 87.000000
125.029950 142.000000
127.052250 62.000000
129.052760 51.000000
129.061780 117.000000
129.070420 132.000000
133.065550 36.000000
135.016160 94.000000
135.040700 102.000000
137.015290 58.000000
137.022130 36.000000
139.053560 32.000000
139.063460 77.000000
141.070890 43.000000
145.022140 47.000000
147.087510 55.000000
150.033920 42.000000
152.014860 49.000000
153.003800 45.000000
153.017350 1000.000000
153.030940 96.000000
154.016480 83.000000
154.022740 179.000000
157.017380 51.000000
157.066180 136.000000
157.074510 58.000000
161.015230 168.000000
161.023100 192.000000
161.037830 43.000000
161.051360 40.000000
167.040970 55.000000
167.048370 60.000000
185.062260 245.000000
186.061940 68.000000
187.720550 38.000000
195.045490 140.000000
196.056530 32.000000
197.065660 51.000000
213.051730 70.000000
214.077870 66.000000
216.044540 43.000000
216.055340 77.000000
221.346510 58.000000
229.053510 38.000000
231.064330 32.000000
239.114610 32.000000
240.036990 53.000000
241.039860 236.000000
241.052030 360.000000
242.047300 77.000000
242.056180 151.000000
259.068820 108.000000
268.956330 36.000000
269.048830 57.000000
287.056460 109.000000

>ms2peaks
123.005170 6.000000
125.018580 6.000000
127.031910 7.000000
129.883210 6.000000
135.044160 6.000000
152.012220 6.000000
153.000840 5.000000
153.012390 9.000000
153.019150 28.000000
154.017490 6.000000
157.065340 6.000000
161.021070 50.000000
165.020660 11.000000
168.051910 12.000000
185.056400 9.000000
185.068620 15.000000
203.067350 6.000000
213.044370 6.000000
213.062040 7.000000
225.048800 7.000000
231.063950 7.000000
231.076230 9.000000
232.072480 11.000000
241.041230 10.000000
241.055360 27.000000
242.050920 14.000000
259.065030 6.000000
260.063780 11.000000
283.842500 7.000000
286.048160 6.000000
287.017000 26.000000
287.056150 1000.000000
287.873380 9.000000
288.046510 19.000000
288.060060 121.000000
289.051510 12.000000
290.357030 7.000000
297.155270 6.000000
448.093290 6.000000
449.104740 114.000000
449.119870 33.000000

>ms2peaks
56.928060 5.000000
145.045820 6.000000
168.827180 7.000000
242.290800 11.000000
282.632480 9.000000
284.769590 7.000000
285.032100 9.000000
285.040340 16.000000
285.336060 5.000000
286.054600 6.000000
286.115630 12.000000
286.160220 7.000000
287.026340 35.000000
287.055730 1000.000000
288.025420 6.000000
288.043760 30.000000
288.061680 159.000000
289.044860 9.000000
289.064090 20.000000
289.213680 6.000000
290.317630 8.000000
412.701660 7.000000
447.531520 5.000000
449.059810 9.000000
449.109470 637.000000
449.145020 18.000000

>ms2peaks
93.929820 6.000000
105.031970 6.000000
106.039120 8.000000
125.018620 6.000000
135.052490 7.000000
151.003020 8.000000
152.911330 5.000000
153.018130 137.000000
154.016690 7.000000
157.065440 6.000000
161.006620 6.000000
161.022550 91.000000
162.028350 13.000000
163.914630 7.000000
177.024250 12.000000
182.328280 8.000000
185.059710 12.000000
186.069560 6.000000
189.056720 6.000000
198.078060 6.000000
203.079900 7.000000
213.057680 10.000000
213.070500 6.000000
217.046490 9.000000
231.061160 25.000000
232.069440 8.000000
233.077610 6.000000
241.035660 6.000000
241.052030 83.000000
242.045760 6.000000
251.038940 5.000000
254.835740 5.000000
257.039830 6.000000
258.364990 7.000000
260.282100 5.000000
263.127230 5.000000
263.961790 7.000000
269.042660 23.000000
269.057130 29.000000
286.046200 7.000000
286.976290 8.000000
287.014650 40.000000
287.055790 1000.000000
288.021300 5.000000
288.037350 13.000000
288.056430 172.000000
288.447510 5.000000
289.062960 38.000000
293.651980 6.000000

>ms2peaks
79.014760 67.000000
89.039560 51.000000
105.036320 73.000000
107.014770 44.000000
107.040210 51.000000
107.044620 56.000000
107.052420 39.000000
108.018880 56.000000
108.031210 32.000000
119.047390 56.000000
123.001630 98.000000
123.007710 121.000000
123.014560 74.000000
124.011440 81.000000
125.018940 67.000000
125.027000 40.000000
128.062820 115.000000
128.071210 71.000000
129.061770 34.000000
129.070050 47.000000
130.074390 30.000000
135.004090 34.000000
135.050280 42.000000
136.046400 35.000000
139.060820 94.000000
139.917790 49.000000
140.051740 34.000000
141.070530 39.000000
145.030030 40.000000
152.000500 49.000000
152.011750 52.000000
152.989170 59.000000
153.018840 1000.000000
154.024810 150.000000
155.008540 42.000000
157.063750 184.000000
157.070790 61.000000
161.018190 111.000000
161.028000 108.000000
161.065750 35.000000
162.033840 47.000000
163.018950 57.000000
167.041950 71.000000
167.055070 32.000000
175.080800 84.000000
184.800110 46.000000
185.051960 83.000000
185.066060 86.000000
186.058640 42.000000
186.067170 46.000000
189.048860 79.000000
191.031560 84.000000
191.047490 49.000000
195.030260 34.000000
195.046130 32.000000
196.047500 47.000000
197.053960 51.000000
199.033450 35.000000
201.049930 39.000000
212.035540 39.000000
213.053860 346.000000
214.055690 153.000000
214.069670 32.000000
216.038210 34.000000
217.054840 246.000000
219.244060 29.000000
223.036700 93.000000
229.046360 35.000000
229.059140 42.000000
231.062290 67.000000
231.070740 224.000000
241.038540 81.000000
241.054120 172.000000
242.045790 40.000000
243.050990 37.000000
270.051700 67.000000
287.056060 46.000000
287.072540 35.000000
288.057560 59.000000

>ms2peaks
106.028880 7.000000
124.005920 10.000000
128.058840 9.000000
133.023030 7.000000
153.011800 61.000000
153.019350 74.000000
156.952530 13.000000
157.068910 15.000000
160.990810 6.000000
161.001110 7.000000
161.022460 40.000000
167.052170 5.000000
179.565080 6.000000
185.052280 12.000000
186.068910 6.000000
189.056990 8.000000
195.077090 16.000000
197.074050 5.000000
204.033860 6.000000
204.072040 8.000000
210.638980 6.000000
213.046780 16.000000
213.060290 7.000000
214.052760 10.000000
214.061890 5.000000
218.052540 7.000000
231.047790 10.000000
231.058180 24.000000
231.077940 9.000000
241.047200 38.000000
257.043850 17.000000
259.047760 16.000000
269.035740 12.000000
285.046200 7.000000
286.051210 8.000000
287.011930 8.000000
287.054140 1000.000000
287.501430 5.000000
288.039120 46.000000
288.057950 104.000000
288.073610 19.000000
288.949770 8.000000
289.052800 17.000000
290.062620 7.000000
449.082820 29.000000
449.109920 95.000000

>ms2peaks
139.787260 8.000000
250.987460 6.000000
257.046630 8.000000
263.517090 5.000000
285.052060 12.000000
286.037720 5.000000
287.009920 8.000000
287.056180 1000.000000
287.170350 5.000000
287.992100 8.000000
288.057800 226.000000
288.079160 15.000000
289.056490 20.000000
290.069580 8.000000
290.833250 9.000000
306.652830 13.000000
449.047030 7.000000
449.069340 66.000000
449.110690 674.000000

>ms2peaks
105.029160 7.000000
109.028470 6.000000
125.000420 6.000000
135.039860 5.000000
149.026210 14.000000
151.037140 7.000000
153.013150 16.000000
153.023190 43.000000
155.020940 12.000000
161.026810 60.000000
161.037080 13.000000
164.028140 6.000000
185.064380 14.000000
195.049650 11.000000
197.056670 7.000000
203.072050 7.000000
212.052640 9.000000
213.048450 8.000000
215.192990 7.000000
218.050350 8.000000
223.035960 9.000000
229.048550 14.000000
231.039120 5.000000
231.053590 11.000000
231.065000 20.000000
231.075260 30.000000
231.084930 10.000000
241.034850 24.000000
241.052930 21.000000
242.051610 12.000000
243.056230 10.000000
243.072330 7.000000
243.175840 6.000000
257.052430 6.000000
259.044620 18.000000
259.058990 26.000000
269.008820 5.000000
269.038270 15.000000
270.050140 6.000000
285.043700 8.000000
286.972050 6.000000
287.020290 18.000000
287.053250 1000.000000
287.164950 8.000000
287.340450 5.000000
288.041230 45.000000
288.060490 178.000000
289.060490 31.000000
289.072020 21.000000
290.461850 5.000000
296.968440 12.000000
330.410190 9.000000
345.227200 5.000000

>ms2peaks
79.017560 80.000000
93.034500 142.000000
97.029940 214.000000
107.040000 76.000000
107.048640 63.000000
121.028460 34.000000
123.001940 59.000000
123.006900 82.000000
125.025940 46.000000
125.032720 40.000000
127.054480 38.000000
129.068850 44.000000
129.075990 46.000000
130.072910 78.000000
130.081950 97.000000
133.032100 40.000000
136.051860 46.000000
137.023040 61.000000
137.945540 32.000000
139.054230 220.000000
147.075420 40.000000
148.550350 38.000000
150.134060 40.000000
151.002990 40.000000
153.017880 1000.000000
154.024990 85.000000
157.061070 398.000000
161.025860 262.000000
165.019730 53.000000
167.045680 120.000000
167.054340 40.000000
168.040420 44.000000
169.055440 53.000000
185.058580 268.000000
186.061580 63.000000
189.046160 36.000000
190.388340 51.000000
195.046400 57.000000
196.047530 40.000000
203.070370 120.000000
205.017150 53.000000
213.011230 32.000000
213.054140 269.000000
216.044080 51.000000
216.056180 47.000000
217.052050 40.000000
217.061680 55.000000
225.052930 53.000000
231.050450 127.000000
231.064790 269.000000
232.069580 85.000000
241.051650 385.000000
242.057240 192.000000
243.031710 91.000000
243.054080 65.000000
252.032680 68.000000
259.063600 101.000000
269.043610 264.000000
270.047640 46.000000
287.053500 125.000000
287.066530 57.000000
288.067870 49.000000

