>compound PR74850962
>parentmass 477.1371
>ionization [M+H]+
>formula C23H24O11
>rt 252.600000
>profile qtof
#smiles_iso COC1=C(C=CC(=C1)C2=CC(=O)C3=C(C(=C(C=C3O2)OC)C4C(C(C(C(O4)CO)O)O)O)O)O
#smiles_can COC1=C(C=CC(=C1)C2=CC(=O)C3=C(C(=C(C=C3O2)OC)C4C(C(C(C(O4)CO)O)O)O)O)O
#inchikey JCIFZANQIXZLGH-UHFFFAOYSA-N
#pubchem_id 74385208
#mb_accession PR310977

>ms2peaks
149.054140 22.000000
181.033360 21.000000
182.084560 16.000000
191.043870 28.000000
238.980450 16.000000
285.078950 21.000000
297.074400 16.000000
298.088410 32.000000
298.367030 16.000000
312.054660 22.000000
325.078310 19.000000
327.046330 44.000000
327.076540 99.000000
327.089510 114.000000
327.105930 73.000000
328.082400 18.000000
328.099700 16.000000
329.079280 39.000000
335.097900 16.000000
337.063960 58.000000
342.067720 17.000000
353.077090 20.000000
353.097050 16.000000
357.097750 94.000000
357.118470 40.000000
358.090480 41.000000
366.072570 16.000000
367.119840 57.000000
381.092590 89.000000
382.092560 39.000000
383.089720 17.000000
383.105500 17.000000
405.076750 16.000000
406.111110 19.000000
411.075840 18.000000
411.120760 17.000000
423.102480 22.000000
423.120420 31.000000
441.100800 20.000000
441.142910 23.000000
442.122990 41.000000
445.410340 18.000000
459.127470 157.000000
460.120510 21.000000
461.009340 45.000000
477.115910 65.000000
477.137270 276.000000

