>compound PR74633268
>parentmass 355.20161926153844
>ionization [M+H]+
>formula C21H26N2O3
>rt 270.069231
>profile qtof
#smiles_iso CCC12CCCN3C1C4=C(CC3)C5=CC=CC=C5N4C(C2)(C(=O)OC)O
#smiles_can CCC12CCCN3C1C4=C(CC3)C5=CC=CC=C5N4C(C2)(C(=O)OC)O
#inchikey RXPRRQLKFXBCSJ-UHFFFAOYSA-N
#pubchem_id 5668
#mb_accession PR301542,PR301546,PR301550,PR301554,PR301557,PR301561,PR301565,PR301569,PR301573,PR301577,PR301581,PR301585,PR310611

>ms2peaks
144.081860 56.000000
152.107160 18.000000
194.115840 7.000000
205.090640 8.000000
206.094940 7.000000
208.114360 9.000000
212.132130 23.000000
220.115880 7.000000
221.122620 7.000000
222.127930 5.000000
234.122510 11.000000
234.135570 9.000000
235.129760 6.000000
248.149660 6.000000
249.140640 5.000000
250.157290 6.000000
264.101590 13.000000
265.102660 7.000000
265.115080 11.000000
266.111110 8.000000
266.122040 5.000000
267.124570 9.000000
268.126190 14.000000
268.136470 13.000000
268.145900 6.000000
277.169100 6.000000
278.118350 8.000000
279.118650 7.000000
279.128110 8.000000
280.134000 93.000000
281.137150 22.000000
292.128660 6.000000
292.141450 5.000000
294.151030 104.000000
295.146060 9.000000
295.159180 12.000000
295.181850 17.000000
307.146060 12.000000
308.161680 68.000000
309.167420 12.000000
310.186580 9.000000
337.190950 315.000000
338.193360 72.000000
339.196140 7.000000
355.203400 1000.000000
355.256260 26.000000

>ms2peaks
337.192260 36.000000
338.195770 7.000000
355.201810 1000.000000
355.255920 32.000000

>ms2peaks
70.066990 22.000000
91.056560 7.000000
98.095240 12.000000
105.066190 8.000000
108.079000 6.000000
110.098540 23.000000
111.104340 10.000000
112.112080 9.000000
119.089120 7.000000
121.068290 5.000000
122.067600 5.000000
122.093540 14.000000
123.067480 6.000000
123.082050 12.000000
124.112420 34.000000
130.065280 17.000000
130.074110 6.000000
132.079240 5.000000
134.097460 19.000000
134.106000 14.000000
135.083920 8.000000
138.132490 6.000000
143.069840 8.000000
144.081250 464.000000
145.074420 8.000000
145.086350 68.000000
146.100360 8.000000
148.075070 8.000000
149.089830 8.000000
150.093310 8.000000
152.092040 10.000000
152.106890 173.000000
153.095600 5.000000
153.110920 30.000000
156.077610 19.000000
156.082750 8.000000
158.093890 15.000000
158.100480 19.000000
162.078030 6.000000
162.091190 18.000000
162.101350 6.000000
164.103560 8.000000
165.085190 5.000000
168.082320 7.000000
170.064000 11.000000
170.095550 23.000000
172.107150 6.000000
180.080920 12.000000
181.087300 20.000000
182.096050 9.000000
183.097210 9.000000
184.109190 8.000000
185.110810 5.000000
192.078800 7.000000
192.110530 5.000000
193.088940 7.000000
194.066160 7.000000
194.093640 16.000000
194.117830 44.000000
194.124210 16.000000
195.110670 13.000000
195.121250 10.000000
196.096390 8.000000
196.107570 12.000000
198.091550 11.000000
198.111300 10.000000
198.133580 5.000000
199.131880 6.000000
203.085740 5.000000
204.101700 5.000000
205.086300 13.000000
206.081180 6.000000
206.095140 25.000000
207.101490 13.000000
207.111180 10.000000
207.121430 5.000000
208.099520 9.000000
208.114900 52.000000
209.118290 46.000000
210.119060 21.000000
210.129090 13.000000
211.125200 10.000000
212.128780 251.000000
212.150180 6.000000
213.113340 6.000000
213.128130 18.000000
213.136660 26.000000
216.099370 8.000000
217.100890 5.000000
218.094650 10.000000
218.117280 11.000000
219.094040 15.000000
219.105180 10.000000
219.112490 10.000000
220.102510 7.000000
220.113040 38.000000
221.109090 24.000000
221.124190 28.000000
222.103160 10.000000
222.121670 23.000000
222.133240 41.000000
223.130570 16.000000
223.140050 6.000000
224.111080 6.000000
224.139130 54.000000
224.156830 5.000000
225.148830 7.000000
231.103390 10.000000
232.113450 11.000000
233.084200 9.000000
233.117740 14.000000
234.094090 7.000000
234.122340 53.000000
234.134410 58.000000
235.108400 11.000000
235.133240 54.000000
236.110840 10.000000
236.133530 26.000000
236.142970 30.000000
236.153110 14.000000
237.080810 7.000000
237.122890 8.000000
237.140300 12.000000
237.154300 20.000000
238.090500 9.000000
238.160390 11.000000
239.096450 29.000000
240.095580 17.000000
246.106840 6.000000
246.127210 21.000000
247.127520 10.000000
248.110180 10.000000
248.142780 68.000000
248.154300 15.000000
249.116270 5.000000
249.132740 19.000000
249.149060 65.000000
250.092480 11.000000
250.127460 12.000000
250.155610 55.000000
250.167250 22.000000
251.094270 7.000000
251.160260 11.000000
251.173970 12.000000
252.089230 16.000000
252.104900 23.000000
252.169160 7.000000
253.107030 41.000000
253.124420 9.000000
253.166260 17.000000
254.110320 17.000000
254.125340 15.000000
254.178250 9.000000
260.144680 11.000000
261.117370 8.000000
261.150420 5.000000
262.106380 9.000000
262.128080 14.000000
262.137910 12.000000
263.116330 7.000000
263.132050 11.000000
263.150790 8.000000
264.101320 38.000000
264.139310 7.000000
265.109250 108.000000
265.130100 7.000000
266.103330 24.000000
266.117650 73.000000
266.132600 13.000000
267.122530 77.000000
267.148470 13.000000
268.108490 6.000000
268.132080 209.000000
269.104800 6.000000
269.127140 11.000000
269.142270 32.000000
276.107850 7.000000
276.128540 18.000000
276.147980 13.000000
277.128850 22.000000
277.170720 88.000000
278.120670 28.000000
278.155360 14.000000
278.175930 38.000000
279.102020 6.000000
279.124660 60.000000
279.136570 46.000000
279.189210 5.000000
280.096950 22.000000
280.134490 789.000000
281.136080 195.000000
282.130950 17.000000
282.146210 59.000000
282.180690 6.000000
283.150850 14.000000
290.118470 17.000000
291.113190 16.000000
291.124940 23.000000
292.124510 38.000000
292.136470 44.000000
293.139890 53.000000
293.157870 15.000000
294.096710 6.000000
294.118470 6.000000
294.148530 894.000000
295.123380 8.000000
295.147770 67.000000
295.160770 226.000000
295.178010 98.000000
296.140780 9.000000
296.155980 14.000000
296.167720 21.000000
296.190190 25.000000
297.148040 7.000000
297.196840 5.000000
305.148710 5.000000
305.163210 27.000000
305.183260 8.000000
306.147800 33.000000
306.166170 13.000000
307.136510 42.000000
307.152770 45.000000
307.178340 6.000000
308.114900 6.000000
308.161830 567.000000
309.145450 37.000000
309.159060 107.000000
309.174680 55.000000
310.159640 18.000000
310.180360 36.000000
310.200530 6.000000
311.170590 7.000000
320.154140 19.000000
320.168670 21.000000
320.189610 5.000000
321.161410 6.000000
322.166560 6.000000
337.134950 6.000000
337.153380 9.000000
337.189270 1000.000000
338.147370 8.000000
338.174740 49.000000
338.192440 200.000000
339.188960 20.000000
339.201930 28.000000
355.165280 6.000000
355.199710 120.000000
355.221440 19.000000

>ms2peaks
55.054340 7.000000
56.050030 8.000000
67.055980 18.000000
68.052350 19.000000
77.040340 21.000000
78.035580 8.000000
79.053090 44.000000
79.062830 9.000000
80.049740 18.000000
81.067940 11.000000
81.075130 6.000000
82.070080 6.000000
82.109210 6.000000
83.041730 13.000000
83.048260 22.000000
83.053020 14.000000
83.069820 6.000000
84.046080 7.000000
84.079000 8.000000
85.065690 9.000000
91.052290 33.000000
91.058300 26.000000
91.464700 6.000000
92.061260 15.000000
93.014080 12.000000
93.061430 23.000000
93.070630 59.000000
94.062220 7.000000
94.069270 9.000000
94.079990 6.000000
94.575680 6.000000
95.048900 9.000000
95.058960 5.000000
95.070050 14.000000
95.076150 11.000000
95.083900 60.000000
95.089070 38.000000
95.156180 6.000000
96.078870 18.000000
96.092980 32.000000
97.072620 6.000000
98.643150 6.000000
101.024660 7.000000
102.046970 9.000000
103.052340 26.000000
104.058660 7.000000
105.054410 10.000000
105.059660 33.000000
105.073010 74.000000
106.065830 27.000000
107.052150 10.000000
107.075330 16.000000
107.081680 19.000000
107.092320 6.000000
108.070720 7.000000
108.078840 29.000000
108.083820 29.000000
109.068600 6.000000
110.060430 8.000000
110.073180 6.000000
110.093830 57.000000
110.101130 45.000000
111.043210 13.000000
112.108170 7.000000
115.054220 72.000000
116.051670 13.000000
116.057950 6.000000
117.056550 21.000000
117.069940 153.000000
117.074650 48.000000
118.064380 19.000000
118.070670 11.000000
119.067510 21.000000
119.082170 6.000000
120.028710 7.000000
120.046390 12.000000
120.082220 28.000000
120.646510 7.000000
121.064470 10.000000
121.089000 9.000000
122.063480 15.000000
122.094810 34.000000
123.058330 7.000000
123.071110 21.000000
123.079420 24.000000
123.102530 11.000000
124.079770 53.000000
124.110280 47.000000
124.118650 5.000000
125.080510 6.000000
125.116650 8.000000
127.056560 60.000000
128.050830 55.000000
128.063720 69.000000
128.889950 6.000000
129.057010 35.000000
129.070210 38.000000
130.048740 6.000000
130.057650 25.000000
130.065990 123.000000
131.076130 29.000000
131.092960 10.000000
132.078830 63.000000
133.064580 11.000000
133.092670 13.000000
134.074780 9.000000
134.080290 7.000000
134.095460 56.000000
135.080760 13.000000
135.095290 8.000000
135.107970 17.000000
136.075180 21.000000
136.084200 6.000000
136.116230 32.000000
137.071790 5.000000
137.083790 10.000000
137.664020 5.000000
138.123280 21.000000
141.045880 5.000000
141.067570 10.000000
142.064470 61.000000
142.083130 6.000000
143.065290 12.000000
143.075180 145.000000
143.087740 15.000000
143.118970 5.000000
144.061720 12.000000
144.082240 814.000000
145.074890 29.000000
145.084900 86.000000
146.064640 6.000000
146.082980 12.000000
147.065580 6.000000
148.071910 10.000000
148.114070 6.000000
149.094420 6.000000
150.091340 17.000000
151.049850 10.000000
152.052140 5.000000
152.060530 20.000000
152.075490 8.000000
152.105610 99.000000
152.111220 53.000000
153.068440 6.000000
153.115740 36.000000
154.061450 33.000000
154.070590 23.000000
155.055730 7.000000
155.072220 31.000000
155.533600 12.000000
156.077300 104.000000
157.083370 19.000000
158.093840 32.000000
158.103130 20.000000
159.089130 7.000000
162.095470 13.000000
162.101560 6.000000
165.063050 23.000000
165.070970 37.000000
165.113820 6.000000
166.060090 16.000000
166.073970 37.000000
167.060960 6.000000
167.077910 131.000000
167.093810 17.000000
168.077560 56.000000
168.083850 53.000000
168.972490 10.000000
169.069180 7.000000
169.075470 5.000000
169.086070 12.000000
169.096100 7.000000
170.061680 20.000000
170.073060 7.000000
170.088230 31.000000
170.105500 22.000000
171.092990 18.000000
171.102420 11.000000
172.071470 8.000000
172.078960 7.000000
172.092190 12.000000
173.113590 9.000000
176.068370 13.000000
176.128460 8.000000
177.069430 11.000000
178.079510 41.000000
178.086300 30.000000
178.125460 10.000000
179.063290 26.000000
179.080020 41.000000
179.088760 31.000000
180.059230 9.000000
180.082500 252.000000
181.083690 91.000000
181.095250 74.000000
182.088470 19.000000
182.095640 68.000000
183.068280 6.000000
183.091420 21.000000
183.102630 53.000000
184.073290 7.000000
184.093600 6.000000
184.120760 8.000000
185.082060 7.000000
189.046520 6.000000
189.069000 14.000000
190.064900 35.000000
190.077840 18.000000
191.065640 28.000000
191.075470 84.000000
191.098970 7.000000
191.107150 7.000000
192.065220 17.000000
192.080290 174.000000
192.089290 55.000000
192.107680 6.000000
192.528270 6.000000
193.068480 14.000000
193.089950 244.000000
194.073910 11.000000
194.093410 160.000000
194.104580 37.000000
195.074840 6.000000
195.095150 10.000000
195.103850 18.000000
195.120860 21.000000
196.058060 16.000000
196.075650 12.000000
196.095380 34.000000
196.108350 21.000000
196.117800 15.000000
197.086880 12.000000
197.109950 33.000000
198.093980 17.000000
198.125440 6.000000
198.712840 10.000000
198.785140 7.000000
202.089200 16.000000
203.069520 6.000000
203.081120 18.000000
203.985660 12.000000
204.056590 12.000000
204.083920 409.000000
204.107530 13.000000
204.797730 7.000000
205.018520 6.000000
205.073870 41.000000
205.089770 450.000000
205.846540 8.000000
206.045410 6.000000
206.096470 412.000000
206.151180 6.000000
206.226640 10.000000
207.089310 41.000000
207.105190 225.000000
208.062530 9.000000
208.075200 19.000000
208.089000 17.000000
208.110660 162.000000
208.121150 66.000000
208.206890 5.000000
209.052380 6.000000
209.085010 7.000000
209.100590 23.000000
209.117720 165.000000
210.093490 11.000000
210.123700 16.000000
210.132610 14.000000
210.354020 7.000000
211.080930 5.000000
211.089630 7.000000
211.101520 7.000000
211.940540 9.000000
212.071950 7.000000
212.707460 6.000000
214.081800 6.000000
216.081070 29.000000
216.090270 7.000000
217.070500 13.000000
217.079100 45.000000
217.090210 95.000000
217.102170 28.000000
218.094450 267.000000
218.106550 45.000000
218.120930 12.000000
219.072860 6.000000
219.103000 290.000000
219.243320 6.000000
219.641780 8.000000
219.790440 5.000000
219.960920 7.000000
220.071690 14.000000
220.104770 198.000000
220.112660 361.000000
221.080610 14.000000
221.088640 11.000000
221.111110 87.000000
221.125670 59.000000
221.153090 7.000000
222.083540 5.000000
222.100080 20.000000
222.110210 26.000000
222.123000 85.000000
222.131500 111.000000
223.097140 17.000000
223.125580 78.000000
223.140080 12.000000
223.179690 6.000000
224.070080 10.000000
224.113040 6.000000
224.132130 26.000000
224.142240 45.000000
225.114060 7.000000
225.146560 6.000000
225.698940 6.000000
228.889370 6.000000
230.099490 28.000000
230.114200 8.000000
231.068850 6.000000
231.079730 6.000000
231.091710 9.000000
231.106310 21.000000
231.114780 6.000000
232.076870 16.000000
232.084340 7.000000
232.112690 107.000000
233.092210 7.000000
233.106660 47.000000
233.117940 57.000000
234.082550 10.000000
234.104950 7.000000
234.127610 154.000000
234.185970 6.000000
235.057680 11.000000
235.100310 11.000000
235.137680 37.000000
236.068470 45.000000
236.094770 9.000000
236.115480 7.000000
236.140560 39.000000
236.646740 6.000000
237.081090 16.000000
237.100650 13.000000
237.127240 36.000000
237.143130 16.000000
238.083740 112.000000
238.095630 62.000000
238.144230 19.000000
239.082860 15.000000
239.096760 76.000000
239.109920 12.000000
239.148700 7.000000
239.157730 7.000000
240.094220 6.000000
240.797290 7.000000
240.944400 5.000000
244.102480 11.000000
245.111650 10.000000
245.139820 7.000000
246.077910 7.000000
246.100080 26.000000
247.097660 35.000000
247.118970 56.000000
247.131470 25.000000
247.144730 7.000000
248.059200 12.000000
248.074110 19.000000
248.108490 5.000000
248.123830 22.000000
248.144780 55.000000
249.066010 7.000000
249.079360 29.000000
249.092960 9.000000
249.108830 10.000000
249.135090 20.000000
249.151950 40.000000
250.077060 74.000000
250.092970 161.000000
250.124510 7.000000
250.146190 12.000000
251.042720 10.000000
251.069630 6.000000
251.092730 257.000000
251.159330 12.000000
251.193010 12.000000
251.220610 8.000000
252.085130 48.000000
252.102780 264.000000
253.082240 7.000000
253.106520 132.000000
254.104200 7.000000
254.565320 7.000000
256.091710 13.000000
257.107060 8.000000
257.115200 7.000000
258.058720 6.000000
260.117190 16.000000
261.075870 6.000000
261.099300 6.000000
262.127560 24.000000
263.053770 9.000000
263.092800 45.000000
263.108890 10.000000
263.123630 5.000000
263.552700 6.000000
264.042140 7.000000
264.072720 11.000000
264.103420 1000.000000
265.082550 28.000000
265.109950 496.000000
265.161160 6.000000
265.198730 6.000000
266.101010 47.000000
266.119110 414.000000
267.109160 37.000000
267.122100 134.000000
268.133360 27.000000
269.133240 16.000000
272.111080 10.000000
275.086640 24.000000
275.104740 15.000000
275.126590 6.000000
276.105440 63.000000
276.120640 14.000000
277.109220 56.000000
277.163760 7.000000
277.177310 5.000000
277.841950 6.000000
278.085110 10.000000
278.112820 153.000000
278.123720 189.000000
278.177310 12.000000
278.213840 7.000000
278.264470 7.000000
279.098750 28.000000
279.126460 216.000000
279.209010 6.000000
280.030940 6.000000
280.127110 132.000000
280.143550 98.000000
281.094450 6.000000
281.135220 37.000000
282.130130 6.000000
288.101810 6.000000
289.102230 8.000000
290.088710 13.000000
290.108920 33.000000
290.124180 29.000000
290.138090 12.000000
291.110660 22.000000
291.122990 19.000000
292.109560 40.000000
292.134890 177.000000
293.115170 6.000000
293.128140 22.000000
293.149380 36.000000
294.076020 7.000000
294.147770 92.000000
295.153960 24.000000
296.181880 8.000000
306.134800 6.000000
307.147490 34.000000
307.158200 18.000000
307.181180 5.000000
308.142910 13.000000
308.157290 8.000000
308.169980 6.000000
309.154270 6.000000
319.766360 5.000000
337.178620 6.000000
337.194370 12.000000
355.146670 6.000000
355.186160 29.000000

>ms2peaks
144.080810 53.000000
145.082980 5.000000
152.108110 19.000000
194.119290 6.000000
205.087970 8.000000
206.095640 11.000000
208.111740 7.000000
209.115460 8.000000
212.128170 30.000000
220.112630 6.000000
222.125890 11.000000
223.132830 5.000000
224.145260 6.000000
234.124950 15.000000
239.095370 6.000000
248.142650 7.000000
250.163390 7.000000
252.102020 9.000000
253.111310 6.000000
264.100980 18.000000
265.110960 28.000000
266.116150 16.000000
267.122160 12.000000
268.133360 26.000000
277.165280 10.000000
278.119900 7.000000
279.124180 12.000000
280.133330 92.000000
281.135680 16.000000
282.147550 6.000000
292.134310 9.000000
294.148680 97.000000
295.148440 13.000000
295.179750 21.000000
307.146610 10.000000
308.163390 67.000000
309.166140 23.000000
310.178800 9.000000
337.191470 336.000000
338.194370 89.000000
339.199220 10.000000
355.201780 1000.000000
355.255520 29.000000

>ms2peaks
337.193390 36.000000
338.194090 8.000000
355.202000 1000.000000
355.256410 34.000000

>ms2peaks
93.071030 8.000000
98.098810 8.000000
105.071480 10.000000
107.089350 12.000000
110.098790 29.000000
112.115690 14.000000
117.061970 5.000000
117.070130 6.000000
122.058980 11.000000
124.113390 21.000000
129.069750 6.000000
130.068830 16.000000
131.066600 6.000000
131.086380 6.000000
132.083280 9.000000
134.061570 6.000000
134.092540 8.000000
134.097400 17.000000
136.072970 6.000000
138.094710 9.000000
138.125210 7.000000
138.133060 7.000000
143.070270 15.000000
144.081220 408.000000
145.063600 6.000000
145.085040 51.000000
146.093780 8.000000
151.077650 14.000000
152.108250 173.000000
153.106520 11.000000
153.117030 8.000000
156.083690 19.000000
158.098460 32.000000
162.090610 41.000000
162.104690 5.000000
163.098600 5.000000
168.082340 15.000000
169.084590 9.000000
170.064010 10.000000
170.095670 10.000000
173.113280 6.000000
180.081890 24.000000
182.098180 30.000000
183.104420 11.000000
184.077130 13.000000
184.113530 8.000000
194.094310 14.000000
194.119660 57.000000
195.104810 8.000000
196.096660 16.000000
198.091290 9.000000
202.086470 8.000000
204.066890 6.000000
205.090420 12.000000
206.089610 15.000000
206.097230 18.000000
207.099790 15.000000
207.121730 8.000000
208.078280 6.000000
208.102490 5.000000
208.115250 40.000000
208.127520 7.000000
209.122190 34.000000
210.128600 42.000000
212.130690 230.000000
213.132600 35.000000
214.133290 5.000000
218.098100 10.000000
219.090440 7.000000
219.106480 26.000000
220.105330 33.000000
220.118640 18.000000
221.120470 31.000000
222.093540 7.000000
222.111850 5.000000
222.130480 51.000000
223.125270 5.000000
223.135540 20.000000
224.117340 10.000000
224.143880 42.000000
224.155300 8.000000
225.145490 13.000000
232.108250 7.000000
232.121000 11.000000
233.119420 9.000000
234.128370 101.000000
234.146300 6.000000
235.125930 23.000000
235.137800 15.000000
235.145450 7.000000
236.106960 6.000000
236.130580 13.000000
236.144210 59.000000
237.075930 6.000000
237.135640 6.000000
237.147220 26.000000
238.089320 11.000000
238.118900 6.000000
238.132290 6.000000
238.142930 6.000000
238.153930 8.000000
238.168400 7.000000
239.095110 26.000000
240.101730 11.000000
240.113330 8.000000
246.127030 26.000000
247.138020 7.000000
248.103270 6.000000
248.128590 18.000000
248.142170 63.000000
249.121480 10.000000
249.145450 41.000000
249.155110 21.000000
250.093030 7.000000
250.137250 7.000000
250.161000 51.000000
251.093780 12.000000
252.086690 7.000000
252.104430 28.000000
253.114150 31.000000
253.171780 18.000000
254.117870 17.000000
260.142940 13.000000
261.143040 6.000000
262.118560 13.000000
262.129550 13.000000
262.164400 9.000000
263.120940 6.000000
263.154390 5.000000
264.098300 16.000000
264.112790 18.000000
264.136020 6.000000
265.111270 131.000000
265.134160 7.000000
266.120060 93.000000
266.151520 16.000000
267.126800 81.000000
267.184080 5.000000
268.124730 66.000000
268.134160 164.000000
269.137330 37.000000
270.143920 23.000000
274.128970 7.000000
275.119450 13.000000
276.106570 10.000000
276.120000 14.000000
276.130770 10.000000
276.149780 9.000000
277.110170 6.000000
277.133060 8.000000
277.144010 9.000000
277.168060 69.000000
278.107570 8.000000
278.118960 24.000000
278.139680 7.000000
278.156280 20.000000
278.168980 12.000000
278.181580 14.000000
279.123440 110.000000
280.072970 5.000000
280.101870 11.000000
280.133790 746.000000
281.102050 6.000000
281.137730 183.000000
282.144500 77.000000
283.158050 10.000000
290.109740 11.000000
290.125120 10.000000
291.124760 42.000000
292.133330 68.000000
293.124600 15.000000
293.140530 44.000000
293.166750 15.000000
294.123350 20.000000
294.149050 883.000000
295.149440 114.000000
295.166080 121.000000
295.180970 80.000000
295.190000 33.000000
296.153780 28.000000
296.178650 29.000000
296.196560 15.000000
305.167940 26.000000
306.146240 35.000000
306.158660 16.000000
306.176060 12.000000
307.150050 85.000000
308.137630 16.000000
308.163450 563.000000
309.160680 106.000000
309.172760 80.000000
310.147770 5.000000
310.170680 36.000000
310.187470 11.000000
311.177800 11.000000
320.159150 15.000000
320.168950 30.000000
326.153750 7.000000
326.176150 15.000000
337.152950 28.000000
337.191710 1000.000000
338.163640 19.000000
338.197480 236.000000
339.193480 27.000000
339.214170 5.000000
340.199280 7.000000
354.176030 6.000000
355.196930 96.000000
355.211820 73.000000

>ms2peaks
55.019390 7.000000
55.053470 6.000000
56.047700 6.000000
56.062360 6.000000
67.049080 7.000000
67.055110 22.000000
68.275840 9.000000
69.934520 9.000000
70.066210 42.000000
77.033790 14.000000
77.043210 8.000000
79.056710 31.000000
81.035480 7.000000
81.047420 8.000000
81.067800 8.000000
81.072400 19.000000
82.061520 5.000000
83.044370 10.000000
83.048070 25.000000
83.054540 13.000000
83.090130 5.000000
84.053600 7.000000
86.300800 6.000000
90.050700 15.000000
91.045700 8.000000
91.054290 98.000000
91.061730 13.000000
92.051570 8.000000
92.057800 15.000000
93.040240 7.000000
93.071530 71.000000
94.056010 13.000000
95.048820 6.000000
95.071210 14.000000
95.079950 7.000000
95.088440 84.000000
96.075240 12.000000
96.081340 32.000000
96.092060 10.000000
98.097370 8.000000
99.065890 8.000000
102.575630 6.000000
103.054300 20.000000
104.056210 15.000000
104.587300 8.000000
105.061620 17.000000
105.070340 62.000000
106.068150 40.000000
107.046970 12.000000
107.079760 13.000000
107.089060 30.000000
108.038800 6.000000
108.082670 34.000000
109.063170 18.000000
109.089940 27.000000
110.097690 77.000000
111.081700 6.000000
111.096890 9.000000
111.108060 8.000000
112.106870 5.000000
112.113230 6.000000
115.037090 6.000000
115.050900 24.000000
115.059130 46.000000
116.031880 9.000000
116.047140 7.000000
116.056160 26.000000
117.070240 169.000000
118.067050 27.000000
118.073880 35.000000
119.077790 6.000000
119.086760 20.000000
120.047420 10.000000
120.057270 8.000000
120.083830 28.000000
121.068860 13.000000
122.053150 5.000000
122.096140 17.000000
123.067540 20.000000
123.083390 13.000000
123.104160 12.000000
123.863910 5.000000
124.077990 27.000000
124.112370 123.000000
124.518230 6.000000
125.076820 7.000000
125.114290 7.000000
125.120730 7.000000
127.051860 30.000000
127.058670 46.000000
128.049930 46.000000
128.059780 11.000000
128.067250 14.000000
129.049510 5.000000
129.065780 13.000000
129.072800 31.000000
130.065400 107.000000
131.073490 40.000000
132.056210 6.000000
132.063710 8.000000
132.082870 74.000000
133.064670 5.000000
133.083450 6.000000
134.053710 5.000000
134.068130 12.000000
134.092650 65.000000
134.101490 12.000000
135.050250 9.000000
135.083180 11.000000
136.054670 5.000000
136.069600 7.000000
136.076740 10.000000
136.086230 10.000000
138.096500 6.000000
138.122420 7.000000
138.129440 26.000000
139.043050 6.000000
141.021480 8.000000
141.041280 7.000000
142.058380 9.000000
142.067090 29.000000
143.073680 163.000000
143.258510 8.000000
144.033600 7.000000
144.056780 7.000000
144.080760 795.000000
145.044450 5.000000
145.053730 12.000000
145.064190 6.000000
145.072240 23.000000
145.085250 73.000000
146.094010 12.000000
146.750110 7.000000
147.075090 7.000000
148.071620 6.000000
149.064410 11.000000
149.086820 6.000000
150.061520 7.000000
150.121730 6.000000
152.073650 13.000000
152.096070 6.000000
152.109270 57.000000
153.061580 24.000000
153.072850 19.000000
153.108520 20.000000
153.121380 8.000000
154.036820 5.000000
154.062070 12.000000
154.070050 24.000000
154.086230 6.000000
155.075730 46.000000
156.080170 30.000000
156.086640 22.000000
156.102540 6.000000
157.078990 7.000000
157.088320 24.000000
158.080840 17.000000
158.097320 22.000000
161.118190 5.000000
161.162980 5.000000
162.083020 6.000000
162.093610 7.000000
163.145340 7.000000
165.067370 23.000000
165.078510 17.000000
166.061340 32.000000
166.072140 37.000000
166.082090 23.000000
167.067200 60.000000
167.081910 36.000000
168.066710 7.000000
168.086350 73.000000
169.052340 7.000000
169.086240 52.000000
170.054610 10.000000
170.062030 32.000000
170.078220 9.000000
170.085740 6.000000
170.097260 9.000000
170.106170 18.000000
170.110660 7.000000
171.102220 13.000000
172.120350 9.000000
173.107270 6.000000
176.048520 5.000000
177.101880 6.000000
178.048750 12.000000
178.066210 7.000000
178.076930 41.000000
178.095060 12.000000
179.068300 19.000000
179.080200 33.000000
179.086440 15.000000
180.081530 246.000000
180.098750 17.000000
180.270260 13.000000
180.773060 7.000000
181.086820 98.000000
181.097890 33.000000
182.077160 14.000000
182.099980 52.000000
183.078520 22.000000
183.104280 12.000000
183.117570 5.000000
184.099440 12.000000
184.113460 14.000000
185.117580 13.000000
188.079530 8.000000
189.063140 6.000000
189.075710 11.000000
190.055480 22.000000
190.064640 17.000000
190.071870 16.000000
190.079800 14.000000
190.994800 7.000000
191.037510 6.000000
191.045390 8.000000
191.074600 133.000000
191.120830 7.000000
191.145290 5.000000
192.052520 11.000000
192.084380 171.000000
192.092270 52.000000
192.864820 10.000000
193.071580 28.000000
193.083650 91.000000
193.091430 197.000000
193.112150 6.000000
193.924850 5.000000
194.058780 5.000000
194.074220 12.000000
194.082820 23.000000
194.100630 167.000000
194.665950 9.000000
195.076980 13.000000
195.089370 8.000000
195.101150 52.000000
195.117650 9.000000
196.069870 5.000000
196.087540 8.000000
196.111040 22.000000
196.120090 16.000000
197.077030 7.000000
197.097790 11.000000
197.109210 5.000000
197.326600 10.000000
198.132350 8.000000
199.087920 9.000000
200.064850 7.000000
202.086670 5.000000
202.101270 6.000000
203.063220 8.000000
203.071790 11.000000
203.085600 20.000000
203.093580 20.000000
204.080810 499.000000
204.126080 7.000000
204.977600 5.000000
205.021210 10.000000
205.065340 13.000000
205.078870 77.000000
205.089490 330.000000
205.136090 6.000000
205.540510 6.000000
205.781110 8.000000
206.060040 10.000000
206.085140 77.000000
206.098620 270.000000
207.091250 29.000000
207.104950 248.000000
207.940410 5.000000
208.065980 5.000000
208.076890 6.000000
208.111950 226.000000
208.532550 5.000000
209.077040 16.000000
209.104630 59.000000
209.117290 141.000000
210.089710 18.000000
210.115540 39.000000
210.131090 10.000000
211.117200 7.000000
211.128370 10.000000
211.136810 9.000000
212.102920 8.000000
212.126400 8.000000
213.077360 5.000000
214.081070 7.000000
214.453510 6.000000
215.078060 16.000000
216.082320 12.000000
216.092160 35.000000
216.100770 12.000000
217.084290 134.000000
217.113780 8.000000
218.066470 12.000000
218.080060 34.000000
218.089840 92.000000
218.100510 247.000000
218.710740 5.000000
219.104740 365.000000
219.299100 6.000000
220.070600 21.000000
220.110120 335.000000
220.132550 12.000000
220.159710 5.000000
220.343860 11.000000
221.083040 10.000000
221.115620 169.000000
222.081920 7.000000
222.092850 7.000000
222.106190 7.000000
222.118030 52.000000
222.129710 96.000000
222.877150 6.000000
222.987050 7.000000
223.066570 11.000000
223.095790 6.000000
223.104480 9.000000
223.121370 29.000000
223.134700 24.000000
223.165180 6.000000
224.116290 7.000000
224.125460 13.000000
224.148670 13.000000
224.158540 9.000000
225.075440 13.000000
225.118260 17.000000
225.128400 12.000000
228.088010 6.000000
229.128650 5.000000
230.095020 23.000000
231.059340 5.000000
231.113450 29.000000
232.077700 49.000000
232.112230 101.000000
232.284730 5.000000
233.086330 30.000000
233.097090 22.000000
233.119090 47.000000
234.093110 16.000000
234.108900 17.000000
234.126830 181.000000
234.139760 37.000000
234.526980 11.000000
235.081540 7.000000
235.099700 14.000000
235.132160 82.000000
236.068980 27.000000
236.080220 6.000000
236.108870 28.000000
236.127640 16.000000
236.141250 17.000000
236.150850 7.000000
237.082580 26.000000
237.107730 5.000000
237.135790 20.000000
237.142520 53.000000
238.060090 15.000000
238.086270 211.000000
238.100010 36.000000
238.123700 14.000000
238.138520 8.000000
238.168350 6.000000
238.625120 7.000000
239.085910 28.000000
239.099270 55.000000
239.126940 9.000000
239.161800 24.000000
240.081790 16.000000
240.100980 16.000000
242.098600 6.000000
244.068510 7.000000
244.115020 6.000000
245.107450 6.000000
246.090840 6.000000
246.098710 6.000000
246.122060 17.000000
246.136140 16.000000
247.096420 36.000000
247.108350 43.000000
247.134690 59.000000
247.746700 5.000000
248.072830 9.000000
248.094150 6.000000
248.121350 21.000000
248.133590 29.000000
248.152440 13.000000
248.442890 5.000000
249.012650 5.000000
249.073270 12.000000
249.084980 18.000000
249.109910 6.000000
249.134630 22.000000
249.144650 20.000000
249.155700 9.000000
249.980480 5.000000
250.058910 9.000000
250.084200 184.000000
250.121770 12.000000
250.139850 9.000000
250.161770 12.000000
250.273530 5.000000
251.056930 8.000000
251.094540 342.000000
251.144230 9.000000
251.157460 11.000000
251.199750 6.000000
251.557100 5.000000
252.074720 15.000000
252.100160 269.000000
252.119570 18.000000
252.166690 5.000000
252.210250 8.000000
253.072980 7.000000
253.102260 66.000000
253.119660 49.000000
254.072110 6.000000
254.112590 23.000000
254.123870 21.000000
255.124740 14.000000
256.106990 7.000000
258.130800 6.000000
260.100010 8.000000
260.145290 5.000000
261.129670 6.000000
262.072510 9.000000
262.086940 35.000000
262.096590 23.000000
262.113400 6.000000
262.157900 7.000000
262.173830 5.000000
263.076750 7.000000
263.096040 59.000000
263.124690 20.000000
264.060580 7.000000
264.104400 1000.000000
264.988530 7.000000
265.074250 13.000000
265.094760 83.000000
265.108180 337.000000
265.119290 121.000000
265.362700 9.000000
266.075780 9.000000
266.118500 431.000000
267.104190 24.000000
267.121890 99.000000
267.135650 26.000000
267.149870 5.000000
268.120730 14.000000
268.131560 20.000000
268.148990 9.000000
268.169340 6.000000
270.129610 7.000000
270.164950 6.000000
275.087740 15.000000
275.105100 18.000000
275.126770 25.000000
276.086640 11.000000
276.105070 53.000000
276.135650 15.000000
276.791960 6.000000
277.066410 6.000000
277.095610 7.000000
277.104920 13.000000
277.118500 12.000000
277.142850 11.000000
277.180760 12.000000
278.041320 6.000000
278.084930 18.000000
278.116090 372.000000
278.126560 169.000000
278.170170 5.000000
278.311710 5.000000
279.122530 181.000000
279.549900 6.000000
280.112550 24.000000
280.133180 212.000000
280.150270 31.000000
280.165950 5.000000
281.142150 78.000000
281.160130 8.000000
282.135590 5.000000
282.148620 17.000000
285.776310 6.000000
290.113130 24.000000
290.126220 35.000000
291.059660 5.000000
291.115540 28.000000
291.133480 15.000000
292.120970 101.000000
292.142730 68.000000
293.121610 13.000000
293.143710 30.000000
294.108980 10.000000
294.145050 78.000000
294.163270 26.000000
295.136020 6.000000
300.157680 6.000000
301.379850 6.000000
304.129580 23.000000
305.140380 8.000000
306.139400 6.000000
307.137630 58.000000
307.150120 58.000000
308.144590 6.000000
308.157620 6.000000
308.177000 6.000000
310.118010 8.000000
335.165130 7.000000
337.193210 7.000000

>ms2peaks
134.095660 5.000000
144.079820 52.000000
145.082600 10.000000
152.108170 23.000000
194.118120 8.000000
205.087590 6.000000
206.100250 5.000000
208.112090 10.000000
209.114720 6.000000
212.127320 36.000000
219.108380 8.000000
220.110090 12.000000
222.129290 7.000000
224.139970 5.000000
234.126170 11.000000
235.134610 6.000000
248.141080 5.000000
250.158570 8.000000
252.103650 7.000000
264.102660 16.000000
265.110200 19.000000
266.105620 6.000000
266.118680 16.000000
267.125370 14.000000
268.133450 25.000000
277.168550 7.000000
278.118560 9.000000
278.178650 8.000000
279.124970 20.000000
280.133180 99.000000
281.134920 14.000000
281.145290 10.000000
292.129180 6.000000
293.141780 7.000000
294.149320 107.000000
295.151150 23.000000
295.181030 20.000000
306.152040 5.000000
307.138760 8.000000
307.150600 5.000000
308.163150 82.000000
309.153630 5.000000
309.168820 13.000000
310.173770 7.000000
337.191680 327.000000
338.195130 81.000000
339.201050 13.000000
355.201290 1000.000000
355.255580 29.000000

>ms2peaks
337.192170 42.000000
338.195190 9.000000
355.136630 5.000000
355.201660 1000.000000
355.256100 34.000000

>ms2peaks
69.072090 6.000000
84.080670 10.000000
93.070530 6.000000
95.085670 9.000000
96.082510 10.000000
98.096340 8.000000
107.084760 12.000000
108.085640 9.000000
110.095920 25.000000
111.104580 10.000000
117.068700 11.000000
120.080720 8.000000
122.064720 9.000000
122.097080 8.000000
123.079450 7.000000
124.111150 27.000000
130.067050 23.000000
131.069760 5.000000
132.079040 17.000000
134.100420 21.000000
135.084000 10.000000
144.082110 500.000000
145.071610 8.000000
145.083570 75.000000
146.098820 7.000000
148.073350 7.000000
150.095260 8.000000
152.107360 217.000000
153.104430 7.000000
153.113940 16.000000
154.088300 6.000000
155.079010 6.000000
156.064350 5.000000
156.083910 12.000000
158.087810 10.000000
158.099590 14.000000
162.085910 8.000000
162.095830 15.000000
164.108220 6.000000
166.073230 6.000000
168.081160 10.000000
169.086880 7.000000
170.065610 6.000000
170.095550 18.000000
171.086120 5.000000
171.095570 7.000000
171.109440 7.000000
172.092510 10.000000
172.110110 7.000000
174.089170 6.000000
180.077010 10.000000
180.098240 7.000000
181.096570 10.000000
182.094210 16.000000
183.103390 8.000000
184.102970 12.000000
185.104860 7.000000
186.088380 6.000000
192.076710 7.000000
193.101560 11.000000
194.116760 40.000000
194.126600 26.000000
195.101620 6.000000
195.111880 9.000000
195.123570 9.000000
196.096470 12.000000
196.107270 13.000000
196.116940 10.000000
197.108030 7.000000
198.106860 6.000000
198.122680 18.000000
204.082000 10.000000
205.089650 14.000000
206.083530 7.000000
206.100040 26.000000
206.116910 6.000000
207.102050 19.000000
208.073120 8.000000
208.098400 8.000000
208.113140 61.000000
209.114530 7.000000
209.125580 18.000000
210.117900 11.000000
210.127980 16.000000
212.128920 264.000000
213.121720 6.000000
213.134640 38.000000
216.108960 9.000000
217.089310 5.000000
218.096970 15.000000
219.088270 7.000000
219.103490 32.000000
219.115110 11.000000
220.078750 5.000000
220.116490 69.000000
221.121060 61.000000
222.116810 13.000000
222.127300 42.000000
222.135590 29.000000
223.129580 32.000000
223.141400 10.000000
224.103960 6.000000
224.134980 44.000000
224.148730 30.000000
225.132390 12.000000
225.148210 7.000000
232.119750 13.000000
233.107940 9.000000
233.121260 9.000000
234.109130 10.000000
234.126750 86.000000
234.141330 18.000000
235.119640 14.000000
235.136470 22.000000
235.145450 16.000000
236.101180 11.000000
236.112290 7.000000
236.133480 15.000000
236.141720 31.000000
236.153050 14.000000
237.080510 14.000000
237.124980 6.000000
237.142670 17.000000
237.155790 12.000000
238.124740 7.000000
238.162750 7.000000
239.093460 48.000000
240.091480 5.000000
240.112370 8.000000
242.122850 8.000000
244.112270 6.000000
246.131970 32.000000
247.091480 6.000000
247.123380 13.000000
248.110400 6.000000
248.132230 32.000000
248.143460 46.000000
248.155320 25.000000
249.112530 14.000000
249.145220 73.000000
250.082960 6.000000
250.119400 7.000000
250.130490 7.000000
250.160290 78.000000
251.153020 5.000000
251.160780 14.000000
252.086700 7.000000
252.102750 18.000000
252.141430 7.000000
253.103440 22.000000
253.116710 15.000000
253.136980 7.000000
253.171010 28.000000
254.115360 11.000000
254.128190 11.000000
254.174590 8.000000
260.139310 12.000000
260.156430 5.000000
261.153170 6.000000
262.116580 12.000000
262.128940 28.000000
262.150540 7.000000
263.154510 15.000000
264.104310 30.000000
264.127350 8.000000
265.104770 51.000000
265.115390 35.000000
265.127530 18.000000
265.142820 6.000000
266.115450 91.000000
266.129820 21.000000
266.155670 7.000000
267.126740 106.000000
268.132900 179.000000
268.146240 49.000000
269.133670 29.000000
269.149480 13.000000
274.112340 7.000000
275.125430 8.000000
276.128880 21.000000
276.140870 15.000000
277.133730 15.000000
277.144100 12.000000
277.164060 44.000000
277.175140 44.000000
277.186400 16.000000
278.110290 11.000000
278.125310 25.000000
278.158750 11.000000
278.177150 27.000000
278.192960 6.000000
279.106350 16.000000
279.126220 113.000000
279.180240 6.000000
280.096440 6.000000
280.134400 756.000000
280.168980 6.000000
280.185210 6.000000
281.136720 171.000000
281.150050 65.000000
282.143460 40.000000
282.156250 36.000000
283.144680 6.000000
283.160060 6.000000
290.115170 13.000000
290.132290 15.000000
291.125730 22.000000
291.141300 6.000000
292.124940 33.000000
292.138000 56.000000
293.131290 26.000000
293.146640 46.000000
294.100650 5.000000
294.150180 940.000000
295.134120 18.000000
295.152650 143.000000
295.169070 70.000000
295.184510 122.000000
296.139220 10.000000
296.159790 29.000000
296.173460 12.000000
296.192230 32.000000
305.168060 12.000000
306.141600 22.000000
306.155640 28.000000
306.192140 6.000000
307.132780 15.000000
307.149170 68.000000
307.159000 33.000000
308.111910 9.000000
308.126370 12.000000
308.164030 536.000000
309.150020 32.000000
309.171970 138.000000
310.162510 23.000000
310.177860 28.000000
310.199250 11.000000
320.162900 42.000000
326.164030 7.000000
326.181210 10.000000
337.134000 9.000000
337.146760 13.000000
337.193450 1000.000000
338.194640 308.000000
339.175420 10.000000
339.201450 50.000000
355.203000 168.000000
355.222290 32.000000

>ms2peaks
55.052630 6.000000
56.050990 12.000000
59.016750 6.000000
67.047130 7.000000
67.053540 55.000000
68.059790 7.000000
69.062560 10.000000
69.071400 7.000000
70.062470 8.000000
70.066100 10.000000
77.040950 50.000000
79.048630 9.000000
79.053990 45.000000
80.050960 14.000000
81.032620 7.000000
81.050180 8.000000
81.058560 6.000000
81.068800 14.000000
81.072780 18.000000
82.069150 14.000000
83.043300 6.000000
83.049230 46.000000
84.074100 7.000000
84.083470 9.000000
85.071230 8.000000
87.444790 5.000000
91.055660 174.000000
91.087100 6.000000
93.040770 6.000000
93.061230 7.000000
93.067960 11.000000
93.073690 20.000000
93.679180 5.000000
94.064820 16.000000
95.051810 19.000000
95.066640 5.000000
95.078580 30.000000
95.086050 110.000000
96.051740 10.000000
96.082290 12.000000
96.086870 12.000000
98.090180 7.000000
100.858330 11.000000
102.049450 5.000000
103.050900 13.000000
103.056710 44.000000
104.054170 7.000000
105.070070 77.000000
106.068140 10.000000
106.081050 13.000000
107.004160 5.000000
107.057210 7.000000
107.084850 65.000000
108.080180 53.000000
108.089660 9.000000
108.130380 15.000000
109.061780 10.000000
109.069760 7.000000
109.083260 9.000000
109.105580 18.000000
110.086720 14.000000
110.096920 53.000000
111.094660 17.000000
111.103430 13.000000
112.109140 25.000000
115.031460 7.000000
115.056720 164.000000
116.048830 11.000000
117.059070 34.000000
117.070590 156.000000
117.868270 10.000000
118.068700 40.000000
119.056040 8.000000
119.067480 15.000000
119.073810 15.000000
119.087650 7.000000
120.042660 14.000000
120.050990 7.000000
120.081190 16.000000
121.064070 6.000000
121.079850 7.000000
121.086600 6.000000
122.059720 20.000000
122.097380 42.000000
123.078790 31.000000
123.094510 6.000000
123.102360 12.000000
123.990620 5.000000
124.067250 13.000000
124.075240 18.000000
124.102870 9.000000
124.112530 110.000000
124.156280 6.000000
125.078410 7.000000
125.113620 22.000000
125.122280 8.000000
126.118930 12.000000
127.053810 52.000000
128.028610 5.000000
128.048000 28.000000
128.056900 16.000000
128.066770 19.000000
129.069020 56.000000
130.062000 68.000000
130.069340 40.000000
130.075490 15.000000
131.024990 6.000000
131.051540 8.000000
131.069730 31.000000
131.077650 31.000000
132.044940 7.000000
132.081760 43.000000
133.080860 6.000000
133.871780 6.000000
134.097850 107.000000
135.084580 16.000000
135.099500 11.000000
135.110530 10.000000
136.071490 16.000000
136.114200 8.000000
138.096180 6.000000
140.047840 10.000000
141.072020 20.000000
141.756880 7.000000
142.063830 17.000000
142.077580 10.000000
143.073210 244.000000
144.006970 7.000000
144.048170 9.000000
144.064760 34.000000
144.081120 819.000000
145.080510 47.000000
145.088460 76.000000
146.079360 14.000000
146.103640 12.000000
146.796920 7.000000
147.105070 7.000000
149.095200 5.000000
150.069840 5.000000
150.114010 7.000000
151.054180 5.000000
151.076160 10.000000
151.482240 5.000000
152.059280 5.000000
152.067080 5.000000
152.095110 10.000000
152.106000 76.000000
152.122040 11.000000
153.067660 7.000000
153.075490 12.000000
153.106020 20.000000
153.117610 10.000000
154.066280 26.000000
154.082000 35.000000
154.459790 7.000000
155.071140 7.000000
155.079860 16.000000
156.054890 6.000000
156.074710 42.000000
156.083940 34.000000
157.055500 5.000000
157.080550 12.000000
157.087450 19.000000
157.094330 8.000000
157.311980 6.000000
158.051100 8.000000
158.063080 11.000000
158.093840 41.000000
158.101930 20.000000
158.241550 9.000000
161.038790 8.000000
162.090150 36.000000
162.296720 5.000000
163.113330 5.000000
164.056290 6.000000
164.068630 5.000000
164.104450 15.000000
164.724900 5.000000
165.047740 5.000000
165.074940 65.000000
166.053530 13.000000
166.068340 27.000000
166.081670 14.000000
166.101030 7.000000
167.054700 5.000000
167.068360 41.000000
167.074970 122.000000
167.087480 11.000000
168.036160 9.000000
168.081280 154.000000
169.051990 10.000000
169.073040 5.000000
169.086230 60.000000
169.097290 8.000000
170.048200 7.000000
170.062970 22.000000
170.081620 22.000000
170.093930 25.000000
170.115260 6.000000
170.906520 7.000000
171.031360 8.000000
171.068700 6.000000
171.104160 6.000000
172.109040 10.000000
173.087050 6.000000
174.066380 5.000000
174.092670 6.000000
174.450070 5.000000
175.099950 6.000000
178.054960 19.000000
178.073290 46.000000
178.081650 37.000000
179.061250 22.000000
179.086550 84.000000
179.111020 6.000000
180.066970 10.000000
180.081440 242.000000
180.100360 12.000000
181.068410 5.000000
181.081650 78.000000
181.090550 68.000000
181.104160 15.000000
181.867600 6.000000
182.077610 5.000000
182.086810 12.000000
182.100310 50.000000
183.088500 14.000000
183.105240 27.000000
184.074130 18.000000
184.082140 6.000000
184.108750 14.000000
184.530780 7.000000
187.095320 9.000000
187.529720 5.000000
188.065280 7.000000
189.062930 11.000000
190.056470 8.000000
190.066970 27.000000
190.079670 8.000000
190.991900 6.000000
191.036440 6.000000
191.073090 162.000000
192.079850 229.000000
192.099930 23.000000
192.446350 9.000000
193.036070 10.000000
193.069500 26.000000
193.086820 282.000000
193.830290 5.000000
193.906340 8.000000
194.096830 268.000000
194.113820 11.000000
195.070510 5.000000
195.092270 14.000000
195.102360 42.000000
195.114790 19.000000
195.977140 9.000000
196.076780 12.000000
196.096280 7.000000
196.110530 6.000000
196.117320 18.000000
197.082380 11.000000
197.089810 11.000000
197.109820 13.000000
198.069610 6.000000
198.135830 16.000000
202.081330 47.000000
202.123430 5.000000
203.063950 12.000000
203.077990 16.000000
203.085850 6.000000
204.053990 8.000000
204.080890 586.000000
204.242980 19.000000
204.947860 5.000000
205.057570 22.000000
205.085770 288.000000
205.094440 137.000000
205.115950 7.000000
205.733290 5.000000
205.984830 6.000000
206.056060 28.000000
206.068370 38.000000
206.084840 59.000000
206.097460 377.000000
207.073870 5.000000
207.079830 14.000000
207.096590 71.000000
207.107190 99.000000
207.115630 29.000000
208.074660 17.000000
208.097950 27.000000
208.113070 261.000000
208.127350 24.000000
209.086810 16.000000
209.104310 19.000000
209.116170 67.000000
210.093260 29.000000
210.111740 12.000000
210.125290 46.000000
210.742980 7.000000
211.098220 7.000000
211.133580 5.000000
212.101360 6.000000
213.628970 6.000000
215.082310 15.000000
216.080800 35.000000
216.095660 12.000000
217.061310 15.000000
217.078480 95.000000
217.086990 97.000000
217.097870 24.000000
217.109390 11.000000
218.056750 10.000000
218.074860 36.000000
218.096800 442.000000
219.083390 37.000000
219.103270 274.000000
219.166900 7.000000
220.067830 22.000000
220.090030 44.000000
220.112720 392.000000
220.248640 6.000000
221.058170 5.000000
221.071840 5.000000
221.091460 13.000000
221.119030 199.000000
222.046490 5.000000
222.088610 27.000000
222.108600 15.000000
222.120210 68.000000
222.132740 91.000000
222.894940 6.000000
223.061710 7.000000
223.078320 5.000000
223.109120 5.000000
223.124330 14.000000
223.139360 6.000000
224.068950 14.000000
224.112700 5.000000
224.129900 29.000000
224.138080 15.000000
224.151540 19.000000
224.998500 5.000000
225.079990 7.000000
225.118530 6.000000
226.070100 13.000000
227.644520 5.000000
228.075330 6.000000
229.084320 5.000000
230.079220 7.000000
230.091460 28.000000
230.102020 29.000000
231.075040 5.000000
231.098950 65.000000
231.113310 39.000000
231.364400 7.000000
232.066350 8.000000
232.076630 25.000000
232.086070 21.000000
232.100680 36.000000
232.113100 125.000000
232.123690 23.000000
232.206890 7.000000
233.070420 10.000000
233.083110 47.000000
233.097920 13.000000
233.117000 116.000000
233.276150 8.000000
234.085600 30.000000
234.103840 6.000000
234.127030 220.000000
235.108750 20.000000
235.126560 44.000000
235.134990 42.000000
235.150530 7.000000
236.072480 13.000000
236.144740 46.000000
237.082530 43.000000
237.103380 10.000000
237.142170 57.000000
238.074680 35.000000
238.088490 166.000000
238.115690 10.000000
238.125980 7.000000
239.015380 8.000000
239.088180 79.000000
239.097630 30.000000
240.099380 11.000000
240.156910 7.000000
241.094650 7.000000
243.103260 8.000000
244.085860 9.000000
244.104000 14.000000
244.118300 31.000000
244.646550 12.000000
245.108090 7.000000
246.086260 5.000000
246.098040 21.000000
246.116520 18.000000
246.131930 12.000000
247.115430 58.000000
247.130330 33.000000
247.766940 7.000000
248.063110 14.000000
248.096010 9.000000
248.105070 20.000000
248.122920 52.000000
248.140820 56.000000
248.153030 17.000000
249.071550 27.000000
249.088760 7.000000
249.108920 18.000000
249.143130 24.000000
250.074920 40.000000
250.089630 268.000000
250.133270 10.000000
250.145950 6.000000
250.513290 9.000000
251.095780 315.000000
251.145970 7.000000
252.029850 5.000000
252.076840 11.000000
252.089980 68.000000
252.102680 210.000000
252.126880 10.000000
252.165880 12.000000
252.647060 6.000000
253.074430 6.000000
253.096440 36.000000
253.111210 69.000000
253.120290 21.000000
254.109970 19.000000
254.975010 6.000000
257.108090 5.000000
257.126220 9.000000
258.116360 7.000000
259.145630 7.000000
260.158170 7.000000
261.022460 5.000000
261.108980 12.000000
261.150820 6.000000
262.062440 7.000000
262.082760 15.000000
262.133420 15.000000
262.149320 7.000000
263.095950 31.000000
263.113980 25.000000
263.139680 11.000000
264.042510 7.000000
264.102260 1000.000000
264.133450 22.000000
264.463590 5.000000
265.031070 8.000000
265.075100 24.000000
265.106020 527.000000
266.058650 11.000000
266.093930 27.000000
266.117680 448.000000
266.141630 18.000000
266.502840 8.000000
267.123050 154.000000
268.099210 12.000000
268.127230 26.000000
268.140750 15.000000
269.138030 6.000000
274.081420 8.000000
275.102110 8.000000
275.121830 48.000000
275.590330 6.000000
276.082340 13.000000
276.103940 76.000000
277.078800 13.000000
277.106350 78.000000
277.173130 17.000000
277.181730 6.000000
277.650360 5.000000
278.078250 5.000000
278.116210 442.000000
278.165190 5.000000
278.181120 10.000000
278.803740 6.000000
279.063570 5.000000
279.079100 12.000000
279.116420 100.000000
279.130130 137.000000
279.143280 22.000000
279.491240 5.000000
280.062680 6.000000
280.089970 6.000000
280.099820 7.000000
280.115690 12.000000
280.134520 182.000000
280.831420 6.000000
281.101350 7.000000
281.140660 40.000000
282.155430 6.000000
283.352570 5.000000
288.665710 6.000000
289.100740 7.000000
290.102050 11.000000
290.114010 54.000000
290.132170 19.000000
291.110080 23.000000
291.125490 50.000000
292.101810 6.000000
292.126710 207.000000
292.146700 21.000000
292.601350 5.000000
293.119420 34.000000
293.140050 46.000000
293.727540 5.000000
294.135350 35.000000
294.149440 26.000000
294.163450 8.000000
295.151790 10.000000
295.173580 6.000000
299.659730 6.000000
306.127530 6.000000
307.122800 12.000000
307.145450 32.000000
308.142030 5.000000
308.158480 11.000000
309.130770 7.000000
324.223180 7.000000
355.197330 25.000000

>ms2peaks
55.996410 20.000000
58.065570 62.000000
69.073620 30.000000
69.244850 24.000000
70.065580 44.000000
73.277600 25.000000
79.052760 25.000000
83.048390 46.000000
84.884820 21.000000
85.089850 35.000000
93.071500 68.000000
95.094680 19.000000
96.078440 56.000000
105.066420 21.000000
105.076650 53.000000
106.069700 19.000000
107.068500 30.000000
108.082890 47.000000
110.093470 164.000000
110.100300 45.000000
110.395380 17.000000
111.102780 61.000000
112.112900 90.000000
112.118560 21.000000
116.047080 31.000000
117.071790 115.000000
118.063910 23.000000
118.070510 19.000000
119.089440 21.000000
120.043530 45.000000
121.064290 17.000000
121.072010 42.000000
121.645290 27.000000
121.743060 41.000000
122.053520 26.000000
122.061040 27.000000
122.093080 46.000000
123.065030 17.000000
123.099210 21.000000
123.109640 45.000000
123.558850 18.000000
124.111680 137.000000
124.125240 26.000000
124.157440 22.000000
125.112370 28.000000
125.119540 40.000000
127.055890 17.000000
127.062580 20.000000
128.046660 18.000000
129.067920 20.000000
130.060900 51.000000
130.065860 15.000000
130.288560 41.000000
131.072740 20.000000
131.872850 21.000000
133.065720 43.000000
133.086760 25.000000
134.057690 17.000000
134.098140 117.000000
135.078800 57.000000
135.098800 24.000000
136.076640 21.000000
136.114780 17.000000
137.073900 40.000000
137.095610 17.000000
138.120620 30.000000
138.135970 45.000000
139.137820 18.000000
140.128600 17.000000
141.074830 25.000000
141.368120 49.000000
142.063420 20.000000
142.089420 27.000000
143.064880 19.000000
143.076110 81.000000
143.089870 29.000000
143.560000 20.000000
144.042510 21.000000
144.081860 2608.000000
145.081860 133.000000
145.088820 111.000000
145.103470 20.000000
145.999790 20.000000
146.094620 50.000000
146.487240 21.000000
148.113280 28.000000
148.118840 24.000000
150.069630 18.000000
150.089780 38.000000
150.098050 25.000000
151.077240 61.000000
152.082720 15.000000
152.107160 846.000000
153.103650 19.000000
154.064910 38.000000
154.095060 20.000000
154.120650 24.000000
155.075420 18.000000
156.077700 17.000000
156.086650 61.000000
158.099110 128.000000
158.266360 31.000000
159.097320 45.000000
160.073070 19.000000
160.084170 18.000000
160.113690 18.000000
162.092910 104.000000
163.077740 42.000000
163.095550 33.000000
163.101840 26.000000
163.362090 17.000000
164.112960 27.000000
165.076550 46.000000
165.085080 21.000000
165.098720 18.000000
166.124830 54.000000
167.056430 48.000000
167.067210 84.000000
168.076460 24.000000
168.082570 19.000000
170.058880 152.000000
170.083590 20.000000
170.095460 107.000000
170.108380 40.000000
171.092880 24.000000
171.109710 24.000000
172.117830 45.000000
172.571490 18.000000
172.578450 26.000000
173.090820 23.000000
174.461500 23.000000
176.062930 21.000000
178.074160 37.000000
178.084460 18.000000
178.831440 17.000000
180.072200 54.000000
180.083510 133.000000
180.097080 27.000000
180.105100 50.000000
181.068730 19.000000
181.079700 56.000000
181.087740 27.000000
181.098860 19.000000
182.073500 30.000000
182.093110 87.000000
182.106890 156.000000
182.799650 35.000000
182.874560 18.000000
183.062000 21.000000
183.089570 22.000000
183.105090 71.000000
183.117480 19.000000
183.598710 18.000000
183.954800 20.000000
184.072600 20.000000
184.093350 61.000000
184.110840 19.000000
184.120990 20.000000
184.929630 23.000000
185.116130 56.000000
185.611020 24.000000
186.075590 19.000000
186.106370 24.000000
186.126630 45.000000
186.518910 21.000000
186.813190 22.000000
188.099010 17.000000
189.727230 20.000000
190.066730 18.000000
190.085480 17.000000
190.122280 17.000000
191.057390 46.000000
191.069370 64.000000
191.385600 19.000000
191.713390 21.000000
192.074140 22.000000
192.088200 116.000000
193.087280 59.000000
193.099850 39.000000
193.762240 19.000000
194.061580 28.000000
194.086960 20.000000
194.095290 63.000000
194.115840 307.000000
194.126910 50.000000
195.104340 130.000000
195.118440 65.000000
196.076350 31.000000
196.102740 80.000000
196.117360 40.000000
197.080690 20.000000
197.566160 45.000000
198.091750 26.000000
198.127010 89.000000
198.245560 36.000000
199.081860 19.000000
201.798070 24.000000
201.921110 24.000000
202.078450 17.000000
202.503420 17.000000
203.079130 24.000000
203.090000 18.000000
203.780960 17.000000
204.080640 210.000000
204.096630 17.000000
205.072570 20.000000
205.090640 374.000000
205.100400 93.000000
205.821230 18.000000
205.894320 30.000000
206.076660 35.000000
206.094940 317.000000
206.104810 116.000000
207.077130 25.000000
207.105590 139.000000
207.118870 24.000000
207.985180 34.000000
208.074020 28.000000
208.114360 412.000000
208.467510 21.000000
209.107930 144.000000
209.125560 172.000000
210.105990 62.000000
210.119170 60.000000
210.131180 131.000000
210.450620 20.000000
211.126800 72.000000
211.145230 21.000000
211.268160 17.000000
211.671170 20.000000
212.118880 165.000000
212.132130 1062.000000
213.119060 24.000000
213.133740 214.000000
214.118030 20.000000
214.144900 20.000000
214.716980 17.000000
215.089310 20.000000
215.429790 24.000000
216.103900 18.000000
216.732940 21.000000
216.866070 34.000000
217.053180 36.000000
217.083050 39.000000
217.096820 45.000000
218.089320 75.000000
218.099440 54.000000
219.062580 23.000000
219.090710 66.000000
219.102190 195.000000
219.111240 219.000000
220.066330 17.000000
220.084350 37.000000
220.097730 81.000000
220.115880 347.000000
221.097170 44.000000
221.122620 350.000000
221.809100 19.000000
221.923490 20.000000
222.071380 19.000000
222.092730 17.000000
222.115970 89.000000
222.127930 248.000000
222.143660 17.000000
222.602020 17.000000
223.128890 107.000000
224.082430 42.000000
224.135180 210.000000
224.147450 119.000000
225.128560 22.000000
225.149280 92.000000
227.149440 20.000000
227.941510 32.000000
228.115840 32.000000
228.954130 20.000000
229.101210 56.000000
230.090670 62.000000
231.122850 33.000000
232.110490 57.000000
232.120160 99.000000
233.075380 25.000000
233.122340 87.000000
233.563600 21.000000
234.086760 42.000000
234.103930 20.000000
234.122510 500.000000
234.135570 402.000000
234.558320 17.000000
235.090610 44.000000
235.101930 25.000000
235.129760 273.000000
235.147740 34.000000
236.106000 17.000000
236.133270 188.000000
236.145970 151.000000
236.153930 128.000000
236.167190 35.000000
237.075200 168.000000
237.097030 44.000000
237.107940 113.000000
237.140370 55.000000
237.162370 96.000000
238.095090 65.000000
238.128750 90.000000
238.147600 20.000000
238.153760 66.000000
238.396040 20.000000
238.488940 22.000000
239.070360 64.000000
239.082900 41.000000
239.096330 87.000000
239.108110 47.000000
239.121350 22.000000
239.164780 18.000000
239.726910 27.000000
240.102910 122.000000
240.133120 25.000000
242.434740 30.000000
243.112150 19.000000
244.312320 18.000000
246.117450 27.000000
246.133000 82.000000
247.090450 20.000000
247.124850 92.000000
247.134340 92.000000
247.146940 71.000000
248.078450 21.000000
248.093810 20.000000
248.107990 20.000000
248.130400 126.000000
248.149660 270.000000
249.112790 91.000000
249.140640 243.000000
249.154920 117.000000
249.164280 65.000000
250.076950 73.000000
250.089490 48.000000
250.103390 74.000000
250.123520 19.000000
250.138790 136.000000
250.157290 268.000000
250.177350 69.000000
251.020900 21.000000
251.068660 18.000000
251.089000 63.000000
251.104320 75.000000
251.117160 53.000000
251.163770 38.000000
251.998520 18.000000
252.087660 61.000000
252.101100 161.000000
252.113600 46.000000
252.140690 17.000000
252.169620 55.000000
253.102520 45.000000
253.117870 213.000000
253.144710 33.000000
253.160980 24.000000
253.180470 46.000000
254.108370 56.000000
254.120590 70.000000
254.132870 20.000000
254.196560 32.000000
254.226900 56.000000
255.104630 47.000000
256.549160 30.000000
257.400020 29.000000
258.176060 20.000000
260.137540 66.000000
261.101290 18.000000
261.618290 34.000000
262.082370 23.000000
262.098540 29.000000
262.120970 108.000000
262.143310 116.000000
262.174990 20.000000
263.096250 17.000000
263.113650 24.000000
263.125790 24.000000
263.146090 19.000000
264.083400 60.000000
264.101590 630.000000
264.133270 17.000000
264.143010 18.000000
264.272830 20.000000
264.960570 20.000000
265.030850 18.000000
265.102660 323.000000
265.115080 500.000000
266.005400 19.000000
266.097780 56.000000
266.111110 386.000000
266.122040 249.000000
266.142090 38.000000
266.193240 18.000000
266.786680 17.000000
267.097780 26.000000
267.124570 425.000000
267.136080 200.000000
267.150970 25.000000
267.184660 17.000000
267.431640 23.000000
267.599610 24.000000
268.126190 646.000000
268.136470 629.000000
268.145900 268.000000
268.258670 18.000000
269.096740 25.000000
269.126340 36.000000
269.134220 107.000000
269.146210 86.000000
270.149840 17.000000
270.158480 42.000000
271.736210 19.000000
272.397550 22.000000
272.704280 35.000000
273.684360 24.000000
274.128690 21.000000
274.144040 18.000000
275.112980 33.000000
275.123990 47.000000
275.134740 38.000000
275.272340 32.000000
276.069950 18.000000
276.102140 87.000000
276.123440 136.000000
276.138090 99.000000
276.156100 17.000000
277.091890 17.000000
277.115600 27.000000
277.135560 193.000000
277.157290 96.000000
277.169100 288.000000
278.090640 18.000000
278.118350 380.000000
278.127990 159.000000
278.151490 73.000000
278.175930 168.000000
278.188870 114.000000
278.197080 52.000000
279.029690 17.000000
279.098480 17.000000
279.118650 315.000000
279.128110 391.000000
279.139740 220.000000
279.159970 23.000000
279.183410 50.000000
279.930240 22.000000
280.034120 26.000000
280.045810 26.000000
280.089020 82.000000
280.134000 4328.000000
280.163480 40.000000
280.780640 29.000000
281.094570 17.000000
281.109190 22.000000
281.137150 1028.000000
281.166720 59.000000
281.537660 22.000000
281.580440 20.000000
281.702450 19.000000
281.966740 24.000000
282.112850 23.000000
282.124910 62.000000
282.141300 213.000000
282.155330 203.000000
282.169340 40.000000
282.181430 37.000000
283.141200 81.000000
283.163880 20.000000
283.971950 20.000000
284.159880 29.000000
284.739780 19.000000
284.931000 25.000000
285.701260 18.000000
287.398280 38.000000
288.133640 22.000000
288.517300 30.000000
289.123380 27.000000
290.109190 61.000000
290.127010 124.000000
290.136690 78.000000
290.466400 18.000000
291.116120 48.000000
291.128600 190.000000
291.143370 95.000000
291.372770 19.000000
291.760710 17.000000
292.128660 274.000000
292.141450 256.000000
292.167270 21.000000
293.133150 119.000000
293.145360 203.000000
293.178830 18.000000
293.633640 17.000000
293.943240 18.000000
294.065310 20.000000
294.097660 18.000000
294.118320 87.000000
294.151030 4865.000000
294.237270 39.000000
295.111880 26.000000
295.146060 441.000000
295.159180 581.000000
295.181850 805.000000
295.200960 57.000000
295.751710 17.000000
296.002720 18.000000
296.126920 50.000000
296.142120 20.000000
296.155550 18.000000
296.179230 216.000000
296.189850 67.000000
296.762820 17.000000
297.144440 18.000000
297.160030 28.000000
298.170960 20.000000
298.241640 17.000000
300.127900 17.000000
303.156010 20.000000
303.988980 18.000000
305.143280 68.000000
305.166110 56.000000
305.177220 75.000000
306.130710 22.000000
306.151030 218.000000
306.164430 95.000000
306.178280 18.000000
307.133450 141.000000
307.146060 570.000000
308.078060 17.000000
308.161680 3194.000000
309.015810 30.000000
309.054600 18.000000
309.116850 46.000000
309.150050 233.000000
309.167420 562.000000
309.357850 17.000000
309.595640 17.000000
310.158230 56.000000
310.186580 407.000000
310.394990 24.000000
311.158020 37.000000
311.183070 119.000000
312.179470 42.000000
312.193480 19.000000
317.197570 46.000000
317.559780 33.000000
319.144620 17.000000
319.189640 25.000000
319.382110 17.000000
320.161870 59.000000
320.176060 37.000000
321.055180 20.000000
321.171570 57.000000
321.184270 23.000000
322.180660 34.000000
322.347350 17.000000
322.894500 38.000000
322.947200 22.000000
323.164760 22.000000
323.781650 22.000000
324.153840 25.000000
325.154140 22.000000
325.200620 31.000000
326.169190 41.000000
326.830380 17.000000
327.170680 49.000000
327.186830 64.000000
332.064180 21.000000
337.103000 24.000000
337.122650 170.000000
337.147950 26.000000
337.190950 14755.000000
337.243100 127.000000
337.274050 17.000000
337.308690 21.000000
337.871770 19.000000
338.142460 19.000000
338.193360 3348.000000
338.237820 33.000000
338.452420 18.000000
339.037720 18.000000
339.180790 82.000000
339.196140 342.000000
339.214170 74.000000
339.604310 19.000000
340.198760 55.000000
340.276890 18.000000
342.338680 18.000000
347.146000 17.000000
348.053650 17.000000
348.867190 27.000000
349.188600 24.000000
349.401790 18.000000
353.178740 34.000000
353.195220 74.000000
353.230220 25.000000
353.776730 22.000000
353.930150 26.000000
354.185150 90.000000
354.203950 45.000000
354.250000 23.000000
354.848660 18.000000
354.862730 19.000000
355.005280 17.000000
355.047790 20.000000
355.100890 18.000000
355.126860 84.000000
355.148590 232.000000
355.203400 46787.000000
355.256260 1212.000000
355.287990 18.000000
355.306610 34.000000

