>compound PR74621056
>parentmass 291.08631460000004
>ionization [M+H]+
>formula C15H14O6
>rt 206.581980
>profile qtof
#smiles_iso C1[C@@H]([C@@H](OC2=CC(=CC(=C21)O)O)C3=CC(=C(C=C3)O)O)O
#smiles_can C1C(C(OC2=CC(=CC(=C21)O)O)C3=CC(=C(C=C3)O)O)O
#inchikey PFTAWBLQPZVEMU-ZFWWWQNUSA-N
#pubchem_id 182232
#mb_accession PR302623,PR302629,PR302635,PR302641,PR302647,PR302653,PR302659,PR302665,PR302671,PR302677,PR302683,PR302689

>ms2
67.054270 37.000000
97.028740 34.000000
105.889370 32.000000
111.044810 23.000000
119.047360 54.000000
123.022450 32.000000
123.034660 111.000000
123.044170 510.000000
124.028240 35.000000
139.033080 280.000000
139.038970 1000.000000
140.038960 110.000000
143.053850 29.000000
145.065720 54.000000
147.036640 50.000000
147.044200 243.000000
148.048580 31.000000
151.031680 123.000000
151.037000 46.000000
152.044770 21.000000
153.043170 26.000000
154.075670 25.000000
161.058560 97.000000
165.043840 30.000000
165.059130 123.000000
166.061690 46.000000
166.261200 21.000000
170.051820 29.000000
179.055850 33.000000
190.057650 24.000000
202.113480 22.000000
207.066990 74.000000
208.067870 27.000000
230.451600 25.000000
249.059100 31.000000
273.081390 91.000000
291.056820 29.000000
291.089940 396.000000

>ms2
101.709020 11.000000
123.031970 33.000000
123.043920 193.000000
124.043750 35.000000
126.062030 10.000000
127.035870 14.000000
139.020650 17.000000
139.025510 42.000000
139.038190 233.000000
139.936280 19.000000
140.033310 18.000000
140.038270 51.000000
147.041870 42.000000
151.041320 29.000000
164.977580 10.000000
165.048070 111.000000
165.056990 76.000000
166.056200 22.000000
166.967700 10.000000
167.068310 10.000000
172.630860 10.000000
176.488770 13.000000
207.072330 33.000000
208.070540 12.000000
231.076280 17.000000
248.931210 14.000000
249.075030 10.000000
250.070970 14.000000
250.086270 16.000000
273.064390 15.000000
273.082610 50.000000
274.077060 11.000000
289.067080 14.000000
290.074100 33.000000
290.753050 11.000000
291.086610 1000.000000

>ms2
66.042300 46.000000
67.056850 26.000000
91.055690 55.000000
94.037010 22.000000
95.050450 23.000000
105.071440 51.000000
108.052810 26.000000
111.042240 69.000000
117.035590 21.000000
119.042790 35.000000
119.049800 61.000000
123.009950 22.000000
123.043430 1000.000000
123.447900 18.000000
124.044330 20.000000
124.049740 51.000000
134.028500 19.000000
137.056490 36.000000
139.037220 453.000000
139.042160 208.000000
140.037520 49.000000
140.043790 28.000000
143.028840 18.000000
143.047880 100.000000
144.051220 18.000000
147.011750 48.000000
147.032180 30.000000
147.043150 220.000000
147.051060 93.000000
148.053050 47.000000
161.037960 29.000000
162.054490 21.000000
162.064000 45.000000
163.040890 22.000000
168.043520 41.000000
177.028610 21.000000
177.053440 32.000000
189.056920 23.000000

>ms2
101.038230 552.000000
115.055150 621.000000
123.042050 1000.000000
127.051930 552.000000
131.043960 230.000000

>ms2
83.048650 26.000000
93.030680 24.000000
111.042060 70.000000
119.051240 33.000000
123.040220 128.000000
123.045920 398.000000
124.038590 18.000000
126.834920 15.000000
139.038100 1000.000000
140.042040 81.000000
140.951430 16.000000
141.038010 21.000000
141.048840 17.000000
143.047230 16.000000
143.058230 21.000000
147.044100 147.000000
148.037220 22.000000
161.036610 26.000000
161.053510 16.000000
161.060180 53.000000
162.054310 26.000000
165.050310 17.000000
165.056490 27.000000
165.063160 30.000000
177.016200 14.000000
181.049300 20.000000
189.057400 26.000000
205.044680 31.000000
207.064730 40.000000
209.569500 29.000000
213.046260 14.000000
213.231490 14.000000
222.818120 16.000000
249.051420 16.000000
249.066600 24.000000
250.092680 30.000000
291.083310 256.000000
291.093200 81.000000

>ms2
95.047910 11.000000
123.043980 241.000000
139.023800 52.000000
139.032030 94.000000
139.037930 220.000000
139.050860 20.000000
140.042050 17.000000
147.023900 8.000000
147.048070 10.000000
152.045460 20.000000
165.019560 8.000000
165.036180 24.000000
165.049470 107.000000
165.058990 68.000000
166.046370 8.000000
166.053280 12.000000
167.024610 13.000000
167.038410 8.000000
168.391750 17.000000
169.054980 9.000000
173.439870 9.000000
212.301070 11.000000
230.060350 13.000000
249.073240 67.000000
273.071810 29.000000
289.065310 15.000000
290.066190 9.000000
290.082790 49.000000
290.572080 9.000000
290.919040 11.000000
291.086730 1000.000000

>ms2
77.037870 27.000000
83.050840 20.000000
95.046530 20.000000
97.031170 21.000000
97.051710 24.000000
105.068410 22.000000
115.053730 53.000000
119.050340 110.000000
123.043780 620.000000
123.906980 21.000000
124.044320 68.000000
124.274020 27.000000
129.062260 20.000000
132.992290 20.000000
135.047420 91.000000
137.025940 72.000000
139.039020 1000.000000
140.040800 34.000000
143.045000 33.000000
145.033170 24.000000
147.043720 143.000000
151.040500 39.000000
154.080410 26.000000
159.040740 53.000000
161.051220 25.000000
161.059050 104.000000
164.046080 55.000000
166.055800 34.000000
177.048660 25.000000
179.064510 34.000000
179.077060 41.000000
180.081670 26.000000
189.050950 25.000000
190.029010 22.000000

>ms2
65.036620 188.000000
77.038700 322.000000
91.050900 161.000000
91.055540 248.000000
105.025380 275.000000
105.032680 154.000000
109.026700 168.000000
111.045620 168.000000
115.053190 443.000000
119.047850 450.000000
123.042400 1000.000000
139.039120 564.000000
140.045320 134.000000
147.040630 195.000000
291.088410 201.000000

>ms2
55.020310 31.000000
78.330860 21.000000
93.033650 19.000000
97.027310 25.000000
107.048720 21.000000
115.058360 40.000000
119.031470 29.000000
123.042720 669.000000
124.034710 49.000000
124.043870 25.000000
124.051640 31.000000
125.061810 19.000000
125.424930 19.000000
131.045580 24.000000
133.064330 60.000000
139.037610 1000.000000
140.039170 21.000000
140.045900 71.000000
141.067280 19.000000
143.053020 22.000000
146.065670 29.000000
147.045820 127.000000
148.050230 28.000000
151.027760 28.000000
151.042100 43.000000
161.056110 132.000000
161.061630 59.000000
162.064680 18.000000
163.038270 88.000000
164.071500 30.000000
164.134410 32.000000
165.050250 187.000000
166.053700 76.000000
169.891010 19.000000
179.075610 26.000000
182.050130 46.000000
188.036700 30.000000
189.064300 30.000000
191.045120 21.000000
207.049930 18.000000
213.767140 19.000000
249.084430 19.000000
249.989500 28.000000
255.050800 32.000000
291.083770 215.000000
291.102750 75.000000

>ms2
122.035730 33.000000
123.043600 198.000000
124.046660 29.000000
139.039000 318.000000
140.037720 10.000000
140.045140 28.000000
147.037170 25.000000
147.048690 24.000000
165.053050 121.000000
166.055020 12.000000
169.043000 13.000000
169.050600 10.000000
181.051180 17.000000
230.036220 14.000000
249.082700 8.000000
250.062190 14.000000
250.081180 12.000000
254.044950 9.000000
270.058530 11.000000
273.075620 77.000000
274.048890 10.000000
274.074370 20.000000
289.068330 34.000000
289.620540 9.000000
290.088130 12.000000
291.010890 15.000000
291.039890 11.000000
291.056980 27.000000
291.087520 1000.000000
291.182010 15.000000

>ms2
73.739700 31.000000
93.038010 78.000000
95.046440 43.000000
95.050900 104.000000
105.068320 33.000000
111.048010 57.000000
119.044780 62.000000
119.057010 71.000000
121.029350 47.000000
123.044070 1000.000000
124.051380 159.000000
131.051940 47.000000
133.019060 50.000000
133.027630 36.000000
135.044770 41.000000
139.036250 268.000000
139.042040 907.000000
140.038300 183.000000
140.045670 128.000000
141.053670 67.000000
143.053420 36.000000
147.044240 183.000000
147.052920 78.000000
161.062040 245.000000
162.046980 90.000000
162.065030 35.000000
163.041630 31.000000
165.016490 59.000000
177.058550 76.000000
179.060700 31.000000
179.067120 38.000000
188.047560 36.000000
204.072740 35.000000
206.982600 33.000000
208.064610 43.000000
227.068360 29.000000

>ms2
119.049450 252.000000
123.040500 243.000000
125.045990 180.000000
137.016390 360.000000
139.041790 1000.000000
189.052430 216.000000
291.073880 297.000000

