>compound PR74273861
>parentmass 918.5035
>ionization [M+H]+
>formula C45H75NO18
>rt 254.400000
>profile qtof
#smiles_iso CC1CC(C2(C(C3C(O2)CC4C3(CCC5C4CCC6C5(CCC(C6)OC7C(C(C(C(O7)CO)OC8C(C(C(C(O8)CO)O)O)OC9C(C(C(C(O9)CO)O)O)O)O)O)C)C)C)NC1)O
#smiles_can CC1CC(C2(C(C3C(O2)CC4C3(CCC5C4CCC6C5(CCC(C6)OC7C(C(C(C(O7)CO)OC8C(C(C(C(O8)CO)O)O)OC9C(C(C(C(O9)CO)O)O)O)O)O)C)C)C)NC1)O
#inchikey BEHAFIHZKYCTOR-UHFFFAOYSA-N
#pubchem_id 139291793
#mb_accession PR310715

>ms2
107.172610 40.000000
126.125630 38.000000
140.104250 87.000000
140.112080 21.000000
146.048080 16.000000
162.122480 50.000000
163.061580 61.000000
164.061280 17.000000
166.129060 20.000000
273.229220 34.000000
277.631380 22.000000
356.609710 18.000000
379.273620 36.000000
396.310000 40.000000
396.332760 20.000000
414.337590 36.000000
415.349490 18.000000
416.337650 17.000000
423.899810 19.000000
432.300230 22.000000
432.330080 16.000000
432.350860 32.000000
433.354920 18.000000
438.692870 35.000000
469.545410 17.000000
474.346650 16.000000
499.383240 18.000000
519.322450 23.000000
521.626710 24.000000
542.472350 50.000000
548.614560 16.000000
571.563420 20.000000
576.392940 27.000000
586.866270 33.000000
593.511960 17.000000
606.433900 24.000000
647.050480 38.000000
730.450380 18.000000
747.321410 23.000000
756.432620 20.000000
794.302980 33.000000
859.658940 16.000000
865.318420 23.000000
870.485960 20.000000
878.548950 18.000000
883.473390 16.000000
883.521850 16.000000
884.447020 37.000000
897.475400 17.000000
900.430910 37.000000
900.475400 173.000000
900.515200 117.000000
900.549560 16.000000
901.432920 70.000000
901.494930 82.000000
901.533510 56.000000
902.489690 45.000000
907.895080 28.000000
918.248050 16.000000
918.380070 21.000000
918.504940 11684.000000

