>compound PR75180718
>parentmass 468.1531
>ionization [M+H]+
>formula C16H25N3O13
>rt 120.000000
>profile qtof
#smiles_iso C(C1C(C(C(C(O1)OC2C(OC(C(C2O)O)OC3=C(NC(=O)NC3=O)N)CO)O)O)O)O
#smiles_can C(C1C(C(C(C(O1)OC2C(OC(C(C2O)O)OC3=C(NC(=O)NC3=O)N)CO)O)O)O)O
#inchikey UKGNBVDSWBRBDL-UHFFFAOYSA-N
#pubchem_id 139292088
#mb_accession PR310854

>ms2peaks
127.033160 20.000000
127.039090 20.000000
144.045550 58.000000
144.053590 103.000000
145.051860 18.000000
160.074970 20.000000
181.096920 16.000000
306.099240 16.000000
306.112820 47.000000
307.098910 53.000000
352.162380 16.000000
367.965940 25.000000
468.140930 213.000000

