>compound PR75612028
>parentmass 369.2172692
>ionization [M+H]+
>formula C22H28N2O3
>rt 351.004980
>profile qtof
#smiles_iso CC[C@H]1CN2CCC3=C([C@H]2C[C@@H]1/C(=C\OC)/C(=O)OC)NC4=CC=CC=C34
#smiles_can CCC1CN2CCC3=C(C2CC1C(=COC)C(=O)OC)NC4=CC=CC=C34
#inchikey NMLUOJBSAYAYEM-AZQGJTAVSA-N
#pubchem_id 3037884
#mb_accession PR300123,PR300132,PR300137,PR300142,PR300147,PR300152,PR300157,PR300162,PR300167,PR300172,PR300177

>ms2
110.095290 18.000000
129.053510 15.000000
130.064500 6.000000
144.080380 142.000000
145.084180 13.000000
158.097790 11.000000
166.081770 9.000000
170.095920 34.000000
171.099620 17.000000
172.108340 5.000000
177.090810 6.000000
178.122120 5.000000
180.080220 5.000000
180.105090 6.000000
182.095370 12.000000
194.115140 7.000000
197.105410 6.000000
199.122300 7.000000
221.110610 6.000000
224.129910 6.000000
226.143600 62.000000
227.148250 9.000000
236.145750 6.000000
238.144760 40.000000
239.147580 6.000000
240.102800 5.000000
251.153640 14.000000
253.164460 12.000000
266.119780 6.000000
298.142790 15.000000
337.189090 22.000000
338.196440 6.000000
352.196500 5.000000
369.216740 1000.000000
369.272610 30.000000

>ms2
56.049050 9.000000
75.044400 22.000000
84.076240 7.000000
84.082630 33.000000
85.027120 7.000000
93.070560 10.000000
95.050190 22.000000
105.069120 6.000000
108.080920 20.000000
110.096070 126.000000
111.098780 8.000000
117.068740 15.000000
117.074390 12.000000
118.065650 13.000000
118.073170 8.000000
122.094890 8.000000
123.044720 14.000000
123.075070 5.000000
129.054370 130.000000
129.070270 5.000000
130.063830 69.000000
134.096630 6.000000
139.076020 18.000000
142.069490 8.000000
143.074690 21.000000
143.086500 8.000000
144.055270 6.000000
144.080610 1000.000000
145.070040 11.000000
145.082660 123.000000
146.094860 11.000000
149.091050 7.000000
149.098880 6.000000
150.090740 10.000000
152.069030 8.000000
152.077070 8.000000
155.074810 18.000000
156.078750 37.000000
157.083600 8.000000
158.092130 57.000000
158.099110 67.000000
159.093510 12.000000
159.102810 9.000000
164.104050 6.000000
166.080380 24.000000
166.088180 21.000000
166.121990 6.000000
167.074940 10.000000
168.081190 20.000000
168.103880 26.000000
169.085660 20.000000
170.096150 234.000000
171.100740 138.000000
172.110020 62.000000
173.114990 10.000000
174.092700 12.000000
177.090040 34.000000
178.121570 11.000000
180.078370 11.000000
180.102600 48.000000
181.080600 6.000000
181.092120 12.000000
182.090640 24.000000
182.098950 31.000000
182.115650 7.000000
183.097790 14.000000
184.098660 6.000000
184.112000 5.000000
194.094440 8.000000
194.117460 51.000000
195.100310 7.000000
195.116910 5.000000
196.110690 10.000000
197.110110 31.000000
198.104800 5.000000
198.123700 7.000000
199.123780 67.000000
200.116760 6.000000
200.126940 7.000000
206.098880 49.000000
206.118620 17.000000
206.125320 10.000000
207.089450 7.000000
207.104100 13.000000
208.070940 6.000000
208.108410 9.000000
209.078860 6.000000
209.115490 6.000000
210.128660 8.000000
218.099000 8.000000
220.112750 8.000000
221.107470 6.000000
222.095470 5.000000
222.122180 12.000000
222.133540 14.000000
223.119950 9.000000
223.130580 7.000000
224.128660 50.000000
224.144620 13.000000
225.139850 27.000000
225.153260 5.000000
226.143710 279.000000
227.144850 37.000000
228.153440 7.000000
231.097240 5.000000
234.091130 24.000000
234.125410 12.000000
235.099660 6.000000
236.098310 7.000000
236.134670 12.000000
236.146210 42.000000
237.141140 8.000000
238.144010 227.000000
239.126950 10.000000
239.146670 38.000000
240.095120 11.000000
240.103970 10.000000
240.167080 7.000000
248.143100 15.000000
249.140200 7.000000
251.154170 109.000000
252.094940 6.000000
252.155400 21.000000
253.152240 9.000000
253.170240 65.000000
254.108120 7.000000
260.147090 11.000000
262.124080 9.000000
264.114260 7.000000
266.093750 6.000000
266.114230 52.000000
267.116090 11.000000
275.117310 5.000000
277.137360 7.000000
277.175110 8.000000
292.166530 7.000000
294.148010 11.000000
296.158230 7.000000
298.144380 65.000000
299.143430 14.000000
305.158080 12.000000
305.170100 14.000000
308.162840 13.000000
309.192900 7.000000
320.152530 5.000000
320.171970 12.000000
337.185420 55.000000
337.199190 34.000000
338.190730 22.000000
339.191220 6.000000
341.186100 8.000000
341.199460 6.000000
342.191960 7.000000
352.191620 22.000000
367.203610 23.000000
368.194890 7.000000
369.217010 244.000000

>ms2
75.043440 58.000000
77.037400 12.000000
82.061290 11.000000
84.080760 46.000000
91.051230 11.000000
91.057080 21.000000
93.066470 19.000000
94.073080 5.000000
95.049690 28.000000
103.053320 14.000000
104.053980 6.000000
105.069510 13.000000
106.064770 16.000000
107.062910 5.000000
107.084370 6.000000
108.049520 7.000000
108.080750 36.000000
110.096240 55.000000
115.054110 73.000000
116.053460 22.000000
117.051860 14.000000
117.068920 149.000000
118.056950 5.000000
118.065250 28.000000
118.073200 12.000000
120.077430 5.000000
121.065280 8.000000
121.088580 6.000000
122.096350 33.000000
123.039780 6.000000
123.047040 8.000000
123.079120 8.000000
126.049320 6.000000
127.046100 18.000000
127.055630 82.000000
128.049560 31.000000
128.059190 49.000000
129.051680 33.000000
129.061050 21.000000
129.069840 34.000000
129.078060 9.000000
130.065090 128.000000
131.067840 14.000000
131.076640 9.000000
132.077350 8.000000
133.060270 6.000000
134.101940 6.000000
138.095120 5.000000
139.074220 8.000000
142.059830 12.000000
142.067380 28.000000
143.072600 243.000000
144.056110 10.000000
144.080180 1000.000000
145.075700 20.000000
145.083830 127.000000
146.057460 6.000000
146.090670 11.000000
146.096710 7.000000
151.059430 13.000000
151.066450 7.000000
152.062580 17.000000
152.071300 7.000000
153.071010 27.000000
153.080800 6.000000
154.065810 79.000000
155.071810 123.000000
156.069350 14.000000
156.079990 41.000000
157.089480 27.000000
158.060670 6.000000
158.093480 54.000000
165.061460 6.000000
165.068940 16.000000
166.058910 7.000000
166.088460 5.000000
167.072620 103.000000
168.079940 107.000000
169.079960 34.000000
169.088970 14.000000
170.095540 58.000000
171.101750 15.000000
179.072330 10.000000
180.079850 128.000000
181.088120 31.000000
182.088500 11.000000
182.097640 23.000000
183.085270 10.000000
183.096010 7.000000
183.108180 7.000000
191.065490 9.000000
191.073070 20.000000
192.079670 32.000000
193.080230 14.000000
193.090760 21.000000
194.095110 66.000000
195.101410 18.000000
196.084140 5.000000
196.101260 9.000000
196.111770 9.000000
197.110930 8.000000
204.081600 52.000000
205.091170 29.000000
206.087690 26.000000
206.097520 49.000000
207.092090 6.000000
207.103120 34.000000
208.067750 6.000000
208.078580 18.000000
208.099140 11.000000
208.107730 17.000000
208.122910 5.000000
209.078220 7.000000
209.109130 9.000000
217.085710 18.000000
218.093150 31.000000
219.076750 6.000000
219.099370 13.000000
220.099410 9.000000
220.110860 13.000000
221.089510 10.000000
221.108700 52.000000
222.094960 15.000000
222.107060 14.000000
222.115720 12.000000
222.131240 11.000000
223.122470 8.000000
224.148640 6.000000
225.133060 5.000000
230.094770 7.000000
231.095540 11.000000
232.105090 18.000000
233.108750 6.000000
234.113740 11.000000
235.133130 7.000000
236.111360 8.000000
236.135090 6.000000
246.119920 6.000000
247.130950 8.000000
251.109130 6.000000
251.154300 8.000000
260.106510 6.000000
261.105160 6.000000

>ms2
110.094360 14.000000
129.054280 10.000000
130.063260 7.000000
144.080050 120.000000
145.084240 18.000000
158.094940 11.000000
158.100980 5.000000
166.085460 9.000000
170.095900 35.000000
171.100800 14.000000
172.107280 6.000000
182.095930 6.000000
194.118930 7.000000
199.122740 6.000000
226.143780 44.000000
227.148640 11.000000
236.140060 7.000000
238.144650 33.000000
239.146320 6.000000
251.156250 11.000000
253.169980 8.000000
266.116150 6.000000
298.145720 14.000000
337.188170 16.000000
352.189000 6.000000
369.167050 6.000000
369.217160 1000.000000
369.273010 31.000000

>ms2
369.153170 6.000000
369.216770 1000.000000
369.272610 33.000000

>ms2
56.049350 11.000000
75.043500 29.000000
84.079780 45.000000
95.049240 19.000000
105.065730 7.000000
108.079860 34.000000
110.095760 149.000000
111.098080 12.000000
117.068890 36.000000
118.064560 6.000000
122.095480 11.000000
123.047250 8.000000
123.079690 9.000000
127.054010 5.000000
129.054470 149.000000
129.072490 7.000000
130.062560 57.000000
132.079910 13.000000
134.095250 7.000000
138.053600 8.000000
139.076900 23.000000
142.069320 10.000000
143.072110 13.000000
143.083790 16.000000
144.053600 6.000000
144.080150 1000.000000
145.083570 134.000000
146.087780 7.000000
146.097560 10.000000
149.099880 8.000000
150.089490 6.000000
151.077300 9.000000
152.074420 6.000000
154.125580 6.000000
155.060990 5.000000
155.071690 15.000000
156.080700 63.000000
158.096300 110.000000
159.097460 19.000000
161.100770 6.000000
162.094510 6.000000
166.085720 52.000000
167.073140 8.000000
167.088100 8.000000
168.079620 16.000000
168.101410 21.000000
169.086210 9.000000
169.103230 6.000000
170.096240 247.000000
171.100010 132.000000
172.111150 40.000000
173.115550 8.000000
174.092180 17.000000
177.091130 45.000000
178.120380 13.000000
178.128080 6.000000
180.076810 15.000000
180.102400 47.000000
181.085170 8.000000
181.102230 13.000000
182.086140 11.000000
182.097610 44.000000
182.116550 14.000000
183.100920 11.000000
184.098500 6.000000
185.109740 6.000000
194.095570 14.000000
194.115660 59.000000
195.113820 12.000000
196.110000 14.000000
197.101180 16.000000
197.111250 14.000000
198.121140 6.000000
199.124020 54.000000
200.126130 5.000000
206.093110 25.000000
206.116040 27.000000
207.103740 16.000000
208.072860 5.000000
208.084230 10.000000
208.113340 13.000000
210.135300 6.000000
221.109740 15.000000
222.085850 7.000000
222.096340 11.000000
222.129270 16.000000
223.136870 5.000000
224.106510 7.000000
224.134950 60.000000
225.130980 14.000000
225.139800 33.000000
226.143420 276.000000
227.148570 41.000000
232.102110 5.000000
232.117020 6.000000
234.082050 8.000000
234.090960 19.000000
234.114970 5.000000
234.122890 10.000000
236.109800 12.000000
236.143020 58.000000
237.148900 10.000000
238.118930 19.000000
238.140640 233.000000
239.129120 6.000000
239.147800 38.000000
240.100250 29.000000
248.144070 6.000000
249.140720 12.000000
250.144650 5.000000
251.153520 95.000000
252.105710 7.000000
252.150010 13.000000
252.162200 12.000000
253.169530 66.000000
254.165560 5.000000
254.177220 6.000000
262.122220 9.000000
263.126130 5.000000
266.117770 53.000000
268.129330 8.000000
275.126460 5.000000
276.136900 6.000000
277.171720 9.000000
288.136540 12.000000
292.162380 8.000000
294.147030 13.000000
296.166350 8.000000
298.113370 7.000000
298.143860 75.000000
299.142430 14.000000
305.164490 24.000000
308.165920 13.000000
320.167760 17.000000
337.190860 74.000000
338.175140 6.000000
338.195530 25.000000
341.189790 17.000000
342.186370 7.000000
352.190520 26.000000
367.187160 6.000000
367.205540 20.000000
369.187100 9.000000
369.216550 238.000000

>ms2
56.050140 8.000000
75.044400 79.000000
77.037200 12.000000
79.053930 26.000000
82.061420 5.000000
84.081030 42.000000
85.026720 8.000000
91.053170 43.000000
93.056340 5.000000
93.069590 11.000000
95.046430 26.000000
95.052310 23.000000
103.056670 22.000000
105.069540 13.000000
106.065100 7.000000
108.056690 13.000000
108.075780 12.000000
108.081520 21.000000
109.061710 5.000000
110.093370 36.000000
110.098720 18.000000
111.101040 5.000000
115.042310 9.000000
115.054880 83.000000
116.055470 17.000000
116.062190 7.000000
117.054020 18.000000
117.070150 154.000000
118.065220 40.000000
119.046880 6.000000
119.068240 7.000000
119.083960 6.000000
121.092010 8.000000
122.066570 9.000000
122.093620 21.000000
123.076310 5.000000
123.082240 9.000000
124.113030 7.000000
125.093680 7.000000
127.053330 107.000000
128.051380 45.000000
128.062480 41.000000
129.057210 58.000000
129.068450 46.000000
129.075410 15.000000
130.065870 119.000000
131.074040 15.000000
132.075470 9.000000
132.083180 21.000000
134.100740 6.000000
141.072850 10.000000
142.053500 9.000000
142.065020 64.000000
143.051320 8.000000
143.072980 259.000000
144.041600 8.000000
144.053620 12.000000
144.080550 1000.000000
145.061550 6.000000
145.084240 120.000000
146.097060 24.000000
152.068450 23.000000
153.067870 12.000000
153.075610 8.000000
154.053210 13.000000
154.064970 60.000000
154.126630 7.000000
155.071850 92.000000
156.073990 19.000000
156.081940 39.000000
157.087080 21.000000
158.093980 35.000000
158.100270 37.000000
159.095960 9.000000
165.065490 12.000000
165.073930 12.000000
166.056580 6.000000
166.087200 6.000000
167.073760 74.000000
168.071460 33.000000
168.080140 115.000000
169.079760 25.000000
169.089840 24.000000
170.084300 11.000000
170.096800 75.000000
171.092560 20.000000
171.100450 5.000000
172.112170 5.000000
180.080720 78.000000
180.108140 5.000000
181.083760 33.000000
181.091570 27.000000
182.083660 6.000000
182.093810 25.000000
182.101410 36.000000
183.087780 13.000000
183.101200 8.000000
191.071530 37.000000
192.066590 5.000000
192.076600 13.000000
193.084690 27.000000
194.058560 10.000000
194.094540 56.000000
195.089130 6.000000
195.102970 21.000000
195.109280 11.000000
196.106050 19.000000
196.113880 6.000000
197.101240 15.000000
197.110820 9.000000
204.080440 35.000000
205.074040 9.000000
205.091110 30.000000
206.094670 65.000000
207.063670 6.000000
207.098660 36.000000
207.110150 13.000000
208.077450 13.000000
208.094800 14.000000
208.111920 24.000000
209.084500 7.000000
209.100520 7.000000
216.078990 5.000000
217.090100 18.000000
218.081890 8.000000
218.097720 37.000000
219.102230 15.000000
220.111270 10.000000
221.089570 9.000000
221.108720 80.000000
222.092040 9.000000
222.104200 7.000000
222.112560 10.000000
222.123440 14.000000
223.102020 12.000000
223.129390 9.000000
224.139690 10.000000
225.141460 8.000000
230.092440 11.000000
231.102310 9.000000
232.106140 17.000000
233.097630 6.000000
233.112950 7.000000
234.110930 9.000000
235.121840 10.000000
235.132720 5.000000
236.111570 5.000000
246.130710 5.000000
251.151500 18.000000
251.164960 6.000000
275.113710 8.000000

>ms2
110.092350 7.000000
110.098190 10.000000
129.054050 16.000000
130.066760 7.000000
143.072950 6.000000
144.080020 155.000000
145.085040 17.000000
155.072710 7.000000
156.078920 6.000000
158.096370 13.000000
166.084880 10.000000
168.100420 5.000000
170.095870 37.000000
171.101850 13.000000
172.109340 9.000000
177.089430 8.000000
180.099170 8.000000
182.094270 6.000000
194.118210 12.000000
197.104310 5.000000
199.122360 8.000000
206.097980 6.000000
224.122800 6.000000
225.140320 5.000000
226.142790 57.000000
227.148710 15.000000
236.138750 5.000000
238.143040 43.000000
251.154280 15.000000
253.170320 11.000000
266.117740 7.000000
298.143040 18.000000
337.189850 23.000000
352.190250 5.000000
369.166720 6.000000
369.217560 1000.000000
369.273530 32.000000

>ms2
369.217830 1000.000000
369.273410 34.000000
369.324650 6.000000

>ms2
75.043910 15.000000
84.082180 32.000000
93.068760 8.000000
95.048550 21.000000
105.068530 7.000000
108.075900 7.000000
108.081440 13.000000
110.095400 131.000000
111.101290 12.000000
117.069610 33.000000
118.061710 8.000000
122.097020 14.000000
123.042740 7.000000
129.053920 125.000000
130.063220 63.000000
132.079450 7.000000
138.054640 10.000000
139.073900 18.000000
142.065230 10.000000
143.074250 19.000000
143.087550 7.000000
144.052320 7.000000
144.080470 1000.000000
144.115080 12.000000
145.083940 131.000000
146.089680 11.000000
146.096210 14.000000
149.092960 17.000000
150.091380 6.000000
152.106770 6.000000
154.113880 6.000000
154.122180 8.000000
155.069760 34.000000
156.064390 6.000000
156.082050 45.000000
157.084580 10.000000
158.095980 118.000000
159.099200 17.000000
164.104900 8.000000
166.085740 32.000000
166.121220 9.000000
167.075640 12.000000
167.092220 6.000000
168.078540 13.000000
168.101270 17.000000
169.089360 8.000000
170.095920 240.000000
171.083310 6.000000
171.099790 131.000000
172.109760 41.000000
173.118090 7.000000
174.090670 15.000000
177.090160 25.000000
177.095840 11.000000
178.122390 20.000000
180.075900 9.000000
180.083910 13.000000
180.100300 50.000000
181.084730 17.000000
182.090410 23.000000
182.099320 41.000000
182.119750 7.000000
183.099000 13.000000
184.104430 8.000000
194.098070 9.000000
194.117340 60.000000
195.098790 11.000000
195.117290 8.000000
196.114430 9.000000
197.109040 32.000000
198.111110 6.000000
199.122830 68.000000
200.126880 7.000000
206.096570 37.000000
206.112290 12.000000
206.120830 10.000000
207.101430 10.000000
207.117160 6.000000
208.075210 21.000000
208.103200 5.000000
209.080120 5.000000
209.118520 7.000000
210.126390 9.000000
218.093060 5.000000
220.114120 8.000000
221.101490 6.000000
221.110990 7.000000
222.091030 9.000000
222.130340 9.000000
224.109600 11.000000
224.133130 56.000000
225.137890 36.000000
226.143600 254.000000
227.146390 46.000000
228.154420 6.000000
231.100630 6.000000
234.086730 13.000000
234.097170 9.000000
234.116520 5.000000
234.128420 14.000000
236.107590 15.000000
236.134430 16.000000
236.142840 42.000000
237.106570 6.000000
237.147110 11.000000
238.116060 9.000000
238.141680 236.000000
239.146840 27.000000
240.094530 12.000000
240.105990 15.000000
241.106900 7.000000
245.119080 5.000000
248.144490 11.000000
249.140880 14.000000
250.154340 5.000000
251.103550 6.000000
251.132050 6.000000
251.154370 93.000000
252.094250 9.000000
252.107240 6.000000
252.153290 10.000000
252.162290 9.000000
253.169200 51.000000
254.117020 13.000000
254.173310 15.000000
260.139770 6.000000
262.125580 6.000000
266.118530 60.000000
267.122220 12.000000
268.139010 6.000000
276.126500 6.000000
277.142550 10.000000
277.166080 10.000000
294.149540 9.000000
296.154940 5.000000
298.110260 7.000000
298.144990 81.000000
299.148710 14.000000
305.160550 25.000000
308.168580 13.000000
309.193510 5.000000
320.160250 17.000000
337.156370 5.000000
337.192200 100.000000
338.196010 15.000000
341.184910 22.000000
352.192290 19.000000
353.192500 6.000000
367.204860 22.000000
368.202820 8.000000
369.165070 7.000000
369.215090 221.000000

>ms2
75.037010 7.000000
75.045490 43.000000
76.048120 7.000000
77.040310 6.000000
79.053960 17.000000
84.080150 45.000000
84.085650 11.000000
91.054410 31.000000
92.062130 6.000000
93.068440 25.000000
94.030230 5.000000
94.066470 9.000000
95.048520 36.000000
95.084290 5.000000
103.053650 26.000000
105.066760 5.000000
106.062810 11.000000
107.073450 7.000000
108.056530 7.000000
108.075430 9.000000
108.080660 19.000000
110.096180 56.000000
111.079410 6.000000
115.054660 73.000000
116.054860 17.000000
116.062450 7.000000
117.057890 33.000000
117.068850 161.000000
118.069020 44.000000
119.046330 6.000000
122.097790 17.000000
123.045800 6.000000
123.075990 6.000000
124.111310 5.000000
127.054310 100.000000
128.048190 36.000000
128.060270 86.000000
129.054020 33.000000
129.069020 88.000000
130.063840 126.000000
130.078480 6.000000
131.067960 23.000000
131.079730 10.000000
132.077180 11.000000
134.060010 5.000000
134.095990 7.000000
138.054090 8.000000
139.074570 17.000000
141.060930 6.000000
142.060240 25.000000
142.067550 33.000000
143.053650 11.000000
143.072360 235.000000
143.085110 21.000000
144.051220 10.000000
144.080180 1000.000000
145.083130 129.000000
146.091020 13.000000
146.100360 7.000000
150.090240 10.000000
151.060210 7.000000
151.069430 6.000000
152.060500 14.000000
152.071810 11.000000
153.069210 16.000000
154.064180 70.000000
155.054230 6.000000
155.071730 112.000000
156.070040 10.000000
156.081590 61.000000
157.080220 6.000000
157.089920 18.000000
158.060320 6.000000
158.093860 51.000000
158.100460 22.000000
159.071400 7.000000
159.100450 10.000000
163.048740 5.000000
165.067200 8.000000
165.079760 8.000000
166.084470 11.000000
167.072740 105.000000
168.079880 98.000000
169.062710 12.000000
169.079510 22.000000
169.089020 27.000000
169.098240 10.000000
170.095610 122.000000
171.084120 8.000000
171.097730 23.000000
178.060640 5.000000
178.084780 8.000000
180.080000 96.000000
181.086590 32.000000
182.059620 6.000000
182.080860 10.000000
182.093630 27.000000
183.090560 14.000000
183.104550 9.000000
184.091420 6.000000
184.098050 8.000000
191.068540 16.000000
191.088730 7.000000
192.080280 36.000000
193.088490 28.000000
194.096360 48.000000
194.108080 9.000000
195.063490 5.000000
195.079990 6.000000
195.098500 31.000000
195.107040 13.000000
196.104260 6.000000
197.098160 7.000000
197.107670 6.000000
204.081800 47.000000
205.085890 32.000000
205.098770 9.000000
206.078030 8.000000
206.090270 20.000000
206.098830 60.000000
207.094070 30.000000
207.102980 10.000000
208.075410 19.000000
208.099120 16.000000
208.109340 14.000000
209.079480 5.000000
209.107070 13.000000
209.120860 9.000000
217.086470 19.000000
217.094530 9.000000
218.096560 30.000000
219.104020 19.000000
220.071760 7.000000
220.092380 5.000000
220.109650 18.000000
221.091320 7.000000
221.107960 45.000000
221.117020 13.000000
222.091400 13.000000
222.111970 14.000000
222.126420 12.000000
223.097230 6.000000
223.123600 9.000000
224.138570 6.000000
225.141280 13.000000
230.100710 12.000000
231.104110 7.000000
232.097730 7.000000
232.108900 17.000000
233.111800 27.000000
234.081420 5.000000
234.093080 12.000000
234.120970 5.000000
236.087720 6.000000
238.146330 6.000000
244.120860 7.000000
246.089200 6.000000
247.124210 8.000000
249.143050 12.000000
251.154650 17.000000
264.096950 6.000000
369.213170 9.000000

