>compound PR75666415
>parentmass 433.1123747000001
>ionization [M]+
>formula C21H21O10+
>rt 192.378000
>profile qtof
#smiles_iso C[C@H]1[C@@H]([C@H]([C@H]([C@@H](O1)OC2=CC3=C(C=C(C=C3[O+]=C2C4=CC(=C(C=C4)O)O)O)O)O)O)O
#smiles_can CC1C(C(C(C(O1)OC2=CC3=C(C=C(C=C3[O+]=C2C4=CC(=C(C=C4)O)O)O)O)O)O)O
#inchikey USWXMMRFOWNEOR-VWLKIGRWSA-O
#pubchem_id 11464648
#mb_accession PR303261,PR303264,PR303267,PR303270,PR303273,PR303276,PR303279,PR303282,PR303285,PR303288,PR303291,PR303294

>ms2
137.014280 11.000000
149.025070 5.000000
175.075650 12.000000
181.908290 9.000000
186.067320 5.000000
189.046550 6.000000
197.057500 6.000000
199.043730 5.000000
213.049090 6.000000
226.057160 6.000000
269.038700 5.000000
286.980830 6.000000
287.003330 5.000000
287.016880 16.000000
287.054410 1000.000000
288.058010 103.000000
289.075130 7.000000
290.065550 5.000000
433.094480 22.000000
433.113430 124.000000
433.130950 28.000000

>ms2
132.272050 7.000000
284.564580 6.000000
286.312590 6.000000
286.966090 6.000000
287.004820 10.000000
287.017270 8.000000
287.055940 450.000000
287.966220 5.000000
288.049190 63.000000
288.061160 18.000000
289.075780 9.000000
289.542140 6.000000
293.298860 5.000000
303.488310 10.000000
321.979770 10.000000
346.244600 7.000000
431.096680 10.000000
433.031620 9.000000
433.058870 10.000000
433.102080 343.000000
433.119020 1000.000000

>ms2
137.011520 6.000000
189.060520 7.000000
212.021210 6.000000
260.194760 8.000000
287.009700 5.000000
287.028440 33.000000
287.056580 1000.000000
288.060460 175.000000
289.055180 16.000000
289.066010 17.000000
289.076970 8.000000
301.076540 5.000000

>ms2
68.995000 77.000000
91.052090 29.000000
111.012830 17.000000
120.566040 19.000000
122.042070 41.000000
123.045650 55.000000
129.076250 19.000000
137.022400 179.000000
137.029890 97.000000
138.945050 18.000000
143.052350 62.000000
145.066740 24.000000
147.048340 19.000000
150.023150 22.000000
151.031020 25.000000
157.026700 32.000000
157.062840 23.000000
160.045990 25.000000
160.133260 16.000000
163.046460 24.000000
165.016720 26.000000
165.025130 32.000000
167.047610 31.000000
171.046570 50.000000
172.050950 72.000000
173.065190 47.000000
175.034880 41.000000
175.086720 33.000000
185.022350 36.000000
185.058580 16.000000
185.066860 19.000000
186.064870 41.000000
186.076160 16.000000
187.045170 19.000000
190.064940 26.000000
195.046980 19.000000
196.053740 22.000000
201.053620 27.000000
213.040630 116.000000
213.054090 115.000000
213.072280 36.000000
214.057590 40.000000
214.067310 59.000000
224.529630 24.000000
227.035140 37.000000
229.045680 19.000000
231.065570 102.000000
232.069260 19.000000
241.051070 44.000000
241.063670 24.000000
242.052090 123.000000
245.048450 27.000000
269.042240 19.000000
269.063080 17.000000
287.057650 1000.000000
288.063050 39.000000
289.051360 17.000000
350.872160 25.000000

>ms2
123.044300 7.000000
137.023540 18.000000
147.768890 7.000000
213.055660 9.000000
241.034870 6.000000
241.047320 8.000000
287.005310 19.000000
287.054110 1000.000000
288.045870 53.000000
288.059420 147.000000
289.044220 9.000000
289.051610 22.000000
289.070620 13.000000
433.109800 138.000000

>ms2
230.647840 6.000000
254.402530 11.000000
283.374760 8.000000
287.017270 6.000000
287.055910 516.000000
287.987490 7.000000
288.031010 7.000000
288.065160 99.000000
289.054690 15.000000
289.068570 24.000000
290.058110 13.000000
293.564420 9.000000
433.062070 23.000000
433.113130 1000.000000

>ms2
137.017880 7.000000
165.025420 5.000000
176.043930 9.000000
213.054960 6.000000
213.067000 7.000000
287.018250 11.000000
287.055300 1000.000000
288.028630 8.000000
288.058500 200.000000
289.057370 25.000000
289.066310 8.000000

>ms2
70.083220 20.000000
77.034280 31.000000
79.024330 41.000000
81.030510 19.000000
105.068310 36.000000
107.030140 17.000000
109.025710 63.000000
115.056660 105.000000
116.059420 56.000000
119.051640 16.000000
121.026120 56.000000
123.039890 68.000000
127.055920 37.000000
128.055600 32.000000
129.048570 31.000000
129.071820 32.000000
137.010930 48.000000
137.019350 73.000000
137.025070 196.000000
138.028670 26.000000
139.052510 44.000000
140.047360 26.000000
141.065170 23.000000
141.076810 26.000000
143.054780 31.000000
145.060300 20.000000
145.108260 23.000000
146.059830 33.000000
147.051100 23.000000
149.059560 32.000000
157.055600 22.000000
158.066760 75.000000
159.044070 23.000000
159.360640 21.000000
161.059680 35.000000
163.041610 24.000000
165.014740 17.000000
165.018830 44.000000
166.027020 23.000000
167.045070 21.000000
169.063890 35.000000
170.265790 17.000000
175.031540 26.000000
175.038640 54.000000
175.064100 23.000000
175.074050 19.000000
185.050450 37.000000
185.062520 76.000000
185.894710 19.000000
188.980030 16.000000
189.023820 21.000000
189.049770 18.000000
199.030000 19.000000
200.039460 44.000000
202.062710 18.000000
203.069920 20.000000
212.046280 16.000000
213.039580 22.000000
213.052510 195.000000
213.063520 67.000000
213.298310 32.000000
214.067640 15.000000
215.065090 21.000000
216.044940 15.000000
217.032760 20.000000
224.039380 18.000000
226.998840 30.000000
227.017260 25.000000
227.026730 27.000000
228.057680 15.000000
231.056730 33.000000
231.066380 71.000000
231.074310 37.000000
241.051770 171.000000
242.021360 16.000000
242.047670 23.000000
242.056550 21.000000
257.052340 26.000000
258.052090 21.000000
258.997130 18.000000
259.059230 24.000000
260.051730 15.000000
260.073210 18.000000
269.043270 99.000000
286.983830 40.000000
287.053590 1000.000000
288.011440 15.000000
288.055760 57.000000
419.612950 23.000000

>ms2
149.025240 5.000000
213.051180 5.000000
231.068190 5.000000
286.997990 10.000000
287.022610 19.000000
287.053680 1000.000000
287.082580 13.000000
288.031040 7.000000
288.055210 171.000000
288.067080 64.000000
289.056400 34.000000
433.110200 92.000000
433.123990 78.000000

>ms2
287.054690 606.000000
288.040530 18.000000
288.059540 111.000000
289.059630 17.000000
424.818390 5.000000
433.063690 20.000000
433.113680 1000.000000

>ms2
213.054290 6.000000
241.054080 7.000000
287.009580 12.000000
287.021730 20.000000
287.056090 1000.000000
288.061340 197.000000
289.047490 15.000000
289.067170 12.000000
290.070010 5.000000

>ms2
55.022920 35.000000
81.024540 15.000000
81.033690 28.000000
93.033040 25.000000
103.058070 15.000000
109.028980 37.000000
110.194270 13.000000
115.061400 19.000000
115.517520 23.000000
119.013220 19.000000
121.032090 30.000000
121.039310 20.000000
126.984700 16.000000
128.062230 27.000000
129.064180 15.000000
129.071010 55.000000
129.090040 13.000000
132.797960 15.000000
137.020360 109.000000
137.025190 234.000000
139.033230 19.000000
139.039720 28.000000
139.054290 23.000000
143.044860 18.000000
147.039570 90.000000
147.059400 25.000000
149.021680 86.000000
149.028720 95.000000
149.051330 25.000000
151.030120 15.000000
153.018140 16.000000
156.050860 21.000000
157.034790 19.000000
157.064070 15.000000
157.075090 14.000000
161.056380 31.000000
163.036040 23.000000
165.027730 21.000000
165.978090 15.000000
167.048020 16.000000
168.051130 17.000000
171.027420 19.000000
171.043090 51.000000
173.058900 23.000000
175.040910 101.000000
175.074190 46.000000
176.040860 28.000000
176.992290 13.000000
177.054840 16.000000
179.030440 28.000000
179.053300 15.000000
183.047210 15.000000
184.049330 24.000000
185.037930 34.000000
185.060840 15.000000
185.077120 14.000000
186.058960 15.000000
186.070330 15.000000
186.838330 27.000000
188.040160 15.000000
188.051450 16.000000
189.033200 22.000000
195.034930 17.000000
195.043760 31.000000
197.070570 15.000000
199.030650 23.000000
203.065370 43.000000
212.054640 20.000000
213.029160 28.000000
213.054140 586.000000
214.060590 75.000000
216.044480 15.000000
216.718550 13.000000
217.596180 13.000000
223.039840 33.000000
223.962550 21.000000
227.045760 22.000000
231.053280 23.000000
231.065250 58.000000
231.076770 26.000000
233.074870 13.000000
241.046280 94.000000
241.061260 35.000000
241.070720 23.000000
242.060330 55.000000
268.992800 19.000000
269.045780 35.000000
269.061190 28.000000
269.832920 15.000000
287.028630 13.000000
287.056370 1000.000000
288.050420 71.000000
288.063720 142.000000
289.059170 23.000000

