>compound PR75762523
>parentmass 330.1699847
>ionization [M+H]+
>formula C19H23NO4
>rt 182.002980
>profile qtof
#smiles_iso CN1CC[C@@]23CC(=O)C(=C[C@@H]2[C@@H]1CC4=C3C(=C(C=C4)OC)O)OC
#smiles_can CN1CCC23CC(=O)C(=CC2C1CC4=C3C(=C(C=C4)OC)O)OC
#inchikey INYYVPJSBIVGPH-QHRIQVFBSA-N
#pubchem_id 5459308
#mb_accession PR300440,PR300444,PR300447,PR300451,PR300455,PR300459,PR300463,PR300467,PR300471,PR300475,PR300479,PR300483

>ms2
137.057820 8.000000
151.075490 9.000000
153.070630 21.000000
168.058410 6.000000
181.065110 47.000000
182.065080 8.000000
195.080280 18.000000
207.046130 35.000000
207.081330 6.000000
209.059650 18.000000
210.062240 5.000000
211.077030 12.000000
213.092450 25.000000
223.076550 44.000000
224.078260 13.000000
225.089310 7.000000
239.071470 40.000000
239.106050 5.000000
240.073760 8.000000
241.079300 10.000000
241.089770 20.000000
245.117340 9.000000
255.103090 13.000000
330.170410 1000.000000
330.222930 34.000000

>ms2
330.171140 1000.000000
330.223450 36.000000

>ms2
58.065560 39.000000
58.070340 21.000000
71.055580 7.000000
86.026460 6.000000
91.053990 38.000000
92.060500 6.000000
93.068040 10.000000
96.080300 15.000000
99.048830 8.000000
102.092120 6.000000
108.058480 6.000000
111.042240 14.000000
114.246900 7.000000
119.048090 28.000000
122.039880 7.000000
123.070220 15.000000
123.081080 120.000000
123.092620 9.000000
124.079570 7.000000
125.056640 9.000000
127.326580 8.000000
129.071960 10.000000
131.046220 25.000000
135.101880 10.000000
137.059720 225.000000
138.060610 16.000000
138.067410 16.000000
143.049270 6.000000
144.054030 6.000000
150.093830 56.000000
151.071690 67.000000
151.077160 167.000000
151.094100 5.000000
151.103240 5.000000
151.297780 5.000000
152.058750 15.000000
152.066680 24.000000
152.975040 5.000000
153.066130 92.000000
153.073380 148.000000
153.086530 6.000000
154.074280 35.000000
155.024480 5.000000
155.076460 7.000000
155.087540 9.000000
159.079390 9.000000
160.075120 16.000000
161.059740 28.000000
162.056030 7.000000
163.078570 15.000000
164.102840 8.000000
165.061660 16.000000
165.073030 46.000000
165.113070 19.000000
166.079990 10.000000
167.047710 12.000000
167.084170 106.000000
168.047270 19.000000
168.057560 55.000000
168.082920 10.000000
169.057140 11.000000
169.065410 23.000000
170.082610 9.000000
171.082520 17.000000
172.058470 7.000000
172.082930 7.000000
173.048390 8.000000
173.064290 14.000000
174.065170 12.000000
174.073230 8.000000
174.995710 6.000000
175.077000 30.000000
177.070940 53.000000
178.074750 36.000000
178.085370 35.000000
179.032260 5.000000
179.048290 11.000000
179.067200 20.000000
179.077240 32.000000
179.087340 63.000000
180.051360 13.000000
180.059460 27.000000
180.077970 11.000000
180.088390 9.000000
180.097430 9.000000
181.065160 976.000000
182.069490 225.000000
182.099490 13.000000
183.043320 15.000000
183.056780 6.000000
183.075270 79.000000
184.090160 8.000000
185.087940 14.000000
185.096450 14.000000
185.107770 10.000000
186.063600 12.000000
187.058030 5.000000
187.077270 126.000000
188.079830 17.000000
189.074190 6.000000
190.085310 8.000000
191.073090 7.000000
191.085720 24.000000
191.097140 11.000000
192.099930 54.000000
193.060210 64.000000
193.070340 48.000000
193.078610 15.000000
193.107480 94.000000
193.117830 22.000000
194.064210 16.000000
194.070600 43.000000
194.114810 23.000000
195.078630 281.000000
195.086820 128.000000
196.059590 13.000000
196.078950 30.000000
196.087620 20.000000
196.095340 6.000000
197.058430 33.000000
197.090360 23.000000
197.100040 28.000000
198.066160 79.000000
198.086090 8.000000
198.101290 10.000000
199.069370 25.000000
199.077800 98.000000
199.098850 11.000000
200.080730 10.000000
201.058140 7.000000
201.086270 18.000000
202.091310 6.000000
205.056400 8.000000
206.062580 5.000000
206.074630 23.000000
207.011930 9.000000
207.045210 724.000000
207.078600 125.000000
208.042470 83.000000
208.053050 99.000000
208.086940 28.000000
209.036320 7.000000
209.059370 397.000000
209.098800 24.000000
210.061050 48.000000
210.070300 55.000000
210.085430 11.000000
210.096880 8.000000
211.076020 278.000000
211.103130 7.000000
211.119780 9.000000
212.071660 29.000000
212.082640 68.000000
213.062350 8.000000
213.094010 325.000000
214.063280 17.000000
214.090360 47.000000
214.101150 12.000000
215.065670 18.000000
215.102460 20.000000
216.099490 14.000000
219.084990 19.000000
219.274230 5.000000
221.048740 8.000000
222.092250 10.000000
222.573030 7.000000
223.043690 7.000000
223.075650 679.000000
224.041410 10.000000
224.054640 22.000000
224.080060 191.000000
224.089800 42.000000
225.049240 6.000000
225.087780 69.000000
225.102840 15.000000
225.111650 5.000000
226.058490 25.000000
226.067580 24.000000
226.081510 7.000000
226.094450 16.000000
226.104890 9.000000
227.063570 28.000000
227.075300 97.000000
227.108090 46.000000
228.077420 19.000000
228.100970 14.000000
229.082760 6.000000
229.108180 26.000000
229.118730 16.000000
230.093020 16.000000
230.118790 30.000000
231.101840 25.000000
232.099530 10.000000
233.093770 5.000000
234.064000 5.000000
234.074160 7.000000
235.077550 67.000000
236.082000 12.000000
237.060230 6.000000
237.091030 42.000000
238.094240 11.000000
239.044490 16.000000
239.070560 737.000000
239.111540 37.000000
240.052800 14.000000
240.076900 137.000000
240.108280 47.000000
241.030490 6.000000
241.086670 379.000000
241.110050 12.000000
242.083390 32.000000
242.098910 24.000000
242.115840 48.000000
243.106540 14.000000
243.123690 7.000000
244.117720 10.000000
245.100860 11.000000
245.117020 97.000000
245.134290 15.000000
246.123150 9.000000
249.085240 7.000000
249.097270 7.000000
251.044680 5.000000
251.069150 5.000000
251.087780 7.000000
251.105260 20.000000
252.075000 17.000000
252.086530 7.000000
254.092580 16.000000
254.116730 13.000000
255.062070 14.000000
255.093490 76.000000
255.111940 107.000000
255.132140 9.000000
256.069700 5.000000
256.093780 7.000000
256.103300 30.000000
256.116880 18.000000
257.075130 9.000000
257.086580 18.000000
257.100950 16.000000
257.113460 25.000000
257.120670 12.000000
258.086360 6.000000
259.083160 6.000000
259.096590 14.000000
259.140750 8.000000
263.944120 6.000000
265.112790 14.000000
266.079250 6.000000
266.092440 18.000000
267.097440 13.000000
267.107850 18.000000
268.098300 7.000000
268.109590 9.000000
269.078220 12.000000
269.099670 13.000000
269.115450 14.000000
270.088380 6.000000
270.099090 12.000000
270.148440 76.000000
271.089260 14.000000
271.101070 9.000000
271.128810 5.000000
271.153590 7.000000
272.117280 9.000000
273.108120 22.000000
273.122530 17.000000
280.116390 7.000000
281.098970 11.000000
281.123230 31.000000
282.124510 7.000000
284.094480 14.000000
284.114440 17.000000
287.138000 5.000000
298.146510 6.000000
300.118650 6.000000
302.186370 5.000000
315.135280 14.000000
315.151860 17.000000
316.154170 8.000000
325.563420 6.000000
330.048710 5.000000
330.117770 10.000000
330.170930 1000.000000

>ms2
68.033000 8.000000
77.043020 6.000000
78.043150 6.000000
89.039950 10.000000
91.044850 10.000000
91.052350 12.000000
91.056740 31.000000
94.029120 8.000000
94.041580 8.000000
94.060980 13.000000
96.079510 30.000000
102.046820 9.000000
105.069180 9.000000
107.072380 9.000000
108.045870 6.000000
109.662010 6.000000
110.096080 6.000000
115.050840 28.000000
115.057840 17.000000
115.081580 8.000000
116.062500 8.000000
117.054240 6.000000
117.071590 8.000000
119.048490 25.000000
122.035160 36.000000
122.065100 5.000000
122.095880 30.000000
122.955460 6.000000
123.033200 6.000000
123.077160 18.000000
127.053050 43.000000
127.064300 5.000000
128.058040 10.000000
128.065840 37.000000
129.068450 20.000000
129.074420 9.000000
129.992860 6.000000
131.049610 20.000000
131.897160 5.000000
135.037110 6.000000
135.422710 6.000000
136.044110 5.000000
137.060460 59.000000
137.077500 13.000000
138.056500 5.000000
139.053180 58.000000
140.063630 136.000000
140.080780 8.000000
141.058620 12.000000
141.068590 109.000000
142.074230 44.000000
143.037140 5.000000
143.081150 10.000000
143.091020 6.000000
144.043330 5.000000
144.057530 39.000000
144.081220 7.000000
145.061650 20.000000
145.070220 11.000000
146.067050 5.000000
147.046490 12.000000
147.092130 5.000000
150.047810 8.000000
150.085620 28.000000
150.094020 33.000000
151.030150 15.000000
151.054990 312.000000
151.092360 10.000000
152.036650 12.000000
152.062320 1000.000000
152.081590 10.000000
153.016570 8.000000
153.068650 870.000000
154.072890 77.000000
154.084720 7.000000
155.050990 69.000000
155.086210 27.000000
156.045530 7.000000
156.057820 28.000000
156.085720 11.000000
156.100340 9.000000
157.067950 22.000000
158.056520 7.000000
158.073820 10.000000
158.084990 6.000000
158.853320 8.000000
159.040510 9.000000
159.084700 8.000000
159.881960 5.000000
160.078020 9.000000
160.086140 8.000000
161.059590 19.000000
161.080660 7.000000
161.102050 6.000000
163.037030 5.000000
163.054080 6.000000
164.062960 36.000000
165.047070 7.000000
165.061630 110.000000
165.072040 215.000000
166.072630 58.000000
166.083300 20.000000
167.054230 7.000000
167.078550 14.000000
167.098680 9.000000
168.034090 16.000000
168.058030 442.000000
168.084320 6.000000
169.063740 152.000000
169.077420 11.000000
170.059330 7.000000
170.076050 40.000000
170.100740 7.000000
171.040210 28.000000
171.052610 8.000000
172.053310 36.000000
172.081100 5.000000
173.059510 45.000000
173.162350 5.000000
175.059480 7.000000
175.827770 5.000000
176.050200 6.000000
176.060940 25.000000
177.035490 6.000000
177.066240 41.000000
177.074910 25.000000
177.137790 6.000000
178.061520 8.000000
178.077060 129.000000
178.082900 58.000000
179.041230 44.000000
179.048420 162.000000
179.086700 77.000000
179.096510 17.000000
180.041030 11.000000
180.056870 175.000000
180.087230 29.000000
181.037250 8.000000
181.066410 438.000000
182.064730 64.000000
182.073880 61.000000
183.044050 57.000000
183.066790 12.000000
183.082930 48.000000
184.044040 12.000000
184.063860 29.000000
184.075760 11.000000
184.083020 8.000000
184.092000 13.000000
185.054640 15.000000
185.099110 19.000000
186.071670 17.000000
186.101410 5.000000
187.069410 29.000000
187.078120 20.000000
188.058270 6.000000
188.077650 26.000000
189.035680 6.000000
189.059010 5.000000
189.070970 43.000000
190.069600 18.000000
190.078770 8.000000
190.095260 11.000000
191.039290 6.000000
191.073300 5.000000
191.081790 5.000000
192.054550 23.000000
192.064770 14.000000
193.044560 11.000000
193.065570 38.000000
193.076340 20.000000
194.034790 8.000000
194.065120 14.000000
194.075530 15.000000
194.096590 19.000000
195.043010 54.000000
195.073910 39.000000
195.082500 76.000000
195.175090 5.000000
196.053180 140.000000
196.080600 16.000000
196.087490 35.000000
197.045840 15.000000
197.060960 91.000000
197.087020 6.000000
197.102260 9.000000
198.039860 7.000000
198.068950 27.000000
198.085650 19.000000
199.058380 17.000000
199.071400 33.000000
199.081510 24.000000
199.098210 19.000000
200.076130 5.000000
201.051970 15.000000
201.094390 16.000000
201.104480 5.000000
205.061130 14.000000
205.068270 11.000000
206.011890 5.000000
206.069580 18.000000
206.981990 5.000000
207.008740 5.000000
207.021410 7.000000
207.044620 331.000000
207.077120 18.000000
207.088100 6.000000
207.100300 6.000000
208.048340 53.000000
209.059890 29.000000
210.055130 5.000000
210.073210 7.000000
210.083370 9.000000
210.091520 14.000000
211.051940 18.000000
211.075870 106.000000
211.095750 8.000000
212.055880 6.000000
212.075560 9.000000
212.088260 7.000000
212.643570 6.000000
213.056750 20.000000
213.067780 11.000000
213.078250 7.000000
213.097730 5.000000
214.101720 6.000000
214.507140 6.000000
215.056700 7.000000
215.078810 8.000000
215.102860 6.000000
216.083600 11.000000
218.077550 11.000000
220.041560 5.000000
220.115370 9.000000
221.038620 8.000000
221.068590 9.000000
223.067000 11.000000
223.076200 20.000000
224.049180 26.000000
224.088810 5.000000
225.055300 26.000000
225.063600 14.000000
226.047730 7.000000
226.064250 15.000000
226.073380 6.000000
226.098850 6.000000
227.070430 22.000000
227.078460 18.000000
227.099010 6.000000
229.087280 5.000000
230.067440 6.000000
230.097050 14.000000
232.780230 5.000000
234.064320 9.000000
236.088710 8.000000
237.034180 5.000000
237.061490 5.000000
237.108490 11.000000
239.061040 11.000000
240.106600 6.000000
241.066410 11.000000
241.089340 7.000000
242.091830 7.000000
243.073500 6.000000
245.106520 5.000000
245.123150 8.000000
251.068510 8.000000
253.059330 11.000000
256.082580 7.000000
270.162660 8.000000
272.152280 8.000000
284.109800 6.000000

>ms2
58.066750 6.000000
137.060930 12.000000
151.076770 11.000000
152.062300 6.000000
153.069410 17.000000
165.070600 8.000000
168.054900 5.000000
181.065020 56.000000
182.068160 8.000000
183.080580 6.000000
193.108000 7.000000
195.082410 18.000000
207.045520 37.000000
207.080310 9.000000
208.050430 8.000000
209.058620 20.000000
211.078250 9.000000
213.091610 26.000000
223.077330 40.000000
224.079480 6.000000
239.072050 41.000000
240.076020 7.000000
241.087140 25.000000
245.118060 7.000000
255.096190 9.000000
255.106380 8.000000
270.150850 6.000000
330.170840 1000.000000
330.223330 34.000000
330.271820 6.000000

>ms2
330.115720 5.000000
330.170870 1000.000000
330.223080 37.000000
330.271510 6.000000

>ms2
58.064490 66.000000
91.054740 28.000000
93.068280 15.000000
95.046350 6.000000
101.062580 6.000000
119.045300 19.000000
119.053590 8.000000
123.063370 6.000000
123.079390 135.000000
124.082570 13.000000
129.072400 8.000000
131.043590 10.000000
131.054410 7.000000
137.059430 200.000000
138.059860 11.000000
141.072010 7.000000
143.044880 10.000000
150.086530 16.000000
150.100770 7.000000
151.052320 12.000000
151.064270 21.000000
151.076810 183.000000
152.060530 17.000000
152.068340 24.000000
153.064870 85.000000
153.072660 128.000000
154.074620 40.000000
155.076430 9.000000
157.104570 8.000000
159.083470 6.000000
160.075520 5.000000
161.053820 6.000000
161.061650 6.000000
163.074660 9.000000
165.068770 78.000000
165.113330 29.000000
165.123990 6.000000
166.071720 21.000000
167.084530 81.000000
168.036830 5.000000
168.055070 75.000000
168.063810 24.000000
168.083910 9.000000
168.098280 5.000000
169.063930 30.000000
169.099780 9.000000
170.076750 18.000000
171.071930 11.000000
171.088520 5.000000
173.065080 28.000000
174.060610 8.000000
175.072220 11.000000
176.088060 7.000000
177.051640 6.000000
177.064770 39.000000
177.076630 23.000000
178.071400 10.000000
178.085600 49.000000
179.046720 18.000000
179.076690 29.000000
179.087460 55.000000
179.105030 10.000000
180.044300 11.000000
180.055860 32.000000
180.065060 14.000000
180.089160 15.000000
180.097520 6.000000
181.030730 6.000000
181.064740 942.000000
181.106050 7.000000
182.069580 217.000000
182.100160 9.000000
183.042390 12.000000
183.057890 9.000000
183.079570 51.000000
184.093780 9.000000
185.061280 5.000000
185.096850 20.000000
185.109850 6.000000
186.060750 5.000000
186.079970 6.000000
187.066120 13.000000
187.079470 72.000000
188.088030 7.000000
189.068480 10.000000
190.074100 8.000000
191.063600 6.000000
191.075200 17.000000
191.088500 5.000000
192.055950 17.000000
192.063230 11.000000
192.082570 5.000000
192.095920 24.000000
192.110870 11.000000
193.049320 17.000000
193.061970 59.000000
193.069950 52.000000
193.083500 11.000000
193.111010 77.000000
194.062210 14.000000
194.072940 12.000000
194.093990 5.000000
194.110490 7.000000
194.121200 9.000000
195.059620 16.000000
195.081560 368.000000
196.056560 27.000000
196.079150 26.000000
196.089540 61.000000
197.057560 13.000000
197.067030 17.000000
197.083450 17.000000
197.093890 16.000000
197.102980 6.000000
198.064790 65.000000
198.073260 33.000000
198.096730 7.000000
199.069410 36.000000
199.082050 34.000000
201.063460 10.000000
201.080380 6.000000
204.099730 5.000000
205.059510 20.000000
205.072660 10.000000
206.070680 18.000000
207.017430 10.000000
207.044680 676.000000
207.080600 171.000000
208.026340 8.000000
208.046510 117.000000
208.059950 48.000000
208.085980 38.000000
209.028760 8.000000
209.042910 18.000000
209.060090 370.000000
209.089100 9.000000
209.096450 7.000000
209.108810 8.000000
209.137740 6.000000
210.036510 7.000000
210.065380 60.000000
210.077580 23.000000
210.096470 12.000000
211.075730 199.000000
211.100420 7.000000
211.117740 8.000000
212.083470 67.000000
212.092450 17.000000
213.052750 9.000000
213.091710 386.000000
214.059340 7.000000
214.068730 5.000000
214.084120 8.000000
214.097020 48.000000
214.107960 12.000000
215.078980 7.000000
215.094310 20.000000
215.107240 9.000000
216.109150 8.000000
217.060900 6.000000
221.093090 16.000000
222.068410 15.000000
223.039180 7.000000
223.076890 667.000000
224.035770 17.000000
224.057220 24.000000
224.075490 143.000000
224.086690 73.000000
225.053180 22.000000
225.084950 67.000000
225.095460 42.000000
226.061400 25.000000
226.077320 17.000000
226.092300 8.000000
227.045840 6.000000
227.064010 33.000000
227.073930 57.000000
227.108670 53.000000
228.068150 7.000000
228.079100 12.000000
228.090130 6.000000
228.108840 15.000000
229.086780 17.000000
229.100510 13.000000
229.114030 24.000000
230.079610 10.000000
230.095730 10.000000
230.108930 19.000000
230.119660 21.000000
230.129910 6.000000
231.100950 16.000000
231.114300 17.000000
233.368390 5.000000
234.068770 5.000000
235.065050 19.000000
235.081530 41.000000
236.070860 6.000000
236.084760 22.000000
237.053850 13.000000
237.077820 9.000000
237.087810 8.000000
237.097200 13.000000
238.082550 11.000000
238.094770 7.000000
239.071290 744.000000
239.104640 64.000000
239.123060 8.000000
240.069990 107.000000
240.081210 55.000000
240.108610 38.000000
241.053480 9.000000
241.078840 184.000000
241.092450 172.000000
242.072430 5.000000
242.086490 73.000000
242.101490 24.000000
242.124850 36.000000
243.071580 7.000000
243.080720 10.000000
243.101350 10.000000
245.081160 10.000000
245.112340 78.000000
245.124820 33.000000
246.120970 13.000000
248.114550 7.000000
249.085040 6.000000
249.100230 12.000000
251.060200 10.000000
251.072770 13.000000
251.108570 19.000000
252.071990 12.000000
252.087890 7.000000
252.102330 7.000000
254.054060 7.000000
254.082090 6.000000
254.093920 19.000000
255.062520 15.000000
255.092880 56.000000
255.103390 43.000000
255.116120 66.000000
255.129500 17.000000
256.073490 21.000000
256.088070 17.000000
256.111940 22.000000
256.134670 8.000000
257.081420 9.000000
257.103120 7.000000
257.113650 5.000000
258.073330 10.000000
258.094600 7.000000
259.105350 6.000000
259.134520 7.000000
265.104860 14.000000
265.118530 6.000000
266.105010 7.000000
267.098270 20.000000
268.109070 11.000000
268.121860 7.000000
269.090850 5.000000
269.104130 10.000000
269.128810 7.000000
270.082370 11.000000
270.095120 10.000000
270.125240 7.000000
270.137700 11.000000
270.160640 13.000000
271.087950 10.000000
271.100520 20.000000
271.121670 5.000000
271.139860 10.000000
272.095090 10.000000
273.112120 14.000000
273.126620 8.000000
274.117490 10.000000
280.124940 8.000000
280.141510 6.000000
281.114990 5.000000
281.123960 10.000000
283.110410 5.000000
283.132510 5.000000
284.100490 12.000000
284.130830 5.000000
287.108580 7.000000
298.144620 6.000000
315.149870 11.000000
316.150120 13.000000
330.091830 5.000000
330.118900 5.000000
330.133540 14.000000
330.168880 1000.000000
330.346530 6.000000

>ms2
58.066810 22.000000
60.079200 8.000000
80.057470 6.000000
83.044640 7.000000
83.049180 11.000000
90.052910 8.000000
91.055330 58.000000
92.051670 6.000000
92.057170 6.000000
92.064100 9.000000
93.070360 9.000000
94.047740 10.000000
97.049580 6.000000
99.042210 5.000000
103.049990 7.000000
107.046910 5.000000
111.044880 16.000000
114.039660 5.000000
115.052440 58.000000
115.633990 6.000000
115.982240 6.000000
116.063010 5.000000
119.049860 7.000000
119.065610 6.000000
122.033250 25.000000
122.098920 8.000000
123.082310 30.000000
125.042140 5.000000
127.056470 35.000000
128.061130 42.000000
129.063230 14.000000
129.072690 11.000000
130.068820 14.000000
131.042690 6.000000
131.048170 13.000000
131.088960 16.000000
132.034010 6.000000
133.054820 9.000000
136.418910 6.000000
137.059130 43.000000
139.040740 8.000000
139.053760 62.000000
140.061260 163.000000
141.070430 77.000000
142.073700 27.000000
142.081940 26.000000
144.056840 72.000000
145.060710 14.000000
146.028820 6.000000
150.050690 9.000000
150.090350 67.000000
151.054290 396.000000
152.035110 7.000000
152.060940 973.000000
153.048840 20.000000
153.069600 1000.000000
154.073470 121.000000
155.046550 50.000000
155.084700 40.000000
155.106380 8.000000
156.056290 26.000000
157.053820 9.000000
157.062870 23.000000
157.105010 9.000000
159.031430 6.000000
159.040160 6.000000
159.050520 8.000000
159.076520 7.000000
160.075700 16.000000
161.059480 13.000000
164.063230 42.000000
165.070920 379.000000
166.074860 119.000000
166.082700 30.000000
167.046890 11.000000
167.055680 13.000000
167.084810 80.000000
167.091870 28.000000
168.058230 431.000000
168.077670 24.000000
168.090270 13.000000
169.055130 27.000000
169.065600 135.000000
169.114620 5.000000
170.033220 9.000000
170.071490 23.000000
170.076980 43.000000
171.041490 21.000000
171.076110 12.000000
171.084140 7.000000
172.027820 6.000000
172.043820 29.000000
172.051900 62.000000
172.064350 9.000000
173.057340 16.000000
176.056950 35.000000
176.066070 14.000000
177.063950 27.000000
177.075470 13.000000
178.062840 11.000000
178.078510 145.000000
179.029600 8.000000
179.050020 189.000000
179.073350 20.000000
179.079220 50.000000
179.086980 38.000000
180.056640 204.000000
180.075670 9.000000
181.064680 492.000000
181.086640 14.000000
181.769740 7.000000
182.051770 10.000000
182.068710 77.000000
182.076900 37.000000
182.095930 10.000000
183.037410 8.000000
183.049670 9.000000
183.081020 50.000000
184.019730 6.000000
184.046400 7.000000
184.055240 27.000000
185.054870 29.000000
185.063060 15.000000
185.092700 5.000000
185.105320 12.000000
186.066770 19.000000
187.035350 6.000000
187.073330 33.000000
189.071670 39.000000
191.086400 6.000000
192.054700 17.000000
192.086940 7.000000
192.102550 10.000000
192.514710 9.000000
193.061570 24.000000
194.065800 15.000000
194.074370 19.000000
194.281230 6.000000
195.037520 24.000000
195.048250 10.000000
195.067610 8.000000
195.081860 73.000000
196.029530 19.000000
196.047930 65.000000
196.055330 89.000000
196.067690 15.000000
196.080220 18.000000
196.091830 21.000000
196.098110 6.000000
196.442830 5.000000
197.058940 136.000000
197.072390 14.000000
197.095840 8.000000
198.060550 41.000000
198.067430 42.000000
198.088460 8.000000
198.456040 5.000000
199.031860 7.000000
199.076950 67.000000
199.096120 8.000000
199.207530 6.000000
200.075780 7.000000
200.258640 6.000000
201.050830 13.000000
201.075900 13.000000
201.090290 8.000000
204.078000 6.000000
205.068680 29.000000
206.061040 8.000000
206.072480 9.000000
206.285000 7.000000
207.019010 14.000000
207.045100 426.000000
207.081730 33.000000
207.093400 8.000000
208.042450 38.000000
208.050320 88.000000
208.058900 30.000000
208.077910 8.000000
208.107470 5.000000
209.047150 6.000000
209.064740 93.000000
210.054530 5.000000
210.067780 23.000000
211.077100 58.000000
211.099260 11.000000
212.063980 6.000000
212.075670 21.000000
212.085140 8.000000
212.104370 13.000000
213.054320 5.000000
213.074680 6.000000
213.088000 12.000000
215.065860 11.000000
216.081860 6.000000
220.097090 6.000000
221.053650 12.000000
221.068070 14.000000
223.077880 29.000000
224.044430 23.000000
224.069350 6.000000
224.083830 9.000000
224.351500 6.000000
225.047960 12.000000
225.059100 13.000000
225.082750 15.000000
225.097550 11.000000
226.073060 20.000000
227.071490 12.000000
228.086150 12.000000
229.077350 6.000000
229.089400 15.000000
230.095490 19.000000
235.067670 5.000000
237.072940 7.000000
238.104140 5.000000
239.069180 12.000000
241.078110 5.000000
242.058270 6.000000
251.077130 7.000000
257.119050 5.000000
258.070800 5.000000
258.914890 6.000000
264.082280 5.000000
280.133820 6.000000
327.771300 6.000000
330.157650 14.000000
330.170680 8.000000

>ms2
137.059460 12.000000
151.075820 11.000000
152.063000 6.000000
153.071210 19.000000
178.081220 5.000000
181.066560 53.000000
182.072460 8.000000
193.066040 7.000000
195.080980 20.000000
207.045180 37.000000
208.050830 10.000000
209.055370 6.000000
209.062180 13.000000
210.064880 5.000000
211.074860 13.000000
213.090160 22.000000
223.075730 39.000000
224.077790 6.000000
224.087740 5.000000
225.087360 6.000000
227.069670 8.000000
239.070620 46.000000
240.078250 8.000000
241.086290 22.000000
255.103060 15.000000
270.150050 5.000000
330.116910 5.000000
330.171020 1000.000000
330.222810 35.000000

>ms2
330.171360 1000.000000
330.223140 37.000000
330.271510 7.000000

>ms2
58.066340 44.000000
59.047640 12.000000
60.078830 6.000000
91.054850 22.000000
96.079410 26.000000
101.063320 11.000000
108.049430 6.000000
108.057620 7.000000
111.041310 9.000000
115.059530 7.000000
119.047640 26.000000
119.056470 12.000000
123.074700 15.000000
123.082570 102.000000
124.092990 6.000000
125.055040 8.000000
125.066310 20.000000
135.108000 6.000000
137.060590 198.000000
137.074480 11.000000
138.063000 21.000000
141.070280 12.000000
142.063520 6.000000
144.056430 16.000000
145.061830 14.000000
149.062770 10.000000
150.089420 40.000000
150.098720 15.000000
151.075260 190.000000
151.092100 7.000000
152.061780 19.000000
152.080460 29.000000
153.070540 206.000000
153.085010 7.000000
154.072490 21.000000
155.043700 8.000000
155.086520 10.000000
155.095060 12.000000
159.088320 12.000000
161.060200 18.000000
161.079830 11.000000
162.069980 5.000000
163.083770 7.000000
164.063400 8.000000
164.073880 17.000000
165.070980 72.000000
165.115160 24.000000
166.073910 11.000000
167.086150 70.000000
168.056060 99.000000
168.064180 26.000000
168.073620 8.000000
168.091160 10.000000
169.063770 13.000000
170.075300 7.000000
170.098940 12.000000
171.080900 21.000000
173.058240 17.000000
174.063200 14.000000
175.071870 19.000000
176.066250 8.000000
176.078280 5.000000
177.068360 55.000000
177.083050 12.000000
178.076370 12.000000
178.088260 58.000000
179.053510 18.000000
179.088360 118.000000
180.056950 30.000000
180.084960 11.000000
180.094330 23.000000
180.112470 5.000000
181.065030 948.000000
181.093720 10.000000
182.057940 21.000000
182.072570 190.000000
182.099090 7.000000
183.045850 17.000000
183.081800 55.000000
183.095600 5.000000
184.049160 10.000000
184.056810 8.000000
185.064330 8.000000
185.093510 15.000000
185.103990 13.000000
185.996630 6.000000
186.074170 6.000000
187.074260 122.000000
188.080050 15.000000
189.070420 6.000000
190.089780 7.000000
191.078740 10.000000
191.086140 16.000000
192.057740 24.000000
192.101210 26.000000
192.111160 19.000000
193.066790 103.000000
193.109740 140.000000
194.072490 28.000000
194.114210 16.000000
195.040440 6.000000
195.080810 404.000000
196.043200 16.000000
196.055480 19.000000
196.083860 96.000000
197.052020 14.000000
197.061980 7.000000
197.085040 15.000000
197.096190 48.000000
197.108150 8.000000
198.067920 74.000000
198.078830 18.000000
198.089650 12.000000
199.057190 6.000000
199.068330 20.000000
199.076580 62.000000
200.066940 8.000000
200.076030 9.000000
200.088780 6.000000
201.067990 6.000000
201.082050 5.000000
201.097490 12.000000
202.061980 10.000000
202.077440 9.000000
202.094640 8.000000
204.083540 7.000000
204.104340 6.000000
205.057480 9.000000
205.063960 26.000000
206.065190 6.000000
206.075500 11.000000
206.158360 8.000000
206.994480 6.000000
207.014040 8.000000
207.045760 683.000000
207.085850 103.000000
208.038280 50.000000
208.046800 81.000000
208.054430 72.000000
208.072620 7.000000
208.085510 31.000000
209.060290 379.000000
209.089900 21.000000
209.104920 21.000000
210.029600 5.000000
210.046810 6.000000
210.062610 86.000000
210.075380 22.000000
210.088290 5.000000
210.107150 5.000000
211.055130 5.000000
211.069930 75.000000
211.079300 122.000000
211.097500 7.000000
212.079030 52.000000
212.090190 37.000000
213.051800 18.000000
213.066510 10.000000
213.091840 378.000000
214.088200 31.000000
214.097920 43.000000
215.067120 12.000000
215.106630 8.000000
216.043560 10.000000
216.074620 6.000000
216.106630 6.000000
217.087430 5.000000
218.066150 8.000000
218.073330 8.000000
219.086840 7.000000
220.117450 8.000000
221.062410 11.000000
221.099530 6.000000
221.108780 6.000000
222.066770 11.000000
222.079820 7.000000
223.056930 17.000000
223.076450 694.000000
223.114430 5.000000
224.046890 22.000000
224.065480 21.000000
224.081830 175.000000
225.067900 7.000000
225.088130 58.000000
226.043670 6.000000
226.059200 21.000000
226.068310 37.000000
226.086350 26.000000
226.095750 33.000000
227.072220 81.000000
227.106020 63.000000
227.118440 12.000000
228.074680 22.000000
228.102980 12.000000
229.111340 39.000000
230.092390 28.000000
230.119890 32.000000
231.101230 40.000000
231.117950 12.000000
232.132870 7.000000
234.072830 5.000000
235.075700 86.000000
236.072710 7.000000
236.081990 19.000000
236.140460 5.000000
237.060010 6.000000
237.084400 12.000000
237.094600 42.000000
238.087070 15.000000
238.124310 7.000000
239.071300 749.000000
239.108860 61.000000
240.062090 15.000000
240.077970 153.000000
240.103010 19.000000
240.115620 15.000000
241.049850 12.000000
241.085830 357.000000
241.112810 7.000000
241.121460 6.000000
242.050290 7.000000
242.088840 71.000000
242.112750 16.000000
242.123180 10.000000
243.059510 6.000000
243.089950 8.000000
243.113890 23.000000
244.111070 7.000000
245.107910 29.000000
245.120510 117.000000
246.110210 7.000000
246.123610 10.000000
248.094130 11.000000
249.088730 8.000000
249.105730 9.000000
250.083770 7.000000
251.070830 8.000000
252.075960 10.000000
252.087450 14.000000
254.099640 19.000000
254.124510 8.000000
255.048800 8.000000
255.067200 18.000000
255.101620 187.000000
255.134570 8.000000
256.070130 16.000000
256.105220 41.000000
256.129460 9.000000
257.078120 20.000000
257.105470 11.000000
257.120420 39.000000
258.092100 23.000000
258.119810 5.000000
265.102110 6.000000
266.092380 7.000000
266.129090 7.000000
267.098020 13.000000
267.111660 13.000000
268.105220 15.000000
269.078460 19.000000
269.092620 8.000000
269.108340 6.000000
269.120450 22.000000
270.088260 16.000000
270.100710 8.000000
270.127720 9.000000
270.153380 39.000000
271.100860 25.000000
272.094640 8.000000
273.100040 11.000000
273.121280 5.000000
274.112550 25.000000
281.121150 20.000000
281.132200 7.000000
283.096190 11.000000
284.096920 11.000000
296.130250 5.000000
298.157680 5.000000
300.116360 17.000000
315.142910 16.000000
330.118230 11.000000
330.170780 1000.000000
330.200710 8.000000

>ms2
58.061320 6.000000
58.065880 16.000000
58.068980 12.000000
67.053580 5.000000
69.030920 5.000000
77.037680 7.000000
81.065220 6.000000
83.045680 8.000000
83.053040 7.000000
85.022360 5.000000
87.043780 7.000000
91.046540 23.000000
91.055090 66.000000
92.063100 6.000000
93.068950 8.000000
94.041930 21.000000
94.081070 6.000000
100.186520 6.000000
103.055440 21.000000
103.230380 6.000000
103.308970 7.000000
105.845930 5.000000
108.053710 8.000000
108.060830 5.000000
108.079400 13.000000
110.059720 7.000000
111.047680 8.000000
111.902430 6.000000
115.019180 7.000000
115.053270 42.000000
117.058810 13.000000
118.035210 6.000000
119.054650 9.000000
122.038010 25.000000
122.047270 9.000000
122.086580 9.000000
122.094470 6.000000
122.107580 5.000000
123.043800 5.000000
123.068930 13.000000
123.079240 32.000000
123.482340 7.000000
125.086460 8.000000
127.057210 45.000000
128.063720 67.000000
128.075320 13.000000
128.885880 6.000000
129.065800 17.000000
129.074390 29.000000
129.079770 8.000000
130.043010 9.000000
131.043590 16.000000
131.051960 9.000000
132.055050 9.000000
132.080580 12.000000
137.059510 53.000000
137.070480 6.000000
139.041760 10.000000
139.054860 32.000000
140.051440 23.000000
140.062740 176.000000
140.519450 5.000000
141.053420 16.000000
141.067660 126.000000
142.063900 6.000000
142.075200 42.000000
142.089190 5.000000
143.047610 26.000000
144.057530 54.000000
145.058880 10.000000
145.067720 8.000000
146.034390 30.000000
147.045300 11.000000
150.044880 27.000000
150.054240 8.000000
150.090820 68.000000
151.036620 9.000000
151.049610 170.000000
151.057050 324.000000
151.071640 10.000000
151.796170 9.000000
152.062760 1000.000000
152.106950 8.000000
153.037140 10.000000
153.054640 81.000000
153.070540 835.000000
153.388200 6.000000
154.073150 195.000000
154.148540 6.000000
155.047380 23.000000
155.054350 33.000000
155.066590 10.000000
155.077840 19.000000
155.086910 18.000000
156.054290 40.000000
157.052630 18.000000
157.065020 11.000000
158.076190 5.000000
159.042110 11.000000
159.067350 10.000000
159.081510 18.000000
159.090060 22.000000
160.054930 9.000000
161.062260 18.000000
163.054060 23.000000
164.052220 8.000000
164.062230 40.000000
165.072620 393.000000
166.069030 74.000000
166.079100 59.000000
166.090640 10.000000
167.056260 13.000000
167.083310 53.000000
167.093640 14.000000
168.057860 457.000000
168.078670 6.000000
168.087590 10.000000
168.694460 7.000000
169.062320 132.000000
169.078510 16.000000
170.060930 7.000000
170.065520 14.000000
170.077710 46.000000
170.217190 5.000000
171.047070 18.000000
171.081860 14.000000
171.092820 8.000000
172.041990 15.000000
172.048050 40.000000
172.063110 10.000000
173.049290 11.000000
173.064290 20.000000
175.073870 9.000000
176.044330 8.000000
176.059100 52.000000
176.072940 11.000000
177.061070 16.000000
177.070330 53.000000
177.077610 22.000000
178.062760 17.000000
178.079380 191.000000
179.027910 9.000000
179.037580 25.000000
179.050380 197.000000
179.085220 102.000000
179.131390 6.000000
180.049580 38.000000
180.057280 153.000000
180.077740 5.000000
180.088010 10.000000
180.744020 6.000000
181.065380 565.000000
182.060710 33.000000
182.071530 166.000000
182.087250 11.000000
182.100770 9.000000
183.038730 9.000000
183.050480 17.000000
183.068680 29.000000
183.077990 30.000000
184.052670 15.000000
185.058110 69.000000
185.070950 9.000000
186.070980 7.000000
186.106610 10.000000
187.074050 59.000000
189.069200 32.000000
189.086730 5.000000
190.069780 23.000000
191.047010 11.000000
191.083480 17.000000
192.054550 23.000000
192.061660 19.000000
192.081940 5.000000
192.097660 10.000000
192.108430 5.000000
192.672780 5.000000
193.064990 24.000000
193.110600 11.000000
193.367340 6.000000
194.054730 8.000000
194.073390 35.000000
194.099520 11.000000
195.041460 9.000000
195.049320 11.000000
195.082460 112.000000
195.116420 6.000000
196.045970 48.000000
196.054090 145.000000
196.074220 6.000000
197.044490 8.000000
197.053540 38.000000
197.062100 57.000000
197.075450 17.000000
197.094770 21.000000
198.066480 102.000000
199.023120 8.000000
199.039920 11.000000
199.071670 32.000000
199.082460 22.000000
200.051850 7.000000
200.059810 6.000000
200.079650 8.000000
200.112790 6.000000
201.052230 11.000000
201.065080 14.000000
201.556630 6.000000
204.066620 5.000000
205.052630 6.000000
205.069700 49.000000
206.035630 6.000000
206.061720 11.000000
206.072980 18.000000
207.045650 343.000000
207.078140 20.000000
207.090970 6.000000
208.050600 125.000000
208.066790 22.000000
209.057800 60.000000
210.064830 23.000000
210.095700 7.000000
211.072020 65.000000
211.080760 61.000000
212.047040 23.000000
212.083500 32.000000
213.045070 11.000000
213.058470 17.000000
213.078950 6.000000
213.096850 29.000000
214.059750 15.000000
214.087230 5.000000
215.077970 11.000000
221.058200 18.000000
221.069200 16.000000
221.086670 5.000000
223.076570 29.000000
224.039730 12.000000
224.054750 8.000000
224.073910 15.000000
224.088640 12.000000
225.031630 5.000000
225.051760 17.000000
225.100720 14.000000
226.061200 21.000000
226.073500 6.000000
227.067830 38.000000
227.095790 7.000000
228.077350 16.000000
236.110760 9.000000
237.061160 11.000000
238.078840 11.000000
239.067730 8.000000
239.078570 6.000000
241.076000 9.000000
245.118300 8.000000
254.057110 5.000000
254.117190 16.000000
313.122590 6.000000
330.174130 17.000000

