>compound PR75036231
>parentmass 213.10223952083334
>ionization [M+H]+
>formula C13H12N2O
>rt 245.368605
>profile qtof
#smiles_iso CC1=NC=CC2=C1NC3=C2C=CC(=C3)OC
#smiles_can CC1=NC=CC2=C1NC3=C2C=CC(=C3)OC
#inchikey BXNJHAXVSOCGBA-UHFFFAOYSA-N
#pubchem_id 5280953
#mb_accession PR300831,PR300835,PR300839,PR300843,PR300847,PR300851,PR300858,PR300862,PR300866,PR300870,PR300874,PR301670,PR301673,PR301676,PR301679,PR301682,PR301685,PR301688,PR301691,PR301694,PR301697,PR301700,PR301703,PR310554

>ms2peaks
144.081040 10.000000
169.077390 70.000000
170.084350 280.000000
171.086090 32.000000
198.080600 195.000000
199.084790 40.000000
213.102720 1000.000000
213.144070 21.000000

>ms2peaks
213.102510 1000.000000
213.143450 21.000000

>ms2peaks
93.058610 5.000000
143.071040 7.000000
144.069700 14.000000
144.081890 25.000000
155.058500 17.000000
155.064510 15.000000
169.076280 192.000000
170.045180 6.000000
170.064450 12.000000
170.084530 1000.000000
171.088300 129.000000
181.079420 5.000000
198.079190 385.000000
199.080930 41.000000
213.103610 70.000000

>ms2peaks
86.349080 12.000000
89.039290 12.000000
90.048220 13.000000
93.063100 15.000000
99.030340 16.000000
101.034940 12.000000
102.031940 10.000000
102.038490 20.000000
102.047150 15.000000
115.054530 71.000000
116.044110 16.000000
117.059160 31.000000
118.068220 33.000000
119.069660 19.000000
124.030160 16.000000
126.035670 28.000000
128.041000 10.000000
128.050020 49.000000
130.058720 26.000000
140.044490 13.000000
141.044570 11.000000
141.055040 23.000000
142.066560 17.000000
143.064450 27.000000
143.075350 12.000000
144.064910 71.000000
144.080490 91.000000
152.040680 11.000000
153.037600 30.000000
153.045760 10.000000
153.055950 24.000000
153.841720 12.000000
155.059880 24.000000
155.067790 12.000000
156.069060 19.000000
167.054210 15.000000
168.048550 12.000000
168.067110 49.000000
169.040680 30.000000
169.050140 21.000000
169.075850 1000.000000
169.454900 15.000000
170.078830 251.000000
170.087080 394.000000
171.086030 58.000000
172.083880 11.000000
172.093690 12.000000
174.043670 11.000000
197.066640 10.000000

>ms2peaks
144.079160 14.000000
169.077850 63.000000
170.054630 7.000000
170.085140 261.000000
171.080950 7.000000
171.089160 24.000000
171.095840 8.000000
198.080250 234.000000
199.081950 34.000000
199.090410 10.000000
213.103210 1000.000000
213.143910 19.000000

>ms2peaks
198.080900 10.000000
213.103290 1000.000000
213.144640 24.000000

>ms2peaks
93.056950 66.000000
101.031170 14.000000
101.037350 12.000000
101.966120 17.000000
102.027600 14.000000
102.046070 43.000000
103.054890 12.000000
115.054760 115.000000
115.060670 45.000000
117.056550 33.000000
117.070560 13.000000
118.066640 11.000000
127.042700 13.000000
128.049320 51.000000
140.046660 11.000000
142.066960 87.000000
144.063290 13.000000
144.072980 46.000000
144.080630 183.000000
145.067730 16.000000
145.073850 15.000000
153.032030 17.000000
153.047530 24.000000
153.059570 13.000000
155.053100 30.000000
155.060640 35.000000
155.068050 33.000000
156.067200 53.000000
168.073180 58.000000
169.057910 23.000000
169.076720 1000.000000
170.071490 93.000000
170.086290 413.000000
170.299850 11.000000
171.083950 44.000000
171.091960 12.000000
172.056270 13.000000
173.080200 11.000000
199.089830 17.000000

>ms2peaks
144.069850 5.000000
144.080260 13.000000
155.062450 8.000000
169.077410 83.000000
170.084670 263.000000
171.078230 7.000000
171.089040 34.000000
171.099030 5.000000
198.080570 248.000000
199.082310 42.000000
213.103320 1000.000000
213.145400 9.000000

>ms2peaks
198.078670 14.000000
213.069120 5.000000
213.103230 1000.000000
213.144670 21.000000

>ms2peaks
142.062350 5.000000
144.066640 9.000000
144.077730 13.000000
144.083790 13.000000
144.091190 7.000000
145.084700 5.000000
155.062040 19.000000
169.075380 235.000000
170.084050 1000.000000
171.061220 7.000000
171.086700 155.000000
172.091370 9.000000
198.080320 401.000000
199.082610 82.000000
213.103610 76.000000

>ms2peaks
66.046490 16.000000
75.025680 14.000000
90.046590 17.000000
93.060270 14.000000
102.035460 16.000000
103.035840 16.000000
103.051960 33.000000
103.057060 49.000000
114.021720 16.000000
114.036260 16.000000
115.053560 48.000000
116.044010 19.000000
117.056190 14.000000
117.064970 37.000000
117.103310 14.000000
118.068490 15.000000
128.038090 20.000000
128.047360 49.000000
128.056050 36.000000
129.049580 18.000000
140.045760 50.000000
140.056850 30.000000
142.065400 96.000000
143.032940 16.000000
143.050080 20.000000
143.057540 15.000000
143.071030 16.000000
144.072540 46.000000
144.082290 113.000000
144.092150 38.000000
145.057420 14.000000
146.880690 14.000000
152.052980 20.000000
153.032440 13.000000
153.046750 47.000000
155.061900 187.000000
168.068510 111.000000
169.047070 22.000000
169.056580 14.000000
169.076320 1000.000000
170.082060 588.000000
170.320850 13.000000
171.076340 20.000000
171.086000 78.000000
171.096080 15.000000
174.167040 14.000000
198.080670 31.000000

>ms2peaks
144.081590 11.000000
169.076190 75.000000
170.084240 263.000000
171.086760 32.000000
198.079880 248.000000
199.081880 26.000000
199.091950 6.000000
213.067030 7.000000
213.102680 1000.000000
213.143460 29.000000

>ms2peaks
198.078120 8.000000
213.101820 1000.000000
213.143400 36.000000

>ms2peaks
144.065110 7.000000
144.081470 37.000000
145.085720 5.000000
155.062650 22.000000
169.075940 206.000000
170.084030 1000.000000
170.120610 5.000000
171.070390 6.000000
171.086520 120.000000
198.079710 374.000000
199.075180 17.000000
199.082670 46.000000
213.094600 24.000000
213.102190 59.000000

>ms2peaks
76.677090 8.000000
77.036240 7.000000
78.048470 7.000000
84.318030 7.000000
89.035790 9.000000
101.039020 7.000000
103.037480 9.000000
103.047700 7.000000
103.058690 12.000000
113.035880 7.000000
115.038730 14.000000
115.055270 115.000000
115.243630 7.000000
116.046870 9.000000
116.055930 22.000000
116.062330 9.000000
117.047860 7.000000
117.056610 50.000000
118.032550 7.000000
118.060220 51.000000
118.070930 13.000000
126.037210 11.000000
128.051090 29.000000
140.050280 16.000000
140.060470 9.000000
141.055310 10.000000
142.044040 7.000000
142.066590 101.000000
143.035480 7.000000
143.061330 15.000000
143.073150 21.000000
144.055210 8.000000
144.065230 49.000000
144.080460 88.000000
155.048130 7.000000
155.064830 67.000000
156.059620 6.000000
156.067250 9.000000
157.006740 10.000000
160.334700 8.000000
166.858920 7.000000
168.068560 77.000000
169.076840 1000.000000
169.097240 7.000000
169.120880 10.000000
170.050980 8.000000
170.084880 494.000000
171.057270 7.000000
171.066620 8.000000
171.084410 89.000000
178.027330 14.000000

>ms2peaks
155.062940 10.000000
169.075420 74.000000
170.083940 263.000000
171.086200 35.000000
198.078770 227.000000
199.084270 33.000000
200.080080 5.000000
213.102620 1000.000000
213.144060 30.000000

>ms2peaks
198.080120 7.000000
213.103010 1000.000000
213.144490 39.000000

>ms2peaks
143.068560 7.000000
144.079270 32.000000
155.060170 26.000000
169.076690 215.000000
170.083980 1000.000000
170.123500 7.000000
171.086500 131.000000
172.086720 11.000000
198.078550 394.000000
199.074330 14.000000
199.082720 46.000000
213.102570 88.000000

>ms2peaks
89.037540 17.000000
90.043250 8.000000
92.048500 12.000000
93.055050 48.000000
93.064320 28.000000
102.036800 8.000000
102.051200 9.000000
103.053750 25.000000
113.042530 14.000000
115.041860 14.000000
115.055330 64.000000
116.045840 12.000000
116.055140 16.000000
116.062600 10.000000
117.055180 31.000000
117.067650 7.000000
118.044750 12.000000
118.061200 19.000000
118.070430 13.000000
126.029120 13.000000
127.032700 16.000000
128.052340 63.000000
129.054630 10.000000
130.041340 8.000000
130.058060 15.000000
130.062530 8.000000
140.041260 7.000000
140.047000 9.000000
141.059160 13.000000
142.054760 11.000000
142.066700 31.000000
143.066640 14.000000
143.075610 38.000000
144.067280 101.000000
144.081240 99.000000
144.086990 29.000000
145.064030 8.000000
145.080370 26.000000
145.089840 10.000000
146.060070 11.000000
152.047550 7.000000
153.043620 28.000000
153.050480 29.000000
154.064940 9.000000
155.046430 7.000000
155.060820 131.000000
157.881130 8.000000
168.062700 25.000000
168.074400 44.000000
169.044250 18.000000
169.076630 1000.000000
169.132370 9.000000
169.406280 8.000000
169.581820 7.000000
170.082790 506.000000
170.853440 7.000000
171.087230 87.000000
172.097890 8.000000
183.710280 7.000000
197.070510 29.000000
198.068570 14.000000
198.081070 19.000000
199.087690 7.000000
202.086760 9.000000

>ms2peaks
144.078200 10.000000
155.061190 6.000000
169.074910 69.000000
170.083890 245.000000
171.081380 12.000000
171.088150 28.000000
198.078540 207.000000
199.083020 33.000000
213.102800 1000.000000
213.144610 34.000000

>ms2peaks
198.079470 7.000000
213.102910 1000.000000
213.144390 38.000000

>ms2peaks
143.074100 8.000000
144.066100 7.000000
144.078690 38.000000
155.062090 25.000000
169.076600 205.000000
170.083770 1000.000000
170.119480 8.000000
171.087620 133.000000
198.079010 365.000000
199.075500 17.000000
199.084850 45.000000
213.103320 83.000000

>ms2peaks
71.648750 6.000000
89.042390 6.000000
93.059110 33.000000
94.066940 7.000000
100.023480 12.000000
101.039440 6.000000
102.035440 6.000000
102.046670 15.000000
103.052840 13.000000
104.048000 7.000000
115.038640 10.000000
115.049810 15.000000
115.054150 45.000000
116.047840 18.000000
117.055370 40.000000
117.062580 23.000000
118.063100 32.000000
118.070670 9.000000
119.061340 18.000000
119.073330 7.000000
125.043410 7.000000
126.032000 13.000000
126.040700 7.000000
127.038730 7.000000
128.043110 28.000000
128.050050 21.000000
129.049610 7.000000
130.064540 6.000000
132.078720 8.000000
140.053150 8.000000
141.058580 22.000000
142.062180 8.000000
142.070590 9.000000
143.013660 8.000000
143.058520 22.000000
143.068650 24.000000
143.080720 11.000000
144.061580 24.000000
144.079350 211.000000
145.064320 6.000000
145.075550 30.000000
148.373080 9.000000
153.043500 43.000000
154.043260 8.000000
154.957670 8.000000
155.059450 90.000000
168.067170 65.000000
168.077330 6.000000
169.075910 1000.000000
169.110920 11.000000
169.728490 14.000000
170.061100 9.000000
170.084560 481.000000
171.086850 36.000000
171.916530 12.000000
198.082460 19.000000

>ms2peaks
93.061990 19.000000
102.044550 18.000000
118.066220 18.000000
121.902290 18.000000
128.048280 58.000000
128.808490 20.000000
130.066740 24.000000
135.611080 21.000000
142.048550 18.000000
142.070510 21.000000
143.070470 43.000000
143.081420 48.000000
144.057310 18.000000
144.065700 55.000000
144.081040 207.000000
145.072140 20.000000
145.083250 21.000000
145.767790 28.000000
146.077880 24.000000
146.963090 18.000000
147.787310 17.000000
152.046720 23.000000
152.331600 17.000000
154.063340 23.000000
155.051060 23.000000
155.058700 51.000000
155.069060 20.000000
156.059270 23.000000
156.066590 26.000000
157.714710 17.000000
165.267240 24.000000
167.051510 17.000000
168.065670 26.000000
168.076130 45.000000
168.235640 17.000000
169.058700 48.000000
169.077390 1512.000000
169.451570 21.000000
169.981220 21.000000
170.084350 6037.000000
170.934880 17.000000
171.063550 17.000000
171.086090 693.000000
171.098800 41.000000
171.117020 17.000000
171.721830 23.000000
172.093460 65.000000
172.326200 19.000000
180.655150 19.000000
182.088760 18.000000
184.904890 18.000000
185.112340 46.000000
187.212460 25.000000
187.787120 20.000000
197.917070 22.000000
198.020070 23.000000
198.035980 20.000000
198.044240 26.000000
198.080600 4203.000000
198.141240 21.000000
198.311250 21.000000
198.654140 17.000000
198.942460 20.000000
199.061000 21.000000
199.084790 873.000000
200.075520 35.000000
200.088360 61.000000
200.823170 17.000000
204.335010 24.000000
206.482180 17.000000
212.093060 26.000000
212.681960 19.000000
213.064930 91.000000
213.102720 21579.000000
213.144070 451.000000
213.183030 18.000000

