>compound PR75280601
>parentmass 229.1551
>ionization [M+H]+
>formula C11H20N2O3
>rt 163.200000
>profile qtof
#smiles_iso CC(C)CC(C(=O)N1CCCC1C(=O)O)N
#smiles_can CC(C)CC(C(=O)N1CCCC1C(=O)O)N
#inchikey VTJUNIYRYIAIHF-UHFFFAOYSA-N
#pubchem_id 3977067
#mb_accession PR311043

>ms2peaks
72.084340 28.000000
86.090380 34.000000
86.098410 135.000000
116.062430 17.000000
116.072460 88.000000
118.094870 19.000000
145.923370 20.000000
147.065220 30.000000
229.095060 45.000000

