>compound PR75854026
>parentmass 883.468
>ionization [M-H2O+H]+
>formula C45H72O18
>rt 336.600000
>profile qtof
#smiles_iso CC1CCC2(C(C3C(O2)CC4C3(C(CC5C4CC=C6C5(CCC(C6)OC7C(C(C(C(O7)CO)OC8C(C(C(C(O8)C)O)O)O)O)OC9C(C(C(C(O9)C)O)O)O)C)O)C)C)OC1O
#smiles_can CC1CCC2(C(C3C(O2)CC4C3(C(CC5C4CC=C6C5(CCC(C6)OC7C(C(C(C(O7)CO)OC8C(C(C(C(O8)C)O)O)O)O)OC9C(C(C(C(O9)C)O)O)O)C)O)C)C)OC1O
#inchikey MWTJVBOEJQIILT-UHFFFAOYSA-N
#pubchem_id 139291973
#mb_accession PR310710

>ms2
91.042990 20.000000
129.049190 17.000000
136.076600 21.000000
137.027730 33.000000
148.069990 21.000000
163.114230 17.000000
173.133240 24.000000
181.119930 18.000000
252.170300 21.000000
271.199800 20.000000
273.090640 23.000000
297.225340 21.000000
377.280060 19.000000
413.308650 40.000000
415.296630 18.000000
459.191130 21.000000
704.421880 21.000000
792.719850 78.000000
792.809020 18.000000
870.497310 18.000000
878.374760 20.000000
883.418150 20.000000
883.475460 530.000000
883.523860 54.000000

