>compound PR75447353
>parentmass 769.1596
>ionization [M+H]+
>formula C36H32O19
>rt 286.200000
>profile qtof
#smiles_iso C1=CC(=CC=C1/C=C/C(=O)OC2C(C(C(OC2OC3C(C(C(OC3OC4=CC=C(C=C4)C5=CC(=O)C6=C(C=C(C=C6O5)O)O)C(=O)O)O)O)C(=O)O)O)O)O
#smiles_can C1=CC(=CC=C1C=CC(=O)OC2C(C(C(OC2OC3C(C(C(OC3OC4=CC=C(C=C4)C5=CC(=O)C6=C(C=C(C=C6O5)O)O)C(=O)O)O)O)C(=O)O)O)O)O
#inchikey NCJNNMWJQIKYLO-XCVCLJGOSA-N
#pubchem_id 139291977
#mb_accession PR311086

>ms2
124.047150 18.000000
147.041440 187.000000
148.043350 30.000000
160.507340 18.000000
169.065640 17.000000
177.055020 17.000000
187.072950 44.000000
189.047450 19.000000
230.056240 198.000000
230.602010 19.000000
231.060130 25.000000
243.062120 17.000000
244.068120 17.000000
259.067410 18.000000
264.255160 17.000000
269.043700 57.000000
269.053740 23.000000
270.061950 18.000000
270.948390 26.000000
271.019350 20.000000
271.062260 789.000000
272.050690 27.000000
272.063840 128.000000
287.893620 29.000000
305.048160 20.000000
305.071440 39.000000
323.032230 18.000000
323.071170 112.000000
323.082920 170.000000
324.076050 48.000000
325.090060 18.000000
424.142060 20.000000
447.086640 55.000000
447.104060 62.000000
448.089200 18.000000
449.104950 23.000000
451.629640 17.000000
769.103030 18.000000
769.163940 527.000000
769.252200 19.000000

