>compound PR76909950
>parentmass 185.0083
>ionization [M+H]+
>formula C7H4O6
>rt 97.200000
>profile qtof
#smiles_iso C1=C(OC(=CC1=O)C(=O)O)C(=O)O
#smiles_can C1=C(OC(=CC1=O)C(=O)O)C(=O)O
#inchikey PBAYDYUZOSNJGU-UHFFFAOYSA-N
#pubchem_id 7431
#mb_accession PR310805

>ms2
74.954300 17.000000
84.048340 18.000000
96.542070 23.000000
97.032090 60.000000
125.871210 21.000000
141.023850 39.000000
145.931080 29.000000
168.006640 18.000000
185.008440 516.000000

