>compound PR76569115
>parentmass 623.1904
>ionization [M+H]+
>formula C36H30O10
>rt 443.400000
>profile qtof
#smiles_iso COC1=CC=C(C=C1)C2=CC(=O)C3=C(O2)C(=C(C=C3OC)OC)C4=C(C=CC(=C4)C5=CC(=O)C6=C(O5)C=C(C=C6OC)OC)OC
#smiles_can COC1=CC=C(C=C1)C2=CC(=O)C3=C(O2)C(=C(C=C3OC)OC)C4=C(C=CC(=C4)C5=CC(=O)C6=C(O5)C=C(C=C6OC)OC)OC
#inchikey MZDGQNFFUITEAB-UHFFFAOYSA-N
#pubchem_id 3336566
#mb_accession PR311123

>ms2peaks
78.718190 20.000000
111.024260 35.000000
121.029240 56.000000
190.099080 22.000000
208.122830 21.000000
266.066040 17.000000
269.138700 27.000000
311.059270 18.000000
320.668400 22.000000
342.076810 17.000000
352.085660 26.000000
352.114410 17.000000
367.084590 22.000000
367.111150 85.000000
367.124540 91.000000
368.099700 24.000000
368.116520 18.000000
368.127500 19.000000
368.139500 20.000000
369.134460 21.000000
385.058530 18.000000
386.067260 22.000000
386.081970 21.000000
397.066220 108.000000
398.053160 18.000000
398.100590 22.000000
413.059140 17.000000
413.073820 20.000000
414.064270 153.000000
414.078550 92.000000
415.068120 34.000000
415.081020 38.000000
426.056340 17.000000
429.095890 251.000000
429.118740 47.000000
430.074520 20.000000
430.092800 86.000000
430.108000 39.000000
431.105740 17.000000
437.335510 17.000000
442.123660 40.000000
442.158660 46.000000
469.141880 99.000000
470.133300 82.000000
470.144930 154.000000
471.119870 19.000000
472.130370 28.000000
484.151150 17.000000
484.167970 24.000000
485.115050 21.000000
485.157710 1839.000000
485.263820 17.000000
486.125240 17.000000
486.159640 559.000000
487.140810 34.000000
487.160860 96.000000
488.171300 17.000000
495.790650 18.000000
502.168150 18.000000
503.164670 18.000000
605.186830 38.000000
606.209170 17.000000
607.177060 17.000000
622.157590 22.000000
622.203740 17.000000
623.128170 35.000000
623.183900 113.000000

