>compound PR76126447
>parentmass 217.1007
>ionization [M+H]+
>formula C12H12N2O2
>rt 201.000000
>profile qtof
#smiles_iso C1C(NCC2=C1C3=CC=CC=C3N2)C(=O)O
#smiles_can C1C(NCC2=C1C3=CC=CC=C3N2)C(=O)O
#inchikey FSNCEEGOMTYXKY-UHFFFAOYSA-N
#pubchem_id 98285
#mb_accession PR311097

>ms2peaks
74.026320 18.000000
86.098820 18.000000
121.061110 42.000000
125.994290 22.000000
132.069930 17.000000
133.929410 16.000000
135.127980 19.000000
144.079510 108.000000
152.143550 25.000000
165.496930 21.000000
206.984660 20.000000
216.163830 17.000000
217.098510 39.000000

