>compound PR76164380
>parentmass 613.2126969
>ionization [M+H]+
>formula C28H36O15
>rt 304.412040
>profile qtof
#smiles_iso C[C@H]1[C@@H]([C@H]([C@H]([C@@H](O1)O[C@@H]2[C@H]([C@@H]([C@H](O[C@H]2OC3=CC(=C(C(=C3)O)C(=O)CCC4=CC(=C(C=C4)OC)O)O)CO)O)O)O)O)O
#smiles_can CC1C(C(C(C(O1)OC2C(C(C(OC2OC3=CC(=C(C(=C3)O)C(=O)CCC4=CC(=C(C=C4)OC)O)O)CO)O)O)O)O)O
#inchikey ITVGXXMINPYUHD-CUVHLRMHSA-N
#pubchem_id 30231
#mb_accession PR302934,PR302939,PR302944,PR302949,PR302954,PR302959,PR302964,PR302969,PR302974,PR302979,PR302984,PR302989

>ms2
85.027320 78.000000
85.032790 33.000000
111.006910 25.000000
115.037640 36.000000
127.041760 21.000000
137.055100 440.000000
137.063020 309.000000
138.071300 77.000000
139.036870 81.000000
151.024030 28.000000
151.039630 31.000000
151.048750 26.000000
178.009120 25.000000
179.011220 86.000000
179.068220 1000.000000
180.060170 22.000000
180.078740 51.000000
181.072920 59.000000
191.073470 32.000000
191.081220 34.000000
193.043560 28.000000
197.081760 36.000000
197.812190 33.000000
203.062850 32.000000
205.076350 32.000000
219.052930 31.000000
219.067090 252.000000
237.078060 26.000000
243.091310 27.000000
247.063080 22.000000
283.707730 27.000000
284.072240 22.000000
287.083530 29.000000
289.096070 27.000000
299.096440 31.000000
301.105960 31.000000
305.091710 237.000000
305.107330 554.000000
306.104950 44.000000
313.086180 26.000000
329.084630 134.000000
329.107850 33.000000
337.016110 22.000000
347.025760 21.000000
347.082090 22.000000
347.114560 167.000000
347.135960 25.000000
348.115110 60.000000
365.127500 25.000000
371.104980 83.000000
379.070770 36.000000
379.102140 62.000000
383.132900 44.000000
392.270080 21.000000
397.113280 60.000000
397.130160 60.000000
397.148130 21.000000
398.133180 31.000000
413.099790 22.000000
413.131500 40.000000
414.123870 31.000000
415.145780 127.000000
416.154850 25.000000
417.178830 40.000000
427.158690 29.000000
433.113650 22.000000
433.134830 43.000000
433.149930 65.000000
433.167880 69.000000
434.133030 22.000000
434.148410 49.000000
434.169560 45.000000
434.405820 21.000000
440.385350 26.000000
449.125030 51.000000
451.153660 528.000000
451.177890 186.000000
452.157410 67.000000
452.174190 25.000000
453.147800 86.000000
463.121800 36.000000
467.140170 135.000000
467.155910 51.000000
467.175080 37.000000
468.129390 31.000000
475.183110 21.000000
476.180210 25.000000
491.140810 25.000000
493.173980 23.000000
495.166690 25.000000
541.151490 51.000000
559.186340 36.000000
577.168030 25.000000
595.194090 86.000000
598.195250 33.000000
611.247190 33.000000
613.131040 31.000000
613.213500 513.000000
613.250850 28.000000

>ms2
97.358810 17.000000
137.053700 19.000000
147.068940 25.000000
179.056990 19.000000
180.074230 22.000000
219.065280 15.000000
289.098720 36.000000
305.079160 54.000000
305.097530 287.000000
305.115170 133.000000
306.104060 139.000000
325.154720 16.000000
329.095550 41.000000
347.095310 19.000000
347.109770 72.000000
348.112430 18.000000
371.107910 25.000000
371.119750 21.000000
371.173160 18.000000
397.146300 22.000000
415.088010 16.000000
415.131960 73.000000
415.144040 47.000000
416.139500 14.000000
417.148710 15.000000
433.053710 21.000000
433.125490 51.000000
433.147220 91.000000
433.173650 32.000000
434.127620 52.000000
434.162450 19.000000
435.160490 17.000000
443.698300 17.000000
449.129880 68.000000
451.119230 83.000000
451.152980 963.000000
451.172360 549.000000
452.151180 292.000000
452.176880 108.000000
453.165770 65.000000
453.189730 16.000000
454.166440 41.000000
458.156010 23.000000
466.111660 35.000000
466.166380 14.000000
467.139190 76.000000
467.156680 204.000000
468.158290 108.000000
469.153080 20.000000
469.181760 27.000000
475.123380 17.000000
475.156920 54.000000
491.157870 19.000000
492.137600 17.000000
505.169310 26.000000
509.153960 22.000000
510.163970 37.000000
525.157590 24.000000
541.175350 65.000000
559.159910 17.000000
559.203550 26.000000
577.157780 52.000000
577.188600 130.000000
578.146120 23.000000
578.193480 68.000000
578.206180 26.000000
583.236940 17.000000
595.192440 125.000000
595.212950 87.000000
596.211790 51.000000
605.391850 27.000000
613.057310 19.000000
613.107850 17.000000
613.148620 26.000000
613.183530 227.000000
613.220830 1000.000000

>ms2
68.942670 11.000000
69.028790 25.000000
71.048680 23.000000
72.172470 20.000000
85.028560 47.000000
85.033400 15.000000
119.849140 12.000000
127.033310 22.000000
127.040610 36.000000
135.039920 11.000000
137.060300 613.000000
138.048710 21.000000
138.063840 107.000000
139.031360 12.000000
150.068050 15.000000
151.041560 27.000000
151.065220 11.000000
151.074540 24.000000
161.057690 17.000000
161.064350 23.000000
161.070830 17.000000
166.061220 14.000000
169.049270 37.000000
177.054720 42.000000
178.063080 14.000000
178.770740 12.000000
179.069780 1000.000000
180.056470 20.000000
180.070710 75.000000
191.065800 26.000000
191.077040 14.000000
193.054920 51.000000
214.084000 26.000000
215.054460 21.000000
217.041370 17.000000
219.052920 39.000000
219.064710 80.000000
219.082490 29.000000
221.086490 10.000000
249.083540 42.000000
255.083540 15.000000
273.085850 14.000000
279.089140 11.000000
285.048190 13.000000
287.090580 74.000000
287.103850 20.000000
288.092770 10.000000
289.104520 13.000000
289.315120 17.000000
301.114990 23.000000
305.076870 36.000000
305.098110 43.000000
305.111510 80.000000
306.096010 11.000000
317.090300 16.000000
317.109070 17.000000
321.093380 18.000000
323.088560 19.000000
325.065160 23.000000
329.080230 12.000000
329.094510 12.000000
329.109500 15.000000
330.108800 18.000000
347.121950 11.000000
355.124630 22.000000
371.122380 13.000000
375.106020 20.000000
379.119810 50.000000
380.116580 14.000000
385.120610 12.000000
395.071960 26.000000
395.101720 11.000000
395.125730 14.000000
397.128230 80.000000
397.148410 19.000000
399.138790 20.000000
407.116850 12.000000
413.109500 13.000000
415.123110 17.000000
431.146240 20.000000
463.147250 11.000000
475.135590 20.000000
487.151610 13.000000

>ms2
69.036770 17.000000
71.044820 22.000000
72.052600 9.000000
83.048700 14.000000
85.002650 8.000000
85.028700 12.000000
85.034680 8.000000
112.011270 16.000000
123.052120 13.000000
127.037970 13.000000
137.040730 17.000000
137.059780 1000.000000
138.062120 89.000000
139.027620 15.000000
145.066970 20.000000
152.985610 9.000000
157.058490 21.000000
161.057080 13.000000
163.043240 10.000000
166.050160 12.000000
169.046980 16.000000
176.042790 11.000000
177.024320 8.000000
177.057040 10.000000
177.097900 17.000000
179.069820 72.000000
180.070180 35.000000
181.051970 9.000000
191.031770 10.000000
191.066830 13.000000
193.028560 11.000000
194.006320 8.000000
201.055730 9.000000
203.075550 14.000000
203.083070 15.000000
204.985660 13.000000
216.033860 17.000000
219.062740 27.000000
222.094820 10.000000
227.055820 15.000000
229.055280 15.000000
245.071400 30.000000
245.083820 18.000000
247.046940 13.000000
249.057050 13.000000
249.094100 13.000000
256.053470 9.000000
269.072050 10.000000
281.074520 13.000000
299.045230 8.000000
307.043180 8.000000
338.113340 8.000000
339.077090 8.000000
410.360900 10.000000

>ms2
69.034830 26.000000
71.046460 24.000000
85.032140 24.000000
126.677440 26.000000
127.035530 86.000000
127.040820 33.000000
137.036590 103.000000
137.056500 707.000000
137.066350 142.000000
138.055340 47.000000
139.058990 29.000000
145.038830 29.000000
145.050990 39.000000
150.072370 40.000000
161.060090 32.000000
169.058850 24.000000
170.056550 34.000000
177.055540 36.000000
179.067230 766.000000
179.076680 496.000000
180.067630 122.000000
191.056230 49.000000
191.068680 79.000000
193.046800 29.000000
193.054810 89.000000
205.043440 46.000000
205.590010 26.000000
219.067340 159.000000
219.078140 36.000000
247.094800 26.000000
285.072200 37.000000
286.073060 30.000000
287.100430 99.000000
289.074680 36.000000
289.110720 46.000000
297.068510 32.000000
299.084050 49.000000
301.084530 29.000000
304.102170 42.000000
305.097350 491.000000
305.107210 273.000000
305.122500 70.000000
306.074070 40.000000
306.098020 162.000000
306.114650 154.000000
312.658630 32.000000
318.102290 29.000000
329.088900 39.000000
329.113800 43.000000
336.911440 30.000000
347.108920 118.000000
347.119050 109.000000
348.105130 34.000000
353.102870 29.000000
355.128690 50.000000
371.116880 131.000000
371.127870 63.000000
383.100770 45.000000
395.137760 46.000000
396.108220 34.000000
397.113100 29.000000
397.145450 99.000000
398.126620 49.000000
398.139070 43.000000
407.134580 36.000000
409.125270 46.000000
415.113100 33.000000
415.131350 164.000000
415.146790 88.000000
415.161870 68.000000
416.155150 26.000000
433.142030 210.000000
433.171140 75.000000
434.103790 49.000000
434.148560 49.000000
434.166410 30.000000
437.165160 32.000000
449.143370 29.000000
451.162720 1000.000000
451.189700 73.000000
452.165160 270.000000
453.164220 39.000000
457.154020 52.000000
462.132720 42.000000
464.371060 26.000000
467.138640 26.000000
467.156010 66.000000
467.176390 47.000000
468.153630 30.000000
468.172360 29.000000
479.164460 37.000000
491.145260 39.000000
500.102140 40.000000
508.993800 59.000000
515.142330 43.000000
541.177920 30.000000
559.178710 57.000000
559.190190 24.000000
577.118710 32.000000
577.209960 50.000000
578.185670 24.000000
578.204470 65.000000
595.169680 52.000000
596.188480 29.000000
613.159730 65.000000
613.203800 323.000000
613.226260 180.000000

>ms2
179.071260 27.000000
180.068340 18.000000
193.049820 11.000000
220.072330 11.000000
245.149460 22.000000
283.113680 14.000000
289.105470 12.000000
305.036900 15.000000
305.103360 235.000000
306.109130 29.000000
307.093690 18.000000
326.131350 15.000000
329.098140 36.000000
347.108730 23.000000
348.115660 9.000000
372.105190 12.000000
374.822140 17.000000
397.122340 13.000000
415.104190 11.000000
415.120300 12.000000
415.148830 45.000000
433.142090 58.000000
433.157780 96.000000
434.154630 30.000000
439.532810 12.000000
439.571410 9.000000
449.159760 16.000000
450.122830 10.000000
451.087100 9.000000
451.117920 85.000000
451.160980 887.000000
452.122770 30.000000
452.159210 122.000000
452.176180 68.000000
453.166900 9.000000
454.121520 13.000000
454.167080 25.000000
454.693240 11.000000
455.119630 12.000000
457.148250 19.000000
458.155030 9.000000
461.158200 11.000000
465.392610 14.000000
466.150270 14.000000
467.128810 9.000000
467.160160 118.000000
468.148100 30.000000
471.388340 12.000000
474.141420 15.000000
475.153900 36.000000
475.457730 9.000000
477.181820 13.000000
491.145050 13.000000
493.193450 24.000000
497.128660 14.000000
511.163540 14.000000
533.162170 12.000000
541.153080 10.000000
541.181340 11.000000
559.159790 9.000000
559.188600 46.000000
560.166690 10.000000
577.185790 56.000000
577.203550 33.000000
577.222530 11.000000
578.184330 22.000000
578.204960 13.000000
579.207280 15.000000
580.178590 12.000000
580.206540 15.000000
594.214540 15.000000
595.189090 77.000000
595.205570 47.000000
596.175290 12.000000
596.234990 25.000000
597.194460 14.000000
597.211910 18.000000
610.162720 9.000000
612.226440 9.000000
613.112730 16.000000
613.155820 30.000000
613.213440 1000.000000
613.230590 335.000000
613.300420 9.000000

>ms2
69.031400 32.000000
73.051210 19.000000
85.023860 16.000000
85.032300 56.000000
87.029210 19.000000
111.046710 45.000000
127.030300 69.000000
127.037900 47.000000
129.045010 41.000000
132.977170 30.000000
136.285130 14.000000
137.049090 167.000000
137.059070 625.000000
137.966710 16.000000
148.071520 18.000000
151.031220 35.000000
151.068190 23.000000
165.051740 32.000000
177.048480 39.000000
179.027880 25.000000
179.069980 1000.000000
180.064270 23.000000
180.074460 138.000000
191.072270 48.000000
193.059660 20.000000
203.076290 18.000000
205.058010 16.000000
219.047610 16.000000
219.066160 145.000000
220.061950 32.000000
227.097120 16.000000
228.136150 26.000000
237.073880 84.000000
238.088150 14.000000
241.056810 32.000000
248.067200 34.000000
255.067060 21.000000
285.083920 25.000000
287.046360 29.000000
287.091250 152.000000
288.081910 15.000000
289.090060 27.000000
293.119050 15.000000
305.087400 30.000000
305.102600 98.000000
305.125520 21.000000
306.081210 22.000000
306.096710 92.000000
311.089540 20.000000
311.105590 16.000000
312.060060 22.000000
317.141780 30.000000
318.106050 18.000000
329.088990 50.000000
330.092130 38.000000
330.112950 16.000000
341.095980 14.000000
347.100800 14.000000
347.114840 26.000000
371.099060 21.000000
372.117890 26.000000
383.129760 13.000000
397.084350 16.000000
397.114500 45.000000
398.127290 40.000000
398.142940 20.000000
413.120480 22.000000
435.905760 13.000000
449.112180 14.000000
451.142700 15.000000
523.147520 16.000000

>ms2
71.050830 33.000000
85.021640 11.000000
94.029170 13.000000
94.041120 14.000000
122.032510 27.000000
127.035150 31.000000
127.042650 68.000000
129.087490 23.000000
137.035420 37.000000
137.052920 372.000000
137.060010 1000.000000
138.062590 158.000000
139.030330 16.000000
139.094560 27.000000
144.095400 11.000000
151.034390 23.000000
151.040530 26.000000
151.075030 14.000000
162.064440 19.000000
164.024640 16.000000
175.080570 23.000000
177.091630 15.000000
178.019970 13.000000
179.068940 80.000000
181.049530 12.000000
181.084530 12.000000
184.046280 11.000000
189.065510 29.000000
191.066010 40.000000
193.055740 26.000000
201.047210 13.000000
203.055480 16.000000
219.062190 30.000000
223.065510 15.000000
237.069790 13.000000
239.058200 27.000000
242.107220 19.000000
251.081410 17.000000
255.060940 13.000000
257.276430 17.000000
258.094150 24.000000
283.098880 16.000000
391.119600 13.000000

>ms2
69.035240 48.000000
85.027750 44.000000
127.036480 89.000000
137.058410 595.000000
137.072710 22.000000
138.064990 22.000000
151.037060 30.000000
161.064760 35.000000
179.071010 1000.000000
192.067180 49.000000
193.051220 69.000000
193.061630 41.000000
203.067640 21.000000
205.039960 26.000000
217.033580 31.000000
219.045810 40.000000
219.059620 58.000000
219.070390 137.000000
220.067060 28.000000
221.068390 30.000000
233.048310 21.000000
241.053500 38.000000
243.068180 25.000000
247.065230 22.000000
287.095730 21.000000
288.093200 41.000000
289.103640 56.000000
290.116760 38.000000
305.076020 37.000000
305.103420 609.000000
305.127040 30.000000
306.091190 27.000000
306.104370 35.000000
308.126190 41.000000
311.080260 25.000000
323.088960 27.000000
329.087070 58.000000
330.112580 63.000000
347.110660 180.000000
348.120000 96.000000
353.090480 37.000000
353.113190 23.000000
371.097020 25.000000
371.120480 43.000000
372.099330 27.000000
377.114590 30.000000
379.124940 26.000000
383.104520 25.000000
397.121950 37.000000
397.132260 25.000000
398.141600 79.000000
399.279750 27.000000
415.157290 25.000000
416.138670 66.000000
416.153350 48.000000
425.150880 22.000000
433.110470 36.000000
433.134770 87.000000
433.150880 204.000000
433.167210 74.000000
433.190950 31.000000
434.033420 28.000000
434.074400 26.000000
434.156310 143.000000
434.241000 31.000000
437.130890 26.000000
451.101990 23.000000
451.151640 325.000000
451.167630 219.000000
452.166720 93.000000
459.160030 23.000000
463.137760 28.000000
467.130770 25.000000
467.156650 140.000000
468.151250 26.000000
468.170140 26.000000
469.147830 35.000000
475.160430 38.000000
492.160710 23.000000
523.156800 21.000000
541.168580 27.000000
559.183170 49.000000
577.172300 28.000000
577.206600 37.000000
578.105770 36.000000
595.194640 21.000000
595.216130 57.000000
597.213200 28.000000
613.129580 53.000000
613.142940 28.000000
613.213260 429.000000
613.239320 157.000000

>ms2
147.067550 15.000000
151.027710 9.000000
151.035690 13.000000
162.200230 10.000000
178.047850 11.000000
179.062480 12.000000
179.073440 11.000000
194.781570 17.000000
219.053710 10.000000
237.067520 12.000000
237.078410 13.000000
283.121460 12.000000
289.089570 18.000000
289.116090 14.000000
295.295780 17.000000
296.955440 11.000000
297.088470 15.000000
304.110170 18.000000
305.097080 176.000000
305.107850 116.000000
305.125670 9.000000
306.090450 11.000000
306.111240 22.000000
325.129550 19.000000
326.136540 13.000000
329.091190 9.000000
346.636140 20.000000
347.094240 43.000000
347.114620 54.000000
348.121250 9.000000
349.182130 14.000000
371.009090 10.000000
371.107330 36.000000
372.113590 10.000000
376.110110 9.000000
389.120480 10.000000
397.108250 13.000000
398.135890 37.000000
415.118530 42.000000
415.150730 12.000000
416.118350 14.000000
433.093110 13.000000
433.114040 12.000000
433.135250 89.000000
433.149380 80.000000
434.147220 58.000000
434.169770 21.000000
435.159880 10.000000
440.438840 20.000000
451.012480 13.000000
451.118650 39.000000
451.159240 1000.000000
451.176060 258.000000
451.320430 16.000000
452.123570 43.000000
452.153750 105.000000
452.166140 205.000000
452.191190 16.000000
453.167660 22.000000
453.180510 42.000000
453.197020 29.000000
454.181240 14.000000
457.157780 9.000000
461.143460 10.000000
467.110380 15.000000
467.134460 47.000000
467.157290 64.000000
468.164890 25.000000
475.123200 11.000000
475.157750 21.000000
475.187100 13.000000
491.144740 19.000000
491.166350 10.000000
493.159550 10.000000
493.171200 17.000000
499.182800 19.000000
509.159390 13.000000
515.169370 22.000000
541.134700 19.000000
559.151550 10.000000
559.174680 18.000000
560.187070 12.000000
577.172060 20.000000
577.202270 76.000000
578.099240 13.000000
578.198000 26.000000
578.217220 28.000000
595.169490 11.000000
595.204710 61.000000
596.200560 11.000000
596.224550 39.000000
611.088930 11.000000
612.160160 13.000000
613.165280 48.000000
613.204470 535.000000
613.221370 575.000000

>ms2
53.040410 39.000000
71.047960 43.000000
71.053880 17.000000
85.026760 94.000000
127.039680 126.000000
133.062410 26.000000
137.022060 23.000000
137.058460 1000.000000
138.053010 16.000000
138.060440 41.000000
138.068210 14.000000
139.031050 19.000000
139.067600 17.000000
145.047390 22.000000
151.033720 37.000000
151.066910 27.000000
156.128490 16.000000
162.067140 17.000000
169.033130 17.000000
169.046550 17.000000
177.026660 15.000000
177.051150 24.000000
179.043500 34.000000
179.068450 827.000000
179.089020 47.000000
180.069990 63.000000
180.085390 35.000000
181.046230 16.000000
181.075230 24.000000
183.971980 16.000000
185.355530 15.000000
193.041600 16.000000
193.050510 24.000000
193.061510 15.000000
194.043720 21.000000
203.065950 20.000000
215.310000 20.000000
219.067700 230.000000
220.055910 13.000000
237.076550 40.000000
247.063130 16.000000
249.078860 20.000000
265.060760 23.000000
272.094940 16.000000
273.088350 26.000000
274.079590 16.000000
287.091890 97.000000
289.101200 17.000000
296.069270 28.000000
298.098880 25.000000
305.101930 212.000000
306.108180 26.000000
306.152950 15.000000
309.088500 19.000000
311.077480 16.000000
311.092250 86.000000
313.377080 16.000000
319.105800 20.000000
325.073610 16.000000
329.107970 47.000000
330.106750 16.000000
337.108060 20.000000
354.081180 23.000000
371.106200 48.000000
379.128270 23.000000
380.151730 24.000000
389.092960 16.000000
395.117860 22.000000
395.128200 61.000000
397.101200 13.000000
397.133510 79.000000
398.142000 16.000000
403.128450 57.000000
407.111300 18.000000
410.142400 28.000000
410.152560 13.000000
415.144130 20.000000
415.169620 24.000000
433.151060 42.000000
445.149050 16.000000
492.517330 19.000000
506.138400 13.000000

>ms2
69.039600 13.000000
71.049460 9.000000
80.812710 16.000000
85.024250 38.000000
85.031300 21.000000
122.028770 27.000000
127.024420 14.000000
127.042240 45.000000
136.548810 9.000000
137.058430 1000.000000
138.003510 13.000000
138.064830 56.000000
138.639950 9.000000
139.036590 19.000000
142.238510 9.000000
145.068770 12.000000
147.045810 19.000000
150.534230 14.000000
151.057750 8.000000
161.060700 19.000000
162.062070 14.000000
163.043580 30.000000
164.245420 8.000000
177.833940 19.000000
179.064700 21.000000
179.071170 52.000000
187.075790 9.000000
191.074330 17.000000
203.071090 9.000000
219.053380 9.000000
229.048520 9.000000
231.070830 9.000000
245.081040 8.000000
245.670750 8.000000
261.085050 11.000000
284.090550 12.000000
287.095030 14.000000
345.087400 14.000000

