>compound PR76524648
>parentmass 280.1332055692307
>ionization [M+H]+
>formula C18H17NO2
>rt 293.594788
>profile qtof
#smiles_iso CN1CCC2=CC3=C(C4=C2C1CC5=CC=CC=C54)OCO3
#smiles_can CN1CCC2=CC3=C(C4=C2C1CC5=CC=CC=C54)OCO3
#inchikey JCTYWRARKVGOBK-UHFFFAOYSA-N
#pubchem_id 235224
#mb_accession PR300772,PR300777,PR300782,PR300787,PR300792,PR300797,PR300802,PR300807,PR300812,PR300817,PR300822,PR300827,PR310561

>ms2peaks
165.069140 19.000000
178.064680 7.000000
178.077300 66.000000
179.085830 37.000000
189.071200 51.000000
190.077960 126.000000
191.057510 7.000000
191.085600 382.000000
192.090230 85.000000
193.095350 13.000000
193.104920 13.000000
194.105730 5.000000
200.066390 9.000000
201.070650 118.000000
202.076930 67.000000
203.085130 66.000000
206.070720 6.000000
207.080120 30.000000
218.073410 13.000000
219.080490 185.000000
220.085910 28.000000
221.057330 8.000000
221.091860 8.000000
221.100080 13.000000
231.075790 12.000000
231.085420 10.000000
232.083270 6.000000
249.091710 1000.000000
249.136950 12.000000
250.094970 209.000000
251.086430 6.000000
251.100300 12.000000
280.133730 755.000000
280.180390 14.000000

>ms2peaks
249.091450 273.000000
250.095660 50.000000
280.089750 6.000000
280.133670 1000.000000
280.181180 25.000000

>ms2peaks
165.072140 26.000000
178.079420 125.000000
179.084590 53.000000
189.071700 62.000000
190.078220 202.000000
191.054690 7.000000
191.085910 1000.000000
192.089830 187.000000
193.092030 17.000000
193.100490 63.000000
194.107850 5.000000
201.069700 209.000000
202.076770 114.000000
203.085590 144.000000
204.088550 25.000000
206.071210 14.000000
207.080720 17.000000
218.067860 10.000000
219.080890 373.000000
220.081970 60.000000
220.090620 24.000000
221.071170 5.000000
221.085630 6.000000
221.095610 15.000000
222.069640 7.000000
231.072190 9.000000
231.085390 16.000000
232.088060 23.000000
233.098570 7.000000
234.069720 5.000000
247.066240 9.000000
247.078280 5.000000
248.071230 6.000000
249.091770 359.000000
250.095570 61.000000
251.091400 6.000000

>ms2peaks
115.711240 5.000000
139.057890 7.000000
141.075040 5.000000
145.433430 5.000000
151.049150 6.000000
151.057720 11.000000
152.062840 59.000000
152.068700 25.000000
153.068890 8.000000
163.046280 7.000000
163.054810 15.000000
164.065950 14.000000
165.042300 5.000000
165.070770 253.000000
166.072620 21.000000
167.090040 11.000000
175.058640 7.000000
176.057630 30.000000
176.069560 43.000000
177.057110 8.000000
177.066010 29.000000
177.077380 17.000000
178.078250 223.000000
179.063710 7.000000
179.086040 54.000000
187.054200 7.000000
188.063490 42.000000
189.070500 1000.000000
190.072100 218.000000
190.080000 435.000000
191.069990 14.000000
191.084960 240.000000
192.084430 24.000000
192.098540 8.000000
193.061630 7.000000
200.026750 8.000000
200.048710 9.000000
200.061460 84.000000
200.072400 40.000000
201.051180 11.000000
201.069580 152.000000
202.078950 170.000000
203.081190 36.000000
203.099670 6.000000
204.081530 6.000000
205.062700 7.000000
218.075300 9.000000
219.079120 10.000000
231.077150 10.000000

>ms2peaks
165.070770 23.000000
166.074020 6.000000
178.077260 67.000000
179.070890 6.000000
179.081210 13.000000
179.088440 11.000000
189.067430 55.000000
189.085420 6.000000
190.072810 71.000000
190.081010 73.000000
191.085240 394.000000
192.089070 62.000000
193.100830 21.000000
194.102710 8.000000
201.062230 25.000000
201.071670 105.000000
202.076860 53.000000
203.085850 59.000000
204.090880 7.000000
207.076260 12.000000
207.084340 20.000000
218.066210 6.000000
219.050370 6.000000
219.082020 197.000000
220.083080 32.000000
220.093600 15.000000
221.087720 9.000000
221.103060 8.000000
231.087070 5.000000
237.088750 7.000000
249.090650 1000.000000
249.134750 14.000000
250.093750 203.000000
251.092100 11.000000
251.104510 5.000000
280.132480 729.000000
280.179990 10.000000

>ms2peaks
249.091670 275.000000
250.094500 57.000000
251.096690 8.000000
280.133970 1000.000000
280.181670 30.000000

>ms2peaks
165.071090 33.000000
178.079450 98.000000
179.085340 70.000000
180.091380 15.000000
189.069700 48.000000
190.078700 164.000000
191.086880 1000.000000
192.090230 162.000000
193.060940 5.000000
193.084410 6.000000
193.101030 63.000000
194.105760 11.000000
201.071170 263.000000
202.076770 134.000000
203.086580 154.000000
204.082140 7.000000
204.093400 21.000000
205.070570 5.000000
206.072140 15.000000
207.083910 33.000000
208.085100 7.000000
218.071240 10.000000
218.081340 5.000000
219.061170 8.000000
219.082210 358.000000
220.086350 89.000000
221.089220 18.000000
221.099000 14.000000
222.069550 9.000000
230.075700 6.000000
231.083250 18.000000
231.089510 7.000000
232.091170 14.000000
247.077840 7.000000
248.083910 6.000000
249.092620 343.000000
250.097560 59.000000
251.095000 7.000000

>ms2peaks
115.053960 13.000000
140.071620 8.000000
150.045880 9.000000
151.056840 25.000000
152.057560 20.000000
152.065260 50.000000
153.070470 16.000000
162.049130 5.000000
163.055690 14.000000
164.061940 29.000000
165.070790 271.000000
166.070010 26.000000
175.057480 19.000000
176.068730 17.000000
177.069610 56.000000
177.082530 7.000000
178.078830 226.000000
179.079820 52.000000
179.089070 37.000000
188.463170 6.000000
189.071520 1000.000000
190.053220 11.000000
190.077000 542.000000
191.076710 78.000000
191.085240 203.000000
192.090120 73.000000
199.048540 5.000000
199.060710 6.000000
200.062550 131.000000
201.048490 6.000000
201.069730 153.000000
202.051210 13.000000
202.077760 175.000000
203.070370 7.000000
203.082490 41.000000
205.068370 5.000000
207.080060 9.000000
218.065540 11.000000
218.081800 14.000000
219.083540 6.000000
221.058870 13.000000
231.083720 12.000000
247.078000 7.000000

>ms2peaks
165.063390 11.000000
165.072970 10.000000
178.074870 39.000000
178.086590 10.000000
179.081710 25.000000
179.096890 5.000000
189.061980 23.000000
189.071950 50.000000
190.072540 65.000000
190.082700 63.000000
191.081890 224.000000
191.090640 176.000000
192.086070 38.000000
192.096240 36.000000
193.095690 26.000000
193.110210 7.000000
194.108020 5.000000
201.070160 102.000000
202.068500 20.000000
202.080280 45.000000
203.081020 41.000000
203.092100 19.000000
207.072860 14.000000
207.085110 9.000000
208.087780 8.000000
218.076020 9.000000
219.081310 174.000000
220.069990 5.000000
220.087100 26.000000
221.095120 9.000000
221.105880 7.000000
231.086490 7.000000
237.091710 8.000000
248.078220 7.000000
249.091550 1000.000000
249.135090 21.000000
250.095520 183.000000
251.096220 23.000000
251.108780 7.000000
280.133390 705.000000
280.180630 16.000000

>ms2peaks
249.091050 269.000000
250.094830 51.000000
251.098770 8.000000
280.133700 1000.000000
280.181240 30.000000

>ms2peaks
165.067900 21.000000
165.077380 5.000000
177.068820 6.000000
178.077560 86.000000
179.074520 12.000000
179.085370 58.000000
189.071720 49.000000
190.077580 165.000000
191.058030 5.000000
191.085750 1000.000000
192.089830 155.000000
193.063920 8.000000
193.100310 56.000000
201.069980 258.000000
202.074740 123.000000
203.084900 121.000000
203.103710 5.000000
204.084760 7.000000
204.093150 24.000000
206.072590 7.000000
207.075390 15.000000
207.087370 19.000000
208.080870 6.000000
218.071620 15.000000
219.081010 347.000000
220.082410 39.000000
220.090030 21.000000
221.064030 10.000000
221.090190 30.000000
222.067990 8.000000
231.074110 14.000000
231.086460 10.000000
232.087430 9.000000
247.076890 8.000000
249.091460 327.000000
250.095460 72.000000

>ms2peaks
115.053100 14.000000
141.066020 7.000000
150.056080 10.000000
151.054810 16.000000
152.059920 59.000000
152.067780 12.000000
153.061600 7.000000
163.056410 9.000000
163.070240 6.000000
164.052600 6.000000
164.060440 21.000000
165.049870 8.000000
165.069050 281.000000
166.070430 31.000000
166.079070 20.000000
167.085530 5.000000
175.053020 6.000000
176.055420 11.000000
176.066070 17.000000
177.066890 16.000000
177.075870 31.000000
178.078320 225.000000
179.072280 11.000000
179.084230 53.000000
188.056440 6.000000
188.064820 13.000000
189.071260 1000.000000
190.071640 262.000000
190.079610 342.000000
191.085950 256.000000
192.084580 27.000000
192.100690 16.000000
193.094510 8.000000
200.060710 132.000000
200.072040 38.000000
201.069340 180.000000
202.076250 157.000000
202.085360 47.000000
202.097670 10.000000
203.074310 9.000000
203.081850 19.000000
203.091160 13.000000
205.064830 6.000000
218.070560 9.000000
218.081160 13.000000
219.079030 6.000000
222.054050 7.000000
231.082460 14.000000
280.140410 8.000000

>ms2peaks
103.467910 24.000000
109.389980 21.000000
121.671510 17.000000
141.068210 21.000000
151.053960 24.000000
152.063220 22.000000
153.068700 17.000000
162.123410 21.000000
162.506590 21.000000
165.047930 27.000000
165.056440 20.000000
165.069140 350.000000
166.074810 86.000000
166.999850 17.000000
169.761350 17.000000
169.846440 17.000000
174.975590 17.000000
176.054520 20.000000
176.068080 17.000000
177.068800 17.000000
178.064680 130.000000
178.077300 1197.000000
179.085830 664.000000
180.090930 51.000000
181.083300 26.000000
181.204760 18.000000
182.694660 20.000000
186.123320 19.000000
186.500900 31.000000
189.071200 932.000000
189.119520 19.000000
189.150040 26.000000
190.038190 23.000000
190.077960 2291.000000
190.095980 62.000000
190.107190 24.000000
190.303710 41.000000
190.486880 21.000000
190.953340 17.000000
191.035280 66.000000
191.045040 80.000000
191.057510 122.000000
191.085600 6930.000000
191.127840 23.000000
191.157810 20.000000
191.301880 18.000000
191.913700 18.000000
192.012340 20.000000
192.029020 17.000000
192.051740 33.000000
192.090230 1546.000000
192.659330 23.000000
193.066480 66.000000
193.082780 25.000000
193.095350 235.000000
193.104920 237.000000
193.256040 17.000000
194.075500 83.000000
194.095050 27.000000
194.105730 95.000000
195.094530 18.000000
195.106580 21.000000
196.171160 20.000000
200.052810 39.000000
200.066390 166.000000
200.651170 18.000000
201.050510 19.000000
201.070650 2137.000000
202.076930 1222.000000
202.326800 22.000000
202.425090 23.000000
202.506680 24.000000
203.045780 34.000000
203.064160 18.000000
203.085130 1197.000000
203.566670 24.000000
204.083650 72.000000
204.095340 60.000000
204.977970 20.000000
205.062970 72.000000
205.077410 31.000000
205.099260 50.000000
205.109660 26.000000
206.070720 101.000000
206.833470 30.000000
207.061950 49.000000
207.080120 549.000000
208.086200 20.000000
209.099790 19.000000
213.534790 25.000000
213.889300 20.000000
217.050460 24.000000
217.064160 24.000000
217.400410 36.000000
218.031520 26.000000
218.073410 242.000000
218.564440 18.000000
219.000890 24.000000
219.041560 24.000000
219.054030 23.000000
219.080490 3364.000000
219.209730 25.000000
220.060350 62.000000
220.085910 508.000000
220.106050 17.000000
220.200360 25.000000
221.030240 25.000000
221.057330 152.000000
221.091860 143.000000
221.100080 238.000000
222.065440 30.000000
222.232300 21.000000
223.068890 18.000000
230.073820 17.000000
231.075790 216.000000
231.085420 180.000000
231.096420 45.000000
232.083270 105.000000
232.092420 39.000000
233.081950 26.000000
233.090360 51.000000
234.052570 31.000000
234.062040 55.000000
234.098860 21.000000
235.851640 17.000000
236.137570 17.000000
237.088580 46.000000
237.101960 50.000000
238.090180 69.000000
239.817900 17.000000
247.071210 56.000000
247.081470 25.000000
247.090930 17.000000
247.325870 17.000000
248.076320 21.000000
248.085910 37.000000
248.105040 29.000000
248.159930 20.000000
248.386320 22.000000
248.854350 18.000000
248.869610 20.000000
248.898680 27.000000
248.942250 35.000000
248.969700 19.000000
248.994750 18.000000
249.047470 45.000000
249.054840 23.000000
249.091710 18158.000000
249.136950 215.000000
249.180790 20.000000
249.338070 17.000000
249.600080 27.000000
249.705540 18.000000
249.728970 17.000000
250.036410 19.000000
250.054000 28.000000
250.062350 22.000000
250.094970 3796.000000
251.086430 101.000000
251.100300 215.000000
252.091920 40.000000
252.105000 47.000000
252.221010 18.000000
252.303160 31.000000
254.207580 31.000000
264.093230 17.000000
268.457280 30.000000
278.063050 20.000000
279.054720 18.000000
279.095000 17.000000
280.086940 21.000000
280.106690 62.000000
280.133730 13712.000000
280.180390 252.000000

