>compound PR76614062
>parentmass 278.1386841538462
>ionization [M+H]+
>formula C15H19NO4
>rt 196.165828
>profile qtof
#smiles_iso COC1=C(C=CC(=C1)C(=O)OC2CC3CCC(C2)N3)O
#smiles_can COC1=C(C=CC(=C1)C(=O)OC2CC3CCC(C2)N3)O
#inchikey GWWGRYGNRKFSSX-UHFFFAOYSA-N
#pubchem_id 573663
#mb_accession PR301446,PR301450,PR301454,PR301458,PR301462,PR301466,PR301470,PR301474,PR301478,PR301482,PR301486,PR301490,PR310560

>ms2peaks
77.039470 17.000000
91.054240 30.000000
93.070010 172.000000
94.074910 18.000000
110.096230 138.000000
111.100280 11.000000
123.045840 19.000000
151.039540 100.000000
278.139160 1000.000000
278.186920 26.000000

>ms2peaks
93.070220 9.000000
110.096760 11.000000
278.139190 1000.000000
278.186800 31.000000

>ms2peaks
67.054630 52.000000
68.050350 6.000000
69.071500 10.000000
77.038910 142.000000
78.040350 6.000000
81.066120 9.000000
82.066570 12.000000
83.070080 6.000000
91.055000 413.000000
92.056300 29.000000
92.061360 6.000000
93.032940 5.000000
93.042820 6.000000
93.070420 1000.000000
94.030890 5.000000
94.065090 17.000000
94.073820 75.000000
95.073430 18.000000
108.018100 13.000000
110.097070 361.000000
111.094270 5.000000
111.101730 33.000000
114.347090 6.000000
123.045380 141.000000
124.049550 17.000000
136.020920 12.000000
151.019230 11.000000
151.039110 917.000000
152.028960 7.000000
152.041730 91.000000
175.464630 5.000000
263.116610 5.000000
278.139370 45.000000

>ms2peaks
56.126290 30.000000
65.038670 58.000000
66.044430 90.000000
67.053090 87.000000
67.058130 109.000000
68.057300 23.000000
69.054360 20.000000
77.009950 18.000000
77.039430 758.000000
77.661310 27.000000
78.045200 110.000000
80.021510 24.000000
80.027340 35.000000
80.033330 26.000000
80.058030 21.000000
81.056640 23.000000
81.069120 28.000000
81.271510 20.000000
82.058720 26.000000
82.066290 22.000000
91.022420 40.000000
91.049300 221.000000
91.054670 509.000000
91.390820 18.000000
92.061760 45.000000
93.034070 196.000000
93.063090 39.000000
93.070450 409.000000
93.367310 18.000000
93.700710 22.000000
94.042960 37.000000
94.063920 27.000000
108.007930 24.000000
108.020920 532.000000
108.032540 23.000000
108.082100 21.000000
109.016840 22.000000
109.024150 58.000000
110.096930 95.000000
111.685420 18.000000
113.899830 18.000000
123.021510 46.000000
123.043240 585.000000
123.048450 312.000000
124.050870 45.000000
136.009990 57.000000
150.990300 37.000000
151.038300 1000.000000
153.047520 22.000000
235.786880 24.000000
278.138310 254.000000
278.150270 75.000000

>ms2peaks
77.038890 17.000000
91.053710 23.000000
93.070630 156.000000
94.073400 13.000000
110.096830 133.000000
111.097920 8.000000
111.103860 6.000000
123.046160 15.000000
151.040070 88.000000
152.038600 5.000000
152.048710 5.000000
278.097530 6.000000
278.139860 1000.000000
278.187810 26.000000

>ms2peaks
93.069180 7.000000
110.097190 13.000000
278.139800 1000.000000
278.187410 31.000000

>ms2peaks
67.054860 47.000000
68.052700 6.000000
69.056130 5.000000
77.039470 148.000000
81.056510 7.000000
81.069320 7.000000
82.066890 21.000000
91.054620 329.000000
92.058880 32.000000
93.034840 15.000000
93.070860 1000.000000
94.065190 8.000000
94.073390 86.000000
95.071620 11.000000
95.078360 9.000000
105.035270 5.000000
108.021800 7.000000
110.097070 342.000000
111.096500 12.000000
111.101590 18.000000
123.045270 131.000000
127.092460 5.000000
151.015690 7.000000
151.039260 755.000000
152.043640 99.000000
153.038270 5.000000
153.044920 8.000000
278.136630 23.000000
278.147370 10.000000

>ms2peaks
51.024140 20.000000
55.018650 91.000000
65.038990 95.000000
66.052490 31.000000
67.055310 290.000000
68.046850 16.000000
69.058150 62.000000
70.066380 20.000000
72.535820 45.000000
77.026340 18.000000
77.038770 938.000000
78.039270 56.000000
78.045780 70.000000
79.018940 19.000000
79.551900 16.000000
79.588330 16.000000
80.026610 117.000000
80.050690 75.000000
81.057500 66.000000
82.060710 26.000000
82.068300 24.000000
84.080010 20.000000
91.018350 17.000000
91.055910 1000.000000
92.058600 80.000000
93.036200 177.000000
93.061200 45.000000
93.067570 137.000000
93.072300 334.000000
93.080790 21.000000
94.033450 26.000000
94.064830 41.000000
94.073730 152.000000
95.048810 50.000000
95.052470 26.000000
95.063220 17.000000
95.068660 50.000000
108.021050 767.000000
109.025380 46.000000
110.097880 92.000000
111.098320 16.000000
111.102970 28.000000
123.019410 21.000000
123.043820 952.000000
124.035080 31.000000
124.044300 23.000000
136.018390 20.000000
148.082920 16.000000
151.014270 24.000000
151.039200 745.000000
152.040680 19.000000
152.047420 40.000000
153.049060 16.000000

>ms2peaks
77.038650 16.000000
91.055910 28.000000
93.069880 153.000000
94.072010 16.000000
110.097080 111.000000
111.099680 10.000000
123.039710 6.000000
123.044670 13.000000
151.039200 111.000000
278.139560 1000.000000
278.186890 26.000000

>ms2peaks
93.069040 8.000000
110.097450 13.000000
278.138640 1000.000000
278.185300 29.000000
278.194550 9.000000

>ms2peaks
67.056140 36.000000
77.038640 138.000000
78.042970 20.000000
82.066820 9.000000
84.082820 9.000000
91.054500 411.000000
92.059170 45.000000
93.047490 9.000000
93.070050 1000.000000
94.074490 82.000000
95.075810 10.000000
108.024000 15.000000
108.083110 6.000000
110.096990 301.000000
111.098160 24.000000
123.045230 116.000000
124.045680 22.000000
125.056630 10.000000
125.061970 6.000000
151.039020 788.000000
152.041630 50.000000
152.048190 21.000000
211.757710 6.000000
278.128390 22.000000
278.136170 38.000000

>ms2peaks
51.025630 22.000000
65.036100 124.000000
65.040500 135.000000
66.040950 34.000000
67.048330 94.000000
67.058880 71.000000
77.036480 302.000000
77.041360 444.000000
78.031260 22.000000
78.041550 52.000000
78.045430 38.000000
79.053540 30.000000
80.025760 77.000000
80.030510 78.000000
80.048470 24.000000
82.065900 22.000000
91.013410 22.000000
91.055530 962.000000
92.060070 114.000000
93.032100 18.000000
93.037570 60.000000
93.070190 428.000000
93.078640 58.000000
94.065440 22.000000
94.077290 22.000000
108.009940 23.000000
108.019780 393.000000
108.027380 128.000000
109.026870 20.000000
110.096130 22.000000
118.065090 23.000000
123.044150 1000.000000
124.032350 22.000000
124.050480 98.000000
136.013470 24.000000
137.029750 31.000000
141.061220 28.000000
151.003040 30.000000
151.040020 598.000000
152.032180 26.000000
152.043320 35.000000

>ms2peaks
55.018470 18.000000
56.046640 24.000000
65.036020 18.000000
65.042300 19.000000
67.047250 18.000000
67.056720 106.000000
77.039470 475.000000
80.027970 23.000000
81.065990 24.000000
82.028760 27.000000
82.434880 40.000000
84.078960 24.000000
91.054240 852.000000
92.058300 137.000000
92.844020 18.000000
93.030510 35.000000
93.035580 59.000000
93.070010 4916.000000
93.399560 28.000000
94.037170 20.000000
94.044790 25.000000
94.074910 508.000000
95.048740 17.000000
96.814880 37.000000
105.604430 17.000000
108.023750 49.000000
108.918140 18.000000
109.021100 49.000000
109.027860 28.000000
109.068260 30.000000
110.096230 3947.000000
111.077770 23.000000
111.084070 26.000000
111.100280 317.000000
111.105160 97.000000
111.366840 21.000000
111.816290 20.000000
123.045840 535.000000
124.049780 24.000000
125.059070 17.000000
137.011520 22.000000
151.008240 23.000000
151.017470 20.000000
151.039540 2866.000000
151.549820 19.000000
152.029390 41.000000
152.042390 119.000000
152.053530 92.000000
153.033750 18.000000
153.047030 22.000000
162.096820 24.000000
164.969190 21.000000
176.645450 18.000000
176.652850 17.000000
184.584320 20.000000
187.324480 20.000000
189.320820 33.000000
203.592090 43.000000
209.627960 24.000000
209.703490 20.000000
210.660060 20.000000
215.463180 29.000000
219.974470 18.000000
239.644610 34.000000
272.790500 20.000000
276.118560 18.000000
276.167050 22.000000
276.549010 18.000000
277.470860 17.000000
277.589390 18.000000
277.896580 23.000000
277.941590 17.000000
278.066130 31.000000
278.076200 77.000000
278.096370 133.000000
278.110410 51.000000
278.139160 28657.000000
278.186920 731.000000
278.223970 18.000000
278.320100 20.000000
278.337590 68.000000

