>compound PR77114777
>parentmass 287.0544659000001
>ionization [M]+
>formula C15H11O6+
>rt 361.363020
>profile qtof
#smiles_iso C1=CC(=C(C=C1C2=[O+]C3=CC(=CC(=C3C=C2O)O)O)O)O
#smiles_can C1=CC(=C(C=C1C2=[O+]C3=CC(=CC(=C3C=C2O)O)O)O)O
#inchikey VEVZSMAEJFVWIL-UHFFFAOYSA-O
#pubchem_id 128861
#mb_accession PR302411,PR302417,PR302423,PR302429,PR302435,PR302441,PR302447,PR302453,PR302459,PR302465,PR302471,PR302477

>ms2peaks
109.027960 34.000000
111.012120 38.000000
121.025660 41.000000
121.033740 32.000000
135.038740 19.000000
137.031740 18.000000
153.019300 97.000000
153.025410 36.000000
164.972760 16.000000
165.025990 47.000000
166.012210 17.000000
171.043290 18.000000
172.048630 15.000000
213.053310 57.000000
214.062260 47.000000
225.051130 13.000000
229.056180 20.000000
241.055190 15.000000
245.047380 15.000000
258.043210 36.000000
285.045410 18.000000
286.058350 14.000000
287.040160 143.000000
287.054290 1000.000000
287.084900 15.000000

>ms2peaks
53.424050 6.000000
193.935180 7.000000
205.720340 14.000000
277.360960 7.000000
285.033360 6.000000
285.783420 7.000000
286.039150 14.000000
286.960820 7.000000
286.998660 7.000000
287.055390 1000.000000

>ms2peaks
68.998660 117.000000
91.053050 109.000000
93.033390 169.000000
105.018590 103.000000
109.032130 129.000000
121.028440 654.000000
127.038120 94.000000
128.069700 100.000000
129.066440 83.000000
137.017560 60.000000
138.022320 49.000000
139.048360 51.000000
141.072770 74.000000
145.029720 103.000000
147.043140 57.000000
153.016740 731.000000
153.025470 103.000000
165.016680 400.000000
171.046810 69.000000
175.075300 80.000000
185.055240 149.000000
185.064150 80.000000
213.051210 180.000000
213.061970 49.000000
217.852190 69.000000
230.050950 49.000000
231.070360 80.000000
241.051220 89.000000
245.048390 63.000000
258.036740 57.000000
258.050450 171.000000
259.058010 71.000000
286.041050 66.000000
286.058260 103.000000
287.047060 291.000000
287.061130 1000.000000
287.070430 246.000000

>ms2peaks
67.019150 209.000000
93.036030 363.000000
93.941020 286.000000
121.031150 1000.000000
122.031200 385.000000
124.014060 385.000000
125.024240 396.000000
139.053180 198.000000
141.063610 220.000000
145.074160 330.000000
157.070790 626.000000
184.043660 275.000000

>ms2peaks
111.007790 14.000000
121.027600 13.000000
122.035540 10.000000
127.031400 22.000000
136.046630 9.000000
137.022030 13.000000
145.023010 15.000000
153.013720 22.000000
153.020600 53.000000
157.064060 11.000000
159.060200 9.000000
165.007780 10.000000
173.058990 10.000000
184.060530 11.000000
201.796100 14.000000
213.008260 17.000000
213.057340 16.000000
231.061280 12.000000
242.409210 9.000000
257.044010 10.000000
257.338840 10.000000
258.040560 16.000000
259.062070 12.000000
274.056370 10.000000
286.050660 25.000000
286.870180 9.000000
287.010770 24.000000
287.054050 1000.000000

>ms2peaks
192.330510 6.000000
201.709400 6.000000
222.993180 7.000000
229.133900 6.000000
267.120610 7.000000
286.049010 6.000000
287.055690 1000.000000

>ms2peaks
69.002540 49.000000
79.055120 73.000000
93.031550 38.000000
103.995030 49.000000
106.049900 69.000000
114.974980 36.000000
118.734030 36.000000
121.028730 472.000000
125.023220 34.000000
128.056820 38.000000
133.029770 103.000000
135.044910 73.000000
136.015550 67.000000
137.024090 223.000000
138.024310 47.000000
138.922650 73.000000
147.042690 40.000000
153.018540 1000.000000
154.009430 65.000000
154.023790 53.000000
157.058140 34.000000
157.067660 261.000000
161.060850 55.000000
165.020950 352.000000
169.068440 43.000000
169.158450 34.000000
171.043400 51.000000
173.055420 34.000000
182.540680 36.000000
189.053910 61.000000
197.056610 47.000000
203.072250 107.000000
204.040020 61.000000
209.948380 61.000000
213.054820 253.000000
214.056720 45.000000
215.072200 57.000000
217.046070 57.000000
223.958300 38.000000
229.050920 107.000000
230.050510 40.000000
231.058720 109.000000
231.071040 69.000000
232.044330 47.000000
240.999560 77.000000
242.055020 97.000000
244.029850 43.000000
258.055850 59.000000
258.064670 43.000000
285.048680 178.000000
287.003230 34.000000
287.055510 804.000000

>ms2peaks
65.042430 383.000000
81.025490 296.000000
93.037940 1000.000000
97.032010 183.000000
102.043470 235.000000
138.107800 200.000000
161.015460 243.000000
187.035540 157.000000

>ms2peaks
109.024330 19.000000
117.032340 8.000000
133.024610 12.000000
137.006530 8.000000
137.018630 27.000000
137.023680 12.000000
142.046310 12.000000
147.042760 11.000000
153.006530 24.000000
153.015010 19.000000
153.023420 34.000000
153.607930 8.000000
157.055770 18.000000
163.001540 9.000000
165.015320 43.000000
171.045990 10.000000
185.060350 8.000000
199.042270 11.000000
213.057370 21.000000
218.059630 15.000000
222.204270 16.000000
231.057050 11.000000
231.077240 29.000000
241.056950 16.000000
245.038450 13.000000
251.042050 10.000000
257.052580 12.000000
258.061650 25.000000
286.854490 8.000000
286.985380 8.000000
287.054600 1000.000000

>ms2peaks
164.939420 6.000000
188.534260 16.000000
197.061480 6.000000
204.517330 5.000000
258.065430 8.000000
286.050720 9.000000
287.054440 1000.000000

>ms2peaks
65.036070 70.000000
67.017390 54.000000
106.036680 52.000000
107.050770 210.000000
108.047690 59.000000
109.026300 68.000000
111.005230 163.000000
111.011510 133.000000
113.511250 38.000000
115.053320 63.000000
121.028880 226.000000
122.028470 68.000000
127.053890 65.000000
129.031310 74.000000
137.015470 65.000000
137.026140 63.000000
145.063450 47.000000
147.048580 59.000000
150.028640 63.000000
153.018520 1000.000000
154.021470 47.000000
157.058090 43.000000
158.070050 108.000000
161.055180 99.000000
165.018720 99.000000
166.005950 38.000000
166.017700 133.000000
166.029890 47.000000
169.058530 45.000000
169.070370 47.000000
171.047670 149.000000
172.041350 41.000000
173.015110 47.000000
175.014390 65.000000
175.042160 172.000000
175.071950 56.000000
184.740140 47.000000
185.063540 133.000000
186.051160 45.000000
186.454770 38.000000
189.048420 79.000000
190.057980 54.000000
194.342180 41.000000
201.052950 41.000000
213.048810 56.000000
216.043240 68.000000
231.066150 45.000000
231.076280 61.000000
241.053710 124.000000
258.047850 115.000000
258.063870 151.000000
259.050320 106.000000
259.059200 41.000000
269.045140 88.000000
286.260440 45.000000
287.054200 995.000000

>ms2peaks
68.979350 414.000000
92.028880 264.000000
92.057260 322.000000
93.029150 517.000000
93.460660 333.000000
107.050000 322.000000
108.045120 460.000000
115.049760 276.000000
115.059420 402.000000
128.058940 483.000000
131.053570 437.000000
133.028700 195.000000
139.049840 253.000000
140.050610 253.000000
151.001040 345.000000
153.016940 1000.000000
257.040890 264.000000

