>compound PR77910940
>parentmass 409.201
>ionization [M+H]+
>formula C25H28O5
>rt 580.800000
>profile qtof
#smiles_iso CC(=CCC1=CC(=C(C=C1O)O)C(=O)C=C(C2=CC(=C(C=C2)O)CC=C(C)C)O)C
#smiles_can CC(=CCC1=CC(=C(C=C1O)O)C(=O)C=C(C2=CC(=C(C=C2)O)CC=C(C)C)O)C
#inchikey FFPFIAFZJXSGDK-UHFFFAOYSA-N
#pubchem_id 74819274
#mb_accession PR310752,PR310753,PR310754

>ms2peaks
65.040600 25.000000
68.994090 21.000000
91.124350 39.000000
93.035430 73.000000
105.038180 52.000000
107.045010 20.000000
118.958260 22.000000
121.015500 20.000000
121.028920 25.000000
121.035870 26.000000
122.023960 22.000000
123.043580 48.000000
123.049980 28.000000
125.062340 20.000000
133.029510 874.000000
134.028060 19.000000
135.046070 24.000000
136.536380 21.000000
137.024630 22.000000
140.947330 23.000000
143.156750 21.000000
147.039140 39.000000
147.047590 20.000000
148.050670 41.000000
149.022160 699.000000
149.065460 25.000000
150.016020 47.000000
150.023500 70.000000
150.031230 108.000000
151.043900 41.000000
155.305560 23.000000
161.915620 20.000000
162.062880 20.000000
162.795140 25.000000
163.039580 32.000000
164.123180 23.000000
165.805360 30.000000
175.020230 23.000000
175.036710 220.000000
176.041580 18.000000
180.187880 17.000000
187.076070 99.000000
189.063570 72.000000
189.090700 5008.000000
189.864930 18.000000
190.076750 36.000000
190.094730 533.000000
191.092180 60.000000
203.066620 22.000000
204.182570 32.000000
204.924620 28.000000
205.015520 25.000000
205.085560 4972.000000
205.122380 39.000000
206.065580 17.000000
206.091670 720.000000
206.133820 18.000000
207.086530 88.000000
207.859010 18.000000
208.096330 38.000000
209.084490 17.000000
211.383000 18.000000
231.069470 24.000000
231.099900 460.000000
232.095410 17.000000
232.106310 38.000000
232.114060 33.000000
233.113020 20.000000
248.950700 24.000000
251.369960 24.000000
261.637910 18.000000
279.075560 17.000000
287.172090 38.000000
296.068760 26.000000
297.073940 20.000000
297.084720 36.000000
309.079220 20.000000
311.132660 17.000000
321.287540 23.000000
322.852450 17.000000
335.122280 17.000000
339.087130 18.000000
341.127960 17.000000
341.142670 17.000000
348.300720 20.000000
352.086270 33.000000
353.102330 23.000000
353.135650 389.000000
353.151150 102.000000
354.142240 63.000000
354.155980 77.000000
354.171720 18.000000
355.150480 20.000000
377.447690 23.000000
409.149380 24.000000
409.200350 3146.000000
409.230160 18.000000

>ms2peaks
133.027110 18.000000
133.034150 22.000000
133.102570 27.000000
134.036180 43.000000
137.021680 17.000000
147.043210 32.000000
147.050810 20.000000
149.021650 79.000000
150.029560 62.000000
165.049010 22.000000
188.982330 23.000000
189.080050 24.000000
189.093430 61.000000
190.095980 23.000000
203.108630 17.000000
205.084750 692.000000
206.096070 18.000000
353.129520 20.000000
355.134740 18.000000
409.184690 43.000000
409.207920 88.000000

>ms2peaks
72.040080 20.000000
77.037350 40.000000
105.036450 29.000000
107.012520 21.000000
111.017850 25.000000
113.485590 30.000000
121.016890 27.000000
121.024700 21.000000
121.031430 52.000000
128.936190 17.000000
131.082990 20.000000
133.028630 696.000000
134.015290 27.000000
134.030200 20.000000
135.032520 25.000000
139.252460 22.000000
147.041090 17.000000
147.048570 20.000000
147.078430 17.000000
147.085620 20.000000
149.022640 904.000000
149.057250 18.000000
150.017500 26.000000
150.028730 41.000000
151.040560 17.000000
155.317950 17.000000
157.064640 40.000000
171.073810 17.000000
172.079030 21.000000
172.901170 17.000000
175.029300 38.000000
175.040410 121.000000
176.044590 17.000000
187.069580 19.000000
189.090040 3283.000000
190.035400 20.000000
190.094910 323.000000
191.107410 17.000000
204.110500 17.000000
205.064800 60.000000
205.086960 2760.000000
205.123180 17.000000
206.089290 780.000000
206.352870 24.000000
207.090940 106.000000
207.379970 20.000000
212.288710 19.000000
231.093460 50.000000
231.113890 19.000000
232.110430 19.000000
233.110180 18.000000
247.100490 27.000000
251.200240 41.000000
253.273570 18.000000
290.188050 18.000000
329.360410 18.000000
330.472410 37.000000
341.143550 39.000000
342.141970 21.000000
353.120670 39.000000
353.148320 121.000000
354.140230 25.000000
355.629270 18.000000
409.151790 21.000000
409.199830 2810.000000

