>compound PR77300923
>parentmass 357.1180087000001
>ionization [M+H]+
>formula C16H20O9
>rt 206.547000
>profile qtof
#smiles_iso C=C[C@H]1[C@@H](OC=C2C1=CCOC2=O)O[C@H]3[C@@H]([C@H]([C@@H]([C@H](O3)CO)O)O)O
#smiles_can C=CC1C(OC=C2C1=CCOC2=O)OC3C(C(C(C(O3)CO)O)O)O
#inchikey DUAGQYUORDTXOR-GPQRQXLASA-N
#pubchem_id 88708
#mb_accession PR303517,PR303518,PR303519,PR303520,PR303521,PR303522,PR303523,PR303524,PR303525,PR303526,PR303527,PR303528

>ms2
77.038480 16.000000
81.071930 17.000000
85.025020 20.000000
91.055480 32.000000
93.046550 33.000000
93.069600 109.000000
103.038490 22.000000
103.051310 76.000000
105.064300 30.000000
105.069890 54.000000
107.051410 33.000000
109.027340 22.000000
121.047680 23.000000
121.061670 107.000000
121.066500 241.000000
122.070550 19.000000
127.036130 60.000000
127.045890 26.000000
131.023650 17.000000
131.044740 46.000000
131.051060 26.000000
147.048220 18.000000
147.988920 18.000000
149.040210 18.000000
149.056790 459.000000
149.064240 307.000000
150.060930 30.000000
150.068570 34.000000
151.060350 16.000000
151.079160 18.000000
159.040190 18.000000
160.044530 30.000000
175.039810 16.000000
177.040160 27.000000
177.056550 542.000000
178.049770 40.000000
178.058560 77.000000
192.800340 16.000000
195.064560 1000.000000
196.065640 111.000000
197.062820 17.000000
197.071670 18.000000
321.089900 16.000000

>ms2
108.055520 5.000000
121.064340 5.000000
131.056410 6.000000
134.057500 6.000000
148.121200 5.000000
149.054170 31.000000
149.063900 32.000000
150.043640 13.000000
150.063350 9.000000
151.075780 6.000000
177.042950 27.000000
177.054440 144.000000
177.063920 26.000000
178.028850 9.000000
178.065400 14.000000
195.064760 1000.000000
195.089430 6.000000
196.059630 26.000000
196.068150 131.000000
197.072330 21.000000
326.041930 6.000000
357.072690 6.000000
357.122890 17.000000

>ms2
69.035740 47.000000
77.038190 36.000000
79.051390 28.000000
79.058590 28.000000
85.026180 54.000000
91.055790 84.000000
93.059070 24.000000
93.067690 172.000000
94.074520 29.000000
95.083580 24.000000
103.044770 67.000000
103.053040 130.000000
105.069800 32.000000
106.073090 28.000000
109.037500 38.000000
109.061100 36.000000
119.037800 28.000000
121.052630 39.000000
121.065770 1000.000000
122.062840 99.000000
125.047230 41.000000
131.046450 172.000000
132.052020 28.000000
133.064030 32.000000
134.035980 43.000000
139.043230 94.000000
147.048140 56.000000
149.059280 670.000000
150.062610 25.000000
159.003750 25.000000
159.044540 133.000000
168.938130 46.000000
175.032300 35.000000
175.044200 45.000000
177.044420 56.000000
177.056820 480.000000
178.055590 138.000000
178.065200 28.000000

>ms2
55.010160 80.000000
77.028110 183.000000
77.034130 103.000000
77.042080 540.000000
85.031380 117.000000
91.053920 479.000000
91.057980 202.000000
93.070050 465.000000
93.079870 103.000000
102.035550 136.000000
103.054200 1000.000000
103.061680 239.000000
121.062360 291.000000
121.067680 268.000000
139.035080 131.000000
149.058690 174.000000

>ms2
91.039220 26.000000
91.052890 13.000000
94.072590 17.000000
97.029110 11.000000
103.051800 15.000000
103.058250 13.000000
109.033780 14.000000
110.031810 13.000000
111.042140 14.000000
119.046590 15.000000
121.062200 120.000000
121.069420 88.000000
122.067060 13.000000
127.042320 15.000000
131.034070 13.000000
131.047500 69.000000
133.526150 15.000000
135.045240 18.000000
135.993500 11.000000
140.036960 19.000000
147.045670 25.000000
149.038970 25.000000
149.056640 199.000000
149.062580 210.000000
150.065990 20.000000
152.041820 21.000000
159.039000 16.000000
177.055330 462.000000
178.051470 21.000000
178.063030 32.000000
179.046780 15.000000
179.298030 12.000000
180.059270 17.000000
195.050510 11.000000
195.065720 1000.000000
196.063400 64.000000
196.075880 13.000000
197.065700 11.000000
201.052020 12.000000
339.103790 11.000000

>ms2
120.998410 6.000000
121.066160 9.000000
131.050950 5.000000
145.051740 11.000000
149.056300 46.000000
149.065840 16.000000
150.067500 10.000000
151.031650 7.000000
152.084730 7.000000
159.850020 7.000000
177.055500 124.000000
178.058580 16.000000
179.057050 8.000000
195.065260 1000.000000
196.067460 93.000000
289.983430 6.000000
295.529570 11.000000
357.122770 23.000000

>ms2
55.016120 41.000000
77.039020 57.000000
77.044940 38.000000
81.073710 22.000000
85.027470 57.000000
91.054870 105.000000
93.068980 234.000000
97.028520 43.000000
103.048510 32.000000
103.055340 154.000000
105.068860 76.000000
107.048010 54.000000
108.054990 22.000000
108.956570 26.000000
115.047870 23.000000
121.025690 28.000000
121.064760 1000.000000
122.062240 20.000000
122.073620 20.000000
122.792430 23.000000
122.987620 28.000000
125.021970 27.000000
125.065850 17.000000
127.039390 22.000000
128.042080 20.000000
131.048920 130.000000
134.038510 37.000000
134.066930 17.000000
135.041980 49.000000
139.009030 33.000000
139.040940 101.000000
139.074260 17.000000
145.054260 17.000000
147.017060 18.000000
147.034740 31.000000
147.041930 18.000000
148.050980 29.000000
149.044540 40.000000
149.061200 712.000000
150.059020 75.000000
150.064850 53.000000
151.039600 21.000000
159.042390 99.000000
175.038070 88.000000
177.044460 37.000000
177.056020 334.000000
178.061740 42.000000
195.070330 31.000000
304.697510 17.000000

>ms2
69.034910 90.000000
77.037060 326.000000
77.040530 717.000000
79.042110 93.000000
79.056580 272.000000
83.013210 104.000000
91.054570 516.000000
93.068880 330.000000
97.029570 72.000000
102.034980 122.000000
103.055790 1000.000000
104.054110 72.000000
105.066470 97.000000
105.070850 269.000000
107.050810 154.000000
119.046430 86.000000
121.063450 247.000000
122.073010 111.000000
131.048800 416.000000
147.037980 108.000000
177.056350 108.000000

>ms2
73.456760 15.000000
77.033270 14.000000
77.039600 36.000000
77.044510 22.000000
78.635420 16.000000
79.051970 15.000000
85.026480 15.000000
85.032460 14.000000
86.035450 15.000000
91.058530 21.000000
93.071840 30.000000
103.050870 16.000000
103.056110 11.000000
104.053480 11.000000
105.068880 25.000000
107.054080 33.000000
109.063580 13.000000
121.064200 173.000000
123.069510 11.000000
124.070520 11.000000
127.219640 25.000000
131.049030 39.000000
131.364690 13.000000
133.055390 11.000000
134.065140 14.000000
139.040730 15.000000
149.040280 11.000000
149.053330 79.000000
149.060410 359.000000
149.068510 52.000000
150.061660 39.000000
152.075700 13.000000
167.069690 31.000000
167.079650 15.000000
177.054610 368.000000
177.072720 14.000000
178.058260 61.000000
195.064700 1000.000000
196.061860 31.000000
196.070760 83.000000
197.068820 15.000000
357.007170 11.000000

>ms2
85.031520 13.000000
121.067240 22.000000
149.061840 57.000000
150.059070 10.000000
150.070070 8.000000
177.053740 114.000000
177.065810 28.000000
178.056850 21.000000
195.065290 1000.000000
196.068040 126.000000
197.072100 27.000000
357.110810 18.000000
357.125640 19.000000

>ms2
73.028950 22.000000
77.041440 54.000000
78.044820 23.000000
79.054790 43.000000
79.060840 26.000000
85.027130 64.000000
91.051280 83.000000
91.057070 118.000000
92.065360 22.000000
93.068220 185.000000
93.075360 86.000000
94.074840 91.000000
95.044180 18.000000
103.002220 18.000000
103.051110 67.000000
104.043330 20.000000
105.055890 28.000000
105.068530 47.000000
105.074070 69.000000
107.047270 31.000000
108.053230 33.000000
109.027440 72.000000
109.060520 47.000000
121.033230 19.000000
121.065180 862.000000
122.065110 96.000000
125.059160 22.000000
131.049580 213.000000
132.056240 23.000000
135.041660 30.000000
139.033600 18.000000
139.695630 18.000000
140.083240 24.000000
147.045520 29.000000
149.059080 1000.000000
149.075000 22.000000
150.062760 53.000000
159.050080 18.000000
160.052310 19.000000
177.050510 154.000000
177.058870 208.000000
177.115780 23.000000
178.057070 121.000000
195.076450 24.000000

>ms2
61.034810 142.000000
77.038920 446.000000
78.039690 122.000000
81.035150 182.000000
83.052200 115.000000
91.053420 1000.000000
91.061230 149.000000
92.062110 149.000000
93.070620 257.000000
93.077100 155.000000
94.076740 122.000000
94.498490 149.000000
102.047170 115.000000
103.046970 135.000000
103.052210 115.000000
103.060630 230.000000
104.056850 189.000000
121.064590 432.000000

