>compound PR77941275
>parentmass 197.1073244307692
>ionization [M+H]+
>formula C13H12N2
>rt 240.433846
>profile qtof
#smiles_iso CCC1=NC=CC2=C1NC3=CC=CC=C23
#smiles_can CCC1=NC=CC2=C1NC3=CC=CC=C23
#inchikey YTQRHYCHEIXUIU-UHFFFAOYSA-N
#pubchem_id 5324325
#mb_accession PR301313,PR301317,PR301321,PR301324,PR301328,PR301331,PR301334,PR301337,PR301340,PR301343,PR301346,PR301348,PR310549

>ms2peaks
115.054480 7.000000
154.067140 27.000000
155.070330 17.000000
169.076100 15.000000
181.078450 39.000000
182.084660 284.000000
183.089340 46.000000
197.108380 1000.000000
197.148120 35.000000

>ms2peaks
182.084080 6.000000
197.107300 1000.000000
197.146900 37.000000

>ms2peaks
115.053180 47.000000
127.055660 5.000000
141.061610 5.000000
142.067320 8.000000
154.065860 138.000000
155.072780 61.000000
168.067260 8.000000
169.078740 31.000000
170.083630 6.000000
181.076780 222.000000
182.084960 1000.000000
183.088790 139.000000
197.107990 144.000000

>ms2peaks
75.023570 16.000000
77.041660 23.000000
88.032880 19.000000
101.038120 18.000000
102.041260 17.000000
102.045100 44.000000
114.040830 18.000000
114.049640 41.000000
115.043760 24.000000
115.050290 72.000000
115.059760 123.000000
116.050990 16.000000
127.055500 189.000000
128.047840 78.000000
128.054210 109.000000
129.049330 32.000000
130.066040 32.000000
138.043000 18.000000
140.048520 72.000000
141.064510 16.000000
143.059810 16.000000
143.861690 22.000000
153.062090 60.000000
154.067920 1000.000000
154.100830 20.000000
155.059200 71.000000
155.069610 132.000000
155.075880 150.000000
156.068340 16.000000
166.042850 14.000000
167.051770 24.000000
169.079650 16.000000
179.062970 14.000000
180.065630 35.000000
181.076970 570.000000
182.082790 401.000000
182.562270 16.000000
183.066100 23.000000
183.081910 32.000000
184.404080 15.000000
195.023560 14.000000
197.111510 19.000000

>ms2peaks
115.055600 12.000000
154.066570 29.000000
155.070270 15.000000
169.076430 7.000000
181.077260 39.000000
182.084410 288.000000
183.088010 45.000000
197.108780 1000.000000
197.149050 29.000000

>ms2peaks
182.079650 7.000000
197.107100 1000.000000
197.146800 38.000000

>ms2peaks
115.052350 33.000000
115.061220 7.000000
129.057080 13.000000
140.052370 6.000000
142.066130 6.000000
154.066470 136.000000
155.072340 97.000000
156.078900 10.000000
168.070240 18.000000
169.077390 36.000000
170.078460 8.000000
181.075990 206.000000
182.055050 6.000000
182.084000 1000.000000
183.087450 147.000000
184.089860 10.000000
197.107560 129.000000

>ms2peaks
76.321110 14.000000
91.048350 15.000000
101.042070 16.000000
102.042440 16.000000
103.029170 25.000000
112.785040 17.000000
113.040050 15.000000
114.037190 23.000000
114.047420 124.000000
115.043060 14.000000
115.056700 216.000000
116.048830 14.000000
116.058240 17.000000
126.045410 15.000000
127.047040 54.000000
127.055790 164.000000
127.066830 15.000000
128.044400 35.000000
128.060440 69.000000
129.051180 57.000000
129.063020 34.000000
129.662260 21.000000
130.062150 15.000000
130.069110 18.000000
137.790660 23.000000
140.050450 78.000000
141.075820 16.000000
146.063450 14.000000
152.042420 21.000000
153.052110 16.000000
153.062390 21.000000
153.120770 29.000000
154.065570 1000.000000
155.067020 113.000000
155.075180 108.000000
155.752620 17.000000
156.074630 18.000000
167.055530 16.000000
169.078120 23.000000
179.067370 32.000000
180.055890 17.000000
181.010090 29.000000
181.067950 123.000000
181.081760 196.000000
182.082640 293.000000
182.096220 98.000000
183.093490 40.000000
195.085600 15.000000
197.102810 18.000000

>ms2peaks
154.065430 32.000000
155.073240 21.000000
169.075320 12.000000
181.077990 46.000000
182.083630 272.000000
183.086550 43.000000
197.107190 1000.000000
197.146420 30.000000

>ms2peaks
197.107220 1000.000000
197.146500 36.000000

>ms2peaks
114.043300 5.000000
115.054400 41.000000
128.051420 8.000000
128.059020 8.000000
130.066010 8.000000
140.055220 7.000000
142.064290 12.000000
154.065380 122.000000
155.072510 97.000000
156.070020 5.000000
156.081530 8.000000
167.059980 9.000000
168.069810 10.000000
169.078460 41.000000
170.082640 5.000000
181.077150 230.000000
182.054990 11.000000
182.084050 1000.000000
183.087710 165.000000
184.093830 14.000000
197.107790 155.000000

>ms2peaks
78.042510 20.000000
94.692600 16.000000
101.038800 16.000000
105.050550 21.000000
114.046880 75.000000
115.033460 22.000000
115.052860 310.000000
116.056320 21.000000
116.062610 16.000000
117.050400 13.000000
117.056600 27.000000
127.045050 32.000000
127.056720 157.000000
127.065410 29.000000
128.051030 114.000000
128.057590 60.000000
129.052020 22.000000
129.068210 24.000000
130.066680 31.000000
130.074420 17.000000
130.756710 17.000000
140.035510 30.000000
140.049710 73.000000
141.058460 52.000000
142.060840 16.000000
145.070980 25.000000
153.055390 16.000000
153.065580 15.000000
154.065370 1000.000000
154.072780 218.000000
154.334580 20.000000
155.058550 26.000000
155.067340 151.000000
155.080290 96.000000
163.002170 22.000000
167.062770 17.000000
169.070720 19.000000
169.081470 29.000000
179.069730 35.000000
180.067580 45.000000
181.056230 18.000000
181.072600 276.000000
181.079620 201.000000
181.496190 20.000000
182.065410 32.000000
182.081970 425.000000
182.088790 217.000000
183.086330 19.000000
183.093080 20.000000
184.095870 22.000000
194.087810 31.000000
197.109240 63.000000

>ms2peaks
110.774510 17.000000
111.871200 25.000000
115.047230 91.000000
115.054480 257.000000
115.062210 81.000000
116.051020 24.000000
116.060890 18.000000
127.050610 47.000000
128.045500 73.000000
128.057220 57.000000
128.833880 17.000000
129.054670 52.000000
129.072880 23.000000
130.063110 25.000000
131.070880 24.000000
133.381210 26.000000
134.446000 29.000000
137.859010 43.000000
138.424000 28.000000
138.650220 25.000000
140.051510 54.000000
140.056670 22.000000
140.487590 36.000000
141.060670 20.000000
141.950230 20.000000
142.059100 70.000000
142.067020 82.000000
147.648960 17.000000
153.035390 21.000000
154.067140 983.000000
154.866880 21.000000
155.052020 23.000000
155.070330 604.000000
156.076600 87.000000
156.088390 20.000000
157.053540 32.000000
157.070820 18.000000
159.168550 18.000000
161.925800 24.000000
164.014240 22.000000
167.061900 132.000000
168.048320 22.000000
168.064010 19.000000
169.076100 527.000000
172.018660 19.000000
173.454650 17.000000
178.556060 27.000000
179.060910 18.000000
180.060390 18.000000
181.013520 20.000000
181.036190 22.000000
181.054890 17.000000
181.062580 51.000000
181.078450 1416.000000
181.570650 31.000000
181.748230 20.000000
182.016010 29.000000
182.034230 22.000000
182.051480 59.000000
182.084660 10232.000000
182.120160 18.000000
183.037430 17.000000
183.089340 1667.000000
184.089550 119.000000
185.094480 17.000000
189.116670 25.000000
190.900910 42.000000
195.029460 25.000000
195.173800 33.000000
195.731400 20.000000
196.096300 17.000000
196.105130 19.000000
196.127000 37.000000
196.584640 18.000000
196.909680 20.000000
197.048130 18.000000
197.060640 19.000000
197.076460 40.000000
197.108380 36039.000000
197.148120 1269.000000
197.275960 34.000000

