>compound PR77813030
>parentmass 359.14891489999997
>ionization [M+H]+
>formula C20H22O6
>rt 357.445980
>profile qtof
#smiles_iso COC1=C(C=CC(=C1)C[C@H]2COC(=O)[C@@H]2CC3=CC(=C(C=C3)O)OC)O
#smiles_can COC1=C(C=CC(=C1)CC2COC(=O)C2CC3=CC(=C(C=C3)O)OC)O
#inchikey MATGKVZWFZHCLI-LSDHHAIUSA-N
#pubchem_id 119205
#mb_accession PR303994,PR303995,PR303996,PR303997,PR303998,PR303999,PR304000,PR304001,PR304002,PR304003,PR304004

>ms2peaks
81.071040 7.000000
91.052800 6.000000
94.041450 6.000000
103.053600 12.000000
121.064880 6.000000
122.037380 35.000000
123.038620 6.000000
131.049580 62.000000
132.051360 12.000000
137.026170 5.000000
137.059490 1000.000000
138.062010 83.000000
138.071110 13.000000
145.062620 17.000000
147.040850 11.000000
148.047300 9.000000
149.059420 12.000000
151.044270 10.000000
157.065430 8.000000
161.057750 7.000000
163.059950 5.000000
163.072920 86.000000
163.083720 13.000000
164.081800 11.000000
165.052840 13.000000
165.082530 5.000000
175.076490 10.000000
175.083860 9.000000
177.052410 14.000000
177.060650 8.000000
178.058700 9.000000
189.093220 7.000000
191.074250 16.000000
202.079390 6.000000
203.081940 17.000000
203.093540 10.000000
220.090320 7.000000
221.081120 13.000000
222.080490 9.000000
223.097000 34.000000
231.078160 56.000000
235.099820 5.000000
245.092850 7.000000
248.089540 6.000000
253.081590 5.000000
259.066100 7.000000
259.073970 17.000000
263.100220 16.000000
263.110050 18.000000
264.108340 10.000000
276.068150 7.000000
291.101530 80.000000
292.089900 7.000000
292.108700 20.000000
293.107480 7.000000
297.140260 6.000000
305.112030 26.000000
305.138700 11.000000
306.121640 11.000000
323.130280 84.000000
324.134610 16.000000
325.132200 6.000000
341.094790 8.000000
341.140500 276.000000
342.127080 10.000000
342.145510 67.000000
343.152650 5.000000
358.141690 42.000000
359.110290 5.000000
359.151580 288.000000

>ms2peaks
137.059130 202.000000
138.063520 14.000000
163.072940 17.000000
221.080900 9.000000
223.095670 48.000000
291.099640 13.000000
295.136410 6.000000
305.114530 15.000000
305.128200 6.000000
309.110200 12.000000
323.129910 110.000000
324.126280 22.000000
324.142880 7.000000
341.094600 5.000000
341.138670 679.000000
342.143770 158.000000
343.146760 37.000000
358.141630 67.000000
359.080690 6.000000
359.109220 6.000000
359.149080 1000.000000

>ms2peaks
103.046960 8.000000
103.054240 14.000000
103.060330 9.000000
119.049420 8.000000
122.037370 21.000000
123.041160 5.000000
131.048360 133.000000
132.049560 20.000000
135.041700 6.000000
135.076570 5.000000
137.039090 10.000000
137.059130 1000.000000
138.053890 18.000000
138.062620 102.000000
139.069530 6.000000
143.047530 6.000000
145.068410 8.000000
147.041660 12.000000
149.057330 18.000000
151.035420 6.000000
151.073680 15.000000
157.059130 6.000000
157.067210 7.000000
161.055220 5.000000
163.077220 20.000000
164.075810 6.000000
165.053630 13.000000
174.066940 7.000000
175.069760 7.000000
177.052730 12.000000
177.063460 6.000000
178.057280 10.000000
189.089940 8.000000
191.067290 6.000000
203.075870 17.000000
203.089230 12.000000
204.091250 6.000000
231.082730 45.000000
232.079730 13.000000
232.089510 10.000000
245.094920 6.000000
246.093990 5.000000
248.077380 8.000000
248.086410 8.000000
248.096530 7.000000
249.083740 16.000000
259.075680 20.000000
260.076930 6.000000
260.089720 10.000000
263.107390 31.000000
264.104490 9.000000
273.087310 6.000000
273.097230 7.000000
274.092470 5.000000
276.085940 9.000000
277.088960 6.000000
291.088840 5.000000
291.105350 27.000000
292.111910 18.000000
306.121340 7.000000

>ms2peaks
63.304180 7.000000
66.044170 16.000000
77.036680 6.000000
77.776410 6.000000
79.056140 23.000000
81.006970 5.000000
81.067440 12.000000
91.054510 34.000000
94.011730 7.000000
94.039440 214.000000
94.575060 6.000000
94.668690 5.000000
95.050700 7.000000
102.044640 10.000000
103.054720 206.000000
104.061580 18.000000
105.042500 6.000000
105.065630 7.000000
105.076060 8.000000
107.044170 5.000000
107.050990 7.000000
108.024960 8.000000
108.043750 8.000000
109.049940 9.000000
115.055330 18.000000
116.051680 9.000000
117.033910 12.000000
117.065530 11.000000
117.070930 17.000000
118.042710 6.000000
118.058370 7.000000
118.082650 6.000000
121.063150 6.000000
122.003570 8.000000
122.035770 512.000000
123.042400 31.000000
128.060930 7.000000
129.066710 28.000000
130.040540 6.000000
131.049650 69.000000
131.062100 9.000000
132.052990 19.000000
132.062960 15.000000
133.065640 11.000000
135.041630 12.000000
136.056690 8.000000
136.747440 5.000000
137.058750 1000.000000
137.151980 7.000000
137.355900 6.000000
138.062580 118.000000
139.044530 6.000000
139.052060 6.000000
139.060150 5.000000
146.033910 8.000000
146.065490 5.000000
147.039640 15.000000
147.071350 5.000000
149.057370 21.000000
152.057330 9.000000
152.659480 10.000000
153.062270 6.000000
157.044740 7.000000
158.066640 6.000000
158.337330 7.000000
159.041690 6.000000
160.053890 24.000000
162.040830 9.000000
165.307590 12.000000
166.071990 5.000000
167.551740 10.000000
175.077710 7.000000
178.087370 10.000000
181.067900 15.000000
189.050480 11.000000
189.068480 6.000000
189.090930 10.000000
190.077560 6.000000
191.083850 15.000000
192.085690 5.000000
194.098480 9.000000
202.070880 12.000000
202.082760 46.000000
202.092010 11.000000
203.078930 29.000000
203.090620 47.000000
204.090710 7.000000
205.069990 15.000000
206.066070 5.000000
211.081210 6.000000
218.057070 7.000000
219.080140 30.000000
220.081990 6.000000
220.103270 6.000000
221.092090 12.000000
222.059590 6.000000
222.068190 6.000000
227.798550 5.000000
229.070940 7.000000
231.064320 14.000000
231.081130 33.000000
232.021300 11.000000
232.089970 7.000000
232.938520 5.000000
247.089810 12.000000
248.078810 24.000000
250.054120 6.000000
251.077010 6.000000
255.978940 6.000000
260.086270 5.000000
264.080320 6.000000
275.065340 6.000000

>ms2peaks
103.049190 8.000000
103.057970 15.000000
104.056370 6.000000
107.046670 6.000000
122.035500 53.000000
131.039510 11.000000
131.048740 81.000000
132.052370 7.000000
137.022350 5.000000
137.058880 1000.000000
138.058260 35.000000
138.063950 98.000000
143.041980 5.000000
145.061650 6.000000
147.043000 8.000000
149.059950 17.000000
151.036870 9.000000
151.073150 20.000000
161.053190 5.000000
161.060440 7.000000
163.075910 69.000000
164.077790 9.000000
165.046590 13.000000
165.053190 26.000000
165.077930 7.000000
175.070020 17.000000
175.081710 6.000000
177.055070 9.000000
178.059340 6.000000
179.068240 15.000000
189.090450 6.000000
191.069930 5.000000
203.074190 7.000000
203.087750 31.000000
204.082260 9.000000
205.085770 13.000000
206.070800 6.000000
217.080690 5.000000
217.090740 8.000000
221.090620 7.000000
223.076220 8.000000
223.093020 25.000000
223.101820 22.000000
231.058460 7.000000
231.076830 31.000000
232.086880 23.000000
234.069840 8.000000
235.118620 6.000000
248.073000 7.000000
248.088300 5.000000
259.067660 9.000000
259.079930 20.000000
260.089110 7.000000
263.104610 63.000000
264.112340 6.000000
273.084780 9.000000
274.095280 14.000000
277.081270 9.000000
279.113740 7.000000
290.364260 7.000000
291.099820 84.000000
291.118740 6.000000
292.115300 9.000000
293.101350 7.000000
295.120940 7.000000
296.130000 5.000000
305.107360 13.000000
305.121580 30.000000
309.103450 9.000000
323.092380 5.000000
323.127750 132.000000
324.135220 18.000000
335.606080 5.000000
341.097020 6.000000
341.136350 330.000000
342.126920 17.000000
342.145020 57.000000
343.142430 16.000000
343.164460 7.000000
358.136510 33.000000
359.090390 6.000000
359.145630 286.000000
359.160920 60.000000

>ms2peaks
137.057460 197.000000
138.057530 6.000000
138.067750 14.000000
139.069290 5.000000
151.071990 9.000000
163.075560 23.000000
164.081100 6.000000
220.083440 5.000000
221.075320 14.000000
223.096650 40.000000
224.100270 9.000000
235.099750 11.000000
291.102080 43.000000
295.130680 6.000000
295.141570 5.000000
305.112980 13.000000
305.123870 10.000000
306.125400 8.000000
309.108950 6.000000
313.147670 7.000000
323.129610 117.000000
324.127750 11.000000
324.142550 5.000000
341.138460 674.000000
342.141110 174.000000
343.146210 26.000000
358.124760 17.000000
358.145170 71.000000
359.108430 6.000000
359.148620 1000.000000

>ms2peaks
66.043820 8.000000
77.036930 16.000000
77.994300 10.000000
79.041000 5.000000
79.053500 33.000000
81.069040 6.000000
91.050610 29.000000
91.056260 27.000000
92.057910 12.000000
93.064520 7.000000
93.973330 7.000000
94.039860 234.000000
95.043620 10.000000
102.041950 6.000000
103.042650 14.000000
103.053800 166.000000
104.058240 16.000000
106.038860 6.000000
107.047170 6.000000
108.020530 11.000000
108.055900 19.000000
109.064340 24.000000
115.037700 6.000000
115.051900 25.000000
117.030550 13.000000
117.044250 15.000000
117.068190 21.000000
118.040790 9.000000
119.047530 18.000000
121.066050 7.000000
122.036320 449.000000
122.621570 6.000000
123.036860 22.000000
123.415900 6.000000
124.040120 19.000000
127.040650 6.000000
127.054650 17.000000
128.058720 41.000000
128.067840 10.000000
129.070830 6.000000
130.039610 12.000000
131.044490 44.000000
131.052190 44.000000
131.061510 5.000000
132.055210 20.000000
133.053390 6.000000
137.058380 1000.000000
137.499370 5.000000
138.061080 39.000000
138.066220 17.000000
139.061900 12.000000
145.056930 16.000000
145.065440 6.000000
146.035780 10.000000
147.041810 18.000000
149.057660 17.000000
151.037510 8.000000
151.073330 6.000000
157.065430 13.000000
160.046340 6.000000
160.057420 31.000000
161.062190 6.000000
163.039860 7.000000
165.071750 12.000000
166.075450 7.000000
169.887790 7.000000
174.068620 8.000000
174.076810 6.000000
177.077650 7.000000
178.092880 7.000000
179.072390 9.000000
189.067230 20.000000
190.075030 15.000000
191.078990 12.000000
193.099550 17.000000
201.038470 7.000000
201.076570 12.000000
202.071810 71.000000
203.084170 33.000000
204.083050 20.000000
204.092150 20.000000
205.065310 18.000000
206.020970 6.000000
215.089870 6.000000
219.066620 12.000000
219.080980 5.000000
220.085780 12.000000
220.095570 8.000000
221.061860 7.000000
226.086360 6.000000
230.062130 11.000000
231.049350 6.000000
231.078410 37.000000
234.066770 6.000000
247.080520 17.000000
248.082900 16.000000
250.036800 6.000000
250.065830 6.000000
260.079100 6.000000
273.778080 6.000000
277.086030 5.000000

>ms2peaks
93.030940 5.000000
121.066310 7.000000
122.015600 6.000000
122.036870 36.000000
123.035000 9.000000
131.042890 22.000000
131.052060 77.000000
132.057450 10.000000
137.033950 11.000000
137.059840 1000.000000
138.056580 20.000000
138.064300 79.000000
139.064010 19.000000
149.056410 10.000000
151.065570 6.000000
157.057360 5.000000
159.737760 6.000000
163.074770 74.000000
165.054760 15.000000
175.060710 8.000000
175.075990 16.000000
177.049360 10.000000
179.069720 28.000000
189.091020 12.000000
201.081390 6.000000
203.081670 21.000000
203.091460 6.000000
205.084660 9.000000
217.082980 13.000000
221.071370 8.000000
221.084370 8.000000
223.088380 20.000000
223.100270 43.000000
231.071330 9.000000
231.091960 15.000000
232.080230 7.000000
235.084700 6.000000
235.105320 8.000000
248.079910 15.000000
249.101910 5.000000
259.069240 13.000000
259.081670 8.000000
260.082760 12.000000
263.106870 25.000000
263.117310 22.000000
273.081820 6.000000
276.069820 6.000000
276.089110 6.000000
277.078580 6.000000
281.118500 8.000000
291.095730 43.000000
291.107120 54.000000
292.102330 21.000000
295.129610 5.000000
305.114110 41.000000
306.119630 6.000000
309.119480 6.000000
323.127040 88.000000
324.130000 14.000000
324.147860 6.000000
325.136990 15.000000
341.138890 309.000000
342.144780 90.000000
343.138090 9.000000
343.161930 6.000000
358.127810 7.000000
358.139100 9.000000
358.155000 12.000000
359.142580 111.000000
359.153170 235.000000

>ms2peaks
137.059430 177.000000
138.064030 19.000000
163.068800 7.000000
163.076220 12.000000
221.084080 6.000000
223.097180 56.000000
224.096760 13.000000
235.094890 13.000000
291.087280 6.000000
291.103700 18.000000
305.110840 8.000000
305.121030 14.000000
306.120030 5.000000
309.110080 21.000000
323.126130 113.000000
324.136780 16.000000
341.081670 6.000000
341.138580 665.000000
342.120480 13.000000
342.142880 174.000000
343.135470 10.000000
343.147640 17.000000
358.143400 83.000000
359.115540 11.000000
359.149200 1000.000000

>ms2peaks
103.048130 6.000000
103.054080 22.000000
104.060810 5.000000
122.036960 24.000000
123.042210 5.000000
131.048840 116.000000
132.044140 6.000000
132.054930 9.000000
137.029740 7.000000
137.059230 1000.000000
138.062710 104.000000
139.065480 11.000000
145.059400 11.000000
147.043560 10.000000
148.050660 8.000000
149.057980 14.000000
151.074710 22.000000
157.066300 18.000000
161.055770 11.000000
163.066850 12.000000
163.078920 14.000000
165.054660 8.000000
175.069110 9.000000
175.079790 17.000000
177.056410 15.000000
177.083450 8.000000
177.093890 7.000000
189.092180 11.000000
203.085330 29.000000
205.084930 7.000000
231.070530 12.000000
231.088410 34.000000
232.091540 9.000000
235.117750 7.000000
248.078250 10.000000
248.088460 8.000000
259.066530 9.000000
259.081630 7.000000
260.093350 7.000000
261.082640 9.000000
261.094120 6.000000
262.091460 5.000000
263.106410 37.000000
264.102260 6.000000
265.095340 6.000000
274.102360 10.000000
276.073030 6.000000
276.089750 8.000000
291.099430 44.000000
292.120730 8.000000
305.107880 5.000000

>ms2peaks
65.038170 5.000000
66.049350 17.000000
77.039750 16.000000
79.049960 5.000000
79.056080 6.000000
80.053310 5.000000
81.068140 5.000000
89.037230 6.000000
89.042390 6.000000
91.048210 11.000000
91.053720 18.000000
91.061800 5.000000
93.698410 9.000000
94.042020 240.000000
95.043010 11.000000
95.048770 12.000000
103.031350 7.000000
103.051790 53.000000
103.058360 39.000000
104.058760 14.000000
105.035770 7.000000
107.051230 11.000000
109.066670 6.000000
115.061710 5.000000
117.069540 9.000000
118.038700 6.000000
119.049370 6.000000
122.035850 557.000000
122.070000 8.000000
122.360900 6.000000
122.794230 6.000000
123.031280 5.000000
123.040470 27.000000
127.056940 13.000000
128.060090 11.000000
129.065750 25.000000
129.073000 12.000000
130.068210 6.000000
130.078870 6.000000
131.042340 32.000000
131.049610 59.000000
131.097060 5.000000
132.051250 14.000000
132.059430 5.000000
134.037570 18.000000
135.044300 19.000000
135.050550 7.000000
137.038800 21.000000
137.058810 1000.000000
137.388980 6.000000
138.018650 6.000000
138.063110 75.000000
139.052720 17.000000
139.063390 10.000000
145.058110 12.000000
146.028470 18.000000
146.047060 8.000000
148.045720 7.000000
149.058980 11.000000
151.076390 5.000000
157.055340 5.000000
157.063100 6.000000
160.049740 44.000000
161.053630 12.000000
161.063460 10.000000
163.037350 6.000000
168.088120 6.000000
177.410710 7.000000
178.073410 5.000000
179.028990 6.000000
179.088760 5.000000
189.069380 11.000000
190.065310 6.000000
190.080570 6.000000
191.077900 13.000000
194.066240 6.000000
194.092190 6.000000
201.065860 19.000000
201.807880 5.000000
202.063600 10.000000
202.073760 32.000000
202.083010 29.000000
203.021130 6.000000
203.083620 32.000000
219.081300 52.000000
220.088440 12.000000
221.098910 8.000000
231.078060 29.000000
247.062440 6.000000
247.077870 14.000000
247.084760 6.000000
248.082780 10.000000
261.061400 7.000000
263.079680 7.000000
289.066160 6.000000
307.677580 5.000000

