>compound PR77243115
>parentmass 697.1616
>ionization [M+H]+
>formula C30H32O19
>rt 201.600000
>profile qtof
#smiles_iso C1=CC(=CC=C1C2=C(C(=O)C3=C(C=C(C=C3O2)OC4C(C(C(C(O4)CO)O)O)O)O)OC5C(C(C(C(O5)COC(=O)CC(=O)O)O)O)O)O
#smiles_can C1=CC(=CC=C1C2=C(C(=O)C3=C(C=C(C=C3O2)OC4C(C(C(C(O4)CO)O)O)O)O)OC5C(C(C(C(O5)COC(=O)CC(=O)O)O)O)O)O
#inchikey PSZBCORWZMVATQ-UHFFFAOYSA-N
#pubchem_id 74978040
#mb_accession PR310929

>ms2
74.285770 21.000000
85.030630 67.000000
109.023610 55.000000
109.030590 20.000000
127.045860 25.000000
129.042980 17.000000
129.961090 18.000000
145.052660 21.000000
147.025360 18.000000
193.044040 21.000000
231.045460 22.000000
231.054530 23.000000
275.053100 29.000000
275.160710 22.000000
287.053800 1661.000000
287.075930 26.000000
288.014590 25.000000
288.057950 251.000000
288.070860 163.000000
289.052640 18.000000
290.064060 23.000000
303.053190 17.000000
309.045810 17.000000
329.059880 37.000000
395.055940 21.000000
397.081510 21.000000
407.067140 19.000000
407.086030 25.000000
425.079410 18.000000
427.112150 17.000000
427.658200 23.000000
431.094850 24.000000
444.786530 19.000000
449.056790 38.000000
449.079500 24.000000
449.107240 615.000000
450.078190 20.000000
450.107570 101.000000
450.124570 69.000000
450.538570 24.000000
451.096620 17.000000
451.113860 17.000000
473.119750 19.000000
474.014980 40.000000
479.092590 27.000000
485.134580 20.000000
517.054690 17.000000
525.100590 24.000000
532.138670 20.000000
535.107670 24.000000
535.121950 38.000000
536.106450 28.000000
536.125610 48.000000
537.130190 25.000000
597.117430 18.000000
617.176390 18.000000
631.131100 19.000000
662.304630 44.000000
679.135380 17.000000
679.153080 60.000000
681.140990 23.000000
681.174990 22.000000
682.162290 17.000000
696.539060 21.000000
697.157710 1259.000000
697.189330 253.000000

