>compound PR77864243
>parentmass 531.1981
>ionization [M+H]+
>formula C26H30N2O10
>rt 226.200000
>profile qtof
#smiles_iso C=CC1C2CC3C(=O)NC4=CC=CC=C4C(=O)CCN3C(=O)C2=COC1OC5C(C(C(C(O5)CO)O)O)O
#smiles_can C=CC1C2CC3C(=O)NC4=CC=CC=C4C(=O)CCN3C(=O)C2=COC1OC5C(C(C(C(O5)CO)O)O)O
#inchikey VRNUZAWFZDQEGN-UHFFFAOYSA-N
#pubchem_id 139292109
#mb_accession PR311106

>ms2
124.031800 84.000000
124.041760 148.000000
125.039700 22.000000
130.071110 22.000000
148.067980 48.000000
148.077210 177.000000
149.065490 16.000000
162.060180 18.000000
165.052110 16.000000
176.064350 17.000000
176.072920 82.000000
194.077010 16.000000
194.096950 27.000000
195.088560 20.000000
222.084580 17.000000
247.849490 18.000000
271.111940 44.000000
271.130890 16.000000
272.126130 37.000000
281.075680 27.000000
287.111110 19.000000
297.074280 16.000000
299.109070 42.000000
299.119930 68.000000
309.122010 16.000000
341.145600 33.000000
351.131680 23.000000
351.157320 41.000000
369.119780 68.000000
369.141270 551.000000
369.163270 157.000000
370.127470 17.000000
370.150510 154.000000
370.167050 45.000000
371.151950 17.000000
399.300450 38.000000

