>compound PR77430677
>parentmass 643.1511
>ionization [M+H]+
>formula C27H30O18
>rt 200.400000
>profile qtof
#smiles_iso C1=C(C=C(C(=C1O)O)OC2C(C(C(C(O2)CO)O)O)O)C3=C(C(=O)C4=C(C=C(C=C4O3)O)O)OC5C(C(C(C(O5)CO)O)O)O
#smiles_can C1=C(C=C(C(=C1O)O)OC2C(C(C(C(O2)CO)O)O)O)C3=C(C(=O)C4=C(C=C(C=C4O3)O)O)OC5C(C(C(C(O5)CO)O)O)O
#inchikey FEWRYXXFMHQZRI-UHFFFAOYSA-N
#pubchem_id 14159396
#mb_accession PR310924

>ms2
97.031850 20.000000
145.048070 21.000000
156.100160 17.000000
209.043300 18.000000
216.974950 20.000000
278.800720 17.000000
319.044800 542.000000
320.044950 46.000000
321.045680 48.000000
336.690980 17.000000
472.295100 17.000000
479.108700 25.000000
481.084630 128.000000
481.098910 206.000000
482.098360 19.000000
608.430730 17.000000
643.137270 59.000000
643.158140 23.000000

