>compound PR78670604
>parentmass 257.1172207999999
>ionization [M+H]+
>formula C16H16O3
>rt 481.228020
>profile qtof
#smiles_iso COC1=CC(=CC(=C1)/C=C/C2=CC=C(C=C2)O)OC
#smiles_can COC1=CC(=CC(=C1)C=CC2=CC=C(C=C2)O)OC
#inchikey VLEUZFDZJKSGMX-ONEGZZNKSA-N
#pubchem_id 5281727
#mb_accession PR304253,PR304255,PR304257,PR304259,PR304261,PR304263,PR304265,PR304267,PR304269,PR304271,PR304273,PR304275

>ms2peaks
91.052880 15.000000
103.056110 7.000000
105.069270 47.000000
107.050870 11.000000
111.044960 13.000000
119.047340 27.000000
121.030490 13.000000
121.065090 27.000000
133.064150 90.000000
135.042390 9.000000
135.078080 5.000000
135.082820 17.000000
137.054660 8.000000
137.062030 15.000000
138.062190 7.000000
139.076660 5.000000
141.065320 13.000000
145.067780 13.000000
148.052340 7.000000
149.059950 18.000000
150.064740 7.000000
151.074770 19.000000
152.063340 11.000000
153.067890 24.000000
154.075520 13.000000
155.088260 9.000000
157.063580 13.000000
159.079680 9.000000
163.073030 5.000000
164.079990 8.000000
165.068970 53.000000
166.073230 8.000000
167.089630 6.000000
168.054900 7.000000
171.079500 16.000000
179.083770 15.000000
179.093840 5.000000
181.065630 73.000000
182.067350 22.000000
182.075970 18.000000
183.075960 12.000000
183.086980 7.000000
187.077330 7.000000
193.063870 14.000000
194.074890 8.000000
195.083420 7.000000
197.059100 13.000000
197.098100 13.000000
198.098010 5.000000
199.073720 22.000000
200.082240 6.000000
207.074460 8.000000
209.062130 6.000000
210.067320 38.000000
211.072780 40.000000
211.083010 17.000000
212.075180 6.000000
213.092740 12.000000
224.087010 10.000000
225.082930 17.000000
225.094040 26.000000
226.097660 30.000000
227.070710 9.000000
227.102040 5.000000
228.077840 9.000000
239.104350 15.000000
242.085860 24.000000
242.097980 33.000000
243.094850 12.000000
255.097980 10.000000
255.107120 14.000000
256.102420 29.000000
256.109440 71.000000
257.117160 1000.000000
257.165770 8.000000

>ms2peaks
133.064560 7.000000
225.096050 5.000000
256.109770 65.000000
257.117070 1000.000000
257.163270 8.000000

>ms2peaks
55.660290 9.000000
58.592370 9.000000
68.992780 9.000000
77.039020 40.000000
78.047590 14.000000
79.053080 79.000000
79.056880 45.000000
81.513760 19.000000
83.051190 20.000000
83.867930 11.000000
84.960170 9.000000
91.037960 9.000000
91.052650 324.000000
92.029280 15.000000
92.058260 17.000000
92.063940 26.000000
93.068600 11.000000
95.047450 23.000000
96.213590 18.000000
103.048000 57.000000
103.055070 160.000000
104.029780 12.000000
104.052780 12.000000
104.719980 9.000000
105.028850 32.000000
105.037900 10.000000
105.046400 10.000000
105.065170 179.000000
105.071480 314.000000
106.038050 36.000000
106.061820 9.000000
106.068860 21.000000
107.049510 321.000000
108.045500 9.000000
108.054040 13.000000
108.060530 11.000000
109.062940 56.000000
110.066580 15.000000
111.040680 20.000000
111.049870 12.000000
112.053210 9.000000
115.058620 29.000000
116.054210 10.000000
117.074450 9.000000
118.020110 13.000000
118.031220 19.000000
118.044610 11.000000
119.033710 12.000000
119.050060 237.000000
120.054070 91.000000
121.027240 75.000000
121.036720 23.000000
121.064940 380.000000
122.031680 11.000000
122.037510 22.000000
123.041630 38.000000
123.049910 9.000000
123.077700 31.000000
124.030040 11.000000
124.044820 16.000000
124.051830 80.000000
125.054380 11.000000
127.052890 33.000000
129.075680 30.000000
131.044710 32.000000
131.053040 34.000000
131.083050 10.000000
131.937130 10.000000
132.052000 24.000000
133.015670 11.000000
133.026250 92.000000
133.033220 32.000000
133.064210 260.000000
133.073460 30.000000
133.091430 13.000000
134.026950 37.000000
134.035130 21.000000
134.062740 21.000000
134.070590 40.000000
135.040070 31.000000
135.053760 9.000000
135.071120 46.000000
135.079070 101.000000
136.034880 9.000000
136.051540 18.000000
137.050220 33.000000
137.056880 77.000000
137.062440 144.000000
138.067290 81.000000
140.065630 15.000000
140.078800 9.000000
141.062410 34.000000
141.075070 14.000000
142.042360 26.000000
143.049620 11.000000
143.078740 37.000000
143.090550 27.000000
143.257140 13.000000
144.049270 11.000000
144.057980 32.000000
145.061070 25.000000
145.069170 41.000000
146.072570 17.000000
148.051250 114.000000
149.057650 284.000000
149.085680 14.000000
150.059390 22.000000
150.071700 9.000000
151.054260 37.000000
151.073380 58.000000
152.055650 41.000000
152.067280 43.000000
152.077350 26.000000
153.067730 323.000000
154.074580 177.000000
154.142460 11.000000
155.074400 23.000000
155.083690 56.000000
156.064560 14.000000
156.087650 21.000000
157.064650 117.000000
159.076170 48.000000
159.089660 13.000000
161.053070 12.000000
161.955840 13.000000
162.128810 9.000000
163.074230 13.000000
164.047210 9.000000
164.061750 55.000000
164.076430 27.000000
164.085740 51.000000
165.049550 11.000000
165.070070 801.000000
165.520680 9.000000
166.054790 9.000000
166.071300 105.000000
166.078930 27.000000
167.048690 11.000000
167.081390 46.000000
167.096820 14.000000
168.058150 32.000000
168.090290 27.000000
168.105590 14.000000
169.052030 11.000000
169.073270 19.000000
170.066160 48.000000
170.076740 61.000000
171.044420 10.000000
171.056000 9.000000
171.069110 36.000000
171.080730 130.000000
171.086730 49.000000
171.098240 11.000000
172.089650 11.000000
172.315410 22.000000
174.068010 12.000000
176.058410 11.000000
176.066850 10.000000
176.128860 11.000000
176.259990 15.000000
177.061900 27.000000
177.072010 91.000000
177.132540 19.000000
178.069340 72.000000
178.080490 107.000000
179.072740 25.000000
179.088120 62.000000
180.045780 9.000000
180.055890 13.000000
180.083710 11.000000
181.049360 72.000000
181.065310 1000.000000
181.810240 13.000000
182.067950 276.000000
182.076290 296.000000
183.080840 282.000000
184.046020 9.000000
184.053740 15.000000
184.086200 111.000000
184.817460 12.000000
185.050720 24.000000
185.063830 80.000000
185.093780 28.000000
187.086690 9.000000
189.029270 9.000000
189.735280 19.000000
190.073930 21.000000
191.043380 9.000000
191.181370 9.000000
192.054490 50.000000
192.067720 10.000000
193.059010 66.000000
193.068510 54.000000
194.036880 15.000000
194.071590 232.000000
195.057080 11.000000
195.070340 55.000000
195.082060 187.000000
195.088580 64.000000
196.057880 9.000000
196.077000 24.000000
197.059780 48.000000
197.068630 13.000000
197.088880 59.000000
197.103490 47.000000
198.062470 44.000000
198.078280 21.000000
198.107280 20.000000
198.812390 9.000000
198.951600 10.000000
199.075450 423.000000
200.075450 14.000000
200.084730 62.000000
200.797360 9.000000
201.228200 15.000000
202.076070 9.000000
207.067580 15.000000
208.084630 38.000000
208.991350 14.000000
209.045320 12.000000
209.060850 139.000000
210.005340 9.000000
210.045940 30.000000
210.063810 350.000000
210.075850 162.000000
210.106310 9.000000
211.027620 9.000000
211.076920 913.000000
211.106450 12.000000
212.014680 11.000000
212.044400 11.000000
212.077620 72.000000
212.088330 85.000000
212.826350 11.000000
213.092820 208.000000
214.087860 10.000000
214.527420 12.000000
216.381320 9.000000
223.084780 18.000000
224.081540 35.000000
224.121860 11.000000
225.050340 9.000000
225.071950 26.000000
225.093670 290.000000
226.067370 18.000000
226.102260 220.000000
227.025180 13.000000
227.038790 9.000000
227.067250 263.000000
227.100230 53.000000
228.055400 22.000000
228.071910 35.000000
228.083070 36.000000
228.099640 9.000000
229.074260 11.000000
229.087570 15.000000
240.072690 48.000000
240.166720 9.000000
241.086470 165.000000
241.981120 15.000000
242.079610 27.000000
242.089050 120.000000
242.103290 109.000000
243.096820 49.000000
255.078750 11.000000
256.119690 23.000000
257.118770 85.000000
257.127840 23.000000

>ms2peaks
55.019090 15.000000
56.020740 20.000000
65.036670 15.000000
65.041090 12.000000
67.052670 18.000000
77.038970 48.000000
77.428310 13.000000
79.060960 13.000000
89.035870 58.000000
90.047910 30.000000
91.042600 15.000000
91.054530 109.000000
92.028880 12.000000
92.046540 12.000000
93.028880 17.000000
93.035370 74.000000
99.001850 29.000000
101.039400 12.000000
103.054330 26.000000
104.059150 32.000000
105.036190 13.000000
107.016250 17.000000
107.048900 95.000000
115.042590 12.000000
115.050540 31.000000
115.057400 68.000000
116.059170 30.000000
116.064420 15.000000
118.039160 22.000000
118.044140 12.000000
118.073390 13.000000
119.047330 15.000000
121.025810 27.000000
121.065100 15.000000
124.051470 13.000000
125.037250 14.000000
127.050830 50.000000
127.059150 15.000000
128.024290 20.000000
128.060100 166.000000
128.070850 27.000000
129.069410 87.000000
130.070070 13.000000
131.043170 18.000000
132.043030 15.000000
133.024400 54.000000
134.033540 20.000000
135.040800 13.000000
139.046680 12.000000
139.055150 44.000000
141.070850 90.000000
142.040220 21.000000
142.081890 26.000000
143.076110 19.000000
144.054470 23.000000
144.061710 15.000000
144.088210 15.000000
147.044100 12.000000
150.050610 15.000000
151.050080 151.000000
151.058320 127.000000
152.060640 1000.000000
152.104490 15.000000
153.067660 447.000000
153.096510 18.000000
154.063780 16.000000
154.071400 53.000000
154.083940 15.000000
154.938710 16.000000
155.045960 45.000000
155.073790 20.000000
156.052780 50.000000
157.065400 124.000000
158.073490 36.000000
163.055180 31.000000
163.063420 12.000000
164.063780 125.000000
165.048280 13.000000
165.069350 428.000000
166.074940 50.000000
168.050890 30.000000
168.066070 17.000000
170.064250 53.000000
170.078120 28.000000
171.077290 12.000000
173.945650 13.000000
175.047780 16.000000
176.061710 81.000000
178.055040 29.000000
178.077070 90.000000
179.070300 15.000000
179.089390 13.000000
179.433840 14.000000
181.043580 15.000000
181.049500 18.000000
181.066350 507.000000
182.068360 107.000000
183.067950 24.000000
183.081620 15.000000
183.107740 15.000000
184.049120 23.000000
184.079540 12.000000
185.057940 19.000000
193.071150 27.000000
194.069090 31.000000
195.057850 20.000000
195.086410 12.000000
196.060030 16.000000
197.048570 13.000000
197.059110 48.000000
198.061710 16.000000
209.060850 15.000000
210.062760 15.000000
210.080670 16.000000
211.072450 16.000000
226.063510 14.000000

>ms2peaks
77.037170 7.000000
91.053100 32.000000
92.056640 7.000000
103.053900 6.000000
105.069440 46.000000
106.074040 6.000000
107.047460 21.000000
111.043400 26.000000
119.039010 8.000000
119.048450 31.000000
121.062550 18.000000
131.048310 6.000000
133.065220 105.000000
134.062500 6.000000
134.070010 15.000000
135.041640 8.000000
135.075780 13.000000
137.052570 7.000000
137.060180 36.000000
138.065410 9.000000
145.065930 17.000000
146.073560 7.000000
149.057310 33.000000
151.051590 5.000000
151.072690 12.000000
152.059940 17.000000
153.059510 7.000000
153.066710 17.000000
154.076510 6.000000
155.087740 10.000000
159.082790 17.000000
163.073500 11.000000
165.066240 44.000000
165.078830 11.000000
166.072460 15.000000
166.082060 13.000000
167.081010 6.000000
169.063550 6.000000
171.078660 22.000000
176.059400 6.000000
178.077470 6.000000
181.057400 18.000000
181.065220 53.000000
182.071670 37.000000
183.078830 22.000000
184.042890 5.000000
193.065080 10.000000
194.065440 7.000000
197.055300 8.000000
197.096660 13.000000
199.073840 20.000000
209.054580 7.000000
209.096190 6.000000
210.065730 35.000000
211.064120 6.000000
211.075780 26.000000
212.044450 5.000000
212.081010 6.000000
213.093080 9.000000
224.088560 16.000000
225.092760 47.000000
226.096130 44.000000
227.075870 20.000000
227.106610 13.000000
239.107590 8.000000
241.082290 7.000000
241.093220 6.000000
242.093110 51.000000
243.104370 6.000000
255.099470 8.000000
256.108460 79.000000
257.116390 1000.000000
257.165560 6.000000

>ms2peaks
111.041470 6.000000
133.064160 8.000000
225.088350 6.000000
256.109100 81.000000
257.116730 1000.000000
257.161770 18.000000

>ms2peaks
55.017960 21.000000
56.037990 6.000000
63.204780 6.000000
64.517730 7.000000
66.040790 8.000000
68.991090 8.000000
77.032960 21.000000
77.038670 46.000000
79.021070 11.000000
79.040760 7.000000
79.054090 46.000000
79.059300 20.000000
85.027950 10.000000
91.051030 213.000000
91.056630 134.000000
91.658400 6.000000
92.059680 32.000000
92.916550 7.000000
93.028490 7.000000
94.030270 8.000000
95.049030 7.000000
95.080810 7.000000
99.040050 7.000000
101.103500 6.000000
102.043720 7.000000
103.054580 213.000000
104.058740 14.000000
105.028400 14.000000
105.033680 7.000000
105.067260 198.000000
105.072220 275.000000
105.134440 7.000000
106.063550 13.000000
106.069640 21.000000
106.074940 35.000000
106.959410 7.000000
107.035480 6.000000
107.048650 216.000000
108.046490 10.000000
108.056910 31.000000
108.360090 7.000000
109.032710 6.000000
109.064460 72.000000
109.073140 8.000000
109.612340 6.000000
110.038890 8.000000
111.039330 7.000000
111.050030 11.000000
113.045320 6.000000
115.051210 15.000000
116.049900 6.000000
117.061640 14.000000
117.068340 14.000000
118.040290 48.000000
119.048480 165.000000
120.058260 94.000000
121.028430 131.000000
121.039760 9.000000
121.050250 20.000000
121.064090 316.000000
121.596630 12.000000
122.032220 16.000000
122.039550 9.000000
122.068500 18.000000
123.036870 8.000000
123.047100 7.000000
123.065750 8.000000
123.089900 9.000000
124.048440 16.000000
124.057720 14.000000
124.080240 8.000000
124.189870 13.000000
125.050390 19.000000
125.055180 8.000000
126.073610 10.000000
127.047540 15.000000
127.054960 21.000000
128.064130 39.000000
129.069020 7.000000
129.324810 6.000000
130.044750 6.000000
131.048890 34.000000
131.084140 11.000000
132.049940 8.000000
133.015200 8.000000
133.031370 58.000000
133.054060 22.000000
133.065520 167.000000
134.030400 8.000000
134.040190 18.000000
135.043580 44.000000
135.065110 7.000000
135.077800 129.000000
136.075580 14.000000
137.059330 168.000000
137.071620 12.000000
138.051740 10.000000
138.060970 38.000000
138.069240 87.000000
138.395860 13.000000
139.073090 9.000000
141.068050 91.000000
141.079940 41.000000
142.073790 11.000000
142.087690 9.000000
143.086300 49.000000
143.524950 8.000000
144.083740 6.000000
144.092500 11.000000
145.033260 6.000000
145.056200 10.000000
145.067020 43.000000
146.595090 7.000000
147.035680 8.000000
147.044480 8.000000
147.826480 8.000000
148.052440 53.000000
149.024960 12.000000
149.035750 6.000000
149.048890 21.000000
149.062620 191.000000
150.056610 30.000000
150.066500 29.000000
151.038280 6.000000
151.053390 34.000000
151.069690 20.000000
151.078170 25.000000
151.785950 6.000000
152.050380 14.000000
152.060710 93.000000
152.069700 21.000000
152.953050 7.000000
153.061110 31.000000
153.068220 159.000000
153.078810 23.000000
154.066070 17.000000
154.078640 104.000000
154.091370 6.000000
155.041920 9.000000
155.049270 7.000000
155.081020 58.000000
155.090960 16.000000
155.098820 7.000000
155.107910 7.000000
156.058120 11.000000
156.080570 17.000000
157.060700 47.000000
157.068850 33.000000
157.147030 7.000000
158.069110 14.000000
159.076190 14.000000
160.082460 6.000000
161.064240 17.000000
162.061420 7.000000
162.541640 7.000000
163.025890 7.000000
163.052830 7.000000
163.060940 8.000000
163.069050 7.000000
163.075090 9.000000
164.041990 6.000000
164.055480 18.000000
164.064510 59.000000
164.976440 7.000000
165.070240 698.000000
166.057540 12.000000
166.068280 62.000000
166.077550 195.000000
167.043960 10.000000
167.086090 135.000000
167.930560 6.000000
168.057680 6.000000
168.064250 9.000000
168.085800 25.000000
168.747180 9.000000
169.048480 9.000000
169.065030 64.000000
169.080470 8.000000
169.090790 19.000000
169.103900 22.000000
169.728780 11.000000
170.062500 9.000000
170.074340 9.000000
171.043170 7.000000
171.053760 9.000000
171.073290 105.000000
171.083920 71.000000
172.076640 7.000000
172.089690 7.000000
173.050580 7.000000
174.071270 6.000000
176.068650 34.000000
177.056430 17.000000
177.072190 77.000000
178.069020 62.000000
178.077240 112.000000
179.085280 106.000000
179.105940 7.000000
180.061200 7.000000
180.088230 15.000000
180.926790 8.000000
181.031570 14.000000
181.043880 20.000000
181.065290 1000.000000
181.387210 7.000000
181.412350 6.000000
182.042560 7.000000
182.071150 435.000000
182.091050 11.000000
182.519070 8.000000
183.065830 33.000000
183.077990 116.000000
183.087910 82.000000
183.521270 9.000000
184.071290 7.000000
184.081360 30.000000
184.090450 8.000000
185.055950 20.000000
185.062990 20.000000
185.086320 9.000000
185.107730 7.000000
186.056750 9.000000
186.164370 7.000000
186.820770 9.000000
187.057370 9.000000
187.072040 28.000000
187.081210 17.000000
188.089290 7.000000
189.069500 9.000000
189.080660 14.000000
189.096010 8.000000
192.059400 8.000000
192.067310 6.000000
193.067810 100.000000
194.042860 9.000000
194.070920 244.000000
194.080840 42.000000
195.042890 7.000000
195.051240 6.000000
195.076400 106.000000
195.085850 32.000000
196.078660 6.000000
196.092300 24.000000
197.040040 9.000000
197.061190 116.000000
197.088930 31.000000
197.102690 52.000000
198.047180 7.000000
198.068620 17.000000
198.078630 9.000000
198.096330 20.000000
199.053910 23.000000
199.075670 381.000000
200.067700 7.000000
200.079470 51.000000
201.079470 13.000000
201.087940 49.000000
201.099170 14.000000
205.065120 8.000000
206.067550 14.000000
207.073790 12.000000
207.084140 33.000000
208.087750 24.000000
208.108840 12.000000
209.057830 127.000000
209.075640 7.000000
209.090360 14.000000
209.099780 16.000000
209.341720 6.000000
209.505000 10.000000
210.045350 11.000000
210.068630 400.000000
210.093770 7.000000
211.074200 616.000000
212.082530 67.000000
213.057660 9.000000
213.070980 14.000000
213.085360 118.000000
213.099690 52.000000
214.092350 25.000000
214.102140 22.000000
215.097960 6.000000
215.106770 7.000000
216.089970 11.000000
221.936200 7.000000
223.075440 6.000000
224.086990 60.000000
225.061570 16.000000
225.077270 25.000000
225.091630 210.000000
226.060780 10.000000
226.078460 23.000000
226.098750 157.000000
226.115910 21.000000
226.758740 8.000000
227.056490 45.000000
227.071870 218.000000
227.089490 11.000000
227.102450 38.000000
228.069470 34.000000
228.086000 17.000000
228.094410 8.000000
229.077840 7.000000
229.102950 8.000000
233.384810 8.000000
239.115010 7.000000
240.083600 20.000000
241.085020 209.000000
242.067470 6.000000
242.094680 259.000000
242.345790 9.000000
243.090090 24.000000
243.101330 24.000000
243.113250 7.000000
244.102390 6.000000
245.087310 7.000000
250.596760 10.000000
254.096760 8.000000
255.080370 6.000000
256.113980 14.000000
257.122920 7.000000

>ms2peaks
65.039990 57.000000
75.026460 11.000000
77.029250 11.000000
77.039270 115.000000
78.041290 13.000000
79.050600 43.000000
85.026100 15.000000
90.046110 48.000000
90.657920 10.000000
91.053060 113.000000
91.057240 77.000000
91.067520 15.000000
91.481040 12.000000
92.026630 16.000000
92.058450 12.000000
93.030820 12.000000
102.051800 15.000000
103.056310 72.000000
104.060800 13.000000
105.028680 33.000000
105.031590 13.000000
105.042090 11.000000
105.062980 14.000000
105.071260 50.000000
106.044810 10.000000
107.050370 180.000000
113.036930 14.000000
115.053810 168.000000
115.064580 16.000000
116.050780 18.000000
116.058300 36.000000
117.069510 15.000000
118.037360 18.000000
118.044110 11.000000
119.038890 15.000000
119.049640 56.000000
120.064480 16.000000
121.030980 27.000000
121.058430 19.000000
121.065510 27.000000
123.041130 10.000000
126.049680 12.000000
127.054180 150.000000
128.054500 38.000000
128.063250 269.000000
129.068300 43.000000
130.039730 14.000000
131.045530 46.000000
133.024080 41.000000
133.056410 12.000000
134.038190 17.000000
139.003280 13.000000
139.054030 62.000000
139.061260 13.000000
140.046740 21.000000
140.067000 23.000000
141.070100 132.000000
141.080810 9.000000
141.293240 16.000000
142.040600 31.000000
142.070890 22.000000
143.041810 12.000000
143.051590 12.000000
143.090240 16.000000
144.049640 15.000000
144.057920 38.000000
150.060200 16.000000
151.055920 91.000000
151.152040 13.000000
152.027330 12.000000
152.062180 1000.000000
152.077760 15.000000
153.069930 619.000000
154.072310 113.000000
155.046250 44.000000
155.086850 10.000000
155.094450 10.000000
156.052960 18.000000
157.049960 15.000000
157.064010 99.000000
157.607120 10.000000
159.087630 15.000000
163.049960 34.000000
163.058270 27.000000
164.052060 68.000000
164.061190 127.000000
165.035080 30.000000
165.067790 578.000000
166.067700 46.000000
166.076840 73.000000
166.087750 14.000000
167.046510 14.000000
167.088960 12.000000
169.060470 60.000000
169.073380 12.000000
170.067180 13.000000
170.075300 13.000000
171.041750 11.000000
171.049930 14.000000
171.076840 40.000000
176.061170 65.000000
177.063810 37.000000
178.075200 63.000000
178.081670 21.000000
178.585370 12.000000
181.035660 16.000000
181.057020 131.000000
181.064610 432.000000
182.046200 24.000000
182.052550 14.000000
182.070130 97.000000
183.071960 29.000000
183.078950 16.000000
184.042210 30.000000
184.073970 10.000000
191.042020 12.000000
193.066350 11.000000
194.067430 40.000000
195.066770 20.000000
197.052050 16.000000
198.060650 34.000000
198.069960 54.000000
207.089780 12.000000
209.057300 17.000000
209.067890 16.000000
210.070680 37.000000
211.016660 13.000000
211.078410 12.000000
212.073460 11.000000
226.061370 26.000000

>ms2peaks
91.053250 15.000000
103.055400 10.000000
105.070470 58.000000
107.050090 21.000000
108.053980 5.000000
111.043740 34.000000
113.060270 6.000000
119.049130 20.000000
119.053340 8.000000
120.054420 15.000000
121.027580 7.000000
121.063580 27.000000
133.064060 95.000000
134.069020 13.000000
135.043370 14.000000
135.078640 7.000000
137.058490 35.000000
138.061220 11.000000
145.063710 23.000000
148.054760 9.000000
149.058820 20.000000
150.065110 7.000000
151.076740 10.000000
152.060300 13.000000
153.068070 15.000000
154.080140 8.000000
157.062850 10.000000
159.078610 15.000000
164.086910 5.000000
165.069350 46.000000
166.075930 18.000000
169.095050 6.000000
171.073240 6.000000
176.070400 6.000000
177.069050 7.000000
179.087040 7.000000
181.063400 64.000000
182.070110 49.000000
183.080400 12.000000
184.051450 6.000000
194.070470 8.000000
195.075000 12.000000
195.081760 6.000000
197.061160 5.000000
197.094740 14.000000
199.074110 25.000000
199.083070 11.000000
209.056840 5.000000
210.061310 18.000000
210.068510 37.000000
211.074690 30.000000
213.083020 6.000000
224.083130 8.000000
224.093810 12.000000
225.088930 46.000000
226.095490 18.000000
226.104810 16.000000
229.120100 8.000000
239.109040 8.000000
241.081890 8.000000
242.097490 43.000000
243.096530 9.000000
255.094970 12.000000
256.109190 48.000000
257.117250 1000.000000
257.163820 11.000000

>ms2peaks
256.108250 62.000000
257.116300 1000.000000
257.161680 12.000000

>ms2peaks
52.986340 8.000000
55.020810 11.000000
68.997570 10.000000
77.036870 21.000000
77.041440 18.000000
77.047010 11.000000
77.938340 13.000000
78.166280 9.000000
79.048000 9.000000
79.055210 30.000000
85.031520 15.000000
89.040790 10.000000
90.049670 8.000000
91.004920 17.000000
91.053480 253.000000
92.026860 11.000000
92.052350 13.000000
92.060190 9.000000
93.034690 8.000000
95.044730 11.000000
99.048130 9.000000
102.045630 11.000000
103.029850 10.000000
103.053540 201.000000
104.718580 8.000000
105.029750 8.000000
105.070520 419.000000
106.063420 9.000000
106.071890 10.000000
106.080540 9.000000
107.041480 37.000000
107.047740 144.000000
107.053520 46.000000
108.053630 60.000000
108.061280 9.000000
108.571350 11.000000
109.060130 10.000000
111.043470 8.000000
115.048680 8.000000
115.055020 28.000000
116.056110 8.000000
117.070070 32.000000
118.021350 13.000000
118.042180 9.000000
119.043790 72.000000
119.051130 136.000000
120.049100 12.000000
120.058210 57.000000
121.028610 163.000000
121.065000 213.000000
121.623790 15.000000
122.032950 22.000000
122.036920 9.000000
122.068880 31.000000
123.044580 20.000000
123.069970 12.000000
124.052280 38.000000
124.070860 8.000000
125.061500 8.000000
127.055330 63.000000
127.074710 13.000000
128.052380 15.000000
128.061370 18.000000
129.063080 32.000000
130.080140 10.000000
131.047840 54.000000
131.080320 10.000000
131.086760 10.000000
132.054320 8.000000
132.059780 19.000000
132.139560 8.000000
133.020140 8.000000
133.029010 77.000000
133.060170 49.000000
133.069410 101.000000
134.026090 16.000000
134.070740 17.000000
134.078340 9.000000
135.027070 10.000000
135.036070 8.000000
135.043790 30.000000
135.067150 10.000000
135.078830 84.000000
135.085310 23.000000
135.834720 8.000000
136.046400 14.000000
136.082050 19.000000
136.364500 8.000000
137.059560 63.000000
138.064470 104.000000
139.056930 9.000000
139.074010 48.000000
140.082630 8.000000
140.912840 12.000000
141.068330 18.000000
141.074070 54.000000
143.080840 18.000000
143.087680 13.000000
144.058560 9.000000
145.033080 9.000000
145.066590 28.000000
148.044890 9.000000
148.054610 28.000000
149.056930 48.000000
150.031190 12.000000
150.043580 9.000000
150.058470 9.000000
151.032200 8.000000
151.056340 27.000000
151.072450 47.000000
151.080230 25.000000
152.034030 16.000000
152.061400 53.000000
152.829530 12.000000
153.046100 8.000000
153.055010 11.000000
153.068920 197.000000
154.076780 160.000000
155.087630 73.000000
156.053210 20.000000
156.094220 13.000000
156.498110 8.000000
157.065840 97.000000
157.668380 13.000000
158.065540 11.000000
158.074800 12.000000
159.050320 8.000000
159.076350 44.000000
159.084610 46.000000
160.071500 9.000000
160.493590 14.000000
161.363190 10.000000
162.067960 11.000000
164.066530 40.000000
164.079640 12.000000
164.384740 9.000000
164.445850 8.000000
164.476850 13.000000
164.754200 13.000000
165.025940 11.000000
165.042740 9.000000
165.069930 716.000000
165.211700 8.000000
165.522630 9.000000
165.559020 8.000000
166.074260 137.000000
166.197560 11.000000
166.624890 9.000000
167.079190 61.000000
167.087660 77.000000
168.051910 8.000000
168.086460 12.000000
168.096330 8.000000
169.056520 24.000000
169.071910 17.000000
170.066090 8.000000
170.075710 29.000000
171.052470 18.000000
171.080410 162.000000
172.076130 9.000000
172.093340 11.000000
174.061970 16.000000
176.056200 30.000000
177.055450 17.000000
177.074570 73.000000
178.071560 53.000000
178.079390 86.000000
179.085370 120.000000
180.044600 8.000000
180.059110 16.000000
181.064960 1000.000000
182.038010 9.000000
182.070820 494.000000
183.078380 323.000000
183.258930 9.000000
184.053300 10.000000
184.078160 29.000000
184.131030 9.000000
185.053910 10.000000
185.069460 11.000000
185.095790 10.000000
186.108930 12.000000
186.929500 8.000000
187.073940 19.000000
189.091980 11.000000
192.056290 60.000000
193.063640 60.000000
193.074250 21.000000
194.068770 29.000000
194.078700 118.000000
195.076520 122.000000
195.086290 76.000000
196.035140 11.000000
196.051610 8.000000
196.087590 92.000000
196.103930 17.000000
197.042250 15.000000
197.052980 47.000000
197.068240 22.000000
197.087070 22.000000
197.098570 83.000000
198.067210 70.000000
198.092130 8.000000
198.100510 9.000000
198.755050 9.000000
199.001680 15.000000
199.074230 328.000000
200.079560 56.000000
207.082610 12.000000
208.045350 13.000000
208.073170 8.000000
208.087860 22.000000
208.098770 8.000000
209.059840 118.000000
209.100420 26.000000
210.068420 379.000000
210.099320 13.000000
211.072590 531.000000
212.056790 8.000000
212.075210 45.000000
212.084090 27.000000
213.052580 9.000000
213.088620 139.000000
213.099270 26.000000
214.100100 28.000000
216.073880 11.000000
216.104030 9.000000
222.055420 8.000000
222.070430 17.000000
223.069600 10.000000
224.074370 34.000000
224.087550 49.000000
225.030590 9.000000
225.082670 67.000000
225.093320 109.000000
226.070190 31.000000
226.102230 220.000000
227.025560 14.000000
227.041230 11.000000
227.071530 225.000000
227.102910 9.000000
228.076580 9.000000
234.405110 8.000000
239.101850 10.000000
240.086720 9.000000
240.896040 9.000000
241.072540 20.000000
241.089110 163.000000
241.662230 8.000000
242.093900 231.000000
243.086960 8.000000
243.097640 23.000000
244.099410 10.000000
257.110470 27.000000

>ms2peaks
51.026210 21.000000
68.992910 18.000000
75.023410 22.000000
77.039650 198.000000
78.043140 21.000000
78.047360 27.000000
79.051550 17.000000
89.038070 23.000000
90.004460 17.000000
91.042180 17.000000
91.055790 155.000000
92.027010 29.000000
93.029760 41.000000
94.041260 24.000000
98.042640 19.000000
102.039730 23.000000
103.051600 94.000000
103.889010 26.000000
105.030090 21.000000
105.069310 49.000000
105.074670 59.000000
107.035640 28.000000
107.051920 44.000000
108.050820 46.000000
114.045600 18.000000
115.054530 147.000000
118.038560 50.000000
118.048100 20.000000
119.053530 36.000000
120.063870 26.000000
121.022330 17.000000
121.031400 26.000000
121.060160 40.000000
121.069670 19.000000
127.047810 53.000000
127.056110 201.000000
128.048710 30.000000
128.060500 462.000000
128.075030 61.000000
129.057570 18.000000
129.068410 116.000000
131.052430 82.000000
133.064800 22.000000
134.034240 20.000000
139.056500 17.000000
140.063840 59.000000
140.960710 22.000000
141.070720 162.000000
142.035460 22.000000
142.072970 26.000000
143.088530 20.000000
144.050580 44.000000
144.054640 18.000000
144.091540 19.000000
145.055250 18.000000
150.048950 40.000000
151.001190 19.000000
151.047290 26.000000
151.056120 65.000000
152.043620 20.000000
152.061650 872.000000
152.094390 24.000000
153.069750 662.000000
153.075820 176.000000
153.828580 21.000000
154.062710 54.000000
154.072530 97.000000
154.086760 42.000000
155.076630 24.000000
155.087460 47.000000
156.051640 17.000000
156.058170 24.000000
156.084850 20.000000
157.061830 59.000000
158.063340 20.000000
163.047530 23.000000
163.057650 68.000000
164.055510 21.000000
164.060420 61.000000
164.067610 37.000000
165.045240 21.000000
165.053420 47.000000
165.070180 1000.000000
165.534300 26.000000
166.064010 21.000000
166.076690 60.000000
167.078950 37.000000
168.053160 45.000000
169.054790 17.000000
169.067290 18.000000
170.070510 92.000000
170.083220 37.000000
171.078640 103.000000
171.086040 59.000000
176.060640 65.000000
177.078630 32.000000
178.075440 101.000000
179.077700 20.000000
180.048550 36.000000
181.035770 38.000000
181.065060 760.000000
181.131330 21.000000
182.070050 107.000000
182.356260 18.000000
183.068540 21.000000
183.084660 28.000000
184.040530 59.000000
192.054890 19.000000
193.873200 18.000000
195.052340 21.000000
195.079280 59.000000
197.055160 34.000000
200.088650 17.000000
203.734950 39.000000
209.100250 17.000000
210.051250 21.000000
210.069110 24.000000
211.037170 33.000000
212.081730 17.000000
213.060520 21.000000
246.906190 31.000000
253.548400 27.000000
254.048980 20.000000

