>compound PR78614286
>parentmass 579.1344
>ionization [M+H]+
>formula C26H26O15
>rt 294.600000
>profile qtof
#smiles_iso COC1=CC(=CC(=C1O)OC)C2=CC(=O)C3=C(C=C(C=C3O2)OC4C(C(C(C(O4)COC(=O)CC(=O)O)O)O)O)O
#smiles_can COC1=CC(=CC(=C1O)OC)C2=CC(=O)C3=C(C=C(C=C3O2)OC4C(C(C(C(O4)COC(=O)CC(=O)O)O)O)O)O
#inchikey KAJUQFNDHKZYAG-UHFFFAOYSA-N
#pubchem_id 139291922
#mb_accession PR310961

>ms2
169.089780 24.000000
210.489360 16.000000
213.504670 16.000000
256.077700 18.000000
287.051420 48.000000
312.062710 18.000000
317.054630 21.000000
330.959990 17.000000
331.059080 81.000000
331.082310 1584.000000
332.062810 20.000000
332.079900 63.000000
332.093720 142.000000
333.058870 39.000000
333.073060 43.000000
333.094300 69.000000
493.112520 24.000000
493.130400 18.000000
493.155400 21.000000
535.158870 34.000000
561.148440 17.000000
565.188900 17.000000
578.112370 24.000000
578.927000 19.000000
579.109310 147.000000
579.142150 815.000000

