>compound PR78844150
>parentmass 287.05501415384623
>ionization [M+H]+
>formula C15H10O6
>rt 320.144289
>profile qtof
#smiles_iso C1=CC(=C(C=C1C2=CC(=O)C3=C(C=C(C=C3O2)O)O)O)O
#smiles_can C1=CC(=C(C=C1C2=CC(=O)C3=C(C=C(C=C3O2)O)O)O)O
#inchikey IQPNAANSBPBGFQ-UHFFFAOYSA-N
#pubchem_id 5280445
#mb_accession PR302214,PR302219,PR302224,PR302229,PR302234,PR302239,PR302244,PR302249,PR302254,PR302259,PR302264,PR302269,PR310942

>ms2
117.032560 17.000000
135.042180 25.000000
153.017290 95.000000
153.023560 31.000000
161.025250 15.000000
269.039150 5.000000
287.014070 7.000000
287.054660 1000.000000

>ms2
287.006470 6.000000
287.054630 1000.000000
287.103270 13.000000

>ms2
67.018950 19.000000
68.991370 7.000000
68.996640 18.000000
79.052770 7.000000
89.040250 20.000000
97.027690 6.000000
107.050760 11.000000
111.006690 22.000000
111.995630 6.000000
115.055790 9.000000
117.033620 48.000000
118.038090 6.000000
128.058140 7.000000
129.068020 10.000000
129.080870 6.000000
135.011150 13.000000
135.044560 182.000000
136.036100 15.000000
137.024550 49.000000
140.840390 6.000000
141.067340 6.000000
143.047810 5.000000
144.050740 8.000000
147.043460 11.000000
153.018140 581.000000
154.020900 40.000000
154.025990 19.000000
155.021610 7.000000
156.031270 5.000000
157.064770 16.000000
161.023190 84.000000
162.029570 11.000000
171.046860 13.000000
179.031890 43.000000
185.061080 17.000000
189.052310 8.000000
195.041500 8.000000
199.041020 9.000000
201.063460 9.000000
203.022930 10.000000
203.039080 10.000000
203.071380 7.000000
212.038280 5.000000
212.050090 6.000000
213.049700 18.000000
213.061100 6.000000
218.061680 7.000000
223.035480 10.000000
224.031540 7.000000
241.046880 76.000000
242.066590 11.000000
245.047880 7.000000
258.058650 8.000000
259.054260 7.000000
269.038670 43.000000
270.043790 9.000000
286.813690 6.000000
287.024480 15.000000
287.054690 1000.000000

>ms2
63.024320 42.000000
67.019550 241.000000
68.996690 379.000000
69.029420 38.000000
69.626580 31.000000
71.241320 30.000000
77.037410 82.000000
79.051960 154.000000
81.024620 70.000000
81.034010 101.000000
82.037260 58.000000
87.020930 175.000000
89.028910 68.000000
89.035670 355.000000
89.041480 530.000000
90.003130 37.000000
90.033600 30.000000
90.041220 44.000000
91.008480 51.000000
91.012830 42.000000
91.058520 61.000000
97.029380 86.000000
98.031920 45.000000
107.048160 63.000000
109.028260 45.000000
110.741080 33.000000
110.997250 58.000000
111.012920 38.000000
111.038480 65.000000
115.014810 52.000000
115.031680 68.000000
115.042180 44.000000
115.052160 51.000000
115.058820 73.000000
117.028640 166.000000
117.035980 79.000000
117.042220 56.000000
118.027050 40.000000
121.023540 42.000000
123.019140 38.000000
125.038790 49.000000
127.052610 44.000000
127.059510 75.000000
128.055510 65.000000
128.061170 178.000000
129.072880 35.000000
130.482880 44.000000
131.050400 38.000000
131.555280 47.000000
133.021190 45.000000
133.030240 37.000000
135.008180 63.000000
135.046140 163.000000
136.020450 35.000000
137.020360 198.000000
139.047940 115.000000
139.057690 234.000000
140.020610 51.000000
140.059660 107.000000
143.009610 37.000000
145.068880 98.000000
147.905700 61.000000
152.057830 49.000000
153.018800 1000.000000
153.035640 66.000000
155.022080 91.000000
155.047300 47.000000
155.061360 77.000000
157.019200 56.000000
161.014720 30.000000
161.025710 288.000000
171.049820 150.000000
174.030720 35.000000
179.034520 77.000000
184.038010 42.000000
187.036640 105.000000
204.038150 35.000000
205.372100 42.000000
211.043910 49.000000
212.047550 37.000000
218.056500 42.000000
244.587310 30.000000

>ms2
117.035950 12.000000
135.044850 31.000000
153.013750 46.000000
153.021420 55.000000
241.050580 9.000000
286.989530 5.000000
287.016330 9.000000
287.055050 1000.000000
287.102840 9.000000

>ms2
287.012540 8.000000
287.054140 1000.000000
287.103300 17.000000

>ms2
67.016600 21.000000
67.022320 5.000000
68.998110 14.000000
107.006690 5.000000
107.051180 8.000000
109.031110 5.000000
111.008350 23.000000
111.042910 6.000000
117.034000 62.000000
117.066350 5.000000
125.017170 6.000000
125.026020 6.000000
128.068740 6.000000
135.043400 204.000000
136.045100 14.000000
137.013180 9.000000
137.024200 64.000000
138.027160 8.000000
139.060970 6.000000
147.042850 13.000000
152.990200 13.000000
153.018230 639.000000
154.014040 6.000000
154.023510 34.000000
157.065980 12.000000
161.023330 62.000000
162.026410 16.000000
171.043470 15.000000
177.061200 5.000000
179.034360 22.000000
185.056920 8.000000
192.257390 5.000000
201.051100 7.000000
203.036450 6.000000
212.049410 10.000000
213.049840 25.000000
213.059520 9.000000
219.062440 13.000000
227.036330 5.000000
231.066280 9.000000
241.047150 65.000000
241.066820 9.000000
242.044600 5.000000
242.057220 9.000000
242.065410 5.000000
245.036160 8.000000
245.045240 7.000000
258.058990 8.000000
259.053710 7.000000
269.028590 10.000000
269.044710 48.000000
270.044190 5.000000
286.990600 6.000000
287.013520 8.000000
287.032410 12.000000
287.055690 1000.000000

>ms2
55.017200 18.000000
63.020790 24.000000
63.027650 43.000000
67.018040 250.000000
68.994290 180.000000
69.030950 18.000000
76.027510 16.000000
77.037520 48.000000
78.041340 78.000000
79.016490 28.000000
79.053490 106.000000
81.035710 31.000000
83.007040 26.000000
83.015040 29.000000
85.747390 23.000000
87.024020 177.000000
88.024890 32.000000
89.035380 288.000000
89.040640 299.000000
90.038970 32.000000
90.043730 41.000000
91.014250 36.000000
92.195190 16.000000
93.033600 21.000000
93.993580 30.000000
95.052570 37.000000
97.023610 24.000000
97.032140 25.000000
99.021900 50.000000
101.020500 24.000000
103.032920 47.000000
103.048400 27.000000
103.056930 40.000000
107.053600 17.000000
109.021400 23.000000
109.027960 60.000000
109.035450 63.000000
110.989020 18.000000
111.000410 31.000000
111.004600 18.000000
111.012890 27.000000
111.019440 39.000000
111.045930 39.000000
113.037570 23.000000
115.014110 58.000000
115.019880 53.000000
115.052790 130.000000
115.058800 57.000000
117.024920 32.000000
117.036100 71.000000
117.268510 33.000000
118.030170 20.000000
119.012240 25.000000
120.993760 18.000000
121.022920 42.000000
123.045920 22.000000
125.038260 60.000000
126.025900 19.000000
127.038120 16.000000
127.055280 87.000000
128.061290 329.000000
129.066350 23.000000
129.071370 55.000000
131.047740 33.000000
133.028110 51.000000
134.037600 19.000000
135.044890 67.000000
137.019930 47.000000
137.027050 81.000000
137.041440 37.000000
139.007840 25.000000
139.042850 43.000000
139.055160 489.000000
140.063670 47.000000
140.115160 15.000000
141.061360 24.000000
142.032580 18.000000
142.999830 23.000000
143.052380 46.000000
145.030590 40.000000
145.059570 43.000000
146.045070 18.000000
147.038730 17.000000
147.045670 45.000000
148.046220 43.000000
149.037090 16.000000
150.023570 32.000000
150.048630 18.000000
152.836140 16.000000
153.003140 48.000000
153.018330 1000.000000
153.036640 16.000000
153.393590 19.000000
154.021350 128.000000
155.055020 88.000000
157.017670 45.000000
157.031510 16.000000
157.061260 20.000000
157.074630 25.000000
159.047620 19.000000
160.058200 25.000000
160.995390 18.000000
161.013170 21.000000
161.026000 203.000000
162.027560 35.000000
163.031080 18.000000
165.021190 18.000000
167.047900 78.000000
171.038180 101.000000
171.053990 20.000000
174.035190 27.000000
183.047820 16.000000
184.051830 41.000000
185.020190 40.000000
185.061040 43.000000
186.027980 18.000000
187.040190 18.000000
195.037990 40.000000
203.039520 15.000000
203.740040 18.000000
212.019320 40.000000
213.039980 31.000000
213.049930 15.000000
229.052860 22.000000
241.044690 18.000000
242.049760 19.000000
244.247340 25.000000
245.049790 32.000000
258.054660 24.000000
268.026490 17.000000
287.043850 62.000000

>ms2
67.016750 7.000000
89.040620 6.000000
117.034160 6.000000
135.044420 29.000000
137.019330 5.000000
153.018590 92.000000
154.022510 5.000000
161.021390 9.000000
179.032180 6.000000
241.054240 7.000000
245.041290 5.000000
286.044070 7.000000
287.018280 7.000000
287.055020 1000.000000
287.107150 10.000000

>ms2
286.049290 5.000000
287.008970 14.000000
287.054110 1000.000000
287.102230 15.000000

>ms2
67.020070 25.000000
68.995530 25.000000
68.999950 10.000000
77.032740 6.000000
89.039300 25.000000
95.049330 5.000000
107.048830 14.000000
109.027790 21.000000
111.010740 19.000000
115.049700 9.000000
115.058700 5.000000
117.030960 34.000000
117.039400 15.000000
118.032890 7.000000
124.049570 6.000000
125.029310 12.000000
129.069210 8.000000
131.053330 6.000000
135.043990 227.000000
136.044570 12.000000
137.021960 70.000000
139.058090 5.000000
147.032210 6.000000
153.017900 709.000000
154.022920 35.000000
155.044710 5.000000
157.064270 9.000000
161.023160 59.000000
163.037780 5.000000
171.038960 9.000000
171.053330 8.000000
179.023180 14.000000
179.033680 20.000000
185.048370 6.000000
185.059690 24.000000
189.050570 6.000000
195.046830 13.000000
203.033250 6.000000
203.065230 8.000000
212.057400 13.000000
213.052760 29.000000
219.064640 9.000000
227.047100 6.000000
229.050310 6.000000
230.060260 6.000000
241.002550 6.000000
241.039180 31.000000
241.050310 64.000000
242.040450 9.000000
242.055360 15.000000
245.044240 13.000000
245.061650 11.000000
258.054320 7.000000
259.049010 6.000000
269.040370 55.000000
269.051610 24.000000
270.053340 14.000000
286.993870 6.000000
287.015260 22.000000
287.054660 1000.000000

>ms2
63.024900 151.000000
67.019360 294.000000
68.996870 350.000000
69.006150 46.000000
69.029010 60.000000
69.034330 82.000000
69.324580 35.000000
75.022260 30.000000
75.905240 32.000000
77.040270 299.000000
81.032330 242.000000
83.004920 67.000000
84.012700 65.000000
87.022540 82.000000
88.018570 65.000000
89.024570 67.000000
89.039360 1000.000000
90.036290 103.000000
91.051920 35.000000
92.056160 53.000000
97.031180 32.000000
99.025290 35.000000
99.033410 33.000000
101.028370 54.000000
101.040560 53.000000
108.016850 42.000000
109.026980 184.000000
111.029640 46.000000
114.044320 100.000000
115.014420 56.000000
115.039070 30.000000
115.049310 60.000000
115.055290 250.000000
117.031620 123.000000
117.039510 58.000000
118.007680 35.000000
118.029790 102.000000
119.851850 56.000000
125.026360 39.000000
126.040590 56.000000
127.032460 70.000000
127.045610 126.000000
127.058380 84.000000
128.060330 366.000000
128.077300 44.000000
129.034180 65.000000
129.067870 95.000000
129.689480 35.000000
132.061950 32.000000
133.027180 186.000000
133.063310 33.000000
135.004840 44.000000
135.043430 268.000000
136.048830 58.000000
137.022220 89.000000
137.046630 49.000000
139.054570 389.000000
140.057750 133.000000
140.066560 35.000000
143.010070 114.000000
143.014880 40.000000
144.053530 40.000000
147.040890 79.000000
148.052470 74.000000
153.016080 646.000000
153.023710 233.000000
153.040630 60.000000
157.022990 37.000000
157.071900 123.000000
158.065700 30.000000
159.050160 47.000000
161.018860 182.000000
161.029720 119.000000
165.008420 58.000000
165.034420 79.000000
166.044050 61.000000
167.028610 82.000000
167.049260 166.000000
168.059070 33.000000
171.039660 105.000000
171.048360 187.000000
172.045290 35.000000
181.019350 47.000000
184.054690 86.000000
185.054470 58.000000
186.042240 46.000000
186.057910 58.000000
186.075710 42.000000
195.046300 84.000000
195.057420 77.000000
212.053220 63.000000
213.054430 58.000000
230.069640 44.000000
258.058900 56.000000
260.050320 42.000000

>ms2
67.011160 25.000000
67.015980 22.000000
68.018400 29.000000
68.995600 52.000000
70.040380 41.000000
89.041360 92.000000
98.012530 29.000000
105.035280 27.000000
105.663100 17.000000
109.020260 28.000000
109.029660 42.000000
111.006280 98.000000
111.045910 35.000000
115.021700 30.000000
115.056240 33.000000
116.921710 23.000000
117.032560 359.000000
117.071690 17.000000
123.042030 39.000000
125.024540 22.000000
128.053530 39.000000
128.062580 40.000000
135.029750 40.000000
135.042180 540.000000
136.016490 23.000000
136.181120 19.000000
137.019390 93.000000
138.018660 24.000000
139.057720 33.000000
143.000490 19.000000
147.041170 23.000000
148.013700 20.000000
152.986370 28.000000
152.999440 42.000000
153.017290 2016.000000
153.023560 650.000000
153.244570 17.000000
154.027600 60.000000
157.024000 25.000000
157.050900 29.000000
157.061610 66.000000
159.046780 22.000000
161.025250 317.000000
161.976640 20.000000
162.032780 22.000000
163.017090 29.000000
163.030580 20.000000
167.049840 76.000000
170.063480 20.000000
171.033690 32.000000
171.042340 59.000000
173.043050 18.000000
175.073290 27.000000
179.015960 36.000000
179.023910 29.000000
179.035920 56.000000
180.031300 29.000000
182.444630 18.000000
182.702970 18.000000
182.725100 31.000000
183.535480 22.000000
184.559620 21.000000
184.920300 20.000000
185.057010 20.000000
186.069720 33.000000
186.606950 18.000000
188.127410 29.000000
192.008220 36.000000
193.550290 33.000000
195.045290 31.000000
195.248580 24.000000
197.064650 22.000000
197.530430 23.000000
200.045330 41.000000
200.548310 37.000000
200.992170 36.000000
201.055690 46.000000
203.033600 35.000000
205.717670 26.000000
210.945740 31.000000
212.045550 44.000000
212.591480 40.000000
213.050690 78.000000
219.051040 18.000000
219.063960 27.000000
219.072490 30.000000
227.035100 46.000000
227.286710 20.000000
229.029880 20.000000
229.057950 39.000000
241.048950 89.000000
242.051680 54.000000
242.061580 19.000000
245.046200 38.000000
245.056580 72.000000
246.069670 23.000000
246.937620 17.000000
252.024580 19.000000
255.158890 23.000000
258.056640 20.000000
259.047180 38.000000
259.341460 34.000000
266.331730 20.000000
269.004730 32.000000
269.039150 112.000000
269.061920 24.000000
276.228060 22.000000
279.374180 24.000000
285.257510 18.000000
286.044340 84.000000
286.110500 25.000000
286.621730 17.000000
286.947480 20.000000
286.965150 29.000000
286.992710 17.000000
287.014070 149.000000
287.054660 21250.000000
287.105290 96.000000
287.175380 18.000000

