>compound PR78981950
>parentmass 713.1575
>ionization [M+H]+
>formula C30H32O20
>rt 186.600000
>profile qtof
#smiles_iso C1=CC(=C(C=C1C2=C(C(=O)C3=C(C=C(C=C3O2)OC4C(C(C(C(O4)CO)O)O)O)O)OC5C(C(C(C(O5)COC(=O)CC(=O)O)O)O)O)O)O
#smiles_can C1=CC(=C(C=C1C2=C(C(=O)C3=C(C=C(C=C3O2)OC4C(C(C(C(O4)CO)O)O)O)O)OC5C(C(C(C(O5)COC(=O)CC(=O)O)O)O)O)O)O
#inchikey ZLQYEKDHCDLAGO-UHFFFAOYSA-N
#pubchem_id 74978238
#mb_accession PR310930

>ms2peaks
98.978910 17.000000
127.035580 37.000000
128.043660 28.000000
145.053700 44.000000
189.027440 18.000000
231.049090 25.000000
231.061140 26.000000
302.035370 23.000000
303.054230 1326.000000
304.051330 159.000000
304.622830 24.000000
306.409390 20.000000
327.034790 18.000000
351.052730 26.000000
369.050930 20.000000
412.078030 25.000000
455.799530 18.000000
463.084010 21.000000
463.871220 18.000000
464.096950 19.000000
464.728700 18.000000
465.092190 67.000000
465.104160 187.000000
465.124570 57.000000
466.096470 88.000000
466.115510 18.000000
467.087250 18.000000
467.129270 39.000000
471.075930 18.000000
523.290280 26.000000
533.076480 30.000000
533.100520 21.000000
551.103760 108.000000
552.101810 37.000000
557.106260 46.000000
577.152770 20.000000
697.153930 21.000000
711.181030 17.000000
713.107730 54.000000
713.141300 224.000000
713.162660 698.000000

