>compound PR78458679
>parentmass 232.1539
>ionization [M+H]+
>formula C11H21NO4
>rt 130.800000
>profile qtof
#smiles_iso CCCC(=O)OC(CC(=O)[O-])C[N+](C)(C)C
#smiles_can CCCC(=O)OC(CC(=O)[O-])C[N+](C)(C)C
#inchikey QWYFHHGCZUCMBN-UHFFFAOYSA-N
#pubchem_id 439829
#mb_accession PR311165

>ms2
85.029400 16.000000
86.066620 16.000000
135.029750 21.000000
148.084930 43.000000
182.079040 19.000000
193.935420 17.000000
232.150190 51.000000
232.160570 34.000000

