>compound PR78132172
>parentmass 147.0317
>ionization [M+H]+
>formula C6H10S2
>rt 384.600000
>profile qtof
#smiles_iso CC=CSSC=CC
#smiles_can CC=CSSC=CC
#inchikey FHSDVOJKLYJNCQ-UHFFFAOYSA-N
#pubchem_id 171311
#mb_accession PR311160

>ms2
73.012760 18.000000
105.068720 20.000000
106.976750 31.000000

