>compound PR78033057
>parentmass 295.2285
>ionization [M+H]+
>formula C18H30O3
>rt 602.400000
>profile qtof
#smiles_iso CCC=CCC=CCC1C(O1)CCCCCCCC(=O)O
#smiles_can CCC=CCC=CCC1C(O1)CCCCCCCC(=O)O
#inchikey JTEGNNHWOIJBJZ-UHFFFAOYSA-N
#pubchem_id 111585
#mb_accession PR310792

>ms2
99.086650 28.000000
137.102550 16.000000
139.118440 36.000000
173.136150 17.000000
173.921140 29.000000
179.145200 34.000000
241.195860 17.000000
277.207370 66.000000
277.216610 87.000000
295.206760 20.000000
295.225250 23.000000

