>compound PR79375202
>parentmass 287.09180000000003
>ionization [M+H]+
>formula C16H14O5
>rt 377.100000
>profile qtof
#smiles_iso COC1=CC(=C2C(=O)CC(OC2=C1)C3=CC=C(C=C3)O)O
#smiles_can COC1=CC(=C2C(=O)CC(OC2=C1)C3=CC=C(C=C3)O)O
#inchikey DJOJDHGQRNZXQQ-UHFFFAOYSA-N
#pubchem_id 348130
#mb_accession PR311000,PR311001

>ms2peaks
93.033070 17.000000
107.049390 45.000000
121.028450 21.000000
121.033580 17.000000
126.609310 31.000000
129.031750 43.000000
139.034470 19.000000
150.022720 20.000000
150.028990 18.000000
151.038360 21.000000
167.032620 19.000000
169.062090 29.000000
184.059430 22.000000
193.045240 79.000000
213.064290 21.000000
241.043880 27.000000
241.088380 21.000000
242.041430 69.000000
242.060520 127.000000
243.080600 21.000000
245.074390 54.000000
246.085740 20.000000
270.043240 30.000000
270.061250 26.000000
271.056400 24.000000
271.069670 19.000000
278.727050 18.000000
285.059200 26.000000
285.079250 64.000000
286.074220 61.000000
286.088620 15.000000
287.065890 55.000000
287.088410 298.000000
287.102020 130.000000

>ms2peaks
53.034910 29.000000
55.051870 23.000000
65.035430 31.000000
65.043720 39.000000
66.047050 36.000000
66.652040 23.000000
67.018530 167.000000
67.052910 25.000000
77.041420 21.000000
79.017400 28.000000
81.068630 18.000000
83.010650 33.000000
91.051690 271.000000
91.059230 116.000000
92.058610 52.000000
94.038340 45.000000
95.050560 81.000000
96.022530 86.000000
96.050270 17.000000
97.025000 23.000000
99.039440 15.000000
99.046290 60.000000
106.554350 45.000000
107.046190 122.000000
107.054160 34.000000
109.065620 17.000000
111.042480 326.000000
112.049710 21.000000
114.808710 34.000000
118.553860 28.000000
119.029910 39.000000
119.048130 1388.000000
119.065160 18.000000
120.043900 23.000000
120.053780 35.000000
121.029520 32.000000
121.054490 21.000000
123.009530 27.000000
123.042340 278.000000
124.013690 20.000000
125.017360 35.000000
132.999470 24.000000
137.056370 46.000000
138.026700 42.000000
139.037890 41.000000
147.019030 28.000000
147.044510 5163.000000
148.028060 18.000000
148.035190 61.000000
148.047910 552.000000
149.043950 39.000000
152.000610 40.000000
152.010530 95.000000
153.017910 18.000000
158.071950 21.000000
163.854190 25.000000
165.055890 157.000000
165.074940 31.000000
166.448030 17.000000
166.712750 18.000000
166.778240 17.000000
166.878510 20.000000
166.980820 18.000000
167.000260 17.000000
167.033890 10336.000000
168.037220 1161.000000
169.041200 140.000000
169.060460 54.000000
169.742810 21.000000
169.764920 18.000000
170.748700 28.000000
171.067900 19.000000
178.075180 17.000000
179.218320 19.000000
181.066020 149.000000
183.529480 26.000000
184.058720 28.000000
186.002940 18.000000
187.176240 20.000000
189.048610 39.000000
189.060580 61.000000
190.049940 47.000000
192.000370 18.000000
193.040270 43.000000
193.047390 47.000000
195.750790 20.000000
197.057890 20.000000
197.068220 32.000000
198.070760 19.000000
202.065990 20.000000
208.053880 17.000000
210.054000 20.000000
211.038060 24.000000
227.066500 25.000000
227.079850 21.000000
239.066060 20.000000
242.057270 30.000000
245.089170 54.000000
254.051560 24.000000
254.060520 29.000000
269.077240 20.000000
269.091280 83.000000
270.090520 20.000000
280.548190 18.000000
285.083400 66.000000
286.092070 25.000000
286.765990 24.000000
287.054170 98.000000
287.093320 18208.000000
287.142730 234.000000
287.185670 17.000000

