>compound PR79532910
>parentmass 223.06009990769232
>ionization [M+H]+
>formula C11H10O5
>rt 256.584000
>profile qtof
#smiles_iso COC1=C(C(=C2C(=C1)C=CC(=O)O2)OC)O
#smiles_can COC1=C(C(=C2C(=C1)C=CC(=O)O2)OC)O
#inchikey HOEVRHHMDJKUMZ-UHFFFAOYSA-N
#pubchem_id 5318565
#mb_accession PR303565,PR303566,PR303567,PR303568,PR303569,PR303570,PR303571,PR303572,PR303573,PR303574,PR303575,PR303576,PR310496

>ms2peaks
78.048440 21.000000
106.043950 15.000000
107.050510 39.000000
117.032000 9.000000
133.027240 24.000000
134.034620 38.000000
135.042450 17.000000
135.049770 10.000000
161.023710 10.000000
162.031050 122.000000
163.038180 61.000000
164.043170 10.000000
167.069400 5.000000
178.029750 9.000000
179.032090 34.000000
180.044270 7.000000
190.026670 111.000000
191.019740 6.000000
191.031980 12.000000
194.061550 5.000000
195.063370 11.000000
207.031080 43.000000
208.036060 79.000000
222.052760 23.000000
223.060870 1000.000000
223.103870 19.000000

>ms2peaks
222.052690 27.000000
223.059940 1000.000000
223.103130 28.000000

>ms2peaks
53.040070 6.000000
76.030930 25.000000
77.039110 42.000000
78.035900 25.000000
78.046360 282.000000
79.049840 35.000000
79.054540 35.000000
80.052250 7.000000
80.056740 6.000000
81.034940 23.000000
89.038360 28.000000
89.045200 11.000000
91.020520 8.000000
91.057230 18.000000
92.026440 19.000000
93.034360 18.000000
94.042070 25.000000
95.017300 7.000000
95.047360 6.000000
96.052310 10.000000
104.023870 13.000000
105.033520 161.000000
106.041030 241.000000
107.033680 15.000000
107.049230 349.000000
108.020740 20.000000
108.052570 45.000000
109.026550 6.000000
109.504230 5.000000
115.985020 5.000000
116.023920 34.000000
117.032670 90.000000
118.037910 33.000000
118.046390 14.000000
120.023330 26.000000
121.023350 16.000000
121.030350 15.000000
122.037960 22.000000
123.041730 59.000000
123.049970 14.000000
132.018650 40.000000
132.024170 12.000000
133.004320 6.000000
133.027400 218.000000
134.018230 7.000000
134.035570 502.000000
135.034440 18.000000
135.043500 133.000000
135.875290 5.000000
136.040920 5.000000
136.050890 10.000000
137.022080 29.000000
144.022670 29.000000
145.031310 12.000000
146.038380 11.000000
147.006270 11.000000
147.041170 7.000000
150.031940 72.000000
151.031770 7.000000
151.039350 20.000000
152.043810 11.000000
152.049760 35.000000
153.045700 10.000000
160.013730 13.000000
161.024080 145.000000
162.030490 1000.000000
163.036300 168.000000
164.037120 6.000000
165.015790 50.000000
165.022260 39.000000
167.069950 18.000000
167.077350 6.000000
172.017910 6.000000
178.000630 5.000000
178.026320 139.000000
179.034380 293.000000
180.027620 10.000000
180.039060 111.000000
181.048080 5.000000
190.025440 392.000000
191.029540 30.000000
191.044240 7.000000
193.012510 6.000000
194.009980 8.000000
205.003080 11.000000
207.027450 318.000000
207.909480 7.000000
208.029510 34.000000
208.039720 62.000000
209.040650 15.000000
223.061690 35.000000

>ms2peaks
50.917950 44.000000
52.031720 47.000000
66.044500 106.000000
66.328450 60.000000
67.050740 104.000000
68.998280 78.000000
76.030640 519.000000
77.035570 338.000000
77.041580 413.000000
78.038320 49.000000
78.045540 1000.000000
79.021180 68.000000
81.031070 106.000000
81.036220 200.000000
82.005670 52.000000
82.047370 49.000000
88.019480 62.000000
88.028250 158.000000
89.038660 319.000000
91.016370 114.000000
92.026420 239.000000
92.033290 75.000000
94.046450 44.000000
104.022320 52.000000
105.033460 748.000000
106.034620 52.000000
106.042500 81.000000
107.040840 52.000000
107.048680 94.000000
108.022350 55.000000
108.050750 91.000000
109.028110 132.000000
116.026280 281.000000
117.035420 130.000000
118.042610 164.000000
119.008720 55.000000
119.018300 52.000000
120.019160 68.000000
121.033870 166.000000
121.114580 44.000000
122.034800 114.000000
123.043340 358.000000
124.042910 62.000000
126.029500 60.000000
132.018140 166.000000
133.024490 156.000000
134.030990 332.000000
134.044430 83.000000
135.045680 169.000000
137.007690 55.000000
137.026720 52.000000
147.008580 161.000000
150.029270 174.000000
160.012850 47.000000
161.026430 104.000000
162.028780 122.000000
163.027280 65.000000
163.039230 62.000000
165.015260 119.000000
179.030120 70.000000
205.017110 153.000000

>ms2peaks
78.045600 13.000000
79.056930 5.000000
105.032990 11.000000
106.039210 8.000000
107.048000 48.000000
117.033390 11.000000
123.044560 13.000000
133.030010 16.000000
134.035310 21.000000
135.042140 34.000000
152.046880 5.000000
161.019210 9.000000
161.027690 6.000000
162.031570 108.000000
163.038380 54.000000
164.040100 7.000000
178.015590 6.000000
178.024770 12.000000
179.032990 46.000000
180.035580 11.000000
190.026260 117.000000
191.027730 11.000000
207.029270 52.000000
208.037320 97.000000
209.041600 9.000000
222.044420 8.000000
222.057590 15.000000
223.023350 5.000000
223.060610 1000.000000
223.104920 21.000000

>ms2peaks
222.052600 26.000000
223.060380 1000.000000
223.102920 24.000000

>ms2peaks
65.039560 6.000000
66.040660 6.000000
76.023830 12.000000
77.034610 37.000000
77.039010 45.000000
78.028650 14.000000
78.036350 12.000000
78.046170 256.000000
79.052850 64.000000
81.033160 20.000000
81.070960 10.000000
82.041860 11.000000
89.039750 37.000000
90.040490 7.000000
90.049950 5.000000
91.018230 5.000000
91.053040 18.000000
92.021360 9.000000
94.038910 34.000000
95.048360 8.000000
95.053840 5.000000
95.322800 6.000000
96.969200 5.000000
104.027600 29.000000
105.029020 35.000000
105.035210 74.000000
106.000600 14.000000
106.040680 258.000000
107.048000 349.000000
108.048420 19.000000
108.054950 56.000000
109.017730 5.000000
109.023480 22.000000
110.034240 8.000000
116.025780 42.000000
117.032500 79.000000
117.047630 8.000000
118.039580 19.000000
118.045640 20.000000
118.055670 9.000000
120.018170 28.000000
121.024670 22.000000
121.056450 6.000000
122.035290 17.000000
123.043500 141.000000
124.049960 9.000000
132.014250 17.000000
132.021180 34.000000
132.027600 27.000000
133.020920 27.000000
133.028900 180.000000
134.035230 409.000000
134.092580 6.000000
135.034650 36.000000
135.042590 137.000000
135.052400 26.000000
136.015500 6.000000
137.023220 37.000000
137.053470 10.000000
138.024540 9.000000
139.068600 5.000000
144.018660 45.000000
145.025310 9.000000
146.033690 8.000000
147.008240 14.000000
147.040740 7.000000
148.020550 6.000000
148.055830 6.000000
149.713820 5.000000
150.033220 99.000000
151.038410 85.000000
152.050640 19.000000
160.011510 6.000000
160.018200 12.000000
160.742710 5.000000
161.022280 100.000000
161.030760 37.000000
161.988510 6.000000
162.011180 9.000000
162.031420 1000.000000
163.036650 150.000000
164.034440 6.000000
165.013490 31.000000
165.021760 57.000000
165.047520 7.000000
166.020570 9.000000
167.071300 54.000000
172.019350 8.000000
177.009120 7.000000
178.027360 140.000000
178.047500 9.000000
179.018980 40.000000
179.034610 277.000000
180.038960 70.000000
180.053860 5.000000
181.033480 8.000000
181.050090 10.000000
187.452560 5.000000
190.027050 407.000000
191.032200 21.000000
192.020390 6.000000
193.018460 30.000000
194.016240 15.000000
205.011750 8.000000
207.028700 282.000000
207.062330 7.000000
208.015870 8.000000
208.036800 122.000000
209.028850 10.000000
209.040540 12.000000
223.060300 12.000000

>ms2peaks
64.022860 131.000000
64.031120 81.000000
68.997600 148.000000
77.032130 182.000000
77.040290 750.000000
78.038450 76.000000
78.047710 1000.000000
78.139710 81.000000
78.795680 85.000000
79.052880 203.000000
81.031690 136.000000
88.031920 72.000000
89.036910 93.000000
91.025510 76.000000
93.034610 76.000000
94.041660 102.000000
105.027390 85.000000
105.034680 449.000000
105.041540 195.000000
106.036490 85.000000
106.044360 76.000000
106.049200 85.000000
107.038710 85.000000
107.045900 136.000000
107.054660 93.000000
108.018050 89.000000
116.023270 220.000000
117.039710 186.000000
119.011060 123.000000
120.013050 76.000000
121.020580 76.000000
121.033400 85.000000
123.032000 85.000000
123.045880 208.000000
132.013920 114.000000
133.022000 216.000000
133.032350 322.000000
150.033020 114.000000
162.032610 110.000000
223.055690 364.000000
223.067440 169.000000

>ms2peaks
78.047220 15.000000
105.034220 11.000000
106.041940 18.000000
107.048140 42.000000
117.032400 8.000000
123.042720 7.000000
132.019060 5.000000
133.026380 10.000000
133.032300 12.000000
134.036420 35.000000
135.043460 21.000000
152.047120 5.000000
162.031040 103.000000
163.037830 40.000000
167.066240 8.000000
178.021940 12.000000
179.033170 28.000000
180.041000 8.000000
190.026280 120.000000
191.028230 10.000000
191.037030 8.000000
195.066210 6.000000
207.028760 38.000000
208.036580 91.000000
209.042300 10.000000
222.054350 18.000000
223.060200 1000.000000
223.102400 22.000000

>ms2peaks
222.050630 15.000000
223.060390 1000.000000
223.102910 31.000000

>ms2peaks
66.047090 5.000000
76.026810 11.000000
76.030850 7.000000
77.037820 64.000000
78.046690 210.000000
79.052530 45.000000
81.031530 10.000000
89.038470 18.000000
90.043610 13.000000
91.055760 6.000000
92.026550 9.000000
94.038280 7.000000
95.043370 8.000000
104.024580 8.000000
104.030590 9.000000
105.026430 31.000000
105.033600 150.000000
106.041340 155.000000
107.048810 340.000000
108.021250 15.000000
108.052090 41.000000
109.024100 5.000000
109.030860 11.000000
116.024770 32.000000
117.033130 56.000000
118.038830 34.000000
118.045820 14.000000
119.007440 7.000000
120.012890 6.000000
120.022420 18.000000
121.027230 7.000000
122.036270 47.000000
123.043430 73.000000
123.049800 22.000000
124.045310 8.000000
132.013990 16.000000
132.021610 41.000000
133.028810 217.000000
134.016130 6.000000
134.035870 423.000000
135.043010 148.000000
136.044770 10.000000
136.051930 7.000000
137.020570 31.000000
138.032230 6.000000
144.020100 49.000000
145.016160 10.000000
145.028670 6.000000
147.010310 13.000000
149.028200 8.000000
150.031540 58.000000
151.033830 15.000000
151.039470 13.000000
152.046680 24.000000
153.052580 5.000000
161.021710 88.000000
161.990740 5.000000
162.009310 7.000000
162.030690 1000.000000
163.034810 133.000000
164.037050 13.000000
165.016250 73.000000
167.065870 15.000000
167.074370 32.000000
172.015840 10.000000
178.024800 101.000000
179.033740 269.000000
180.022770 5.000000
180.040180 69.000000
181.048870 11.000000
190.026600 257.000000
191.004430 7.000000
191.032940 47.000000
193.008450 8.000000
193.016170 16.000000
205.006850 6.000000
207.029600 308.000000
208.028230 23.000000
208.036800 74.000000
223.052540 16.000000
223.059650 32.000000

>ms2peaks
65.038640 42.000000
76.031200 392.000000
77.031840 101.000000
77.039450 998.000000
78.038480 37.000000
78.046560 1000.000000
79.005770 33.000000
79.017620 54.000000
79.053850 242.000000
81.033310 120.000000
88.033940 39.000000
89.034640 138.000000
89.044690 81.000000
91.012310 86.000000
91.018670 60.000000
93.031280 39.000000
93.035200 28.000000
94.042720 158.000000
95.045600 96.000000
96.015370 31.000000
96.054950 29.000000
104.028050 91.000000
105.022520 39.000000
105.032970 605.000000
106.019450 37.000000
106.031330 50.000000
106.042440 89.000000
107.040750 41.000000
107.050510 99.000000
109.029320 91.000000
116.021980 49.000000
117.031460 138.000000
118.043120 106.000000
119.011220 133.000000
119.016060 68.000000
120.021450 41.000000
120.313730 29.000000
120.413070 31.000000
121.015540 31.000000
121.027690 128.000000
122.030040 54.000000
122.036390 39.000000
122.263570 28.000000
123.042410 341.000000
123.053750 81.000000
133.025960 299.000000
133.033690 215.000000
134.020220 29.000000
134.035230 281.000000
137.014140 49.000000
137.024860 68.000000
144.032000 34.000000
146.025740 44.000000
146.999160 33.000000
147.010680 44.000000
148.983690 52.000000
149.023070 29.000000
150.023510 115.000000
151.041550 47.000000
161.020310 39.000000
161.028590 172.000000
162.027050 117.000000
162.034300 187.000000
163.023640 36.000000
163.041890 33.000000
165.015490 41.000000
165.024050 34.000000
179.022050 46.000000
179.038160 28.000000
205.010640 55.000000
205.020070 36.000000

>ms2peaks
76.029790 24.000000
76.035060 51.000000
77.022030 17.000000
77.039280 66.000000
77.141070 18.000000
78.048440 412.000000
79.053610 41.000000
80.028880 21.000000
84.598740 17.000000
88.029950 28.000000
89.033060 22.000000
89.039020 60.000000
90.041380 23.000000
91.018880 21.000000
92.022980 21.000000
94.039300 68.000000
95.045510 19.000000
96.053630 30.000000
104.023760 23.000000
104.937970 42.000000
105.029100 64.000000
105.034560 50.000000
106.031920 32.000000
106.043950 307.000000
106.983830 29.000000
107.019120 17.000000
107.036880 40.000000
107.050510 782.000000
108.016560 53.000000
109.031030 40.000000
111.733540 19.000000
111.867080 18.000000
112.209240 27.000000
114.885410 17.000000
116.029400 71.000000
117.032000 179.000000
118.031940 23.000000
118.039010 84.000000
118.045330 35.000000
119.041250 22.000000
119.052410 21.000000
119.889080 17.000000
120.016080 21.000000
120.026050 22.000000
121.025270 31.000000
121.033760 18.000000
122.028160 20.000000
122.035940 17.000000
123.038750 81.000000
123.045200 79.000000
123.053080 18.000000
124.056300 21.000000
125.317060 26.000000
127.683490 17.000000
131.115170 21.000000
132.018950 75.000000
133.027240 482.000000
133.042890 19.000000
134.034620 751.000000
135.014500 18.000000
135.042450 336.000000
135.049770 198.000000
135.342180 17.000000
136.052580 76.000000
136.999560 20.000000
137.018590 42.000000
137.027970 20.000000
137.997470 21.000000
138.029430 26.000000
138.966220 18.000000
141.956240 30.000000
143.954640 24.000000
144.018100 78.000000
144.398990 23.000000
145.027080 53.000000
145.035260 35.000000
146.033490 92.000000
146.122910 26.000000
147.040790 18.000000
148.019490 21.000000
148.049410 21.000000
148.056850 18.000000
149.021360 66.000000
150.032000 79.000000
150.042690 20.000000
151.034850 53.000000
151.044130 62.000000
152.041370 63.000000
153.051850 36.000000
160.013750 39.000000
160.024380 19.000000
161.023710 203.000000
162.006180 27.000000
162.031050 2437.000000
162.054530 82.000000
162.091610 19.000000
162.920900 17.000000
162.999180 22.000000
163.017720 17.000000
163.038180 1216.000000
163.736760 20.000000
164.043170 193.000000
165.015500 75.000000
165.023860 75.000000
165.036190 28.000000
165.050220 24.000000
165.559970 55.000000
165.722350 17.000000
166.068950 20.000000
167.058260 19.000000
167.069400 102.000000
168.075180 54.000000
176.035890 24.000000
176.561490 36.000000
177.043870 33.000000
177.055540 33.000000
178.023330 78.000000
178.029750 186.000000
178.069260 41.000000
178.407930 23.000000
178.963170 18.000000
179.032090 673.000000
179.072200 35.000000
180.029850 37.000000
180.044270 145.000000
180.055150 23.000000
180.413860 20.000000
181.034320 15.000000
181.043840 54.000000
181.290510 31.000000
190.026670 2217.000000
190.204860 21.000000
191.019740 112.000000
191.031980 242.000000
191.044170 32.000000
191.072830 17.000000
191.749710 21.000000
192.043990 87.000000
193.015430 19.000000
194.051670 40.000000
194.061550 106.000000
195.063370 212.000000
195.074570 43.000000
195.137150 18.000000
196.069530 19.000000
204.092850 20.000000
205.010820 18.000000
207.014690 82.000000
207.031080 860.000000
208.001950 37.000000
208.036060 1587.000000
208.105670 17.000000
209.041460 74.000000
209.050770 49.000000
218.275130 17.000000
218.299380 17.000000
221.388260 24.000000
222.052760 468.000000
222.067020 58.000000
222.488740 17.000000
222.977200 17.000000
223.029500 23.000000
223.060870 19990.000000
223.103870 378.000000
223.148210 25.000000

