>compound PR79334062
>parentmass 267.0979
>ionization [M+H]+
>formula C12H14N2O5
>rt 193.200000
>profile qtof
#smiles_iso C1=CC(=CC=C1C(=O)NC(CCC(=O)O)C(=O)O)N
#smiles_can C1=CC(=CC=C1C(=O)NC(CCC(=O)O)C(=O)O)N
#inchikey GADGMZDHLQLZRI-UHFFFAOYSA-N
#pubchem_id 65138
#mb_accession PR311143

>ms2peaks
72.083060 20.000000
84.045680 94.000000
110.064680 17.000000
120.029160 19.000000
120.045200 354.000000
121.047250 47.000000
130.040160 38.000000
130.047410 19.000000
138.054640 349.000000
139.069930 20.000000
158.055110 17.000000
162.051240 20.000000
185.065120 19.000000
196.039750 20.000000
267.083770 24.000000
267.099760 73.000000
267.110530 55.000000

