>compound PR79762119
>parentmass 369.1808836999999
>ionization [M+H]+
>formula C21H24N2O4
>rt 259.825020
>profile qtof
#smiles_iso C[C@@H]1[C@H]2CN3CC[C@]4([C@@H]3C[C@@H]2C(=CO1)C(=O)OC)C5=CC=CC=C5NC4=O
#smiles_can CC1C2CN3CCC4(C3CC2C(=CO1)C(=O)OC)C5=CC=CC=C5NC4=O
#inchikey JMIAZDVHNCCPDM-XJKYNJMSSA-N
#pubchem_id 12304286
#mb_accession PR300325,PR300329,PR300334,PR300339,PR300344,PR300349,PR300354,PR300359,PR300364,PR300369,PR300374,PR300379

>ms2peaks
108.079080 9.000000
117.058110 6.000000
118.062420 7.000000
124.038770 18.000000
132.043490 8.000000
132.080120 43.000000
142.064870 44.000000
150.090530 6.000000
158.059190 16.000000
160.074740 344.000000
160.111600 5.000000
161.078840 40.000000
178.084790 58.000000
179.090330 14.000000
187.083740 6.000000
201.101720 84.000000
202.104060 13.000000
210.111400 21.000000
267.150090 10.000000
309.160370 71.000000
310.158200 9.000000
310.173280 6.000000
337.154210 133.000000
338.157530 40.000000
367.167540 6.000000
369.125150 6.000000
369.179720 1000.000000
369.235530 27.000000

>ms2peaks
337.154790 13.000000
369.112950 7.000000
369.180480 1000.000000
369.236300 31.000000

>ms2peaks
108.080430 17.000000
115.054050 6.000000
118.063960 17.000000
118.069810 7.000000
124.039070 43.000000
132.045200 29.000000
132.080460 96.000000
133.084580 10.000000
142.064700 91.000000
143.064900 9.000000
143.072270 10.000000
150.090990 25.000000
158.060380 46.000000
159.059970 6.000000
160.043580 5.000000
160.075560 1000.000000
160.112530 31.000000
161.078980 131.000000
162.080920 9.000000
178.086240 176.000000
179.089520 25.000000
187.087770 31.000000
199.087130 9.000000
201.101820 197.000000
202.107420 25.000000
210.112470 37.000000
211.118740 6.000000
213.102260 18.000000
239.120760 6.000000
241.132980 19.000000
265.091090 5.000000
265.130770 6.000000
265.141200 6.000000
267.151310 22.000000
281.093900 6.000000
281.166690 7.000000
291.144380 12.000000
309.160680 93.000000
310.163600 26.000000
337.154910 115.000000
338.155360 27.000000
367.164730 15.000000
369.181790 59.000000

>ms2peaks
67.050620 7.000000
77.036610 33.000000
78.032680 12.000000
80.046600 15.000000
81.068950 6.000000
82.073080 5.000000
83.007770 5.000000
83.013530 39.000000
89.036270 14.000000
90.042910 11.000000
91.052690 59.000000
93.054380 9.000000
93.060970 7.000000
93.069980 7.000000
94.066220 5.000000
95.090600 6.000000
96.082180 10.000000
97.068500 13.000000
103.053790 5.000000
104.046230 35.000000
104.052820 33.000000
105.068740 90.000000
107.038540 6.000000
108.040450 6.000000
108.079900 108.000000
109.067240 8.000000
109.085380 8.000000
110.094640 8.000000
115.017480 7.000000
115.053930 612.000000
116.031140 5.000000
116.050140 139.000000
116.064410 8.000000
117.031630 7.000000
117.040970 7.000000
117.057040 624.000000
118.064160 297.000000
119.069510 41.000000
120.045000 8.000000
121.065990 6.000000
122.022500 31.000000
122.058820 12.000000
122.100310 7.000000
124.038860 145.000000
125.041500 14.000000
130.063930 195.000000
131.060000 7.000000
131.069790 35.000000
132.013050 8.000000
132.044010 730.000000
132.064290 17.000000
132.080280 1000.000000
133.038180 16.000000
133.048190 67.000000
133.070430 20.000000
133.084120 139.000000
134.089050 11.000000
140.030230 6.000000
140.048340 140.000000
141.044710 10.000000
141.053070 9.000000
142.064300 941.000000
143.056370 19.000000
143.067750 112.000000
144.042860 9.000000
144.067440 14.000000
144.081540 16.000000
145.052990 29.000000
145.064380 7.000000
145.966860 6.000000
146.058360 6.000000
149.081910 7.000000
150.092500 18.000000
154.063170 7.000000
158.054600 14.000000
158.062580 55.000000
158.083510 5.000000
159.060750 20.000000
159.072830 7.000000
159.092740 12.000000
159.104190 7.000000
160.075100 862.000000
161.070160 21.000000
161.079670 113.000000
168.076130 5.000000
172.078370 6.000000
172.099370 6.000000
173.070650 7.000000
173.106780 16.000000
173.113220 10.000000
178.086790 34.000000
179.088640 5.000000
180.080730 9.000000
181.075740 7.000000
182.081050 5.000000
183.092940 6.000000
185.072390 12.000000
185.109050 6.000000
186.073300 6.000000
186.083590 7.000000
187.081560 9.000000
187.092300 20.000000
199.086300 38.000000
201.098240 66.000000
201.107620 28.000000
202.103840 8.000000
223.097580 7.000000
225.067400 6.000000
265.113560 5.000000

>ms2peaks
108.082270 6.000000
118.061070 6.000000
124.038720 11.000000
132.044430 12.000000
132.080020 43.000000
133.082460 5.000000
142.065890 38.000000
150.090270 7.000000
158.059620 11.000000
160.075070 307.000000
161.078230 38.000000
178.086640 58.000000
179.091490 8.000000
187.085680 11.000000
199.084870 5.000000
201.101670 77.000000
202.105830 12.000000
210.111540 22.000000
211.114530 6.000000
213.101960 5.000000
241.131790 9.000000
267.151730 5.000000
309.161290 57.000000
310.159030 14.000000
337.155240 117.000000
338.156100 29.000000
367.162840 10.000000
369.180910 1000.000000
369.236940 27.000000

>ms2peaks
337.154050 14.000000
369.181270 1000.000000
369.237150 33.000000

>ms2peaks
108.081210 27.000000
117.060900 5.000000
118.062020 12.000000
124.038960 36.000000
130.066310 6.000000
132.043410 23.000000
132.080220 90.000000
133.082840 11.000000
142.064480 102.000000
143.067950 11.000000
150.090880 20.000000
158.060590 49.000000
160.075640 1000.000000
160.111940 30.000000
161.079410 116.000000
162.081820 8.000000
178.085560 164.000000
179.088940 24.000000
187.087280 27.000000
199.087170 13.000000
201.102260 181.000000
202.106050 24.000000
210.111740 43.000000
211.114410 5.000000
213.096410 9.000000
213.104710 12.000000
239.117100 6.000000
241.134430 16.000000
265.137120 5.000000
267.147460 18.000000
268.153080 5.000000
269.094270 5.000000
281.091310 7.000000
281.174100 6.000000
291.150240 10.000000
309.159790 92.000000
310.155730 9.000000
310.169010 15.000000
337.154540 111.000000
338.157590 32.000000
367.170650 9.000000
369.179380 63.000000

>ms2peaks
55.055730 9.000000
77.038160 40.000000
78.031900 7.000000
79.054260 11.000000
80.050400 5.000000
81.066380 5.000000
82.026380 5.000000
83.011480 32.000000
84.016350 7.000000
90.049320 6.000000
91.054020 55.000000
92.047690 7.000000
93.056580 7.000000
93.065850 5.000000
97.066490 5.000000
103.055500 10.000000
104.049480 42.000000
105.028920 6.000000
105.044150 7.000000
105.054800 5.000000
105.064580 8.000000
105.070940 37.000000
106.029930 9.000000
106.067920 22.000000
107.073680 9.000000
108.044760 7.000000
108.079840 70.000000
108.089520 6.000000
109.044780 8.000000
109.062350 12.000000
110.096900 7.000000
115.034180 9.000000
115.053180 605.000000
116.049580 77.000000
116.058430 81.000000
117.033730 6.000000
117.056560 477.000000
117.071080 17.000000
118.052730 20.000000
118.064530 281.000000
119.063970 20.000000
119.070500 17.000000
120.045460 8.000000
122.021940 35.000000
122.097880 6.000000
123.024790 13.000000
124.037900 113.000000
125.043470 8.000000
128.048030 30.000000
130.064640 192.000000
131.070920 54.000000
132.043780 691.000000
132.080700 1000.000000
133.024730 7.000000
133.040850 23.000000
133.049220 73.000000
133.065920 10.000000
133.084240 120.000000
134.050960 6.000000
134.061550 10.000000
140.049260 151.000000
141.055760 27.000000
142.048420 10.000000
142.064730 882.000000
143.068830 118.000000
144.045030 5.000000
144.081670 6.000000
145.051180 40.000000
146.058330 12.000000
150.093030 13.000000
154.057540 8.000000
154.069240 6.000000
157.087020 7.000000
158.061000 73.000000
158.090000 10.000000
159.063750 46.000000
160.054440 10.000000
160.075760 716.000000
161.074490 39.000000
161.083330 40.000000
162.081700 14.000000
169.080670 15.000000
173.105700 18.000000
173.114460 7.000000
178.088180 14.000000
183.086690 7.000000
186.079620 21.000000
187.089920 8.000000
199.085920 56.000000
201.101580 79.000000
201.116970 7.000000
202.100720 13.000000
205.080170 5.000000
206.093580 5.000000
263.126890 6.000000
265.077790 5.000000
369.181550 11.000000

>ms2peaks
108.081440 5.000000
115.051160 6.000000
118.066250 6.000000
124.039050 14.000000
132.044080 12.000000
132.080750 43.000000
142.064030 45.000000
143.065030 6.000000
150.088640 6.000000
158.059460 16.000000
160.075150 309.000000
160.112270 5.000000
161.078110 38.000000
178.085860 46.000000
179.089630 8.000000
187.085850 12.000000
201.101120 73.000000
202.103360 10.000000
210.110050 18.000000
210.120320 5.000000
241.129610 7.000000
267.155150 7.000000
309.157870 59.000000
310.158910 15.000000
337.153050 116.000000
338.157680 35.000000
338.172330 8.000000
369.181210 1000.000000
369.237210 30.000000

>ms2peaks
337.156920 14.000000
369.121950 5.000000
369.180820 1000.000000
369.236790 33.000000
369.286990 6.000000

>ms2peaks
108.080250 27.000000
115.054850 9.000000
118.065120 17.000000
124.039090 39.000000
132.041460 26.000000
132.080060 95.000000
133.087430 8.000000
142.064590 96.000000
143.071150 8.000000
150.087310 10.000000
150.094850 8.000000
158.061250 45.000000
160.075130 1000.000000
160.111330 29.000000
161.078200 127.000000
162.084050 8.000000
178.086240 184.000000
179.088680 22.000000
187.085890 24.000000
201.101760 186.000000
202.104750 35.000000
210.103320 11.000000
210.113890 32.000000
213.098860 15.000000
241.132220 10.000000
265.091060 6.000000
267.143460 15.000000
267.154720 10.000000
281.173580 7.000000
291.150120 9.000000
291.165710 6.000000
309.158780 93.000000
310.161010 18.000000
337.154570 93.000000
337.166960 26.000000
338.154110 22.000000
367.164730 8.000000
369.181060 58.000000

>ms2peaks
77.034870 5.000000
77.042280 19.000000
78.034750 5.000000
79.054360 29.000000
80.048070 9.000000
81.068940 19.000000
83.013280 41.000000
90.048460 9.000000
91.043650 8.000000
91.053800 45.000000
92.060450 9.000000
93.056090 26.000000
93.073910 5.000000
95.047230 8.000000
95.054040 9.000000
95.073370 7.000000
96.084650 12.000000
103.052620 7.000000
104.047810 24.000000
104.052750 28.000000
105.066750 31.000000
105.074520 21.000000
106.027830 12.000000
106.066750 17.000000
107.053070 8.000000
108.045790 26.000000
108.081360 85.000000
109.087720 6.000000
110.057920 8.000000
115.031010 9.000000
115.054350 581.000000
116.052190 166.000000
116.059010 40.000000
117.016710 7.000000
117.057460 553.000000
118.060070 130.000000
118.066020 226.000000
119.058320 5.000000
119.068400 24.000000
120.047370 7.000000
120.083860 6.000000
121.066650 5.000000
122.022610 59.000000
122.058480 6.000000
124.039360 180.000000
125.040100 10.000000
128.040160 9.000000
130.025070 7.000000
130.064350 207.000000
131.062000 10.000000
131.071200 36.000000
132.044110 709.000000
132.080550 1000.000000
133.036030 6.000000
133.047260 50.000000
133.061200 26.000000
133.082500 139.000000
133.290830 6.000000
140.049220 158.000000
141.051530 19.000000
141.057710 6.000000
142.041760 6.000000
142.064510 862.000000
143.057310 15.000000
143.067870 131.000000
143.078960 11.000000
144.068300 7.000000
144.079790 6.000000
145.050670 72.000000
148.076780 6.000000
154.066500 7.000000
158.058980 97.000000
158.089950 6.000000
159.066390 17.000000
160.042920 6.000000
160.056380 9.000000
160.074810 709.000000
161.075840 71.000000
161.086400 15.000000
169.076320 12.000000
171.087590 6.000000
173.069720 15.000000
173.109090 29.000000
174.108150 7.000000
178.082570 14.000000
178.091580 9.000000
183.085220 6.000000
184.078110 5.000000
185.071380 13.000000
185.078670 5.000000
186.078280 22.000000
187.084980 19.000000
199.070680 6.000000
199.088090 45.000000
200.082690 9.000000
201.082500 6.000000
201.104860 88.000000
202.100830 6.000000
202.117690 8.000000
204.084820 5.000000
211.096530 8.000000
215.127300 6.000000
222.126720 6.000000
265.108610 6.000000

