>compound PR79223985
>parentmass 341.13803333333334
>ionization [M+H]+
>formula C20H20O5
>rt 531.200000
>profile qtof
#smiles_iso CC(=CCC1=C2C(=C(C=C1O)O)C(=O)CC(O2)C3=CC=C(C=C3)O)C
#smiles_can CC(=CCC1=C2C(=C(C=C1O)O)C(=O)CC(O2)C3=CC=C(C=C3)O)C
#inchikey LPEPZZAVFJPLNZ-UHFFFAOYSA-N
#pubchem_id 509245
#mb_accession PR310766,PR310767,PR310772

>ms2peaks
71.001210 29.000000
81.519130 41.000000
92.060570 19.000000
93.032350 82.000000
93.039050 43.000000
94.037080 20.000000
95.711650 20.000000
97.083440 25.000000
120.997540 25.000000
121.028560 980.000000
122.031220 41.000000
124.044670 18.000000
126.764080 20.000000
137.025390 18.000000
137.054780 24.000000
137.063320 20.000000
148.989520 24.000000
149.023650 539.000000
150.025480 68.000000
162.071850 21.000000
163.038120 166.000000
163.052350 26.000000
164.044890 27.000000
177.052120 29.000000
187.072810 23.000000
197.008530 17.000000
203.080470 17.000000
204.072590 23.000000
205.061460 33.000000
205.085340 2097.000000
205.103070 66.000000
206.085600 121.000000
206.093890 186.000000
207.085980 21.000000
211.403400 29.000000
216.149750 17.000000
247.097530 20.000000
285.070310 42.000000
285.080930 33.000000
286.072630 43.000000
286.083010 45.000000
288.044490 22.000000
339.120330 17.000000
341.071230 21.000000
341.137700 636.000000
341.165920 20.000000
341.178380 18.000000
341.192110 17.000000

>ms2peaks
84.014800 20.000000
121.029280 95.000000
121.035470 40.000000
147.043460 21.000000
147.085480 20.000000
149.022060 51.000000
165.063780 24.000000
285.079220 115.000000
287.077970 18.000000
325.124480 19.000000
340.726320 23.000000
341.140840 223.000000

>ms2peaks
103.059200 17.000000
111.000650 17.000000
117.069460 30.000000
131.049410 18.000000
139.042740 24.000000
152.991000 27.000000
153.018520 396.000000
153.059110 27.000000
153.224080 20.000000
154.020360 21.000000
155.091290 20.000000
157.063200 62.000000
159.045970 46.000000
165.015500 17.000000
169.051710 28.000000
169.069660 21.000000
173.064410 28.000000
174.065800 17.000000
179.032090 72.000000
185.394240 17.000000
190.132970 17.000000
190.296690 23.000000
199.075840 33.000000
201.060380 27.000000
213.061800 20.000000
213.088560 17.000000
215.070600 23.000000
215.107600 56.000000
218.130260 20.000000
221.061420 39.000000
231.031740 24.000000
234.066440 19.000000
239.070620 19.000000
243.063890 36.000000
244.060530 20.000000
249.057820 18.000000
252.097980 23.000000
267.041560 19.000000
267.066100 190.000000
268.056060 48.000000
268.069240 59.000000
269.083470 20.000000
269.118620 19.000000
273.067320 21.000000
283.100070 18.000000
283.113040 17.000000
285.061490 42.000000
285.081570 56.000000
286.084010 20.000000
339.182560 21.000000
340.840270 20.000000
341.092770 38.000000
341.138400 727.000000

