>compound PR79138363
>parentmass 741.2236555
>ionization [M+H]+
>formula C33H40O19
>rt 238.843980
>profile qtof
#smiles_iso C[C@H]1[C@@H]([C@H]([C@H]([C@@H](O1)O[C@@H]2[C@H]([C@@H](O[C@H]([C@@H]2O)OC[C@@H]3[C@@H]([C@@H]([C@H]([C@@H](O3)OC4=C(OC5=CC(=CC(=C5C4=O)O)O)C6=CC=C(C=C6)O)O)O)O)C)O)O)O)O
#smiles_can CC1C(C(C(C(O1)OC2C(C(OC(C2O)OCC3C(C(C(C(O3)OC4=C(OC5=CC(=CC(=C5C4=O)O)O)C6=CC=C(C=C6)O)O)O)O)C)O)O)O)O
#inchikey UYVBMGULWGRDQT-KABOUGNXSA-N
#pubchem_id 23815364
#mb_accession PR303118,PR303122,PR303126,PR303130,PR303134,PR303138,PR303142,PR303146,PR303150,PR303154,PR303158,PR303162

>ms2peaks
85.028530 17.000000
113.065440 7.000000
117.060010 14.000000
129.054670 33.000000
147.061290 13.000000
147.071820 9.000000
163.051650 7.000000
163.062670 43.000000
213.089840 5.000000
257.092680 6.000000
275.109830 12.000000
275.763210 5.000000
287.023770 16.000000
287.056790 1000.000000
288.052430 116.000000
288.066800 93.000000
289.027650 5.000000
289.046570 5.000000
289.059510 8.000000
289.073150 16.000000
293.125820 15.000000
293.156460 6.000000
309.120180 5.000000
431.095490 6.000000
433.109100 16.000000
433.131230 7.000000
434.119450 7.000000
448.971040 6.000000
449.095860 59.000000
449.118620 65.000000
450.121400 34.000000
595.148010 24.000000
595.185910 12.000000
596.150700 5.000000
741.212950 113.000000
741.247190 86.000000

>ms2peaks
71.048680 8.000000
163.060030 32.000000
165.304760 6.000000
203.664980 5.000000
209.752320 8.000000
257.091830 8.000000
275.114810 11.000000
286.987430 8.000000
287.055910 643.000000
287.113340 8.000000
287.800230 6.000000
288.047760 27.000000
288.061710 120.000000
289.064510 16.000000
293.124730 47.000000
294.127720 7.000000
301.874660 8.000000
309.119290 9.000000
352.063870 9.000000
433.087130 12.000000
433.117710 29.000000
434.108760 8.000000
449.067020 15.000000
449.094640 118.000000
449.112430 200.000000
449.136750 19.000000
450.112880 89.000000
450.131130 29.000000
451.126250 5.000000
485.334840 9.000000
489.116520 12.000000
545.084840 7.000000
579.167480 12.000000
579.191410 13.000000
580.176330 10.000000
581.182070 7.000000
595.043330 7.000000
595.167050 267.000000
596.117370 5.000000
596.141850 8.000000
596.176510 59.000000
597.156980 9.000000
597.183650 7.000000
598.167790 11.000000
741.014220 9.000000
741.135310 23.000000
741.222900 1000.000000

>ms2peaks
71.045970 6.000000
85.028020 29.000000
103.038830 5.000000
108.052800 5.000000
117.055260 19.000000
127.041890 7.000000
129.056580 23.000000
145.050510 9.000000
147.061260 13.000000
163.060040 48.000000
201.066830 6.000000
239.079240 7.000000
275.104680 11.000000
287.015660 10.000000
287.055240 1000.000000
288.056490 185.000000
288.068300 40.000000
289.048680 9.000000
289.063900 23.000000
290.072910 8.000000
299.056090 5.000000
310.947110 5.000000
383.079620 7.000000
433.111540 13.000000
433.121090 5.000000
449.088440 9.000000
450.110750 12.000000

>ms2peaks
71.043220 11.000000
71.051780 8.000000
73.029860 8.000000
83.050180 21.000000
85.027750 38.000000
85.031290 14.000000
99.042730 7.000000
109.027930 5.000000
111.043720 10.000000
113.060240 7.000000
117.053440 17.000000
121.025340 7.000000
129.046680 5.000000
129.055300 8.000000
153.056670 10.000000
163.055690 15.000000
163.617520 5.000000
165.016560 6.000000
213.061250 9.000000
241.055310 7.000000
287.019900 8.000000
287.054500 1000.000000
288.056210 118.000000
288.067930 59.000000
289.054470 10.000000
289.063450 14.000000
289.075900 9.000000
299.044710 6.000000
353.073390 5.000000
379.089170 6.000000
397.099640 5.000000

>ms2peaks
85.026700 8.000000
85.032430 13.000000
103.048390 5.000000
117.054790 8.000000
129.051640 17.000000
129.059010 12.000000
129.063660 6.000000
145.048480 7.000000
147.057560 9.000000
147.070360 12.000000
163.057890 27.000000
163.070130 6.000000
165.070160 6.000000
168.881380 5.000000
183.327470 5.000000
213.083690 5.000000
239.086210 10.000000
255.091740 8.000000
274.108310 5.000000
275.113400 17.000000
280.186950 7.000000
286.994050 6.000000
287.025270 27.000000
287.054230 1000.000000
288.053920 139.000000
288.074280 75.000000
289.059690 52.000000
293.110380 11.000000
327.298030 6.000000
397.079740 6.000000
397.094180 5.000000
433.110470 15.000000
433.129820 5.000000
449.086760 51.000000
449.104890 65.000000
449.132390 27.000000
450.083340 9.000000
450.118960 24.000000
451.122740 6.000000
451.144560 6.000000
455.155980 6.000000
499.022130 8.000000
511.160060 5.000000
595.109070 11.000000
595.154240 50.000000
595.201600 18.000000
596.160710 11.000000
596.185790 12.000000
597.151310 6.000000
741.143250 17.000000
741.181580 36.000000
741.220460 134.000000
741.244260 66.000000
741.275940 16.000000

>ms2peaks
249.988560 5.000000
257.102020 7.000000
275.111510 11.000000
287.010100 8.000000
287.028350 35.000000
287.054110 660.000000
288.033200 9.000000
288.049040 38.000000
288.060240 78.000000
289.054810 12.000000
289.069090 21.000000
293.119510 36.000000
294.125430 6.000000
295.122250 7.000000
309.118710 14.000000
340.630000 6.000000
383.125060 12.000000
419.164490 11.000000
433.103240 8.000000
433.118650 35.000000
434.109280 8.000000
435.097870 6.000000
437.172610 6.000000
440.424100 11.000000
449.060520 11.000000
449.109830 323.000000
450.089540 18.000000
450.112920 67.000000
450.139950 21.000000
451.101040 13.000000
455.167660 8.000000
456.185030 7.000000
594.448360 6.000000
595.120730 9.000000
595.160710 122.000000
595.183590 95.000000
596.152160 22.000000
596.182980 29.000000
597.159970 8.000000
741.086850 7.000000
741.127440 8.000000
741.226560 1000.000000

>ms2peaks
71.047610 6.000000
72.047060 5.000000
85.016690 7.000000
85.026540 27.000000
87.042690 6.000000
100.046790 6.000000
117.032190 6.000000
117.048380 6.000000
117.057880 5.000000
127.036050 7.000000
127.041170 16.000000
129.053990 48.000000
147.063900 23.000000
159.070050 11.000000
163.060300 36.000000
201.077960 7.000000
213.077440 7.000000
239.088550 9.000000
275.107600 5.000000
287.009400 9.000000
287.022160 11.000000
287.055600 1000.000000
287.088350 10.000000
288.030090 13.000000
288.059540 152.000000
289.059570 26.000000
289.069210 7.000000
415.084410 7.000000
431.100710 7.000000
433.117830 7.000000
449.100620 18.000000

>ms2peaks
71.047770 32.000000
73.022810 18.000000
83.048230 8.000000
84.997900 8.000000
85.024960 15.000000
85.028820 43.000000
86.032690 6.000000
91.041620 11.000000
99.010030 6.000000
99.050120 8.000000
117.053280 6.000000
121.024700 6.000000
127.041820 15.000000
129.051360 7.000000
129.060390 9.000000
147.065800 18.000000
157.811920 5.000000
164.057500 5.000000
165.019330 6.000000
177.633300 5.000000
201.075150 6.000000
287.052950 1000.000000
288.008210 9.000000
288.025020 9.000000
288.049290 69.000000
288.062320 171.000000
289.060550 39.000000
291.163150 5.000000
318.404880 8.000000

>ms2peaks
85.026840 7.000000
85.031530 12.000000
99.039460 5.000000
112.055740 5.000000
129.045380 11.000000
129.057110 32.000000
147.066280 24.000000
149.078030 6.000000
153.104340 6.000000
163.060060 29.000000
239.086610 7.000000
239.096620 6.000000
240.105380 8.000000
275.112580 5.000000
287.010680 10.000000
287.019870 21.000000
287.054900 1000.000000
288.036590 13.000000
288.061370 200.000000
289.058140 32.000000
299.058260 7.000000
309.126500 9.000000
353.062620 11.000000
372.177340 7.000000
398.091520 5.000000
433.102110 6.000000
433.127350 6.000000
449.066130 6.000000
449.109830 106.000000
449.124300 28.000000
450.113490 37.000000
451.120880 10.000000
580.198730 6.000000
595.139040 8.000000
595.173580 57.000000
596.165890 19.000000
596.201480 8.000000
741.178410 12.000000
741.214660 109.000000
741.243650 85.000000

>ms2peaks
192.332670 6.000000
257.095370 5.000000
273.104680 8.000000
287.055150 693.000000
288.036560 6.000000
288.051670 34.000000
288.062500 56.000000
289.056730 26.000000
293.128660 32.000000
294.119290 6.000000
329.720000 5.000000
347.362610 8.000000
383.142610 6.000000
401.150970 10.000000
419.142400 6.000000
419.162290 8.000000
421.382930 6.000000
422.574520 6.000000
433.109740 33.000000
435.103940 10.000000
449.070250 7.000000
449.106410 262.000000
450.052250 8.000000
450.076540 7.000000
450.112030 73.000000
450.139190 6.000000
451.118100 12.000000
491.128510 8.000000
578.162110 8.000000
579.145870 9.000000
579.178650 14.000000
580.195680 14.000000
595.171630 183.000000
596.175230 59.000000
741.156190 12.000000
741.225040 1000.000000

>ms2peaks
71.051450 8.000000
85.028500 46.000000
111.041940 6.000000
117.057170 12.000000
129.052470 25.000000
129.058010 37.000000
143.072750 8.000000
145.047900 13.000000
148.077360 5.000000
153.049160 8.000000
163.056550 33.000000
163.065810 14.000000
171.064150 5.000000
172.076100 5.000000
191.067690 7.000000
239.088360 6.000000
286.990390 9.000000
287.019320 20.000000
287.055180 1000.000000
288.058110 135.000000
288.071660 37.000000
289.054350 9.000000
289.065430 9.000000
290.064790 13.000000
431.112610 9.000000
433.121400 6.000000
449.085210 5.000000
449.116360 12.000000

>ms2peaks
69.035450 6.000000
71.048710 12.000000
73.028180 14.000000
83.051400 8.000000
85.027110 11.000000
85.033870 10.000000
86.030850 7.000000
91.042280 9.000000
99.043560 11.000000
101.056680 6.000000
117.052010 25.000000
117.059080 14.000000
121.020800 5.000000
121.035070 7.000000
127.038800 11.000000
129.054430 6.000000
137.015290 5.000000
148.042160 6.000000
153.052600 10.000000
157.053420 7.000000
157.064760 5.000000
163.051880 6.000000
163.062730 11.000000
166.046520 6.000000
171.052760 6.000000
171.059980 5.000000
258.048160 9.000000
286.984770 8.000000
287.020810 15.000000
287.055480 1000.000000
288.057920 158.000000
289.063720 12.000000
289.083590 11.000000
299.054260 6.000000
323.041750 7.000000
325.084720 5.000000
329.075530 7.000000
353.068820 9.000000
431.093630 7.000000

