>compound PR79559402
>parentmass 394.129
>ionization [M+H]+
>formula C14H23N3O8S
>rt 141.600000
>profile qtof
#smiles_iso CC(CSCC(C(=O)NCC(=O)O)NC(=O)CCC(C(=O)O)N)C(=O)O
#smiles_can CC(CSCC(C(=O)NCC(=O)O)NC(=O)CCC(C(=O)O)N)C(=O)O
#inchikey JQWABENXVMJJMW-UHFFFAOYSA-N
#pubchem_id 20140672
#mb_accession PR310786

>ms2
69.030590 18.000000
69.034630 64.000000
84.045780 70.000000
91.024350 20.000000
99.025530 19.000000
100.019820 16.000000
116.015220 38.000000
116.021430 15.000000
116.051620 56.000000
116.060330 32.000000
118.018590 22.000000
127.011540 17.000000
127.023140 19.000000
129.070280 42.000000
130.047810 52.000000
130.057160 48.000000
142.031520 29.000000
143.996250 61.000000
144.010740 166.000000
144.019730 26.000000
144.040680 50.000000
144.051900 110.000000
145.000230 27.000000
145.010860 17.000000
145.044070 24.000000
146.042140 23.000000
162.030330 21.000000
162.054780 170.000000
162.063510 116.000000
164.052000 18.000000
165.057980 17.000000
171.088090 19.000000
172.044390 57.000000
179.048050 23.000000
187.044680 24.000000
202.054630 29.000000
227.091260 22.000000
229.072200 30.000000
230.050890 236.000000
231.045620 48.000000
231.058750 38.000000
232.030110 18.000000
232.041310 20.000000
232.055250 16.000000
246.978850 18.000000
247.063400 22.000000
247.076160 60.000000
247.540450 18.000000
248.057390 184.000000
249.059270 33.000000
251.038890 16.000000
265.080230 282.000000
265.088010 561.000000
265.295410 20.000000
266.079220 25.000000
266.089450 25.000000
267.082430 72.000000
305.116640 16.000000
319.093440 125.000000
321.098180 17.000000
376.316650 20.000000
394.093780 26.000000
394.128750 940.000000
394.151760 37.000000

