>compound PR80020452
>parentmass 435.09218789999983
>ionization [M+H]+
>formula C20H18O11
>rt 250.293960
>profile qtof
#smiles_iso C1[C@H]([C@@H]([C@H](C(O1)OC2=C(OC3=CC(=CC(=C3C2=O)O)O)C4=CC(=C(C=C4)O)O)O)O)O
#smiles_can C1C(C(C(C(O1)OC2=C(OC3=CC(=CC(=C3C2=O)O)O)C4=CC(=C(C=C4)O)O)O)O)O
#inchikey PZZRDJXEMZMZFD-DUYPVGENSA-N
#pubchem_id 5320863
#mb_accession PR303050,PR303055,PR303060,PR303065,PR303070,PR303075,PR303080,PR303085,PR303090,PR303095,PR303100,PR303104

>ms2
111.005770 11.000000
133.050660 17.000000
149.027080 52.000000
153.023680 17.000000
203.031360 10.000000
229.051070 41.000000
247.074360 14.000000
257.046050 11.000000
274.053920 10.000000
275.048160 11.000000
285.028470 21.000000
299.389100 10.000000
303.011380 17.000000
303.048950 1000.000000
304.048680 202.000000
305.058410 63.000000
310.204040 12.000000
356.962770 20.000000
395.977360 11.000000
396.979800 19.000000
398.001160 25.000000
435.087190 36.000000
435.101720 33.000000

>ms2
115.032360 10.000000
115.047220 23.000000
183.290300 12.000000
302.818730 9.000000
302.982600 10.000000
303.016880 26.000000
303.052460 1000.000000
304.044890 52.000000
304.053620 76.000000
304.065190 105.000000
305.033840 13.000000
305.054720 14.000000
305.070010 13.000000
397.995300 75.000000
398.009030 32.000000
435.036620 9.000000
435.082520 103.000000
435.100740 63.000000
435.117030 42.000000
435.133580 9.000000

>ms2
173.058210 13.000000
229.055040 22.000000
248.062550 21.000000
257.032900 22.000000
257.044680 29.000000
274.054870 35.000000
303.010160 15.000000
303.053190 1000.000000
304.056980 88.000000
305.047610 17.000000
305.071140 16.000000
326.958620 11.000000
345.051940 14.000000
356.973660 51.000000
381.076050 29.000000

>ms2
68.997480 163.000000
109.018370 224.000000
119.043790 122.000000
137.019380 354.000000
147.209700 116.000000
153.005870 184.000000
153.014250 231.000000
155.049880 163.000000
173.026920 116.000000
173.055740 143.000000
173.083160 177.000000
179.030440 170.000000
201.057920 136.000000
202.062850 136.000000
206.051570 136.000000
228.047880 177.000000
229.054180 1000.000000
229.069990 204.000000
236.958650 116.000000
245.049470 190.000000
246.046390 184.000000
257.743290 116.000000
258.052490 116.000000
263.964970 224.000000
275.057560 156.000000
356.957030 143.000000

>ms2
73.027980 12.000000
109.040020 9.000000
111.006030 17.000000
137.024080 27.000000
138.028370 17.000000
153.017970 13.000000
165.017960 10.000000
166.031390 21.000000
173.062100 10.000000
187.038060 13.000000
201.050020 9.000000
205.046100 9.000000
216.335970 23.000000
217.053630 10.000000
229.050960 22.000000
257.045620 32.000000
260.061040 10.000000
303.007870 10.000000
303.049840 1000.000000
304.034520 35.000000
304.055270 147.000000
304.185670 9.000000
305.037600 12.000000
314.425480 27.000000
315.059750 10.000000
345.045620 9.000000
356.972440 34.000000
356.995450 10.000000
397.994290 10.000000
435.090580 50.000000

>ms2
115.040330 11.000000
212.011110 12.000000
260.748050 9.000000
266.972380 20.000000
303.049350 1000.000000
304.020660 35.000000
304.051420 128.000000
304.065730 28.000000
304.365330 10.000000
305.052400 24.000000
305.065370 10.000000
318.311830 14.000000
345.044530 8.000000
373.068180 9.000000
396.994140 11.000000
397.992920 26.000000
398.010350 18.000000
434.056880 12.000000
435.079740 60.000000
435.106600 153.000000

>ms2
57.034680 37.000000
73.029310 27.000000
97.023010 14.000000
137.022050 14.000000
153.016850 16.000000
237.521620 23.000000
242.831820 19.000000
257.032410 15.000000
258.033910 16.000000
258.050290 16.000000
274.046570 36.000000
275.056090 12.000000
286.040950 22.000000
298.999570 25.000000
299.053890 17.000000
302.911500 25.000000
303.032440 108.000000
303.050810 1000.000000
304.045750 36.000000
304.058840 71.000000
307.544340 14.000000
315.061580 16.000000
324.967380 12.000000
356.973750 18.000000

>ms2
73.031000 117.000000
109.030960 318.000000
137.021680 419.000000
137.185580 117.000000
153.011280 447.000000
153.015820 190.000000
155.057390 156.000000
161.017320 123.000000
165.025050 229.000000
166.022750 162.000000
166.028590 156.000000
177.013350 184.000000
182.980440 179.000000
183.048740 268.000000
187.045470 307.000000
192.037350 151.000000
195.028950 112.000000
201.058040 291.000000
205.036010 95.000000
207.022980 223.000000
210.062030 101.000000
217.044070 134.000000
219.033330 235.000000
219.072170 201.000000
228.029170 101.000000
229.036530 380.000000
229.048770 1000.000000
229.056980 358.000000
230.054240 324.000000
232.035740 134.000000
247.067870 151.000000
299.974550 123.000000
309.948360 184.000000
310.934450 291.000000
356.975710 134.000000

>ms2
73.029970 41.000000
115.037870 14.000000
153.011150 22.000000
165.022980 14.000000
173.050950 17.000000
197.132870 11.000000
202.061290 41.000000
211.044490 22.000000
221.011290 9.000000
257.043700 16.000000
283.073300 13.000000
286.037960 10.000000
301.784150 10.000000
302.975280 13.000000
303.012050 20.000000
303.048860 1000.000000
304.052980 69.000000
304.070190 9.000000
305.059300 11.000000
306.050140 21.000000
356.971370 9.000000
358.100460 13.000000
397.989560 11.000000
433.118710 11.000000
435.041050 16.000000
435.060360 15.000000
435.095980 14.000000

>ms2
115.029580 15.000000
115.036430 10.000000
115.046630 13.000000
133.052700 16.000000
148.801610 7.000000
191.313190 9.000000
216.114880 8.000000
303.049710 1000.000000
303.340090 9.000000
304.055450 53.000000
305.056210 50.000000
306.034580 9.000000
310.593230 8.000000
327.052920 18.000000
396.004030 8.000000
397.987520 17.000000
398.001530 8.000000
435.076350 42.000000
435.090420 154.000000
435.105900 55.000000

>ms2
73.027680 34.000000
121.032520 13.000000
161.054900 14.000000
165.006390 17.000000
165.017260 21.000000
175.071930 14.000000
230.050160 14.000000
247.062350 13.000000
257.039550 19.000000
257.069980 49.000000
270.965640 13.000000
271.051330 25.000000
283.058140 17.000000
285.882570 18.000000
302.045750 22.000000
303.052030 1000.000000
304.048400 105.000000
304.056150 56.000000
305.046780 39.000000
305.058870 29.000000
305.075810 43.000000
306.063110 19.000000
356.964360 28.000000
356.981840 14.000000
377.123320 16.000000

>ms2
50.126590 165.000000
57.032040 215.000000
85.029270 182.000000
88.030680 157.000000
89.031850 140.000000
105.035390 273.000000
110.033260 207.000000
116.052400 182.000000
119.047170 231.000000
121.027240 231.000000
137.017550 149.000000
137.027620 306.000000
153.018220 215.000000
155.047090 207.000000
165.017400 314.000000
166.022420 248.000000
171.053470 215.000000
173.063030 339.000000
189.040280 298.000000
201.060870 190.000000
213.052020 149.000000
219.063750 198.000000
228.041580 256.000000
229.041060 140.000000
229.056840 1000.000000
257.043330 198.000000
285.036250 496.000000
303.029050 140.000000

