>compound PR80039825
>parentmass 178.03548258461538
>ionization [M+H]+
>formula C6H11NOS2
>rt 221.501520
>profile qtof
#smiles_iso CS(=O)CCCCN=C=S
#smiles_can CS(=O)CCCCN=C=S
#inchikey SUVMJBTUFCVSAD-UHFFFAOYSA-N
#pubchem_id 5350
#mb_accession PR303471,PR303472,PR303473,PR303474,PR303475,PR303476,PR303477,PR303478,PR303479,PR303480,PR303481,PR303482,PR310456

>ms2
55.054490 9.000000
55.058120 6.000000
62.992790 12.000000
71.501050 8.000000
71.985100 21.000000
71.992630 54.000000
72.993080 10.000000
87.027820 19.000000
98.058330 29.000000
99.055550 8.000000
99.060300 19.000000
114.036570 1000.000000
114.218580 6.000000
115.037570 12.000000
115.045440 24.000000
115.050610 13.000000
116.037090 10.000000
118.066670 31.000000
119.043180 8.000000
119.053910 110.000000
119.064540 14.000000
132.050510 10.000000
144.050400 24.000000
146.064240 7.000000
148.063960 7.000000
149.927510 9.000000
178.014950 16.000000
178.034120 140.000000

>ms2
89.036020 6.000000
96.046620 7.000000
98.057930 19.000000
114.010200 5.000000
114.037140 1000.000000
114.662680 6.000000
115.038470 96.000000
116.031520 43.000000
116.040560 9.000000
118.062160 13.000000
118.071560 15.000000
119.047880 56.000000
119.053770 70.000000
120.053380 6.000000
120.059680 6.000000
121.048780 9.000000
137.968280 6.000000
138.016850 6.000000
144.042720 7.000000
178.034590 456.000000

>ms2
71.991000 357.000000
73.990550 148.000000
86.096870 200.000000
114.036020 1000.000000

>ms2
69.038250 581.000000
115.040890 1000.000000
147.060810 871.000000

>ms2
55.055770 23.000000
65.007710 9.000000
71.991840 84.000000
72.090200 9.000000
73.984740 12.000000
86.014180 10.000000
93.714940 14.000000
98.056960 12.000000
114.037340 1000.000000
115.039150 84.000000
116.025860 10.000000
116.033600 27.000000
116.046060 11.000000
116.820080 9.000000
118.060190 8.000000
119.051700 126.000000
120.034510 13.000000
120.055050 53.000000
121.044010 9.000000
146.065750 16.000000
146.993470 21.000000
158.952910 10.000000
178.040850 74.000000

>ms2
55.009590 8.000000
55.049920 14.000000
55.053670 7.000000
71.991210 9.000000
81.060620 5.000000
84.080920 5.000000
96.959590 6.000000
98.052550 5.000000
98.060620 20.000000
110.671080 7.000000
114.002320 7.000000
114.037240 1000.000000
115.039410 80.000000
115.048300 6.000000
116.025130 7.000000
116.034090 34.000000
116.055490 12.000000
117.601910 5.000000
118.072390 16.000000
119.053990 110.000000
119.234870 5.000000
120.052090 6.000000
120.060450 11.000000
130.027220 5.000000
137.955870 6.000000
139.987590 9.000000
144.046620 20.000000
158.966080 6.000000
161.110780 5.000000
178.014010 5.000000
178.034970 386.000000

>ms2
71.993000 1000.000000
72.935940 222.000000
114.036420 222.000000
118.070720 262.000000

>ms2
71.992420 1000.000000

>ms2
70.996250 19.000000
71.926820 8.000000
71.970320 8.000000
71.981880 9.000000
71.992640 47.000000
79.540520 7.000000
81.060160 18.000000
91.016200 10.000000
96.040350 8.000000
98.057290 10.000000
101.042770 8.000000
114.020760 11.000000
114.038410 1000.000000
114.143800 11.000000
114.783550 8.000000
115.036530 14.000000
115.044660 46.000000
116.034480 50.000000
118.061530 7.000000
118.070280 10.000000
118.076990 15.000000
119.047400 43.000000
119.053630 88.000000
120.050830 18.000000
120.060950 10.000000
145.060820 10.000000
178.022610 46.000000
178.033520 88.000000
178.042360 110.000000

>ms2
55.057260 7.000000
70.068240 7.000000
71.991660 17.000000
72.995770 5.000000
76.986350 5.000000
89.041830 13.000000
96.043210 10.000000
97.002550 9.000000
98.056230 28.000000
98.062100 46.000000
113.985100 6.000000
114.021100 6.000000
114.037030 1000.000000
114.860360 8.000000
115.040440 96.000000
116.026420 19.000000
116.036930 56.000000
118.070740 18.000000
119.053150 134.000000
119.064490 13.000000
120.062620 11.000000
121.046580 11.000000
131.917430 8.000000
144.042710 26.000000
144.049940 22.000000
145.047240 6.000000
176.697710 5.000000
177.990080 7.000000
178.017010 12.000000
178.035550 403.000000
178.117420 5.000000

>ms2
55.057700 92.000000
71.992730 1000.000000
96.046570 145.000000
102.033290 184.000000
114.039030 71.000000
150.893300 88.000000

>ms2
118.067640 1000.000000

>ms2
55.054490 26.000000
55.058120 18.000000
62.992790 34.000000
71.501050 23.000000
71.985100 60.000000
71.992630 150.000000
72.993080 27.000000
87.027820 52.000000
98.058330 80.000000
99.055550 22.000000
99.060300 53.000000
114.036570 2796.000000
114.218580 17.000000
115.037570 33.000000
115.045440 67.000000
115.050610 36.000000
116.037090 27.000000
118.066670 87.000000
119.043180 22.000000
119.053910 308.000000
119.064540 38.000000
132.050510 28.000000
144.050400 68.000000
146.064240 20.000000
148.063960 20.000000
149.927510 25.000000
178.014950 46.000000
178.034120 391.000000

