>compound PR80503401
>parentmass 382.1107
>ionization [M+H]+
>formula C13H23N3O6S2
>rt 226.800000
>profile qtof
#smiles_iso CCCSSCC(C(=O)NCC(=O)O)NC(=O)CCC(C(=O)O)N
#smiles_can CCCSSCC(C(=O)NCC(=O)O)NC(=O)CCC(C(=O)O)N
#inchikey RGNVWSYKJVPEEP-UHFFFAOYSA-N
#pubchem_id 75166534
#mb_accession PR310785

>ms2
85.043460 58.000000
112.041250 25.000000
113.961940 21.000000
130.051710 92.000000
131.049180 23.000000
131.056240 16.000000
150.047550 44.000000
151.047940 17.000000
163.228210 16.000000
172.031560 19.000000
177.029950 44.000000
181.065570 27.000000
188.043790 17.000000
201.054580 27.000000
243.049610 16.000000
247.849110 20.000000
253.065110 76.000000
253.075880 88.000000
254.069840 16.000000
254.079450 17.000000
290.067660 18.000000
307.076420 41.000000
382.107700 282.000000

