>compound PR80263518
>parentmass 595.1657470000001
>ionization [M+H]+
>formula C27H30O15
>rt 221.970927
>profile qtof
#smiles_iso CC1C(C(C(C(O1)OC2=CC(=C3C(=C2)OC(=C(C3=O)OC4C(C(C(C(O4)CO)O)O)O)C5=CC=C(C=C5)O)O)O)O)O
#smiles_can CC1C(C(C(C(O1)OC2=CC(=C3C(=C2)OC(=C(C3=O)OC4C(C(C(C(O4)CO)O)O)O)C5=CC=C(C=C5)O)O)O)O)O
#inchikey JYXSWDCPHRTYGU-UHFFFAOYSA-N
#pubchem_id 14035324
#mb_accession PR301973,PR301976,PR301979,PR301982,PR301985,PR301988,PR301991,PR301994,PR301997,PR302000,PR310916

>ms2
85.026120 12.000000
85.031550 10.000000
287.054530 1000.000000
288.056400 135.000000
289.056300 15.000000
289.072880 10.000000

>ms2
69.029370 7.000000
85.028230 15.000000
85.033970 16.000000
87.044730 8.000000
97.024880 8.000000
109.023720 7.000000
111.006870 12.000000
121.032640 6.000000
127.043040 9.000000
148.039780 8.000000
148.051280 6.000000
153.017970 21.000000
165.020140 9.000000
166.019270 9.000000
166.027150 7.000000
171.048400 10.000000
175.075490 6.000000
181.567340 6.000000
185.062210 6.000000
189.055920 5.000000
203.081300 8.000000
213.055560 24.000000
226.061870 8.000000
232.087980 7.000000
241.043560 27.000000
258.062930 6.000000
258.075870 8.000000
259.052120 9.000000
269.055240 9.000000
286.993190 18.000000
287.005800 6.000000
287.055600 1000.000000
287.213560 8.000000
288.060120 199.000000
289.059140 33.000000
290.072170 7.000000

>ms2
71.051250 6.000000
85.024110 12.000000
157.498570 6.000000
241.033770 7.000000
286.990780 5.000000
287.013030 15.000000
287.055630 1000.000000
288.033510 10.000000
288.060760 176.000000
289.064760 19.000000
290.064540 10.000000
300.075070 7.000000
433.114290 352.000000
434.115330 72.000000
435.105070 6.000000
436.127900 10.000000
595.129940 22.000000
595.165220 163.000000

>ms2
287.044530 57.000000
287.059390 58.000000
288.073820 6.000000
433.028780 10.000000
433.110840 902.000000
434.087280 24.000000
434.116090 200.000000
435.110930 27.000000
435.130000 18.000000
449.098080 8.000000
449.118930 7.000000
540.091550 6.000000
595.116700 32.000000
595.165040 1000.000000

>ms2
85.029160 19.000000
91.034580 6.000000
97.028210 12.000000
127.039290 7.000000
145.042310 6.000000
265.099060 6.000000
286.991490 5.000000
287.008730 8.000000
287.019130 11.000000
287.057130 1000.000000
288.041080 32.000000
288.056790 74.000000
288.065730 76.000000
289.062130 8.000000
433.108670 6.000000

>ms2
69.035780 10.000000
85.029790 30.000000
97.023990 12.000000
97.032280 7.000000
121.026220 15.000000
121.034290 12.000000
127.040760 5.000000
133.027630 6.000000
137.290020 7.000000
141.074800 7.000000
153.013120 11.000000
157.065730 5.000000
165.017110 29.000000
167.020800 5.000000
231.071840 22.000000
240.958040 5.000000
241.052980 5.000000
258.049590 15.000000
259.069430 11.000000
269.047450 12.000000
287.018650 33.000000
287.055390 1000.000000
288.037870 11.000000
288.058650 201.000000
289.052920 20.000000
289.064360 11.000000
290.061070 7.000000

>ms2
110.308630 6.000000
145.046260 9.000000
147.062000 6.000000
210.858460 7.000000
286.171080 6.000000
287.021730 8.000000
287.054080 1000.000000
288.038880 8.000000
288.059720 135.000000
288.088260 7.000000
289.053990 12.000000
289.064240 13.000000
290.064820 8.000000
433.110080 390.000000
434.113370 109.000000
434.127260 36.000000
435.098970 11.000000
595.160280 191.000000
595.182620 64.000000

>ms2
227.081340 6.000000
287.055180 66.000000
288.053130 20.000000
335.427800 6.000000
404.252990 6.000000
433.037260 6.000000
433.058260 19.000000
433.113710 897.000000
433.386410 6.000000
434.107420 73.000000
434.118620 144.000000
434.137480 24.000000
435.111270 22.000000
435.135410 11.000000
436.111150 8.000000
449.114690 18.000000
589.628780 6.000000
595.044490 6.000000
595.101680 14.000000
595.167050 1000.000000

>ms2
73.031110 7.000000
85.026660 6.000000
109.027620 6.000000
287.018890 9.000000
287.055450 1000.000000
288.020140 5.000000
288.056700 131.000000
288.071750 44.000000
289.059840 7.000000
373.163180 7.000000

>ms2
81.031650 7.000000
85.026390 11.000000
97.028510 7.000000
109.021750 6.000000
111.008520 13.000000
121.030000 15.000000
127.040080 5.000000
129.065700 11.000000
137.031310 5.000000
145.051010 6.000000
149.052520 5.000000
153.019590 8.000000
163.072570 7.000000
165.021030 42.000000
189.059130 5.000000
199.051330 6.000000
213.063030 12.000000
241.034610 8.000000
251.924960 9.000000
258.052220 8.000000
259.063480 6.000000
286.993650 14.000000
287.007080 20.000000
287.020570 20.000000
287.055330 1000.000000
288.035130 10.000000
288.049320 61.000000
288.061740 150.000000
289.060850 20.000000
289.074860 7.000000

>ms2
71.051250 40.000000
85.024110 77.000000
97.029110 18.000000
127.034300 21.000000
127.041190 22.000000
148.140180 20.000000
157.498570 39.000000
213.052370 25.000000
217.853560 20.000000
241.033770 43.000000
286.990780 34.000000
287.013030 96.000000
287.055630 6496.000000
287.352570 18.000000
288.033510 68.000000
288.060760 1141.000000
289.051330 27.000000
289.064760 126.000000
290.064540 66.000000
292.567810 18.000000
292.835050 17.000000
292.981810 19.000000
300.075070 47.000000
303.054320 20.000000
350.817500 18.000000
351.203770 30.000000
359.070430 24.000000
395.032810 23.000000
431.100520 20.000000
433.064270 20.000000
433.114290 2288.000000
433.370330 24.000000
433.504000 20.000000
434.115330 466.000000
434.141420 31.000000
434.284790 30.000000
435.105070 38.000000
435.119900 23.000000
436.113160 19.000000
436.127900 67.000000
449.111080 23.000000
471.732760 26.000000
594.695250 17.000000
595.089420 22.000000
595.129940 143.000000
595.165220 1060.000000

