>compound PR81995000
>parentmass 303.08631460000004
>ionization [M+H]+
>formula C16H14O6
>rt 369.404040
>profile qtof
#smiles_iso COC1=C(C=C(C=C1)[C@@H]2CC(=O)C3=C(C=C(C=C3O2)O)O)O
#smiles_can COC1=C(C=C(C=C1)C2CC(=O)C3=C(C=C(C=C3O2)O)O)O
#inchikey AIONOLUJZLIMTK-AWEZNQCLSA-N
#pubchem_id 72281
#mb_accession PR302864,PR302870,PR302876,PR302882,PR302888,PR302894,PR302900,PR302906,PR302912,PR302918,PR302924,PR302930

>ms2
89.034350 9.000000
89.041240 6.000000
93.031340 5.000000
97.029270 9.000000
115.503650 6.000000
117.032490 63.000000
118.035000 11.000000
134.036360 20.000000
137.059160 15.000000
145.013610 5.000000
145.029540 88.000000
149.051130 13.000000
149.056980 32.000000
151.039660 9.000000
153.016770 576.000000
153.050720 6.000000
154.021180 48.000000
155.020920 13.000000
160.057590 6.000000
177.052860 459.000000
178.057020 34.000000
179.030200 113.000000
180.030090 14.000000
180.038180 11.000000
193.086070 5.000000
201.060700 11.000000
205.051650 5.000000
210.588350 5.000000
219.062500 14.000000
259.316800 5.000000
262.084990 8.000000
285.078190 15.000000
287.057430 6.000000
303.030550 6.000000
303.084010 1000.000000

>ms2
153.015670 8.000000
153.022490 12.000000
177.053700 68.000000
179.035840 15.000000
285.069670 6.000000
303.030210 6.000000
303.052670 7.000000
303.086400 1000.000000
303.138550 6.000000

>ms2
67.015720 18.000000
68.996280 6.000000
69.036110 9.000000
89.039070 37.000000
89.047180 5.000000
90.042730 9.000000
103.055330 8.000000
111.008480 19.000000
117.032900 151.000000
118.037490 18.000000
119.048870 8.000000
119.053990 8.000000
121.068930 10.000000
123.040390 26.000000
125.022510 7.000000
125.057380 16.000000
127.045190 6.000000
131.046360 5.000000
134.036240 34.000000
135.041580 8.000000
136.054700 6.000000
137.053800 10.000000
137.062230 17.000000
137.070340 9.000000
145.005840 8.000000
145.028500 206.000000
146.029330 11.000000
146.037960 13.000000
149.058670 126.000000
150.064130 10.000000
151.039460 8.000000
152.992650 8.000000
153.018360 1000.000000
153.049420 16.000000
154.023240 94.000000
155.026500 23.000000
159.038100 6.000000
159.047260 6.000000
177.055450 191.000000
178.062640 30.000000
179.033800 42.000000
183.048390 9.000000
187.050380 6.000000
242.052440 6.000000
242.067230 6.000000
270.048920 8.000000
287.055150 9.000000

>ms2
65.036450 42.000000
66.048300 31.000000
67.013430 57.000000
67.020210 39.000000
68.997260 36.000000
69.002380 38.000000
69.032700 84.000000
69.037130 58.000000
76.822440 35.000000
77.043820 26.000000
78.034290 35.000000
78.044650 39.000000
83.007810 42.000000
83.015010 70.000000
89.020740 20.000000
89.037630 556.000000
89.042670 238.000000
90.027530 29.000000
90.039230 75.000000
91.053670 54.000000
92.998220 46.000000
93.030080 31.000000
93.070020 23.000000
94.042240 54.000000
96.014370 29.000000
96.639020 20.000000
97.030580 90.000000
97.659320 19.000000
103.053510 17.000000
105.034860 22.000000
106.035500 20.000000
106.041690 19.000000
107.028080 46.000000
107.042920 20.000000
110.034070 69.000000
110.039760 18.000000
111.008210 48.000000
114.023050 26.000000
114.043530 24.000000
116.392030 17.000000
117.026600 163.000000
117.036030 97.000000
117.070260 19.000000
118.039390 49.000000
118.067860 19.000000
121.027390 29.000000
124.759640 17.000000
131.041170 30.000000
133.027600 43.000000
134.021030 19.000000
134.036180 287.000000
136.056670 18.000000
137.026660 104.000000
137.064120 42.000000
139.050740 75.000000
139.059390 20.000000
140.057830 23.000000
145.007740 33.000000
145.016040 16.000000
146.034100 31.000000
147.051270 22.000000
149.052080 28.000000
149.064730 24.000000
151.063370 36.000000
152.070890 19.000000
153.000200 43.000000
153.018400 1000.000000
154.024170 91.000000
155.019100 20.000000
155.024140 41.000000
155.112150 17.000000
160.055280 38.000000
161.024380 23.000000
177.055680 32.000000
179.032320 23.000000
180.038650 24.000000
186.070830 22.000000
197.071320 23.000000
223.043440 26.000000
287.084350 26.000000

>ms2
89.034440 13.000000
89.039570 28.000000
106.038890 8.000000
111.001280 5.000000
117.032480 53.000000
118.033460 9.000000
125.054540 6.000000
134.038150 8.000000
137.059860 15.000000
145.026980 89.000000
145.062670 8.000000
146.024960 6.000000
149.057510 23.000000
149.065920 18.000000
150.065000 6.000000
151.033950 6.000000
153.017230 565.000000
153.052830 16.000000
154.020890 41.000000
154.032470 6.000000
155.022860 6.000000
162.018230 5.000000
165.162030 6.000000
175.077900 6.000000
177.019040 5.000000
177.053420 530.000000
178.055980 52.000000
179.021820 20.000000
179.035570 99.000000
179.062730 12.000000
180.033550 5.000000
180.041960 7.000000
185.734410 6.000000
193.081850 6.000000
201.056700 29.000000
215.062480 7.000000
219.058460 7.000000
219.069180 8.000000
225.032840 6.000000
229.034090 6.000000
243.058030 5.000000
261.078700 8.000000
285.073330 34.000000
286.114930 6.000000
287.062470 7.000000
303.017910 11.000000
303.049440 8.000000
303.085570 1000.000000

>ms2
153.015140 19.000000
177.054030 56.000000
179.034350 12.000000
303.042820 9.000000
303.086240 1000.000000
303.137760 12.000000

>ms2
67.016650 22.000000
68.995900 13.000000
69.030180 7.000000
69.035320 5.000000
83.010700 9.000000
89.038670 72.000000
90.042780 9.000000
91.053090 8.000000
93.036560 11.000000
97.022830 6.000000
97.030760 12.000000
103.053160 12.000000
106.039730 8.000000
111.004510 13.000000
117.022260 10.000000
117.032030 153.000000
118.038500 19.000000
118.045440 6.000000
119.048230 10.000000
121.061060 11.000000
123.045060 25.000000
125.023130 9.000000
125.057950 16.000000
134.036300 42.000000
135.036730 6.000000
136.050230 15.000000
137.058380 31.000000
145.026890 210.000000
146.019470 6.000000
146.030210 38.000000
149.045900 15.000000
149.058300 97.000000
150.061800 22.000000
151.032780 8.000000
151.041140 10.000000
151.066730 11.000000
153.017490 1000.000000
153.052840 5.000000
154.018690 79.000000
162.031280 7.000000
162.038350 8.000000
163.031020 5.000000
169.065440 6.000000
177.052410 238.000000
178.057340 38.000000
179.020400 5.000000
179.032710 23.000000
213.061660 6.000000
215.066880 8.000000
242.070300 7.000000
270.050290 6.000000
285.069670 7.000000
287.048030 8.000000

>ms2
63.022160 18.000000
65.034930 39.000000
65.038130 17.000000
67.014250 81.000000
68.994450 29.000000
68.999880 122.000000
69.033350 66.000000
69.039790 16.000000
78.046760 19.000000
78.993850 17.000000
79.023700 19.000000
79.053740 30.000000
79.060200 25.000000
83.009380 26.000000
84.017420 17.000000
89.022520 22.000000
89.035790 372.000000
89.041870 487.000000
90.040990 66.000000
90.048510 18.000000
91.037760 17.000000
91.054690 67.000000
92.994560 36.000000
93.033260 53.000000
94.039630 44.000000
97.018610 28.000000
97.025050 58.000000
97.034430 117.000000
98.027510 23.000000
101.044560 34.000000
105.029490 29.000000
105.037690 22.000000
106.037200 18.000000
107.012680 61.000000
107.028190 27.000000
111.002760 62.000000
111.009670 18.000000
115.046620 59.000000
117.030200 172.000000
117.035160 173.000000
119.011800 18.000000
120.148080 36.000000
122.032660 111.000000
123.049760 28.000000
124.016260 19.000000
125.016960 28.000000
125.447350 16.000000
127.053600 35.000000
128.066910 16.000000
131.053940 27.000000
133.030260 23.000000
134.034350 292.000000
135.037960 58.000000
136.048860 50.000000
139.048770 22.000000
140.047160 19.000000
141.066090 25.000000
141.070160 58.000000
145.030560 34.000000
149.063390 211.000000
151.052760 28.000000
153.016540 1000.000000
154.015660 73.000000
154.027150 84.000000
155.021880 31.000000
155.031980 32.000000
156.035690 17.000000
158.033950 49.000000
160.055530 16.000000
161.015930 23.000000
162.034450 29.000000
168.061570 39.000000
169.047130 21.000000
169.061600 17.000000
179.034210 44.000000
266.986570 18.000000
271.041050 20.000000

>ms2
68.995520 6.000000
89.047220 6.000000
90.039900 5.000000
107.051930 6.000000
111.007680 16.000000
117.027050 13.000000
117.033160 36.000000
118.033840 10.000000
125.024700 10.000000
134.039640 12.000000
137.051420 8.000000
145.025250 87.000000
146.034760 12.000000
149.047500 6.000000
149.057880 37.000000
149.069140 5.000000
151.037830 10.000000
152.994260 10.000000
153.017840 568.000000
154.013810 24.000000
154.021770 40.000000
177.053210 480.000000
178.051190 35.000000
178.059980 16.000000
178.068570 13.000000
179.027760 42.000000
179.036290 56.000000
179.057130 6.000000
181.043050 5.000000
201.056340 10.000000
215.077970 6.000000
219.064250 10.000000
219.075440 8.000000
270.050840 5.000000
285.069400 17.000000
287.055050 8.000000
303.085240 1000.000000

>ms2
153.018600 20.000000
177.053710 62.000000
178.058350 6.000000
179.033080 12.000000
285.072720 6.000000
303.044980 10.000000
303.086610 1000.000000
303.135830 6.000000

>ms2
85.032730 6.000000
89.032760 12.000000
89.039400 56.000000
91.048310 6.000000
93.028500 6.000000
106.040930 5.000000
110.031200 6.000000
110.039980 6.000000
111.001950 8.000000
111.008760 12.000000
111.052060 7.000000
117.026260 31.000000
117.032270 83.000000
117.038050 44.000000
118.033200 13.000000
122.041550 5.000000
123.048870 24.000000
125.058340 10.000000
129.079710 6.000000
134.024690 9.000000
134.034810 16.000000
134.042180 7.000000
135.010240 8.000000
137.056690 27.000000
137.065080 17.000000
145.029340 191.000000
145.061740 5.000000
146.030270 20.000000
149.049770 30.000000
149.061690 83.000000
150.055010 6.000000
150.060930 14.000000
151.038300 15.000000
151.077670 14.000000
153.017350 1000.000000
154.007610 18.000000
154.018520 55.000000
154.026690 41.000000
155.018050 18.000000
155.024110 6.000000
156.027530 6.000000
162.038450 6.000000
166.023570 13.000000
177.015950 6.000000
177.032240 8.000000
177.050670 192.000000
177.075650 9.000000
178.050230 5.000000
178.059830 10.000000
179.031340 26.000000
200.047060 8.000000
204.039580 8.000000
219.065060 13.000000
228.033420 8.000000
270.063570 6.000000
287.051090 18.000000
303.070500 10.000000

>ms2
67.017710 97.000000
68.996560 146.000000
69.002690 26.000000
69.028150 46.000000
69.034050 29.000000
78.045360 113.000000
79.016820 30.000000
79.187410 30.000000
83.016270 35.000000
88.025090 23.000000
88.980480 49.000000
89.032720 149.000000
89.039160 502.000000
89.044060 166.000000
90.041810 62.000000
90.048470 35.000000
91.050370 31.000000
92.059050 22.000000
92.688850 18.000000
93.033470 127.000000
94.027510 37.000000
96.018040 26.000000
97.022540 22.000000
105.031650 50.000000
105.037990 35.000000
106.037200 24.000000
106.044820 44.000000
107.164670 19.000000
111.043010 27.000000
115.057620 19.000000
116.057880 28.000000
117.029200 63.000000
117.037060 202.000000
117.140350 19.000000
118.035800 87.000000
119.048020 19.000000
122.037590 65.000000
124.038320 21.000000
126.028150 46.000000
128.055390 24.000000
128.076030 20.000000
134.025450 30.000000
134.035190 158.000000
135.011920 19.000000
136.054210 54.000000
137.063350 65.000000
139.025510 34.000000
139.055470 28.000000
145.032030 95.000000
146.036930 19.000000
149.060030 27.000000
149.820920 38.000000
151.054760 28.000000
153.018330 1000.000000
154.024490 83.000000
157.027970 23.000000
167.047260 58.000000
169.069380 46.000000
303.081390 145.000000

