>compound PR81519888
>parentmass 286.2012848
>ionization [M+H]+
>formula C15H27NO4
>rt 183.168000
>profile qtof
#smiles_iso C[C@@H]([C@@](C(C)C)(C(=O)OC[C@@H]1CCN2[C@H]1CCC2)O)O
#smiles_can CC(C)C(C(C)O)(C(=O)OCC1CCN2C1CCC2)O
#inchikey BWQSLRZZOVFVHJ-ABHRYQDASA-N
#pubchem_id 6453144
#mb_accession PR300382,PR300387,PR300392,PR300397,PR300402,PR300407,PR300412,PR300417,PR300422,PR300427,PR300432,PR300436

>ms2
142.130070 135.000000
158.952730 104.000000
159.062870 109.000000
286.201690 1000.000000

>ms2
217.862210 36.000000
284.172940 65.000000
286.177860 31.000000
286.201750 1000.000000

>ms2
83.047590 194.000000
124.114030 139.000000
125.120140 167.000000
142.108490 229.000000
142.122130 1000.000000
143.124970 146.000000
286.201780 465.000000

>ms2
142.124530 1000.000000

>ms2
140.107350 160.000000
142.114240 104.000000
142.121600 117.000000
286.187320 247.000000
286.201350 1000.000000

>ms2
181.812360 50.000000
201.957120 58.000000
225.672040 60.000000
281.720580 45.000000
286.157260 103.000000
286.201420 1000.000000
286.213200 372.000000

>ms2
124.114660 453.000000
125.119220 137.000000
142.125060 1000.000000
269.889590 113.000000

>ms2
70.063840 1000.000000

>ms2
124.112650 408.000000
124.116510 185.000000
142.123460 338.000000
155.656270 185.000000
249.077770 138.000000
286.202550 1000.000000

>ms2
286.178620 51.000000
286.204930 1000.000000

>ms2
124.117690 372.000000
142.113240 204.000000
142.124210 1000.000000
142.130370 387.000000

>ms2
142.128130 1000.000000

