>compound PR81326669
>parentmass 933.263
>ionization [M]+
>formula C43H49O23+
>rt 225.600000
>profile qtof
#smiles_iso CC1C(C(C(C(O1)OCC2C(C(C(C(O2)OC3=C([O+]=C4C=C(C=C(C4=C3)OC5C(C(C(C(O5)CO)O)O)O)O)C6=CC(=C(C(=C6)OC)O)O)O)O)O)O)O)OC(=O)/C=C/C7=CC=C(C=C7)O
#smiles_can CC1C(C(C(C(O1)OCC2C(C(C(C(O2)OC3=C([O+]=C4C=C(C=C(C4=C3)OC5C(C(C(C(O5)CO)O)O)O)O)C6=CC(=C(C(=C6)OC)O)O)O)O)O)O)O)OC(=O)C=CC7=CC=C(C=C7)O
#inchikey BXEZTCOKOLHMKY-UHFFFAOYSA-O
#pubchem_id 131752299
#mb_accession PR311140

>ms2peaks
314.867280 40.000000
316.054170 20.000000
317.062620 165.000000
317.084960 70.000000
318.065580 22.000000
318.080660 20.000000
319.075780 36.000000
319.948120 17.000000
587.031980 17.000000
709.186340 33.000000
771.198000 69.000000
772.205750 16.000000
773.241030 20.000000
919.977540 18.000000
933.234310 76.000000
933.268310 265.000000
933.325500 16.000000

