>compound PR81522929
>parentmass 611.1601128000001
>ionization [M]+
>formula C27H31O16+
>rt 166.275000
>profile qtof
#smiles_iso C1=CC(=C(C=C1C2=[O+]C3=CC(=CC(=C3C=C2O[C@H]4[C@@H]([C@H]([C@@H]([C@H](O4)CO)O)O)O[C@H]5[C@@H]([C@H]([C@@H]([C@H](O5)CO)O)O)O)O)O)O)O
#smiles_can C1=CC(=C(C=C1C2=[O+]C3=CC(=CC(=C3C=C2OC4C(C(C(C(O4)CO)O)O)OC5C(C(C(C(O5)CO)O)O)O)O)O)O)O
#inchikey SXYMMDGPXYVCER-WGNLCONDSA-O
#pubchem_id 11169452
#mb_accession PR303117,PR303121,PR303125,PR303129,PR303133,PR303137,PR303141,PR303145,PR303149,PR303153,PR303157,PR303161

>ms2
287.002840 7.000000
287.016630 6.000000
287.055020 1000.000000
288.046080 41.000000
288.058560 138.000000
289.052520 13.000000
289.067320 9.000000
611.078800 12.000000
611.109070 6.000000
611.159730 464.000000

>ms2
287.024140 7.000000
287.054410 97.000000
288.053680 13.000000
288.066740 9.000000
611.079530 11.000000
611.114690 21.000000
611.158690 1000.000000

>ms2
287.010650 17.000000
287.054720 1000.000000
288.052760 78.000000
288.064360 89.000000
289.060520 31.000000

>ms2
137.021680 6.000000
213.055100 23.000000
241.042800 8.000000
287.005650 8.000000
287.018770 11.000000
287.054290 1000.000000
288.057860 161.000000
289.060030 33.000000

>ms2
287.015080 13.000000
287.054140 1000.000000
288.032680 8.000000
288.058560 194.000000
289.062810 39.000000
611.078370 6.000000
611.096370 7.000000
611.160160 439.000000

>ms2
287.056730 104.000000
288.055540 7.000000
611.070370 5.000000
611.097290 21.000000
611.161930 1000.000000

>ms2
287.001250 10.000000
287.012760 6.000000
287.055270 1000.000000
288.060460 141.000000
289.049960 7.000000
289.060550 18.000000

>ms2
137.022740 12.000000
137.030500 6.000000
143.053150 5.000000
185.060290 8.000000
189.041090 5.000000
213.047440 14.000000
213.068190 7.000000
217.050380 7.000000
231.076290 10.000000
269.042790 10.000000
287.003720 10.000000
287.021610 19.000000
287.054930 1000.000000
287.511140 5.000000
288.025820 6.000000
288.050230 83.000000
288.065370 87.000000
289.052760 7.000000
289.067020 26.000000

>ms2
287.008880 8.000000
287.054440 1000.000000
288.028810 6.000000
288.056580 195.000000
289.065700 20.000000
611.074520 7.000000
611.095580 5.000000
611.160280 453.000000

>ms2
287.054690 119.000000
288.047090 7.000000
288.059450 7.000000
611.085210 18.000000
611.109990 26.000000
611.160890 1000.000000

>ms2
287.021000 6.000000
287.056340 1000.000000
288.058350 166.000000
289.051970 7.000000
289.065400 29.000000

>ms2
109.026820 7.000000
137.023530 14.000000
137.028430 5.000000
161.050720 6.000000
185.055540 5.000000
213.055570 10.000000
241.039350 7.000000
241.051390 8.000000
286.973240 6.000000
287.009640 7.000000
287.024170 9.000000
287.053740 1000.000000
288.058470 185.000000
289.052460 13.000000
289.067410 27.000000

