>compound PR81792917
>parentmass 305.2495
>ionization [M+H]+
>formula C20H32O2
>rt 443.400000
>profile qtof
#smiles_iso CCCCC/C=C\C/C=C\C/C=C\C/C=C\CCCC(=O)O
#smiles_can CCCCCC=CCC=CCC=CCC=CCCCC(=O)O
#inchikey YZXBAPSDXZZRGB-DOFZRALJSA-N
#pubchem_id 444899
#mb_accession PR311033

>ms2
85.065320 25.000000
93.071170 21.000000
95.087760 19.000000
97.063570 16.000000
107.083100 39.000000
108.090580 20.000000
109.059620 19.000000
109.102510 32.000000
114.100630 18.000000
117.070040 21.000000
119.088450 18.000000
121.104570 111.000000
123.079220 26.000000
123.115970 44.000000
127.074790 17.000000
127.104960 16.000000
135.117420 45.000000
143.086230 54.000000
147.116070 19.000000
151.105510 86.000000
151.154540 24.000000
159.116420 20.000000
161.133620 24.000000
161.140050 39.000000
163.137160 17.000000
163.155620 16.000000
165.123540 24.000000
175.149380 18.000000
181.121670 17.000000
181.153290 38.000000
181.168670 41.000000
207.138950 28.000000
209.154750 19.000000
221.157230 21.000000
227.174480 17.000000
231.173650 54.000000
245.246400 21.000000
269.227940 46.000000
287.237000 38.000000
288.243680 20.000000
304.196170 18.000000
305.249180 353.000000

