>compound PR81627194
>parentmass 597.1444627
>ionization [M]+
>formula C26H29O16+
>rt 159.171000
>profile qtof
#smiles_iso C1[C@H]([C@@H]([C@H]([C@@H](O1)O[C@@H]2[C@H]([C@@H]([C@H](O[C@H]2OC3=CC4=C(C=C(C=C4[O+]=C3C5=CC(=C(C(=C5)O)O)O)O)O)CO)O)O)O)O)O
#smiles_can C1C(C(C(C(O1)OC2C(C(C(OC2OC3=CC4=C(C=C(C=C4[O+]=C3C5=CC(=C(C(=C5)O)O)O)O)O)CO)O)O)O)O)O
#inchikey TWYYVOVDSNRIJM-AFAGGVQESA-O
#pubchem_id 10196837
#mb_accession PR303047,PR303052,PR303057,PR303062,PR303067,PR303072,PR303077,PR303082,PR303087,PR303092,PR303097,PR303102

>ms2
189.060420 6.000000
213.047200 8.000000
258.052800 6.000000
298.716860 10.000000
302.971370 5.000000
302.981320 11.000000
303.010280 15.000000
303.048800 1000.000000
304.038730 72.000000
304.057100 170.000000
305.060060 26.000000
307.056730 5.000000
440.310820 13.000000
586.699280 7.000000
597.147160 440.000000
597.197450 7.000000
597.235840 5.000000

>ms2
303.019410 5.000000
303.036740 24.000000
303.048800 47.000000
303.057890 16.000000
304.040250 7.000000
304.050540 7.000000
304.065220 8.000000
370.489470 6.000000
420.892210 8.000000
425.680690 8.000000
597.001100 7.000000
597.070920 12.000000
597.142030 1000.000000

>ms2
303.047850 1000.000000
304.020810 10.000000
304.053590 258.000000
304.668030 7.000000
305.048550 15.000000
305.062840 22.000000

>ms2
55.611980 8.000000
73.025890 8.000000
74.211780 8.000000
125.029060 8.000000
149.015140 13.000000
149.029020 11.000000
150.027680 16.000000
161.064120 19.000000
173.889530 13.000000
176.047730 17.000000
201.057080 9.000000
203.031230 8.000000
215.035930 9.000000
219.083850 19.000000
229.062840 34.000000
230.060760 7.000000
231.030260 14.000000
246.057890 13.000000
257.014620 16.000000
257.038240 10.000000
303.017300 25.000000
303.049410 1000.000000
304.033870 13.000000
304.055110 123.000000
305.051570 20.000000
306.064970 13.000000
411.706570 8.000000

>ms2
137.058140 8.000000
145.072880 6.000000
179.032380 12.000000
247.056140 7.000000
262.031220 6.000000
302.943880 6.000000
302.984100 12.000000
303.021390 8.000000
303.049680 1000.000000
304.000760 10.000000
304.040650 46.000000
304.051480 89.000000
304.073180 13.000000
305.021910 6.000000
305.038600 7.000000
305.051330 25.000000
305.070130 6.000000
325.816830 6.000000
328.259000 7.000000
596.324950 6.000000
597.062620 11.000000
597.093200 29.000000
597.146120 475.000000

>ms2
303.045440 61.000000
372.861970 9.000000
558.037050 7.000000
596.789000 6.000000
597.074040 10.000000
597.148190 1000.000000

>ms2
103.040660 5.000000
258.049500 9.000000
273.043640 10.000000
302.984920 9.000000
303.050260 1000.000000
304.039920 49.000000
304.053130 153.000000
306.048680 11.000000
355.911290 9.000000
555.594730 5.000000

>ms2
137.016940 5.000000
145.030000 8.000000
151.044860 6.000000
173.028980 6.000000
189.042980 8.000000
191.041380 9.000000
201.061080 13.000000
202.049730 7.000000
203.030700 6.000000
204.905400 8.000000
212.035490 9.000000
213.052000 8.000000
218.448240 14.000000
219.073870 8.000000
229.029250 14.000000
229.045240 28.000000
230.048400 7.000000
240.045230 7.000000
256.997190 8.000000
257.031950 13.000000
257.041350 38.000000
257.059480 8.000000
258.043000 12.000000
275.049560 7.000000
302.242460 5.000000
302.941040 6.000000
303.017330 12.000000
303.051150 1000.000000
303.123170 8.000000
304.054600 145.000000
305.028380 16.000000
305.061890 27.000000
307.208370 6.000000
307.594760 5.000000
597.158200 7.000000

>ms2
257.037480 7.000000
291.691250 8.000000
303.007630 21.000000
303.050140 1000.000000
304.027620 10.000000
304.043950 55.000000
304.057920 97.000000
305.044950 9.000000
305.058470 34.000000
319.043670 7.000000
596.559880 6.000000
597.082210 23.000000
597.149600 542.000000

>ms2
303.017730 5.000000
303.048340 106.000000
304.051850 16.000000
312.726990 5.000000
317.369230 8.000000
346.126560 7.000000
485.718540 6.000000
597.016170 9.000000
597.059330 10.000000
597.070800 25.000000
597.144410 1000.000000

>ms2
229.785960 7.000000
302.998900 8.000000
303.016240 13.000000
303.049900 1000.000000
303.119720 7.000000
304.051880 89.000000
304.074070 19.000000
305.041690 6.000000
305.059540 12.000000
306.075160 8.000000
307.051790 8.000000
309.015230 6.000000
435.076720 6.000000

>ms2
85.027730 7.000000
135.009110 9.000000
136.985840 8.000000
139.030000 11.000000
139.041580 7.000000
145.064580 13.000000
150.027600 18.000000
152.995970 9.000000
153.026460 14.000000
161.059360 16.000000
163.044190 7.000000
165.030720 8.000000
171.051560 8.000000
173.026410 6.000000
176.997590 20.000000
183.029450 10.000000
185.053190 11.000000
187.040860 11.000000
199.821820 8.000000
202.054720 13.000000
205.043820 18.000000
213.052080 17.000000
217.044600 16.000000
228.051410 8.000000
229.033100 10.000000
229.050770 16.000000
229.063490 13.000000
230.058230 17.000000
233.043330 9.000000
239.646820 6.000000
245.059170 23.000000
256.958250 9.000000
257.043030 32.000000
257.050780 19.000000
259.052730 16.000000
261.005830 9.000000
263.419310 9.000000
285.056880 8.000000
302.769100 9.000000
303.013090 22.000000
303.047360 1000.000000
304.042050 39.000000
304.056460 214.000000
305.053380 8.000000
305.068570 6.000000
310.737980 7.000000
343.074010 10.000000

