>compound PR81658117
>parentmass 182.0811
>ionization [M+H]+
>formula C9H11NO3
>rt 107.400000
>profile qtof
#smiles_iso C1=CC(=CC=C1CC(C(=O)O)N)O
#smiles_can C1=CC(=CC=C1CC(C(=O)O)N)O
#inchikey OUYCCCASQSFEME-UHFFFAOYSA-N
#pubchem_id 1153
#mb_accession PR311157

>ms2
77.028930 20.000000
77.040350 40.000000
81.070520 18.000000
86.092420 17.000000
91.035320 20.000000
91.048980 76.000000
91.054560 160.000000
95.048830 61.000000
97.972340 20.000000
100.927760 21.000000
103.050500 24.000000
107.051450 40.000000
108.046770 24.000000
118.769560 18.000000
119.036780 22.000000
119.047340 309.000000
119.055410 49.000000
120.052760 51.000000
121.065820 20.000000
123.043590 625.000000
136.019070 17.000000
136.055220 26.000000
136.065280 107.000000
136.076220 1394.000000
137.072330 40.000000
137.080750 17.000000
137.092770 22.000000
139.948940 22.000000
141.960650 20.000000
145.932890 19.000000
147.043300 478.000000
147.052410 56.000000
148.052200 27.000000
164.016560 17.000000
165.056050 1117.000000
165.516570 17.000000
165.689090 20.000000
166.046170 36.000000
166.051850 84.000000
166.066330 47.000000
166.710540 18.000000
169.432950 23.000000
172.878480 46.000000
181.927150 21.000000
182.061680 21.000000
182.082000 559.000000

