>compound PR82293183
>parentmass 243.13490000000002
>ionization [M+H]+
>formula C11H18N2O4
>rt 187.500000
>profile qtof
#smiles_iso CCC(C)C(C(=O)O)NC(=O)C1CCC(=O)N1
#smiles_can CCC(C)C(C(=O)O)NC(=O)C1CCC(=O)N1
#inchikey MKCVLTRITQNGQI-UHFFFAOYSA-N
#pubchem_id 21405068
#mb_accession PR311041,PR311042

>ms2peaks
86.096110 163.000000
110.023770 23.000000
112.072510 33.000000
116.928720 28.000000
132.094700 35.000000
145.965960 17.000000
164.545150 17.000000
166.084240 23.000000
197.116880 20.000000
197.131870 42.000000
197.148700 26.000000
198.130430 36.000000
224.573790 25.000000
242.146730 19.000000
243.136490 28.000000

>ms2peaks
84.044220 24.000000
86.097150 34.000000
110.199780 29.000000
124.993100 19.000000
128.054500 17.000000
129.062060 18.000000
133.096300 31.000000
138.121020 17.000000
141.065670 25.000000
158.073000 25.000000
160.066020 55.000000
169.905440 20.000000
172.117200 17.000000
197.130680 47.000000
198.134890 18.000000
225.132320 21.000000
240.997740 44.000000
243.127790 52.000000
243.141010 99.000000

