>compound PR82582174
>parentmass 595.1657467000001
>ionization [M+H]+
>formula C27H30O15
>rt 248.263980
>profile qtof
#smiles_iso C[C@H]1[C@@H]([C@H]([C@H]([C@@H](O1)OC[C@@H]2[C@H]([C@@H]([C@H]([C@@H](O2)OC3=C(OC4=CC(=CC(=C4C3=O)O)O)C5=CC=C(C=C5)O)O)O)O)O)O)O
#smiles_can CC1C(C(C(C(O1)OCC2C(C(C(C(O2)OC3=C(OC4=CC(=CC(=C4C3=O)O)O)C5=CC=C(C=C5)O)O)O)O)O)O)O
#inchikey RTATXGUCZHCSNG-QHWHWDPRSA-N
#pubchem_id 5318767
#mb_accession PR302932,PR302937,PR302942,PR302947,PR302952,PR302957,PR302962,PR302967,PR302972,PR302977,PR302982,PR302987

>ms2
85.021740 7.000000
100.044690 7.000000
127.039820 8.000000
129.046570 8.000000
147.064470 9.000000
175.073820 8.000000
195.328430 6.000000
242.751850 6.000000
286.975770 6.000000
287.011410 10.000000
287.022830 11.000000
287.053920 1000.000000
287.120090 5.000000
288.059810 151.000000
289.054530 10.000000
289.066930 22.000000
289.168520 6.000000
306.599370 6.000000
431.101260 7.000000
449.105590 134.000000
450.107510 49.000000
451.114840 9.000000
531.309270 10.000000
595.125240 21.000000
595.169010 108.000000

>ms2
59.119970 8.000000
85.029800 7.000000
127.035560 8.000000
171.062810 8.000000
213.077650 9.000000
253.051770 10.000000
255.081160 6.000000
287.029690 12.000000
287.054990 848.000000
287.764590 13.000000
288.034730 16.000000
288.057710 146.000000
288.768430 8.000000
289.062650 32.000000
309.114320 8.000000
381.447050 9.000000
404.091860 8.000000
430.707920 6.000000
433.079710 12.000000
433.100040 34.000000
433.127170 17.000000
434.111360 6.000000
434.130100 9.000000
435.109280 6.000000
442.792240 7.000000
449.062740 6.000000
449.106320 398.000000
450.106320 121.000000
450.125670 23.000000
451.079960 13.000000
451.114200 17.000000
452.114780 8.000000
498.107970 8.000000
594.483400 6.000000
595.166930 1000.000000

>ms2
71.045740 5.000000
71.052990 10.000000
84.935560 6.000000
85.029860 49.000000
86.037620 7.000000
128.033080 13.000000
128.038910 6.000000
129.050050 28.000000
129.058460 12.000000
145.052990 9.000000
169.050720 6.000000
225.076920 5.000000
258.051240 6.000000
287.021790 22.000000
287.054780 1000.000000
287.104130 7.000000
288.055020 130.000000
289.060270 21.000000
299.060940 6.000000
383.086980 6.000000

>ms2
69.036830 22.000000
71.047100 101.000000
83.044070 30.000000
85.017430 11.000000
85.028700 156.000000
97.033610 55.000000
111.006980 37.000000
111.044290 9.000000
121.017970 13.000000
121.029760 10.000000
133.027440 16.000000
153.016400 16.000000
161.024920 17.000000
165.016920 80.000000
166.022220 17.000000
189.053220 17.000000
203.026410 13.000000
213.041900 17.000000
213.052840 48.000000
231.068250 11.000000
235.891720 11.000000
241.053820 10.000000
245.038910 19.000000
246.043210 16.000000
259.067260 14.000000
267.207210 10.000000
286.997160 9.000000
287.019590 18.000000
287.030640 41.000000
287.056850 1000.000000
288.051210 185.000000
288.063480 46.000000
288.076600 10.000000
288.545410 9.000000
289.061400 28.000000
290.648710 9.000000
330.056030 16.000000
379.345890 17.000000
395.074800 9.000000

>ms2
71.048100 23.000000
85.027160 23.000000
97.034040 5.000000
127.036640 10.000000
128.542400 5.000000
129.050780 13.000000
147.065190 20.000000
192.770630 10.000000
218.420520 6.000000
225.089690 8.000000
286.973360 10.000000
286.983830 8.000000
287.019590 42.000000
287.054080 1000.000000
288.058990 152.000000
288.073240 26.000000
289.046480 10.000000
289.060150 7.000000
432.112580 7.000000
434.111110 6.000000
449.101140 138.000000
449.122770 19.000000
450.109950 33.000000
451.107150 7.000000
595.075870 9.000000
595.120180 10.000000
595.162960 91.000000
595.182800 41.000000

>ms2
97.020000 7.000000
129.055110 18.000000
145.047650 6.000000
165.074860 6.000000
194.458020 8.000000
287.015010 15.000000
287.054720 1000.000000
288.054140 137.000000
289.056060 7.000000
297.647920 8.000000
329.064670 12.000000
411.426940 7.000000
432.058040 7.000000
433.110200 29.000000
433.136170 10.000000
434.120030 15.000000
434.151890 10.000000
448.934940 6.000000
449.033290 8.000000
449.056300 8.000000
449.074770 49.000000
449.104400 187.000000
449.118160 316.000000
449.702450 6.000000
450.108980 125.000000
451.107820 12.000000
451.122740 7.000000
484.604860 6.000000
488.132870 12.000000
591.914180 6.000000
595.067990 7.000000
595.089780 7.000000
595.123230 43.000000
595.166870 890.000000

>ms2
57.035140 10.000000
69.034320 6.000000
71.053780 11.000000
83.052690 10.000000
85.025250 22.000000
85.032600 28.000000
97.025900 9.000000
129.039900 9.000000
129.052800 52.000000
145.047130 11.000000
147.060150 8.000000
147.070560 7.000000
195.101910 6.000000
287.055790 1000.000000
287.086580 15.000000
288.059970 118.000000
289.050420 12.000000
371.094880 6.000000
377.066990 6.000000

>ms2
55.054740 14.000000
68.999730 16.000000
71.048840 11.000000
85.024710 58.000000
97.026950 13.000000
129.058270 10.000000
133.029680 9.000000
135.043490 18.000000
146.069870 11.000000
146.500120 12.000000
147.044570 13.000000
153.016050 37.000000
157.068940 11.000000
158.079270 15.000000
165.018050 39.000000
165.026700 21.000000
175.075450 22.000000
203.036440 12.000000
213.057310 16.000000
214.061280 17.000000
217.048220 10.000000
223.042220 11.000000
231.940220 10.000000
241.009750 11.000000
241.057800 10.000000
245.942990 15.000000
258.050720 12.000000
286.897490 11.000000
286.934840 9.000000
287.021700 13.000000
287.055450 1000.000000
287.098660 9.000000
288.033510 9.000000
288.062130 85.000000
289.055940 10.000000
300.058500 13.000000

>ms2
85.022040 8.000000
85.030190 16.000000
97.032870 6.000000
127.045070 5.000000
129.054870 62.000000
133.045640 5.000000
143.027890 6.000000
147.071370 15.000000
156.927570 6.000000
248.838100 6.000000
287.018460 13.000000
287.054840 1000.000000
288.049620 67.000000
288.061550 167.000000
289.056790 15.000000
289.068540 21.000000
433.115810 15.000000
449.091770 44.000000
449.116030 106.000000
450.119630 52.000000
472.265290 8.000000
595.130490 13.000000
595.163640 102.000000
595.183470 32.000000

>ms2
129.037660 21.000000
129.050920 39.000000
145.052510 6.000000
147.055630 6.000000
147.076250 7.000000
231.596820 7.000000
237.048780 13.000000
255.081950 17.000000
286.691620 6.000000
287.022520 9.000000
287.055570 721.000000
287.077090 19.000000
287.852780 10.000000
288.057680 107.000000
288.065060 37.000000
289.059330 20.000000
290.062410 9.000000
309.112000 10.000000
309.125400 13.000000
309.798980 16.000000
414.872310 11.000000
419.117030 9.000000
431.098080 8.000000
433.098940 16.000000
433.119020 37.000000
435.125520 6.000000
444.437260 6.000000
447.523740 6.000000
447.782140 6.000000
448.692470 7.000000
449.031980 7.000000
449.066010 24.000000
449.105680 485.000000
449.512970 10.000000
450.036680 10.000000
450.100890 77.000000
450.121980 43.000000
451.118350 9.000000
452.094060 15.000000
475.123660 9.000000
521.000850 7.000000
594.763670 15.000000
595.029050 7.000000
595.092290 14.000000
595.166320 1000.000000
595.323670 6.000000

>ms2
71.052260 14.000000
85.031390 19.000000
87.042070 6.000000
129.024060 5.000000
129.049330 11.000000
129.058270 12.000000
145.049550 40.000000
192.491130 6.000000
198.272220 5.000000
213.744540 5.000000
286.974030 8.000000
287.055330 1000.000000
288.053040 133.000000
288.067350 48.000000
288.082000 6.000000
289.056430 18.000000
289.072300 9.000000
329.073360 10.000000
354.061490 6.000000
383.061920 5.000000
395.089140 5.000000

>ms2
71.007580 9.000000
71.045670 23.000000
83.044710 17.000000
85.017880 13.000000
85.022140 23.000000
85.026660 38.000000
85.034850 17.000000
86.024050 11.000000
111.004550 34.000000
121.027470 22.000000
139.029050 17.000000
145.062710 9.000000
149.023620 9.000000
153.004070 8.000000
153.013430 17.000000
165.019240 24.000000
169.443770 9.000000
213.013870 17.000000
213.060490 44.000000
241.046480 33.000000
243.064830 22.000000
259.057340 15.000000
269.049800 8.000000
286.780180 10.000000
287.014500 8.000000
287.029020 55.000000
287.054930 1000.000000
287.271390 7.000000
288.037990 18.000000
288.064940 91.000000
288.165650 11.000000
289.066620 39.000000
319.809630 8.000000
329.065980 9.000000

