>compound PR82186386
>parentmass 291.08631460000004
>ionization [M+H]+
>formula C15H14O6
>rt 206.038020
>profile qtof
#smiles_iso C1[C@H]([C@H](OC2=CC(=CC(=C21)O)O)C3=CC(=C(C=C3)O)O)O
#smiles_can C1C(C(OC2=CC(=CC(=C21)O)O)C3=CC(=C(C=C3)O)O)O
#inchikey PFTAWBLQPZVEMU-UKRRQHHQSA-N
#pubchem_id 72276
#mb_accession PR302693,PR302698,PR302703,PR302708,PR302713,PR302718,PR302723,PR302728,PR302733,PR302738,PR302743,PR302748

>ms2peaks
68.991970 21.000000
77.041800 28.000000
99.042800 20.000000
105.037800 25.000000
111.049390 40.000000
112.047230 24.000000
115.041180 27.000000
119.046750 49.000000
120.048190 27.000000
123.043760 496.000000
124.025260 42.000000
124.045900 37.000000
124.053380 38.000000
127.037780 28.000000
139.039990 1000.000000
140.000230 18.000000
140.043180 91.000000
141.041260 41.000000
143.048130 50.000000
147.044940 22.000000
151.038420 68.000000
151.073140 50.000000
159.038070 30.000000
163.037490 45.000000
165.055530 141.000000
179.079570 25.000000
180.077010 28.000000
181.045410 26.000000
189.047940 26.000000
207.043320 33.000000
207.060320 24.000000
207.074070 58.000000
244.067520 44.000000
249.071430 27.000000
273.066470 32.000000
273.080810 19.000000
291.081970 241.000000
291.095340 58.000000

>ms2peaks
123.032310 11.000000
123.044360 173.000000
124.050890 27.000000
125.051730 13.000000
127.041470 15.000000
139.017470 10.000000
139.037120 386.000000
139.045330 133.000000
140.041810 11.000000
147.046310 21.000000
147.708830 13.000000
151.036790 25.000000
152.043980 14.000000
161.054430 13.000000
163.035630 15.000000
165.051880 113.000000
166.060640 21.000000
179.064940 13.000000
182.044050 18.000000
195.645830 11.000000
207.063340 11.000000
273.086240 26.000000
286.565860 10.000000
289.069370 14.000000
291.036990 14.000000
291.087860 1000.000000

>ms2peaks
69.000500 75.000000
77.025530 72.000000
94.043530 40.000000
95.050920 32.000000
97.028900 41.000000
99.042740 55.000000
115.051800 37.000000
116.050340 31.000000
119.047330 72.000000
121.029370 44.000000
123.042180 624.000000
123.054740 95.000000
124.048520 61.000000
133.028660 37.000000
133.051210 60.000000
135.752930 29.000000
137.048110 31.000000
137.062100 32.000000
139.039250 1000.000000
139.108870 28.000000
139.683930 26.000000
140.033390 83.000000
140.048720 89.000000
142.022370 29.000000
142.046620 31.000000
143.045900 26.000000
143.059710 46.000000
144.051130 46.000000
145.071410 32.000000
147.042940 212.000000
148.049510 31.000000
161.064090 95.000000
163.034770 57.000000
164.035110 38.000000
165.067900 31.000000
177.056630 35.000000
185.057750 52.000000
189.057790 54.000000
192.976560 32.000000
256.705780 34.000000

>ms2peaks
77.039130 211.000000
83.047700 165.000000
84.046910 174.000000
91.053830 404.000000
106.041740 229.000000
115.054700 321.000000
123.047360 1000.000000
127.051180 211.000000
222.857850 211.000000

>ms2peaks
93.035630 53.000000
93.307690 37.000000
95.047500 61.000000
105.030740 32.000000
111.052120 53.000000
119.053340 37.000000
123.020320 29.000000
123.026920 39.000000
123.043700 648.000000
124.045420 55.000000
133.064380 27.000000
139.008880 35.000000
139.038790 1000.000000
140.036300 133.000000
141.050570 58.000000
143.048070 55.000000
147.041520 209.000000
147.047970 84.000000
161.059140 174.000000
163.039600 80.000000
165.052460 209.000000
177.069370 68.000000
178.064770 56.000000
179.073790 56.000000
189.046300 29.000000
201.082840 34.000000
207.061840 148.000000
273.061860 27.000000
273.086120 32.000000
289.082090 55.000000
291.088780 489.000000

>ms2peaks
123.038730 110.000000
123.045810 89.000000
124.046550 13.000000
137.057970 27.000000
139.039930 305.000000
140.023970 16.000000
140.039990 34.000000
147.045760 23.000000
151.032640 16.000000
151.037800 32.000000
152.041320 16.000000
165.053210 182.000000
203.063260 18.000000
207.074510 17.000000
273.076020 13.000000
291.065060 41.000000
291.089020 1000.000000

>ms2peaks
69.003230 111.000000
77.029010 44.000000
77.036340 62.000000
85.024830 78.000000
91.055310 52.000000
111.042340 152.000000
111.049140 152.000000
119.046840 217.000000
121.028050 52.000000
123.041990 855.000000
124.051250 116.000000
125.037260 59.000000
137.021180 70.000000
139.016390 72.000000
139.034900 1000.000000
140.049100 111.000000
143.058260 78.000000
145.027680 132.000000
147.008150 85.000000
147.035460 54.000000
147.046910 142.000000
147.055010 137.000000
148.047150 137.000000
149.058880 96.000000
151.076710 85.000000
161.061000 49.000000
165.052870 124.000000
207.058690 44.000000
207.070530 44.000000
231.053510 44.000000
271.056000 80.000000

>ms2peaks
91.052530 168.000000
105.070860 212.000000
108.053950 168.000000
115.052320 146.000000
121.030880 197.000000
123.041600 569.000000
123.048550 1000.000000
139.039340 416.000000
196.024840 197.000000

>ms2peaks
91.056920 29.000000
93.910450 46.000000
111.513970 38.000000
123.043630 853.000000
124.041830 41.000000
126.959050 28.000000
131.052830 92.000000
139.019470 52.000000
139.029020 82.000000
139.039640 1000.000000
140.023530 39.000000
140.041020 49.000000
143.047420 28.000000
147.045930 203.000000
148.048840 54.000000
161.044750 49.000000
161.057070 353.000000
163.042140 42.000000
164.039140 33.000000
165.057500 216.000000
167.059490 51.000000
179.034620 54.000000
181.042240 33.000000
181.053360 38.000000
185.062040 56.000000
189.055560 38.000000
205.080640 39.000000
207.033910 34.000000
207.057630 74.000000
207.066880 62.000000
209.061490 42.000000
249.069170 56.000000
273.079740 51.000000
291.085360 644.000000

>ms2peaks
123.043250 162.000000
139.017260 13.000000
139.028090 70.000000
139.037870 267.000000
140.036820 25.000000
140.045380 28.000000
147.045810 28.000000
151.040210 12.000000
165.058820 131.000000
169.052920 10.000000
205.042100 10.000000
207.070010 18.000000
213.422230 12.000000
249.069440 15.000000
266.583680 15.000000
273.081270 49.000000
289.081090 30.000000
289.117160 16.000000
290.070280 10.000000
290.087490 12.000000
291.043300 14.000000
291.084900 1000.000000

>ms2peaks
55.010490 47.000000
83.051350 41.000000
92.317550 38.000000
95.049740 43.000000
111.044590 56.000000
115.054210 101.000000
119.050340 101.000000
120.052580 38.000000
123.031140 79.000000
123.043880 853.000000
124.046620 58.000000
124.335080 45.000000
133.059230 34.000000
133.066300 70.000000
136.642040 41.000000
137.023880 128.000000
137.059830 52.000000
139.028430 58.000000
139.039020 1000.000000
140.037930 133.000000
143.046390 45.000000
144.061170 41.000000
147.021320 70.000000
147.042570 293.000000
152.005220 31.000000
152.040360 54.000000
159.084030 45.000000
161.054790 205.000000
161.066470 149.000000
162.062880 47.000000
163.028520 43.000000
163.036440 36.000000
165.058230 131.000000
177.054610 97.000000
181.067720 36.000000
189.048770 41.000000
207.063280 63.000000
291.088200 52.000000

>ms2peaks
77.036520 437.000000
115.051930 218.000000
123.046070 1000.000000
139.039400 739.000000
147.042020 210.000000

