>compound PR82964529
>parentmass 605.4411806999999
>ionization [M+H]+
>formula C36H60O7
>rt 457.915980
>profile qtof
#smiles_iso CC(=CC/C=C(/C)\[C@H]1CC[C@]2([C@@H]1[C@H](CC3[C@]2(CCC4[C@@]3(CCC(C4(C)C)O[C@H]5[C@@H]([C@H]([C@@H]([C@H](O5)CO)O)O)O)C)C)O)C)C
#smiles_can CC(=CCC=C(C)C1CCC2(C1C(CC3C2(CCC4C3(CCC(C4(C)C)OC5C(C(C(C(O5)CO)O)O)O)C)C)O)C)C
#inchikey PHLXREOMFNVWOH-WJJFPOJFSA-N
#pubchem_id 6439048
#mb_accession PR304394,PR304395,PR304396,PR304397,PR304398,PR304399,PR304400,PR304401,PR304402,PR304403,PR304404,PR304405

>ms2
109.105170 86.000000
121.099220 37.000000
135.113540 25.000000
149.132220 25.000000
163.147280 32.000000
175.155780 30.000000
177.173460 25.000000
178.169970 29.000000
189.164180 27.000000
189.175520 25.000000
190.167650 27.000000
191.182570 75.000000
192.188640 32.000000
193.125110 25.000000
193.182080 46.000000
203.174390 27.000000
203.185410 29.000000
205.191360 29.000000
217.203000 35.000000
219.206890 32.000000
221.203230 32.000000
227.176410 25.000000
259.226990 40.000000
304.260960 25.000000
310.259000 37.000000
322.259490 27.000000
322.313260 41.000000
343.311310 43.000000
407.367000 25.000000
407.379240 30.000000
408.363160 30.000000
425.373020 131.000000
493.321780 25.000000
587.401180 57.000000
587.422910 65.000000
588.411130 25.000000
588.431820 45.000000
593.787840 29.000000
605.432680 1000.000000
605.473750 67.000000
605.484920 27.000000

>ms2
191.184360 9.000000
192.199460 12.000000
207.172880 8.000000
271.244020 8.000000
379.247620 8.000000
391.345580 9.000000
407.351380 32.000000
407.368650 23.000000
411.371670 9.000000
415.731380 9.000000
425.382660 17.000000
455.390900 19.000000
521.872740 8.000000
551.421510 8.000000
587.417110 13.000000
587.436220 25.000000
588.416320 9.000000
588.441040 25.000000
605.391780 23.000000
605.446110 1000.000000
605.483950 20.000000

>ms2
81.070640 117.000000
93.073540 128.000000
95.083340 111.000000
95.093610 111.000000
99.082930 183.000000
105.073400 117.000000
107.092540 89.000000
109.099570 483.000000
119.083090 100.000000
123.116090 106.000000
125.131370 106.000000
146.922990 94.000000
147.111420 94.000000
147.119400 122.000000
149.139070 111.000000
159.113910 94.000000
161.133580 228.000000
162.135500 111.000000
175.154310 117.000000
179.182530 89.000000
187.141450 89.000000
189.164640 294.000000
191.180240 1000.000000
192.177090 111.000000
192.202940 94.000000
197.136280 89.000000
201.156250 89.000000
203.184970 117.000000
205.192990 89.000000
207.174670 139.000000
215.184080 89.000000
216.190090 100.000000
217.201420 183.000000
218.190630 89.000000
221.190490 183.000000
229.120880 89.000000
229.207820 94.000000
245.228680 89.000000
271.248320 94.000000
283.244170 89.000000
285.273040 94.000000
286.262700 133.000000
302.015010 117.000000
309.256870 100.000000
315.265170 111.000000
338.300320 94.000000
355.302640 122.000000
407.345890 194.000000
408.389920 139.000000
426.676240 111.000000
461.134950 94.000000
472.382780 100.000000
605.443480 589.000000

>ms2
81.069820 167.000000
85.030510 167.000000
85.063090 148.000000
95.089260 741.000000
99.080010 157.000000
105.070560 204.000000
105.075970 306.000000
107.077050 148.000000
107.083330 204.000000
107.089640 148.000000
115.111850 194.000000
119.081730 315.000000
119.087850 435.000000
127.044250 241.000000
127.097450 148.000000
132.085270 231.000000
133.102450 1000.000000
135.121340 296.000000
136.124360 213.000000
137.095640 148.000000
147.117450 481.000000
150.136730 167.000000
159.116090 407.000000
161.059130 176.000000
161.139740 148.000000
187.149120 185.000000
189.168000 620.000000
190.160630 185.000000
200.161500 167.000000
203.169880 157.000000
203.184450 157.000000
205.197330 204.000000
208.158620 148.000000
215.186580 167.000000
221.187320 250.000000
255.210540 148.000000

>ms2
71.047480 37.000000
95.085940 30.000000
99.075230 32.000000
99.081990 28.000000
107.085160 32.000000
109.030570 32.000000
125.124420 28.000000
131.087880 34.000000
133.098820 28.000000
139.104980 28.000000
164.155580 41.000000
174.098980 36.000000
174.135470 28.000000
180.181790 28.000000
189.159820 32.000000
189.171110 32.000000
190.164690 37.000000
191.076430 28.000000
191.172670 28.000000
197.171880 28.000000
203.177830 114.000000
205.205800 37.000000
217.195530 71.000000
221.182460 28.000000
228.188050 28.000000
231.210140 53.000000
257.222140 32.000000
285.262270 28.000000
366.330870 34.000000
407.320250 34.000000
407.332400 28.000000
407.353300 34.000000
407.373570 181.000000
408.365360 28.000000
408.407170 28.000000
409.387480 34.000000
425.365540 36.000000
425.399990 82.000000
426.329930 36.000000
426.349180 30.000000
426.391420 28.000000
443.387880 36.000000
496.333440 28.000000
549.368290 28.000000
587.396670 30.000000
587.416560 57.000000
587.441770 36.000000
588.422550 37.000000
588.443790 130.000000
605.432500 638.000000
605.451900 1000.000000

>ms2
367.379700 9.000000
393.328220 12.000000
407.362150 32.000000
408.371950 11.000000
409.248810 9.000000
425.335510 15.000000
425.383760 10.000000
426.372560 29.000000
441.350070 10.000000
460.363250 15.000000
569.433110 16.000000
570.424260 9.000000
587.416020 19.000000
587.437620 33.000000
589.425350 10.000000
604.425480 13.000000
604.761720 12.000000
605.405820 52.000000
605.443660 1000.000000

>ms2
82.070490 148.000000
87.041790 148.000000
99.080540 134.000000
107.077920 141.000000
107.090850 127.000000
117.835140 197.000000
121.104000 127.000000
121.114690 113.000000
123.119990 127.000000
133.084610 113.000000
133.095980 261.000000
135.112950 113.000000
145.097460 190.000000
147.079120 113.000000
149.111250 113.000000
149.131330 120.000000
150.142530 120.000000
159.120830 190.000000
161.142620 239.000000
163.147660 225.000000
165.097950 134.000000
175.140560 113.000000
177.161100 113.000000
189.165210 1000.000000
190.178210 141.000000
191.160100 113.000000
191.178010 366.000000
191.187150 338.000000
201.127120 113.000000
201.177120 169.000000
203.180560 775.000000
203.192600 120.000000
204.191350 120.000000
205.198500 113.000000
207.170500 134.000000
208.179050 141.000000
215.183910 120.000000
217.154170 183.000000
217.175930 113.000000
217.193890 120.000000
218.198460 148.000000
221.156250 113.000000
221.180710 113.000000
221.189610 282.000000
221.205140 113.000000
237.219070 204.000000
243.198040 134.000000
243.213170 254.000000
245.221620 162.000000
245.245640 338.000000
247.237090 141.000000
255.207550 155.000000
271.228550 127.000000
271.242490 282.000000
271.251190 120.000000
283.216490 113.000000
283.257840 113.000000
285.238370 120.000000
295.238860 127.000000
295.252290 155.000000
297.257810 113.000000
311.281430 120.000000
333.199190 197.000000
365.327240 113.000000
407.356260 254.000000
407.375640 113.000000
407.395140 127.000000
408.397520 127.000000
425.362980 113.000000
425.384060 120.000000
425.408290 218.000000
534.406310 134.000000
535.404600 148.000000
552.388850 211.000000
605.344910 113.000000
605.433350 366.000000
605.450810 190.000000

>ms2
69.074860 407.000000
91.054790 253.000000
93.065280 231.000000
95.087680 363.000000
97.099620 209.000000
98.867780 176.000000
105.066140 198.000000
107.083420 626.000000
107.091420 209.000000
108.040170 275.000000
108.091890 220.000000
109.103130 385.000000
111.113310 231.000000
121.097500 176.000000
121.104880 198.000000
123.116920 209.000000
125.100170 187.000000
133.094940 484.000000
134.104980 231.000000
135.123260 176.000000
147.109420 176.000000
147.118900 396.000000
149.138660 198.000000
157.094360 242.000000
159.111660 231.000000
163.145420 176.000000
186.139540 220.000000
189.153960 187.000000
189.165880 1000.000000
189.176240 231.000000
199.525300 220.000000
203.189410 231.000000
215.183730 176.000000
322.276790 231.000000

>ms2
81.069840 31.000000
119.082720 31.000000
121.109900 31.000000
123.078410 38.000000
162.135830 33.000000
175.119290 61.000000
179.147920 38.000000
189.154750 33.000000
190.167540 52.000000
191.181210 36.000000
191.191570 40.000000
205.201540 38.000000
207.180690 31.000000
221.195420 69.000000
229.182210 56.000000
267.218230 31.000000
270.238920 38.000000
369.239140 42.000000
384.368680 38.000000
425.394680 31.000000
493.356170 31.000000
587.419490 79.000000
605.441280 1000.000000

>ms2
163.148240 8.000000
205.195620 7.000000
215.175740 8.000000
239.000470 7.000000
271.140960 9.000000
271.154450 8.000000
299.280670 12.000000
364.737850 13.000000
407.350890 29.000000
407.376500 20.000000
409.377140 7.000000
410.271730 7.000000
423.280330 7.000000
425.377930 14.000000
425.396580 30.000000
443.369930 8.000000
587.261470 9.000000
587.433410 26.000000
587.456300 26.000000
588.451350 17.000000
605.360050 14.000000
605.444340 1000.000000

>ms2
69.288740 59.000000
81.074840 86.000000
91.039340 53.000000
95.085850 53.000000
95.091930 56.000000
99.046890 76.000000
99.081990 69.000000
100.086690 66.000000
109.095820 53.000000
115.108810 79.000000
119.082240 53.000000
121.101730 112.000000
133.099760 79.000000
135.116870 53.000000
135.124180 125.000000
145.050370 53.000000
147.111180 151.000000
150.139190 66.000000
150.455150 62.000000
159.118190 178.000000
161.130050 66.000000
161.138640 82.000000
163.148620 148.000000
175.155730 82.000000
177.159940 174.000000
179.148250 56.000000
180.715840 62.000000
183.114150 56.000000
187.140120 53.000000
189.164840 316.000000
190.166110 164.000000
191.178960 253.000000
191.186720 132.000000
193.123180 66.000000
199.148650 62.000000
201.146040 79.000000
203.180070 401.000000
206.195040 53.000000
207.173870 188.000000
213.165880 118.000000
215.161620 62.000000
215.176640 109.000000
217.198750 53.000000
220.180100 69.000000
221.187610 148.000000
221.195250 174.000000
231.205870 89.000000
235.205430 69.000000
247.240020 66.000000
270.230320 59.000000
271.240630 148.000000
271.301060 59.000000
273.248380 56.000000
273.259400 69.000000
278.564390 53.000000
283.208160 53.000000
285.256770 82.000000
287.230380 53.000000
287.241180 72.000000
289.252750 53.000000
303.266390 62.000000
307.254270 66.000000
323.259340 53.000000
362.241910 56.000000
364.308960 53.000000
407.306790 92.000000
407.348300 59.000000
407.363530 191.000000
408.379490 79.000000
425.379550 240.000000
443.413240 59.000000
480.377440 53.000000
587.000120 72.000000
587.433470 118.000000
605.437130 1000.000000

>ms2
69.056930 160.000000
81.070880 408.000000
83.085180 200.000000
85.027400 344.000000
85.033230 312.000000
87.046740 144.000000
95.086470 912.000000
98.023240 128.000000
99.083690 128.000000
105.071020 224.000000
107.086070 280.000000
109.097750 456.000000
109.103380 336.000000
110.102150 168.000000
119.084300 560.000000
123.119060 128.000000
127.039020 136.000000
133.099560 384.000000
133.107180 144.000000
135.085080 136.000000
135.113560 264.000000
136.119430 128.000000
137.102160 320.000000
137.133420 128.000000
145.100970 128.000000
146.103610 128.000000
147.111310 432.000000
149.134660 296.000000
157.101940 136.000000
159.117830 208.000000
161.139940 160.000000
163.150410 128.000000
168.827060 144.000000
173.120820 128.000000
186.140270 128.000000
186.147250 160.000000
187.138490 160.000000
189.163150 1000.000000
191.157230 160.000000
191.186810 160.000000
201.160400 264.000000
203.188480 144.000000
207.184660 200.000000
282.234130 152.000000
409.377230 312.000000

