>compound PR82626815
>parentmass 595.1675
>ionization [M+H]+
>formula C27H30O15
>rt 268.800000
>profile qtof
#smiles_iso CC1C(C(C(C(O1)OC2C(C(C(OC2C3=C(C4=C(C=C3O)OC(=CC4=O)C5=CC(=C(C=C5)O)O)O)CO)O)O)O)O)O
#smiles_can CC1C(C(C(C(O1)OC2C(C(C(OC2C3=C(C4=C(C=C3O)OC(=CC4=O)C5=CC(=C(C=C5)O)O)O)CO)O)O)O)O)O
#inchikey IUYFTHKQEWZTHY-UHFFFAOYSA-N
#pubchem_id 25202481
#mb_accession PR310980

>ms2peaks
85.019200 18.000000
85.028370 42.000000
127.048580 16.000000
129.056350 48.000000
191.060960 31.000000
283.684510 17.000000
286.988830 20.000000
287.043490 55.000000
287.059200 38.000000
298.055180 21.000000
299.043520 33.000000
299.056430 263.000000
300.063020 98.000000
301.066560 18.000000
311.056460 41.000000
312.057620 19.000000
312.072200 42.000000
312.879150 24.000000
313.063420 17.000000
316.051330 66.000000
322.037570 16.000000
323.037080 17.000000
323.051910 17.000000
323.066680 16.000000
324.030400 31.000000
325.059390 20.000000
325.072630 33.000000
327.038120 25.000000
327.051030 46.000000
327.067570 47.000000
327.103360 24.000000
329.069640 160.000000
330.008640 29.000000
337.010620 19.000000
339.061400 17.000000
339.085300 65.000000
340.095310 22.000000
340.114170 18.000000
341.058110 38.000000
349.028050 37.000000
349.076200 26.000000
351.059940 52.000000
352.074370 21.000000
352.093320 17.000000
352.946380 16.000000
353.050230 20.000000
353.070160 42.000000
354.106510 68.000000
358.116580 27.000000
364.522220 18.000000
367.055510 16.000000
367.079100 52.000000
367.100370 35.000000
368.087620 55.000000
369.041960 16.000000
370.115050 36.000000
374.059330 16.000000
377.876130 17.000000
385.038570 17.000000
385.090550 19.000000
393.049350 18.000000
395.078520 362.000000
395.150760 18.000000
396.038090 16.000000
396.070620 17.000000
396.086790 27.000000
397.068820 19.000000
404.712070 20.000000
413.076350 193.000000
413.095490 212.000000
414.069240 43.000000
414.097660 107.000000
415.087550 102.000000
431.096830 393.000000
431.139430 20.000000
432.072880 24.000000
432.101870 57.000000
432.115420 23.000000
433.103120 41.000000
443.397250 20.000000
448.110630 16.000000
449.110380 782.000000
450.100800 147.000000
452.122040 16.000000
524.125670 19.000000
577.137390 17.000000
577.173280 61.000000
577.196530 16.000000
594.142820 17.000000
594.187680 17.000000
595.100890 17.000000
595.167790 792.000000

