>compound PR82696314
>parentmass 178.0505
>ionization [M+H]+
>formula C9H7NO3
>rt 235.800000
>profile qtof
#smiles_iso CC(=O)C1=C2C(=CC=C1)OC(=O)N2
#smiles_can CC(=O)C1=C2C(=CC=C1)OC(=O)N2
#inchikey FZAQRVWPQCXSPC-UHFFFAOYSA-N
#pubchem_id 9989779
#mb_accession PR311131

>ms2
65.045560 33.000000
77.039300 20.000000
79.039570 21.000000
79.045360 29.000000
79.052390 20.000000
93.022250 17.000000
95.048740 62.000000
95.118120 22.000000
96.053570 44.000000
96.057360 24.000000
96.966980 20.000000
107.032140 37.000000
108.060260 19.000000
122.062700 129.000000
123.047970 74.000000
135.021290 23.000000
135.031650 59.000000
135.037260 25.000000
136.507250 31.000000
137.009750 24.000000
137.508270 44.000000
146.009900 24.000000
149.057130 22.000000
150.054870 946.000000
151.048690 44.000000
163.054900 17.000000
176.079640 34.000000
177.064500 23.000000
178.031170 25.000000
178.041550 147.000000
178.050810 551.000000

