>compound PR82053326
>parentmass 431.13383
>ionization [M+H]+
>formula C22H22O9
>rt 313.800000
>profile qtof
#smiles_iso COC1=CC=C(C=C1)C2=COC3=C(C2=O)C=CC(=C3)OC4C(C(C(C(O4)CO)O)O)O
#smiles_can COC1=CC=C(C=C1)C2=COC3=C(C2=O)C=CC(=C3)OC4C(C(C(C(O4)CO)O)O)O
#inchikey MGJLSBDCWOSMHL-UHFFFAOYSA-N
#pubchem_id 3733033
#mb_accession PR310866,PR310867

>ms2peaks
79.054670 20.000000
107.043300 21.000000
118.035950 41.000000
118.043620 156.000000
121.017850 20.000000
123.961260 18.000000
135.045460 25.000000
136.005800 20.000000
136.020570 71.000000
136.556270 19.000000
137.015880 39.000000
137.024200 20.000000
137.032590 23.000000
156.352920 20.000000
158.077610 26.000000
163.037840 27.000000
167.082820 25.000000
169.056380 20.000000
176.503860 33.000000
180.047230 20.000000
182.066600 61.000000
185.052080 18.000000
195.068100 41.000000
197.064680 31.000000
198.068710 24.000000
199.066070 17.000000
200.639830 19.000000
202.761230 32.000000
209.055280 39.000000
210.059200 26.000000
212.643520 33.000000
213.051590 23.000000
213.091200 801.000000
214.093660 92.000000
215.609990 20.000000
225.057890 18.000000
226.048280 37.000000
226.054460 77.000000
226.066940 313.000000
227.069150 63.000000
228.034010 17.000000
236.873110 50.000000
236.997800 17.000000
237.036030 48.000000
237.054020 851.000000
238.051040 73.000000
241.082110 24.000000
244.915970 44.000000
251.073120 23.000000
253.029540 42.000000
253.052610 214.000000
253.928850 17.000000
253.967860 29.000000
254.040680 231.000000
254.055040 517.000000
255.046890 73.000000
257.072750 18.000000
266.771120 17.000000
267.065950 23.000000
268.064150 29.000000
268.522920 18.000000
268.545440 17.000000
268.817960 18.000000
268.890750 19.000000
268.998690 20.000000
269.010800 21.000000
269.029820 175.000000
269.047760 162.000000
269.081150 23471.000000
269.124270 59.000000
269.134030 63.000000
269.279360 18.000000
269.350620 17.000000
269.622100 18.000000
269.636200 17.000000
270.019710 20.000000
270.061580 212.000000
270.084810 4304.000000
270.692410 22.000000
270.877660 17.000000
271.050380 18.000000
271.075620 174.000000
271.084810 753.000000
271.294400 37.000000
272.079650 51.000000
272.096590 24.000000
275.803440 17.000000
275.837950 22.000000
288.209780 27.000000
297.439150 35.000000
310.519560 18.000000
408.889710 18.000000
422.569920 30.000000
430.096890 26.000000
431.091460 57.000000
431.135380 3957.000000
431.232060 18.000000

>ms2peaks
57.028740 20.000000
57.038590 16.000000
69.030580 22.000000
85.009610 19.000000
85.028530 250.000000
86.035770 34.000000
97.027870 37.000000
99.042740 42.000000
99.050580 16.000000
109.024280 16.000000
109.029250 29.000000
110.032680 20.000000
115.033870 17.000000
115.040440 21.000000
116.041250 23.000000
127.037470 117.000000
127.047170 17.000000
128.054240 18.000000
142.078630 16.000000
145.041050 25.000000
145.049270 122.000000
145.058580 36.000000
149.027500 19.000000
154.070330 17.000000
162.037140 25.000000
163.067540 21.000000
167.092480 16.000000
168.062130 18.000000
169.106340 17.000000
175.045200 31.000000
175.748230 20.000000
179.092500 16.000000
181.067410 18.000000
182.869080 21.000000
184.055310 16.000000
189.072920 18.000000
193.070480 34.000000
195.079910 51.000000
197.048160 22.000000
197.058330 18.000000
197.067150 17.000000
200.054150 24.000000
201.782640 23.000000
203.060760 16.000000
205.910770 23.000000
210.064390 33.000000
212.097200 21.000000
223.070630 127.000000
223.090730 48.000000
224.079440 38.000000
224.864010 18.000000
225.056690 20.000000
225.088880 16.000000
226.050000 18.000000
226.060040 68.000000
226.075290 32.000000
226.086290 22.000000
227.055070 35.000000
234.061160 17.000000
234.080720 32.000000
237.057570 66.000000
239.067500 77.000000
239.083240 76.000000
240.054630 45.000000
240.078340 91.000000
240.093340 25.000000
240.475950 21.000000
241.056090 16.000000
241.075000 80.000000
241.088120 16.000000
241.380310 18.000000
242.096730 37.000000
249.042330 21.000000
251.064990 161.000000
251.074860 98.000000
251.087230 50.000000
252.066830 19.000000
252.079160 38.000000
253.032470 16.000000
253.054320 18.000000
253.061810 45.000000
253.080860 23.000000
254.056290 2409.000000
254.962890 16.000000
255.052250 116.000000
255.067520 211.000000
256.048980 16.000000
256.061920 26.000000
257.052370 23.000000
265.100710 20.000000
267.066770 127.000000
267.081630 17.000000
268.064760 128.000000
268.075960 202.000000
269.081210 9986.000000
269.123110 18.000000
269.246310 16.000000
270.074740 490.000000
270.087950 1566.000000
271.085360 235.000000
271.109800 16.000000
271.794040 17.000000
272.084530 19.000000
272.107570 25.000000
273.631500 21.000000
276.953090 17.000000
279.068390 17.000000
281.071620 36.000000
282.113220 25.000000
292.079620 16.000000
297.063170 17.000000
311.058410 20.000000
311.083250 66.000000
311.094940 65.000000
312.096530 17.000000
316.067410 16.000000
323.094270 19.000000
325.589110 16.000000
326.669160 34.000000
339.300840 22.000000
347.203740 16.000000
365.116610 19.000000
377.111570 16.000000
410.117490 20.000000
429.112400 17.000000
430.111020 29.000000
430.121310 61.000000
430.147430 18.000000
431.130040 1548.000000

