>compound PR82299230
>parentmass 611.1970470461538
>ionization [M+H]+
>formula C28H34O15
>rt 270.463422
>profile qtof
#smiles_iso C[C@H]1[C@@H]([C@H]([C@H]([C@@H](O1)OC[C@@H]2[C@H]([C@@H]([C@H]([C@@H](O2)OC3=CC(=C4C(=O)C[C@H](OC4=C3)C5=CC(=C(C=C5)OC)O)O)O)O)O)O)O)O
#smiles_can CC1C(C(C(C(O1)OCC2C(C(C(C(O2)OC3=CC(=C4C(=O)CC(OC4=C3)C5=CC(=C(C=C5)OC)O)O)O)O)O)O)O)O
#inchikey QUQPHWDTPGMPEX-QJBIFVCTSA-N
#pubchem_id 10621
#mb_accession PR302801,PR302806,PR302811,PR302816,PR302821,PR302826,PR302831,PR302836,PR302841,PR302846,PR302851,PR302856,PR310491

>ms2peaks
55.052750 21.000000
71.048240 8.000000
75.040370 8.000000
85.022740 14.000000
85.028480 46.000000
103.038370 15.000000
109.034900 17.000000
129.054140 52.000000
129.060490 15.000000
130.057460 17.000000
145.048810 9.000000
147.060730 35.000000
147.068020 13.000000
151.077870 15.000000
153.009030 8.000000
153.019470 52.000000
165.015380 18.000000
177.046130 39.000000
177.055590 59.000000
179.022160 13.000000
179.038120 13.000000
189.015240 11.000000
191.038540 13.000000
195.028460 129.000000
196.034590 10.000000
206.783840 9.000000
219.030110 70.000000
221.046170 17.000000
231.036770 10.000000
245.020870 8.000000
245.050930 33.000000
246.050060 8.000000
257.037050 9.000000
261.000490 13.000000
261.039120 8.000000
263.043090 10.000000
263.057650 43.000000
264.078830 10.000000
281.066860 26.000000
302.079280 24.000000
303.085240 1000.000000
304.064150 13.000000
304.086820 109.000000
304.098140 73.000000
305.086090 34.000000
306.087950 15.000000
312.336940 9.000000
315.065610 19.000000
315.093810 8.000000
315.103850 9.000000
321.061340 8.000000
327.087250 29.000000
328.099150 13.000000
339.071200 9.000000
345.079350 8.000000
345.094120 18.000000
345.106140 22.000000
346.076930 9.000000
346.103880 30.000000
369.092220 23.000000
369.106410 35.000000
370.095980 13.000000
370.106780 31.000000
371.084630 8.000000
381.106900 13.000000
382.110630 13.000000
395.111510 20.000000
396.105900 13.000000
411.097020 9.000000
413.110780 10.000000
413.134060 51.000000
425.145690 10.000000
430.123260 8.000000
431.136440 59.000000
432.135350 40.000000
432.153230 14.000000
433.159420 14.000000
435.392330 8.000000
447.138310 19.000000
448.127900 16.000000
449.139160 248.000000
449.160890 112.000000
450.127750 16.000000
450.152950 61.000000
451.119450 12.000000
459.130680 8.000000
465.105800 21.000000
465.130490 30.000000
465.150570 97.000000
466.123840 19.000000
466.153500 24.000000
466.183010 15.000000
471.126860 13.000000
489.161680 10.000000
491.148770 10.000000
558.199100 8.000000
594.177430 8.000000
610.523500 9.000000
611.164920 35.000000
611.191710 167.000000
611.215760 73.000000

>ms2peaks
147.069030 25.000000
178.505080 14.000000
195.030500 24.000000
207.052470 33.000000
243.085340 18.000000
261.192050 18.000000
282.073730 44.000000
303.086460 559.000000
304.075960 39.000000
304.091610 195.000000
305.073390 25.000000
306.094940 18.000000
309.119870 25.000000
345.091710 99.000000
345.114320 39.000000
346.095180 37.000000
395.096650 24.000000
410.885470 20.000000
413.121460 29.000000
414.114590 16.000000
431.105530 21.000000
431.137300 243.000000
432.115390 14.000000
432.133270 56.000000
432.160060 25.000000
438.970150 15.000000
440.962070 15.000000
445.391300 27.000000
447.091740 19.000000
447.122340 39.000000
448.114260 16.000000
448.133540 66.000000
449.011410 24.000000
449.044460 34.000000
449.096190 52.000000
449.143740 1000.000000
450.069640 20.000000
450.101560 35.000000
450.140690 324.000000
451.150600 60.000000
459.145420 21.000000
464.132140 15.000000
465.126010 151.000000
465.144710 211.000000
465.162260 69.000000
466.092740 14.000000
466.118770 36.000000
466.133330 38.000000
466.150820 59.000000
467.128660 18.000000
467.146880 86.000000
471.122920 28.000000
490.146390 24.000000
491.165770 44.000000
537.621520 23.000000
539.147640 15.000000
557.152160 14.000000
575.115230 31.000000
575.165100 88.000000
575.181880 29.000000
576.127810 14.000000
593.162110 20.000000
593.188230 75.000000
594.155460 15.000000
594.218990 21.000000
611.121890 18.000000
611.142940 60.000000
611.167850 215.000000
611.193050 957.000000
611.213380 370.000000
611.245300 55.000000

>ms2peaks
69.034790 10.000000
71.048750 11.000000
85.022900 14.000000
85.030490 11.000000
129.053730 58.000000
129.063110 13.000000
130.055660 13.000000
147.059940 17.000000
147.071000 8.000000
151.036100 19.000000
152.079030 16.000000
153.016690 29.000000
153.031620 17.000000
157.547560 11.000000
165.015690 11.000000
177.014980 10.000000
177.053680 54.000000
178.051010 8.000000
179.032470 43.000000
195.010390 9.000000
195.027630 51.000000
195.037640 19.000000
196.038530 9.000000
196.515300 10.000000
203.035190 9.000000
205.010740 14.000000
219.027940 49.000000
219.037800 48.000000
220.036510 21.000000
237.028230 9.000000
245.043690 98.000000
245.091400 10.000000
261.039030 19.000000
263.020840 13.000000
263.058900 124.000000
264.059420 27.000000
265.058290 14.000000
265.069240 8.000000
273.042360 10.000000
279.053650 31.000000
280.064390 9.000000
280.696440 11.000000
281.062100 13.000000
282.063630 29.000000
282.076450 8.000000
285.068880 18.000000
299.071140 14.000000
301.070740 14.000000
303.052430 23.000000
303.087220 1000.000000
304.091710 157.000000
305.088930 8.000000
308.684510 8.000000
315.075230 19.000000
315.094330 53.000000
315.698270 9.000000
327.083950 50.000000
327.103550 10.000000
339.078700 8.000000
345.100310 62.000000
352.870970 16.000000
359.075870 12.000000
359.838900 15.000000
369.100520 114.000000
393.103610 11.000000
395.111820 11.000000
395.129240 12.000000
396.099490 15.000000
413.104610 11.000000
413.133330 11.000000
419.016880 10.000000
430.122250 10.000000
431.130800 11.000000
443.134310 11.000000
448.136080 11.000000
449.136320 18.000000
473.147740 19.000000

>ms2peaks
71.050840 170.000000
83.046750 42.000000
85.030560 160.000000
109.025300 58.000000
123.007680 57.000000
123.041980 27.000000
129.054630 31.000000
131.048430 31.000000
134.045040 31.000000
135.014020 97.000000
137.056460 36.000000
153.017840 747.000000
153.028720 96.000000
153.059050 36.000000
154.018570 171.000000
155.022000 42.000000
155.027630 55.000000
163.035390 61.000000
166.012660 58.000000
166.025220 41.000000
177.001540 38.000000
177.052260 1000.000000
180.029600 39.000000
191.036610 35.000000
194.496220 31.000000
195.023120 231.000000
195.036250 266.000000
201.051220 137.000000
203.027690 41.000000
205.018920 42.000000
207.036560 41.000000
219.027660 134.000000
219.054080 68.000000
219.070050 30.000000
221.043000 27.000000
245.032240 71.000000
245.050480 97.000000
247.043320 41.000000
257.051030 28.000000
261.073060 27.000000
263.047390 38.000000
271.069120 39.000000
285.077820 33.000000
299.070950 50.000000
301.060180 41.000000
303.063720 30.000000
303.083590 146.000000

>ms2peaks
85.028590 54.000000
87.030720 15.000000
123.251120 10.000000
129.048170 18.000000
129.054430 65.000000
130.052950 10.000000
137.061580 10.000000
143.072460 22.000000
145.048650 15.000000
147.063610 92.000000
151.073530 13.000000
152.077560 13.000000
153.017500 27.000000
153.031890 10.000000
177.015080 11.000000
177.053700 144.000000
179.037280 23.000000
195.028260 148.000000
201.010590 16.000000
219.031280 71.000000
219.051300 14.000000
223.456480 10.000000
242.726290 12.000000
245.044710 87.000000
250.090730 16.000000
256.089540 15.000000
261.041870 19.000000
262.085480 11.000000
263.013150 15.000000
263.043670 24.000000
263.058350 36.000000
263.073150 22.000000
264.052490 12.000000
264.059230 24.000000
281.062900 97.000000
294.928560 11.000000
297.051210 17.000000
298.078340 13.000000
302.990630 14.000000
303.002900 16.000000
303.042720 21.000000
303.077820 422.000000
303.087310 1000.000000
304.072750 23.000000
304.090940 206.000000
305.084380 66.000000
305.679260 12.000000
306.081300 13.000000
315.082980 18.000000
315.105870 10.000000
316.091340 12.000000
327.097140 24.000000
328.064540 15.000000
339.100890 15.000000
345.080600 71.000000
345.098050 58.000000
345.114320 37.000000
346.090730 16.000000
346.104310 10.000000
367.117370 10.000000
369.089570 40.000000
369.106720 54.000000
370.083010 15.000000
370.109530 16.000000
370.761990 12.000000
381.096500 31.000000
385.575320 40.000000
389.079590 13.000000
391.665040 13.000000
395.100070 14.000000
400.101620 19.000000
406.809630 12.000000
412.960140 20.000000
413.120030 130.000000
414.131130 35.000000
429.110720 13.000000
431.116790 24.000000
431.143770 86.000000
431.166600 16.000000
432.144530 10.000000
437.134700 10.000000
439.107540 15.000000
447.130370 41.000000
448.120180 10.000000
448.136170 30.000000
449.123080 83.000000
449.148830 293.000000
450.127350 14.000000
450.150180 105.000000
465.133450 323.000000
465.153630 68.000000
466.138670 52.000000
471.127010 16.000000
489.123540 16.000000
490.147950 21.000000
507.149140 15.000000
530.159000 12.000000
557.141780 12.000000
575.169800 14.000000
576.186580 12.000000
577.198300 12.000000
593.167360 10.000000
611.141240 10.000000
611.194210 327.000000

>ms2peaks
71.048470 12.000000
85.023800 15.000000
147.072430 22.000000
233.040370 10.000000
281.059780 11.000000
281.071560 23.000000
291.112430 13.000000
303.068850 57.000000
303.086180 415.000000
304.065120 13.000000
304.090420 81.000000
305.095890 21.000000
309.649170 10.000000
345.072810 13.000000
345.089750 37.000000
346.108640 11.000000
354.877290 11.000000
369.086460 15.000000
369.102170 28.000000
370.081510 12.000000
383.109410 11.000000
411.072390 12.000000
413.123380 131.000000
414.143860 11.000000
431.087520 12.000000
431.126950 154.000000
432.131500 19.000000
432.155940 13.000000
447.091980 9.000000
447.127260 79.000000
447.139770 27.000000
448.126160 21.000000
448.914370 17.000000
449.040990 10.000000
449.078670 28.000000
449.144990 1000.000000
450.023220 9.000000
450.109470 9.000000
450.152400 266.000000
451.138400 69.000000
451.169710 9.000000
452.159390 17.000000
465.109950 56.000000
465.141020 333.000000
466.136020 35.000000
466.159700 20.000000
467.137390 18.000000
467.157620 18.000000
473.153870 9.000000
474.087400 10.000000
475.117520 14.000000
479.658360 13.000000
480.885930 13.000000
489.160160 13.000000
491.155060 23.000000
507.150510 14.000000
508.151060 12.000000
521.131590 13.000000
522.166750 19.000000
539.162480 29.000000
540.156310 9.000000
557.171570 10.000000
558.171630 14.000000
559.162290 11.000000
575.142640 14.000000
575.224850 11.000000
593.147340 22.000000
593.176150 9.000000
594.133970 10.000000
611.086790 18.000000
611.178160 257.000000
611.197080 852.000000

>ms2peaks
69.026510 13.000000
71.048710 80.000000
72.991700 9.000000
85.023880 70.000000
85.035930 39.000000
85.256100 11.000000
111.052330 9.000000
129.051830 37.000000
129.056730 21.000000
147.064270 10.000000
151.076170 12.000000
153.017680 66.000000
153.024400 30.000000
165.010700 7.000000
175.091140 10.000000
177.048000 26.000000
177.057480 78.000000
177.069690 12.000000
179.027950 38.000000
179.040450 32.000000
179.063540 9.000000
189.017290 16.000000
195.024170 14.000000
195.032320 48.000000
196.032640 42.000000
205.269200 9.000000
219.032180 38.000000
219.051860 10.000000
219.061140 10.000000
231.018810 11.000000
232.032790 11.000000
238.044770 9.000000
245.021840 15.000000
245.054980 17.000000
246.040560 17.000000
247.058720 14.000000
257.056730 11.000000
259.056880 11.000000
261.034640 25.000000
262.036500 12.000000
262.599490 7.000000
263.029790 24.000000
263.046260 40.000000
263.066710 30.000000
264.062010 13.000000
265.056760 9.000000
269.038510 7.000000
271.869540 11.000000
279.044100 22.000000
280.037930 14.000000
281.060670 10.000000
281.078670 16.000000
282.067290 22.000000
285.051180 17.000000
287.062500 9.000000
291.031040 18.000000
297.073910 12.000000
299.061890 9.000000
299.331910 8.000000
301.077090 10.000000
303.028260 12.000000
303.056400 25.000000
303.086460 1000.000000
303.185760 15.000000
304.079740 77.000000
304.090790 218.000000
304.110780 17.000000
305.086120 26.000000
315.089940 22.000000
316.688930 8.000000
339.080540 8.000000
345.104190 34.000000
347.102660 13.000000
359.086210 11.000000
367.116030 14.000000
369.066860 9.000000
369.085110 36.000000
369.102840 35.000000
370.097380 10.000000
381.094150 19.000000
381.107420 11.000000
395.094850 20.000000
395.113070 7.000000
411.111390 28.000000
413.118900 31.000000
413.132840 9.000000
425.105130 7.000000
431.125240 8.000000
432.135860 15.000000
447.112490 25.000000
447.149750 21.000000
449.140840 16.000000
450.143520 16.000000
465.146640 9.000000
491.160280 9.000000
560.416500 10.000000

>ms2peaks
65.021740 23.000000
71.045940 24.000000
71.052610 222.000000
85.028180 199.000000
103.048060 61.000000
117.030020 90.000000
121.026940 29.000000
124.052960 44.000000
127.041450 39.000000
129.054170 74.000000
129.062530 30.000000
135.045490 72.000000
145.026090 25.000000
145.032240 49.000000
149.055440 25.000000
149.064410 25.000000
151.040770 32.000000
151.083360 53.000000
153.016860 1000.000000
153.054350 44.000000
156.024460 38.000000
161.053300 33.000000
165.010650 45.000000
165.020860 141.000000
165.030980 25.000000
175.039550 37.000000
177.011110 32.000000
177.055940 871.000000
178.054890 25.000000
178.061800 23.000000
178.999560 21.000000
179.029560 49.000000
179.043290 21.000000
180.057920 28.000000
183.049470 44.000000
195.025670 240.000000
196.028870 50.000000
197.038300 34.000000
206.057530 47.000000
217.046950 52.000000
218.047100 28.000000
219.028930 194.000000
219.035780 74.000000
219.066590 26.000000
222.157270 21.000000
222.908230 29.000000
229.051420 28.000000
236.056880 34.000000
243.052020 45.000000
245.027570 38.000000
245.046690 150.000000
246.037350 49.000000
261.039490 24.000000
261.077880 30.000000
285.083770 35.000000
287.065520 23.000000
303.082520 288.000000
313.078370 29.000000
327.095090 38.000000
395.095400 33.000000

>ms2peaks
71.047350 14.000000
85.016540 7.000000
85.023180 14.000000
85.032220 25.000000
129.046920 19.000000
129.062090 41.000000
137.058880 10.000000
147.062180 8.000000
153.006990 11.000000
153.021270 52.000000
154.009140 9.000000
163.054030 10.000000
177.012010 9.000000
177.024120 15.000000
177.043840 10.000000
177.058290 26.000000
179.031590 13.000000
191.035950 18.000000
195.010180 8.000000
195.029050 124.000000
207.022130 14.000000
215.672760 12.000000
217.046460 13.000000
217.056960 14.000000
217.938450 9.000000
219.035800 9.000000
219.590360 15.000000
245.046330 42.000000
258.382080 15.000000
262.041380 12.000000
262.057980 10.000000
263.057190 55.000000
281.062840 26.000000
281.071590 66.000000
282.082790 7.000000
285.024540 7.000000
285.080440 11.000000
297.315980 7.000000
301.074040 9.000000
303.022310 8.000000
303.058620 43.000000
303.088380 1000.000000
304.076810 20.000000
304.096470 125.000000
305.083860 7.000000
311.065370 12.000000
315.028930 8.000000
315.072940 10.000000
315.084990 38.000000
315.101590 8.000000
319.700380 10.000000
327.083650 19.000000
328.632600 17.000000
335.102420 8.000000
343.083500 8.000000
345.100830 37.000000
346.102720 23.000000
369.096040 48.000000
381.087890 8.000000
393.110110 8.000000
395.107510 7.000000
395.124480 8.000000
396.108280 16.000000
400.101040 8.000000
411.091340 10.000000
411.111330 11.000000
413.081180 8.000000
413.119750 50.000000
413.146240 10.000000
414.126340 31.000000
415.145720 13.000000
429.104430 7.000000
429.123540 9.000000
431.080630 8.000000
431.133270 76.000000
431.161800 8.000000
432.139590 7.000000
434.134640 10.000000
438.122740 12.000000
447.089660 8.000000
447.108800 23.000000
447.133670 34.000000
448.119170 7.000000
448.134950 20.000000
449.144710 349.000000
449.177150 14.000000
450.099950 8.000000
450.127470 8.000000
450.143220 25.000000
450.161010 10.000000
451.140590 12.000000
453.106960 11.000000
465.134340 88.000000
465.151060 51.000000
465.173370 33.000000
466.146640 10.000000
470.849460 9.000000
474.168030 10.000000
489.134310 18.000000
490.118900 9.000000
491.167020 8.000000
492.167330 10.000000
507.152860 10.000000
518.589420 13.000000
557.159730 9.000000
557.222530 7.000000
558.137390 13.000000
559.170720 7.000000
575.173520 30.000000
576.145450 7.000000
593.197810 23.000000
611.155090 16.000000
611.191590 182.000000
611.217830 49.000000

>ms2peaks
71.053570 27.000000
129.051620 14.000000
147.061750 13.000000
269.153200 13.000000
275.483830 16.000000
281.049070 13.000000
281.067080 12.000000
282.061160 14.000000
297.065890 19.000000
303.016240 11.000000
303.084230 583.000000
304.089320 69.000000
304.107120 11.000000
305.102170 14.000000
344.422360 20.000000
345.096160 104.000000
346.091090 28.000000
346.109530 31.000000
363.347810 10.000000
369.101470 12.000000
413.093260 19.000000
413.118440 73.000000
414.132200 24.000000
429.133610 11.000000
429.361150 16.000000
431.130580 162.000000
431.155240 15.000000
432.128970 59.000000
441.112610 18.000000
447.113160 98.000000
447.136780 36.000000
448.134550 14.000000
448.155090 10.000000
449.085970 11.000000
449.136930 485.000000
449.151580 455.000000
450.055240 11.000000
450.120510 23.000000
450.145140 127.000000
450.162380 66.000000
451.148770 13.000000
454.301760 9.000000
455.056640 9.000000
457.782380 11.000000
465.086300 10.000000
465.126310 181.000000
465.143680 186.000000
465.169190 40.000000
466.105260 10.000000
466.125520 43.000000
466.154850 44.000000
466.888790 10.000000
475.834530 14.000000
488.889190 11.000000
489.151430 27.000000
490.147640 51.000000
491.143770 37.000000
491.166320 11.000000
507.154050 15.000000
527.166810 10.000000
539.142030 14.000000
557.151060 13.000000
575.149960 14.000000
575.168580 13.000000
575.210570 16.000000
576.168090 17.000000
576.195190 50.000000
576.480350 12.000000
593.192870 20.000000
594.178960 23.000000
610.197570 21.000000
611.121460 21.000000
611.199160 1000.000000

>ms2peaks
57.034290 9.000000
69.038350 16.000000
71.038250 7.000000
71.046970 39.000000
71.052080 54.000000
81.033730 18.000000
85.024790 41.000000
85.031520 60.000000
99.042560 11.000000
103.043520 10.000000
129.031190 8.000000
129.053830 32.000000
137.058670 11.000000
151.044360 7.000000
151.079470 26.000000
153.004940 6.000000
153.018570 109.000000
165.016880 21.000000
177.015980 9.000000
177.035570 11.000000
177.048230 22.000000
177.054000 59.000000
177.063950 19.000000
179.029430 33.000000
191.028750 11.000000
192.045100 8.000000
193.048190 12.000000
195.026250 145.000000
195.036190 56.000000
195.045820 12.000000
196.021420 10.000000
196.035110 20.000000
196.642700 6.000000
197.035750 13.000000
198.034930 10.000000
215.386260 8.000000
219.016200 10.000000
219.028340 35.000000
220.024000 15.000000
226.061040 9.000000
245.041820 26.000000
246.048250 8.000000
261.044370 22.000000
263.029790 11.000000
263.055480 88.000000
263.066710 28.000000
273.051120 14.000000
279.053410 9.000000
281.042850 19.000000
281.066500 25.000000
281.078830 19.000000
282.055970 18.000000
302.991270 21.000000
303.061580 54.000000
303.085940 1000.000000
303.277860 9.000000
304.085050 159.000000
304.098330 64.000000
305.087160 21.000000
305.748600 7.000000
315.074160 34.000000
315.084720 37.000000
315.094570 33.000000
316.092710 20.000000
316.103550 12.000000
323.094120 6.000000
327.056400 9.000000
327.088500 24.000000
345.100430 36.000000
347.069790 7.000000
348.093600 12.000000
363.070250 7.000000
369.088070 27.000000
369.102260 56.000000
371.090060 6.000000
371.130520 9.000000
372.105350 10.000000
387.100560 12.000000
395.109950 7.000000
395.122710 26.000000
396.111150 10.000000
411.106900 8.000000
413.110720 23.000000
413.129090 21.000000
423.113920 10.000000
429.089630 8.000000
429.119380 10.000000
431.129940 18.000000
449.142240 12.000000
465.140010 8.000000

>ms2peaks
69.034240 35.000000
71.044830 46.000000
71.053420 111.000000
72.051470 22.000000
79.049910 35.000000
81.023880 38.000000
85.026630 206.000000
85.032140 169.000000
86.038310 47.000000
87.043330 22.000000
97.031640 39.000000
119.045030 43.000000
125.053940 55.000000
125.065330 39.000000
130.059270 39.000000
131.050490 34.000000
135.046260 26.000000
136.045410 27.000000
137.058550 57.000000
145.028750 82.000000
146.023940 23.000000
149.057750 70.000000
151.042600 43.000000
153.016510 917.000000
154.012850 33.000000
154.019240 122.000000
154.031690 26.000000
158.839130 25.000000
163.042950 79.000000
165.012440 52.000000
165.022520 99.000000
167.019070 26.000000
175.081650 70.000000
177.055390 1000.000000
178.056120 49.000000
178.067200 49.000000
179.015200 38.000000
179.031890 81.000000
179.040500 57.000000
183.038570 30.000000
186.031620 29.000000
186.058320 26.000000
189.021790 47.000000
190.058290 22.000000
190.784730 23.000000
191.030670 59.000000
191.041210 23.000000
193.386580 23.000000
193.748810 22.000000
193.771760 31.000000
194.074770 26.000000
195.014620 33.000000
195.027480 389.000000
195.039310 43.000000
196.019670 26.000000
196.028470 30.000000
202.988050 22.000000
203.023930 69.000000
203.037890 94.000000
204.041080 31.000000
217.008940 29.000000
217.056990 22.000000
219.023480 52.000000
219.034240 53.000000
220.039870 47.000000
231.023820 27.000000
232.027330 40.000000
245.034330 59.000000
245.056140 29.000000
246.050640 34.000000
260.286440 22.000000
263.050230 57.000000
265.381840 59.000000
273.946750 27.000000
285.050600 25.000000
285.078000 35.000000
292.050960 36.000000
301.070590 40.000000
303.061520 48.000000
303.089970 346.000000
304.078920 43.000000
304.525120 22.000000
316.080380 26.000000
335.085660 26.000000
353.120120 36.000000

>ms2peaks
55.052750 46.000000
71.048240 17.000000
75.040370 17.000000
85.022740 31.000000
85.028480 102.000000
103.038370 34.000000
109.034900 39.000000
129.054140 117.000000
129.060490 34.000000
130.057460 39.000000
145.048810 20.000000
147.060730 78.000000
147.068020 29.000000
151.077870 34.000000
153.009030 17.000000
153.019470 117.000000
165.015380 41.000000
177.046130 86.000000
177.055590 131.000000
179.022160 28.000000
179.038120 30.000000
189.015240 25.000000
191.038540 29.000000
195.028460 287.000000
196.034590 22.000000
206.783840 19.000000
219.030110 155.000000
221.046170 39.000000
231.036770 22.000000
245.020870 17.000000
245.050930 74.000000
246.050060 17.000000
257.037050 21.000000
261.000490 30.000000
261.039120 17.000000
263.043090 23.000000
263.057650 95.000000
264.078830 23.000000
281.066860 58.000000
302.079280 53.000000
303.085240 2230.000000
304.064150 29.000000
304.086820 244.000000
304.098140 162.000000
305.086090 75.000000
306.087950 34.000000
312.336940 20.000000
315.065610 42.000000
315.093810 18.000000
315.103850 20.000000
321.061340 18.000000
327.087250 64.000000
328.099150 28.000000
339.071200 20.000000
345.079350 18.000000
345.094120 41.000000
345.106140 48.000000
346.076930 20.000000
346.103880 66.000000
369.092220 52.000000
369.106410 78.000000
370.095980 29.000000
370.106780 70.000000
371.084630 18.000000
381.106900 30.000000
382.110630 30.000000
395.111510 45.000000
396.105900 28.000000
411.097020 21.000000
413.110780 23.000000
413.134060 113.000000
425.145690 23.000000
430.123260 18.000000
431.136440 131.000000
432.135350 90.000000
432.153230 31.000000
433.159420 32.000000
435.392330 18.000000
447.138310 43.000000
448.127900 35.000000
449.139160 554.000000
449.160890 249.000000
450.127750 35.000000
450.152950 136.000000
451.119450 27.000000
459.130680 18.000000
465.105800 46.000000
465.130490 66.000000
465.150570 217.000000
466.123840 43.000000
466.153500 54.000000
466.183010 34.000000
471.126860 30.000000
489.161680 22.000000
491.148770 22.000000
558.199100 17.000000
594.177430 17.000000
610.523500 19.000000
611.164920 78.000000
611.191710 373.000000
611.215760 162.000000

