>compound PR82889414
>parentmass 295.18048983333335
>ionization [M+H]+
>formula C19H22N2O
>rt 188.515000
>profile qtof
#smiles_iso C=CC1CN2CCC1CC2C(C3=CC=NC4=CC=CC=C34)O
#smiles_can C=CC1CN2CCC1CC2C(C3=CC=NC4=CC=CC=C34)O
#inchikey KMPWYEUPVWOPIM-UHFFFAOYSA-N
#pubchem_id 2757
#mb_accession PR301811,PR301815,PR301819,PR301823,PR301827,PR301833,PR301837,PR301840,PR301844,PR301848,PR310567,PR310569

>ms2peaks
81.070530 10.000000
81.075360 11.000000
95.076930 7.000000
110.096690 17.000000
122.100040 7.000000
124.110030 8.000000
129.062290 8.000000
130.065720 39.000000
130.071880 11.000000
132.078690 7.000000
134.098100 7.000000
135.112350 6.000000
142.064190 20.000000
142.069630 8.000000
143.072950 21.000000
144.078750 6.000000
154.070400 14.000000
156.081120 24.000000
166.060440 7.000000
166.136090 6.000000
167.071230 6.000000
168.078170 20.000000
168.089160 8.000000
169.086400 14.000000
172.078140 6.000000
184.077800 10.000000
194.094330 5.000000
196.074940 5.000000
207.105150 6.000000
219.945910 6.000000
222.115170 5.000000
224.138640 6.000000
233.103620 7.000000
234.131480 13.000000
238.151750 5.000000
246.126360 6.000000
261.142730 9.000000
277.151730 8.000000
277.174530 51.000000
278.179050 10.000000
278.186950 6.000000
295.152310 6.000000
295.181520 1000.000000

>ms2peaks
295.148040 10.000000
295.180330 1000.000000
295.222170 5.000000

>ms2peaks
55.053950 27.000000
67.047970 19.000000
67.055050 25.000000
70.066030 23.000000
79.055470 176.000000
80.047360 29.000000
81.070640 389.000000
82.064300 182.000000
82.075430 22.000000
82.080830 24.000000
83.074860 30.000000
84.046490 29.000000
86.062870 34.000000
92.062480 24.000000
93.056350 30.000000
93.066860 25.000000
95.045610 27.000000
95.073890 139.000000
96.081680 27.000000
105.067340 22.000000
106.062360 22.000000
106.070010 19.000000
107.067060 24.000000
107.084210 22.000000
107.090570 21.000000
108.076640 65.000000
108.692470 28.000000
110.083370 18.000000
110.094250 92.000000
115.061870 27.000000
117.050890 22.000000
117.057660 26.000000
117.072400 74.000000
121.084880 51.000000
121.094520 18.000000
122.095350 97.000000
123.094920 17.000000
124.110660 25.000000
125.075030 22.000000
128.049900 21.000000
129.053130 21.000000
130.064670 565.000000
131.063490 41.000000
132.083850 59.000000
133.072970 25.000000
134.090650 75.000000
134.099330 116.000000
134.307970 21.000000
135.100620 18.000000
136.108870 92.000000
136.117710 68.000000
138.125820 42.000000
138.135090 34.000000
142.059710 76.000000
142.067690 128.000000
143.062130 47.000000
143.071350 96.000000
143.078200 68.000000
144.076830 69.000000
144.085750 106.000000
144.703480 21.000000
145.081450 42.000000
146.351060 19.000000
147.110310 18.000000
154.056730 76.000000
154.065570 39.000000
154.076190 42.000000
154.278610 18.000000
155.067720 22.000000
156.076320 115.000000
156.084610 142.000000
157.058810 29.000000
157.073750 17.000000
157.085950 126.000000
158.056820 70.000000
159.044620 23.000000
159.059650 29.000000
159.066800 57.000000
166.065060 82.000000
166.108980 17.000000
166.117070 39.000000
166.123280 44.000000
167.072830 134.000000
167.083600 17.000000
167.121280 55.000000
168.077000 326.000000
168.084730 295.000000
169.082460 45.000000
169.092970 66.000000
170.088410 19.000000
170.101380 68.000000
170.533110 21.000000
171.082840 28.000000
171.094650 38.000000
172.065720 18.000000
172.075500 64.000000
179.074660 24.000000
180.078450 147.000000
180.106050 26.000000
181.074940 72.000000
181.093580 27.000000
182.074570 26.000000
182.091260 22.000000
182.104980 38.000000
183.059740 18.000000
183.072980 22.000000
183.091400 18.000000
184.015300 33.000000
184.069610 72.000000
184.104640 24.000000
185.055790 28.000000
185.064850 21.000000
186.091200 22.000000
188.736400 33.000000
192.071060 17.000000
193.086410 66.000000
193.098660 17.000000
194.049880 19.000000
194.084640 22.000000
194.095200 45.000000
194.102040 45.000000
195.008590 17.000000
195.085070 22.000000
195.091810 26.000000
195.111600 26.000000
196.109680 63.000000
196.115230 157.000000
197.109770 48.000000
198.559520 17.000000
204.077850 30.000000
205.070940 41.000000
206.074080 25.000000
206.091780 38.000000
206.103610 27.000000
207.096890 24.000000
207.103940 23.000000
208.096950 37.000000
208.111450 49.000000
208.123460 17.000000
209.109360 29.000000
210.132570 21.000000
211.115830 17.000000
212.111370 25.000000
217.083020 23.000000
218.090470 24.000000
218.104110 26.000000
219.107510 37.000000
220.114200 53.000000
222.112080 67.000000
223.116790 84.000000
223.128480 89.000000
224.086870 22.000000
224.133500 17.000000
224.158140 22.000000
226.132280 27.000000
232.106870 21.000000
232.119540 43.000000
233.121480 22.000000
234.117480 39.000000
235.112010 31.000000
235.126890 125.000000
236.114810 56.000000
236.128360 85.000000
236.137050 35.000000
236.152070 62.000000
244.116520 38.000000
246.119380 17.000000
246.135150 21.000000
247.134200 24.000000
249.129750 21.000000
249.140050 19.000000
250.135590 28.000000
250.151790 23.000000
250.170010 56.000000
251.152950 25.000000
252.149510 30.000000
266.144440 39.000000
266.170930 17.000000
273.130770 18.000000
277.145200 21.000000
277.171360 235.000000
278.166660 21.000000
278.187470 29.000000
278.757750 18.000000
279.170680 29.000000
288.083530 27.000000
294.172700 28.000000
295.145750 21.000000
295.182620 1000.000000

>ms2peaks
54.034460 85.000000
55.049210 85.000000
77.034400 69.000000
77.043140 93.000000
79.051840 69.000000
79.060410 291.000000
80.050030 308.000000
80.489620 73.000000
81.067560 117.000000
81.072040 223.000000
82.066700 134.000000
84.077370 121.000000
93.058200 178.000000
93.066220 77.000000
95.074540 77.000000
101.039150 121.000000
106.059040 134.000000
107.069730 81.000000
108.082980 259.000000
113.081620 81.000000
115.054370 93.000000
116.069010 69.000000
122.099660 130.000000
128.051410 356.000000
128.061130 113.000000
129.056200 113.000000
129.067580 174.000000
130.065460 1000.000000
131.070140 85.000000
134.099950 255.000000
134.325440 69.000000
142.058760 138.000000
142.065320 287.000000
142.071550 372.000000
143.075940 377.000000
144.074870 69.000000
146.051350 69.000000
152.061780 77.000000
154.060520 235.000000
154.070400 405.000000
155.068280 352.000000
156.077190 105.000000
156.089740 271.000000
166.064330 223.000000
166.070660 81.000000
167.057140 97.000000
167.064990 69.000000
167.078890 717.000000
168.074170 81.000000
168.082700 360.000000
170.096250 69.000000
171.065890 73.000000
172.074580 142.000000
180.079820 97.000000
181.083740 101.000000
184.079360 121.000000
192.074420 239.000000
195.094500 69.000000
204.069030 73.000000
204.082890 81.000000
204.974080 93.000000
205.085560 85.000000
206.087570 255.000000
217.080760 73.000000
218.079070 97.000000
218.088930 73.000000
218.106060 77.000000
235.095600 97.000000
276.640960 73.000000

>ms2peaks
79.057380 11.000000
81.071270 24.000000
82.065760 7.000000
95.071670 6.000000
108.079720 10.000000
110.096230 30.000000
130.064410 36.000000
131.067430 8.000000
134.095350 5.000000
138.128100 10.000000
142.065830 14.000000
143.074080 8.000000
144.086350 18.000000
154.064930 11.000000
155.072720 6.000000
156.078350 16.000000
159.064580 5.000000
166.118330 9.000000
167.072430 9.000000
168.079270 17.000000
169.073530 6.000000
169.081440 5.000000
180.077390 9.000000
180.087490 7.000000
182.094640 6.000000
184.076710 6.000000
197.106960 5.000000
206.100110 8.000000
218.081300 6.000000
218.099060 7.000000
221.104430 13.000000
222.123930 6.000000
223.119630 6.000000
231.101940 7.000000
232.109300 9.000000
235.124480 7.000000
236.132890 5.000000
268.204040 6.000000
277.153440 6.000000
277.169310 62.000000
295.141050 11.000000
295.180210 1000.000000

>ms2peaks
53.039970 34.000000
65.041590 37.000000
68.060470 31.000000
70.060110 28.000000
77.039340 36.000000
79.050680 199.000000
79.054860 503.000000
80.056720 25.000000
80.061040 46.000000
81.065130 250.000000
81.072620 177.000000
82.060320 75.000000
82.076770 84.000000
83.070180 36.000000
83.299810 31.000000
84.080440 37.000000
86.061160 30.000000
91.054280 87.000000
91.062310 69.000000
94.062900 85.000000
95.073240 25.000000
95.090290 49.000000
96.079270 37.000000
96.088010 93.000000
97.093480 43.000000
105.071110 165.000000
106.067760 100.000000
107.073060 27.000000
107.079510 31.000000
108.083850 82.000000
108.088080 31.000000
109.062590 40.000000
109.068830 28.000000
110.090500 66.000000
110.099560 69.000000
117.061410 67.000000
118.076540 30.000000
119.083330 30.000000
120.076070 78.000000
122.099010 60.000000
129.060870 31.000000
130.058430 192.000000
130.066310 533.000000
132.075440 37.000000
133.091380 40.000000
134.094300 91.000000
135.103420 58.000000
136.105770 72.000000
136.113140 244.000000
137.113980 60.000000
138.132810 25.000000
142.063430 25.000000
142.071380 142.000000
143.070530 219.000000
144.080960 66.000000
144.087660 37.000000
145.056930 28.000000
145.079150 42.000000
145.087230 27.000000
148.119000 28.000000
150.030290 31.000000
154.038770 27.000000
154.049550 39.000000
154.063250 346.000000
155.075530 31.000000
156.027330 36.000000
156.076750 151.000000
156.085590 232.000000
156.558640 33.000000
157.048160 28.000000
157.523120 30.000000
158.057710 30.000000
158.088460 25.000000
158.099520 36.000000
160.075710 33.000000
166.063250 275.000000
166.120440 141.000000
167.065430 69.000000
167.074010 204.000000
167.088460 27.000000
168.080570 624.000000
168.094470 42.000000
168.270170 27.000000
169.067900 30.000000
169.076110 25.000000
169.085660 96.000000
169.094860 79.000000
170.059490 54.000000
170.076750 30.000000
170.090880 34.000000
170.101360 31.000000
171.088180 28.000000
172.076780 118.000000
172.104030 30.000000
173.074780 37.000000
174.499050 30.000000
178.085170 25.000000
180.082180 178.000000
181.072420 154.000000
181.083890 75.000000
181.092250 75.000000
182.058260 28.000000
182.097080 102.000000
183.095140 123.000000
184.078720 124.000000
184.096080 33.000000
184.104920 33.000000
185.055250 40.000000
185.080960 27.000000
192.071270 28.000000
192.079510 45.000000
192.087940 28.000000
193.073910 34.000000
193.093720 64.000000
194.091840 201.000000
196.073300 25.000000
196.102080 30.000000
196.111150 33.000000
197.114760 60.000000
204.083020 30.000000
205.736470 28.000000
206.099240 48.000000
207.100570 31.000000
208.100710 31.000000
208.112120 106.000000
208.118150 40.000000
209.102220 34.000000
209.108750 82.000000
210.104230 27.000000
210.127670 123.000000
211.096790 36.000000
212.118350 40.000000
218.060820 28.000000
220.106630 37.000000
221.108750 34.000000
222.128780 66.000000
223.127590 72.000000
224.112950 34.000000
230.116410 28.000000
232.106160 57.000000
232.122670 25.000000
234.121630 34.000000
234.136760 73.000000
235.106490 61.000000
235.120700 171.000000
235.133210 30.000000
236.121220 25.000000
236.134250 75.000000
236.157060 42.000000
237.136350 120.000000
237.364790 31.000000
238.166120 46.000000
245.116230 31.000000
247.131820 30.000000
248.138570 93.000000
248.152770 25.000000
249.146870 37.000000
252.139690 42.000000
253.148100 52.000000
258.124600 30.000000
265.171810 31.000000
276.161710 33.000000
277.161290 93.000000
277.174500 347.000000
278.168520 30.000000
278.191930 30.000000
288.699220 36.000000
288.910980 33.000000
289.628140 30.000000
295.135310 36.000000
295.152620 30.000000
295.173160 259.000000
295.183840 1000.000000

>ms2peaks
55.052440 75.000000
67.053260 139.000000
67.057180 64.000000
77.037410 206.000000
80.064600 101.000000
81.056250 71.000000
82.065740 195.000000
82.079580 67.000000
87.029000 75.000000
91.051910 150.000000
92.058040 64.000000
93.070550 67.000000
95.066460 64.000000
95.080460 86.000000
103.047970 75.000000
106.067820 337.000000
107.073720 109.000000
107.080780 79.000000
115.052390 217.000000
116.043820 124.000000
118.069480 67.000000
120.077630 64.000000
124.103690 67.000000
127.062270 116.000000
128.048830 551.000000
130.063220 1000.000000
131.068130 240.000000
132.074570 86.000000
132.080960 97.000000
134.099430 273.000000
135.100430 139.000000
138.620570 82.000000
139.060270 146.000000
142.058690 187.000000
142.068440 131.000000
143.070190 363.000000
143.081020 131.000000
144.084460 82.000000
152.062260 67.000000
153.072590 79.000000
154.060040 191.000000
154.066060 90.000000
155.056690 109.000000
156.077130 86.000000
156.089950 247.000000
157.088440 82.000000
158.053300 150.000000
159.066960 75.000000
165.068160 116.000000
166.062440 315.000000
167.063050 105.000000
167.071950 637.000000
167.083010 86.000000
168.063140 71.000000
168.077960 191.000000
168.088010 67.000000
169.072650 97.000000
179.067990 94.000000
180.037030 116.000000
180.083470 82.000000
180.091660 86.000000
181.087890 79.000000
182.062990 199.000000
184.053860 71.000000
184.072200 184.000000
184.164170 67.000000
192.076780 82.000000
194.103610 82.000000
206.098920 90.000000
217.091580 71.000000
218.083820 79.000000
218.092130 109.000000
221.117480 187.000000
233.133500 64.000000
235.114010 75.000000

>ms2peaks
65.820830 7.000000
79.054530 19.000000
81.069470 24.000000
110.099430 9.000000
122.097440 14.000000
130.064610 44.000000
131.066760 10.000000
134.101590 13.000000
136.110900 7.000000
142.064760 24.000000
142.077700 7.000000
143.065870 8.000000
145.082140 6.000000
154.054060 7.000000
154.064710 15.000000
154.073720 6.000000
156.076110 5.000000
157.084470 8.000000
165.066510 5.000000
166.058150 8.000000
166.124190 8.000000
167.058620 6.000000
167.075390 14.000000
168.084180 28.000000
180.089940 7.000000
181.078060 9.000000
184.079270 8.000000
185.103970 7.000000
189.772810 9.000000
196.110820 6.000000
197.109270 9.000000
204.080920 7.000000
206.098850 5.000000
223.124070 7.000000
234.124270 8.000000
235.122270 6.000000
249.135880 5.000000
277.162660 37.000000
277.177250 31.000000
278.166380 13.000000
279.180450 8.000000
295.180510 1000.000000

>ms2peaks
295.139070 6.000000
295.180850 1000.000000

>ms2peaks
55.053010 41.000000
68.052130 37.000000
68.056300 55.000000
68.065490 26.000000
79.051800 206.000000
80.052100 38.000000
80.056300 29.000000
80.744400 35.000000
81.060870 41.000000
81.069850 540.000000
82.058870 43.000000
82.066150 41.000000
82.076990 35.000000
91.048760 80.000000
91.054560 32.000000
93.060500 28.000000
93.074760 40.000000
95.071120 83.000000
95.078900 32.000000
96.075300 78.000000
96.082270 58.000000
105.070240 55.000000
108.077300 199.000000
108.083370 87.000000
108.087230 41.000000
110.088750 164.000000
110.100790 38.000000
115.060090 60.000000
117.070430 90.000000
118.053000 46.000000
119.072940 52.000000
119.087100 26.000000
121.085380 48.000000
122.098570 176.000000
123.092930 35.000000
124.080400 40.000000
128.048450 58.000000
130.033460 31.000000
130.063230 554.000000
130.070210 221.000000
130.079470 35.000000
131.064530 94.000000
131.072770 67.000000
132.083510 80.000000
133.090870 32.000000
134.091430 51.000000
134.098750 104.000000
135.097230 121.000000
136.111740 164.000000
138.774990 57.000000
138.913250 31.000000
142.047390 34.000000
142.061100 63.000000
142.065550 170.000000
143.068830 224.000000
143.080120 81.000000
143.629460 32.000000
144.083590 186.000000
144.345720 51.000000
147.065930 28.000000
150.126310 32.000000
153.663960 26.000000
154.054020 100.000000
154.064240 230.000000
154.074580 44.000000
155.067370 29.000000
155.076830 127.000000
156.047150 49.000000
156.068440 144.000000
156.080120 452.000000
157.076610 26.000000
157.084640 55.000000
158.054120 31.000000
159.063390 83.000000
159.080800 29.000000
160.075960 35.000000
166.054730 41.000000
166.103450 32.000000
166.120320 71.000000
166.132490 41.000000
167.060640 58.000000
167.071460 69.000000
167.083800 58.000000
168.077640 242.000000
168.086150 199.000000
169.077650 31.000000
169.085330 83.000000
170.054660 40.000000
171.061020 32.000000
171.071210 51.000000
171.098650 129.000000
172.073680 89.000000
173.081500 31.000000
174.080260 29.000000
180.077440 115.000000
181.094850 37.000000
181.104630 29.000000
181.572830 26.000000
182.083510 26.000000
182.094560 41.000000
182.107220 38.000000
182.732820 26.000000
183.076080 26.000000
184.056610 28.000000
184.081480 31.000000
191.073680 126.000000
191.388610 26.000000
192.073390 32.000000
192.099750 29.000000
193.077260 28.000000
193.087330 69.000000
194.085970 44.000000
194.097670 60.000000
195.092010 26.000000
195.103070 52.000000
196.108980 130.000000
197.114030 77.000000
203.088650 46.000000
204.073870 28.000000
204.085560 28.000000
206.089360 31.000000
206.101120 120.000000
206.106930 43.000000
207.092290 43.000000
207.106720 32.000000
208.103130 29.000000
209.110530 104.000000
209.119960 32.000000
210.139660 40.000000
214.132580 29.000000
218.071960 46.000000
218.091510 26.000000
218.102920 66.000000
218.113950 51.000000
219.098950 29.000000
219.123090 26.000000
221.087160 29.000000
221.105100 31.000000
221.116490 103.000000
221.125500 26.000000
222.135300 26.000000
223.108470 35.000000
223.117400 32.000000
223.141540 43.000000
224.149370 26.000000
225.127720 43.000000
232.122880 31.000000
233.127030 51.000000
234.125730 26.000000
234.138310 55.000000
235.114670 63.000000
235.126280 133.000000
236.123860 48.000000
236.140660 104.000000
242.101680 31.000000
247.119340 32.000000
247.246370 31.000000
248.136200 95.000000
248.149250 35.000000
252.147580 81.000000
261.128170 31.000000
261.147190 44.000000
277.164460 374.000000
277.183590 219.000000
278.160400 67.000000
278.179690 109.000000
279.183140 26.000000
280.168270 31.000000
282.777340 31.000000
295.166290 153.000000
295.180480 1000.000000

>ms2peaks
80.049600 20.000000
81.076080 39.000000
84.529910 17.000000
93.485960 21.000000
96.082140 24.000000
106.070240 21.000000
109.085690 20.000000
119.072100 20.000000
120.088770 18.000000
129.057620 17.000000
130.057740 68.000000
130.066090 90.000000
132.082060 24.000000
135.096250 71.000000
136.113540 17.000000
142.058470 52.000000
142.069960 50.000000
143.084580 29.000000
144.078770 22.000000
154.062130 22.000000
154.069500 36.000000
156.083910 96.000000
156.669740 17.000000
162.083050 20.000000
166.117490 27.000000
166.126210 54.000000
167.073520 71.000000
168.074400 56.000000
168.089660 60.000000
169.081410 50.000000
170.068650 27.000000
172.082410 43.000000
178.067180 23.000000
179.063930 20.000000
180.084470 77.000000
181.078000 17.000000
181.093060 24.000000
182.048680 22.000000
183.095350 20.000000
184.063170 21.000000
184.086320 22.000000
194.091860 18.000000
194.101100 25.000000
195.091710 20.000000
197.107300 24.000000
197.114260 25.000000
207.097810 28.000000
208.118070 41.000000
209.108580 18.000000
220.119190 25.000000
221.106510 17.000000
223.122680 17.000000
224.150630 17.000000
231.109590 39.000000
234.122500 28.000000
234.137730 25.000000
238.170870 17.000000
241.128620 18.000000
245.483050 19.000000
246.138350 18.000000
248.134670 49.000000
248.152420 25.000000
255.625580 22.000000
266.147340 21.000000
277.161410 89.000000
277.174710 104.000000
277.193150 24.000000
278.154720 24.000000
278.175020 62.000000
290.844450 25.000000
295.066710 20.000000
295.150420 23.000000
295.182160 3623.000000

>ms2peaks
51.492750 27.000000
79.060180 24.000000
81.070530 71.000000
81.075360 75.000000
82.071880 25.000000
82.076800 22.000000
83.081840 24.000000
91.056590 25.000000
95.071320 23.000000
95.076930 44.000000
95.082600 29.000000
105.068320 21.000000
107.064320 17.000000
110.096690 115.000000
112.868100 27.000000
115.054790 22.000000
117.070590 26.000000
122.100040 46.000000
124.065420 19.000000
124.110030 55.000000
127.056400 30.000000
128.051820 28.000000
129.062290 54.000000
130.065720 261.000000
130.071880 72.000000
132.078690 47.000000
132.110280 21.000000
134.098100 48.000000
135.112350 40.000000
136.116500 30.000000
142.064190 133.000000
142.069630 52.000000
143.072950 139.000000
144.078750 40.000000
146.094090 20.000000
154.060970 25.000000
154.070400 98.000000
156.021730 20.000000
156.062180 18.000000
156.081120 160.000000
158.770340 22.000000
159.079990 22.000000
166.060440 49.000000
166.117540 29.000000
166.136090 43.000000
167.071230 43.000000
168.036360 26.000000
168.078170 134.000000
168.089160 56.000000
169.066770 20.000000
169.086400 92.000000
171.088460 20.000000
172.078140 38.000000
173.849460 20.000000
177.066190 18.000000
180.069340 19.000000
180.079530 18.000000
181.081760 18.000000
182.087950 23.000000
183.097490 18.000000
184.070310 26.000000
184.077800 69.000000
184.088880 23.000000
186.096660 27.000000
192.081130 21.000000
193.765260 28.000000
194.094330 36.000000
196.074940 36.000000
197.099150 22.000000
201.989750 21.000000
205.089220 30.000000
206.076710 18.000000
207.105150 40.000000
208.107670 23.000000
209.103610 30.000000
209.112340 19.000000
214.128080 23.000000
215.046910 20.000000
218.086730 22.000000
218.096560 18.000000
218.107850 19.000000
219.269680 20.000000
219.945910 39.000000
221.110690 21.000000
222.115170 36.000000
224.119310 18.000000
224.138640 41.000000
233.103620 44.000000
234.131480 90.000000
235.116010 20.000000
235.126910 17.000000
236.122620 21.000000
236.141510 28.000000
238.151750 36.000000
238.164020 24.000000
246.126360 41.000000
247.123890 17.000000
255.747650 20.000000
261.142730 58.000000
267.183840 20.000000
276.814180 18.000000
277.151730 53.000000
277.174530 344.000000
277.852290 17.000000
278.179050 66.000000
278.186950 39.000000
279.191190 27.000000
293.921390 22.000000
295.125240 28.000000
295.152310 42.000000
295.181520 6767.000000

