>compound PR83139587
>parentmass 520.3404499999999
>ionization [M+H]+
>formula C26H50NO7P
>rt 564.900000
>profile qtof
#smiles_iso CCCCCC=CCC=CCCCCCCCC(=O)OCC(COP(=O)([O-])OCC[N+](C)(C)C)O
#smiles_can CCCCCC=CCC=CCCCCCCCC(=O)OCC(COP(=O)([O-])OCC[N+](C)(C)C)O
#inchikey SPJFYYJXNPEZDW-UHFFFAOYSA-N
#pubchem_id 25200694
#mb_accession PR310843,PR310844

>ms2peaks
69.996320 26.000000
86.095550 23.000000
104.109480 16.000000
166.069670 33.000000
183.767350 17.000000
184.044950 46.000000
184.073140 1709.000000
184.359010 17.000000
185.073620 33.000000
185.081600 65.000000
187.088880 20.000000
266.189880 20.000000
460.965300 17.000000
502.319980 62.000000
503.304600 21.000000
503.332030 17.000000
504.365690 16.000000
519.309570 16.000000
520.289430 25.000000
520.324400 220.000000
520.346560 533.000000
520.381410 47.000000

>ms2peaks
60.084820 23.000000
66.300050 20.000000
83.048530 16.000000
83.084090 30.000000
86.096730 281.000000
95.086840 33.000000
104.107740 2333.000000
104.155430 16.000000
105.109030 170.000000
106.112030 33.000000
109.100690 36.000000
114.160950 17.000000
121.102630 22.000000
123.119480 19.000000
124.987520 30.000000
125.002200 210.000000
133.100460 19.000000
137.130720 25.000000
163.012700 18.000000
163.025190 16.000000
166.061020 84.000000
166.070820 63.000000
177.161620 16.000000
177.778820 30.000000
181.031160 20.000000
184.027570 18.000000
184.036800 16.000000
184.057070 57.000000
184.075150 5082.000000
184.145110 23.000000
185.052060 18.000000
185.076640 433.000000
185.522090 17.000000
186.085220 71.000000
186.350110 18.000000
186.638850 33.000000
187.900830 18.000000
221.009670 20.000000
235.928410 33.000000
258.105530 16.000000
258.116270 18.000000
259.118870 16.000000
305.255650 20.000000
307.259250 16.000000
332.591190 22.000000
337.259800 28.000000
338.286010 46.000000
339.274290 18.000000
356.161930 17.000000
369.181850 17.000000
381.677950 18.000000
438.307890 16.000000
439.165100 27.000000
443.259890 74.000000
502.299410 61.000000
502.328400 875.000000
503.314480 89.000000
503.332430 120.000000
503.359860 28.000000
504.128850 51.000000
504.330990 34.000000
505.322200 16.000000
506.808290 20.000000
511.421720 18.000000
518.326290 17.000000
519.300170 16.000000
519.318850 17.000000
519.654660 16.000000
519.883670 23.000000
520.233400 16.000000
520.247620 17.000000
520.285950 47.000000
520.340820 10624.000000
520.470520 23.000000

