>compound PR83535191
>parentmass 959.5210069538463
>ionization [M+H]+
>formula C48H78O19
>rt 312.591692
>profile qtof
#smiles_iso CC1CCC2(CCC3(C(=CCC4C3(CCC5C4(CC(C(C5(C)CO)O)O)C)C)C2C1C)C)C(=O)OC6C(C(C(C(O6)COC7C(C(C(C(O7)CO)OC8C(C(C(C(O8)C)O)O)O)O)O)O)O)O
#smiles_can CC1CCC2(CCC3(C(=CCC4C3(CCC5C4(CC(C(C5(C)CO)O)O)C)C)C2C1C)C)C(=O)OC6C(C(C(C(O6)COC7C(C(C(C(O7)CO)OC8C(C(C(C(O8)C)O)O)O)O)O)O)O)O
#inchikey WYQVAPGDARQUBT-UHFFFAOYSA-N
#pubchem_id 108062
#mb_accession PR303841,PR303845,PR303849,PR303853,PR303857,PR303861,PR303865,PR303869,PR303873,PR303877,PR303881,PR303885,PR310405

>ms2peaks
85.027110 20.000000
85.035270 15.000000
111.026000 14.000000
111.042010 15.000000
125.088840 13.000000
125.095670 15.000000
129.042830 12.000000
129.056050 20.000000
145.045380 15.000000
147.043620 13.000000
147.061370 43.000000
147.071500 33.000000
147.118190 16.000000
151.108510 19.000000
173.047030 16.000000
175.065090 15.000000
175.115250 18.000000
175.149000 15.000000
187.144230 49.000000
189.163990 17.000000
192.151840 15.000000
199.144710 30.000000
201.153180 16.000000
206.630720 17.000000
209.150280 14.000000
211.301510 14.000000
215.188810 27.000000
217.148410 13.000000
219.171890 13.000000
233.189730 28.000000
235.159030 15.000000
235.171420 28.000000
238.065660 17.000000
243.097890 12.000000
244.178150 16.000000
248.170700 15.000000
253.178250 18.000000
254.200500 16.000000
255.091780 37.000000
261.187440 20.000000
267.211060 15.000000
273.092960 77.000000
273.137120 15.000000
274.094210 26.000000
294.173890 15.000000
302.351470 12.000000
308.336520 15.000000
309.114650 389.000000
309.135680 24.000000
310.109710 25.000000
310.127780 43.000000
321.012540 12.000000
325.106140 19.000000
326.119110 13.000000
329.251740 12.000000
351.113190 12.000000
354.265990 15.000000
389.303410 12.000000
407.301760 71.000000
407.325740 98.000000
407.352200 14.000000
408.328830 38.000000
417.131500 15.000000
424.328610 15.000000
425.339840 15.000000
426.328490 17.000000
435.126800 13.000000
435.141910 15.000000
435.290100 15.000000
435.330380 85.000000
435.699710 14.000000
436.302610 14.000000
436.340880 15.000000
442.354370 14.000000
443.351410 16.000000
453.335910 479.000000
454.335420 207.000000
454.372310 13.000000
455.344700 15.000000
469.737980 16.000000
471.154880 18.000000
471.181400 110.000000
471.339050 114.000000
471.355680 141.000000
472.353300 65.000000
473.174320 15.000000
473.377690 13.000000
487.360110 12.000000
489.326110 49.000000
489.362000 162.000000
490.357850 50.000000
490.370060 25.000000
491.375060 17.000000
596.799320 14.000000
600.395630 13.000000
607.378780 15.000000
621.331730 15.000000
621.611510 18.000000
633.370730 12.000000
633.401730 12.000000
635.403500 101.000000
635.422670 120.000000
635.447690 33.000000
636.385620 13.000000
637.428890 13.000000
637.450930 12.000000
638.422670 12.000000
651.330440 16.000000
651.394780 94.000000
651.431640 47.000000
652.364810 12.000000
652.403320 31.000000
652.437990 30.000000
653.432680 65.000000
654.395510 25.000000
761.455750 12.000000
790.985780 15.000000
796.480410 15.000000
797.440060 69.000000
797.474790 240.000000
797.514340 14.000000
798.465330 83.000000
798.514280 29.000000
799.437740 28.000000
799.462770 27.000000
799.500730 25.000000
813.386230 15.000000
813.458740 40.000000
813.491090 12.000000
814.455810 75.000000
814.512940 12.000000
815.494380 14.000000
867.565920 24.000000
943.555790 17.000000
959.519900 1000.000000

>ms2peaks
129.056730 7.000000
147.058590 6.000000
309.095670 6.000000
309.119660 23.000000
309.131040 8.000000
310.128110 6.000000
327.133360 6.000000
332.617070 7.000000
399.130770 5.000000
435.136630 8.000000
435.156310 5.000000
435.317570 6.000000
453.146300 6.000000
453.348450 11.000000
471.158910 40.000000
471.179870 53.000000
471.337070 6.000000
471.352050 12.000000
472.182460 27.000000
475.204130 5.000000
489.333920 6.000000
489.357120 19.000000
635.362240 6.000000
635.402710 83.000000
635.427860 51.000000
635.450130 17.000000
636.389400 8.000000
636.427490 26.000000
637.406860 12.000000
637.430730 6.000000
651.406980 52.000000
651.450930 9.000000
652.380130 7.000000
663.054930 8.000000
709.235840 8.000000
779.472290 6.000000
797.387150 6.000000
797.461550 100.000000
797.487240 56.000000
797.522710 6.000000
798.457460 56.000000
798.488160 31.000000
798.515440 10.000000
799.456180 40.000000
799.542720 7.000000
813.376650 6.000000
813.450380 20.000000
813.481080 30.000000
814.443790 5.000000
814.468260 14.000000
814.507260 6.000000
906.526610 5.000000
931.963130 5.000000
959.519710 1000.000000

>ms2peaks
71.047800 6.000000
85.026820 18.000000
93.072690 19.000000
95.087010 7.000000
103.041970 11.000000
107.088520 26.000000
109.060820 8.000000
109.097790 6.000000
111.038380 14.000000
111.046360 18.000000
111.080800 7.000000
125.094120 42.000000
126.094560 16.000000
127.041000 7.000000
129.044750 12.000000
129.054410 56.000000
130.048280 9.000000
130.053070 6.000000
135.117250 9.000000
145.049360 19.000000
145.056290 8.000000
145.910290 7.000000
147.063490 105.000000
147.069850 38.000000
149.136250 7.000000
150.740110 9.000000
159.108870 6.000000
163.058330 44.000000
163.150560 7.000000
164.069310 9.000000
165.073840 13.000000
165.081090 14.000000
177.169560 7.000000
187.146840 13.000000
187.155400 15.000000
188.150020 16.000000
191.141530 10.000000
191.180150 6.000000
192.184200 13.000000
197.289140 7.000000
199.150050 14.000000
201.161910 21.000000
203.140610 9.000000
203.175960 13.000000
205.146130 9.000000
205.162720 7.000000
205.181820 6.000000
213.162480 6.000000
214.044040 6.000000
214.077440 9.000000
215.172780 6.000000
217.154540 6.000000
218.196400 6.000000
219.155670 6.000000
219.179820 6.000000
220.181470 12.000000
225.836910 6.000000
228.553990 6.000000
231.179060 9.000000
233.192440 27.000000
234.201020 17.000000
235.161730 8.000000
236.171310 9.000000
237.080050 22.000000
238.038100 7.000000
243.073500 8.000000
243.089450 9.000000
243.098570 14.000000
247.080090 8.000000
247.161130 7.000000
247.173810 15.000000
247.180730 7.000000
249.189320 13.000000
255.091280 35.000000
255.910840 9.000000
256.075930 9.000000
261.178380 6.000000
261.196500 7.000000
262.222290 11.000000
271.079280 9.000000
273.096130 90.000000
273.105830 39.000000
274.106320 6.000000
275.101990 7.000000
275.201930 7.000000
287.069820 9.000000
289.086730 6.000000
291.108550 8.000000
293.230800 8.000000
304.498500 7.000000
305.670440 8.000000
307.426610 7.000000
309.118040 295.000000
309.704010 6.000000
310.123290 29.000000
311.115170 8.000000
311.125180 16.000000
312.129880 6.000000
315.621000 6.000000
325.111330 16.000000
325.128540 10.000000
338.973390 7.000000
341.240020 16.000000
341.254700 17.000000
341.269650 7.000000
343.242950 7.000000
343.259160 6.000000
343.273040 14.000000
344.255070 7.000000
344.275880 7.000000
351.911290 6.000000
364.427490 6.000000
365.289310 8.000000
379.316990 8.000000
380.336210 7.000000
381.106630 8.000000
382.114290 7.000000
389.298800 6.000000
389.324100 6.000000
390.325960 7.000000
391.341090 10.000000
395.290950 20.000000
395.333830 8.000000
407.285950 7.000000
407.302490 12.000000
407.333950 173.000000
408.334260 35.000000
408.347690 13.000000
408.487980 8.000000
409.357700 9.000000
409.370640 7.000000
410.353970 6.000000
417.109620 14.000000
417.155880 6.000000
423.299350 7.000000
423.336790 6.000000
423.676940 7.000000
424.319730 6.000000
424.349090 6.000000
425.324710 9.000000
435.316350 43.000000
435.329710 117.000000
436.317990 29.000000
436.329650 78.000000
437.338440 6.000000
437.380130 7.000000
438.331090 7.000000
440.682040 6.000000
441.324010 8.000000
443.348820 12.000000
444.361020 8.000000
444.550750 9.000000
445.026760 9.000000
451.324430 7.000000
453.028410 6.000000
453.339780 1000.000000
454.336090 218.000000
454.350770 93.000000
455.298770 6.000000
455.323580 19.000000
455.344480 26.000000
455.363770 18.000000
456.245640 6.000000
456.360440 6.000000
462.580410 6.000000
471.170500 12.000000
471.268980 9.000000
471.308720 6.000000
471.336120 125.000000
471.355590 235.000000
472.342770 102.000000
472.373810 24.000000
473.372860 14.000000
489.311490 8.000000
489.334010 10.000000
489.363860 63.000000
490.350160 7.000000
490.380980 8.000000
491.362060 8.000000
499.366940 9.000000
511.340970 6.000000
517.370610 8.000000
570.632390 6.000000
581.379330 6.000000
582.378300 8.000000
585.351810 7.000000
599.392210 9.000000
599.416260 7.000000
599.431580 10.000000
616.379940 7.000000
618.379700 7.000000
619.449400 7.000000
635.399540 6.000000
635.441040 8.000000
636.425110 11.000000
638.426880 6.000000
651.409850 41.000000
651.444640 9.000000
652.421390 8.000000
654.440550 6.000000
725.408200 6.000000
743.450440 11.000000
837.403560 6.000000

>ms2peaks
50.447470 68.000000
55.582200 47.000000
63.659240 47.000000
69.035180 68.000000
81.569440 47.000000
82.810560 82.000000
83.045300 47.000000
83.049660 79.000000
85.027770 874.000000
87.034070 55.000000
91.037580 66.000000
91.278730 47.000000
93.062870 71.000000
99.248930 68.000000
103.042300 77.000000
107.071470 55.000000
107.090380 129.000000
109.097080 112.000000
109.103840 112.000000
111.037170 118.000000
111.047020 307.000000
111.079330 205.000000
112.088220 60.000000
119.086530 66.000000
121.101890 63.000000
125.098500 323.000000
126.102110 107.000000
127.008440 55.000000
127.033300 115.000000
129.052700 1000.000000
129.061490 142.000000
129.502370 55.000000
131.085850 60.000000
134.105910 82.000000
139.107510 68.000000
145.049510 222.000000
145.054440 88.000000
145.096830 99.000000
145.108030 58.000000
147.061070 337.000000
147.068970 167.000000
149.091930 49.000000
149.132450 66.000000
153.097760 63.000000
156.788940 47.000000
159.072530 52.000000
159.111880 145.000000
161.128540 55.000000
163.059690 55.000000
163.072600 49.000000
163.109880 99.000000
163.140550 49.000000
165.163880 63.000000
166.080310 60.000000
173.127930 58.000000
173.136700 47.000000
175.151290 145.000000
176.150070 49.000000
177.123140 60.000000
177.139180 178.000000
177.169330 66.000000
179.174070 77.000000
179.335780 52.000000
185.136630 52.000000
187.147250 499.000000
187.155940 104.000000
188.115510 68.000000
188.153960 126.000000
189.165680 510.000000
191.109820 49.000000
191.142990 63.000000
191.174530 90.000000
191.182800 47.000000
193.129320 49.000000
194.156510 55.000000
199.062550 71.000000
199.147090 208.000000
200.146880 55.000000
201.160720 597.000000
201.171400 186.000000
202.166050 181.000000
203.140820 49.000000
203.171220 107.000000
203.180730 389.000000
205.148670 58.000000
205.163180 110.000000
206.197360 68.000000
208.184230 104.000000
209.070370 74.000000
211.147200 96.000000
213.161770 170.000000
213.172010 129.000000
214.148480 74.000000
215.141560 47.000000
215.171680 52.000000
215.179490 107.000000
215.189450 60.000000
217.160480 47.000000
217.195390 178.000000
219.155780 60.000000
219.174870 504.000000
221.145830 82.000000
223.177410 74.000000
225.169330 104.000000
229.163590 85.000000
231.086060 58.000000
233.187180 238.000000
235.159230 96.000000
235.180570 49.000000
236.180010 55.000000
243.074910 79.000000
243.222080 96.000000
247.145680 58.000000
247.163970 181.000000
247.173490 142.000000
256.082890 99.000000
260.168640 55.000000
261.186830 189.000000
262.175290 49.000000
262.187710 47.000000
267.211490 47.000000
268.204010 55.000000
273.101100 170.000000
275.188660 49.000000
281.213350 153.000000
281.228640 47.000000
283.205080 85.000000
283.246640 47.000000
290.215060 58.000000
291.113920 49.000000
293.220730 47.000000
296.192470 47.000000
305.219480 47.000000
309.117920 47.000000
318.227570 90.000000
319.246310 55.000000
327.239690 49.000000
333.263370 66.000000
343.251160 82.000000
349.303070 93.000000
351.269990 47.000000
352.255400 49.000000
355.262700 118.000000
359.273800 55.000000
369.271420 55.000000
378.314910 52.000000
389.312710 216.000000
389.327210 47.000000
390.326350 227.000000
407.270970 110.000000
407.310120 140.000000
407.335210 638.000000
408.311740 85.000000
408.343020 153.000000
409.052700 60.000000
409.334260 47.000000
410.334630 77.000000
410.346590 68.000000
423.317840 225.000000
424.605830 47.000000
435.320860 351.000000
435.340520 82.000000
436.306300 47.000000
436.333100 90.000000
437.318700 66.000000
443.326750 55.000000
453.333800 411.000000
453.357210 104.000000
454.331180 104.000000
579.369320 71.000000
643.425170 47.000000
812.521850 68.000000
873.657590 88.000000
953.198300 49.000000

>ms2peaks
75.043740 15.000000
83.048010 11.000000
85.028410 41.000000
107.083530 12.000000
111.046930 10.000000
125.018690 12.000000
125.095400 17.000000
127.043920 20.000000
129.041470 17.000000
129.053990 87.000000
129.058580 31.000000
145.047850 12.000000
146.112630 21.000000
147.062040 85.000000
148.070420 10.000000
155.817840 10.000000
159.114960 10.000000
163.042430 12.000000
163.058260 33.000000
163.066770 18.000000
165.071730 27.000000
165.078950 22.000000
187.152530 30.000000
188.142580 12.000000
188.152330 11.000000
189.167020 10.000000
193.132970 13.000000
193.150620 11.000000
204.175870 10.000000
205.154100 12.000000
215.180340 17.000000
217.152910 10.000000
219.178630 54.000000
229.158710 14.000000
231.062790 10.000000
231.165560 11.000000
233.185290 10.000000
235.134700 10.000000
235.167560 16.000000
236.174440 16.000000
237.066830 13.000000
237.082500 10.000000
238.077160 14.000000
241.079700 12.000000
241.187670 10.000000
242.361760 13.000000
247.174440 58.000000
248.184010 26.000000
249.178560 19.000000
249.193070 12.000000
255.083660 57.000000
256.094600 15.000000
259.093440 12.000000
261.183230 75.000000
262.182310 12.000000
263.158660 12.000000
272.212040 12.000000
273.094300 33.000000
273.106080 27.000000
274.098660 15.000000
275.199310 14.000000
291.106050 24.000000
308.513820 10.000000
309.106930 136.000000
309.120610 219.000000
309.137390 42.000000
309.920590 15.000000
310.104190 10.000000
310.118260 44.000000
316.507320 10.000000
325.109190 12.000000
325.119380 14.000000
327.236300 10.000000
341.247960 37.000000
343.256900 12.000000
344.901460 10.000000
353.244570 10.000000
363.300380 10.000000
365.322660 23.000000
370.424410 11.000000
379.333310 14.000000
389.303680 15.000000
389.329860 33.000000
391.319210 12.000000
391.377380 10.000000
392.349730 10.000000
395.303440 10.000000
407.309970 57.000000
407.331600 192.000000
408.329380 23.000000
408.345180 45.000000
409.322360 12.000000
414.380950 15.000000
417.143860 10.000000
417.293210 11.000000
423.325560 11.000000
428.371520 10.000000
431.519900 12.000000
434.787170 12.000000
435.307430 23.000000
435.330840 162.000000
436.322780 12.000000
437.341610 12.000000
441.340850 10.000000
443.354640 10.000000
445.350710 13.000000
451.325590 11.000000
453.336850 470.000000
453.355930 97.000000
454.177490 10.000000
454.282200 10.000000
454.331630 65.000000
454.351230 96.000000
455.329860 14.000000
455.357330 17.000000
455.373080 10.000000
456.526760 13.000000
469.331300 16.000000
471.160800 37.000000
471.187650 26.000000
471.341310 231.000000
472.167910 10.000000
472.255740 10.000000
472.326840 36.000000
472.362880 35.000000
473.310460 10.000000
473.349060 10.000000
473.387330 15.000000
487.342500 10.000000
489.343990 44.000000
489.365450 71.000000
490.286320 12.000000
490.354520 33.000000
491.357510 27.000000
509.036410 11.000000
518.476440 20.000000
581.377560 13.000000
582.360600 13.000000
582.400570 11.000000
599.377260 14.000000
599.395690 22.000000
600.373230 10.000000
606.428040 10.000000
633.397520 13.000000
635.099370 10.000000
635.345280 13.000000
635.398320 96.000000
635.423520 231.000000
636.377140 11.000000
636.420900 129.000000
636.469670 19.000000
637.430600 14.000000
637.794740 12.000000
639.831480 12.000000
651.391420 68.000000
651.420230 51.000000
652.407170 11.000000
652.433350 12.000000
653.410340 12.000000
653.452880 13.000000
654.456970 15.000000
661.280700 10.000000
677.257140 12.000000
707.052250 16.000000
764.089780 10.000000
797.465940 315.000000
798.427310 28.000000
798.452330 74.000000
798.488160 111.000000
799.468080 21.000000
799.494320 10.000000
800.476560 11.000000
813.454710 73.000000
815.484860 10.000000
817.494020 12.000000
923.485780 10.000000
929.205510 12.000000
942.515380 10.000000
959.518370 1000.000000
959.601870 12.000000

>ms2peaks
309.118680 18.000000
325.113620 6.000000
398.714750 6.000000
435.131840 9.000000
435.154110 6.000000
453.338170 5.000000
454.314390 6.000000
471.171110 87.000000
471.374180 5.000000
472.168610 17.000000
472.186400 11.000000
473.164860 5.000000
473.183810 9.000000
481.395170 6.000000
488.570620 6.000000
489.343050 13.000000
489.358400 13.000000
582.380860 6.000000
599.405520 12.000000
635.395750 34.000000
635.422850 100.000000
636.432010 19.000000
636.455380 6.000000
651.421200 40.000000
652.404540 13.000000
652.487240 5.000000
653.411130 7.000000
756.185300 7.000000
797.463320 149.000000
797.486880 61.000000
798.428830 15.000000
798.461850 35.000000
798.493160 50.000000
799.473630 16.000000
799.493960 9.000000
801.486510 8.000000
813.450740 14.000000
813.478330 21.000000
814.471680 34.000000
923.479920 6.000000
959.278810 5.000000
959.451290 34.000000
959.521790 1000.000000

>ms2peaks
75.041310 8.000000
85.030350 29.000000
86.058090 8.000000
95.047150 10.000000
105.767060 8.000000
110.705790 8.000000
111.039720 8.000000
111.045330 16.000000
111.150310 8.000000
113.066150 9.000000
121.096980 8.000000
125.095310 56.000000
125.104580 17.000000
127.090450 9.000000
129.055620 96.000000
129.064320 19.000000
145.055250 22.000000
147.049300 9.000000
147.064710 62.000000
149.355510 8.000000
159.119520 8.000000
163.062230 61.000000
165.068340 8.000000
165.073430 13.000000
173.135960 8.000000
173.145570 10.000000
187.157930 10.000000
191.179840 8.000000
201.161650 9.000000
201.167100 19.000000
202.161060 10.000000
205.151960 20.000000
205.160740 18.000000
207.189330 18.000000
215.189420 9.000000
217.190780 21.000000
219.174100 10.000000
221.155930 10.000000
225.083820 8.000000
229.049090 8.000000
231.190440 11.000000
233.186430 8.000000
233.195070 8.000000
234.112300 11.000000
234.176540 13.000000
235.171950 8.000000
237.076480 42.000000
243.081330 14.000000
247.159470 10.000000
247.171260 27.000000
247.182950 27.000000
248.159260 9.000000
248.168820 8.000000
248.185820 8.000000
249.193070 10.000000
250.200580 8.000000
255.078600 52.000000
255.090520 34.000000
256.090670 11.000000
256.191590 9.000000
261.184330 43.000000
267.208130 8.000000
267.609740 10.000000
269.081600 14.000000
271.068300 8.000000
273.086060 50.000000
273.097500 51.000000
273.105380 38.000000
289.085660 17.000000
291.115910 8.000000
293.117310 13.000000
295.541260 14.000000
309.093350 9.000000
309.119540 383.000000
310.125550 22.000000
311.113370 10.000000
311.232300 8.000000
325.106870 11.000000
325.121340 8.000000
325.241880 8.000000
326.111300 16.000000
327.105410 8.000000
327.124480 10.000000
327.231720 28.000000
341.256010 14.000000
342.254640 12.000000
343.253420 18.000000
343.267000 8.000000
344.277620 9.000000
361.848020 16.000000
369.129580 8.000000
369.141360 11.000000
389.324860 36.000000
393.282040 9.000000
395.299160 11.000000
399.155550 10.000000
400.383000 18.000000
406.313320 15.000000
407.308960 63.000000
407.330720 171.000000
407.353610 30.000000
407.567930 8.000000
408.240260 8.000000
408.306550 8.000000
408.328160 31.000000
409.283970 11.000000
409.313540 9.000000
409.336210 18.000000
409.351070 13.000000
410.879700 9.000000
417.322850 8.000000
419.352260 10.000000
421.350650 9.000000
423.300170 20.000000
423.313930 17.000000
423.338900 8.000000
424.327510 26.000000
431.336700 11.000000
435.315730 94.000000
435.330720 116.000000
435.354890 10.000000
436.310150 9.000000
436.327940 45.000000
436.357670 12.000000
437.302370 9.000000
437.319890 10.000000
437.349730 8.000000
438.326810 10.000000
441.344700 9.000000
443.339690 10.000000
444.382930 8.000000
451.285770 17.000000
452.338590 9.000000
453.282960 9.000000
453.336360 1000.000000
454.268190 8.000000
454.290070 8.000000
454.323430 115.000000
454.346250 209.000000
454.365420 72.000000
455.335300 68.000000
456.346620 16.000000
459.480990 28.000000
463.476680 8.000000
465.069270 8.000000
471.165710 8.000000
471.349610 386.000000
472.299040 9.000000
472.347990 93.000000
472.368320 66.000000
473.345340 28.000000
473.356290 11.000000
478.757050 11.000000
479.413240 10.000000
487.603360 8.000000
489.340520 49.000000
489.366000 25.000000
489.388950 8.000000
490.359920 34.000000
491.347410 9.000000
493.367830 8.000000
500.376070 9.000000
560.625790 11.000000
567.371090 10.000000
581.405940 20.000000
582.402340 11.000000
616.365050 8.000000
617.411010 15.000000
635.367070 8.000000
635.416750 23.000000
635.446110 15.000000
636.395320 17.000000
637.412900 8.000000
637.433470 8.000000
651.414790 17.000000
651.704530 8.000000
651.918760 9.000000
814.491940 10.000000
899.371220 9.000000

>ms2peaks
57.031920 62.000000
71.045730 48.000000
79.050670 32.000000
85.015980 50.000000
85.024600 219.000000
85.029950 313.000000
87.036370 30.000000
87.047950 30.000000
91.059830 32.000000
93.194480 60.000000
95.083400 91.000000
97.026600 149.000000
99.389300 30.000000
103.032810 39.000000
105.066820 64.000000
107.084370 32.000000
109.027270 39.000000
109.102860 101.000000
111.044110 135.000000
111.081280 78.000000
119.077180 41.000000
119.081580 121.000000
121.100940 36.000000
123.096440 34.000000
125.093230 34.000000
127.037030 233.000000
128.386310 36.000000
129.038010 32.000000
129.049380 160.000000
129.055800 498.000000
133.106080 50.000000
135.083020 48.000000
144.495670 36.000000
145.051560 128.000000
145.098300 105.000000
145.106200 30.000000
146.106110 30.000000
147.063320 530.000000
147.075060 37.000000
147.119740 34.000000
148.065990 87.000000
148.073500 41.000000
149.070190 37.000000
149.133940 132.000000
152.150470 78.000000
157.054110 39.000000
159.114470 164.000000
159.124280 98.000000
161.114270 32.000000
161.136830 30.000000
163.041290 30.000000
163.060930 117.000000
163.154160 94.000000
165.088460 36.000000
165.157460 37.000000
171.062550 50.000000
173.122040 30.000000
173.127610 64.000000
174.054280 34.000000
175.144910 189.000000
176.154590 68.000000
177.150190 32.000000
177.162950 44.000000
178.127330 39.000000
178.173710 55.000000
179.133740 30.000000
183.124420 30.000000
185.132610 32.000000
187.060650 44.000000
187.125230 30.000000
187.145680 573.000000
188.148130 30.000000
188.155990 32.000000
188.409290 30.000000
189.159970 30.000000
189.169370 126.000000
190.169130 30.000000
191.118500 30.000000
191.143100 43.000000
191.168300 64.000000
191.177730 100.000000
191.197460 43.000000
192.174260 32.000000
193.161220 109.000000
199.147610 109.000000
200.155940 41.000000
201.162430 496.000000
201.172500 176.000000
201.191620 30.000000
202.161850 77.000000
203.175990 100.000000
205.146880 44.000000
205.159030 32.000000
205.192660 32.000000
207.062680 32.000000
213.165280 219.000000
214.171070 34.000000
215.169600 94.000000
215.182770 101.000000
216.170380 30.000000
216.185270 44.000000
217.160310 73.000000
217.194150 91.000000
217.205730 85.000000
219.140230 32.000000
219.176270 395.000000
220.175200 30.000000
221.161500 36.000000
225.069490 34.000000
225.164760 100.000000
226.077380 30.000000
227.374820 32.000000
229.192660 30.000000
233.184280 43.000000
233.195070 44.000000
235.167950 114.000000
236.178310 30.000000
237.075490 66.000000
238.179490 30.000000
241.190630 68.000000
241.201750 89.000000
243.221020 34.000000
247.162800 101.000000
247.178380 149.000000
248.156940 41.000000
249.160640 46.000000
252.181610 46.000000
253.194150 32.000000
255.217790 34.000000
256.091430 30.000000
256.205840 34.000000
257.219020 43.000000
259.157470 43.000000
259.199310 39.000000
259.231410 30.000000
261.142030 52.000000
261.169250 34.000000
261.186460 77.000000
262.193700 85.000000
265.195130 48.000000
267.209960 98.000000
269.223110 50.000000
273.086550 36.000000
273.100040 68.000000
281.232700 48.000000
282.236360 41.000000
283.242710 82.000000
285.210210 32.000000
286.234890 37.000000
286.816890 50.000000
287.229580 30.000000
290.216340 34.000000
291.212980 32.000000
292.217160 48.000000
293.222080 43.000000
298.248050 32.000000
301.218660 68.000000
303.233550 41.000000
305.361600 85.000000
309.108610 34.000000
311.241270 125.000000
311.444460 46.000000
314.704860 52.000000
317.252930 30.000000
327.230930 36.000000
335.274440 37.000000
340.614650 41.000000
341.239750 48.000000
343.250000 37.000000
350.286960 37.000000
351.266050 89.000000
355.275020 36.000000
364.311950 46.000000
364.791990 30.000000
366.283570 32.000000
369.736820 41.000000
378.349120 36.000000
379.272190 36.000000
379.348970 64.000000
389.300930 30.000000
389.319760 96.000000
389.349060 36.000000
405.290410 46.000000
407.327210 1000.000000
407.349330 105.000000
408.303560 43.000000
408.332670 294.000000
409.771000 32.000000
423.327030 39.000000
424.333800 71.000000
424.349330 48.000000
435.257080 41.000000
435.299800 62.000000
435.330230 215.000000
435.394100 48.000000
436.276030 36.000000
436.316710 30.000000
437.305760 32.000000
443.341800 30.000000
453.284210 103.000000
453.329100 270.000000
453.349400 133.000000
454.323880 37.000000
454.346740 190.000000
455.338070 32.000000
615.386600 46.000000
716.256900 36.000000

>ms2peaks
59.047100 33.000000
95.073940 22.000000
95.085090 22.000000
111.034510 13.000000
111.045550 16.000000
112.033870 18.000000
112.085520 13.000000
119.089430 16.000000
121.107270 14.000000
123.119580 25.000000
125.093870 16.000000
125.100500 25.000000
126.100830 31.000000
127.037610 14.000000
129.051130 82.000000
147.065480 94.000000
147.108120 13.000000
151.036760 15.000000
163.053180 13.000000
163.062770 40.000000
172.071110 20.000000
187.145680 13.000000
189.084950 19.000000
189.158510 15.000000
191.184600 28.000000
199.154270 14.000000
201.076420 13.000000
201.127580 19.000000
201.160800 34.000000
202.174930 15.000000
205.150630 13.000000
206.168990 13.000000
207.062970 16.000000
213.161360 13.000000
213.168780 18.000000
215.170620 17.000000
216.185030 15.000000
217.069000 16.000000
217.158660 13.000000
219.170720 35.000000
219.181640 13.000000
226.170170 13.000000
228.813030 21.000000
229.159900 20.000000
233.187680 15.000000
235.168060 35.000000
241.201000 15.000000
243.084820 28.000000
243.170210 13.000000
247.163300 14.000000
255.076970 31.000000
255.087200 39.000000
255.101100 15.000000
261.170930 15.000000
262.182650 13.000000
262.193300 13.000000
273.095000 85.000000
274.097780 17.000000
275.197050 13.000000
281.234920 18.000000
285.188510 13.000000
291.105130 19.000000
297.379730 13.000000
309.122560 353.000000
310.113160 33.000000
312.116820 13.000000
323.271240 15.000000
325.111450 35.000000
327.223480 13.000000
341.241520 13.000000
341.266720 13.000000
343.251130 30.000000
369.142430 19.000000
379.337430 13.000000
380.327330 17.000000
389.309170 15.000000
389.327300 14.000000
391.328520 21.000000
395.294710 19.000000
398.132780 17.000000
400.128910 14.000000
407.276310 19.000000
407.300720 28.000000
407.327150 219.000000
408.316350 14.000000
408.332920 25.000000
408.360570 13.000000
409.346340 13.000000
409.573910 20.000000
409.739960 16.000000
413.563690 13.000000
418.312230 15.000000
423.328740 28.000000
425.330540 22.000000
425.347530 15.000000
435.153110 13.000000
435.317870 153.000000
436.307160 16.000000
436.340360 13.000000
437.344120 68.000000
440.335850 18.000000
445.565830 19.000000
453.336730 1000.000000
453.784450 13.000000
454.157440 15.000000
454.301730 62.000000
454.339020 390.000000
455.329500 19.000000
471.133850 16.000000
471.168030 92.000000
471.187710 36.000000
471.215000 18.000000
471.317260 13.000000
471.340640 182.000000
471.361690 194.000000
472.167880 15.000000
472.182680 16.000000
472.250610 20.000000
472.362370 109.000000
473.051030 13.000000
473.198180 14.000000
473.353820 13.000000
476.939180 17.000000
489.335480 38.000000
489.359310 190.000000
490.335420 13.000000
490.368500 13.000000
548.372500 17.000000
580.588130 19.000000
581.378360 16.000000
582.389650 13.000000
585.425840 14.000000
599.383540 15.000000
600.398440 13.000000
617.429260 22.000000
619.450070 13.000000
634.400510 15.000000
635.412660 394.000000
636.386350 16.000000
636.416080 133.000000
637.426640 57.000000
638.969850 18.000000
650.372800 16.000000
651.366270 15.000000
651.396550 189.000000
651.421390 89.000000
652.391240 51.000000
652.415530 48.000000
653.421510 25.000000
654.991640 13.000000
671.898620 13.000000
717.059020 26.000000
794.776920 14.000000
797.341920 13.000000
797.396550 34.000000
797.479980 332.000000
798.387700 22.000000
798.425540 48.000000
798.464720 73.000000
798.493710 112.000000
799.486080 50.000000
813.431270 30.000000
813.460020 54.000000
814.442380 15.000000
814.467710 16.000000
815.467470 28.000000
941.685790 15.000000
959.443540 31.000000
959.521730 780.000000
959.567260 125.000000
959.654910 15.000000

>ms2peaks
118.535930 7.000000
118.610550 6.000000
273.100800 14.000000
309.105190 13.000000
309.121060 30.000000
316.683560 8.000000
321.319430 5.000000
453.175810 7.000000
453.309540 5.000000
453.330720 13.000000
471.168430 43.000000
471.188750 21.000000
472.147460 5.000000
472.376430 7.000000
473.175110 15.000000
489.228670 5.000000
489.347660 12.000000
489.373810 9.000000
490.352110 7.000000
573.356810 5.000000
600.371280 6.000000
621.688350 5.000000
635.409060 76.000000
635.424680 31.000000
636.384890 7.000000
636.420960 23.000000
636.443300 18.000000
637.405640 19.000000
642.069640 5.000000
651.388060 20.000000
651.424680 53.000000
652.393130 20.000000
653.428650 10.000000
696.470890 6.000000
711.688420 5.000000
786.145630 5.000000
797.353580 6.000000
797.434510 34.000000
797.454900 117.000000
797.497500 61.000000
798.461000 58.000000
798.517940 5.000000
799.472900 19.000000
799.512020 20.000000
813.425540 5.000000
813.483460 6.000000
814.484250 20.000000
943.460080 5.000000
958.706480 5.000000
959.523010 1000.000000

>ms2peaks
83.048720 6.000000
85.032010 7.000000
93.074280 11.000000
101.059370 9.000000
111.077710 8.000000
125.095860 57.000000
125.117830 17.000000
127.040820 7.000000
129.052670 102.000000
129.062160 20.000000
130.060730 19.000000
131.055020 7.000000
145.035960 7.000000
147.026750 12.000000
147.060610 76.000000
147.071370 29.000000
148.071210 8.000000
149.667890 8.000000
156.732280 8.000000
162.074100 8.000000
163.051800 25.000000
163.062120 34.000000
165.074910 38.000000
166.071870 9.000000
166.083250 8.000000
167.092700 7.000000
173.126250 6.000000
173.133530 7.000000
175.150740 7.000000
187.145360 30.000000
188.155460 6.000000
201.169940 15.000000
205.162670 9.000000
205.192810 9.000000
206.160900 29.000000
207.142140 7.000000
209.159380 11.000000
214.163830 8.000000
215.183200 8.000000
219.174580 17.000000
228.099610 7.000000
233.186250 18.000000
233.195400 7.000000
235.172300 26.000000
236.163860 7.000000
236.176680 6.000000
237.070590 8.000000
237.080870 7.000000
238.085680 15.000000
243.174450 8.000000
247.171970 53.000000
247.186160 8.000000
249.184680 10.000000
249.195330 10.000000
255.078280 34.000000
255.094540 31.000000
256.092100 7.000000
257.077210 7.000000
257.203830 12.000000
258.116730 9.000000
259.170560 15.000000
260.070800 7.000000
261.180910 16.000000
261.190460 8.000000
263.164610 9.000000
266.460210 7.000000
273.072850 7.000000
273.091400 44.000000
273.104310 69.000000
274.085080 9.000000
274.099240 16.000000
274.353520 7.000000
275.105650 9.000000
281.225520 10.000000
286.343750 6.000000
287.202940 6.000000
289.078950 8.000000
289.093990 16.000000
291.100490 7.000000
293.111480 10.000000
296.938960 10.000000
297.736450 7.000000
309.090360 17.000000
309.119870 291.000000
310.107540 13.000000
310.123290 56.000000
311.129850 28.000000
311.730160 7.000000
325.128570 15.000000
326.124940 6.000000
327.219510 8.000000
329.240110 9.000000
341.229610 7.000000
341.256900 43.000000
341.275150 7.000000
342.242550 7.000000
343.250120 8.000000
345.262330 10.000000
377.317500 7.000000
389.322600 6.000000
390.303280 8.000000
395.291660 19.000000
395.324160 8.000000
396.273070 9.000000
405.302220 7.000000
407.269930 7.000000
407.329160 217.000000
407.364840 14.000000
408.199580 7.000000
408.327060 55.000000
408.348450 32.000000
409.332490 21.000000
410.364650 7.000000
423.298610 9.000000
423.327940 6.000000
424.335880 8.000000
425.305080 13.000000
425.327060 7.000000
426.331120 7.000000
435.144230 8.000000
435.291690 7.000000
435.318760 111.000000
435.333190 70.000000
435.357510 24.000000
436.300960 7.000000
436.328340 46.000000
436.352690 11.000000
437.305940 9.000000
438.346590 7.000000
438.738710 7.000000
439.752780 6.000000
441.337430 7.000000
443.346130 8.000000
443.360320 7.000000
444.356350 9.000000
451.958770 6.000000
453.297970 16.000000
453.337430 1000.000000
453.417020 8.000000
453.778960 7.000000
454.294530 15.000000
454.344360 276.000000
454.498230 7.000000
455.098180 10.000000
455.342560 93.000000
455.364590 13.000000
463.084810 7.000000
466.167720 8.000000
467.180240 10.000000
471.173460 8.000000
471.345490 332.000000
472.316680 20.000000
472.350370 76.000000
473.170100 6.000000
473.351440 22.000000
473.361570 9.000000
474.340550 8.000000
476.197270 7.000000
489.343840 41.000000
489.367400 104.000000
489.397860 6.000000
490.344060 13.000000
490.372650 15.000000
491.364350 21.000000
546.202640 7.000000
563.361510 7.000000
581.375730 6.000000
615.367000 7.000000
616.405640 7.000000
617.396610 9.000000
618.414250 6.000000
634.341250 6.000000
635.389340 11.000000
635.414120 23.000000
636.414790 6.000000
637.422000 18.000000
651.373720 7.000000
651.392940 14.000000
651.417180 13.000000
652.418760 9.000000
653.393070 7.000000
755.524230 10.000000
813.461550 7.000000
815.466130 7.000000

>ms2peaks
71.050960 60.000000
73.029100 43.000000
75.045020 53.000000
83.047390 103.000000
85.027820 702.000000
86.030060 53.000000
95.083410 63.000000
97.024730 55.000000
103.038500 83.000000
107.085450 45.000000
109.105450 138.000000
110.102700 53.000000
111.041000 63.000000
111.080620 45.000000
116.260190 43.000000
119.084100 143.000000
119.089680 60.000000
120.084110 43.000000
125.095790 140.000000
126.102300 43.000000
127.032100 50.000000
127.041540 53.000000
128.042010 95.000000
129.053960 1000.000000
130.056460 113.000000
134.096100 63.000000
135.104160 50.000000
135.116560 83.000000
145.048290 333.000000
145.096270 48.000000
145.104160 100.000000
145.401960 43.000000
147.065200 419.000000
147.115370 45.000000
148.076780 48.000000
149.127980 88.000000
151.076030 50.000000
151.110030 50.000000
152.110210 50.000000
159.097140 53.000000
159.119950 383.000000
159.556300 43.000000
161.121310 43.000000
161.130510 73.000000
163.059340 110.000000
163.072510 65.000000
163.145780 80.000000
164.499830 43.000000
165.069730 48.000000
165.127550 48.000000
173.116030 43.000000
173.131270 45.000000
173.139450 53.000000
175.141400 213.000000
175.155010 105.000000
176.152850 50.000000
178.171710 45.000000
179.214190 100.000000
180.145630 78.000000
185.103850 50.000000
186.136280 45.000000
187.056550 50.000000
187.138500 198.000000
187.147870 526.000000
188.150670 100.000000
189.161760 424.000000
190.171630 50.000000
190.935300 68.000000
191.170850 105.000000
191.179280 133.000000
193.160690 43.000000
197.129730 50.000000
199.147830 173.000000
200.156510 75.000000
201.161710 125.000000
201.170760 95.000000
202.164890 50.000000
203.158370 50.000000
203.170940 130.000000
203.183530 195.000000
204.068470 45.000000
205.157730 105.000000
205.200930 70.000000
207.168690 45.000000
209.081040 75.000000
213.070760 50.000000
213.145110 43.000000
213.159210 311.000000
213.171860 138.000000
214.172610 50.000000
215.159790 45.000000
215.183810 153.000000
216.188550 43.000000
217.156740 50.000000
218.199160 58.000000
219.173310 564.000000
221.155910 63.000000
221.184170 60.000000
223.157940 43.000000
223.169830 48.000000
228.180740 48.000000
229.165510 45.000000
229.198910 50.000000
230.168590 68.000000
231.170880 105.000000
231.184200 80.000000
231.208330 45.000000
232.174000 85.000000
232.214460 53.000000
233.190690 60.000000
233.203430 50.000000
235.168210 233.000000
236.141620 105.000000
236.168700 65.000000
237.082860 105.000000
239.172850 45.000000
241.182690 50.000000
241.201680 43.000000
245.178090 70.000000
247.169820 248.000000
248.176270 60.000000
249.175110 50.000000
255.080470 115.000000
255.093780 95.000000
259.168730 50.000000
261.175900 80.000000
261.184840 55.000000
262.189330 93.000000
264.186980 43.000000
267.199770 95.000000
268.218380 63.000000
269.172880 43.000000
269.234280 45.000000
273.095830 45.000000
282.222560 43.000000
283.210170 55.000000
289.199250 48.000000
300.233520 55.000000
311.239810 103.000000
319.250270 45.000000
326.292240 45.000000
327.244630 98.000000
328.236420 73.000000
340.278140 45.000000
341.234680 75.000000
343.252350 55.000000
353.245790 43.000000
367.262270 58.000000
377.332340 60.000000
379.336270 48.000000
389.325530 163.000000
390.314240 118.000000
392.334560 68.000000
396.292570 48.000000
399.304500 48.000000
405.313110 50.000000
407.288820 50.000000
407.302310 45.000000
407.330750 629.000000
407.344970 353.000000
407.368380 45.000000
408.324400 303.000000
408.347260 113.000000
409.346010 85.000000
411.325260 50.000000
414.981630 43.000000
418.343840 43.000000
435.312870 65.000000
435.333620 697.000000
436.315830 100.000000
436.337520 241.000000
437.330230 53.000000
437.349430 50.000000
451.297610 45.000000
453.327550 802.000000
453.357970 90.000000
454.357270 93.000000
457.367520 48.000000
472.342100 45.000000
490.347720 43.000000

>ms2peaks
85.027110 27.000000
85.035270 20.000000
111.026000 19.000000
111.042010 20.000000
125.088840 18.000000
125.095670 21.000000
129.042830 17.000000
129.056050 28.000000
145.045380 21.000000
147.043620 18.000000
147.061370 59.000000
147.071500 45.000000
147.118190 22.000000
151.108510 26.000000
173.047030 22.000000
175.065090 20.000000
175.115250 25.000000
175.149000 20.000000
187.144230 67.000000
189.163990 24.000000
192.151840 20.000000
199.144710 42.000000
201.153180 22.000000
206.630720 23.000000
209.150280 19.000000
211.301510 19.000000
215.188810 37.000000
217.148410 18.000000
219.171890 18.000000
233.189730 38.000000
235.159030 20.000000
235.171420 39.000000
238.065660 24.000000
243.097890 17.000000
244.178150 22.000000
248.170700 21.000000
253.178250 25.000000
254.200500 22.000000
255.091780 51.000000
261.187440 27.000000
267.211060 21.000000
273.092960 106.000000
273.137120 20.000000
274.094210 36.000000
294.173890 21.000000
302.351470 17.000000
308.336520 21.000000
309.114650 536.000000
309.135680 33.000000
310.109710 35.000000
310.127780 59.000000
321.012540 17.000000
325.106140 26.000000
326.119110 18.000000
329.251740 17.000000
351.113190 17.000000
354.265990 20.000000
389.303410 17.000000
407.301760 98.000000
407.325740 135.000000
407.352200 19.000000
408.328830 53.000000
417.131500 20.000000
424.328610 20.000000
425.339840 20.000000
426.328490 24.000000
435.126800 18.000000
435.141910 20.000000
435.290100 21.000000
435.330380 117.000000
435.699710 19.000000
436.302610 19.000000
436.340880 21.000000
442.354370 19.000000
443.351410 22.000000
453.335910 660.000000
454.335420 286.000000
454.372310 18.000000
455.344700 20.000000
469.737980 22.000000
471.154880 25.000000
471.181400 152.000000
471.339050 157.000000
471.355680 195.000000
472.353300 89.000000
473.174320 20.000000
473.377690 18.000000
487.360110 17.000000
489.326110 67.000000
489.362000 224.000000
490.357850 69.000000
490.370060 35.000000
491.375060 23.000000
596.799320 19.000000
600.395630 18.000000
607.378780 20.000000
621.331730 20.000000
621.611510 25.000000
633.370730 17.000000
633.401730 17.000000
635.403500 139.000000
635.422670 165.000000
635.447690 45.000000
636.385620 18.000000
637.428890 18.000000
637.450930 17.000000
638.422670 17.000000
651.330440 22.000000
651.394780 130.000000
651.431640 65.000000
652.364810 17.000000
652.403320 43.000000
652.437990 41.000000
653.432680 90.000000
654.395510 35.000000
761.455750 17.000000
790.985780 20.000000
796.480410 20.000000
797.440060 95.000000
797.474790 331.000000
797.514340 19.000000
798.465330 114.000000
798.514280 40.000000
799.437740 39.000000
799.462770 37.000000
799.500730 34.000000
813.386230 20.000000
813.458740 55.000000
813.491090 17.000000
814.455810 103.000000
814.512940 17.000000
815.494380 19.000000
867.565920 33.000000
943.555790 23.000000
959.519900 1379.000000

