>compound PR83200474
>parentmass 163.026
>ionization [M+H]+
>formula C6H10OS2
>rt 254.400000
>profile qtof
#smiles_iso C=CCSS(=O)CC=C
#smiles_can C=CCSS(=O)CC=C
#inchikey JDLKFOPOAOFWQN-UHFFFAOYSA-N
#pubchem_id 65036
#mb_accession PR311159

>ms2
57.034570 16.000000
73.013180 53.000000
91.021320 162.000000
91.027350 55.000000
92.028380 16.000000
93.014400 17.000000
131.050230 86.000000
162.986500 41.000000
163.025360 380.000000
163.062730 47.000000
163.128080 16.000000

