>compound PR83998736
>parentmass 144.082
>ionization [M+H-H2O]+
>formula C10H11NO
>rt 183.600000
>profile qtof
#smiles_iso C1=CC=C2C(=C1)C(=CN2)CCO
#smiles_can C1=CC=C2C(=C1)C(=CN2)CCO
#inchikey MBBOMCVGYCRMEA-UHFFFAOYSA-N
#pubchem_id 10685
#mb_accession PR310882

>ms2peaks
91.054740 20.000000
115.056630 45.000000
116.057020 58.000000
117.056220 97.000000
117.071820 113.000000
118.075970 18.000000
127.053480 17.000000
128.064150 18.000000
142.064190 16.000000
143.061110 30.000000
143.076770 183.000000
144.081390 2391.000000

