>compound PR83228971
>parentmass 369.1198
>ionization [M+H]+
>formula C17H20O9
>rt 196.800000
>profile qtof
#smiles_iso COC1=CC(=CC(=C1O)OC)C=CC(=O)OC(CC(=O)OC)C(=O)OC
#smiles_can COC1=CC(=CC(=C1O)OC)C=CC(=O)OC(CC(=O)OC)C(=O)OC
#inchikey NKISQZKBGVJCKA-UHFFFAOYSA-N
#pubchem_id 145994462
#mb_accession PR310736

>ms2
50.560540 21.000000
121.030830 21.000000
147.040250 17.000000
175.039810 18.000000
207.034480 25.000000
207.062480 46.000000
208.071870 27.000000
264.024290 22.000000
369.124660 78.000000

