>compound PR83401868
>parentmass 265.1559
>ionization [M+H]+
>formula C14H20N2O3
>rt 178.800000
>profile qtof
#smiles_iso CC(C)C(C(=O)O)NC(=O)C(CC1=CC=CC=C1)N
#smiles_can CC(C)C(C(=O)O)NC(=O)C(CC1=CC=CC=C1)N
#inchikey IEHDJWSAXBGJIP-UHFFFAOYSA-N
#pubchem_id 4096934
#mb_accession PR311058

>ms2
84.083540 22.000000
103.057810 20.000000
120.063990 17.000000
120.080630 316.000000
121.081880 16.000000
141.079900 25.000000
206.346280 18.000000
219.145580 16.000000
227.074230 33.000000
230.087600 18.000000
265.148070 59.000000
265.163090 146.000000

