>compound PR83165961
>parentmass 179.03388585384613
>ionization [M+H]+
>formula C9H6O4
>rt 215.284094
>profile qtof
#smiles_iso C1=CC(=C(C2=C1C=CC(=O)O2)O)O
#smiles_can C1=CC(=C(C2=C1C=CC(=O)O2)O)O
#inchikey ATEFPOUAMCWAQS-UHFFFAOYSA-N
#pubchem_id 5280569
#mb_accession PR303049,PR303054,PR303059,PR303064,PR303069,PR303074,PR303079,PR303084,PR303089,PR303094,PR303099,PR310495,PR311071

>ms2peaks
77.019870 11.000000
77.038660 29.000000
89.038180 9.000000
94.781660 5.000000
105.024730 6.000000
105.034130 26.000000
117.030740 11.000000
117.036030 5.000000
118.035370 6.000000
122.488910 7.000000
123.043510 66.000000
133.016330 11.000000
133.028460 232.000000
134.030200 14.000000
135.043170 31.000000
136.046080 5.000000
149.956340 5.000000
151.050230 6.000000
161.003800 6.000000
161.019320 32.000000
178.020750 6.000000
179.033310 1000.000000

>ms2peaks
133.027020 25.000000
135.043050 11.000000
178.032580 7.000000
178.990970 8.000000
179.034320 1000.000000

>ms2peaks
77.019390 73.000000
77.028330 70.000000
77.034160 302.000000
77.038270 1000.000000
77.045200 173.000000
78.042190 173.000000
87.119510 110.000000
89.037480 219.000000
89.043700 249.000000
89.099250 56.000000
105.033670 787.000000
106.031720 60.000000
106.036800 189.000000
109.359890 56.000000
111.067210 60.000000
117.030060 93.000000
123.038030 159.000000
123.046660 482.000000
124.045900 86.000000
133.025020 628.000000
133.033370 176.000000
134.040940 120.000000
179.030210 90.000000

>ms2peaks
75.027350 1000.000000

>ms2peaks
77.038300 22.000000
77.046290 6.000000
89.022210 6.000000
89.038880 7.000000
105.026210 5.000000
105.034850 12.000000
107.049450 9.000000
117.025900 14.000000
117.033970 18.000000
123.044880 53.000000
124.042080 8.000000
133.030820 125.000000
134.031310 10.000000
134.040120 5.000000
135.039020 26.000000
135.048460 16.000000
136.042940 7.000000
151.035570 7.000000
161.018830 8.000000
179.032970 1000.000000

>ms2peaks
123.046780 6.000000
133.030110 15.000000
135.040100 10.000000
135.047060 6.000000
179.033940 1000.000000

>ms2peaks
65.035100 250.000000
77.026340 52.000000
77.038090 1000.000000
89.032520 121.000000
89.036260 77.000000
89.042810 62.000000
94.032510 50.000000
94.038480 50.000000
96.783290 45.000000
105.032140 634.000000
105.038320 304.000000
107.050090 42.000000
117.014800 47.000000
123.043950 859.000000
123.931540 47.000000
133.027590 916.000000
134.030870 131.000000
135.031200 45.000000
136.795260 45.000000
151.023960 54.000000
179.030210 54.000000
179.038440 99.000000

>ms2peaks
77.033950 400.000000
177.014770 455.000000
179.035390 1000.000000

>ms2peaks
67.051510 6.000000
77.039010 26.000000
77.042230 8.000000
79.050930 5.000000
79.057630 9.000000
86.265430 6.000000
89.041230 5.000000
95.052540 9.000000
105.033970 44.000000
105.057820 9.000000
107.043500 7.000000
117.028340 7.000000
117.035480 22.000000
117.040880 9.000000
123.045510 92.000000
124.046550 13.000000
131.005950 5.000000
133.028090 275.000000
134.026570 7.000000
134.036210 28.000000
134.040600 10.000000
135.039840 7.000000
135.047700 27.000000
150.035690 8.000000
161.019120 24.000000
161.766570 7.000000
178.990190 6.000000
179.001510 18.000000
179.014530 16.000000
179.034500 1000.000000

>ms2peaks
133.026640 34.000000
135.046020 8.000000
161.024810 5.000000
179.002660 7.000000
179.034040 1000.000000

>ms2peaks
67.051580 34.000000
74.012690 46.000000
77.031810 34.000000
77.040390 616.000000
78.044530 46.000000
86.358600 34.000000
89.039470 75.000000
95.049320 189.000000
95.055170 67.000000
105.010650 29.000000
105.023550 223.000000
105.033820 499.000000
106.045020 36.000000
117.040390 34.000000
123.040390 86.000000
123.046520 149.000000
123.759340 31.000000
124.051960 86.000000
124.698960 31.000000
125.046820 34.000000
126.507510 46.000000
133.027910 1000.000000
134.031660 77.000000
135.040890 29.000000
135.047810 41.000000
135.273530 33.000000
142.561110 38.000000
161.022170 41.000000

>ms2peaks
77.019870 61.000000
77.038660 167.000000
78.016640 23.000000
79.057110 25.000000
89.038180 53.000000
94.781660 30.000000
105.024730 36.000000
105.034130 147.000000
117.030740 65.000000
117.036030 30.000000
118.035370 35.000000
120.976430 23.000000
122.488910 41.000000
123.030020 18.000000
123.043510 376.000000
124.039510 28.000000
124.047190 20.000000
133.016330 61.000000
133.028460 1316.000000
134.030200 79.000000
135.043170 176.000000
136.046080 30.000000
149.956340 30.000000
151.041890 25.000000
151.050230 33.000000
161.003800 33.000000
161.019320 180.000000
161.030990 21.000000
178.020750 33.000000
178.985840 21.000000
178.994930 25.000000
179.033310 5677.000000

>ms2peaks
70.000970 24.000000
77.031520 27.000000
77.040600 62.000000
105.034610 113.000000
117.031300 85.000000
123.043210 795.000000
123.526050 19.000000
133.029210 454.000000
135.043700 54.000000
136.723660 17.000000
137.499420 27.000000
150.039280 23.000000
150.970630 30.000000
151.031280 118.000000
151.041140 217.000000
178.031300 23.000000
178.042530 26.000000
179.003400 85.000000
179.033970 3219.000000

