>compound PR83029022
>parentmass 743.2023714999999
>ionization [M]+
>formula C32H39O20+
>rt 149.137980
>profile qtof
#smiles_iso C1[C@H]([C@@H]([C@H]([C@@H](O1)O[C@@H]2[C@H]([C@@H]([C@H](O[C@H]2OC3=C([O+]=C4C=C(C=C(C4=C3)O[C@H]5[C@@H]([C@H]([C@@H]([C@H](O5)CO)O)O)O)O)C6=CC(=C(C=C6)O)O)CO)O)O)O)O)O
#smiles_can C1C(C(C(C(O1)OC2C(C(C(OC2OC3=C([O+]=C4C=C(C=C(C4=C3)OC5C(C(C(C(O5)CO)O)O)O)O)C6=CC(=C(C=C6)O)O)CO)O)O)O)O)O
#inchikey OLBLWNPOURNBCY-MRBLLYQQSA-O
#pubchem_id 10197243
#mb_accession PR303201,PR303206,PR303211,PR303216,PR303221,PR303226,PR303231,PR303236,PR303241,PR303246,PR303250,PR303255

>ms2peaks
195.585370 6.000000
287.013030 29.000000
287.055210 648.000000
288.041810 25.000000
288.064850 106.000000
288.948030 5.000000
289.017330 6.000000
289.063750 37.000000
289.080290 9.000000
434.224330 5.000000
448.107120 6.000000
449.055570 12.000000
449.085170 29.000000
449.111790 174.000000
450.112950 57.000000
451.104370 5.000000
452.129580 5.000000
581.150330 61.000000
581.165470 38.000000
582.148070 9.000000
582.166810 13.000000
583.138430 9.000000
583.988650 6.000000
742.190730 6.000000
743.050720 8.000000
743.111570 8.000000
743.206120 1000.000000

>ms2peaks
287.052800 11.000000
449.105160 10.000000
581.126340 5.000000
743.076840 9.000000
743.116640 14.000000
743.201720 1000.000000

>ms2peaks
286.051850 7.000000
286.984860 8.000000
287.015500 13.000000
287.055420 1000.000000
288.047360 50.000000
288.060640 162.000000
289.053620 17.000000
289.064480 9.000000
449.062160 10.000000
449.106870 126.000000
449.139160 9.000000
450.107360 24.000000
451.103060 5.000000
451.129090 10.000000
581.125430 7.000000
581.149900 42.000000
583.140750 9.000000
583.165280 6.000000

>ms2peaks
286.199800 5.000000
287.016330 14.000000
287.054990 1000.000000
288.032470 9.000000
288.059200 177.000000
289.058010 29.000000

>ms2peaks
285.130370 6.000000
287.008120 9.000000
287.054500 667.000000
287.117130 7.000000
288.058320 140.000000
289.047210 10.000000
289.062260 8.000000
290.071560 6.000000
449.059050 10.000000
449.108580 208.000000
450.112370 30.000000
450.147860 5.000000
451.088530 6.000000
574.938290 5.000000
581.153930 80.000000
582.139710 17.000000
582.159060 18.000000
583.148930 6.000000
743.036070 6.000000
743.122500 16.000000
743.140010 27.000000
743.206180 1000.000000

>ms2peaks
449.091670 7.000000
449.102170 12.000000
516.007690 5.000000
742.980290 5.000000
743.098140 12.000000
743.129760 24.000000
743.202640 1000.000000

>ms2peaks
286.048430 6.000000
287.055730 1000.000000
288.046300 29.000000
288.061490 113.000000
432.097750 5.000000
449.062620 8.000000
449.110350 154.000000
450.097380 11.000000
450.117430 14.000000
581.114200 6.000000
581.138060 25.000000
581.170100 34.000000
582.143550 8.000000
582.163570 9.000000

>ms2peaks
257.040650 5.000000
286.977050 7.000000
287.003140 14.000000
287.056340 1000.000000
288.009060 10.000000
288.029140 10.000000
288.040740 34.000000
288.059510 152.000000
288.082820 11.000000
289.059230 45.000000

>ms2peaks
287.026580 28.000000
287.056120 1000.000000
288.057100 176.000000
289.063080 12.000000
331.782040 6.000000
449.049070 8.000000
449.080540 23.000000
449.092800 57.000000
449.114690 82.000000
450.081730 11.000000
450.108030 30.000000
574.112850 6.000000
581.148620 60.000000
581.167850 44.000000
582.151980 20.000000
743.093570 13.000000
743.135560 37.000000
743.201720 842.000000

>ms2peaks
287.058230 8.000000
449.116420 33.000000
449.149720 6.000000
450.108000 12.000000
581.137760 9.000000
581.162410 6.000000
743.098390 10.000000
743.147580 29.000000
743.207760 1000.000000

>ms2peaks
286.049560 8.000000
287.003330 7.000000
287.056210 1000.000000
288.016420 8.000000
288.058840 174.000000
289.051700 19.000000
289.062290 26.000000
449.109710 137.000000
450.106840 28.000000
581.138730 43.000000
581.161870 44.000000
582.158510 19.000000
583.131840 6.000000
743.203860 10.000000

>ms2peaks
287.020970 24.000000
287.056120 1000.000000
288.034390 9.000000
288.056550 136.000000
288.072360 50.000000
289.061460 10.000000
292.627690 5.000000

