>compound PR83047569
>parentmass 433.11292140000006
>ionization [M+H]+
>formula C21H20O10
>rt 266.097411
>profile qtof
#smiles_iso C1=CC(=CC=C1C2=CC(=O)C3=C(C=C(C=C3O2)O[C@H]4[C@@H]([C@H]([C@@H]([C@H](O4)CO)O)O)O)O)O
#smiles_can C1=CC(=CC=C1C2=CC(=O)C3=C(C=C(C=C3O2)OC4C(C(C(C(O4)CO)O)O)O)O)O
#inchikey KMOUJOKENFFTPU-QNDFHXLGSA-N
#pubchem_id 5280704
#mb_accession PR302344,PR302350,PR302356,PR302362,PR302367,PR302373,PR302378,PR302383,PR302388,PR302393,PR302399,PR302404,PR310947,PR310948

>ms2peaks
153.014340 8.000000
271.030150 12.000000
271.059570 1000.000000
272.038390 6.000000
272.062930 175.000000
273.064940 34.000000
433.112790 187.000000

>ms2peaks
271.060420 391.000000
272.064270 69.000000
273.063200 12.000000
433.055970 6.000000
433.073090 15.000000
433.111910 1000.000000
433.152530 6.000000

>ms2peaks
153.017780 5.000000
271.008610 7.000000
271.022000 7.000000
271.060090 1000.000000
271.109280 7.000000
272.062710 159.000000
273.066310 19.000000

>ms2peaks
67.019950 6.000000
68.997850 9.000000
91.047470 8.000000
91.056530 25.000000
109.024880 8.000000
111.013080 10.000000
119.048290 165.000000
119.057060 16.000000
120.028050 7.000000
120.046750 11.000000
120.055550 22.000000
121.028890 47.000000
125.024440 11.000000
131.055970 6.000000
141.072750 12.000000
142.059520 5.000000
143.041280 5.000000
145.030410 40.000000
145.062090 8.000000
153.017490 530.000000
154.007130 11.000000
154.018460 33.000000
154.030610 15.000000
155.034120 9.000000
156.050610 7.000000
158.071760 7.000000
163.039110 60.000000
164.041140 6.000000
167.041990 6.000000
169.059680 6.000000
169.070890 7.000000
183.051650 9.000000
184.045330 5.000000
185.047040 6.000000
187.038240 16.000000
187.043380 6.000000
188.040510 14.000000
197.054340 7.000000
202.063860 12.000000
204.071640 7.000000
204.718600 5.000000
211.035690 13.000000
212.212080 6.000000
215.072390 11.000000
225.051410 31.000000
225.061650 21.000000
226.066480 11.000000
229.050780 19.000000
229.063100 14.000000
243.062840 49.000000
251.376790 6.000000
253.037540 12.000000
270.976870 8.000000
270.997130 10.000000
271.023960 14.000000
271.060490 1000.000000
272.054660 76.000000
272.063810 181.000000
273.062900 26.000000

>ms2peaks
153.017380 10.000000
271.017120 6.000000
271.059910 1000.000000
272.062290 156.000000
273.061830 15.000000
433.108760 150.000000

>ms2peaks
271.030980 8.000000
271.059880 400.000000
272.053680 19.000000
272.065640 63.000000
273.065580 9.000000
433.055360 8.000000
433.067990 12.000000
433.111630 1000.000000

>ms2peaks
271.021000 6.000000
271.059840 1000.000000
272.063510 189.000000
272.086300 6.000000
273.066380 26.000000

>ms2peaks
67.018000 15.000000
68.998050 6.000000
91.051960 6.000000
91.058370 13.000000
111.010000 18.000000
119.038760 14.000000
119.049680 129.000000
120.053430 25.000000
121.027960 77.000000
122.029960 9.000000
122.036350 6.000000
141.068830 5.000000
145.019670 16.000000
145.028400 54.000000
152.998980 9.000000
153.018160 437.000000
154.014270 19.000000
154.021220 16.000000
154.029170 10.000000
157.065480 5.000000
163.038010 47.000000
164.045850 6.000000
173.058880 6.000000
187.040890 18.000000
197.062130 17.000000
203.065980 12.000000
211.031010 6.000000
211.039150 7.000000
215.067570 9.000000
215.080060 5.000000
225.056530 17.000000
229.036070 7.000000
229.050950 40.000000
243.065960 47.000000
244.077800 13.000000
270.989440 6.000000
271.015560 17.000000
271.061310 1000.000000
272.064240 136.000000
273.068390 37.000000
274.080750 5.000000

>ms2peaks
153.017360 17.000000
271.022920 10.000000
271.060120 1000.000000
272.045290 11.000000
272.064640 202.000000
273.062070 31.000000
273.079650 7.000000
433.109010 88.000000
433.121920 124.000000

>ms2peaks
271.059540 365.000000
272.064610 69.000000
273.067230 13.000000
433.054110 8.000000
433.071870 9.000000
433.112980 1000.000000

>ms2peaks
271.024170 16.000000
271.060610 1000.000000
272.064450 190.000000
273.065310 26.000000

>ms2peaks
67.016260 13.000000
67.023100 9.000000
68.998250 11.000000
85.028050 5.000000
91.052960 14.000000
92.058130 8.000000
109.026340 10.000000
111.002370 14.000000
111.010250 14.000000
115.060490 6.000000
119.042130 23.000000
119.050720 130.000000
121.028840 53.000000
122.038670 7.000000
135.080520 6.000000
142.072690 5.000000
145.019240 23.000000
145.028370 44.000000
146.027220 10.000000
148.036730 6.000000
153.017730 475.000000
154.016160 24.000000
154.027950 12.000000
155.049610 8.000000
158.068240 9.000000
163.041380 16.000000
169.058730 13.000000
169.067470 7.000000
187.042660 21.000000
197.063050 5.000000
203.078090 9.000000
211.037750 5.000000
218.868350 6.000000
225.049670 30.000000
225.059920 14.000000
229.003780 5.000000
229.051190 55.000000
243.039080 6.000000
243.060650 6.000000
244.070340 8.000000
271.001280 6.000000
271.019290 11.000000
271.060420 1000.000000
272.020780 5.000000
272.049260 22.000000
272.064240 143.000000
273.069730 46.000000

>ms2peaks
124.032140 21.000000
127.028660 17.000000
147.043640 39.000000
148.042480 23.000000
150.021480 20.000000
153.021180 30.000000
199.061780 27.000000
200.042140 26.000000
215.079570 18.000000
216.068920 28.000000
254.064870 18.000000
266.311460 29.000000
268.071900 24.000000
271.036250 97.000000
271.057500 1390.000000
271.998470 18.000000
272.061580 294.000000
273.065460 20.000000
331.128600 18.000000
368.010590 18.000000
432.137600 20.000000
432.149320 23.000000
433.109280 232.000000

>ms2peaks
94.014000 17.000000
111.008090 20.000000
119.039050 21.000000
119.054700 42.000000
121.025190 19.000000
145.020360 18.000000
145.026690 18.000000
146.033170 28.000000
152.952730 20.000000
152.978420 20.000000
153.014340 149.000000
154.027630 20.000000
158.498750 19.000000
163.039230 19.000000
169.058780 17.000000
169.075520 29.000000
173.846590 17.000000
182.305220 19.000000
185.045350 17.000000
185.053510 31.000000
187.038680 27.000000
187.874970 28.000000
207.584820 26.000000
215.270050 19.000000
225.049150 51.000000
225.064250 39.000000
229.045230 22.000000
229.056300 29.000000
242.070160 33.000000
243.074570 20.000000
246.136700 20.000000
253.042710 26.000000
253.737290 41.000000
271.012390 82.000000
271.030150 233.000000
271.059570 19764.000000
271.101590 18.000000
271.112520 67.000000
271.149480 24.000000
271.223600 19.000000
271.564420 18.000000
271.728580 21.000000
271.999390 19.000000
272.038390 117.000000
272.062930 3464.000000
272.548740 21.000000
273.064940 665.000000
275.825960 20.000000
306.782650 28.000000
431.766170 21.000000
432.160890 20.000000
432.286190 17.000000
433.005980 27.000000
433.112790 3691.000000

