>compound PR83348862
>parentmass 616.3116231000001
>ionization [M+H]+
>formula C33H45NO10
>rt 358.246980
>profile qtof
#smiles_iso CC(=O)O[C@@]12[C@@H]3[C@@H](C[C@@]([C@@H]3OC(=O)C4=CC=CC=C4)([C@H]([C@@H]1O)OC)O)[C@]56[C@H](CC[C@@]7([C@H]5[C@H]([C@H]2C6N(C7)C)OC)COC)OC
#smiles_can CC(=O)OC12C3C(CC(C3OC(=O)C4=CC=CC=C4)(C(C1O)OC)O)C56C(CCC7(C5C(C2C6N(C7)C)OC)COC)OC
#inchikey FIDOCHXHMJHKRW-VHQVDBNASA-N
#pubchem_id 441737
#mb_accession PR300549,PR300553,PR300558,PR300562,PR300567,PR300572,PR300576,PR300580,PR300585,PR300590,PR300594,PR300599

>ms2
105.035160 8.000000
338.177520 40.000000
339.185060 9.000000
342.212040 6.000000
464.242160 10.000000
492.226010 7.000000
496.253940 6.000000
496.274690 14.000000
524.264950 61.000000
525.261660 16.000000
525.284610 10.000000
556.293030 114.000000
557.295410 46.000000
558.304690 9.000000
584.287350 14.000000
616.254520 10.000000
616.314210 1000.000000
616.406920 6.000000

>ms2
616.231200 8.000000
616.314150 1000.000000
616.387630 22.000000

>ms2
105.034010 12.000000
338.174960 79.000000
339.178220 15.000000
342.205510 5.000000
460.215210 7.000000
464.238830 12.000000
464.257450 6.000000
465.243990 5.000000
492.239470 26.000000
493.241150 8.000000
496.267300 47.000000
497.265380 9.000000
524.262510 174.000000
524.282170 36.000000
525.264770 59.000000
525.292480 8.000000
526.256230 10.000000
526.275760 7.000000
556.218810 8.000000
556.233830 5.000000
556.290530 463.000000
557.295650 162.000000
558.268860 7.000000
558.284180 16.000000
558.305850 28.000000
584.277040 41.000000
584.296690 32.000000
585.283080 17.000000
585.311950 6.000000
586.301150 6.000000
616.227050 12.000000
616.253420 14.000000
616.310850 1000.000000
616.380740 10.000000

>ms2
71.050140 27.000000
75.047870 5.000000
77.039320 24.000000
79.057980 6.000000
82.065790 14.000000
84.082130 5.000000
85.026130 13.000000
88.068750 11.000000
88.077910 50.000000
88.614860 6.000000
91.057440 17.000000
93.069270 6.000000
94.061300 23.000000
94.067920 38.000000
96.080190 8.000000
100.076340 18.000000
105.034110 1000.000000
105.067770 15.000000
106.036490 63.000000
107.050930 15.000000
107.070140 8.000000
108.080330 37.000000
109.064330 8.000000
109.090700 8.000000
110.097260 30.000000
111.044240 5.000000
111.101010 7.000000
112.081750 6.000000
114.091500 19.000000
114.096440 7.000000
117.058960 6.000000
117.070850 44.000000
118.079070 6.000000
119.050950 7.000000
119.086060 7.000000
120.081440 28.000000
121.065530 12.000000
122.095230 5.000000
123.082740 6.000000
124.070620 6.000000
126.082970 6.000000
126.095110 6.000000
128.062440 16.000000
129.061450 5.000000
129.070950 28.000000
130.067870 7.000000
131.049760 11.000000
131.072710 7.000000
131.087360 69.000000
132.075350 9.000000
132.086170 21.000000
133.029750 9.000000
133.071030 5.000000
133.092250 12.000000
134.096600 24.000000
134.104720 15.000000
135.029740 9.000000
135.043400 12.000000
136.074200 9.000000
137.063310 17.000000
138.087080 19.000000
138.094770 28.000000
139.099260 7.000000
140.095670 5.000000
140.107970 98.000000
140.116130 20.000000
141.059940 7.000000
141.070950 35.000000
141.108020 6.000000
143.087400 42.000000
144.078280 6.000000
146.034290 21.000000
146.066250 23.000000
146.072480 6.000000
146.090100 6.000000
146.098530 12.000000
147.032120 14.000000
147.043840 92.000000
147.075010 13.000000
147.082140 18.000000
147.101200 7.000000
148.047210 21.000000
148.078190 22.000000
148.085400 17.000000
148.095230 13.000000
148.114010 7.000000
149.089610 7.000000
149.099290 20.000000
150.093870 11.000000
151.093830 10.000000
152.110820 20.000000
153.056030 9.000000
153.070560 20.000000
153.077240 12.000000
154.075100 23.000000
155.084730 46.000000
156.087940 9.000000
156.095290 8.000000
157.065520 21.000000
157.093640 16.000000
158.066640 8.000000
158.091750 8.000000
158.101820 18.000000
159.106700 9.000000
160.079540 40.000000
160.109150 24.000000
160.119800 7.000000
161.054030 6.000000
161.077560 13.000000
161.095700 14.000000
162.059690 5.000000
162.096600 6.000000
163.095750 9.000000
164.088490 7.000000
164.103670 6.000000
164.113980 7.000000
165.064090 17.000000
165.071440 32.000000
166.122280 14.000000
167.088390 57.000000
168.085690 7.000000
169.063490 16.000000
169.071320 9.000000
169.095170 6.000000
170.060930 6.000000
170.099610 16.000000
171.080540 23.000000
171.099780 7.000000
172.046910 6.000000
172.111570 32.000000
173.098800 24.000000
174.047320 10.000000
174.053180 26.000000
174.093280 7.000000
174.102070 5.000000
174.115720 6.000000
174.129810 22.000000
175.068540 14.000000
175.103610 7.000000
176.072370 25.000000
176.107800 9.000000
176.528760 6.000000
177.053010 35.000000
178.079770 19.000000
178.120590 6.000000
178.127090 8.000000
179.088010 26.000000
180.089320 12.000000
181.061260 8.000000
181.095640 12.000000
181.103380 13.000000
182.074660 10.000000
182.099300 17.000000
183.078570 16.000000
183.111760 6.000000
184.107960 7.000000
184.117690 18.000000
186.070570 5.000000
186.093800 20.000000
186.104660 12.000000
186.126240 26.000000
186.141140 6.000000
187.067120 8.000000
187.130510 13.000000
188.071320 21.000000
188.106120 17.000000
189.064040 11.000000
189.078870 54.000000
189.088900 19.000000
190.080730 17.000000
190.088100 14.000000
190.099460 7.000000
191.072110 8.000000
191.093610 18.000000
192.083650 6.000000
192.097780 17.000000
192.143910 9.000000
193.063000 12.000000
193.105700 43.000000
195.079620 19.000000
195.105040 18.000000
195.117810 12.000000
196.140060 5.000000
197.050520 6.000000
197.069730 8.000000
197.084470 11.000000
197.096730 16.000000
197.112090 8.000000
197.120220 8.000000
198.124980 9.000000
198.132930 6.000000
199.082340 14.000000
199.108340 13.000000
201.078540 11.000000
202.072050 7.000000
203.072660 8.000000
203.084490 9.000000
203.094680 15.000000
203.134490 5.000000
204.097550 11.000000
204.140640 36.000000
205.058110 5.000000
205.097490 40.000000
205.115950 25.000000
206.112700 8.000000
206.124310 7.000000
206.153340 50.000000
206.165700 9.000000
207.078260 21.000000
207.092290 7.000000
207.113860 37.000000
207.714940 6.000000
208.085360 12.000000
208.102420 5.000000
209.059750 14.000000
209.097810 12.000000
209.124510 6.000000
210.103520 9.000000
210.144240 6.000000
211.072010 12.000000
211.082920 10.000000
211.109010 8.000000
212.114810 7.000000
213.091220 14.000000
213.129870 5.000000
214.087370 9.000000
214.121080 12.000000
215.085530 11.000000
215.094850 20.000000
216.091370 13.000000
216.134450 7.000000
217.074080 7.000000
217.102050 34.000000
217.147080 5.000000
218.136900 6.000000
219.086410 14.000000
219.106090 13.000000
219.120210 21.000000
220.089750 22.000000
220.103420 17.000000
220.114260 14.000000
221.094020 22.000000
221.105700 20.000000
221.128160 34.000000
222.100950 7.000000
222.124730 12.000000
223.057800 6.000000
223.106900 9.000000
223.121460 14.000000
224.088670 10.000000
224.138600 15.000000
225.117420 7.000000
226.093640 10.000000
228.106840 5.000000
229.086030 6.000000
229.103260 31.000000
229.148960 9.000000
230.106700 15.000000
230.152340 8.000000
231.067890 5.000000
231.080370 12.000000
231.101240 7.000000
232.066830 7.000000
232.093460 11.000000
232.180730 12.000000
233.086180 13.000000
233.101320 13.000000
234.067540 12.000000
234.102520 11.000000
234.129350 6.000000
235.067760 14.000000
235.079190 16.000000
235.107440 60.000000
235.122500 12.000000
235.131810 9.000000
235.946010 7.000000
236.113740 20.000000
237.078770 5.000000
237.093060 25.000000
237.107450 5.000000
237.126690 18.000000
237.140380 15.000000
237.169660 5.000000
238.095310 9.000000
238.130740 13.000000
238.146710 10.000000
239.081940 6.000000
239.115860 7.000000
239.140990 8.000000
240.177610 5.000000
241.130050 6.000000
242.112380 9.000000
243.126970 10.000000
243.147520 5.000000
244.095930 10.000000
245.091510 8.000000
245.102330 12.000000
245.113160 10.000000
246.109050 18.000000
246.143660 8.000000
247.071170 6.000000
247.101290 6.000000
247.112470 19.000000
248.084110 17.000000
248.116380 19.000000
248.132130 12.000000
248.143220 8.000000
249.086240 36.000000
249.116460 12.000000
249.131440 15.000000
250.126300 17.000000
250.144120 13.000000
251.084000 5.000000
251.093720 7.000000
251.111820 16.000000
251.139680 7.000000
252.102330 9.000000
252.123920 5.000000
252.142060 8.000000
252.156010 7.000000
253.121580 7.000000
253.147420 6.000000
254.102780 6.000000
254.116440 10.000000
255.112920 6.000000
257.119200 7.000000
257.143280 7.000000
257.158450 11.000000
258.114290 7.000000
258.135070 6.000000
260.138120 6.000000
260.149350 5.000000
260.167390 7.000000
261.108610 5.000000
261.127110 8.000000
262.125820 8.000000
262.192050 6.000000
262.415040 6.000000
263.066280 7.000000
263.084750 8.000000
263.110570 163.000000
263.137540 7.000000
264.107670 41.000000
264.133640 21.000000
264.158630 14.000000
265.119600 40.000000
265.149200 10.000000
266.136930 16.000000
266.156740 12.000000
267.067900 14.000000
267.101290 7.000000
267.132390 8.000000
267.145810 14.000000
268.130040 12.000000
268.141850 14.000000
268.176570 7.000000
269.161620 13.000000
269.177760 8.000000
270.135280 10.000000
271.097110 7.000000
271.160580 5.000000
275.085970 9.000000
275.096740 12.000000
275.110990 26.000000
276.131290 12.000000
277.116060 13.000000
278.104770 9.000000
278.124690 35.000000
278.143340 11.000000
278.157500 6.000000
278.167940 8.000000
279.101780 11.000000
279.132320 8.000000
279.145230 7.000000
279.163360 12.000000
280.130710 15.000000
281.098880 8.000000
281.153020 11.000000
282.028960 5.000000
282.136050 8.000000
282.151980 33.000000
282.179990 12.000000
282.193150 18.000000
283.157810 25.000000
283.190490 11.000000
286.177000 5.000000
287.148710 6.000000
288.127410 7.000000
289.215390 5.000000
291.128970 14.000000
292.121220 19.000000
293.140690 55.000000
293.157500 13.000000
294.096860 5.000000
294.130830 9.000000
294.149080 30.000000
294.168330 12.000000
295.056300 8.000000
295.124660 12.000000
295.135190 30.000000
295.156250 10.000000
296.137020 17.000000
296.165470 34.000000
297.146970 11.000000
297.175840 14.000000
298.185520 13.000000
299.142490 9.000000
299.172150 6.000000
301.163880 6.000000
301.181520 6.000000
302.191380 7.000000
303.134490 8.000000
306.146880 40.000000
306.173100 6.000000
307.123170 7.000000
307.147800 16.000000
308.121120 10.000000
309.170990 5.000000
310.147370 31.000000
310.178650 130.000000
310.190950 57.000000
310.219970 8.000000
311.138820 6.000000
311.156520 17.000000
311.173460 10.000000
311.188960 22.000000
312.160430 6.000000
312.190460 16.000000
313.149050 8.000000
313.160100 8.000000
313.177640 6.000000
314.170930 14.000000
314.184940 23.000000
314.213870 66.000000
315.166230 5.000000
315.186920 7.000000
315.205020 16.000000
315.220890 9.000000
320.160280 5.000000
324.149050 7.000000
324.162900 9.000000
324.178650 5.000000
326.163790 14.000000
327.165740 9.000000
328.201450 11.000000
332.172180 24.000000
332.204710 6.000000
338.086090 6.000000
338.106840 5.000000
338.124790 13.000000
338.174960 858.000000
338.996800 6.000000
339.123630 5.000000
339.150850 7.000000
339.179530 157.000000
339.194270 42.000000
340.176270 9.000000
340.198490 16.000000
342.162140 7.000000
342.191470 82.000000
342.207890 197.000000
342.220950 74.000000
342.398250 7.000000
343.199550 24.000000
343.214510 63.000000
343.233640 7.000000
344.140530 6.000000
344.167970 13.000000
344.185760 9.000000
344.207150 12.000000
344.223630 10.000000
346.246800 5.000000
348.237880 7.000000
352.193080 6.000000
354.173250 6.000000
355.120970 9.000000
355.187590 7.000000
356.192020 11.000000
356.214780 14.000000
357.148410 8.000000
357.220640 8.000000
359.187230 10.000000
362.230100 6.000000
365.117310 6.000000
370.173740 5.000000
370.188720 17.000000
370.199520 27.000000
370.215760 28.000000
371.135680 5.000000
371.170810 8.000000
371.194180 5.000000
371.206090 7.000000
372.175170 15.000000
374.191650 13.000000
374.225220 31.000000
374.241360 31.000000
374.258670 8.000000
375.236880 14.000000
376.215730 5.000000
376.242860 5.000000
386.197910 7.000000
388.194400 9.000000
388.228180 9.000000
400.137270 6.000000
400.187100 7.000000
400.210510 5.000000
401.185910 6.000000
402.221800 16.000000
402.241300 15.000000
404.189210 5.000000
404.203610 5.000000
405.212370 7.000000
406.177890 7.000000
406.204130 9.000000
414.221410 6.000000
416.171630 5.000000
416.194580 12.000000
418.201350 23.000000
418.215330 9.000000
419.211330 7.000000
419.231450 10.000000
420.176300 7.000000
422.178770 11.000000
428.182950 15.000000
429.198240 7.000000
432.178280 10.000000
432.202640 36.000000
432.223300 29.000000
432.359620 6.000000
433.213780 9.000000
433.227660 15.000000
436.220730 15.000000
445.719300 6.000000
448.195130 7.000000
452.207920 5.000000
460.158200 6.000000
460.197720 23.000000
460.217130 46.000000
461.203250 16.000000
461.225370 13.000000
462.228700 5.000000
464.175420 16.000000
464.207760 115.000000
464.243010 263.000000
465.198640 18.000000
465.220340 35.000000
465.248170 25.000000
465.267000 13.000000
465.281520 5.000000
466.200620 8.000000
466.243990 16.000000
466.263790 11.000000
467.253750 7.000000
492.216520 21.000000
492.240230 121.000000
493.163150 6.000000
493.181550 5.000000
493.212680 7.000000
493.237270 46.000000
493.263090 17.000000
494.238620 10.000000
494.283260 6.000000
496.209840 22.000000
496.236180 55.000000
496.256930 95.000000
496.291110 22.000000
496.311950 13.000000
497.237550 31.000000
497.272400 49.000000
498.266330 14.000000
506.235320 9.000000
524.165040 5.000000
524.227050 27.000000
524.248230 93.000000
524.269470 192.000000
524.300900 19.000000
525.227840 10.000000
525.257810 54.000000
525.284970 45.000000
526.256710 11.000000
526.286130 16.000000
556.226620 7.000000
556.286680 105.000000
556.324400 29.000000
557.280760 14.000000
557.296810 35.000000
584.305790 6.000000
616.285890 20.000000
616.312440 20.000000
616.334720 9.000000

>ms2
338.176420 39.000000
339.177670 12.000000
464.250120 8.000000
492.236690 11.000000
496.269320 14.000000
497.277980 6.000000
524.266420 58.000000
525.271360 24.000000
556.292910 123.000000
557.294920 46.000000
584.289180 12.000000
616.219910 6.000000
616.248170 9.000000
616.314580 1000.000000
616.388490 23.000000

>ms2
616.225890 9.000000
616.312680 1000.000000
616.386050 22.000000

>ms2
105.034210 11.000000
338.166750 27.000000
338.178500 63.000000
339.166720 9.000000
339.184140 8.000000
342.209080 6.000000
464.229580 6.000000
464.245730 10.000000
492.245150 31.000000
496.226040 6.000000
496.264740 38.000000
496.284330 18.000000
497.273830 13.000000
524.265560 182.000000
525.269960 64.000000
526.265690 10.000000
556.171080 5.000000
556.223020 11.000000
556.293150 490.000000
557.298340 156.000000
558.284180 26.000000
558.306090 14.000000
558.326660 5.000000
584.284360 62.000000
585.266660 11.000000
585.292360 18.000000
586.305180 7.000000
616.222600 8.000000
616.314210 1000.000000
616.377810 5.000000

>ms2
58.068190 7.000000
68.049830 5.000000
70.069670 8.000000
71.049740 12.000000
77.037320 13.000000
77.041870 7.000000
79.059120 10.000000
81.031480 6.000000
84.083000 12.000000
87.073050 6.000000
88.073060 20.000000
88.077580 40.000000
91.053990 31.000000
91.739290 6.000000
94.065800 53.000000
94.072770 10.000000
95.068410 6.000000
96.068320 6.000000
96.082010 8.000000
97.819400 7.000000
100.073920 8.000000
103.055320 7.000000
105.009330 6.000000
105.034510 1000.000000
105.069370 21.000000
106.036950 66.000000
107.052950 10.000000
107.075790 10.000000
108.073970 6.000000
108.084010 55.000000
109.063640 8.000000
110.094820 16.000000
114.092520 19.000000
117.075730 16.000000
119.047740 9.000000
119.085970 6.000000
120.087700 8.000000
121.065060 15.000000
121.091740 9.000000
122.066470 6.000000
122.101350 12.000000
123.044860 12.000000
123.077450 8.000000
124.075220 6.000000
126.089840 25.000000
129.071090 20.000000
131.049060 8.000000
131.086490 57.000000
132.073210 6.000000
132.092180 15.000000
133.092800 15.000000
134.096280 19.000000
135.081450 6.000000
135.106320 5.000000
137.066300 17.000000
137.094730 5.000000
138.094100 21.000000
138.104160 5.000000
139.090040 7.000000
140.107100 105.000000
140.114410 21.000000
141.067370 12.000000
141.074250 18.000000
141.111100 7.000000
142.081510 9.000000
143.079850 9.000000
143.086410 14.000000
144.060670 6.000000
144.080460 6.000000
145.064470 7.000000
145.099810 6.000000
146.034850 20.000000
146.062100 9.000000
146.068630 8.000000
146.096880 30.000000
146.106520 9.000000
147.045470 68.000000
147.080700 27.000000
147.102690 14.000000
148.041990 10.000000
148.052980 18.000000
148.074480 12.000000
148.080690 18.000000
149.065550 13.000000
149.086140 8.000000
149.100910 21.000000
150.087950 6.000000
151.103490 8.000000
152.749650 5.000000
153.073880 14.000000
154.121780 6.000000
155.084400 8.000000
155.092880 6.000000
156.091350 10.000000
157.065490 13.000000
157.096970 8.000000
158.078930 18.000000
158.092470 18.000000
158.099060 50.000000
159.052200 5.000000
159.075350 7.000000
159.081970 16.000000
159.101260 10.000000
160.072710 19.000000
160.079730 16.000000
160.087520 10.000000
160.098300 6.000000
160.114430 45.000000
161.059620 7.000000
162.094220 13.000000
163.113490 11.000000
163.765380 6.000000
164.105680 10.000000
164.111950 14.000000
165.056550 11.000000
165.072250 19.000000
165.111510 13.000000
166.077440 7.000000
166.083510 6.000000
166.120040 8.000000
167.084960 14.000000
167.092510 7.000000
169.065410 10.000000
169.090230 9.000000
170.090710 7.000000
170.115480 9.000000
171.074980 10.000000
171.087070 9.000000
171.102800 19.000000
172.078050 7.000000
172.111820 42.000000
173.096020 7.000000
173.117800 9.000000
174.046370 11.000000
174.057110 11.000000
174.130690 8.000000
175.062410 21.000000
175.112780 9.000000
176.066180 18.000000
176.076660 19.000000
176.111720 13.000000
177.044450 6.000000
177.050750 8.000000
177.060030 18.000000
178.081160 6.000000
178.122220 10.000000
178.130620 10.000000
179.087160 29.000000
179.102200 6.000000
179.873140 5.000000
180.094860 5.000000
180.145610 5.000000
181.059110 6.000000
181.086730 8.000000
181.101820 13.000000
182.068760 5.000000
182.103040 6.000000
182.114010 7.000000
183.070100 5.000000
184.084090 6.000000
184.117870 22.000000
185.048900 8.000000
185.081190 5.000000
185.101410 16.000000
186.062360 9.000000
186.101750 5.000000
186.128780 40.000000
187.063900 6.000000
188.070370 6.000000
188.928040 6.000000
189.077800 27.000000
189.090520 5.000000
190.087160 41.000000
190.124650 10.000000
191.082630 11.000000
191.094990 13.000000
192.073330 6.000000
192.096730 37.000000
192.137710 6.000000
192.145100 6.000000
193.065320 6.000000
193.079590 6.000000
193.102680 60.000000
194.102220 7.000000
195.081760 27.000000
195.098070 8.000000
195.115310 13.000000
196.084720 10.000000
196.117370 29.000000
197.053240 5.000000
197.064070 7.000000
197.089890 15.000000
197.120670 11.000000
198.088530 5.000000
198.129240 12.000000
199.069560 14.000000
199.088010 5.000000
199.132840 6.000000
199.741000 5.000000
200.089580 8.000000
201.086940 5.000000
202.083720 34.000000
203.078670 12.000000
203.091050 23.000000
204.103200 21.000000
204.132890 15.000000
204.146130 6.000000
205.071840 10.000000
205.082600 6.000000
205.102770 39.000000
205.123860 20.000000
206.093570 9.000000
206.154460 91.000000
207.067640 5.000000
207.077850 17.000000
207.089610 5.000000
207.119510 35.000000
207.157850 6.000000
208.086290 11.000000
208.109560 5.000000
208.119190 6.000000
209.051740 5.000000
209.076570 6.000000
209.098450 30.000000
209.119670 7.000000
209.130780 7.000000
209.144060 8.000000
210.065600 6.000000
210.089250 10.000000
210.104680 16.000000
210.132690 10.000000
210.152500 8.000000
211.067960 6.000000
211.100750 9.000000
211.116440 8.000000
211.762410 5.000000
212.118990 7.000000
213.086210 7.000000
214.091110 11.000000
214.129440 12.000000
215.094700 9.000000
215.124150 6.000000
217.102740 22.000000
217.110530 14.000000
218.076430 5.000000
218.104110 14.000000
218.117580 7.000000
219.076420 6.000000
219.086810 16.000000
219.101930 7.000000
219.116850 10.000000
220.081970 7.000000
220.099790 16.000000
220.113490 7.000000
220.131470 5.000000
221.097760 25.000000
221.120330 8.000000
222.098890 8.000000
222.126970 14.000000
223.077990 13.000000
223.102360 6.000000
223.113200 30.000000
223.137850 8.000000
224.097990 14.000000
225.093960 11.000000
225.112720 6.000000
225.127240 11.000000
225.135760 10.000000
226.123750 6.000000
227.086150 5.000000
227.120470 6.000000
228.105960 6.000000
228.139820 17.000000
229.131420 8.000000
229.144650 6.000000
230.095440 8.000000
230.107820 6.000000
230.117360 8.000000
230.157910 11.000000
231.081830 21.000000
231.103650 8.000000
232.089690 15.000000
232.170590 5.000000
233.105900 5.000000
234.064450 13.000000
234.075500 8.000000
234.102260 27.000000
234.124570 15.000000
235.063280 5.000000
235.076480 29.000000
235.113690 67.000000
235.139390 5.000000
236.076460 13.000000
236.092390 5.000000
236.112350 24.000000
236.138600 10.000000
236.161590 7.000000
236.179900 7.000000
237.090520 9.000000
237.132710 26.000000
238.100100 15.000000
238.128750 20.000000
239.088710 5.000000
239.105620 8.000000
239.115660 26.000000
239.144620 13.000000
240.145050 7.000000
242.119080 6.000000
244.102110 7.000000
245.086320 10.000000
245.099120 16.000000
245.110370 11.000000
245.143710 6.000000
246.116390 11.000000
246.135990 6.000000
247.106370 13.000000
247.118260 24.000000
247.133290 8.000000
248.087540 15.000000
248.109650 5.000000
248.118240 10.000000
248.133610 8.000000
248.152390 8.000000
249.085170 21.000000
249.112630 7.000000
250.101240 17.000000
250.125530 18.000000
250.167210 19.000000
251.102660 22.000000
251.119710 7.000000
252.102200 6.000000
252.121900 8.000000
252.141950 22.000000
253.089480 10.000000
253.124450 12.000000
253.152970 7.000000
254.122820 5.000000
254.137130 6.000000
254.145190 7.000000
254.156160 9.000000
256.143590 9.000000
257.093380 8.000000
258.096560 5.000000
259.158450 6.000000
260.107820 10.000000
260.138980 5.000000
260.170470 6.000000
261.095670 10.000000
261.136260 9.000000
262.095980 17.000000
263.070250 9.000000
263.092130 17.000000
263.110380 149.000000
264.110020 46.000000
264.134740 18.000000
264.146640 16.000000
265.123080 41.000000
265.155060 13.000000
266.132020 12.000000
266.184140 6.000000
267.059600 8.000000
267.105930 5.000000
267.135310 7.000000
268.114720 6.000000
268.182310 7.000000
269.115170 6.000000
269.170590 6.000000
274.103700 6.000000
275.108730 37.000000
275.126310 6.000000
276.108980 7.000000
276.131770 5.000000
277.127380 8.000000
277.141200 12.000000
278.118260 18.000000
278.155030 26.000000
278.166810 5.000000
279.127810 7.000000
279.138820 17.000000
279.160280 7.000000
279.168950 10.000000
280.120390 11.000000
280.131260 10.000000
280.148990 12.000000
280.792330 5.000000
281.106600 6.000000
281.119540 5.000000
282.121920 10.000000
282.150450 40.000000
282.185520 18.000000
283.149720 5.000000
284.116730 7.000000
284.130160 7.000000
284.173370 15.000000
286.177670 5.000000
289.136840 7.000000
292.139590 7.000000
292.707790 5.000000
293.125520 9.000000
293.145360 39.000000
293.157380 13.000000
294.114620 6.000000
294.150600 39.000000
294.184270 6.000000
295.122040 13.000000
295.140660 42.000000
295.155910 28.000000
296.145140 11.000000
296.160310 26.000000
296.174070 8.000000
297.121830 7.000000
297.154690 16.000000
298.181150 11.000000
300.153630 7.000000
302.181400 11.000000
303.188140 10.000000
304.153930 12.000000
305.140470 6.000000
306.001890 5.000000
306.128720 7.000000
306.140720 21.000000
306.163910 19.000000
307.136780 14.000000
307.155940 9.000000
308.159790 7.000000
309.164580 5.000000
310.112920 5.000000
310.132750 6.000000
310.148440 17.000000
310.163090 37.000000
310.182590 182.000000
311.139160 9.000000
311.167270 13.000000
311.182250 14.000000
311.195310 11.000000
312.135160 13.000000
312.166410 9.000000
312.195830 5.000000
313.203950 7.000000
314.151790 9.000000
314.174740 19.000000
314.191990 22.000000
314.210940 37.000000
314.227260 9.000000
315.186190 7.000000
315.210600 19.000000
320.166660 7.000000
326.142090 10.000000
326.176910 7.000000
326.204190 5.000000
327.185790 9.000000
330.163670 6.000000
332.186830 5.000000
336.108280 5.000000
338.094700 8.000000
338.139010 11.000000
338.177340 676.000000
338.214450 5.000000
339.147740 10.000000
339.177370 175.000000
340.141630 10.000000
340.162660 11.000000
340.179960 12.000000
340.197480 10.000000
341.156890 6.000000
341.198090 6.000000
342.125460 5.000000
342.173490 11.000000
342.207310 348.000000
342.228120 36.000000
343.187190 10.000000
343.201480 45.000000
343.218660 40.000000
344.172580 7.000000
344.198670 25.000000
347.150880 7.000000
350.172700 6.000000
352.179530 6.000000
355.181180 6.000000
356.193080 16.000000
356.214570 6.000000
356.230770 7.000000
357.193080 6.000000
358.154880 10.000000
358.204100 14.000000
359.176060 6.000000
360.156650 6.000000
364.218840 8.000000
370.166380 10.000000
370.188780 16.000000
370.207310 53.000000
371.186190 6.000000
371.211330 8.000000
374.189150 11.000000
374.210300 9.000000
374.236450 40.000000
374.256290 6.000000
375.251070 8.000000
384.219600 6.000000
385.144500 7.000000
386.202640 6.000000
387.134890 5.000000
387.195190 5.000000
388.212920 6.000000
390.183870 5.000000
390.230100 11.000000
400.206850 7.000000
402.165620 6.000000
402.225830 19.000000
402.247310 6.000000
404.198640 7.000000
405.170410 7.000000
405.207340 6.000000
406.183140 8.000000
406.211060 6.000000
410.227290 6.000000
417.191010 7.000000
418.189270 9.000000
418.213810 10.000000
419.201510 5.000000
422.182130 7.000000
422.202700 7.000000
428.181700 13.000000
431.189730 5.000000
432.166410 6.000000
432.184780 16.000000
432.212860 35.000000
432.228970 28.000000
433.224370 38.000000
434.193080 10.000000
434.219480 10.000000
434.239350 7.000000
446.210880 12.000000
446.249760 8.000000
447.203550 9.000000
448.236080 6.000000
449.216460 6.000000
450.184110 5.000000
450.197270 5.000000
460.201110 39.000000
460.222380 46.000000
461.193940 7.000000
461.213750 17.000000
462.218630 8.000000
464.213010 109.000000
464.244230 201.000000
464.270360 23.000000
465.175290 8.000000
465.208800 48.000000
465.240690 40.000000
465.263730 15.000000
465.830960 5.000000
466.224090 9.000000
466.243290 14.000000
466.260410 17.000000
478.190460 6.000000
492.192380 10.000000
492.245270 169.000000
493.246120 65.000000
493.283360 5.000000
494.225560 5.000000
494.252750 9.000000
496.197020 8.000000
496.225800 36.000000
496.271510 173.000000
496.313420 5.000000
497.226620 19.000000
497.276730 22.000000
497.295230 20.000000
498.261870 8.000000
522.245850 5.000000
522.262450 7.000000
524.223450 8.000000
524.265930 296.000000
524.290280 49.000000
525.231570 11.000000
525.258240 36.000000
525.273930 69.000000
526.243590 12.000000
526.272460 9.000000
527.307620 5.000000
556.269900 16.000000
556.296200 99.000000
556.319460 17.000000
557.269410 8.000000
557.302550 37.000000
584.288640 15.000000
616.293400 8.000000
616.322570 8.000000

>ms2
338.174960 36.000000
339.177760 6.000000
342.199160 7.000000
464.252290 6.000000
492.241150 9.000000
496.264530 14.000000
524.260620 57.000000
525.256470 11.000000
525.277100 12.000000
556.289920 114.000000
557.272580 8.000000
557.294190 38.000000
558.296880 11.000000
584.290830 11.000000
616.227660 7.000000
616.311650 1000.000000
616.384700 21.000000

>ms2
616.232060 13.000000
616.312740 1000.000000
616.385860 19.000000

>ms2
105.033400 6.000000
338.175540 74.000000
339.177700 22.000000
342.208710 8.000000
460.215180 7.000000
464.239840 17.000000
465.256440 7.000000
492.233980 23.000000
493.239350 5.000000
496.267970 51.000000
497.259310 8.000000
497.276790 8.000000
524.265380 190.000000
525.266420 66.000000
525.298770 5.000000
526.263240 11.000000
526.278990 6.000000
556.232060 14.000000
556.290590 488.000000
557.225280 6.000000
557.250980 8.000000
557.294310 166.000000
558.299620 47.000000
559.296450 8.000000
584.277160 32.000000
584.296200 43.000000
585.275510 13.000000
585.300050 14.000000
616.240480 14.000000
616.257570 6.000000
616.312740 1000.000000
616.384770 11.000000

>ms2
58.068260 8.000000
70.065330 12.000000
71.048650 27.000000
74.059780 7.000000
75.046850 18.000000
77.037970 28.000000
82.065160 6.000000
84.084370 9.000000
85.062920 11.000000
88.076350 80.000000
91.053850 35.000000
94.065670 58.000000
94.073250 8.000000
96.083150 7.000000
97.066310 7.000000
105.033840 1000.000000
105.071400 14.000000
106.037420 100.000000
107.042730 13.000000
108.050920 6.000000
108.081670 50.000000
109.032840 6.000000
109.067540 10.000000
109.081630 10.000000
110.097180 13.000000
111.081430 9.000000
114.089570 39.000000
116.064740 21.000000
117.067790 29.000000
118.071640 8.000000
119.049360 9.000000
119.087270 6.000000
120.074600 15.000000
120.083370 8.000000
121.062620 17.000000
121.079610 6.000000
122.093720 8.000000
123.085660 6.000000
124.074110 7.000000
126.092030 8.000000
128.054120 9.000000
128.063100 13.000000
129.063670 31.000000
129.072590 22.000000
131.073240 11.000000
131.085170 43.000000
132.075760 10.000000
132.089040 8.000000
133.031660 12.000000
133.062970 9.000000
133.068620 8.000000
133.088710 9.000000
133.100520 12.000000
134.089840 9.000000
134.099930 24.000000
135.045580 10.000000
135.080900 10.000000
136.112820 6.000000
137.055880 5.000000
138.093000 22.000000
140.106430 78.000000
141.071370 38.000000
141.107640 10.000000
142.110080 5.000000
143.054530 7.000000
143.082080 17.000000
143.093980 13.000000
144.076280 13.000000
144.085530 10.000000
145.103260 6.000000
146.031920 10.000000
146.040800 19.000000
146.059040 6.000000
146.090240 7.000000
146.097350 27.000000
147.043200 161.000000
147.078520 21.000000
147.099820 8.000000
148.043960 7.000000
148.054240 15.000000
148.068480 18.000000
148.076250 24.000000
148.118290 6.000000
149.060500 9.000000
149.086230 6.000000
149.098740 19.000000
152.074310 5.000000
152.105610 7.000000
153.061840 21.000000
153.069660 13.000000
154.069020 11.000000
155.082990 13.000000
155.091250 8.000000
157.071010 10.000000
157.079030 8.000000
157.102190 9.000000
158.093350 23.000000
158.104220 13.000000
159.050230 9.000000
159.076230 9.000000
159.103730 12.000000
160.065610 7.000000
160.075870 33.000000
160.102890 8.000000
160.113620 24.000000
161.052900 8.000000
161.061130 25.000000
161.113080 6.000000
162.066650 5.000000
162.091030 16.000000
163.086530 7.000000
164.110720 41.000000
165.058870 6.000000
165.075160 13.000000
165.114430 6.000000
167.083080 25.000000
167.093370 14.000000
168.077360 7.000000
168.098790 6.000000
168.107030 6.000000
169.089940 6.000000
169.099780 9.000000
170.101430 13.000000
170.116040 8.000000
171.084840 21.000000
171.102250 19.000000
172.086530 6.000000
172.110280 49.000000
172.123310 7.000000
173.058910 12.000000
173.085780 6.000000
173.101410 9.000000
174.047930 8.000000
174.061040 19.000000
174.069230 11.000000
174.126250 12.000000
175.065350 17.000000
176.071240 56.000000
176.100100 6.000000
176.110960 8.000000
177.053740 24.000000
177.060940 6.000000
177.073970 5.000000
178.078380 12.000000
178.089980 11.000000
178.121370 29.000000
179.070530 21.000000
179.085160 41.000000
180.094540 7.000000
181.063310 10.000000
181.089250 12.000000
181.099090 22.000000
182.081820 6.000000
182.100600 9.000000
183.059690 6.000000
183.079860 25.000000
184.074950 14.000000
184.111390 38.000000
184.127610 8.000000
185.058980 18.000000
185.098450 12.000000
186.064700 6.000000
186.095340 15.000000
186.106320 10.000000
186.130130 59.000000
187.073140 7.000000
187.111180 20.000000
188.074870 12.000000
188.104690 8.000000
189.055250 6.000000
189.079590 46.000000
189.097020 9.000000
190.082860 74.000000
190.125720 6.000000
191.071850 8.000000
191.083010 12.000000
191.108470 9.000000
192.091710 18.000000
192.100830 19.000000
192.139800 6.000000
193.039460 5.000000
193.065190 5.000000
193.073200 7.000000
193.093340 18.000000
193.103040 31.000000
194.073900 13.000000
194.086620 8.000000
194.110150 14.000000
195.073380 16.000000
195.086550 6.000000
195.123810 7.000000
196.080260 14.000000
196.094590 9.000000
196.115390 9.000000
197.058650 13.000000
197.091600 19.000000
198.117130 6.000000
198.131610 13.000000
199.110030 7.000000
200.140210 10.000000
201.088750 8.000000
202.079610 7.000000
202.088380 10.000000
203.085650 25.000000
204.089810 13.000000
204.097720 10.000000
204.136320 16.000000
204.746320 7.000000
205.060620 8.000000
205.099470 26.000000
205.119370 19.000000
205.132680 11.000000
205.144640 6.000000
205.828770 5.000000
206.067470 15.000000
206.102690 5.000000
206.115810 5.000000
206.137100 6.000000
206.151080 23.000000
207.074280 13.000000
207.084550 15.000000
207.103060 10.000000
207.116290 35.000000
207.126740 27.000000
207.156400 16.000000
208.082570 8.000000
208.092650 15.000000
208.111890 12.000000
208.121250 5.000000
209.062790 10.000000
209.086030 6.000000
209.101590 30.000000
209.121380 8.000000
210.127690 11.000000
211.079990 13.000000
211.108990 6.000000
211.121480 9.000000
212.100560 9.000000
212.113780 17.000000
213.089810 14.000000
213.096880 5.000000
214.080120 12.000000
214.098600 8.000000
214.116180 6.000000
214.131230 9.000000
215.105420 6.000000
215.114140 7.000000
216.099550 27.000000
216.134720 15.000000
216.145950 10.000000
217.094380 16.000000
217.105040 24.000000
218.094020 5.000000
218.116500 14.000000
219.077730 20.000000
219.103090 18.000000
219.117360 26.000000
220.080250 11.000000
220.090930 21.000000
220.115600 14.000000
220.130230 11.000000
221.052250 5.000000
221.075520 12.000000
221.089950 23.000000
221.113220 25.000000
222.071820 5.000000
222.091740 9.000000
222.102770 20.000000
222.123790 21.000000
222.138470 8.000000
222.148250 7.000000
223.063140 10.000000
223.074710 14.000000
223.085800 16.000000
223.107680 16.000000
223.124690 7.000000
224.107270 6.000000
224.144420 7.000000
225.104580 6.000000
225.122510 14.000000
226.133160 18.000000
227.105150 15.000000
229.087950 20.000000
229.105270 6.000000
230.150920 16.000000
231.093600 14.000000
231.110930 9.000000
231.121060 5.000000
231.160930 11.000000
232.089190 26.000000
232.129520 13.000000
232.165830 11.000000
233.096210 6.000000
233.123760 16.000000
234.060710 6.000000
234.106260 18.000000
234.144970 6.000000
235.061970 12.000000
235.076220 26.000000
235.092740 10.000000
235.112150 69.000000
236.082180 6.000000
236.114410 23.000000
236.134670 9.000000
236.147450 9.000000
236.163450 22.000000
236.177960 11.000000
237.091710 20.000000
237.112080 16.000000
237.126850 17.000000
237.139210 10.000000
237.172930 7.000000
238.057530 5.000000
238.113100 6.000000
238.127300 7.000000
239.103440 22.000000
239.130420 11.000000
240.159190 5.000000
241.090060 5.000000
241.122570 9.000000
241.140790 7.000000
244.096450 6.000000
244.127410 12.000000
244.151990 6.000000
245.101670 36.000000
246.087450 7.000000
246.112030 19.000000
247.075590 13.000000
247.104290 17.000000
247.114550 14.000000
248.089340 18.000000
248.108670 30.000000
248.125820 8.000000
248.139540 7.000000
249.092210 37.000000
249.123760 19.000000
249.136760 14.000000
249.578690 6.000000
250.115160 14.000000
250.124620 16.000000
250.157650 18.000000
251.010650 5.000000
251.105680 39.000000
251.121600 7.000000
251.146190 15.000000
252.129210 13.000000
253.116700 13.000000
253.147480 6.000000
254.126310 8.000000
254.138900 5.000000
254.156780 5.000000
255.149250 5.000000
256.173950 9.000000
257.093600 16.000000
258.151090 8.000000
259.128910 6.000000
260.102720 6.000000
261.090850 21.000000
261.106660 7.000000
261.137080 9.000000
262.170170 8.000000
263.084050 18.000000
263.106320 184.000000
263.140050 6.000000
264.110110 40.000000
264.129940 22.000000
264.148830 6.000000
265.075740 6.000000
265.116270 36.000000
265.136050 39.000000
266.131740 18.000000
267.074130 21.000000
267.136840 38.000000
268.105130 7.000000
268.141850 13.000000
268.179410 5.000000
268.268710 6.000000
270.147580 7.000000
270.180790 6.000000
271.152830 6.000000
272.164980 6.000000
273.030270 5.000000
275.104060 31.000000
275.138120 6.000000
276.115880 20.000000
277.117860 6.000000
277.134460 10.000000
278.102780 7.000000
278.123350 33.000000
278.153960 49.000000
279.103060 7.000000
279.124240 11.000000
279.153960 7.000000
279.164950 5.000000
280.165710 8.000000
281.119810 8.000000
282.148860 35.000000
282.159580 20.000000
282.182160 26.000000
283.131590 5.000000
284.139920 7.000000
284.170930 7.000000
285.150090 10.000000
286.140320 7.000000
286.180850 6.000000
289.118010 6.000000
291.117460 8.000000
291.129000 8.000000
292.136900 18.000000
293.124570 11.000000
293.138340 41.000000
293.483150 6.000000
294.155210 38.000000
294.169800 9.000000
295.084720 9.000000
295.124420 34.000000
295.140230 32.000000
295.150820 8.000000
296.136350 13.000000
296.159820 11.000000
296.173550 13.000000
297.128200 9.000000
297.145140 6.000000
297.184140 8.000000
298.174190 8.000000
299.087430 7.000000
299.104130 11.000000
299.172060 6.000000
302.190830 5.000000
304.139130 9.000000
306.130340 6.000000
306.150880 67.000000
307.136350 26.000000
307.147670 10.000000
308.160100 11.000000
309.140560 10.000000
310.137570 41.000000
310.182070 177.000000
311.148380 21.000000
311.175350 39.000000
311.190370 27.000000
312.158390 11.000000
313.823820 8.000000
314.170290 22.000000
314.202090 31.000000
314.212370 52.000000
315.208980 13.000000
315.219850 8.000000
320.160920 5.000000
324.153750 7.000000
324.168950 6.000000
326.177700 22.000000
327.146420 6.000000
327.176730 6.000000
327.186190 5.000000
328.189580 9.000000
329.172240 10.000000
336.814540 7.000000
338.047940 6.000000
338.173160 742.000000
339.176450 181.000000
340.153750 5.000000
340.167660 6.000000
340.188750 19.000000
340.203190 11.000000
342.009460 5.000000
342.133270 5.000000
342.162570 13.000000
342.204010 331.000000
343.197630 33.000000
343.218870 50.000000
343.830470 7.000000
344.178220 12.000000
344.219450 6.000000
346.184540 5.000000
346.246150 6.000000
348.169650 7.000000
350.170440 8.000000
352.198360 6.000000
353.154850 7.000000
356.150730 7.000000
356.181340 10.000000
356.221680 5.000000
357.181950 15.000000
357.208070 6.000000
364.200500 10.000000
370.182740 28.000000
370.209410 23.000000
371.202730 12.000000
372.205840 8.000000
373.192320 5.000000
374.143920 8.000000
374.200620 13.000000
374.220610 26.000000
374.237300 44.000000
374.256870 11.000000
375.240750 12.000000
383.154020 6.000000
385.144070 9.000000
388.192540 7.000000
397.134950 7.000000
400.152370 5.000000
400.211910 19.000000
401.194730 10.000000
402.217650 15.000000
402.239900 5.000000
404.215000 5.000000
404.231020 12.000000
417.204320 6.000000
418.194850 9.000000
419.174680 6.000000
419.196690 5.000000
422.188870 10.000000
428.207000 8.000000
432.164220 6.000000
432.174220 15.000000
432.190520 23.000000
432.216550 87.000000
432.243190 11.000000
433.220950 21.000000
434.167210 5.000000
435.180360 5.000000
436.206270 6.000000
436.225680 9.000000
446.191560 6.000000
446.207240 17.000000
447.224210 14.000000
448.245030 8.000000
450.230040 5.000000
451.198210 7.000000
460.204100 53.000000
460.227600 19.000000
461.214480 11.000000
461.226960 6.000000
462.204590 7.000000
462.224980 9.000000
464.121640 9.000000
464.167110 9.000000
464.211330 88.000000
464.229160 122.000000
464.245880 81.000000
464.269810 29.000000
465.185150 8.000000
465.207340 7.000000
465.241580 50.000000
465.267060 12.000000
466.199070 5.000000
479.221310 6.000000
492.102570 5.000000
492.237640 198.000000
493.210660 14.000000
493.238340 34.000000
493.269870 14.000000
494.179630 8.000000
494.220860 8.000000
494.243990 9.000000
494.260560 8.000000
496.182220 6.000000
496.233250 101.000000
496.267460 107.000000
496.285250 37.000000
497.184540 7.000000
497.232820 36.000000
497.276490 55.000000
498.275050 7.000000
524.217100 15.000000
524.247680 92.000000
524.269650 265.000000
525.222470 17.000000
525.253110 30.000000
525.273990 93.000000
526.261050 10.000000
526.279170 9.000000
556.295410 156.000000
556.337280 8.000000
557.280640 33.000000
557.314330 27.000000
558.283200 12.000000
616.242130 6.000000
616.272950 7.000000
616.308350 15.000000
616.329770 12.000000

