>compound PR83705698
>parentmass 433.1129233000001
>ionization [M+H]+
>formula C21H20O10
>rt 316.969020
>profile qtof
#smiles_iso C[C@@H]1[C@H]([C@@H]([C@@H](C(O1)OC2=CC(=C3C(=C2)OC(=C(C3=O)O)C4=CC=C(C=C4)O)O)O)O)O
#smiles_can CC1C(C(C(C(O1)OC2=CC(=C3C(=C2)OC(=C(C3=O)O)C4=CC=C(C=C4)O)O)O)O)O
#inchikey HQNOUCSPWAGQND-UIXBWGQISA-N
#pubchem_id 53891100
#mb_accession PR302482,PR302487,PR302493,PR302499,PR302505,PR302511,PR302517,PR302523,PR302529,PR302534,PR302540,PR302546

>ms2peaks
129.071080 6.000000
133.027240 7.000000
153.005520 5.000000
153.016890 28.000000
165.019970 11.000000
166.024810 6.000000
200.037400 5.000000
231.067170 9.000000
259.036800 8.000000
286.999420 10.000000
287.054660 1000.000000
288.056790 139.000000
288.076900 15.000000
289.061980 28.000000
289.073000 6.000000
433.058140 8.000000
433.084470 19.000000
433.111660 134.000000
433.140720 6.000000

>ms2peaks
286.998170 6.000000
287.024380 6.000000
287.049900 254.000000
287.060360 298.000000
287.992550 5.000000
288.045720 23.000000
288.064240 74.000000
289.059600 21.000000
433.034940 9.000000
433.064270 17.000000
433.112520 1000.000000

>ms2peaks
287.005430 8.000000
287.020900 18.000000
287.055790 1000.000000
288.024050 6.000000
288.060120 168.000000
289.055820 29.000000
289.068850 9.000000
290.053310 5.000000

>ms2peaks
54.043540 20.000000
65.036230 31.000000
68.994370 17.000000
79.050790 17.000000
81.031740 16.000000
91.050730 33.000000
93.033330 39.000000
94.032850 18.000000
105.031740 36.000000
106.037090 14.000000
106.044940 17.000000
107.041960 16.000000
107.050050 43.000000
109.027460 50.000000
110.037180 24.000000
111.007380 50.000000
115.052350 28.000000
117.067970 22.000000
121.015630 32.000000
121.026660 301.000000
121.076870 28.000000
122.009610 20.000000
122.029340 44.000000
122.039250 28.000000
122.062550 20.000000
128.051990 31.000000
129.068760 14.000000
133.027360 90.000000
136.899990 23.000000
137.013960 41.000000
137.025360 76.000000
137.192340 19.000000
139.052470 26.000000
141.067410 30.000000
144.108670 19.000000
145.033080 19.000000
145.067230 76.000000
147.041960 65.000000
147.051620 70.000000
147.083940 28.000000
153.017060 597.000000
153.022670 207.000000
154.016800 28.000000
154.031200 28.000000
157.054520 80.000000
157.064670 86.000000
158.068410 84.000000
161.063080 33.000000
165.017520 283.000000
165.419080 14.000000
166.022490 53.000000
167.019740 24.000000
167.051570 19.000000
169.063340 20.000000
171.014500 30.000000
171.044630 13.000000
171.052030 17.000000
177.066570 32.000000
179.041370 31.000000
185.045820 28.000000
185.054310 33.000000
185.062180 24.000000
189.046510 16.000000
189.060150 20.000000
195.028110 16.000000
202.029480 28.000000
202.062610 13.000000
202.773900 14.000000
203.035950 28.000000
203.070140 16.000000
203.079150 28.000000
207.026120 17.000000
209.804570 23.000000
213.053050 154.000000
213.065800 76.000000
214.056340 17.000000
214.076930 31.000000
217.052260 17.000000
219.061080 19.000000
229.056930 31.000000
231.061390 75.000000
241.053450 99.000000
242.054230 67.000000
243.063250 28.000000
244.056030 14.000000
251.768390 24.000000
257.706150 17.000000
258.023740 18.000000
258.050600 128.000000
258.061100 83.000000
259.072450 32.000000
259.079900 13.000000
260.049320 19.000000
261.198790 17.000000
269.044680 25.000000
287.006320 31.000000
287.052980 1000.000000
288.053100 98.000000
289.065580 13.000000

>ms2peaks
153.020310 14.000000
154.024670 5.000000
165.010670 6.000000
213.055730 8.000000
258.066470 6.000000
287.016270 8.000000
287.053530 1000.000000
288.031430 8.000000
288.062680 119.000000
289.060580 39.000000
433.096070 23.000000
433.117830 151.000000

>ms2peaks
287.025880 5.000000
287.053960 503.000000
288.040370 14.000000
288.058840 119.000000
289.055660 5.000000
433.062440 7.000000
433.111210 1000.000000

>ms2peaks
286.990970 8.000000
287.005520 6.000000
287.019130 9.000000
287.055110 1000.000000
288.058990 136.000000
289.051390 11.000000
289.066590 14.000000
290.070340 6.000000

>ms2peaks
55.017090 18.000000
65.034930 21.000000
68.165660 14.000000
68.977370 18.000000
68.994210 80.000000
77.037200 24.000000
77.041100 29.000000
78.894870 22.000000
79.057720 48.000000
79.787130 21.000000
93.010100 14.000000
93.032680 73.000000
105.024480 24.000000
105.035080 27.000000
107.048500 75.000000
107.055050 14.000000
108.054770 38.000000
111.009600 20.000000
119.044980 14.000000
120.995400 19.000000
121.009610 17.000000
121.024160 97.000000
121.030930 134.000000
121.067530 22.000000
122.035220 15.000000
127.056250 19.000000
129.073520 74.000000
130.065630 17.000000
130.682590 18.000000
133.020220 14.000000
133.028440 97.000000
133.060500 20.000000
134.042890 20.000000
135.043260 14.000000
135.049510 33.000000
135.071150 26.000000
136.050780 26.000000
137.023070 169.000000
137.033630 19.000000
138.027180 14.000000
139.058200 22.000000
141.072980 18.000000
142.035740 16.000000
142.078380 27.000000
143.045550 26.000000
143.053910 17.000000
145.027710 26.000000
145.057220 16.000000
145.069890 32.000000
147.043500 130.000000
147.360950 23.000000
149.022750 18.000000
150.991420 17.000000
152.062960 25.000000
152.997770 35.000000
153.015350 463.000000
153.025880 312.000000
154.023360 50.000000
157.032880 18.000000
157.062650 80.000000
157.599670 18.000000
158.040850 18.000000
161.056050 76.000000
163.027830 18.000000
163.068830 14.000000
164.993840 35.000000
165.019090 396.000000
165.027420 94.000000
165.997560 21.000000
166.022140 99.000000
169.068360 18.000000
169.140370 16.000000
171.034000 28.000000
171.042890 70.000000
172.046570 57.000000
173.061480 21.000000
174.029280 16.000000
174.518050 19.000000
175.019120 17.000000
185.057460 121.000000
186.064010 16.000000
187.042430 22.000000
189.038930 16.000000
189.056490 77.000000
190.070420 20.000000
191.038830 16.000000
196.037770 19.000000
203.032880 18.000000
213.042880 70.000000
213.056110 408.000000
214.051450 18.000000
214.064360 14.000000
215.064900 20.000000
216.044020 18.000000
217.053540 15.000000
217.061420 28.000000
218.019420 17.000000
219.013600 23.000000
219.076310 34.000000
220.976640 29.000000
231.061770 102.000000
231.076290 15.000000
232.071230 16.000000
239.025940 25.000000
240.044110 20.000000
241.042480 43.000000
241.054570 23.000000
242.053040 18.000000
245.026180 23.000000
257.043610 14.000000
258.051730 196.000000
259.050840 34.000000
266.584840 22.000000
269.049710 16.000000
287.056640 1000.000000
288.049380 120.000000
288.066740 110.000000
289.059510 42.000000
289.745820 14.000000
377.099520 18.000000

>ms2peaks
121.016160 7.000000
121.031140 7.000000
153.013790 18.000000
162.866970 5.000000
165.017820 17.000000
213.051270 8.000000
258.048680 15.000000
286.999730 12.000000
287.025050 12.000000
287.055210 1000.000000
287.082370 6.000000
288.009190 6.000000
288.059570 141.000000
289.056640 22.000000
289.069920 11.000000
433.087650 8.000000
433.114690 187.000000

>ms2peaks
287.026890 13.000000
287.055300 609.000000
288.049840 30.000000
288.061430 84.000000
289.059690 18.000000
433.031430 12.000000
433.064300 9.000000
433.113100 1000.000000
433.187100 5.000000

>ms2peaks
153.015500 10.000000
165.016050 8.000000
241.051610 6.000000
287.016630 13.000000
287.054350 1000.000000
288.060640 178.000000
289.059630 21.000000
289.071380 11.000000

>ms2peaks
68.990620 17.000000
68.995650 18.000000
69.032140 14.000000
77.030640 16.000000
79.047820 14.000000
81.032840 23.000000
97.034000 18.000000
105.029850 24.000000
105.036810 15.000000
107.038620 13.000000
107.046880 70.000000
109.018120 28.000000
109.031670 54.000000
111.006790 86.000000
119.048490 22.000000
121.013850 23.000000
121.029850 293.000000
122.031930 77.000000
127.034060 18.000000
127.057270 23.000000
129.071750 24.000000
131.050340 14.000000
131.055570 48.000000
133.023070 12.000000
133.028470 24.000000
133.037230 36.000000
133.067950 29.000000
134.044040 12.000000
135.010180 22.000000
135.044420 14.000000
135.073560 14.000000
137.024340 112.000000
139.034560 18.000000
141.065400 51.000000
146.072540 15.000000
147.042240 38.000000
148.047780 41.000000
150.034870 22.000000
150.795200 14.000000
153.017290 730.000000
154.014910 12.000000
154.022570 16.000000
155.023410 18.000000
156.037960 27.000000
156.562770 12.000000
157.062580 116.000000
157.068040 43.000000
158.170230 16.000000
160.057080 21.000000
161.059270 13.000000
162.044910 14.000000
165.001560 12.000000
165.016820 299.000000
165.025450 45.000000
166.023070 16.000000
168.026400 20.000000
169.064100 15.000000
171.003230 14.000000
171.043350 18.000000
171.051470 15.000000
175.052960 29.000000
175.075930 21.000000
179.032070 18.000000
179.044460 20.000000
185.030790 16.000000
185.060270 99.000000
187.981720 12.000000
194.015350 21.000000
194.022090 14.000000
196.048970 12.000000
197.062960 12.000000
203.040190 16.000000
203.081480 29.000000
213.029680 16.000000
213.042920 84.000000
213.052870 168.000000
213.066730 44.000000
215.054920 14.000000
215.067430 14.000000
216.044130 26.000000
217.048370 31.000000
223.045380 30.000000
226.064760 12.000000
229.040570 59.000000
229.055050 42.000000
229.491790 25.000000
230.040940 16.000000
231.062910 56.000000
231.085280 23.000000
236.946200 12.000000
240.053310 12.000000
240.942990 17.000000
241.048750 133.000000
243.048200 15.000000
243.064740 25.000000
243.076900 14.000000
245.036560 14.000000
257.050630 13.000000
257.985230 16.000000
258.043670 84.000000
258.056180 110.000000
259.050540 71.000000
259.064540 45.000000
260.064240 16.000000
269.048980 14.000000
286.045560 28.000000
286.944640 18.000000
286.966950 12.000000
287.019040 25.000000
287.054900 1000.000000
287.757780 12.000000
288.053530 74.000000
288.073460 23.000000
288.532260 12.000000
289.050630 15.000000
289.060940 12.000000
289.076630 16.000000
363.711940 13.000000
385.403080 12.000000

