>compound PR84060232
>parentmass 303.0867
>ionization [M+H]+
>formula C16H14O6
>rt 362.400000
>profile qtof
#smiles_iso COC1=C(C=C(C=C1)C2CC(=O)C3=C(C=C(C=C3O2)O)O)O
#smiles_can COC1=C(C=C(C=C1)C2CC(=O)C3=C(C=C(C=C3O2)O)O)O
#inchikey AIONOLUJZLIMTK-UHFFFAOYSA-N
#pubchem_id 3593
#mb_accession PR311002

>ms2
93.032440 53.000000
97.027250 35.000000
117.030290 49.000000
117.042430 28.000000
118.028420 21.000000
118.036550 25.000000
123.043110 20.000000
124.055510 24.000000
131.048070 27.000000
145.025420 213.000000
146.037690 23.000000
149.058290 21.000000
151.030880 20.000000
151.041950 25.000000
151.083470 22.000000
152.996030 20.000000
153.009090 124.000000
153.019200 640.000000
153.032230 30.000000
154.020770 55.000000
154.034290 25.000000
177.004760 22.000000
177.055210 425.000000
179.028030 25.000000
179.037610 24.000000
183.055220 18.000000
191.052460 29.000000
250.106460 24.000000
259.063600 21.000000
270.039490 19.000000
286.051060 17.000000
302.071810 28.000000
302.082340 17.000000
302.730130 33.000000
303.086150 1580.000000

