>compound PR84234506
>parentmass 321.0615
>ionization [M+H]+
>formula C15H12O8
>rt 219.000000
>profile qtof
#smiles_iso C1=C(C=C(C(=C1O)O)O)C2C(C(=O)C3=C(C=C(C=C3O2)O)O)O
#smiles_can C1=C(C=C(C(=C1O)O)O)C2C(C(=O)C3=C(C=C(C=C3O2)O)O)O
#inchikey KJXSIXMJHKAJOD-UHFFFAOYSA-N
#pubchem_id 5153580
#mb_accession PR310999

>ms2peaks
76.973610 17.000000
90.257610 17.000000
109.027700 40.000000
115.056060 17.000000
121.028790 80.000000
127.039070 26.000000
127.375760 20.000000
128.069530 17.000000
139.037690 144.000000
139.048310 27.000000
140.035770 39.000000
140.045410 19.000000
145.065340 23.000000
147.047520 18.000000
149.023970 610.000000
149.035780 30.000000
150.023730 49.000000
150.034610 44.000000
151.041350 17.000000
152.031890 18.000000
153.018370 625.000000
155.022980 22.000000
155.053540 20.000000
163.034360 21.000000
166.024630 38.000000
167.031830 39.000000
173.060410 43.000000
173.072160 45.000000
177.020940 18.000000
179.031910 18.000000
183.038540 20.000000
193.053920 17.000000
194.990600 20.000000
195.003660 17.000000
195.027440 247.000000
200.048110 25.000000
201.055530 37.000000
214.022960 20.000000
219.021040 25.000000
219.032290 18.000000
219.041950 25.000000
220.035980 23.000000
229.007980 19.000000
229.051440 165.000000
239.030780 20.000000
240.141540 18.000000
247.027590 22.000000
247.063000 79.000000
247.078220 26.000000
248.064300 20.000000
257.041170 59.000000
261.023620 18.000000
261.042600 20.000000
262.029600 18.000000
274.023960 18.000000
275.055420 305.000000
275.073210 56.000000
275.244750 18.000000
276.057160 37.000000
303.039920 93.000000
303.051450 206.000000
304.050570 18.000000
304.069310 24.000000
321.063140 733.000000

