>compound PR84487806
>parentmass 479.1184026
>ionization [M+H]+
>formula C22H22O12
>rt 263.584980
>profile qtof
#smiles_iso COC1=C(C=CC(=C1)C2=C(C(=O)C3=C(C=C(C=C3O2)O)O)O[C@H]4[C@@H]([C@H]([C@@H]([C@H](O4)CO)O)O)O)O
#smiles_can COC1=C(C=CC(=C1)C2=C(C(=O)C3=C(C=C(C=C3O2)O)O)OC4C(C(C(C(O4)CO)O)O)O)O
#inchikey CQLRUIIRRZYHHS-LFXZADKFSA-N
#pubchem_id 5318645
#mb_accession PR302933,PR302938,PR302943,PR302948,PR302953,PR302958,PR302963,PR302968,PR302973,PR302978,PR302983,PR302988

>ms2peaks
85.028570 7.000000
97.027860 10.000000
127.041530 15.000000
140.040540 8.000000
145.047940 12.000000
165.025270 13.000000
229.054500 11.000000
273.049220 9.000000
274.037720 27.000000
274.053100 10.000000
285.047760 13.000000
302.038090 54.000000
303.008880 8.000000
304.048400 14.000000
304.067500 10.000000
313.423650 8.000000
317.025910 21.000000
317.042660 40.000000
317.066470 1000.000000
318.061650 66.000000
318.071930 160.000000
319.058070 23.000000
319.082370 49.000000
321.611720 7.000000
329.070100 16.000000
479.109310 24.000000
479.135310 18.000000

>ms2peaks
200.297740 8.000000
276.329860 14.000000
303.153200 7.000000
317.015690 7.000000
317.030330 14.000000
317.064730 1000.000000
317.122650 12.000000
317.440220 13.000000
317.950100 6.000000
318.054810 32.000000
318.068940 130.000000
318.079590 45.000000
319.065860 18.000000
319.082030 17.000000
320.066650 9.000000
320.244480 7.000000
361.092320 8.000000
461.090790 10.000000
479.119020 272.000000

>ms2peaks
85.027440 76.000000
85.034930 17.000000
102.294600 9.000000
109.030630 8.000000
127.039730 11.000000
135.048540 16.000000
145.045900 13.000000
167.022960 9.000000
168.026430 8.000000
175.809330 23.000000
229.064930 14.000000
231.032320 11.000000
264.743900 11.000000
267.029390 13.000000
285.048490 25.000000
286.035610 12.000000
286.061160 12.000000
302.043760 22.000000
317.011470 28.000000
317.067570 1000.000000
317.710970 8.000000
318.028080 13.000000
318.068300 255.000000
319.064640 10.000000
319.090550 14.000000
322.474000 13.000000
329.056730 16.000000
329.084290 11.000000

>ms2peaks
69.031840 70.000000
87.044040 88.000000
92.025500 81.000000
93.029780 98.000000
93.036540 147.000000
97.028920 77.000000
99.042720 60.000000
109.031420 137.000000
121.030330 186.000000
126.027600 88.000000
133.032360 102.000000
139.033250 102.000000
139.042390 116.000000
151.037320 211.000000
153.018220 1000.000000
164.793470 112.000000
200.045120 63.000000
201.053130 172.000000
211.028030 70.000000
224.358690 70.000000
228.038830 196.000000
229.046230 74.000000
229.057850 182.000000
230.050830 81.000000
245.032320 95.000000
245.043080 123.000000
246.049320 154.000000
246.060090 235.000000
257.039980 70.000000
260.017580 70.000000
273.030460 337.000000
274.045040 677.000000
280.743230 60.000000
284.025760 172.000000
284.041350 91.000000
285.038270 126.000000
301.045440 116.000000
302.033600 140.000000
302.042880 179.000000
302.059910 368.000000
313.076900 88.000000
315.047580 88.000000
317.056270 137.000000
317.074340 140.000000
318.046110 60.000000
318.072020 158.000000
368.032320 63.000000

>ms2peaks
85.028530 30.000000
98.031620 9.000000
100.048130 6.000000
115.040320 6.000000
118.076000 6.000000
121.029810 8.000000
127.033330 14.000000
127.041480 11.000000
139.033080 8.000000
145.043230 8.000000
146.050830 7.000000
153.016170 8.000000
183.046590 7.000000
245.041380 6.000000
257.054290 11.000000
264.398500 5.000000
274.036930 6.000000
274.049650 16.000000
276.058840 11.000000
276.475980 6.000000
285.037960 5.000000
285.046690 16.000000
302.027220 14.000000
302.044530 80.000000
303.052090 11.000000
304.049770 7.000000
307.680690 6.000000
316.989170 12.000000
317.021180 17.000000
317.067290 1000.000000
317.999510 5.000000
318.068360 251.000000
319.058320 6.000000
319.075470 40.000000
413.085360 5.000000
479.111300 48.000000
479.136720 13.000000

>ms2peaks
317.017820 18.000000
317.033780 21.000000
317.066040 1000.000000
318.068760 174.000000
319.061950 17.000000
319.077670 11.000000
409.912990 6.000000
479.060970 6.000000
479.117430 232.000000

>ms2peaks
81.035320 6.000000
85.025380 20.000000
85.032280 7.000000
97.027820 18.000000
98.032010 10.000000
109.033680 6.000000
115.037600 9.000000
120.018780 12.000000
127.037950 14.000000
139.043720 11.000000
145.052580 7.000000
153.019730 11.000000
154.021330 5.000000
163.035340 5.000000
193.994960 8.000000
258.062410 7.000000
260.057250 5.000000
271.078030 6.000000
285.033750 18.000000
285.049560 9.000000
285.961880 7.000000
302.035680 35.000000
302.046360 26.000000
302.064610 5.000000
316.973020 5.000000
317.000850 28.000000
317.034970 31.000000
317.064760 1000.000000
317.649170 6.000000
318.020570 9.000000
318.033940 6.000000
318.048710 16.000000
318.067540 98.000000
318.080660 62.000000
319.055850 5.000000
319.083220 30.000000

>ms2peaks
69.031900 100.000000
85.033130 142.000000
92.027290 185.000000
93.028210 46.000000
93.036050 50.000000
99.035750 57.000000
109.027990 59.000000
111.002050 48.000000
119.002780 48.000000
121.028420 64.000000
123.048020 98.000000
126.030210 53.000000
127.020730 57.000000
127.040630 39.000000
127.053740 64.000000
137.018550 55.000000
139.152660 75.000000
148.015780 62.000000
149.020190 46.000000
151.036730 107.000000
153.018570 1000.000000
154.006240 153.000000
154.022660 59.000000
160.052750 78.000000
163.032230 68.000000
177.061000 41.000000
191.054810 55.000000
199.039630 41.000000
201.057980 57.000000
201.070400 43.000000
202.062710 59.000000
204.053220 91.000000
217.056580 123.000000
228.025970 43.000000
228.037000 110.000000
228.054060 46.000000
229.029080 48.000000
229.045640 153.000000
229.056500 107.000000
231.027330 89.000000
231.047240 183.000000
245.032610 100.000000
245.050020 228.000000
246.044370 46.000000
271.047580 39.000000
273.035920 183.000000
273.050900 162.000000
274.032170 112.000000
274.043610 130.000000
275.064330 43.000000
284.016910 59.000000
284.035280 142.000000
285.014560 46.000000
285.040010 146.000000
286.058530 87.000000
288.066860 71.000000
302.042390 397.000000
317.066740 279.000000
389.332760 39.000000

>ms2peaks
85.022040 10.000000
85.030130 9.000000
91.038640 5.000000
123.939360 6.000000
124.044150 7.000000
127.034910 6.000000
139.032810 6.000000
145.049390 13.000000
165.019270 9.000000
213.051160 5.000000
217.067030 5.000000
257.048830 5.000000
274.042330 16.000000
274.062900 6.000000
285.043120 27.000000
288.024750 7.000000
302.038210 78.000000
316.640350 5.000000
317.039400 21.000000
317.066990 1000.000000
318.069790 145.000000
319.068820 8.000000
341.060880 10.000000
359.348690 8.000000
377.475560 6.000000
479.092250 18.000000
479.127870 46.000000

>ms2peaks
195.675930 5.000000
202.911740 10.000000
302.043670 6.000000
317.065310 1000.000000
318.022770 5.000000
318.068120 222.000000
319.077210 27.000000
479.089780 36.000000
479.120510 249.000000

>ms2peaks
61.028290 12.000000
81.029690 7.000000
85.016600 13.000000
85.025790 13.000000
86.033220 9.000000
127.047720 11.000000
139.042880 7.000000
183.733860 5.000000
222.026860 8.000000
229.055510 8.000000
246.057420 8.000000
275.052120 7.000000
276.737950 5.000000
285.011380 10.000000
285.035800 14.000000
286.040920 7.000000
287.054140 8.000000
302.030000 21.000000
302.053590 58.000000
315.887270 5.000000
316.990970 6.000000
317.016020 7.000000
317.065980 1000.000000
318.035280 11.000000
318.069000 173.000000
319.074830 42.000000
320.080810 7.000000
329.064120 9.000000

>ms2peaks
57.035020 62.000000
69.033850 77.000000
79.629200 36.000000
82.768870 104.000000
85.023660 38.000000
85.028930 38.000000
87.668450 41.000000
92.023950 70.000000
93.032000 139.000000
96.016430 81.000000
97.027110 72.000000
117.025650 51.000000
121.029200 51.000000
123.021290 79.000000
126.028020 64.000000
126.041770 51.000000
127.040050 45.000000
133.026690 53.000000
137.025310 62.000000
139.017170 47.000000
144.999680 70.000000
151.038410 122.000000
153.019090 1000.000000
154.028140 179.000000
155.047390 94.000000
165.021030 102.000000
179.091030 45.000000
187.975810 94.000000
200.049560 75.000000
201.051710 51.000000
203.031430 34.000000
203.040440 75.000000
213.055470 60.000000
217.041200 87.000000
218.030790 66.000000
218.064010 43.000000
228.035260 64.000000
228.043010 260.000000
229.053970 301.000000
229.064120 147.000000
229.442600 38.000000
230.051060 43.000000
231.029160 70.000000
232.041890 49.000000
233.046460 36.000000
235.807370 47.000000
243.028530 41.000000
245.037230 55.000000
245.050050 190.000000
246.031690 98.000000
246.045210 122.000000
246.057430 119.000000
247.048230 75.000000
257.007080 96.000000
257.042020 186.000000
258.052000 220.000000
261.852540 36.000000
271.816010 47.000000
273.018590 81.000000
273.035310 149.000000
274.027010 62.000000
274.049190 454.000000
275.043880 102.000000
284.039150 134.000000
285.039090 156.000000
286.063350 68.000000
289.064030 87.000000
301.020510 49.000000
301.038270 43.000000
302.032440 320.000000
302.046690 79.000000
303.053340 53.000000
317.009640 55.000000
317.060550 92.000000
317.073390 217.000000
319.073120 62.000000

