>compound PR85246531
>parentmass 389.14422340000004
>ionization [M+H]+
>formula C17H24O10
>rt 205.234980
>profile qtof
#smiles_iso COC(=O)C1=CO[C@H]([C@H]2[C@@H]1CC=C2CO)O[C@H]3C([C@@H]([C@@H](C(O3)CO)O)O)O
#smiles_can COC(=O)C1=COC(C2C1CC=C2CO)OC3C(C(C(C(O3)CO)O)O)O
#inchikey IBFYXTRXDNAPMM-VWSFEJNESA-N
#pubchem_id 78358483
#mb_accession PR303510,PR303511,PR303512,PR303513,PR303514,PR303515,PR303516

>ms2peaks
149.056060 338.000000
149.067370 301.000000
149.919740 86.000000
177.047850 230.000000
177.061840 141.000000
181.088640 160.000000
191.058380 67.000000
191.069200 145.000000
195.072860 93.000000
209.083740 1000.000000
210.087520 67.000000
227.078000 86.000000
227.093600 115.000000
353.134700 108.000000

>ms2peaks
63.395300 49.000000
177.047420 205.000000
178.056030 63.000000
181.089840 58.000000
191.064580 54.000000
195.077380 56.000000
207.070130 107.000000
209.067230 103.000000
209.081970 1000.000000
210.078370 40.000000
210.087520 128.000000
227.090420 671.000000
228.091080 42.000000
322.090450 54.000000
371.143430 128.000000

>ms2peaks
81.069600 96.000000
149.064470 48.000000
177.049740 105.000000
181.086290 116.000000
191.070250 119.000000
202.130290 51.000000
209.078310 811.000000
209.086850 1000.000000
209.145320 48.000000
210.077010 155.000000
210.089460 203.000000
227.088010 554.000000
227.096970 297.000000
228.091720 189.000000
251.104720 59.000000
372.139560 62.000000
373.148990 107.000000

>ms2peaks
73.029960 45.000000
85.027250 122.000000
91.054470 80.000000
103.059100 56.000000
109.027790 53.000000
121.044200 61.000000
121.055660 53.000000
121.064430 127.000000
131.051880 95.000000
133.565140 48.000000
149.059450 1000.000000
149.065440 329.000000
150.066100 58.000000
151.060330 50.000000
158.039870 48.000000
160.043640 48.000000
177.056990 573.000000
191.068800 170.000000
192.070300 45.000000
209.081100 45.000000

>ms2peaks
82.070950 103.000000
85.027210 263.000000
86.033130 93.000000
93.070060 129.000000
103.048550 242.000000
103.055780 186.000000
117.068020 88.000000
119.053610 186.000000
121.063810 1000.000000
122.064280 98.000000
132.053300 134.000000
140.592090 103.000000
149.058400 201.000000
235.871950 93.000000

>ms2peaks
110.066610 79.000000
121.052860 140.000000
121.065860 79.000000
149.058410 328.000000
159.042630 87.000000
174.909230 83.000000
177.050420 445.000000
181.081790 148.000000
191.055630 122.000000
191.065430 83.000000
209.077900 1000.000000
209.084820 432.000000
210.073970 114.000000
211.080810 183.000000
227.080140 214.000000
227.090990 240.000000

>ms2peaks
71.013150 789.000000
77.014290 263.000000
78.042180 395.000000
81.039090 276.000000
91.046750 263.000000
91.053700 276.000000
93.073340 947.000000
103.055420 697.000000
104.060350 276.000000
104.064690 329.000000
121.063450 1000.000000
121.185390 276.000000
122.068530 329.000000
131.044130 276.000000
131.051800 447.000000
147.044280 316.000000
149.061710 237.000000

