>compound PR85931077
>parentmass 276.1706534
>ionization [M+H]+
>formula C15H21N3O2
>rt 198.714000
>profile qtof
#smiles_iso C[C@@]12CCN([C@@H]1N(C3=C2C=C(C=C3)OC(=O)NC)C)C
#smiles_can CC12CCN(C1N(C3=C2C=C(C=C3)OC(=O)NC)C)C
#inchikey PIJVFDBKTWXHHD-HIFRSBDPSA-N
#pubchem_id 5983
#mb_accession PR301400,PR301404,PR301408,PR301412,PR301416,PR301420,PR301424,PR301428,PR301435,PR301439,PR301443

>ms2peaks
119.070670 6.000000
132.083820 6.000000
133.061800 5.000000
134.100740 29.000000
134.108370 11.000000
134.674550 5.000000
144.078780 7.000000
144.088240 13.000000
145.095640 5.000000
146.051030 6.000000
146.065350 21.000000
147.053280 14.000000
147.068010 251.000000
147.327680 7.000000
148.073870 18.000000
148.114150 5.000000
159.265720 8.000000
160.068560 14.000000
160.077590 17.000000
160.086850 12.000000
161.075610 30.000000
161.084790 118.000000
162.064680 10.000000
162.092090 1000.000000
163.077070 16.000000
163.095290 121.000000
164.096560 17.000000
172.073650 14.000000
172.082210 7.000000
173.081390 73.000000
174.086910 9.000000
176.090940 9.000000
176.107240 229.000000
177.103970 35.000000
177.113370 16.000000
182.698520 5.000000
187.128140 6.000000
188.107270 72.000000
188.121860 6.000000
189.111430 9.000000
190.115400 8.000000
203.120710 6.000000
204.120070 12.000000
204.148470 10.000000
206.489730 5.000000
218.137570 13.000000
219.061650 5.000000
219.080470 10.000000
219.111680 747.000000
219.137130 11.000000
219.151860 47.000000
219.166980 5.000000
220.095030 7.000000
220.114670 129.000000
220.155180 18.000000
232.173110 8.000000
233.128230 38.000000
233.144530 5.000000
233.182770 6.000000
234.132950 6.000000
245.131620 21.000000
260.018040 6.000000
274.161680 5.000000
276.169830 222.000000

>ms2peaks
162.090420 74.000000
163.093110 14.000000
218.148650 13.000000
219.086580 9.000000
219.113950 1000.000000
219.151320 6.000000
220.116810 157.000000
221.117460 15.000000
233.132840 49.000000
276.142060 14.000000
276.171420 556.000000

>ms2peaks
58.066930 5.000000
93.067180 6.000000
107.090070 6.000000
117.066800 18.000000
133.059980 11.000000
133.086760 6.000000
134.058000 9.000000
134.096270 48.000000
134.105940 8.000000
144.089610 9.000000
145.061360 6.000000
145.081120 5.000000
145.092220 7.000000
146.056410 18.000000
147.067640 356.000000
147.531430 5.000000
148.069550 16.000000
149.068950 5.000000
160.068770 17.000000
160.080840 49.000000
160.163130 9.000000
161.064330 13.000000
161.082690 208.000000
162.091720 1000.000000
163.012760 5.000000
163.097120 116.000000
163.104690 27.000000
164.095210 27.000000
170.954700 6.000000
173.069410 18.000000
173.082350 17.000000
173.087520 6.000000
174.060490 6.000000
174.093320 22.000000
176.105740 186.000000
176.113010 89.000000
176.129230 5.000000
177.106320 34.000000
187.120300 12.000000
188.107450 98.000000
188.126450 5.000000
189.106690 9.000000
190.119230 9.000000
199.554900 11.000000
219.143220 8.000000
219.152400 17.000000
219.164610 6.000000
220.141170 6.000000
220.153350 8.000000
221.142550 5.000000
223.408330 9.000000

>ms2peaks
67.056560 27.000000
71.324710 31.000000
77.038170 30.000000
92.059720 23.000000
93.070160 25.000000
102.050040 30.000000
103.050700 66.000000
103.058730 50.000000
104.049840 19.000000
116.048000 27.000000
117.054250 19.000000
118.043750 25.000000
118.061730 106.000000
119.076450 22.000000
121.069220 20.000000
127.052840 67.000000
130.053050 19.000000
130.064770 26.000000
131.413160 23.000000
132.052290 34.000000
132.086400 44.000000
134.093000 41.000000
134.104800 23.000000
143.072020 23.000000
144.080320 54.000000
145.049820 20.000000
145.058990 37.000000
145.076720 25.000000
145.086140 62.000000
145.819750 20.000000
146.059810 730.000000
146.090930 23.000000
146.096650 40.000000
146.110980 28.000000
147.068150 1000.000000
148.061490 21.000000
148.073910 23.000000
149.629780 20.000000
156.082230 37.000000
158.054670 25.000000
160.071580 205.000000
160.081310 268.000000
161.072310 31.000000
161.080120 106.000000
161.087050 148.000000
162.084590 22.000000
162.091930 57.000000
162.098770 47.000000
172.077450 96.000000
172.097920 46.000000
173.063200 26.000000
173.076370 63.000000
173.090360 85.000000
174.086900 50.000000
176.094850 34.000000
176.108780 40.000000
187.116640 32.000000
189.104140 23.000000
203.123960 19.000000
233.934980 22.000000

>ms2peaks
118.065280 6.000000
134.099850 12.000000
144.084630 10.000000
145.070210 13.000000
145.091340 9.000000
146.055950 18.000000
146.065460 9.000000
147.068620 259.000000
147.547550 5.000000
148.048980 9.000000
148.068940 21.000000
160.074680 13.000000
161.072650 20.000000
161.086110 84.000000
161.119960 7.000000
162.069440 9.000000
162.092030 1000.000000
163.086380 10.000000
163.097080 80.000000
164.096820 12.000000
164.108800 8.000000
172.077870 7.000000
173.082000 39.000000
173.091900 10.000000
174.095870 6.000000
176.103990 105.000000
176.111470 60.000000
177.102950 15.000000
177.118640 13.000000
188.108120 65.000000
190.113740 7.000000
219.111660 822.000000
219.147320 29.000000
219.156100 26.000000
220.099960 7.000000
220.114810 114.000000
220.146770 6.000000
221.109500 5.000000
221.116960 6.000000
232.191960 12.000000
233.114590 8.000000
233.129170 58.000000
235.130600 10.000000
246.135130 9.000000
276.161990 74.000000
276.177730 172.000000

>ms2peaks
162.093460 117.000000
163.097980 16.000000
176.105970 14.000000
218.136700 8.000000
218.149220 8.000000
219.113170 1000.000000
219.154340 8.000000
220.116100 178.000000
221.121020 18.000000
233.128920 82.000000
234.128300 13.000000
235.121190 6.000000
245.132130 8.000000
276.138610 15.000000
276.170840 547.000000

>ms2peaks
105.071530 5.000000
118.066120 7.000000
121.066860 11.000000
131.131100 5.000000
132.248810 6.000000
134.097430 33.000000
144.079210 8.000000
145.086170 5.000000
146.056550 12.000000
147.042340 5.000000
147.051470 20.000000
147.067400 366.000000
147.081530 18.000000
147.652790 7.000000
148.066540 35.000000
148.077930 16.000000
160.074420 40.000000
161.084000 169.000000
162.091720 1000.000000
163.077300 8.000000
163.089720 63.000000
163.096190 96.000000
164.096210 18.000000
165.105470 8.000000
172.099550 6.000000
173.085190 69.000000
174.095960 8.000000
176.105030 207.000000
176.112630 91.000000
177.078750 6.000000
177.113270 35.000000
187.122500 10.000000
188.095580 9.000000
188.107240 115.000000
189.107470 8.000000
204.125320 14.000000
204.154140 7.000000
205.131480 7.000000
219.144330 15.000000

>ms2peaks
77.038760 79.000000
78.043790 27.000000
78.048420 22.000000
93.066090 21.000000
104.049700 57.000000
104.064390 21.000000
108.081220 70.000000
113.038540 26.000000
117.070380 29.000000
118.062730 69.000000
119.075790 22.000000
120.080700 63.000000
121.080330 24.000000
127.058160 65.000000
130.037110 22.000000
130.062910 19.000000
132.068270 33.000000
132.079910 42.000000
133.086070 21.000000
134.092790 24.000000
135.099110 27.000000
144.050870 25.000000
145.053710 94.000000
146.060790 872.000000
147.067490 1000.000000
147.083620 55.000000
148.072020 45.000000
148.715000 24.000000
149.117630 31.000000
149.397200 19.000000
155.072560 24.000000
158.050250 23.000000
158.058440 31.000000
160.056180 33.000000
160.072430 274.000000
160.078670 241.000000
161.080170 142.000000
161.085800 64.000000
161.118450 32.000000
162.089660 91.000000
162.099110 22.000000
172.075150 19.000000
172.085660 25.000000
172.104510 26.000000
173.074870 22.000000
173.084930 123.000000
173.101930 25.000000
176.111430 30.000000
178.117510 21.000000
187.122180 21.000000
187.134260 34.000000
201.126590 35.000000
213.435360 21.000000
239.433760 38.000000
250.668090 26.000000

>ms2peaks
162.091690 91.000000
163.094360 6.000000
176.109950 13.000000
218.141490 6.000000
219.113100 1000.000000
220.116420 186.000000
232.179520 6.000000
233.129750 64.000000
234.129780 10.000000
234.139820 7.000000
245.126650 12.000000
276.135680 6.000000
276.170680 559.000000

>ms2peaks
119.069650 9.000000
124.053650 6.000000
127.816080 7.000000
133.066730 6.000000
134.096360 61.000000
144.078630 30.000000
145.069260 19.000000
146.055630 6.000000
146.062700 7.000000
146.070250 9.000000
147.067920 361.000000
148.070600 9.000000
160.075560 17.000000
160.099810 12.000000
161.083710 159.000000
161.133380 7.000000
162.091750 1000.000000
162.119110 6.000000
163.092220 79.000000
163.100490 19.000000
164.097530 17.000000
172.077060 7.000000
173.086820 34.000000
174.086260 22.000000
176.107160 228.000000
177.094420 9.000000
177.109300 10.000000
178.112920 11.000000
188.098300 21.000000
188.109310 117.000000
189.098880 6.000000
189.112670 12.000000
191.121860 7.000000
203.116810 11.000000
204.126360 18.000000
219.144680 21.000000
219.161800 9.000000
232.175350 6.000000

>ms2peaks
77.040520 23.000000
79.053990 37.000000
91.049240 24.000000
93.074200 24.000000
94.070350 55.000000
97.080950 23.000000
103.055130 56.000000
103.061110 23.000000
104.061770 24.000000
105.071770 40.000000
107.287900 23.000000
115.058170 33.000000
116.052140 28.000000
117.064080 28.000000
117.070120 32.000000
118.062360 95.000000
118.068330 63.000000
119.074070 33.000000
120.055600 28.000000
120.084430 32.000000
121.066430 32.000000
121.071040 51.000000
128.046050 40.000000
128.066680 25.000000
131.049990 47.000000
131.073930 51.000000
132.030980 31.000000
132.075670 29.000000
132.084380 65.000000
133.060680 23.000000
133.078490 29.000000
134.053650 27.000000
134.078570 27.000000
140.738340 52.000000
145.057620 24.000000
145.067120 41.000000
146.053190 92.000000
146.061770 482.000000
147.048430 57.000000
147.068500 1000.000000
147.109480 39.000000
148.070070 23.000000
148.080120 64.000000
154.062960 31.000000
154.070540 23.000000
159.583070 24.000000
160.077450 433.000000
161.078830 209.000000
161.087330 242.000000
161.111370 23.000000
161.698680 25.000000
162.069170 24.000000
162.093800 123.000000
172.057690 49.000000
172.072890 35.000000
172.085690 87.000000
173.078200 24.000000
173.086410 57.000000
174.087690 144.000000
188.100920 44.000000
189.105610 49.000000

