>compound PR85198137
>parentmass 565.1534
>ionization [M+H]+
>formula C26H28O14
>rt 252.600000
>profile qtof
#smiles_iso C1C(C(C(C(O1)C2=C(C3=C(C=C2O)OC(=CC3=O)C4=CC=C(C=C4)O)O)OC5C(C(C(C(O5)CO)O)O)O)O)O
#smiles_can C1C(C(C(C(O1)C2=C(C3=C(C=C2O)OC(=CC3=O)C4=CC=C(C=C4)O)O)OC5C(C(C(C(O5)CO)O)O)O)O)O
#inchikey LOCBOCXGFMHGIJ-UHFFFAOYSA-N
#pubchem_id 74977452
#mb_accession PR310978

>ms2
97.026840 20.000000
165.001070 17.000000
231.019270 16.000000
283.054720 317.000000
283.069270 87.000000
284.061280 78.000000
284.075470 18.000000
285.061490 20.000000
296.062190 18.000000
309.080660 64.000000
310.080110 31.000000
311.091770 25.000000
313.067110 141.000000
314.059880 28.000000
314.074800 27.000000
315.087620 16.000000
316.109100 28.000000
317.010130 25.000000
321.076570 102.000000
332.093200 19.000000
334.326870 16.000000
337.003480 16.000000
337.060700 181.000000
337.076230 166.000000
338.084630 41.000000
339.092070 51.000000
348.940830 19.000000
349.044040 19.000000
349.067080 181.000000
349.082210 54.000000
350.084590 17.000000
367.022550 20.000000
367.062160 89.000000
367.078860 151.000000
367.091460 83.000000
368.085270 180.000000
368.107210 19.000000
368.181820 17.000000
370.766660 20.000000
385.050450 17.000000
385.082860 16.000000
385.100920 52.000000
386.045500 24.000000
386.095670 16.000000
403.100770 662.000000
404.106260 69.000000
405.111110 56.000000
547.156430 18.000000
565.053040 17.000000
565.086180 18.000000
565.148320 1024.000000

