>compound PR85170092
>parentmass 454.2928
>ionization [M+H]+
>formula C21H44NO7P
>rt 601.200000
>profile qtof
#smiles_iso CCCCCCCCCCCCCCCC(=O)OCC(COP(=O)(O)OCCN)O
#smiles_can CCCCCCCCCCCCCCCC(=O)OCC(COP(=O)(O)OCCN)O
#inchikey YVYMBNSKXOXSKW-UHFFFAOYSA-N
#pubchem_id 89229
#mb_accession PR310833

>ms2
62.060390 60.000000
98.984520 22.000000
240.211230 16.000000
283.280270 42.000000
313.271910 250.000000
314.285740 96.000000
375.261870 16.000000
436.267700 77.000000
436.297300 70.000000
438.277920 17.000000
439.301360 37.000000
454.260800 37.000000
454.281220 162.000000
454.299530 99.000000
454.324580 17.000000

