>compound PR85934526
>parentmass 567.0998
>ionization [M+H]+
>formula C24H22O16
>rt 232.800000
>profile qtof
#smiles_iso C1=C(C=C2C(=C1O)C(=O)C(=C(O2)C3=CC(=C(C=C3O)O)O)OC4C(C(C(C(O4)COC(=O)CC(=O)O)O)O)O)O
#smiles_can C1=C(C=C2C(=C1O)C(=O)C(=C(O2)C3=CC(=C(C=C3O)O)O)OC4C(C(C(C(O4)COC(=O)CC(=O)O)O)O)O)O
#inchikey HPUSNSBFKNJRQA-UHFFFAOYSA-N
#pubchem_id 139291878
#mb_accession PR311009

>ms2peaks
53.032830 23.000000
85.021550 25.000000
85.027640 27.000000
85.033220 25.000000
87.005840 25.000000
97.027650 44.000000
105.022100 18.000000
109.028650 17.000000
109.034690 34.000000
127.038240 78.000000
145.047760 18.000000
153.016680 49.000000
159.030180 41.000000
193.016530 21.000000
201.041500 19.000000
233.239180 21.000000
267.029210 24.000000
285.335540 26.000000
301.123050 20.000000
317.062500 26.000000
317.679110 17.000000
318.032870 25.000000
319.019470 39.000000
319.044530 1033.000000
320.018280 18.000000
320.051700 50.000000
321.054290 31.000000
329.043700 49.000000
330.029270 21.000000
345.519560 33.000000
349.061550 19.000000
381.095150 17.000000
411.081880 18.000000
427.076350 17.000000
428.100130 20.000000
470.109770 41.000000
475.091370 19.000000
565.185670 20.000000
566.161500 22.000000
567.079350 67.000000
567.103030 205.000000

