>compound PR85881164
>parentmass 169.0760243384616
>ionization [M+H]+
>formula C11H8N2
>rt 208.994788
>profile qtof
#smiles_iso C1=CC=C2C(=C1)C3=C(N2)C=NC=C3
#smiles_can C1=CC=C2C(=C1)C3=C(N2)C=NC=C3
#inchikey AIFRHYZBTHREPW-UHFFFAOYSA-N
#pubchem_id 64961
#mb_accession PR301813,PR301817,PR301821,PR301825,PR301829,PR301831,PR301835,PR301838,PR301842,PR301846,PR301849,PR301852,PR310509

>ms2
115.050420 17.000000
115.055640 45.000000
116.050940 8.000000
142.065660 8.000000
168.067580 27.000000
169.076220 1000.000000
169.114240 12.000000

>ms2
169.041600 6.000000
169.075990 1000.000000
169.112200 24.000000

>ms2
89.040450 8.000000
91.055400 5.000000
114.045960 8.000000
115.031110 10.000000
115.054050 638.000000
116.041880 13.000000
116.051920 24.000000
116.056640 26.000000
116.062280 36.000000
117.059920 20.000000
123.796240 5.000000
129.049350 7.000000
140.044800 16.000000
140.052950 39.000000
141.057850 41.000000
142.060260 67.000000
142.067120 75.000000
142.085190 5.000000
143.066620 15.000000
152.052020 6.000000
152.359860 7.000000
153.063920 8.000000
157.345700 7.000000
167.052050 17.000000
167.068310 8.000000
167.989580 8.000000
168.053800 13.000000
168.063460 64.000000
168.070220 201.000000
169.075550 1000.000000

>ms2
63.023040 43.000000
89.028590 42.000000
89.035920 144.000000
89.044010 38.000000
114.042680 63.000000
115.050900 391.000000
115.056180 1000.000000
116.051380 40.000000
127.037090 34.000000
140.044780 75.000000
141.055800 75.000000
142.057970 42.000000
168.067090 43.000000
168.076750 34.000000
169.064940 38.000000
169.081240 146.000000

>ms2
115.055190 54.000000
116.062300 6.000000
142.064420 9.000000
168.067290 34.000000
169.049840 6.000000
169.076250 1000.000000
169.112810 15.000000

>ms2
169.076290 1000.000000
169.113250 32.000000

>ms2
75.995320 5.000000
89.043490 13.000000
113.033300 12.000000
114.046940 9.000000
115.032360 8.000000
115.053590 756.000000
116.045050 53.000000
116.055930 79.000000
116.067920 9.000000
128.046490 11.000000
128.067340 5.000000
140.047580 46.000000
140.062210 12.000000
141.023740 9.000000
141.047210 13.000000
141.055020 34.000000
142.053650 7.000000
142.065960 105.000000
143.045200 6.000000
143.065020 5.000000
147.489230 7.000000
150.416310 10.000000
152.047780 17.000000
153.047490 6.000000
167.060990 24.000000
168.033630 7.000000
168.065930 201.000000
168.074690 90.000000
169.031540 9.000000
169.049240 7.000000
169.075420 1000.000000

>ms2
89.040070 35.000000
114.046580 107.000000
114.949580 30.000000
115.054470 1000.000000
116.050540 42.000000
116.056720 35.000000
116.824150 30.000000
117.060350 77.000000
140.050090 32.000000
140.067660 35.000000
141.041320 54.000000
141.052430 46.000000
142.072620 30.000000
168.059230 88.000000
168.071490 61.000000
169.066350 125.000000
169.076450 225.000000

>ms2
115.055020 52.000000
142.067400 13.000000
168.068040 28.000000
169.076480 1000.000000
169.113510 20.000000

>ms2
169.076420 1000.000000
169.113220 33.000000

>ms2
77.040650 9.000000
85.463460 5.000000
89.038620 10.000000
91.057350 5.000000
93.061820 5.000000
93.454300 8.000000
114.045670 6.000000
114.050260 14.000000
115.039510 23.000000
115.053880 784.000000
116.055170 69.000000
117.048120 9.000000
117.054500 15.000000
117.269220 6.000000
129.055450 11.000000
130.046390 6.000000
140.045930 28.000000
140.053560 34.000000
141.055050 21.000000
141.061840 37.000000
142.052380 20.000000
142.064610 129.000000
142.089870 6.000000
143.062760 11.000000
151.397610 8.000000
153.041920 5.000000
167.061690 32.000000
168.054170 12.000000
168.069150 285.000000
169.052600 13.000000
169.075710 1000.000000

>ms2
65.040050 49.000000
89.039990 45.000000
115.042890 54.000000
115.056950 1000.000000
116.055480 65.000000
140.055020 276.000000
141.047640 54.000000
141.060850 83.000000
142.041200 49.000000
142.073720 45.000000
166.065160 45.000000
167.067730 74.000000
168.069380 173.000000
169.062180 61.000000
169.079990 224.000000

>ms2
55.713150 26.000000
64.020100 24.000000
89.038190 17.000000
89.767700 27.000000
96.964680 18.000000
97.127780 26.000000
111.984800 19.000000
111.989720 18.000000
114.047560 18.000000
114.918300 20.000000
115.050420 374.000000
115.055640 983.000000
116.041550 23.000000
116.050940 166.000000
116.061200 59.000000
127.054830 20.000000
128.041750 17.000000
129.887920 36.000000
140.043930 20.000000
140.050350 22.000000
142.059280 76.000000
142.065660 167.000000
143.067570 40.000000
143.825960 17.000000
151.287380 21.000000
153.041350 20.000000
165.767900 20.000000
166.047760 18.000000
167.060530 18.000000
168.049120 30.000000
168.067580 593.000000
168.843840 18.000000
169.021330 27.000000
169.037540 17.000000
169.050350 83.000000
169.076220 21959.000000
169.114240 266.000000
169.151150 18.000000

