>compound PR85498959
>parentmass 646.3221878000002
>ionization [M+H]+
>formula C34H47NO11
>rt 357.919980
>profile qtof
#smiles_iso CCN1C[C@@]2([C@@H](C[C@@H]([C@@]34[C@@H]2[C@H]([C@@H](C31)[C@@]5([C@@H]6[C@H]4C[C@@]([C@@H]6OC(=O)C7=CC=CC=C7)([C@H]([C@@H]5O)OC)O)OC(=O)C)OC)OC)O)COC
#smiles_can CCN1CC2(C(CC(C34C2C(C(C31)C5(C6C4CC(C6OC(=O)C7=CC=CC=C7)(C(C5O)OC)O)OC(=O)C)OC)OC)O)COC
#inchikey XFSBVAOIAHNAPC-XTHSEXKGSA-N
#pubchem_id 245005
#mb_accession PR300718,PR300722,PR300727,PR300732,PR300736,PR300741,PR300746,PR300751,PR300756,PR300760,PR300764,PR300768

>ms2peaks
105.034160 7.000000
368.183260 12.000000
526.282710 24.000000
536.264830 10.000000
554.267880 13.000000
554.291750 8.000000
555.281370 6.000000
586.299990 120.000000
587.304930 56.000000
588.314700 12.000000
646.224980 12.000000
646.257080 12.000000
646.322630 1000.000000
646.397580 13.000000

>ms2peaks
646.239500 6.000000
646.260930 12.000000
646.323730 1000.000000
646.398070 19.000000

>ms2peaks
105.035730 6.000000
368.187070 27.000000
369.187470 7.000000
494.254580 12.000000
522.257930 7.000000
526.282290 57.000000
527.282710 19.000000
536.267820 16.000000
554.254330 10.000000
554.279170 43.000000
555.279910 16.000000
586.211670 6.000000
586.243840 18.000000
586.302250 448.000000
586.355710 5.000000
587.259160 9.000000
587.304990 156.000000
587.323120 48.000000
588.282040 6.000000
588.311520 34.000000
588.330080 11.000000
589.317080 13.000000
596.289670 20.000000
646.232910 10.000000
646.262390 18.000000
646.324580 1000.000000

>ms2peaks
56.052070 8.000000
58.064940 22.000000
58.070040 14.000000
69.033740 7.000000
71.065250 6.000000
72.088270 9.000000
75.042210 6.000000
75.046200 12.000000
79.054770 13.000000
81.073500 6.000000
82.061290 6.000000
86.030820 5.000000
87.341910 7.000000
87.542710 13.000000
88.075710 13.000000
91.048640 9.000000
91.054360 5.000000
96.081710 15.000000
97.060840 8.000000
97.087330 9.000000
98.093200 10.000000
98.330510 6.000000
98.396380 7.000000
99.444480 7.000000
100.074910 8.000000
101.084910 8.000000
103.098180 6.000000
105.017230 16.000000
105.033970 1000.000000
105.081440 8.000000
105.604450 6.000000
106.036550 72.000000
108.080250 22.000000
108.089690 5.000000
108.784550 6.000000
109.068430 14.000000
110.062190 5.000000
110.096250 36.000000
111.082900 79.000000
112.084010 14.000000
113.079200 20.000000
115.046890 7.000000
115.059310 5.000000
115.071850 7.000000
116.060190 16.000000
116.073520 6.000000
117.057530 17.000000
117.064550 18.000000
117.072460 23.000000
118.074790 7.000000
119.051780 8.000000
121.033420 9.000000
122.054890 6.000000
122.098070 9.000000
122.104230 38.000000
123.042250 26.000000
123.079950 11.000000
124.068550 7.000000
124.077470 12.000000
125.705070 9.000000
127.076350 6.000000
129.063160 5.000000
129.072250 22.000000
130.075070 9.000000
130.950580 6.000000
131.048360 11.000000
131.084350 32.000000
132.088710 11.000000
133.060990 22.000000
133.068710 11.000000
133.090070 9.000000
133.099470 7.000000
134.057270 9.000000
134.090840 7.000000
135.041430 11.000000
135.076430 32.000000
135.098450 6.000000
136.051440 6.000000
136.105910 7.000000
137.060650 33.000000
138.080720 9.000000
138.092330 10.000000
139.044450 8.000000
140.078320 12.000000
140.104690 44.000000
141.071930 29.000000
141.079220 11.000000
142.081510 7.000000
142.114990 6.000000
142.121170 9.000000
144.102620 13.000000
144.919780 7.000000
145.002470 6.000000
145.067470 19.000000
145.087830 10.000000
146.040730 5.000000
146.056000 10.000000
146.074010 17.000000
146.090070 18.000000
146.103230 10.000000
147.026410 6.000000
147.036390 6.000000
147.044040 15.000000
147.050690 20.000000
147.059840 14.000000
147.075760 11.000000
147.085850 16.000000
148.078690 6.000000
148.117170 12.000000
149.073720 5.000000
149.102370 9.000000
149.118610 9.000000
149.849060 8.000000
151.066880 6.000000
151.078900 5.000000
152.067000 5.000000
152.103760 106.000000
152.122480 5.000000
153.063660 11.000000
153.092960 6.000000
154.077960 9.000000
155.085630 27.000000
156.077070 11.000000
156.092670 12.000000
157.101840 6.000000
158.100330 12.000000
159.076900 24.000000
159.109480 5.000000
160.080090 5.000000
160.098010 6.000000
160.113300 10.000000
160.121080 12.000000
161.018660 5.000000
161.067720 8.000000
161.078320 7.000000
161.095170 24.000000
161.118290 6.000000
162.074750 6.000000
162.092990 21.000000
162.125310 6.000000
163.070040 8.000000
163.102890 18.000000
164.102450 20.000000
165.043370 9.000000
165.069000 25.000000
166.078090 11.000000
167.081670 18.000000
167.099490 13.000000
169.069780 6.000000
171.040970 8.000000
171.059650 6.000000
171.075450 13.000000
171.093410 19.000000
171.108290 5.000000
172.089860 8.000000
172.111220 29.000000
172.127090 12.000000
173.092760 8.000000
173.100850 25.000000
173.117830 19.000000
174.088410 54.000000
174.100160 25.000000
174.115020 14.000000
174.125180 6.000000
175.071700 9.000000
175.082350 10.000000
175.109340 6.000000
175.121020 13.000000
176.048320 6.000000
176.101100 7.000000
177.047680 10.000000
178.066880 8.000000
178.082920 10.000000
178.114270 13.000000
178.123410 25.000000
178.362850 6.000000
179.083950 35.000000
179.090700 8.000000
179.123980 6.000000
179.133480 13.000000
181.067900 16.000000
181.089750 17.000000
182.095980 5.000000
182.112810 8.000000
183.102710 6.000000
184.048050 5.000000
184.076070 15.000000
184.086640 6.000000
184.104540 6.000000
184.126790 6.000000
185.065370 17.000000
185.091870 5.000000
185.107930 7.000000
185.118150 13.000000
186.109250 10.000000
186.123120 11.000000
186.132200 37.000000
187.078550 13.000000
187.130680 15.000000
187.137340 11.000000
188.071660 40.000000
188.098280 6.000000
188.140090 5.000000
189.079510 16.000000
189.094570 13.000000
189.118040 7.000000
190.077100 20.000000
190.088300 37.000000
190.101610 9.000000
190.120770 34.000000
190.130680 12.000000
190.143010 12.000000
191.073650 5.000000
191.084400 34.000000
191.095760 16.000000
191.115070 6.000000
191.128690 11.000000
192.093870 20.000000
192.140380 6.000000
193.085660 20.000000
193.102830 13.000000
193.111510 12.000000
194.073350 8.000000
194.085980 15.000000
194.096510 10.000000
194.109010 8.000000
195.093260 16.000000
195.103760 6.000000
195.113220 7.000000
196.094790 24.000000
196.144070 8.000000
197.090500 14.000000
197.123410 7.000000
198.102520 15.000000
198.120820 18.000000
198.129150 9.000000
199.087140 17.000000
199.107420 6.000000
200.078160 8.000000
200.107240 9.000000
201.097870 5.000000
202.065120 13.000000
202.077770 21.000000
202.089140 11.000000
202.125600 32.000000
202.986600 27.000000
203.061220 6.000000
203.073210 8.000000
203.087160 14.000000
203.114790 12.000000
204.022930 10.000000
204.088440 16.000000
204.103410 5.000000
205.092120 24.000000
205.102570 46.000000
205.119780 12.000000
205.145580 5.000000
206.074870 6.000000
206.094670 21.000000
207.067400 5.000000
207.076780 16.000000
207.087830 38.000000
207.106580 20.000000
207.121980 34.000000
208.089740 11.000000
208.113950 16.000000
209.076170 26.000000
209.091660 20.000000
209.107970 17.000000
210.081850 18.000000
210.125930 15.000000
211.095290 10.000000
211.123900 5.000000
212.143590 5.000000
213.089020 9.000000
213.100750 7.000000
213.116730 7.000000
214.087390 6.000000
215.070370 13.000000
215.084490 18.000000
215.094240 16.000000
215.110090 6.000000
215.127690 11.000000
216.098080 12.000000
216.131120 15.000000
217.081630 30.000000
217.099040 67.000000
217.155530 15.000000
218.008640 7.000000
218.062820 6.000000
218.095920 9.000000
218.107380 13.000000
218.143310 24.000000
218.157670 43.000000
219.070950 11.000000
219.110140 8.000000
219.149730 15.000000
220.101060 17.000000
220.127900 12.000000
221.053590 9.000000
221.064560 7.000000
221.102110 36.000000
222.105550 24.000000
223.070300 14.000000
223.094270 15.000000
223.111280 23.000000
224.117550 7.000000
225.085880 5.000000
225.098690 5.000000
225.120320 5.000000
226.057720 7.000000
226.119380 6.000000
226.140910 7.000000
227.104870 8.000000
227.124110 16.000000
227.882370 11.000000
228.083690 13.000000
228.145290 5.000000
229.076930 12.000000
229.088750 7.000000
229.107090 13.000000
229.137340 7.000000
230.108050 25.000000
230.162340 7.000000
231.080440 20.000000
231.096050 6.000000
231.105560 10.000000
233.061140 7.000000
233.078700 23.000000
233.090670 26.000000
233.103650 41.000000
233.988340 5.000000
234.090930 16.000000
234.100810 18.000000
234.117510 27.000000
234.134950 14.000000
234.147720 9.000000
234.157670 6.000000
234.237900 11.000000
235.060610 6.000000
235.076020 12.000000
235.086330 5.000000
235.113010 23.000000
235.128590 19.000000
236.061020 7.000000
236.084400 11.000000
236.110370 6.000000
236.123890 6.000000
236.139790 20.000000
236.154880 13.000000
236.170620 14.000000
237.070310 14.000000
237.087860 9.000000
237.098420 25.000000
237.126100 12.000000
237.132810 23.000000
237.149250 6.000000
237.300600 5.000000
238.097080 7.000000
238.120670 16.000000
239.095550 6.000000
239.108580 7.000000
239.124470 5.000000
239.608600 5.000000
240.102630 13.000000
241.105070 12.000000
241.146870 6.000000
242.080760 9.000000
242.095920 6.000000
242.147610 6.000000
243.118350 7.000000
245.073120 11.000000
245.090760 27.000000
245.114030 6.000000
245.178860 6.000000
246.093630 17.000000
246.620510 6.000000
247.052870 9.000000
247.107440 14.000000
247.158660 6.000000
247.633800 8.000000
247.978930 6.000000
248.087040 9.000000
248.102130 10.000000
249.082550 6.000000
249.097520 15.000000
249.113510 9.000000
249.131200 36.000000
250.080630 11.000000
250.095640 7.000000
250.132610 9.000000
250.187410 16.000000
251.101330 78.000000
251.139450 6.000000
251.150740 11.000000
251.190720 6.000000
252.092270 9.000000
252.109890 12.000000
252.122670 15.000000
252.152940 6.000000
252.171190 5.000000
253.076800 6.000000
253.117080 8.000000
253.151780 5.000000
255.127150 5.000000
257.104890 9.000000
257.135350 6.000000
258.134490 5.000000
259.062810 10.000000
259.076690 8.000000
259.092740 34.000000
259.101590 35.000000
259.117610 10.000000
260.092070 5.000000
260.106050 5.000000
260.136440 20.000000
261.083100 37.000000
261.107850 30.000000
262.076230 5.000000
262.085480 6.000000
262.095790 9.000000
262.154600 19.000000
262.171080 5.000000
262.953550 6.000000
263.107180 24.000000
263.130370 8.000000
263.149990 9.000000
264.072910 8.000000
264.141080 7.000000
265.076140 10.000000
265.105740 24.000000
265.132140 21.000000
266.116910 6.000000
266.148650 5.000000
267.139190 6.000000
267.158690 24.000000
268.130620 12.000000
268.143550 8.000000
269.116150 20.000000
269.881230 7.000000
270.137330 14.000000
271.161870 9.000000
272.122100 8.000000
272.149020 14.000000
273.097750 17.000000
273.125400 6.000000
274.083440 8.000000
274.134670 9.000000
274.159970 15.000000
276.074650 10.000000
276.101410 10.000000
276.112790 16.000000
276.132690 33.000000
276.146850 12.000000
277.133850 9.000000
278.148440 13.000000
279.089140 6.000000
279.103330 15.000000
279.135410 5.000000
280.094020 7.000000
280.112790 24.000000
280.158540 17.000000
281.114440 7.000000
281.136600 16.000000
282.110600 5.000000
282.135590 11.000000
282.153810 7.000000
283.124880 12.000000
283.141660 10.000000
284.162870 9.000000
284.185150 6.000000
285.111690 7.000000
285.134400 7.000000
285.163850 8.000000
286.148620 6.000000
286.175480 6.000000
288.461180 5.000000
290.143520 9.000000
290.173340 18.000000
290.243070 6.000000
291.126310 10.000000
291.171450 7.000000
292.759640 10.000000
293.097660 10.000000
293.120480 10.000000
293.131290 11.000000
293.152440 8.000000
294.114040 8.000000
294.134670 24.000000
294.151700 15.000000
295.138460 26.000000
296.166960 31.000000
296.681790 5.000000
297.119600 6.000000
298.155790 5.000000
299.166660 6.000000
300.128110 5.000000
302.134950 6.000000
304.108950 6.000000
304.137050 13.000000
304.854920 6.000000
305.127500 9.000000
305.155000 8.000000
305.265900 7.000000
306.155030 14.000000
308.154820 9.000000
308.169980 21.000000
309.162320 8.000000
310.102450 5.000000
310.131230 22.000000
310.143400 14.000000
310.168880 6.000000
311.135590 14.000000
312.125210 5.000000
312.160860 11.000000
313.228550 10.000000
314.174290 12.000000
318.123990 6.000000
318.150600 16.000000
320.175840 11.000000
321.003940 6.000000
322.144620 11.000000
322.184480 15.000000
323.131840 10.000000
323.147460 7.000000
323.193970 9.000000
323.344450 6.000000
323.489260 7.000000
324.143550 22.000000
324.163790 7.000000
324.173190 11.000000
325.140840 6.000000
325.168120 11.000000
326.157350 11.000000
326.174410 12.000000
326.200650 13.000000
326.220120 31.000000
327.141720 7.000000
327.224550 6.000000
332.158810 6.000000
336.150210 12.000000
336.164730 18.000000
337.158200 6.000000
338.168490 5.000000
339.110960 7.000000
340.173160 16.000000
340.187650 59.000000
340.204070 61.000000
341.171630 6.000000
341.187380 9.000000
341.205630 21.000000
341.219820 9.000000
341.532590 5.000000
342.117580 6.000000
342.138850 7.000000
343.124210 7.000000
343.169830 6.000000
343.196620 5.000000
344.125730 7.000000
344.184720 35.000000
344.216920 14.000000
344.231200 26.000000
345.090390 6.000000
347.139980 7.000000
349.078030 8.000000
349.653380 6.000000
349.885990 6.000000
350.161250 13.000000
350.180480 25.000000
351.168880 7.000000
351.198180 6.000000
352.173740 5.000000
353.194180 5.000000
354.179630 17.000000
354.196290 69.000000
354.213590 54.000000
354.230800 10.000000
355.175750 6.000000
355.199770 51.000000
355.221100 44.000000
355.452090 7.000000
356.223480 5.000000
358.191410 9.000000
358.238400 9.000000
360.796300 8.000000
367.199980 8.000000
367.889710 6.000000
368.036620 11.000000
368.176300 287.000000
368.202030 102.000000
369.181610 40.000000
369.200350 44.000000
370.162630 6.000000
370.187010 12.000000
370.256160 5.000000
371.205470 21.000000
372.189120 14.000000
372.211790 94.000000
372.227020 97.000000
372.251830 7.000000
373.204190 8.000000
373.219420 20.000000
373.713470 6.000000
374.133060 6.000000
374.172520 6.000000
374.227200 9.000000
375.226290 6.000000
375.803590 7.000000
376.057280 6.000000
376.237880 19.000000
376.258640 39.000000
378.041140 5.000000
382.201930 6.000000
382.219820 6.000000
383.115300 6.000000
383.531800 5.000000
386.205380 33.000000
386.223140 13.000000
386.234830 14.000000
387.222660 15.000000
387.477080 8.000000
388.219210 9.000000
392.218870 9.000000
393.128200 6.000000
393.151730 7.000000
398.232570 5.000000
400.202240 17.000000
400.858400 5.000000
401.199160 15.000000
401.225650 13.000000
402.172580 5.000000
402.199950 18.000000
402.662750 5.000000
404.159390 6.000000
404.206910 8.000000
404.235260 122.000000
404.249880 89.000000
404.275820 14.000000
405.220730 6.000000
405.247710 53.000000
405.283690 5.000000
406.218750 8.000000
406.878450 9.000000
412.166290 6.000000
413.129240 10.000000
414.171910 8.000000
414.228210 18.000000
415.133880 6.000000
416.216370 7.000000
418.165560 5.000000
418.217320 9.000000
418.246860 10.000000
419.144410 8.000000
419.247770 6.000000
430.178440 6.000000
430.215550 7.000000
432.236150 15.000000
432.285740 6.000000
433.165040 7.000000
434.192050 13.000000
434.211490 9.000000
435.133940 6.000000
440.089780 8.000000
444.204770 24.000000
444.252010 8.000000
445.219880 11.000000
447.113490 7.000000
447.156560 7.000000
447.184570 15.000000
448.172880 8.000000
458.186340 16.000000
458.222560 7.000000
459.186280 5.000000
460.120390 5.000000
460.200440 5.000000
461.222110 12.000000
462.209840 38.000000
462.225130 23.000000
462.246610 22.000000
463.242190 14.000000
464.204860 6.000000
472.191680 6.000000
472.227390 30.000000
473.241640 12.000000
476.216340 42.000000
476.242460 93.000000
476.264680 14.000000
477.210780 7.000000
477.240630 32.000000
477.271390 13.000000
478.180420 5.000000
478.211330 17.000000
478.247440 5.000000
479.204280 5.000000
479.217440 6.000000
479.240360 8.000000
480.215520 10.000000
485.399410 7.000000
493.214810 6.000000
494.180540 9.000000
494.238680 77.000000
494.257870 92.000000
494.297240 13.000000
495.225220 17.000000
495.252530 30.000000
495.271120 31.000000
495.298190 5.000000
496.232820 10.000000
496.250700 11.000000
496.266360 7.000000
497.244600 7.000000
502.230100 7.000000
504.188930 12.000000
504.213530 30.000000
504.235200 16.000000
504.266110 15.000000
505.247440 9.000000
505.263850 5.000000
508.226930 7.000000
508.275700 37.000000
509.296390 11.000000
510.239930 15.000000
510.255950 9.000000
510.300840 6.000000
511.245760 12.000000
511.815920 5.000000
517.416500 7.000000
522.168460 6.000000
522.250180 81.000000
523.240840 35.000000
523.283570 9.000000
524.258540 11.000000
524.304020 8.000000
524.954960 5.000000
526.209170 10.000000
526.235840 16.000000
526.275510 194.000000
526.300290 62.000000
527.279790 37.000000
527.310120 9.000000
528.261960 5.000000
529.289670 5.000000
536.259770 34.000000
536.283260 45.000000
537.236940 7.000000
537.258180 27.000000
537.274660 18.000000
538.215030 6.000000
539.332210 7.000000
554.270140 131.000000
554.296450 40.000000
554.311710 25.000000
554.584840 6.000000
555.226750 8.000000
555.256650 22.000000
555.300290 26.000000
556.303830 13.000000
558.291560 6.000000
568.325010 7.000000
576.019290 5.000000
584.279790 9.000000
586.145260 6.000000
586.194150 7.000000
586.290220 149.000000
586.316280 124.000000
586.354190 5.000000
587.287900 53.000000
587.315920 58.000000
588.281920 29.000000
588.316770 22.000000
589.242740 6.000000
646.308170 34.000000
646.343570 10.000000
646.406370 6.000000

>ms2peaks
105.035380 6.000000
368.191620 16.000000
404.242860 7.000000
494.251400 7.000000
526.277710 19.000000
527.277280 6.000000
536.268490 6.000000
554.266360 9.000000
554.285030 11.000000
586.301090 119.000000
587.308650 52.000000
588.319270 6.000000
646.261290 11.000000
646.325070 1000.000000
646.400090 19.000000

>ms2peaks
646.240910 7.000000
646.321720 1000.000000
646.396610 21.000000

>ms2peaks
105.032970 7.000000
368.180820 15.000000
368.200200 6.000000
369.189330 8.000000
494.259220 5.000000
510.241910 6.000000
526.264040 13.000000
526.281490 36.000000
526.304140 12.000000
527.268980 6.000000
527.286320 10.000000
536.248960 9.000000
537.264160 6.000000
554.273740 45.000000
555.284240 18.000000
568.287840 6.000000
586.213130 6.000000
586.255310 10.000000
586.302120 474.000000
587.248900 6.000000
587.306640 175.000000
588.311040 44.000000
589.322270 5.000000
596.277040 8.000000
596.302860 7.000000
614.298770 9.000000
646.221190 8.000000
646.245730 11.000000
646.272950 15.000000
646.325200 1000.000000

>ms2peaks
55.014320 5.000000
58.063100 10.000000
58.067430 12.000000
71.046390 6.000000
72.084940 11.000000
75.047110 39.000000
77.036280 25.000000
80.049960 11.000000
84.042430 7.000000
84.083150 9.000000
84.087140 6.000000
85.023470 10.000000
85.030250 14.000000
85.062320 6.000000
86.033120 8.000000
88.074700 7.000000
91.044750 8.000000
91.055160 5.000000
93.066410 9.000000
96.081260 13.000000
97.067860 25.000000
98.097760 13.000000
102.091470 9.000000
103.053540 6.000000
105.018970 6.000000
105.033780 1000.000000
105.074920 7.000000
106.027690 8.000000
106.037350 45.000000
106.077710 6.000000
106.297620 9.000000
107.039280 6.000000
108.082600 16.000000
109.058200 10.000000
109.066830 41.000000
109.087610 5.000000
110.058530 5.000000
110.067490 6.000000
110.096040 51.000000
111.042170 6.000000
111.078750 90.000000
111.087050 20.000000
112.079620 10.000000
113.085260 15.000000
114.095760 7.000000
115.050600 6.000000
115.074110 8.000000
117.069400 19.000000
119.048070 22.000000
120.054580 5.000000
121.057510 5.000000
121.068280 24.000000
121.089490 8.000000
121.865170 6.000000
122.011850 7.000000
122.097590 32.000000
122.105130 13.000000
123.100780 10.000000
124.106320 5.000000
126.652210 8.000000
128.057330 10.000000
129.053790 10.000000
129.060970 11.000000
129.070710 36.000000
129.093490 5.000000
131.050320 21.000000
131.071180 5.000000
131.084050 26.000000
131.090990 30.000000
131.701860 15.000000
132.086150 13.000000
133.032120 6.000000
133.062040 13.000000
133.101440 9.000000
134.061520 6.000000
134.093080 15.000000
134.099620 5.000000
135.046160 18.000000
135.082230 24.000000
136.041660 6.000000
137.059630 20.000000
138.065200 5.000000
138.443700 5.000000
140.106540 38.000000
141.044910 6.000000
141.061040 8.000000
141.071850 18.000000
141.091340 14.000000
141.098160 10.000000
142.061690 5.000000
142.122390 45.000000
143.083590 9.000000
144.056290 14.000000
144.074810 6.000000
144.090240 6.000000
144.108540 7.000000
145.049040 6.000000
145.071060 5.000000
145.089450 6.000000
145.531300 5.000000
146.093830 17.000000
147.045810 20.000000
147.079960 24.000000
148.110350 11.000000
149.096250 5.000000
149.113740 6.000000
151.074460 14.000000
151.103990 6.000000
152.098010 34.000000
152.111650 32.000000
153.017380 6.000000
153.056340 5.000000
153.071910 23.000000
153.100400 11.000000
153.109250 15.000000
155.086240 16.000000
156.092640 7.000000
157.067090 11.000000
158.077480 7.000000
158.088730 9.000000
158.099500 35.000000
159.040370 14.000000
159.050050 6.000000
159.066710 9.000000
159.074340 36.000000
159.106120 19.000000
159.121350 5.000000
160.112920 34.000000
160.119780 9.000000
161.026920 10.000000
161.082920 10.000000
161.107270 6.000000
161.114810 13.000000
162.060790 5.000000
162.090730 53.000000
162.126770 5.000000
163.021380 6.000000
163.079390 18.000000
163.088680 11.000000
164.111340 26.000000
165.054500 23.000000
165.072710 35.000000
165.091630 32.000000
166.063610 15.000000
166.077680 15.000000
166.095500 5.000000
166.104310 6.000000
167.081760 17.000000
167.090420 18.000000
169.094700 6.000000
170.063050 9.000000
170.076310 8.000000
171.083190 22.000000
171.103580 5.000000
172.085130 6.000000
172.106480 30.000000
173.037320 6.000000
173.055880 5.000000
173.098190 11.000000
173.119170 16.000000
173.936340 9.000000
174.091600 69.000000
175.032410 5.000000
175.098950 10.000000
176.069780 8.000000
176.111480 11.000000
177.016400 8.000000
177.058200 7.000000
177.108370 9.000000
178.076140 10.000000
178.089040 5.000000
178.116090 11.000000
179.078540 18.000000
179.090290 54.000000
179.748460 5.000000
179.863340 6.000000
180.096470 8.000000
181.067860 18.000000
181.088060 7.000000
181.101900 27.000000
182.096080 8.000000
183.078770 9.000000
184.079300 6.000000
184.095290 8.000000
184.113570 22.000000
184.128430 5.000000
185.110080 11.000000
185.134600 7.000000
186.091480 9.000000
186.110960 6.000000
186.121520 31.000000
186.135510 17.000000
186.245240 7.000000
187.070660 14.000000
187.133260 5.000000
188.073670 39.000000
188.084410 5.000000
188.137440 6.000000
189.073760 16.000000
189.081310 27.000000
189.096620 7.000000
190.060970 5.000000
190.070690 6.000000
190.079320 16.000000
190.087770 32.000000
190.103000 12.000000
190.120530 34.000000
191.059020 5.000000
191.070400 17.000000
191.087480 40.000000
191.111720 9.000000
191.121220 10.000000
191.132900 9.000000
192.097080 5.000000
192.103150 11.000000
193.059920 14.000000
193.100860 20.000000
193.107740 15.000000
194.097640 6.000000
195.068370 5.000000
195.085210 25.000000
195.114210 13.000000
196.080800 15.000000
196.109680 5.000000
196.119960 18.000000
197.086120 6.000000
197.096860 15.000000
198.067430 7.000000
198.121950 19.000000
199.072720 9.000000
199.115840 8.000000
199.722580 6.000000
200.111880 6.000000
201.070130 9.000000
201.085420 11.000000
201.095810 10.000000
202.073120 10.000000
202.083740 20.000000
202.122020 62.000000
203.071620 8.000000
203.085570 22.000000
203.096910 32.000000
204.087330 17.000000
204.101040 17.000000
204.146530 21.000000
205.076050 7.000000
205.093350 14.000000
205.105590 51.000000
205.151410 7.000000
206.073550 6.000000
206.111280 18.000000
207.081190 32.000000
207.126540 11.000000
208.072750 8.000000
208.093570 8.000000
208.109880 5.000000
208.122740 9.000000
208.141720 9.000000
208.171300 6.000000
208.374790 6.000000
209.090760 20.000000
209.129240 5.000000
209.490190 7.000000
210.105350 5.000000
210.130540 40.000000
211.081010 10.000000
211.102570 9.000000
211.121280 5.000000
211.129870 7.000000
212.080180 6.000000
212.115360 25.000000
213.108890 5.000000
214.185640 6.000000
215.067930 12.000000
215.087020 28.000000
215.097150 17.000000
215.112530 14.000000
216.141740 20.000000
217.099000 8.000000
217.106960 26.000000
217.139310 5.000000
217.276440 11.000000
218.067280 18.000000
218.079860 9.000000
218.102600 14.000000
218.116120 9.000000
218.130450 6.000000
218.147870 51.000000
218.159480 62.000000
218.556470 5.000000
219.073360 9.000000
219.082990 27.000000
219.097920 5.000000
219.144030 12.000000
219.154850 14.000000
220.095000 29.000000
221.095340 36.000000
221.116620 5.000000
222.090940 7.000000
222.107030 10.000000
223.074400 9.000000
223.107300 16.000000
223.153380 6.000000
224.043690 6.000000
224.077970 5.000000
224.085360 6.000000
224.139980 13.000000
224.150150 13.000000
225.100370 17.000000
225.128230 8.000000
226.101000 8.000000
227.112980 7.000000
227.123540 6.000000
228.099410 5.000000
228.136280 18.000000
229.144470 7.000000
230.084990 9.000000
230.105960 14.000000
230.126450 11.000000
230.151660 6.000000
231.081970 18.000000
231.099930 39.000000
231.124510 16.000000
232.091860 11.000000
232.127110 18.000000
233.069840 19.000000
233.093460 88.000000
233.108430 20.000000
233.139450 14.000000
234.074460 5.000000
234.100980 5.000000
234.110370 14.000000
234.122210 11.000000
235.072540 10.000000
235.110890 62.000000
235.124820 16.000000
236.121890 31.000000
236.142930 12.000000
236.157240 14.000000
236.168110 10.000000
237.091170 47.000000
237.111240 22.000000
237.120930 22.000000
237.134110 7.000000
238.062760 5.000000
238.127260 6.000000
239.105070 6.000000
239.113300 9.000000
239.138200 12.000000
240.101030 15.000000
240.145870 5.000000
241.097020 23.000000
241.123570 8.000000
242.154500 5.000000
242.812070 5.000000
243.071260 10.000000
243.094620 7.000000
244.138950 9.000000
245.063280 7.000000
245.091140 54.000000
245.174350 7.000000
246.825610 6.000000
247.082380 15.000000
247.101970 12.000000
247.116640 29.000000
248.076080 9.000000
248.140720 11.000000
248.151840 6.000000
248.164660 8.000000
249.090850 34.000000
249.124370 10.000000
249.131070 26.000000
249.152210 8.000000
249.849670 6.000000
250.096910 14.000000
250.155750 5.000000
251.060490 7.000000
251.088530 13.000000
251.103670 13.000000
251.111950 12.000000
251.137760 5.000000
251.161100 8.000000
252.109500 24.000000
252.134540 5.000000
253.084870 8.000000
253.139300 28.000000
254.171430 9.000000
255.105550 19.000000
256.097990 6.000000
256.115910 5.000000
258.101960 7.000000
258.117220 5.000000
259.085020 40.000000
259.102840 10.000000
260.106230 12.000000
260.129120 7.000000
261.081450 10.000000
261.092650 25.000000
261.133820 6.000000
262.093570 20.000000
262.111760 5.000000
262.120150 9.000000
262.155460 22.000000
262.166290 14.000000
262.192470 5.000000
263.112880 21.000000
263.130040 5.000000
264.132260 28.000000
264.149320 9.000000
264.160740 10.000000
265.077000 19.000000
265.119840 11.000000
265.144290 19.000000
266.119420 15.000000
266.143830 19.000000
267.107210 5.000000
267.159820 6.000000
268.120940 5.000000
268.136660 13.000000
268.168850 13.000000
268.197540 5.000000
269.117890 12.000000
270.149750 6.000000
270.165410 7.000000
272.108150 5.000000
272.145420 10.000000
272.497040 5.000000
273.081820 8.000000
273.173890 10.000000
274.478550 6.000000
276.142270 6.000000
277.084440 5.000000
277.110780 11.000000
277.122130 30.000000
278.105990 6.000000
278.116520 11.000000
278.145540 6.000000
278.163090 11.000000
279.099060 13.000000
279.109650 8.000000
279.137790 19.000000
280.133330 22.000000
281.115020 16.000000
281.151090 8.000000
281.212800 6.000000
282.116150 5.000000
282.152040 11.000000
282.164250 6.000000
283.130400 6.000000
283.969790 7.000000
284.128660 5.000000
284.142790 8.000000
284.171780 8.000000
286.127960 6.000000
288.101100 6.000000
288.141360 8.000000
289.121460 14.000000
289.139370 14.000000
290.154940 53.000000
291.131380 12.000000
292.064150 5.000000
292.138180 29.000000
292.271210 8.000000
293.113220 22.000000
293.128880 5.000000
293.140500 10.000000
293.198700 6.000000
293.987240 6.000000
294.116150 6.000000
294.172490 18.000000
294.192200 13.000000
294.558230 6.000000
295.097110 5.000000
295.111110 9.000000
295.135070 5.000000
295.158630 13.000000
296.119080 5.000000
296.148280 7.000000
297.165770 14.000000
297.352510 8.000000
298.138210 5.000000
298.158290 10.000000
298.185940 6.000000
298.203860 7.000000
299.154300 6.000000
301.142060 5.000000
301.229920 7.000000
302.665740 7.000000
304.133150 26.000000
306.139280 6.000000
306.168460 5.000000
307.153780 8.000000
308.156250 9.000000
308.166990 37.000000
308.183170 7.000000
309.165470 10.000000
309.186770 11.000000
311.119480 15.000000
311.154880 8.000000
311.185000 6.000000
312.195160 11.000000
312.383030 11.000000
314.186040 7.000000
316.128270 6.000000
318.139370 15.000000
318.157260 5.000000
319.152890 5.000000
320.169530 9.000000
321.107700 5.000000
321.127690 5.000000
322.119140 11.000000
322.148250 10.000000
322.178530 10.000000
322.187810 20.000000
323.139890 16.000000
323.150330 6.000000
323.175230 6.000000
324.132660 8.000000
324.154240 38.000000
324.180790 8.000000
325.155430 10.000000
325.176330 7.000000
325.207400 9.000000
326.142760 10.000000
326.190610 15.000000
326.212040 17.000000
326.222630 9.000000
327.213170 12.000000
332.171140 5.000000
333.162630 5.000000
335.159300 8.000000
336.153200 19.000000
336.179810 5.000000
337.164610 10.000000
337.265380 6.000000
338.165680 14.000000
339.096190 6.000000
340.016270 6.000000
340.137540 6.000000
340.152040 6.000000
340.190730 152.000000
341.172240 13.000000
341.202670 34.000000
341.694370 10.000000
342.168000 6.000000
343.202790 6.000000
344.150910 5.000000
344.179410 23.000000
344.208500 9.000000
344.234680 19.000000
345.241360 7.000000
345.741940 6.000000
348.904360 8.000000
350.163390 16.000000
350.178470 26.000000
350.954930 8.000000
351.142790 6.000000
351.179380 10.000000
354.155760 8.000000
354.203190 159.000000
355.154880 5.000000
355.168370 5.000000
355.222320 19.000000
356.184230 20.000000
356.200010 6.000000
356.218780 12.000000
356.237880 8.000000
359.155430 6.000000
359.234130 9.000000
361.547880 6.000000
362.151250 7.000000
363.835270 5.000000
368.006560 5.000000
368.114010 9.000000
368.145140 14.000000
368.186310 521.000000
368.451660 5.000000
369.095520 5.000000
369.113950 10.000000
369.192380 123.000000
370.167510 5.000000
370.203460 32.000000
372.178340 11.000000
372.207340 42.000000
372.223850 102.000000
373.208890 36.000000
373.221650 18.000000
374.208800 13.000000
374.240140 8.000000
374.267880 12.000000
375.210480 6.000000
376.197940 15.000000
376.222080 7.000000
376.238070 21.000000
376.260830 15.000000
377.258540 12.000000
380.219150 6.000000
380.854710 5.000000
381.137700 5.000000
382.214840 11.000000
383.123570 6.000000
384.190830 12.000000
386.121120 5.000000
386.141330 5.000000
386.191410 11.000000
386.213170 29.000000
386.237730 19.000000
388.210270 7.000000
389.075900 7.000000
390.438780 6.000000
394.226410 5.000000
394.236450 12.000000
398.167510 5.000000
400.184840 7.000000
400.203000 12.000000
400.216400 13.000000
401.215270 8.000000
403.139950 7.000000
403.164830 6.000000
404.105800 5.000000
404.148990 5.000000
404.195340 6.000000
404.239780 260.000000
405.242950 46.000000
405.255460 25.000000
406.217100 5.000000
406.243770 6.000000
414.217470 7.000000
416.145510 7.000000
418.166500 7.000000
418.211520 20.000000
418.246090 16.000000
418.276580 8.000000
419.228970 11.000000
420.220520 10.000000
421.240510 5.000000
426.175750 7.000000
427.206480 5.000000
428.194890 5.000000
428.212710 5.000000
428.826110 5.000000
430.193700 6.000000
430.228030 9.000000
431.202030 13.000000
432.198970 7.000000
434.233460 11.000000
436.205720 6.000000
437.204130 10.000000
440.164790 6.000000
442.689180 6.000000
444.149720 5.000000
444.222750 10.000000
444.246400 13.000000
445.191470 8.000000
446.190700 13.000000
449.213170 5.000000
450.167720 5.000000
450.224550 6.000000
450.712430 7.000000
453.408170 7.000000
454.189910 9.000000
455.562230 6.000000
456.235960 5.000000
458.223880 19.000000
461.192660 8.000000
461.977200 5.000000
462.193630 6.000000
462.215820 21.000000
462.236110 10.000000
462.255860 11.000000
463.106230 6.000000
463.258850 13.000000
465.219970 5.000000
465.239650 12.000000
465.257230 7.000000
472.204930 8.000000
472.246220 9.000000
473.174380 6.000000
476.233000 38.000000
476.250520 38.000000
476.280330 15.000000
477.257870 30.000000
477.993160 5.000000
478.216190 24.000000
478.232670 32.000000
478.252990 7.000000
479.201140 5.000000
479.218260 8.000000
480.228330 10.000000
486.255000 10.000000
490.223360 34.000000
491.239960 8.000000
491.254030 9.000000
491.574010 8.000000
492.244230 11.000000
493.244110 7.000000
494.256160 235.000000
494.315670 6.000000
495.251530 48.000000
495.285370 16.000000
495.699580 9.000000
496.245000 14.000000
496.273650 6.000000
498.357570 5.000000
504.152400 5.000000
504.226440 18.000000
504.265200 15.000000
505.220700 7.000000
505.235570 26.000000
506.093170 9.000000
506.249330 5.000000
508.281400 29.000000
509.276000 11.000000
521.427730 8.000000
521.949710 6.000000
522.236330 20.000000
522.259400 34.000000
522.273860 11.000000
523.265620 5.000000
523.549930 15.000000
524.284420 7.000000
525.207580 5.000000
526.242920 22.000000
526.282410 195.000000
526.305050 34.000000
527.271300 47.000000
527.293950 51.000000
527.319460 10.000000
528.268740 5.000000
528.290770 8.000000
536.183230 9.000000
536.263670 92.000000
536.288940 18.000000
536.581730 6.000000
537.236080 5.000000
537.265010 31.000000
537.287720 21.000000
537.570680 7.000000
537.987550 5.000000
538.260310 5.000000
542.482670 5.000000
544.259220 6.000000
554.154970 5.000000
554.245180 16.000000
554.274780 135.000000
554.305730 16.000000
555.266480 42.000000
555.293520 27.000000
561.627870 7.000000
568.284970 20.000000
569.299680 7.000000
570.309390 5.000000
585.256710 5.000000
586.245360 6.000000
586.303280 262.000000
587.103210 7.000000
587.268550 21.000000
587.306150 63.000000
587.335450 20.000000
587.794800 5.000000
588.244380 5.000000
588.299500 14.000000
588.326660 9.000000
615.276980 8.000000
632.342830 20.000000
634.326050 5.000000
646.316220 46.000000
646.339840 21.000000
646.424620 6.000000

>ms2peaks
105.033070 7.000000
368.170440 8.000000
368.191250 13.000000
504.234250 5.000000
526.279240 25.000000
527.291320 6.000000
536.267400 11.000000
554.275820 25.000000
586.300960 145.000000
587.303160 61.000000
588.284670 8.000000
588.312320 7.000000
646.220700 5.000000
646.254700 11.000000
646.274110 7.000000
646.323000 1000.000000
646.399540 14.000000

>ms2peaks
646.233950 10.000000
646.257390 6.000000
646.321230 1000.000000
646.394100 16.000000

>ms2peaks
368.175870 7.000000
368.189360 8.000000
369.183040 6.000000
404.247990 6.000000
494.253750 13.000000
526.244260 6.000000
526.281980 55.000000
527.265380 7.000000
527.285340 13.000000
528.288150 5.000000
536.262820 18.000000
537.261050 6.000000
554.281130 34.000000
555.287050 11.000000
568.282650 6.000000
586.241580 11.000000
586.298030 471.000000
587.242610 5.000000
587.298340 138.000000
587.317260 65.000000
588.301640 31.000000
588.326780 16.000000
596.278990 14.000000
614.300290 6.000000
646.246340 15.000000
646.271670 13.000000
646.319520 1000.000000

>ms2peaks
58.062400 8.000000
58.067880 26.000000
67.056190 7.000000
71.046390 12.000000
72.082740 19.000000
72.413510 7.000000
75.045740 6.000000
77.040490 20.000000
82.065010 9.000000
85.023980 9.000000
85.028050 15.000000
85.034360 6.000000
87.071920 6.000000
91.048700 5.000000
91.054860 8.000000
94.074260 7.000000
95.059180 10.000000
97.064790 6.000000
98.058730 9.000000
101.061810 5.000000
101.070710 6.000000
102.095980 11.000000
104.817890 6.000000
105.008910 11.000000
105.015620 6.000000
105.033730 1000.000000
105.064930 6.000000
106.037600 101.000000
106.127400 6.000000
106.916870 6.000000
107.042650 15.000000
107.051540 7.000000
108.064180 6.000000
108.080730 26.000000
108.088650 6.000000
109.058700 8.000000
109.065710 22.000000
109.084210 9.000000
110.019590 10.000000
110.062240 12.000000
110.083890 6.000000
110.096040 42.000000
111.037950 5.000000
111.043120 16.000000
111.079190 45.000000
111.112270 6.000000
112.075780 9.000000
112.535290 8.000000
113.057060 7.000000
113.066100 9.000000
113.089900 5.000000
114.094280 5.000000
115.037920 7.000000
115.061100 6.000000
117.040660 6.000000
117.070790 46.000000
118.063840 9.000000
120.086650 6.000000
120.851920 9.000000
121.061250 21.000000
121.068980 8.000000
121.091700 14.000000
122.062150 6.000000
122.098390 33.000000
123.103080 7.000000
123.111950 21.000000
124.084420 7.000000
125.100660 9.000000
128.057820 13.000000
129.069780 21.000000
130.069810 6.000000
131.047130 16.000000
131.081860 15.000000
131.089040 32.000000
133.066300 9.000000
133.101650 9.000000
134.082980 6.000000
134.092180 11.000000
135.039080 17.000000
135.073870 6.000000
135.083400 20.000000
135.099430 5.000000
136.050510 5.000000
136.083600 9.000000
137.058720 31.000000
137.066830 10.000000
138.098390 5.000000
140.110290 11.000000
141.067660 5.000000
141.089890 60.000000
141.112200 6.000000
142.082230 5.000000
142.109190 11.000000
142.126600 11.000000
143.042950 8.000000
143.083360 21.000000
144.109210 6.000000
145.062520 25.000000
145.100140 5.000000
146.043090 5.000000
146.092160 7.000000
146.102070 8.000000
146.418370 6.000000
147.049030 16.000000
147.075000 7.000000
147.094880 6.000000
147.107960 7.000000
148.046800 11.000000
148.106480 5.000000
148.114500 15.000000
149.090960 9.000000
150.090520 13.000000
151.083250 5.000000
152.078490 7.000000
152.106700 74.000000
153.073790 8.000000
153.107440 5.000000
155.072300 15.000000
155.081710 23.000000
156.057310 7.000000
156.075290 10.000000
156.098460 8.000000
157.064880 8.000000
157.071150 7.000000
158.071180 6.000000
158.094300 15.000000
159.046690 5.000000
159.069030 12.000000
159.079730 30.000000
159.102600 12.000000
159.350850 6.000000
160.075260 7.000000
160.083470 6.000000
160.110920 16.000000
161.051790 9.000000
161.091860 18.000000
161.098560 32.000000
161.111590 6.000000
161.494670 7.000000
162.032380 5.000000
162.086060 30.000000
162.097340 22.000000
163.039810 8.000000
163.049710 10.000000
163.073200 16.000000
163.082370 10.000000
163.098130 15.000000
164.063830 8.000000
164.113360 22.000000
165.048030 21.000000
165.059740 6.000000
165.071290 6.000000
165.108430 8.000000
166.077100 6.000000
166.085570 9.000000
167.070480 10.000000
167.085660 30.000000
168.057860 6.000000
168.090770 9.000000
168.098630 21.000000
169.069500 10.000000
169.095700 8.000000
169.102170 16.000000
170.072450 5.000000
170.088620 5.000000
171.080980 22.000000
171.143660 5.000000
172.070740 6.000000
172.087190 5.000000
172.105730 15.000000
173.064360 5.000000
173.100490 14.000000
174.066710 17.000000
174.092390 76.000000
174.125890 9.000000
175.066440 6.000000
175.074570 7.000000
175.092410 7.000000
175.978560 5.000000
177.053880 6.000000
177.076170 5.000000
178.074130 26.000000
178.087830 5.000000
178.124970 46.000000
179.085660 42.000000
179.101640 8.000000
179.129820 5.000000
181.068600 5.000000
181.078860 8.000000
181.096440 17.000000
182.105220 7.000000
182.122240 14.000000
183.045200 5.000000
183.085510 16.000000
183.100390 8.000000
183.106990 6.000000
184.108900 35.000000
184.118970 34.000000
185.044340 6.000000
185.093960 8.000000
185.104600 13.000000
185.119510 20.000000
185.138730 6.000000
186.101300 8.000000
186.129360 37.000000
187.036450 7.000000
187.047990 5.000000
187.065410 7.000000
187.084780 6.000000
187.136930 10.000000
188.056090 8.000000
188.067110 37.000000
188.075410 18.000000
188.107180 6.000000
188.135280 6.000000
189.080230 22.000000
189.095260 10.000000
190.084470 38.000000
190.122380 16.000000
190.132610 9.000000
190.739790 7.000000
191.070530 12.000000
191.081650 16.000000
191.093670 9.000000
191.132060 12.000000
192.088970 22.000000
192.102450 9.000000
192.112260 8.000000
192.144610 5.000000
193.094860 32.000000
193.113360 12.000000
194.106380 6.000000
195.076200 15.000000
195.110310 10.000000
195.120380 14.000000
196.115070 16.000000
197.011520 10.000000
197.096210 12.000000
197.124560 7.000000
197.770320 5.000000
198.071750 6.000000
199.072510 29.000000
199.084580 7.000000
200.063810 5.000000
200.103100 17.000000
200.124650 7.000000
201.055620 7.000000
201.092180 9.000000
202.080660 10.000000
202.092860 8.000000
202.123370 27.000000
202.135030 23.000000
202.141080 13.000000
203.056780 7.000000
203.081480 31.000000
203.091080 25.000000
203.103700 6.000000
203.117900 7.000000
204.069820 5.000000
204.089600 14.000000
204.104950 32.000000
204.128010 7.000000
204.136760 31.000000
205.061200 9.000000
205.081950 11.000000
205.102870 57.000000
205.135210 7.000000
206.060170 5.000000
206.100910 23.000000
206.123290 5.000000
207.077590 22.000000
207.115940 5.000000
207.127660 11.000000
207.150620 6.000000
207.886760 5.000000
208.067610 6.000000
208.104490 17.000000
208.122760 8.000000
208.141300 6.000000
209.056430 9.000000
209.084530 19.000000
209.099530 12.000000
209.126010 12.000000
209.136890 10.000000
210.066180 13.000000
210.092240 13.000000
210.426610 7.000000
211.074370 14.000000
211.100220 6.000000
211.142780 7.000000
213.093290 9.000000
214.105420 5.000000
215.073520 23.000000
215.093570 8.000000
215.126480 9.000000
216.098660 9.000000
216.115920 12.000000
216.139790 41.000000
216.150310 16.000000
217.096740 21.000000
217.116740 9.000000
217.146240 22.000000
218.070360 6.000000
218.109150 11.000000
218.124130 7.000000
218.155060 79.000000
219.056140 11.000000
219.090100 13.000000
219.152130 19.000000
220.108350 8.000000
220.121460 14.000000
221.086350 18.000000
221.097630 9.000000
221.116210 17.000000
222.101720 7.000000
223.072540 8.000000
223.100720 17.000000
223.116760 5.000000
223.917390 6.000000
225.091160 19.000000
227.087390 6.000000
227.106290 15.000000
227.130290 20.000000
228.130480 5.000000
229.086700 15.000000
231.074070 6.000000
232.077730 8.000000
232.090560 7.000000
232.136860 8.000000
233.092580 32.000000
233.118420 7.000000
233.187820 5.000000
234.084820 5.000000
234.119200 15.000000
234.148390 6.000000
234.241330 7.000000
235.074860 13.000000
235.101230 11.000000
235.110730 17.000000
236.065860 5.000000
236.086170 11.000000
236.113010 14.000000
236.896330 7.000000
237.088270 8.000000
237.126020 31.000000
237.145030 6.000000
237.162780 6.000000
238.095170 9.000000
238.123150 22.000000
239.073410 6.000000
239.108610 17.000000
240.137220 9.000000
242.120910 14.000000
242.594860 5.000000
243.578220 5.000000
244.095720 11.000000
245.100940 10.000000
245.959580 6.000000
247.074450 5.000000
247.095920 6.000000
247.113800 32.000000
248.093440 6.000000
248.107640 11.000000
248.121020 7.000000
248.170810 10.000000
249.090330 21.000000
249.107990 7.000000
249.152860 10.000000
250.061020 6.000000
250.093320 9.000000
251.099640 59.000000
251.118970 10.000000
251.146420 6.000000
251.176510 5.000000
252.137830 13.000000
253.069310 6.000000
253.129090 12.000000
254.114350 6.000000
254.815200 8.000000
256.110960 6.000000
258.096710 7.000000
258.138520 15.000000
259.072690 12.000000
259.093230 25.000000
260.110110 11.000000
261.012020 5.000000
261.088040 26.000000
261.099980 17.000000
261.121830 10.000000
261.177370 7.000000
262.097200 16.000000
262.127470 7.000000
263.022580 5.000000
263.105990 57.000000
263.124480 6.000000
264.091770 10.000000
264.113890 9.000000
264.122070 7.000000
264.135190 8.000000
264.158050 7.000000
265.110530 22.000000
265.125400 25.000000
266.119600 9.000000
266.152560 13.000000
267.066380 10.000000
267.101620 5.000000
267.116880 9.000000
267.136080 6.000000
267.154170 7.000000
268.123840 6.000000
268.163150 6.000000
269.120820 6.000000
270.153380 11.000000
271.102780 9.000000
272.130250 9.000000
275.090670 10.000000
275.112670 13.000000
276.079560 7.000000
276.110380 6.000000
276.140620 20.000000
277.103580 9.000000
277.121670 5.000000
277.150120 11.000000
278.126950 5.000000
278.151860 6.000000
279.088500 8.000000
279.112340 11.000000
279.222780 5.000000
280.136840 16.000000
280.168180 7.000000
281.140500 9.000000
281.256200 7.000000
282.139770 19.000000
283.167660 5.000000
285.131590 10.000000
286.124940 10.000000
286.214630 5.000000
288.098390 10.000000
288.137630 12.000000
289.084530 5.000000
289.147000 6.000000
290.065800 7.000000
290.099730 6.000000
290.147060 20.000000
290.164670 6.000000
291.106170 6.000000
291.159420 5.000000
291.916410 6.000000
292.133790 8.000000
293.107910 20.000000
293.122830 17.000000
293.145940 8.000000
293.157290 11.000000
293.179990 5.000000
294.110200 11.000000
294.134250 13.000000
295.130680 12.000000
295.180660 6.000000
295.244900 9.000000
295.367100 7.000000
296.159390 34.000000
296.168490 12.000000
296.555820 6.000000
296.786040 5.000000
297.114230 7.000000
297.128050 6.000000
297.148620 10.000000
298.148220 6.000000
299.186680 6.000000
300.161870 6.000000
303.127170 11.000000
305.141880 11.000000
306.106480 6.000000
307.162170 5.000000
308.156460 13.000000
308.172300 25.000000
308.189880 5.000000
310.167850 22.000000
310.198790 8.000000
311.152370 10.000000
311.181370 7.000000
312.870510 5.000000
313.108460 6.000000
314.176240 5.000000
314.314150 6.000000
318.147280 30.000000
319.112920 9.000000
319.149780 18.000000
319.167390 7.000000
320.006010 8.000000
321.560520 7.000000
322.133210 7.000000
322.183960 19.000000
323.127590 6.000000
323.150270 8.000000
323.167940 17.000000
324.122380 12.000000
324.153320 10.000000
325.142700 9.000000
325.154080 17.000000
325.531490 5.000000
326.171300 8.000000
326.186710 6.000000
326.208220 35.000000
328.134800 5.000000
328.198700 8.000000
333.125000 7.000000
335.151460 17.000000
336.163360 11.000000
337.171750 10.000000
338.159730 19.000000
340.172000 40.000000
340.201290 86.000000
341.159730 5.000000
341.175140 11.000000
341.202360 13.000000
341.221470 6.000000
344.191010 12.000000
344.220120 40.000000
344.241060 7.000000
350.165530 16.000000
350.180690 18.000000
351.054960 5.000000
351.173370 7.000000
351.323790 7.000000
351.752380 8.000000
352.145290 6.000000
354.185790 25.000000
354.201390 88.000000
354.222110 50.000000
355.055510 9.000000
355.184940 9.000000
355.215550 45.000000
356.187590 14.000000
357.208740 7.000000
358.239260 12.000000
358.647000 7.000000
358.835660 5.000000
359.095150 6.000000
359.198790 5.000000
359.979890 5.000000
363.906740 6.000000
364.399960 5.000000
366.156100 10.000000
368.154790 13.000000
368.185420 424.000000
369.156190 8.000000
369.182220 58.000000
369.196840 77.000000
369.958310 6.000000
370.197420 16.000000
371.132840 5.000000
372.177370 15.000000
372.213930 154.000000
372.227940 67.000000
373.170140 6.000000
373.204560 8.000000
373.220250 43.000000
374.005550 6.000000
374.221920 6.000000
375.916440 7.000000
376.194210 7.000000
376.239990 5.000000
376.258580 23.000000
377.268950 7.000000
382.147670 5.000000
382.202060 14.000000
382.220400 7.000000
383.190030 6.000000
384.200130 8.000000
386.202640 20.000000
386.227970 16.000000
386.240230 18.000000
386.257200 5.000000
387.243380 8.000000
391.165040 6.000000
396.220150 13.000000
398.176910 5.000000
399.163640 6.000000
400.193360 12.000000
400.228240 11.000000
401.190060 5.000000
401.216400 14.000000
404.184300 6.000000
404.207090 24.000000
404.231660 74.000000
404.250240 75.000000
404.281040 17.000000
404.667420 5.000000
405.222200 13.000000
405.245120 33.000000
405.268950 18.000000
406.224180 11.000000
406.254520 8.000000
414.194670 5.000000
414.343570 5.000000
415.162990 11.000000
418.184230 5.000000
418.216250 37.000000
418.227750 26.000000
421.191500 6.000000
426.171970 5.000000
427.189510 5.000000
428.196350 6.000000
430.200260 9.000000
431.205230 6.000000
432.211490 9.000000
432.231900 17.000000
433.154170 13.000000
433.630160 5.000000
434.228850 5.000000
434.241520 9.000000
436.176240 6.000000
436.213230 5.000000
436.240540 11.000000
438.912480 6.000000
440.204320 5.000000
442.702820 5.000000
446.153900 7.000000
446.216220 8.000000
446.233490 17.000000
447.174590 12.000000
448.226560 12.000000
452.255680 8.000000
453.181580 6.000000
458.216610 21.000000
459.179110 6.000000
460.223180 8.000000
460.261720 6.000000
462.187530 5.000000
462.226870 15.000000
463.168950 6.000000
464.206790 13.000000
464.226930 10.000000
464.268490 5.000000
466.239070 6.000000
472.185390 9.000000
472.208040 15.000000
472.224700 5.000000
474.480380 6.000000
476.211210 13.000000
476.240630 68.000000
476.274780 14.000000
477.201080 8.000000
477.227870 20.000000
477.258820 9.000000
477.421170 6.000000
478.205600 7.000000
478.225490 25.000000
478.243190 6.000000
478.271580 7.000000
479.220090 20.000000
480.223690 9.000000
482.254760 14.000000
490.218170 20.000000
490.239070 9.000000
494.208980 5.000000
494.234650 55.000000
494.268460 101.000000
494.449310 18.000000
495.242000 42.000000
495.265110 34.000000
495.660680 5.000000
496.263460 6.000000
496.863370 5.000000
503.117830 5.000000
504.196930 7.000000
504.232330 19.000000
504.253330 32.000000
505.228210 18.000000
508.234500 5.000000
508.267090 19.000000
509.277950 7.000000
510.244930 15.000000
510.272340 7.000000
511.237520 6.000000
519.252260 6.000000
522.220210 10.000000
522.250310 41.000000
523.240970 23.000000
526.213070 18.000000
526.230160 19.000000
526.282590 198.000000
527.263850 16.000000
527.278750 32.000000
527.304020 25.000000
527.757390 8.000000
528.280460 23.000000
528.304140 19.000000
529.959590 7.000000
536.248540 28.000000
536.271480 30.000000
536.293030 18.000000
536.437810 8.000000
537.239690 15.000000
537.275700 24.000000
538.263490 17.000000
543.723820 9.000000
554.262270 42.000000
554.282900 106.000000
555.199400 6.000000
555.250370 9.000000
555.267520 15.000000
555.290770 38.000000
556.255310 12.000000
556.292720 12.000000
556.325740 6.000000
557.273740 12.000000
557.296570 6.000000
557.321110 5.000000
566.603580 6.000000
569.343260 6.000000
570.256960 5.000000
572.579350 5.000000
586.268680 65.000000
586.308590 225.000000
587.266300 11.000000
587.284360 44.000000
587.313230 62.000000
588.258420 6.000000
588.304020 13.000000
589.297490 7.000000
596.279240 13.000000
596.311710 9.000000
646.309690 24.000000
646.343140 35.000000

