>compound PR86490569
>parentmass 363.1802149999999
>ionization [M+H]+
>formula C20H26O6
>rt 285.855000
>profile qtof
#smiles_iso COC1=C(C=CC(=C1)C[C@@H](CO)[C@@H](CC2=CC(=C(C=C2)O)OC)CO)O
#smiles_can COC1=C(C=CC(=C1)CC(CO)C(CC2=CC(=C(C=C2)O)OC)CO)O
#inchikey PUETUDUXMCLALY-HOTGVXAUSA-N
#pubchem_id 65373
#mb_accession PR304005,PR304006,PR304007,PR304008,PR304009,PR304010,PR304011,PR304012,PR304013,PR304014

>ms2peaks
103.053810 146.000000
116.196010 161.000000
128.065190 89.000000
131.050720 203.000000
133.059880 224.000000
133.066330 302.000000
137.056930 1000.000000
138.063600 255.000000
151.067210 94.000000
163.077580 349.000000
176.067460 120.000000
189.077610 214.000000
203.104890 219.000000
203.114850 89.000000
204.114940 109.000000
206.093700 104.000000
295.110200 146.000000
295.140410 224.000000
296.130070 177.000000
305.885990 115.000000
326.160310 151.000000
327.152070 229.000000
327.163970 641.000000
344.167820 188.000000
362.187380 125.000000

>ms2peaks
92.047230 24.000000
93.069370 34.000000
94.040740 20.000000
103.055490 17.000000
107.054990 16.000000
108.052350 16.000000
109.062370 23.000000
121.060680 19.000000
121.065260 20.000000
122.034610 111.000000
122.067160 22.000000
123.035680 24.000000
128.066970 33.000000
131.045560 57.000000
131.050630 162.000000
131.076220 22.000000
133.064910 170.000000
135.072130 23.000000
135.084290 35.000000
136.051010 17.000000
137.036790 16.000000
137.059140 1000.000000
138.059230 43.000000
138.064800 108.000000
139.062960 26.000000
140.062590 17.000000
143.087010 19.000000
144.051850 18.000000
144.057430 17.000000
145.053010 24.000000
145.064420 66.000000
151.074020 46.000000
153.061830 20.000000
157.052600 43.000000
161.065200 19.000000
163.076510 200.000000
164.084120 22.000000
170.074480 16.000000
171.081820 16.000000
174.065900 40.000000
176.085560 25.000000
177.089800 24.000000
188.080600 17.000000
189.078930 16.000000
190.090450 32.000000
203.108110 37.000000
243.102070 20.000000
245.095290 19.000000

>ms2peaks
80.055670 60.000000
81.069660 76.000000
91.054510 263.000000
94.040280 54.000000
94.045380 81.000000
103.053090 73.000000
104.058230 49.000000
106.071630 49.000000
108.054130 46.000000
115.053130 173.000000
118.072300 54.000000
119.048790 57.000000
122.035900 520.000000
123.041110 68.000000
128.059140 49.000000
128.068220 119.000000
131.095170 84.000000
133.061800 68.000000
136.048480 49.000000
137.058500 1000.000000
137.066730 179.000000
143.053180 49.000000
143.082000 65.000000
144.083720 62.000000
147.050340 68.000000
157.068510 68.000000
159.037870 73.000000
174.060620 46.000000

>ms2peaks
79.050880 57.000000
80.062180 38.000000
91.053390 35.000000
103.053640 49.000000
108.057510 35.000000
118.070140 37.000000
132.053530 40.000000
133.055340 35.000000
133.065080 244.000000
137.015060 37.000000
137.060330 1000.000000
138.067790 123.000000
151.075090 40.000000
152.077380 33.000000
153.057940 49.000000
154.059570 48.000000
163.074940 504.000000
164.090210 37.000000
165.075880 55.000000
175.081040 35.000000
188.076370 33.000000
189.091450 71.000000
203.099530 33.000000
204.117650 31.000000
206.103420 51.000000
237.968200 33.000000
247.077100 33.000000
264.106750 44.000000
265.078520 59.000000
295.107700 44.000000
295.128910 306.000000
295.145360 42.000000
296.134190 35.000000
315.869780 42.000000
327.107570 40.000000
327.159940 531.000000
328.167630 75.000000
344.164860 92.000000
345.172730 130.000000
362.168090 82.000000
362.185330 40.000000
363.137480 48.000000

>ms2peaks
121.069360 48.000000
133.068850 46.000000
137.058070 252.000000
138.059770 65.000000
145.067290 38.000000
147.082320 80.000000
151.075420 59.000000
152.075710 33.000000
163.071980 73.000000
163.078810 170.000000
194.097230 38.000000
195.095870 34.000000
203.119190 76.000000
207.114750 54.000000
221.113570 136.000000
263.112060 52.000000
263.122920 40.000000
295.123020 119.000000
295.138430 88.000000
295.161100 46.000000
296.142910 33.000000
327.143650 258.000000
327.158600 1000.000000
327.600860 36.000000
328.147920 155.000000
328.166410 184.000000
344.160550 199.000000
345.161410 115.000000
345.172520 155.000000
346.148900 75.000000
346.172670 119.000000
362.163970 44.000000
362.183200 78.000000
363.153780 40.000000
363.182650 63.000000
363.192690 38.000000

>ms2peaks
91.052600 12.000000
103.050240 36.000000
103.057410 40.000000
105.072890 42.000000
107.051020 28.000000
109.052860 14.000000
116.552600 19.000000
119.043220 19.000000
120.060750 19.000000
122.032940 24.000000
122.039830 16.000000
123.043330 16.000000
127.053400 23.000000
130.304110 16.000000
131.035740 21.000000
131.047060 46.000000
131.054060 61.000000
133.063020 97.000000
135.067900 21.000000
135.078810 71.000000
136.082470 14.000000
137.058270 1000.000000
137.103870 14.000000
138.054150 15.000000
138.064220 66.000000
138.097430 16.000000
143.086550 110.000000
145.065170 64.000000
150.060290 17.000000
151.073240 12.000000
153.027890 18.000000
153.052290 15.000000
157.067470 19.000000
162.024690 12.000000
162.066220 24.000000
163.074480 158.000000
171.038670 18.000000
171.081340 16.000000
174.065960 22.000000
175.074860 30.000000
189.077800 19.000000
189.086870 14.000000
193.099140 18.000000
203.103680 13.000000
212.078980 19.000000
235.106370 21.000000
236.106540 26.000000
244.071790 13.000000
281.114780 15.000000

>ms2peaks
67.050160 283.000000
79.055010 212.000000
91.057300 202.000000
94.039660 687.000000
98.986420 202.000000
107.043270 212.000000
117.069100 253.000000
119.046330 253.000000
122.037160 667.000000
123.045830 384.000000
124.160260 253.000000
128.063610 263.000000
131.044680 232.000000
131.054090 172.000000
132.051830 465.000000
137.059140 1000.000000
146.070590 202.000000
175.071090 394.000000
179.065580 303.000000
191.081280 172.000000
209.091750 202.000000

>ms2peaks
131.049350 267.000000
133.063020 120.000000
135.078400 440.000000
136.044910 160.000000
137.051880 513.000000
137.061070 1000.000000
138.057860 327.000000
138.069580 140.000000
145.588870 133.000000
147.083970 133.000000
149.057280 127.000000
151.073730 227.000000
153.051010 133.000000
163.074800 373.000000
163.082990 367.000000
175.073790 507.000000
189.088490 240.000000
190.101680 180.000000
201.097960 113.000000
203.111740 120.000000
207.709150 133.000000
220.118060 213.000000
222.118770 140.000000
248.075880 120.000000
295.149690 133.000000
296.138370 327.000000
326.846160 167.000000
327.162110 433.000000
328.155880 147.000000
344.170200 153.000000
345.166080 140.000000

>ms2peaks
105.056730 187.000000
116.057520 264.000000
122.034870 209.000000
124.048170 286.000000
131.054600 352.000000
133.062330 264.000000
133.069320 231.000000
135.084500 198.000000
137.057220 791.000000
137.064270 1000.000000
138.068270 253.000000
143.080370 242.000000
151.079730 198.000000
163.079560 264.000000
221.090550 264.000000
236.127990 286.000000

>ms2peaks
81.069090 215.000000
94.038090 329.000000
102.048400 253.000000
107.055640 228.000000
116.060330 342.000000
122.035740 1000.000000
131.049470 468.000000
137.053650 962.000000
137.061980 949.000000
138.070340 506.000000
189.068250 329.000000
223.082820 228.000000

