>compound PR86577362
>parentmass 219.1346
>ionization [M+H]+
>formula C9H18N2O4
>rt 142.800000
>profile qtof
#smiles_iso CC(C)CC(C(=O)O)NC(=O)C(CO)N
#smiles_can CC(C)CC(C(=O)O)NC(=O)C(CO)N
#inchikey NFDYGNFETJVMSE-UHFFFAOYSA-N
#pubchem_id 13919048
#mb_accession PR311070

>ms2peaks
60.044580 17.000000
83.072560 17.000000
86.095620 119.000000
87.054340 25.000000
99.096800 22.000000
132.101030 329.000000
155.116880 49.000000
173.130050 172.000000
175.090100 45.000000
201.127730 45.000000
219.115300 39.000000
219.133360 291.000000

