>compound PR86591402
>parentmass 595.1657467000001
>ionization [M+H]+
>formula C27H30O15
>rt 211.462020
>profile qtof
#smiles_iso C1=CC(=CC=C1C2=CC(=O)C3=C(C(=C(C=C3O2)O[C@H]4[C@@H]([C@H]([C@@H]([C@H](O4)CO)O)O)O)[C@H]5[C@@H]([C@H]([C@@H]([C@H](O5)CO)O)O)O)O)O
#smiles_can C1=CC(=CC=C1C2=CC(=O)C3=C(C(=C(C=C3O2)OC4C(C(C(C(O4)CO)O)O)O)C5C(C(C(C(O5)CO)O)O)O)O)O
#inchikey HGUVPEBGCAVWID-KETMJRJWSA-N
#pubchem_id 441381
#mb_accession PR302799,PR302804,PR302809,PR302814,PR302819,PR302824,PR302829,PR302834,PR302839,PR302844,PR302849,PR302854

>ms2peaks
173.023190 5.000000
271.050900 24.000000
271.062840 21.000000
271.077880 10.000000
272.064880 11.000000
282.083560 7.000000
283.035000 38.000000
283.058650 591.000000
284.063600 92.000000
285.060180 8.000000
285.071900 20.000000
295.039220 5.000000
295.057190 22.000000
295.070400 6.000000
296.063840 20.000000
297.068080 11.000000
309.034640 20.000000
309.047450 5.000000
309.072940 90.000000
310.084080 7.000000
311.060360 8.000000
313.021000 5.000000
313.042140 13.000000
313.070160 477.000000
314.048070 13.000000
314.074280 120.000000
315.081600 9.000000
323.089110 54.000000
323.108490 6.000000
324.088410 16.000000
324.104370 6.000000
325.024290 6.000000
325.071080 8.000000
327.080230 7.000000
333.009340 5.000000
333.067260 5.000000
335.052580 6.000000
337.040950 22.000000
337.071440 438.000000
337.811370 5.000000
338.057980 23.000000
338.074340 92.000000
339.054690 7.000000
349.063540 59.000000
349.081450 29.000000
351.074890 16.000000
351.093080 12.000000
352.094330 5.000000
354.059330 5.000000
355.082150 6.000000
357.161560 5.000000
361.052920 11.000000
361.072390 77.000000
362.080110 10.000000
367.056120 22.000000
367.073240 94.000000
367.090240 137.000000
367.146940 6.000000
368.056150 12.000000
368.081880 73.000000
368.102510 5.000000
379.082030 214.000000
380.078920 28.000000
380.095370 14.000000
380.673800 6.000000
381.087310 18.000000
397.092470 210.000000
398.077610 7.000000
398.095700 27.000000
399.089970 8.000000
415.057040 6.000000
415.101900 289.000000
416.072970 7.000000
416.103390 68.000000
416.134950 13.000000
417.112850 26.000000
433.073270 5.000000
433.113710 231.000000
434.083770 6.000000
434.115720 74.000000
436.408600 5.000000
447.991640 6.000000
475.128810 61.000000
476.130220 13.000000
494.121090 8.000000
499.122010 8.000000
500.124360 8.000000
529.083800 8.000000
541.141110 15.000000
559.138370 10.000000
577.108580 8.000000
577.156680 223.000000
578.141850 19.000000
578.166990 35.000000
579.166380 10.000000
595.025880 8.000000
595.099000 14.000000
595.167300 1000.000000

>ms2peaks
367.070800 10.000000
367.088070 6.000000
397.086550 7.000000
415.092650 26.000000
415.120790 12.000000
416.107910 10.000000
433.109830 63.000000
434.115690 7.000000
475.125030 17.000000
499.115690 9.000000
529.125850 7.000000
559.150020 5.000000
577.145570 33.000000
577.168640 38.000000
578.146120 14.000000
578.171260 23.000000
595.084900 11.000000
595.165280 1000.000000

>ms2peaks
59.130620 7.000000
127.032270 6.000000
193.757950 11.000000
203.874770 5.000000
206.440000 11.000000
222.051960 6.000000
222.638730 10.000000
237.914870 6.000000
257.290040 5.000000
262.194760 7.000000
271.057620 75.000000
271.074070 9.000000
272.047240 5.000000
272.066560 5.000000
276.783420 9.000000
280.436340 9.000000
280.692750 6.000000
281.080840 9.000000
282.981020 8.000000
283.014770 10.000000
283.060240 1000.000000
284.054960 70.000000
284.070070 59.000000
285.068420 11.000000
295.051270 5.000000
295.067870 29.000000
296.058170 9.000000
297.048520 7.000000
297.070830 9.000000
298.506620 6.000000
302.183320 5.000000
309.004550 14.000000
309.046600 6.000000
309.087070 15.000000
309.530580 8.000000
310.048680 8.000000
310.084960 17.000000
311.065490 20.000000
311.081270 7.000000
311.968200 7.000000
313.008910 5.000000
313.020750 13.000000
313.071230 832.000000
313.274570 6.000000
314.056270 41.000000
314.074040 146.000000
314.104460 8.000000
314.964480 8.000000
315.074310 15.000000
316.087220 6.000000
318.888890 6.000000
323.069670 13.000000
323.083530 23.000000
323.096860 49.000000
324.088130 15.000000
325.066800 7.000000
325.080320 9.000000
333.078550 18.000000
336.039220 5.000000
337.024570 26.000000
337.068940 659.000000
338.062130 46.000000
338.080780 156.000000
339.060670 6.000000
339.078490 21.000000
349.024720 8.000000
349.072810 132.000000
350.070770 9.000000
350.080320 23.000000
351.094480 33.000000
352.082280 10.000000
352.093900 29.000000
356.092290 8.000000
360.883060 6.000000
361.042360 8.000000
361.073520 141.000000
362.044950 10.000000
362.077940 32.000000
367.081270 388.000000
367.113070 22.000000
368.060210 10.000000
368.086430 69.000000
368.096740 27.000000
369.089780 6.000000
379.017030 6.000000
379.045260 14.000000
379.079010 437.000000
379.107060 27.000000
380.066990 15.000000
380.089360 120.000000
397.044680 13.000000
397.069240 43.000000
397.090480 225.000000
398.086240 54.000000
398.102170 71.000000
399.114500 7.000000
415.078740 24.000000
415.104460 197.000000
416.096830 13.000000
416.116330 20.000000
420.181430 6.000000
433.119870 5.000000
434.089290 6.000000

>ms2peaks
74.034800 8.000000
85.018490 10.000000
106.902790 5.000000
109.024770 7.000000
119.052650 9.000000
121.014920 11.000000
121.027690 29.000000
121.036320 6.000000
122.999060 5.000000
133.028840 5.000000
138.030700 6.000000
145.028700 8.000000
147.049560 5.000000
148.965770 7.000000
149.022610 24.000000
149.032030 12.000000
153.011490 7.000000
163.028170 7.000000
163.040310 22.000000
165.016590 105.000000
166.027690 6.000000
177.015490 12.000000
187.041660 14.000000
189.019000 10.000000
195.026900 8.000000
203.032120 10.000000
205.053150 12.000000
215.030760 11.000000
215.066190 7.000000
229.042470 15.000000
229.054470 11.000000
232.090730 7.000000
239.072400 7.000000
240.501830 6.000000
242.058010 8.000000
243.024570 13.000000
244.029570 7.000000
254.055400 6.000000
255.071840 14.000000
256.072780 7.000000
267.063320 74.000000
267.072020 52.000000
268.069580 23.000000
269.071410 7.000000
271.057710 33.000000
271.079160 10.000000
272.057250 11.000000
277.095760 7.000000
281.019560 6.000000
281.047300 7.000000
281.064210 17.000000
281.078310 55.000000
281.096040 7.000000
282.084230 13.000000
283.006770 7.000000
283.060670 1000.000000
283.994080 5.000000
284.018740 6.000000
284.048550 45.000000
284.066130 234.000000
285.063140 27.000000
285.076050 27.000000
293.088560 23.000000
295.048250 20.000000
295.062350 59.000000
295.095060 49.000000
296.065950 16.000000
296.093600 6.000000
297.022460 13.000000
297.067870 21.000000
297.081420 29.000000
297.095610 5.000000
305.064240 16.000000
305.084350 87.000000
305.181270 6.000000
307.051670 12.000000
307.059970 27.000000
308.069370 31.000000
308.710570 8.000000
309.041110 22.000000
309.077090 387.000000
310.049530 9.000000
310.063840 12.000000
310.081330 83.000000
312.991150 12.000000
313.071990 481.000000
314.056700 11.000000
314.067840 41.000000
314.081360 32.000000
315.043000 5.000000
315.070740 25.000000
315.090240 12.000000
319.064180 6.000000
321.074190 51.000000
322.075440 8.000000
323.082030 108.000000
323.096250 118.000000
323.453670 6.000000
324.092010 22.000000
324.111820 14.000000
325.066650 7.000000
325.095520 12.000000
325.108640 5.000000
332.047180 6.000000
333.073580 45.000000
334.079500 25.000000
337.013670 8.000000
337.034610 7.000000
337.075740 89.000000
338.078640 17.000000
341.220460 6.000000
343.073670 6.000000
349.065060 37.000000
349.080140 53.000000
350.067900 12.000000
356.089870 5.000000
361.042050 13.000000
361.074520 68.000000
362.060210 11.000000
362.075470 36.000000
363.077700 7.000000
379.084690 26.000000
393.736300 6.000000
546.117550 6.000000
595.146970 7.000000
595.179140 6.000000

>ms2peaks
127.034510 10.000000
183.787690 7.000000
217.262180 7.000000
271.048430 25.000000
271.063450 30.000000
272.059750 17.000000
281.076510 8.000000
283.022090 7.000000
283.055880 465.000000
283.065430 256.000000
284.063140 111.000000
285.053860 9.000000
285.073360 23.000000
295.044590 6.000000
295.064480 20.000000
296.065730 14.000000
305.073460 9.000000
305.086730 5.000000
309.027400 8.000000
309.051790 19.000000
309.066680 69.000000
309.084010 28.000000
310.083070 10.000000
313.021820 16.000000
313.070560 465.000000
313.081820 143.000000
314.044800 21.000000
314.072750 112.000000
315.064850 13.000000
323.053280 17.000000
323.081600 42.000000
323.098360 33.000000
324.103850 6.000000
325.114530 8.000000
333.071780 7.000000
334.087920 9.000000
337.070920 329.000000
338.057920 22.000000
338.072880 68.000000
339.063390 9.000000
339.098820 6.000000
348.999940 9.000000
349.025510 10.000000
349.062930 98.000000
349.091340 8.000000
350.091550 10.000000
351.057860 6.000000
351.075960 22.000000
353.114560 5.000000
355.076110 9.000000
361.021330 6.000000
361.070160 90.000000
362.063570 28.000000
362.084410 9.000000
367.048920 12.000000
367.070010 119.000000
367.081360 139.000000
367.172640 6.000000
367.354950 8.000000
368.047760 12.000000
368.084960 40.000000
369.089630 28.000000
369.104220 8.000000
379.070470 84.000000
379.088260 135.000000
380.076930 24.000000
380.094700 10.000000
380.114650 5.000000
381.080510 6.000000
381.099640 10.000000
385.952910 5.000000
397.071750 37.000000
397.087550 161.000000
397.253540 7.000000
398.079680 11.000000
398.096500 41.000000
398.118470 5.000000
400.097140 12.000000
407.651120 6.000000
415.098450 352.000000
416.059140 8.000000
416.078640 12.000000
416.106020 76.000000
417.109310 10.000000
433.109470 243.000000
433.141630 15.000000
434.103490 47.000000
434.130710 9.000000
435.106050 7.000000
475.059690 5.000000
475.117030 18.000000
475.130920 36.000000
499.103880 6.000000
499.139310 20.000000
529.112430 6.000000
529.140080 24.000000
530.110530 10.000000
530.134090 7.000000
542.140380 6.000000
577.152830 167.000000
578.170780 38.000000
579.156010 15.000000
595.052980 7.000000
595.088500 12.000000
595.161320 1000.000000

>ms2peaks
313.073700 11.000000
415.083250 11.000000
415.104310 19.000000
416.110960 6.000000
433.083190 6.000000
433.116180 61.000000
434.117710 23.000000
499.125150 6.000000
529.146300 5.000000
577.113950 7.000000
577.158870 64.000000
578.122440 7.000000
578.165710 21.000000
579.167660 6.000000
595.051940 9.000000
595.104430 22.000000
595.166020 1000.000000

>ms2peaks
86.029810 6.000000
95.298750 5.000000
97.033710 6.000000
109.019560 5.000000
117.693360 10.000000
203.245650 5.000000
213.479420 6.000000
213.628330 6.000000
271.057680 56.000000
271.082340 10.000000
272.058930 6.000000
272.196040 5.000000
282.962310 7.000000
283.013580 10.000000
283.026460 14.000000
283.059420 1000.000000
284.065310 205.000000
284.090790 5.000000
285.048830 6.000000
285.073360 30.000000
295.058930 21.000000
295.079740 5.000000
297.047150 11.000000
297.669980 5.000000
307.044800 6.000000
309.076660 36.000000
313.069180 718.000000
313.085080 133.000000
314.022430 7.000000
314.073880 192.000000
315.062650 7.000000
315.083100 15.000000
321.062260 6.000000
323.069820 7.000000
323.095670 63.000000
323.115260 9.000000
324.090970 13.000000
327.092190 6.000000
331.053990 10.000000
334.075380 6.000000
336.062190 14.000000
337.008580 26.000000
337.069240 680.000000
338.012700 5.000000
338.065310 65.000000
338.076080 96.000000
339.064240 8.000000
339.083280 22.000000
349.038420 15.000000
349.066680 135.000000
350.065340 13.000000
351.051060 9.000000
351.076050 15.000000
351.094510 47.000000
351.175720 5.000000
352.053500 5.000000
355.080840 17.000000
361.052090 20.000000
361.072880 136.000000
362.023560 11.000000
362.077360 46.000000
363.072170 12.000000
367.028840 5.000000
367.043060 14.000000
367.076050 278.000000
367.090880 191.000000
368.065800 12.000000
368.087620 83.000000
369.092220 9.000000
379.019170 6.000000
379.077760 232.000000
379.095670 80.000000
380.085420 100.000000
380.103670 21.000000
381.088010 22.000000
397.088840 285.000000
398.091740 82.000000
399.098450 13.000000
400.093170 6.000000
414.742250 5.000000
415.076930 7.000000
415.103760 150.000000
416.108120 38.000000
433.088010 6.000000
433.107420 7.000000
434.395940 6.000000
578.147280 9.000000

>ms2peaks
69.030940 6.000000
81.031420 15.000000
91.054770 5.000000
107.043400 5.000000
109.017800 5.000000
119.049570 19.000000
121.026920 18.000000
122.025650 5.000000
132.053450 7.000000
145.033430 6.000000
149.010360 6.000000
149.022140 15.000000
149.981060 5.000000
163.036740 17.000000
165.016860 55.000000
165.024310 13.000000
174.886140 5.000000
187.007900 12.000000
187.039790 11.000000
188.034350 7.000000
191.032840 18.000000
191.039090 11.000000
199.039600 5.000000
205.050860 10.000000
209.061780 8.000000
209.636340 6.000000
215.020920 8.000000
229.032490 6.000000
235.941300 6.000000
239.067060 7.000000
243.025890 30.000000
243.036360 10.000000
244.034390 5.000000
251.098970 7.000000
255.014770 5.000000
267.044740 11.000000
267.058380 52.000000
267.070310 51.000000
268.066650 20.000000
269.071560 7.000000
270.039250 10.000000
270.062990 17.000000
271.062740 89.000000
272.062770 25.000000
279.064330 6.000000
281.059050 27.000000
281.084320 93.000000
282.085570 9.000000
282.094390 6.000000
283.025850 6.000000
283.060520 1000.000000
284.048160 31.000000
284.066680 161.000000
284.089480 11.000000
285.054200 9.000000
285.067140 12.000000
293.076420 7.000000
294.040530 15.000000
294.065120 8.000000
295.052060 61.000000
295.068210 84.000000
295.094330 15.000000
295.104830 24.000000
296.062560 17.000000
296.086270 13.000000
297.033630 6.000000
297.044950 18.000000
297.068180 12.000000
297.079220 18.000000
298.043180 8.000000
298.070560 8.000000
299.069090 5.000000
305.082730 23.000000
305.094210 16.000000
306.069430 7.000000
306.094850 6.000000
307.056670 19.000000
308.051700 12.000000
308.952510 6.000000
309.007390 9.000000
309.027680 10.000000
309.067020 112.000000
309.082760 162.000000
310.076020 49.000000
310.097530 10.000000
311.093080 7.000000
313.039430 8.000000
313.071500 531.000000
314.074830 96.000000
315.069180 15.000000
321.061070 18.000000
321.077330 16.000000
322.094390 6.000000
323.090420 133.000000
323.110080 12.000000
324.072720 8.000000
324.094240 35.000000
331.035100 6.000000
333.060360 22.000000
333.079770 34.000000
334.063050 5.000000
334.079590 6.000000
334.091280 8.000000
335.045840 6.000000
335.061980 8.000000
337.061920 35.000000
337.072450 50.000000
337.088650 26.000000
338.070310 7.000000
338.111240 6.000000
349.042480 9.000000
349.062870 96.000000
349.107390 6.000000
350.067600 32.000000
350.086430 16.000000
360.078000 9.000000
361.063140 13.000000
361.079770 57.000000
362.100490 5.000000
363.080870 7.000000
379.078030 20.000000
379.111110 6.000000
538.782960 7.000000

>ms2peaks
194.902080 6.000000
215.037350 5.000000
239.076570 6.000000
267.079410 6.000000
271.054600 11.000000
271.064300 28.000000
272.060210 12.000000
280.073580 8.000000
281.073150 13.000000
283.011260 8.000000
283.059810 526.000000
284.037480 9.000000
284.048680 22.000000
284.062410 88.000000
285.073790 8.000000
295.056430 35.000000
296.058010 8.000000
297.059630 7.000000
305.086120 5.000000
309.047270 8.000000
309.071140 18.000000
309.080440 45.000000
310.039400 5.000000
310.071350 8.000000
313.070920 461.000000
314.047000 10.000000
314.070890 78.000000
315.062840 6.000000
315.082180 6.000000
315.092530 5.000000
322.086670 10.000000
323.016720 5.000000
323.044950 11.000000
323.087520 107.000000
324.098970 18.000000
333.070280 12.000000
337.071110 297.000000
338.073880 63.000000
339.065160 8.000000
339.081020 13.000000
349.074010 67.000000
350.072270 6.000000
351.089390 16.000000
353.094210 8.000000
355.090940 9.000000
361.049840 6.000000
361.076660 70.000000
362.048100 14.000000
362.068630 7.000000
363.068820 7.000000
366.011840 5.000000
367.083980 238.000000
368.064390 11.000000
368.083890 65.000000
372.188020 9.000000
379.028530 7.000000
379.068700 85.000000
379.083620 168.000000
380.085820 35.000000
397.060910 6.000000
397.093440 191.000000
398.054290 9.000000
398.084840 17.000000
398.095090 48.000000
399.084720 14.000000
415.059540 8.000000
415.087710 56.000000
415.107240 235.000000
416.099850 62.000000
432.100220 6.000000
433.070470 13.000000
433.116700 198.000000
434.087040 7.000000
434.120030 74.000000
435.109500 9.000000
435.129210 7.000000
475.083190 8.000000
475.120640 15.000000
475.152560 6.000000
476.121800 11.000000
499.123720 17.000000
499.145600 7.000000
500.108060 7.000000
529.130920 38.000000
529.153870 8.000000
530.146000 7.000000
541.128850 7.000000
559.126460 7.000000
559.154660 7.000000
577.133910 54.000000
577.156190 141.000000
578.142330 24.000000
578.175050 24.000000
579.151060 7.000000
595.061770 6.000000
595.085510 6.000000
595.110900 18.000000
595.169010 1000.000000

>ms2peaks
313.074400 7.000000
367.074830 7.000000
367.096310 6.000000
397.093510 5.000000
415.102450 33.000000
416.105990 10.000000
433.113980 63.000000
434.116820 13.000000
434.137180 10.000000
475.128170 17.000000
499.128020 7.000000
529.137390 6.000000
577.154660 62.000000
578.158570 17.000000
579.177980 6.000000
595.105100 10.000000
595.167480 1000.000000

>ms2peaks
85.028040 30.000000
97.029540 17.000000
109.031440 10.000000
146.057070 13.000000
220.399920 5.000000
271.027130 8.000000
271.057250 37.000000
271.073390 14.000000
272.017880 5.000000
272.070560 11.000000
272.404690 6.000000
273.785580 6.000000
281.088780 9.000000
282.495570 6.000000
283.023960 26.000000
283.060550 1000.000000
284.063230 165.000000
285.070040 11.000000
295.050050 11.000000
295.065090 29.000000
296.133480 7.000000
297.070160 12.000000
309.036010 7.000000
309.056610 10.000000
309.079800 42.000000
310.089970 9.000000
311.046050 5.000000
311.062810 29.000000
312.039430 7.000000
312.059390 13.000000
312.073760 6.000000
313.070280 802.000000
313.957000 9.000000
314.075840 225.000000
315.077480 19.000000
321.063050 5.000000
321.460080 8.000000
323.076390 17.000000
323.088900 44.000000
323.103150 25.000000
324.098450 20.000000
332.127560 6.000000
333.074650 18.000000
335.092830 6.000000
336.635440 5.000000
337.071040 724.000000
337.105040 6.000000
337.292600 7.000000
338.031100 5.000000
338.043790 11.000000
338.071840 159.000000
338.087370 44.000000
339.058780 5.000000
339.080900 25.000000
344.084780 6.000000
349.070130 112.000000
350.065090 17.000000
350.084590 7.000000
351.054350 12.000000
351.079620 69.000000
352.083370 12.000000
361.041600 6.000000
361.062410 50.000000
361.071440 131.000000
362.078090 53.000000
363.078370 22.000000
367.011660 11.000000
367.031590 11.000000
367.080840 527.000000
368.083370 107.000000
369.077700 13.000000
369.095180 15.000000
379.026920 17.000000
379.082310 388.000000
380.083830 102.000000
380.094910 32.000000
381.079470 13.000000
397.034390 7.000000
397.060760 24.000000
397.091670 314.000000
398.017120 6.000000
398.060610 13.000000
398.086580 37.000000
398.097660 74.000000
399.095030 15.000000
415.104250 148.000000
415.129730 13.000000
416.113460 51.000000
416.135380 11.000000
433.120850 6.000000
493.359040 7.000000

>ms2peaks
97.029940 14.000000
109.029910 16.000000
115.055510 5.000000
119.047550 15.000000
121.028770 32.000000
131.016010 7.000000
145.028470 23.000000
149.019520 17.000000
159.048160 6.000000
163.036090 13.000000
165.009660 13.000000
165.020660 54.000000
166.018100 11.000000
171.047590 8.000000
177.015520 15.000000
179.035060 5.000000
179.467030 5.000000
183.793530 5.000000
187.039810 15.000000
189.020110 5.000000
195.026720 8.000000
201.048490 8.000000
215.027740 9.000000
217.013060 6.000000
229.050800 14.000000
231.018260 5.000000
243.024800 21.000000
243.036480 10.000000
267.056340 43.000000
267.069340 110.000000
268.067020 6.000000
270.051820 36.000000
270.067690 5.000000
271.058140 54.000000
272.065860 14.000000
277.072330 8.000000
279.055660 15.000000
279.073300 12.000000
281.066250 11.000000
281.075900 19.000000
281.088470 47.000000
282.075560 13.000000
282.092740 15.000000
283.019840 22.000000
283.059910 1000.000000
284.054140 67.000000
284.066440 251.000000
285.062590 18.000000
285.080750 17.000000
286.080110 7.000000
293.085690 7.000000
294.049530 7.000000
295.059750 121.000000
295.092740 40.000000
295.109470 14.000000
296.066800 13.000000
297.037570 7.000000
297.070310 36.000000
305.063540 11.000000
305.077300 44.000000
306.086240 8.000000
307.034300 5.000000
307.066350 23.000000
308.063960 30.000000
309.016660 5.000000
309.034760 10.000000
309.049710 36.000000
309.077450 177.000000
310.065030 27.000000
310.080380 45.000000
311.077180 18.000000
313.046360 31.000000
313.070100 435.000000
314.040830 10.000000
314.079320 62.000000
315.068880 16.000000
321.056180 6.000000
321.083340 22.000000
321.097530 6.000000
322.422700 6.000000
322.992710 8.000000
323.047060 7.000000
323.083860 111.000000
323.101500 83.000000
323.121030 7.000000
324.095670 30.000000
325.085450 7.000000
333.058960 6.000000
333.084470 14.000000
333.098850 8.000000
333.984100 6.000000
334.060360 8.000000
334.089290 11.000000
337.070340 60.000000
337.111300 9.000000
339.075410 7.000000
349.043300 18.000000
349.067470 64.000000
349.082980 16.000000
350.061710 43.000000
350.082730 8.000000
351.077210 9.000000
351.094570 7.000000
361.041290 7.000000
361.058960 17.000000
361.081420 23.000000
362.072300 18.000000
362.083620 6.000000
379.080870 9.000000
397.099520 5.000000
595.122010 7.000000
595.144650 10.000000
595.179260 35.000000

