>compound PR86191315
>parentmass 901.4794
>ionization [M-H2O+H]+
>formula C45H74O19
>rt 260.400000
>profile qtof
#smiles_iso CC1C2C(CC3C2(CCC4C3CC=C5C4(C(CC(C5)O)OC6C(C(C(C(O6)CO)O)O)O)C)C)OC1(CCC(C)COC7C(C(C(C(O7)CO)O)O)OC8C(C(C(C(O8)C)O)O)O)O
#smiles_can CC1C2C(CC3C2(CCC4C3CC=C5C4(C(CC(C5)O)OC6C(C(C(C(O6)CO)O)O)O)C)C)OC1(CCC(C)COC7C(C(C(C(O7)CO)O)O)OC8C(C(C(C(O8)C)O)O)O)O
#inchikey MYVJSVSGFJDUAQ-UHFFFAOYSA-N
#pubchem_id 76448345
#mb_accession PR310714

>ms2
71.325630 25.000000
75.045300 16.000000
98.516730 25.000000
109.062480 19.000000
125.088980 18.000000
129.055050 43.000000
145.121340 23.000000
147.061310 84.000000
149.103040 18.000000
149.134920 16.000000
157.047940 20.000000
157.103000 17.000000
159.112630 17.000000
164.058040 26.000000
167.107540 18.000000
169.096310 31.000000
170.122770 16.000000
171.125200 24.000000
185.130870 17.000000
195.127150 25.000000
210.137280 18.000000
213.590090 16.000000
215.180450 18.000000
223.136140 17.000000
227.184130 18.000000
239.195630 25.000000
241.183910 49.000000
251.165500 69.000000
251.186430 53.000000
251.951030 18.000000
252.993820 45.000000
253.184310 20.000000
255.164290 25.000000
267.173280 25.000000
269.167270 17.000000
269.187230 398.000000
270.184110 26.000000
270.199340 62.000000
271.192600 52.000000
271.205780 17.000000
274.098300 16.000000
277.131900 19.000000
281.231690 16.000000
287.205470 415.000000
288.199920 70.000000
291.093840 19.000000
300.241120 18.000000
312.190980 27.000000
314.259160 23.000000
317.138790 23.000000
362.197850 25.000000
367.274780 23.000000
377.267330 19.000000
380.218320 17.000000
395.275700 21.000000
395.311310 36.000000
395.331050 20.000000
395.665710 18.000000
396.316220 20.000000
397.251680 16.000000
397.300450 16.000000
404.775300 21.000000
411.304230 24.000000
413.284180 16.000000
413.313320 113.000000
414.321040 73.000000
415.236480 58.000000
415.258390 55.000000
419.285130 18.000000
431.221800 17.000000
431.251190 20.000000
431.307010 53.000000
432.273010 18.000000
432.312650 55.000000
433.319180 22.000000
434.327060 20.000000
449.223360 17.000000
449.248320 38.000000
449.265870 18.000000
509.898900 24.000000
524.352970 27.000000
541.349850 16.000000
557.359920 23.000000
561.366580 16.000000
575.367980 16.000000
578.297060 17.000000
586.157900 16.000000
590.804440 16.000000
593.333800 16.000000
593.383790 16.000000
594.366090 17.000000
594.397160 18.000000
595.284550 17.000000
595.303470 43.000000
595.343930 20.000000
596.318360 16.000000
596.393310 30.000000
597.328370 16.000000
667.391170 20.000000
669.626400 22.000000
686.718380 26.000000
694.489930 24.000000
720.394350 17.000000
722.400450 16.000000
739.422970 56.000000
739.455020 25.000000
740.419620 143.000000
741.433530 17.000000
817.718990 30.000000
883.455570 16.000000
900.802120 16.000000
901.404110 16.000000
901.469790 1782.000000

