>compound PR86414590
>parentmass 268.1054
>ionization [M+H]+
>formula C10H13N5O4
>rt 112.800000
>profile qtof
#smiles_iso C1=NC(=C2C(=N1)N(C=N2)C3C(C(C(O3)CO)O)O)N
#smiles_can C1=NC(=C2C(=N1)N(C=N2)C3C(C(C(O3)CO)O)O)N
#inchikey OIRDTQYFTABQOQ-UHFFFAOYSA-N
#pubchem_id 191
#mb_accession PR310808

>ms2
57.032720 20.000000
88.642170 21.000000
89.493420 16.000000
93.981290 25.000000
94.042930 24.000000
94.046780 17.000000
119.037070 38.000000
135.084470 17.000000
135.097230 29.000000
136.062940 3503.000000
136.551160 17.000000
137.065490 187.000000
137.075230 27.000000
138.064330 20.000000
145.962010 16.000000
160.240520 22.000000
179.070920 16.000000
203.074010 30.000000
225.961650 22.000000
268.078830 16.000000
268.105680 1074.000000

