>compound PR86592493
>parentmass 295.1804898
>ionization [M+H]+
>formula C19H22N2O
>rt 185.476020
>profile qtof
#smiles_iso C=C[C@H]1CN2CCC1C[C@@H]2[C@H](C3=CC=NC4=CC=CC=C34)O
#smiles_can C=CC1CN2CCC1CC2C(C3=CC=NC4=CC=CC=C34)O
#inchikey KMPWYEUPVWOPIM-FGVBSWQGSA-N
#pubchem_id 2724372
#mb_accession PR300876,PR300880,PR300884,PR300888,PR300892,PR300899,PR300903,PR300907,PR300911,PR300915,PR300918

>ms2peaks
80.049600 6.000000
81.076080 11.000000
93.485960 6.000000
96.082140 7.000000
106.070240 6.000000
109.085690 6.000000
119.072100 6.000000
130.057740 19.000000
130.066090 25.000000
132.082060 7.000000
135.096250 20.000000
142.058470 14.000000
142.069960 14.000000
143.084580 8.000000
144.078770 6.000000
154.062130 6.000000
154.069500 10.000000
156.083910 26.000000
162.083050 6.000000
166.117490 7.000000
166.126210 15.000000
167.073520 20.000000
168.074400 15.000000
168.089660 17.000000
169.081410 14.000000
170.068650 7.000000
172.082410 12.000000
178.067180 6.000000
179.063930 6.000000
180.084470 21.000000
181.093060 7.000000
182.048680 6.000000
183.095350 6.000000
184.063170 6.000000
184.086320 6.000000
194.101100 7.000000
195.091710 6.000000
197.107300 7.000000
197.114260 7.000000
207.097810 8.000000
208.118070 11.000000
220.119190 7.000000
231.109590 11.000000
234.122500 8.000000
234.137730 7.000000
245.483050 5.000000
248.134670 14.000000
248.152420 7.000000
255.625580 6.000000
266.147340 6.000000
277.161410 25.000000
277.174710 29.000000
277.193150 7.000000
278.154720 7.000000
278.175020 17.000000
290.844450 7.000000
295.066710 6.000000
295.150420 6.000000
295.182160 1000.000000

>ms2peaks
166.108660 6.000000
295.145570 25.000000
295.180760 1000.000000

>ms2peaks
67.056430 94.000000
70.064330 39.000000
77.043430 35.000000
79.049560 88.000000
79.054540 157.000000
80.057300 35.000000
81.073660 330.000000
82.061790 35.000000
82.067180 61.000000
91.049950 35.000000
93.063310 49.000000
96.080690 86.000000
96.086800 35.000000
97.088170 41.000000
103.056660 39.000000
108.078780 179.000000
108.085310 41.000000
109.085840 202.000000
109.106800 55.000000
110.092080 61.000000
110.098710 102.000000
115.464650 49.000000
119.080310 43.000000
120.075550 39.000000
120.080440 53.000000
121.095700 35.000000
122.093860 53.000000
124.099870 43.000000
124.115080 41.000000
130.054460 31.000000
130.064590 841.000000
131.063060 39.000000
132.079470 35.000000
134.094920 141.000000
134.102230 47.000000
135.104480 51.000000
136.110080 161.000000
137.110290 55.000000
138.124370 37.000000
140.138020 35.000000
141.069670 59.000000
142.061810 86.000000
142.068420 177.000000
144.069930 51.000000
144.087020 132.000000
154.064610 314.000000
155.073940 122.000000
156.064150 53.000000
156.082670 320.000000
157.058040 35.000000
157.091400 55.000000
159.076970 86.000000
164.113310 41.000000
166.116390 134.000000
166.128680 41.000000
166.800430 35.000000
167.071030 187.000000
167.127700 37.000000
168.079800 212.000000
168.092880 35.000000
168.119260 45.000000
169.067660 41.000000
169.075760 138.000000
169.090240 90.000000
169.097340 41.000000
170.095900 112.000000
170.108810 96.000000
172.076930 57.000000
180.073960 39.000000
180.087400 240.000000
181.080610 49.000000
181.087310 55.000000
182.064900 94.000000
182.085800 35.000000
184.074510 79.000000
184.088750 61.000000
185.082430 77.000000
192.087750 41.000000
193.068270 37.000000
194.094330 88.000000
194.102200 98.000000
195.097150 45.000000
196.113010 77.000000
198.112870 47.000000
204.083560 43.000000
206.095050 81.000000
210.128450 49.000000
216.074340 41.000000
216.083650 67.000000
217.090480 41.000000
220.111220 41.000000
221.110280 124.000000
223.119570 57.000000
223.127240 35.000000
224.143130 53.000000
229.325710 45.000000
231.110610 35.000000
232.113040 183.000000
234.127030 265.000000
234.138530 45.000000
235.127180 77.000000
236.130140 200.000000
236.153050 61.000000
237.136950 37.000000
247.131060 63.000000
248.147130 143.000000
252.133590 49.000000
252.151150 51.000000
267.930850 35.000000
277.171020 507.000000
278.173800 226.000000
293.142120 43.000000
295.183290 1000.000000

>ms2peaks
65.043200 183.000000
77.035050 287.000000
79.049230 146.000000
79.055890 195.000000
81.074060 110.000000
82.064140 299.000000
91.043070 110.000000
115.045560 152.000000
115.053370 1000.000000
116.045010 152.000000
120.079280 146.000000
127.055910 305.000000
127.062690 134.000000
128.054110 262.000000
128.069350 122.000000
130.057950 116.000000
130.065260 591.000000
131.068050 262.000000
139.052570 116.000000
142.064710 250.000000
144.084060 232.000000
154.068130 122.000000
156.085690 128.000000
158.046860 116.000000
158.062330 134.000000
159.067080 183.000000
166.064510 665.000000
167.051930 274.000000
167.070400 274.000000
167.075390 122.000000
172.079010 165.000000
180.080660 579.000000
181.076400 116.000000
181.087200 104.000000
184.086380 183.000000
193.077960 128.000000
195.099730 104.000000
207.070540 122.000000
219.092220 165.000000
221.111650 110.000000

>ms2peaks
79.050290 10.000000
81.071600 5.000000
84.085780 10.000000
95.079190 11.000000
96.085790 16.000000
108.086400 6.000000
110.100580 10.000000
122.095090 6.000000
129.075000 6.000000
130.050980 16.000000
130.063450 23.000000
130.068850 35.000000
132.083650 6.000000
133.086810 8.000000
134.093430 26.000000
135.106920 9.000000
142.062880 15.000000
146.095080 11.000000
153.099850 8.000000
154.067960 25.000000
155.075380 10.000000
155.081910 7.000000
156.119050 5.000000
157.079240 9.000000
167.074430 31.000000
168.081070 21.000000
169.081270 5.000000
172.073260 10.000000
177.960040 8.000000
180.084560 11.000000
182.100590 13.000000
183.091640 6.000000
183.105800 8.000000
184.085590 6.000000
191.072740 6.000000
192.073670 8.000000
192.084530 9.000000
194.098950 6.000000
195.091870 11.000000
196.113980 5.000000
197.109150 18.000000
207.088460 6.000000
208.109660 7.000000
208.122740 6.000000
218.402560 6.000000
219.108200 5.000000
220.118710 5.000000
222.095950 6.000000
223.115590 9.000000
232.094640 5.000000
232.125230 7.000000
235.123870 20.000000
248.144210 15.000000
277.174380 39.000000
277.260280 6.000000
278.162840 7.000000
278.175140 6.000000
295.145570 11.000000
295.180180 1000.000000

>ms2peaks
57.055420 50.000000
67.051690 39.000000
68.307600 39.000000
69.054020 44.000000
70.058830 72.000000
72.034030 52.000000
79.046260 92.000000
79.054600 102.000000
79.609500 52.000000
80.052410 59.000000
81.068980 161.000000
81.077550 209.000000
83.075780 54.000000
91.057570 37.000000
93.070410 89.000000
94.063400 109.000000
95.075520 52.000000
95.088330 54.000000
96.082080 109.000000
96.177180 44.000000
103.006030 54.000000
105.070970 44.000000
106.065370 48.000000
106.077380 39.000000
107.083550 113.000000
108.082760 292.000000
109.089670 39.000000
110.100650 65.000000
111.102700 72.000000
116.205830 44.000000
119.074170 44.000000
119.084560 109.000000
120.077610 78.000000
126.095380 44.000000
128.042140 44.000000
128.048490 78.000000
130.054490 139.000000
130.066210 1000.000000
131.070080 37.000000
132.075610 41.000000
132.084530 144.000000
133.084790 46.000000
133.091340 52.000000
134.069170 37.000000
134.086870 50.000000
134.093000 185.000000
134.099910 92.000000
135.111500 41.000000
136.115460 54.000000
137.116790 41.000000
138.124340 39.000000
142.063370 423.000000
142.073680 83.000000
143.060120 50.000000
143.075210 105.000000
144.074130 39.000000
144.082760 222.000000
146.058870 59.000000
146.100570 44.000000
154.065540 320.000000
155.074420 54.000000
156.049940 39.000000
156.071900 92.000000
156.079760 155.000000
157.084290 194.000000
159.069660 200.000000
160.072240 68.000000
165.075970 46.000000
166.113980 50.000000
166.121610 124.000000
167.054460 37.000000
167.067540 37.000000
167.080630 100.000000
167.117630 44.000000
168.072530 144.000000
168.084050 416.000000
169.053830 39.000000
169.070500 39.000000
169.086430 161.000000
170.077590 48.000000
170.090850 44.000000
170.621840 39.000000
171.583420 37.000000
172.071730 44.000000
173.072780 44.000000
174.093490 44.000000
179.080930 81.000000
180.072920 50.000000
180.083600 139.000000
181.078770 50.000000
182.072540 94.000000
182.089810 52.000000
183.087840 52.000000
183.100390 52.000000
185.093980 44.000000
191.074020 54.000000
192.080090 39.000000
192.368700 89.000000
194.084000 44.000000
195.088840 63.000000
195.111630 54.000000
196.103130 44.000000
196.123470 100.000000
197.108730 48.000000
204.086430 39.000000
205.099910 37.000000
205.287730 37.000000
206.098360 39.000000
207.091840 78.000000
207.103320 46.000000
208.111590 96.000000
208.122340 57.000000
209.116500 37.000000
209.130050 52.000000
212.112820 59.000000
217.079820 44.000000
219.100630 72.000000
223.124910 107.000000
224.124820 37.000000
230.097810 52.000000
233.116090 39.000000
234.122450 37.000000
234.130280 61.000000
235.119510 322.000000
235.129990 115.000000
236.130290 37.000000
236.146160 139.000000
237.106230 46.000000
244.113540 39.000000
246.126270 37.000000
248.146840 83.000000
249.140240 37.000000
252.137120 54.000000
258.134250 48.000000
275.144230 54.000000
277.163970 205.000000
277.178530 386.000000
278.161500 65.000000
279.184480 54.000000
281.155700 44.000000
295.151520 135.000000
295.178100 824.000000
295.186490 281.000000
295.200840 113.000000

>ms2peaks
56.062080 97.000000
77.043880 131.000000
79.057690 311.000000
82.067580 102.000000
91.061890 83.000000
93.058490 83.000000
94.066080 97.000000
95.066310 214.000000
96.082470 102.000000
104.059010 160.000000
107.089430 87.000000
110.090070 97.000000
110.096590 83.000000
115.053510 684.000000
127.053310 83.000000
128.027860 112.000000
128.050870 490.000000
129.054990 165.000000
130.063840 956.000000
130.073390 228.000000
131.071060 121.000000
142.062820 320.000000
142.704240 131.000000
143.056980 97.000000
143.072940 723.000000
144.080870 306.000000
151.062090 87.000000
153.050660 121.000000
154.061050 218.000000
154.071120 223.000000
155.070420 170.000000
155.079860 102.000000
156.040570 87.000000
156.084230 466.000000
159.512600 126.000000
166.062940 117.000000
167.074330 1000.000000
168.073910 97.000000
168.084530 102.000000
172.077220 87.000000
181.078660 131.000000
191.076460 117.000000
192.082900 97.000000
205.088330 189.000000
206.085780 102.000000
208.063960 83.000000
217.081240 102.000000
217.100340 97.000000
219.093080 97.000000
220.109940 117.000000
229.061230 92.000000
231.096500 160.000000
243.097350 136.000000

>ms2peaks
79.056010 5.000000
80.054260 8.000000
80.060130 6.000000
81.067930 15.000000
81.071660 33.000000
82.067210 6.000000
95.089160 5.000000
105.063880 6.000000
107.083270 5.000000
108.083640 8.000000
110.097740 10.000000
111.102450 6.000000
120.081830 6.000000
128.057460 8.000000
130.052110 10.000000
130.066830 27.000000
130.074810 8.000000
132.089340 8.000000
134.091400 5.000000
134.099370 7.000000
138.125290 8.000000
142.062290 8.000000
142.069270 15.000000
144.079130 29.000000
144.085450 12.000000
146.095320 6.000000
146.108640 8.000000
154.066250 17.000000
156.076250 13.000000
156.086580 5.000000
159.069370 13.000000
166.124530 9.000000
167.071040 18.000000
167.079510 18.000000
168.061080 11.000000
168.079270 23.000000
172.079350 5.000000
172.106310 5.000000
172.241740 6.000000
178.128830 6.000000
180.086090 20.000000
182.089550 6.000000
185.086720 5.000000
197.114620 7.000000
204.085590 16.000000
210.129380 7.000000
218.102510 14.000000
222.101720 5.000000
222.113650 9.000000
222.126070 5.000000
223.124400 9.000000
236.127660 5.000000
236.139590 8.000000
246.129350 5.000000
267.154170 8.000000
275.156890 10.000000
277.171660 57.000000
277.191250 5.000000
278.165710 7.000000
295.148830 6.000000
295.181460 1000.000000

>ms2peaks
277.152220 10.000000
295.141390 8.000000
295.181400 1000.000000

>ms2peaks
68.050930 60.000000
69.071210 54.000000
79.048770 47.000000
79.055010 199.000000
80.059270 51.000000
81.066670 195.000000
81.071400 345.000000
82.060060 87.000000
82.069710 40.000000
84.084070 54.000000
84.093130 49.000000
91.053890 101.000000
91.061200 112.000000
93.069990 69.000000
94.065460 78.000000
94.082250 78.000000
95.083480 101.000000
96.079870 136.000000
106.074100 45.000000
107.053440 69.000000
108.075930 54.000000
108.085620 51.000000
109.079250 45.000000
109.104640 78.000000
110.096910 69.000000
111.066660 51.000000
116.043110 58.000000
116.062830 51.000000
120.068980 43.000000
120.082020 94.000000
122.100250 51.000000
124.116810 110.000000
128.034420 54.000000
128.058730 67.000000
130.043820 45.000000
130.049410 65.000000
130.067210 669.000000
131.058590 43.000000
131.068410 152.000000
132.066390 56.000000
134.095840 228.000000
135.096250 45.000000
136.107800 101.000000
136.114010 85.000000
142.059490 123.000000
142.068590 219.000000
142.078000 45.000000
143.073580 266.000000
144.044370 54.000000
144.075780 40.000000
145.078900 56.000000
154.068890 74.000000
155.067140 85.000000
156.067230 56.000000
156.079190 528.000000
157.076320 38.000000
159.064880 38.000000
166.064210 58.000000
166.121490 134.000000
166.130330 43.000000
167.070470 101.000000
167.084720 85.000000
168.076540 246.000000
168.082730 503.000000
169.062700 51.000000
169.081410 43.000000
170.091870 121.000000
171.088090 38.000000
178.082340 45.000000
180.080290 273.000000
181.062300 40.000000
181.079010 152.000000
181.092040 85.000000
182.099640 96.000000
183.082950 94.000000
184.069640 94.000000
184.076550 72.000000
191.060040 38.000000
193.084210 40.000000
193.093260 92.000000
194.088550 45.000000
194.104430 192.000000
195.089200 43.000000
196.070400 51.000000
196.111250 233.000000
197.095310 51.000000
197.106990 204.000000
198.121020 40.000000
204.074430 56.000000
204.084080 51.000000
205.073940 45.000000
206.086300 65.000000
206.098740 235.000000
207.089200 81.000000
207.107410 141.000000
209.116930 43.000000
211.109410 40.000000
218.087660 40.000000
219.105000 47.000000
219.114060 43.000000
220.113330 76.000000
221.105120 273.000000
222.104520 63.000000
223.117940 69.000000
232.112200 58.000000
233.118840 47.000000
234.120150 85.000000
235.106780 38.000000
235.124760 195.000000
235.135310 45.000000
236.124770 188.000000
236.133320 81.000000
237.131030 40.000000
246.142760 38.000000
248.114790 38.000000
248.134220 38.000000
249.057660 40.000000
249.137410 47.000000
249.476790 38.000000
261.137730 51.000000
262.139770 45.000000
277.146360 63.000000
277.168850 477.000000
277.177310 195.000000
278.174710 121.000000
295.153690 110.000000
295.184910 1000.000000

>ms2peaks
81.070820 102.000000
91.057640 93.000000
101.041120 76.000000
103.054480 173.000000
115.054560 280.000000
116.064300 102.000000
127.051260 80.000000
128.041950 76.000000
130.070210 369.000000
133.084350 80.000000
144.078480 93.000000
154.068510 76.000000
156.086760 93.000000
158.056960 191.000000
166.065810 147.000000
167.078870 1000.000000
172.082320 98.000000
176.055370 84.000000
182.092060 204.000000
184.064210 120.000000
191.079150 80.000000
203.081470 76.000000
206.100770 107.000000
219.074950 80.000000
219.100070 98.000000
220.747790 93.000000
232.096070 76.000000
233.103810 89.000000
235.123020 133.000000

