>compound PR87316222
>parentmass 341.1382
>ionization [M+H]+
>formula C20H20O5
>rt 486.600000
>profile qtof
#smiles_iso CC(=CCC1=C(C=CC(=C1)C2CC(=O)C3=C(C=C(C=C3O2)O)O)O)C
#smiles_can CC(=CCC1=C(C=CC(=C1)C2CC(=O)C3=C(C=C(C=C3O2)O)O)O)C
#inchikey CGKWSLSAYABZTL-UHFFFAOYSA-N
#pubchem_id 14218027
#mb_accession PR310765

>ms2
69.074560 20.000000
97.022430 17.000000
103.051830 20.000000
103.056750 55.000000
105.069790 29.000000
107.051700 24.000000
111.884070 23.000000
123.031440 30.000000
125.023720 43.000000
127.061500 20.000000
131.049350 88.000000
131.073970 24.000000
133.066960 60.000000
142.066600 21.000000
145.064930 159.000000
147.041750 17.000000
148.055980 19.000000
152.036000 20.000000
153.003330 36.000000
153.017400 1223.000000
153.032790 25.000000
154.018420 20.000000
154.025130 43.000000
154.115260 22.000000
154.945850 21.000000
156.059940 18.000000
157.076690 40.000000
159.042540 87.000000
159.051640 38.000000
159.076320 20.000000
160.043550 23.000000
161.054440 33.000000
163.104770 18.000000
165.018800 39.000000
165.064350 45.000000
166.009280 18.000000
166.024000 23.000000
166.071140 18.000000
166.078480 20.000000
167.093930 18.000000
171.793170 28.000000
172.079790 17.000000
173.062870 133.000000
173.685910 17.000000
174.066450 17.000000
175.058470 21.000000
175.112730 41.000000
176.113530 17.000000
177.119780 22.000000
179.033400 113.000000
179.043240 55.000000
179.081590 20.000000
180.034580 22.000000
181.063950 40.000000
182.065320 39.000000
183.080110 36.000000
185.066360 19.000000
189.051610 17.000000
189.130370 17.000000
195.045000 26.000000
197.046880 18.000000
197.061340 58.000000
197.094040 50.000000
197.102890 29.000000
198.066210 25.000000
199.010010 17.000000
199.066670 39.000000
199.077470 117.000000
200.056240 28.000000
200.091000 20.000000
201.055240 108.000000
206.062290 18.000000
213.053850 19.000000
215.059600 22.000000
215.067000 57.000000
215.081760 25.000000
215.092560 46.000000
215.107860 92.000000
216.082750 37.000000
216.111910 55.000000
220.055270 22.000000
221.056320 102.000000
221.066820 178.000000
222.061250 34.000000
225.064510 48.000000
226.062060 53.000000
239.067400 93.000000
243.066220 39.000000
246.129470 20.000000
249.051410 19.000000
249.061250 57.000000
250.047150 17.000000
250.058000 20.000000
255.072050 22.000000
256.088840 19.000000
257.081120 44.000000
257.121430 17.000000
258.042510 20.000000
267.065610 1068.000000
268.066650 194.000000
269.075350 44.000000
273.075320 40.000000
273.086550 29.000000
274.083950 25.000000
279.175320 20.000000
280.092290 19.000000
284.491270 20.000000
285.080140 437.000000
286.078400 117.000000
287.066410 26.000000
307.136410 24.000000
341.087950 42.000000
341.112030 87.000000
341.137180 2035.000000
341.199490 18.000000

