>compound PR87756762
>parentmass 309.1461
>ionization [M+H]+
>formula C15H20N2O5
>rt 156.600000
>profile qtof
#smiles_iso C1=CC(=C(C=C1C=CC(=O)NCCCCC(C(=O)O)N)O)O
#smiles_can C1=CC(=C(C=C1C=CC(=O)NCCCCC(C(=O)O)N)O)O
#inchikey WVFMZTORJFNZPK-UHFFFAOYSA-N
#pubchem_id 145994460
#mb_accession PR311113

>ms2peaks
70.066350 24.000000
79.056770 18.000000
84.080000 42.000000
107.045890 23.000000
110.023900 27.000000
117.036610 106.000000
128.083850 17.000000
129.105740 20.000000
130.084980 50.000000
130.094450 18.000000
131.031650 24.000000
131.070330 17.000000
131.090700 18.000000
135.044950 64.000000
145.029420 125.000000
145.988040 16.000000
146.036220 26.000000
147.108090 89.000000
147.116170 92.000000
148.119630 20.000000
163.001890 20.000000
163.038970 416.000000
164.043900 55.000000
244.106510 19.000000
246.118480 17.000000
263.145260 17.000000
290.118350 18.000000
307.125060 17.000000
307.140620 32.000000
308.140530 20.000000
308.842710 18.000000
309.131870 91.000000
309.145720 239.000000

