>compound PR87359901
>parentmass 441.2024
>ionization [M+H]+
>formula C24H28N2O6
>rt 311.400000
>profile qtof
#smiles_iso COC1=C(C=CC(=C1)C=CC(=O)NCCCCNC(=O)C=CC2=CC(=C(C=C2)O)OC)O
#smiles_can COC1=C(C=CC(=C1)C=CC(=O)NCCCCNC(=O)C=CC2=CC(=C(C=C2)O)OC)O
#inchikey CHEMZHJQHCVLFI-UHFFFAOYSA-N
#pubchem_id 181734
#mb_accession PR311024

>ms2
72.089320 28.000000
115.084040 24.000000
117.026730 30.000000
117.033870 18.000000
145.000720 21.000000
145.028980 338.000000
146.030850 22.000000
146.039780 24.000000
149.061740 69.000000
177.056400 1184.000000
178.051900 66.000000
178.062520 113.000000
214.965420 20.000000
247.149830 32.000000
248.126270 27.000000
248.141570 17.000000
249.128720 17.000000
252.109250 17.000000
265.130400 22.000000
265.155980 528.000000
266.151210 37.000000
266.159330 128.000000
267.162840 23.000000
291.139100 43.000000
292.134890 17.000000
337.118930 16.000000
437.907290 18.000000
441.087830 22.000000
441.200530 1359.000000
441.252810 41.000000

