>compound PR87137114
>parentmass 423.2168
>ionization [M+H]+
>formula C26H30O5
>rt 557.400000
>profile qtof
#smiles_iso CC(=CCC1=CC2=C(C=C1O)OC3C2COC4=C3C(=C(C(=C4)O)CC=C(C)C)OC)C
#smiles_can CC(=CCC1=CC2=C(C=C1O)OC3C2COC4=C3C(=C(C(=C4)O)CC=C(C)C)OC)C
#inchikey WIEKYGJSRGBBTQ-UHFFFAOYSA-N
#pubchem_id 44257470
#mb_accession PR310751

>ms2
53.300610 20.000000
70.072060 20.000000
120.060170 18.000000
129.064470 17.000000
133.063420 20.000000
137.058990 18.000000
145.101850 18.000000
146.043990 31.000000
149.022030 200.000000
149.027560 96.000000
149.058320 17.000000
150.057190 22.000000
151.070420 58.000000
151.077100 67.000000
152.073760 24.000000
153.092530 39.000000
162.064700 21.000000
163.063950 18.000000
163.083740 26.000000
164.030820 18.000000
165.089290 38.000000
165.153020 22.000000
166.092790 17.000000
169.069960 21.000000
171.077910 47.000000
174.027110 45.000000
175.032040 21.000000
175.074100 23.000000
176.050550 37.000000
177.050570 42.000000
177.064910 20.000000
177.073070 25.000000
187.076170 36.000000
187.081190 17.000000
189.049270 44.000000
189.056490 86.000000
189.084900 22.000000
189.093290 28.000000
189.115520 23.000000
190.054920 18.000000
191.060580 26.000000
191.074810 130.000000
192.181760 20.000000
193.118910 19.000000
198.058930 18.000000
201.064320 17.000000
203.059970 17.000000
203.071720 20.000000
203.106370 20.000000
205.086610 188.000000
206.077240 20.000000
211.080800 23.000000
213.086090 20.000000
217.098620 22.000000
219.106740 44.000000
223.075650 17.000000
228.078950 20.000000
228.682370 19.000000
231.105620 47.000000
233.105210 20.000000
233.132980 20.000000
237.056750 21.000000
237.097560 17.000000
237.219820 18.000000
239.064960 21.000000
242.091310 26.000000
245.123660 28.000000
253.078090 21.000000
254.101750 43.000000
257.058500 17.000000
257.068240 25.000000
257.077970 17.000000
257.099490 20.000000
262.056000 38.000000
265.086270 20.000000
268.079650 17.000000
269.064610 18.000000
269.078030 74.000000
269.087040 43.000000
279.063600 24.000000
279.072970 24.000000
280.072200 39.000000
281.083160 135.000000
282.088530 19.000000
283.097080 42.000000
283.516600 17.000000
287.166660 21.000000
290.126920 24.000000
293.081300 23.000000
293.116850 19.000000
293.126920 21.000000
299.092190 25.000000
307.128750 20.000000
311.081630 109.000000
311.096950 235.000000
312.086460 17.000000
312.097470 17.000000
313.077760 19.000000
313.135930 19.000000
319.094390 18.000000
325.141270 183.000000
325.168580 18.000000
326.144440 20.000000
326.155760 17.000000
336.119930 23.000000
337.122220 20.000000
337.141940 67.000000
338.142640 59.000000
367.151370 328.000000
368.171170 17.000000
369.165440 30.000000
382.202610 18.000000
394.221950 20.000000
406.160490 19.000000
421.194890 24.000000
423.170650 44.000000
423.185640 37.000000
423.218570 1168.000000

