>compound PR87912877
>parentmass 298.097
>ionization [M+H]+
>formula C11H15N5O3S
>rt 162.000000
>profile qtof
#smiles_iso CSCC1C(C(C(O1)N2C=NC3=C(N=CN=C32)N)O)O
#smiles_can CSCC1C(C(C(O1)N2C=NC3=C(N=CN=C32)N)O)O
#inchikey WUUGFSXJNOTRMR-UHFFFAOYSA-N
#pubchem_id 149
#mb_accession PR310810

>ms2peaks
61.013260 20.000000
97.027050 30.000000
97.033840 16.000000
103.018920 25.000000
119.036990 58.000000
132.070210 16.000000
136.062520 1588.000000
137.021470 16.000000
137.058940 34.000000
137.067600 64.000000
138.064710 18.000000
139.020610 24.000000
139.026540 16.000000
145.034040 36.000000
163.045000 20.000000
180.245070 24.000000
190.885790 21.000000
209.139920 16.000000
213.166020 16.000000
219.520650 21.000000
234.982070 17.000000
298.030520 17.000000
298.041840 18.000000
298.093380 155.000000
298.104400 214.000000

