>compound PR87003901
>parentmass 449.1078379
>ionization [M+H]+
>formula C21H20O11
>rt 259.069980
>profile qtof
#smiles_iso C1=CC(=CC=C1C2=C(C(=O)C3=C(C=C(C=C3O2)O)O)O[C@H]4[C@@H]([C@H]([C@@H]([C@H](O4)CO)O)O)O)O
#smiles_can C1=CC(=CC=C1C2=C(C(=O)C3=C(C=C(C=C3O2)O)O)OC4C(C(C(C(O4)CO)O)O)O)O
#inchikey JPUKWEQWGBDDQB-QSOFNFLRSA-N
#pubchem_id 5282102
#mb_accession PR301897,PR301903,PR301909,PR301915,PR301921,PR301927,PR301933,PR301939,PR301945,PR301951,PR301957,PR301963

>ms2peaks
85.025570 19.000000
91.034670 6.000000
91.042510 11.000000
97.027950 11.000000
99.038910 7.000000
145.059910 11.000000
155.057770 11.000000
157.064470 7.000000
165.013320 14.000000
214.067030 12.000000
286.044340 8.000000
287.021850 11.000000
287.055790 1000.000000
288.052730 162.000000
288.064760 79.000000
289.068330 6.000000
289.078580 6.000000
289.237880 6.000000
299.072300 7.000000
311.052640 7.000000
345.063200 6.000000
353.057040 9.000000
449.092900 24.000000
449.113560 27.000000
449.131770 14.000000

>ms2peaks
127.037210 9.000000
189.953600 13.000000
286.920990 6.000000
287.015530 12.000000
287.032040 36.000000
287.056000 1000.000000
288.042480 7.000000
288.058930 160.000000
288.076540 16.000000
289.057800 67.000000
329.067110 6.000000
449.035430 6.000000
449.054350 6.000000
449.079160 32.000000
449.110570 173.000000

>ms2peaks
57.031010 8.000000
69.032710 25.000000
81.033450 10.000000
85.022230 9.000000
85.031200 12.000000
86.510770 6.000000
93.029520 10.000000
97.024630 18.000000
97.030560 27.000000
105.021970 9.000000
127.038990 9.000000
137.009230 10.000000
153.021880 7.000000
165.020630 6.000000
173.412510 6.000000
241.031620 6.000000
258.056340 6.000000
287.012150 7.000000
287.055660 1000.000000
288.036500 6.000000
288.053800 104.000000
288.070100 30.000000
288.081050 19.000000
288.092350 7.000000
288.154450 6.000000
288.787230 6.000000
289.045650 25.000000
289.067110 32.000000
295.259700 6.000000
299.001710 8.000000
323.056240 8.000000
326.068600 9.000000
329.053220 8.000000
379.058650 6.000000
395.089510 9.000000

>ms2peaks
68.999020 50.000000
81.029530 77.000000
85.029250 53.000000
97.028910 62.000000
105.027790 128.000000
105.035650 56.000000
115.059200 68.000000
121.030530 181.000000
123.932640 59.000000
129.072430 59.000000
131.049100 98.000000
136.015470 74.000000
137.022090 107.000000
147.037250 104.000000
152.009060 125.000000
152.996750 56.000000
153.018250 858.000000
154.027080 261.000000
157.021680 56.000000
157.070560 56.000000
160.032200 59.000000
161.055050 68.000000
162.060670 62.000000
163.037260 50.000000
165.007740 74.000000
165.015730 50.000000
166.024050 104.000000
166.583180 59.000000
169.071320 83.000000
185.046130 98.000000
185.058840 139.000000
203.064360 50.000000
203.075820 62.000000
213.033660 62.000000
213.051410 199.000000
213.064500 95.000000
214.056350 59.000000
216.030750 71.000000
229.062390 113.000000
231.042860 62.000000
240.297210 50.000000
241.045930 178.000000
241.052990 56.000000
246.030320 62.000000
258.056270 62.000000
259.060850 205.000000
269.044130 77.000000
287.016910 62.000000
287.044400 211.000000
287.061680 1000.000000
287.078700 62.000000
288.078520 65.000000
290.052000 77.000000

>ms2peaks
85.028510 21.000000
85.035170 8.000000
97.026580 15.000000
111.005930 7.000000
121.029450 5.000000
127.043430 9.000000
127.094990 6.000000
145.043870 16.000000
145.050810 9.000000
152.067200 11.000000
153.022350 7.000000
158.402880 9.000000
185.061750 8.000000
197.023650 5.000000
213.052120 6.000000
241.048750 9.000000
242.039760 7.000000
287.055050 1000.000000
287.937680 8.000000
288.034240 9.000000
288.061310 220.000000
289.053130 6.000000
289.066350 11.000000
299.054170 8.000000
329.067050 6.000000
330.034730 6.000000
449.096980 21.000000
449.111850 74.000000

>ms2peaks
85.027370 8.000000
127.035960 7.000000
127.045230 5.000000
286.984340 5.000000
287.008640 5.000000
287.056270 1000.000000
288.058410 193.000000
289.046330 6.000000
289.057250 15.000000
291.662380 5.000000
311.049800 9.000000
329.072660 5.000000
343.011140 7.000000
447.974430 6.000000
449.062560 8.000000
449.092900 52.000000
449.116610 171.000000

>ms2peaks
61.029650 7.000000
71.050770 8.000000
81.032170 6.000000
85.018820 7.000000
85.029820 39.000000
97.016360 6.000000
97.031390 25.000000
99.041190 9.000000
115.033360 9.000000
127.038540 8.000000
154.024990 11.000000
165.014720 8.000000
173.875840 5.000000
176.780300 5.000000
282.107390 6.000000
286.901920 11.000000
286.961270 19.000000
287.013460 10.000000
287.054530 1000.000000
287.514710 6.000000
287.577510 5.000000
288.029820 8.000000
288.061000 137.000000
289.056090 19.000000
289.067690 14.000000
291.096920 7.000000
306.681430 14.000000
311.048890 6.000000
327.287720 9.000000
365.059540 8.000000

>ms2peaks
85.024930 85.000000
85.029980 88.000000
91.017450 85.000000
93.037220 71.000000
105.033090 65.000000
107.050000 59.000000
109.028010 59.000000
111.007630 90.000000
121.029340 458.000000
121.064510 56.000000
126.300250 48.000000
127.036180 68.000000
133.026760 107.000000
136.027980 93.000000
137.018420 79.000000
145.066070 90.000000
147.047740 339.000000
153.019380 904.000000
154.020940 54.000000
157.024600 65.000000
157.054960 99.000000
165.015580 424.000000
165.129970 68.000000
170.066310 76.000000
171.049640 85.000000
172.059940 130.000000
203.035030 68.000000
211.144060 73.000000
229.029460 96.000000
229.048190 110.000000
231.065340 90.000000
241.046250 59.000000
257.048680 110.000000
258.033870 121.000000
258.042450 71.000000
258.064910 71.000000
286.987730 65.000000
287.050750 1000.000000
288.057890 266.000000
289.068120 59.000000
436.511470 48.000000

>ms2peaks
72.340160 5.000000
85.023820 16.000000
85.032460 6.000000
111.006320 5.000000
145.051090 5.000000
153.019470 14.000000
164.896710 6.000000
165.016770 7.000000
167.047650 8.000000
197.053050 7.000000
203.040410 8.000000
231.064710 13.000000
258.056090 10.000000
272.170960 6.000000
286.867650 12.000000
287.054780 1000.000000
287.431730 5.000000
288.030030 15.000000
288.055820 88.000000
288.069120 26.000000
289.068080 9.000000
292.033260 8.000000
301.266630 5.000000
440.416660 10.000000
449.098140 52.000000
449.120240 8.000000

>ms2peaks
59.267510 7.000000
107.465220 5.000000
127.037750 7.000000
145.053420 10.000000
197.862030 5.000000
282.461460 5.000000
286.866180 11.000000
287.015620 17.000000
287.055020 1000.000000
287.078740 8.000000
288.021360 8.000000
288.058500 194.000000
288.826110 7.000000
289.047180 5.000000
289.063230 11.000000
290.234340 14.000000
294.362120 8.000000
431.064030 5.000000
448.717590 6.000000
449.039030 7.000000
449.107210 320.000000

>ms2peaks
68.996960 7.000000
85.025820 46.000000
85.032840 15.000000
97.025060 6.000000
97.028790 18.000000
127.040030 6.000000
133.026430 24.000000
137.024340 10.000000
145.047030 7.000000
153.016240 13.000000
175.740220 6.000000
187.860150 13.000000
231.857850 9.000000
258.046970 8.000000
275.706270 8.000000
281.572360 7.000000
281.928040 7.000000
283.001220 7.000000
286.103790 8.000000
286.994840 8.000000
287.026430 23.000000
287.054470 1000.000000
287.366520 9.000000
288.029300 10.000000
288.055790 131.000000
288.068210 45.000000
288.256410 6.000000
289.070560 42.000000
290.056760 11.000000
291.511050 7.000000
325.072360 12.000000
329.950350 7.000000
330.069490 11.000000
353.062960 11.000000
367.084290 13.000000

>ms2peaks
61.025970 61.000000
81.036900 76.000000
85.030580 73.000000
97.024520 98.000000
97.030210 82.000000
105.039920 73.000000
107.050100 180.000000
108.049580 91.000000
111.010490 82.000000
121.017050 70.000000
121.031810 332.000000
127.037530 95.000000
127.044240 110.000000
128.044910 107.000000
133.026410 70.000000
137.025160 149.000000
147.042210 116.000000
149.064710 98.000000
152.483320 52.000000
153.004000 104.000000
153.018510 1000.000000
154.015780 137.000000
157.066010 247.000000
165.022090 125.000000
170.062410 61.000000
172.041490 64.000000
189.050450 101.000000
191.082690 79.000000
199.039990 95.000000
203.053330 64.000000
213.034670 67.000000
213.051380 296.000000
231.068770 61.000000
238.983660 116.000000
242.049820 61.000000
242.516560 76.000000
243.070310 64.000000
245.048480 73.000000
258.046480 201.000000
259.059750 52.000000
260.061860 64.000000
269.057710 91.000000
287.030030 76.000000
287.052580 183.000000
288.063390 238.000000
289.054170 125.000000
289.073120 76.000000

