>compound PR87236591
>parentmass 265.1559
>ionization [M+H]+
>formula C14H20N2O3
>rt 193.800000
>profile qtof
#smiles_iso CC(C)C(C(=O)NC(CC1=CC=CC=C1)C(=O)O)N
#smiles_can CC(C)C(C(=O)NC(CC1=CC=CC=C1)C(=O)O)N
#inchikey GJNDXQBALKCYSZ-UHFFFAOYSA-N
#pubchem_id 144746
#mb_accession PR311059

>ms2peaks
72.081330 71.000000
72.087430 16.000000
92.048850 16.000000
106.064540 17.000000
108.059080 17.000000
111.020840 20.000000
120.086760 30.000000
121.085330 20.000000
161.985440 16.000000
166.069700 34.000000
166.087310 102.000000
176.091400 23.000000
216.123900 19.000000
265.155700 90.000000

