>compound PR87398016
>parentmass 433.1129233000001
>ionization [M+H]+
>formula C21H20O10
>rt 237.843000
>profile qtof
#smiles_iso C1=CC(=CC=C1C2=CC(=O)C3=C(O2)C(=C(C=C3O)O)[C@H]4[C@@H]([C@H]([C@@H]([C@H](O4)CO)O)O)O)O
#smiles_can C1=CC(=CC=C1C2=CC(=O)C3=C(O2)C(=C(C=C3O)O)C4C(C(C(C(O4)CO)O)O)O)O
#inchikey SGEWCQFRYRRZDC-VPRICQMDSA-N
#pubchem_id 5280441
#mb_accession PR302551,PR302557,PR302563,PR302569,PR302575,PR302581,PR302587,PR302593,PR302599,PR302605,PR302611,PR302617

>ms2peaks
121.024930 8.000000
121.032770 13.000000
165.020420 8.000000
211.066500 6.000000
213.049220 5.000000
217.048340 20.000000
243.036220 13.000000
255.074200 7.000000
256.067290 6.000000
256.077150 11.000000
261.046390 6.000000
271.047940 7.000000
271.062810 6.000000
283.058990 279.000000
284.064150 101.000000
284.077820 40.000000
285.070310 35.000000
286.072600 5.000000
295.056640 41.000000
296.067540 12.000000
297.076660 42.000000
298.082060 8.000000
308.076510 9.000000
309.055390 9.000000
309.080050 7.000000
311.050420 13.000000
313.016880 6.000000
313.048490 36.000000
313.070340 319.000000
314.056610 14.000000
314.074680 67.000000
315.070890 8.000000
321.068050 5.000000
323.065610 11.000000
323.084170 37.000000
323.096220 53.000000
325.077330 18.000000
325.107700 6.000000
327.078700 10.000000
327.092220 9.000000
337.069790 103.000000
337.082030 28.000000
338.074950 11.000000
343.081240 16.000000
343.091920 7.000000
344.080630 6.000000
349.072970 9.000000
351.089140 29.000000
361.072810 6.000000
367.052580 7.000000
367.078830 78.000000
368.086240 14.000000
379.061740 8.000000
379.078950 31.000000
380.090360 7.000000
381.099150 6.000000
397.094020 111.000000
398.082520 21.000000
398.099550 24.000000
399.110080 6.000000
400.102720 6.000000
415.101590 151.000000
416.107240 39.000000
416.121770 14.000000
417.115720 8.000000
433.052310 16.000000
433.069760 11.000000
433.111660 1000.000000
433.168700 5.000000

>ms2peaks
313.066250 8.000000
313.079380 6.000000
397.101990 5.000000
415.088260 16.000000
415.104980 19.000000
433.033080 8.000000
433.064060 8.000000
433.110570 1000.000000

>ms2peaks
109.031270 9.000000
121.018420 8.000000
121.023490 22.000000
121.029500 7.000000
179.031620 7.000000
214.055470 6.000000
215.022580 5.000000
217.043030 35.000000
225.289980 6.000000
232.044620 6.000000
234.933440 5.000000
235.072570 7.000000
241.056080 6.000000
243.027950 63.000000
243.069230 17.000000
244.041150 6.000000
247.060520 5.000000
259.041380 7.000000
259.058380 36.000000
260.069820 6.000000
263.075780 6.000000
268.071170 5.000000
270.050570 11.000000
271.053160 14.000000
271.073270 6.000000
272.067600 18.000000
283.027190 24.000000
283.059810 782.000000
284.063900 277.000000
285.056300 14.000000
285.074520 30.000000
286.070400 9.000000
295.032750 8.000000
295.046050 21.000000
295.061460 78.000000
296.047420 7.000000
296.063420 21.000000
297.075810 123.000000
298.081450 37.000000
305.085850 6.000000
308.069240 23.000000
309.034520 7.000000
309.068700 38.000000
309.086980 12.000000
310.070470 10.000000
311.029540 8.000000
311.045260 18.000000
311.057460 56.000000
312.060760 21.000000
313.027370 13.000000
313.040340 21.000000
313.071010 1000.000000
314.029600 6.000000
314.043580 9.000000
314.067540 186.000000
314.080380 125.000000
315.070250 5.000000
315.078770 14.000000
321.070040 14.000000
322.921020 5.000000
323.057830 23.000000
323.091860 358.000000
324.064060 5.000000
324.093110 48.000000
324.112790 8.000000
325.068570 53.000000
326.058990 6.000000
326.073700 9.000000
326.085820 14.000000
327.086790 25.000000
333.079500 8.000000
335.093540 5.000000
337.039280 6.000000
337.069210 199.000000
338.061000 17.000000
338.075930 40.000000
341.059110 5.000000
343.077610 38.000000
343.090580 20.000000
344.076970 7.000000
344.090330 9.000000
349.079740 12.000000
350.077910 7.000000
351.073180 39.000000
351.087460 86.000000
352.086520 12.000000
353.049320 6.000000
353.980190 6.000000
355.061000 8.000000
355.086940 22.000000
356.075560 6.000000
356.089290 8.000000
361.074950 13.000000
367.078460 126.000000
367.965330 5.000000
368.068570 6.000000
368.086790 12.000000
369.087980 12.000000
379.071500 36.000000
379.082610 57.000000
380.085570 14.000000
381.090360 5.000000
397.090670 215.000000
398.045070 6.000000
398.074740 16.000000
398.095180 16.000000
399.089630 6.000000
415.104160 34.000000

>ms2peaks
55.018840 9.000000
57.027290 12.000000
68.992390 10.000000
69.025910 9.000000
69.998320 9.000000
79.015050 95.000000
79.019940 53.000000
80.022820 12.000000
85.029500 35.000000
85.033710 10.000000
86.033060 10.000000
91.046850 13.000000
92.052570 10.000000
93.026220 14.000000
93.031780 15.000000
95.046740 18.000000
97.029860 11.000000
99.047810 10.000000
103.053890 11.000000
106.034420 26.000000
107.009510 14.000000
107.051700 11.000000
109.149360 11.000000
110.034000 14.000000
115.046540 13.000000
115.055980 15.000000
119.045960 149.000000
119.053270 26.000000
119.746100 9.000000
120.024590 13.000000
120.054280 111.000000
121.027660 528.000000
121.068530 9.000000
122.025140 14.000000
122.032390 69.000000
122.978550 14.000000
123.000060 18.000000
123.012110 38.000000
123.040180 20.000000
125.022380 36.000000
125.030470 22.000000
128.055020 25.000000
131.050580 24.000000
133.023860 11.000000
135.038010 9.000000
137.008580 11.000000
137.024570 32.000000
137.064730 15.000000
138.029920 173.000000
141.737170 10.000000
142.077320 15.000000
143.043790 24.000000
143.050340 32.000000
145.024720 107.000000
145.039610 28.000000
145.062650 49.000000
145.837280 12.000000
146.014590 9.000000
146.032030 49.000000
147.041730 61.000000
147.071560 19.000000
148.994050 11.000000
149.023530 92.000000
149.086240 10.000000
153.014390 10.000000
154.072710 12.000000
155.039320 12.000000
156.498810 9.000000
157.065200 46.000000
157.075300 13.000000
158.071960 11.000000
158.965970 16.000000
159.040800 14.000000
160.053940 11.000000
161.023350 30.000000
161.029560 25.000000
161.054980 10.000000
162.019820 14.000000
162.035550 14.000000
163.035430 99.000000
163.047560 9.000000
164.039320 14.000000
164.999950 10.000000
165.013430 81.000000
165.021590 230.000000
165.056640 14.000000
165.065050 25.000000
166.023960 10.000000
166.050380 9.000000
167.031520 27.000000
167.045360 28.000000
167.668150 9.000000
168.036470 10.000000
169.067230 13.000000
171.047010 11.000000
172.091780 26.000000
175.041840 12.000000
175.689560 13.000000
176.039320 25.000000
177.016340 32.000000
177.042760 20.000000
177.056080 11.000000
178.081440 13.000000
179.025010 10.000000
179.033570 24.000000
181.014530 18.000000
181.061840 34.000000
181.072310 27.000000
182.075320 53.000000
183.042160 23.000000
185.053510 23.000000
185.062530 20.000000
186.032180 10.000000
186.999590 10.000000
187.039950 49.000000
188.046540 24.000000
189.017970 61.000000
189.050750 14.000000
189.675420 21.000000
191.036010 65.000000
192.056660 17.000000
193.013430 9.000000
194.181610 14.000000
195.027630 10.000000
196.021210 21.000000
196.037870 11.000000
196.056760 17.000000
197.025380 9.000000
197.053440 19.000000
197.064380 33.000000
198.065630 10.000000
199.036710 12.000000
199.073530 36.000000
199.082870 13.000000
200.044770 27.000000
200.081650 9.000000
201.011610 19.000000
201.020890 21.000000
202.038390 19.000000
202.065430 9.000000
204.915620 18.000000
205.030790 9.000000
206.063690 20.000000
210.048020 9.000000
210.058760 27.000000
210.069660 10.000000
211.041400 9.000000
211.074810 136.000000
212.066470 11.000000
212.085630 33.000000
213.006880 12.000000
213.054200 259.000000
214.042310 9.000000
214.062360 13.000000
215.036960 26.000000
215.079240 62.000000
215.090880 37.000000
215.481170 11.000000
216.031300 13.000000
216.076080 19.000000
217.048230 24.000000
223.069900 19.000000
223.123660 9.000000
225.089660 13.000000
227.032750 13.000000
227.064320 92.000000
227.075040 49.000000
227.123250 13.000000
228.015750 10.000000
228.064820 14.000000
228.074330 37.000000
229.049040 13.000000
229.069110 10.000000
234.048110 30.000000
234.064530 28.000000
234.072040 34.000000
234.086500 18.000000
234.926240 16.000000
235.072400 14.000000
237.051510 35.000000
237.059540 18.000000
238.062060 41.000000
239.065520 11.000000
239.074920 19.000000
240.084000 15.000000
241.039080 28.000000
241.053830 107.000000
242.050800 37.000000
242.064530 14.000000
243.062070 18.000000
249.059170 13.000000
250.060970 11.000000
251.070770 13.000000
251.080170 16.000000
252.071180 9.000000
252.433400 9.000000
254.050810 36.000000
254.065840 22.000000
254.822040 11.000000
255.032210 21.000000
255.064190 483.000000
256.041020 17.000000
256.071010 552.000000
256.089200 13.000000
256.150210 21.000000
256.819790 12.000000
257.029480 9.000000
257.067110 39.000000
257.075780 78.000000
257.091160 8.000000
257.208890 9.000000
258.029970 9.000000
258.070430 12.000000
258.089450 14.000000
259.067750 12.000000
262.052340 14.000000
263.051970 9.000000
265.032780 11.000000
265.042760 13.000000
265.058410 25.000000
266.038850 9.000000
266.048430 23.000000
266.059910 65.000000
267.047000 10.000000
267.069730 47.000000
267.112370 20.000000
268.064180 15.000000
269.079590 15.000000
270.053310 21.000000
270.517730 10.000000
271.042570 10.000000
271.062870 45.000000
273.514650 10.000000
274.117030 11.000000
279.063020 46.000000
280.060580 18.000000
280.073090 25.000000
281.079410 36.000000
283.058110 1000.000000
284.031220 36.000000
284.068480 995.000000
284.175420 9.000000
285.026920 17.000000
285.070950 269.000000
286.046360 9.000000
286.065770 23.000000
286.085420 9.000000
291.062930 18.000000
294.128850 17.000000
294.881840 18.000000
295.038270 52.000000
295.061490 314.000000
295.105650 9.000000
295.910980 9.000000
296.043670 9.000000
296.055790 27.000000
296.100710 19.000000
297.036380 13.000000
297.072660 417.000000
297.088470 74.000000
298.059940 9.000000
298.075560 52.000000
298.099880 11.000000
299.058620 10.000000
305.089540 11.000000
306.096340 14.000000
308.001070 13.000000
308.068940 55.000000
308.438840 9.000000
308.772250 9.000000
309.043060 14.000000
309.070710 33.000000
310.082240 66.000000
313.055970 15.000000
313.073460 101.000000
314.075040 73.000000
315.071040 14.000000
321.068180 23.000000
321.081910 18.000000
323.057220 9.000000
323.084140 47.000000
323.098050 50.000000
324.091710 10.000000
325.065700 9.000000
325.124510 12.000000
325.219790 9.000000
327.099950 12.000000
333.076080 9.000000
334.094020 14.000000
335.079320 12.000000
335.101990 11.000000
337.065310 31.000000
340.104220 12.000000
362.077550 12.000000
366.106050 9.000000
399.907960 13.000000
415.763090 12.000000
433.102720 14.000000

>ms2peaks
121.024910 17.000000
189.053510 7.000000
191.029720 6.000000
213.048780 13.000000
217.053600 15.000000
243.031010 12.000000
243.063610 6.000000
255.061630 6.000000
256.066350 9.000000
256.079410 5.000000
270.048650 7.000000
283.042420 26.000000
283.060150 233.000000
284.017030 6.000000
284.066280 151.000000
284.077670 39.000000
285.068730 19.000000
286.069920 8.000000
295.054110 33.000000
295.072940 15.000000
296.056060 6.000000
296.070100 11.000000
297.069460 22.000000
297.081020 20.000000
298.074580 12.000000
308.066070 7.000000
309.067380 9.000000
311.049710 5.000000
311.065670 5.000000
313.029910 8.000000
313.070100 350.000000
314.067810 25.000000
314.079590 31.000000
315.074160 17.000000
315.098600 5.000000
323.095340 63.000000
324.088440 11.000000
324.103850 6.000000
325.053680 6.000000
325.067990 10.000000
327.088960 14.000000
337.065640 78.000000
337.075560 56.000000
338.062040 5.000000
338.076870 10.000000
343.080660 39.000000
344.086940 7.000000
351.058840 5.000000
351.087100 28.000000
351.099460 8.000000
355.085940 6.000000
367.061610 18.000000
367.084110 74.000000
367.104250 7.000000
368.069430 9.000000
368.085540 5.000000
379.064510 13.000000
379.088870 45.000000
397.075470 45.000000
397.092740 103.000000
398.088100 23.000000
398.103240 11.000000
399.104160 7.000000
415.091220 83.000000
415.110930 86.000000
416.080660 11.000000
416.106780 24.000000
417.132630 8.000000
433.112000 1000.000000

>ms2peaks
313.059750 5.000000
313.077550 6.000000
397.093990 8.000000
415.084690 6.000000
415.102570 25.000000
416.113530 8.000000
433.050690 12.000000
433.066220 8.000000
433.113620 1000.000000

>ms2peaks
121.026020 18.000000
123.032130 5.000000
123.042140 7.000000
165.019350 22.000000
169.033450 7.000000
177.017680 5.000000
189.052280 9.000000
217.035660 6.000000
217.049060 34.000000
219.032560 7.000000
235.064930 13.000000
236.074300 10.000000
243.025600 19.000000
243.036800 22.000000
243.058290 6.000000
243.073590 7.000000
244.036940 9.000000
259.051880 11.000000
259.063600 26.000000
260.061280 6.000000
261.042110 9.000000
267.069730 8.000000
270.060520 7.000000
271.055210 9.000000
271.076050 5.000000
280.056120 8.000000
280.066620 10.000000
282.949520 7.000000
283.023320 11.000000
283.060700 728.000000
284.049560 40.000000
284.068330 234.000000
284.417630 6.000000
285.043700 8.000000
285.062010 20.000000
285.081480 27.000000
286.074250 11.000000
290.049560 6.000000
295.053770 62.000000
295.068080 38.000000
295.091030 10.000000
296.048860 9.000000
296.063080 13.000000
297.046390 17.000000
297.074980 119.000000
298.082920 25.000000
306.580630 5.000000
307.061680 8.000000
308.080020 16.000000
309.072720 44.000000
311.017970 7.000000
311.037410 7.000000
311.055330 60.000000
312.066590 7.000000
313.001310 9.000000
313.014740 14.000000
313.036470 23.000000
313.070560 1000.000000
314.076750 261.000000
315.072570 25.000000
320.072110 6.000000
321.086700 6.000000
322.074250 13.000000
323.052760 51.000000
323.086640 132.000000
323.097470 186.000000
324.067080 11.000000
324.096860 60.000000
324.115630 11.000000
325.072140 108.000000
326.076840 10.000000
327.084590 18.000000
337.071140 219.000000
338.000820 6.000000
338.055270 18.000000
338.076260 45.000000
339.084440 14.000000
341.069700 11.000000
343.056730 9.000000
343.082490 70.000000
344.090610 22.000000
349.060150 10.000000
349.079470 15.000000
351.077970 38.000000
351.094820 51.000000
352.096190 11.000000
354.105040 6.000000
355.065860 14.000000
355.083370 28.000000
361.067840 12.000000
361.082950 7.000000
362.101010 6.000000
367.075930 60.000000
367.095000 61.000000
368.097110 6.000000
369.095210 11.000000
379.063660 19.000000
379.086150 114.000000
380.073640 13.000000
394.322050 5.000000
397.069000 18.000000
397.094570 172.000000
398.077910 9.000000
398.101990 37.000000
415.093200 33.000000
415.108700 32.000000
416.092710 5.000000
416.116300 18.000000
417.102480 7.000000

>ms2peaks
55.013330 16.000000
55.025390 16.000000
65.037550 14.000000
67.058040 9.000000
69.002240 19.000000
79.016460 44.000000
79.022120 71.000000
79.053580 13.000000
80.022760 11.000000
81.014690 9.000000
81.034400 13.000000
85.027850 58.000000
85.035470 16.000000
91.048330 11.000000
93.030970 46.000000
93.221040 13.000000
95.012870 11.000000
95.046720 16.000000
97.019870 10.000000
103.903660 11.000000
104.972380 12.000000
107.009910 56.000000
107.047240 10.000000
109.027860 31.000000
109.059620 14.000000
110.032000 34.000000
111.042110 66.000000
114.139060 11.000000
119.048840 92.000000
120.053450 40.000000
120.059950 56.000000
120.072720 16.000000
120.993910 32.000000
121.004700 21.000000
121.028850 839.000000
121.052710 13.000000
121.795630 10.000000
121.871280 15.000000
122.020220 27.000000
122.028610 21.000000
122.035960 14.000000
123.009510 29.000000
125.019610 38.000000
125.026930 9.000000
128.062150 38.000000
128.700380 22.000000
131.047590 37.000000
131.056080 22.000000
134.034730 16.000000
134.040510 11.000000
137.020950 15.000000
137.027790 11.000000
138.002530 14.000000
138.019230 42.000000
138.029190 104.000000
138.036330 34.000000
142.043000 11.000000
142.780270 13.000000
143.052150 10.000000
145.011540 17.000000
145.026570 181.000000
145.031520 90.000000
145.063580 13.000000
145.077270 18.000000
146.034850 17.000000
147.004410 14.000000
147.039250 10.000000
147.046720 21.000000
149.015550 29.000000
149.028590 17.000000
150.035020 14.000000
150.059460 16.000000
152.057740 13.000000
153.018190 43.000000
153.059480 12.000000
153.067230 14.000000
154.018170 11.000000
155.037630 12.000000
157.062810 44.000000
160.049380 9.000000
161.062960 11.000000
162.034840 16.000000
163.026660 22.000000
163.036420 73.000000
163.995710 13.000000
164.038510 9.000000
164.051650 11.000000
165.017780 247.000000
165.059080 15.000000
166.017840 23.000000
167.031950 31.000000
167.039600 20.000000
168.037830 12.000000
169.037770 19.000000
169.065730 37.000000
169.631040 23.000000
170.077130 14.000000
171.047710 14.000000
172.057330 15.000000
173.506410 11.000000
174.068440 10.000000
175.027970 10.000000
175.046750 10.000000
177.017000 38.000000
177.050420 10.000000
177.055420 27.000000
178.060820 17.000000
178.890720 15.000000
179.012680 20.000000
179.030080 83.000000
180.036120 38.000000
181.061770 18.000000
181.071610 76.000000
181.539660 11.000000
181.571730 14.000000
182.051730 9.000000
182.076280 51.000000
185.048520 25.000000
185.057080 92.000000
186.055540 12.000000
186.067260 83.000000
187.034360 24.000000
187.042480 52.000000
188.049900 22.000000
188.074110 14.000000
189.013520 39.000000
190.044630 10.000000
191.030320 34.000000
193.041400 27.000000
195.030350 20.000000
195.076720 12.000000
197.041750 12.000000
197.052350 54.000000
197.061480 25.000000
198.254850 9.000000
199.055740 10.000000
199.077550 13.000000
200.008180 18.000000
202.065540 44.000000
205.013050 28.000000
205.040390 14.000000
205.054660 10.000000
205.064970 13.000000
206.061190 18.000000
207.069790 28.000000
209.042360 11.000000
209.077160 12.000000
209.606930 19.000000
210.069370 48.000000
211.023270 9.000000
211.032500 27.000000
211.072430 82.000000
211.087280 68.000000
212.076780 31.000000
212.088790 9.000000
213.039720 17.000000
213.057270 215.000000
214.040310 13.000000
214.053050 47.000000
214.080110 9.000000
215.018590 9.000000
215.033910 12.000000
215.044050 12.000000
215.060260 41.000000
216.077680 12.000000
216.351100 13.000000
217.014860 16.000000
217.051850 10.000000
219.391040 9.000000
221.063170 21.000000
224.050640 18.000000
224.153930 9.000000
227.068480 142.000000
228.000340 11.000000
228.036650 14.000000
228.063920 37.000000
228.084320 75.000000
228.695450 11.000000
229.073210 10.000000
229.983800 9.000000
231.082960 14.000000
233.757710 11.000000
234.082140 22.000000
235.067370 15.000000
237.054920 15.000000
238.052440 15.000000
238.061750 55.000000
239.053680 11.000000
239.069810 24.000000
239.654530 10.000000
240.078630 10.000000
241.034180 15.000000
241.042040 46.000000
241.055150 48.000000
241.333070 13.000000
242.000980 9.000000
242.010540 12.000000
242.052600 78.000000
242.069530 21.000000
242.179000 9.000000
243.026690 14.000000
243.062010 23.000000
243.071300 9.000000
244.061400 18.000000
249.046460 23.000000
250.053500 9.000000
251.050610 12.000000
251.076200 15.000000
253.052430 11.000000
253.078380 10.000000
255.005800 12.000000
255.035640 27.000000
255.064970 474.000000
256.070040 429.000000
256.083470 149.000000
256.589510 14.000000
257.071840 16.000000
257.082820 28.000000
257.351380 11.000000
258.076540 9.000000
262.056920 25.000000
264.075870 17.000000
265.023930 18.000000
265.046200 30.000000
265.056150 25.000000
266.043270 13.000000
266.058380 102.000000
267.045410 18.000000
267.053160 47.000000
267.072200 21.000000
267.095400 9.000000
268.068020 47.000000
268.082790 14.000000
269.038480 11.000000
269.075990 52.000000
270.052400 23.000000
271.032620 10.000000
271.063170 64.000000
278.221070 15.000000
279.034090 22.000000
279.048070 17.000000
279.068730 45.000000
280.060940 15.000000
281.060360 12.000000
281.079410 67.000000
281.761570 10.000000
282.871000 9.000000
283.023440 46.000000
283.058040 683.000000
283.071230 163.000000
283.901180 16.000000
284.026090 20.000000
284.067930 1000.000000
284.270750 11.000000
284.844150 9.000000
284.995730 27.000000
285.052830 28.000000
285.072510 182.000000
285.092860 10.000000
285.138120 15.000000
285.537930 12.000000
286.815920 10.000000
293.085780 21.000000
294.048160 27.000000
294.099430 18.000000
295.043090 62.000000
295.057460 244.000000
295.076510 31.000000
296.058070 27.000000
296.072940 32.000000
297.031370 10.000000
297.045900 25.000000
297.074580 498.000000
297.105680 21.000000
298.073270 14.000000
298.097750 22.000000
299.051760 10.000000
299.605070 9.000000
305.092440 12.000000
306.081180 9.000000
307.059910 33.000000
308.066100 27.000000
308.603090 9.000000
309.077910 136.000000
310.087950 15.000000
310.270290 11.000000
311.087460 11.000000
312.872160 14.000000
313.047940 24.000000
313.063080 34.000000
313.081180 149.000000
314.078920 62.000000
315.139980 11.000000
321.070650 16.000000
323.038640 15.000000
323.052000 23.000000
323.073820 57.000000
323.095460 27.000000
324.065490 16.000000
324.085750 26.000000
325.023740 13.000000
325.075590 11.000000
333.082310 12.000000
337.056180 10.000000
337.075010 12.000000
351.092800 16.000000
356.521180 12.000000
361.072240 13.000000
433.121950 16.000000

>ms2peaks
119.053460 12.000000
121.027260 23.000000
121.041470 7.000000
122.028390 5.000000
187.038440 9.000000
217.042080 8.000000
217.056960 10.000000
235.062590 8.000000
243.027970 22.000000
257.064060 8.000000
259.068300 6.000000
261.038670 6.000000
266.642120 5.000000
283.012790 5.000000
283.055660 175.000000
283.067470 126.000000
284.068300 129.000000
285.073060 28.000000
295.056820 30.000000
295.071230 15.000000
296.076350 6.000000
297.077120 48.000000
297.090270 27.000000
308.068300 7.000000
309.073790 9.000000
309.089390 7.000000
310.068760 7.000000
311.060820 12.000000
312.060150 6.000000
313.031770 9.000000
313.061520 131.000000
313.075840 288.000000
314.051940 8.000000
314.065280 16.000000
314.080200 21.000000
323.058690 15.000000
323.076350 27.000000
323.095670 61.000000
324.074400 5.000000
324.088840 8.000000
324.104280 7.000000
325.057310 11.000000
325.071530 6.000000
327.090480 5.000000
337.043730 5.000000
337.061070 22.000000
337.078400 58.000000
337.091250 19.000000
338.071590 16.000000
338.084780 12.000000
339.062350 5.000000
343.079560 13.000000
343.098880 10.000000
349.092440 8.000000
351.074490 29.000000
351.091800 5.000000
352.089970 7.000000
355.081970 11.000000
367.054230 5.000000
367.075840 46.000000
367.091860 58.000000
368.077670 17.000000
379.074310 24.000000
379.089230 54.000000
380.089690 14.000000
397.091090 150.000000
398.090420 13.000000
398.106750 16.000000
399.089750 9.000000
415.043300 6.000000
415.101410 166.000000
415.119600 48.000000
416.103880 22.000000
416.123110 20.000000
433.043000 9.000000
433.059080 7.000000
433.114590 1000.000000

>ms2peaks
313.067750 10.000000
397.086060 7.000000
397.100560 5.000000
415.098020 21.000000
433.073640 9.000000
433.111790 1000.000000
433.170070 7.000000

>ms2peaks
109.029380 5.000000
121.027390 27.000000
121.034000 9.000000
122.032810 8.000000
153.022020 6.000000
175.038350 10.000000
195.024290 9.000000
205.052660 8.000000
211.033660 5.000000
213.060580 8.000000
217.049640 54.000000
233.042160 9.000000
239.086120 6.000000
241.057890 6.000000
243.024090 36.000000
243.036030 9.000000
243.054930 6.000000
244.021620 7.000000
247.064330 5.000000
251.977600 6.000000
256.081300 7.000000
259.048860 12.000000
259.057160 11.000000
259.068510 11.000000
261.054750 6.000000
264.168520 5.000000
270.043980 5.000000
271.062680 28.000000
283.001130 6.000000
283.014310 6.000000
283.030210 19.000000
283.060180 620.000000
284.023250 8.000000
284.056460 99.000000
284.069980 180.000000
285.070430 35.000000
285.080290 13.000000
285.093990 6.000000
286.054750 7.000000
286.072330 6.000000
286.085480 7.000000
287.073490 5.000000
295.030030 11.000000
295.060580 95.000000
295.098910 6.000000
296.054320 12.000000
296.064820 15.000000
296.075620 7.000000
297.076840 120.000000
298.064030 12.000000
298.080290 5.000000
299.086360 9.000000
305.062930 10.000000
308.068630 8.000000
309.074220 43.000000
310.065060 5.000000
310.094570 7.000000
311.051270 20.000000
311.066710 18.000000
312.067140 6.000000
313.025390 15.000000
313.036010 17.000000
313.070740 1000.000000
313.104740 9.000000
314.071440 164.000000
314.090450 20.000000
315.069700 19.000000
315.081540 18.000000
323.044650 11.000000
323.064760 48.000000
323.086790 172.000000
323.099640 109.000000
324.051790 9.000000
324.092410 58.000000
324.110990 18.000000
325.071040 64.000000
325.105770 6.000000
326.062320 9.000000
327.053250 5.000000
327.076320 20.000000
327.098300 14.000000
328.095180 11.000000
337.033050 14.000000
337.070620 258.000000
338.074280 30.000000
341.056700 7.000000
341.073390 8.000000
343.070430 28.000000
343.087770 60.000000
344.089320 8.000000
349.065310 16.000000
349.086430 14.000000
351.068450 15.000000
351.085140 71.000000
351.096500 27.000000
352.076630 13.000000
352.095830 12.000000
354.087800 6.000000
355.082920 17.000000
356.089870 6.000000
367.050380 7.000000
367.080110 99.000000
367.100400 21.000000
368.076510 29.000000
368.096980 19.000000
369.082400 13.000000
369.112210 8.000000
373.104060 9.000000
379.043150 10.000000
379.066860 26.000000
379.085020 77.000000
379.096980 31.000000
380.081330 16.000000
380.098660 24.000000
395.472410 6.000000
397.079280 43.000000
397.098940 125.000000
397.130310 7.000000
398.068970 7.000000
398.094090 22.000000
398.119050 8.000000
399.087400 9.000000
415.087800 27.000000
415.102450 18.000000
416.101870 9.000000

>ms2peaks
65.039550 15.000000
69.033170 60.000000
69.037680 18.000000
77.034880 9.000000
79.012630 26.000000
79.018550 44.000000
81.032250 41.000000
85.029540 52.000000
91.049170 18.000000
91.056310 36.000000
92.997410 12.000000
93.030770 18.000000
93.038930 21.000000
93.158020 10.000000
97.028210 14.000000
103.054120 11.000000
107.004620 24.000000
107.013180 35.000000
107.047920 37.000000
109.029960 13.000000
111.042510 38.000000
115.043600 17.000000
115.052970 14.000000
116.063540 13.000000
118.043830 14.000000
119.025510 24.000000
119.045770 73.000000
119.051380 138.000000
119.427290 10.000000
120.048670 20.000000
120.056730 152.000000
120.994480 14.000000
121.001090 18.000000
121.028360 644.000000
122.002590 18.000000
122.029010 23.000000
122.035830 37.000000
123.007500 11.000000
123.042500 10.000000
123.355640 9.000000
125.015790 16.000000
125.023770 32.000000
126.040080 12.000000
128.057750 17.000000
131.053070 14.000000
133.032810 42.000000
137.018370 10.000000
137.025730 9.000000
138.031910 156.000000
138.304320 22.000000
139.034970 35.000000
141.072130 14.000000
141.328380 19.000000
145.014070 20.000000
145.029510 207.000000
145.049220 13.000000
145.062500 48.000000
146.020460 10.000000
147.021360 10.000000
147.044880 33.000000
148.047490 28.000000
149.022950 47.000000
149.029020 44.000000
149.058750 13.000000
153.017410 27.000000
154.019870 10.000000
157.044880 9.000000
157.069320 71.000000
158.076600 19.000000
161.023350 26.000000
161.055370 28.000000
162.002010 10.000000
162.013750 15.000000
162.032560 35.000000
162.398150 10.000000
163.024540 18.000000
163.039900 85.000000
165.010560 74.000000
165.018100 254.000000
165.066510 18.000000
165.074190 12.000000
166.020230 48.000000
166.969530 17.000000
167.025530 14.000000
167.048920 33.000000
168.059980 17.000000
169.072010 25.000000
171.050030 20.000000
171.077510 19.000000
171.111820 19.000000
172.966430 10.000000
173.064440 20.000000
175.022960 9.000000
175.064640 13.000000
175.133450 9.000000
176.735600 18.000000
177.008560 13.000000
177.021530 42.000000
177.051560 12.000000
177.896590 16.000000
179.026760 43.000000
179.034620 56.000000
180.990630 11.000000
181.063280 76.000000
181.071470 53.000000
182.064040 14.000000
182.073560 33.000000
185.049130 15.000000
185.063510 69.000000
186.073490 33.000000
187.038420 131.000000
187.050660 14.000000
187.073330 9.000000
189.036670 13.000000
190.024570 28.000000
191.029690 19.000000
191.037960 40.000000
191.081940 20.000000
193.054490 20.000000
195.045880 12.000000
196.043290 11.000000
197.062680 20.000000
197.105970 29.000000
199.040590 25.000000
199.069690 9.000000
199.078230 18.000000
200.081440 15.000000
201.030350 19.000000
202.068480 16.000000
202.274230 21.000000
205.053130 16.000000
205.064330 12.000000
206.013370 10.000000
206.076780 10.000000
210.020140 15.000000
210.040310 13.000000
210.066070 64.000000
210.081220 29.000000
210.105350 13.000000
211.046230 33.000000
211.072650 89.000000
211.081650 79.000000
212.940730 16.000000
212.947860 13.000000
212.964860 9.000000
213.028150 19.000000
213.051900 422.000000
214.040830 14.000000
214.054820 60.000000
214.065000 32.000000
215.019930 11.000000
215.033940 13.000000
215.070500 41.000000
217.050770 49.000000
218.050460 15.000000
221.053330 12.000000
221.060380 21.000000
221.098330 9.000000
223.076190 33.000000
227.031050 14.000000
227.064880 88.000000
227.074890 144.000000
227.325100 9.000000
227.932630 9.000000
228.071490 82.000000
228.085650 54.000000
229.053700 13.000000
229.077130 9.000000
229.084340 13.000000
231.216600 9.000000
233.047130 19.000000
234.060390 27.000000
234.072560 44.000000
237.055300 43.000000
238.038300 32.000000
238.067080 47.000000
238.746690 14.000000
238.923550 18.000000
239.059660 12.000000
239.077960 16.000000
240.036100 9.000000
240.079820 10.000000
241.031560 17.000000
241.047670 108.000000
241.070340 25.000000
242.054230 22.000000
242.063060 13.000000
242.078200 10.000000
243.025970 29.000000
243.050490 8.000000
243.061170 33.000000
243.072070 37.000000
249.055500 48.000000
250.061540 9.000000
252.996440 16.000000
253.055420 12.000000
253.903020 9.000000
254.065570 12.000000
255.029420 13.000000
255.052230 128.000000
255.068830 524.000000
255.729100 10.000000
256.027040 15.000000
256.070310 525.000000
256.082980 118.000000
256.331600 9.000000
256.977570 15.000000
257.049530 9.000000
257.061740 11.000000
257.083220 85.000000
257.466550 9.000000
258.054600 10.000000
258.090480 22.000000
258.861300 9.000000
259.028050 14.000000
261.044490 10.000000
262.057040 13.000000
265.036870 17.000000
265.059970 9.000000
266.054750 18.000000
266.063840 64.000000
267.055910 47.000000
267.070430 53.000000
267.079130 14.000000
267.250670 18.000000
268.077610 89.000000
268.314850 9.000000
269.060730 12.000000
269.086240 14.000000
270.046880 9.000000
271.060210 88.000000
278.996550 14.000000
279.062900 151.000000
279.997500 13.000000
280.082090 77.000000
282.927980 9.000000
283.027860 19.000000
283.059170 546.000000
283.072390 208.000000
283.107030 12.000000
283.714020 9.000000
283.878660 11.000000
283.985720 13.000000
284.043400 101.000000
284.070190 1000.000000
284.099120 10.000000
285.051150 20.000000
285.064790 74.000000
285.076480 137.000000
285.497890 22.000000
286.066590 13.000000
286.082400 10.000000
286.411320 13.000000
289.070250 11.000000
295.050840 138.000000
295.061550 179.000000
295.075040 50.000000
296.063570 86.000000
297.018160 10.000000
297.048580 11.000000
297.070250 191.000000
297.083340 219.000000
297.102780 14.000000
298.081600 103.000000
299.079250 18.000000
304.537810 15.000000
305.084170 20.000000
307.048580 12.000000
308.054110 33.000000
308.078280 20.000000
309.055080 19.000000
309.069950 22.000000
311.031280 10.000000
311.074740 12.000000
311.168430 10.000000
312.585330 10.000000
313.001340 31.000000
313.070370 164.000000
313.171720 13.000000
314.072630 18.000000
315.075590 16.000000
321.082460 9.000000
323.061830 13.000000
323.091770 26.000000
323.107850 29.000000
325.058200 12.000000
325.072780 24.000000
327.088620 14.000000
333.064420 16.000000
349.066040 15.000000
361.079470 13.000000

