>compound PR88445570
>parentmass 247.10771889230767
>ionization [M+H]+
>formula C13H14N2O3
>rt 272.766498
>profile qtof
#smiles_iso CC(C(=O)O)NC(=O)CC1=CNC2=CC=CC=C21
#smiles_can CC(C(=O)O)NC(=O)CC1=CNC2=CC=CC=C21
#inchikey FBDCJLXTUCMFLF-UHFFFAOYSA-N
#pubchem_id 3398622
#mb_accession PR304204,PR304206,PR304208,PR304210,PR304212,PR304214,PR304216,PR304218,PR304220,PR304222,PR304224,PR304226,PR310537

>ms2peaks
90.054890 119.000000
91.058670 5.000000
103.055490 10.000000
130.041840 7.000000
130.064930 1000.000000
131.068130 126.000000
158.059980 19.000000
201.095050 12.000000
201.104540 33.000000
229.090330 8.000000
229.100510 5.000000
247.107280 209.000000

>ms2peaks
90.054490 219.000000
91.060230 8.000000
130.064650 622.000000
131.068760 79.000000
158.058040 13.000000
158.065160 19.000000
201.102330 192.000000
202.101030 11.000000
202.109020 7.000000
229.096560 69.000000
229.107530 16.000000
230.101240 10.000000
245.095140 5.000000
246.093480 21.000000
246.105620 6.000000
247.072130 6.000000
247.107930 1000.000000

>ms2peaks
77.039730 6.000000
103.052980 22.000000
104.054520 9.000000
128.047120 7.000000
130.064870 1000.000000
131.067520 101.000000
132.070600 13.000000

>ms2peaks
75.868760 12.000000
77.035700 56.000000
77.040210 95.000000
103.033530 19.000000
103.052540 172.000000
103.066520 15.000000
104.057950 17.000000
105.062290 24.000000
128.048360 50.000000
128.054260 61.000000
129.045120 14.000000
129.696700 15.000000
130.064290 1000.000000
131.065090 95.000000
131.626310 30.000000
132.133930 23.000000
155.160800 14.000000

>ms2peaks
90.054570 153.000000
128.048200 6.000000
130.064450 1000.000000
131.068470 84.000000
158.062090 12.000000
201.101850 64.000000
202.108170 11.000000
229.092350 18.000000
247.107730 197.000000

>ms2peaks
90.055030 213.000000
91.063030 7.000000
130.064700 518.000000
131.068280 50.000000
158.054580 21.000000
158.064180 14.000000
201.101580 160.000000
202.108060 22.000000
202.116040 6.000000
229.096100 70.000000
230.109090 5.000000
245.089230 5.000000
246.101840 17.000000
247.069260 7.000000
247.107650 1000.000000

>ms2peaks
77.037470 8.000000
90.053610 8.000000
103.051080 7.000000
103.056120 11.000000
129.058640 6.000000
130.039250 6.000000
130.064420 1000.000000
131.067700 109.000000

>ms2peaks
77.038150 165.000000
77.044510 8.000000
78.107710 8.000000
90.054600 54.000000
103.053780 169.000000
103.064850 9.000000
104.055920 17.000000
118.066760 8.000000
128.019530 10.000000
128.038620 28.000000
128.047680 68.000000
129.054320 17.000000
130.042970 11.000000
130.065720 1000.000000
130.198410 9.000000
131.065160 48.000000
131.071350 33.000000
158.060810 9.000000
247.081410 8.000000
247.100980 8.000000
247.110790 18.000000

>ms2peaks
90.055490 138.000000
91.057350 6.000000
128.049010 5.000000
130.064410 1000.000000
131.069180 128.000000
158.060620 22.000000
201.101290 51.000000
229.095080 6.000000
229.102940 6.000000
247.107120 181.000000

>ms2peaks
90.054740 224.000000
91.057170 8.000000
130.064420 544.000000
131.066350 61.000000
158.060150 26.000000
201.101640 160.000000
202.104050 17.000000
229.096240 66.000000
245.100050 6.000000
246.094350 8.000000
247.079300 5.000000
247.107680 1000.000000

>ms2peaks
103.053230 28.000000
128.052830 7.000000
130.064800 1000.000000
131.067280 107.000000
131.073610 36.000000

>ms2peaks
77.037330 187.000000
77.082020 14.000000
81.033540 14.000000
91.051390 32.000000
94.166820 17.000000
101.038000 16.000000
101.042680 15.000000
102.043210 24.000000
102.456950 14.000000
103.036250 13.000000
103.054960 221.000000
103.064830 12.000000
104.058960 20.000000
105.062290 14.000000
107.295360 12.000000
128.049090 40.000000
129.056660 15.000000
130.013900 16.000000
130.065730 1000.000000
131.065730 46.000000
218.973690 13.000000

>ms2peaks
77.038220 18.000000
90.013310 17.000000
90.036580 20.000000
90.054890 1290.000000
91.055010 21.000000
91.058670 56.000000
92.063300 17.000000
92.104610 17.000000
103.050850 50.000000
103.055490 109.000000
104.057660 29.000000
115.053260 37.000000
127.570400 19.000000
130.029040 37.000000
130.041840 74.000000
130.064930 10882.000000
130.111430 17.000000
130.395720 18.000000
131.016270 17.000000
131.046630 17.000000
131.068130 1366.000000
131.447560 17.000000
132.067370 23.000000
158.059980 207.000000
189.824750 20.000000
192.702640 24.000000
200.091600 18.000000
201.040800 21.000000
201.095050 128.000000
201.104540 359.000000
201.155690 24.000000
202.101670 35.000000
202.110380 49.000000
202.368350 23.000000
203.008830 20.000000
206.281950 20.000000
217.085820 30.000000
217.095890 24.000000
219.119020 31.000000
223.365170 25.000000
229.090330 82.000000
229.100510 55.000000
230.108900 18.000000
247.075470 22.000000
247.107280 2274.000000

