>compound PR88162451
>parentmass 579.1497024923078
>ionization [M+H]+
>formula C30H26O12
>rt 194.352923
>profile qtof
#smiles_iso C1[C@H]([C@H](OC2=C1C(=CC(=C2[C@@H]3[C@H]([C@H](OC4=CC(=CC(=C34)O)O)C5=CC(=C(C=C5)O)O)O)O)O)C6=CC(=C(C=C6)O)O)O
#smiles_can C1C(C(OC2=C1C(=CC(=C2C3C(C(OC4=CC(=CC(=C34)O)O)C5=CC(=C(C=C5)O)O)O)O)O)C6=CC(=C(C=C6)O)O)O
#inchikey XFZJEEAOWLFHDH-NFJBMHMQSA-N
#pubchem_id 122738
#mb_accession PR302273,PR302279,PR302285,PR302291,PR302296,PR302302,PR302308,PR302314,PR302320,PR302326,PR302332,PR302338,PR310520

>ms2
127.034680 202.000000
139.035030 53.000000
203.032350 59.000000
227.079820 125.000000
233.041440 184.000000
242.048310 62.000000
243.071670 190.000000
246.038210 78.000000
247.053160 75.000000
269.310940 69.000000
271.085140 81.000000
274.019130 69.000000
274.070560 78.000000
275.049320 75.000000
283.058720 84.000000
287.056400 193.000000
289.066650 65.000000
289.081910 153.000000
291.081330 137.000000
291.090610 90.000000
299.051640 84.000000
303.083500 81.000000
312.049070 72.000000
329.077940 75.000000
373.068360 59.000000
407.059720 78.000000
408.069920 140.000000
409.068540 87.000000
413.121890 81.000000
427.101040 78.000000
427.121700 221.000000
428.081730 62.000000
520.804140 56.000000
577.120850 103.000000
579.142700 1000.000000

>ms2
247.045440 16.000000
247.057720 15.000000
259.060700 20.000000
260.520600 14.000000
289.048370 32.000000
289.069430 54.000000
290.074100 23.000000
291.071410 38.000000
291.085630 61.000000
291.099760 18.000000
302.072780 14.000000
409.091580 33.000000
409.115200 17.000000
411.126340 23.000000
426.093170 17.000000
427.073000 27.000000
427.110470 61.000000
428.114230 20.000000
435.080660 15.000000
453.126190 18.000000
561.144410 15.000000
578.084530 24.000000
578.129880 16.000000
578.152710 36.000000
579.145810 1000.000000
579.182370 108.000000

>ms2
109.023790 87.000000
123.042110 279.000000
124.619200 92.000000
127.038630 402.000000
128.952700 100.000000
135.021930 109.000000
139.037370 100.000000
139.042570 249.000000
153.041080 153.000000
161.370220 170.000000
163.035870 332.000000
173.062070 79.000000
187.033980 100.000000
218.056500 144.000000
225.043870 148.000000
228.946670 109.000000
229.058910 122.000000
233.048680 87.000000
247.065640 345.000000
255.068970 79.000000
256.065640 100.000000
259.058900 459.000000
271.061070 1000.000000
275.034210 122.000000
275.045680 188.000000
275.057980 205.000000
276.064790 105.000000
283.052060 127.000000
286.092190 87.000000
287.041050 144.000000
287.062650 406.000000
288.049960 537.000000
289.054050 109.000000
289.063570 148.000000
289.095180 201.000000
297.997040 127.000000
299.066440 258.000000
300.060610 92.000000
300.071380 96.000000
301.072110 105.000000
303.077580 96.000000
337.071380 96.000000
374.069550 127.000000
391.072110 92.000000
393.048280 79.000000
409.079220 83.000000
409.104250 74.000000
427.113070 148.000000

>ms2
59.041170 208.000000
117.035920 408.000000
123.041480 975.000000
127.036280 283.000000
127.044820 867.000000
135.040920 1000.000000
136.033170 175.000000
136.044570 167.000000
138.024670 192.000000
139.036710 200.000000
139.048190 150.000000
149.020860 692.000000
149.032730 192.000000
151.029270 283.000000
157.065410 267.000000
159.037120 258.000000
163.021270 208.000000
163.036640 175.000000
163.047640 267.000000
173.062790 342.000000
175.040390 167.000000
192.071090 208.000000
198.070280 183.000000
203.027760 183.000000
215.078800 175.000000
217.009370 208.000000
229.049270 367.000000
229.064510 267.000000
241.034360 192.000000
243.062970 192.000000
253.048190 167.000000
257.031560 692.000000
258.047970 150.000000
271.052460 233.000000
288.061430 142.000000
307.065610 150.000000
322.071780 217.000000

>ms2
123.037410 56.000000
127.034460 149.000000
127.042060 119.000000
127.844670 39.000000
139.039790 37.000000
141.040070 60.000000
144.633060 45.000000
149.030750 43.000000
162.068860 48.000000
165.052250 97.000000
167.036790 82.000000
168.032410 52.000000
178.063170 63.000000
219.060760 43.000000
233.048310 43.000000
244.937450 50.000000
245.040890 54.000000
248.064060 45.000000
257.019320 43.000000
257.048030 50.000000
271.058690 171.000000
271.068880 41.000000
273.077670 37.000000
275.047490 263.000000
275.065060 58.000000
285.071260 43.000000
287.057800 171.000000
289.066830 136.000000
291.083370 71.000000
292.075960 69.000000
295.018010 58.000000
299.060420 132.000000
301.068080 56.000000
362.149870 78.000000
379.020050 37.000000
394.081880 41.000000
409.086880 43.000000
409.113980 63.000000
410.077150 71.000000
411.076870 58.000000
411.117980 45.000000
427.090670 50.000000
427.106230 153.000000
427.137730 48.000000
443.121150 50.000000
453.112550 91.000000
579.097350 39.000000
579.124690 138.000000
579.157350 1000.000000

>ms2
247.067210 33.000000
288.061460 15.000000
289.067660 35.000000
291.047300 20.000000
291.063810 24.000000
291.081880 92.000000
409.082000 54.000000
411.112950 56.000000
427.080660 15.000000
427.098510 107.000000
427.126430 12.000000
428.097200 56.000000
453.117160 12.000000
560.097350 12.000000
576.367860 13.000000
577.150150 29.000000
577.391600 15.000000
577.794250 16.000000
578.127810 15.000000
579.029480 17.000000
579.059140 15.000000
579.103330 17.000000
579.150510 1000.000000
579.189940 32.000000

>ms2
123.040370 137.000000
123.046050 124.000000
127.024690 134.000000
127.039480 397.000000
127.053230 150.000000
139.036330 303.000000
151.040620 75.000000
152.032880 111.000000
163.040740 248.000000
187.025130 107.000000
204.044480 59.000000
221.044360 130.000000
225.042740 228.000000
233.040120 88.000000
233.059590 235.000000
247.056530 182.000000
247.923320 62.000000
257.044620 130.000000
259.055880 65.000000
260.056920 98.000000
267.812410 62.000000
271.041990 94.000000
271.060730 1000.000000
272.058990 169.000000
275.038450 248.000000
275.063260 55.000000
283.071230 59.000000
284.057530 81.000000
287.054440 160.000000
288.073580 107.000000
289.067020 85.000000
299.063350 160.000000
301.058530 72.000000
308.068150 94.000000
343.082210 88.000000
343.608370 94.000000
409.081940 78.000000
409.101720 176.000000
410.096370 81.000000
435.098850 111.000000

>ms2
85.739010 141.000000
123.038490 528.000000
127.034160 423.000000
127.040170 1000.000000
128.040730 331.000000
135.046950 296.000000
139.036480 148.000000
149.023210 141.000000
150.021190 254.000000
157.062120 141.000000
163.035740 127.000000
165.049710 148.000000
167.035480 204.000000
175.048860 289.000000
183.976820 162.000000
185.061920 162.000000
189.059560 197.000000
190.046800 162.000000
190.054670 218.000000
201.053570 408.000000
203.031040 183.000000
203.040970 486.000000
205.047300 162.000000
213.050220 141.000000
213.060580 204.000000
217.050400 120.000000
229.053280 120.000000
231.070630 218.000000
245.020140 183.000000
245.039430 155.000000
245.051940 317.000000
253.045680 232.000000
257.042270 169.000000
271.047060 120.000000
273.063140 324.000000
281.046260 127.000000
285.067600 225.000000

>ms2
123.043710 218.000000
123.050560 101.000000
127.031130 264.000000
127.037990 302.000000
139.034870 109.000000
179.044220 52.000000
181.045320 75.000000
203.023830 63.000000
215.072970 60.000000
229.049350 95.000000
233.032290 86.000000
233.042530 52.000000
243.061580 69.000000
252.619230 98.000000
259.043820 72.000000
259.063480 112.000000
260.065800 57.000000
269.021420 78.000000
271.059570 296.000000
271.073550 109.000000
277.019260 83.000000
283.043950 80.000000
287.036710 164.000000
287.057890 227.000000
288.043580 49.000000
289.058260 60.000000
289.071380 152.000000
291.092990 83.000000
302.082550 86.000000
303.076200 80.000000
367.075590 52.000000
409.088780 66.000000
409.101230 95.000000
410.098360 106.000000
412.101930 103.000000
427.088840 57.000000
427.115260 95.000000
430.124180 95.000000
436.097780 52.000000
485.694430 158.000000
577.151730 89.000000
579.149840 1000.000000
579.184270 69.000000
579.205810 98.000000

>ms2
58.884370 20.000000
127.008000 16.000000
127.040360 16.000000
127.054460 19.000000
289.064940 26.000000
291.075440 86.000000
291.090210 33.000000
291.102390 33.000000
301.061220 40.000000
303.087280 29.000000
404.166350 23.000000
409.079220 17.000000
411.115570 34.000000
427.105990 121.000000
428.103550 24.000000
429.104640 25.000000
544.099790 23.000000
578.141720 33.000000
578.954470 14.000000
579.101750 16.000000
579.155090 1000.000000

>ms2
123.041170 104.000000
127.025020 194.000000
127.041190 1000.000000
130.743900 86.000000
139.040150 157.000000
151.031940 194.000000
151.985690 63.000000
159.047360 104.000000
163.035810 381.000000
167.018770 119.000000
181.050570 116.000000
187.036090 127.000000
191.032290 104.000000
205.016490 93.000000
233.047880 82.000000
234.061080 146.000000
243.059300 131.000000
243.065920 75.000000
245.043180 108.000000
247.069050 239.000000
249.079570 112.000000
253.038650 116.000000
257.038600 127.000000
257.054290 86.000000
259.054780 153.000000
269.054530 134.000000
271.049620 209.000000
271.061980 362.000000
271.071350 164.000000
272.047850 75.000000
272.076260 75.000000
275.056030 354.000000
275.075200 86.000000
283.058900 157.000000
283.080380 86.000000
286.045620 63.000000
287.043060 254.000000
287.056700 694.000000
288.054720 179.000000
289.068850 146.000000
291.086880 131.000000
299.062770 108.000000
314.544890 108.000000
325.055150 90.000000
367.031950 82.000000
391.109710 90.000000
403.020840 112.000000
409.111210 131.000000
410.095730 86.000000

>ms2
51.596240 118.000000
67.020930 106.000000
103.056390 118.000000
105.060270 135.000000
123.026390 106.000000
123.044870 312.000000
123.050680 224.000000
123.889140 106.000000
127.031950 282.000000
127.040660 1000.000000
128.048570 153.000000
135.037290 182.000000
135.045470 247.000000
139.029770 112.000000
139.036700 135.000000
141.068130 106.000000
143.056230 147.000000
149.028050 135.000000
151.038680 212.000000
165.035710 147.000000
165.061360 159.000000
169.058140 118.000000
173.059360 182.000000
175.043000 165.000000
178.053620 165.000000
179.039430 106.000000
187.046010 118.000000
189.055590 312.000000
191.030810 153.000000
191.070510 165.000000
198.065930 118.000000
201.056300 100.000000
203.026700 141.000000
203.034150 147.000000
203.071380 182.000000
215.054720 218.000000
215.074870 318.000000
217.044240 147.000000
229.045430 141.000000
229.054790 153.000000
229.062240 129.000000
234.150470 118.000000
245.048490 124.000000
255.063520 106.000000
255.077440 276.000000
258.058070 112.000000
271.061800 176.000000
272.064210 206.000000
299.045650 124.000000

>ms2
127.034680 65.000000
139.035030 17.000000
203.032350 19.000000
227.079820 40.000000
233.041440 59.000000
242.048310 20.000000
243.071670 61.000000
246.038210 25.000000
247.053160 24.000000
269.310940 22.000000
271.085140 26.000000
274.019130 22.000000
274.070560 25.000000
275.049320 24.000000
283.058720 27.000000
287.056400 62.000000
289.066650 21.000000
289.081910 49.000000
291.081330 44.000000
291.090610 29.000000
299.051640 27.000000
303.083500 26.000000
312.049070 23.000000
329.077940 24.000000
373.068360 19.000000
407.059720 25.000000
408.069920 45.000000
409.068540 28.000000
413.121890 26.000000
427.101040 25.000000
427.121700 71.000000
428.081730 20.000000
520.804140 18.000000
577.120850 33.000000
579.142700 321.000000

