>compound PR89488834
>parentmass 458.16568709999984
>ionization [M+H]+
>formula C20H27NO11
>rt 199.171020
>profile qtof
#smiles_iso C1=CC=C(C=C1)[C@H](C#N)O[C@H]2[C@@H]([C@H]([C@@H]([C@H](O2)CO[C@H]3[C@@H]([C@H]([C@@H]([C@H](O3)CO)O)O)O)O)O)O
#smiles_can C1=CC=C(C=C1)C(C#N)OC2C(C(C(C(O2)COC3C(C(C(C(O3)CO)O)O)O)O)O)O
#inchikey XUCIJNAGGSZNQT-JHSLDZJXSA-N
#pubchem_id 656516
#mb_accession PR300655,PR300660,PR300665,PR300670,PR300675,PR300680,PR300685,PR300690,PR300695,PR300700,PR300705,PR300710

>ms2peaks
85.026450 461.000000
87.035740 62.000000
96.041000 69.000000
97.031770 111.000000
98.037630 141.000000
109.024890 137.000000
127.033740 108.000000
127.053280 65.000000
134.050160 56.000000
134.057370 65.000000
142.045640 78.000000
144.067280 98.000000
145.047390 118.000000
145.055850 183.000000
146.061000 75.000000
158.103070 85.000000
160.059590 88.000000
160.071750 59.000000
161.041990 65.000000
163.061630 503.000000
232.104050 65.000000
250.101900 141.000000
271.079530 65.000000
279.117030 85.000000
296.087770 69.000000
296.113680 1000.000000
297.118710 137.000000
325.113860 118.000000
325.130710 59.000000
384.170010 78.000000
458.161010 536.000000
458.191530 183.000000

>ms2peaks
53.528840 33.000000
85.027880 30.000000
95.004710 36.000000
127.036530 110.000000
127.722170 33.000000
145.043300 31.000000
145.055980 151.000000
163.050340 102.000000
163.058980 261.000000
163.068130 44.000000
163.088390 30.000000
221.085590 28.000000
278.094820 117.000000
286.805970 31.000000
289.073970 36.000000
289.094850 167.000000
296.112240 215.000000
297.107210 41.000000
297.129910 51.000000
297.141480 62.000000
307.086400 61.000000
324.509890 30.000000
325.087980 74.000000
325.113830 908.000000
326.108610 53.000000
326.128970 38.000000
326.547820 30.000000
327.118680 56.000000
458.096590 28.000000
458.152250 558.000000
458.170410 1000.000000

>ms2peaks
53.034130 88.000000
85.023780 79.000000
85.032180 335.000000
87.045040 145.000000
97.026700 278.000000
97.032580 88.000000
99.047930 88.000000
127.036900 273.000000
128.041700 93.000000
134.069240 145.000000
145.030350 106.000000
145.051330 1000.000000
146.060440 79.000000
147.068880 93.000000
148.075040 132.000000
158.054810 203.000000
158.063630 366.000000
159.050050 106.000000
161.052170 110.000000
162.076200 88.000000
163.056500 137.000000
163.064800 132.000000
174.056810 119.000000
187.077500 145.000000
197.086200 101.000000
200.047270 106.000000
251.114240 251.000000
296.099460 123.000000
296.116820 282.000000
297.104550 84.000000
297.116610 260.000000

>ms2peaks
69.034280 91.000000
85.028850 1000.000000
91.057480 96.000000
97.028280 91.000000
109.023770 257.000000
118.063830 128.000000
127.036910 166.000000
131.069050 107.000000
134.057460 219.000000
158.061970 102.000000

>ms2peaks
61.871620 52.000000
81.037980 70.000000
85.027590 119.000000
85.033810 146.000000
86.030640 49.000000
97.032490 56.000000
112.045650 58.000000
127.037910 150.000000
127.042560 52.000000
134.057240 38.000000
145.048290 368.000000
145.057450 141.000000
159.064300 110.000000
162.046800 92.000000
163.063520 704.000000
164.063140 63.000000
202.076840 58.000000
253.055130 63.000000
289.087950 67.000000
296.092220 54.000000
296.118680 1000.000000
297.110690 45.000000
297.123720 74.000000
298.122040 63.000000
325.106930 184.000000
326.100460 47.000000
326.125490 61.000000
367.745090 54.000000
440.167850 54.000000
458.155030 845.000000
458.191130 65.000000

>ms2peaks
127.031430 42.000000
127.042740 50.000000
145.049190 46.000000
145.054810 40.000000
146.037730 27.000000
162.073120 24.000000
163.041530 22.000000
163.064240 301.000000
164.059540 28.000000
247.085850 23.000000
253.087810 23.000000
271.076290 21.000000
278.095520 47.000000
278.108430 42.000000
289.031460 32.000000
289.095150 26.000000
296.114990 132.000000
296.127620 38.000000
297.119230 26.000000
297.129940 39.000000
320.110930 18.000000
325.082400 22.000000
325.092930 58.000000
325.115260 357.000000
326.115080 90.000000
458.123440 43.000000
458.162630 1000.000000
458.205990 45.000000

>ms2peaks
73.594530 137.000000
85.024620 297.000000
85.029970 1000.000000
88.039760 156.000000
91.039950 85.000000
97.029460 231.000000
98.028470 94.000000
107.050810 156.000000
109.031300 113.000000
127.039750 94.000000
134.060120 458.000000
144.075910 108.000000
145.045290 236.000000
145.051560 118.000000
157.071660 127.000000
158.049870 208.000000
158.060350 179.000000
162.045810 127.000000
162.073910 80.000000
188.071300 231.000000
196.072540 99.000000
200.070660 373.000000
212.069850 127.000000
230.084950 212.000000
261.093170 80.000000
296.091580 264.000000
296.115510 542.000000

>ms2peaks
69.034450 621.000000
73.031270 258.000000
77.034820 258.000000
81.030920 561.000000
81.283070 273.000000
86.034140 439.000000
104.058450 561.000000
107.050220 576.000000
109.027720 1000.000000
130.065660 985.000000
134.059540 303.000000
158.041760 394.000000
158.072980 515.000000
159.071330 273.000000
188.061540 424.000000

>ms2peaks
57.035630 45.000000
81.010630 61.000000
85.025860 107.000000
115.041110 77.000000
127.035120 59.000000
127.042850 157.000000
128.046420 80.000000
134.061080 120.000000
145.048800 734.000000
146.050750 57.000000
158.058640 118.000000
162.074220 136.000000
163.044420 45.000000
163.064970 327.000000
200.083370 66.000000
201.069470 64.000000
202.069990 43.000000
224.063290 91.000000
232.095440 64.000000
253.068300 61.000000
271.082210 61.000000
278.094180 43.000000
289.098080 91.000000
289.106320 36.000000
290.113460 61.000000
294.459810 100.000000
296.112850 1000.000000
297.115420 43.000000
297.134580 55.000000
325.117220 111.000000
458.136930 323.000000
458.155240 193.000000
458.172330 277.000000

>ms2peaks
145.041790 34.000000
145.050050 229.000000
146.066360 28.000000
146.916520 23.000000
158.057800 28.000000
163.053120 40.000000
163.062300 284.000000
164.066760 31.000000
187.199520 25.000000
242.081090 27.000000
272.086640 32.000000
278.102600 29.000000
279.118410 23.000000
289.092220 98.000000
296.047060 25.000000
296.089870 21.000000
296.106810 247.000000
296.195310 27.000000
297.104060 23.000000
324.581450 24.000000
325.104920 296.000000
325.116730 561.000000
326.123140 31.000000
339.124690 25.000000
343.566530 69.000000
458.097990 23.000000
458.126250 81.000000
458.160310 1000.000000
458.174840 298.000000
458.229610 23.000000

>ms2peaks
69.035190 145.000000
85.022320 366.000000
85.028950 651.000000
86.034840 145.000000
87.048430 233.000000
97.028910 134.000000
98.030760 140.000000
99.041020 157.000000
127.042170 506.000000
134.060610 267.000000
144.079800 169.000000
145.052020 1000.000000
147.057280 186.000000
148.077090 314.000000
158.060390 250.000000
159.070590 151.000000
159.091950 151.000000
160.056180 140.000000
171.082980 140.000000
172.072480 308.000000
200.066280 233.000000
201.072360 180.000000
242.087070 174.000000
260.092800 250.000000
296.112610 308.000000

>ms2peaks
70.031710 148.000000
81.032780 156.000000
81.037760 574.000000
85.029700 713.000000
87.043430 262.000000
97.027790 1000.000000
145.053630 230.000000
145.094180 205.000000
146.055890 230.000000
158.059220 246.000000
172.043050 205.000000
172.082670 262.000000
186.051790 213.000000

