>compound PR89748081
>parentmass 355.201619232
>ionization [M+H]+
>formula C21H26N2O3
>rt 251.134070
>profile qtof
#smiles_iso COC(=O)C1C(CCC2C1CC3C4=C(CCN3C2)C5=CC=CC=C5N4)O
#smiles_can COC(=O)C1C(CCC2C1CC3C4=C(CCN3C2)C5=CC=CC=C5N4)O
#inchikey BLGXFZZNTVWLAY-UHFFFAOYSA-N
#pubchem_id 2866
#mb_accession PR300925,PR300930,PR300935,PR300940,PR300945,PR300950,PR300955,PR300960,PR300965,PR300970,PR300975,PR300980,PR301497,PR301501,PR301505,PR301508,PR301512,PR301516,PR301520,PR301524,PR301528,PR301532,PR301536,PR301539,PR310610

>ms2
117.070650 17.000000
130.064990 9.000000
134.098920 9.000000
144.081340 308.000000
145.085780 42.000000
162.093020 16.000000
180.103270 16.000000
194.119420 6.000000
212.128690 159.000000
213.130510 24.000000
224.124710 17.000000
224.132930 22.000000
338.182280 9.000000
355.202730 1000.000000
355.257390 27.000000

>ms2
212.127620 6.000000
355.200990 1000.000000
355.255250 31.000000

>ms2
117.070500 33.000000
127.057590 5.000000
130.064390 15.000000
134.096820 23.000000
136.111250 10.000000
136.117540 6.000000
143.075120 9.000000
144.081270 1000.000000
144.115140 13.000000
145.084090 125.000000
146.092790 6.000000
158.098240 7.000000
162.091170 57.000000
177.091780 5.000000
180.102100 56.000000
181.106110 5.000000
192.103520 14.000000
194.121660 15.000000
206.115650 6.000000
212.129750 390.000000
213.134290 56.000000
220.112460 9.000000
224.129620 86.000000
225.132480 8.000000
232.114940 6.000000
246.131270 6.000000
248.143550 10.000000
260.149380 13.000000
294.153530 6.000000
320.165920 6.000000
326.175930 10.000000
338.176450 12.000000
355.203030 123.000000

>ms2
79.055880 11.000000
91.054950 33.000000
91.060750 14.000000
93.060180 6.000000
94.065320 45.000000
95.073430 8.000000
103.054230 16.000000
105.072340 14.000000
106.064340 12.000000
106.071300 8.000000
107.074240 11.000000
108.079030 11.000000
115.054550 98.000000
116.046310 9.000000
116.062100 16.000000
117.057620 19.000000
117.069870 243.000000
118.065060 20.000000
118.073800 26.000000
118.081460 9.000000
119.048810 6.000000
119.085260 7.000000
120.082490 13.000000
127.055410 157.000000
128.052340 85.000000
128.066960 6.000000
129.060460 6.000000
129.069290 14.000000
130.064670 68.000000
131.073380 11.000000
131.079900 6.000000
132.081630 12.000000
133.057250 6.000000
134.097980 35.000000
138.089230 9.000000
142.064390 13.000000
142.070310 10.000000
143.073000 267.000000
144.050740 6.000000
144.059160 9.000000
144.081730 1000.000000
145.084270 145.000000
146.093370 12.000000
146.103070 9.000000
152.112090 7.000000
155.073610 8.000000
156.074430 6.000000
156.082230 6.000000
157.085220 8.000000
158.089690 15.000000
158.100600 6.000000
162.092710 18.000000
167.074910 22.000000
168.083280 20.000000
169.086200 6.000000
170.100100 6.000000
171.100430 8.000000
178.075150 7.000000
180.078350 7.000000
180.088360 8.000000
180.109040 11.000000
181.086610 7.000000
181.106640 6.000000
182.096390 12.000000
192.080440 9.000000
193.089890 10.000000
194.095290 31.000000
195.107960 10.000000
204.077240 8.000000
204.085210 18.000000
205.084030 18.000000
206.095290 15.000000
207.099460 8.000000
207.108250 10.000000
208.116810 7.000000
212.130480 7.000000
217.089070 16.000000
218.097320 9.000000
218.105270 11.000000
219.107220 8.000000
220.113020 28.000000
230.097790 23.000000
231.110060 7.000000
232.114010 18.000000
234.130740 5.000000
244.119190 9.000000

>ms2
117.070730 16.000000
130.066530 6.000000
134.099440 8.000000
143.075030 6.000000
144.081020 313.000000
145.084410 42.000000
162.092700 13.000000
180.102480 20.000000
194.119140 9.000000
212.128600 153.000000
213.132770 27.000000
224.126820 32.000000
260.146580 6.000000
326.171420 5.000000
338.177460 6.000000
355.202480 1000.000000
355.256590 28.000000

>ms2
355.202330 1000.000000
355.256960 29.000000

>ms2
117.071040 39.000000
130.066470 14.000000
134.095310 26.000000
135.100620 6.000000
136.112810 12.000000
143.072800 5.000000
144.081620 1000.000000
144.116030 11.000000
145.063690 7.000000
145.085300 111.000000
146.085850 11.000000
158.097270 12.000000
162.092740 59.000000
163.097350 5.000000
170.095840 6.000000
177.090790 9.000000
180.103120 56.000000
181.105800 7.000000
192.099910 9.000000
194.112720 6.000000
194.119630 13.000000
206.118610 7.000000
208.114470 6.000000
212.129380 399.000000
213.131450 64.000000
224.128710 88.000000
225.133940 8.000000
226.139980 8.000000
232.112260 5.000000
234.129330 6.000000
248.138310 5.000000
260.142910 20.000000
276.142330 5.000000
306.149510 6.000000
320.159270 5.000000
320.169800 6.000000
324.160920 6.000000
338.178800 16.000000
355.203090 120.000000

>ms2
77.040790 6.000000
79.055590 12.000000
80.047780 9.000000
80.054320 5.000000
80.062100 5.000000
91.055600 61.000000
92.046710 6.000000
93.063560 13.000000
93.074130 6.000000
94.063130 22.000000
94.072460 6.000000
103.056420 32.000000
105.067500 9.000000
106.065970 20.000000
107.084060 7.000000
108.079050 6.000000
115.054370 128.000000
116.052050 6.000000
116.062260 20.000000
117.058360 54.000000
117.069310 271.000000
118.065160 34.000000
118.075970 32.000000
119.049920 9.000000
119.073910 6.000000
120.083830 8.000000
127.053710 149.000000
128.044190 18.000000
128.049870 33.000000
128.057400 25.000000
128.065700 11.000000
129.065200 21.000000
129.677980 5.000000
130.065230 55.000000
131.071530 19.000000
132.079510 22.000000
134.096100 50.000000
135.099120 8.000000
136.079540 9.000000
136.111740 5.000000
138.098280 5.000000
142.068390 13.000000
143.057540 11.000000
143.072680 254.000000
144.059130 7.000000
144.080830 1000.000000
145.068860 8.000000
145.084950 115.000000
146.090120 13.000000
154.062640 9.000000
155.074390 6.000000
156.077880 10.000000
157.072720 5.000000
157.086460 9.000000
158.097990 16.000000
162.082920 6.000000
162.092800 13.000000
167.075070 28.000000
168.077030 17.000000
168.086750 13.000000
169.081240 5.000000
180.078430 11.000000
180.090190 7.000000
180.099120 13.000000
180.106140 13.000000
181.089810 15.000000
182.093830 7.000000
182.102290 10.000000
192.074370 7.000000
192.101990 11.000000
193.092420 20.000000
194.095520 11.000000
195.096510 6.000000
204.081680 14.000000
205.079910 10.000000
205.090760 20.000000
206.099110 29.000000
207.103150 7.000000
212.131770 7.000000
217.085570 8.000000
217.096450 14.000000
218.095020 29.000000
218.104640 9.000000
219.097120 9.000000
219.105290 11.000000
220.112750 17.000000
230.089520 7.000000
230.097350 28.000000
232.113890 14.000000
234.095400 6.000000
243.102260 6.000000
246.136540 11.000000
260.096530 5.000000

>ms2
117.068440 11.000000
134.096980 10.000000
143.077770 6.000000
144.081180 294.000000
145.084980 31.000000
162.091810 21.000000
180.103670 13.000000
192.104690 7.000000
194.119890 7.000000
212.129330 150.000000
213.132100 22.000000
224.128620 39.000000
225.137210 6.000000
338.177610 6.000000
355.202850 1000.000000
355.257420 28.000000

>ms2
355.201900 1000.000000
355.255070 34.000000

>ms2
105.066600 6.000000
117.071400 40.000000
119.087710 6.000000
127.057140 9.000000
130.067410 11.000000
132.083650 7.000000
134.096690 37.000000
136.114610 9.000000
143.076830 5.000000
144.081380 1000.000000
144.115130 12.000000
145.084270 149.000000
146.097320 8.000000
158.095640 9.000000
162.092150 70.000000
163.092710 6.000000
170.098080 7.000000
177.089290 8.000000
180.101940 55.000000
181.107450 11.000000
192.103390 14.000000
194.117510 13.000000
206.097470 6.000000
208.111760 6.000000
209.120850 5.000000
212.097790 5.000000
212.129680 430.000000
213.133700 57.000000
218.100390 5.000000
224.129490 104.000000
225.131470 12.000000
226.144670 6.000000
232.116010 9.000000
246.129290 7.000000
248.151030 6.000000
249.145310 7.000000
260.144500 11.000000
288.142490 5.000000
294.148160 8.000000
306.154300 11.000000
320.165800 6.000000
326.177250 7.000000
338.176090 16.000000
355.201170 129.000000

>ms2
79.054110 11.000000
91.055400 51.000000
92.057660 7.000000
93.058460 10.000000
94.064610 41.000000
95.066600 7.000000
103.055730 16.000000
105.075850 7.000000
106.067680 24.000000
107.088680 9.000000
108.080890 14.000000
115.054860 116.000000
116.053890 22.000000
116.062710 10.000000
117.051440 6.000000
117.069270 245.000000
118.063460 18.000000
118.074140 29.000000
120.058390 12.000000
120.080820 10.000000
122.072980 7.000000
127.054830 115.000000
128.038850 18.000000
128.044970 16.000000
128.056400 39.000000
128.065700 14.000000
129.048000 5.000000
129.057950 10.000000
129.067260 8.000000
129.075760 7.000000
130.067110 68.000000
131.062410 10.000000
131.070890 30.000000
132.072830 6.000000
132.082840 13.000000
134.088100 8.000000
134.097640 49.000000
135.096850 9.000000
135.107700 5.000000
142.070370 5.000000
143.073090 222.000000
144.081050 1000.000000
145.083850 116.000000
146.072970 6.000000
146.093810 6.000000
147.100080 6.000000
154.065900 12.000000
155.073810 11.000000
156.080140 13.000000
157.086350 6.000000
158.096280 16.000000
162.088780 27.000000
167.072020 15.000000
168.082500 37.000000
174.090330 5.000000
178.078800 9.000000
180.084400 26.000000
180.095030 8.000000
180.105480 7.000000
193.094380 5.000000
194.096470 36.000000
204.088130 6.000000
205.085130 7.000000
205.094420 14.000000
206.090550 33.000000
207.100490 19.000000
207.115050 6.000000
208.108900 9.000000
208.119020 7.000000
212.129880 8.000000
217.090770 17.000000
218.091310 9.000000
218.101780 11.000000
219.107600 7.000000
220.110380 7.000000
230.093050 9.000000
231.103970 13.000000
232.105580 16.000000
233.121830 7.000000
234.123660 8.000000
244.116640 5.000000
355.201750 18.000000

>ms2
117.070140 11.000000
127.054150 5.000000
134.096080 13.000000
143.073790 7.000000
144.081970 333.000000
145.085920 40.000000
162.092480 11.000000
180.103360 15.000000
192.102870 24.000000
194.118670 35.000000
206.116000 5.000000
212.128830 96.000000
224.129680 84.000000
225.132450 17.000000
323.169590 5.000000
337.190580 16.000000
355.155270 6.000000
355.202640 1000.000000
355.256900 28.000000

>ms2
355.202670 1000.000000
355.256560 31.000000

>ms2
108.080920 7.000000
117.071820 26.000000
118.063760 7.000000
127.055550 6.000000
130.064440 5.000000
134.095860 24.000000
143.072910 6.000000
144.081390 1000.000000
144.115710 8.000000
145.084750 118.000000
146.085850 10.000000
152.107940 8.000000
158.098590 18.000000
162.091900 22.000000
174.096920 7.000000
180.102840 42.000000
181.107350 8.000000
192.102460 81.000000
193.108260 16.000000
194.118550 115.000000
195.119980 13.000000
206.114500 14.000000
206.122440 5.000000
208.108170 9.000000
210.115710 7.000000
212.128710 200.000000
213.127030 14.000000
213.135930 14.000000
220.110200 9.000000
224.129350 163.000000
225.125240 6.000000
225.135760 14.000000
260.147920 7.000000
305.165440 9.000000
306.154600 6.000000
337.186580 17.000000
337.203160 9.000000
338.171260 8.000000
338.197540 10.000000
355.200290 95.000000
355.211980 28.000000

>ms2
77.039180 8.000000
79.056110 10.000000
82.065380 5.000000
91.056360 37.000000
93.069960 8.000000
94.060070 9.000000
94.066760 36.000000
95.071460 12.000000
95.077390 6.000000
103.056480 7.000000
104.059500 8.000000
105.074450 8.000000
106.064790 9.000000
107.075420 7.000000
108.044760 6.000000
108.075410 6.000000
108.081610 24.000000
113.061020 7.000000
115.054530 58.000000
116.060370 9.000000
116.065690 18.000000
117.057760 19.000000
117.070580 225.000000
118.060510 11.000000
118.072460 20.000000
118.079020 7.000000
120.081340 17.000000
121.089000 6.000000
127.054540 126.000000
128.052120 46.000000
128.062470 22.000000
129.054990 6.000000
129.064350 15.000000
129.073620 10.000000
130.065020 52.000000
131.071290 26.000000
132.082400 18.000000
134.096270 46.000000
143.074020 231.000000
144.053830 11.000000
144.081120 1000.000000
145.084990 109.000000
146.090790 13.000000
155.067340 7.000000
155.075230 10.000000
156.080080 20.000000
157.087830 8.000000
158.091750 12.000000
162.091520 20.000000
167.071140 27.000000
167.078630 18.000000
168.080120 35.000000
168.090010 14.000000
169.087200 6.000000
180.081070 19.000000
181.089070 11.000000
191.079560 6.000000
192.098220 5.000000
192.107540 5.000000
193.088810 22.000000
194.090500 22.000000
194.101210 44.000000
195.102910 11.000000
195.116180 6.000000
204.083790 16.000000
205.089890 13.000000
206.094890 25.000000
206.107770 7.000000
208.110670 21.000000
209.111420 6.000000
210.123900 7.000000
218.099520 10.000000
220.098270 5.000000
220.120480 5.000000
222.119350 8.000000
231.100780 9.000000
232.114230 9.000000
233.117190 10.000000

>ms2
117.067340 9.000000
117.072080 6.000000
127.056530 6.000000
134.096190 7.000000
143.074980 6.000000
144.082230 347.000000
145.083720 48.000000
162.090160 5.000000
180.104690 14.000000
192.105420 23.000000
194.113660 21.000000
194.121960 20.000000
206.116880 6.000000
212.130200 103.000000
213.133620 15.000000
224.128940 85.000000
225.125660 6.000000
225.135180 10.000000
337.196200 12.000000
355.203280 1000.000000
355.257420 29.000000

>ms2
355.203250 1000.000000
355.256530 33.000000

>ms2
108.080940 9.000000
117.071110 21.000000
130.066500 14.000000
134.096760 38.000000
143.074280 10.000000
144.081730 1000.000000
144.116230 10.000000
145.085480 114.000000
146.085280 6.000000
158.090300 7.000000
158.098630 14.000000
162.092590 18.000000
174.090930 7.000000
180.103790 48.000000
182.096540 6.000000
192.102750 85.000000
193.107880 9.000000
194.119170 127.000000
195.109050 7.000000
195.123350 14.000000
206.111680 8.000000
206.119690 8.000000
208.108600 6.000000
209.121060 5.000000
212.129530 201.000000
213.125900 6.000000
213.134950 25.000000
221.117220 9.000000
224.130370 168.000000
225.131640 18.000000
246.129210 6.000000
260.147830 7.000000
305.168730 5.000000
308.169680 7.000000
323.169010 6.000000
323.184300 6.000000
337.192630 23.000000
338.187530 7.000000
355.203220 103.000000

>ms2
82.062500 9.000000
91.049350 7.000000
91.055900 44.000000
93.058000 7.000000
93.074380 7.000000
94.065820 28.000000
95.069440 9.000000
103.053630 15.000000
105.071240 11.000000
106.064830 19.000000
107.072500 10.000000
108.076930 13.000000
108.081580 31.000000
109.084720 6.000000
115.054250 117.000000
116.059700 19.000000
117.069950 246.000000
118.066560 24.000000
118.073200 36.000000
119.070620 7.000000
120.081430 12.000000
121.066520 7.000000
127.054040 112.000000
128.049700 38.000000
128.059650 18.000000
129.054180 8.000000
129.063200 13.000000
129.074800 8.000000
130.063110 28.000000
130.070790 23.000000
131.076390 17.000000
132.077970 6.000000
132.082660 12.000000
133.067030 6.000000
134.096950 43.000000
135.099470 12.000000
140.054430 5.000000
142.066350 5.000000
143.059300 7.000000
143.072980 238.000000
144.081210 1000.000000
145.083920 129.000000
146.081250 6.000000
146.097080 12.000000
146.104680 6.000000
147.103100 12.000000
148.111470 6.000000
149.080860 9.000000
150.090070 5.000000
154.073230 7.000000
156.080660 14.000000
158.089370 8.000000
158.096850 8.000000
159.066450 7.000000
162.085040 5.000000
162.093170 14.000000
164.104770 9.000000
165.066820 9.000000
166.060780 6.000000
167.075410 39.000000
168.074980 14.000000
168.083940 25.000000
180.071930 7.000000
180.081560 17.000000
180.095050 6.000000
181.086520 23.000000
181.097820 7.000000
182.091520 6.000000
182.098850 15.000000
191.072130 5.000000
192.084930 6.000000
193.089320 17.000000
194.091830 12.000000
194.103530 26.000000
195.096820 8.000000
195.107360 7.000000
196.109120 11.000000
197.122160 6.000000
204.080030 10.000000
206.086040 7.000000
206.100950 17.000000
207.112230 6.000000
208.106670 9.000000
208.118150 10.000000
209.117660 7.000000
217.087630 10.000000
218.089890 14.000000
218.098770 7.000000
220.111620 11.000000
221.110780 14.000000
224.131740 6.000000
230.101900 9.000000
232.109220 10.000000
233.126050 7.000000
234.095930 5.000000

>ms2
117.069580 10.000000
134.097550 15.000000
143.071820 9.000000
144.081470 316.000000
145.085540 38.000000
162.090760 7.000000
180.104060 12.000000
192.098500 9.000000
192.104950 17.000000
194.117450 36.000000
195.122420 5.000000
206.122440 7.000000
212.128980 90.000000
213.133710 14.000000
224.128620 74.000000
225.134060 8.000000
337.190090 13.000000
355.202670 1000.000000
355.256320 27.000000

>ms2
355.200590 1000.000000
355.254640 31.000000

>ms2
94.067380 6.000000
108.081590 11.000000
117.070170 16.000000
130.060760 9.000000
130.066670 5.000000
134.096760 36.000000
143.076780 9.000000
144.081560 1000.000000
144.116590 14.000000
145.084790 136.000000
146.093770 9.000000
152.109190 9.000000
158.096800 23.000000
159.095730 6.000000
162.089020 13.000000
174.090060 6.000000
180.101270 40.000000
180.109830 12.000000
192.102390 81.000000
193.102080 10.000000
194.117680 126.000000
195.117400 14.000000
206.120830 14.000000
208.113860 12.000000
210.117610 5.000000
212.129010 199.000000
213.132750 24.000000
220.117550 6.000000
221.118580 6.000000
224.128360 186.000000
225.123000 6.000000
225.132890 14.000000
248.145370 11.000000
260.133420 5.000000
308.160190 6.000000
323.180970 8.000000
337.175900 9.000000
337.196320 24.000000
338.189510 5.000000
355.203400 119.000000

>ms2
77.038480 7.000000
80.051560 8.000000
91.054990 37.000000
92.057080 5.000000
94.067470 14.000000
95.070060 5.000000
103.054660 18.000000
104.047230 6.000000
106.068100 11.000000
107.070440 6.000000
107.082890 5.000000
108.071580 5.000000
108.082480 23.000000
109.083630 8.000000
111.044530 10.000000
115.054450 73.000000
116.049890 9.000000
116.058160 17.000000
117.069360 205.000000
118.065930 16.000000
118.075110 37.000000
119.047890 6.000000
120.077450 5.000000
120.082870 7.000000
127.054950 139.000000
128.049410 35.000000
128.059520 19.000000
129.049420 6.000000
129.059300 8.000000
129.073090 8.000000
130.063420 35.000000
130.071720 14.000000
131.072220 11.000000
132.079610 19.000000
133.082410 7.000000
134.097580 64.000000
135.084370 5.000000
142.069120 6.000000
143.073320 212.000000
144.080690 1000.000000
145.069600 7.000000
145.084640 150.000000
146.085300 10.000000
146.094960 6.000000
147.106890 10.000000
153.054580 7.000000
154.066940 7.000000
156.079640 17.000000
158.090590 7.000000
159.070390 7.000000
162.078920 7.000000
162.089680 11.000000
164.102870 6.000000
166.077910 7.000000
167.072650 20.000000
167.080960 12.000000
168.070850 13.000000
168.082470 18.000000
169.084610 6.000000
170.095370 6.000000
174.095440 6.000000
178.075030 7.000000
179.068710 6.000000
180.078400 20.000000
180.101300 7.000000
181.079770 5.000000
181.087690 10.000000
182.078860 6.000000
182.100830 14.000000
183.093640 7.000000
191.080750 10.000000
192.070450 6.000000
192.101070 10.000000
194.082550 6.000000
194.095050 31.000000
197.105300 6.000000
204.082060 11.000000
205.082350 7.000000
205.093920 7.000000
206.096390 21.000000
207.100940 7.000000
207.109560 6.000000
208.112610 14.000000
209.098390 6.000000
209.118120 5.000000
217.080750 6.000000
218.094470 16.000000
219.094730 8.000000
220.111100 26.000000
221.110600 12.000000
230.095060 15.000000
231.092700 6.000000
232.118680 11.000000
233.121690 8.000000

>ms2
56.049680 19.000000
65.077840 24.000000
65.413730 27.000000
80.046730 36.000000
80.052570 73.000000
86.696760 28.000000
92.044840 22.000000
92.060600 33.000000
94.064340 109.000000
94.074400 41.000000
95.094620 24.000000
96.044520 18.000000
96.080800 28.000000
104.053260 20.000000
105.070700 18.000000
105.306240 17.000000
106.059420 17.000000
106.071210 55.000000
106.228080 17.000000
107.084640 45.000000
110.099950 24.000000
112.327960 44.000000
115.053670 107.000000
116.049440 20.000000
116.058160 22.000000
117.052460 17.000000
117.060790 149.000000
117.070650 885.000000
117.344870 20.000000
118.050030 47.000000
118.062350 55.000000
118.075140 35.000000
119.051060 25.000000
120.081080 58.000000
120.630240 22.000000
121.072860 23.000000
124.075480 21.000000
127.051640 116.000000
127.057480 84.000000
128.047440 87.000000
128.069430 47.000000
129.051040 18.000000
129.057860 26.000000
129.073620 25.000000
130.064990 464.000000
131.068760 73.000000
132.070710 25.000000
132.076890 87.000000
132.421330 18.000000
133.068620 41.000000
134.071590 34.000000
134.098920 443.000000
135.073430 18.000000
135.089310 55.000000
135.099430 20.000000
136.074490 22.000000
136.109500 103.000000
137.061540 57.000000
137.090270 20.000000
138.081850 36.000000
138.096340 43.000000
139.072560 25.000000
142.066570 20.000000
143.038360 18.000000
143.069270 129.000000
143.077090 116.000000
143.092760 20.000000
143.130710 17.000000
143.136550 22.000000
143.321850 17.000000
143.363540 28.000000
143.760540 17.000000
143.836550 17.000000
143.971560 19.000000
144.037950 17.000000
144.053740 54.000000
144.081340 15729.000000
144.115920 102.000000
144.224780 21.000000
144.312970 20.000000
144.740570 18.000000
145.026840 33.000000
145.063610 43.000000
145.085780 2129.000000
146.086620 129.000000
146.094190 127.000000
146.100570 66.000000
146.350680 17.000000
147.083740 18.000000
147.282940 19.000000
147.849750 23.000000
148.075350 20.000000
148.865980 18.000000
149.060210 61.000000
149.116930 18.000000
150.062470 21.000000
150.092150 44.000000
151.075850 57.000000
151.098650 21.000000
152.080840 24.000000
152.102720 60.000000
152.111050 80.000000
152.266370 20.000000
154.063450 27.000000
154.115110 28.000000
156.074050 21.000000
156.082350 39.000000
156.696550 21.000000
158.087880 19.000000
158.100910 186.000000
159.087880 20.000000
159.097080 25.000000
159.104260 26.000000
159.183120 17.000000
160.068940 65.000000
160.075000 98.000000
162.093020 814.000000
162.888700 22.000000
163.075840 230.000000
163.096280 36.000000
164.115590 45.000000
166.125000 47.000000
167.069930 17.000000
167.112400 23.000000
167.230730 18.000000
168.077710 40.000000
168.092480 70.000000
168.105670 22.000000
169.088270 104.000000
170.082700 21.000000
170.090740 24.000000
170.098190 44.000000
171.075550 24.000000
171.088120 22.000000
172.111720 34.000000
172.764600 21.000000
172.961170 27.000000
174.095920 17.000000
177.084440 47.000000
177.091960 162.000000
177.103840 56.000000
177.727140 25.000000
178.081740 22.000000
178.119920 19.000000
180.071330 46.000000
180.090120 93.000000
180.103270 795.000000
180.360090 18.000000
180.836010 23.000000
181.086910 22.000000
181.102920 36.000000
181.114010 18.000000
182.099140 86.000000
182.900510 25.000000
183.093380 38.000000
183.105650 45.000000
184.095600 20.000000
184.112270 19.000000
186.099110 18.000000
186.115750 18.000000
188.112300 30.000000
189.110610 18.000000
190.090480 17.000000
191.072080 24.000000
192.058930 17.000000
192.070560 34.000000
192.079010 33.000000
192.097270 55.000000
192.105380 170.000000
193.090840 59.000000
193.752840 22.000000
194.090480 39.000000
194.104520 132.000000
194.119420 282.000000
195.013700 19.000000
195.081180 26.000000
195.107990 64.000000
196.112900 35.000000
196.519820 26.000000
198.113620 94.000000
198.763660 17.000000
198.968610 27.000000
200.087430 20.000000
203.108540 21.000000
205.094350 40.000000
205.103500 42.000000
206.090450 38.000000
206.115720 101.000000
206.255650 30.000000
207.098220 37.000000
207.124250 18.000000
208.072770 17.000000
208.113490 119.000000
208.211850 25.000000
209.106950 20.000000
209.118990 83.000000
209.128100 24.000000
209.466160 21.000000
210.106510 40.000000
210.126140 20.000000
211.117370 18.000000
212.078480 48.000000
212.095260 67.000000
212.128690 8118.000000
212.171220 18.000000
212.225570 19.000000
213.088440 46.000000
213.130510 1209.000000
214.129060 109.000000
214.569140 21.000000
216.295870 28.000000
217.102890 39.000000
218.092290 148.000000
219.096560 24.000000
219.109890 23.000000
220.102740 63.000000
220.114170 113.000000
220.120860 47.000000
221.108440 43.000000
221.122570 41.000000
221.189500 17.000000
221.232130 17.000000
222.096330 44.000000
222.106610 20.000000
222.126890 28.000000
223.120700 40.000000
223.141800 17.000000
224.096360 17.000000
224.124710 886.000000
224.132930 1100.000000
225.058270 18.000000
225.127150 104.000000
225.137120 138.000000
225.467790 21.000000
226.110700 46.000000
226.116780 20.000000
226.128860 20.000000
226.147600 138.000000
226.707370 17.000000
226.744550 17.000000
230.088420 35.000000
230.106200 17.000000
231.099840 23.000000
231.105990 51.000000
231.116300 17.000000
232.074160 28.000000
232.110900 60.000000
233.099670 18.000000
233.113600 22.000000
233.131100 27.000000
233.855040 20.000000
234.133360 59.000000
234.146440 21.000000
235.118210 17.000000
236.111180 39.000000
237.133790 17.000000
237.146130 17.000000
238.734600 22.000000
242.169400 18.000000
242.973620 28.000000
243.285250 21.000000
243.816120 27.000000
244.110180 17.000000
244.155080 17.000000
245.115220 44.000000
245.650530 25.000000
246.121430 61.000000
246.137310 32.000000
246.812790 17.000000
247.082980 37.000000
247.137410 17.000000
247.472380 17.000000
248.097580 42.000000
248.122790 19.000000
248.143540 125.000000
248.164960 23.000000
249.127490 29.000000
249.150620 48.000000
249.646550 23.000000
250.154330 24.000000
252.129260 19.000000
253.413500 23.000000
258.102660 18.000000
258.136230 20.000000
258.439730 29.000000
258.684140 24.000000
259.131650 33.000000
260.112640 19.000000
260.143010 151.000000
260.161710 21.000000
261.123540 22.000000
261.163120 20.000000
262.127990 85.000000
262.149840 17.000000
262.414250 28.000000
263.120390 21.000000
263.145390 18.000000
264.141390 17.000000
264.754490 34.000000
265.140080 20.000000
266.166810 20.000000
267.340030 22.000000
268.096860 17.000000
269.707430 27.000000
270.131770 22.000000
273.105380 26.000000
273.114040 65.000000
274.124150 19.000000
274.148220 29.000000
276.089140 26.000000
276.147190 19.000000
277.140080 18.000000
277.171570 17.000000
278.162110 24.000000
278.180390 31.000000
280.134000 46.000000
280.147310 39.000000
281.717470 17.000000
289.151790 20.000000
290.136320 22.000000
290.680420 21.000000
291.122830 22.000000
292.129000 22.000000
293.117280 18.000000
294.159270 82.000000
295.187840 39.000000
295.559390 17.000000
296.741730 18.000000
298.136930 17.000000
298.154270 34.000000
298.316070 18.000000
298.620760 17.000000
300.541410 18.000000
301.833160 22.000000
305.161620 18.000000
305.171600 20.000000
305.380920 17.000000
305.740910 18.000000
306.101720 20.000000
306.115140 18.000000
306.136570 47.000000
306.149570 99.000000
307.161560 18.000000
308.145020 53.000000
308.163850 109.000000
308.178500 52.000000
309.170290 24.000000
310.180390 22.000000
312.159180 18.000000
313.171360 23.000000
320.167020 102.000000
322.142880 27.000000
323.164460 17.000000
324.159790 207.000000
324.195470 17.000000
326.158420 26.000000
326.176540 140.000000
327.171750 19.000000
332.121150 18.000000
334.496150 21.000000
334.952910 28.000000
335.141510 25.000000
337.165130 21.000000
337.184940 29.000000
337.601530 34.000000
338.161410 88.000000
338.182280 483.000000
338.203950 40.000000
338.372280 21.000000
339.156460 28.000000
339.182160 102.000000
339.192780 25.000000
351.379850 17.000000
351.395390 17.000000
353.271700 24.000000
353.930420 24.000000
354.184630 49.000000
354.203670 46.000000
354.332030 22.000000
354.890810 25.000000
355.004580 29.000000
355.048710 17.000000
355.080870 27.000000
355.114070 50.000000
355.135590 173.000000
355.150090 188.000000
355.202730 50991.000000
355.257390 1356.000000
355.301150 75.000000
355.314420 20.000000
355.338040 17.000000
355.357060 17.000000

