>compound PR89812508
>parentmass 315.0875
>ionization [M+H]+
>formula C17H14O6
>rt 342.600000
>profile qtof
#smiles_iso COC1=C(C=C(C2=C1OC(=C(C2=O)OC)C3=CC=CC=C3)O)O
#smiles_can COC1=C(C=C(C2=C1OC(=C(C2=O)OC)C3=CC=CC=C3)O)O
#inchikey OWQLBLNRUZULFV-UHFFFAOYSA-N
#pubchem_id 9972910
#mb_accession PR310944

>ms2
95.048650 23.000000
136.019330 18.000000
152.043090 23.000000
155.026230 18.000000
156.057390 18.000000
164.012990 43.000000
169.069870 24.000000
171.075380 18.000000
171.087920 20.000000
182.017210 24.000000
197.061230 18.000000
199.066390 19.000000
199.077940 17.000000
200.242870 26.000000
201.059020 20.000000
211.032850 18.000000
213.053070 18.000000
213.088260 20.000000
216.090810 18.000000
216.338200 20.000000
224.087620 21.000000
226.058320 19.000000
226.791180 24.000000
227.068390 19.000000
237.054730 18.000000
241.092710 17.000000
242.055590 21.000000
255.069990 44.000000
259.095250 21.000000
269.090120 18.000000
272.079530 20.000000
283.059540 23.000000
300.055970 57.000000
300.070130 82.000000
302.052400 17.000000
315.057830 46.000000
315.090090 1039.000000

