>compound PR89226849
>parentmass 166.0862
>ionization [M+H]+
>formula C9H11NO2
>rt 138.000000
>profile qtof
#smiles_iso C1=CC=C(C=C1)CC(C(=O)O)N
#smiles_can C1=CC=C(C=C1)CC(C(=O)O)N
#inchikey COLNVLDHVKWLRT-UHFFFAOYSA-N
#pubchem_id 994
#mb_accession PR311156

>ms2peaks
77.032400 28.000000
91.054250 21.000000
93.063130 17.000000
93.069710 43.000000
94.075090 18.000000
103.042400 22.000000
103.054890 318.000000
104.055260 23.000000
107.048900 38.000000
114.191240 17.000000
120.056950 19.000000
120.080370 7085.000000
120.110210 18.000000
120.119840 17.000000
120.144550 21.000000
121.080960 324.000000
121.087070 374.000000
122.085690 23.000000
122.091040 29.000000
123.062680 18.000000
124.949790 29.000000
131.047070 100.000000
131.054730 124.000000
132.057690 39.000000
149.054690 91.000000
149.066010 27.000000
150.055250 20.000000
166.056720 22.000000
166.065310 45.000000
166.087840 1247.000000

