>compound PR89851805
>parentmass 579.1711
>ionization [M+H]+
>formula C27H30O14
>rt 276.600000
>profile qtof
#smiles_iso CC1C(C(C(C(O1)OC2C(C(C(OC2C3=C(C=C(C4=C3OC(=CC4=O)C5=CC=C(C=C5)O)O)O)CO)O)O)O)O)O
#smiles_can CC1C(C(C(C(O1)OC2C(C(C(OC2C3=C(C=C(C4=C3OC(=CC4=O)C5=CC=C(C=C5)O)O)O)CO)O)O)O)O)O
#inchikey LYGPBZVKGHHTIE-UHFFFAOYSA-N
#pubchem_id 5874704
#mb_accession PR310979

>ms2
71.042670 19.000000
71.053670 56.000000
84.050670 16.000000
85.026190 27.000000
85.031680 83.000000
129.058550 21.000000
137.026290 16.000000
140.192780 25.000000
227.029560 19.000000
271.064760 16.000000
287.065860 31.000000
288.072330 18.000000
299.055050 96.000000
311.057500 16.000000
315.080570 41.000000
323.070590 17.000000
325.050450 36.000000
325.070530 46.000000
326.082640 16.000000
327.029050 16.000000
329.048680 49.000000
329.060090 105.000000
329.077480 105.000000
330.095860 24.000000
339.038600 17.000000
351.053470 17.000000
351.083010 58.000000
352.062930 38.000000
353.071810 256.000000
353.089080 47.000000
354.055880 86.000000
354.077360 31.000000
365.059720 22.000000
367.074890 23.000000
368.080930 29.000000
376.120420 18.000000
378.959260 16.000000
379.054690 17.000000
379.084010 134.000000
379.112580 28.000000
380.091250 81.000000
381.057220 16.000000
395.067440 61.000000
396.078580 17.000000
397.052550 17.000000
397.080470 74.000000
397.096950 193.000000
398.107030 55.000000
400.206730 17.000000
413.081020 33.000000
414.015440 29.000000
414.095310 36.000000
415.092620 20.000000
415.108030 34.000000
416.081210 17.000000
431.082210 40.000000
431.098790 38.000000
431.112670 30.000000
431.401060 19.000000
432.064510 16.000000
432.089690 17.000000
432.120150 43.000000
433.114690 1042.000000
434.113800 60.000000
434.130460 84.000000
435.104060 90.000000
439.471560 16.000000
476.170500 18.000000
502.021910 16.000000
577.137390 16.000000
577.162350 109.000000
578.135930 17.000000
578.163940 92.000000
578.190610 23.000000
579.109070 18.000000
579.153870 161.000000
579.179990 270.000000
579.205320 64.000000

