>compound PR89752022
>parentmass 205.0975
>ionization [M+H]+
>formula C11H12N2O2
>rt 168.000000
>profile qtof
#smiles_iso C1=CC=C2C(=C1)C(=CN2)CC(C(=O)O)N
#smiles_can C1=CC=C2C(=C1)C(=CN2)CC(C(=O)O)N
#inchikey QIVBCDIJIAJPQS-UHFFFAOYSA-N
#pubchem_id 1148
#mb_accession PR310884

>ms2peaks
76.049640 27.000000
81.815190 18.000000
91.057560 113.000000
98.437510 20.000000
103.055470 19.000000
105.071780 20.000000
115.056520 104.000000
115.064900 21.000000
116.053180 26.000000
116.068040 23.000000
117.053410 54.000000
117.059350 85.000000
117.067910 121.000000
118.065900 1026.000000
118.666690 18.000000
119.067880 77.000000
119.427430 17.000000
127.965840 39.000000
129.239230 17.000000
130.063810 105.000000
130.074010 21.000000
131.069460 17.000000
132.048140 21.000000
132.079900 469.000000
140.044830 18.000000
140.790250 22.000000
142.060940 38.000000
142.067290 130.000000
143.059420 18.000000
143.069370 186.000000
143.076400 125.000000
144.064620 23.000000
144.080640 515.000000
145.083920 42.000000
145.088130 17.000000
145.779270 20.000000
145.920120 17.000000
145.930040 17.000000
145.982480 18.000000
146.055570 521.000000
146.061140 1425.000000
146.104100 20.000000
147.059140 38.000000
147.066310 23.000000
147.078580 23.000000
148.066070 17.000000
152.432600 24.000000
158.982600 18.000000
159.090260 62.000000
159.096830 76.000000
160.075520 69.000000
160.100230 60.000000
161.099320 20.000000
170.060230 141.000000
171.055980 19.000000
175.695590 19.000000
186.967760 21.000000
188.071140 3979.000000
189.057340 34.000000
189.070760 252.000000
189.078000 282.000000
189.803620 17.000000
190.077530 142.000000
202.430980 17.000000
205.098740 494.000000

