>compound PR89466961
>parentmass 468.2955791000001
>ionization [M+H]+
>formula C25H41NO7
>rt 220.489020
>profile qtof
#smiles_iso CCN1C[C@@]2(CC[C@@H]([C@@]34[C@@H]2[C@@H]([C@@](C31)([C@]5(C[C@@H]([C@H]6C[C@@H]4[C@@H]5[C@H]6OC)OC)O)O)OC)OC)CO
#smiles_can CCN1CC2(CCC(C34C2C(C(C31)(C5(CC(C6CC4C5C6OC)OC)O)O)OC)OC)CO
#inchikey YOTUXHIWBVZAJQ-YAEAOFIFSA-N
#pubchem_id 441746
#mb_accession PR300383,PR300388,PR300393,PR300398,PR300403,PR300408,PR300413,PR300418,PR300423,PR300428,PR300433,PR300437

>ms2
126.091970 12.000000
140.108250 10.000000
326.215240 5.000000
344.224610 7.000000
354.210050 8.000000
358.239590 13.000000
372.219210 18.000000
376.247530 6.000000
386.224150 6.000000
386.237820 7.000000
390.267460 10.000000
404.236390 13.000000
404.249540 19.000000
405.246060 8.000000
418.259310 7.000000
436.270480 28.000000
437.276150 10.000000
468.297790 1000.000000
468.361600 28.000000

>ms2
468.296170 1000.000000
468.359310 31.000000

>ms2
108.080960 8.000000
122.097130 5.000000
126.090970 47.000000
140.108020 21.000000
324.198880 6.000000
326.212400 8.000000
342.204350 8.000000
344.219210 19.000000
354.208620 24.000000
358.236020 32.000000
359.245510 6.000000
372.214840 49.000000
373.201260 6.000000
373.221920 14.000000
374.228090 18.000000
376.247530 12.000000
386.211180 8.000000
386.230350 23.000000
386.245120 9.000000
387.226170 7.000000
390.259950 21.000000
390.273740 12.000000
404.242430 105.000000
405.243650 26.000000
406.250610 6.000000
418.243710 6.000000
418.259310 19.000000
419.264710 7.000000
436.268920 111.000000
437.268620 25.000000
437.291230 7.000000
450.284580 8.000000
468.231570 11.000000
468.294490 1000.000000
468.353300 18.000000

>ms2
55.018390 6.000000
55.054780 6.000000
58.054080 11.000000
58.061440 18.000000
58.065320 89.000000
60.075840 7.000000
61.029520 6.000000
65.041010 8.000000
67.056760 5.000000
68.052700 10.000000
69.028010 9.000000
69.035390 10.000000
70.065610 8.000000
71.049960 87.000000
71.069790 21.000000
71.077890 7.000000
72.043790 9.000000
72.057550 17.000000
72.082980 53.000000
73.080990 8.000000
73.088040 7.000000
75.044370 348.000000
76.049590 5.000000
77.039120 15.000000
79.051590 23.000000
79.056050 60.000000
80.041210 6.000000
80.051820 29.000000
81.040940 11.000000
81.070520 28.000000
82.058790 11.000000
82.066980 36.000000
83.052350 6.000000
84.075330 23.000000
84.083270 82.000000
85.029410 24.000000
85.033240 13.000000
85.052050 6.000000
85.062600 5.000000
85.066840 7.000000
85.087650 9.000000
86.059860 13.000000
86.067760 18.000000
86.099040 9.000000
87.042140 20.000000
87.049270 15.000000
87.067760 6.000000
88.075630 20.000000
88.081150 9.000000
90.428550 5.000000
90.824780 5.000000
91.039250 7.000000
91.047270 21.000000
91.055470 132.000000
92.053410 23.000000
92.062610 7.000000
93.030490 22.000000
93.060810 6.000000
93.072050 67.000000
94.034000 8.000000
94.059170 10.000000
94.066210 50.000000
94.074890 5.000000
95.048730 12.000000
95.055850 6.000000
95.069490 16.000000
96.068560 5.000000
96.081580 391.000000
97.058880 13.000000
97.066670 29.000000
97.080490 26.000000
97.086420 25.000000
98.048270 8.000000
98.059030 25.000000
98.064470 6.000000
98.090980 14.000000
98.098390 76.000000
99.043590 8.000000
100.075560 52.000000
102.096830 8.000000
103.051520 11.000000
103.059210 5.000000
104.057550 8.000000
105.038930 9.000000
105.069640 164.000000
106.065370 16.000000
107.010640 7.000000
107.021610 6.000000
107.045730 52.000000
107.051160 90.000000
107.086740 13.000000
108.051220 8.000000
108.059690 8.000000
108.063570 19.000000
108.081050 1000.000000
109.047260 11.000000
109.062050 67.000000
109.066010 27.000000
109.081310 63.000000
109.087330 70.000000
109.097180 11.000000
110.060330 24.000000
110.075850 8.000000
110.085900 14.000000
110.096540 189.000000
111.046240 6.000000
111.062280 13.000000
111.068790 9.000000
111.079570 6.000000
111.101220 29.000000
112.072040 24.000000
112.078850 19.000000
112.110860 6.000000
113.072880 6.000000
113.092690 5.000000
113.837120 5.000000
114.057090 10.000000
114.091580 206.000000
115.050410 10.000000
115.055160 37.000000
115.063420 9.000000
115.096120 36.000000
115.861720 7.000000
116.046710 7.000000
116.062730 25.000000
116.076620 7.000000
117.048550 7.000000
117.059300 22.000000
117.069820 128.000000
118.059170 6.000000
118.076850 30.000000
119.035540 6.000000
119.050030 92.000000
119.069930 15.000000
119.077540 27.000000
119.087120 35.000000
119.634530 6.000000
120.082100 15.000000
121.053040 10.000000
121.064290 103.000000
121.088190 55.000000
122.056690 9.000000
122.064340 21.000000
122.075030 29.000000
122.097110 284.000000
123.042520 14.000000
123.080830 31.000000
123.089740 6.000000
123.102050 39.000000
124.077640 49.000000
124.101780 12.000000
124.113170 81.000000
125.059940 31.000000
125.077260 8.000000
125.113770 19.000000
126.055430 5.000000
126.065440 9.000000
126.091750 426.000000
126.470250 6.000000
127.053850 18.000000
127.092700 24.000000
127.101740 10.000000
128.064300 134.000000
128.103230 15.000000
128.234540 8.000000
129.069410 247.000000
129.076170 70.000000
130.044170 12.000000
130.073120 39.000000
130.089130 9.000000
131.050350 20.000000
131.058320 13.000000
131.072070 18.000000
131.086040 145.000000
132.045930 5.000000
132.053390 21.000000
132.074400 7.000000
132.090880 35.000000
132.820360 9.000000
132.974400 7.000000
133.038070 9.000000
133.065720 41.000000
133.087860 12.000000
133.098270 6.000000
134.060000 6.000000
134.070270 14.000000
134.090070 18.000000
134.097810 72.000000
134.111890 9.000000
135.043440 9.000000
135.079100 63.000000
135.099900 9.000000
135.105680 20.000000
136.074070 63.000000
136.080900 28.000000
136.105990 6.000000
136.114820 18.000000
137.061650 133.000000
137.085420 11.000000
137.099240 14.000000
137.116670 10.000000
138.070210 12.000000
138.091660 340.000000
139.076290 9.000000
139.095840 47.000000
140.107130 473.000000
141.053420 8.000000
141.063670 22.000000
141.070880 107.000000
141.104190 29.000000
141.112180 47.000000
142.074020 87.000000
142.084760 12.000000
142.727360 6.000000
143.070040 5.000000
143.084550 141.000000
143.095090 23.000000
144.058550 13.000000
144.071850 10.000000
144.086440 29.000000
144.094790 33.000000
145.057170 10.000000
145.067630 51.000000
145.085880 5.000000
145.095060 15.000000
145.103120 21.000000
146.062010 9.000000
146.070650 17.000000
146.097180 109.000000
147.072110 16.000000
147.079480 61.000000
147.100750 26.000000
147.108140 18.000000
148.082760 8.000000
148.098310 7.000000
148.107090 20.000000
148.115190 50.000000
148.125500 10.000000
149.060870 9.000000
149.083850 18.000000
149.094850 22.000000
149.102290 20.000000
149.116330 22.000000
149.545390 7.000000
150.089920 17.000000
150.109920 7.000000
150.136520 7.000000
151.061570 7.000000
151.073000 17.000000
151.084640 32.000000
151.098190 18.000000
151.109800 8.000000
152.061280 18.000000
152.069180 43.000000
152.080510 6.000000
152.108510 13.000000
153.009380 7.000000
153.050510 8.000000
153.070340 116.000000
153.113540 21.000000
154.073680 24.000000
154.082870 76.000000
154.126570 55.000000
155.053090 10.000000
155.069310 9.000000
155.086620 224.000000
155.128220 27.000000
155.534620 7.000000
156.083760 27.000000
156.098210 52.000000
156.137010 7.000000
157.057820 18.000000
157.066100 31.000000
157.085800 10.000000
157.102600 18.000000
157.111650 13.000000
158.066910 22.000000
158.074910 22.000000
158.096310 40.000000
158.665340 8.000000
159.061810 9.000000
159.080990 97.000000
159.098560 17.000000
159.115070 6.000000
159.842860 5.000000
160.071440 11.000000
160.080580 18.000000
160.112700 161.000000
161.059400 19.000000
161.078520 19.000000
161.092100 34.000000
161.104030 9.000000
161.115540 39.000000
162.061650 8.000000
162.077470 7.000000
162.090410 17.000000
162.098860 5.000000
162.116040 7.000000
162.127090 70.000000
162.520540 5.000000
163.081330 14.000000
163.098180 13.000000
163.133500 17.000000
164.102200 8.000000
164.110520 11.000000
165.057710 30.000000
165.069580 140.000000
165.089810 6.000000
165.108490 5.000000
165.117780 6.000000
166.002440 5.000000
166.079210 92.000000
166.098160 14.000000
166.106930 6.000000
166.127170 6.000000
167.045590 7.000000
167.062390 10.000000
167.085980 130.000000
168.078060 20.000000
168.096330 33.000000
168.102750 13.000000
169.062880 39.000000
169.081300 24.000000
169.103230 154.000000
170.060790 5.000000
170.070970 10.000000
170.092990 12.000000
170.103350 27.000000
170.850630 7.000000
171.067290 11.000000
171.081670 91.000000
171.102040 12.000000
171.113450 14.000000
171.126250 8.000000
172.076830 9.000000
172.088710 29.000000
172.112960 66.000000
173.065340 5.000000
173.082080 6.000000
173.095400 63.000000
173.104140 38.000000
173.112700 15.000000
173.131680 10.000000
174.066210 8.000000
174.086820 14.000000
174.100720 44.000000
174.128370 68.000000
175.073000 18.000000
175.098800 5.000000
175.110230 39.000000
175.135210 41.000000
175.144990 8.000000
176.077150 13.000000
176.087590 11.000000
176.109570 30.000000
176.141480 20.000000
177.063140 7.000000
177.089780 34.000000
177.112010 33.000000
177.145510 7.000000
177.153690 8.000000
178.073230 30.000000
178.079610 79.000000
178.123310 19.000000
178.147640 9.000000
179.079410 68.000000
179.086610 207.000000
179.115310 7.000000
179.126540 9.000000
180.087040 33.000000
180.097790 54.000000
180.144970 17.000000
181.063340 36.000000
181.074360 12.000000
181.091430 41.000000
181.103160 102.000000
181.539120 7.000000
182.069670 19.000000
182.089140 13.000000
182.101750 42.000000
182.112590 8.000000
183.075970 44.000000
183.084720 21.000000
183.116090 71.000000
184.062270 6.000000
184.083910 40.000000
184.111130 37.000000
184.123790 6.000000
184.212220 6.000000
185.056780 9.000000
185.067230 13.000000
185.076070 7.000000
185.093900 60.000000
185.120510 28.000000
186.095440 12.000000
186.108720 12.000000
186.127870 58.000000
186.137500 13.000000
187.075200 20.000000
187.100130 12.000000
187.111180 5.000000
187.136900 27.000000
188.102390 60.000000
188.111370 45.000000
188.129230 9.000000
188.143940 127.000000
188.160290 8.000000
189.069150 16.000000
189.090360 10.000000
189.118290 16.000000
189.143750 14.000000
190.082700 36.000000
190.122470 128.000000
190.152690 6.000000
191.070070 20.000000
191.083360 31.000000
191.098710 13.000000
191.118850 15.000000
191.131160 18.000000
191.142580 22.000000
192.094240 145.000000
192.137920 50.000000
193.063840 6.000000
193.084460 13.000000
193.100330 161.000000
193.141110 9.000000
193.149840 9.000000
194.062650 7.000000
194.072240 17.000000
194.101290 13.000000
194.112490 35.000000
194.123460 5.000000
194.157910 22.000000
194.906400 5.000000
195.088200 66.000000
195.101720 16.000000
195.117280 72.000000
195.159770 8.000000
196.072770 6.000000
196.084880 6.000000
196.106610 16.000000
196.117480 26.000000
196.128630 12.000000
197.070330 6.000000
197.085720 21.000000
197.093020 41.000000
197.102400 16.000000
197.113800 20.000000
197.135960 22.000000
198.100430 32.000000
198.123690 47.000000
198.134000 22.000000
198.569960 10.000000
199.070430 10.000000
199.091050 9.000000
199.112370 23.000000
199.131820 21.000000
200.102770 7.000000
200.112730 21.000000
200.144820 16.000000
201.085490 19.000000
201.096050 7.000000
201.134580 20.000000
201.150600 18.000000
201.551040 6.000000
202.045560 7.000000
202.072510 7.000000
202.079190 6.000000
202.094590 17.000000
202.122990 62.000000
202.165210 6.000000
203.073640 8.000000
203.087360 113.000000
203.117720 15.000000
203.129790 26.000000
203.158740 5.000000
204.046300 5.000000
204.081670 23.000000
204.095780 116.000000
204.127640 23.000000
204.138570 9.000000
205.064910 29.000000
205.089870 44.000000
205.098300 92.000000
205.125600 12.000000
206.106610 92.000000
206.116270 28.000000
206.155720 15.000000
207.076780 19.000000
207.087390 11.000000
207.118360 113.000000
207.165210 6.000000
208.087980 91.000000
208.110520 25.000000
208.123140 38.000000
209.087110 17.000000
209.094830 29.000000
209.111620 35.000000
209.130420 19.000000
209.139600 23.000000
210.092060 9.000000
210.101680 27.000000
210.130330 61.000000
211.084290 6.000000
211.108230 54.000000
211.126020 13.000000
212.098500 15.000000
212.112880 47.000000
212.148380 46.000000
213.091670 13.000000
213.124770 25.000000
213.143690 9.000000
214.124850 60.000000
214.141860 8.000000
214.157620 15.000000
215.083660 54.000000
216.092620 32.000000
216.102460 35.000000
216.137990 50.000000
216.146150 28.000000
217.084810 13.000000
217.101090 61.000000
218.099400 20.000000
218.122040 20.000000
218.146870 11.000000
218.158510 30.000000
219.090300 33.000000
219.109500 18.000000
219.116500 39.000000
219.127010 39.000000
219.155820 18.000000
219.164860 8.000000
220.086430 6.000000
220.096830 11.000000
220.110980 19.000000
220.132060 28.000000
220.142090 28.000000
220.171750 22.000000
221.004760 6.000000
221.100050 16.000000
221.108730 14.000000
221.120740 12.000000
221.136350 66.000000
221.171100 7.000000
221.291110 5.000000
222.096280 39.000000
222.133610 47.000000
223.104860 30.000000
223.115260 10.000000
223.132050 10.000000
223.142200 25.000000
224.077450 10.000000
224.103710 15.000000
224.115770 32.000000
224.133790 40.000000
224.145840 40.000000
225.092030 9.000000
225.116030 44.000000
225.131000 12.000000
225.146510 17.000000
226.077260 14.000000
226.120120 38.000000
226.131230 22.000000
226.154430 25.000000
227.113560 23.000000
227.130420 6.000000
227.142870 8.000000
228.075000 6.000000
228.095350 22.000000
228.110460 10.000000
228.140460 18.000000
229.101650 33.000000
229.121480 40.000000
229.143830 11.000000
230.075490 13.000000
230.107790 19.000000
230.142590 11.000000
230.154360 11.000000
230.899260 6.000000
231.079640 9.000000
231.091510 20.000000
231.102660 27.000000
231.112490 33.000000
231.122330 20.000000
231.135420 12.000000
231.150820 8.000000
231.165040 6.000000
232.068850 6.000000
232.089690 24.000000
232.100770 13.000000
232.115490 18.000000
232.128140 6.000000
233.088970 9.000000
233.123020 6.000000
234.092060 9.000000
234.107880 32.000000
234.120160 17.000000
234.128800 33.000000
234.142810 12.000000
235.084270 8.000000
235.109190 39.000000
235.136060 27.000000
236.106310 16.000000
236.121020 17.000000
236.147340 25.000000
237.083980 8.000000
237.110820 9.000000
237.129970 61.000000
237.150330 14.000000
237.159290 12.000000
238.127530 14.000000
238.146960 7.000000
238.160520 26.000000
239.108720 13.000000
239.128740 64.000000
239.144230 7.000000
240.118760 9.000000
240.135970 10.000000
240.146800 7.000000
240.180510 14.000000
240.353520 6.000000
241.104390 11.000000
241.142970 22.000000
241.154910 8.000000
242.118840 13.000000
242.147380 15.000000
242.157270 29.000000
242.318500 9.000000
243.062130 6.000000
243.152980 10.000000
244.056430 6.000000
244.128540 17.000000
244.144530 20.000000
244.168610 10.000000
244.179490 6.000000
244.875500 7.000000
245.080720 7.000000
245.118270 10.000000
245.129810 10.000000
245.138750 17.000000
246.129270 26.000000
246.142440 17.000000
247.078780 8.000000
247.111620 20.000000
247.149440 18.000000
247.161580 11.000000
248.111540 20.000000
248.122680 29.000000
248.148540 31.000000
248.671330 6.000000
249.125760 44.000000
249.157470 11.000000
250.120560 20.000000
250.132460 6.000000
250.160890 22.000000
251.115860 6.000000
251.138230 21.000000
251.148620 15.000000
251.171450 10.000000
252.110500 14.000000
252.141750 40.000000
252.169620 18.000000
253.109360 11.000000
253.120850 30.000000
253.141740 10.000000
253.162430 20.000000
254.119290 6.000000
254.137220 11.000000
254.150830 17.000000
254.168610 13.000000
254.178800 9.000000
255.130070 12.000000
255.165820 21.000000
255.401230 6.000000
256.130100 8.000000
258.150790 11.000000
258.186740 10.000000
259.123570 25.000000
259.140870 26.000000
260.144780 11.000000
260.167880 14.000000
261.136780 12.000000
261.153140 13.000000
261.172940 11.000000
262.136410 14.000000
262.152710 22.000000
262.166900 6.000000
262.196230 6.000000
263.117310 16.000000
263.168090 12.000000
264.136050 43.000000
264.150210 14.000000
264.167690 5.000000
264.181000 31.000000
265.143770 39.000000
265.166660 7.000000
266.115840 6.000000
266.127010 9.000000
266.142430 23.000000
266.152800 18.000000
266.164000 24.000000
267.136230 22.000000
267.163670 25.000000
268.156160 7.000000
268.170590 40.000000
269.113190 7.000000
269.145170 15.000000
269.155330 10.000000
269.164860 8.000000
270.145570 31.000000
270.188720 13.000000
271.138980 6.000000
271.158940 5.000000
272.158450 44.000000
273.140290 12.000000
274.144410 9.000000
274.154510 14.000000
274.165590 9.000000
275.173000 9.000000
276.141820 19.000000
276.164430 8.000000
276.173160 19.000000
277.155670 11.000000
278.128050 5.000000
278.157100 37.000000
279.145840 11.000000
280.132690 6.000000
280.163510 34.000000
280.176390 16.000000
281.121490 6.000000
281.138550 7.000000
282.148380 31.000000
282.177640 20.000000
282.187930 31.000000
283.155360 6.000000
283.182620 6.000000
283.193080 17.000000
284.149440 9.000000
284.159420 22.000000
284.171330 43.000000
284.202240 13.000000
285.164490 9.000000
285.207430 13.000000
285.427250 5.000000
286.118410 7.000000
286.183560 23.000000
286.512850 8.000000
287.137240 8.000000
288.160190 12.000000
288.189300 6.000000
288.219420 5.000000
289.167020 7.000000
290.159480 26.000000
290.190430 7.000000
290.237850 7.000000
291.145390 6.000000
292.133910 7.000000
292.157140 7.000000
292.184630 7.000000
293.186370 5.000000
294.154080 19.000000
294.171020 28.000000
294.189880 71.000000
294.537660 6.000000
295.054350 8.000000
296.121950 7.000000
296.163790 25.000000
296.172970 9.000000
296.194120 14.000000
296.209170 10.000000
297.136290 5.000000
297.174800 8.000000
297.195770 6.000000
298.138700 11.000000
298.168670 25.000000
298.181920 24.000000
299.177800 11.000000
300.149380 23.000000
300.163150 19.000000
300.177150 8.000000
300.194370 37.000000
300.204350 16.000000
301.185700 8.000000
301.200500 9.000000
302.145720 6.000000
302.220490 13.000000
303.186160 6.000000
304.143130 7.000000
304.172450 9.000000
304.185240 6.000000
305.185210 6.000000
306.165770 6.000000
306.213290 7.000000
307.151310 10.000000
308.172090 20.000000
308.293640 7.000000
309.160370 6.000000
309.176570 6.000000
310.087650 14.000000
310.172450 34.000000
310.183960 14.000000
311.184050 9.000000
311.196440 9.000000
312.176570 12.000000
312.187410 44.000000
312.208250 11.000000
313.188080 6.000000
314.171970 5.000000
314.186950 15.000000
314.200290 12.000000
314.217010 9.000000
315.179080 13.000000
315.923950 7.000000
316.396670 5.000000
318.207280 5.000000
321.698430 5.000000
322.177340 58.000000
323.178560 10.000000
323.198700 10.000000
324.195220 70.000000
325.190030 18.000000
325.202210 10.000000
326.194180 27.000000
326.213230 96.000000
326.362760 6.000000
327.168550 13.000000
327.215210 61.000000
328.173160 8.000000
328.189480 15.000000
328.203280 5.000000
328.223910 5.000000
328.233610 5.000000
329.225800 5.000000
330.201050 26.000000
331.215120 7.000000
332.226320 5.000000
333.188750 8.000000
336.201540 23.000000
338.220790 5.000000
339.180790 11.000000
340.175510 18.000000
340.187230 47.000000
340.210630 12.000000
341.181950 16.000000
341.195010 11.000000
342.198850 69.000000
342.213780 45.000000
343.206970 12.000000
343.617400 7.000000
344.194430 11.000000
344.220460 94.000000
344.244930 9.000000
345.235870 13.000000
346.242520 6.000000
348.207150 6.000000
354.158720 5.000000
354.183650 17.000000
354.208250 58.000000
354.226840 15.000000
355.182040 5.000000
355.206670 38.000000
356.212590 34.000000
356.225830 22.000000
357.203740 8.000000
358.196230 9.000000
358.209840 28.000000
358.225680 42.000000
358.241700 93.000000
359.164700 6.000000
359.247380 12.000000
360.214540 11.000000
362.237430 15.000000
364.200740 6.000000
370.214260 9.000000
372.203670 62.000000
372.220830 69.000000
373.213040 12.000000
373.226320 8.000000
373.239560 7.000000
374.234440 35.000000
374.513730 8.000000
375.229830 14.000000
376.247440 64.000000
378.242830 11.000000
386.217290 34.000000
386.241730 37.000000
387.224330 14.000000
388.210210 5.000000
388.244350 19.000000
390.256260 29.000000
390.269960 16.000000
391.258120 8.000000
396.835820 8.000000
400.250310 9.000000
404.227720 30.000000
404.248720 58.000000
404.260930 22.000000
405.242740 16.000000
405.260500 24.000000
406.961060 5.000000
417.908290 6.000000
418.199550 9.000000
418.235960 11.000000
418.256160 42.000000
419.257290 6.000000
436.247500 10.000000
437.271210 12.000000
438.027070 6.000000
446.137600 6.000000
468.294620 58.000000
468.319580 10.000000

>ms2
108.079270 6.000000
126.091520 12.000000
140.108340 7.000000
344.217220 6.000000
354.205350 9.000000
358.243410 11.000000
372.217010 19.000000
373.221440 6.000000
386.233640 10.000000
390.260470 7.000000
404.242740 31.000000
405.247160 8.000000
418.260990 7.000000
436.266080 28.000000
437.270970 10.000000
468.229950 7.000000
468.294860 1000.000000
468.358890 29.000000

>ms2
468.227540 6.000000
468.296420 1000.000000
468.359410 29.000000

>ms2
75.045170 5.000000
108.081760 8.000000
114.094180 6.000000
122.097240 6.000000
126.091870 49.000000
140.105330 9.000000
140.112270 5.000000
324.194760 7.000000
326.210820 11.000000
340.192260 6.000000
342.206150 8.000000
344.223330 14.000000
354.207790 23.000000
355.210690 7.000000
356.215850 5.000000
358.224090 9.000000
358.245390 21.000000
359.242890 8.000000
372.219540 50.000000
373.223540 15.000000
374.234650 14.000000
376.252010 18.000000
386.233490 39.000000
387.232670 10.000000
390.265050 26.000000
391.260280 5.000000
391.273250 7.000000
404.244810 112.000000
405.248960 28.000000
418.260990 26.000000
436.269840 112.000000
437.267610 16.000000
437.283360 21.000000
468.210390 5.000000
468.241390 8.000000
468.298030 1000.000000
468.361570 20.000000

>ms2
55.020920 5.000000
55.026810 6.000000
55.896100 5.000000
56.052980 27.000000
58.064750 22.000000
58.072230 8.000000
67.056480 15.000000
68.043610 9.000000
68.052950 6.000000
70.026830 5.000000
70.067150 6.000000
71.026190 5.000000
71.050090 115.000000
71.076900 6.000000
72.036660 6.000000
72.081110 58.000000
75.030590 6.000000
75.045660 247.000000
77.036130 6.000000
77.039220 12.000000
79.055430 53.000000
80.049220 17.000000
81.033160 16.000000
81.068190 24.000000
81.073090 13.000000
82.041480 5.000000
82.056520 7.000000
82.066100 41.000000
82.076090 7.000000
83.049580 23.000000
84.081890 124.000000
85.023280 18.000000
85.033800 60.000000
85.064790 11.000000
85.070110 6.000000
85.368070 6.000000
86.030840 6.000000
86.061480 33.000000
87.045390 49.000000
88.052010 14.000000
88.074710 20.000000
89.061520 5.000000
91.031590 6.000000
91.055160 233.000000
92.056110 18.000000
93.038180 5.000000
93.070130 49.000000
94.067140 27.000000
95.048190 25.000000
95.074580 9.000000
95.083120 6.000000
95.087730 15.000000
96.050870 8.000000
96.056370 7.000000
96.081560 486.000000
96.205940 6.000000
97.051620 5.000000
97.065200 32.000000
97.082980 21.000000
98.061380 15.000000
98.096490 52.000000
98.106480 11.000000
99.102780 5.000000
100.077010 7.000000
100.110710 9.000000
101.059560 17.000000
102.085850 9.000000
102.092780 12.000000
103.053890 31.000000
105.037040 10.000000
105.044870 6.000000
105.070790 80.000000
105.695040 8.000000
106.066210 20.000000
106.078060 7.000000
107.023690 5.000000
107.049900 114.000000
107.073340 14.000000
108.045240 16.000000
108.052160 30.000000
108.081610 1000.000000
109.066080 68.000000
109.087170 129.000000
110.034190 8.000000
110.059250 20.000000
110.066060 11.000000
110.072240 6.000000
110.085670 8.000000
110.096610 188.000000
110.198670 7.000000
111.066910 5.000000
111.070500 13.000000
111.078930 8.000000
111.086440 6.000000
111.098470 7.000000
111.108700 6.000000
111.845520 10.000000
112.075950 54.000000
112.082440 20.000000
112.111900 6.000000
113.062800 7.000000
113.080020 5.000000
114.065680 5.000000
114.075070 9.000000
114.091670 171.000000
115.055210 47.000000
115.090180 6.000000
115.096850 33.000000
116.060620 10.000000
116.071360 5.000000
116.078020 6.000000
117.059770 9.000000
117.070480 187.000000
118.038440 10.000000
118.066660 7.000000
118.072690 6.000000
118.696200 8.000000
119.049710 121.000000
119.080700 12.000000
119.088750 43.000000
120.078930 17.000000
120.086850 8.000000
120.591930 6.000000
121.038060 6.000000
121.065700 83.000000
121.072940 18.000000
121.083650 13.000000
121.092550 37.000000
122.061480 7.000000
122.066550 18.000000
122.097160 368.000000
123.080180 63.000000
123.093510 9.000000
123.104690 47.000000
124.066440 9.000000
124.075450 56.000000
124.112650 143.000000
125.051380 10.000000
125.058460 28.000000
125.067030 11.000000
125.084590 5.000000
126.055240 5.000000
126.074910 6.000000
126.092120 393.000000
127.054190 41.000000
127.068400 8.000000
127.085980 8.000000
127.096180 36.000000
128.060820 68.000000
128.070360 23.000000
128.098590 8.000000
128.106890 29.000000
129.072240 237.000000
129.120410 7.000000
130.039000 6.000000
130.070330 70.000000
130.078510 52.000000
130.085770 22.000000
130.517430 5.000000
131.049640 26.000000
131.066510 9.000000
131.076810 38.000000
131.087220 85.000000
132.051710 15.000000
132.058620 18.000000
132.076100 11.000000
132.082990 28.000000
132.094450 22.000000
133.063960 54.000000
133.086590 17.000000
133.098180 12.000000
134.068650 10.000000
134.083240 30.000000
134.094300 52.000000
134.103070 60.000000
134.475010 8.000000
135.047330 6.000000
135.074840 10.000000
135.084490 39.000000
135.103870 54.000000
135.117690 10.000000
136.066990 6.000000
136.078430 28.000000
136.113040 45.000000
137.057270 145.000000
137.063630 62.000000
138.059300 12.000000
138.068280 6.000000
138.077710 8.000000
138.092070 334.000000
138.132340 8.000000
139.072270 14.000000
139.092960 53.000000
139.366330 6.000000
140.085740 8.000000
140.107820 406.000000
140.238750 5.000000
141.050230 5.000000
141.059720 11.000000
141.071580 166.000000
141.105480 29.000000
141.112240 55.000000
142.070510 17.000000
142.077300 40.000000
142.084960 17.000000
142.113070 6.000000
143.071350 12.000000
143.085830 92.000000
143.098100 9.000000
144.057420 29.000000
144.085160 31.000000
144.093630 24.000000
144.102770 22.000000
145.030140 5.000000
145.057310 45.000000
145.064680 56.000000
145.077850 7.000000
145.087600 16.000000
145.104290 68.000000
146.058840 7.000000
146.072460 26.000000
146.097990 41.000000
147.080890 81.000000
147.094510 34.000000
147.102770 20.000000
147.412280 9.000000
148.073930 20.000000
148.088790 23.000000
148.109130 76.000000
149.051700 5.000000
149.058900 20.000000
149.071140 9.000000
149.092500 26.000000
149.099260 17.000000
149.116460 8.000000
150.085100 19.000000
150.093860 11.000000
151.067780 11.000000
151.076100 53.000000
151.105030 6.000000
152.057080 9.000000
152.066710 15.000000
152.074100 7.000000
152.083390 7.000000
152.102620 14.000000
152.112790 8.000000
153.069790 130.000000
154.061800 7.000000
154.071040 31.000000
154.080700 54.000000
154.096080 5.000000
154.119720 48.000000
154.129170 15.000000
154.135590 7.000000
155.065750 6.000000
155.085850 166.000000
155.128170 11.000000
156.082610 12.000000
156.088460 25.000000
156.106840 12.000000
157.047810 9.000000
157.067290 43.000000
157.080600 26.000000
157.097720 29.000000
157.103790 84.000000
158.059370 8.000000
158.065800 28.000000
158.097380 56.000000
158.107060 16.000000
158.115880 8.000000
159.083190 69.000000
159.097290 17.000000
159.108930 23.000000
159.225280 13.000000
159.706210 7.000000
160.077620 18.000000
160.088700 5.000000
160.113330 171.000000
161.060640 10.000000
161.082820 6.000000
161.090320 21.000000
161.101870 8.000000
161.118090 28.000000
161.125850 15.000000
162.068540 19.000000
162.073320 9.000000
162.102920 10.000000
162.130890 115.000000
163.070250 11.000000
163.081590 24.000000
163.092650 7.000000
163.102290 16.000000
163.132900 8.000000
163.140080 6.000000
163.849730 6.000000
164.103030 20.000000
164.110260 33.000000
164.139400 5.000000
164.147430 6.000000
165.070430 137.000000
165.081330 22.000000
165.096240 15.000000
166.069440 25.000000
166.079940 102.000000
166.111720 8.000000
166.127550 7.000000
166.238240 7.000000
167.062710 9.000000
167.086240 200.000000
167.128850 5.000000
168.057160 5.000000
168.078640 22.000000
168.086200 21.000000
168.094510 33.000000
169.060590 10.000000
169.069750 23.000000
169.087840 28.000000
169.102230 105.000000
170.063520 15.000000
170.093150 53.000000
170.118420 6.000000
171.069110 18.000000
171.080540 66.000000
171.103290 18.000000
171.108690 11.000000
171.175030 10.000000
172.077990 23.000000
172.111240 93.000000
173.056720 8.000000
173.090640 13.000000
173.099320 46.000000
173.114960 24.000000
173.125600 27.000000
174.080490 8.000000
174.095090 45.000000
174.118350 18.000000
174.129060 64.000000
175.066480 10.000000
175.097870 25.000000
175.114650 20.000000
175.130280 17.000000
175.140320 20.000000
176.093520 5.000000
176.106570 23.000000
176.114670 11.000000
176.143080 18.000000
177.075240 18.000000
177.090810 5.000000
177.106080 8.000000
178.074430 58.000000
178.082140 71.000000
178.120740 32.000000
178.131270 5.000000
178.157880 5.000000
179.085820 176.000000
180.071300 6.000000
180.092180 109.000000
180.137700 10.000000
180.163590 8.000000
181.054720 5.000000
181.065520 15.000000
181.088120 36.000000
181.101060 143.000000
182.072400 17.000000
182.105510 45.000000
183.062730 14.000000
183.072980 24.000000
183.081630 62.000000
183.105610 19.000000
183.116990 67.000000
183.126080 16.000000
184.088440 14.000000
184.117260 55.000000
185.057540 11.000000
185.091130 22.000000
185.102980 30.000000
185.117570 8.000000
186.061340 5.000000
186.070400 8.000000
186.090120 27.000000
186.125460 25.000000
186.133440 26.000000
186.920750 6.000000
187.070770 10.000000
187.081700 11.000000
187.093230 6.000000
187.106770 29.000000
187.118670 7.000000
187.130070 12.000000
187.140430 14.000000
187.495540 6.000000
188.079220 7.000000
188.106480 95.000000
188.132370 19.000000
188.147990 70.000000
188.162080 12.000000
189.038250 5.000000
189.075910 9.000000
189.105420 6.000000
189.118940 9.000000
189.150050 5.000000
190.068700 7.000000
190.078700 36.000000
190.115830 39.000000
190.124650 90.000000
190.147290 6.000000
191.057190 7.000000
191.082150 37.000000
191.091770 72.000000
191.120120 20.000000
191.130690 20.000000
192.079010 19.000000
192.093900 49.000000
192.126420 10.000000
192.137250 50.000000
192.147400 14.000000
193.100810 207.000000
193.137410 7.000000
193.156220 11.000000
194.066940 9.000000
194.076190 22.000000
194.097110 8.000000
194.111420 49.000000
195.074230 28.000000
195.083270 36.000000
195.104110 33.000000
195.121430 65.000000
195.826890 5.000000
196.056990 6.000000
196.078580 8.000000
196.086290 38.000000
196.117360 32.000000
197.067340 6.000000
197.084410 17.000000
197.101750 29.000000
197.113940 6.000000
197.124730 11.000000
197.136930 36.000000
197.563200 11.000000
198.061400 7.000000
198.090710 9.000000
198.099230 22.000000
198.120360 18.000000
198.128950 39.000000
199.064620 8.000000
199.093510 6.000000
199.101200 12.000000
199.116070 15.000000
199.132340 14.000000
199.149610 14.000000
200.079330 10.000000
200.103740 25.000000
200.113270 25.000000
200.126920 12.000000
200.143710 38.000000
200.151840 9.000000
200.741070 7.000000
201.096270 7.000000
201.124110 31.000000
201.135680 13.000000
201.153240 17.000000
202.072250 14.000000
202.079880 37.000000
202.124360 71.000000
202.157820 14.000000
203.085680 76.000000
203.101990 11.000000
203.121670 16.000000
203.137080 6.000000
203.221850 8.000000
203.424610 8.000000
203.492160 6.000000
204.075040 5.000000
204.085630 27.000000
204.096690 50.000000
204.105610 31.000000
204.127850 11.000000
204.143370 27.000000
204.169270 8.000000
205.056430 6.000000
205.070740 10.000000
205.091460 39.000000
205.101810 107.000000
205.137570 5.000000
206.072480 7.000000
206.079300 18.000000
206.100720 12.000000
206.113650 50.000000
206.162600 8.000000
207.075270 9.000000
207.096620 9.000000
207.111450 45.000000
207.121250 23.000000
207.153560 8.000000
207.317170 6.000000
207.330490 6.000000
208.086550 36.000000
208.100750 5.000000
208.117870 21.000000
208.129300 25.000000
208.155790 6.000000
209.088470 9.000000
209.100040 63.000000
209.126680 24.000000
209.136630 39.000000
210.092910 17.000000
210.107130 11.000000
210.127210 63.000000
210.140320 16.000000
210.560410 5.000000
211.105100 28.000000
211.115340 25.000000
211.132170 34.000000
211.140960 20.000000
212.078280 15.000000
212.109210 37.000000
212.129230 18.000000
212.143480 20.000000
213.065160 6.000000
213.089660 9.000000
213.114910 21.000000
213.157210 15.000000
214.109600 10.000000
214.125780 53.000000
214.157270 15.000000
214.169110 7.000000
215.076610 11.000000
215.085400 35.000000
215.101880 11.000000
215.116130 7.000000
215.129140 12.000000
216.093950 56.000000
216.104480 13.000000
216.138350 59.000000
217.104580 23.000000
217.124630 10.000000
217.140530 17.000000
217.152850 14.000000
218.069690 20.000000
218.079670 6.000000
218.094480 9.000000
218.104710 27.000000
218.119200 22.000000
218.153700 19.000000
219.079680 22.000000
219.090380 14.000000
219.109910 34.000000
219.120270 76.000000
219.134190 9.000000
219.165510 8.000000
219.175610 6.000000
220.073300 9.000000
220.088970 32.000000
220.102430 19.000000
220.116350 30.000000
220.135060 40.000000
220.144610 20.000000
220.172240 18.000000
221.077900 10.000000
221.097850 63.000000
221.125720 49.000000
221.141480 38.000000
222.099290 35.000000
222.110810 9.000000
222.131330 44.000000
222.149020 18.000000
222.158600 15.000000
222.177830 5.000000
222.865970 7.000000
223.085980 12.000000
223.112720 53.000000
223.124540 30.000000
223.146220 20.000000
224.082180 5.000000
224.101760 11.000000
224.115800 7.000000
224.130980 8.000000
224.146880 35.000000
224.824040 5.000000
225.124050 37.000000
225.146060 9.000000
225.155240 7.000000
226.080310 11.000000
226.115490 6.000000
226.127560 32.000000
226.162900 26.000000
227.083630 14.000000
227.108520 6.000000
227.127810 21.000000
227.140690 11.000000
227.158910 6.000000
228.090030 9.000000
228.105220 8.000000
228.117570 14.000000
228.136290 12.000000
228.146160 8.000000
228.171460 7.000000
228.180390 5.000000
229.081120 7.000000
229.092150 26.000000
229.105380 10.000000
229.140440 25.000000
230.138230 24.000000
230.155000 18.000000
231.078140 26.000000
231.118970 23.000000
232.088120 11.000000
232.096450 15.000000
232.112560 22.000000
232.123460 22.000000
232.141300 9.000000
233.078450 6.000000
233.103710 47.000000
233.121090 11.000000
233.137330 9.000000
234.081950 6.000000
234.099010 29.000000
234.115490 6.000000
234.128750 19.000000
234.147920 9.000000
235.078770 10.000000
235.093460 16.000000
235.113620 10.000000
235.129650 29.000000
235.161670 11.000000
235.386150 5.000000
236.083270 5.000000
236.111690 8.000000
236.123020 16.000000
236.132160 19.000000
236.149430 9.000000
237.121600 57.000000
237.132230 24.000000
237.157960 9.000000
238.109620 10.000000
238.124400 50.000000
238.142720 15.000000
238.162630 26.000000
239.110960 17.000000
239.128520 31.000000
239.147870 18.000000
239.172530 16.000000
240.101750 15.000000
240.130970 12.000000
240.140560 11.000000
240.163210 6.000000
240.176440 7.000000
240.294270 9.000000
240.672090 6.000000
241.100300 12.000000
241.120480 20.000000
241.173860 10.000000
242.107880 14.000000
242.121750 12.000000
242.160000 6.000000
243.116240 10.000000
243.137910 5.000000
243.159910 18.000000
244.073970 5.000000
244.085950 10.000000
244.117940 6.000000
244.135600 28.000000
244.154330 11.000000
245.122960 6.000000
245.145720 8.000000
246.107100 20.000000
246.133360 28.000000
246.153260 23.000000
246.174710 8.000000
246.199550 5.000000
246.328860 5.000000
247.093730 7.000000
247.105910 24.000000
247.114720 53.000000
247.132280 7.000000
247.149920 15.000000
248.088460 5.000000
248.098210 5.000000
248.115100 8.000000
248.128460 20.000000
248.149990 45.000000
249.089310 5.000000
249.110690 10.000000
249.136120 24.000000
249.148560 18.000000
250.099950 9.000000
250.108320 9.000000
250.125440 14.000000
250.157530 24.000000
250.166350 22.000000
251.098240 6.000000
251.106810 29.000000
251.146220 20.000000
251.167020 15.000000
251.177030 9.000000
252.104350 5.000000
252.135300 15.000000
252.146380 45.000000
252.174820 12.000000
252.183670 11.000000
253.130710 13.000000
253.160190 17.000000
253.180570 5.000000
253.210970 11.000000
254.117000 11.000000
254.163830 12.000000
254.176030 8.000000
255.074570 6.000000
255.132060 8.000000
255.156680 25.000000
255.177700 8.000000
256.127660 14.000000
256.165890 27.000000
257.076230 5.000000
257.134700 6.000000
257.170010 6.000000
258.117400 5.000000
258.146390 10.000000
258.156130 9.000000
258.187230 5.000000
259.100490 10.000000
259.109530 35.000000
259.142970 9.000000
259.154600 7.000000
259.360530 5.000000
260.135960 12.000000
260.159000 11.000000
261.092160 8.000000
261.110900 12.000000
262.126740 22.000000
262.148680 15.000000
263.109250 8.000000
263.133420 22.000000
263.162810 9.000000
264.124820 9.000000
264.137700 8.000000
264.149480 15.000000
264.164000 44.000000
264.184270 20.000000
265.128660 29.000000
265.145420 18.000000
265.170780 12.000000
265.187960 6.000000
266.128360 21.000000
266.158230 44.000000
267.131160 30.000000
267.147670 9.000000
268.075160 9.000000
268.156770 8.000000
268.176640 13.000000
268.188630 7.000000
269.043060 5.000000
269.141510 10.000000
269.176570 26.000000
270.048340 6.000000
270.147490 30.000000
270.162320 16.000000
270.173610 6.000000
270.193080 5.000000
271.132780 17.000000
271.184200 11.000000
272.127750 8.000000
272.147610 7.000000
272.159850 20.000000
272.169100 11.000000
273.176210 11.000000
274.123930 5.000000
274.142700 31.000000
275.645810 5.000000
276.139010 11.000000
276.160830 17.000000
276.186550 20.000000
277.111360 6.000000
277.130370 10.000000
277.145870 8.000000
278.144010 6.000000
278.157960 19.000000
278.178410 8.000000
279.136440 17.000000
279.151060 7.000000
279.167420 12.000000
280.136410 20.000000
280.169620 43.000000
280.181240 18.000000
281.166380 32.000000
282.158750 6.000000
282.169010 7.000000
282.189180 29.000000
283.121310 5.000000
283.136540 13.000000
283.171080 6.000000
283.179780 11.000000
283.195040 14.000000
284.121610 6.000000
284.141570 6.000000
284.165620 99.000000
284.194460 24.000000
284.216310 12.000000
284.802190 6.000000
285.198210 6.000000
286.141910 5.000000
286.181150 7.000000
286.196690 9.000000
287.168790 6.000000
287.177610 16.000000
287.194610 5.000000
288.154270 11.000000
288.202180 5.000000
289.147090 9.000000
289.169920 7.000000
290.151640 18.000000
290.168460 8.000000
290.184050 10.000000
292.173370 13.000000
293.146000 15.000000
293.164000 5.000000
293.181300 6.000000
294.162050 17.000000
294.177190 13.000000
294.190730 41.000000
295.131740 9.000000
295.157620 18.000000
295.186460 11.000000
296.165340 27.000000
296.188630 15.000000
296.200470 25.000000
297.143430 10.000000
297.195130 11.000000
298.168120 6.000000
298.210480 10.000000
300.155520 8.000000
300.173160 11.000000
300.197780 21.000000
301.179140 6.000000
302.171260 9.000000
304.150420 7.000000
304.166230 14.000000
305.198240 6.000000
306.155330 8.000000
308.160710 10.000000
308.174590 11.000000
309.152440 9.000000
310.169920 12.000000
310.181980 14.000000
311.184230 9.000000
312.152770 7.000000
312.167660 5.000000
312.183410 18.000000
312.196960 78.000000
312.217900 12.000000
313.190640 15.000000
313.206600 19.000000
314.176910 13.000000
314.213990 27.000000
315.199010 12.000000
315.221130 13.000000
316.174410 5.000000
316.189420 10.000000
316.231080 5.000000
317.172850 6.000000
317.221190 13.000000
317.242280 7.000000
322.166080 13.000000
322.183290 65.000000
323.189000 14.000000
324.176180 16.000000
324.192570 28.000000
325.201540 34.000000
326.175720 5.000000
326.191410 21.000000
326.210240 67.000000
326.222110 48.000000
327.217620 37.000000
328.221190 16.000000
330.191560 10.000000
330.209260 23.000000
331.209320 8.000000
332.157440 6.000000
332.189540 5.000000
332.233150 6.000000
333.242220 5.000000
336.191830 16.000000
336.213500 5.000000
337.209720 6.000000
339.721800 7.000000
340.131770 6.000000
340.164640 5.000000
340.189610 45.000000
340.200160 73.000000
342.196200 37.000000
342.208470 18.000000
343.180510 7.000000
343.218140 22.000000
344.194370 10.000000
344.215850 58.000000
344.228820 46.000000
344.246770 29.000000
345.205780 12.000000
345.222900 31.000000
345.241880 9.000000
346.208070 6.000000
346.232910 8.000000
348.206480 6.000000
351.019470 8.000000
352.195710 11.000000
354.196870 12.000000
354.212550 61.000000
355.209290 38.000000
355.226470 19.000000
356.196690 8.000000
356.219880 34.000000
356.235470 13.000000
357.226960 6.000000
357.239110 13.000000
358.215610 10.000000
358.238710 138.000000
358.258210 20.000000
359.026030 7.000000
359.211210 13.000000
359.226350 10.000000
359.247070 10.000000
360.237030 9.000000
361.221010 5.000000
362.236480 14.000000
365.344330 7.000000
371.220700 8.000000
372.196040 31.000000
372.215760 159.000000
373.219600 57.000000
373.244930 5.000000
374.219090 21.000000
374.240230 58.000000
374.431820 6.000000
375.245940 8.000000
376.210020 6.000000
376.252010 64.000000
376.279110 5.000000
377.264590 13.000000
378.231990 7.000000
386.222080 19.000000
386.239690 46.000000
386.257050 6.000000
387.221770 12.000000
387.236330 27.000000
390.220490 5.000000
390.236600 8.000000
390.255430 18.000000
390.268310 25.000000
391.265690 18.000000
394.269130 6.000000
403.860870 7.000000
404.207890 5.000000
404.245480 103.000000
405.255950 13.000000
406.247590 9.000000
416.247890 9.000000
418.249540 13.000000
418.273560 19.000000
436.269380 15.000000
436.298580 9.000000
466.675200 8.000000
468.296420 54.000000
468.314360 13.000000

>ms2
108.081650 6.000000
126.092370 13.000000
140.109380 7.000000
358.232670 6.000000
372.209080 8.000000
372.227330 9.000000
376.246370 5.000000
386.220310 5.000000
386.239870 5.000000
404.237640 20.000000
404.259370 10.000000
405.242460 6.000000
418.263400 7.000000
436.252380 10.000000
436.267330 12.000000
436.284910 11.000000
437.287110 5.000000
468.213260 6.000000
468.296110 1000.000000
468.359010 30.000000

>ms2
468.227940 6.000000
468.295410 1000.000000
468.358250 30.000000

>ms2
75.043820 7.000000
108.081960 12.000000
122.097050 7.000000
126.091900 56.000000
138.091550 5.000000
140.107250 16.000000
312.195950 6.000000
324.191860 7.000000
326.209320 12.000000
342.205410 10.000000
344.223880 14.000000
345.221220 6.000000
354.205230 23.000000
358.229680 18.000000
358.244110 21.000000
359.241940 9.000000
372.215790 54.000000
372.233550 10.000000
373.226230 10.000000
374.233550 10.000000
376.245510 16.000000
386.231230 42.000000
387.231320 9.000000
390.263180 31.000000
391.267940 8.000000
404.243650 120.000000
405.246030 33.000000
418.255680 29.000000
419.261570 10.000000
436.258090 34.000000
436.270720 88.000000
437.272250 35.000000
438.274170 7.000000
468.226200 11.000000
468.295900 1000.000000
468.358760 24.000000

>ms2
56.050220 11.000000
58.051880 9.000000
58.060360 15.000000
58.066390 47.000000
61.029740 6.000000
67.042740 6.000000
67.052750 19.000000
67.058120 6.000000
68.051670 11.000000
68.057790 5.000000
69.036450 5.000000
70.060740 6.000000
70.067080 34.000000
70.090590 7.000000
71.050770 94.000000
72.049680 6.000000
72.082060 66.000000
75.036410 12.000000
75.045180 233.000000
75.699910 5.000000
76.048520 9.000000
77.031720 7.000000
79.054620 81.000000
80.046390 24.000000
81.071850 14.000000
82.032780 6.000000
82.063600 35.000000
83.037530 16.000000
83.049160 12.000000
84.043690 5.000000
84.078230 23.000000
84.083330 79.000000
85.030470 95.000000
85.052120 14.000000
87.043800 31.000000
87.049960 8.000000
88.074350 17.000000
88.079580 6.000000
91.055810 180.000000
92.050110 8.000000
92.057170 26.000000
93.056420 8.000000
93.068550 36.000000
94.037750 6.000000
94.057880 9.000000
94.065930 14.000000
94.071250 10.000000
95.048360 5.000000
95.071500 10.000000
95.090130 7.000000
96.061490 12.000000
96.082030 402.000000
97.066310 41.000000
97.084100 17.000000
97.902400 6.000000
98.060240 54.000000
98.088890 12.000000
98.098050 52.000000
99.064730 15.000000
99.068410 5.000000
99.079470 8.000000
100.078440 12.000000
100.096970 7.000000
102.095920 14.000000
103.053230 28.000000
104.056560 5.000000
105.035600 14.000000
105.059400 12.000000
105.071530 125.000000
106.061940 20.000000
106.072600 9.000000
107.050570 99.000000
107.067610 17.000000
107.077730 20.000000
107.084080 16.000000
108.053240 23.000000
108.065880 16.000000
108.080870 1000.000000
109.064750 70.000000
109.069920 32.000000
109.086490 163.000000
110.060960 40.000000
110.096840 197.000000
111.066580 7.000000
111.072980 6.000000
111.081260 7.000000
111.100340 9.000000
111.323460 5.000000
112.065700 15.000000
112.073740 36.000000
112.112840 11.000000
114.076920 6.000000
114.088130 73.000000
114.093240 164.000000
115.052830 45.000000
115.060530 37.000000
115.097030 6.000000
116.054600 10.000000
116.064270 14.000000
117.051150 6.000000
117.069500 177.000000
118.041110 12.000000
119.051240 90.000000
119.065610 7.000000
119.075200 6.000000
119.084520 50.000000
120.050220 21.000000
120.078920 24.000000
120.089930 5.000000
121.065610 47.000000
121.088400 34.000000
121.103990 9.000000
122.064030 21.000000
122.097240 271.000000
122.638790 10.000000
123.062210 6.000000
123.071360 6.000000
123.079660 18.000000
123.086940 18.000000
123.104080 55.000000
124.060900 6.000000
124.075410 14.000000
124.082630 16.000000
124.090440 6.000000
124.111860 122.000000
125.057220 14.000000
125.063580 14.000000
125.082080 24.000000
125.117150 18.000000
126.091140 340.000000
127.055110 28.000000
127.062190 5.000000
127.099080 45.000000
128.057390 35.000000
128.064830 36.000000
128.105710 18.000000
129.070530 198.000000
130.078690 42.000000
131.046980 9.000000
131.085820 163.000000
132.047670 11.000000
132.082640 47.000000
133.065400 55.000000
133.087910 7.000000
133.102890 25.000000
133.108660 8.000000
133.370800 8.000000
134.068860 21.000000
134.095840 97.000000
134.112820 9.000000
135.063640 10.000000
135.082200 72.000000
135.106410 8.000000
136.070180 10.000000
136.076690 31.000000
136.085560 14.000000
136.115590 19.000000
137.053240 44.000000
137.061650 57.000000
137.069840 21.000000
137.113460 5.000000
138.066390 16.000000
138.077070 9.000000
138.092130 318.000000
138.777850 5.000000
139.071400 7.000000
139.089610 18.000000
139.097850 30.000000
140.089250 6.000000
140.106600 449.000000
140.123250 14.000000
141.067520 66.000000
141.074200 64.000000
141.108150 34.000000
142.065730 14.000000
142.076570 38.000000
142.082410 31.000000
142.102070 7.000000
142.115300 16.000000
142.123580 17.000000
143.064290 9.000000
143.083280 112.000000
143.093140 39.000000
143.120590 7.000000
144.051450 14.000000
144.062930 9.000000
144.084060 46.000000
144.106720 14.000000
145.064740 81.000000
145.089520 23.000000
145.104340 40.000000
146.075040 19.000000
146.098680 62.000000
146.109680 9.000000
147.074810 41.000000
147.082860 41.000000
147.096690 15.000000
147.102680 41.000000
148.079130 14.000000
148.088010 20.000000
148.101040 13.000000
148.112500 120.000000
149.050990 7.000000
149.090450 5.000000
149.114530 10.000000
149.125090 11.000000
150.092000 26.000000
150.101100 17.000000
150.119250 9.000000
150.130340 21.000000
151.054050 6.000000
151.065310 5.000000
151.075810 68.000000
151.086410 6.000000
151.097060 14.000000
152.047620 8.000000
152.061330 12.000000
152.070830 21.000000
152.106980 6.000000
152.114300 6.000000
153.061140 9.000000
153.072530 101.000000
154.069430 24.000000
154.079100 32.000000
154.085190 10.000000
154.107860 5.000000
154.120160 70.000000
155.053760 5.000000
155.071150 17.000000
155.087400 165.000000
156.057340 6.000000
156.092320 74.000000
156.245010 6.000000
157.061540 22.000000
157.069730 39.000000
157.088270 30.000000
157.099660 55.000000
158.076170 34.000000
158.090150 17.000000
158.100970 60.000000
159.064420 6.000000
159.077190 54.000000
159.084840 50.000000
159.108050 7.000000
159.114780 11.000000
160.078920 36.000000
160.113740 77.000000
160.124050 9.000000
161.057360 19.000000
161.072220 10.000000
161.090500 15.000000
161.099720 38.000000
161.119610 31.000000
162.087740 8.000000
162.095500 35.000000
162.116380 14.000000
162.128020 56.000000
163.058210 9.000000
163.072420 38.000000
163.096590 41.000000
163.110180 10.000000
163.131740 8.000000
163.139130 10.000000
164.103160 11.000000
164.112380 26.000000
164.458890 8.000000
165.069430 137.000000
165.084760 8.000000
165.131580 7.000000
166.072020 46.000000
166.083790 31.000000
166.121780 23.000000
167.067020 16.000000
167.077220 42.000000
167.086230 187.000000
167.683880 5.000000
168.089420 65.000000
168.104780 7.000000
168.908280 7.000000
169.066470 16.000000
169.088180 17.000000
169.098220 26.000000
169.104420 61.000000
170.069210 10.000000
170.082980 11.000000
170.098820 13.000000
170.109410 10.000000
171.081680 110.000000
171.106080 10.000000
171.118450 48.000000
172.070970 9.000000
172.092620 35.000000
172.110530 59.000000
173.060530 6.000000
173.085710 15.000000
173.097960 83.000000
173.113820 20.000000
173.120150 35.000000
174.093980 37.000000
174.103610 23.000000
174.118700 18.000000
174.129010 126.000000
175.080580 16.000000
175.097850 7.000000
175.107410 26.000000
175.130940 48.000000
176.081730 6.000000
176.094880 16.000000
176.108750 63.000000
176.141950 32.000000
176.161850 6.000000
177.091930 26.000000
177.109050 9.000000
178.081130 113.000000
178.097270 7.000000
178.109220 8.000000
178.120150 30.000000
179.087020 176.000000
179.109210 5.000000
179.122830 6.000000
180.083920 8.000000
180.093380 39.000000
180.102230 8.000000
181.056730 11.000000
181.065690 36.000000
181.082730 19.000000
181.101270 130.000000
182.075620 32.000000
182.097000 12.000000
182.105610 28.000000
183.077240 27.000000
183.085850 12.000000
183.106860 29.000000
183.115540 75.000000
184.076320 10.000000
184.088090 22.000000
184.115490 71.000000
185.080460 17.000000
185.095810 43.000000
185.114580 19.000000
185.121830 8.000000
185.138630 7.000000
186.089040 35.000000
186.112060 6.000000
186.120590 20.000000
186.131730 35.000000
187.064420 10.000000
187.105530 53.000000
187.133760 22.000000
187.145260 5.000000
188.083710 11.000000
188.106190 61.000000
188.118180 37.000000
188.139820 26.000000
188.149640 65.000000
189.088260 22.000000
189.107480 27.000000
189.118350 18.000000
189.124480 6.000000
189.139280 15.000000
189.149860 11.000000
190.079220 19.000000
190.111760 20.000000
190.123500 139.000000
190.151570 12.000000
190.160320 17.000000
191.073230 19.000000
191.088380 160.000000
191.137540 20.000000
192.080580 19.000000
192.095400 79.000000
192.141170 60.000000
193.069730 12.000000
193.100010 151.000000
193.155330 6.000000
193.521590 6.000000
194.072950 13.000000
194.094800 13.000000
194.106860 28.000000
194.117970 6.000000
194.129030 6.000000
194.631010 6.000000
195.080110 67.000000
195.095990 11.000000
195.109020 27.000000
195.119660 66.000000
196.095980 10.000000
196.109360 30.000000
196.117390 44.000000
197.056850 20.000000
197.094770 51.000000
197.120700 11.000000
197.132320 12.000000
198.077700 6.000000
198.087800 15.000000
198.095550 28.000000
198.121930 42.000000
198.131640 43.000000
198.160260 7.000000
198.372120 7.000000
199.090740 9.000000
199.103160 11.000000
199.128110 5.000000
199.144060 12.000000
200.021620 10.000000
200.087310 16.000000
200.104130 38.000000
200.111070 31.000000
200.131130 12.000000
200.139820 27.000000
201.097350 33.000000
201.113770 14.000000
201.135530 5.000000
201.150180 8.000000
202.077350 31.000000
202.090790 7.000000
202.099620 15.000000
202.117630 23.000000
202.126590 74.000000
203.064530 7.000000
203.079560 50.000000
203.089750 54.000000
203.132520 31.000000
204.077880 25.000000
204.095790 89.000000
204.130510 20.000000
204.141270 38.000000
205.082110 9.000000
205.102230 98.000000
206.071170 6.000000
206.087300 10.000000
206.107010 62.000000
206.161930 8.000000
207.084080 42.000000
207.108730 35.000000
207.119170 78.000000
208.078380 16.000000
208.088350 23.000000
208.104930 9.000000
208.113800 25.000000
208.129560 22.000000
209.098220 38.000000
209.115190 10.000000
209.132950 51.000000
209.961060 7.000000
210.095930 27.000000
210.119900 33.000000
210.133040 30.000000
211.074660 5.000000
211.098970 26.000000
211.109760 16.000000
211.118760 19.000000
211.148930 5.000000
212.104310 36.000000
212.136180 29.000000
212.150650 25.000000
212.992570 7.000000
213.088550 21.000000
213.119800 14.000000
213.500560 6.000000
213.825390 5.000000
214.107990 7.000000
214.123200 14.000000
214.134140 26.000000
214.155930 6.000000
215.074650 21.000000
215.087280 56.000000
215.114430 9.000000
215.132450 33.000000
215.163440 16.000000
216.085880 6.000000
216.098340 27.000000
216.137510 57.000000
216.160490 10.000000
216.552140 6.000000
217.094970 29.000000
217.107060 25.000000
217.127260 22.000000
217.142780 15.000000
217.153720 8.000000
218.060710 7.000000
218.095790 8.000000
218.110760 24.000000
218.150850 14.000000
218.158420 28.000000
219.100400 34.000000
219.119310 51.000000
219.131130 10.000000
219.506160 8.000000
220.086040 18.000000
220.112150 37.000000
220.127990 62.000000
220.144740 6.000000
220.177630 13.000000
221.096450 45.000000
221.121460 32.000000
221.138050 38.000000
221.145100 14.000000
221.457750 5.000000
221.847030 6.000000
222.102040 62.000000
222.127410 33.000000
222.148510 31.000000
223.090230 5.000000
223.110150 40.000000
223.120680 22.000000
224.077260 12.000000
224.105320 26.000000
224.120880 22.000000
224.145190 92.000000
225.114150 21.000000
225.130340 17.000000
225.139920 14.000000
225.153750 7.000000
226.097050 11.000000
226.115600 12.000000
226.124270 27.000000
226.132800 21.000000
227.103270 17.000000
227.127590 7.000000
228.093440 32.000000
228.107530 19.000000
228.122280 11.000000
228.139660 47.000000
228.179470 6.000000
229.096370 17.000000
229.141460 9.000000
229.150790 8.000000
230.100140 10.000000
230.113390 10.000000
230.122380 15.000000
230.152920 6.000000
230.246060 5.000000
231.085970 13.000000
231.100460 9.000000
231.115510 42.000000
231.134090 11.000000
231.157040 9.000000
232.088760 36.000000
232.097980 10.000000
232.117950 18.000000
232.142380 10.000000
232.169100 8.000000
232.380800 9.000000
233.090120 5.000000
233.100170 18.000000
233.120640 27.000000
233.137270 16.000000
233.480550 8.000000
233.499420 9.000000
234.097840 10.000000
234.117580 8.000000
234.129930 26.000000
234.161350 6.000000
234.183870 8.000000
235.104050 18.000000
235.120610 23.000000
235.134580 17.000000
235.146440 10.000000
236.104710 12.000000
236.118160 27.000000
236.133500 25.000000
236.152890 6.000000
236.171050 14.000000
237.099550 6.000000
237.118800 34.000000
237.133850 17.000000
237.162230 7.000000
238.099320 6.000000
238.109910 7.000000
238.129200 27.000000
238.143950 6.000000
238.157700 16.000000
239.097500 15.000000
239.124100 7.000000
239.139080 15.000000
239.150760 10.000000
240.099150 5.000000
240.110340 13.000000
240.137480 50.000000
240.154300 22.000000
241.117370 14.000000
241.531230 6.000000
242.113330 27.000000
242.135010 9.000000
242.154300 34.000000
243.121250 5.000000
243.131520 11.000000
243.432710 6.000000
244.105330 15.000000
244.126770 36.000000
244.142750 6.000000
244.169130 24.000000
245.084440 5.000000
245.121810 9.000000
245.137880 10.000000
245.151640 5.000000
245.181440 8.000000
246.127180 17.000000
246.144880 23.000000
246.157700 14.000000
246.527530 5.000000
247.110760 28.000000
247.124210 18.000000
247.156390 19.000000
247.163120 8.000000
248.101680 12.000000
248.143230 52.000000
248.167620 9.000000
249.095960 20.000000
249.126800 43.000000
249.137360 25.000000
249.149780 18.000000
249.163680 8.000000
250.097840 6.000000
250.120210 16.000000
250.135280 29.000000
250.162310 16.000000
250.176450 16.000000
251.089190 8.000000
251.119870 7.000000
251.134370 24.000000
251.149430 5.000000
251.956120 6.000000
252.100620 9.000000
252.138660 36.000000
252.175960 14.000000
253.121370 13.000000
253.145650 32.000000
253.179920 21.000000
254.122410 5.000000
254.152070 25.000000
254.169010 13.000000
255.130860 16.000000
255.157330 17.000000
256.137940 18.000000
256.172820 47.000000
256.994450 7.000000
257.123410 7.000000
257.145200 7.000000
257.185730 8.000000
258.113680 10.000000
258.152440 8.000000
258.168090 14.000000
258.749210 6.000000
259.112700 18.000000
259.127660 10.000000
259.139100 6.000000
259.157410 7.000000
260.120760 20.000000
260.129820 6.000000
260.154450 21.000000
260.198580 6.000000
261.133880 20.000000
261.167970 18.000000
261.683200 8.000000
262.100040 7.000000
262.123260 33.000000
262.156130 35.000000
262.170680 15.000000
263.125000 12.000000
263.165800 18.000000
263.251650 6.000000
264.109890 16.000000
264.128810 11.000000
264.138890 23.000000
264.176820 56.000000
265.125920 8.000000
265.156560 8.000000
266.119900 7.000000
266.134520 7.000000
266.142330 14.000000
266.153720 15.000000
266.163120 20.000000
266.174680 7.000000
268.122650 17.000000
268.160340 23.000000
268.183780 6.000000
268.201840 6.000000
269.146760 6.000000
270.146480 9.000000
270.170380 18.000000
270.193210 20.000000
271.151250 6.000000
271.163880 20.000000
271.193880 13.000000
271.207890 8.000000
272.122590 7.000000
272.167910 23.000000
273.168150 11.000000
274.122530 16.000000
275.111570 8.000000
275.142880 18.000000
277.113310 14.000000
277.142090 8.000000
277.157470 29.000000
277.180970 7.000000
278.117070 7.000000
278.148130 22.000000
280.152160 13.000000
280.169620 55.000000
280.183780 26.000000
281.148990 15.000000
281.171780 25.000000
282.138210 15.000000
282.185120 22.000000
283.142910 9.000000
283.176150 27.000000
283.194400 11.000000
284.163850 55.000000
284.200560 6.000000
285.142490 7.000000
285.162480 20.000000
285.176090 17.000000
286.136110 8.000000
286.179140 18.000000
288.140960 11.000000
288.153230 8.000000
288.196500 10.000000
288.858700 6.000000
289.153320 6.000000
291.152710 11.000000
292.148830 10.000000
292.161040 15.000000
292.176790 29.000000
293.171300 6.000000
294.126530 8.000000
294.142880 14.000000
294.158360 17.000000
294.182980 67.000000
294.197480 35.000000
294.274410 6.000000
295.144100 6.000000
295.189850 34.000000
296.161680 26.000000
296.211300 16.000000
297.165650 12.000000
297.201080 11.000000
298.153050 10.000000
298.170900 12.000000
298.190000 16.000000
300.151250 8.000000
300.166200 37.000000
300.201660 14.000000
300.209010 5.000000
302.133480 6.000000
303.172730 8.000000
304.163880 6.000000
305.166170 5.000000
305.177980 6.000000
306.204380 7.000000
308.147640 5.000000
308.160890 33.000000
308.205510 12.000000
309.185360 10.000000
310.157530 12.000000
310.177580 9.000000
310.198910 5.000000
310.239110 6.000000
310.545470 7.000000
311.163640 6.000000
312.191310 52.000000
312.210480 16.000000
312.262880 11.000000
312.517300 7.000000
313.086880 6.000000
313.193360 22.000000
314.185090 34.000000
314.214290 7.000000
315.214420 7.000000
316.194090 29.000000
316.236110 6.000000
316.767700 6.000000
322.165440 9.000000
322.183470 32.000000
322.192840 10.000000
324.185670 22.000000
324.205930 24.000000
324.223360 6.000000
325.189150 12.000000
325.213070 11.000000
325.721800 5.000000
326.178340 12.000000
326.189790 9.000000
326.210820 78.000000
326.229400 7.000000
326.573550 5.000000
327.180180 6.000000
327.209110 8.000000
328.193420 33.000000
328.207580 16.000000
328.230680 12.000000
330.205990 7.000000
330.213620 19.000000
331.204680 7.000000
332.193730 14.000000
334.249540 5.000000
336.196110 19.000000
337.199310 12.000000
340.180820 36.000000
340.198330 24.000000
341.194060 17.000000
342.201480 61.000000
342.213100 16.000000
343.213130 14.000000
344.194210 13.000000
344.218230 98.000000
344.250430 6.000000
345.216580 27.000000
345.234160 19.000000
346.196350 13.000000
354.208370 100.000000
355.190310 30.000000
355.212250 11.000000
355.223050 7.000000
356.212710 61.000000
357.175930 7.000000
357.213900 6.000000
357.228060 5.000000
358.166020 9.000000
358.187500 9.000000
358.227260 49.000000
358.239620 59.000000
359.203310 5.000000
359.216030 7.000000
359.245210 23.000000
360.219450 16.000000
361.230650 10.000000
362.195530 6.000000
362.229740 11.000000
362.725430 5.000000
363.239470 7.000000
368.217250 8.000000
369.214720 6.000000
372.212710 43.000000
372.224880 44.000000
372.828430 6.000000
373.205540 15.000000
373.225560 31.000000
374.218380 15.000000
374.234310 15.000000
374.257750 8.000000
375.248050 8.000000
376.242950 78.000000
377.251800 14.000000
377.263950 9.000000
385.879880 7.000000
386.237060 108.000000
387.153560 6.000000
387.235720 32.000000
389.257750 6.000000
390.227080 9.000000
390.251770 11.000000
397.003110 6.000000
404.245210 124.000000
405.239780 14.000000
405.258210 23.000000
406.225070 7.000000
416.258580 13.000000
418.254180 15.000000
428.335750 5.000000
436.261570 16.000000
436.281070 10.000000
437.284300 12.000000
444.827580 6.000000
456.667210 6.000000
468.290770 56.000000
468.304350 17.000000

