>compound PR89820479
>parentmass 595.1657467000001
>ionization [M+H]+
>formula C27H30O15
>rt 214.287000
>profile qtof
#smiles_iso C[C@H]1[C@@H]([C@H]([C@H]([C@@H](O1)OC2=CC(=C3C(=C2)OC(=C(C3=O)O[C@H]4[C@@H]([C@H]([C@H]([C@H](O4)CO)O)O)O)C5=CC=C(C=C5)O)O)O)O)O
#smiles_can CC1C(C(C(C(O1)OC2=CC(=C3C(=C2)OC(=C(C3=O)OC4C(C(C(C(O4)CO)O)O)O)C5=CC=C(C=C5)O)O)O)O)O
#inchikey JYXSWDCPHRTYGU-VYARGGPUSA-N
#pubchem_id 57390614
#mb_accession PR302003,PR302009,PR302015,PR302021,PR302027,PR302033,PR302039,PR302045,PR302050,PR302056,PR302062,PR302068

>ms2peaks
61.028850 6.000000
127.037630 10.000000
145.045330 12.000000
176.693680 5.000000
287.054720 1000.000000
287.570830 5.000000
288.056550 184.000000
288.075780 22.000000
289.057740 21.000000
289.071900 16.000000
299.058200 6.000000
330.163730 7.000000
433.066770 16.000000
433.109890 449.000000
434.113070 79.000000
434.131070 18.000000
435.102630 6.000000
449.098270 8.000000
450.118500 5.000000
595.165410 270.000000

>ms2peaks
287.047910 32.000000
287.059420 41.000000
288.061650 9.000000
303.524900 6.000000
433.055210 5.000000
433.113130 620.000000
434.114870 203.000000
435.123960 30.000000
442.330080 10.000000
449.101200 19.000000
595.054320 9.000000
595.095760 23.000000
595.166690 1000.000000
595.240300 5.000000

>ms2peaks
85.029600 13.000000
91.038830 24.000000
287.005520 5.000000
287.016910 9.000000
287.054260 1000.000000
288.062260 109.000000
289.047330 7.000000
289.061920 12.000000

>ms2peaks
85.024830 15.000000
85.031200 13.000000
121.026590 7.000000
121.035090 15.000000
127.043120 6.000000
137.028950 6.000000
153.016860 15.000000
161.054980 6.000000
165.012120 15.000000
165.018980 14.000000
213.057400 9.000000
213.167880 5.000000
231.068050 8.000000
241.046340 11.000000
258.050930 8.000000
258.060460 6.000000
287.018280 18.000000
287.054870 1000.000000
287.086640 5.000000
288.058260 233.000000
289.050720 10.000000
289.067320 20.000000

>ms2peaks
145.047740 21.000000
287.008610 10.000000
287.023500 9.000000
287.054530 1000.000000
288.061430 177.000000
289.065610 14.000000
433.054500 17.000000
433.112980 535.000000
433.159060 8.000000
434.115170 129.000000
435.108490 9.000000
435.123170 7.000000
435.145940 6.000000
595.134220 19.000000
595.167360 215.000000

>ms2peaks
287.052670 55.000000
288.054380 12.000000
371.692050 6.000000
403.955110 6.000000
433.063870 11.000000
433.111970 839.000000
434.076780 6.000000
434.117250 206.000000
435.118380 22.000000
449.084440 5.000000
449.104430 12.000000
450.118160 7.000000
595.064760 12.000000
595.098390 8.000000
595.165890 1000.000000

>ms2peaks
85.023650 6.000000
85.032050 10.000000
91.037570 16.000000
97.024920 11.000000
287.015470 13.000000
287.055330 1000.000000
288.024690 10.000000
288.061250 145.000000
289.052670 20.000000
289.066890 29.000000
433.113370 8.000000

>ms2peaks
73.028310 13.000000
77.038660 6.000000
85.023660 10.000000
85.032440 9.000000
97.030130 12.000000
121.024190 13.000000
121.030200 8.000000
127.036370 6.000000
137.014130 5.000000
165.015760 18.000000
165.024280 13.000000
213.057220 10.000000
241.025570 7.000000
241.054440 19.000000
242.052440 7.000000
259.043670 7.000000
259.056430 15.000000
287.000270 5.000000
287.055050 1000.000000
288.060270 163.000000
289.059300 42.000000

>ms2peaks
61.029830 5.000000
85.026480 11.000000
109.028160 5.000000
127.030010 6.000000
210.761090 7.000000
236.478000 8.000000
287.013090 16.000000
287.054470 1000.000000
288.051910 87.000000
288.062870 96.000000
289.051510 8.000000
289.066560 12.000000
290.065980 6.000000
433.066650 25.000000
433.112850 463.000000
434.077450 5.000000
434.096310 27.000000
434.122070 97.000000
435.112640 11.000000
435.135440 5.000000
595.099730 11.000000
595.143620 80.000000
595.162600 281.000000

>ms2peaks
265.471860 5.000000
287.056580 73.000000
288.050750 6.000000
288.068480 7.000000
432.986360 5.000000
433.041930 10.000000
433.063630 10.000000
433.113490 852.000000
433.153230 6.000000
434.117520 205.000000
435.117280 58.000000
436.122040 7.000000
449.099150 6.000000
449.123080 11.000000
473.854980 7.000000
595.071410 10.000000
595.103820 18.000000
595.167360 1000.000000

>ms2peaks
85.027400 8.000000
91.037320 12.000000
147.065310 7.000000
287.003780 9.000000
287.021420 12.000000
287.054750 1000.000000
288.057430 215.000000
289.044250 7.000000
289.062380 21.000000
433.073880 7.000000
433.108460 11.000000

>ms2peaks
91.039920 10.000000
97.026540 10.000000
111.008280 8.000000
121.008570 8.000000
121.029410 18.000000
121.037750 7.000000
137.019390 6.000000
149.024830 6.000000
153.017700 10.000000
153.023820 10.000000
154.019500 6.000000
155.045390 6.000000
157.067460 6.000000
165.019990 31.000000
194.373520 6.000000
213.067210 6.000000
241.045640 11.000000
241.059480 8.000000
258.053710 14.000000
259.056670 13.000000
287.054810 1000.000000
288.022890 6.000000
288.032350 11.000000
288.057980 207.000000
288.078580 21.000000
289.058260 18.000000
470.467800 9.000000

