>compound PR89696740
>parentmass 176.01983249230773
>ionization [M+H]+
>formula C6H9NOS2
>rt 226.115095
>profile qtof
#smiles_iso CS(=O)C=CCCN=C=S
#smiles_can CS(=O)C=CCCN=C=S
#inchikey QKGJFQMGPDVOQE-UHFFFAOYSA-N
#pubchem_id 11620
#mb_accession PR303459,PR303460,PR303461,PR303462,PR303463,PR303464,PR303465,PR303466,PR303467,PR303468,PR303469,PR303470,PR310458

>ms2
55.058020 28.000000
68.051860 39.000000
69.061830 228.000000
70.061580 31.000000
76.030790 43.000000
78.034980 57.000000
85.009490 77.000000
85.014000 87.000000
87.026460 1000.000000
88.029960 27.000000
100.018040 38.000000
101.031520 139.000000
101.045790 63.000000
102.034970 28.000000
112.009950 44.000000
112.016760 83.000000
112.028920 49.000000
114.109080 30.000000
115.470830 36.000000
116.049270 33.000000
116.057370 113.000000
117.034020 172.000000
133.021710 39.000000
143.041200 151.000000
176.021670 491.000000

>ms2
58.990090 17.000000
61.011650 14.000000
65.005070 17.000000
67.052050 13.000000
68.045840 25.000000
68.052240 18.000000
68.235590 8.000000
69.051020 13.000000
69.058270 86.000000
70.056110 10.000000
70.067250 11.000000
74.006550 26.000000
85.015910 14.000000
87.020320 48.000000
87.026220 262.000000
87.034740 29.000000
88.025690 8.000000
89.021200 20.000000
89.042410 37.000000
94.073660 13.000000
99.029320 8.000000
100.016490 16.000000
100.821530 10.000000
101.028850 28.000000
101.041490 36.000000
103.019190 39.000000
104.026820 18.000000
112.017780 44.000000
112.026050 30.000000
113.026960 20.000000
114.021880 12.000000
114.044980 8.000000
116.044520 17.000000
116.054130 211.000000
117.027630 17.000000
117.036380 97.000000
117.043080 18.000000
117.065060 8.000000
128.015790 8.000000
134.012730 8.000000
135.007170 14.000000
135.986430 37.000000
142.984540 9.000000
143.034700 8.000000
143.048770 35.000000
144.043730 11.000000
148.015990 17.000000
148.034150 10.000000
176.018540 1000.000000

>ms2
72.006500 241.000000
78.037540 540.000000
87.015030 287.000000
87.028970 1000.000000
89.023340 322.000000
116.018700 299.000000
156.503880 287.000000

>ms2
78.034170 490.000000
116.063230 1000.000000

>ms2
59.497700 30.000000
61.010900 31.000000
68.046370 70.000000
68.052410 101.000000
69.055970 224.000000
69.059960 126.000000
74.008430 31.000000
74.996220 52.000000
78.967160 40.000000
85.002940 47.000000
85.009310 37.000000
87.017940 47.000000
87.027210 752.000000
87.034850 37.000000
89.023530 108.000000
98.063710 52.000000
99.028240 30.000000
100.022440 100.000000
101.026280 77.000000
101.032310 47.000000
101.042050 38.000000
102.043850 49.000000
103.022700 150.000000
106.422740 37.000000
112.022850 278.000000
112.523930 35.000000
113.027640 73.000000
114.041720 49.000000
114.970900 51.000000
116.046570 77.000000
116.054670 418.000000
117.024640 47.000000
117.034670 89.000000
117.044130 61.000000
117.985280 44.000000
118.046870 30.000000
128.012920 40.000000
129.017400 30.000000
133.011960 49.000000
135.986570 37.000000
143.040880 30.000000
144.043660 37.000000
146.990750 30.000000
158.009050 30.000000
174.061630 42.000000
176.021210 1000.000000

>ms2
58.993090 9.000000
61.005340 9.000000
61.012070 14.000000
68.030750 10.000000
68.050400 74.000000
69.058330 190.000000
78.293750 8.000000
80.049540 30.000000
82.012940 11.000000
82.065630 13.000000
82.069890 9.000000
85.011870 70.000000
86.017590 8.000000
87.009250 9.000000
87.025650 146.000000
88.030810 14.000000
100.015440 13.000000
100.022000 29.000000
100.705600 10.000000
101.018490 7.000000
101.027390 25.000000
101.041650 14.000000
103.017330 13.000000
103.032970 17.000000
112.022170 182.000000
113.016970 9.000000
114.017600 20.000000
115.472070 17.000000
116.053110 224.000000
117.025470 20.000000
117.036420 161.000000
117.062410 23.000000
118.038670 14.000000
118.048800 15.000000
118.629940 9.000000
123.009980 8.000000
126.937460 18.000000
128.012130 28.000000
130.025920 17.000000
133.013090 23.000000
133.023560 7.000000
136.978700 11.000000
143.037170 48.000000
143.043060 49.000000
144.735790 8.000000
145.031340 9.000000
160.078950 8.000000
174.211000 9.000000
175.995320 7.000000
176.018710 1000.000000

>ms2
85.010980 1000.000000

>ms2
68.050900 1000.000000

>ms2
53.041410 48.000000
54.065800 54.000000
65.006090 59.000000
68.053050 59.000000
69.057240 96.000000
71.992970 54.000000
74.991770 40.000000
78.036780 62.000000
80.050000 52.000000
85.012090 166.000000
87.026790 586.000000
87.036560 42.000000
88.025650 28.000000
89.023360 60.000000
89.043810 51.000000
90.008910 35.000000
96.042310 37.000000
96.047290 31.000000
97.050990 45.000000
99.030620 46.000000
100.017000 31.000000
101.027420 71.000000
101.046220 48.000000
103.014560 37.000000
103.026710 109.000000
112.021460 401.000000
113.023500 45.000000
116.045710 68.000000
116.053720 200.000000
117.033450 45.000000
117.053990 42.000000
119.033100 40.000000
133.019850 31.000000
145.493680 48.000000
175.983730 32.000000
175.996190 51.000000
176.021470 1000.000000

>ms2
61.008570 10.000000
65.007320 17.000000
65.041240 14.000000
68.048640 22.000000
69.059140 103.000000
74.008330 17.000000
78.032750 34.000000
84.494710 9.000000
85.011380 22.000000
85.016260 11.000000
87.005380 12.000000
87.026550 291.000000
88.746060 10.000000
93.785160 15.000000
100.025440 24.000000
101.028590 29.000000
101.044820 23.000000
103.025250 12.000000
112.020290 264.000000
114.029760 10.000000
114.884540 14.000000
115.047870 11.000000
116.045310 23.000000
116.055180 300.000000
117.034610 56.000000
117.039720 86.000000
117.987720 11.000000
118.036810 10.000000
118.045640 10.000000
119.987700 11.000000
128.016860 25.000000
130.033770 18.000000
133.016040 32.000000
134.020460 17.000000
138.355240 9.000000
141.803280 12.000000
143.033860 10.000000
143.042390 100.000000
144.039700 14.000000
158.003660 15.000000
175.933780 14.000000
176.020890 1000.000000
176.220050 11.000000

>ms2
53.039160 1000.000000
87.020190 309.000000
87.031240 545.000000
89.567560 309.000000
117.035070 382.000000

>ms2
73.994190 375.000000
86.993160 646.000000
116.057010 1000.000000
117.033370 458.000000
118.834470 500.000000

>ms2
55.058020 18.000000
68.051860 25.000000
69.061830 145.000000
70.061580 20.000000
76.030790 27.000000
78.034980 36.000000
85.009490 49.000000
85.014000 55.000000
87.026460 635.000000
88.029960 17.000000
100.018040 24.000000
101.031520 88.000000
101.045790 40.000000
102.034970 18.000000
112.009950 28.000000
112.016760 53.000000
112.028920 31.000000
114.109080 19.000000
115.470830 23.000000
116.049270 21.000000
116.057370 72.000000
117.034020 109.000000
133.021710 25.000000
143.041200 96.000000
176.021670 312.000000

