>compound PR89379024
>parentmass 451.1234880000001
>ionization [M+H]+
>formula C21H22O11
>rt 245.570040
>profile qtof
#smiles_iso C1C(OC2=CC(=CC(=C2C1=O)O)O[C@H]3[C@@H]([C@H]([C@@H]([C@H](O3)CO)O)O)O)C4=CC(=C(C=C4)O)O
#smiles_can C1C(OC2=CC(=CC(=C2C1=O)O)OC3C(C(C(C(O3)CO)O)O)O)C4=CC(=C(C=C4)O)O
#inchikey RAFHNDRXYHOLSH-RGHIGTIISA-N
#pubchem_id 5319853
#mb_accession PR302481,PR302486,PR302492,PR302498,PR302504,PR302510,PR302516,PR302522,PR302528,PR302533,PR302539,PR302545

>ms2peaks
123.044140 21.000000
137.017330 8.000000
137.055070 6.000000
145.031280 15.000000
153.017240 252.000000
154.010850 9.000000
154.020950 6.000000
154.028110 10.000000
155.004060 5.000000
163.037050 128.000000
163.048900 14.000000
164.038680 14.000000
164.045520 8.000000
165.011980 8.000000
165.039600 13.000000
167.036130 9.000000
177.021420 6.000000
179.036070 17.000000
187.040130 12.000000
197.050050 8.000000
211.799930 7.000000
217.097760 6.000000
229.429050 7.000000
231.028750 19.000000
236.003160 5.000000
241.082370 9.000000
253.046880 6.000000
259.056240 6.000000
271.053190 6.000000
271.063390 6.000000
271.073030 7.000000
272.058140 17.000000
288.051210 9.000000
288.543060 6.000000
289.026120 7.000000
289.036350 17.000000
289.070100 1000.000000
289.995880 6.000000
290.051360 23.000000
290.073180 198.000000
291.077760 21.000000
301.064270 15.000000
314.069060 15.000000
331.074620 6.000000
341.335140 7.000000
451.072810 19.000000
451.125980 64.000000

>ms2peaks
208.829970 6.000000
288.055360 6.000000
288.769260 5.000000
288.887540 5.000000
289.016660 7.000000
289.037380 37.000000
289.071110 1000.000000
290.073240 182.000000
290.738860 5.000000
291.071010 33.000000
313.070010 5.000000
342.904570 5.000000
385.055300 5.000000
385.258790 6.000000
386.109890 8.000000
450.617770 5.000000
450.884860 5.000000
451.107240 69.000000
451.127660 277.000000

>ms2peaks
68.997550 15.000000
81.298830 8.000000
85.030030 16.000000
93.133500 9.000000
111.002090 9.000000
111.011130 10.000000
127.040530 16.000000
133.600740 14.000000
134.989840 15.000000
137.025100 9.000000
138.168110 10.000000
145.026670 10.000000
146.846100 15.000000
148.178630 11.000000
153.018890 493.000000
153.050420 10.000000
154.021180 72.000000
155.028170 11.000000
155.221630 10.000000
155.813810 8.000000
161.060150 18.000000
162.997860 14.000000
163.017650 10.000000
163.038440 569.000000
163.055400 13.000000
164.022090 20.000000
164.042130 77.000000
165.018170 20.000000
166.562580 10.000000
173.059810 15.000000
177.054410 11.000000
179.028200 75.000000
179.038270 48.000000
180.043270 27.000000
187.031800 15.000000
187.043670 38.000000
189.092480 22.000000
202.068270 15.000000
205.042390 32.000000
229.048140 16.000000
231.037310 13.000000
253.046840 10.000000
271.024230 9.000000
271.062290 31.000000
271.068850 15.000000
287.048550 12.000000
288.041960 18.000000
288.757230 12.000000
289.070740 1000.000000
289.498290 10.000000
290.037540 9.000000
290.064850 84.000000
290.086610 44.000000
291.078610 25.000000
291.086490 12.000000
295.856930 12.000000
307.753170 10.000000

>ms2peaks
57.895910 13.000000
67.009570 24.000000
68.998120 19.000000
83.014620 15.000000
89.036390 32.000000
89.042700 19.000000
93.037540 20.000000
107.048540 17.000000
108.054800 22.000000
109.027480 25.000000
111.004280 16.000000
111.011530 25.000000
117.030580 106.000000
123.043790 23.000000
125.011810 29.000000
131.034010 23.000000
135.042450 122.000000
139.033190 15.000000
139.039350 17.000000
145.027680 166.000000
146.028750 24.000000
146.036880 30.000000
151.041990 11.000000
152.980030 15.000000
152.989780 24.000000
153.016560 1000.000000
154.020460 103.000000
155.015950 11.000000
156.036620 11.000000
159.041240 33.000000
159.046660 16.000000
162.051620 13.000000
163.006360 15.000000
163.040770 131.000000
164.038830 28.000000
165.012800 21.000000
177.018570 16.000000
177.056690 20.000000
179.036390 14.000000
183.054460 17.000000
185.067170 27.000000
187.033160 15.000000
197.060180 15.000000
201.051990 29.000000
206.044070 13.000000

>ms2peaks
97.365430 5.000000
123.046120 9.000000
135.023800 7.000000
135.045030 19.000000
137.024150 6.000000
137.060900 6.000000
145.058360 8.000000
152.987060 5.000000
153.006930 14.000000
153.017870 239.000000
154.018720 12.000000
154.026640 20.000000
163.030350 43.000000
163.037220 163.000000
164.043320 12.000000
178.439560 12.000000
179.030410 18.000000
187.039150 13.000000
195.029790 7.000000
199.696290 6.000000
214.705870 10.000000
219.020290 5.000000
228.723530 7.000000
261.033840 6.000000
271.038570 9.000000
271.050110 6.000000
287.050110 14.000000
288.046750 5.000000
288.975680 6.000000
289.020660 6.000000
289.036770 7.000000
289.068600 1000.000000
289.914370 10.000000
290.067660 71.000000
290.080290 119.000000
291.074860 57.000000
291.093200 12.000000
292.075230 5.000000
293.707400 6.000000
451.114750 58.000000
451.139280 40.000000

>ms2peaks
153.016780 5.000000
163.045100 5.000000
287.068730 5.000000
289.030730 7.000000
289.046480 21.000000
289.069370 1000.000000
290.070400 56.000000
290.082520 66.000000
291.072630 12.000000
291.085570 23.000000
292.073760 5.000000
332.080600 8.000000
355.049960 5.000000
415.112880 6.000000
449.117280 13.000000
451.124390 352.000000

>ms2peaks
85.066410 11.000000
111.002820 11.000000
111.010570 39.000000
123.040370 9.000000
129.400820 13.000000
136.040220 9.000000
137.023530 14.000000
137.055850 10.000000
143.774730 9.000000
145.016420 11.000000
145.025410 16.000000
145.036680 14.000000
153.015960 557.000000
153.029480 67.000000
154.019180 100.000000
159.958790 10.000000
160.050380 12.000000
161.056660 13.000000
163.039090 770.000000
164.032820 56.000000
164.045180 118.000000
179.031850 99.000000
179.040190 51.000000
180.027850 11.000000
180.039370 13.000000
187.019030 8.000000
187.025470 9.000000
187.041370 38.000000
188.041850 8.000000
195.018460 19.000000
195.024860 8.000000
201.058040 19.000000
205.054890 10.000000
206.060380 17.000000
215.069780 10.000000
220.475420 9.000000
243.026090 13.000000
247.056180 10.000000
248.063840 12.000000
253.042820 22.000000
253.056730 21.000000
271.052220 11.000000
271.069610 24.000000
271.086000 12.000000
272.050050 10.000000
287.050750 12.000000
287.066010 19.000000
288.060850 9.000000
288.779600 23.000000
289.070530 1000.000000
289.242340 10.000000
289.340580 11.000000
290.009950 13.000000
290.072020 149.000000
290.095030 23.000000
291.058750 8.000000
291.076390 16.000000
291.327270 11.000000
292.092190 14.000000
314.072330 8.000000

>ms2peaks
67.018620 84.000000
69.033410 27.000000
79.017670 13.000000
80.061450 21.000000
89.037260 48.000000
89.044320 19.000000
94.397740 19.000000
97.025060 31.000000
97.047140 13.000000
107.050790 19.000000
108.121170 18.000000
117.033220 85.000000
117.039670 35.000000
118.042510 20.000000
123.039920 25.000000
131.047560 11.000000
135.029130 19.000000
135.043790 157.000000
135.051730 54.000000
135.455080 15.000000
136.050630 52.000000
142.508030 11.000000
143.048340 27.000000
145.008070 19.000000
145.025050 123.000000
145.033230 47.000000
146.031100 67.000000
151.030560 24.000000
153.017640 1000.000000
154.014390 21.000000
155.192430 13.000000
155.350250 15.000000
157.251220 11.000000
163.017460 11.000000
163.037460 130.000000
165.035490 27.000000
177.058520 19.000000
179.023250 29.000000
179.032880 36.000000
180.040390 14.000000
185.916520 13.000000
187.046100 21.000000
219.055980 23.000000
230.048810 14.000000
287.050510 23.000000
288.063780 15.000000

>ms2peaks
109.021700 8.000000
111.014440 7.000000
117.030250 10.000000
135.037670 6.000000
145.024670 26.000000
145.034130 5.000000
153.006760 28.000000
153.019840 151.000000
161.018650 7.000000
163.037600 138.000000
163.051970 11.000000
164.034290 18.000000
164.042690 6.000000
179.036440 24.000000
187.030360 5.000000
195.024800 12.000000
205.052570 19.000000
219.036790 6.000000
250.978560 7.000000
253.046450 9.000000
271.065340 11.000000
279.040250 5.000000
287.061370 8.000000
289.011440 6.000000
289.070560 1000.000000
290.043090 5.000000
290.073210 122.000000
290.085390 31.000000
291.081940 20.000000
451.122380 70.000000
451.153690 10.000000

>ms2peaks
288.062160 5.000000
288.942600 5.000000
289.070160 1000.000000
289.106660 11.000000
290.035130 6.000000
290.068760 108.000000
290.083010 105.000000
291.072630 22.000000
291.085420 30.000000
331.073120 6.000000
333.100340 7.000000
356.081700 6.000000
371.917880 8.000000
397.336430 5.000000
433.101200 6.000000
449.110380 9.000000
450.118440 8.000000
450.133270 10.000000
450.995150 6.000000
451.116490 231.000000
451.138760 103.000000
451.163730 15.000000

>ms2peaks
55.019810 13.000000
61.026410 13.000000
65.558360 15.000000
85.033220 19.000000
111.006920 66.000000
127.043730 11.000000
135.041790 17.000000
137.027440 22.000000
137.060230 65.000000
139.038440 10.000000
144.989810 9.000000
145.028690 27.000000
145.828050 14.000000
151.043270 11.000000
152.449550 10.000000
153.019780 678.000000
154.016360 14.000000
154.028140 27.000000
159.050630 16.000000
161.065290 14.000000
163.007710 10.000000
163.038040 761.000000
164.042620 46.000000
164.671050 9.000000
165.012590 10.000000
167.550860 11.000000
171.153520 9.000000
179.034420 81.000000
180.035600 16.000000
187.017990 13.000000
187.030810 17.000000
187.040040 12.000000
191.040850 13.000000
216.588380 15.000000
219.026410 14.000000
229.043930 10.000000
243.029890 13.000000
243.067570 11.000000
253.048290 9.000000
271.060420 97.000000
272.062560 11.000000
273.809940 9.000000
283.459720 11.000000
287.057040 15.000000
289.037900 34.000000
289.070710 1000.000000
289.098420 30.000000
290.031680 18.000000
290.073030 99.000000
290.086730 30.000000
291.076900 20.000000
313.066860 15.000000

>ms2peaks
67.013670 13.000000
68.993230 42.000000
70.037830 16.000000
89.035650 18.000000
90.049590 23.000000
97.027480 16.000000
109.028280 35.000000
111.010310 11.000000
111.045780 28.000000
117.034320 95.000000
118.034380 45.000000
119.054600 11.000000
123.045650 36.000000
131.044200 13.000000
131.059360 17.000000
135.040860 75.000000
137.016850 22.000000
139.037000 14.000000
145.018490 28.000000
145.027500 76.000000
146.027440 77.000000
146.038120 17.000000
153.002240 64.000000
153.017490 1000.000000
154.020130 58.000000
159.036060 20.000000
163.039460 172.000000
164.022830 16.000000
191.039830 13.000000
219.735890 13.000000
246.085400 16.000000
247.038070 18.000000
271.088380 16.000000
285.989930 11.000000
289.059200 28.000000
372.628690 18.000000

