>compound PR89935879
>parentmass 408.27444969999993
>ionization [M+H]+
>formula C23H37NO5
>rt 174.376020
>profile qtof
#smiles_iso CCN1C[C@]2(CC[C@@H]([C@@]34C2CC(C31)[C@]5(C[C@@H]([C@H]6CC4C5C6O)OC)O)O)COC
#smiles_can CCN1CC2(CCC(C34C2CC(C31)C5(CC(C6CC4C5C6O)OC)O)O)COC
#inchikey RBSZCNOWHDHRFZ-CFIIAAHPSA-N
#pubchem_id 3084020
#mb_accession PR300489,PR300494,PR300499,PR300504,PR300509,PR300514,PR300518,PR300523,PR300528,PR300533,PR300538,PR300542

>ms2
98.097750 10.000000
108.082590 5.000000
358.240020 18.000000
372.256960 10.000000
390.264400 132.000000
391.264770 37.000000
408.219970 6.000000
408.273900 1000.000000
408.332520 27.000000

>ms2
408.274480 1000.000000
408.333220 31.000000

>ms2
58.065350 19.000000
72.080370 9.000000
93.066730 5.000000
98.095710 38.000000
102.093760 8.000000
108.079150 14.000000
124.112190 6.000000
131.085920 7.000000
137.059560 6.000000
141.069580 6.000000
143.083850 7.000000
154.124050 18.000000
157.100400 5.000000
169.102190 11.000000
171.118960 7.000000
181.104830 8.000000
183.116880 14.000000
195.114030 6.000000
197.133120 13.000000
207.122120 5.000000
225.127720 6.000000
237.158660 5.000000
243.134450 7.000000
257.159760 6.000000
265.154270 5.000000
265.169040 6.000000
283.167450 11.000000
297.191650 7.000000
326.216770 6.000000
327.207730 6.000000
330.215450 6.000000
340.223570 17.000000
340.237520 10.000000
358.238740 67.000000
359.239960 16.000000
362.230440 14.000000
372.242610 22.000000
372.262970 25.000000
373.258480 21.000000
390.219670 9.000000
390.262120 744.000000
390.313720 6.000000
391.266140 204.000000
392.261200 28.000000
392.278050 19.000000
408.206390 7.000000
408.274510 1000.000000

>ms2
50.383100 14.000000
55.054370 17.000000
56.051730 13.000000
58.056550 47.000000
58.065990 406.000000
59.047330 26.000000
61.029690 83.000000
65.034900 17.000000
67.053280 121.000000
68.025530 23.000000
68.595260 13.000000
69.075410 23.000000
70.067210 31.000000
71.015870 20.000000
71.047460 113.000000
71.055370 30.000000
71.076260 23.000000
71.089670 16.000000
71.236690 13.000000
72.073620 24.000000
72.081540 353.000000
72.544850 16.000000
72.675740 13.000000
72.848520 22.000000
74.062100 28.000000
77.037110 39.000000
79.055180 251.000000
80.051570 17.000000
81.057510 35.000000
81.069760 100.000000
82.043350 29.000000
82.065310 41.000000
83.051320 47.000000
84.079350 98.000000
84.087970 17.000000
85.027180 41.000000
85.065930 43.000000
85.082370 21.000000
85.089400 15.000000
86.094950 24.000000
88.049170 37.000000
90.263770 15.000000
91.054590 1000.000000
92.053410 20.000000
92.058400 26.000000
93.052940 14.000000
93.064970 87.000000
93.070850 190.000000
94.062430 20.000000
94.086620 13.000000
95.045830 17.000000
95.051690 49.000000
95.075960 25.000000
95.089610 13.000000
96.053990 32.000000
96.076940 38.000000
96.082370 39.000000
96.088020 17.000000
96.327300 16.000000
97.064380 56.000000
97.089110 17.000000
98.057700 17.000000
98.075790 20.000000
98.081640 45.000000
98.097720 644.000000
99.045980 18.000000
99.097250 43.000000
99.506100 14.000000
99.545010 16.000000
100.391140 17.000000
102.087970 32.000000
102.093410 35.000000
103.039070 17.000000
103.050900 62.000000
103.059980 13.000000
103.088960 13.000000
103.095880 41.000000
104.069730 20.000000
104.128220 13.000000
105.069990 576.000000
106.066520 13.000000
106.078160 47.000000
106.251060 15.000000
106.555990 13.000000
107.049760 135.000000
107.085490 137.000000
108.051990 50.000000
108.082310 865.000000
108.156610 18.000000
108.498030 18.000000
109.059750 19.000000
109.067410 32.000000
109.086760 84.000000
109.236140 17.000000
110.098580 182.000000
111.039260 12.000000
111.043510 33.000000
111.080060 18.000000
111.100200 15.000000
111.105630 20.000000
112.086700 14.000000
112.112540 59.000000
114.074910 17.000000
115.054360 131.000000
115.062550 18.000000
116.049590 14.000000
116.059450 20.000000
116.068120 15.000000
117.053200 38.000000
117.069930 535.000000
117.078260 168.000000
118.060840 17.000000
118.067030 13.000000
118.080410 38.000000
118.996460 20.000000
119.041700 14.000000
119.051010 69.000000
119.072680 14.000000
119.086320 229.000000
119.091880 73.000000
120.079820 35.000000
121.036210 15.000000
121.060850 18.000000
121.067760 68.000000
121.082020 44.000000
121.087520 30.000000
121.099210 14.000000
121.103050 31.000000
121.807310 15.000000
122.074910 49.000000
122.089170 81.000000
122.096870 326.000000
123.045400 257.000000
123.075780 44.000000
123.092750 20.000000
123.102390 57.000000
124.098480 40.000000
124.113010 494.000000
124.436450 19.000000
124.822500 14.000000
125.014650 32.000000
125.054630 29.000000
125.085720 25.000000
125.102520 73.000000
125.115170 106.000000
125.942900 13.000000
127.021130 18.000000
127.052250 24.000000
127.058930 19.000000
127.359810 16.000000
127.842150 13.000000
128.063670 511.000000
128.103910 50.000000
128.112000 58.000000
129.024090 23.000000
129.050350 24.000000
129.061200 183.000000
129.071500 659.000000
130.047160 15.000000
130.065890 41.000000
130.074660 146.000000
130.122880 53.000000
130.159270 18.000000
130.933010 14.000000
131.036960 26.000000
131.042630 39.000000
131.058410 15.000000
131.071470 53.000000
131.085250 604.000000
131.481550 14.000000
132.076450 27.000000
132.084030 110.000000
132.097150 17.000000
133.065460 68.000000
133.088010 18.000000
133.103390 112.000000
133.108870 61.000000
133.430970 14.000000
134.102890 66.000000
134.630370 13.000000
135.074250 17.000000
135.080260 22.000000
135.120060 21.000000
136.102100 14.000000
136.112490 98.000000
136.646640 21.000000
137.053470 34.000000
137.063480 52.000000
137.091750 16.000000
137.099180 38.000000
137.115650 13.000000
137.123900 21.000000
137.753600 14.000000
138.059190 23.000000
138.135300 27.000000
138.561720 19.000000
140.093190 13.000000
140.102870 38.000000
141.069440 390.000000
141.080720 93.000000
141.119900 17.000000
142.007430 14.000000
142.069000 160.000000
142.080930 117.000000
142.093400 16.000000
142.122220 32.000000
142.131380 41.000000
142.262360 14.000000
143.080290 154.000000
143.086640 469.000000
143.105000 24.000000
143.653930 13.000000
144.072370 21.000000
144.090520 147.000000
144.099790 48.000000
144.993640 17.000000
145.066600 174.000000
145.087750 62.000000
145.100390 161.000000
145.107700 117.000000
146.102690 57.000000
146.465740 32.000000
147.076720 19.000000
147.083980 35.000000
147.112810 20.000000
148.111600 60.000000
148.117800 41.000000
149.049010 18.000000
149.088260 20.000000
149.126210 58.000000
151.118450 19.000000
152.052860 15.000000
152.064560 41.000000
152.098560 28.000000
152.109730 141.000000
153.063480 46.000000
153.072570 121.000000
153.113770 30.000000
154.058900 19.000000
154.075960 268.000000
154.089360 36.000000
154.102940 16.000000
154.122560 335.000000
154.131500 85.000000
155.060290 15.000000
155.069760 20.000000
155.080120 268.000000
155.088940 422.000000
155.121150 20.000000
155.128850 17.000000
155.366650 17.000000
155.950850 14.000000
156.050060 29.000000
156.080960 41.000000
156.088650 147.000000
156.096150 77.000000
156.132250 14.000000
156.139240 14.000000
156.957720 19.000000
157.067790 59.000000
157.100770 465.000000
157.129120 14.000000
157.999160 18.000000
158.060730 23.000000
158.076250 23.000000
158.100080 132.000000
159.053570 14.000000
159.074040 12.000000
159.084470 130.000000
159.106890 32.000000
159.123580 19.000000
159.420150 14.000000
159.886260 30.000000
160.079220 15.000000
160.113450 115.000000
161.057190 20.000000
161.100070 39.000000
161.119140 65.000000
161.142470 26.000000
162.104800 48.000000
162.125840 26.000000
163.085340 17.000000
164.111660 26.000000
164.146100 68.000000
164.347700 19.000000
165.043980 25.000000
165.069780 458.000000
165.112990 75.000000
165.903900 17.000000
166.059890 16.000000
166.079680 244.000000
166.123260 14.000000
167.066190 26.000000
167.086360 605.000000
167.108380 28.000000
167.707020 19.000000
168.090150 230.000000
169.063250 41.000000
169.074160 23.000000
169.100390 510.000000
169.170810 16.000000
169.319850 14.000000
169.526210 14.000000
170.064350 27.000000
170.075620 14.000000
170.097490 14.000000
170.106400 56.000000
170.113750 22.000000
171.077180 33.000000
171.085130 35.000000
171.111510 120.000000
171.121580 160.000000
171.129300 41.000000
172.086880 20.000000
172.111940 28.000000
173.089220 69.000000
173.097980 41.000000
173.107800 13.000000
173.118770 42.000000
173.946240 15.000000
174.121380 13.000000
174.133060 112.000000
175.108600 17.000000
175.119460 25.000000
175.140320 44.000000
176.143080 153.000000
176.824100 13.000000
177.087890 13.000000
177.122760 14.000000
177.131300 29.000000
177.150820 31.000000
178.072890 96.000000
178.079360 211.000000
178.127010 18.000000
179.073520 60.000000
179.088590 470.000000
179.378830 20.000000
180.079960 22.000000
180.094150 250.000000
180.134290 18.000000
181.053380 17.000000
181.068130 21.000000
181.087660 59.000000
181.101410 489.000000
182.057450 26.000000
182.108660 292.000000
182.824890 14.000000
183.060850 14.000000
183.078080 98.000000
183.112690 122.000000
183.122220 59.000000
183.273190 20.000000
184.117390 71.000000
184.131760 18.000000
185.085650 18.000000
185.097630 135.000000
185.123210 44.000000
185.131390 25.000000
185.142460 16.000000
185.966400 38.000000
186.100170 32.000000
186.119400 36.000000
186.133410 67.000000
187.092590 22.000000
187.113450 100.000000
187.130080 14.000000
187.143490 27.000000
188.119550 23.000000
188.143300 59.000000
189.066730 17.000000
189.122760 18.000000
189.129230 20.000000
189.149690 57.000000
190.065800 44.000000
190.075100 13.000000
190.128940 15.000000
190.155290 50.000000
190.171360 38.000000
191.085330 206.000000
191.103450 14.000000
191.162800 21.000000
191.647020 18.000000
192.085390 50.000000
192.092210 73.000000
192.102400 112.000000
192.134660 16.000000
192.141020 42.000000
193.047130 25.000000
193.098830 338.000000
193.105800 127.000000
193.754840 15.000000
194.070920 20.000000
194.100370 45.000000
194.112000 105.000000
194.155590 35.000000
195.078380 13.000000
195.103990 15.000000
195.116930 231.000000
196.097640 32.000000
196.116560 25.000000
196.126370 50.000000
197.099300 99.000000
197.120470 46.000000
197.136180 255.000000
198.108200 31.000000
198.128140 17.000000
199.079190 17.000000
199.110230 15.000000
199.123550 15.000000
199.146410 17.000000
199.157620 15.000000
200.074870 17.000000
200.104740 15.000000
200.118580 14.000000
200.134480 22.000000
200.144150 19.000000
201.092590 43.000000
201.117710 45.000000
202.080870 46.000000
202.115750 30.000000
202.126510 36.000000
202.166410 55.000000
203.065200 15.000000
203.089480 91.000000
203.110500 44.000000
203.160200 46.000000
203.431030 15.000000
204.071170 13.000000
204.079650 27.000000
204.090030 52.000000
204.099300 50.000000
205.097030 125.000000
206.105220 64.000000
206.116070 24.000000
206.128300 20.000000
206.155960 29.000000
207.079250 24.000000
207.102840 45.000000
207.119780 72.000000
207.134110 18.000000
208.105240 19.000000
208.121120 14.000000
208.131260 17.000000
209.082640 21.000000
209.097210 59.000000
209.120800 29.000000
209.134670 134.000000
210.015170 15.000000
210.128280 33.000000
210.478200 16.000000
211.118420 24.000000
211.135070 50.000000
211.157680 25.000000
212.114400 15.000000
212.125140 21.000000
212.135220 20.000000
212.146440 29.000000
213.122470 15.000000
213.129760 25.000000
213.145630 19.000000
214.114400 32.000000
214.148740 13.000000
214.162320 38.000000
214.172730 22.000000
215.148910 20.000000
215.849810 14.000000
216.090130 33.000000
216.096310 17.000000
216.159450 13.000000
216.180530 20.000000
217.101580 173.000000
217.325390 20.000000
218.086580 11.000000
218.097700 62.000000
218.109630 92.000000
218.146290 36.000000
218.349060 14.000000
219.099900 25.000000
219.118840 91.000000
220.082090 17.000000
220.100160 16.000000
220.116680 17.000000
220.130830 43.000000
220.142990 40.000000
220.168670 21.000000
220.932790 21.000000
221.086880 25.000000
221.103210 20.000000
221.128690 44.000000
221.139620 108.000000
222.105620 15.000000
222.128010 47.000000
222.140560 77.000000
222.176510 20.000000
222.628810 15.000000
223.096010 20.000000
223.134900 35.000000
223.149600 79.000000
223.345170 13.000000
224.143360 20.000000
224.159500 17.000000
225.119130 50.000000
225.132430 119.000000
225.164640 14.000000
226.142910 17.000000
226.567750 17.000000
227.128740 17.000000
227.151030 97.000000
227.171950 16.000000
227.872620 26.000000
228.116640 18.000000
229.100680 16.000000
229.183290 20.000000
230.097210 21.000000
230.114590 29.000000
230.154980 32.000000
231.113560 40.000000
231.124150 32.000000
231.314190 26.000000
232.121830 38.000000
233.093410 19.000000
233.118730 14.000000
233.131880 26.000000
233.142120 41.000000
233.335100 19.000000
233.437500 14.000000
233.653120 29.000000
234.108150 15.000000
234.135930 53.000000
235.119840 67.000000
235.142650 35.000000
235.154050 32.000000
236.150330 14.000000
237.113680 25.000000
237.157530 33.000000
238.114880 29.000000
239.156970 15.000000
239.467740 14.000000
240.148160 21.000000
240.614970 15.000000
241.100880 21.000000
241.109420 12.000000
242.102710 25.000000
242.146790 22.000000
243.133010 23.000000
243.167300 15.000000
244.175400 14.000000
245.124530 14.000000
245.145950 17.000000
246.124100 15.000000
246.132280 15.000000
246.149960 13.000000
247.117770 23.000000
247.146090 17.000000
247.166240 16.000000
247.178470 23.000000
248.121140 31.000000
248.158140 20.000000
248.602100 14.000000
249.118740 26.000000
250.129790 16.000000
250.140370 39.000000
250.159850 18.000000
251.105790 16.000000
251.146880 25.000000
252.081040 18.000000
252.151030 17.000000
252.167220 31.000000
253.177840 14.000000
255.478500 16.000000
258.154570 23.000000
258.191410 22.000000
259.192750 29.000000
261.165800 14.000000
262.923520 16.000000
264.179200 16.000000
265.172150 30.000000
266.610230 13.000000
268.136290 18.000000
268.172910 31.000000
269.167480 20.000000
270.153560 84.000000
270.190520 14.000000
271.166990 19.000000
272.195190 33.000000
272.208980 13.000000
274.151340 24.000000
275.626250 15.000000
277.274630 18.000000
279.173770 37.000000
281.151790 21.000000
282.177430 17.000000
283.145570 28.000000
283.196350 20.000000
284.132810 14.000000
284.166320 21.000000
284.197750 23.000000
284.208920 19.000000
285.214320 20.000000
286.036870 21.000000
286.181850 16.000000
287.118410 24.000000
293.175230 36.000000
294.173310 20.000000
295.158690 20.000000
296.201020 44.000000
297.198520 15.000000
298.134030 21.000000
298.178280 35.000000
298.229830 43.000000
299.167020 19.000000
299.178410 37.000000
299.193120 30.000000
299.202450 19.000000
300.186100 20.000000
300.198090 21.000000
302.224640 15.000000
304.169710 20.000000
306.177950 14.000000
308.199830 37.000000
309.187530 17.000000
310.183260 19.000000
311.192630 49.000000
312.191470 89.000000
312.221340 28.000000
312.245940 36.000000
313.158450 23.000000
313.180210 38.000000
313.204680 20.000000
314.214810 17.000000
316.237060 48.000000
317.228390 13.000000
324.728910 14.000000
326.201600 15.000000
326.212710 14.000000
326.235320 13.000000
328.229740 37.000000
330.204320 59.000000
330.231540 15.000000
330.250180 22.000000
330.979130 14.000000
331.213840 17.000000
331.249790 19.000000
331.466190 14.000000
340.192810 18.000000
340.223600 166.000000
340.241820 80.000000
343.855800 13.000000
344.182620 21.000000
344.206390 20.000000
344.222870 46.000000
346.414180 13.000000
347.428310 15.000000
358.217740 56.000000
358.241150 200.000000
359.231690 23.000000
359.261380 22.000000
359.796480 18.000000
360.256680 13.000000
362.209170 15.000000
362.237430 129.000000
362.874910 15.000000
363.234130 20.000000
363.859440 16.000000
372.249850 49.000000
373.247470 14.000000
385.465520 14.000000
390.249820 118.000000
390.268310 354.000000
390.297300 21.000000
391.266970 50.000000
391.291930 36.000000
392.244260 17.000000
392.264710 19.000000
408.266600 69.000000
408.304470 23.000000

>ms2
98.097720 5.000000
358.235930 12.000000
359.245000 5.000000
390.264010 142.000000
391.267520 44.000000
408.213100 6.000000
408.275910 1000.000000
408.334080 28.000000

>ms2
408.274380 1000.000000
408.332670 33.000000

>ms2
58.065640 22.000000
72.081550 8.000000
98.096800 30.000000
108.079350 19.000000
128.109340 7.000000
131.085650 6.000000
140.107890 5.000000
143.084440 8.000000
154.122770 17.000000
157.101820 7.000000
167.090900 5.000000
169.100200 6.000000
171.118030 8.000000
181.099870 11.000000
183.117920 13.000000
195.115950 10.000000
197.133190 14.000000
207.114670 6.000000
209.130080 7.000000
223.151230 7.000000
225.127430 9.000000
251.146820 12.000000
257.146640 6.000000
279.176030 7.000000
283.172240 7.000000
297.186980 9.000000
308.199890 7.000000
326.214810 14.000000
340.218720 9.000000
340.232730 18.000000
344.222350 7.000000
358.221920 12.000000
358.234740 30.000000
358.248840 23.000000
359.244450 15.000000
362.233800 9.000000
372.253170 56.000000
373.260350 12.000000
390.223420 11.000000
390.263310 802.000000
391.263400 155.000000
391.278440 67.000000
392.256810 7.000000
392.277440 29.000000
408.224240 15.000000
408.273190 1000.000000
408.324400 8.000000

>ms2
55.055770 14.000000
56.047730 28.000000
56.052520 30.000000
57.056450 18.000000
58.064110 116.000000
58.067400 314.000000
58.073370 21.000000
59.049790 31.000000
59.061740 11.000000
59.739540 21.000000
61.027650 58.000000
61.031660 49.000000
65.032970 13.000000
65.038260 13.000000
67.048880 42.000000
67.057550 21.000000
67.619060 11.000000
67.832930 13.000000
67.855350 11.000000
69.072140 15.000000
70.060850 21.000000
70.072170 16.000000
71.015440 41.000000
71.050350 265.000000
72.081040 292.000000
73.087890 22.000000
73.778670 11.000000
74.057950 18.000000
77.037710 130.000000
79.054210 341.000000
79.066040 17.000000
80.033890 16.000000
80.050940 78.000000
80.060650 48.000000
81.023700 13.000000
81.068500 144.000000
82.073900 13.000000
82.294510 11.000000
82.340060 13.000000
82.417220 11.000000
83.046680 17.000000
83.055890 14.000000
83.070590 16.000000
84.080020 93.000000
84.084530 68.000000
84.297590 21.000000
84.676250 13.000000
85.030040 21.000000
85.064040 75.000000
85.089420 15.000000
85.098750 14.000000
86.031790 23.000000
86.054430 25.000000
86.090710 12.000000
88.349460 14.000000
89.838600 27.000000
91.040630 14.000000
91.055020 662.000000
92.059470 29.000000
92.299920 13.000000
93.035510 32.000000
93.071630 253.000000
93.846200 14.000000
94.061050 33.000000
94.070000 107.000000
94.080470 21.000000
94.898120 11.000000
95.051800 102.000000
95.071570 36.000000
95.086550 52.000000
96.049800 12.000000
96.081730 141.000000
97.066680 63.000000
97.089740 14.000000
98.034870 28.000000
98.096530 1000.000000
99.097660 61.000000
99.104050 39.000000
99.529920 12.000000
100.004070 11.000000
100.069810 13.000000
100.155510 13.000000
101.060670 15.000000
102.091450 231.000000
102.098860 33.000000
103.041810 27.000000
103.055820 64.000000
104.038400 13.000000
104.059840 11.000000
104.065660 15.000000
104.297400 12.000000
105.060460 67.000000
105.070650 704.000000
105.082750 23.000000
105.472400 13.000000
106.066340 19.000000
106.125270 20.000000
106.720550 20.000000
107.036360 11.000000
107.046410 74.000000
107.055570 66.000000
107.073920 15.000000
107.085850 154.000000
107.486230 15.000000
108.064940 21.000000
108.080950 985.000000
109.064110 134.000000
109.083370 76.000000
109.087680 28.000000
109.107670 11.000000
109.620830 15.000000
110.093890 78.000000
110.098730 92.000000
110.106150 21.000000
111.046410 24.000000
111.079570 71.000000
112.077340 12.000000
112.107730 22.000000
113.061810 15.000000
113.069500 18.000000
114.306450 12.000000
115.029660 12.000000
115.054470 191.000000
116.061290 57.000000
116.069470 21.000000
116.116490 13.000000
117.071210 481.000000
118.073960 33.000000
118.081950 11.000000
119.049190 124.000000
119.069680 16.000000
119.086650 110.000000
120.089970 14.000000
120.693950 14.000000
121.030200 13.000000
121.062120 49.000000
121.068230 92.000000
121.088770 62.000000
121.096790 17.000000
122.068480 41.000000
122.094370 209.000000
122.102000 126.000000
123.040160 171.000000
123.054050 11.000000
123.076820 55.000000
123.097440 29.000000
123.109580 20.000000
123.116970 15.000000
123.270350 12.000000
123.320400 13.000000
123.741060 15.000000
124.000630 11.000000
124.107960 153.000000
124.114240 486.000000
124.397290 14.000000
125.055730 35.000000
125.066960 15.000000
125.099000 14.000000
125.123140 48.000000
126.064200 16.000000
127.054030 49.000000
127.061170 11.000000
127.072590 18.000000
128.050750 13.000000
128.061040 261.000000
128.106840 94.000000
129.040730 16.000000
129.053620 56.000000
129.069460 586.000000
129.089800 26.000000
129.111250 16.000000
129.685590 12.000000
130.062190 13.000000
130.079760 138.000000
130.132640 17.000000
131.046310 39.000000
131.084560 532.000000
131.092770 114.000000
132.051990 16.000000
132.085690 53.000000
132.095950 120.000000
132.129640 11.000000
133.053310 25.000000
133.061400 34.000000
133.067700 47.000000
133.092300 57.000000
133.099230 73.000000
133.111130 28.000000
134.095610 38.000000
135.035030 13.000000
135.083910 13.000000
135.098650 18.000000
135.117170 19.000000
136.046460 11.000000
136.078670 15.000000
136.111210 47.000000
136.117390 98.000000
137.058730 163.000000
137.095950 47.000000
138.061000 13.000000
138.087860 14.000000
139.074890 28.000000
139.096760 14.000000
139.102950 23.000000
140.106670 42.000000
141.056400 18.000000
141.070480 614.000000
141.111950 14.000000
141.118670 14.000000
142.056580 11.000000
142.073330 179.000000
142.080170 158.000000
142.090360 25.000000
142.127660 34.000000
143.056110 25.000000
143.064880 60.000000
143.086900 644.000000
143.102690 33.000000
144.066420 23.000000
144.093670 105.000000
144.530400 12.000000
145.020890 19.000000
145.054930 17.000000
145.068330 63.000000
145.099320 464.000000
146.088680 41.000000
146.104950 51.000000
147.076510 154.000000
147.085460 31.000000
147.102160 71.000000
147.109850 54.000000
147.120220 16.000000
148.067340 17.000000
148.082440 48.000000
148.110500 184.000000
149.067460 24.000000
149.096880 32.000000
149.122040 32.000000
150.106060 11.000000
150.127200 23.000000
150.136050 53.000000
151.070110 13.000000
151.082580 16.000000
152.046420 15.000000
152.062710 74.000000
152.101210 18.000000
152.113390 98.000000
153.050870 16.000000
153.068730 304.000000
154.052540 15.000000
154.065310 23.000000
154.077440 158.000000
154.108570 16.000000
154.122160 315.000000
155.040020 18.000000
155.069350 23.000000
155.080200 217.000000
155.085970 464.000000
155.125550 30.000000
155.748260 19.000000
156.091740 253.000000
156.922820 13.000000
157.064580 19.000000
157.100940 294.000000
157.110580 50.000000
157.141040 24.000000
157.934880 13.000000
158.072140 18.000000
158.080050 15.000000
158.086380 13.000000
158.105960 19.000000
158.113450 13.000000
159.079990 75.000000
159.114880 220.000000
160.112990 133.000000
161.064210 24.000000
161.087460 11.000000
161.100390 50.000000
161.113690 93.000000
161.124280 39.000000
161.568130 12.000000
162.098950 19.000000
162.114960 18.000000
162.122630 29.000000
162.131470 61.000000
163.077530 41.000000
163.101360 57.000000
163.114790 44.000000
163.585250 13.000000
164.068220 13.000000
164.085330 17.000000
164.109820 40.000000
165.069750 380.000000
165.122270 11.000000
165.590470 23.000000
165.652190 16.000000
166.063690 35.000000
166.076550 305.000000
167.085820 482.000000
168.050030 18.000000
168.070530 11.000000
168.091670 355.000000
168.138930 11.000000
168.563800 13.000000
169.056050 13.000000
169.080700 18.000000
169.096830 156.000000
169.102630 310.000000
170.075350 41.000000
170.094500 11.000000
170.104640 58.000000
170.785740 11.000000
171.070330 13.000000
171.082980 93.000000
171.097670 30.000000
171.117450 304.000000
171.133580 33.000000
171.690140 16.000000
172.090390 21.000000
172.104970 41.000000
172.115170 59.000000
172.127730 15.000000
173.036010 16.000000
173.052430 13.000000
173.097430 29.000000
173.111470 29.000000
173.118940 33.000000
173.128050 53.000000
174.092350 19.000000
174.110430 13.000000
174.122150 39.000000
174.133260 53.000000
174.147130 18.000000
175.113800 26.000000
175.138340 61.000000
176.142790 209.000000
176.731960 11.000000
177.063370 13.000000
177.090270 12.000000
177.150730 24.000000
177.477400 11.000000
178.059230 61.000000
178.073580 131.000000
178.081620 104.000000
178.122250 61.000000
178.173970 13.000000
179.083530 380.000000
179.094850 88.000000
179.125240 21.000000
179.133300 15.000000
180.091840 353.000000
180.098650 135.000000
180.829480 28.000000
181.026470 15.000000
181.055250 14.000000
181.076720 13.000000
181.101850 438.000000
181.117580 49.000000
182.067140 11.000000
182.088760 14.000000
182.104100 172.000000
182.118070 59.000000
183.070910 14.000000
183.078340 43.000000
183.090970 13.000000
183.100920 41.000000
183.117540 405.000000
184.080340 27.000000
184.087680 72.000000
184.093920 21.000000
184.125440 30.000000
184.138310 18.000000
185.089250 58.000000
185.098940 54.000000
185.116880 26.000000
186.053770 17.000000
186.112210 24.000000
186.126270 46.000000
186.409450 16.000000
186.888950 13.000000
187.068070 11.000000
187.102580 41.000000
187.110890 34.000000
187.136060 58.000000
187.723830 12.000000
188.133680 42.000000
188.143460 97.000000
188.153210 28.000000
189.098650 13.000000
189.108410 17.000000
189.131090 18.000000
189.140050 23.000000
189.153210 56.000000
190.077510 31.000000
190.111510 17.000000
190.119710 48.000000
190.147080 16.000000
190.156770 43.000000
190.165270 14.000000
190.850740 29.000000
191.062640 11.000000
191.083950 218.000000
191.109150 31.000000
191.128460 14.000000
191.171170 11.000000
192.065320 24.000000
192.091780 372.000000
192.103470 76.000000
192.123570 11.000000
192.138290 36.000000
193.093060 107.000000
193.103160 282.000000
193.117070 19.000000
193.865480 18.000000
194.077530 16.000000
194.105150 128.000000
194.158160 11.000000
195.084230 59.000000
195.115750 459.000000
195.135150 13.000000
195.152470 17.000000
195.163730 12.000000
195.305970 11.000000
195.633480 18.000000
196.077680 32.000000
196.094740 51.000000
196.114880 45.000000
196.124180 33.000000
197.102130 23.000000
197.131040 218.000000
198.087570 26.000000
198.132870 119.000000
199.110640 69.000000
199.146270 33.000000
200.129490 14.000000
200.146360 70.000000
201.083710 16.000000
201.130390 13.000000
201.152310 24.000000
201.221760 11.000000
201.346650 11.000000
202.075960 18.000000
202.088940 21.000000
202.118060 18.000000
202.136430 13.000000
202.159230 47.000000
203.083760 291.000000
203.111040 16.000000
203.132160 21.000000
203.147990 17.000000
203.170040 18.000000
204.093490 197.000000
204.125430 11.000000
204.158170 18.000000
205.103380 143.000000
206.102460 52.000000
206.112790 48.000000
206.157170 35.000000
207.080630 44.000000
207.116270 261.000000
208.083020 16.000000
208.114120 37.000000
208.124500 66.000000
209.019910 30.000000
209.097490 55.000000
209.111080 61.000000
209.135210 185.000000
210.133000 51.000000
210.142500 46.000000
210.151630 11.000000
210.959090 11.000000
211.073840 15.000000
211.109440 49.000000
211.125350 13.000000
211.134480 18.000000
211.150730 59.000000
211.158190 19.000000
212.103150 14.000000
212.132340 26.000000
212.142090 72.000000
212.154850 17.000000
212.550050 11.000000
213.104080 13.000000
213.119340 29.000000
213.134190 13.000000
214.119140 30.000000
214.162870 30.000000
214.175490 18.000000
215.065090 34.000000
215.089460 36.000000
215.130630 17.000000
215.165180 39.000000
216.083970 14.000000
216.097560 44.000000
216.144790 41.000000
216.175140 11.000000
216.956940 13.000000
217.098530 96.000000
217.113160 45.000000
218.089680 13.000000
218.108430 83.000000
219.102480 28.000000
219.113190 24.000000
219.123860 16.000000
219.147990 17.000000
220.072690 16.000000
220.089810 16.000000
220.113660 43.000000
220.127930 36.000000
220.176060 11.000000
221.082440 11.000000
221.095380 34.000000
221.131850 121.000000
221.169400 31.000000
222.139010 33.000000
222.184660 16.000000
223.094680 14.000000
223.112870 55.000000
223.145290 183.000000
223.191990 22.000000
224.136340 15.000000
225.077610 15.000000
225.122130 26.000000
225.137990 47.000000
225.153030 13.000000
225.163500 15.000000
225.779660 11.000000
226.133360 11.000000
226.161420 12.000000
226.169250 28.000000
227.106740 26.000000
227.125060 31.000000
227.140980 33.000000
228.166260 14.000000
229.083040 19.000000
229.101200 47.000000
229.116090 39.000000
229.155850 16.000000
230.091430 11.000000
230.102110 14.000000
230.124740 16.000000
230.150800 19.000000
231.118640 58.000000
231.159160 29.000000
232.117390 15.000000
232.133540 26.000000
232.143620 16.000000
233.097230 29.000000
233.127720 21.000000
233.135190 19.000000
233.156800 13.000000
234.102680 23.000000
234.113600 13.000000
234.138850 12.000000
235.103580 45.000000
235.146390 32.000000
235.156360 31.000000
236.106080 17.000000
236.118770 11.000000
236.142260 42.000000
236.151090 32.000000
237.021060 11.000000
237.132980 44.000000
237.166670 32.000000
238.138260 38.000000
238.158870 48.000000
238.173430 16.000000
239.143590 55.000000
240.162510 18.000000
240.180970 35.000000
241.115040 11.000000
241.125980 19.000000
241.153170 11.000000
242.151260 13.000000
242.453860 15.000000
243.126980 37.000000
245.118100 14.000000
246.134640 25.000000
247.148120 37.000000
247.174130 36.000000
248.136860 16.000000
248.158310 19.000000
249.164440 11.000000
250.126830 13.000000
250.159560 39.000000
251.134480 35.000000
251.148970 13.000000
251.179140 34.000000
251.189070 11.000000
252.139950 23.000000
252.171710 13.000000
253.155780 18.000000
253.437270 16.000000
254.139710 14.000000
254.187190 21.000000
255.160320 23.000000
256.166020 29.000000
257.158660 60.000000
257.172700 13.000000
259.137850 11.000000
260.170840 13.000000
261.686250 13.000000
262.157930 14.000000
263.136690 19.000000
264.147000 24.000000
266.196530 11.000000
266.238220 13.000000
267.144710 15.000000
267.169530 16.000000
267.185730 11.000000
268.216130 11.000000
269.178620 13.000000
271.169010 14.000000
271.220370 16.000000
276.192780 19.000000
277.077940 24.000000
277.149780 11.000000
278.186340 14.000000
280.157870 21.000000
280.175320 24.000000
282.182530 32.000000
283.191440 11.000000
283.235290 21.000000
284.158200 18.000000
284.410710 11.000000
285.167050 14.000000
285.907750 13.000000
286.171880 17.000000
286.226440 11.000000
287.159850 16.000000
294.162170 17.000000
294.173860 18.000000
294.194820 17.000000
295.180600 16.000000
296.201540 33.000000
298.178680 44.000000
298.194370 59.000000
299.199620 11.000000
299.219480 21.000000
300.187870 12.000000
300.213010 13.000000
301.457730 13.000000
302.179660 38.000000
302.219210 39.000000
309.210390 21.000000
310.210300 11.000000
311.193570 16.000000
312.180420 30.000000
312.207150 19.000000
312.240110 12.000000
314.196720 11.000000
314.222110 13.000000
314.246580 11.000000
316.177120 23.000000
316.193700 13.000000
317.188690 20.000000
325.200930 19.000000
326.212710 96.000000
327.199160 15.000000
327.208620 26.000000
327.227720 38.000000
328.225800 11.000000
328.237150 21.000000
329.925840 13.000000
330.199860 111.000000
330.207580 49.000000
330.225400 28.000000
330.247040 58.000000
330.265530 24.000000
331.202910 13.000000
331.256770 13.000000
332.181030 11.000000
332.204830 15.000000
337.440000 11.000000
340.207310 24.000000
340.225160 141.000000
340.240230 46.000000
340.479190 11.000000
342.253450 13.000000
344.195560 29.000000
344.217800 113.000000
344.250060 15.000000
345.218080 32.000000
345.234530 31.000000
345.999880 17.000000
347.831910 13.000000
353.820310 15.000000
357.810420 11.000000
358.103450 16.000000
358.199040 18.000000
358.212520 38.000000
358.234650 147.000000
358.260710 30.000000
359.214450 30.000000
359.237950 57.000000
359.260440 47.000000
359.805660 11.000000
362.231690 119.000000
362.247220 26.000000
362.272430 16.000000
363.007660 14.000000
363.241060 16.000000
364.049900 13.000000
372.226470 18.000000
372.255370 51.000000
373.264070 15.000000
373.431820 11.000000
387.174070 18.000000
389.909850 13.000000
389.920840 14.000000
390.248080 103.000000
390.267640 403.000000
390.295650 30.000000
390.910370 14.000000
391.265960 94.000000
391.284450 65.000000
408.233610 13.000000
408.255310 13.000000
408.277220 59.000000
408.293300 31.000000

>ms2
98.096120 10.000000
108.083780 5.000000
358.240940 10.000000
390.264650 136.000000
391.269410 36.000000
408.275210 1000.000000
408.334290 27.000000

>ms2
408.213560 6.000000
408.275240 1000.000000
408.334050 31.000000

>ms2
58.066430 13.000000
72.083240 7.000000
98.095790 29.000000
98.101710 8.000000
102.091140 6.000000
108.079480 22.000000
124.113080 6.000000
131.082400 8.000000
143.088200 6.000000
145.103760 6.000000
154.122740 12.000000
155.083620 5.000000
157.104430 6.000000
167.088820 7.000000
169.100280 6.000000
171.115190 7.000000
181.100630 8.000000
183.118230 9.000000
195.117510 9.000000
197.132110 13.000000
209.136950 7.000000
233.138210 5.000000
297.187040 11.000000
326.216280 8.000000
340.221470 13.000000
340.236360 10.000000
358.237400 49.000000
358.253780 13.000000
359.242460 10.000000
362.233000 7.000000
372.250790 33.000000
372.263640 21.000000
373.262450 11.000000
390.217830 15.000000
390.263890 660.000000
391.194030 5.000000
391.268590 213.000000
392.272490 36.000000
393.272890 6.000000
408.224120 14.000000
408.274540 1000.000000
408.328920 5.000000

>ms2
55.058080 17.000000
56.041650 21.000000
56.050060 23.000000
58.059340 21.000000
58.065940 302.000000
61.027570 97.000000
65.040140 22.000000
67.048310 26.000000
67.056300 218.000000
69.071080 18.000000
71.014360 49.000000
71.048420 306.000000
71.052860 102.000000
71.084780 12.000000
72.051230 26.000000
72.068120 26.000000
72.081330 381.000000
74.084900 14.000000
74.379310 14.000000
77.772710 14.000000
79.054790 154.000000
80.049020 79.000000
80.053850 32.000000
81.065030 68.000000
81.072430 68.000000
82.062610 34.000000
82.068950 22.000000
82.075970 14.000000
83.047870 16.000000
83.072670 19.000000
83.594850 20.000000
84.082290 271.000000
85.029010 31.000000
85.063680 27.000000
86.065990 18.000000
88.075150 15.000000
88.080530 19.000000
88.380370 16.000000
89.121670 20.000000
91.039790 50.000000
91.050870 205.000000
91.056460 467.000000
91.064610 28.000000
92.052760 22.000000
92.059040 80.000000
93.068380 214.000000
93.076090 60.000000
94.043060 16.000000
94.060610 56.000000
94.066980 21.000000
94.076260 61.000000
94.122900 13.000000
95.051660 70.000000
95.071950 40.000000
95.081640 16.000000
96.059420 22.000000
96.079770 41.000000
97.063240 61.000000
97.069310 24.000000
97.084920 62.000000
98.072530 25.000000
98.085540 34.000000
98.097020 678.000000
99.078790 38.000000
99.100700 44.000000
99.440280 26.000000
99.589320 12.000000
100.074470 18.000000
102.090030 56.000000
102.099250 17.000000
103.032950 19.000000
103.037060 53.000000
103.055470 58.000000
104.040500 13.000000
104.105160 16.000000
104.797460 14.000000
105.035860 34.000000
105.069710 704.000000
106.071190 37.000000
106.081550 61.000000
107.042300 26.000000
107.052220 164.000000
107.068050 20.000000
107.078700 11.000000
107.085220 40.000000
107.778180 12.000000
107.824830 15.000000
108.081540 1000.000000
109.059720 20.000000
109.069370 43.000000
109.083850 44.000000
109.091000 41.000000
109.102140 21.000000
109.895800 17.000000
110.087380 58.000000
110.097060 131.000000
110.148350 13.000000
110.912750 14.000000
111.029180 14.000000
111.038800 23.000000
111.046710 49.000000
112.077430 12.000000
112.111090 19.000000
115.047990 34.000000
115.055070 134.000000
116.033500 23.000000
116.056760 16.000000
116.066780 52.000000
116.116470 14.000000
117.050150 19.000000
117.059730 52.000000
117.070340 572.000000
117.241430 21.000000
118.071030 49.000000
118.082660 16.000000
119.048070 46.000000
119.075390 45.000000
119.088520 225.000000
120.054680 19.000000
120.063280 18.000000
120.094730 36.000000
120.641340 20.000000
121.041350 16.000000
121.061580 25.000000
121.069340 43.000000
121.087640 53.000000
121.094360 29.000000
121.103600 44.000000
122.068260 21.000000
122.086570 25.000000
122.095990 368.000000
122.129750 16.000000
122.304370 14.000000
123.034570 58.000000
123.045650 107.000000
123.081720 19.000000
123.097630 34.000000
124.022900 16.000000
124.044640 13.000000
124.072890 19.000000
124.099390 48.000000
124.112220 432.000000
124.194240 14.000000
125.061900 34.000000
125.117340 32.000000
126.099100 20.000000
126.105930 16.000000
126.136240 32.000000
127.045120 21.000000
127.052400 111.000000
128.042280 14.000000
128.063920 355.000000
128.096220 22.000000
128.107010 49.000000
129.070570 871.000000
129.083400 43.000000
129.103700 17.000000
130.034710 13.000000
130.064680 88.000000
130.071780 195.000000
130.121690 23.000000
130.419460 17.000000
130.834350 24.000000
131.043660 19.000000
131.052540 39.000000
131.072600 49.000000
131.083080 433.000000
131.088530 344.000000
131.129650 14.000000
132.085310 17.000000
132.093400 49.000000
132.688030 12.000000
133.063060 39.000000
133.073910 24.000000
133.099380 133.000000
133.112400 14.000000
133.200030 12.000000
133.533620 15.000000
134.101550 89.000000
134.114810 38.000000
135.079150 54.000000
135.108520 23.000000
135.130450 14.000000
136.082210 20.000000
136.109410 62.000000
137.056700 66.000000
137.065020 33.000000
137.094020 15.000000
137.102170 39.000000
138.125890 18.000000
139.076160 30.000000
140.107960 19.000000
140.867390 15.000000
141.069670 544.000000
141.114940 41.000000
141.829940 13.000000
142.071180 14.000000
142.079740 197.000000
142.117360 16.000000
142.122540 12.000000
142.593090 13.000000
143.060460 17.000000
143.086200 876.000000
144.090840 117.000000
144.099030 53.000000
145.060670 65.000000
145.098270 108.000000
145.105120 243.000000
146.072170 16.000000
146.094540 26.000000
147.081820 82.000000
147.117720 32.000000
148.070560 15.000000
148.109730 66.000000
148.120060 19.000000
148.166870 12.000000
149.061680 25.000000
149.066960 12.000000
149.115590 15.000000
150.064290 19.000000
151.109740 19.000000
152.061480 108.000000
152.109090 238.000000
152.146380 14.000000
153.056090 46.000000
153.067830 105.000000
153.075470 103.000000
153.107450 33.000000
154.067980 38.000000
154.086360 40.000000
154.122960 529.000000
155.066540 49.000000
155.086210 869.000000
155.131390 33.000000
155.674910 26.000000
156.075900 18.000000
156.088650 76.000000
156.097760 41.000000
156.122990 26.000000
156.140030 20.000000
156.600390 12.000000
157.062650 123.000000
157.102660 410.000000
158.052630 24.000000
158.071750 34.000000
158.085370 21.000000
158.094280 27.000000
158.106140 95.000000
158.259660 13.000000
159.077070 65.000000
159.084350 26.000000
159.121730 71.000000
159.364960 18.000000
160.086520 14.000000
160.110380 129.000000
161.093170 79.000000
161.121460 21.000000
162.122770 68.000000
162.133530 20.000000
162.396500 12.000000
163.073100 11.000000
163.080230 24.000000
163.118290 29.000000
163.134340 24.000000
164.105260 17.000000
164.345870 13.000000
165.056110 34.000000
165.071910 503.000000
165.092940 15.000000
165.114320 19.000000
166.077870 400.000000
166.397420 12.000000
167.060360 22.000000
167.071260 35.000000
167.084530 426.000000
167.095280 51.000000
167.127520 13.000000
168.083620 32.000000
168.094880 195.000000
168.115650 34.000000
168.941330 16.000000
169.062480 30.000000
169.074100 14.000000
169.088420 34.000000
169.104830 334.000000
169.409700 21.000000
170.066740 19.000000
170.076130 14.000000
170.112170 58.000000
170.472670 14.000000
171.076930 37.000000
171.087230 18.000000
171.104460 33.000000
171.113690 94.000000
171.121770 112.000000
171.753310 14.000000
172.059650 22.000000
172.110200 72.000000
172.118480 61.000000
173.055830 13.000000
173.094990 19.000000
173.111240 18.000000
173.133830 15.000000
174.087650 26.000000
174.107960 53.000000
174.121230 17.000000
174.134350 81.000000
174.772520 14.000000
175.130720 66.000000
176.145840 108.000000
177.150630 15.000000
177.928120 20.000000
177.994930 13.000000
178.073380 150.000000
178.082240 205.000000
178.153200 27.000000
179.051210 21.000000
179.087570 354.000000
179.106110 14.000000
180.024430 13.000000
180.076770 14.000000
180.093950 223.000000
180.136930 15.000000
181.061000 16.000000
181.074840 17.000000
181.100630 587.000000
181.550050 14.000000
182.072920 16.000000
182.088420 49.000000
182.106810 128.000000
183.081090 56.000000
183.101680 36.000000
183.110690 146.000000
183.118290 340.000000
183.345670 21.000000
184.079480 51.000000
184.120360 51.000000
185.090360 51.000000
185.099790 81.000000
185.126070 17.000000
185.136660 63.000000
185.319780 13.000000
186.106800 26.000000
186.125030 31.000000
186.138230 42.000000
186.735350 14.000000
187.116610 41.000000
187.134840 68.000000
187.146450 36.000000
188.108730 44.000000
188.142360 59.000000
188.434630 19.000000
189.065380 20.000000
189.113750 17.000000
189.128490 20.000000
189.137210 16.000000
189.153140 95.000000
190.068220 16.000000
190.079820 80.000000
190.106080 21.000000
190.162250 48.000000
190.659500 18.000000
191.073680 28.000000
191.086180 90.000000
191.133610 19.000000
191.164730 19.000000
191.264940 24.000000
192.086720 94.000000
192.094880 131.000000
192.138310 34.000000
193.072460 18.000000
193.095720 133.000000
193.104640 272.000000
193.743060 16.000000
194.084980 12.000000
194.101300 13.000000
194.110630 54.000000
194.553570 13.000000
195.081040 19.000000
195.100200 11.000000
195.117840 350.000000
196.086360 56.000000
196.123180 128.000000
197.075200 12.000000
197.087140 74.000000
197.098040 81.000000
197.106840 31.000000
197.121950 30.000000
197.133100 153.000000
198.137760 14.000000
198.144610 18.000000
198.687130 16.000000
199.105580 15.000000
199.116500 41.000000
199.150220 18.000000
200.102910 30.000000
200.146670 29.000000
201.086650 18.000000
201.125960 34.000000
201.136020 27.000000
201.163740 12.000000
202.075180 67.000000
202.085860 81.000000
202.123340 16.000000
202.147780 21.000000
203.066450 16.000000
203.082050 80.000000
203.096710 29.000000
203.107300 21.000000
203.115800 18.000000
203.164900 16.000000
203.856000 14.000000
204.079790 14.000000
204.090480 14.000000
204.100140 21.000000
205.086580 46.000000
205.100340 182.000000
205.144740 26.000000
205.170470 24.000000
206.033140 24.000000
206.100340 60.000000
206.112930 98.000000
206.151470 34.000000
206.160370 16.000000
206.351290 20.000000
207.086870 17.000000
207.107560 61.000000
207.119460 138.000000
207.142000 28.000000
208.082200 28.000000
208.092390 53.000000
208.118930 59.000000
208.131500 49.000000
209.085160 14.000000
209.096130 45.000000
209.110290 26.000000
209.127660 78.000000
209.137990 51.000000
209.512220 13.000000
210.091490 28.000000
210.102040 19.000000
210.129500 24.000000
210.140410 27.000000
210.153210 17.000000
211.075350 30.000000
211.099520 26.000000
211.112350 123.000000
211.143140 70.000000
211.153290 19.000000
211.562730 19.000000
212.113250 46.000000
212.124310 41.000000
212.140820 20.000000
213.121770 13.000000
214.120210 30.000000
214.142380 38.000000
214.159500 27.000000
214.175450 17.000000
215.143330 39.000000
215.170170 45.000000
216.092580 47.000000
216.145900 33.000000
216.167590 13.000000
216.177120 31.000000
217.097120 205.000000
217.131520 27.000000
218.106600 124.000000
218.125140 28.000000
219.069750 21.000000
219.092670 24.000000
219.120900 115.000000
219.156010 36.000000
220.091430 14.000000
220.119110 82.000000
220.128460 65.000000
220.139830 30.000000
220.173140 45.000000
221.098890 47.000000
221.135280 127.000000
222.138210 70.000000
222.191800 18.000000
223.112720 17.000000
223.130970 12.000000
223.140950 27.000000
223.160050 26.000000
224.144520 93.000000
224.158970 17.000000
225.130860 37.000000
225.164950 14.000000
225.205140 15.000000
226.124300 18.000000
226.132460 39.000000
226.152300 86.000000
227.109390 24.000000
227.146930 16.000000
228.139180 36.000000
228.934980 24.000000
229.100280 66.000000
229.134690 34.000000
229.165700 31.000000
230.104750 20.000000
230.123810 51.000000
230.197740 14.000000
231.061900 12.000000
231.111660 18.000000
231.121830 24.000000
231.140010 18.000000
232.130720 36.000000
232.154430 16.000000
233.097380 19.000000
233.105440 14.000000
233.134280 27.000000
234.127270 13.000000
234.950420 12.000000
235.114900 46.000000
235.151440 31.000000
236.127440 13.000000
236.137010 18.000000
236.152940 26.000000
237.146420 23.000000
237.156910 33.000000
238.118030 14.000000
238.152100 13.000000
238.170230 36.000000
239.121190 36.000000
239.139760 15.000000
239.148700 22.000000
240.177670 18.000000
241.182080 25.000000
242.145840 13.000000
242.154710 17.000000
242.164370 27.000000
243.117810 20.000000
243.128830 63.000000
243.153850 16.000000
244.157060 16.000000
245.075240 19.000000
245.117220 31.000000
246.154430 14.000000
246.566310 13.000000
247.085970 21.000000
247.126660 21.000000
247.140870 46.000000
249.269590 16.000000
250.158740 34.000000
251.156910 38.000000
252.165300 17.000000
253.127610 16.000000
253.149280 21.000000
253.160400 58.000000
253.197980 17.000000
254.126850 19.000000
254.178860 14.000000
254.187650 21.000000
254.198580 12.000000
255.143160 15.000000
255.184860 24.000000
256.143460 12.000000
256.175630 35.000000
257.155030 88.000000
258.164950 20.000000
258.394900 27.000000
259.135560 19.000000
259.178100 18.000000
259.196200 18.000000
259.204800 12.000000
261.155460 40.000000
262.861210 15.000000
263.163060 19.000000
264.149630 14.000000
264.176730 12.000000
265.155910 31.000000
266.820590 25.000000
267.158230 30.000000
267.205110 15.000000
268.134060 24.000000
268.144680 22.000000
268.172420 12.000000
269.131130 26.000000
270.190280 49.000000
271.187770 13.000000
272.207400 21.000000
273.164860 14.000000
274.177150 25.000000
274.200230 22.000000
275.163210 13.000000
275.259000 14.000000
279.174620 15.000000
280.159480 40.000000
280.186370 21.000000
280.216430 13.000000
282.165070 18.000000
282.475860 21.000000
283.178680 13.000000
284.200200 14.000000
285.189330 22.000000
285.205960 14.000000
286.212860 17.000000
286.565250 16.000000
288.177830 13.000000
288.210780 16.000000
289.190550 12.000000
290.130130 26.000000
294.187960 19.000000
295.009000 15.000000
296.166600 22.000000
297.189210 46.000000
298.177920 12.000000
299.178860 15.000000
299.437010 15.000000
301.200100 16.000000
302.193150 17.000000
302.212680 41.000000
308.208400 28.000000
312.152220 26.000000
312.201320 73.000000
313.194460 13.000000
313.206670 27.000000
315.219180 14.000000
316.179140 14.000000
317.181460 22.000000
318.210820 18.000000
322.225920 16.000000
324.194730 20.000000
326.175450 14.000000
326.212220 68.000000
326.225340 53.000000
327.208340 44.000000
328.194820 32.000000
329.206050 24.000000
329.839200 24.000000
330.177490 24.000000
330.206180 155.000000
330.264590 34.000000
330.498630 24.000000
331.206150 12.000000
331.242770 34.000000
332.217470 18.000000
332.253270 19.000000
334.237060 17.000000
335.181270 15.000000
339.073460 13.000000
340.202970 13.000000
340.223210 34.000000
340.246800 49.000000
341.218200 20.000000
341.247920 21.000000
344.224610 119.000000
344.253660 41.000000
344.275120 14.000000
345.217440 21.000000
345.229030 17.000000
356.215760 13.000000
358.177090 29.000000
358.234130 180.000000
358.246610 78.000000
359.238650 68.000000
362.254850 22.000000
363.217960 14.000000
363.233400 36.000000
364.388580 12.000000
364.737920 29.000000
372.246580 31.000000
372.265590 68.000000
372.471500 14.000000
374.316350 14.000000
374.833710 20.000000
375.366910 13.000000
389.610170 12.000000
390.243350 97.000000
390.266080 320.000000
390.277530 134.000000
391.256770 56.000000
393.219420 17.000000
408.262360 77.000000

