>compound PR89853430
>parentmass 775.20885
>ionization [M+H]+
>formula C36H38O19
>rt 306.000000
>profile qtof
#smiles_iso COC1=CC(=CC(=C1OC(CO)C(C2=CC(=C(C=C2)O)OC)O)OC)C3=CC(=O)C4=C(C=C(C=C4O3)OC5C(C(C(C(O5)COC(=O)CC(=O)O)O)O)O)O
#smiles_can COC1=CC(=CC(=C1OC(CO)C(C2=CC(=C(C=C2)O)OC)O)OC)C3=CC(=O)C4=C(C=C(C=C4O3)OC5C(C(C(C(O5)COC(=O)CC(=O)O)O)O)O)O
#inchikey MNSWSYAAJCOKPC-UHFFFAOYSA-N
#pubchem_id 139291964
#mb_accession PR310850,PR310851

>ms2
206.209230 20.000000
284.064000 16.000000
315.047420 19.000000
331.049870 22.000000
331.078640 222.000000
331.087620 123.000000
331.104220 60.000000
332.070220 21.000000
332.084660 40.000000
366.979710 20.000000
527.142640 103.000000
527.165160 106.000000
528.172730 25.000000
529.159060 16.000000
533.176820 23.000000
538.368710 17.000000
577.130130 108.000000
578.125430 62.000000
579.132390 25.000000
582.134340 20.000000
689.196040 20.000000
690.194030 57.000000
727.176090 16.000000
727.220210 16.000000
731.043880 26.000000
731.214290 18.000000
775.191160 111.000000
775.224180 463.000000

>ms2
313.078740 23.000000
329.044890 20.000000
331.034240 17.000000
331.049220 17.000000
331.075100 287.000000
331.085910 253.000000
332.072690 25.000000
332.086300 100.000000
332.099520 42.000000
333.107510 16.000000
479.133330 24.000000
479.147090 16.000000
492.161380 16.000000
509.133510 77.000000
527.153140 90.000000
527.179020 53.000000
528.121580 20.000000
528.161440 17.000000
577.090880 45.000000
577.107540 66.000000
578.110170 28.000000
578.852970 17.000000
579.148380 18.000000
591.116270 46.000000
596.163150 16.000000
621.141910 16.000000
668.662540 16.000000
689.203980 22.000000
691.190000 16.000000
727.152280 28.000000
727.193050 45.000000
727.208920 17.000000
729.175540 33.000000
731.215150 17.000000
757.161250 19.000000
775.205510 740.000000
775.254700 27.000000

