>compound PR89819848
>parentmass 167.07027055384611
>ionization [M+H]+
>formula C9H10O3
>rt 394.392018
>profile qtof
#smiles_iso CC(=O)C1=C(C=C(C=C1)OC)O
#smiles_can CC(=O)C1=C(C=C(C=C1)OC)O
#inchikey UILPJVPSNHJFIK-UHFFFAOYSA-N
#pubchem_id 11092
#mb_accession PR303529,PR303530,PR303531,PR303532,PR303533,PR303534,PR303535,PR303536,PR303537,PR303538,PR303539,PR303540,PR310436

>ms2peaks
91.053140 14.000000
121.065590 80.000000
125.062110 28.000000
149.044130 9.000000
149.059660 136.000000
150.060230 6.000000
166.822370 7.000000
167.070570 1000.000000

>ms2peaks
121.065060 7.000000
125.059620 12.000000
149.061100 35.000000
167.070210 1000.000000

>ms2peaks
77.040090 129.000000
91.059300 72.000000
93.031430 136.000000
111.038060 100.000000
121.058120 100.000000
121.066960 1000.000000
125.059280 65.000000
149.064420 244.000000
167.066470 65.000000

>ms2peaks
77.033550 232.000000
111.018270 366.000000
134.525070 329.000000
141.981810 256.000000
167.070310 1000.000000

>ms2peaks
121.066640 33.000000
122.069850 8.000000
125.054330 14.000000
125.058960 31.000000
149.060270 123.000000
150.055240 8.000000
150.066070 9.000000
167.032140 6.000000
167.052950 9.000000
167.070660 1000.000000

>ms2peaks
125.060580 12.000000
149.059490 30.000000
150.060030 5.000000
167.041670 6.000000
167.070010 1000.000000

>ms2peaks
65.041840 111.000000
77.037240 106.000000
78.049740 137.000000
91.056520 106.000000
107.044320 106.000000
115.962680 124.000000
121.063780 1000.000000
125.055810 111.000000
126.063180 80.000000
149.065220 93.000000
167.074520 323.000000

>ms2peaks
51.025050 270.000000
79.019580 365.000000
81.070280 397.000000
121.066640 286.000000
167.064700 1000.000000
167.070300 508.000000

>ms2peaks
106.040660 5.000000
121.067390 78.000000
122.071480 12.000000
125.058120 24.000000
125.071440 7.000000
149.049010 30.000000
149.058410 81.000000
167.071060 1000.000000

>ms2peaks
125.057410 11.000000
149.057690 39.000000
167.069840 1000.000000

>ms2peaks
77.040330 331.000000
78.050060 63.000000
91.043560 50.000000
91.054470 412.000000
92.054890 105.000000
105.032120 63.000000
106.033390 60.000000
106.044260 60.000000
119.035060 60.000000
121.042630 47.000000
121.055670 60.000000
121.065660 1000.000000
122.068530 144.000000
149.051190 136.000000
149.060760 220.000000

>ms2peaks
91.055400 149.000000
121.065290 554.000000
167.071670 1000.000000

>ms2peaks
77.036810 22.000000
91.053140 79.000000
91.157750 19.000000
96.961920 17.000000
121.065590 464.000000
121.132480 21.000000
122.565240 28.000000
125.062110 165.000000
126.061040 18.000000
135.035840 25.000000
149.044130 54.000000
149.059660 789.000000
150.060230 37.000000
150.067570 20.000000
166.822370 41.000000
167.042510 21.000000
167.070570 5812.000000

