>compound PR89554739
>parentmass 335.1754044
>ionization [M+H]+
>formula C21H22N2O2
>rt 207.415020
>profile qtof
#smiles_iso C1CN2CC3=CCO[C@H]4CC(=O)N5[C@H]6[C@H]4[C@H]3C[C@H]2[C@@]61C7=CC=CC=C75
#smiles_can C1CN2CC3=CCOC4CC(=O)N5C6C4C3CC2C61C7=CC=CC=C75
#inchikey QMGVPVSNSZLJIA-FVWCLLPLSA-N
#pubchem_id 441071
#mb_accession PR300490,PR300495,PR300500,PR300505,PR300510,PR300515,PR300519,PR300524,PR300529,PR300534,PR300539,PR300543

>ms2
156.081500 13.000000
184.077180 42.000000
185.079390 9.000000
194.098190 7.000000
220.078280 8.000000
222.090550 12.000000
234.095380 6.000000
248.105300 7.000000
262.120940 5.000000
264.105960 21.000000
335.176120 1000.000000
335.229340 30.000000

>ms2
335.176760 1000.000000
335.229430 34.000000

>ms2
95.049190 5.000000
108.082600 7.000000
144.073380 7.000000
144.082260 16.000000
156.073260 8.000000
156.083760 21.000000
168.082840 11.000000
184.075960 139.000000
185.078540 24.000000
194.095960 18.000000
195.098940 5.000000
199.092330 7.000000
206.101440 7.000000
220.077440 19.000000
220.112850 6.000000
221.079450 10.000000
222.091290 46.000000
222.130230 6.000000
223.099260 7.000000
234.091890 23.000000
234.131010 6.000000
244.117520 6.000000
246.087940 8.000000
248.106660 13.000000
262.122740 28.000000
263.118680 6.000000
264.103670 100.000000
265.101140 11.000000
265.110170 9.000000
266.113190 9.000000
266.126590 7.000000
272.108120 12.000000
274.127410 6.000000
290.119050 8.000000
292.128910 8.000000
306.149350 6.000000
307.147160 25.000000
335.176390 1000.000000
335.230470 14.000000

>ms2
53.289670 9.000000
55.019420 6.000000
55.050460 6.000000
56.047620 6.000000
67.054230 11.000000
69.033210 5.000000
70.070660 5.000000
71.016960 6.000000
71.043530 5.000000
77.038200 28.000000
77.044480 10.000000
78.016330 6.000000
78.041090 7.000000
79.052230 33.000000
79.057370 19.000000
80.047440 9.000000
81.032460 7.000000
81.054940 10.000000
81.068080 34.000000
81.074280 11.000000
82.069010 11.000000
82.074070 7.000000
83.042570 10.000000
83.071120 8.000000
90.774700 5.000000
91.043230 5.000000
91.056130 81.000000
93.054180 17.000000
93.063080 19.000000
93.070110 34.000000
94.066840 38.000000
95.013410 7.000000
95.047240 7.000000
95.077780 5.000000
96.049450 9.000000
96.082000 5.000000
97.078230 8.000000
100.610350 7.000000
103.054700 19.000000
103.067770 9.000000
104.064800 6.000000
105.073680 17.000000
106.064610 44.000000
107.165370 6.000000
108.075660 22.000000
108.083490 36.000000
113.200970 7.000000
115.055280 50.000000
115.339490 8.000000
116.579840 6.000000
117.023930 9.000000
117.050640 9.000000
117.057440 29.000000
117.071250 11.000000
117.078000 19.000000
118.057700 5.000000
118.068110 28.000000
122.055370 13.000000
122.061710 10.000000
124.073070 15.000000
127.050800 16.000000
127.059480 33.000000
128.048050 21.000000
128.057190 85.000000
128.065080 57.000000
128.072400 12.000000
128.222020 5.000000
128.971590 6.000000
129.028750 14.000000
129.045910 12.000000
129.070390 675.000000
129.757970 7.000000
130.063980 102.000000
130.071410 91.000000
131.045360 12.000000
131.071430 18.000000
131.085330 10.000000
132.047500 8.000000
132.056850 12.000000
132.076070 12.000000
132.082210 8.000000
134.105450 9.000000
135.094590 7.000000
139.052540 14.000000
139.985050 7.000000
140.054150 22.000000
141.078000 9.000000
142.069020 20.000000
142.080870 18.000000
143.071900 33.000000
143.078290 22.000000
143.823760 6.000000
144.042390 7.000000
144.079900 175.000000
145.054290 6.000000
145.062620 5.000000
145.077220 12.000000
145.088350 24.000000
146.065000 5.000000
146.097930 10.000000
146.863680 6.000000
147.075850 5.000000
148.079410 6.000000
150.635220 8.000000
152.058410 20.000000
153.069000 7.000000
154.053740 10.000000
154.060620 26.000000
154.068880 76.000000
155.056080 19.000000
155.074020 78.000000
156.024800 9.000000
156.040270 6.000000
156.056960 24.000000
156.081250 1000.000000
156.678710 6.000000
157.052460 16.000000
157.056720 8.000000
157.070890 8.000000
157.088100 94.000000
158.066600 11.000000
158.094830 15.000000
158.525700 6.000000
158.860720 8.000000
159.044940 9.000000
159.066240 8.000000
160.112660 6.000000
161.079070 8.000000
161.131790 7.000000
162.096130 9.000000
165.072800 22.000000
166.047500 10.000000
166.062330 89.000000
166.074370 70.000000
166.793640 9.000000
167.048000 7.000000
167.075990 223.000000
167.094410 11.000000
168.068700 70.000000
168.081470 173.000000
168.128460 5.000000
169.072710 36.000000
169.081150 50.000000
169.094730 25.000000
170.064770 30.000000
170.075900 11.000000
170.095930 106.000000
171.072420 7.000000
171.088350 26.000000
171.098710 7.000000
173.080800 7.000000
175.057040 7.000000
176.066280 26.000000
177.069530 6.000000
178.069470 7.000000
178.079510 26.000000
179.066790 7.000000
179.073750 11.000000
179.084090 8.000000
180.060240 6.000000
180.081630 142.000000
181.066830 5.000000
181.081790 15.000000
181.092590 48.000000
181.586270 7.000000
182.073560 5.000000
182.087890 49.000000
182.099700 69.000000
182.108600 20.000000
183.066350 34.000000
183.076350 45.000000
183.088640 10.000000
183.103490 22.000000
183.117100 7.000000
184.071180 267.000000
184.081050 332.000000
184.113310 15.000000
185.081160 112.000000
185.094150 15.000000
185.111500 10.000000
186.068600 20.000000
186.083470 16.000000
186.701290 5.000000
190.067000 11.000000
191.068770 55.000000
191.077380 43.000000
191.094390 10.000000
192.075100 48.000000
192.084930 59.000000
193.067370 10.000000
193.086500 31.000000
193.096080 36.000000
193.114930 7.000000
194.045880 11.000000
194.066620 51.000000
194.098010 276.000000
194.316240 11.000000
195.089450 24.000000
195.104390 18.000000
196.070390 17.000000
196.082690 45.000000
196.132370 7.000000
197.054410 9.000000
197.081950 35.000000
198.094250 40.000000
199.063170 5.000000
199.098660 26.000000
200.060100 6.000000
200.078060 5.000000
200.089040 5.000000
203.083330 31.000000
203.997850 10.000000
204.056180 11.000000
204.075240 53.000000
204.084900 94.000000
204.108140 7.000000
205.082210 55.000000
205.093190 65.000000
205.987410 6.000000
206.091130 49.000000
206.098210 125.000000
206.110460 19.000000
207.063580 7.000000
207.081020 7.000000
207.104490 47.000000
208.097530 7.000000
209.097580 13.000000
209.915790 5.000000
210.064960 8.000000
210.092670 14.000000
210.115230 9.000000
211.076230 7.000000
211.089600 10.000000
211.097140 7.000000
212.068820 9.000000
212.087250 6.000000
212.122380 7.000000
215.101850 10.000000
216.075650 43.000000
216.914250 7.000000
217.081740 77.000000
217.090300 110.000000
218.076980 16.000000
218.086930 80.000000
218.099040 107.000000
219.066380 10.000000
219.076970 9.000000
219.103230 74.000000
220.049990 7.000000
220.072080 65.000000
220.081760 55.000000
220.093230 24.000000
220.114440 25.000000
220.125810 27.000000
221.076310 44.000000
221.088730 16.000000
221.109340 6.000000
221.121840 7.000000
222.095660 92.000000
222.128540 13.000000
222.138520 10.000000
222.367750 6.000000
223.100950 6.000000
223.136220 19.000000
224.113360 11.000000
226.090670 6.000000
228.077650 19.000000
228.091890 13.000000
229.067610 18.000000
229.084920 7.000000
229.094280 5.000000
230.083630 9.000000
230.096600 61.000000
230.109420 7.000000
231.086810 6.000000
231.104140 60.000000
231.119930 6.000000
232.064070 13.000000
232.081570 10.000000
232.115370 48.000000
233.080060 35.000000
233.101000 6.000000
234.052760 12.000000
234.085830 19.000000
234.099440 57.000000
234.121400 19.000000
234.132020 15.000000
235.077870 13.000000
235.089550 23.000000
235.096420 14.000000
235.109740 7.000000
236.092800 10.000000
236.123490 14.000000
236.135500 7.000000
238.107380 5.000000
240.078770 6.000000
242.086700 6.000000
242.101260 11.000000
243.091380 14.000000
243.102110 14.000000
243.111310 7.000000
244.106610 42.000000
245.060840 10.000000
245.099320 9.000000
245.118500 6.000000
246.083360 17.000000
246.102570 44.000000
246.129240 15.000000
247.097580 34.000000
247.115970 8.000000
247.141650 8.000000
248.083020 15.000000
248.111360 83.000000
249.099240 9.000000
249.115720 11.000000
254.061710 9.000000
254.086240 6.000000
254.108720 7.000000
256.094600 6.000000
256.108490 15.000000
257.080320 21.000000
257.110870 10.000000
258.083920 12.000000
258.106480 15.000000
258.119110 12.000000
259.099580 5.000000
259.122740 6.000000
260.105710 5.000000
261.107850 14.000000
261.122440 8.000000
261.134550 12.000000
261.152440 6.000000
262.093320 11.000000
262.119750 34.000000
262.134800 19.000000
263.090420 6.000000
263.137210 13.000000
264.054080 6.000000
264.098880 16.000000
264.110930 22.000000
264.138060 15.000000
264.163020 9.000000
265.117220 12.000000
265.536010 6.000000
269.085300 6.000000
270.078490 8.000000
272.114440 27.000000
273.102050 8.000000
274.119900 7.000000
274.145450 6.000000
277.185550 6.000000
284.115690 6.000000
286.119420 6.000000
288.138120 6.000000
288.150090 7.000000
289.169280 8.000000
291.139190 5.000000
291.158200 12.000000
302.123660 9.000000
303.164890 7.000000
306.142670 5.000000
306.176790 8.000000
307.159730 5.000000
311.303710 5.000000
327.581940 5.000000
335.168790 23.000000
335.184810 39.000000

>ms2
144.079670 7.000000
156.081710 13.000000
184.076480 42.000000
185.078750 7.000000
194.096500 5.000000
198.089660 5.000000
220.074840 7.000000
222.091130 12.000000
222.099030 5.000000
234.090150 8.000000
248.106230 6.000000
264.103360 17.000000
335.176510 1000.000000
335.229430 30.000000

>ms2
335.177220 1000.000000
335.229890 34.000000

>ms2
144.076900 8.000000
144.083800 9.000000
156.081310 23.000000
171.091420 6.000000
182.098130 8.000000
184.076000 118.000000
185.079610 16.000000
194.098050 16.000000
196.078160 9.000000
198.091950 10.000000
206.096940 5.000000
210.091020 7.000000
218.100070 6.000000
220.083390 11.000000
220.112870 7.000000
221.081180 7.000000
222.092540 50.000000
234.088270 21.000000
234.103000 7.000000
248.109660 7.000000
249.115080 6.000000
250.123540 5.000000
262.115780 9.000000
262.127470 12.000000
264.096650 34.000000
264.106810 61.000000
265.107540 20.000000
266.118190 10.000000
272.106930 14.000000
274.116210 5.000000
290.116850 6.000000
292.135990 6.000000
306.144470 5.000000
307.144620 18.000000
307.159360 6.000000
335.132020 8.000000
335.175870 1000.000000
335.230160 14.000000

>ms2
53.039470 6.000000
55.018440 6.000000
67.054050 10.000000
68.058530 8.000000
77.032070 5.000000
77.039310 36.000000
78.038900 8.000000
78.043370 14.000000
79.049360 6.000000
79.056640 44.000000
79.062310 14.000000
80.046270 21.000000
80.053840 7.000000
81.068730 14.000000
91.054050 66.000000
92.038600 7.000000
92.980880 6.000000
93.054990 10.000000
93.060230 15.000000
93.069790 53.000000
93.561350 5.000000
93.869710 5.000000
94.056570 6.000000
94.062570 14.000000
94.069530 14.000000
95.013960 6.000000
95.049190 24.000000
95.083940 6.000000
96.072170 7.000000
96.079770 20.000000
96.793410 5.000000
97.064120 5.000000
98.810870 6.000000
99.679070 5.000000
100.208840 7.000000
102.046390 12.000000
103.054120 10.000000
105.035850 7.000000
105.054880 9.000000
105.068220 23.000000
106.060890 43.000000
106.067630 48.000000
106.076470 8.000000
107.047940 6.000000
107.074760 13.000000
108.074540 9.000000
108.080210 25.000000
110.096170 6.000000
115.054600 71.000000
116.047880 44.000000
117.070370 34.000000
118.066440 34.000000
119.071000 15.000000
119.090580 11.000000
120.058820 8.000000
121.061040 6.000000
121.066440 7.000000
121.087840 15.000000
122.044500 7.000000
122.057350 41.000000
122.097600 9.000000
123.077180 10.000000
124.076870 23.000000
125.037570 6.000000
127.054060 71.000000
128.027530 8.000000
128.044070 21.000000
128.053130 36.000000
128.061940 108.000000
129.042190 5.000000
129.051510 11.000000
129.070860 637.000000
130.065950 137.000000
130.072920 56.000000
131.073290 24.000000
131.084380 19.000000
132.038020 10.000000
132.046070 12.000000
132.079820 24.000000
134.042760 7.000000
134.092100 5.000000
139.052350 10.000000
140.042890 14.000000
141.071620 30.000000
142.062470 37.000000
142.068980 16.000000
143.063060 11.000000
143.072310 21.000000
143.084950 17.000000
144.044020 11.000000
144.082550 225.000000
145.082430 31.000000
145.090590 26.000000
145.104860 5.000000
148.037980 6.000000
148.073010 13.000000
151.032780 6.000000
151.059050 10.000000
151.956070 5.000000
152.064500 18.000000
152.073330 6.000000
154.067860 142.000000
155.060850 8.000000
155.074110 53.000000
155.585970 5.000000
155.823030 7.000000
156.046570 8.000000
156.080640 1000.000000
156.099010 10.000000
156.111820 5.000000
156.155520 8.000000
156.905650 6.000000
157.027330 5.000000
157.063520 21.000000
157.084550 128.000000
157.105450 7.000000
157.685670 6.000000
158.063460 16.000000
158.080610 40.000000
160.076780 9.000000
163.075710 6.000000
166.052140 12.000000
166.067030 102.000000
167.072480 285.000000
168.080860 222.000000
169.076140 61.000000
169.086840 55.000000
170.059460 9.000000
170.065870 8.000000
170.077610 13.000000
170.094180 38.000000
170.101910 10.000000
171.093700 31.000000
171.107480 6.000000
171.756390 6.000000
172.074840 10.000000
172.088090 5.000000
173.082380 5.000000
177.070280 22.000000
177.082730 9.000000
178.062770 10.000000
178.072170 14.000000
179.086520 15.000000
180.078570 105.000000
180.087020 69.000000
181.076510 12.000000
181.089390 54.000000
182.058410 12.000000
182.094060 96.000000
182.111980 10.000000
183.058000 13.000000
183.069490 40.000000
183.097750 16.000000
184.075790 600.000000
184.101940 18.000000
184.111100 29.000000
185.079330 112.000000
185.966420 5.000000
186.069810 5.000000
186.084820 9.000000
186.097340 16.000000
187.085360 19.000000
189.124440 5.000000
190.092350 7.000000
191.073300 78.000000
191.105620 11.000000
191.448970 8.000000
192.060790 6.000000
192.080440 72.000000
193.086980 74.000000
194.022160 6.000000
194.062850 26.000000
194.089780 85.000000
194.099320 140.000000
195.101970 93.000000
196.076200 39.000000
196.111560 17.000000
197.063370 14.000000
197.072950 7.000000
197.087360 10.000000
198.094020 28.000000
200.067460 8.000000
202.069140 19.000000
203.071930 14.000000
203.088680 7.000000
204.080550 237.000000
205.065840 16.000000
205.086780 135.000000
206.058400 7.000000
206.096890 202.000000
207.079930 11.000000
207.099580 9.000000
207.110780 21.000000
208.089810 6.000000
208.108980 74.000000
209.083330 18.000000
209.103740 16.000000
210.083980 11.000000
210.095670 7.000000
210.108280 14.000000
212.068410 35.000000
214.069110 9.000000
216.059430 5.000000
216.079730 58.000000
217.069150 6.000000
217.089750 227.000000
217.835490 6.000000
218.067980 6.000000
218.099120 211.000000
218.113710 14.000000
218.743070 5.000000
219.068040 6.000000
219.085390 13.000000
219.102620 109.000000
220.064330 33.000000
220.075290 145.000000
220.109990 124.000000
221.069340 13.000000
221.081650 32.000000
221.117340 20.000000
222.095150 73.000000
222.126020 28.000000
223.091630 18.000000
223.111820 17.000000
224.092760 13.000000
224.111850 5.000000
228.082900 7.000000
229.097090 9.000000
230.083250 20.000000
230.097140 62.000000
231.105820 45.000000
232.070630 29.000000
232.097440 7.000000
232.109220 34.000000
232.117170 30.000000
233.075710 25.000000
233.088150 46.000000
233.101640 14.000000
234.090610 67.000000
234.099900 38.000000
234.128400 26.000000
235.097020 14.000000
235.106720 18.000000
235.123780 9.000000
235.132660 13.000000
235.139950 9.000000
236.075210 6.000000
236.116420 8.000000
237.097700 6.000000
237.118180 6.000000
238.087300 14.000000
238.126560 9.000000
240.078960 5.000000
241.087340 19.000000
242.092700 23.000000
242.106170 18.000000
243.102540 32.000000
243.112000 14.000000
244.110530 55.000000
245.079160 5.000000
245.110990 20.000000
246.089390 43.000000
246.103290 21.000000
246.118070 7.000000
246.132170 29.000000
247.091720 6.000000
247.108750 18.000000
248.105100 32.000000
248.117100 18.000000
248.130260 6.000000
249.097810 9.000000
249.109020 11.000000
249.121640 7.000000
249.146790 12.000000
250.111360 6.000000
250.122180 9.000000
250.128970 5.000000
256.112850 15.000000
257.077510 22.000000
257.096280 17.000000
257.108310 15.000000
257.204100 5.000000
258.093290 28.000000
259.094330 16.000000
260.111660 7.000000
260.135130 5.000000
261.101440 26.000000
261.115420 6.000000
262.124240 50.000000
262.165500 6.000000
263.125670 15.000000
263.135650 6.000000
264.094970 14.000000
264.106140 26.000000
265.097720 5.000000
265.138240 6.000000
266.109440 8.000000
268.103000 6.000000
271.089970 11.000000
271.106110 10.000000
271.131770 7.000000
272.096950 21.000000
273.106480 7.000000
274.123690 22.000000
276.119290 5.000000
276.128050 7.000000
276.146420 10.000000
279.116550 9.000000
288.104800 5.000000
288.125150 5.000000
288.137510 7.000000
289.138090 9.000000
290.139770 6.000000
291.156250 7.000000
292.140930 5.000000
301.145780 6.000000
306.333440 12.000000
308.142180 10.000000
318.141080 11.000000
335.156400 16.000000
335.174870 75.000000
335.207000 6.000000

>ms2
144.079610 5.000000
156.079480 12.000000
184.074740 40.000000
194.098130 7.000000
198.092410 5.000000
222.091080 15.000000
234.089950 7.000000
248.107990 7.000000
264.104310 21.000000
266.107640 6.000000
335.124630 7.000000
335.175690 1000.000000
335.228390 29.000000

>ms2
335.176480 1000.000000
335.228700 35.000000

>ms2
122.062470 6.000000
144.082610 14.000000
156.082110 21.000000
167.075330 6.000000
168.078520 7.000000
180.080600 5.000000
182.094850 5.000000
184.076970 123.000000
185.076570 14.000000
185.083710 10.000000
194.096970 13.000000
196.076900 10.000000
198.093510 12.000000
204.082550 5.000000
206.098680 7.000000
210.091840 8.000000
220.075850 20.000000
220.089630 5.000000
221.082430 5.000000
222.091670 45.000000
222.129580 9.000000
223.097500 5.000000
234.088270 12.000000
234.097840 7.000000
246.090180 7.000000
248.107390 14.000000
250.125080 5.000000
262.118680 19.000000
263.121090 6.000000
264.102870 94.000000
265.106810 17.000000
266.115570 7.000000
272.107850 14.000000
273.106480 5.000000
274.116120 8.000000
274.126340 6.000000
290.120570 12.000000
292.134220 7.000000
306.151520 7.000000
307.130860 7.000000
307.148620 16.000000
335.135250 9.000000
335.176390 1000.000000
335.228030 15.000000

>ms2
53.032730 7.000000
55.018200 8.000000
66.041560 5.000000
67.055070 6.000000
68.052190 7.000000
77.039160 7.000000
78.037860 8.000000
78.803630 5.000000
79.054410 41.000000
81.028980 6.000000
81.070240 20.000000
84.045310 6.000000
86.667770 7.000000
91.050900 35.000000
91.057140 16.000000
92.048850 12.000000
92.729750 8.000000
93.056920 32.000000
93.062390 31.000000
93.072200 13.000000
94.056720 17.000000
94.062500 30.000000
95.046210 23.000000
95.073510 10.000000
96.242730 6.000000
98.060950 6.000000
103.054180 12.000000
104.047760 16.000000
105.065950 28.000000
105.071220 19.000000
105.076190 11.000000
106.050930 5.000000
106.067300 83.000000
107.047220 20.000000
107.063040 7.000000
107.085530 11.000000
108.082050 10.000000
109.063030 6.000000
110.104100 8.000000
115.048970 20.000000
115.057330 52.000000
116.047160 11.000000
117.055580 19.000000
117.073170 57.000000
118.035140 7.000000
118.068580 43.000000
118.392750 5.000000
118.835430 7.000000
119.047420 6.000000
119.074150 9.000000
119.083620 6.000000
120.084650 17.000000
120.988750 7.000000
122.060330 22.000000
123.066470 6.000000
124.078060 18.000000
126.082900 6.000000
127.047570 9.000000
127.058450 25.000000
128.042860 7.000000
128.058060 61.000000
128.067890 14.000000
129.052120 19.000000
129.069490 493.000000
130.037640 6.000000
130.064710 158.000000
130.075380 67.000000
131.069610 11.000000
132.037380 9.000000
132.044160 23.000000
132.084000 33.000000
133.336590 7.000000
134.060550 7.000000
134.095280 5.000000
138.095600 11.000000
139.055790 6.000000
140.047700 11.000000
140.390900 6.000000
141.056120 6.000000
141.064380 7.000000
141.075620 6.000000
142.056690 6.000000
142.065950 26.000000
143.073290 64.000000
144.031680 6.000000
144.050480 16.000000
144.065700 21.000000
144.081600 229.000000
146.004060 5.000000
146.086980 6.000000
152.052700 6.000000
152.060040 11.000000
152.066310 12.000000
153.068590 16.000000
153.152400 5.000000
154.065640 113.000000
155.038480 5.000000
155.067580 30.000000
155.075900 108.000000
156.081130 1000.000000
157.086400 206.000000
158.057190 30.000000
158.065730 7.000000
158.081310 8.000000
158.086690 20.000000
158.096570 10.000000
159.100360 6.000000
162.092940 16.000000
163.550080 6.000000
165.059720 15.000000
165.072240 29.000000
166.064510 174.000000
166.080120 15.000000
167.070760 158.000000
167.080900 102.000000
168.081970 242.000000
169.063570 11.000000
169.071820 13.000000
169.083020 44.000000
169.091690 21.000000
170.058960 21.000000
170.078780 15.000000
170.089710 49.000000
170.103120 24.000000
170.416980 7.000000
171.098820 47.000000
172.088840 8.000000
176.106280 6.000000
176.601760 5.000000
178.063000 15.000000
178.085880 7.000000
179.063340 6.000000
179.076080 20.000000
179.084350 13.000000
179.397770 5.000000
180.071500 33.000000
180.082240 61.000000
181.060880 9.000000
181.081890 32.000000
181.094910 31.000000
182.058120 18.000000
182.096630 66.000000
183.065870 66.000000
183.088680 14.000000
184.052340 14.000000
184.076950 542.000000
184.113540 12.000000
185.078810 97.000000
185.112240 11.000000
186.078890 6.000000
186.113370 5.000000
186.123490 6.000000
190.061040 5.000000
190.079090 5.000000
191.074100 80.000000
191.083740 15.000000
192.079620 117.000000
193.041670 6.000000
193.087600 106.000000
194.050800 12.000000
194.065090 34.000000
194.095890 193.000000
194.102390 92.000000
195.061330 10.000000
195.072080 12.000000
195.093310 19.000000
195.104450 28.000000
196.052320 5.000000
196.072850 35.000000
196.102740 6.000000
197.083680 12.000000
197.109790 7.000000
198.090670 11.000000
198.097980 10.000000
199.087250 11.000000
199.096740 14.000000
200.056850 6.000000
200.573880 6.000000
200.641850 5.000000
202.076110 10.000000
202.115750 6.000000
202.517120 6.000000
203.080950 5.000000
203.112930 6.000000
204.051770 5.000000
204.080800 156.000000
205.086880 134.000000
206.074130 9.000000
206.093280 127.000000
207.063480 8.000000
207.074370 8.000000
207.099500 42.000000
207.107990 37.000000
208.051130 10.000000
208.066540 13.000000
208.104680 26.000000
208.116390 13.000000
209.112050 17.000000
210.077590 6.000000
210.095050 5.000000
210.113050 12.000000
211.081390 5.000000
212.069050 18.000000
214.085330 5.000000
215.074280 11.000000
216.071700 15.000000
216.081590 56.000000
216.098620 11.000000
217.089200 98.000000
217.104170 20.000000
217.159150 6.000000
218.083280 33.000000
218.096270 157.000000
219.041790 6.000000
219.095150 27.000000
219.106740 51.000000
220.057480 19.000000
220.066970 56.000000
220.081310 120.000000
220.088610 50.000000
220.112430 113.000000
221.074070 60.000000
221.086260 42.000000
221.105190 13.000000
221.117660 23.000000
221.127660 5.000000
222.088520 95.000000
222.119750 6.000000
222.133410 13.000000
223.089420 9.000000
224.096510 17.000000
224.133210 5.000000
226.075960 12.000000
228.078550 25.000000
228.303570 10.000000
229.072540 5.000000
229.081940 5.000000
229.096050 7.000000
229.106460 9.000000
230.074420 13.000000
230.098390 63.000000
231.102630 51.000000
231.631470 11.000000
232.076340 33.000000
232.109160 15.000000
232.124220 8.000000
233.072170 14.000000
233.088650 19.000000
233.104660 21.000000
234.085820 46.000000
234.093350 93.000000
234.118130 20.000000
234.131160 5.000000
235.084550 11.000000
235.103580 17.000000
236.105790 17.000000
236.128980 29.000000
237.103530 14.000000
238.117370 7.000000
241.087340 16.000000
242.104460 12.000000
243.099560 6.000000
244.115130 35.000000
245.085830 5.000000
245.107760 17.000000
245.118550 12.000000
246.088620 51.000000
246.113360 8.000000
246.121830 15.000000
246.131840 9.000000
246.143280 7.000000
247.097850 5.000000
247.110500 6.000000
248.109820 13.000000
251.158390 11.000000
252.278700 5.000000
254.088500 12.000000
255.102950 11.000000
256.111630 9.000000
257.085080 15.000000
257.120120 6.000000
258.105290 11.000000
258.851290 6.000000
260.072110 6.000000
260.117250 12.000000
261.115390 20.000000
262.128080 24.000000
264.089870 18.000000
264.099030 23.000000
264.110900 13.000000
266.105990 8.000000
266.123080 6.000000
267.118070 7.000000
268.820010 5.000000
271.125310 6.000000
271.136230 6.000000
273.097290 9.000000
273.114870 9.000000
273.134700 9.000000
274.112790 9.000000
275.095210 9.000000
277.132350 9.000000
278.163420 6.000000
280.136720 6.000000
281.153110 11.000000
282.125400 6.000000
283.122740 6.000000
287.120390 15.000000
290.113190 6.000000
292.144870 11.000000
306.149020 8.000000
335.170440 58.000000
335.182500 42.000000

