>compound PR90290003
>parentmass 260.16
>ionization [M+H]+
>formula C11H21N3O4
>rt 109.200000
>profile qtof
#smiles_iso CCC(C)C(C(=O)NC(CCC(=O)N)C(=O)O)N
#smiles_can CCC(C)C(C(=O)NC(CCC(=O)N)C(=O)O)N
#inchikey CNPNWGHRMBQHBZ-UHFFFAOYSA-N
#pubchem_id 22935676
#mb_accession PR311046

>ms2peaks
70.069160 29.000000
84.080190 21.000000
86.090820 20.000000
127.951850 23.000000
130.041660 21.000000
130.054370 43.000000
131.116790 18.000000
134.048680 20.000000
145.967590 21.000000
147.076490 116.000000
148.069820 28.000000
166.083820 20.000000
187.978670 38.000000
259.099330 20.000000
260.159700 130.000000
260.194180 63.000000

