>compound PR90198603
>parentmass 465.1027525
>ionization [M+H]+
>formula C21H20O12
>rt 270.452040
>profile qtof
#smiles_iso C1=CC(=C(C=C1C2=C(C(=O)C3=C(C=C(C=C3O2)O)O)O)O)O[C@H]4[C@@H]([C@H]([C@@H]([C@H](O4)CO)O)O)O
#smiles_can C1=CC(=C(C=C1C2=C(C(=O)C3=C(C=C(C=C3O2)O)O)O)O)OC4C(C(C(C(O4)CO)O)O)O
#inchikey OIUBYZLTFSLSBY-HMGRVEAOSA-N
#pubchem_id 5320844
#mb_accession PR302860,PR302866,PR302872,PR302878,PR302884,PR302890,PR302896,PR302902,PR302908,PR302914,PR302920,PR302926

>ms2peaks
97.030240 6.000000
110.999340 8.000000
138.026030 6.000000
145.046620 10.000000
153.025120 12.000000
155.047380 7.000000
165.017520 22.000000
165.024980 10.000000
179.028200 6.000000
201.061430 24.000000
207.886840 5.000000
228.127720 5.000000
229.047760 8.000000
239.029190 5.000000
247.065190 9.000000
248.054020 6.000000
248.061970 9.000000
257.041660 15.000000
257.420230 8.000000
274.044490 8.000000
274.060460 6.000000
285.047030 5.000000
303.010740 19.000000
303.050350 1000.000000
303.827060 6.000000
303.997010 8.000000
304.047390 114.000000
304.059630 131.000000
305.035520 6.000000
305.049680 6.000000
447.073940 5.000000
465.039430 10.000000
465.063840 12.000000
465.104580 291.000000

>ms2peaks
99.042250 5.000000
163.065020 6.000000
303.047880 197.000000
303.058170 75.000000
303.080410 8.000000
304.052150 43.000000
304.064270 28.000000
305.051480 7.000000
305.071440 6.000000
306.807280 5.000000
464.997340 10.000000
465.054840 38.000000
465.101990 1000.000000
465.160830 6.000000

>ms2peaks
136.994950 6.000000
137.021380 5.000000
149.017750 6.000000
153.014890 7.000000
163.039690 7.000000
165.010040 6.000000
201.058150 10.000000
229.051360 11.000000
230.047730 6.000000
258.055050 7.000000
285.038670 8.000000
303.012150 12.000000
303.049440 1000.000000
303.078460 12.000000
304.052550 171.000000
305.047520 28.000000
305.070100 9.000000

>ms2peaks
68.025680 71.000000
77.037610 47.000000
94.037570 48.000000
95.047100 55.000000
97.029720 113.000000
107.013240 43.000000
109.028850 89.000000
111.007470 140.000000
111.480750 27.000000
116.297220 53.000000
117.035920 31.000000
117.068540 53.000000
117.077740 53.000000
121.029010 198.000000
123.046160 43.000000
125.251770 32.000000
127.034060 32.000000
136.020830 47.000000
137.021150 209.000000
138.025500 39.000000
139.023100 29.000000
143.042340 43.000000
145.072050 34.000000
149.014100 60.000000
149.021040 71.000000
149.030550 31.000000
150.036150 32.000000
153.020710 530.000000
153.399830 39.000000
154.022000 182.000000
155.021870 63.000000
155.045290 98.000000
156.030040 43.000000
159.047760 63.000000
161.012450 48.000000
161.062010 39.000000
163.038410 39.000000
165.019030 205.000000
166.023250 27.000000
173.053220 138.000000
174.058940 58.000000
176.044010 27.000000
177.020230 55.000000
183.038010 179.000000
183.049210 87.000000
183.309480 27.000000
187.042130 42.000000
189.615260 32.000000
191.031980 29.000000
194.019360 37.000000
195.032590 55.000000
200.045500 31.000000
201.047930 97.000000
201.053500 248.000000
201.071960 29.000000
202.061750 56.000000
204.987610 34.000000
205.042630 42.000000
211.039050 77.000000
213.059970 56.000000
218.052580 56.000000
225.629200 27.000000
228.038300 34.000000
228.044190 71.000000
229.049710 485.000000
230.061250 114.000000
231.026050 39.000000
231.059300 47.000000
239.036740 35.000000
248.063640 32.000000
256.736330 40.000000
257.044890 506.000000
257.077420 66.000000
258.026250 47.000000
267.040620 39.000000
274.037930 37.000000
274.053960 29.000000
276.050810 98.000000
285.032140 135.000000
286.045870 27.000000
286.915310 39.000000
302.970000 35.000000
303.020020 100.000000
303.044590 411.000000
303.053410 1000.000000
304.046750 56.000000
304.069730 74.000000
440.036990 47.000000

>ms2peaks
111.635560 7.000000
121.027990 8.000000
137.022050 11.000000
145.043520 16.000000
149.021000 7.000000
153.020030 6.000000
155.045460 6.000000
157.700960 7.000000
160.141800 10.000000
161.059910 6.000000
165.009410 6.000000
165.017380 7.000000
165.028270 7.000000
166.023740 6.000000
167.029360 5.000000
177.014880 10.000000
179.045180 6.000000
212.424420 6.000000
213.050990 10.000000
221.011290 5.000000
229.053850 9.000000
230.058290 9.000000
247.054820 12.000000
257.041930 7.000000
276.046600 5.000000
285.033540 12.000000
292.138060 8.000000
302.911100 7.000000
303.001680 14.000000
303.019170 21.000000
303.049470 1000.000000
303.087860 5.000000
303.110990 11.000000
304.010960 6.000000
304.054230 112.000000
305.063870 11.000000
306.051850 11.000000
307.032470 6.000000
325.349700 10.000000
431.834590 7.000000
464.286710 7.000000
464.992310 9.000000
465.023100 8.000000
465.093480 156.000000
465.109650 168.000000

>ms2peaks
285.393800 7.000000
303.028110 22.000000
303.050570 226.000000
303.088870 9.000000
304.054570 52.000000
305.060970 11.000000
316.399720 5.000000
371.236880 5.000000
396.947540 8.000000
464.123020 5.000000
465.045230 10.000000
465.103820 1000.000000

>ms2peaks
229.043330 11.000000
301.886350 8.000000
303.015870 13.000000
303.049840 1000.000000
304.052610 169.000000
305.041050 11.000000
305.050720 36.000000
305.065060 19.000000

>ms2peaks
85.028950 39.000000
91.055110 47.000000
93.036030 36.000000
109.025250 129.000000
109.031100 86.000000
109.200610 34.000000
111.008580 105.000000
112.012730 47.000000
112.991910 34.000000
121.026890 49.000000
121.032520 98.000000
128.047560 34.000000
135.049120 84.000000
137.022090 426.000000
138.020460 90.000000
138.027510 109.000000
138.064130 39.000000
144.046420 36.000000
145.030300 41.000000
145.055010 39.000000
145.067670 75.000000
149.022600 64.000000
149.029860 38.000000
153.012120 298.000000
153.019910 441.000000
155.046130 77.000000
159.052380 47.000000
163.042650 167.000000
164.054490 66.000000
164.990840 43.000000
165.014910 300.000000
166.685610 43.000000
173.033330 45.000000
177.062360 43.000000
183.048610 126.000000
186.639970 39.000000
187.028670 47.000000
187.040050 71.000000
188.051380 38.000000
190.024770 66.000000
191.068890 53.000000
192.925950 36.000000
195.025270 56.000000
201.055850 477.000000
202.064350 38.000000
206.018940 38.000000
211.038190 73.000000
212.056090 103.000000
213.057800 126.000000
215.026090 58.000000
219.036060 150.000000
219.050510 45.000000
219.068360 38.000000
220.031330 71.000000
228.033130 51.000000
228.046770 86.000000
229.046750 1000.000000
229.270070 38.000000
231.011570 69.000000
231.036900 53.000000
231.055190 51.000000
232.037350 45.000000
243.041290 98.000000
246.062710 54.000000
247.067580 51.000000
257.022670 49.000000
257.042110 392.000000
257.058530 94.000000
258.043820 83.000000
272.754760 32.000000
274.003020 49.000000
274.044740 131.000000
274.060670 32.000000
275.050380 38.000000
285.011110 39.000000
285.021940 41.000000
286.048650 32.000000
302.833710 41.000000
303.011440 38.000000
303.044920 499.000000
303.062870 69.000000
304.045990 154.000000
305.052640 45.000000
320.031560 32.000000

>ms2peaks
85.026600 9.000000
109.022210 6.000000
127.039260 5.000000
145.050890 9.000000
153.011220 14.000000
153.018430 6.000000
165.013660 6.000000
188.048840 7.000000
200.872960 6.000000
202.073680 6.000000
218.050840 9.000000
229.047780 28.000000
257.034060 7.000000
257.051700 9.000000
258.027800 7.000000
274.049410 8.000000
285.030760 11.000000
302.079860 6.000000
302.948460 6.000000
303.003200 7.000000
303.017760 20.000000
303.049130 1000.000000
304.034180 22.000000
304.056340 187.000000
305.053470 11.000000
305.070710 9.000000
331.044340 6.000000
465.085140 58.000000
465.105220 238.000000

>ms2peaks
266.980410 8.000000
272.762420 7.000000
303.047970 259.000000
304.046570 23.000000
304.057890 29.000000
304.092410 6.000000
465.058350 29.000000
465.102630 1000.000000

>ms2peaks
150.032410 5.000000
153.015470 6.000000
165.017790 13.000000
229.051960 6.000000
257.042690 15.000000
285.041380 7.000000
303.049650 1000.000000
303.077760 12.000000
304.030270 5.000000
304.055600 107.000000
305.040830 8.000000
305.058690 16.000000

>ms2peaks
85.019460 63.000000
93.028130 43.000000
95.050620 131.000000
97.031080 70.000000
107.051090 61.000000
109.028510 257.000000
119.005310 95.000000
121.030220 106.000000
124.049740 65.000000
129.066330 63.000000
131.053090 115.000000
135.045440 41.000000
137.022800 350.000000
137.031340 129.000000
139.032170 63.000000
147.044860 54.000000
153.003390 43.000000
153.016980 533.000000
153.028430 102.000000
154.020290 214.000000
154.033280 41.000000
155.052470 56.000000
165.004070 47.000000
165.017680 332.000000
166.025220 190.000000
166.050060 47.000000
169.579500 74.000000
171.044370 45.000000
173.061370 221.000000
174.061830 45.000000
177.019150 133.000000
177.060590 54.000000
183.039350 176.000000
183.051390 45.000000
185.066210 47.000000
187.036330 178.000000
188.882640 41.000000
195.026500 38.000000
201.050840 43.000000
201.059110 99.000000
201.938260 77.000000
202.049210 52.000000
217.246250 59.000000
221.048100 79.000000
229.040790 235.000000
229.050670 467.000000
229.066650 41.000000
229.971020 70.000000
230.050920 93.000000
232.032970 47.000000
239.027080 54.000000
256.031520 38.000000
256.990810 47.000000
257.050290 45.000000
274.037510 47.000000
274.056090 45.000000
275.058470 59.000000
285.053160 63.000000
286.051510 41.000000
303.009000 61.000000
303.052860 1000.000000
304.059140 115.000000
305.295900 38.000000
336.172240 50.000000

