>compound PR90389957
>parentmass 385.2121838
>ionization [M+H]+
>formula C22H28N2O4
>rt 240.877980
>profile qtof
#smiles_iso CC[C@@H]1C[C@H]2CC3(C1N(C2)CCC4(C3=NC5=C4C=C(C=C5)OC)O)C(=O)OC
#smiles_can CCC1CC2CC3(C1N(C2)CCC4(C3=NC5=C4C=C(C=C5)OC)O)C(=O)OC
#inchikey AVRFPRAAVSCSSZ-GSEWTJHMSA-N
#pubchem_id 328232
#mb_accession PR300323,PR300327,PR300332,PR300337,PR300342,PR300347,PR300352,PR300357,PR300362,PR300367,PR300372,PR300377

>ms2peaks
121.099330 5.000000
136.075640 9.000000
147.066730 6.000000
150.056900 6.000000
150.126770 32.000000
160.074370 6.000000
162.091220 6.000000
174.090500 8.000000
176.069690 8.000000
178.121860 24.000000
179.120290 7.000000
190.086240 29.000000
196.133380 5.000000
208.129360 6.000000
210.146190 8.000000
229.095180 7.000000
325.192900 14.000000
367.195860 7.000000
385.150730 7.000000
385.211670 1000.000000
385.269230 26.000000

>ms2peaks
385.212400 1000.000000
385.269470 31.000000

>ms2peaks
80.050260 10.000000
82.066120 6.000000
91.054670 12.000000
93.069670 13.000000
94.065410 6.000000
107.086390 15.000000
108.085860 5.000000
119.079060 10.000000
119.085210 18.000000
121.095260 16.000000
121.102490 38.000000
122.093800 6.000000
124.077520 6.000000
126.053670 50.000000
129.070080 5.000000
131.079480 6.000000
133.100560 5.000000
136.074360 40.000000
136.111340 35.000000
137.060760 9.000000
146.072850 15.000000
147.068860 28.000000
147.080350 17.000000
148.075440 6.000000
148.113270 11.000000
150.056260 25.000000
150.127150 213.000000
151.130480 34.000000
160.072780 10.000000
160.081650 9.000000
161.076220 5.000000
162.051480 7.000000
162.090560 31.000000
172.075410 16.000000
174.088900 28.000000
175.061050 24.000000
175.095000 5.000000
176.069870 82.000000
176.099230 6.000000
177.072780 9.000000
177.093230 7.000000
178.087300 26.000000
178.122010 166.000000
179.104630 13.000000
179.125930 24.000000
179.135850 5.000000
187.088470 12.000000
188.070770 31.000000
188.095380 44.000000
189.078030 7.000000
189.098830 21.000000
190.086320 200.000000
190.102650 6.000000
191.088940 30.000000
196.132520 54.000000
201.099730 27.000000
201.107270 25.000000
202.096560 8.000000
202.111370 8.000000
208.133150 52.000000
210.143910 20.000000
210.151260 42.000000
211.151700 6.000000
219.113340 6.000000
220.132350 12.000000
229.096130 29.000000
237.103440 16.000000
238.114180 7.000000
239.091580 6.000000
239.118870 22.000000
254.115540 5.000000
255.111910 19.000000
262.139280 6.000000
265.091860 11.000000
265.106990 6.000000
270.140260 5.000000
270.152650 14.000000
307.179690 40.000000
307.194670 6.000000
308.186740 10.000000
309.192870 6.000000
325.192780 43.000000
326.189180 6.000000
335.170200 17.000000
335.180180 11.000000
353.192470 9.000000
367.200590 43.000000
368.202940 11.000000
370.188870 8.000000
385.162260 28.000000
385.211670 1000.000000

>ms2peaks
55.050090 6.000000
56.050960 11.000000
67.055310 29.000000
68.051400 16.000000
69.065550 8.000000
70.065800 13.000000
71.086910 7.000000
77.016510 7.000000
77.028140 9.000000
77.041280 48.000000
78.048870 6.000000
79.045360 12.000000
79.055890 57.000000
80.049850 80.000000
81.060500 9.000000
81.072630 5.000000
82.060460 11.000000
82.067520 64.000000
84.075370 14.000000
84.080910 18.000000
89.034900 5.000000
90.033100 5.000000
91.032720 14.000000
91.044080 20.000000
91.053980 132.000000
92.047940 10.000000
92.062290 7.000000
93.045210 5.000000
93.056820 13.000000
93.066570 48.000000
93.070810 103.000000
94.024150 12.000000
94.031040 36.000000
94.065800 93.000000
94.070660 29.000000
95.010380 5.000000
95.047110 31.000000
95.064250 13.000000
95.073020 39.000000
95.087800 13.000000
96.048370 6.000000
96.078480 20.000000
96.092030 9.000000
103.053090 40.000000
104.050740 10.000000
104.060760 10.000000
105.034440 12.000000
105.040160 11.000000
105.052700 11.000000
105.060960 20.000000
105.069830 129.000000
106.039190 5.000000
106.065030 35.000000
107.009190 10.000000
107.036560 17.000000
107.047240 8.000000
107.071840 38.000000
107.085960 49.000000
108.020750 6.000000
108.058670 20.000000
108.072370 5.000000
108.083830 39.000000
109.067920 10.000000
109.080120 9.000000
109.098600 8.000000
109.104390 7.000000
110.060360 13.000000
110.093880 11.000000
111.156560 6.000000
111.483440 7.000000
113.070730 6.000000
115.038190 8.000000
115.054890 46.000000
116.038320 9.000000
116.047290 54.000000
116.056690 30.000000
117.055450 38.000000
117.065850 42.000000
117.072240 40.000000
118.056770 17.000000
118.065660 60.000000
118.889080 10.000000
119.038430 7.000000
119.045780 7.000000
119.066220 36.000000
119.073270 46.000000
119.082550 96.000000
119.091280 15.000000
120.042920 7.000000
120.054920 10.000000
120.072760 7.000000
120.079120 12.000000
120.088850 19.000000
121.051930 20.000000
121.062270 65.000000
121.089390 17.000000
121.097820 114.000000
121.105830 19.000000
121.608760 7.000000
122.043460 16.000000
122.061280 314.000000
122.073550 6.000000
122.094090 60.000000
122.103240 11.000000
123.066930 56.000000
123.119770 6.000000
124.069180 23.000000
124.076710 5.000000
125.085620 5.000000
126.053810 10.000000
126.930560 5.000000
128.049360 11.000000
128.059010 24.000000
129.062930 21.000000
129.072680 19.000000
130.040280 6.000000
130.052490 9.000000
130.066220 107.000000
131.027940 6.000000
131.036790 5.000000
131.048480 11.000000
131.064360 16.000000
131.076580 179.000000
131.778150 5.000000
132.042340 29.000000
132.056700 13.000000
132.078000 99.000000
132.090910 22.000000
133.052090 145.000000
133.072010 28.000000
133.086170 13.000000
133.098040 21.000000
133.108150 23.000000
134.050060 11.000000
134.063110 31.000000
134.098850 23.000000
135.043440 6.000000
135.059020 5.000000
135.076580 81.000000
135.082860 25.000000
135.108670 5.000000
136.045810 7.000000
136.055240 8.000000
136.074690 156.000000
136.080950 53.000000
136.091670 8.000000
136.109830 89.000000
137.056460 5.000000
137.082260 26.000000
138.061860 12.000000
140.040910 9.000000
140.053250 9.000000
142.062620 17.000000
143.054600 10.000000
143.074280 24.000000
144.046970 8.000000
144.069900 17.000000
144.084210 18.000000
145.052000 120.000000
145.064730 29.000000
145.077960 20.000000
146.051320 40.000000
146.058200 53.000000
146.073680 42.000000
146.094850 11.000000
146.103450 7.000000
146.932980 5.000000
147.026090 16.000000
147.040910 22.000000
147.067470 1000.000000
147.096120 15.000000
148.038600 6.000000
148.070940 217.000000
148.093370 8.000000
148.107320 15.000000
148.120590 5.000000
149.045680 10.000000
149.073730 6.000000
149.086940 7.000000
149.095790 5.000000
150.040570 15.000000
150.054820 139.000000
150.086720 9.000000
150.105550 6.000000
150.127530 288.000000
151.038250 5.000000
151.058530 29.000000
151.101960 7.000000
151.129300 11.000000
151.138180 7.000000
152.057170 10.000000
155.062930 8.000000
155.075930 16.000000
156.047010 15.000000
157.041610 12.000000
157.055600 7.000000
158.055220 31.000000
158.066670 33.000000
158.086150 26.000000
158.172300 6.000000
159.052830 28.000000
159.067640 42.000000
159.085490 5.000000
160.029100 13.000000
160.039250 61.000000
160.077070 222.000000
160.109650 5.000000
161.047760 58.000000
161.058690 16.000000
161.078080 35.000000
161.107350 8.000000
162.055910 187.000000
162.070020 23.000000
162.081070 40.000000
162.091090 99.000000
162.167710 7.000000
162.371600 18.000000
163.042450 6.000000
163.054340 34.000000
163.065480 8.000000
163.096120 9.000000
163.102100 8.000000
164.060500 6.000000
164.096010 8.000000
164.102250 6.000000
167.066820 18.000000
167.075300 16.000000
169.052920 15.000000
169.070500 16.000000
169.080780 9.000000
170.042720 5.000000
170.065920 11.000000
170.084660 16.000000
171.092010 24.000000
172.043850 14.000000
172.061980 13.000000
172.074370 63.000000
172.108550 7.000000
173.046330 16.000000
173.057620 8.000000
173.071750 34.000000
173.081100 29.000000
174.034240 7.000000
174.055510 159.000000
174.080020 17.000000
174.092390 65.000000
174.127330 21.000000
175.062730 257.000000
175.082150 15.000000
175.097810 10.000000
176.039920 7.000000
176.049760 7.000000
176.065780 120.000000
176.087190 8.000000
176.113220 8.000000
177.071610 13.000000
177.083160 36.000000
177.095050 10.000000
178.064210 7.000000
178.089220 8.000000
178.121080 60.000000
178.134630 13.000000
179.078950 14.000000
179.092220 8.000000
180.081800 17.000000
180.106980 9.000000
181.088550 33.000000
182.058930 13.000000
182.093640 7.000000
183.097260 5.000000
184.072950 47.000000
184.091490 5.000000
185.065630 31.000000
185.078610 51.000000
185.090900 8.000000
186.054120 7.000000
186.080090 77.000000
187.066020 10.000000
187.085370 194.000000
188.054440 9.000000
188.067350 36.000000
188.079470 92.000000
188.095280 77.000000
188.107300 13.000000
189.071930 7.000000
189.103450 15.000000
190.063230 15.000000
190.088440 187.000000
191.076050 10.000000
191.090010 20.000000
192.078690 8.000000
192.090520 7.000000
192.700450 8.000000
194.081700 42.000000
194.089940 22.000000
194.105480 7.000000
195.086870 30.000000
195.098310 14.000000
196.065050 6.000000
196.080410 5.000000
196.096800 35.000000
197.079070 17.000000
197.096470 22.000000
197.120480 7.000000
198.090670 28.000000
198.103700 16.000000
199.060970 6.000000
199.082810 8.000000
199.091050 13.000000
200.082990 12.000000
200.099720 5.000000
200.747380 5.000000
201.076630 11.000000
201.088930 22.000000
201.100800 15.000000
201.110550 9.000000
202.080470 7.000000
202.087110 17.000000
202.095860 15.000000
202.112350 5.000000
202.123020 9.000000
202.492140 6.000000
203.091130 29.000000
204.085310 24.000000
205.081450 12.000000
205.089610 10.000000
205.096600 7.000000
206.078140 24.000000
206.091570 6.000000
207.075680 6.000000
207.093990 8.000000
207.106030 8.000000
208.077260 51.000000
208.089480 23.000000
208.099700 18.000000
208.138140 5.000000
209.078310 28.000000
209.095500 8.000000
210.087750 19.000000
211.101290 15.000000
212.079130 9.000000
212.090480 8.000000
212.102630 15.000000
213.065490 7.000000
213.075680 15.000000
213.108020 7.000000
214.074310 10.000000
214.087980 15.000000
215.061450 7.000000
215.081220 5.000000
215.088290 18.000000
215.113490 6.000000
216.060550 6.000000
217.086870 10.000000
217.094390 12.000000
218.087100 19.000000
219.084260 11.000000
220.093410 10.000000
221.093660 10.000000
222.077410 47.000000
222.091490 34.000000
222.128600 22.000000
223.062010 7.000000
223.081600 19.000000
223.091660 30.000000
223.105640 9.000000
224.074250 7.000000
224.096620 26.000000
224.110240 25.000000
224.123860 7.000000
225.079620 5.000000
225.107890 9.000000
225.119230 18.000000
226.095200 5.000000
226.120590 32.000000
227.077190 11.000000
227.086490 16.000000
227.097920 7.000000
227.119160 13.000000
228.091030 10.000000
228.105960 9.000000
228.979580 6.000000
229.082400 14.000000
229.093290 24.000000
229.101940 26.000000
229.113750 5.000000
230.066020 6.000000
230.098570 28.000000
231.110030 7.000000
232.085660 7.000000
232.113240 31.000000
233.111510 9.000000
234.077870 15.000000
234.092640 31.000000
234.110150 12.000000
235.083280 9.000000
235.102250 23.000000
236.065770 7.000000
236.092130 26.000000
236.104220 20.000000
237.085190 8.000000
237.105770 63.000000
238.081410 13.000000
238.091080 9.000000
238.104030 12.000000
238.118710 8.000000
239.055250 6.000000
239.090060 37.000000
239.103380 32.000000
239.119600 49.000000
239.156140 12.000000
240.102330 31.000000
240.123860 24.000000
240.139950 7.000000
241.093380 9.000000
241.118160 11.000000
242.113010 28.000000
246.093960 11.000000
247.092500 11.000000
247.124880 7.000000
248.085620 8.000000
248.097780 19.000000
248.111180 26.000000
249.108510 45.000000
249.127080 8.000000
250.093480 7.000000
250.117420 11.000000
250.127930 48.000000
251.113010 15.000000
251.125750 41.000000
251.137890 10.000000
252.091740 12.000000
252.103710 21.000000
252.129140 11.000000
252.140170 14.000000
253.070340 5.000000
253.102490 16.000000
253.126310 9.000000
253.137880 6.000000
254.100950 8.000000
254.115950 31.000000
254.152920 12.000000
255.058990 7.000000
255.082860 5.000000
255.097890 9.000000
255.108410 15.000000
255.120150 36.000000
257.086330 9.000000
260.110140 12.000000
261.107640 7.000000
262.077700 5.000000
263.117650 11.000000
264.108890 9.000000
264.134460 18.000000
264.168730 5.000000
265.103790 6.000000
265.144590 14.000000
266.175290 6.000000
267.115690 21.000000
268.120790 8.000000
269.148410 8.000000
270.147030 15.000000
276.148070 5.000000
277.130920 16.000000
278.142640 13.000000
279.114040 12.000000
279.135680 10.000000
279.154910 9.000000
280.143620 9.000000
281.129030 7.000000
281.158660 9.000000
282.107600 8.000000
282.140230 8.000000
282.153660 8.000000
283.153230 11.000000
287.090970 5.000000
289.141510 5.000000
290.152220 6.000000
292.153020 11.000000
293.166050 5.000000
297.164830 7.000000
303.278530 7.000000
306.172450 12.000000
307.172420 7.000000
311.168030 5.000000
324.178440 6.000000
325.195130 6.000000
326.200590 5.000000
337.176360 12.000000
353.176060 5.000000
367.197540 7.000000

>ms2peaks
126.054550 5.000000
136.071060 6.000000
136.111830 7.000000
147.068970 6.000000
150.128010 27.000000
162.088900 6.000000
175.066190 6.000000
176.069120 9.000000
178.121840 23.000000
188.072070 5.000000
188.095030 7.000000
190.086350 32.000000
196.132680 7.000000
201.104050 5.000000
208.133680 7.000000
210.151930 8.000000
325.191040 9.000000
367.197850 8.000000
385.211430 1000.000000
385.267580 26.000000

>ms2peaks
385.150360 6.000000
385.211700 1000.000000
385.268550 32.000000

>ms2peaks
91.053700 9.000000
93.064540 5.000000
93.069700 11.000000
107.085990 13.000000
119.085180 31.000000
121.099290 42.000000
121.104520 15.000000
122.059650 7.000000
122.096000 8.000000
126.055490 41.000000
129.077550 5.000000
131.082690 6.000000
133.097790 5.000000
136.074130 43.000000
136.111920 46.000000
137.058870 9.000000
137.074750 5.000000
146.070880 15.000000
147.067860 17.000000
147.080180 12.000000
148.072460 11.000000
148.112630 9.000000
150.051150 12.000000
150.058460 16.000000
150.126450 198.000000
151.130360 29.000000
160.063110 8.000000
160.076110 34.000000
160.112370 6.000000
162.057980 7.000000
162.091110 35.000000
172.073780 21.000000
174.082230 16.000000
174.091190 29.000000
175.058410 20.000000
175.068420 23.000000
175.085720 6.000000
176.069410 80.000000
176.105610 8.000000
177.092040 11.000000
178.086580 24.000000
178.122470 174.000000
179.102110 7.000000
179.116760 6.000000
179.129490 14.000000
184.073960 6.000000
187.085490 14.000000
188.071760 28.000000
188.093800 38.000000
189.075490 8.000000
189.096950 15.000000
189.106340 9.000000
190.065930 6.000000
190.085660 201.000000
191.090060 28.000000
196.128950 16.000000
196.137120 25.000000
200.104580 5.000000
201.099290 23.000000
201.110440 14.000000
202.090620 5.000000
202.109440 7.000000
203.117080 8.000000
208.132920 73.000000
210.147840 66.000000
220.133120 9.000000
229.096220 34.000000
230.110810 6.000000
237.104970 21.000000
239.115740 20.000000
239.125760 11.000000
255.111180 28.000000
255.122920 10.000000
262.115230 7.000000
262.141570 9.000000
265.088900 11.000000
270.118840 6.000000
270.142460 6.000000
278.149020 9.000000
282.144870 5.000000
296.170620 5.000000
297.167420 5.000000
307.180630 38.000000
308.173250 8.000000
311.173000 8.000000
325.158450 7.000000
325.190160 69.000000
326.191010 18.000000
326.201750 6.000000
335.178740 16.000000
336.179600 10.000000
353.189360 15.000000
367.190190 16.000000
367.210110 20.000000
368.204800 8.000000
385.169680 13.000000
385.210690 1000.000000

>ms2peaks
67.054290 9.000000
68.048820 21.000000
77.039820 49.000000
79.055080 75.000000
80.047870 89.000000
80.057020 18.000000
81.058890 10.000000
82.067260 16.000000
85.978320 7.000000
90.040410 6.000000
91.026440 10.000000
91.039130 7.000000
91.055350 160.000000
92.056590 20.000000
93.004960 8.000000
93.056720 27.000000
93.069630 113.000000
94.027840 12.000000
94.034730 11.000000
94.064690 72.000000
94.069270 43.000000
95.044850 11.000000
95.052540 14.000000
95.063230 12.000000
95.072320 23.000000
95.085690 62.000000
96.072630 18.000000
98.062290 9.000000
102.047390 6.000000
103.056370 19.000000
104.047990 22.000000
104.060680 7.000000
105.034870 16.000000
105.060390 10.000000
105.070620 105.000000
106.031440 8.000000
106.063660 17.000000
106.069240 30.000000
107.032810 9.000000
107.040870 32.000000
107.048720 9.000000
107.073460 21.000000
107.085500 58.000000
107.090190 19.000000
108.046880 11.000000
108.056050 16.000000
108.080430 29.000000
108.092510 27.000000
109.057470 7.000000
109.067010 24.000000
109.097570 7.000000
110.096220 5.000000
111.061160 7.000000
112.053330 6.000000
115.051730 21.000000
115.055820 43.000000
116.048520 71.000000
116.057810 7.000000
117.055210 30.000000
117.064990 48.000000
117.074150 5.000000
118.049450 8.000000
118.062800 51.000000
118.074200 13.000000
119.034500 13.000000
119.054750 13.000000
119.075990 66.000000
119.086370 94.000000
120.080860 17.000000
120.087950 15.000000
121.054580 13.000000
121.064080 101.000000
121.086110 35.000000
121.100120 153.000000
122.044710 13.000000
122.060670 245.000000
122.095860 49.000000
122.106120 23.000000
123.058700 19.000000
123.064650 8.000000
123.101170 9.000000
124.072700 20.000000
124.081680 22.000000
124.115770 7.000000
126.052350 28.000000
126.060590 23.000000
126.693020 5.000000
127.459410 6.000000
128.051180 22.000000
128.074750 8.000000
129.069430 28.000000
129.819640 6.000000
130.043110 8.000000
130.055790 14.000000
130.065550 116.000000
131.049390 10.000000
131.073260 112.000000
131.078870 54.000000
131.088870 12.000000
132.043520 58.000000
132.051280 21.000000
132.076710 11.000000
132.084030 13.000000
133.034090 15.000000
133.051410 114.000000
133.061740 35.000000
133.071180 13.000000
133.080370 11.000000
133.091080 12.000000
133.104280 33.000000
134.060580 40.000000
135.061450 12.000000
135.068150 22.000000
135.081740 50.000000
135.099960 22.000000
136.076220 274.000000
136.110930 50.000000
136.118790 9.000000
137.048370 6.000000
137.059200 14.000000
137.072130 13.000000
137.079180 14.000000
137.115020 5.000000
137.400500 7.000000
140.042020 5.000000
140.722090 8.000000
141.047560 5.000000
141.070560 7.000000
141.518070 6.000000
142.061250 6.000000
142.072240 5.000000
143.066530 10.000000
143.071840 22.000000
143.081620 8.000000
144.038540 10.000000
144.050960 10.000000
144.077900 13.000000
145.026920 5.000000
145.052410 89.000000
145.066100 34.000000
145.076660 22.000000
145.089070 12.000000
146.044620 11.000000
146.050430 35.000000
146.062040 70.000000
146.071870 61.000000
146.084460 11.000000
146.093280 19.000000
147.036870 14.000000
147.045150 10.000000
147.067980 1000.000000
148.031460 9.000000
148.039380 15.000000
148.069810 69.000000
148.078380 64.000000
148.108230 27.000000
148.117970 9.000000
149.094500 14.000000
149.113460 8.000000
150.056440 147.000000
150.095960 11.000000
150.126400 224.000000
151.057050 21.000000
151.123260 27.000000
151.135710 14.000000
152.064100 13.000000
153.068080 5.000000
154.063630 18.000000
154.075710 5.000000
155.024000 6.000000
155.053710 8.000000
155.061420 6.000000
156.014390 12.000000
156.052840 6.000000
156.066240 28.000000
156.084210 9.000000
157.049910 11.000000
157.073530 8.000000
157.103550 12.000000
157.682660 6.000000
158.059590 24.000000
158.083110 10.000000
159.057850 14.000000
159.068130 57.000000
159.080230 42.000000
159.854130 8.000000
160.030990 8.000000
160.040310 54.000000
160.075500 270.000000
161.047900 74.000000
161.064830 8.000000
161.079090 37.000000
162.029480 6.000000
162.051970 89.000000
162.058230 49.000000
162.090530 108.000000
162.130620 5.000000
163.065280 28.000000
163.079300 6.000000
163.097810 10.000000
163.112010 12.000000
164.056580 7.000000
164.106060 10.000000
165.078830 10.000000
165.752060 7.000000
166.071620 7.000000
167.038300 8.000000
167.055980 9.000000
167.073880 6.000000
168.685520 9.000000
169.054260 6.000000
169.068130 8.000000
170.061290 63.000000
170.080920 16.000000
170.995350 7.000000
171.056060 12.000000
172.058240 10.000000
172.072050 45.000000
172.082980 16.000000
172.100110 10.000000
173.042360 6.000000
173.050690 8.000000
173.062770 11.000000
173.075060 46.000000
173.083420 16.000000
174.054520 69.000000
174.061400 42.000000
174.083510 38.000000
174.092390 36.000000
174.105100 7.000000
175.063670 265.000000
175.084670 7.000000
175.095150 11.000000
176.064700 50.000000
176.073240 66.000000
176.102190 8.000000
177.069600 20.000000
177.084750 14.000000
177.093540 16.000000
178.088840 10.000000
178.120880 60.000000
178.131070 15.000000
180.087250 5.000000
180.109560 6.000000
181.077130 7.000000
181.089680 25.000000
182.093950 7.000000
183.053270 6.000000
183.062470 11.000000
183.072340 23.000000
183.100420 7.000000
184.070340 13.000000
184.078870 7.000000
184.098950 11.000000
185.075470 52.000000
185.098040 5.000000
186.050400 13.000000
186.075620 91.000000
186.091340 16.000000
187.050770 8.000000
187.074650 21.000000
187.084930 87.000000
187.093350 79.000000
188.055340 12.000000
188.076840 48.000000
188.095260 89.000000
188.109150 10.000000
189.082890 19.000000
189.100360 21.000000
190.068100 12.000000
190.085510 219.000000
190.123950 9.000000
191.064480 10.000000
191.081530 13.000000
191.089290 26.000000
192.075290 9.000000
192.084060 19.000000
193.076110 6.000000
194.073850 37.000000
194.094670 34.000000
195.066360 31.000000
195.090070 35.000000
195.104920 21.000000
196.061460 9.000000
196.081480 14.000000
196.096510 18.000000
197.083500 25.000000
197.094410 23.000000
198.057980 7.000000
198.079280 10.000000
198.087160 9.000000
198.095280 9.000000
199.060290 9.000000
199.088940 30.000000
199.105870 14.000000
200.073120 8.000000
200.087430 6.000000
200.122280 5.000000
201.075710 8.000000
201.107910 11.000000
202.086840 21.000000
202.116090 9.000000
203.050130 8.000000
203.082290 17.000000
204.084550 33.000000
205.080290 8.000000
205.087940 11.000000
206.080440 6.000000
206.093120 6.000000
206.105830 20.000000
207.086870 6.000000
207.097410 7.000000
208.076950 15.000000
208.092390 7.000000
208.112430 22.000000
209.079860 26.000000
209.093110 10.000000
209.107600 7.000000
210.087190 22.000000
210.100270 11.000000
210.114650 8.000000
211.071370 6.000000
211.088700 25.000000
211.101840 15.000000
212.065260 8.000000
212.084700 7.000000
212.102080 29.000000
213.067730 9.000000
213.079420 8.000000
214.071410 20.000000
214.093700 11.000000
215.069930 7.000000
216.066910 6.000000
216.108810 8.000000
217.059130 7.000000
218.085340 21.000000
218.099140 28.000000
218.116610 9.000000
219.073070 14.000000
219.100630 7.000000
220.013090 9.000000
220.077040 24.000000
220.105180 5.000000
220.114000 10.000000
220.123340 13.000000
221.067600 8.000000
221.087420 6.000000
221.097430 5.000000
222.067170 9.000000
222.085480 67.000000
222.120590 8.000000
222.130520 23.000000
223.075040 5.000000
223.089870 54.000000
223.114810 7.000000
223.131410 10.000000
224.084960 29.000000
224.095110 25.000000
224.105650 24.000000
224.147740 6.000000
225.080930 12.000000
225.098400 17.000000
225.116910 7.000000
226.049970 7.000000
226.062010 7.000000
226.077130 12.000000
226.086500 16.000000
226.094850 12.000000
226.123340 8.000000
227.070530 8.000000
227.091580 33.000000
228.101670 17.000000
229.067230 6.000000
229.097980 34.000000
229.112210 6.000000
230.107890 12.000000
232.080090 9.000000
233.060380 5.000000
233.093020 11.000000
234.084840 13.000000
234.093950 30.000000
234.112920 6.000000
235.084730 15.000000
235.098740 20.000000
235.112370 6.000000
236.072310 5.000000
236.102230 42.000000
236.122180 6.000000
237.100620 86.000000
237.112690 31.000000
238.074540 7.000000
238.085820 12.000000
238.101470 15.000000
238.113390 18.000000
238.125820 5.000000
239.079040 6.000000
239.091400 17.000000
239.108220 53.000000
239.125930 45.000000
240.103420 33.000000
240.118260 9.000000
240.125720 16.000000
241.096940 7.000000
241.114060 9.000000
242.123550 7.000000
244.070600 6.000000
245.072910 8.000000
246.133800 6.000000
247.093200 7.000000
247.100510 6.000000
247.125270 5.000000
248.107770 37.000000
248.137050 5.000000
249.073820 6.000000
249.115310 21.000000
249.138470 10.000000
250.101000 7.000000
250.115360 22.000000
250.131160 20.000000
251.076870 8.000000
251.127750 11.000000
251.144100 8.000000
252.060820 8.000000
252.109660 19.000000
252.143130 11.000000
253.084210 10.000000
253.101070 16.000000
253.138430 8.000000
254.114840 9.000000
254.164990 8.000000
255.105330 16.000000
255.115920 24.000000
255.124910 8.000000
256.127660 6.000000
263.129030 7.000000
264.110110 15.000000
265.111080 17.000000
266.127720 10.000000
266.157040 6.000000
267.112210 13.000000
270.156770 16.000000
276.133580 10.000000
277.132840 22.000000
277.169740 5.000000
278.120330 12.000000
278.139430 12.000000
278.152220 19.000000
279.117550 15.000000
279.146180 12.000000
280.130070 11.000000
281.162450 8.000000
282.131810 10.000000
283.174530 5.000000
290.107540 8.000000
291.110200 6.000000
291.160460 11.000000
293.159670 6.000000
294.187990 8.000000
307.184110 10.000000
307.204960 6.000000
308.118770 5.000000
308.187350 8.000000
311.175080 11.000000
325.195680 6.000000
340.540590 11.000000

>ms2peaks
126.054040 6.000000
136.076030 6.000000
136.112030 7.000000
147.070220 11.000000
150.127730 33.000000
174.091030 6.000000
176.069640 9.000000
178.122420 24.000000
190.086990 33.000000
196.133180 6.000000
208.134290 7.000000
210.145460 6.000000
307.180360 6.000000
325.191350 19.000000
367.202730 12.000000
385.151730 10.000000
385.212070 1000.000000
385.269290 28.000000

>ms2peaks
385.149750 7.000000
385.211550 1000.000000
385.268650 32.000000
385.320560 5.000000

>ms2peaks
81.069690 5.000000
91.055530 6.000000
93.069720 9.000000
107.085390 17.000000
119.075080 7.000000
119.085890 19.000000
121.100710 38.000000
122.101590 5.000000
126.055130 44.000000
133.100010 5.000000
136.076190 31.000000
136.108570 14.000000
136.114300 29.000000
146.069890 8.000000
146.079680 10.000000
147.062150 11.000000
147.071010 11.000000
147.082550 14.000000
148.077300 14.000000
148.112290 9.000000
150.053510 28.000000
150.059400 11.000000
150.128250 204.000000
151.120560 6.000000
151.133160 17.000000
160.077160 31.000000
161.088750 7.000000
162.053790 5.000000
162.091670 27.000000
172.075000 17.000000
174.092880 49.000000
175.065780 24.000000
176.070470 70.000000
176.106310 7.000000
177.071810 7.000000
177.089550 9.000000
178.082020 17.000000
178.089390 10.000000
178.122450 160.000000
179.106190 10.000000
179.123050 20.000000
179.130750 18.000000
184.077380 6.000000
187.091250 12.000000
188.070250 11.000000
188.095200 30.000000
188.105550 8.000000
189.084430 6.000000
189.096300 10.000000
189.107650 14.000000
190.085110 200.000000
191.081330 7.000000
191.090270 23.000000
196.134340 52.000000
197.137390 8.000000
201.104050 36.000000
202.083240 5.000000
202.111270 10.000000
208.132980 61.000000
209.141040 7.000000
210.138380 12.000000
210.148900 52.000000
220.134960 13.000000
229.097140 30.000000
230.108630 7.000000
237.100400 15.000000
238.107240 7.000000
239.120910 10.000000
255.112960 21.000000
265.101320 7.000000
270.147000 7.000000
270.161530 7.000000
278.150820 10.000000
292.130710 5.000000
307.163300 6.000000
307.181150 40.000000
308.188870 17.000000
309.192350 9.000000
325.183900 21.000000
325.198060 23.000000
326.188140 10.000000
335.175930 30.000000
336.183620 6.000000
353.186980 9.000000
367.200530 40.000000
367.219450 7.000000
368.205110 12.000000
385.154240 15.000000
385.212860 1000.000000
385.270230 7.000000

>ms2peaks
56.050570 5.000000
59.012430 10.000000
63.017970 13.000000
66.047680 8.000000
67.052030 8.000000
69.490840 5.000000
75.001740 6.000000
77.027770 7.000000
77.038860 25.000000
78.001120 5.000000
78.038470 14.000000
79.053290 69.000000
80.039010 6.000000
80.048210 24.000000
80.056460 31.000000
81.072910 6.000000
82.030030 8.000000
82.067170 25.000000
84.075780 5.000000
86.090770 9.000000
91.053470 145.000000
92.050830 19.000000
92.057530 5.000000
92.065390 9.000000
93.030910 18.000000
93.055400 20.000000
93.068700 81.000000
94.024650 11.000000
94.029340 20.000000
94.064870 86.000000
94.075640 9.000000
95.023850 6.000000
95.047580 32.000000
95.070300 21.000000
95.080870 29.000000
95.086500 20.000000
96.081480 11.000000
97.052130 6.000000
97.065830 7.000000
103.053510 40.000000
104.053830 19.000000
104.879880 7.000000
105.051990 5.000000
105.069270 104.000000
106.044240 9.000000
106.061390 10.000000
106.073690 11.000000
106.079950 6.000000
107.046310 7.000000
107.074860 27.000000
107.085990 65.000000
108.045070 20.000000
108.053920 8.000000
108.068210 9.000000
108.083530 29.000000
109.065150 12.000000
109.086610 15.000000
110.066560 6.000000
111.086300 8.000000
115.052130 56.000000
116.049040 56.000000
117.043110 7.000000
117.057640 47.000000
117.068600 50.000000
118.063750 44.000000
118.070060 17.000000
119.048650 7.000000
119.058610 10.000000
119.069630 48.000000
119.079500 51.000000
119.087260 69.000000
119.802890 9.000000
120.073150 8.000000
120.079700 13.000000
121.039290 6.000000
121.048040 15.000000
121.059680 29.000000
121.068450 76.000000
121.084850 9.000000
121.099140 109.000000
122.060390 278.000000
122.072440 7.000000
122.091450 17.000000
122.096310 35.000000
122.105400 23.000000
123.065330 48.000000
124.068490 10.000000
124.077780 15.000000
124.111080 5.000000
125.353810 5.000000
126.049420 10.000000
126.056500 11.000000
128.049070 7.000000
128.058700 6.000000
129.070690 22.000000
130.064680 92.000000
131.044420 12.000000
131.072950 164.000000
131.085270 21.000000
132.035020 11.000000
132.044530 51.000000
132.072920 7.000000
132.078380 24.000000
132.090470 5.000000
133.051730 129.000000
133.067370 14.000000
133.081790 11.000000
133.093980 7.000000
133.098430 15.000000
134.060060 40.000000
134.093440 11.000000
134.111660 7.000000
135.044340 10.000000
135.065380 13.000000
135.077380 20.000000
135.085690 20.000000
135.094620 6.000000
136.038040 7.000000
136.074810 217.000000
136.113050 65.000000
137.079790 22.000000
138.052890 12.000000
143.068590 11.000000
143.077650 8.000000
144.044100 9.000000
144.051190 11.000000
144.062410 8.000000
144.077900 33.000000
145.034730 10.000000
145.052030 103.000000
145.060040 56.000000
145.069290 22.000000
145.077150 7.000000
146.057020 73.000000
146.066710 87.000000
146.098270 9.000000
147.033100 19.000000
147.044250 18.000000
147.053390 52.000000
147.067430 1000.000000
147.096220 12.000000
147.109270 6.000000
148.052760 7.000000
148.072560 188.000000
148.110550 25.000000
148.120390 7.000000
149.080020 21.000000
149.091900 7.000000
149.098680 5.000000
150.031750 7.000000
150.053830 118.000000
150.069930 14.000000
150.128140 192.000000
151.054430 20.000000
151.127720 21.000000
152.069440 14.000000
153.303020 6.000000
154.060620 10.000000
155.069240 35.000000
156.049000 6.000000
156.079770 6.000000
157.043660 6.000000
157.049790 18.000000
157.074680 15.000000
158.051830 10.000000
158.061580 18.000000
158.083160 37.000000
158.098750 8.000000
158.111110 5.000000
158.680180 5.000000
159.039890 11.000000
159.066930 68.000000
159.082430 13.000000
159.095730 11.000000
160.033330 41.000000
160.042240 34.000000
160.075410 265.000000
160.113710 8.000000
160.748200 7.000000
161.047810 49.000000
161.057500 24.000000
161.081040 59.000000
162.055510 176.000000
162.069370 12.000000
162.091000 221.000000
163.060060 31.000000
163.090290 16.000000
163.098720 8.000000
164.081560 6.000000
166.062410 6.000000
167.068440 10.000000
167.076110 13.000000
168.071460 8.000000
168.079210 5.000000
169.047320 16.000000
169.077530 6.000000
170.063250 11.000000
170.078890 11.000000
170.088060 22.000000
171.101010 6.000000
172.061230 15.000000
172.077290 43.000000
172.088070 8.000000
173.071260 42.000000
173.083040 16.000000
174.052230 89.000000
174.058330 37.000000
174.079480 45.000000
174.090790 73.000000
174.130340 10.000000
175.042050 10.000000
175.061940 276.000000
176.047240 15.000000
176.070240 196.000000
176.100020 12.000000
177.062500 10.000000
177.086350 16.000000
177.096800 9.000000
177.202530 6.000000
178.073940 7.000000
178.084630 8.000000
178.092390 10.000000
178.120880 20.000000
180.074300 7.000000
180.084900 13.000000
181.071430 8.000000
182.062880 7.000000
182.079590 7.000000
183.062420 12.000000
183.072420 16.000000
183.100010 12.000000
184.062300 8.000000
184.072250 43.000000
185.037260 10.000000
185.067350 20.000000
185.081770 25.000000
186.078290 88.000000
187.059840 14.000000
187.085420 154.000000
188.060320 7.000000
188.073030 49.000000
188.092790 89.000000
188.104480 18.000000
189.087040 19.000000
190.086210 251.000000
191.003370 5.000000
191.076630 10.000000
191.089510 17.000000
191.101440 11.000000
192.075650 23.000000
193.079880 27.000000
194.075900 30.000000
194.083980 38.000000
195.063960 13.000000
195.073350 12.000000
195.088620 64.000000
195.110810 9.000000
196.069530 12.000000
196.081970 11.000000
196.095120 21.000000
196.102260 13.000000
197.080260 7.000000
197.089940 6.000000
198.083590 14.000000
198.093660 12.000000
198.098240 6.000000
199.036640 6.000000
199.077440 7.000000
199.088940 20.000000
200.065690 5.000000
200.077940 9.000000
200.102010 5.000000
201.068220 9.000000
201.092740 16.000000
201.105290 17.000000
202.048750 8.000000
202.092850 22.000000
202.119840 9.000000
203.091710 9.000000
204.081710 20.000000
205.086700 14.000000
206.124010 6.000000
207.062240 5.000000
207.074400 15.000000
207.088000 7.000000
207.097050 9.000000
208.075490 13.000000
208.092130 12.000000
208.106610 21.000000
208.131300 18.000000
209.042590 6.000000
209.072430 6.000000
209.081820 18.000000
209.104740 16.000000
210.084270 19.000000
210.097090 11.000000
210.552720 7.000000
211.090070 9.000000
211.110410 7.000000
212.056820 7.000000
212.070100 7.000000
212.082640 10.000000
212.094350 6.000000
212.106870 20.000000
213.067430 8.000000
214.079620 51.000000
214.114610 6.000000
215.086090 6.000000
216.100220 7.000000
217.100140 5.000000
218.035160 6.000000
218.094760 39.000000
218.105910 10.000000
219.053630 8.000000
219.114610 6.000000
220.075180 25.000000
220.104250 10.000000
220.120640 14.000000
221.064440 12.000000
221.086790 5.000000
221.427750 5.000000
222.068450 18.000000
222.085880 50.000000
222.123140 17.000000
223.081630 25.000000
223.093920 7.000000
224.073300 15.000000
224.086010 15.000000
224.094860 19.000000
224.104930 17.000000
225.083820 9.000000
225.099660 25.000000
225.118480 20.000000
226.072750 13.000000
226.087250 24.000000
226.111760 12.000000
227.083470 27.000000
227.097810 7.000000
227.113860 6.000000
228.098920 19.000000
229.089580 29.000000
229.107150 5.000000
230.101290 12.000000
232.054000 6.000000
232.076050 7.000000
233.079380 14.000000
233.094220 6.000000
233.111540 12.000000
234.077330 13.000000
234.088460 12.000000
234.097640 12.000000
234.125790 12.000000
235.099720 27.000000
236.090190 10.000000
236.099290 32.000000
237.081100 6.000000
237.107090 132.000000
238.075470 10.000000
238.097850 6.000000
238.111790 15.000000
238.122510 15.000000
238.161150 7.000000
239.078990 10.000000
239.090210 12.000000
239.115590 70.000000
239.131000 9.000000
240.086750 6.000000
240.101610 15.000000
240.111600 22.000000
240.133580 12.000000
241.091740 15.000000
241.107880 27.000000
243.109650 10.000000
244.080110 7.000000
246.098950 17.000000
247.101590 23.000000
248.113560 21.000000
248.131930 7.000000
249.087720 6.000000
249.100880 8.000000
249.114040 36.000000
250.110810 11.000000
250.125370 11.000000
250.137530 10.000000
251.072040 5.000000
251.108840 28.000000
251.128400 7.000000
251.146120 10.000000
251.226900 5.000000
251.683300 7.000000
252.097000 6.000000
252.142360 6.000000
253.097660 19.000000
253.124790 15.000000
253.137070 7.000000
254.097410 11.000000
254.122040 10.000000
254.150850 6.000000
255.076420 8.000000
255.108180 45.000000
255.118130 25.000000
256.113490 6.000000
259.129550 6.000000
260.113830 6.000000
262.123200 19.000000
262.134640 9.000000
263.059970 6.000000
263.138340 9.000000
264.087370 7.000000
264.124020 11.000000
264.147430 21.000000
265.107570 6.000000
266.095180 5.000000
266.135680 8.000000
266.146940 5.000000
267.105530 15.000000
267.123470 5.000000
267.137300 9.000000
269.133210 18.000000
270.137210 7.000000
270.155090 27.000000
276.121120 6.000000
277.101500 9.000000
277.131380 9.000000
278.095150 5.000000
278.119870 6.000000
279.144350 11.000000
282.063200 5.000000
282.153200 6.000000
282.582520 7.000000
291.116180 8.000000
291.155090 10.000000
293.166380 12.000000
293.176360 20.000000
295.139650 7.000000
296.157840 11.000000
297.163970 7.000000
298.145230 7.000000
303.137150 11.000000
307.181730 7.000000
312.176090 8.000000
325.200680 18.000000
350.105900 8.000000
352.171230 5.000000
353.187380 6.000000

