>compound PR90168974
>parentmass 475.3781865
>ionization [M+H]+
>formula C30H50O4
>rt 536.698980
>profile qtof
#smiles_iso C[C@]12CC[C@@H]([C@]([C@@H]1CC[C@@]3([C@@H]2CC=C4[C@]3(CC[C@@]5([C@H]4CC([C@H]([C@H]5O)O)(C)C)C)C)C)(C)CO)O
#smiles_can CC1(CC2C3=CCC4C5(CCC(C(C5CCC4(C3(CCC2(C(C1O)O)C)C)C)(C)CO)O)C)C
#inchikey CDDWAYFUFNQLRZ-KJVHGCRFSA-N
#pubchem_id 12442849
#mb_accession PR304351,PR304355,PR304359,PR304363,PR304367,PR304370,PR304374,PR304377,PR304381,PR304385,PR304389,PR304393

>ms2
123.080250 440.000000
151.105650 380.000000
188.144040 340.000000
223.167010 440.000000
228.189350 320.000000
241.198290 320.000000
245.180820 480.000000
245.215900 400.000000
351.258880 320.000000
381.307280 320.000000
398.307530 480.000000
439.357760 500.000000
439.370790 340.000000
440.353360 420.000000
440.368470 760.000000
457.358920 1000.000000
457.377230 760.000000
457.391170 340.000000
458.364260 360.000000
459.371640 400.000000

>ms2
329.292970 105.000000
369.311430 105.000000
422.366640 105.000000
439.365660 111.000000
440.364380 99.000000
457.354890 444.000000
457.377410 1000.000000
458.377530 111.000000
459.364870 99.000000
475.384120 111.000000

>ms2
69.070970 550.000000
93.070700 400.000000
95.087220 425.000000
121.092500 825.000000
121.104580 500.000000
135.114060 500.000000
161.134780 400.000000
171.113970 400.000000
174.127960 1000.000000
203.182880 500.000000
208.171860 400.000000
215.182460 500.000000
217.188060 500.000000
227.167010 675.000000
235.110760 450.000000
364.306460 400.000000

>ms2
67.054440 500.000000
91.057240 400.000000
107.087050 1000.000000
335.100310 500.000000

>ms2
108.086900 351.000000
147.117070 333.000000
173.131680 421.000000
187.149400 368.000000
195.177890 281.000000
227.182310 298.000000
263.193570 298.000000
291.246000 281.000000
299.234650 281.000000
421.362640 298.000000
422.340910 316.000000
439.339570 368.000000
439.356870 298.000000
457.361940 614.000000
457.388030 351.000000
458.381260 1000.000000

>ms2
400.314760 252.000000
411.344700 117.000000
421.344570 98.000000
437.358640 104.000000
440.343140 110.000000
441.368870 98.000000
457.352050 1000.000000
457.375790 221.000000
458.371920 209.000000
459.393590 110.000000
475.359950 166.000000

>ms2
123.115390 1000.000000
137.131160 688.000000
147.117130 354.000000
149.102100 333.000000
159.125150 333.000000
164.153870 458.000000
189.166400 354.000000
221.204930 667.000000
233.191830 604.000000
239.191880 333.000000
255.212340 333.000000
257.230040 354.000000
297.069180 333.000000
439.363740 333.000000

>ms2
93.069760 513.000000
95.090250 513.000000
138.137560 436.000000
145.098710 538.000000
147.119660 1000.000000

>ms2
95.078420 356.000000
119.092290 356.000000
149.131030 444.000000
176.151140 356.000000
189.167270 444.000000
193.156480 422.000000
206.207610 378.000000
249.196110 400.000000
255.175110 556.000000
381.309690 400.000000
391.335850 444.000000
422.342350 467.000000
439.351560 911.000000
439.365780 422.000000
440.351990 400.000000
457.364750 1000.000000

>ms2
263.205440 132.000000
331.291750 159.000000
422.346530 132.000000
439.316410 106.000000
439.359380 106.000000
439.371700 311.000000
441.325710 106.000000
457.365480 1000.000000
458.369840 715.000000
458.390200 358.000000
474.347200 113.000000

>ms2
91.052280 235.000000
95.085920 1000.000000
109.065160 279.000000
111.083480 279.000000
147.114760 235.000000
163.146160 250.000000
174.141330 397.000000
190.161390 235.000000
201.163060 235.000000
202.174590 235.000000
203.153310 235.000000
220.172850 250.000000
243.212450 309.000000
251.188000 250.000000
255.217270 441.000000
279.189940 250.000000

>ms2
79.061680 444.000000
81.072940 556.000000
95.083720 444.000000
133.090270 444.000000
142.075650 1000.000000
148.124130 444.000000

