>compound PR90745472
>parentmass 329.0867085
>ionization [M+H]+
>formula C14H16O9
>rt 171.546000
>profile qtof
#smiles_iso COC1=C(C=C2C(=C1O)[C@H]3[C@@H]([C@H]([C@@H]([C@H](O3)CO)O)O)OC2=O)O
#smiles_can COC1=C(C=C2C(=C1O)C3C(C(C(C(O3)CO)O)O)OC2=O)O
#inchikey YWJXCIXBAKGUKZ-HJJNZUOJSA-N
#pubchem_id 66065
#mb_accession PR303541,PR303542,PR303543,PR303544,PR303545,PR303546,PR303547,PR303548,PR303549,PR303550,PR303551,PR303552

>ms2peaks
77.041420 94.000000
80.023880 30.000000
85.029340 25.000000
86.031600 35.000000
91.049700 35.000000
93.022480 27.000000
103.040000 50.000000
110.041010 21.000000
111.045660 60.000000
119.048750 90.000000
119.069320 29.000000
123.051930 21.000000
127.040230 27.000000
130.042180 26.000000
131.048080 103.000000
133.020480 49.000000
133.034470 37.000000
133.060580 54.000000
134.037310 30.000000
134.070300 24.000000
137.062870 21.000000
138.025880 64.000000
138.032880 67.000000
144.030030 35.000000
146.028270 25.000000
146.037350 22.000000
147.043730 118.000000
148.015580 40.000000
150.023680 31.000000
151.038060 204.000000
152.013340 76.000000
152.042510 26.000000
153.046400 31.000000
153.054090 24.000000
156.051040 24.000000
159.042450 89.000000
161.059920 24.000000
162.017110 29.000000
162.028870 74.000000
162.036760 22.000000
163.035860 47.000000
164.040760 30.000000
164.047300 26.000000
165.021000 26.000000
165.047850 22.000000
165.974040 21.000000
166.027010 102.000000
166.068680 29.000000
167.040620 29.000000
170.811950 24.000000
174.038470 37.000000
175.026760 29.000000
175.035890 22.000000
175.046940 75.000000
176.009690 21.000000
176.050370 21.000000
177.021000 239.000000
177.047780 26.000000
177.064270 37.000000
177.983400 25.000000
178.028500 132.000000
178.055300 22.000000
179.014220 40.000000
179.033620 77.000000
179.072490 22.000000
179.998540 24.000000
180.009230 102.000000
180.040330 85.000000
181.035060 30.000000
181.054000 415.000000
182.020080 22.000000
187.036510 70.000000
187.548840 24.000000
189.055890 31.000000
190.028050 67.000000
190.057820 22.000000
191.014220 56.000000
191.034580 158.000000
191.072660 32.000000
192.028500 21.000000
192.037400 61.000000
192.042570 27.000000
193.052630 291.000000
194.013960 31.000000
194.024190 81.000000
194.061290 27.000000
195.022490 137.000000
195.033280 166.000000
195.074650 21.000000
197.030690 22.000000
197.043730 198.000000
197.052190 123.000000
199.050110 59.000000
200.021470 26.000000
201.035540 21.000000
201.788510 22.000000
203.038650 44.000000
204.038410 96.000000
205.045470 276.000000
206.013210 24.000000
206.024170 113.000000
206.068850 29.000000
207.022490 59.000000
207.054310 25.000000
207.082000 25.000000
208.030580 37.000000
208.038670 128.000000
208.047490 25.000000
208.067310 22.000000
209.024920 36.000000
209.045040 1000.000000
209.312230 30.000000
210.046170 84.000000
210.056870 39.000000
210.154100 21.000000
211.018390 21.000000
211.030300 24.000000
211.446790 21.000000
215.031020 46.000000
215.042020 67.000000
216.045440 44.000000
216.053910 21.000000
217.026750 56.000000
217.042360 22.000000
218.025700 25.000000
218.068560 22.000000
219.017760 21.000000
219.036610 22.000000
219.053700 65.000000
219.060930 96.000000
219.069560 107.000000
220.033430 22.000000
220.042390 26.000000
220.063580 40.000000
221.047270 459.000000
221.897770 21.000000
222.042420 25.000000
222.051620 35.000000
223.023960 85.000000
223.034390 52.000000
223.056700 52.000000
224.032520 30.000000
225.046250 27.000000
227.029920 21.000000
227.040190 66.000000
229.025100 35.000000
229.044540 25.000000
229.052720 30.000000
229.063320 50.000000
230.027650 25.000000
231.073900 36.000000
232.015000 54.000000
232.027660 21.000000
233.002490 45.000000
233.045970 253.000000
233.058200 76.000000
235.057770 111.000000
236.053280 24.000000
236.063280 36.000000
237.032360 41.000000
242.023210 30.000000
245.031050 24.000000
246.055760 25.000000
247.057450 444.000000
248.058090 29.000000
249.028470 32.000000
251.017290 25.000000
251.050810 605.000000
251.060620 343.000000
252.060750 27.000000
253.058900 41.000000
257.041020 122.000000
257.058290 49.000000
258.044890 35.000000
260.025600 52.000000
260.036990 24.000000
263.002010 21.000000
263.054110 743.000000
263.068390 138.000000
263.918760 30.000000
264.052490 95.000000
264.078340 21.000000
272.878600 37.000000
274.982700 35.000000
275.049380 305.000000
275.062530 208.000000
276.052340 61.000000
276.067140 111.000000
276.995210 24.000000
281.061340 148.000000
282.062620 56.000000
293.057710 223.000000
293.069820 362.000000
294.071440 84.000000
311.067810 183.000000
311.081820 125.000000
312.084320 21.000000
329.056300 61.000000
329.081270 509.000000
329.096920 135.000000

>ms2peaks
57.035520 5.000000
85.026020 11.000000
104.043140 6.000000
120.931170 6.000000
148.547090 8.000000
163.039230 7.000000
175.392760 8.000000
176.207030 5.000000
181.046170 18.000000
190.924730 7.000000
191.032490 67.000000
191.065320 7.000000
197.044680 41.000000
197.055590 7.000000
202.954380 7.000000
207.062000 19.000000
207.072040 9.000000
208.021730 5.000000
208.033680 6.000000
209.043400 184.000000
209.050610 76.000000
210.032780 8.000000
210.045850 33.000000
219.061950 6.000000
221.033910 9.000000
221.046860 46.000000
221.080380 5.000000
223.054240 12.000000
225.035400 34.000000
227.058110 10.000000
227.065980 6.000000
229.610900 5.000000
231.048290 6.000000
231.063810 8.000000
232.072560 6.000000
233.041990 31.000000
235.061610 5.000000
245.049450 9.000000
247.049870 15.000000
247.062710 70.000000
248.062730 11.000000
248.901430 8.000000
249.043950 17.000000
249.072360 9.000000
249.084760 14.000000
250.040250 6.000000
251.014100 5.000000
251.033490 9.000000
251.053890 461.000000
251.081270 5.000000
252.057590 67.000000
252.066730 24.000000
253.065600 7.000000
253.073500 5.000000
255.043520 5.000000
255.050020 13.000000
257.035000 11.000000
263.056980 208.000000
264.039860 6.000000
264.059570 63.000000
264.329160 5.000000
265.042970 5.000000
265.060150 25.000000
265.074980 10.000000
274.279660 6.000000
275.011410 6.000000
275.055050 352.000000
276.058200 35.000000
276.069760 18.000000
277.063230 6.000000
280.893680 5.000000
281.066530 113.000000
282.070830 14.000000
289.424100 5.000000
293.068120 406.000000
293.908140 6.000000
294.069670 71.000000
295.073060 13.000000
302.803830 5.000000
311.075810 326.000000
311.298100 11.000000
312.061250 6.000000
312.080020 45.000000
328.081790 11.000000
329.063140 30.000000
329.088100 1000.000000

>ms2peaks
57.036500 34.000000
67.055810 33.000000
83.007960 48.000000
85.027120 28.000000
87.041570 47.000000
102.061860 28.000000
103.038850 34.000000
103.057990 30.000000
105.036710 33.000000
107.049270 28.000000
107.053620 75.000000
119.039700 24.000000
119.050350 25.000000
121.026030 48.000000
122.039560 25.000000
126.926780 24.000000
127.053840 27.000000
130.072250 24.000000
131.050600 153.000000
131.056720 66.000000
132.050920 44.000000
132.056440 38.000000
133.003340 47.000000
133.027360 174.000000
133.064870 59.000000
134.015520 27.000000
134.041610 33.000000
135.040890 42.000000
137.019230 34.000000
138.024610 31.000000
138.032100 48.000000
142.111070 41.000000
144.965550 25.000000
145.026030 25.000000
145.034520 27.000000
145.066700 33.000000
146.038890 34.000000
147.045060 134.000000
148.039380 40.000000
148.052540 24.000000
149.013120 42.000000
149.020000 25.000000
149.063230 78.000000
150.027130 165.000000
151.036010 315.000000
152.002500 35.000000
152.010350 112.000000
153.058040 147.000000
155.055220 62.000000
157.029690 28.000000
157.847660 28.000000
158.066190 31.000000
158.209690 30.000000
159.043320 454.000000
159.246840 31.000000
160.004170 42.000000
160.044860 38.000000
160.053210 24.000000
161.044630 25.000000
161.060120 65.000000
162.021040 34.000000
162.031130 102.000000
162.038990 31.000000
162.477810 24.000000
163.035930 123.000000
163.050480 99.000000
164.048580 25.000000
165.018260 58.000000
165.053910 126.000000
166.012830 28.000000
166.030960 120.000000
166.546490 31.000000
167.038790 28.000000
168.040100 28.000000
169.016190 30.000000
169.045560 64.000000
171.046680 34.000000
173.026080 59.000000
173.057340 106.000000
174.029650 62.000000
174.038300 24.000000
175.020280 41.000000
175.031340 66.000000
175.040340 168.000000
176.044590 352.000000
177.011950 221.000000
177.019260 546.000000
177.050990 173.000000
177.058010 126.000000
177.075320 35.000000
177.983200 27.000000
178.019620 82.000000
178.029510 44.000000
178.059590 30.000000
179.030260 375.000000
179.040340 71.000000
179.061050 25.000000
179.438190 27.000000
180.003490 34.000000
180.033550 37.000000
180.042020 27.000000
180.064390 54.000000
181.027540 48.000000
181.050800 1000.000000
182.045210 47.000000
182.060180 24.000000
182.068300 30.000000
183.037610 34.000000
183.052050 71.000000
184.695430 24.000000
185.037730 35.000000
186.031300 133.000000
187.039920 187.000000
187.055590 31.000000
189.045290 31.000000
189.056270 24.000000
190.019820 25.000000
190.033830 28.000000
190.929380 24.000000
191.022460 106.000000
191.033600 306.000000
191.045810 71.000000
191.072590 25.000000
191.653840 35.000000
192.062880 41.000000
192.080990 25.000000
193.004710 30.000000
193.018910 59.000000
193.048580 655.000000
193.055310 212.000000
194.017090 144.000000
195.002560 24.000000
195.018690 83.000000
195.032940 495.000000
195.053100 25.000000
197.030750 34.000000
197.048280 134.000000
198.044330 35.000000
199.035020 171.000000
201.061340 28.000000
202.003050 38.000000
202.020630 25.000000
204.019120 38.000000
205.043850 223.000000
205.054180 332.000000
206.013810 93.000000
206.021470 151.000000
206.048770 62.000000
207.020970 75.000000
207.032390 83.000000
207.059460 28.000000
208.032390 112.000000
209.039630 48.000000
210.043090 30.000000
210.872330 38.000000
211.051540 35.000000
214.037480 25.000000
215.036670 78.000000
216.043660 61.000000
217.016570 28.000000
217.045930 129.000000
218.018940 34.000000
218.057980 38.000000
219.027360 229.000000
219.053790 55.000000
219.065460 124.000000
220.047560 28.000000
221.031950 33.000000
221.048000 209.000000
221.081130 24.000000
222.019360 24.000000
222.038380 25.000000
222.055830 30.000000
223.016430 88.000000
223.027010 144.000000
223.069140 28.000000
225.023590 27.000000
227.018100 35.000000
227.047820 30.000000
228.038530 24.000000
229.048550 88.000000
230.002120 27.000000
230.017470 24.000000
230.024000 68.000000
231.024030 28.000000
231.061260 28.000000
232.042360 28.000000
232.051360 42.000000
233.042130 366.000000
233.087690 30.000000
234.041610 66.000000
234.052030 123.000000
235.053960 31.000000
236.071410 24.000000
243.016690 66.000000
245.024190 28.000000
245.041820 113.000000
246.046950 33.000000
247.064420 66.000000
248.029270 86.000000
249.036360 61.000000
257.043640 28.000000
260.019740 47.000000
261.034940 37.000000
261.052430 25.000000
263.055570 153.000000
264.050630 24.000000
275.042880 24.000000
294.064420 42.000000

>ms2peaks
69.035610 114.000000
69.085320 120.000000
77.040860 571.000000
79.017890 120.000000
79.021650 120.000000
79.057430 98.000000
82.046770 174.000000
89.033490 120.000000
89.042790 130.000000
90.048120 120.000000
92.035050 114.000000
94.039550 147.000000
95.017810 92.000000
95.048460 136.000000
102.050380 223.000000
103.054750 109.000000
105.034380 576.000000
105.070170 92.000000
106.040310 174.000000
107.050710 837.000000
110.040020 109.000000
111.038640 185.000000
111.048410 125.000000
113.038730 152.000000
114.050740 179.000000
117.033090 147.000000
119.008240 98.000000
119.046680 424.000000
120.017650 109.000000
120.053120 163.000000
120.059630 152.000000
122.035050 114.000000
123.049910 147.000000
124.018540 283.000000
125.059450 136.000000
126.064980 92.000000
127.052780 158.000000
127.395870 98.000000
131.047610 516.000000
131.055400 342.000000
132.021380 304.000000
132.055150 136.000000
133.028240 92.000000
134.019000 174.000000
134.039570 370.000000
135.044160 348.000000
136.014430 375.000000
136.027600 98.000000
136.043990 418.000000
137.011810 136.000000
137.021610 348.000000
138.018590 141.000000
138.032710 891.000000
139.027800 109.000000
139.035610 391.000000
146.033280 277.000000
146.038530 114.000000
147.039350 234.000000
147.047870 136.000000
148.003020 98.000000
148.050250 272.000000
148.058550 103.000000
149.021580 125.000000
149.058790 136.000000
150.028500 864.000000
150.036850 277.000000
151.028790 158.000000
151.038150 766.000000
152.011520 288.000000
152.043690 92.000000
153.017120 408.000000
153.052890 179.000000
158.010600 120.000000
160.058490 152.000000
161.057720 92.000000
162.018230 98.000000
162.031460 538.000000
162.039930 114.000000
163.035680 386.000000
163.045430 109.000000
164.038420 152.000000
164.045060 125.000000
165.016110 92.000000
165.058270 109.000000
166.023090 174.000000
171.050320 109.000000
173.017870 109.000000
173.032320 130.000000
176.045030 1000.000000
177.017820 277.000000
177.053530 163.000000
178.013900 92.000000
178.022110 114.000000
179.032270 223.000000
179.996460 120.000000
181.049800 386.000000
186.041810 130.000000
187.041170 228.000000
187.865920 92.000000
191.027650 239.000000
192.037920 158.000000
193.009460 152.000000
194.015660 120.000000
203.033400 109.000000
204.032790 114.000000
204.046770 109.000000
206.012790 103.000000

>ms2peaks
81.035450 32.000000
91.057000 28.000000
93.027930 28.000000
103.038510 81.000000
110.032880 41.000000
115.051280 28.000000
115.061190 31.000000
116.063730 25.000000
119.054890 70.000000
120.014790 28.000000
121.071810 28.000000
122.039670 34.000000
123.045080 25.000000
124.010680 84.000000
131.011120 39.000000
131.037320 27.000000
131.053960 53.000000
131.245960 48.000000
133.027880 185.000000
134.031650 53.000000
134.717030 27.000000
136.013550 28.000000
137.018510 43.000000
138.037480 28.000000
139.033370 24.000000
142.047900 43.000000
146.028950 59.000000
146.039540 31.000000
147.037540 112.000000
150.030900 107.000000
150.039250 45.000000
151.032640 31.000000
151.044800 27.000000
151.999510 38.000000
152.009740 35.000000
152.050340 31.000000
153.055470 73.000000
159.032330 29.000000
159.042210 149.000000
159.048110 121.000000
160.046160 52.000000
162.031800 163.000000
164.035520 36.000000
165.044070 62.000000
165.052700 73.000000
166.057100 31.000000
173.064580 28.000000
175.035400 55.000000
175.043870 34.000000
176.009280 39.000000
176.039670 53.000000
176.045270 116.000000
177.012420 136.000000
177.027790 121.000000
177.058120 58.000000
178.013690 56.000000
178.023590 24.000000
178.065200 25.000000
179.036060 91.000000
180.008060 63.000000
181.038670 72.000000
181.050230 710.000000
182.061900 43.000000
187.010390 28.000000
187.027180 27.000000
187.038960 154.000000
189.055040 38.000000
190.023930 46.000000
190.476410 24.000000
191.016280 24.000000
191.029950 344.000000
191.045990 34.000000
193.035220 31.000000
193.054110 290.000000
194.020190 29.000000
194.054690 48.000000
194.062290 38.000000
194.991840 28.000000
195.027240 81.000000
195.033860 42.000000
196.034850 60.000000
197.043950 87.000000
197.055450 59.000000
198.039950 28.000000
198.053940 28.000000
201.013960 24.000000
202.030880 49.000000
203.025280 28.000000
204.040560 45.000000
205.032610 25.000000
205.050200 195.000000
205.060810 46.000000
206.024770 48.000000
206.049910 67.000000
207.034450 114.000000
207.053530 29.000000
207.065280 25.000000
207.394360 24.000000
208.037600 133.000000
208.072850 31.000000
209.008010 28.000000
209.045760 1000.000000
210.042450 25.000000
210.051610 42.000000
211.025960 34.000000
211.051190 76.000000
215.038280 91.000000
217.039920 69.000000
217.052230 76.000000
219.034410 72.000000
219.058530 160.000000
219.070950 191.000000
219.489240 28.000000
220.036640 28.000000
220.680590 65.000000
221.036480 185.000000
221.051740 230.000000
221.067460 29.000000
221.080460 45.000000
222.044590 34.000000
222.056780 39.000000
223.024060 66.000000
223.056440 31.000000
229.041760 34.000000
229.055760 24.000000
231.024730 83.000000
232.039280 25.000000
233.036580 154.000000
233.046770 380.000000
234.012590 28.000000
234.044190 28.000000
234.053470 24.000000
235.053130 24.000000
235.067580 105.000000
236.035190 29.000000
237.669690 25.000000
244.023440 28.000000
244.455830 25.000000
245.029540 34.000000
245.044880 25.000000
246.045360 42.000000
246.053470 38.000000
247.026020 24.000000
247.045230 24.000000
247.058910 212.000000
247.066380 98.000000
248.032210 28.000000
248.060440 126.000000
249.027500 24.000000
249.048480 79.000000
249.073090 93.000000
251.046520 199.000000
251.057390 627.000000
252.047710 28.000000
252.059230 29.000000
256.053860 32.000000
257.034480 27.000000
257.048980 74.000000
261.007140 25.000000
263.055540 616.000000
263.065460 165.000000
264.057430 25.000000
264.069670 56.000000
274.841860 24.000000
275.055940 588.000000
275.965910 27.000000
276.059230 28.000000
276.075500 25.000000
277.053620 29.000000
281.059840 59.000000
281.073700 122.000000
283.071350 24.000000
293.041930 27.000000
293.059970 311.000000
293.074620 345.000000
294.069270 35.000000
294.079650 24.000000
294.932040 29.000000
295.057800 28.000000
296.065980 28.000000
311.052730 28.000000
311.070800 271.000000
311.087620 132.000000
312.079190 55.000000
313.091280 52.000000
317.308590 25.000000
328.068880 72.000000
329.077910 273.000000
329.092070 575.000000

>ms2peaks
85.029080 7.000000
103.032100 5.000000
166.061220 5.000000
177.018770 6.000000
177.876170 5.000000
180.081510 6.000000
181.056270 7.000000
184.313080 5.000000
191.033430 40.000000
192.974590 6.000000
193.031400 5.000000
195.021550 5.000000
197.042430 19.000000
197.049960 19.000000
200.027570 8.000000
205.045350 6.000000
207.062360 10.000000
208.033570 21.000000
209.044390 255.000000
210.047610 43.000000
211.029850 11.000000
217.049970 12.000000
219.069960 7.000000
220.064220 11.000000
221.021560 6.000000
221.043270 34.000000
221.056610 8.000000
221.082430 6.000000
222.048190 9.000000
222.078980 9.000000
222.633670 6.000000
223.026890 18.000000
225.027180 6.000000
225.043010 20.000000
227.062530 25.000000
230.776400 5.000000
233.039950 16.000000
234.026030 11.000000
234.042630 9.000000
237.045000 10.000000
245.727680 11.000000
246.027970 9.000000
247.063290 77.000000
248.060610 32.000000
248.085570 5.000000
249.043290 16.000000
249.075090 5.000000
250.020450 5.000000
250.044400 6.000000
251.055510 438.000000
252.057450 48.000000
252.065280 20.000000
255.037410 10.000000
255.055340 25.000000
257.038850 10.000000
257.047420 19.000000
259.064700 7.000000
260.030760 6.000000
263.052340 278.000000
263.067690 51.000000
264.015690 7.000000
264.060420 49.000000
264.115480 6.000000
265.043880 7.000000
265.060580 8.000000
265.073150 7.000000
266.071560 5.000000
275.028870 7.000000
275.055150 401.000000
276.041260 22.000000
276.055240 30.000000
281.063930 140.000000
281.074010 39.000000
282.061950 8.000000
282.073550 17.000000
290.093480 6.000000
293.004030 19.000000
293.067930 346.000000
293.189640 6.000000
294.069580 84.000000
294.229340 6.000000
295.065580 10.000000
311.076780 279.000000
311.103420 8.000000
312.077360 37.000000
313.057560 6.000000
313.080350 16.000000
314.074340 6.000000
314.105500 6.000000
328.076810 28.000000
329.031980 5.000000
329.086670 1000.000000

>ms2peaks
69.033530 31.000000
77.024840 45.000000
85.028860 91.000000
87.040960 36.000000
100.691490 26.000000
103.035570 49.000000
103.047900 32.000000
105.034940 29.000000
107.050840 141.000000
111.038670 31.000000
119.046430 74.000000
121.023630 29.000000
121.046330 36.000000
122.034290 45.000000
122.071390 45.000000
127.054830 49.000000
129.069500 43.000000
131.047970 125.000000
131.568240 28.000000
132.051910 93.000000
133.029460 240.000000
134.029510 34.000000
134.041870 34.000000
134.962920 32.000000
138.031690 147.000000
138.804720 32.000000
145.066930 73.000000
146.020080 37.000000
147.040180 57.000000
147.051220 51.000000
149.050030 37.000000
149.064290 28.000000
150.028270 62.000000
150.036990 93.000000
150.065990 34.000000
151.035250 240.000000
151.044010 114.000000
152.006200 56.000000
153.056760 150.000000
154.032460 26.000000
155.051040 46.000000
159.037960 201.000000
159.043850 456.000000
160.046890 257.000000
161.030720 77.000000
161.054090 65.000000
162.030870 155.000000
162.037450 42.000000
162.061810 31.000000
162.582630 60.000000
163.039980 94.000000
164.054200 85.000000
164.112120 54.000000
165.013780 46.000000
165.022960 26.000000
165.051640 139.000000
166.026200 198.000000
167.017460 31.000000
167.034180 187.000000
169.030090 28.000000
171.045210 31.000000
173.030040 26.000000
175.032440 124.000000
176.049390 236.000000
177.009060 79.000000
177.015590 236.000000
177.023130 243.000000
177.059200 360.000000
177.229370 28.000000
178.009800 114.000000
178.030980 100.000000
178.043550 82.000000
178.058400 91.000000
179.032850 485.000000
179.040270 158.000000
179.058070 32.000000
180.004470 164.000000
180.030870 31.000000
180.047320 26.000000
180.863950 51.000000
180.957200 26.000000
181.009540 29.000000
181.050420 1000.000000
181.070070 29.000000
182.024060 39.000000
182.056490 28.000000
183.063260 31.000000
185.032300 34.000000
186.034840 48.000000
187.018970 26.000000
187.030330 26.000000
187.041900 229.000000
189.046220 39.000000
189.056080 26.000000
190.016860 32.000000
190.026890 100.000000
190.045840 28.000000
190.072480 28.000000
191.008190 43.000000
191.033160 264.000000
191.040340 269.000000
191.070740 102.000000
192.041780 66.000000
192.219830 36.000000
193.030490 60.000000
193.051250 498.000000
194.022340 108.000000
194.042040 45.000000
194.060640 36.000000
195.028020 476.000000
195.037670 79.000000
197.036870 107.000000
197.045650 145.000000
198.053500 43.000000
201.017930 43.000000
201.053770 93.000000
202.015340 43.000000
202.032580 60.000000
203.036130 99.000000
204.037190 26.000000
204.047850 142.000000
204.998000 45.000000
205.049970 362.000000
206.015230 45.000000
206.024310 60.000000
206.056030 42.000000
206.065160 39.000000
207.032500 108.000000
207.055440 62.000000
207.067870 42.000000
208.022550 57.000000
208.032900 104.000000
209.009260 36.000000
209.036590 26.000000
209.051270 136.000000
211.032500 63.000000
215.029360 42.000000
215.038760 49.000000
217.016430 34.000000
217.034480 32.000000
217.053570 77.000000
217.063050 42.000000
218.015700 31.000000
219.016600 31.000000
219.021390 83.000000
219.038010 26.000000
219.064440 235.000000
219.077440 31.000000
219.086590 26.000000
220.004440 51.000000
220.038890 65.000000
220.983430 36.000000
221.042510 396.000000
222.055690 31.000000
223.020100 139.000000
223.051570 28.000000
224.025710 110.000000
224.265720 54.000000
225.037920 56.000000
227.038270 40.000000
228.042370 28.000000
229.043720 32.000000
230.017240 93.000000
231.022780 39.000000
232.043410 65.000000
233.042470 343.000000
234.031940 37.000000
234.050690 37.000000
235.035570 28.000000
235.066020 31.000000
236.066410 31.000000
242.021730 74.000000
245.046720 218.000000
246.034260 31.000000
246.047520 28.000000
247.064500 114.000000
249.045670 31.000000
251.058290 37.000000
258.039700 37.000000
260.028320 79.000000
262.042360 43.000000
263.050660 96.000000
263.066190 32.000000
264.057130 32.000000
274.042600 53.000000
275.045560 40.000000

>ms2peaks
65.038670 230.000000
67.022680 69.000000
67.051050 65.000000
75.021820 82.000000
76.033730 134.000000
77.036030 69.000000
77.041260 86.000000
78.046490 192.000000
81.033760 168.000000
89.044460 62.000000
90.048160 72.000000
91.056220 165.000000
92.022960 151.000000
92.030050 247.000000
92.078950 69.000000
102.050650 96.000000
102.860420 86.000000
103.054660 543.000000
105.030080 120.000000
105.036420 127.000000
106.039290 134.000000
106.050960 203.000000
107.047650 89.000000
108.022830 131.000000
109.031210 113.000000
110.029010 93.000000
110.035540 103.000000
113.043550 69.000000
115.048990 58.000000
115.055320 179.000000
116.028020 96.000000
117.028320 86.000000
118.044520 282.000000
119.011910 69.000000
119.052160 306.000000
120.054440 165.000000
121.020490 58.000000
121.027160 168.000000
121.058920 58.000000
122.031130 65.000000
123.048230 103.000000
124.005730 58.000000
124.017010 265.000000
127.054750 69.000000
128.026550 69.000000
128.058580 62.000000
129.034940 182.000000
130.035540 175.000000
130.041310 220.000000
131.048110 347.000000
133.032320 72.000000
134.028530 69.000000
134.035630 79.000000
135.041760 72.000000
136.016200 522.000000
136.053850 189.000000
137.026140 86.000000
137.058750 93.000000
138.030960 1000.000000
145.024920 141.000000
146.029250 62.000000
148.046720 110.000000
149.020950 151.000000
149.061250 96.000000
150.027080 206.000000
150.039600 196.000000
150.832600 62.000000
151.032150 113.000000
151.042770 423.000000
152.012210 69.000000
153.013470 182.000000
153.021940 354.000000
154.025560 131.000000
157.031800 79.000000
158.036010 69.000000
159.042370 100.000000
159.999920 148.000000
160.052050 76.000000
162.027730 144.000000
162.036470 69.000000
163.034740 65.000000
163.054780 62.000000
164.002820 72.000000
166.016360 76.000000
166.042100 62.000000
166.389630 69.000000
173.025390 86.000000
175.030410 137.000000
175.048200 62.000000
176.003490 89.000000
176.038390 206.000000
177.016390 151.000000
178.022020 113.000000
178.030500 79.000000
181.045850 86.000000
183.989490 62.000000
186.028370 62.000000
191.035450 227.000000
200.012700 76.000000
205.005130 82.000000
206.014910 79.000000
206.030320 58.000000
208.030430 100.000000
219.030750 69.000000
230.014620 137.000000
230.030060 69.000000

>ms2peaks
57.035610 43.000000
73.027160 32.000000
79.055880 29.000000
91.049770 33.000000
94.039640 41.000000
103.030980 48.000000
103.035540 27.000000
103.044320 43.000000
103.058200 40.000000
119.049610 32.000000
120.994480 43.000000
127.050640 33.000000
131.046620 105.000000
131.056290 37.000000
132.021910 59.000000
133.026400 88.000000
135.040410 30.000000
136.017440 32.000000
136.050030 29.000000
136.263180 53.000000
137.025540 97.000000
138.025210 91.000000
139.041020 32.000000
144.058320 38.000000
147.044300 244.000000
150.029080 83.000000
150.036380 43.000000
151.034990 37.000000
151.042300 65.000000
152.873930 30.000000
153.045780 27.000000
156.060940 49.000000
158.032580 29.000000
158.040010 32.000000
159.041110 35.000000
159.050570 201.000000
160.047790 30.000000
160.054840 43.000000
161.060440 62.000000
162.019060 40.000000
162.033100 94.000000
166.031360 32.000000
166.056720 29.000000
167.076160 33.000000
170.477110 27.000000
171.038510 48.000000
173.019330 32.000000
173.056210 43.000000
173.234570 61.000000
175.036830 40.000000
176.040500 68.000000
176.048840 121.000000
176.055070 40.000000
177.003720 180.000000
177.018420 115.000000
177.060320 81.000000
178.015530 38.000000
178.025450 102.000000
178.034560 33.000000
178.048140 33.000000
179.034260 54.000000
179.042680 107.000000
180.004580 140.000000
180.036100 27.000000
181.045620 266.000000
181.051670 594.000000
182.021240 27.000000
182.046140 32.000000
182.060590 67.000000
184.189350 27.000000
187.040040 110.000000
187.702790 35.000000
188.040080 45.000000
188.047130 30.000000
189.015340 38.000000
189.047820 143.000000
189.057130 46.000000
190.028720 38.000000
191.030930 154.000000
191.039260 182.000000
191.063080 41.000000
192.037110 61.000000
192.046130 91.000000
192.059420 38.000000
193.013470 29.000000
193.029050 43.000000
193.042680 156.000000
193.052490 84.000000
194.020320 32.000000
195.026660 303.000000
197.041760 457.000000
198.037370 27.000000
199.029300 45.000000
199.040590 72.000000
199.052860 29.000000
202.065190 29.000000
203.044770 45.000000
204.032650 73.000000
204.040360 145.000000
204.048810 33.000000
205.019000 38.000000
205.043850 244.000000
205.062910 56.000000
206.006060 33.000000
206.020400 172.000000
206.043760 48.000000
207.026750 100.000000
207.055980 27.000000
207.069870 29.000000
208.039000 260.000000
209.035680 118.000000
209.044430 473.000000
210.037600 33.000000
210.045360 59.000000
210.054260 54.000000
211.035580 32.000000
215.008180 33.000000
215.028270 33.000000
216.035580 94.000000
219.007290 38.000000
219.026720 80.000000
219.061900 189.000000
220.064640 68.000000
221.046780 406.000000
222.049130 27.000000
223.017530 48.000000
223.028550 89.000000
223.056580 27.000000
223.065930 27.000000
225.029070 30.000000
228.053910 61.000000
229.059010 27.000000
232.029510 27.000000
232.038760 45.000000
233.047520 460.000000
234.046010 102.000000
235.033570 54.000000
235.056960 62.000000
239.859150 27.000000
245.045140 132.000000
247.055890 247.000000
247.068250 57.000000
248.169330 27.000000
249.039930 134.000000
251.049930 562.000000
251.063840 264.000000
252.060320 29.000000
253.060850 83.000000
257.028290 27.000000
257.041900 32.000000
263.055020 1000.000000
264.056980 134.000000
264.956450 29.000000
265.062100 33.000000
275.053890 554.000000
276.054470 33.000000
276.063960 48.000000
281.063660 132.000000
282.072140 65.000000
282.483120 27.000000
293.051360 72.000000
293.068120 626.000000
293.247280 32.000000
294.068850 68.000000
311.072140 396.000000
312.082820 33.000000
329.069370 111.000000
329.084870 654.000000

>ms2peaks
103.032820 7.000000
153.712340 8.000000
171.037980 6.000000
179.302640 6.000000
181.043660 6.000000
181.053180 13.000000
182.062710 7.000000
189.049130 6.000000
191.024770 5.000000
191.037250 30.000000
192.030520 7.000000
193.044680 13.000000
194.228230 6.000000
197.050750 16.000000
208.035690 58.000000
208.900090 8.000000
209.040700 111.000000
209.051820 71.000000
210.042800 20.000000
212.048140 10.000000
219.025450 8.000000
221.036760 8.000000
221.045240 8.000000
222.030590 6.000000
222.040210 5.000000
223.053530 8.000000
224.927580 11.000000
225.037950 7.000000
225.046250 7.000000
227.056380 5.000000
228.233760 8.000000
230.992800 13.000000
231.071810 6.000000
232.057190 11.000000
233.017350 8.000000
233.043490 59.000000
233.055830 8.000000
234.044130 7.000000
235.063050 15.000000
247.060320 41.000000
247.069380 50.000000
248.066210 7.000000
249.041060 12.000000
249.079180 12.000000
250.055220 5.000000
251.053710 377.000000
252.023420 8.000000
252.059160 43.000000
253.056200 6.000000
263.056550 235.000000
264.055390 52.000000
265.072970 25.000000
265.195650 6.000000
275.056340 375.000000
276.048890 20.000000
276.063960 51.000000
281.064540 160.000000
282.070040 27.000000
283.079830 15.000000
289.248810 13.000000
293.065190 409.000000
294.064640 28.000000
295.074490 6.000000
311.043400 6.000000
311.071750 171.000000
311.085970 147.000000
312.081910 23.000000
313.079040 20.000000
327.805910 5.000000
328.076110 14.000000
328.096860 15.000000
329.046540 10.000000
329.087800 1000.000000

>ms2peaks
55.019930 24.000000
68.996630 27.000000
77.041780 21.000000
78.036910 20.000000
85.028720 50.000000
91.053870 44.000000
93.037570 29.000000
103.040370 38.000000
103.051660 23.000000
105.034230 44.000000
107.049000 27.000000
108.049410 30.000000
115.055940 25.000000
117.033880 21.000000
117.040030 21.000000
118.076450 30.000000
119.049170 24.000000
121.030400 46.000000
121.070400 20.000000
125.056340 48.000000
127.053160 56.000000
131.041820 51.000000
131.050050 66.000000
133.021440 24.000000
133.031660 124.000000
134.028350 21.000000
134.038710 68.000000
135.043500 24.000000
137.024490 24.000000
138.028370 106.000000
138.037640 35.000000
140.044400 24.000000
145.069900 26.000000
147.044710 170.000000
148.005020 25.000000
149.017970 52.000000
150.033870 225.000000
151.026920 24.000000
151.038850 250.000000
152.010450 24.000000
152.036970 43.000000
153.038350 25.000000
153.051210 104.000000
154.015810 21.000000
156.749650 31.000000
157.029800 74.000000
158.032640 25.000000
159.041810 431.000000
160.044170 62.000000
161.028900 50.000000
161.062740 61.000000
162.023500 50.000000
162.032750 49.000000
162.066960 21.000000
163.030350 51.000000
163.041260 26.000000
163.051330 33.000000
165.016920 36.000000
165.055500 111.000000
166.017270 33.000000
166.027010 98.000000
167.068340 37.000000
168.074230 27.000000
169.235430 21.000000
171.568100 20.000000
172.017410 24.000000
172.058900 25.000000
173.053680 33.000000
174.027660 24.000000
174.039380 21.000000
175.036130 164.000000
176.033840 20.000000
176.045870 205.000000
177.018970 520.000000
177.057300 256.000000
177.071240 24.000000
177.769200 27.000000
178.026080 293.000000
178.057070 129.000000
178.829620 24.000000
179.032320 398.000000
179.054530 21.000000
180.004200 117.000000
180.010090 57.000000
180.036150 32.000000
181.050540 1000.000000
181.066540 46.000000
181.860440 20.000000
182.047100 116.000000
182.060940 30.000000
186.008590 21.000000
187.030910 86.000000
187.042010 173.000000
188.040990 81.000000
188.052190 39.000000
189.049530 43.000000
190.018950 55.000000
191.032560 311.000000
191.042560 116.000000
191.072110 72.000000
192.035680 50.000000
192.046740 20.000000
193.007280 87.000000
193.018740 30.000000
193.048600 389.000000
193.055830 106.000000
194.013180 21.000000
194.022370 46.000000
194.031430 24.000000
195.029450 544.000000
195.067410 24.000000
196.002720 24.000000
196.526200 24.000000
197.034010 45.000000
197.047240 139.000000
199.040180 105.000000
199.054240 29.000000
200.042540 52.000000
201.054340 45.000000
202.028380 72.000000
202.076980 20.000000
203.031940 82.000000
203.042540 50.000000
204.034180 85.000000
204.044850 58.000000
204.051060 20.000000
204.840680 30.000000
205.028310 25.000000
205.037400 93.000000
205.047560 319.000000
205.060240 129.000000
205.283620 24.000000
206.023030 229.000000
206.046360 20.000000
206.057010 89.000000
206.999040 24.000000
207.021300 24.000000
207.048460 39.000000
207.072940 29.000000
208.030700 24.000000
209.046010 75.000000
211.021760 51.000000
214.039080 26.000000
214.550580 36.000000
215.042510 26.000000
215.932280 54.000000
216.041140 26.000000
217.042770 20.000000
218.017680 30.000000
218.029600 25.000000
219.022000 26.000000
219.035430 58.000000
219.063660 130.000000
220.039840 75.000000
221.024960 77.000000
221.041150 132.000000
221.049880 178.000000
222.054630 26.000000
223.006180 25.000000
223.037750 24.000000
223.051120 67.000000
227.033800 52.000000
229.052930 163.000000
230.019410 20.000000
230.059750 20.000000
231.019670 20.000000
231.029080 44.000000
232.037110 91.000000
232.048110 32.000000
233.045240 163.000000
235.057910 21.000000
235.074400 20.000000
236.034640 32.000000
237.036450 20.000000
238.045620 58.000000
243.043210 21.000000
245.045270 123.000000
245.051590 49.000000
246.045030 86.000000
247.047640 27.000000
247.055400 29.000000
249.059100 20.000000
250.053880 21.000000
252.051940 26.000000
257.045320 29.000000
263.054170 49.000000
263.066890 21.000000
264.070920 24.000000
275.061250 24.000000

>ms2peaks
65.034840 101.000000
76.036430 92.000000
77.005410 84.000000
77.037940 290.000000
78.043450 143.000000
78.049360 155.000000
79.017690 97.000000
79.038740 168.000000
81.031200 97.000000
89.037350 84.000000
91.017520 172.000000
91.047970 286.000000
91.056770 307.000000
93.031480 164.000000
94.040270 113.000000
95.012030 113.000000
101.027870 71.000000
102.047260 353.000000
103.052540 475.000000
103.058860 130.000000
104.022270 126.000000
105.036220 155.000000
105.042620 143.000000
106.033330 76.000000
108.014020 122.000000
110.022880 76.000000
110.033870 412.000000
113.034720 92.000000
115.053420 239.000000
116.026070 88.000000
116.052640 84.000000
116.843570 88.000000
117.033350 97.000000
118.038480 134.000000
118.043040 235.000000
118.779250 76.000000
119.048540 218.000000
120.016510 97.000000
120.050390 76.000000
120.059310 76.000000
121.024670 84.000000
121.394230 118.000000
122.035120 168.000000
123.007060 71.000000
123.043630 105.000000
124.006480 109.000000
124.015770 374.000000
124.040620 105.000000
125.052880 202.000000
125.061870 172.000000
128.057480 84.000000
130.036970 92.000000
130.042920 84.000000
131.001360 92.000000
131.048710 609.000000
132.017210 80.000000
132.022430 92.000000
133.030550 164.000000
133.056660 97.000000
134.035710 97.000000
135.038830 197.000000
136.008830 71.000000
137.017640 71.000000
137.062130 151.000000
138.031300 206.000000
139.032170 71.000000
139.041440 286.000000
139.602340 71.000000
143.048720 97.000000
146.038040 84.000000
147.045850 97.000000
148.032790 172.000000
149.019130 197.000000
150.022990 206.000000
150.033070 685.000000
151.032930 1000.000000
151.041930 231.000000
152.038240 92.000000
152.044570 84.000000
153.013870 88.000000
153.019850 92.000000
153.028990 80.000000
154.020830 105.000000
154.027440 71.000000
158.036070 84.000000
159.040560 88.000000
159.048250 88.000000
160.040250 118.000000
162.032090 193.000000
163.035570 403.000000
163.043850 235.000000
165.057500 80.000000
166.013990 265.000000
166.022350 155.000000
167.028810 185.000000
168.028530 97.000000
173.022540 80.000000
176.043400 101.000000
177.007220 80.000000
177.025760 97.000000
177.052400 231.000000
178.021960 130.000000
179.031050 113.000000
180.006550 181.000000
180.022750 118.000000
182.052090 109.000000
189.056290 84.000000
190.997070 139.000000
192.032100 134.000000
194.027010 223.000000
195.032790 118.000000
203.004030 71.000000
218.012590 101.000000
230.047870 71.000000
232.044100 76.000000
237.765080 105.000000

