>compound PR90782738
>parentmass 757.218021476923
>ionization [M]+
>formula C33H41O20+
>rt 164.955692
>profile qtof
#smiles_iso CC1C(C(C(C(O1)OCC2C(C(C(C(O2)OC3=CC4=C(C=C(C=C4[O+]=C3C5=CC(=C(C=C5)O)O)O)O)OC6C(C(C(C(O6)CO)O)O)O)O)O)O)O)O
#smiles_can CC1C(C(C(C(O1)OCC2C(C(C(C(O2)OC3=CC4=C(C=C(C=C4[O+]=C3C5=CC(=C(C=C5)O)O)O)O)OC6C(C(C(C(O6)CO)O)O)O)O)O)O)O)O
#inchikey MSUVUDCULKNUJL-UHFFFAOYSA-O
#pubchem_id 56671053
#mb_accession PR303779,PR303781,PR303783,PR303785,PR303787,PR303789,PR303791,PR303793,PR303795,PR303797,PR303799,PR303801,PR310534

>ms2peaks
286.986660 7.000000
287.055940 919.000000
288.060880 187.000000
289.052800 8.000000
289.065610 10.000000
611.163330 8.000000
612.160400 5.000000
757.153140 11.000000
757.221620 1000.000000

>ms2peaks
757.146360 11.000000
757.221310 1000.000000
757.276980 6.000000

>ms2peaks
287.055480 1000.000000
288.058500 167.000000
289.059420 20.000000
611.157530 18.000000
611.178890 6.000000
757.211000 52.000000
757.239560 27.000000

>ms2peaks
287.055300 1000.000000
288.060060 167.000000
289.060090 37.000000

>ms2peaks
287.056640 1000.000000
287.102720 5.000000
288.049930 54.000000
288.059720 133.000000
289.065460 28.000000
433.120210 5.000000
611.169130 13.000000
757.130370 9.000000
757.221800 824.000000

>ms2peaks
757.107180 6.000000
757.155880 6.000000
757.221250 1000.000000
757.293270 7.000000

>ms2peaks
287.054630 1000.000000
288.058410 157.000000
289.052280 10.000000
289.065730 15.000000
611.156860 10.000000
757.195740 17.000000
757.226070 61.000000

>ms2peaks
287.016450 6.000000
287.054600 1000.000000
288.058040 171.000000
289.052490 10.000000
289.061770 22.000000

>ms2peaks
287.007780 6.000000
287.055910 962.000000
288.059230 174.000000
289.062230 25.000000
611.150760 16.000000
611.171200 9.000000
612.177860 8.000000
757.153930 7.000000
757.223140 1000.000000

>ms2peaks
757.153630 13.000000
757.217220 1000.000000

>ms2peaks
287.056580 1000.000000
288.035060 6.000000
288.060210 185.000000
289.058620 28.000000
289.077210 5.000000
611.165770 13.000000
612.162480 6.000000
757.223080 118.000000

>ms2peaks
85.026770 7.000000
287.010310 8.000000
287.055420 1000.000000
288.059810 185.000000
289.054350 12.000000
289.065920 11.000000

>ms2peaks
84.546330 17.000000
157.252080 20.000000
167.041350 20.000000
170.798170 19.000000
185.745480 20.000000
203.083400 19.000000
211.566100 33.000000
236.993640 27.000000
244.090440 20.000000
273.103210 20.000000
286.056340 17.000000
286.986660 92.000000
287.022130 41.000000
287.055940 12627.000000
287.090640 50.000000
288.060880 2576.000000
289.019260 22.000000
289.052800 109.000000
289.065610 131.000000
289.433810 17.000000
289.659820 17.000000
290.091640 17.000000
299.341250 17.000000
326.776490 36.000000
335.672060 23.000000
370.061890 30.000000
375.707730 24.000000
377.238400 28.000000
387.599460 18.000000
400.463290 21.000000
405.364410 24.000000
411.319180 17.000000
414.885130 36.000000
420.349060 21.000000
433.114140 37.000000
436.647640 23.000000
445.345030 19.000000
447.238680 34.000000
448.950070 27.000000
449.122410 23.000000
450.099550 17.000000
451.072420 17.000000
451.830230 22.000000
454.931700 20.000000
456.552460 25.000000
460.862000 20.000000
467.089780 34.000000
486.390930 22.000000
488.933810 18.000000
519.508420 24.000000
530.390140 19.000000
539.148680 25.000000
545.529300 20.000000
547.086610 26.000000
569.493350 22.000000
605.260380 23.000000
611.148250 35.000000
611.163330 105.000000
611.181340 25.000000
612.160400 72.000000
735.112670 17.000000
755.235410 33.000000
757.119020 43.000000
757.153140 153.000000
757.221620 13747.000000
757.296450 35.000000
757.388240 17.000000

