>compound PR90520034
>parentmass 312.0502632307693
>ionization [M+H]+
>formula C16H9NO6
>rt 453.091385
>profile qtof
#smiles_iso C1OC2=C(O1)C3=C(C(=C2)C(=O)O)C(=CC4=CC=CC=C43)[N+](=O)[O-]
#smiles_can C1OC2=C(O1)C3=C(C(=C2)C(=O)O)C(=CC4=CC=CC=C43)[N+](=O)[O-]
#inchikey MEEXETVZNQYRSP-UHFFFAOYSA-N
#pubchem_id 108168
#mb_accession PR300984,PR300988,PR300992,PR300996,PR301000,PR301004,PR301008,PR301012,PR301016,PR301020,PR301024,PR301028,PR310431

>ms2peaks
152.049700 1000.000000
155.061660 333.000000
155.071950 349.000000
166.581220 270.000000
180.040150 476.000000
183.042760 286.000000
208.046450 619.000000
220.034070 286.000000
236.019820 333.000000
251.035860 270.000000
265.050350 333.000000
312.050200 270.000000

>ms2peaks
210.050020 118.000000
265.049930 101.000000
266.021120 101.000000
266.045070 175.000000
266.056460 92.000000
266.209320 105.000000
267.036380 75.000000
268.057310 83.000000
268.070430 88.000000
269.050600 105.000000
269.065550 92.000000
284.061890 114.000000
284.074770 145.000000
294.038850 92.000000
295.039370 132.000000
311.053530 167.000000
311.945860 92.000000
312.046940 1000.000000
312.064540 92.000000

>ms2peaks
127.052860 315.000000
128.021760 630.000000
152.063720 315.000000
153.064610 315.000000
165.028850 315.000000
168.047040 426.000000
179.057770 389.000000
180.300170 444.000000
180.756500 315.000000
181.059220 611.000000
182.059340 500.000000
182.977160 333.000000
183.118450 389.000000
208.047530 1000.000000
209.069270 944.000000
237.044770 426.000000
238.051640 352.000000
251.037370 444.000000
266.067230 352.000000

>ms2peaks
101.045510 467.000000
128.167850 467.000000
151.052050 1000.000000
152.060010 978.000000
153.048860 400.000000
155.045140 400.000000
163.054630 400.000000
165.057660 378.000000

>ms2peaks
152.045500 1000.000000
153.032350 465.000000
209.072020 395.000000
224.050660 628.000000
236.032290 442.000000
265.061250 419.000000
266.037510 419.000000
267.018550 628.000000
267.037510 512.000000
268.067170 395.000000
269.041320 465.000000
270.070920 395.000000
284.055050 651.000000
312.043000 581.000000

>ms2peaks
210.055820 47.000000
236.048870 61.000000
237.027570 52.000000
238.039830 47.000000
239.051030 47.000000
265.049410 96.000000
265.062990 110.000000
266.044680 52.000000
267.061250 50.000000
268.071320 47.000000
284.028350 61.000000
284.065890 74.000000
285.048550 69.000000
294.050570 52.000000
312.015140 94.000000
312.047760 1000.000000
312.069270 99.000000

>ms2peaks
85.064850 367.000000
140.069260 533.000000
141.058790 333.000000
152.052760 317.000000
152.062930 333.000000
168.052720 333.000000
180.039990 1000.000000
182.052980 300.000000
191.044050 283.000000
192.054780 367.000000
196.048450 283.000000
208.049530 433.000000
220.033290 317.000000
221.039520 333.000000
265.055150 333.000000

>ms2peaks
126.065220 266.000000
139.048130 1000.000000
150.041700 297.000000
152.053450 266.000000
164.050930 453.000000
164.062730 703.000000
180.046300 281.000000

>ms2peaks
154.069580 256.000000
180.045640 218.000000
182.066280 500.000000
221.055070 256.000000
256.058720 333.000000
265.030880 218.000000
265.049220 308.000000
265.065860 256.000000
266.044620 346.000000
267.056700 218.000000
294.028900 269.000000
312.053310 1000.000000

>ms2peaks
237.040470 156.000000
237.064590 109.000000
238.052570 81.000000
265.054690 85.000000
266.043950 85.000000
266.058320 81.000000
284.062650 90.000000
310.041530 100.000000
311.036990 90.000000
312.048770 1000.000000
312.058010 536.000000

>ms2peaks
115.052620 288.000000
130.273040 260.000000
139.057010 329.000000
140.066390 356.000000
152.047120 301.000000
152.053860 247.000000
154.067080 315.000000
167.042500 342.000000
180.046910 603.000000
181.057360 315.000000
182.062270 274.000000
183.021070 247.000000
211.053680 274.000000
213.193120 329.000000
221.045260 260.000000
221.056930 1000.000000
222.058380 493.000000
236.036470 301.000000
239.042920 274.000000
251.030550 575.000000
251.047590 329.000000
253.053680 288.000000
265.046570 370.000000

>ms2peaks
128.046330 750.000000
139.055080 1000.000000
154.075930 425.000000
178.075210 475.000000

>ms2peaks
152.049700 63.000000
155.061660 21.000000
155.071950 22.000000
166.581220 17.000000
180.040150 30.000000
183.042760 18.000000
208.046450 39.000000
220.034070 18.000000
236.019820 21.000000
251.035860 17.000000
265.050350 21.000000
312.050200 17.000000

