>compound PR91514680
>parentmass 781.4732686999997
>ionization [M+H]+
>formula C42H68O13
>rt 426.048000
>profile qtof
#smiles_iso C[C@@H]1[C@@H]([C@@H]([C@H]([C@@H](O1)O[C@H]2CC[C@]3([C@H]([C@]2(C)CO)CC[C@@]4([C@@H]3C=CC5=C6CC(CC[C@@]6([C@@H](C[C@]54C)O)CO)(C)C)C)C)O)O[C@H]7[C@@H]([C@H]([C@@H]([C@H](O7)CO)O)O)O)O
#smiles_can CC1C(C(C(C(O1)OC2CCC3(C(C2(C)CO)CCC4(C3C=CC5=C6CC(CCC6(C(CC54C)O)CO)(C)C)C)C)O)OC7C(C(C(C(O7)CO)O)O)O)O
#inchikey WRYJYFCCMSVEPQ-ORAXXRKOSA-N
#pubchem_id 21637642
#mb_accession PR303842,PR303846,PR303850,PR303854,PR303858,PR303862,PR303866,PR303870,PR303874,PR303878,PR303882,PR303886

>ms2peaks
123.110710 23.000000
139.116240 26.000000
143.087860 28.000000
145.037310 24.000000
147.066010 23.000000
149.130260 23.000000
150.138030 44.000000
157.103360 26.000000
163.063340 27.000000
177.158870 27.000000
187.159970 30.000000
193.161830 57.000000
199.057950 32.000000
199.147540 34.000000
201.166720 23.000000
205.152250 27.000000
205.168370 23.000000
206.152150 24.000000
206.169200 26.000000
209.079150 23.000000
209.130840 35.000000
219.172640 30.000000
223.175610 27.000000
225.162770 26.000000
227.170240 24.000000
233.190660 27.000000
241.196430 85.000000
243.176100 27.000000
257.178160 31.000000
257.194550 27.000000
266.201870 28.000000
267.214320 27.000000
270.228640 34.000000
271.206510 23.000000
271.233400 27.000000
285.232570 24.000000
293.233000 27.000000
318.824100 36.000000
337.272220 23.000000
361.303440 24.000000
388.318940 23.000000
398.318730 27.000000
400.383180 23.000000
401.329680 23.000000
407.342590 100.000000
408.312130 28.000000
408.332860 23.000000
419.314270 30.000000
419.343410 32.000000
420.315120 24.000000
421.348820 28.000000
425.321690 66.000000
437.308500 24.000000
437.331050 187.000000
437.353640 173.000000
438.332460 57.000000
440.350980 50.000000
443.359410 27.000000
455.302090 31.000000
455.318540 88.000000
455.350370 1000.000000
456.294800 31.000000
456.355830 462.000000
503.354740 30.000000
583.374270 47.000000
601.392580 69.000000
602.411380 31.000000
603.406130 23.000000
618.417360 23.000000
619.430730 50.000000
620.412170 24.000000
745.472840 59.000000
763.445920 24.000000
763.468690 24.000000
763.498540 27.000000
764.418950 24.000000
764.445130 74.000000
764.472230 24.000000
765.390260 27.000000
780.471250 49.000000
781.455810 47.000000
781.501650 49.000000

>ms2peaks
175.154560 38.000000
325.260590 42.000000
402.327180 51.000000
419.343540 38.000000
420.344450 55.000000
425.329620 61.000000
437.309330 40.000000
437.327480 34.000000
437.345700 38.000000
437.368070 66.000000
439.351650 40.000000
454.951050 47.000000
455.352970 915.000000
455.408750 40.000000
456.318540 42.000000
456.349210 326.000000
456.371030 32.000000
473.268740 82.000000
473.360440 38.000000
473.377350 34.000000
474.371890 32.000000
475.374760 42.000000
523.309570 32.000000
583.393800 65.000000
584.416260 34.000000
601.394230 146.000000
601.420170 125.000000
602.357120 32.000000
602.442380 32.000000
617.416140 32.000000
617.949950 32.000000
619.396730 32.000000
619.425110 281.000000
619.475710 34.000000
619.630980 34.000000
619.892150 46.000000
621.416200 66.000000
750.452700 42.000000
763.450560 480.000000
763.476810 250.000000
763.498960 76.000000
764.484860 36.000000
780.477600 32.000000
781.474790 1000.000000

>ms2peaks
75.044930 34.000000
83.054370 42.000000
85.030420 60.000000
111.042430 40.000000
112.052330 52.000000
145.050400 78.000000
149.071950 40.000000
149.134090 46.000000
163.056560 50.000000
163.154190 42.000000
165.116230 36.000000
177.158940 58.000000
189.164370 78.000000
199.144150 40.000000
203.178250 34.000000
205.154880 144.000000
207.162750 44.000000
208.185760 42.000000
217.066730 36.000000
217.158770 36.000000
227.183120 50.000000
229.155170 62.000000
231.169070 36.000000
234.184940 34.000000
245.196530 34.000000
259.209720 52.000000
271.205320 216.000000
276.636200 42.000000
283.196260 40.000000
288.190400 34.000000
291.220060 74.000000
292.221410 50.000000
303.214690 34.000000
309.201600 44.000000
309.222050 36.000000
311.263090 34.000000
325.240200 34.000000
327.267150 50.000000
333.256560 40.000000
349.278410 90.000000
350.308350 36.000000
389.312070 56.000000
389.325560 132.000000
390.325470 36.000000
391.325870 38.000000
398.318940 34.000000
401.326540 34.000000
407.330110 72.000000
408.339970 74.000000
419.327730 276.000000
420.346620 34.000000
421.349210 50.000000
425.349520 34.000000
426.316740 34.000000
437.327270 132.000000
437.344180 492.000000
438.348450 364.000000
439.267000 36.000000
445.195590 70.000000
455.348850 1000.000000
455.377380 140.000000
456.350400 342.000000
617.411440 44.000000
734.443120 44.000000
745.447390 38.000000

>ms2peaks
83.037960 342.000000
85.023060 633.000000
85.030780 620.000000
95.068730 291.000000
97.035130 266.000000
105.073410 342.000000
106.072460 329.000000
107.084640 253.000000
109.065150 342.000000
109.103490 354.000000
109.887280 228.000000
111.079060 380.000000
123.113980 241.000000
139.113450 608.000000
149.130110 1000.000000
149.138820 785.000000
157.968000 266.000000
161.139040 253.000000
163.056790 367.000000
165.068530 228.000000
165.122160 709.000000
169.108470 443.000000
174.129240 494.000000
177.158580 253.000000
178.167500 354.000000
183.121050 215.000000
187.144410 671.000000
187.156720 253.000000
193.108630 215.000000
195.118650 266.000000
199.146560 291.000000
200.156370 291.000000
201.166780 228.000000
202.137590 291.000000
202.161420 215.000000
213.165100 253.000000
214.179530 266.000000
216.188020 253.000000
217.192980 228.000000
219.165820 456.000000
221.187520 342.000000
222.186000 215.000000
223.147310 570.000000
225.170840 418.000000
227.167300 215.000000
227.173070 456.000000
233.195050 443.000000
241.192200 582.000000
243.172560 494.000000
243.213610 266.000000
253.187810 266.000000
253.211960 253.000000
257.188810 253.000000
265.207520 266.000000
267.202480 228.000000
267.220790 228.000000
271.200320 304.000000
273.219420 304.000000
279.211240 329.000000
280.210820 215.000000
284.219120 253.000000
297.211430 215.000000
297.221860 266.000000
310.223020 291.000000
311.225520 228.000000
319.226680 215.000000
319.236660 291.000000
321.258540 215.000000
350.292360 228.000000
351.304990 241.000000
360.292450 253.000000
397.302400 253.000000
401.317720 215.000000
407.337460 215.000000
419.309840 443.000000
419.323850 241.000000
420.345340 253.000000
437.332890 291.000000
437.357420 468.000000

>ms2peaks
140.568440 30.000000
145.054760 40.000000
146.047780 39.000000
146.055190 30.000000
157.096270 33.000000
163.058030 28.000000
163.068390 30.000000
165.120320 31.000000
173.133290 54.000000
175.142440 31.000000
177.122470 25.000000
187.151610 25.000000
189.125170 30.000000
193.159420 37.000000
205.148930 81.000000
205.165600 61.000000
214.181880 31.000000
228.176330 28.000000
230.562230 30.000000
231.178240 25.000000
233.198940 25.000000
241.165390 25.000000
243.215820 34.000000
252.156130 25.000000
253.167560 25.000000
268.217320 36.000000
271.202580 34.000000
272.205050 25.000000
273.102050 30.000000
277.189000 45.000000
285.123170 30.000000
286.217100 31.000000
301.221710 30.000000
303.220890 30.000000
309.121550 25.000000
316.245330 27.000000
325.253110 31.000000
347.143860 34.000000
351.269440 27.000000
361.273960 31.000000
377.329410 40.000000
388.239530 27.000000
389.303650 30.000000
389.322420 43.000000
398.294070 40.000000
398.310360 25.000000
401.322110 25.000000
405.320340 30.000000
407.333070 117.000000
407.975280 31.000000
408.345090 34.000000
409.336210 30.000000
416.328460 43.000000
419.318570 25.000000
419.343930 57.000000
420.325290 30.000000
420.341130 30.000000
421.342470 46.000000
425.348880 54.000000
437.336670 326.000000
438.329960 39.000000
438.348910 123.000000
439.352080 117.000000
455.355680 1000.000000
456.325930 61.000000
456.359280 437.000000
457.367030 36.000000
473.350710 61.000000
477.337830 31.000000
525.080990 27.000000
542.100590 37.000000
602.438600 55.000000
604.417660 45.000000
618.406860 27.000000
619.408630 109.000000
619.441160 58.000000
620.409360 58.000000
620.428220 51.000000
620.445010 39.000000
746.437740 31.000000
763.442630 115.000000
764.472290 99.000000
780.444210 36.000000
781.471980 289.000000

>ms2peaks
201.160800 28.000000
349.296080 28.000000
388.303890 34.000000
402.888790 37.000000
417.319920 32.000000
419.316410 96.000000
422.335480 27.000000
422.350920 32.000000
437.348750 56.000000
455.220400 27.000000
455.352910 1000.000000
456.331420 52.000000
456.353850 152.000000
459.316530 27.000000
473.333920 28.000000
473.360080 250.000000
474.327060 44.000000
474.387730 35.000000
512.489870 35.000000
553.403260 25.000000
583.384280 43.000000
583.407350 31.000000
600.415950 27.000000
601.395750 50.000000
601.419430 179.000000
603.432070 38.000000
608.175420 34.000000
617.408390 50.000000
619.405700 129.000000
619.428650 306.000000
620.447140 129.000000
621.423650 30.000000
635.402040 30.000000
636.403080 25.000000
763.318480 27.000000
763.429200 133.000000
763.458070 56.000000
763.495360 41.000000
764.457090 56.000000
764.474790 130.000000
764.518430 30.000000
781.450740 226.000000
781.489620 705.000000

>ms2peaks
83.039700 26.000000
85.029870 59.000000
85.035460 29.000000
115.043950 48.000000
127.037540 30.000000
130.052290 32.000000
134.111300 26.000000
139.105260 30.000000
145.048000 50.000000
146.050060 36.000000
147.115510 36.000000
148.068480 30.000000
149.131260 106.000000
150.133650 39.000000
161.122510 27.000000
165.122420 27.000000
177.169330 26.000000
187.148610 123.000000
189.133650 50.000000
189.159190 41.000000
189.167370 23.000000
191.059680 30.000000
191.133410 38.000000
193.156220 27.000000
199.056400 32.000000
201.167400 35.000000
202.166900 26.000000
205.158140 27.000000
214.165080 27.000000
217.164320 27.000000
228.185010 27.000000
231.181530 32.000000
239.177320 26.000000
241.193240 86.000000
241.205440 71.000000
247.192950 26.000000
249.156520 36.000000
251.179240 29.000000
253.192140 56.000000
255.089310 41.000000
257.195280 26.000000
268.199520 30.000000
271.200470 59.000000
271.217010 42.000000
273.100370 26.000000
283.206020 33.000000
285.218410 42.000000
285.826230 32.000000
297.204440 38.000000
307.237340 30.000000
363.250310 36.000000
389.314000 27.000000
389.339230 33.000000
402.327790 48.000000
407.324620 36.000000
408.324680 62.000000
408.337280 173.000000
417.322080 30.000000
417.333950 26.000000
419.343170 26.000000
420.320040 26.000000
420.343810 71.000000
423.327910 27.000000
426.340330 91.000000
437.308350 38.000000
437.342190 379.000000
438.317500 32.000000
438.344120 153.000000
439.328090 74.000000
455.319120 27.000000
455.348330 1000.000000
456.354400 70.000000
457.352810 73.000000
457.366970 27.000000
584.390810 26.000000

>ms2peaks
75.041970 125.000000
75.046690 132.000000
83.045480 125.000000
83.088900 125.000000
95.083240 132.000000
97.101500 201.000000
100.618740 118.000000
107.065600 194.000000
107.081990 229.000000
109.090820 125.000000
109.098370 139.000000
111.045720 528.000000
120.085110 208.000000
127.041310 146.000000
129.053420 194.000000
133.098450 271.000000
134.105450 174.000000
141.072720 146.000000
145.101940 333.000000
146.568940 118.000000
147.081940 243.000000
147.114200 139.000000
149.130870 125.000000
159.115420 236.000000
161.121020 139.000000
171.121090 194.000000
173.129520 160.000000
174.135590 125.000000
175.147840 1000.000000
177.161610 132.000000
179.144530 132.000000
187.147690 285.000000
188.136720 139.000000
194.176090 125.000000
196.177250 125.000000
197.137220 146.000000
198.135820 174.000000
199.141010 139.000000
199.154250 326.000000
201.162860 125.000000
201.497240 139.000000
207.182020 174.000000
211.127200 139.000000
211.162020 125.000000
213.162750 292.000000
213.176900 125.000000
217.188160 118.000000
219.188690 139.000000
221.130920 201.000000
223.144060 236.000000
223.160600 201.000000
225.167240 264.000000
227.148130 125.000000
231.163450 153.000000
233.196700 132.000000
239.179020 174.000000
241.191240 278.000000
244.216930 118.000000
247.174130 118.000000
249.160190 118.000000
251.178830 125.000000
253.191530 389.000000
266.196110 118.000000
267.220060 174.000000
269.186770 188.000000
271.209840 125.000000
281.193420 139.000000
281.221710 125.000000
282.203370 153.000000
283.199370 188.000000
286.229860 146.000000
293.235380 118.000000
299.233060 118.000000
337.280580 160.000000
347.274870 118.000000
379.288120 264.000000
389.337980 174.000000
396.344730 278.000000
407.311070 139.000000
407.335450 181.000000
408.340760 125.000000
418.879000 188.000000
419.323030 118.000000
421.358000 125.000000
425.340940 118.000000
437.333470 139.000000

>ms2peaks
76.059570 41.000000
86.907180 39.000000
121.103030 41.000000
145.043730 37.000000
161.125180 41.000000
167.107970 52.000000
180.151960 48.000000
188.152210 41.000000
191.153840 35.000000
193.162220 56.000000
201.169740 46.000000
206.160890 46.000000
209.200670 52.000000
213.163160 50.000000
217.060230 35.000000
223.153230 35.000000
235.202770 39.000000
243.180360 85.000000
247.175690 37.000000
251.194110 37.000000
293.238040 46.000000
309.108800 41.000000
311.603450 41.000000
323.255920 43.000000
345.244540 41.000000
349.257780 41.000000
361.285220 54.000000
361.297060 35.000000
379.292910 54.000000
391.312710 35.000000
394.329930 52.000000
395.459140 50.000000
398.289670 35.000000
403.325010 41.000000
407.324860 35.000000
407.336210 130.000000
408.354030 35.000000
411.320280 35.000000
419.309810 41.000000
419.330140 56.000000
420.345730 35.000000
421.304600 52.000000
421.331700 41.000000
426.349760 35.000000
437.316190 39.000000
437.335170 201.000000
437.356510 294.000000
438.339360 99.000000
438.356350 87.000000
439.351170 35.000000
455.346770 1000.000000
455.370570 248.000000
456.351470 499.000000
456.372410 149.000000
457.328370 48.000000
457.347960 77.000000
474.392670 46.000000
569.392400 35.000000
583.389400 91.000000
601.407530 81.000000
602.404170 41.000000
602.428960 41.000000
619.415890 159.000000
635.415710 52.000000
637.426150 46.000000
763.434880 99.000000
763.473080 147.000000
764.457400 35.000000
765.457280 85.000000
766.478580 48.000000
781.448610 157.000000
781.475710 56.000000
781.512020 72.000000

>ms2peaks
266.366670 42.000000
361.294620 31.000000
423.309840 34.000000
423.323970 47.000000
437.304320 69.000000
438.331480 42.000000
438.352970 34.000000
440.356350 43.000000
454.313050 45.000000
455.351350 457.000000
455.368500 123.000000
456.321840 31.000000
456.354130 370.000000
474.366150 31.000000
583.404540 92.000000
601.402340 72.000000
602.390870 31.000000
602.405640 79.000000
619.389100 31.000000
619.421810 319.000000
620.457820 38.000000
621.387020 31.000000
733.426210 36.000000
744.473880 54.000000
753.296390 36.000000
763.449160 408.000000
763.488710 139.000000
764.451050 161.000000
764.482120 209.000000
765.424380 32.000000
765.462400 36.000000
767.513120 36.000000
768.491390 51.000000
770.128780 34.000000
780.470580 87.000000
781.472720 1000.000000

>ms2peaks
75.048200 37.000000
85.028760 105.000000
127.031680 39.000000
127.038790 62.000000
145.049680 150.000000
145.056640 53.000000
146.942490 33.000000
149.127380 56.000000
149.134460 49.000000
159.125660 41.000000
163.038990 39.000000
163.067990 68.000000
164.121230 47.000000
173.136400 37.000000
175.143520 53.000000
183.062150 41.000000
183.120590 41.000000
189.156070 33.000000
195.174580 35.000000
199.056790 113.000000
205.145310 47.000000
205.162090 35.000000
207.181300 82.000000
215.177230 80.000000
217.159610 82.000000
219.179310 53.000000
226.157620 39.000000
227.172790 45.000000
229.188050 33.000000
230.177250 33.000000
241.154940 41.000000
241.204970 70.000000
243.212550 76.000000
245.199620 41.000000
250.177410 49.000000
253.188670 70.000000
255.206100 47.000000
256.093230 41.000000
257.180820 125.000000
258.203740 43.000000
262.180660 39.000000
273.093570 41.000000
275.197450 39.000000
277.198700 62.000000
289.184450 35.000000
301.199710 37.000000
305.223210 43.000000
308.545470 37.000000
326.265530 33.000000
349.280060 74.000000
389.322910 33.000000
390.325680 35.000000
393.245090 53.000000
393.313930 33.000000
395.308870 39.000000
397.312100 53.000000
401.323970 76.000000
405.314700 58.000000
407.325780 128.000000
408.290860 33.000000
408.334230 204.000000
409.329190 33.000000
409.342590 35.000000
419.314120 35.000000
419.333470 150.000000
419.350950 39.000000
420.322810 93.000000
421.364590 54.000000
424.612880 47.000000
425.334840 41.000000
425.352420 97.000000
427.371430 47.000000
435.345580 56.000000
437.319850 136.000000
437.336360 574.000000
437.558960 33.000000
438.303770 33.000000
438.328430 35.000000
438.343080 103.000000
439.353330 76.000000
447.265050 56.000000
455.306210 76.000000
455.351650 1000.000000
456.334720 109.000000
456.354280 152.000000
456.370970 68.000000
457.338870 37.000000
457.365200 39.000000
505.296940 47.000000

>ms2peaks
57.036470 185.000000
75.043670 239.000000
79.052060 217.000000
81.071650 239.000000
87.041240 217.000000
93.073200 870.000000
95.083470 228.000000
99.039860 272.000000
107.084390 196.000000
109.059570 196.000000
109.098730 304.000000
111.079070 228.000000
127.032380 239.000000
133.104350 185.000000
135.116390 337.000000
139.110900 283.000000
141.060700 391.000000
143.077190 185.000000
147.109130 196.000000
147.119060 196.000000
149.130260 326.000000
157.103350 239.000000
162.138410 207.000000
163.106840 261.000000
166.147860 652.000000
169.096420 196.000000
171.124020 261.000000
175.155780 272.000000
177.169480 391.000000
187.142610 1000.000000
187.150960 685.000000
187.164610 239.000000
188.156020 196.000000
199.146620 196.000000
201.165500 196.000000
203.145980 196.000000
213.147540 196.000000
215.166500 207.000000
215.177860 196.000000
229.162190 413.000000
229.188750 196.000000
231.176250 217.000000
237.809910 196.000000
239.182620 609.000000
241.152630 217.000000
241.186750 228.000000
243.217830 185.000000
245.191760 457.000000
253.201450 217.000000
254.205660 207.000000
256.225860 217.000000
265.194550 261.000000
271.201450 272.000000
273.226560 272.000000
279.201810 250.000000
281.217590 543.000000
283.220400 185.000000
285.218020 185.000000
285.228730 272.000000
289.207090 196.000000
305.220890 228.000000
309.208770 217.000000
337.221560 217.000000
337.258730 207.000000
361.271300 185.000000
367.281830 293.000000
380.309540 185.000000
394.314390 196.000000
419.325040 315.000000
420.321960 185.000000
437.304500 185.000000
455.338130 196.000000
456.370270 217.000000
523.281800 261.000000

