>compound PR91796104
>parentmass 318.29037
>ionization [M+H]+
>formula C20H35N3
>rt 134.400000
>profile qtof
#smiles_iso C1CCNC(C1)C23CC(CC4C2NCCC4)C5CCCCN5C3
#smiles_can C1CCNC(C1)C23CC(CC4C2NCCC4)C5CCCCN5C3
#inchikey YUKCLPPRYNXRAF-UHFFFAOYSA-N
#pubchem_id 558826
#mb_accession PR310574

>ms2peaks
67.057460 24.000000
70.068010 29.000000
83.088230 41.000000
84.070530 33.000000
84.079200 54.000000
84.083870 94.000000
84.928210 17.000000
96.075250 35.000000
96.081820 82.000000
98.089450 26.000000
98.095930 102.000000
98.105640 39.000000
99.103710 25.000000
105.074420 20.000000
109.104310 45.000000
110.098880 17.000000
120.601620 18.000000
124.113970 17.000000
136.111250 57.000000
148.111890 29.000000
156.094920 18.000000
157.099990 18.000000
160.121750 30.000000
176.628070 26.000000
195.812900 22.000000
204.157300 42.000000
209.209780 46.000000
212.264830 27.000000
219.193050 31.000000
221.193880 19.000000
221.208560 36.000000
224.652620 17.000000
233.187260 39.000000
233.206280 72.000000
234.195790 63.000000
235.212200 163.000000
235.235640 26.000000
236.225220 83.000000
249.225040 25.000000
262.230960 47.000000
285.238100 18.000000
287.234650 34.000000
289.255770 28.000000
289.276280 20.000000
290.270480 22.000000
299.258700 63.000000
301.252470 47.000000
301.270630 28.000000
309.945040 54.000000
312.225800 22.000000
316.261570 45.000000
316.279420 49.000000
316.746430 36.000000
317.206510 29.000000
317.281100 95.000000
317.424560 34.000000
318.224820 45.000000
318.256840 119.000000
318.290800 7976.000000
318.344540 17.000000

