>compound PR91447305
>parentmass 429.2020131
>ionization [M+H]+
>formula C23H28N2O6
>rt 268.719000
>profile qtof
#smiles_iso C[C@H]1[C@@H]2CN3CC[C@]4([C@@H]3C[C@@H]2C(=CO1)C(=O)OC)C5=C(C(=C(C=C5)OC)OC)NC4=O
#smiles_can CC1C2CN3CCC4(C3CC2C(=CO1)C(=O)OC)C5=C(C(=C(C=C5)OC)OC)NC4=O
#inchikey TTZWEOINXHJHCY-UHJVZONPSA-N
#pubchem_id 21627963
#mb_accession PR300547,PR300552,PR300556,PR300561,PR300565,PR300570,PR300575,PR300579,PR300583,PR300588,PR300593,PR300597

>ms2
108.083180 5.000000
160.077120 8.000000
161.085770 6.000000
178.086910 17.000000
187.062670 16.000000
188.071380 10.000000
189.078660 46.000000
190.085880 9.000000
192.066280 11.000000
192.100590 8.000000
205.074570 12.000000
210.115100 8.000000
218.081120 29.000000
220.097270 149.000000
221.102130 21.000000
230.104780 14.000000
261.124240 35.000000
262.126650 6.000000
273.125340 37.000000
274.126590 5.000000
297.124020 5.000000
299.138090 15.000000
301.155730 5.000000
325.116640 15.000000
325.128110 11.000000
327.171570 10.000000
353.151000 11.000000
369.177920 12.000000
397.175450 220.000000
398.179260 55.000000
399.178860 9.000000
429.133850 7.000000
429.201930 1000.000000
429.262150 32.000000
429.315490 6.000000

>ms2
397.174990 13.000000
429.134220 5.000000
429.203250 1000.000000
429.263310 33.000000
429.316620 7.000000

>ms2
70.066280 10.000000
80.049220 10.000000
108.080740 29.000000
122.096760 12.000000
124.039840 18.000000
150.094310 7.000000
158.060940 29.000000
159.065870 8.000000
160.076540 26.000000
161.083770 10.000000
162.087980 8.000000
164.107030 6.000000
167.072600 16.000000
169.086530 8.000000
172.041460 6.000000
175.060300 5.000000
176.072650 11.000000
177.085680 6.000000
178.086760 98.000000
179.088360 12.000000
187.063860 61.000000
188.069690 26.000000
189.078450 178.000000
190.050580 8.000000
190.083850 33.000000
192.065720 62.000000
192.091710 7.000000
192.103590 28.000000
193.068390 9.000000
202.087370 7.000000
204.067810 7.000000
204.102870 8.000000
205.073140 66.000000
206.078540 7.000000
210.112520 37.000000
216.093720 13.000000
218.081250 193.000000
219.084290 33.000000
220.096980 1000.000000
220.140010 29.000000
221.099300 140.000000
222.104340 18.000000
223.122830 7.000000
230.104310 48.000000
231.106640 7.000000
232.099810 13.000000
245.099180 5.000000
245.126210 7.000000
246.101440 16.000000
247.107570 32.000000
248.115070 5.000000
258.099820 7.000000
259.111760 16.000000
261.123840 236.000000
262.127260 40.000000
273.123230 213.000000
274.126190 42.000000
275.137700 12.000000
276.136140 6.000000
285.119720 5.000000
297.120880 15.000000
297.131230 13.000000
299.138430 76.000000
300.142580 17.000000
301.155490 30.000000
302.163360 7.000000
310.098270 5.000000
313.155610 7.000000
325.118620 145.000000
325.161650 26.000000
326.124300 35.000000
326.157620 11.000000
327.169400 73.000000
328.177700 11.000000
329.113430 8.000000
336.147710 5.000000
341.182400 12.000000
343.128540 12.000000
351.160250 8.000000
351.175900 18.000000
352.175050 5.000000
353.144350 20.000000
353.157650 17.000000
354.151370 9.000000
355.168430 7.000000
367.159090 7.000000
369.181000 84.000000
370.183470 17.000000
379.159730 14.000000
382.151060 10.000000
385.175690 26.000000
386.183200 7.000000
397.120790 12.000000
397.141020 5.000000
397.175870 880.000000
397.232480 14.000000
398.178560 243.000000
399.167240 13.000000
399.182310 34.000000
401.205750 8.000000
414.182980 6.000000
427.190920 7.000000
428.186740 6.000000
429.202850 340.000000

>ms2
70.065080 20.000000
77.041800 10.000000
79.052190 9.000000
79.055830 5.000000
80.050980 11.000000
82.029500 7.000000
83.014660 10.000000
91.053310 28.000000
93.057990 13.000000
93.068180 10.000000
94.069060 10.000000
96.039150 6.000000
96.081260 5.000000
96.088620 6.000000
97.065320 5.000000
103.053130 19.000000
104.050890 8.000000
105.069150 8.000000
106.067050 31.000000
107.049430 13.000000
107.073340 5.000000
108.043240 10.000000
108.082340 94.000000
109.053830 11.000000
109.071410 7.000000
109.086030 11.000000
110.059250 6.000000
115.050510 6.000000
116.044040 11.000000
116.049480 25.000000
117.055190 26.000000
117.068440 8.000000
118.061280 16.000000
118.068100 16.000000
118.075490 5.000000
120.041520 6.000000
120.054120 10.000000
120.064830 6.000000
120.076450 7.000000
120.082660 6.000000
121.051630 68.000000
122.023370 7.000000
122.101950 6.000000
123.042140 8.000000
124.038570 71.000000
128.052550 8.000000
129.062580 5.000000
130.040650 7.000000
130.064210 340.000000
131.050640 16.000000
131.065960 43.000000
131.073490 157.000000
132.040730 6.000000
132.051120 29.000000
132.073100 23.000000
132.082350 49.000000
132.088910 14.000000
133.065080 21.000000
133.087300 13.000000
134.054720 28.000000
134.062680 41.000000
134.094010 9.000000
134.100970 10.000000
135.040480 17.000000
135.065550 6.000000
136.071150 7.000000
139.032520 10.000000
139.042220 8.000000
139.071720 6.000000
141.055890 8.000000
142.066240 37.000000
143.069320 29.000000
144.042890 22.000000
144.048870 8.000000
144.075180 15.000000
144.083360 13.000000
145.051330 60.000000
146.060000 242.000000
146.075290 12.000000
147.033540 6.000000
147.042650 6.000000
147.066940 169.000000
148.036880 13.000000
148.049740 7.000000
148.070480 51.000000
148.078840 57.000000
149.048420 34.000000
149.079530 67.000000
149.086500 16.000000
150.093320 24.000000
151.067000 10.000000
156.047580 9.000000
157.051410 11.000000
158.039400 8.000000
158.059880 222.000000
159.067370 470.000000
160.042430 6.000000
160.051150 26.000000
160.075240 448.000000
161.046280 18.000000
161.082490 219.000000
162.055250 211.000000
162.074040 17.000000
162.090810 79.000000
163.057450 29.000000
163.073180 8.000000
164.071460 14.000000
164.106990 8.000000
166.086260 10.000000
167.065430 9.000000
167.073870 5.000000
169.095340 5.000000
170.054140 7.000000
170.060700 9.000000
171.068280 44.000000
171.076130 11.000000
172.039200 615.000000
172.059160 12.000000
172.069870 30.000000
172.077850 19.000000
172.107510 5.000000
173.042980 106.000000
173.070300 9.000000
173.083370 24.000000
174.033600 5.000000
174.054180 415.000000
174.090190 6.000000
175.058090 141.000000
175.067660 92.000000
176.043590 5.000000
176.071110 253.000000
177.021650 5.000000
177.040010 26.000000
177.050520 24.000000
177.077220 141.000000
178.042630 16.000000
178.086350 63.000000
179.057420 7.000000
179.089800 5.000000
180.088680 7.000000
180.104320 21.000000
181.080630 5.000000
182.078260 6.000000
183.069370 9.000000
183.089070 5.000000
184.073990 6.000000
185.049840 8.000000
185.067700 9.000000
185.074580 11.000000
186.055360 34.000000
186.068330 8.000000
187.062130 768.000000
187.094970 14.000000
188.032970 16.000000
188.069260 421.000000
189.043320 12.000000
189.078160 1000.000000
190.050160 205.000000
190.083450 208.000000
191.053270 13.000000
191.081510 17.000000
191.089940 7.000000
192.066350 275.000000
192.103640 73.000000
193.067690 39.000000
193.101870 6.000000
197.058380 7.000000
198.061420 17.000000
198.074370 14.000000
199.057650 20.000000
199.068440 17.000000
199.080900 11.000000
200.070280 32.000000
200.091430 13.000000
200.099690 16.000000
200.115450 5.000000
201.058930 15.000000
201.072450 31.000000
201.086930 5.000000
201.101580 16.000000
202.046340 8.000000
202.073810 16.000000
202.081450 13.000000
202.092650 13.000000
202.100540 9.000000
202.109470 6.000000
203.069670 15.000000
203.082080 11.000000
203.091610 8.000000
203.105990 6.000000
204.064000 144.000000
204.095250 7.000000
205.073720 269.000000
206.073550 34.000000
206.087650 19.000000
207.078630 8.000000
208.088710 6.000000
211.056990 27.000000
211.068660 23.000000
211.091060 12.000000
212.058580 13.000000
212.066410 18.000000
212.085830 24.000000
212.097080 14.000000
212.107500 7.000000
213.062210 19.000000
213.072270 27.000000
213.086260 7.000000
213.098880 8.000000
214.085920 12.000000
214.104430 8.000000
214.116100 12.000000
215.071620 17.000000
215.082930 73.000000
215.119830 7.000000
216.064090 19.000000
216.087490 64.000000
216.096730 38.000000
216.559910 5.000000
217.073530 20.000000
217.093640 10.000000
218.080250 105.000000
218.110380 8.000000
219.078930 12.000000
219.092290 16.000000
219.099930 6.000000
220.055660 6.000000
220.095200 307.000000
220.103230 118.000000
221.089370 21.000000
221.105060 25.000000
222.092290 10.000000
222.114120 12.000000
223.062330 6.000000
224.067080 7.000000
224.098650 10.000000
227.072920 7.000000
227.083240 8.000000
228.067090 14.000000
228.084370 10.000000
229.063450 16.000000
229.093540 65.000000
229.109360 10.000000
230.080760 15.000000
230.106050 293.000000
231.069240 16.000000
231.080200 12.000000
231.093690 17.000000
231.110700 20.000000
232.090680 20.000000
233.092990 8.000000
234.116940 6.000000
235.104950 5.000000
236.101440 11.000000
237.070300 8.000000
237.090070 5.000000
237.104420 12.000000
238.073140 8.000000
239.080580 17.000000
239.090500 6.000000
240.087910 25.000000
241.074870 8.000000
241.087650 7.000000
241.100340 8.000000
243.076770 84.000000
244.063860 7.000000
244.081120 23.000000
244.097610 10.000000
244.107680 10.000000
245.083650 10.000000
245.093030 20.000000
245.103390 11.000000
245.124590 10.000000
246.089340 6.000000
246.105330 17.000000
247.091220 7.000000
249.082340 16.000000
251.088350 8.000000
252.084580 6.000000
253.082920 8.000000
254.105410 6.000000
255.106030 9.000000
257.080840 14.000000
257.095150 39.000000
258.103330 15.000000
259.092290 6.000000
259.101410 16.000000
259.117890 21.000000
260.126340 5.000000
261.112210 11.000000
261.123840 18.000000
263.081880 10.000000
264.082860 17.000000
264.099850 15.000000
264.135710 6.000000
265.094090 10.000000
265.107880 12.000000
267.071170 10.000000
269.120570 8.000000
273.112000 14.000000
273.127350 35.000000
274.136350 7.000000
279.106140 6.000000
280.069760 5.000000
281.084690 6.000000
281.094970 12.000000
282.080200 7.000000
282.105010 7.000000
283.099610 8.000000
291.068510 6.000000
291.079960 13.000000
291.111110 6.000000
292.074740 33.000000
292.084110 27.000000
292.094570 20.000000
292.132230 6.000000
293.092860 12.000000
293.137360 6.000000
295.066440 23.000000
295.081540 5.000000
295.109280 7.000000
297.076200 9.000000
297.086700 11.000000
297.094790 7.000000
297.124630 16.000000
298.087710 8.000000
303.114840 7.000000
309.087520 40.000000
309.125580 5.000000
310.076110 6.000000
310.091740 21.000000
310.120700 10.000000
323.146970 6.000000
325.114470 41.000000
325.130370 11.000000
325.145570 5.000000
325.162140 13.000000
326.116610 16.000000
335.146700 7.000000
336.142000 6.000000

>ms2
158.060760 5.000000
160.074940 11.000000
161.085430 5.000000
178.085020 15.000000
178.092930 6.000000
187.061020 22.000000
188.071260 10.000000
189.077730 44.000000
190.082170 12.000000
192.065780 15.000000
192.103180 7.000000
205.074370 18.000000
210.115280 7.000000
218.081160 33.000000
219.085720 6.000000
220.096910 162.000000
221.099910 23.000000
230.105870 16.000000
247.110630 8.000000
261.124820 35.000000
262.129520 6.000000
273.123630 34.000000
274.126620 8.000000
299.139280 14.000000
325.120390 26.000000
327.171300 13.000000
353.148160 12.000000
369.178710 14.000000
385.171450 6.000000
397.175660 231.000000
398.179840 55.000000
399.178960 7.000000
429.203950 1000.000000
429.264430 31.000000
429.317080 6.000000

>ms2
397.177250 12.000000
429.202640 1000.000000
429.262210 33.000000
429.316040 7.000000

>ms2
70.066690 16.000000
108.082410 26.000000
122.095740 5.000000
124.038800 6.000000
150.092440 7.000000
158.060270 20.000000
159.065400 8.000000
160.076420 28.000000
161.080520 8.000000
162.096760 5.000000
164.105740 6.000000
167.070850 9.000000
169.088170 6.000000
172.040620 7.000000
175.070890 7.000000
176.070070 10.000000
177.080570 10.000000
178.087100 103.000000
179.089970 11.000000
187.062910 61.000000
188.068270 27.000000
189.078960 165.000000
190.083660 46.000000
191.088040 7.000000
192.067000 64.000000
192.103100 33.000000
193.070010 9.000000
193.109420 8.000000
204.102980 11.000000
205.073750 51.000000
206.080050 16.000000
210.112380 32.000000
216.090090 17.000000
218.081700 167.000000
219.076690 6.000000
219.086460 24.000000
220.097980 1000.000000
220.140110 26.000000
221.101240 146.000000
222.106160 31.000000
223.115170 8.000000
224.124100 7.000000
230.106810 52.000000
232.097120 12.000000
244.097960 6.000000
246.095780 6.000000
246.113310 6.000000
247.109360 28.000000
257.091430 5.000000
258.097690 5.000000
258.107420 5.000000
259.106450 11.000000
259.118650 5.000000
260.111390 8.000000
261.123810 214.000000
262.117950 11.000000
262.128050 38.000000
273.124210 207.000000
274.128970 38.000000
275.135770 18.000000
275.146150 7.000000
276.127010 5.000000
285.123540 5.000000
292.082210 6.000000
297.122470 32.000000
299.138980 88.000000
300.141630 26.000000
301.155210 29.000000
310.099670 6.000000
313.119380 6.000000
325.119420 138.000000
325.156220 41.000000
326.125730 32.000000
326.159820 10.000000
327.125090 6.000000
327.172180 75.000000
328.174440 18.000000
329.114350 5.000000
341.114750 10.000000
341.185240 8.000000
343.121120 5.000000
351.158200 8.000000
351.173400 19.000000
352.171420 8.000000
353.151060 37.000000
354.154240 6.000000
369.180970 72.000000
370.186680 19.000000
379.168120 13.000000
380.167760 7.000000
382.154690 11.000000
385.180300 27.000000
386.185730 8.000000
397.123110 11.000000
397.176510 843.000000
397.238160 11.000000
398.180210 216.000000
399.184020 45.000000
427.184140 13.000000
429.202910 318.000000

>ms2
56.051630 14.000000
67.057130 5.000000
68.051520 13.000000
79.051600 7.000000
79.057080 7.000000
80.044350 6.000000
80.050850 12.000000
81.069760 7.000000
83.014130 8.000000
91.052900 8.000000
93.058420 12.000000
94.062910 7.000000
95.052150 9.000000
103.055310 10.000000
104.060750 9.000000
105.070180 6.000000
106.059480 7.000000
106.067470 14.000000
107.039990 6.000000
108.079440 79.000000
109.063200 7.000000
109.085210 6.000000
115.054420 10.000000
116.049440 25.000000
116.061610 8.000000
117.055120 33.000000
117.071720 12.000000
118.064290 29.000000
119.047080 5.000000
119.073590 11.000000
120.043300 8.000000
120.080340 7.000000
121.051140 44.000000
122.027600 6.000000
122.060140 7.000000
122.100710 10.000000
123.043170 7.000000
124.030190 5.000000
124.039310 43.000000
124.049470 11.000000
126.052570 7.000000
128.051530 6.000000
129.059630 19.000000
130.038040 10.000000
130.049960 10.000000
130.064620 321.000000
131.036710 6.000000
131.053070 10.000000
131.066450 50.000000
131.072880 133.000000
132.044690 17.000000
132.056230 18.000000
132.076980 56.000000
133.048510 6.000000
133.061070 9.000000
134.060350 57.000000
134.072360 5.000000
134.092010 7.000000
135.047810 11.000000
135.080400 10.000000
136.112150 6.000000
137.063870 7.000000
138.055650 6.000000
139.038040 13.000000
142.065080 23.000000
142.074370 10.000000
143.070140 30.000000
144.047010 19.000000
144.057650 5.000000
144.074630 12.000000
144.082430 10.000000
145.051240 44.000000
145.065770 16.000000
146.061460 149.000000
146.075180 23.000000
146.095050 5.000000
147.067750 123.000000
148.037810 20.000000
148.049550 11.000000
148.075040 95.000000
149.041780 14.000000
149.049300 19.000000
149.080220 32.000000
149.086930 30.000000
150.091580 11.000000
151.059250 6.000000
151.077850 5.000000
157.058270 5.000000
158.059660 174.000000
159.045840 9.000000
159.067110 333.000000
159.090970 8.000000
160.047670 36.000000
160.074190 385.000000
161.041790 7.000000
161.054200 14.000000
161.079270 138.000000
161.088120 94.000000
162.054720 205.000000
162.088790 71.000000
163.057570 42.000000
163.077510 12.000000
163.096950 20.000000
164.073240 12.000000
164.107850 8.000000
166.066360 5.000000
166.081600 5.000000
168.081890 10.000000
169.086690 7.000000
170.062440 10.000000
170.086670 6.000000
171.033020 5.000000
171.059430 11.000000
171.067830 28.000000
171.097550 5.000000
172.038820 569.000000
172.071910 21.000000
172.078640 27.000000
173.043720 131.000000
173.082610 19.000000
174.055370 431.000000
175.025700 6.000000
175.062380 198.000000
175.074160 49.000000
175.102620 5.000000
176.046110 7.000000
176.071500 237.000000
177.044070 37.000000
177.061290 24.000000
177.077000 130.000000
178.084520 55.000000
178.091840 22.000000
179.055160 7.000000
180.105700 9.000000
183.095280 10.000000
184.077330 10.000000
184.098220 9.000000
185.038310 6.000000
185.048050 9.000000
185.065930 6.000000
185.082640 18.000000
186.054380 37.000000
186.092330 8.000000
187.063350 681.000000
187.095150 17.000000
188.038930 19.000000
188.050370 10.000000
188.068650 329.000000
189.048130 10.000000
189.078170 1000.000000
190.025770 10.000000
190.049760 188.000000
190.083950 211.000000
191.055800 41.000000
191.094470 12.000000
192.065660 227.000000
192.103790 77.000000
193.057390 6.000000
193.068100 18.000000
193.095780 6.000000
193.108050 15.000000
194.066470 7.000000
196.065480 7.000000
197.080690 12.000000
198.052200 21.000000
198.074750 8.000000
199.063390 44.000000
199.077380 11.000000
199.091420 21.000000
200.062740 14.000000
200.074510 18.000000
200.091430 15.000000
200.105130 6.000000
201.068510 17.000000
201.078720 15.000000
201.093950 8.000000
202.047000 5.000000
202.073010 6.000000
202.083820 11.000000
202.094310 14.000000
202.120240 8.000000
203.057940 13.000000
203.071670 7.000000
203.082860 11.000000
203.098300 19.000000
204.065580 130.000000
204.088990 8.000000
204.102690 16.000000
205.074070 266.000000
206.059860 6.000000
206.077700 34.000000
206.084260 13.000000
208.093250 10.000000
208.102810 8.000000
211.064360 37.000000
211.076230 11.000000
211.087570 8.000000
212.055210 9.000000
212.064930 21.000000
212.094020 13.000000
213.065230 9.000000
213.083920 11.000000
213.101260 12.000000
213.111360 9.000000
214.049870 5.000000
214.075360 14.000000
214.088700 10.000000
214.110150 32.000000
215.057330 6.000000
215.081760 93.000000
216.068540 13.000000
216.089810 88.000000
217.059980 6.000000
217.097270 20.000000
218.061950 10.000000
218.081010 100.000000
219.079900 16.000000
219.095090 16.000000
220.096100 305.000000
221.079160 15.000000
221.091810 16.000000
221.100430 31.000000
222.096330 8.000000
222.104680 6.000000
223.057340 7.000000
224.072680 9.000000
225.060850 9.000000
226.075670 6.000000
227.076020 7.000000
227.091280 7.000000
228.065400 11.000000
229.064450 9.000000
229.077190 16.000000
229.098800 58.000000
230.069410 22.000000
230.104310 218.000000
231.063870 10.000000
231.080370 47.000000
231.108830 10.000000
232.082400 10.000000
232.090100 23.000000
232.105090 10.000000
235.085490 7.000000
236.080380 6.000000
237.059050 6.000000
237.069020 7.000000
239.076810 13.000000
239.093660 6.000000
240.086700 18.000000
241.093340 22.000000
242.067350 9.000000
242.085950 6.000000
242.106840 13.000000
243.077190 66.000000
244.090410 11.000000
244.104450 10.000000
245.079670 8.000000
245.091740 8.000000
245.104740 22.000000
245.130340 9.000000
246.087200 6.000000
246.100740 24.000000
246.125080 9.000000
247.108340 7.000000
249.080670 5.000000
250.081390 7.000000
250.124150 7.000000
251.082550 11.000000
252.063750 7.000000
253.088970 12.000000
253.097730 9.000000
255.106690 11.000000
257.075290 8.000000
257.090360 39.000000
257.127990 5.000000
258.077510 6.000000
258.100460 17.000000
259.108030 10.000000
261.123380 18.000000
262.127960 9.000000
262.140110 5.000000
263.082730 13.000000
264.092440 30.000000
264.122590 5.000000
265.101840 8.000000
266.062870 5.000000
266.097560 10.000000
267.077790 13.000000
269.095030 5.000000
271.104370 7.000000
273.117160 14.000000
273.126220 40.000000
277.067780 9.000000
281.089320 6.000000
281.103390 12.000000
282.065950 10.000000
282.096220 15.000000
283.104920 25.000000
285.118190 9.000000
291.070890 9.000000
291.086850 8.000000
292.083400 76.000000
293.088680 13.000000
293.099460 11.000000
293.123690 6.000000
295.057860 5.000000
295.069640 11.000000
295.085240 15.000000
295.117920 9.000000
296.107450 7.000000
297.127930 13.000000
308.082920 6.000000
309.080990 31.000000
309.098390 6.000000
310.065090 15.000000
310.080380 14.000000
310.094060 13.000000
310.125400 10.000000
325.105320 19.000000
325.120510 21.000000
325.134670 12.000000
325.157350 9.000000
326.122650 19.000000
429.200990 6.000000

>ms2
108.082370 5.000000
160.076550 10.000000
172.040220 6.000000
178.086200 15.000000
187.065350 25.000000
188.072720 11.000000
189.079850 45.000000
190.085750 13.000000
192.067460 16.000000
192.102540 10.000000
205.074130 16.000000
210.115050 6.000000
218.082410 35.000000
220.098110 161.000000
221.101670 22.000000
230.107770 18.000000
247.106890 6.000000
261.126250 36.000000
262.126220 6.000000
273.124660 38.000000
274.129270 7.000000
297.122960 5.000000
299.140010 16.000000
301.159700 6.000000
325.118530 24.000000
326.126830 6.000000
327.172240 10.000000
353.149320 12.000000
369.184020 14.000000
397.177580 240.000000
398.181920 50.000000
399.187870 10.000000
429.204250 1000.000000
429.264500 30.000000
429.317470 7.000000

>ms2
397.175930 14.000000
429.203340 1000.000000
429.263310 31.000000
429.316860 7.000000

>ms2
70.066290 15.000000
80.049420 9.000000
108.080940 26.000000
122.098530 8.000000
124.039220 13.000000
130.066270 6.000000
139.039870 7.000000
158.059360 22.000000
159.069350 9.000000
160.075300 23.000000
161.082920 18.000000
162.086030 7.000000
167.069270 10.000000
172.038670 7.000000
175.066360 6.000000
176.069870 8.000000
177.077820 11.000000
178.086550 101.000000
179.090820 7.000000
187.064680 66.000000
188.070740 22.000000
189.078800 168.000000
190.085420 39.000000
192.065780 65.000000
192.101030 31.000000
193.070650 5.000000
193.107650 5.000000
202.090210 7.000000
204.103470 13.000000
205.073200 57.000000
210.111480 34.000000
216.091340 10.000000
218.081990 173.000000
219.086150 30.000000
220.097550 1000.000000
220.140520 26.000000
221.101180 155.000000
222.106550 22.000000
223.121840 8.000000
224.130800 7.000000
230.104830 42.000000
231.106630 6.000000
244.095630 6.000000
245.130360 6.000000
246.095750 5.000000
246.108380 8.000000
247.110730 28.000000
259.108830 19.000000
261.123630 195.000000
262.123540 16.000000
262.132570 18.000000
273.123140 214.000000
274.128880 44.000000
275.130550 6.000000
275.142180 11.000000
285.125180 5.000000
297.122710 27.000000
298.132230 7.000000
299.141970 83.000000
300.143650 21.000000
301.153380 28.000000
302.162450 6.000000
310.095670 11.000000
325.119540 139.000000
325.154540 27.000000
326.123140 30.000000
326.161530 11.000000
327.150210 7.000000
327.172490 73.000000
328.174070 12.000000
329.110200 10.000000
341.113980 8.000000
341.186040 9.000000
343.127960 8.000000
351.168700 16.000000
353.150540 44.000000
354.150570 9.000000
367.162600 7.000000
369.181820 77.000000
370.186550 18.000000
379.164310 19.000000
382.158330 10.000000
385.172390 17.000000
385.195890 6.000000
397.126800 11.000000
397.176940 871.000000
397.235140 13.000000
398.179260 232.000000
399.160610 5.000000
399.184540 34.000000
400.189640 6.000000
427.187230 14.000000
429.165990 6.000000
429.202790 279.000000

>ms2
56.049270 9.000000
68.048320 8.000000
68.053190 5.000000
70.067690 11.000000
79.055140 11.000000
80.049990 19.000000
81.058550 8.000000
81.069480 19.000000
82.025800 6.000000
82.065330 7.000000
91.052930 6.000000
91.056730 6.000000
93.056420 13.000000
94.063190 13.000000
95.050330 15.000000
95.078420 6.000000
102.041920 6.000000
103.053760 12.000000
103.061470 6.000000
104.047090 6.000000
106.065660 16.000000
106.071050 6.000000
107.066180 7.000000
108.042660 7.000000
108.057660 8.000000
108.081760 111.000000
109.067940 17.000000
115.054710 28.000000
116.053750 25.000000
116.060760 8.000000
117.047900 7.000000
117.059490 33.000000
118.063160 19.000000
118.070770 12.000000
120.046980 6.000000
120.083140 18.000000
121.053990 46.000000
121.065610 8.000000
122.020400 10.000000
122.090340 7.000000
122.096920 19.000000
123.045500 6.000000
124.040080 72.000000
128.051510 12.000000
130.045820 5.000000
130.065480 374.000000
131.048420 20.000000
131.072040 190.000000
131.087100 6.000000
132.042140 6.000000
132.051270 15.000000
132.071930 20.000000
132.081740 54.000000
133.054230 9.000000
133.065120 21.000000
133.083820 14.000000
134.057980 89.000000
134.093030 10.000000
135.039630 9.000000
135.083650 7.000000
136.036880 6.000000
136.077060 5.000000
136.109630 12.000000
137.050350 6.000000
138.029680 5.000000
138.056530 6.000000
139.037990 11.000000
139.055820 5.000000
141.057050 8.000000
142.057740 13.000000
142.067340 38.000000
143.037050 6.000000
143.070340 26.000000
144.043610 19.000000
144.053100 5.000000
144.077800 26.000000
144.084240 18.000000
145.053390 36.000000
145.067990 17.000000
145.087170 11.000000
146.061280 265.000000
146.076750 8.000000
147.048810 6.000000
147.067580 170.000000
147.108220 6.000000
148.045520 23.000000
148.073720 60.000000
148.080490 28.000000
149.046920 48.000000
149.084300 63.000000
150.048770 11.000000
150.091920 20.000000
157.049300 17.000000
157.058360 11.000000
158.059650 225.000000
159.068440 443.000000
160.033940 9.000000
160.054000 26.000000
160.075530 442.000000
161.045500 8.000000
161.056980 9.000000
161.083130 276.000000
161.987150 6.000000
162.055440 249.000000
162.077410 16.000000
162.091200 63.000000
163.053310 10.000000
163.061680 21.000000
163.076930 9.000000
163.095430 5.000000
164.056630 7.000000
164.073230 24.000000
164.106340 9.000000
165.059810 8.000000
165.090330 7.000000
166.061080 9.000000
167.059340 5.000000
167.068760 13.000000
167.076610 6.000000
168.081310 9.000000
169.080510 7.000000
170.056920 20.000000
170.087100 7.000000
171.061840 18.000000
171.070310 29.000000
172.040370 637.000000
172.072300 27.000000
172.081380 17.000000
173.044070 137.000000
173.082720 26.000000
174.030350 10.000000
174.054200 436.000000
174.094650 14.000000
175.062970 212.000000
175.088440 6.000000
176.070630 238.000000
177.042470 41.000000
177.077880 122.000000
178.038410 6.000000
178.052930 7.000000
178.087100 68.000000
179.093060 16.000000
180.095020 8.000000
180.103090 7.000000
181.070760 8.000000
183.065310 12.000000
184.065810 15.000000
184.075580 9.000000
185.048170 9.000000
185.070140 7.000000
185.082110 14.000000
186.051350 15.000000
186.059800 15.000000
186.080460 11.000000
187.044140 8.000000
187.063610 706.000000
187.088490 10.000000
188.035140 12.000000
188.070270 419.000000
189.043460 8.000000
189.078840 1000.000000
190.029130 8.000000
190.050570 204.000000
190.069120 39.000000
190.083420 211.000000
191.044980 12.000000
191.055180 33.000000
191.072710 6.000000
191.085600 19.000000
192.065630 280.000000
192.102890 66.000000
193.055790 7.000000
193.069140 33.000000
193.080310 10.000000
193.107240 14.000000
195.067760 11.000000
196.055760 6.000000
197.069170 7.000000
197.088670 8.000000
198.054990 17.000000
198.063930 9.000000
198.078030 14.000000
198.095090 7.000000
199.063740 51.000000
199.084110 29.000000
199.095600 8.000000
200.058820 10.000000
200.067290 11.000000
200.079100 7.000000
200.098370 5.000000
201.058180 9.000000
201.068270 10.000000
201.080030 15.000000
201.110670 7.000000
202.087780 47.000000
202.112870 15.000000
203.046750 7.000000
203.054120 9.000000
203.077740 6.000000
203.088500 16.000000
203.095990 7.000000
203.108350 12.000000
204.066310 170.000000
204.092000 12.000000
204.102040 7.000000
204.108760 7.000000
205.073560 266.000000
206.078220 53.000000
208.081020 8.000000
208.097720 20.000000
211.045620 5.000000
211.063480 43.000000
211.081850 9.000000
211.091860 6.000000
212.060590 17.000000
212.079820 15.000000
212.094160 26.000000
212.104450 10.000000
213.062030 6.000000
213.068700 11.000000
213.084960 15.000000
213.100740 19.000000
214.053070 8.000000
214.071330 25.000000
214.090000 6.000000
214.108520 34.000000
215.050800 5.000000
215.081990 79.000000
215.100460 13.000000
215.118190 9.000000
216.063140 14.000000
216.087780 91.000000
217.062530 9.000000
217.079130 10.000000
217.096620 13.000000
217.110890 6.000000
218.076950 37.000000
218.086110 73.000000
218.113910 7.000000
219.088810 14.000000
220.097090 339.000000
221.084730 12.000000
221.104840 48.000000
222.105240 7.000000
223.079650 10.000000
224.069440 9.000000
225.055020 6.000000
225.070010 7.000000
226.067500 7.000000
226.087550 8.000000
227.080260 10.000000
227.093350 6.000000
228.059050 7.000000
228.098420 11.000000
229.067460 8.000000
229.093700 52.000000
229.103490 29.000000
229.116500 11.000000
230.068310 14.000000
230.079420 9.000000
230.106170 279.000000
231.070250 20.000000
231.079910 32.000000
231.094350 13.000000
231.109590 35.000000
232.073750 7.000000
232.090450 11.000000
232.106450 14.000000
233.109540 8.000000
233.132020 17.000000
235.087400 14.000000
235.109310 6.000000
236.098890 19.000000
237.078220 5.000000
239.077350 17.000000
239.090500 9.000000
240.082820 14.000000
240.094790 14.000000
241.059130 5.000000
241.071110 8.000000
241.093900 6.000000
242.098270 14.000000
243.067200 12.000000
243.074230 26.000000
243.084630 21.000000
244.084790 37.000000
244.101650 7.000000
245.067660 6.000000
245.100830 24.000000
245.130540 9.000000
246.100340 34.000000
247.084730 9.000000
247.105620 10.000000
252.090790 9.000000
253.061890 5.000000
253.100750 6.000000
255.116300 7.000000
257.091090 49.000000
258.096710 17.000000
259.106050 19.000000
260.109990 8.000000
261.123780 18.000000
263.085660 28.000000
263.097140 8.000000
264.092160 38.000000
265.096530 22.000000
266.089260 7.000000
266.115780 5.000000
267.077760 8.000000
269.092130 12.000000
273.123020 45.000000
274.128660 18.000000
277.060180 8.000000
279.081150 8.000000
280.095950 8.000000
281.095310 21.000000
282.099180 12.000000
283.114560 7.000000
291.078670 5.000000
292.085510 81.000000
292.128270 14.000000
293.093780 9.000000
294.102750 5.000000
295.068760 22.000000
295.084810 7.000000
296.080200 6.000000
297.085240 14.000000
297.120700 23.000000
298.130100 10.000000
309.087100 24.000000
309.120120 11.000000
310.090240 13.000000
310.100190 23.000000
310.129270 6.000000
323.125030 6.000000
325.078340 7.000000
325.118470 44.000000
325.161930 8.000000
326.118350 14.000000
335.136410 8.000000
349.117520 7.000000
353.149900 6.000000
363.135130 9.000000

