>compound PR91471168
>parentmass 611.16128
>ionization [M+H]+
>formula C27H30O16
>rt 241.500000
>profile qtof
#smiles_iso C1=CC(=CC=C1C2=C(C(=O)C3=C(C=C(C=C3O2)O)O)OC4C(C(C(C(O4)CO)O)O)OC5C(C(C(C(O5)CO)O)O)O)O
#smiles_can C1=CC(=CC=C1C2=C(C(=O)C3=C(C=C(C=C3O2)O)O)OC4C(C(C(C(O4)CO)O)O)OC5C(C(C(C(O5)CO)O)O)O)O
#inchikey LKZDFKLGDGSGEO-UHFFFAOYSA-N
#pubchem_id 13647412
#mb_accession PR310920,PR310922

>ms2peaks
106.726070 21.000000
127.037120 35.000000
127.044680 33.000000
145.049210 31.000000
163.063780 22.000000
231.069080 18.000000
286.871830 17.000000
287.010040 52.000000
287.055760 2146.000000
288.037230 17.000000
288.056580 178.000000
288.074370 49.000000
289.053220 24.000000
290.064510 38.000000
329.050170 25.000000
329.068700 22.000000
367.079800 20.000000
395.060060 24.000000
413.087830 18.000000
449.060000 23.000000
449.100490 97.000000
449.130650 39.000000
450.094600 39.000000
611.111210 19.000000
611.153320 180.000000

>ms2peaks
85.025070 29.000000
85.033000 16.000000
163.058260 17.000000
287.061130 589.000000
287.204130 17.000000
288.047730 34.000000
288.061100 54.000000
289.067720 82.000000
311.038180 22.000000
325.106960 27.000000
329.062290 38.000000
431.176300 19.000000
449.099610 17.000000
525.057010 20.000000
610.182190 17.000000
611.167790 20.000000
611.189090 20.000000

