>compound PR91561045
>parentmass 341.18596916923076
>ionization [M+H]+
>formula C20H24N2O3
>rt 229.205538
>profile qtof
#smiles_iso C1CC(C(C2C1CN3CCC4=C(C3C2)NC5=CC=CC=C45)C(=O)O)O
#smiles_can C1CC(C(C2C1CN3CCC4=C(C3C2)NC5=CC=CC=C45)C(=O)O)O
#inchikey AADVZSXPNRLYLV-UHFFFAOYSA-N
#pubchem_id 630921
#mb_accession PR301448,PR301452,PR301456,PR301460,PR301464,PR301468,PR301472,PR301476,PR301480,PR301484,PR301488,PR301492,PR310595

>ms2
117.071370 18.000000
134.095200 5.000000
143.073360 13.000000
144.080350 535.000000
145.084780 60.000000
162.089310 6.000000
180.100450 20.000000
198.113020 151.000000
199.116700 17.000000
210.113240 32.000000
312.154820 9.000000
341.185700 1000.000000
341.238650 25.000000

>ms2
144.080570 8.000000
198.112750 11.000000
341.186890 1000.000000
341.239590 32.000000

>ms2
117.070260 26.000000
127.054600 9.000000
130.064160 11.000000
134.095810 23.000000
143.068340 10.000000
144.047420 6.000000
144.080320 1000.000000
144.113370 19.000000
145.083630 124.000000
146.084140 6.000000
162.083050 7.000000
162.091630 9.000000
180.101810 30.000000
198.112240 196.000000
199.117110 28.000000
210.112610 40.000000
211.117100 9.000000
312.159730 7.000000
341.183590 45.000000

>ms2
67.056800 5.000000
77.040690 13.000000
79.055370 9.000000
91.054520 57.000000
94.067540 16.000000
99.044940 5.000000
103.056270 14.000000
105.064730 7.000000
106.065200 9.000000
107.073720 6.000000
107.090680 5.000000
115.054800 129.000000
115.061100 28.000000
116.051230 21.000000
116.059560 29.000000
117.052070 10.000000
117.060270 41.000000
117.070550 249.000000
118.065140 13.000000
118.075570 34.000000
119.077650 5.000000
120.082200 8.000000
122.098100 6.000000
127.054510 149.000000
128.049420 41.000000
128.056670 25.000000
129.056850 18.000000
129.069210 6.000000
130.061140 16.000000
130.066970 19.000000
131.074070 6.000000
133.084520 12.000000
134.096820 19.000000
142.067050 18.000000
142.075490 7.000000
143.072880 294.000000
144.080950 1000.000000
145.066570 8.000000
145.084700 127.000000
146.089690 16.000000
148.110570 5.000000
154.065170 15.000000
155.063140 6.000000
156.081330 7.000000
156.088200 6.000000
157.078520 6.000000
158.092030 7.000000
162.087510 9.000000
167.078980 11.000000
168.079030 14.000000
169.079940 7.000000
180.080960 29.000000
180.106290 16.000000
181.089020 17.000000
191.072040 6.000000
193.090900 9.000000
194.093400 8.000000
198.117250 6.000000
204.080320 20.000000
205.089870 13.000000
206.096920 6.000000
217.089780 11.000000
218.097310 15.000000
220.115130 13.000000
230.098770 14.000000
232.108380 8.000000

>ms2
117.071990 12.000000
130.066130 6.000000
134.099300 6.000000
143.070690 9.000000
144.080750 466.000000
145.084010 66.000000
180.100450 14.000000
198.112030 127.000000
199.113220 6.000000
210.105770 8.000000
210.114360 18.000000
341.185390 1000.000000
341.238130 25.000000

>ms2
144.080460 6.000000
341.124210 6.000000
341.186370 1000.000000
341.239440 30.000000

>ms2
117.068980 22.000000
127.053280 7.000000
130.065510 11.000000
134.097560 27.000000
143.074020 11.000000
144.052430 6.000000
144.080960 1000.000000
144.114150 16.000000
145.084150 133.000000
146.088040 10.000000
158.098280 8.000000
162.090620 13.000000
180.102980 50.000000
198.112640 212.000000
199.117140 30.000000
210.111390 38.000000
211.120190 7.000000
248.146240 6.000000
341.187840 42.000000

>ms2
66.035280 6.000000
77.036350 7.000000
77.045140 6.000000
79.053710 12.000000
80.049570 10.000000
91.052410 26.000000
91.058970 17.000000
93.056660 9.000000
94.066440 26.000000
95.072440 12.000000
99.043700 7.000000
103.054110 16.000000
106.065680 25.000000
107.072400 7.000000
108.080180 5.000000
115.053830 132.000000
116.049450 8.000000
116.055560 7.000000
117.053430 20.000000
117.069790 239.000000
118.063800 20.000000
118.073230 27.000000
119.070470 8.000000
127.054510 164.000000
128.050520 38.000000
128.058820 27.000000
128.065400 14.000000
129.055710 11.000000
129.062440 7.000000
130.066440 36.000000
131.072890 10.000000
132.084870 9.000000
134.092580 13.000000
134.100980 13.000000
142.065090 17.000000
142.072460 6.000000
143.073550 329.000000
144.080780 1000.000000
145.064960 6.000000
145.083220 115.000000
151.056340 7.000000
154.065960 8.000000
155.074910 7.000000
157.087920 14.000000
158.086140 5.000000
158.099110 6.000000
162.087430 5.000000
167.077210 8.000000
167.085270 5.000000
168.083480 17.000000
180.069730 10.000000
180.105210 7.000000
192.096160 9.000000
193.086720 10.000000
194.095500 9.000000
204.079930 5.000000
206.080870 7.000000
209.122800 6.000000
217.086180 16.000000
218.105240 8.000000
219.101610 7.000000
220.111920 8.000000
231.103850 8.000000
232.104400 7.000000

>ms2
117.062450 5.000000
117.070270 6.000000
127.056880 9.000000
134.099910 5.000000
143.072830 16.000000
144.081130 464.000000
145.084230 66.000000
180.102870 12.000000
198.112560 146.000000
199.116840 18.000000
210.111690 28.000000
211.117260 5.000000
341.133940 6.000000
341.187230 1000.000000
341.240200 25.000000

>ms2
144.080780 8.000000
198.114400 7.000000
341.186000 1000.000000
341.239010 32.000000

>ms2
117.070280 25.000000
127.050380 6.000000
134.092040 7.000000
134.099350 16.000000
143.070570 9.000000
143.079650 6.000000
144.081070 1000.000000
144.115540 8.000000
145.084730 143.000000
146.088420 10.000000
158.096330 8.000000
162.090230 16.000000
180.102690 45.000000
198.112470 198.000000
199.115810 21.000000
210.113740 45.000000
248.143390 7.000000
341.186920 36.000000
341.208220 5.000000

>ms2
77.043600 6.000000
79.055920 5.000000
80.050640 19.000000
91.054690 67.000000
92.058290 5.000000
94.065790 11.000000
95.069670 8.000000
103.052340 6.000000
103.058120 8.000000
104.057110 7.000000
106.063970 21.000000
107.075340 8.000000
110.101320 5.000000
115.053820 128.000000
116.028630 5.000000
116.050290 21.000000
116.058960 33.000000
117.053960 27.000000
117.069490 300.000000
118.058650 9.000000
118.066500 20.000000
118.075640 12.000000
120.077420 7.000000
127.053450 130.000000
128.046770 47.000000
128.059300 32.000000
129.051010 18.000000
129.060300 14.000000
130.064530 45.000000
132.082080 9.000000
133.088850 11.000000
134.100650 26.000000
136.113220 15.000000
142.066470 30.000000
143.052510 6.000000
143.072970 328.000000
144.059480 6.000000
144.080930 1000.000000
145.083770 99.000000
148.328000 6.000000
156.081590 16.000000
157.085330 12.000000
158.090580 5.000000
167.075090 5.000000
168.082640 20.000000
169.089360 8.000000
180.078490 13.000000
182.099470 15.000000
192.086490 5.000000
193.091640 7.000000
194.091640 15.000000
198.105900 6.000000
204.079590 9.000000
206.090090 13.000000
206.100880 6.000000
207.091810 6.000000
209.101010 6.000000
217.079730 7.000000
230.091200 8.000000
230.102810 16.000000
298.156890 10.000000
341.189420 10.000000

>ms2
71.675530 17.000000
78.044810 32.000000
80.006480 17.000000
89.038640 24.000000
94.067450 56.000000
94.348050 17.000000
96.044980 17.000000
105.073200 60.000000
105.077480 27.000000
106.035510 33.000000
106.047070 24.000000
106.063490 17.000000
106.071220 18.000000
107.068280 18.000000
108.088250 18.000000
108.596890 24.000000
110.096660 22.000000
115.051450 119.000000
115.059440 109.000000
115.993010 26.000000
117.059280 114.000000
117.071370 588.000000
118.070870 28.000000
119.046330 41.000000
119.086950 44.000000
121.070230 18.000000
122.093330 41.000000
123.103450 19.000000
126.957050 21.000000
127.004970 20.000000
127.043410 46.000000
127.050600 131.000000
127.056410 122.000000
127.065990 28.000000
128.042850 21.000000
128.052630 101.000000
128.060990 18.000000
130.048370 22.000000
130.064530 111.000000
130.990590 24.000000
131.078690 25.000000
131.086590 17.000000
132.067570 22.000000
132.084180 34.000000
133.067290 18.000000
133.560320 17.000000
134.052660 17.000000
134.083300 21.000000
134.095200 175.000000
134.107160 32.000000
135.083500 43.000000
136.113330 46.000000
137.059250 17.000000
138.064150 18.000000
139.090910 17.000000
142.057920 17.000000
142.067180 23.000000
143.073360 409.000000
143.090760 18.000000
143.121730 32.000000
143.128140 20.000000
143.856170 24.000000
143.962880 20.000000
144.034000 75.000000
144.047650 35.000000
144.059950 75.000000
144.080350 17468.000000
144.115080 95.000000
144.149840 22.000000
144.193160 22.000000
144.224670 21.000000
144.413790 23.000000
144.989030 21.000000
145.084780 1948.000000
146.085490 158.000000
146.097930 107.000000
146.667540 17.000000
148.116380 43.000000
150.128650 20.000000
151.081380 38.000000
151.095440 20.000000
154.065400 24.000000
156.077030 22.000000
158.087940 34.000000
158.097060 129.000000
159.005070 17.000000
159.109210 47.000000
162.070160 18.000000
162.089310 204.000000
162.099780 34.000000
162.502330 20.000000
162.829350 35.000000
163.076640 17.000000
163.095870 44.000000
164.070160 24.000000
165.108570 21.000000
166.119020 33.000000
166.311860 17.000000
168.073810 21.000000
168.084270 20.000000
169.078780 18.000000
169.088550 20.000000
170.093190 18.000000
178.966740 18.000000
180.084340 47.000000
180.100450 641.000000
181.109020 70.000000
182.093350 17.000000
183.099180 27.000000
183.412780 31.000000
184.076030 27.000000
185.097750 24.000000
185.268020 18.000000
193.593410 22.000000
194.088880 17.000000
194.098300 21.000000
195.109770 38.000000
196.096970 38.000000
196.126420 46.000000
197.079010 31.000000
198.085300 60.000000
198.113020 4931.000000
199.116700 547.000000
199.664550 29.000000
200.121310 49.000000
201.118800 19.000000
202.308070 21.000000
202.416470 20.000000
203.575470 19.000000
204.101230 17.000000
206.122330 56.000000
207.084870 45.000000
208.115750 24.000000
209.118840 21.000000
210.088320 54.000000
210.113240 1031.000000
210.137710 20.000000
211.094360 26.000000
211.106930 18.000000
211.121150 97.000000
211.999040 17.000000
212.129910 80.000000
218.101090 69.000000
218.755650 20.000000
219.097760 40.000000
219.114990 21.000000
220.110810 105.000000
221.110380 17.000000
226.119420 17.000000
231.097400 17.000000
233.119900 38.000000
233.334120 20.000000
234.123630 18.000000
234.131500 28.000000
235.117480 23.000000
235.136890 19.000000
236.069270 20.000000
236.119110 21.000000
236.472120 21.000000
238.152270 19.000000
241.714740 30.000000
245.127720 27.000000
246.127030 65.000000
248.133910 24.000000
248.145360 20.000000
250.131440 19.000000
250.157490 22.000000
250.733700 20.000000
251.162690 37.000000
252.044740 22.000000
254.088640 19.000000
258.113220 21.000000
260.132390 32.000000
260.147280 20.000000
261.146790 18.000000
261.166470 23.000000
262.123900 18.000000
262.168760 23.000000
263.915190 21.000000
264.319790 18.000000
266.153410 17.000000
267.152250 23.000000
267.176210 19.000000
268.177090 17.000000
276.148160 22.000000
277.169250 50.000000
278.160100 20.000000
278.173830 27.000000
279.197240 47.000000
282.262450 20.000000
286.729980 25.000000
289.150020 17.000000
290.030090 36.000000
292.137730 78.000000
293.116820 29.000000
294.143520 49.000000
294.157990 42.000000
297.166720 18.000000
298.110020 20.000000
298.656310 17.000000
306.117610 20.000000
306.160250 38.000000
310.110320 20.000000
310.122340 22.000000
310.151250 39.000000
311.131160 47.000000
312.154820 285.000000
313.162900 18.000000
315.107970 21.000000
321.390870 22.000000
323.175930 47.000000
323.230470 17.000000
324.162080 150.000000
325.154790 18.000000
326.158870 26.000000
328.356870 19.000000
328.740720 20.000000
330.344020 39.000000
336.681460 27.000000
339.173220 20.000000
340.163120 21.000000
340.180880 70.000000
340.355900 17.000000
340.646360 17.000000
340.691930 22.000000
341.016450 17.000000
341.079070 24.000000
341.108090 94.000000
341.135040 67.000000
341.185700 32664.000000
341.238650 802.000000
341.353000 17.000000

