>compound PR91955047
>parentmass 677.2439972307692
>ionization [M+H]+
>formula C33H40O15
>rt 325.607982
>profile qtof
#smiles_iso C[C@H]1[C@@H]([C@H]([C@H]([C@@H](O1)OC2=C(OC3=C(C2=O)C(=CC(=C3CC=C(C)C)O[C@H]4[C@@H]([C@H]([C@@H]([C@H](O4)CO)O)O)O)O)C5=CC=C(C=C5)OC)O)O)O
#smiles_can CC1C(C(C(C(O1)OC2=C(OC3=C(C2=O)C(=CC(=C3CC=C(C)C)OC4C(C(C(C(O4)CO)O)O)O)O)C5=CC=C(C=C5)OC)O)O)O
#inchikey TZJALUIVHRYQQB-XLRXWWTNSA-N
#pubchem_id 5318997
#mb_accession PR303744,PR303747,PR303750,PR303753,PR303756,PR303759,PR303762,PR303765,PR303768,PR303771,PR303774,PR303777,PR310469

>ms2peaks
85.030000 19.000000
129.053570 24.000000
129.060170 6.000000
313.060390 44.000000
313.072200 160.000000
314.069030 27.000000
314.084750 11.000000
315.071990 5.000000
369.132810 1000.000000
369.188660 9.000000
370.137300 202.000000
371.139620 27.000000
515.197630 10.000000
531.186400 708.000000
532.190730 220.000000
533.193120 38.000000
677.178410 5.000000
677.243290 541.000000

>ms2peaks
369.130040 18.000000
531.186950 330.000000
532.188290 110.000000
533.192990 26.000000
677.243770 1000.000000

>ms2peaks
71.047880 9.000000
85.028830 29.000000
129.054060 30.000000
313.071750 40.000000
314.077910 8.000000
369.133790 1000.000000
369.188420 9.000000
370.137700 247.000000
371.142490 39.000000
531.169190 14.000000
531.189760 38.000000
532.190250 16.000000

>ms2peaks
71.048550 19.000000
85.028240 43.000000
313.028560 7.000000
313.070650 1000.000000
314.075200 183.000000
315.071660 15.000000
315.083250 14.000000
369.133580 288.000000
370.135280 74.000000
371.143010 10.000000

>ms2peaks
71.049590 10.000000
85.024370 5.000000
85.030080 17.000000
129.054640 22.000000
147.068530 6.000000
301.073330 8.000000
313.070890 171.000000
314.071410 29.000000
315.075900 6.000000
369.094120 6.000000
369.133330 1000.000000
369.186830 11.000000
370.136810 211.000000
371.139160 34.000000
531.125370 7.000000
531.186650 725.000000
532.190490 234.000000
533.191960 71.000000
677.244020 573.000000

>ms2peaks
369.134950 22.000000
531.187010 348.000000
532.190490 108.000000
533.187620 18.000000
533.204960 10.000000
677.244380 1000.000000

>ms2peaks
71.049710 14.000000
85.028980 32.000000
129.054700 28.000000
301.074980 6.000000
313.072660 47.000000
314.075500 8.000000
369.092770 5.000000
369.134120 1000.000000
369.188200 11.000000
370.136750 248.000000
371.141110 41.000000
531.190430 63.000000
532.183170 13.000000

>ms2peaks
71.047420 15.000000
85.029340 37.000000
298.041050 6.000000
313.070280 1000.000000
314.073580 192.000000
315.064330 8.000000
315.078920 18.000000
369.089260 6.000000
369.134280 255.000000
370.136960 64.000000
371.138370 9.000000
677.246460 34.000000

>ms2peaks
71.047870 10.000000
85.029270 14.000000
129.053860 24.000000
147.061390 9.000000
301.075740 7.000000
313.067780 186.000000
314.072420 37.000000
369.132540 1000.000000
370.136540 221.000000
371.139650 36.000000
371.157230 9.000000
372.139770 5.000000
531.126220 10.000000
531.186460 740.000000
532.190550 206.000000
533.193970 56.000000
677.242070 552.000000

>ms2peaks
369.127500 13.000000
369.143520 8.000000
531.186770 323.000000
532.191040 112.000000
533.191530 17.000000
677.245480 1000.000000

>ms2peaks
71.048930 13.000000
85.028990 25.000000
129.055040 21.000000
301.073360 5.000000
313.058960 10.000000
313.073520 39.000000
314.071870 9.000000
369.073430 6.000000
369.133120 1000.000000
369.189610 9.000000
370.137120 261.000000
371.139800 38.000000
531.184390 51.000000
532.176390 8.000000
532.199890 9.000000

>ms2peaks
71.049020 11.000000
85.027720 29.000000
129.056320 8.000000
243.069990 7.000000
313.069460 1000.000000
314.073390 193.000000
315.069700 22.000000
369.133300 286.000000
370.125820 30.000000
370.140320 50.000000
371.133820 12.000000

>ms2peaks
54.957200 17.000000
71.005790 18.000000
71.042670 42.000000
71.047160 78.000000
71.051480 70.000000
71.056980 36.000000
85.020740 55.000000
85.030000 368.000000
85.571760 24.000000
86.031520 19.000000
103.045350 22.000000
126.776440 17.000000
129.053570 459.000000
129.060170 120.000000
130.060810 20.000000
131.054240 18.000000
131.067760 25.000000
147.050230 23.000000
147.058870 68.000000
147.076070 22.000000
193.313230 47.000000
213.094450 19.000000
222.956090 19.000000
225.419720 19.000000
251.563290 36.000000
256.573360 41.000000
261.335910 25.000000
269.853420 20.000000
272.189180 23.000000
286.647000 36.000000
289.251400 17.000000
298.234800 24.000000
298.741790 25.000000
301.040160 24.000000
301.064850 95.000000
301.200900 18.000000
302.074310 20.000000
303.065730 17.000000
310.617980 25.000000
312.478300 19.000000
312.774600 24.000000
313.042660 34.000000
313.060390 837.000000
313.072200 3058.000000
313.115880 18.000000
314.023470 37.000000
314.042850 17.000000
314.069030 520.000000
314.084750 206.000000
314.108150 19.000000
314.124660 20.000000
314.369050 27.000000
315.040920 20.000000
315.071990 98.000000
315.098570 17.000000
321.131440 20.000000
321.223330 17.000000
323.047880 21.000000
332.838990 34.000000
336.592930 21.000000
338.773070 24.000000
339.096100 18.000000
339.430420 17.000000
345.847290 19.000000
351.081600 25.000000
351.429410 20.000000
352.547300 23.000000
352.962010 22.000000
353.414280 45.000000
353.621250 40.000000
353.775050 20.000000
356.002470 18.000000
359.082920 26.000000
366.093930 18.000000
366.263180 17.000000
366.408110 17.000000
367.076260 24.000000
367.105440 17.000000
367.123380 48.000000
367.592250 19.000000
368.667540 17.000000
369.003910 32.000000
369.074770 59.000000
369.132810 19123.000000
369.188660 166.000000
369.295590 18.000000
369.793700 18.000000
370.137300 3859.000000
371.027100 20.000000
371.096500 22.000000
371.139620 519.000000
372.145690 68.000000
374.907530 36.000000
379.073580 17.000000
381.125060 18.000000
381.595400 38.000000
389.955350 17.000000
391.824740 30.000000
404.901610 25.000000
405.104190 22.000000
413.412050 21.000000
414.006740 38.000000
420.557100 17.000000
423.062500 20.000000
425.034030 22.000000
428.974880 19.000000
429.093750 21.000000
435.970700 21.000000
436.521910 17.000000
447.128570 25.000000
448.111940 20.000000
455.472870 41.000000
466.507170 17.000000
475.117190 84.000000
477.550540 19.000000
478.180050 23.000000
479.156680 54.000000
492.116300 31.000000
497.201510 18.000000
498.175290 22.000000
504.501800 32.000000
514.445920 30.000000
515.197630 191.000000
516.186100 23.000000
517.180660 18.000000
517.199340 18.000000
523.437680 18.000000
530.337950 25.000000
530.803830 18.000000
531.011290 18.000000
531.066770 17.000000
531.118100 38.000000
531.186400 13532.000000
531.241820 39.000000
531.920530 17.000000
532.000610 20.000000
532.017760 20.000000
532.120610 50.000000
532.190730 4210.000000
532.255800 17.000000
533.099790 38.000000
533.154050 82.000000
533.193120 736.000000
534.203670 66.000000
548.423160 41.000000
551.643430 19.000000
554.078060 17.000000
556.869260 23.000000
568.398010 17.000000
581.165530 20.000000
599.719910 18.000000
621.195310 17.000000
639.238590 24.000000
653.960210 29.000000
677.129760 27.000000
677.153690 37.000000
677.178410 99.000000
677.243290 10350.000000
677.317810 18.000000

