>compound PR91664759
>parentmass 771.4889187999999
>ionization [M+H]+
>formula C41H70O13
>rt 366.894000
>profile qtof
#smiles_iso CC(=CCC[C@](C)([C@H]1CC[C@]2([C@@H]1[C@H](C[C@@H]3[C@@]2(C[C@H]([C@@H]4[C@]3(CC[C@H](C4(C)C)O)C)O)C)O)C)O[C@@H]5[C@H]([C@@H]([C@H]([C@@H](O5)CO[C@@H]6[C@@H]([C@H]([C@H](CO6)O)O)O)O)O)O)C
#smiles_can CC(=CCCC(C)(C1CCC2(C1C(CC3C2(CC(C4C3(CCC(C4(C)C)O)C)O)C)O)C)OC5C(C(C(C(O5)COC6C(C(C(CO6)O)O)O)O)O)O)C
#inchikey HJRVLGWTJSLQIG-TVOOLRDFSA-N
#pubchem_id 137832346
#mb_accession PR304332,PR304333,PR304334,PR304336,PR304338,PR304339,PR304340,PR304342,PR304343,PR304345,PR304347

>ms2peaks
115.036670 121.000000
116.037510 70.000000
133.052830 59.000000
145.052890 59.000000
146.050230 62.000000
149.133010 59.000000
161.143330 62.000000
163.060330 390.000000
165.160630 59.000000
181.041600 59.000000
181.075680 74.000000
187.143970 59.000000
189.158070 88.000000
193.192120 66.000000
203.141430 66.000000
203.179920 74.000000
203.190340 59.000000
207.188340 114.000000
215.184780 70.000000
217.185680 62.000000
223.038850 88.000000
223.148740 59.000000
224.064710 66.000000
227.177610 59.000000
229.040470 66.000000
229.162220 59.000000
241.075440 118.000000
243.205920 59.000000
259.070250 154.000000
259.088290 235.000000
263.197940 74.000000
277.082520 92.000000
295.098660 1000.000000
295.111020 382.000000
295.238980 118.000000
296.104550 62.000000
296.114900 59.000000
296.199400 59.000000
313.115540 415.000000
314.118010 62.000000
369.985500 92.000000
405.347930 59.000000
406.362090 62.000000
423.346040 70.000000
423.375340 62.000000
440.745610 62.000000
441.287230 66.000000
441.378330 154.000000
459.391850 66.000000
460.404300 59.000000
500.348750 59.000000
527.334290 96.000000
557.417240 62.000000
591.439820 66.000000
603.425350 77.000000
604.420960 62.000000
735.470520 66.000000
736.476750 62.000000
753.478330 59.000000
753.508060 66.000000
771.495360 136.000000

>ms2peaks
163.039760 46.000000
187.147580 58.000000
204.181950 61.000000
238.763370 52.000000
241.079280 46.000000
259.058260 58.000000
259.083890 271.000000
275.454620 52.000000
277.998470 55.000000
295.080170 46.000000
295.102510 1000.000000
295.892850 49.000000
295.942440 58.000000
296.000030 75.000000
296.111210 95.000000
313.084110 49.000000
313.093200 156.000000
313.108550 513.000000
313.121580 444.000000
314.105960 98.000000
405.348540 49.000000
406.344450 110.000000
406.370610 69.000000
423.342070 95.000000
423.370450 161.000000
424.362210 78.000000
424.382390 92.000000
425.386080 49.000000
441.372160 52.000000
442.366700 46.000000
442.392640 46.000000
459.374420 193.000000
460.395870 52.000000
556.409550 46.000000
573.407410 92.000000
573.441770 86.000000
591.424500 222.000000
603.435730 55.000000
622.435670 95.000000
700.424440 49.000000
753.463750 46.000000
753.486150 49.000000
754.486390 49.000000
756.471800 49.000000
771.441100 164.000000
771.480290 239.000000
771.511050 49.000000

>ms2peaks
97.028480 126.000000
110.110440 173.000000
115.043150 150.000000
127.040560 543.000000
133.049960 307.000000
145.054530 268.000000
163.060270 1000.000000
163.151180 134.000000
199.015290 126.000000
199.061360 134.000000
202.164000 157.000000
205.067230 283.000000
207.180210 134.000000
217.071440 189.000000
241.189730 134.000000
253.140410 134.000000
255.210720 157.000000
259.038480 126.000000
259.074650 323.000000
259.085820 929.000000
261.547180 134.000000
271.127750 157.000000
277.096800 142.000000
287.275510 126.000000
295.104550 126.000000
296.121090 150.000000
302.279720 134.000000
311.263460 189.000000
338.642210 276.000000
353.271850 142.000000
405.332030 134.000000
405.364110 165.000000
423.350490 126.000000
423.383820 134.000000
424.358250 142.000000
429.379550 157.000000
441.364230 197.000000
469.362760 189.000000
501.359380 165.000000
549.394840 173.000000
621.396910 370.000000

>ms2peaks
73.028660 283.000000
85.021990 267.000000
85.027700 1000.000000
95.088650 267.000000
97.029940 283.000000
97.035960 333.000000
109.098710 267.000000
110.036900 600.000000
125.088200 300.000000
127.040560 600.000000
132.926210 267.000000
133.050030 933.000000
133.100850 617.000000
145.090940 300.000000
145.097700 300.000000
147.115880 267.000000
147.125790 267.000000
163.063630 267.000000
163.141910 283.000000
172.106610 267.000000
175.131650 267.000000
181.051910 267.000000
205.197450 283.000000
207.189030 350.000000
211.140730 267.000000
213.169660 300.000000
223.064590 333.000000
227.162990 267.000000
259.087520 283.000000
313.259340 350.000000
318.221710 600.000000

>ms2peaks
97.027760 185.000000
109.107560 98.000000
127.107450 185.000000
133.051590 293.000000
140.679260 78.000000
145.054950 161.000000
161.132600 117.000000
163.057660 273.000000
163.148860 102.000000
179.203750 117.000000
187.149320 341.000000
189.161500 180.000000
203.163680 83.000000
203.173770 176.000000
203.186900 83.000000
205.186140 88.000000
217.083390 132.000000
219.174070 78.000000
223.064240 259.000000
228.181560 88.000000
230.073360 83.000000
241.070070 98.000000
243.147860 78.000000
259.084380 576.000000
259.924650 102.000000
260.080020 83.000000
268.186950 88.000000
273.248140 83.000000
277.084200 83.000000
278.073030 78.000000
295.065980 78.000000
295.076450 83.000000
295.101500 1000.000000
295.110900 502.000000
296.098570 161.000000
297.101230 83.000000
297.254000 88.000000
313.106320 224.000000
313.119050 141.000000
315.122440 83.000000
330.255620 83.000000
342.282010 83.000000
423.366210 78.000000
424.405330 102.000000
425.358730 88.000000
425.376740 83.000000
441.373200 273.000000
442.390170 195.000000
459.380860 83.000000
487.369110 78.000000
520.382750 78.000000
538.415040 78.000000
549.397160 88.000000
573.444090 83.000000
592.397030 88.000000
604.418270 88.000000
621.457210 78.000000
735.437010 93.000000
753.476810 78.000000
771.427430 98.000000
771.499390 322.000000
771.547420 78.000000

>ms2peaks
109.100510 42.000000
133.049010 52.000000
189.161910 42.000000
207.180940 60.000000
241.071110 71.000000
247.074250 52.000000
259.089660 188.000000
260.943180 45.000000
277.079930 52.000000
277.090210 99.000000
295.092770 275.000000
295.104550 1000.000000
296.114810 105.000000
313.114440 764.000000
314.080930 45.000000
314.121550 120.000000
405.355930 47.000000
423.357640 267.000000
424.361630 105.000000
425.378880 58.000000
425.412200 42.000000
441.364040 168.000000
441.382930 76.000000
442.381380 45.000000
442.396700 175.000000
459.377470 84.000000
459.395140 65.000000
555.389950 89.000000
555.421510 52.000000
574.423100 42.000000
591.412480 52.000000
591.447810 42.000000
592.423520 52.000000
592.444460 60.000000
603.411440 45.000000
603.431640 42.000000
604.352360 52.000000
622.454470 45.000000
718.460390 42.000000
718.482360 42.000000
735.453370 45.000000
753.484860 215.000000
754.419920 42.000000
754.498660 42.000000
756.472840 55.000000
771.489320 759.000000
771.521000 105.000000

>ms2peaks
85.028090 301.000000
85.031780 103.000000
97.028450 115.000000
109.100200 244.000000
123.115650 224.000000
127.034480 122.000000
127.040500 192.000000
133.046750 506.000000
133.055390 788.000000
133.099550 103.000000
134.055050 231.000000
145.048000 699.000000
145.052610 385.000000
147.114580 103.000000
149.122100 122.000000
149.132140 103.000000
151.108660 128.000000
157.041090 103.000000
157.048740 109.000000
163.061200 1000.000000
163.141130 147.000000
175.063250 128.000000
177.167400 103.000000
179.142290 147.000000
187.153720 103.000000
189.166340 224.000000
197.135220 115.000000
203.176790 455.000000
204.175160 103.000000
207.177310 205.000000
217.195070 109.000000
219.214490 103.000000
221.188200 103.000000
223.059230 340.000000
233.190950 147.000000
234.160980 103.000000
241.056400 103.000000
241.074690 468.000000
242.080260 115.000000
243.211940 128.000000
245.188550 128.000000
259.044530 103.000000
259.063320 128.000000
259.089780 692.000000
259.113770 109.000000
261.094150 109.000000
272.251500 103.000000
295.098020 372.000000
295.112150 705.000000
295.237580 103.000000
296.110410 250.000000
311.268800 109.000000
313.243230 128.000000
314.250580 122.000000
340.288210 103.000000
346.293760 103.000000
347.269260 109.000000
405.344360 122.000000
423.358610 314.000000
423.375060 474.000000
424.367250 314.000000
441.379180 212.000000
443.387390 103.000000
445.354490 103.000000
451.355010 128.000000
459.392400 558.000000
460.397950 218.000000
475.976990 186.000000
507.287380 122.000000
519.371770 179.000000
567.398130 244.000000
573.406920 173.000000
585.404420 282.000000
604.402280 103.000000

>ms2peaks
67.053020 195.000000
69.039270 220.000000
73.024890 207.000000
81.070140 220.000000
85.029850 707.000000
87.961980 390.000000
95.092440 207.000000
97.021800 195.000000
97.027160 220.000000
107.089010 244.000000
109.027270 220.000000
109.094070 207.000000
109.102730 195.000000
119.084850 195.000000
122.105020 195.000000
123.117830 390.000000
127.038240 378.000000
133.050920 207.000000
135.124250 341.000000
137.094450 220.000000
145.051350 1000.000000
145.057910 195.000000
145.674590 195.000000
147.115460 195.000000
151.041310 220.000000
161.131810 256.000000
162.137440 256.000000
175.114930 207.000000
175.153310 280.000000
189.163800 268.000000
197.140580 268.000000
199.148320 195.000000
203.168850 305.000000
207.183320 293.000000
213.124940 195.000000
220.221470 195.000000
220.540250 268.000000
447.322050 195.000000

>ms2peaks
169.583760 40.000000
203.182500 83.000000
241.073060 55.000000
259.088440 165.000000
295.069790 45.000000
295.100980 1000.000000
296.075130 48.000000
296.110170 83.000000
296.124360 80.000000
313.113400 927.000000
350.560460 58.000000
405.358000 50.000000
406.349150 45.000000
406.361630 48.000000
423.364380 406.000000
423.388640 93.000000
424.367580 45.000000
426.360570 53.000000
441.356230 53.000000
441.378690 140.000000
443.399020 40.000000
459.384670 43.000000
555.732790 40.000000
573.425420 43.000000
574.430600 40.000000
591.430300 83.000000
593.437740 45.000000
603.458190 70.000000
622.421260 48.000000
718.488280 60.000000
735.494870 43.000000
736.494080 43.000000
753.428100 40.000000
753.473020 40.000000
753.499940 133.000000
754.405820 40.000000
754.509400 138.000000
755.474000 40.000000
771.492920 855.000000

>ms2peaks
69.072460 106.000000
73.023580 89.000000
97.029330 196.000000
107.086400 101.000000
109.032180 145.000000
115.028210 95.000000
115.040060 341.000000
115.949600 106.000000
120.093100 112.000000
121.097600 145.000000
126.989330 151.000000
127.041760 89.000000
127.112680 101.000000
133.049320 413.000000
135.083330 106.000000
135.118900 89.000000
145.050540 1000.000000
147.110110 89.000000
151.113280 95.000000
163.054780 296.000000
163.064830 95.000000
163.115140 89.000000
165.154650 89.000000
175.109700 89.000000
187.151520 95.000000
189.149690 106.000000
189.162260 190.000000
189.172840 128.000000
203.165300 95.000000
203.185810 212.000000
204.181780 89.000000
205.068300 112.000000
205.165440 89.000000
213.158140 112.000000
215.185790 89.000000
217.189610 89.000000
217.974520 89.000000
221.180510 101.000000
223.058140 151.000000
225.062440 117.000000
225.103740 168.000000
234.205800 117.000000
241.082410 89.000000
242.065200 95.000000
249.160570 112.000000
257.191500 89.000000
259.083100 955.000000
260.076570 101.000000
271.145570 89.000000
271.220060 89.000000
282.233340 112.000000
283.170780 89.000000
295.101680 184.000000
296.111600 89.000000
297.122740 95.000000
315.271580 89.000000
349.162720 162.000000
357.271180 89.000000
405.353790 123.000000
405.370610 106.000000
406.332550 296.000000
406.373080 235.000000
407.375790 112.000000
407.630770 128.000000
423.363620 369.000000
424.358490 106.000000
441.373170 855.000000
441.393340 145.000000
443.388850 95.000000
447.353210 196.000000
459.340760 145.000000
459.369750 123.000000
459.393160 101.000000
472.390290 101.000000
526.394410 89.000000
532.389470 117.000000
537.395390 184.000000
556.397400 89.000000

>ms2peaks
57.031100 226.000000
85.019740 160.000000
85.029290 151.000000
95.088750 255.000000
96.092510 151.000000
97.024200 170.000000
97.032640 1000.000000
105.067750 189.000000
107.100400 189.000000
109.027540 189.000000
109.107150 660.000000
115.041490 217.000000
121.099330 189.000000
123.115330 151.000000
123.126080 198.000000
127.046000 340.000000
133.029590 151.000000
133.046010 160.000000
133.051850 321.000000
135.116990 425.000000
145.093140 236.000000
145.106890 151.000000
147.112640 189.000000
151.113340 151.000000
151.363830 189.000000
159.116460 189.000000
159.123000 179.000000
161.134860 179.000000
162.144270 151.000000
163.055050 283.000000
167.077380 198.000000
181.111600 170.000000
187.152300 189.000000
189.163350 387.000000
195.114290 151.000000
200.156850 179.000000
201.162630 160.000000
203.177580 358.000000
212.065310 160.000000
215.184950 151.000000
219.171420 151.000000
232.210720 151.000000
270.196780 821.000000
273.231750 189.000000
406.342190 151.000000

