>compound PR91097462
>parentmass 687.2858617538461
>ionization [M+H]+
>formula C32H46O16
>rt 220.235058
>profile qtof
#smiles_iso COC1=C(C=CC(=C1)CC(COC2C(C(C(C(O2)CO)O)O)O)C(CC3=CC(=C(C=C3)O)OC)COC4C(C(C(C(O4)CO)O)O)O)O
#smiles_can COC1=C(C=CC(=C1)CC(COC2C(C(C(C(O2)CO)O)O)O)C(CC3=CC(=C(C=C3)O)OC)COC4C(C(C(C(O4)CO)O)O)O)O
#inchikey SBVBJPHMDABKJV-UHFFFAOYSA-N
#pubchem_id 74328989
#mb_accession PR303970,PR303971,PR303972,PR303973,PR303974,PR303975,PR303976,PR303977,PR303978,PR303979,PR303980,PR303981,PR310448

>ms2
120.932750 26.000000
121.062420 39.000000
123.083620 18.000000
126.860120 25.000000
127.035510 26.000000
127.048780 31.000000
131.041630 31.000000
133.064410 83.000000
135.087510 27.000000
137.060970 529.000000
138.068300 100.000000
145.050220 38.000000
147.087400 35.000000
149.066010 19.000000
151.070470 21.000000
151.075700 55.000000
163.060230 46.000000
163.077880 290.000000
176.078720 49.000000
177.053880 34.000000
189.089250 79.000000
193.087390 25.000000
194.098560 24.000000
203.094700 38.000000
203.112950 44.000000
206.098310 40.000000
207.094920 18.000000
207.106230 35.000000
208.119670 27.000000
219.104580 133.000000
220.102660 21.000000
220.113620 27.000000
231.111790 18.000000
239.121950 32.000000
244.291600 23.000000
265.124690 21.000000
273.105530 23.000000
276.996400 21.000000
293.116270 24.000000
295.113070 54.000000
295.130310 173.000000
296.127320 34.000000
298.161620 46.000000
314.307280 18.000000
325.104280 18.000000
325.114350 19.000000
325.174070 18.000000
326.139680 26.000000
327.103700 21.000000
327.130400 33.000000
327.159790 1000.000000
328.155000 28.000000
328.167970 49.000000
328.182220 53.000000
329.164490 34.000000
334.731320 28.000000
339.156560 30.000000
344.160860 111.000000
344.169310 43.000000
345.144170 24.000000
345.169400 669.000000
345.185730 131.000000
346.178250 142.000000
351.160280 21.000000
355.155850 18.000000
363.105160 26.000000
363.181880 541.000000
363.852360 21.000000
364.170900 18.000000
364.190160 61.000000
364.206020 18.000000
365.183070 44.000000
367.154210 25.000000
369.163820 22.000000
385.710570 19.000000
409.157530 18.000000
441.189240 18.000000
471.197970 21.000000
506.195680 100.000000
506.208160 42.000000
507.217830 63.000000
524.225650 50.000000
524.252990 19.000000
524.938780 20.000000
525.226320 40.000000
525.243590 140.000000
526.242740 18.000000
526.259520 25.000000
539.019170 21.000000
686.266660 88.000000
686.288210 175.000000
687.263120 137.000000
687.282590 81.000000
687.315370 126.000000

>ms2
53.291860 14.000000
137.059680 89.000000
237.106570 15.000000
237.115720 12.000000
256.483950 12.000000
271.074770 14.000000
289.094180 29.000000
292.040530 14.000000
296.135800 19.000000
317.193270 11.000000
325.119690 61.000000
326.155400 11.000000
327.135160 10.000000
327.162570 116.000000
327.956940 15.000000
328.149960 11.000000
329.092410 13.000000
339.098360 14.000000
344.127440 13.000000
344.163730 11.000000
345.139920 12.000000
345.174190 550.000000
346.175660 242.000000
346.376250 14.000000
347.151250 16.000000
347.163450 11.000000
363.114690 25.000000
363.178650 1000.000000
363.385990 12.000000
364.184940 231.000000
364.197600 70.000000
365.167210 10.000000
365.181640 12.000000
368.142700 10.000000
382.170290 15.000000
383.944000 13.000000
429.202610 10.000000
434.667180 12.000000
438.569090 18.000000
441.182430 14.000000
441.210480 10.000000
452.130580 14.000000
453.207640 14.000000
471.195040 17.000000
490.210450 11.000000
506.205510 92.000000
506.228910 58.000000
507.191160 18.000000
507.226930 46.000000
507.290410 11.000000
508.224090 53.000000
517.115230 11.000000
521.265200 10.000000
523.822200 10.000000
524.175170 14.000000
524.212220 31.000000
524.223080 86.000000
525.175540 11.000000
525.225770 183.000000
525.243230 225.000000
526.227600 93.000000
526.271360 43.000000
527.230960 10.000000
527.253420 21.000000
569.084530 15.000000
577.217100 10.000000
583.318180 10.000000
669.293090 14.000000
670.242430 17.000000
686.284420 495.000000
687.192990 15.000000
687.232480 25.000000
687.274110 341.000000
687.299440 365.000000

>ms2
85.028890 36.000000
107.045330 20.000000
115.964810 25.000000
121.053240 17.000000
123.047360 14.000000
127.034850 28.000000
133.051100 28.000000
133.065890 232.000000
134.065110 47.000000
134.076310 25.000000
135.085370 31.000000
137.031970 20.000000
137.060120 1000.000000
138.059940 33.000000
138.065990 31.000000
139.077120 18.000000
143.050080 20.000000
145.050460 35.000000
145.070250 24.000000
147.085390 41.000000
149.057500 54.000000
149.064640 43.000000
150.062320 18.000000
151.075490 138.000000
151.082840 35.000000
163.043120 23.000000
163.074430 566.000000
163.093190 28.000000
164.082870 136.000000
175.079510 28.000000
176.078540 19.000000
179.100520 26.000000
180.076540 92.000000
187.075990 27.000000
188.083220 40.000000
189.095930 83.000000
189.895390 17.000000
190.086230 20.000000
194.090470 21.000000
195.086360 14.000000
202.140150 20.000000
203.078960 15.000000
203.099930 24.000000
203.110630 43.000000
204.102860 21.000000
204.120480 16.000000
205.094590 25.000000
206.091430 73.000000
213.090150 29.000000
219.089140 37.000000
219.104220 165.000000
219.118360 14.000000
220.102980 40.000000
221.109130 18.000000
230.171590 17.000000
241.057450 18.000000
245.122090 38.000000
263.073000 16.000000
263.114840 48.000000
265.124360 23.000000
293.115260 20.000000
294.486660 14.000000
295.138060 518.000000
295.161220 31.000000
295.745910 25.000000
296.116760 17.000000
296.140810 60.000000
297.149690 80.000000
298.142670 22.000000
298.404510 14.000000
300.646390 23.000000
312.141480 21.000000
313.146670 44.000000
325.103670 24.000000
325.139770 14.000000
325.151060 14.000000
325.955540 14.000000
326.147610 31.000000
326.853820 17.000000
327.138490 54.000000
327.161190 717.000000
328.157780 94.000000
328.172450 17.000000
329.163480 68.000000
329.177760 15.000000
330.167140 18.000000
330.650670 15.000000
335.115450 25.000000
337.142270 57.000000
337.261840 26.000000
344.168330 221.000000
345.154540 55.000000
345.176390 14.000000
348.121120 23.000000
352.156100 28.000000
352.646030 15.000000
354.125120 43.000000
355.162690 17.000000
359.137970 14.000000
362.173000 14.000000
395.153660 29.000000
435.163020 26.000000
453.172910 17.000000
471.185880 23.000000
678.565120 20.000000

>ms2
55.018610 23.000000
71.045210 37.000000
82.479770 19.000000
85.031050 87.000000
93.068960 42.000000
95.049840 37.000000
115.034640 23.000000
116.889880 48.000000
121.061570 74.000000
121.068180 33.000000
123.042770 46.000000
123.078120 26.000000
127.036910 28.000000
128.042110 27.000000
131.045330 63.000000
133.015730 23.000000
133.061870 109.000000
135.085910 20.000000
137.057560 1000.000000
138.062650 96.000000
138.071260 74.000000
139.066390 20.000000
145.060750 89.000000
149.059750 44.000000
151.077500 115.000000
152.085170 24.000000
157.061570 113.000000
158.065540 19.000000
159.073030 23.000000
163.074840 443.000000
163.086550 63.000000
164.080760 102.000000
165.096280 21.000000
170.065580 30.000000
171.084230 26.000000
174.069750 47.000000
175.081680 134.000000
176.077840 75.000000
188.080370 34.000000
188.092860 56.000000
189.086730 29.000000
190.084150 29.000000
191.098510 19.000000
199.072250 23.000000
202.086300 21.000000
204.101410 33.000000
204.112530 26.000000
219.098340 19.000000
235.113660 28.000000
248.082530 23.000000
251.109250 23.000000
259.362430 24.000000
260.118560 28.000000
281.155520 20.000000
295.144290 20.000000
312.141660 21.000000
349.846340 28.000000

>ms2
85.027400 31.000000
85.034970 27.000000
109.032070 31.000000
122.066400 22.000000
133.060390 31.000000
133.067370 39.000000
134.068160 34.000000
137.057040 380.000000
137.067540 62.000000
137.083650 38.000000
138.064760 185.000000
145.044600 27.000000
145.099580 30.000000
148.077650 35.000000
149.058460 44.000000
149.065960 35.000000
151.071060 52.000000
161.039030 44.000000
163.049740 30.000000
163.060930 31.000000
163.075940 378.000000
164.080950 44.000000
174.059690 36.000000
175.068790 29.000000
176.078350 38.000000
187.071110 36.000000
188.086170 33.000000
189.094570 60.000000
193.086560 23.000000
199.712420 39.000000
201.086110 26.000000
203.101170 36.000000
206.089140 39.000000
207.089770 23.000000
219.090300 26.000000
219.103680 61.000000
220.109680 23.000000
222.124440 51.000000
229.092450 26.000000
238.115080 42.000000
249.105960 29.000000
265.083130 27.000000
295.129850 200.000000
296.134890 23.000000
312.912660 47.000000
325.100340 22.000000
325.117130 69.000000
325.131160 49.000000
327.121220 70.000000
327.159420 1000.000000
328.156340 289.000000
329.169490 94.000000
331.168330 39.000000
342.149870 25.000000
343.178800 43.000000
344.149200 114.000000
345.171840 835.000000
346.158020 38.000000
346.171080 73.000000
347.150480 27.000000
362.177830 40.000000
363.136720 35.000000
363.158660 85.000000
363.178740 651.000000
364.182980 59.000000
364.200840 49.000000
364.447600 26.000000
365.184690 26.000000
381.157410 26.000000
385.173370 26.000000
427.581850 38.000000
484.879030 26.000000
506.211760 55.000000
506.225460 86.000000
507.189540 23.000000
507.209530 29.000000
508.219150 22.000000
509.205050 31.000000
524.241210 48.000000
525.225460 189.000000
525.249080 48.000000
526.238040 22.000000
668.285340 27.000000
670.303530 36.000000
686.209110 26.000000
686.257260 105.000000
686.281680 137.000000
686.301700 114.000000
687.267030 159.000000
687.288760 220.000000
687.321350 35.000000

>ms2
71.244800 14.000000
189.080060 32.000000
207.104840 19.000000
237.101730 18.000000
237.120350 14.000000
238.234790 14.000000
295.129670 19.000000
325.106200 103.000000
325.159030 29.000000
326.173650 21.000000
327.120970 20.000000
327.148500 84.000000
327.165040 82.000000
328.162540 42.000000
336.348450 14.000000
344.156010 16.000000
344.178280 24.000000
345.154080 326.000000
345.169190 587.000000
346.050960 17.000000
346.101040 17.000000
346.149990 14.000000
346.167630 142.000000
346.180020 87.000000
347.133540 16.000000
347.156100 20.000000
348.736210 17.000000
353.025480 20.000000
363.096710 21.000000
363.178220 1000.000000
364.166660 48.000000
364.186340 199.000000
365.192570 39.000000
367.182650 14.000000
397.053340 14.000000
405.172820 29.000000
411.179020 16.000000
441.193450 17.000000
472.182680 16.000000
497.016510 30.000000
506.062160 18.000000
506.200780 16.000000
506.219760 76.000000
507.178010 21.000000
507.214420 14.000000
508.214750 17.000000
508.233150 16.000000
524.214540 69.000000
524.244630 47.000000
525.208740 74.000000
525.232730 273.000000
525.252870 43.000000
525.437680 14.000000
526.188350 25.000000
526.229190 100.000000
526.266780 14.000000
527.230960 14.000000
577.192630 14.000000
591.263490 19.000000
669.259520 14.000000
685.263850 21.000000
686.257690 221.000000
686.285400 423.000000
687.277530 762.000000
687.307680 226.000000

>ms2
85.026670 80.000000
98.034550 20.000000
109.068000 31.000000
118.774890 30.000000
128.267790 50.000000
133.058990 118.000000
133.067050 197.000000
137.059750 704.000000
137.066500 231.000000
138.060150 120.000000
138.067290 58.000000
138.074780 24.000000
139.066360 20.000000
146.045180 37.000000
149.064000 29.000000
150.063420 20.000000
151.066860 31.000000
151.073180 126.000000
152.075640 24.000000
159.999100 17.000000
163.057270 45.000000
163.077270 990.000000
164.072590 23.000000
168.399690 31.000000
171.089630 26.000000
173.636800 78.000000
175.074810 43.000000
175.110840 42.000000
187.070010 23.000000
188.087630 50.000000
189.059600 30.000000
189.091770 204.000000
190.080980 33.000000
191.073650 40.000000
191.093930 20.000000
193.086820 42.000000
194.089780 27.000000
194.102400 20.000000
195.099180 26.000000
203.099900 37.000000
203.121190 17.000000
204.109770 31.000000
206.086590 37.000000
206.095630 108.000000
206.106140 24.000000
207.109890 19.000000
207.127580 46.000000
208.094470 17.000000
217.070220 55.000000
217.086590 26.000000
219.097240 43.000000
219.115400 33.000000
220.109270 44.000000
225.091540 75.000000
229.369900 17.000000
245.082670 26.000000
249.112870 34.000000
263.026310 18.000000
263.104340 85.000000
263.114900 72.000000
264.101810 17.000000
284.912200 22.000000
291.097660 25.000000
294.773740 17.000000
295.121430 183.000000
295.135040 393.000000
295.156950 38.000000
295.571900 17.000000
296.122830 29.000000
296.137390 43.000000
298.117580 27.000000
302.453250 18.000000
304.089690 24.000000
311.106020 29.000000
324.128600 20.000000
325.108120 42.000000
325.158480 52.000000
326.144840 20.000000
327.159360 1000.000000
328.148680 42.000000
328.167600 52.000000
338.154940 19.000000
341.122860 36.000000
341.138790 22.000000
342.121550 39.000000
342.159300 73.000000
343.147340 34.000000
344.171810 115.000000
344.185940 26.000000
345.164700 44.000000
346.152830 17.000000
351.161770 24.000000
355.131990 22.000000
355.145570 17.000000
362.174160 29.000000
362.186370 23.000000
364.178800 21.000000
367.128140 25.000000
369.162660 34.000000
385.162720 27.000000
427.639130 18.000000

>ms2
97.023360 67.000000
116.059880 43.000000
123.041780 43.000000
131.047730 110.000000
131.082980 108.000000
133.063000 151.000000
137.058900 1000.000000
137.071350 33.000000
138.060030 43.000000
138.067230 82.000000
147.085560 35.000000
163.077220 84.000000
165.048750 45.000000
175.070710 84.000000
175.084370 39.000000
176.082530 43.000000
177.092480 57.000000
187.074580 47.000000
189.088260 39.000000
189.095120 37.000000
194.094590 61.000000
203.094770 35.000000
203.105590 71.000000
207.125790 35.000000
219.098450 43.000000
264.102170 39.000000

>ms2
85.027360 43.000000
121.062370 50.000000
123.078520 43.000000
127.040100 32.000000
132.045210 58.000000
133.058010 37.000000
133.065600 182.000000
137.059070 855.000000
145.049580 200.000000
147.070850 54.000000
149.056270 59.000000
151.075390 113.000000
152.072160 48.000000
157.075390 80.000000
162.032420 39.000000
163.060090 35.000000
163.073880 391.000000
163.402790 37.000000
164.075740 65.000000
176.090840 33.000000
189.082050 35.000000
189.090290 46.000000
189.648740 71.000000
190.097030 33.000000
191.116270 32.000000
193.087310 32.000000
194.076610 45.000000
194.093060 96.000000
194.099750 32.000000
206.079010 65.000000
206.091130 39.000000
207.067020 45.000000
207.099950 50.000000
218.091810 37.000000
219.099880 102.000000
220.096690 72.000000
220.106600 61.000000
221.111880 50.000000
233.111920 52.000000
235.104480 56.000000
239.131380 41.000000
263.110750 46.000000
277.114320 52.000000
294.915890 39.000000
295.124080 56.000000
295.137850 280.000000
296.120480 30.000000
296.132350 95.000000
296.186580 45.000000
317.144380 33.000000
323.118190 39.000000
325.124020 128.000000
326.143740 69.000000
327.142240 341.000000
327.152370 709.000000
327.165800 492.000000
327.181300 61.000000
327.562620 72.000000
328.132900 37.000000
328.153050 197.000000
328.166990 282.000000
329.152740 32.000000
329.163970 39.000000
332.696560 32.000000
337.163480 33.000000
337.540650 91.000000
338.149840 61.000000
342.147610 71.000000
343.165220 32.000000
344.156220 91.000000
344.167660 139.000000
345.165740 1000.000000
345.181340 486.000000
346.177700 312.000000
347.164490 43.000000
347.180790 33.000000
349.669950 32.000000
353.145630 61.000000
355.143250 39.000000
359.215210 33.000000
363.178990 429.000000
363.195190 87.000000
364.173710 59.000000
364.186430 135.000000
365.174740 41.000000
365.190640 48.000000
369.166320 35.000000
411.187840 32.000000
411.370330 35.000000
471.220000 32.000000
506.208770 76.000000
506.223910 82.000000
507.214050 63.000000
524.230100 87.000000
524.249570 37.000000
525.154110 41.000000
525.223820 69.000000
525.253660 186.000000
526.244080 54.000000
686.276060 219.000000
687.237060 41.000000
687.282530 534.000000

>ms2
165.056110 12.000000
190.091800 16.000000
237.112840 21.000000
245.649630 16.000000
322.133540 25.000000
325.111050 128.000000
325.129240 13.000000
326.123020 27.000000
327.142030 24.000000
327.158780 73.000000
328.133030 12.000000
328.147250 13.000000
328.165710 15.000000
330.390530 12.000000
343.141540 38.000000
345.089110 11.000000
345.161250 133.000000
345.172330 398.000000
346.065730 12.000000
346.105560 17.000000
346.175350 158.000000
347.163970 13.000000
362.178160 31.000000
363.010990 13.000000
363.148190 43.000000
363.178340 1000.000000
364.181700 136.000000
365.175320 12.000000
374.121890 12.000000
378.057040 12.000000
382.154210 11.000000
406.206820 13.000000
425.106020 14.000000
488.181730 13.000000
491.217530 13.000000
503.108950 12.000000
506.209170 88.000000
507.195430 17.000000
507.219640 65.000000
508.234040 12.000000
515.130190 21.000000
523.233280 12.000000
524.212520 44.000000
524.234250 54.000000
525.216610 129.000000
525.233460 262.000000
526.234860 71.000000
527.231510 14.000000
574.754520 16.000000
645.365660 18.000000
651.253300 12.000000
669.261720 14.000000
669.277590 17.000000
670.274230 15.000000
670.309750 13.000000
685.246830 12.000000
686.263670 66.000000
686.291020 397.000000
687.268370 279.000000
687.288940 603.000000

>ms2
85.027070 29.000000
97.020900 44.000000
107.049110 43.000000
123.046830 26.000000
127.039550 40.000000
129.044620 26.000000
133.063600 189.000000
137.031040 35.000000
137.056980 413.000000
137.064530 426.000000
138.060580 106.000000
138.069840 145.000000
139.076920 29.000000
142.298200 37.000000
143.045700 38.000000
145.042270 29.000000
145.050800 193.000000
145.060790 31.000000
147.080430 26.000000
149.060820 38.000000
150.168750 39.000000
151.078110 104.000000
152.373470 31.000000
157.061690 31.000000
163.054470 70.000000
163.075030 1000.000000
164.077820 25.000000
165.086120 29.000000
171.076260 25.000000
173.051030 23.000000
173.087200 29.000000
175.074330 68.000000
177.094090 26.000000
189.094150 171.000000
190.097790 95.000000
201.092070 33.000000
203.065020 64.000000
203.084090 43.000000
203.101330 125.000000
205.095930 38.000000
206.092210 119.000000
219.087780 101.000000
219.106660 151.000000
219.214070 25.000000
219.348270 23.000000
220.101650 56.000000
221.117810 22.000000
223.384410 22.000000
236.103230 40.000000
261.108060 40.000000
263.111450 26.000000
265.123080 42.000000
267.139370 27.000000
295.133060 663.000000
296.138180 63.000000
296.147950 57.000000
305.128630 33.000000
305.205660 29.000000
325.140620 178.000000
327.158420 718.000000
327.183930 40.000000
327.197630 23.000000
328.141140 56.000000
328.162660 296.000000
329.163210 31.000000
337.138890 29.000000
342.146700 44.000000
344.158570 141.000000
344.170440 106.000000
345.165890 123.000000
351.138150 22.000000
362.174740 26.000000
369.171360 25.000000
385.151730 38.000000
385.174160 38.000000
386.166750 29.000000
411.172940 33.000000
411.193480 27.000000
417.177920 59.000000
536.642030 22.000000

>ms2
71.051050 26.000000
85.024990 22.000000
85.030860 33.000000
103.049550 19.000000
107.041180 24.000000
122.033250 22.000000
124.052880 30.000000
129.064180 19.000000
131.050490 140.000000
133.058960 50.000000
133.067730 58.000000
134.069240 16.000000
134.075410 37.000000
135.043590 19.000000
135.076460 67.000000
137.059800 1000.000000
137.507750 32.000000
138.058670 45.000000
138.067080 86.000000
139.067000 20.000000
139.214490 24.000000
143.037930 23.000000
143.053360 17.000000
143.086270 17.000000
145.046980 26.000000
145.057130 46.000000
145.069110 40.000000
146.051740 22.000000
146.115190 31.000000
147.076580 29.000000
151.075940 186.000000
151.131320 24.000000
160.049240 27.000000
161.053270 45.000000
163.068330 124.000000
163.077840 158.000000
164.079410 52.000000
171.075360 25.000000
171.085570 32.000000
174.064010 31.000000
175.067490 42.000000
175.074690 72.000000
175.086430 28.000000
176.074140 16.000000
179.060290 21.000000
183.096150 37.000000
187.069430 19.000000
188.083210 22.000000
189.084720 72.000000
189.097750 46.000000
190.094770 31.000000
203.115050 22.000000
204.114670 30.000000
213.097310 23.000000
219.092540 16.000000
219.103490 24.000000
225.084810 38.000000
233.076310 28.000000
275.093810 23.000000
312.123320 39.000000
362.824680 22.000000

>ms2
120.932750 25.000000
121.062420 38.000000
123.083620 17.000000
126.860120 24.000000
127.035510 25.000000
127.048780 30.000000
131.041630 30.000000
133.064410 81.000000
135.087510 26.000000
137.060970 514.000000
138.068300 97.000000
145.050220 37.000000
147.087400 34.000000
149.066010 18.000000
151.070470 20.000000
151.075700 53.000000
163.060230 45.000000
163.077880 282.000000
176.078720 48.000000
177.053880 33.000000
189.089250 77.000000
193.087390 24.000000
194.098560 23.000000
203.094700 37.000000
203.112950 43.000000
206.098310 39.000000
207.094920 17.000000
207.106230 34.000000
208.119670 26.000000
219.104580 129.000000
220.102660 20.000000
220.113620 26.000000
231.111790 17.000000
239.121950 31.000000
244.291600 22.000000
265.124690 20.000000
273.105530 22.000000
276.996400 20.000000
293.116270 23.000000
295.113070 52.000000
295.130310 168.000000
296.127320 33.000000
298.161620 45.000000
314.307280 17.000000
325.104280 17.000000
325.114350 18.000000
325.174070 17.000000
326.139680 25.000000
327.103700 20.000000
327.130400 32.000000
327.159790 971.000000
328.155000 27.000000
328.167970 48.000000
328.182220 51.000000
329.164490 33.000000
334.731320 27.000000
339.156560 29.000000
344.160860 108.000000
344.169310 42.000000
345.144170 23.000000
345.169400 650.000000
345.185730 127.000000
346.178250 138.000000
351.160280 20.000000
355.155850 17.000000
363.105160 25.000000
363.181880 525.000000
363.852360 20.000000
364.170900 17.000000
364.190160 59.000000
364.206020 17.000000
365.183070 43.000000
367.154210 24.000000
369.163820 21.000000
385.710570 18.000000
409.157530 17.000000
441.189240 17.000000
471.197970 20.000000
506.195680 97.000000
506.208160 41.000000
507.217830 61.000000
524.225650 49.000000
524.252990 18.000000
524.938780 19.000000
525.226320 39.000000
525.243590 136.000000
526.242740 17.000000
526.259520 24.000000
539.019170 20.000000
686.266660 85.000000
686.288210 170.000000
687.263120 133.000000
687.282590 79.000000
687.315370 122.000000

