>compound PR91301925
>parentmass 197.08083566153846
>ionization [M+H]+
>formula C10H12O4
>rt 258.773520
>profile qtof
#smiles_iso CC(=O)C1=CC(=C(C(=C1)OC)O)OC
#smiles_can CC(=O)C1=CC(=C(C(=C1)OC)O)OC
#inchikey OJOBTAOGJIWAGB-UHFFFAOYSA-N
#pubchem_id 17198
#mb_accession PR304133,PR304135,PR304137,PR304139,PR304141,PR304143,PR304145,PR304147,PR304149,PR304151,PR304153,PR304155,PR310780

>ms2
91.057380 10.000000
93.581830 8.000000
97.037640 8.000000
108.017270 7.000000
109.065380 13.000000
123.044880 39.000000
125.022560 64.000000
138.032100 13.000000
140.046340 285.000000
141.055890 9.000000
153.050220 21.000000
155.069980 721.000000
155.109470 12.000000
156.072250 75.000000
156.968990 16.000000
158.956190 11.000000
181.050220 60.000000
182.051540 19.000000
193.320140 9.000000
196.072200 17.000000
196.511380 7.000000
197.080370 1000.000000

>ms2
140.044430 15.000000
140.051730 8.000000
155.070470 601.000000
156.074630 48.000000
157.076390 8.000000
158.964480 6.000000
181.036610 5.000000
181.046080 6.000000
181.054430 13.000000
196.073430 36.000000
197.080930 1000.000000

>ms2
69.034260 41.000000
82.042710 37.000000
85.029890 41.000000
93.034610 98.000000
95.044510 50.000000
97.027970 39.000000
110.034520 75.000000
110.041470 81.000000
125.023300 886.000000
140.046780 1000.000000
140.059340 35.000000
141.012510 39.000000
141.055760 35.000000
153.054150 37.000000
155.068530 75.000000
181.053390 54.000000

>ms2
97.032970 837.000000
125.021320 571.000000
135.042430 408.000000
197.078600 1000.000000

>ms2
65.039210 11.000000
77.033860 6.000000
95.046710 18.000000
96.963230 8.000000
97.005590 6.000000
97.029750 23.000000
108.026070 9.000000
122.025860 8.000000
123.038420 9.000000
123.048440 11.000000
125.024020 23.000000
125.171050 11.000000
140.033770 24.000000
140.047880 335.000000
141.047290 7.000000
141.056140 8.000000
145.572780 7.000000
155.039750 14.000000
155.069810 866.000000
156.075000 90.000000
180.866930 9.000000
181.051280 86.000000
182.030930 7.000000
182.048200 8.000000
196.077450 8.000000
197.042180 7.000000
197.051560 9.000000
197.080230 1000.000000

>ms2
123.043390 6.000000
140.044270 24.000000
155.069690 550.000000
156.073810 54.000000
181.051380 18.000000
196.073090 29.000000
197.080700 1000.000000

>ms2
77.032160 18.000000
82.046390 26.000000
92.024620 18.000000
94.037740 18.000000
95.052150 33.000000
95.483980 47.000000
97.019050 29.000000
97.029110 76.000000
110.020980 19.000000
111.043400 18.000000
123.006420 21.000000
123.046590 47.000000
125.023570 302.000000
125.114700 18.000000
126.018260 20.000000
126.027870 67.000000
132.968480 18.000000
138.033480 21.000000
140.047470 1000.000000
141.041920 21.000000
141.053480 25.000000
153.049130 26.000000
164.033280 19.000000

>ms2
97.028530 1000.000000
98.025130 232.000000
125.019330 427.000000
197.083590 463.000000

>ms2
95.020290 11.000000
96.051350 10.000000
96.962970 8.000000
108.027890 9.000000
109.065560 9.000000
111.044270 12.000000
113.957830 10.000000
113.966350 12.000000
123.039580 30.000000
123.045420 8.000000
125.023640 24.000000
137.060610 9.000000
137.956650 9.000000
140.045240 376.000000
141.046220 16.000000
141.052190 31.000000
142.055940 11.000000
142.925900 8.000000
154.986430 8.000000
155.068510 1000.000000
156.072600 83.000000
156.083500 16.000000
157.070280 9.000000
157.084990 9.000000
158.967710 9.000000
181.047320 48.000000
181.053300 19.000000
182.058580 22.000000
196.068410 10.000000
196.094860 9.000000
197.078290 931.000000
197.085170 349.000000

>ms2
140.045850 23.000000
155.070040 510.000000
156.069020 20.000000
156.076460 37.000000
157.077330 7.000000
181.047350 12.000000
196.072880 18.000000
197.081250 1000.000000

>ms2
84.457050 45.000000
95.049670 35.000000
97.031540 145.000000
110.036720 31.000000
119.051360 25.000000
122.034240 26.000000
123.005270 38.000000
123.040800 62.000000
125.023330 397.000000
126.024970 62.000000
140.046710 1000.000000
141.046630 125.000000
141.056870 66.000000
146.492290 44.000000
155.060120 26.000000
159.965870 28.000000
181.045790 70.000000
181.062470 28.000000
197.079850 34.000000

>ms2
97.031630 481.000000
123.045520 1000.000000
125.022320 885.000000
155.072490 423.000000
197.076630 346.000000

>ms2
91.057380 23.000000
93.581830 19.000000
97.037640 19.000000
108.017270 17.000000
109.065380 29.000000
123.044880 90.000000
125.022560 147.000000
138.032100 29.000000
140.046340 655.000000
141.055890 20.000000
153.050220 49.000000
155.069980 1655.000000
155.109470 27.000000
156.072250 173.000000
156.968990 37.000000
158.956190 25.000000
181.050220 138.000000
182.051540 44.000000
193.320140 20.000000
196.072200 39.000000
196.511380 17.000000
197.080370 2297.000000

