>compound PR91403436
>parentmass 597.1450113
>ionization [M+H]+
>formula C26H28O16
>rt 221.962020
>profile qtof
#smiles_iso C1[C@@H]([C@@H]([C@H]([C@@H](O1)OC[C@@H]2[C@H]([C@@H]([C@H]([C@@H](O2)OC3=C(OC4=CC(=CC(=C4C3=O)O)O)C5=CC(=C(C=C5)O)O)O)O)O)O)O)O
#smiles_can C1C(C(C(C(O1)OCC2C(C(C(C(O2)OC3=C(OC4=CC(=CC(=C4C3=O)O)O)C5=CC(=C(C=C5)O)O)O)O)O)O)O)O
#inchikey YNMFDPCLPIMRFD-KSPKLRDJSA-N
#pubchem_id 5484066
#mb_accession PR302343,PR302349,PR302355,PR302361,PR302366,PR302372,PR302377,PR302382,PR302387,PR302392,PR302398,PR302403

>ms2
85.030900 9.000000
97.019980 7.000000
104.040160 6.000000
115.035050 6.000000
115.043770 6.000000
127.043520 9.000000
134.061190 5.000000
146.054900 7.000000
146.242420 6.000000
157.057340 5.000000
163.061940 11.000000
192.649690 10.000000
201.057590 7.000000
229.074340 8.000000
241.062270 5.000000
241.070100 8.000000
259.082490 11.000000
277.089870 7.000000
303.008510 20.000000
303.050840 1000.000000
304.053530 199.000000
305.045070 14.000000
305.057950 20.000000
339.050050 6.000000
345.060060 7.000000
411.076450 5.000000
435.084750 29.000000
435.101260 16.000000
437.104030 6.000000
465.101780 89.000000
465.131870 9.000000
477.103330 5.000000
597.145690 226.000000

>ms2
85.021030 7.000000
115.041240 8.000000
145.051360 10.000000
163.064500 11.000000
179.639740 8.000000
181.035490 6.000000
223.054980 16.000000
259.070770 19.000000
277.088200 9.000000
295.101870 23.000000
301.019870 6.000000
302.957640 7.000000
302.996670 13.000000
303.007900 20.000000
303.051700 735.000000
304.050990 216.000000
305.060270 30.000000
306.056400 11.000000
306.744510 6.000000
313.837010 8.000000
333.881040 9.000000
345.072270 18.000000
374.680300 7.000000
399.077580 12.000000
402.331880 8.000000
409.499760 11.000000
435.088200 98.000000
435.130040 9.000000
436.077360 11.000000
436.091490 18.000000
436.112790 8.000000
437.101780 16.000000
446.080020 14.000000
447.055760 9.000000
447.095150 9.000000
465.057830 8.000000
465.096710 102.000000
465.127350 8.000000
465.317170 9.000000
466.093080 9.000000
466.111630 21.000000
476.000950 11.000000
597.034240 8.000000
597.091190 14.000000
597.127010 281.000000
597.150330 1000.000000

>ms2
67.013080 6.000000
69.035480 6.000000
73.032040 13.000000
85.023820 7.000000
85.028350 19.000000
97.025130 17.000000
97.033360 5.000000
99.042150 17.000000
115.037010 23.000000
133.052350 12.000000
223.059560 16.000000
241.077550 8.000000
302.973180 9.000000
303.049500 1000.000000
304.041200 65.000000
304.054110 93.000000
304.071350 9.000000
304.730070 5.000000
305.051790 50.000000
305.064880 15.000000
315.052890 6.000000
399.053250 6.000000
447.094670 14.000000
465.089600 8.000000

>ms2
69.033450 54.000000
71.770640 13.000000
85.030720 77.000000
87.039250 17.000000
115.046860 13.000000
121.025150 15.000000
133.047740 19.000000
137.023420 68.000000
152.984630 16.000000
153.005830 18.000000
153.020020 77.000000
153.031630 13.000000
161.062770 26.000000
163.015240 12.000000
163.038150 22.000000
164.050460 21.000000
164.881300 12.000000
165.011340 58.000000
165.022490 35.000000
173.018800 15.000000
173.056880 26.000000
179.037160 26.000000
203.015790 15.000000
229.035750 13.000000
229.061630 30.000000
230.478780 18.000000
247.055940 17.000000
247.067250 15.000000
257.034700 38.000000
258.188570 12.000000
285.031010 13.000000
288.428560 20.000000
299.059510 15.000000
302.038420 12.000000
303.025850 22.000000
303.053280 1000.000000
303.999390 12.000000
304.043400 51.000000
304.060700 89.000000
305.048100 12.000000
306.460880 28.000000
308.943020 16.000000
309.157560 13.000000
315.055080 13.000000
316.073460 16.000000
327.059940 16.000000
328.065090 13.000000
345.078640 17.000000
381.023620 15.000000
381.061710 13.000000
399.060850 13.000000

>ms2
97.028060 29.000000
115.039580 23.000000
127.034900 6.000000
127.041070 7.000000
128.039430 5.000000
133.044540 6.000000
133.055190 12.000000
145.050320 12.000000
163.060300 6.000000
193.470080 5.000000
229.428800 5.000000
259.084840 11.000000
260.088620 11.000000
286.043000 5.000000
302.988190 6.000000
303.005950 24.000000
303.050450 1000.000000
303.179810 5.000000
304.052580 162.000000
305.007140 7.000000
305.056210 46.000000
370.066960 7.000000
435.051910 5.000000
435.076390 14.000000
435.096160 30.000000
435.120390 10.000000
435.404660 5.000000
465.100280 80.000000
465.123050 16.000000
466.114530 19.000000
557.363400 8.000000
577.151980 12.000000
597.077640 6.000000
597.105040 11.000000
597.144900 128.000000
597.177310 12.000000

>ms2
133.037690 10.000000
145.045590 5.000000
146.049670 6.000000
164.059840 12.000000
259.085600 27.000000
303.001400 18.000000
303.049290 683.000000
304.048160 37.000000
304.062620 25.000000
305.018890 7.000000
305.051210 24.000000
306.046390 6.000000
345.048280 6.000000
368.305240 6.000000
383.734130 6.000000
399.058200 5.000000
435.066380 18.000000
435.087950 76.000000
435.108950 17.000000
436.094910 19.000000
436.116940 6.000000
437.092040 6.000000
437.108950 7.000000
465.098720 46.000000
465.113620 82.000000
466.098240 13.000000
467.081630 7.000000
467.112090 6.000000
467.129790 7.000000
596.144170 5.000000
596.973750 7.000000
597.148380 1000.000000

>ms2
73.024310 11.000000
85.028470 20.000000
91.035220 6.000000
97.031510 18.000000
99.044060 9.000000
115.034470 11.000000
133.050610 6.000000
138.060550 7.000000
145.041960 9.000000
145.055620 5.000000
146.051880 9.000000
198.882260 6.000000
228.045470 5.000000
241.059810 7.000000
303.016050 10.000000
303.049560 1000.000000
304.030270 18.000000
304.051450 154.000000
304.062560 47.000000
305.058290 49.000000
345.062680 10.000000
369.058140 6.000000

>ms2
59.049700 10.000000
60.039130 8.000000
60.511800 6.000000
69.035380 8.000000
71.011690 8.000000
73.030010 26.000000
85.030490 40.000000
87.040370 17.000000
97.027790 57.000000
98.035380 12.000000
98.081000 6.000000
109.025760 20.000000
111.006770 8.000000
123.006660 5.000000
127.038660 11.000000
127.048010 6.000000
133.051540 13.000000
137.013340 8.000000
137.019840 21.000000
137.029800 8.000000
139.024900 11.000000
139.031780 7.000000
149.032650 6.000000
151.045320 10.000000
153.008270 11.000000
153.016300 16.000000
153.023500 14.000000
154.017270 12.000000
161.059340 6.000000
163.040570 5.000000
165.000080 8.000000
165.010540 14.000000
165.020540 44.000000
169.590680 6.000000
170.022060 7.000000
183.851390 5.000000
187.038540 11.000000
201.053090 8.000000
202.057710 12.000000
213.059040 8.000000
228.899990 9.000000
229.044010 58.000000
230.398450 7.000000
231.060350 14.000000
245.040940 10.000000
246.059070 6.000000
247.071820 13.000000
257.018310 17.000000
257.046360 51.000000
258.047850 32.000000
270.205140 6.000000
273.998750 9.000000
274.031890 8.000000
274.044070 22.000000
274.126830 7.000000
276.050990 5.000000
285.015560 17.000000
285.026520 20.000000
291.535280 9.000000
299.056060 10.000000
302.239900 8.000000
303.005040 24.000000
303.048070 1000.000000
304.019070 8.000000
304.051760 198.000000
305.047760 14.000000
305.068970 11.000000
306.055390 5.000000
310.233860 9.000000
393.060150 6.000000

>ms2
73.027170 19.000000
85.025340 10.000000
97.022450 9.000000
97.030570 10.000000
99.037110 5.000000
109.027140 10.000000
115.036650 9.000000
127.037220 16.000000
133.044240 6.000000
133.051450 7.000000
133.058320 9.000000
145.041380 16.000000
145.053180 9.000000
163.062680 31.000000
193.040970 8.000000
241.076750 9.000000
259.081850 12.000000
295.104710 5.000000
300.889070 5.000000
303.009190 8.000000
303.048800 1000.000000
304.018740 11.000000
304.044040 44.000000
304.053010 145.000000
305.047420 21.000000
305.069180 7.000000
345.042940 5.000000
411.085170 9.000000
435.085050 7.000000
435.099880 16.000000
435.126530 5.000000
436.090550 8.000000
465.063050 12.000000
465.110110 60.000000
467.096650 13.000000
597.145140 115.000000
597.164730 44.000000

>ms2
97.024640 5.000000
145.049390 5.000000
163.053240 5.000000
210.435200 10.000000
212.104340 7.000000
259.074010 6.000000
259.083920 9.000000
260.089840 5.000000
277.070740 6.000000
280.594700 8.000000
297.234410 7.000000
297.716710 5.000000
302.851070 8.000000
303.003510 7.000000
303.020690 9.000000
303.052120 792.000000
303.105620 5.000000
304.041750 86.000000
304.059050 75.000000
305.026310 5.000000
305.050050 7.000000
305.060180 7.000000
345.056820 6.000000
379.378420 11.000000
381.728880 7.000000
411.064730 7.000000
435.093200 97.000000
435.112460 18.000000
436.098240 51.000000
436.112370 17.000000
437.096370 11.000000
448.095000 7.000000
459.437010 6.000000
463.079130 11.000000
464.898010 5.000000
465.056760 8.000000
465.107390 157.000000
466.085390 12.000000
466.107330 32.000000
467.108150 6.000000
469.094180 6.000000
477.042850 9.000000
597.087770 32.000000
597.147460 1000.000000

>ms2
73.029240 20.000000
85.030330 11.000000
97.026820 21.000000
115.037220 14.000000
127.040310 9.000000
133.037810 11.000000
133.047520 17.000000
133.052150 7.000000
145.047440 34.000000
203.838350 8.000000
259.079190 7.000000
303.014340 29.000000
303.049410 1000.000000
304.020360 15.000000
304.052520 203.000000
305.052920 37.000000
345.063810 13.000000
412.075470 8.000000
429.068940 6.000000
465.101620 5.000000

>ms2
73.028780 76.000000
81.036250 14.000000
85.022270 12.000000
85.031720 14.000000
86.028040 21.000000
99.040470 38.000000
105.031850 14.000000
109.028260 11.000000
121.022140 10.000000
123.040240 17.000000
127.042020 18.000000
137.017360 14.000000
137.025180 17.000000
145.046390 18.000000
149.034650 17.000000
152.032520 10.000000
153.005570 12.000000
153.016460 63.000000
161.061370 13.000000
163.033080 20.000000
165.022160 11.000000
166.016660 22.000000
177.674770 17.000000
186.802920 14.000000
191.031420 14.000000
194.018540 18.000000
195.028810 20.000000
205.052140 19.000000
209.617000 13.000000
209.798070 29.000000
229.052120 125.000000
229.060680 31.000000
230.041470 14.000000
247.056500 13.000000
251.424580 12.000000
255.854950 15.000000
257.042080 27.000000
257.052310 60.000000
257.847630 19.000000
273.034480 16.000000
274.035830 21.000000
275.049040 13.000000
275.963680 14.000000
285.003360 14.000000
285.039180 38.000000
286.019840 12.000000
286.054840 13.000000
289.187930 14.000000
303.014010 13.000000
303.046780 1000.000000
303.058410 403.000000
304.013180 10.000000
304.043400 86.000000
304.058260 227.000000
304.077850 24.000000
314.653960 13.000000
315.048250 22.000000
317.035190 10.000000
355.070430 11.000000
369.026790 13.000000

