>compound PR91845756
>parentmass 531.2357
>ionization [M+H]+
>formula C27H34N2O9
>rt 261.600000
>profile qtof
#smiles_iso COC(=O)C1=COC(C(C1CC2C3=C(CCN2)C4=CC=CC=C4N3)C=C)OC5C(C(C(C(O5)CO)O)O)O
#smiles_can COC(=O)C1=COC(C(C1CC2C3=C(CCN2)C4=CC=CC=C4N3)C=C)OC5C(C(C(C(O5)CO)O)O)O
#inchikey XBAMJZTXGWPTRM-UHFFFAOYSA-N
#pubchem_id 3262516
#mb_accession PR311110

>ms2
85.032260 41.000000
92.043380 24.000000
119.058350 20.000000
127.040570 16.000000
129.070720 18.000000
130.063610 33.000000
130.072330 18.000000
133.030170 20.000000
144.080460 117.000000
151.033450 16.000000
151.040770 50.000000
153.053800 16.000000
156.060900 16.000000
156.091380 17.000000
165.048550 18.000000
165.057390 109.000000
168.067690 17.000000
170.095140 17.000000
170.105680 16.000000
171.102620 20.000000
173.100100 17.000000
174.050900 27.000000
183.545170 17.000000
184.064250 20.000000
194.102800 20.000000
195.107270 19.000000
200.358610 16.000000
204.082980 16.000000
208.095570 16.000000
210.128570 17.000000
220.064350 17.000000
230.104110 20.000000
231.097020 16.000000
232.109160 17.000000
232.118260 34.000000
235.390530 20.000000
236.163830 25.000000
240.101440 17.000000
245.091380 18.000000
246.092610 20.000000
246.145720 20.000000
250.097140 73.000000
250.111880 111.000000
251.097630 66.000000
255.133330 16.000000
256.123930 18.000000
260.112300 16.000000
264.134250 16.000000
265.113190 16.000000
267.115660 16.000000
267.151670 18.000000
267.165070 18.000000
273.135470 16.000000
274.083100 16.000000
274.107240 17.000000
274.127260 43.000000
275.114230 16.000000
278.076780 22.000000
280.140080 24.000000
281.137120 17.000000
282.115810 36.000000
282.130520 51.000000
283.084230 20.000000
283.131530 18.000000
284.116390 26.000000
287.100490 16.000000
288.110410 23.000000
290.114410 19.000000
292.150020 16.000000
299.146910 18.000000
301.110810 18.000000
302.120360 37.000000
303.128480 16.000000
306.110630 17.000000
308.118870 17.000000
309.125030 21.000000
312.212490 24.000000
320.118160 47.000000
320.134310 34.000000
320.184660 16.000000
321.130130 16.000000
322.135220 41.000000
322.149810 39.000000
323.125180 18.000000
323.157470 16.000000
333.147640 18.000000
333.165130 16.000000
334.138670 80.000000
335.132840 16.000000
338.147640 19.000000
340.140870 80.000000
341.149780 33.000000
342.167080 16.000000
349.186040 22.000000
350.131130 17.000000
351.178590 22.000000
352.144590 177.000000
353.131990 20.000000
353.144590 40.000000
353.162410 32.000000
387.500700 22.000000
402.110200 17.000000
413.140660 16.000000
414.189060 16.000000
444.203830 22.000000
447.698150 23.000000
452.159910 16.000000
503.216400 34.000000
514.195740 311.000000
514.215390 507.000000
515.201970 71.000000
515.220760 23.000000
516.200560 32.000000
517.209660 16.000000
531.235410 2070.000000

