>compound PR91725259
>parentmass 290.1750700857143
>ionization [M+H]+
>formula C17H23NO3
>rt 215.822554
>profile qtof
#smiles_iso CN1C2CCC1CC(C2)OC(=O)C(CO)C3=CC=CC=C3
#smiles_can CN1C2CCC1CC(C2)OC(=O)C(CO)C3=CC=CC=C3
#inchikey RKUNBYITZUJHSG-UHFFFAOYSA-N
#pubchem_id 3661
#mb_accession PR300830,PR300834,PR300838,PR300842,PR300846,PR300850,PR300854,PR300857,PR300861,PR300865,PR300869,PR300873,PR310564,PR310565

>ms2
91.054920 12.000000
93.070660 69.000000
94.073900 7.000000
121.068150 5.000000
124.112470 213.000000
125.116630 28.000000
142.121050 9.000000
260.165100 7.000000
290.177030 1000.000000
290.225590 32.000000

>ms2
124.112540 10.000000
290.175900 1000.000000
290.224120 37.000000
290.268280 6.000000

>ms2
67.056030 16.000000
68.050690 6.000000
70.064870 7.000000
77.039300 27.000000
82.066750 23.000000
83.071590 15.000000
91.055050 93.000000
92.058190 9.000000
93.070440 468.000000
94.073240 51.000000
95.075420 9.000000
95.086810 50.000000
96.081030 24.000000
97.088810 7.000000
98.093170 5.000000
103.054210 20.000000
121.066450 41.000000
122.096010 8.000000
124.112780 1000.000000
124.143500 9.000000
125.116970 129.000000
126.119390 6.000000
140.107670 8.000000
142.123460 48.000000
260.168300 11.000000
290.175290 133.000000

>ms2
65.041310 15.000000
65.459050 13.000000
67.049380 24.000000
67.055920 211.000000
67.063180 16.000000
67.439580 8.000000
68.043860 6.000000
68.049960 80.000000
68.057300 15.000000
69.066280 7.000000
69.074120 20.000000
70.067660 17.000000
71.383610 9.000000
76.965610 6.000000
77.010380 6.000000
77.021020 9.000000
77.028720 13.000000
77.040210 535.000000
77.087650 7.000000
77.168530 6.000000
77.834970 7.000000
78.042750 12.000000
78.046870 15.000000
78.598650 6.000000
79.052270 100.000000
80.216090 6.000000
81.056140 7.000000
81.064990 10.000000
82.066350 68.000000
83.048290 9.000000
83.057620 7.000000
83.073750 54.000000
83.081840 11.000000
84.079880 9.000000
86.054800 6.000000
86.062450 28.000000
91.036470 9.000000
91.055250 763.000000
92.042220 7.000000
92.060330 70.000000
93.070950 1000.000000
94.049600 7.000000
94.060620 29.000000
94.072650 149.000000
94.081830 23.000000
95.042860 7.000000
95.072270 72.000000
95.080860 29.000000
95.086290 45.000000
96.080350 113.000000
96.090100 7.000000
97.087550 9.000000
98.083740 10.000000
98.097590 73.000000
100.077320 9.000000
102.427280 12.000000
103.041160 19.000000
103.055190 640.000000
104.057800 64.000000
105.063670 8.000000
107.076100 10.000000
108.075270 7.000000
108.083280 33.000000
108.137550 7.000000
109.091380 47.000000
110.097600 7.000000
115.056010 7.000000
121.063990 61.000000
122.092540 9.000000
122.101960 16.000000
124.095100 19.000000
124.112900 319.000000
124.127380 11.000000
125.119610 28.000000
127.986350 7.000000
128.915500 14.000000
140.095230 22.000000
140.110180 49.000000
142.105130 15.000000
142.122210 213.000000
143.122590 10.000000
143.128740 8.000000
160.449430 8.000000
197.923740 6.000000
216.071880 7.000000
277.327060 7.000000
290.170500 76.000000
290.198210 9.000000

>ms2
91.054770 11.000000
93.070330 66.000000
95.085820 7.000000
121.064950 6.000000
124.112870 249.000000
125.117890 25.000000
142.123030 11.000000
260.167300 8.000000
290.175690 1000.000000
290.223720 34.000000
290.376160 16.000000

>ms2
124.113100 11.000000
290.175230 1000.000000
290.223600 38.000000
290.267940 6.000000

>ms2
67.054940 24.000000
70.067310 6.000000
77.041500 12.000000
79.056320 9.000000
82.065220 35.000000
83.073410 12.000000
91.055210 89.000000
93.070700 474.000000
94.074500 42.000000
95.074650 18.000000
95.086510 33.000000
96.083370 17.000000
98.097820 7.000000
103.055440 24.000000
109.090680 6.000000
121.066090 35.000000
124.112560 1000.000000
124.143590 6.000000
125.116710 140.000000
126.122450 8.000000
140.105770 13.000000
142.123470 56.000000
143.128220 7.000000
214.162230 7.000000
260.163240 9.000000
290.174650 138.000000

>ms2
51.019390 10.000000
51.561690 7.000000
56.047340 7.000000
65.040320 31.000000
66.507900 8.000000
67.039810 14.000000
67.048290 29.000000
67.056270 177.000000
68.049460 121.000000
68.054950 14.000000
68.060480 7.000000
69.053170 17.000000
69.472600 7.000000
69.879330 9.000000
70.064760 69.000000
70.068410 31.000000
77.028110 9.000000
77.039250 547.000000
78.040570 16.000000
78.046280 37.000000
79.052400 30.000000
79.056920 69.000000
80.043100 9.000000
80.050630 18.000000
81.055300 12.000000
81.061810 8.000000
82.065730 167.000000
83.060850 8.000000
83.071430 58.000000
84.078450 8.000000
85.733270 10.000000
86.053010 7.000000
91.055480 973.000000
91.164340 11.000000
92.058500 67.000000
93.057020 8.000000
93.071110 1000.000000
93.923140 7.000000
94.065610 28.000000
94.075000 92.000000
94.929640 10.000000
95.073040 55.000000
95.083760 37.000000
95.090440 40.000000
95.650670 7.000000
95.945750 7.000000
96.081050 140.000000
97.091680 11.000000
98.083410 7.000000
98.090000 12.000000
98.098300 88.000000
99.466940 13.000000
103.054980 787.000000
103.321400 8.000000
103.371110 8.000000
104.056590 41.000000
104.063720 54.000000
107.073580 9.000000
107.090390 8.000000
108.032750 8.000000
108.077640 61.000000
108.083910 36.000000
109.021160 14.000000
109.088230 8.000000
118.042180 8.000000
121.063190 41.000000
121.072010 7.000000
122.092250 12.000000
124.083840 7.000000
124.113990 481.000000
125.115520 35.000000
125.776840 8.000000
140.106920 17.000000
140.113820 29.000000
142.094540 7.000000
142.109880 8.000000
142.123030 295.000000
142.138920 8.000000
143.123570 10.000000
143.131260 7.000000
167.398380 12.000000
201.880600 29.000000
280.209870 9.000000

>ms2
91.055520 11.000000
93.070950 64.000000
103.054340 6.000000
121.065770 7.000000
124.112930 222.000000
125.116600 27.000000
142.121960 10.000000
290.176300 1000.000000
290.224730 35.000000
290.376500 14.000000

>ms2
124.114200 10.000000
290.176330 1000.000000
290.224370 38.000000

>ms2
67.053500 11.000000
67.058100 11.000000
70.066340 7.000000
77.039440 15.000000
82.063110 11.000000
82.066930 25.000000
83.072200 8.000000
91.054330 91.000000
92.057010 7.000000
93.070390 464.000000
94.073730 57.000000
95.072320 6.000000
95.085770 36.000000
96.080510 23.000000
96.089890 5.000000
98.095790 8.000000
103.055110 23.000000
109.087430 8.000000
121.065690 42.000000
124.112310 1000.000000
124.144910 6.000000
125.116230 129.000000
126.117610 6.000000
140.110810 6.000000
142.122880 62.000000
143.121770 7.000000
214.163220 7.000000
260.164060 11.000000
290.175020 155.000000

>ms2
55.053140 19.000000
56.044100 20.000000
65.041940 27.000000
67.047800 24.000000
67.055010 238.000000
68.051300 93.000000
68.061450 9.000000
69.669850 7.000000
70.058910 11.000000
70.065280 72.000000
70.071780 16.000000
77.028020 26.000000
77.039880 602.000000
77.108100 9.000000
78.036710 9.000000
78.043700 30.000000
79.055440 44.000000
79.061710 13.000000
81.057450 35.000000
81.067890 11.000000
81.574940 8.000000
82.053400 8.000000
82.064550 180.000000
82.442700 7.000000
83.068200 36.000000
83.073650 52.000000
84.040760 7.000000
84.341750 11.000000
86.887490 7.000000
91.040690 11.000000
91.055980 826.000000
91.874220 9.000000
91.926170 8.000000
92.057210 81.000000
92.670320 7.000000
93.052750 7.000000
93.071490 1000.000000
94.052240 9.000000
94.062550 26.000000
94.069850 73.000000
94.077800 15.000000
94.226950 8.000000
95.066990 8.000000
95.074200 65.000000
95.084990 126.000000
96.080230 123.000000
96.182030 8.000000
97.082670 7.000000
98.090630 17.000000
98.098320 109.000000
98.105280 22.000000
103.031110 8.000000
103.055250 740.000000
104.057030 85.000000
105.058990 13.000000
105.075250 24.000000
107.048720 11.000000
107.053320 12.000000
108.081090 86.000000
109.087390 46.000000
112.058830 10.000000
112.490750 7.000000
121.057430 15.000000
121.064220 49.000000
121.489560 8.000000
122.067340 8.000000
122.097230 26.000000
122.269640 7.000000
123.105930 9.000000
124.024270 8.000000
124.112690 427.000000
124.129720 7.000000
124.435650 8.000000
125.114910 16.000000
125.124430 24.000000
125.692230 12.000000
137.517030 10.000000
140.086040 8.000000
140.099980 17.000000
140.109160 11.000000
141.064970 12.000000
141.111010 13.000000
142.089890 8.000000
142.105130 8.000000
142.119980 107.000000
142.129430 52.000000
143.119770 30.000000

>ms2
56.052860 22.000000
57.059700 18.000000
57.122630 19.000000
58.058240 26.000000
58.065260 37.000000
59.938670 19.000000
67.043230 46.000000
67.047890 19.000000
67.055470 215.000000
68.027140 42.000000
68.042830 18.000000
68.050330 51.000000
68.207110 31.000000
69.051090 31.000000
69.056160 28.000000
70.065320 101.000000
70.227810 17.000000
73.507790 23.000000
77.041060 489.000000
79.056920 120.000000
80.305770 18.000000
81.052070 18.000000
81.277840 23.000000
82.054520 30.000000
82.065730 377.000000
83.065830 34.000000
83.073370 207.000000
83.088580 30.000000
84.075910 36.000000
84.086290 18.000000
86.482920 37.000000
86.508430 19.000000
86.699180 29.000000
88.572650 18.000000
89.330560 30.000000
89.814770 17.000000
91.035840 28.000000
91.051990 507.000000
91.056050 958.000000
91.173970 52.000000
92.058140 143.000000
92.544370 42.000000
93.046750 108.000000
93.069950 5741.000000
93.133010 20.000000
93.167950 31.000000
93.442430 23.000000
93.546860 19.000000
93.582600 17.000000
94.065060 132.000000
94.074680 590.000000
94.634550 21.000000
95.075310 38.000000
95.084180 190.000000
95.089300 133.000000
95.120550 38.000000
95.993100 17.000000
96.076560 154.000000
96.081720 91.000000
96.087150 47.000000
97.087760 52.000000
98.095120 91.000000
98.472770 17.000000
99.681630 28.000000
99.946330 17.000000
102.048420 60.000000
103.052500 291.000000
103.375030 17.000000
104.065050 25.000000
107.088580 22.000000
108.953800 18.000000
109.095870 81.000000
109.850140 17.000000
110.096860 21.000000
110.974510 17.000000
113.164490 17.000000
116.026190 25.000000
117.063770 23.000000
121.063100 502.000000
121.258280 46.000000
122.073010 72.000000
122.096540 46.000000
123.094770 27.000000
124.014110 27.000000
124.047620 20.000000
124.068210 33.000000
124.081760 60.000000
124.087900 248.000000
124.112630 23118.000000
124.144330 313.000000
124.552860 20.000000
124.732420 19.000000
124.819960 18.000000
124.981570 17.000000
125.048500 18.000000
125.090870 36.000000
125.115490 3246.000000
125.162310 17.000000
125.935060 17.000000
126.121670 182.000000
126.130020 53.000000
127.114850 30.000000
127.577120 18.000000
127.679350 21.000000
128.200100 17.000000
128.332150 19.000000
130.093090 30.000000
130.228260 24.000000
131.052220 26.000000
136.496980 17.000000
137.435680 19.000000
140.069260 50.000000
140.107560 179.000000
142.102340 117.000000
142.122010 924.000000
142.129610 195.000000
143.118670 30.000000
143.127140 43.000000
144.054120 20.000000
146.074370 27.000000
146.439930 23.000000
154.070650 20.000000
157.102870 20.000000
159.887360 25.000000
164.264220 33.000000
164.948640 18.000000
165.592300 20.000000
168.056610 25.000000
169.107730 36.000000
169.688160 38.000000
169.782240 18.000000
170.940610 17.000000
171.115360 33.000000
172.472440 33.000000
173.184770 24.000000
175.272860 31.000000
176.507170 22.000000
177.604690 28.000000
178.338120 18.000000
180.303630 27.000000
182.204240 17.000000
182.890500 22.000000
184.226440 25.000000
189.659230 17.000000
191.535000 30.000000
203.990720 28.000000
206.282750 20.000000
208.811770 23.000000
213.907560 17.000000
214.160000 167.000000
215.159910 23.000000
215.172240 38.000000
215.582990 18.000000
217.782650 19.000000
223.475690 31.000000
224.393040 27.000000
226.414250 31.000000
230.901660 30.000000
231.871170 45.000000
232.640080 20.000000
241.451480 22.000000
242.148990 41.000000
242.158490 50.000000
243.045650 24.000000
247.544270 18.000000
248.267610 23.000000
252.990330 33.000000
260.109800 17.000000
260.133820 18.000000
260.162020 610.000000
260.172300 257.000000
261.172330 96.000000
261.180480 29.000000
261.334750 18.000000
261.479680 32.000000
266.447170 21.000000
266.641750 22.000000
266.659060 42.000000
267.166410 24.000000
268.324550 24.000000
270.851650 17.000000
272.127780 20.000000
272.161100 81.000000
272.172360 33.000000
276.103520 53.000000
277.444490 24.000000
282.923190 29.000000
284.634550 18.000000
284.647190 35.000000
284.692140 18.000000
284.908110 18.000000
285.162990 19.000000
285.626010 17.000000
286.141480 17.000000
286.228210 17.000000
286.386410 18.000000
288.210910 18.000000
288.350830 17.000000
288.879330 20.000000
289.171540 28.000000
289.427190 20.000000
289.481170 17.000000
289.491420 23.000000
289.707210 21.000000
289.728420 17.000000
289.836150 17.000000
289.866790 27.000000
289.909270 17.000000
289.982670 37.000000
290.000120 20.000000
290.069000 63.000000
290.104060 92.000000
290.123960 61.000000
290.136260 69.000000
290.176390 91544.000000
290.199070 34.000000
290.224950 3360.000000
290.269530 727.000000
290.315520 34.000000
290.324460 35.000000
290.376620 1564.000000

>ms2
56.770940 21.000000
57.058730 23.000000
58.066070 19.000000
58.200130 17.000000
65.036680 17.000000
67.036690 23.000000
67.057400 312.000000
68.056100 23.000000
70.067320 111.000000
77.032540 51.000000
77.037990 148.000000
77.043790 83.000000
78.045160 17.000000
79.052990 18.000000
79.058850 20.000000
81.067930 18.000000
82.060100 39.000000
82.066890 219.000000
83.070980 74.000000
83.076430 16.000000
83.656010 17.000000
83.785170 18.000000
84.077810 30.000000
86.062870 17.000000
87.119630 35.000000
88.653730 18.000000
91.054920 909.000000
91.098830 26.000000
92.057610 100.000000
93.055870 44.000000
93.070660 5186.000000
93.653560 22.000000
94.073900 536.000000
95.072340 64.000000
95.086340 351.000000
96.080750 360.000000
98.098790 101.000000
103.049580 132.000000
103.057140 312.000000
103.070400 23.000000
104.053960 38.000000
104.060160 21.000000
107.087680 74.000000
109.080850 17.000000
109.088020 40.000000
109.093810 18.000000
110.085980 18.000000
110.096230 38.000000
114.333790 19.000000
117.074210 33.000000
121.061350 183.000000
121.068150 404.000000
121.875670 19.000000
122.063670 68.000000
122.070250 17.000000
122.092610 17.000000
122.205700 17.000000
123.100580 30.000000
123.416040 18.000000
123.485080 20.000000
123.696400 53.000000
124.065870 30.000000
124.086510 125.000000
124.112470 16126.000000
124.145750 72.000000
124.674840 45.000000
125.079590 24.000000
125.116630 2153.000000
125.609380 18.000000
126.119580 86.000000
126.129670 34.000000
126.340340 25.000000
126.411870 18.000000
126.582940 17.000000
127.044230 23.000000
127.120020 17.000000
128.665700 21.000000
129.014070 17.000000
130.447430 21.000000
131.046250 20.000000
135.432500 19.000000
140.104610 73.000000
142.026080 19.000000
142.058380 18.000000
142.121050 644.000000
143.087080 21.000000
143.128010 19.000000
143.138950 51.000000
149.058760 21.000000
151.099120 19.000000
155.501310 40.000000
163.484470 27.000000
168.403080 17.000000
169.114000 24.000000
169.464890 18.000000
171.988740 18.000000
173.330030 27.000000
174.211670 25.000000
174.854570 18.000000
177.805360 18.000000
178.721130 28.000000
180.628910 20.000000
181.395570 36.000000
182.650740 25.000000
182.845320 20.000000
183.614530 25.000000
184.031860 28.000000
184.119800 18.000000
185.105480 18.000000
186.097580 26.000000
188.907640 17.000000
192.143480 33.000000
202.451660 24.000000
202.539830 21.000000
210.730650 24.000000
211.683520 30.000000
214.141010 22.000000
214.150740 41.000000
216.828750 23.000000
221.778560 18.000000
224.858550 20.000000
228.613110 23.000000
233.909350 17.000000
238.432630 32.000000
242.151950 141.000000
242.169250 24.000000
243.168760 19.000000
250.994890 38.000000
253.489790 31.000000
256.979610 24.000000
257.728820 33.000000
259.144410 17.000000
259.867000 18.000000
260.124270 36.000000
260.165100 516.000000
260.662290 22.000000
261.168880 134.000000
262.054440 21.000000
262.168610 20.000000
262.183530 17.000000
262.717160 23.000000
263.408450 18.000000
265.357270 17.000000
269.517300 22.000000
270.158630 24.000000
277.444090 18.000000
285.996430 20.000000
289.001280 17.000000
289.467680 17.000000
289.717530 18.000000
289.750000 20.000000
289.786620 22.000000
289.896180 17.000000
289.967500 39.000000
290.065920 18.000000
290.095920 75.000000
290.119630 80.000000
290.137420 18.000000
290.177030 75600.000000
290.225590 2418.000000
290.270290 189.000000

