>compound PR91658156
>parentmass 675.2265
>ionization [M+H]+
>formula C40H34O10
>rt 493.200000
>profile qtof
#smiles_iso CC(=CCC1=C(C=CC(=C1)C2=COC3=C(C2=O)C(=CC(=C3C(C=C(C)C)C4=C(C=CC(=C4)C5=COC6=CC(=CC(=C6C5=O)O)O)O)O)O)O)C
#smiles_can CC(=CCC1=C(C=CC(=C1)C2=COC3=C(C2=O)C(=CC(=C3C(C=C(C)C)C4=C(C=CC(=C4)C5=COC6=CC(=CC(=C6C5=O)O)O)O)O)O)O)C
#inchikey HCKWMBTVENMFOU-UHFFFAOYSA-N
#pubchem_id 53344647
#mb_accession PR311124

>ms2peaks
121.024830 37.000000
122.030910 17.000000
149.018570 22.000000
149.028610 19.000000
190.091000 30.000000
205.071010 65.000000
205.083680 108.000000
205.102710 21.000000
206.089600 20.000000
294.084470 20.000000
295.079960 25.000000
314.046050 17.000000
320.545070 22.000000
322.113980 18.000000
323.103450 33.000000
335.085540 35.000000
349.092680 22.000000
351.135440 67.000000
361.105350 54.000000
369.071590 20.000000
369.090270 18.000000
373.080540 19.000000
387.082430 19.000000
395.048100 20.000000
396.023770 27.000000
397.084290 24.000000
400.055150 18.000000
401.023500 18.000000
401.058140 21.000000
402.069310 22.000000
407.133700 18.000000
413.065670 159.000000
417.054470 22.000000
424.125580 17.000000
425.057160 20.000000
425.143830 36.000000
426.078490 74.000000
427.063660 20.000000
427.089290 30.000000
427.107970 20.000000
435.156460 18.000000
439.127470 17.000000
440.118260 23.000000
440.131810 23.000000
443.081970 26.000000
443.131810 72.000000
443.152100 35.000000
443.164150 28.000000
445.167210 18.000000
453.136170 65.000000
457.655580 21.000000
468.114780 17.000000
469.062810 22.000000
469.111540 37.000000
469.137910 24.000000
470.134920 21.000000
476.137510 22.000000
481.097660 37.000000
481.126370 65.000000
481.142820 46.000000
481.194610 17.000000
481.216030 28.000000
482.121920 34.000000
482.142460 59.000000
492.209200 33.000000
497.151640 20.000000
509.175080 20.000000
509.214810 64.000000
510.198640 40.000000
536.026610 20.000000
537.168400 190.000000
537.200990 1138.000000
537.249270 21.000000
538.187930 180.000000
538.203060 386.000000
539.072020 23.000000
539.185550 20.000000
540.203610 19.000000
587.609380 26.000000
594.103390 18.000000
673.214970 18.000000
675.217160 342.000000
675.294250 27.000000

