>compound PR92029015
>parentmass 781.4732686999997
>ionization [M+H]+
>formula C42H68O13
>rt 495.187020
>profile qtof
#smiles_iso C[C@@H]1C(C([C@H]([C@@H](O1)O[C@H]2CC[C@]3([C@H]([C@]2(C)CO)CC[C@@]4([C@@H]3C=CC56[C@]4(CC([C@@]7(C5CC(CC7)(C)C)CO6)O)C)C)C)O)OC8[C@@H](C(C(C(O8)CO)O)O)O)O
#smiles_can CC1C(C(C(C(O1)OC2CCC3(C(C2(C)CO)CCC4(C3C=CC56C4(CC(C7(C5CC(CC7)(C)C)CO6)O)C)C)C)O)OC8C(C(C(C(O8)CO)O)O)O)O
#inchikey KYWSCMDFVARMPN-DISCDMJRSA-N
#pubchem_id 71581504
#mb_accession PR304350,PR304354,PR304358,PR304362,PR304366,PR304369,PR304373,PR304376,PR304380,PR304384,PR304388,PR304392

>ms2
75.043690 28.000000
86.009520 34.000000
109.105320 29.000000
119.083380 29.000000
135.111370 33.000000
145.057250 28.000000
163.068310 28.000000
173.129790 31.000000
175.060070 43.000000
175.148880 164.000000
178.166750 29.000000
187.146010 34.000000
196.593020 28.000000
199.074340 28.000000
201.164350 28.000000
205.155780 62.000000
207.166840 33.000000
215.180220 124.000000
218.168950 29.000000
219.072910 31.000000
219.176180 40.000000
241.193740 34.000000
251.187100 34.000000
253.204850 34.000000
254.191100 59.000000
259.199070 29.000000
259.219940 50.000000
261.186130 29.000000
273.108250 36.000000
281.231050 29.000000
283.200810 60.000000
285.222530 28.000000
297.227660 28.000000
309.117250 40.000000
309.217800 29.000000
321.247010 28.000000
351.224460 38.000000
379.304080 46.000000
397.299220 38.000000
398.304260 36.000000
407.243870 28.000000
407.326780 34.000000
407.341130 90.000000
412.315060 36.000000
417.902220 52.000000
419.316130 28.000000
419.340850 29.000000
421.116490 31.000000
425.325410 43.000000
425.346280 64.000000
426.342560 53.000000
426.376890 28.000000
437.333010 117.000000
437.351010 31.000000
438.341490 28.000000
438.367370 29.000000
455.305630 28.000000
455.353270 1000.000000
455.393280 28.000000
456.045900 45.000000
456.192570 33.000000
456.351350 260.000000
456.371980 59.000000
457.343050 28.000000
473.364200 198.000000
473.387330 65.000000
474.324650 34.000000
490.277130 34.000000
491.769170 29.000000
584.046810 41.000000
601.388980 28.000000
601.417790 60.000000
602.483280 28.000000
617.417240 33.000000
619.401920 40.000000
620.349300 34.000000
635.415770 31.000000
745.411250 34.000000
746.448000 29.000000
763.471370 88.000000
764.487670 67.000000
766.489990 29.000000
781.478270 442.000000
781.645570 29.000000

>ms2
75.765360 21.000000
106.179270 17.000000
169.778870 18.000000
217.066800 17.000000
345.979000 22.000000
349.279240 18.000000
419.322450 17.000000
425.349880 19.000000
429.134610 17.000000
437.337620 18.000000
455.355560 256.000000
456.327450 39.000000
456.361240 38.000000
457.331790 18.000000
457.354980 19.000000
458.347470 18.000000
466.440640 19.000000
469.241030 18.000000
473.274660 18.000000
473.360960 177.000000
474.298800 17.000000
474.356720 35.000000
474.375790 38.000000
475.360170 17.000000
532.046750 22.000000
559.385380 21.000000
583.393680 18.000000
601.389830 32.000000
601.420840 53.000000
619.398620 53.000000
619.421140 144.000000
619.451230 34.000000
620.427730 143.000000
621.418520 17.000000
621.437990 30.000000
635.401860 17.000000
735.474670 24.000000
745.471310 21.000000
746.446230 25.000000
763.460080 210.000000
764.435180 18.000000
764.463070 82.000000
765.471560 21.000000
780.477170 19.000000
781.476260 1000.000000

>ms2
75.044730 39.000000
111.042450 39.000000
122.108570 39.000000
147.070210 39.000000
151.110470 47.000000
163.146190 42.000000
169.103300 52.000000
185.135450 54.000000
187.130020 81.000000
187.148280 42.000000
189.136920 49.000000
193.169860 39.000000
204.181380 39.000000
205.167880 79.000000
211.147720 49.000000
215.183670 133.000000
217.146990 39.000000
217.196170 52.000000
219.181030 59.000000
223.164760 39.000000
225.168670 39.000000
227.162930 42.000000
232.198010 62.000000
233.191970 81.000000
239.182750 42.000000
240.186830 42.000000
241.203050 57.000000
243.183590 39.000000
246.189350 47.000000
247.163390 39.000000
249.189990 52.000000
251.185760 94.000000
254.059890 59.000000
267.192870 44.000000
267.210570 79.000000
269.194490 39.000000
269.203860 57.000000
283.204710 59.000000
285.219270 39.000000
295.209900 39.000000
300.951110 47.000000
314.189330 39.000000
325.257170 42.000000
350.289520 96.000000
377.285250 39.000000
379.314880 39.000000
389.317200 135.000000
390.321620 84.000000
391.352940 57.000000
397.305880 39.000000
397.323640 76.000000
398.301880 79.000000
398.322200 42.000000
401.325470 47.000000
402.318450 42.000000
407.334290 84.000000
408.329530 101.000000
408.345460 39.000000
411.352260 57.000000
419.327730 131.000000
420.324710 42.000000
421.260860 49.000000
425.323670 39.000000
425.346770 261.000000
426.320040 39.000000
426.359190 111.000000
428.939790 74.000000
436.123170 57.000000
437.335510 355.000000
438.297790 52.000000
438.323700 62.000000
438.350400 99.000000
439.355680 39.000000
455.328830 421.000000
455.351750 1000.000000
455.373170 236.000000
455.582730 49.000000
456.358860 362.000000
457.362210 42.000000
473.363530 47.000000
473.383940 49.000000
512.352290 47.000000
569.363830 49.000000
600.400150 52.000000
601.372380 57.000000
601.400820 49.000000
763.469670 52.000000
764.453800 39.000000

>ms2
69.071850 163.000000
82.992380 163.000000
95.088260 769.000000
97.102090 154.000000
105.068620 183.000000
109.108880 183.000000
111.082040 173.000000
119.086740 183.000000
123.116870 202.000000
134.112640 173.000000
135.114300 163.000000
135.123840 163.000000
137.094710 231.000000
145.045500 462.000000
145.052540 154.000000
147.117490 163.000000
149.131360 1000.000000
161.097170 279.000000
163.110600 279.000000
168.152500 163.000000
169.097630 269.000000
175.125090 154.000000
175.160400 163.000000
177.166050 346.000000
179.153210 163.000000
184.129100 202.000000
187.125870 212.000000
187.140140 173.000000
187.158910 327.000000
201.175520 500.000000
203.181810 154.000000
205.158460 163.000000
211.154130 183.000000
213.164090 375.000000
213.177690 183.000000
214.171390 154.000000
215.167910 433.000000
215.182390 173.000000
216.154480 173.000000
217.147710 192.000000
217.163330 375.000000
218.202930 154.000000
219.177170 154.000000
225.169020 192.000000
225.917310 163.000000
227.145980 212.000000
227.182430 173.000000
228.170490 173.000000
230.167080 173.000000
232.182130 212.000000
233.144590 173.000000
238.172900 202.000000
239.172000 154.000000
241.198290 163.000000
245.191480 337.000000
251.179960 154.000000
253.204880 510.000000
254.211650 154.000000
255.210770 154.000000
259.212220 202.000000
268.215580 173.000000
269.215880 192.000000
271.147640 173.000000
280.214480 154.000000
287.252660 154.000000
290.235570 221.000000
291.216610 212.000000
299.240020 163.000000
309.229770 154.000000
337.262940 192.000000
349.277890 173.000000
355.397310 163.000000
360.290160 173.000000
379.286470 154.000000
390.345430 183.000000
397.309720 154.000000
398.324830 173.000000
411.323300 298.000000
419.321930 154.000000
437.333560 202.000000
455.363040 163.000000
456.336210 250.000000

>ms2
75.047290 20.000000
109.103120 40.000000
127.038370 26.000000
145.020290 21.000000
145.039980 26.000000
145.101530 20.000000
165.126010 26.000000
167.141070 24.000000
189.158650 20.000000
193.164250 41.000000
201.170470 29.000000
204.149340 22.000000
205.172030 21.000000
209.153780 20.000000
215.168660 20.000000
217.198910 22.000000
219.140230 21.000000
231.179150 20.000000
232.181980 25.000000
233.137340 20.000000
254.204700 22.000000
255.164760 26.000000
257.186650 20.000000
281.221160 29.000000
299.252170 25.000000
311.230900 42.000000
337.257110 20.000000
359.219480 20.000000
361.284210 36.000000
367.298650 40.000000
376.308780 21.000000
379.291840 27.000000
379.314850 22.000000
391.325870 21.000000
397.303410 20.000000
407.330110 42.000000
408.363680 21.000000
411.350490 20.000000
419.307590 20.000000
419.336940 21.000000
420.318020 21.000000
425.327150 25.000000
425.343870 49.000000
437.334440 173.000000
437.352510 65.000000
438.340330 100.000000
443.342900 20.000000
455.351530 1000.000000
456.175020 21.000000
456.319340 20.000000
456.350400 272.000000
457.340330 41.000000
457.369080 20.000000
473.369510 141.000000
474.373050 59.000000
474.402370 37.000000
573.389100 20.000000
584.398070 20.000000
601.408690 20.000000
601.438840 20.000000
620.415590 20.000000
635.398320 54.000000
733.472290 35.000000
761.822810 20.000000
763.441160 96.000000
763.481200 60.000000
763.506840 20.000000
764.445860 20.000000
764.471010 54.000000
781.376460 20.000000
781.420780 47.000000
781.468140 395.000000

>ms2
102.529750 15.000000
386.301700 15.000000
407.321960 17.000000
419.232910 21.000000
437.338440 71.000000
437.362370 35.000000
438.326810 18.000000
438.353090 37.000000
450.027500 21.000000
450.280360 24.000000
455.015380 19.000000
455.294950 15.000000
455.325290 33.000000
455.353550 256.000000
456.238340 16.000000
456.334780 15.000000
457.358220 36.000000
473.342350 26.000000
473.373690 34.000000
474.355530 17.000000
474.374820 61.000000
475.360320 15.000000
601.392700 15.000000
619.419740 151.000000
619.446350 50.000000
620.409850 72.000000
620.434810 38.000000
620.464840 26.000000
621.427610 33.000000
635.364620 17.000000
635.419130 34.000000
636.438720 19.000000
733.457210 15.000000
746.398680 24.000000
747.455690 15.000000
763.458560 216.000000
763.500180 38.000000
764.469420 15.000000
764.503300 15.000000
765.465390 15.000000
779.673400 16.000000
780.682500 21.000000
781.450320 240.000000
781.484860 1000.000000

>ms2
69.031460 27.000000
75.044650 25.000000
85.024130 25.000000
98.101850 32.000000
107.043400 32.000000
123.118170 32.000000
127.032260 25.000000
137.095230 25.000000
145.052120 25.000000
147.070050 25.000000
149.126400 57.000000
163.061190 32.000000
163.151200 27.000000
164.062620 56.000000
165.112210 25.000000
165.133350 25.000000
173.138000 27.000000
175.149780 51.000000
185.104510 25.000000
187.148090 25.000000
193.163830 27.000000
201.148620 45.000000
202.156720 25.000000
202.171400 27.000000
203.147130 29.000000
205.152850 25.000000
207.170120 52.000000
213.163830 27.000000
215.177290 94.000000
217.146760 25.000000
223.164540 59.000000
231.171040 25.000000
233.189670 54.000000
235.169250 38.000000
247.207790 27.000000
253.186040 51.000000
253.198410 29.000000
254.195770 29.000000
259.209470 25.000000
261.191680 32.000000
265.191190 33.000000
267.200100 35.000000
267.210300 25.000000
271.210750 32.000000
273.081360 32.000000
297.213960 27.000000
301.212710 29.000000
335.265720 38.000000
351.220550 68.000000
353.254240 29.000000
361.291320 29.000000
369.287510 29.000000
369.890530 64.000000
377.304380 32.000000
380.307620 27.000000
389.315250 30.000000
389.331760 37.000000
389.343230 25.000000
390.313050 25.000000
393.298130 32.000000
393.318970 37.000000
396.349610 32.000000
397.305450 25.000000
401.321380 25.000000
401.333500 30.000000
401.345490 27.000000
402.839260 25.000000
407.310060 32.000000
407.328670 25.000000
407.341190 37.000000
407.942230 32.000000
412.340610 78.000000
419.295100 38.000000
419.317870 25.000000
419.341220 81.000000
420.332550 25.000000
425.162750 25.000000
425.339840 68.000000
427.346650 30.000000
433.380040 43.000000
437.335600 100.000000
437.353030 145.000000
438.326020 25.000000
438.351440 79.000000
454.242490 25.000000
455.351650 1000.000000
455.455660 25.000000
456.309300 29.000000
456.351780 216.000000
456.381840 25.000000
457.362270 84.000000
473.369630 32.000000
583.405940 38.000000
599.385620 29.000000
601.377560 25.000000
763.457580 25.000000

>ms2
81.037140 161.000000
85.029040 136.000000
93.059680 136.000000
95.089970 271.000000
97.028750 195.000000
105.051680 144.000000
105.063790 153.000000
107.089570 280.000000
109.097730 305.000000
111.046450 246.000000
111.081860 153.000000
112.054400 136.000000
120.093450 161.000000
121.093380 136.000000
121.102340 136.000000
123.083900 297.000000
123.116330 619.000000
128.041310 398.000000
131.091370 144.000000
133.106900 169.000000
145.047380 178.000000
145.057240 136.000000
146.102340 178.000000
147.065250 136.000000
149.133060 288.000000
150.141130 169.000000
151.116650 415.000000
153.091370 144.000000
157.099980 203.000000
161.119050 322.000000
163.148900 492.000000
165.122760 136.000000
165.164660 136.000000
174.140500 322.000000
175.147420 1000.000000
176.144670 136.000000
177.156330 136.000000
177.167190 136.000000
183.121370 136.000000
185.134630 271.000000
186.143070 178.000000
187.147630 610.000000
188.151640 322.000000
191.129620 186.000000
191.138150 144.000000
195.147870 144.000000
197.128300 169.000000
199.153520 347.000000
201.121720 136.000000
201.153230 169.000000
201.168000 144.000000
203.175750 144.000000
203.192980 136.000000
206.140140 153.000000
207.115840 212.000000
207.182360 178.000000
209.945280 136.000000
213.156890 297.000000
213.171880 246.000000
215.162190 347.000000
217.161190 314.000000
220.305360 136.000000
227.176910 161.000000
231.175990 144.000000
232.210040 153.000000
241.194920 136.000000
245.190000 136.000000
248.353000 136.000000
253.158550 178.000000
253.194430 136.000000
253.203120 203.000000
255.174300 161.000000
255.206300 153.000000
265.205320 373.000000
267.205110 271.000000
268.223080 169.000000
269.229950 178.000000
276.193420 136.000000
279.217930 288.000000
281.215270 136.000000
284.201480 136.000000
285.216920 136.000000
293.222380 280.000000
310.230470 136.000000
313.204900 178.000000
317.218050 136.000000
320.239530 178.000000
321.214110 169.000000
349.305080 229.000000
351.265930 136.000000
373.221010 144.000000
377.343570 136.000000
379.285890 136.000000
379.297880 161.000000
380.290990 136.000000
381.305330 136.000000
391.303650 136.000000
391.338470 178.000000
393.302700 153.000000
393.318700 178.000000
397.325070 153.000000
398.313930 178.000000
409.291500 288.000000
409.341280 136.000000
411.314450 144.000000
411.347720 144.000000
415.304110 144.000000
419.336430 169.000000
437.357210 169.000000
455.350100 153.000000
456.340940 136.000000
456.366940 144.000000

>ms2
85.029130 26.000000
111.082090 33.000000
145.045200 45.000000
149.145130 26.000000
173.132770 35.000000
175.147920 24.000000
203.145800 26.000000
205.145900 29.000000
213.156780 24.000000
215.178210 26.000000
215.187030 29.000000
217.148700 24.000000
217.157670 30.000000
233.187300 27.000000
241.190670 30.000000
243.166820 26.000000
255.199460 27.000000
257.193180 24.000000
258.175690 29.000000
258.195470 26.000000
271.197690 32.000000
271.235630 24.000000
273.226470 30.000000
274.090970 26.000000
277.216800 61.000000
279.213590 24.000000
279.719730 36.000000
280.219700 26.000000
281.760250 30.000000
283.200930 24.000000
299.247340 68.000000
324.866300 24.000000
325.260800 35.000000
345.263610 32.000000
374.936890 29.000000
385.807250 27.000000
389.300750 24.000000
390.316410 27.000000
394.311430 33.000000
397.295560 24.000000
401.311130 24.000000
407.343440 24.000000
419.341250 26.000000
420.329130 67.000000
420.339480 24.000000
421.334530 29.000000
425.329830 24.000000
426.327180 56.000000
437.285400 27.000000
437.331300 62.000000
437.348450 89.000000
438.302640 55.000000
439.349670 29.000000
455.315670 38.000000
455.352940 1000.000000
456.337160 55.000000
456.361630 212.000000
457.361020 59.000000
473.333620 50.000000
473.359920 145.000000
474.391450 24.000000
475.363710 26.000000
517.268550 24.000000
539.507080 32.000000
559.331360 53.000000
619.399900 55.000000
619.471370 30.000000
620.432500 62.000000
620.446960 24.000000
621.395450 24.000000
635.316890 24.000000
635.399350 26.000000
635.423710 32.000000
636.390200 24.000000
637.433350 26.000000
674.414670 29.000000
746.475220 27.000000
763.425540 56.000000
763.451290 26.000000
763.469540 27.000000
764.403320 30.000000
764.449650 53.000000
765.437260 26.000000
781.475520 373.000000

>ms2
419.334810 36.000000
426.675540 43.000000
437.342650 37.000000
437.359680 34.000000
438.342440 77.000000
452.682530 36.000000
455.291840 36.000000
455.335210 128.000000
455.355010 120.000000
455.377560 39.000000
456.350740 83.000000
457.329990 39.000000
457.384860 32.000000
459.816710 37.000000
472.607450 34.000000
473.371310 191.000000
474.366730 37.000000
474.383940 63.000000
521.352420 51.000000
583.388000 36.000000
584.413090 32.000000
603.432560 32.000000
619.413450 233.000000
619.432920 118.000000
619.450260 67.000000
620.434020 126.000000
620.466430 39.000000
620.906980 39.000000
734.411500 34.000000
745.488590 34.000000
763.434390 154.000000
763.491580 41.000000
764.390870 34.000000
764.453000 51.000000
764.496770 36.000000
765.455020 32.000000
766.463010 34.000000
780.554380 32.000000
781.474370 1000.000000
781.520690 152.000000

>ms2
75.048390 24.000000
83.045290 34.000000
83.052380 28.000000
106.072890 29.000000
109.099460 81.000000
111.082450 31.000000
123.112470 31.000000
127.038150 31.000000
127.109700 31.000000
147.062230 28.000000
148.064480 24.000000
161.130260 64.000000
163.149170 66.000000
175.060730 24.000000
175.144610 26.000000
179.143980 31.000000
179.150700 24.000000
187.145510 35.000000
187.156800 26.000000
189.138410 26.000000
191.141940 29.000000
192.145970 31.000000
193.164140 26.000000
193.198360 26.000000
201.165940 57.000000
202.157040 24.000000
205.167980 49.000000
227.169070 26.000000
227.190020 57.000000
234.194170 86.000000
237.082700 24.000000
242.195470 24.000000
253.183430 43.000000
254.197810 55.000000
256.209840 28.000000
257.222200 37.000000
258.196170 24.000000
259.165470 31.000000
263.249150 28.000000
265.188080 34.000000
269.187740 24.000000
275.207610 43.000000
283.212010 24.000000
293.237730 24.000000
301.210240 24.000000
319.236880 24.000000
331.013820 24.000000
331.259830 24.000000
341.248500 24.000000
350.284330 28.000000
362.298400 28.000000
384.513890 26.000000
390.171140 28.000000
393.218570 32.000000
397.298000 47.000000
397.317260 44.000000
397.339510 35.000000
401.325560 34.000000
407.312470 24.000000
407.349880 26.000000
411.325350 43.000000
411.341130 41.000000
419.268370 26.000000
419.320400 106.000000
419.341710 76.000000
420.337620 29.000000
420.492610 26.000000
421.341000 24.000000
426.348970 92.000000
437.325590 110.000000
437.352420 119.000000
437.975520 26.000000
438.327790 34.000000
438.348020 26.000000
438.365660 34.000000
439.329900 24.000000
455.355650 1000.000000
456.339260 24.000000
456.357760 109.000000
457.362430 26.000000
473.381680 29.000000
474.348420 24.000000
548.403500 24.000000
599.329410 28.000000
601.413700 37.000000
763.453060 26.000000

>ms2
69.071780 157.000000
75.040920 206.000000
75.045870 157.000000
85.027920 471.000000
85.036500 157.000000
95.082870 353.000000
95.088010 157.000000
97.100660 402.000000
97.108090 225.000000
106.067190 157.000000
107.086720 431.000000
109.059450 157.000000
109.099210 333.000000
109.106990 373.000000
110.102650 186.000000
111.046260 441.000000
111.086140 422.000000
119.086810 431.000000
121.104590 324.000000
129.054240 167.000000
131.070470 186.000000
133.100830 373.000000
135.115740 853.000000
137.102720 196.000000
137.131040 176.000000
144.090900 176.000000
145.054780 235.000000
146.106740 206.000000
147.109920 167.000000
149.130020 196.000000
149.137440 157.000000
150.136440 304.000000
151.150590 167.000000
158.099350 157.000000
161.138240 343.000000
161.150240 157.000000
162.136800 176.000000
163.120440 216.000000
163.144680 196.000000
169.090480 157.000000
170.104970 343.000000
173.105260 167.000000
174.130140 157.000000
175.152240 167.000000
177.134780 157.000000
177.172850 167.000000
180.151440 186.000000
183.121490 157.000000
185.135150 225.000000
187.116930 225.000000
187.144970 206.000000
187.152730 353.000000
189.165800 206.000000
190.169240 510.000000
194.122280 176.000000
199.147520 157.000000
200.150540 167.000000
201.159240 186.000000
201.174120 157.000000
202.170820 186.000000
203.137990 196.000000
204.180400 294.000000
211.142380 186.000000
212.154330 167.000000
213.145110 186.000000
213.166120 157.000000
213.177830 167.000000
214.179120 176.000000
215.178270 157.000000
215.190550 157.000000
217.157940 167.000000
219.131480 186.000000
227.099750 353.000000
227.180040 167.000000
229.179870 206.000000
229.197630 206.000000
231.174320 539.000000
239.095790 216.000000
239.181110 324.000000
241.195660 373.000000
251.183170 235.000000
253.196750 176.000000
253.209780 176.000000
254.061070 167.000000
254.195140 235.000000
255.178010 245.000000
255.220790 196.000000
256.211730 157.000000
257.199010 196.000000
267.174800 157.000000
271.193820 206.000000
273.226990 206.000000
281.194850 294.000000
282.218410 157.000000
283.188630 157.000000
301.216460 324.000000
312.585140 167.000000
359.242070 167.000000
361.284910 235.000000
396.334110 176.000000
401.324620 167.000000
407.331880 167.000000
409.361240 176.000000
411.316500 333.000000
411.331050 157.000000
412.336060 157.000000
419.333590 1000.000000
425.334530 157.000000
427.362880 167.000000
437.344270 235.000000
438.337860 157.000000

