>compound PR92288526
>parentmass 668.3471
>ionization [M+NH4]+
>formula C30H50O15
>rt 541.200000
>profile qtof
#smiles_iso CCCCCC(=O)OC1C(C(C(OC1OC2(C(C(C(O2)CO)OC(=O)C)O)CO)CO)OC(=O)CCCC)OC(=O)CCCC
#smiles_can CCCCCC(=O)OC1C(C(C(OC1OC2(C(C(C(O2)CO)OC(=O)C)O)CO)CO)OC(=O)CCCC)OC(=O)CCCC
#inchikey UPRCEYHEHWELCG-UHFFFAOYSA-N
#pubchem_id 139292094
#mb_accession PR310740

>ms2peaks
108.927160 19.000000
109.028500 74.000000
109.053150 17.000000
110.038620 25.000000
127.042260 41.000000
142.173810 21.000000
145.041230 16.000000
145.052860 21.000000
169.043700 18.000000
169.061140 18.000000
173.174620 17.000000
211.093570 25.000000
253.108540 18.000000
268.124940 21.000000
268.134250 17.000000
269.109860 19.000000
269.123810 20.000000
383.202450 20.000000
471.258540 259.000000
472.258180 74.000000
472.278930 22.000000
473.254730 66.000000
668.348820 74.000000
668.384580 37.000000

