>compound PR92273474
>parentmass 355.1536
>ionization [M+H]+
>formula C21H22O5
>rt 543.600000
>profile qtof
#smiles_iso CC(=CCC1=C(C(=C(C=C1O)OC)C(=O)C=CC2=CC=C(C=C2)O)O)C
#smiles_can CC(=CCC1=C(C(=C(C=C1O)OC)C(=O)C=CC2=CC=C(C=C2)O)O)C
#inchikey ORXQGKIUCDPEAJ-UHFFFAOYSA-N
#pubchem_id 160869
#mb_accession PR310778

>ms2peaks
121.031970 20.000000
137.028640 23.000000
148.079270 18.000000
149.022480 197.000000
149.035290 27.000000
150.023900 40.000000
205.092160 20.000000
219.110240 19.000000
221.046800 22.000000
270.075590 32.000000
299.084260 50.000000
299.101380 38.000000
300.096800 73.000000
338.158290 20.000000
355.153590 88.000000

