>compound PR92243282
>parentmass 271.06009989999995
>ionization [M+H]+
>formula C15H10O5
>rt 353.467020
>profile qtof
#smiles_iso C1=CC(=CC=C1C2=CC(=O)C3=C(C=C(C=C3O2)O)O)O
#smiles_can C1=CC(=CC=C1C2=CC(=O)C3=C(C=C(C=C3O2)O)O)O
#inchikey KZNIFHPLKGYRTM-UHFFFAOYSA-N
#pubchem_id 5280443
#mb_accession PR302935,PR302940,PR302945,PR302950,PR302955,PR302960,PR302965,PR302970,PR302975,PR302980,PR302985,PR302990

>ms2
91.052700 8.000000
119.041460 5.000000
119.049740 18.000000
145.027600 18.000000
153.017330 86.000000
154.018940 9.000000
229.052570 6.000000
271.028230 12.000000
271.059660 1000.000000
271.108700 11.000000

>ms2
271.022610 15.000000
271.059170 1000.000000
271.106380 19.000000

>ms2
67.015170 30.000000
67.019590 6.000000
68.019620 7.000000
68.996690 25.000000
81.033930 8.000000
91.051500 26.000000
91.057840 23.000000
92.055340 6.000000
95.049640 7.000000
97.026120 15.000000
97.033290 7.000000
109.027150 16.000000
111.006450 17.000000
112.014080 7.000000
119.014440 7.000000
119.032980 11.000000
119.049060 316.000000
120.054000 39.000000
121.017560 5.000000
121.027680 100.000000
125.023700 23.000000
141.061100 7.000000
141.069230 20.000000
145.018300 17.000000
145.028240 87.000000
145.059810 11.000000
145.070140 7.000000
146.033040 14.000000
147.037920 7.000000
152.062380 6.000000
152.996550 11.000000
153.017820 754.000000
154.007600 5.000000
154.020840 58.000000
155.031160 6.000000
155.046690 5.000000
155.052410 5.000000
157.063610 8.000000
161.066020 10.000000
163.014210 5.000000
163.038470 65.000000
169.067280 5.000000
173.054900 7.000000
175.076630 5.000000
185.050200 7.000000
185.059660 6.000000
187.038540 13.000000
197.046170 5.000000
197.054820 17.000000
197.065400 12.000000
201.060460 7.000000
202.058850 6.000000
203.062700 18.000000
203.069890 14.000000
211.029020 9.000000
225.031480 5.000000
225.044340 18.000000
225.056750 24.000000
228.045460 5.000000
229.045070 29.000000
229.053620 23.000000
243.056490 8.000000
243.069210 30.000000
244.067700 12.000000
253.040300 8.000000
255.024870 6.000000
271.026090 35.000000
271.060390 1000.000000

>ms2
56.023630 48.000000
63.021400 51.000000
65.036840 62.000000
66.945300 65.000000
67.016640 198.000000
67.021120 191.000000
67.025400 90.000000
68.991950 157.000000
68.996190 85.000000
69.001300 131.000000
69.028530 55.000000
69.634990 51.000000
72.777400 39.000000
77.036060 62.000000
79.019620 85.000000
81.026620 69.000000
89.031210 46.000000
89.043810 62.000000
91.012370 69.000000
91.053430 1000.000000
93.034900 129.000000
94.037390 51.000000
97.027320 62.000000
97.032480 147.000000
102.042760 39.000000
109.370120 55.000000
110.997590 85.000000
111.010660 81.000000
112.978980 67.000000
113.037200 62.000000
115.053090 166.000000
115.061540 113.000000
116.054430 53.000000
117.033860 224.000000
117.037960 65.000000
118.036350 46.000000
119.044270 334.000000
120.052230 76.000000
121.007090 48.000000
121.020030 143.000000
121.025840 263.000000
121.033530 48.000000
125.014560 46.000000
126.039600 94.000000
131.043170 48.000000
135.014540 104.000000
139.053880 101.000000
140.051620 171.000000
141.029860 65.000000
141.035550 83.000000
141.051510 55.000000
141.067950 143.000000
143.045590 69.000000
145.007750 173.000000
145.022420 417.000000
145.036930 318.000000
146.037260 106.000000
152.055420 69.000000
153.004350 69.000000
153.016130 827.000000
154.014850 53.000000
154.022130 120.000000
155.038380 46.000000
155.052410 48.000000
156.061050 71.000000
162.047560 46.000000
163.043910 60.000000
164.066970 60.000000
168.052920 55.000000
168.064580 55.000000
168.173580 46.000000
169.031430 53.000000
173.067350 85.000000
195.045150 65.000000
199.558350 41.000000
208.788930 46.000000
213.040270 69.000000
230.051640 39.000000
242.053730 51.000000

>ms2
91.055670 12.000000
119.048740 37.000000
121.027920 9.000000
145.026600 11.000000
153.017840 90.000000
154.023850 8.000000
163.040790 5.000000
225.053940 7.000000
229.046840 6.000000
243.066600 9.000000
271.011570 6.000000
271.060180 1000.000000
271.105960 9.000000

>ms2
271.060090 1000.000000
271.108090 14.000000

>ms2
67.020270 15.000000
68.998170 25.000000
85.027040 5.000000
91.054310 62.000000
91.063740 6.000000
109.030700 9.000000
111.010020 10.000000
115.056170 7.000000
119.048790 311.000000
120.050340 7.000000
120.996960 7.000000
121.023640 58.000000
121.030010 43.000000
122.030850 13.000000
125.025530 6.000000
129.072650 7.000000
141.068920 12.000000
141.077410 5.000000
142.069260 6.000000
145.027730 94.000000
146.030640 18.000000
152.989940 8.000000
153.017240 716.000000
154.018160 28.000000
154.025250 30.000000
155.048140 17.000000
157.064360 23.000000
161.061540 12.000000
163.039370 83.000000
169.063540 14.000000
173.063600 8.000000
187.036480 38.000000
187.051590 9.000000
197.056300 28.000000
197.064940 5.000000
198.065960 5.000000
202.061900 5.000000
203.072370 11.000000
203.388640 5.000000
211.039950 9.000000
215.072890 10.000000
223.494830 8.000000
225.056230 51.000000
229.038310 17.000000
229.049330 6.000000
243.059890 35.000000
243.072140 18.000000
244.067570 12.000000
253.056240 20.000000
271.034820 14.000000
271.060610 1000.000000

>ms2
65.034830 69.000000
65.039780 192.000000
67.014270 254.000000
68.991520 97.000000
68.997470 321.000000
69.036370 62.000000
73.529160 39.000000
75.348540 52.000000
79.131670 88.000000
83.009160 45.000000
89.039130 73.000000
90.040760 47.000000
91.022020 43.000000
91.053920 1000.000000
91.281140 62.000000
92.051700 52.000000
92.060300 56.000000
93.033420 131.000000
93.039720 97.000000
93.061550 60.000000
97.029030 45.000000
101.044260 43.000000
103.047480 56.000000
103.994200 45.000000
111.009740 37.000000
114.046510 52.000000
115.051710 401.000000
116.055690 52.000000
116.820180 39.000000
117.037780 43.000000
119.047940 224.000000
119.059460 97.000000
121.025310 780.000000
125.020300 93.000000
126.043850 69.000000
127.276990 43.000000
128.687710 41.000000
131.038270 47.000000
131.051180 93.000000
133.051040 45.000000
136.044220 71.000000
139.031450 47.000000
139.051190 112.000000
139.059160 60.000000
140.043050 144.000000
140.057720 101.000000
141.029770 112.000000
141.065700 41.000000
141.647450 65.000000
145.025910 302.000000
145.033490 183.000000
145.065730 97.000000
146.028110 58.000000
147.025050 50.000000
150.045060 62.000000
151.049450 71.000000
152.046600 54.000000
152.058870 93.000000
153.017750 815.000000
155.024490 62.000000
155.049060 82.000000
156.494770 43.000000
168.056030 43.000000
169.033690 50.000000
197.057280 41.000000
271.041560 47.000000
271.064270 205.000000

>ms2
67.016460 7.000000
91.054620 11.000000
119.049420 28.000000
119.054250 9.000000
121.028530 8.000000
145.028560 16.000000
153.017380 106.000000
154.021670 13.000000
163.039950 6.000000
225.044270 6.000000
225.058120 7.000000
243.066280 6.000000
271.015720 7.000000
271.059080 1000.000000
271.102330 7.000000

>ms2
271.015010 10.000000
271.061340 1000.000000
271.108220 16.000000

>ms2
67.018460 37.000000
68.998230 29.000000
81.034240 12.000000
91.051070 28.000000
91.057080 42.000000
92.058470 6.000000
101.031620 5.000000
109.023890 5.000000
111.010200 20.000000
119.048770 276.000000
120.043390 13.000000
120.055140 22.000000
121.017440 12.000000
121.027380 93.000000
122.029350 5.000000
125.017460 11.000000
125.027500 15.000000
131.047810 6.000000
138.173450 5.000000
141.069920 20.000000
145.012800 8.000000
145.028060 88.000000
146.031400 21.000000
153.017520 709.000000
154.020610 65.000000
155.028410 6.000000
155.051160 5.000000
157.067410 9.000000
163.009200 5.000000
163.038410 67.000000
164.037720 7.000000
169.058610 13.000000
169.074810 6.000000
173.062300 10.000000
183.044570 6.000000
187.037000 21.000000
197.062440 14.000000
200.044780 10.000000
203.069080 12.000000
204.070980 5.000000
211.040700 12.000000
225.056980 37.000000
225.069080 6.000000
228.043010 8.000000
229.040510 18.000000
229.053480 22.000000
243.066680 33.000000
244.067310 14.000000
253.055130 15.000000
271.011540 5.000000
271.059600 1000.000000

>ms2
65.039600 39.000000
65.044670 31.000000
66.446950 58.000000
67.021000 40.000000
68.992420 27.000000
68.996600 40.000000
69.001060 31.000000
69.033290 56.000000
75.026650 34.000000
81.033680 72.000000
83.010890 31.000000
88.701350 34.000000
90.044350 61.000000
91.011580 50.000000
91.021750 56.000000
91.052860 243.000000
91.058020 256.000000
92.061340 43.000000
93.033650 55.000000
94.021060 31.000000
94.816520 27.000000
97.026240 34.000000
102.050620 27.000000
107.071760 27.000000
115.041650 53.000000
115.057250 88.000000
117.019650 37.000000
117.026490 55.000000
117.035220 74.000000
119.039190 61.000000
119.048800 169.000000
119.056010 59.000000
120.022480 43.000000
120.047100 61.000000
121.017140 37.000000
121.027470 135.000000
121.037950 103.000000
125.018410 45.000000
126.023860 42.000000
128.056930 66.000000
129.012830 27.000000
131.089420 32.000000
137.036540 29.000000
139.048020 43.000000
139.054320 114.000000
141.075580 76.000000
143.046520 100.000000
144.055730 27.000000
145.011370 92.000000
145.023820 211.000000
145.033620 56.000000
145.042140 51.000000
150.048020 56.000000
152.058140 35.000000
152.067250 43.000000
153.018880 1000.000000
154.019180 27.000000
155.051910 58.000000
160.047070 27.000000
160.054090 63.000000
163.051900 64.000000
168.060530 58.000000
179.040190 56.000000
199.867340 27.000000
200.058700 40.000000
242.061860 40.000000
271.061280 40.000000

