>compound PR92376752
>parentmass 384.1441639
>ionization [M+H]+
>formula C21H21NO6
>rt 278.905020
>profile qtof
#smiles_iso CN1CCC2=CC3=C(C=C2[C@@H]4[C@H]1C5=C([C@H](O4)OC)C6=C(C=C5)OCO6)OCO3
#smiles_can CN1CCC2=CC3=C(C=C2C4C1C5=C(C(O4)OC)C6=C(C=C5)OCO6)OCO3
#inchikey XRBIHOLQAKITPP-SBHAEUEKSA-N
#pubchem_id 197775
#mb_accession PR301671,PR301674,PR301677,PR301680,PR301683,PR301686,PR301689,PR301692,PR301695,PR301698,PR301701,PR301704

>ms2
130.061340 5.000000
131.050000 5.000000
148.045490 7.000000
149.061690 21.000000
161.058010 9.000000
163.037190 7.000000
163.077040 8.000000
175.067670 10.000000
175.078550 5.000000
176.070360 10.000000
177.069370 6.000000
188.070140 230.000000
189.078520 71.000000
190.049350 26.000000
190.086580 492.000000
191.046460 6.000000
191.087100 45.000000
191.094160 35.000000
204.064760 5.000000
205.062470 22.000000
205.074160 10.000000
206.066240 9.000000
207.077530 7.000000
217.053770 6.000000
217.067900 8.000000
221.062090 5.000000
233.060850 30.000000
234.062710 7.000000
235.075030 38.000000
236.076870 9.000000
237.053790 8.000000
245.065190 9.000000
247.073410 10.000000
248.078840 8.000000
249.055730 9.000000
250.089750 5.000000
251.073530 12.000000
261.044980 9.000000
261.057070 16.000000
262.061580 6.000000
262.077700 5.000000
262.090060 7.000000
263.070590 40.000000
263.079990 14.000000
264.073790 12.000000
275.074890 10.000000
277.074950 9.000000
278.084500 8.000000
279.071620 10.000000
290.085660 8.000000
291.066250 32.000000
291.081330 10.000000
293.079280 19.000000
294.079380 9.000000
294.113920 12.000000
303.043520 9.000000
303.063810 89.000000
304.053250 7.000000
304.070280 20.000000
304.094700 9.000000
308.064360 6.000000
308.099820 9.000000
309.074710 15.000000
319.062930 5.000000
319.078430 7.000000
320.064270 8.000000
320.090030 107.000000
321.068330 15.000000
321.086580 27.000000
321.102630 18.000000
322.086910 13.000000
322.109340 9.000000
323.105530 8.000000
324.133730 7.000000
334.106690 134.000000
335.102480 12.000000
335.120210 35.000000
336.072660 5.000000
336.114620 8.000000
337.076080 6.000000
337.089630 10.000000
337.101530 7.000000
352.063630 8.000000
352.116550 977.000000
352.169400 5.000000
353.119600 233.000000
354.123050 31.000000
366.131810 36.000000
366.150630 6.000000
384.086490 8.000000
384.141910 1000.000000
384.197570 22.000000

>ms2
188.071260 12.000000
190.084790 13.000000
352.118130 173.000000
353.120210 49.000000
384.143220 1000.000000
384.198030 17.000000

>ms2
105.070430 5.000000
119.047440 7.000000
131.043700 8.000000
135.043200 28.000000
146.063860 9.000000
147.045930 7.000000
148.052310 6.000000
149.050930 10.000000
149.060580 51.000000
150.066390 9.000000
159.043490 8.000000
159.067000 14.000000
161.063690 11.000000
162.060380 5.000000
163.037230 6.000000
163.073530 10.000000
175.059680 7.000000
175.071620 7.000000
176.068390 11.000000
176.075320 11.000000
177.076140 10.000000
188.070910 328.000000
189.065830 27.000000
189.076550 147.000000
190.050670 66.000000
190.086330 1000.000000
191.048340 5.000000
191.089220 170.000000
192.066180 7.000000
192.090530 5.000000
193.060130 6.000000
193.068680 7.000000
203.095340 10.000000
204.053470 11.000000
204.067350 11.000000
205.060180 21.000000
205.069440 24.000000
206.067370 9.000000
207.082280 7.000000
217.057170 13.000000
222.071200 5.000000
223.076080 35.000000
233.062790 29.000000
234.058270 6.000000
235.050720 5.000000
235.071960 40.000000
235.082570 34.000000
236.080020 19.000000
237.051670 8.000000
246.100520 7.000000
247.063250 9.000000
247.076750 36.000000
248.090590 5.000000
249.051670 10.000000
251.063950 9.000000
251.076950 21.000000
252.070500 9.000000
261.046970 21.000000
261.059230 13.000000
262.060550 18.000000
263.062530 31.000000
263.074010 72.000000
264.067570 6.000000
264.093870 9.000000
265.068450 5.000000
265.084140 15.000000
265.110350 7.000000
267.062620 6.000000
268.132260 14.000000
274.064420 6.000000
275.068330 27.000000
275.080540 15.000000
276.062470 8.000000
276.081670 11.000000
276.103330 50.000000
277.109950 8.000000
279.063390 20.000000
279.086330 9.000000
280.084440 6.000000
281.076930 9.000000
281.087400 8.000000
289.078950 11.000000
290.088380 6.000000
291.066560 68.000000
291.084470 12.000000
292.062770 9.000000
292.080870 13.000000
292.099090 10.000000
293.068880 16.000000
293.092500 26.000000
294.074710 13.000000
294.086240 23.000000
294.113620 24.000000
295.055910 6.000000
295.080750 6.000000
303.066650 243.000000
304.071320 43.000000
304.101440 20.000000
305.066010 9.000000
305.100460 17.000000
306.073390 16.000000
306.083950 16.000000
306.105830 7.000000
307.092190 9.000000
308.091770 42.000000
309.080320 18.000000
309.097600 18.000000
310.092160 7.000000
318.084050 11.000000
319.069850 8.000000
319.084870 27.000000
319.105620 5.000000
320.041630 6.000000
320.091890 304.000000
321.070160 7.000000
321.086090 27.000000
321.101780 75.000000
322.067600 21.000000
322.109830 64.000000
323.114290 8.000000
324.103700 8.000000
324.124480 34.000000
325.133580 6.000000
332.092380 10.000000
333.095670 8.000000
334.057920 5.000000
334.107970 344.000000
335.086060 10.000000
335.112060 102.000000
336.087920 10.000000
336.110690 16.000000
337.090330 38.000000
337.105650 16.000000
338.075680 5.000000
338.090030 7.000000
351.115720 6.000000
352.067690 6.000000
352.118620 471.000000
353.119110 126.000000
353.130430 45.000000
354.135160 6.000000
366.139860 7.000000

>ms2
58.476160 7.000000
71.069170 7.000000
71.074260 9.000000
77.024580 7.000000
77.039510 75.000000
79.055330 24.000000
89.040670 17.000000
91.043400 15.000000
91.055820 136.000000
92.061000 38.000000
93.066330 7.000000
94.063920 7.000000
95.929990 7.000000
102.049610 32.000000
103.046230 11.000000
103.054530 115.000000
104.050350 18.000000
104.061550 42.000000
105.062520 7.000000
105.073270 7.000000
106.065420 6.000000
107.045430 6.000000
108.055070 7.000000
108.077630 12.000000
114.305590 10.000000
115.052830 25.000000
116.063270 9.000000
117.036550 24.000000
117.056690 59.000000
117.069530 27.000000
117.839250 6.000000
118.062800 37.000000
118.067670 17.000000
119.048730 57.000000
119.064600 16.000000
121.045600 7.000000
121.062970 18.000000
130.035960 7.000000
130.064240 115.000000
131.038380 22.000000
131.050200 195.000000
131.070180 62.000000
131.075940 68.000000
131.590530 7.000000
132.051620 15.000000
132.062910 15.000000
132.079940 159.000000
133.031190 6.000000
133.045530 7.000000
133.050720 19.000000
133.080230 27.000000
133.089250 27.000000
134.088100 9.000000
134.095250 6.000000
134.809370 13.000000
135.044480 143.000000
136.646940 7.000000
142.028880 8.000000
142.072560 7.000000
143.051990 11.000000
144.078430 18.000000
145.056080 31.000000
145.066500 13.000000
145.087310 7.000000
145.098420 11.000000
146.060090 66.000000
146.087190 9.000000
147.038910 34.000000
147.048070 58.000000
147.069660 10.000000
148.045030 97.000000
148.072600 7.000000
148.082950 12.000000
148.400130 9.000000
149.062260 100.000000
149.974690 8.000000
150.061070 23.000000
151.046860 9.000000
151.064620 22.000000
152.046570 13.000000
152.064820 30.000000
152.074490 12.000000
153.063740 15.000000
153.075240 44.000000
154.042130 7.000000
154.080750 9.000000
155.051530 9.000000
156.039030 17.000000
158.061250 27.000000
158.176830 9.000000
159.033520 8.000000
159.042220 37.000000
159.050220 30.000000
159.067260 97.000000
160.005550 7.000000
160.046890 29.000000
160.065030 42.000000
160.072280 50.000000
160.079910 60.000000
161.040990 35.000000
161.051680 114.000000
161.063340 86.000000
161.083880 8.000000
161.812130 10.000000
162.052400 15.000000
162.067150 8.000000
162.074100 15.000000
163.040440 77.000000
163.074330 9.000000
163.084780 11.000000
164.055270 9.000000
164.073810 8.000000
165.071180 270.000000
165.089740 10.000000
166.068590 20.000000
166.075120 32.000000
167.071610 25.000000
167.084300 18.000000
168.092130 9.000000
172.036740 8.000000
173.051530 7.000000
173.085220 7.000000
174.022780 12.000000
174.051590 36.000000
174.063710 7.000000
175.037000 22.000000
175.043270 16.000000
175.064700 252.000000
176.035660 9.000000
176.064470 233.000000
176.099850 9.000000
177.070130 485.000000
178.056120 22.000000
178.073260 101.000000
178.082350 75.000000
179.052930 9.000000
179.070620 12.000000
179.085070 112.000000
179.094960 16.000000
180.061570 14.000000
180.079830 17.000000
180.086500 10.000000
181.067500 34.000000
182.073000 18.000000
182.870760 11.000000
185.060560 7.000000
185.076140 12.000000
186.057630 7.000000
187.018480 9.000000
187.043980 9.000000
187.053790 29.000000
187.064540 16.000000
187.072810 12.000000
188.027890 7.000000
188.051190 44.000000
188.071930 666.000000
188.088330 30.000000
188.657490 8.000000
188.758510 7.000000
189.072360 692.000000
189.913940 7.000000
190.050510 77.000000
190.060750 71.000000
190.085250 1000.000000
190.184190 22.000000
191.040240 10.000000
191.049940 58.000000
191.066860 28.000000
191.086960 109.000000
191.571500 9.000000
192.076750 16.000000
192.088930 11.000000
192.970500 9.000000
193.065520 29.000000
193.691100 9.000000
194.051500 24.000000
194.063860 8.000000
194.210130 8.000000
195.034230 7.000000
195.065900 6.000000
195.082640 15.000000
195.092410 7.000000
197.118030 8.000000
199.910280 7.000000
200.055860 6.000000
200.069890 9.000000
201.081420 7.000000
201.133900 7.000000
202.072300 27.000000
203.060840 37.000000
203.081910 36.000000
203.095440 10.000000
204.053540 13.000000
204.075780 37.000000
204.085420 28.000000
204.312810 9.000000
205.002720 9.000000
205.029830 9.000000
205.057940 281.000000
205.069050 320.000000
205.088580 28.000000
205.337630 6.000000
206.049900 7.000000
206.061390 45.000000
206.072600 155.000000
206.096210 20.000000
207.037430 16.000000
207.068470 22.000000
207.080690 86.000000
207.094880 18.000000
207.107940 7.000000
207.583690 15.000000
208.073640 29.000000
208.113980 18.000000
208.386400 9.000000
208.809280 6.000000
209.057980 27.000000
209.066940 27.000000
209.081070 7.000000
209.155440 7.000000
210.067690 36.000000
210.135990 7.000000
211.056460 7.000000
211.068220 7.000000
211.955220 6.000000
214.067460 12.000000
215.052340 43.000000
215.073880 7.000000
215.616970 7.000000
216.030260 13.000000
216.051270 8.000000
216.081050 25.000000
216.089290 10.000000
217.048650 22.000000
217.065700 220.000000
218.070880 15.000000
218.081130 16.000000
218.092450 44.000000
218.105910 7.000000
219.065170 29.000000
219.077350 28.000000
219.088000 15.000000
219.101000 12.000000
219.113590 28.000000
219.128800 12.000000
219.713940 7.000000
220.044710 6.000000
220.055620 9.000000
220.082140 68.000000
220.112260 7.000000
221.056200 38.000000
221.069960 19.000000
221.087330 15.000000
221.479540 6.000000
222.061920 35.000000
222.072220 22.000000
222.090160 27.000000
223.075450 58.000000
223.093370 7.000000
224.232130 6.000000
225.075740 7.000000
226.082860 16.000000
227.047450 6.000000
228.084810 7.000000
229.099960 10.000000
231.035420 14.000000
232.047990 8.000000
232.063520 9.000000
232.076870 83.000000
233.024990 11.000000
233.051240 144.000000
233.060640 308.000000
233.087310 32.000000
233.360890 10.000000
233.697650 7.000000
233.863850 11.000000
233.902210 9.000000
234.051700 16.000000
234.062560 36.000000
234.073200 52.000000
234.091750 96.000000
234.222660 8.000000
235.039170 9.000000
235.073440 206.000000
236.078670 78.000000
236.099120 8.000000
236.112640 34.000000
236.970950 6.000000
237.048770 7.000000
237.069350 6.000000
237.080720 18.000000
237.101640 7.000000
238.087220 13.000000
239.603640 7.000000
243.059020 9.000000
244.048900 18.000000
244.068590 9.000000
245.052870 27.000000
245.064740 108.000000
246.064010 100.000000
246.093840 56.000000
247.052660 9.000000
247.067500 80.000000
247.079280 112.000000
248.073260 83.000000
248.089130 20.000000
248.104490 9.000000
248.127110 7.000000
248.925600 9.000000
249.062470 34.000000
249.079820 86.000000
249.095230 8.000000
250.040630 9.000000
250.063840 24.000000
250.081800 59.000000
250.093870 61.000000
250.106110 9.000000
250.123060 7.000000
251.051210 9.000000
251.070430 27.000000
251.085080 10.000000
251.100810 14.000000
252.072780 10.000000
252.086590 7.000000
252.104550 6.000000
253.090010 6.000000
258.260250 7.000000
259.064760 21.000000
259.083890 16.000000
260.058690 6.000000
260.072970 52.000000
260.992460 6.000000
261.030000 17.000000
261.054260 49.000000
261.067290 42.000000
261.080260 58.000000
261.095030 6.000000
261.115450 10.000000
262.038420 11.000000
262.057500 32.000000
262.071590 39.000000
262.091430 159.000000
262.117800 6.000000
263.052460 12.000000
263.071260 120.000000
263.088680 101.000000
263.106350 13.000000
264.063450 32.000000
264.077150 19.000000
264.094970 25.000000
264.105900 37.000000
264.291380 7.000000
265.058690 15.000000
265.094330 8.000000
265.108430 16.000000
265.407840 6.000000
266.064670 7.000000
266.074650 9.000000
266.091670 6.000000
267.075780 9.000000
267.143100 14.000000
268.118440 7.000000
273.065280 28.000000
274.045410 18.000000
274.062740 10.000000
274.087160 75.000000
275.045010 27.000000
275.062990 35.000000
275.076600 25.000000
275.095150 69.000000
276.063960 43.000000
276.092380 38.000000
276.106450 57.000000
277.053710 11.000000
277.077730 131.000000
277.107670 71.000000
278.062380 29.000000
278.081090 135.000000
278.113920 8.000000
278.183170 7.000000
278.233730 7.000000
279.014860 7.000000
279.084470 7.000000
279.993100 8.000000
280.093480 15.000000
281.295840 7.000000
287.078920 7.000000
288.059810 17.000000
288.082210 7.000000
289.050810 10.000000
289.071410 12.000000
289.082730 12.000000
290.076750 91.000000
290.097720 56.000000
290.119600 6.000000
291.049260 7.000000
291.070800 44.000000
291.088560 52.000000
291.110380 13.000000
291.146210 8.000000
292.074710 18.000000
292.092010 69.000000
292.104800 54.000000
293.073640 41.000000
293.096100 9.000000
293.121610 8.000000
293.557710 9.000000
294.077850 81.000000
294.097110 7.000000
295.093080 15.000000
296.124540 7.000000
302.102940 20.000000
303.061310 32.000000
303.073390 14.000000
304.030490 7.000000
304.067870 16.000000
304.098540 44.000000
305.049800 6.000000
305.067900 13.000000
305.082400 7.000000
305.096440 10.000000
305.110870 20.000000
306.060850 20.000000
306.081050 21.000000
307.073670 8.000000
307.206150 8.000000
308.023960 9.000000
308.084590 10.000000
308.099210 44.000000
309.099670 12.000000
318.048490 12.000000
318.061460 18.000000
318.077670 49.000000
318.164790 14.000000
319.084720 18.000000
319.911040 7.000000
320.058560 7.000000
320.091640 514.000000
321.054840 9.000000
321.082340 21.000000
321.099430 79.000000
322.072480 17.000000
322.116550 17.000000
324.119870 7.000000
325.137420 7.000000
325.647000 7.000000
330.073700 9.000000
332.084900 7.000000
333.098240 7.000000
334.119380 22.000000
334.172670 8.000000
336.078670 20.000000
336.103850 9.000000
337.093660 13.000000
337.111940 6.000000
342.562650 9.000000
352.113370 7.000000

>ms2
131.051970 5.000000
148.053130 6.000000
149.061080 9.000000
175.065950 8.000000
176.066930 9.000000
176.078190 6.000000
188.046490 6.000000
188.070720 253.000000
189.068500 13.000000
189.078570 50.000000
190.050980 16.000000
190.059560 9.000000
190.087100 493.000000
191.090000 49.000000
192.101820 7.000000
193.064360 7.000000
204.067350 7.000000
205.068300 23.000000
207.082490 7.000000
217.066210 8.000000
219.082930 6.000000
221.050900 6.000000
223.076890 7.000000
233.060330 28.000000
234.066330 6.000000
235.074420 29.000000
247.079240 15.000000
248.066270 14.000000
251.071500 14.000000
261.053070 14.000000
261.082400 6.000000
262.084560 6.000000
263.063930 15.000000
263.077030 30.000000
264.097900 7.000000
268.143340 5.000000
275.068540 18.000000
276.077820 9.000000
276.102750 18.000000
277.073060 6.000000
277.105160 7.000000
281.077450 6.000000
291.067690 33.000000
292.078800 10.000000
292.096040 5.000000
293.080870 25.000000
293.094640 14.000000
294.078030 10.000000
303.041900 5.000000
303.066590 75.000000
303.077820 23.000000
304.072660 13.000000
304.092770 18.000000
304.105100 6.000000
306.075410 11.000000
308.098480 5.000000
309.073640 10.000000
318.083010 12.000000
319.086640 11.000000
320.092320 156.000000
321.063110 7.000000
321.089360 56.000000
322.071530 9.000000
322.089720 7.000000
322.106570 19.000000
323.079100 6.000000
323.113340 6.000000
324.121400 12.000000
334.104490 116.000000
334.121610 28.000000
335.113100 43.000000
337.098020 23.000000
338.096530 5.000000
352.052430 8.000000
352.077910 14.000000
352.119750 1000.000000
353.122650 255.000000
354.121150 21.000000
354.133540 15.000000
366.136720 50.000000
367.129700 8.000000
367.147890 6.000000
384.145420 841.000000
384.199550 8.000000

>ms2
188.073030 15.000000
190.086730 15.000000
352.118930 172.000000
353.120240 44.000000
366.126890 5.000000
384.089360 10.000000
384.144230 1000.000000
384.200070 24.000000

>ms2
119.049090 6.000000
131.047730 16.000000
135.044620 18.000000
146.063340 8.000000
147.041560 7.000000
148.051500 19.000000
149.017490 5.000000
149.058930 63.000000
159.046780 13.000000
159.070210 8.000000
161.061860 7.000000
163.033950 7.000000
163.076830 6.000000
174.055830 8.000000
175.038830 10.000000
175.049510 9.000000
176.071230 32.000000
177.081590 7.000000
179.084470 6.000000
188.045870 5.000000
188.071990 305.000000
189.060880 13.000000
189.077820 108.000000
190.051130 75.000000
190.085940 1000.000000
191.053890 6.000000
191.091600 149.000000
204.063420 17.000000
205.055400 9.000000
205.064970 19.000000
206.070590 6.000000
206.080110 7.000000
207.077710 7.000000
217.063980 24.000000
219.072860 5.000000
221.066570 7.000000
223.073360 15.000000
225.094010 9.000000
233.060360 32.000000
234.065090 12.000000
235.057660 7.000000
235.075880 55.000000
236.075240 6.000000
237.053530 14.000000
237.072660 7.000000
237.087080 6.000000
247.076640 39.000000
249.054460 8.000000
251.062880 14.000000
251.075390 18.000000
252.079730 6.000000
253.094060 9.000000
261.056300 44.000000
262.059690 14.000000
263.063050 29.000000
263.071840 69.000000
263.095280 9.000000
264.072750 27.000000
268.136930 16.000000
269.134120 6.000000
274.085570 9.000000
275.059810 8.000000
275.074550 21.000000
275.088650 6.000000
276.074130 9.000000
276.103330 57.000000
279.061280 33.000000
280.068270 12.000000
281.077790 15.000000
289.075470 10.000000
291.064240 92.000000
292.069640 18.000000
292.105220 6.000000
293.058530 6.000000
293.079350 41.000000
293.089750 21.000000
293.103610 8.000000
294.075990 10.000000
294.093480 10.000000
294.111150 40.000000
295.106290 10.000000
303.066890 214.000000
304.067080 32.000000
304.081210 17.000000
304.101990 27.000000
305.077640 14.000000
305.103120 11.000000
306.071170 11.000000
306.083860 14.000000
306.118130 14.000000
307.089450 12.000000
308.091160 32.000000
309.072570 39.000000
310.077210 5.000000
319.085970 22.000000
319.103210 5.000000
320.091400 308.000000
321.063510 8.000000
321.096560 102.000000
322.075070 9.000000
322.086430 14.000000
322.108760 75.000000
323.081880 6.000000
323.102780 5.000000
323.121730 12.000000
324.115330 8.000000
324.125370 23.000000
332.093630 9.000000
333.101680 7.000000
334.073760 5.000000
334.107420 388.000000
335.110600 104.000000
335.131650 12.000000
336.111720 6.000000
336.128230 7.000000
337.093380 65.000000
337.121400 5.000000
338.096100 10.000000
338.112920 5.000000
350.096340 7.000000
350.113310 8.000000
352.063900 7.000000
352.084410 9.000000
352.117610 471.000000
353.106540 24.000000
353.125310 93.000000
354.123840 12.000000
366.144350 8.000000

>ms2
65.040250 8.000000
71.071330 6.000000
79.048760 7.000000
79.053710 9.000000
81.498590 8.000000
86.508270 11.000000
89.033240 8.000000
91.052770 56.000000
92.058110 26.000000
92.065420 14.000000
93.693180 8.000000
97.249750 7.000000
102.983220 10.000000
103.041140 8.000000
103.048650 36.000000
103.052900 69.000000
104.062660 10.000000
105.056490 17.000000
105.067190 20.000000
106.076020 7.000000
106.088600 9.000000
107.756100 7.000000
109.949650 13.000000
115.057260 7.000000
115.696820 11.000000
116.064740 6.000000
116.107640 13.000000
117.036730 8.000000
117.055570 29.000000
117.061410 22.000000
117.070920 16.000000
118.062620 97.000000
118.072840 19.000000
119.050440 75.000000
119.061550 10.000000
119.075410 23.000000
120.084790 7.000000
121.067780 17.000000
121.695720 9.000000
122.716240 7.000000
129.030700 17.000000
130.027470 8.000000
130.046170 7.000000
130.065290 115.000000
130.076320 16.000000
131.050690 198.000000
131.074520 66.000000
132.043330 36.000000
132.056170 16.000000
132.064480 9.000000
132.079610 83.000000
132.084520 29.000000
132.176060 8.000000
132.559910 7.000000
133.027740 11.000000
133.033770 10.000000
133.050130 7.000000
133.057010 16.000000
133.064560 12.000000
133.085340 24.000000
134.031740 7.000000
134.040940 16.000000
134.050540 11.000000
134.097810 13.000000
135.028410 10.000000
135.044650 102.000000
141.068150 7.000000
143.055050 7.000000
144.070180 19.000000
145.071690 9.000000
146.055560 25.000000
146.062530 51.000000
147.039090 29.000000
147.048810 61.000000
147.067150 7.000000
147.104370 9.000000
148.044080 48.000000
148.056780 23.000000
148.076570 7.000000
149.058180 48.000000
149.065250 31.000000
150.067080 10.000000
150.175290 7.000000
151.051510 35.000000
151.603210 7.000000
152.051880 6.000000
152.061800 25.000000
152.072880 6.000000
153.065800 16.000000
154.064480 7.000000
154.077910 6.000000
155.046490 8.000000
156.082730 7.000000
156.090300 8.000000
156.850620 13.000000
158.045150 6.000000
158.069440 6.000000
159.023770 7.000000
159.040500 30.000000
159.052230 37.000000
159.067810 64.000000
159.076920 16.000000
160.040730 12.000000
160.058110 6.000000
160.074450 82.000000
160.082240 24.000000
161.037490 8.000000
161.049060 86.000000
161.058620 51.000000
161.068710 16.000000
161.077620 14.000000
161.085130 17.000000
161.991650 12.000000
162.047210 6.000000
162.058230 13.000000
162.088380 6.000000
162.097820 10.000000
163.011990 7.000000
163.026860 7.000000
163.040330 36.000000
163.056790 20.000000
163.064000 10.000000
165.040820 14.000000
165.065060 66.000000
165.075730 47.000000
166.077650 7.000000
166.083950 11.000000
166.114320 7.000000
167.089840 10.000000
167.096950 6.000000
168.059800 8.000000
168.093170 16.000000
169.113280 7.000000
169.909010 9.000000
170.128080 10.000000
171.074810 8.000000
172.038960 14.000000
172.055970 9.000000
172.797270 6.000000
173.048450 6.000000
174.053120 34.000000
174.060040 62.000000
175.038710 12.000000
175.063230 316.000000
175.089040 11.000000
176.037510 15.000000
176.062010 160.000000
176.072950 39.000000
176.157750 6.000000
177.037700 8.000000
177.052140 42.000000
177.069810 454.000000
177.090790 10.000000
178.067790 46.000000
178.076110 47.000000
178.085660 40.000000
179.053220 7.000000
179.064180 12.000000
179.075780 37.000000
179.085050 91.000000
180.072370 18.000000
180.084180 7.000000
180.100420 7.000000
181.045290 8.000000
181.082290 7.000000
184.069140 12.000000
186.061100 14.000000
186.168880 10.000000
187.044920 8.000000
187.060520 74.000000
187.073120 8.000000
187.863390 6.000000
188.023420 6.000000
188.051350 50.000000
188.071330 633.000000
188.669130 6.000000
189.036350 8.000000
189.048720 7.000000
189.071790 684.000000
189.843900 7.000000
189.905200 6.000000
190.045410 68.000000
190.055440 50.000000
190.084630 1000.000000
190.105510 30.000000
190.450320 12.000000
190.596480 6.000000
191.033110 11.000000
191.042770 9.000000
191.059190 6.000000
191.069490 45.000000
191.080150 42.000000
191.093060 120.000000
192.061720 46.000000
192.073300 19.000000
192.096690 8.000000
193.065190 67.000000
193.074780 16.000000
193.090440 7.000000
193.114900 8.000000
194.079030 14.000000
194.098720 8.000000
194.104970 25.000000
194.805400 6.000000
195.079910 27.000000
195.092040 6.000000
196.038910 7.000000
196.086230 9.000000
197.228580 9.000000
198.003810 6.000000
199.052930 8.000000
200.056180 8.000000
201.059010 7.000000
201.082020 23.000000
202.064410 23.000000
202.084960 14.000000
202.098680 7.000000
203.078580 95.000000
203.094990 14.000000
204.055760 28.000000
204.071590 25.000000
204.083820 25.000000
204.094470 33.000000
205.041020 6.000000
205.061130 313.000000
205.069700 351.000000
205.094960 36.000000
205.127200 8.000000
206.066500 82.000000
206.076810 84.000000
206.097730 19.000000
206.108980 6.000000
207.042210 6.000000
207.057560 6.000000
207.069440 6.000000
207.083590 49.000000
208.043930 15.000000
208.066500 7.000000
208.079560 7.000000
208.092360 25.000000
208.107930 8.000000
208.134030 10.000000
208.643920 6.000000
209.042950 6.000000
209.057300 33.000000
209.066650 75.000000
209.081790 6.000000
210.041430 8.000000
211.061840 10.000000
211.078220 18.000000
215.045820 17.000000
215.055220 30.000000
216.060700 35.000000
216.082870 8.000000
216.164990 7.000000
217.048860 30.000000
217.066770 131.000000
217.084560 29.000000
218.067600 30.000000
218.077160 33.000000
218.091400 48.000000
218.103530 50.000000
218.118350 18.000000
219.062710 29.000000
219.076000 47.000000
219.084990 23.000000
219.097670 18.000000
219.955440 7.000000
220.067470 35.000000
220.087660 28.000000
221.062870 7.000000
221.077100 21.000000
221.090330 10.000000
221.113330 13.000000
221.915680 13.000000
222.052080 6.000000
222.069020 28.000000
222.086470 10.000000
222.105470 22.000000
223.066940 16.000000
223.074250 25.000000
223.115130 6.000000
224.088590 7.000000
225.066420 11.000000
226.065230 6.000000
226.085280 7.000000
228.094120 7.000000
229.611330 6.000000
230.069780 8.000000
231.025420 10.000000
231.058730 17.000000
231.082640 8.000000
231.116560 10.000000
232.076130 49.000000
232.302460 7.000000
233.022030 7.000000
233.031330 6.000000
233.057050 215.000000
233.082810 34.000000
233.091710 14.000000
233.103380 10.000000
233.187090 8.000000
234.045430 14.000000
234.067780 43.000000
234.088910 100.000000
234.104200 19.000000
235.073650 170.000000
235.085270 97.000000
235.108540 10.000000
235.187410 9.000000
236.070010 107.000000
236.105740 14.000000
236.635150 6.000000
237.088410 20.000000
237.105910 22.000000
237.119400 7.000000
238.098650 8.000000
243.948500 7.000000
244.048140 8.000000
245.063350 105.000000
246.058650 41.000000
246.071790 74.000000
246.084120 27.000000
246.097780 17.000000
246.152160 7.000000
247.066020 73.000000
247.079710 66.000000
247.090940 18.000000
247.229130 8.000000
247.752990 6.000000
248.031230 7.000000
248.061780 59.000000
248.078750 96.000000
248.108080 6.000000
249.042600 14.000000
249.069560 28.000000
249.077700 77.000000
250.070370 8.000000
250.083020 23.000000
250.094410 25.000000
250.106520 18.000000
250.132370 7.000000
251.034610 7.000000
251.082690 74.000000
251.093120 30.000000
251.150310 11.000000
253.112820 6.000000
254.662580 6.000000
254.840530 8.000000
256.995390 6.000000
257.071660 10.000000
258.003360 6.000000
259.067630 7.000000
259.113590 9.000000
260.051610 6.000000
260.063020 9.000000
260.077270 40.000000
260.097050 6.000000
261.035980 22.000000
261.050780 64.000000
261.074310 77.000000
261.089720 43.000000
262.029080 7.000000
262.057740 33.000000
262.074620 83.000000
262.087620 125.000000
262.099460 24.000000
262.118190 18.000000
262.138280 10.000000
262.340270 12.000000
263.057860 39.000000
263.075070 53.000000
263.091370 98.000000
264.056240 11.000000
264.079680 60.000000
264.097600 100.000000
265.061520 7.000000
265.105410 12.000000
265.124020 10.000000
265.513370 8.000000
266.067500 9.000000
266.088990 17.000000
266.115390 10.000000
266.128600 16.000000
267.088620 6.000000
267.100100 7.000000
267.124390 10.000000
269.148220 7.000000
270.253390 10.000000
271.028990 6.000000
272.752440 8.000000
272.873960 6.000000
273.051270 15.000000
273.093690 7.000000
274.056210 22.000000
274.086820 45.000000
275.046140 9.000000
275.055760 8.000000
275.074860 27.000000
275.091250 21.000000
275.103360 35.000000
275.281070 11.000000
276.057370 31.000000
276.078400 56.000000
276.102450 90.000000
276.114230 53.000000
277.023560 7.000000
277.071200 97.000000
277.105190 16.000000
278.064330 8.000000
278.081300 90.000000
278.128810 11.000000
279.059540 38.000000
279.072720 15.000000
280.089570 6.000000
281.046050 11.000000
281.085270 6.000000
281.112760 6.000000
282.085910 10.000000
289.062900 16.000000
289.085850 7.000000
290.071380 66.000000
290.088130 111.000000
291.030400 8.000000
291.040950 9.000000
291.062500 8.000000
291.079710 28.000000
291.093380 19.000000
291.107450 7.000000
292.058900 22.000000
292.078090 19.000000
292.097380 174.000000
292.134980 12.000000
293.100560 29.000000
293.114690 6.000000
294.065120 18.000000
294.079220 6.000000
294.102020 23.000000
295.090270 35.000000
295.107940 6.000000
300.982940 6.000000
301.522740 6.000000
302.080810 9.000000
303.058380 22.000000
303.079160 51.000000
304.056700 12.000000
304.075320 53.000000
304.103760 48.000000
305.060030 15.000000
305.068600 37.000000
305.098850 20.000000
306.061980 8.000000
306.078920 23.000000
306.120940 6.000000
307.085850 24.000000
308.072850 15.000000
308.094880 31.000000
308.105190 24.000000
309.096070 22.000000
310.095430 8.000000
310.690800 6.000000
311.037540 6.000000
318.075960 27.000000
318.093440 20.000000
318.107060 7.000000
319.078490 32.000000
319.091980 10.000000
320.093930 368.000000
320.112300 54.000000
320.150390 7.000000
320.504610 6.000000
321.077940 6.000000
321.092560 34.000000
321.111820 22.000000
322.098140 37.000000
323.089420 14.000000
332.093020 11.000000
332.122990 10.000000
333.100220 9.000000
334.102080 31.000000
335.090210 10.000000
335.127010 8.000000
373.230560 11.000000
374.283540 8.000000

>ms2
131.049640 6.000000
135.047010 8.000000
149.060290 17.000000
160.073650 7.000000
161.063580 5.000000
163.045490 5.000000
163.081040 8.000000
175.063900 6.000000
176.066910 7.000000
177.075450 6.000000
188.072020 221.000000
189.059450 6.000000
189.076930 70.000000
190.054370 20.000000
190.087630 377.000000
191.092730 55.000000
192.094120 7.000000
203.096020 6.000000
205.066850 37.000000
233.066640 12.000000
235.079100 27.000000
245.058940 6.000000
245.069610 6.000000
247.073760 22.000000
251.063770 5.000000
251.075330 8.000000
261.055760 23.000000
263.062070 13.000000
263.072810 30.000000
275.064150 6.000000
275.076350 9.000000
276.063480 5.000000
276.103030 10.000000
276.114590 5.000000
279.087590 8.000000
281.084560 7.000000
281.100070 5.000000
291.064640 33.000000
291.081820 6.000000
292.074160 6.000000
292.097290 9.000000
293.074310 9.000000
293.093570 17.000000
294.075010 5.000000
294.105290 6.000000
294.115600 5.000000
303.066010 91.000000
303.080410 15.000000
304.057830 9.000000
304.071590 21.000000
304.093440 15.000000
305.088010 8.000000
306.074280 5.000000
306.113220 7.000000
308.087130 6.000000
309.080260 10.000000
319.079860 9.000000
319.093900 5.000000
320.092620 106.000000
321.071930 20.000000
321.087710 16.000000
321.099700 11.000000
322.080230 9.000000
322.114470 12.000000
323.117400 5.000000
324.120150 6.000000
334.085570 14.000000
334.108370 155.000000
335.102450 17.000000
335.119320 16.000000
337.085510 5.000000
337.096280 20.000000
338.103000 7.000000
352.074980 17.000000
352.119020 1000.000000
352.175630 7.000000
353.122860 281.000000
354.119930 14.000000
354.131990 20.000000
366.129850 20.000000
366.144320 16.000000
367.138980 7.000000
384.146970 870.000000
384.208040 6.000000

>ms2
188.073010 16.000000
190.086550 10.000000
352.118800 179.000000
353.120880 39.000000
366.128910 6.000000
384.093690 7.000000
384.143400 1000.000000
384.199950 23.000000

>ms2
119.051830 12.000000
131.050520 8.000000
135.044400 7.000000
135.052230 12.000000
146.062530 9.000000
149.024510 7.000000
149.060070 41.000000
159.045320 7.000000
161.049740 11.000000
161.064650 5.000000
163.035020 7.000000
174.054670 6.000000
176.067700 11.000000
176.074250 22.000000
177.069890 11.000000
177.079040 6.000000
188.071870 378.000000
189.077150 114.000000
190.049910 72.000000
190.086810 1000.000000
191.057510 14.000000
191.089320 163.000000
192.097000 13.000000
193.070940 6.000000
204.064590 9.000000
205.066350 40.000000
207.078310 5.000000
209.055860 15.000000
217.054290 9.000000
221.058940 6.000000
221.068630 5.000000
223.069930 10.000000
223.081270 6.000000
226.094590 6.000000
233.047850 8.000000
233.061940 45.000000
233.069690 25.000000
234.069440 6.000000
235.065160 11.000000
235.076830 31.000000
235.084840 13.000000
236.073290 8.000000
236.082810 6.000000
236.098970 9.000000
237.053850 13.000000
245.060320 7.000000
246.067630 10.000000
247.080980 38.000000
249.064880 6.000000
251.068600 20.000000
252.075390 9.000000
261.043910 8.000000
261.056640 34.000000
262.072480 15.000000
263.070310 83.000000
263.101500 6.000000
264.077450 23.000000
264.098110 8.000000
265.063320 6.000000
265.087800 8.000000
266.123570 7.000000
268.125030 10.000000
269.132110 6.000000
275.063140 18.000000
275.076050 22.000000
275.085970 9.000000
276.064270 5.000000
276.093050 9.000000
276.103730 31.000000
278.111480 7.000000
279.049680 6.000000
279.067080 12.000000
279.077940 5.000000
280.073180 17.000000
281.084350 21.000000
291.065400 91.000000
292.071660 19.000000
292.114200 8.000000
293.084080 71.000000
294.074680 18.000000
294.091740 17.000000
294.117030 30.000000
303.009800 6.000000
303.066530 219.000000
304.066530 33.000000
304.081390 12.000000
304.095610 15.000000
304.106690 8.000000
305.067320 16.000000
305.087620 6.000000
305.113650 6.000000
306.048310 7.000000
306.081790 23.000000
306.107730 14.000000
306.127750 6.000000
307.094240 6.000000
308.092590 10.000000
308.103490 8.000000
309.080080 7.000000
309.096920 17.000000
318.084010 13.000000
319.082000 31.000000
319.093320 21.000000
320.092040 338.000000
321.098480 87.000000
322.082790 14.000000
322.098790 26.000000
322.111300 48.000000
323.105380 15.000000
323.129390 5.000000
324.112670 16.000000
324.130620 20.000000
332.103450 5.000000
333.099120 16.000000
334.109740 405.000000
335.111420 89.000000
336.072660 6.000000
336.098450 12.000000
336.117280 9.000000
337.096250 55.000000
337.108890 18.000000
338.115510 6.000000
350.097660 10.000000
352.118900 521.000000
352.152010 6.000000
353.123900 127.000000
354.112950 5.000000
354.137700 6.000000
366.123470 7.000000
366.144130 6.000000

>ms2
65.036940 11.000000
74.060190 10.000000
77.041890 7.000000
79.055500 13.000000
79.060540 7.000000
83.285700 7.000000
90.997460 8.000000
91.042300 11.000000
91.057510 105.000000
101.035160 8.000000
102.039390 12.000000
103.047360 13.000000
103.056340 94.000000
104.045780 7.000000
104.054100 14.000000
104.062970 52.000000
104.070850 14.000000
105.036700 23.000000
105.054860 11.000000
105.069110 7.000000
106.014920 7.000000
107.049780 8.000000
108.741750 8.000000
112.581750 9.000000
115.056730 11.000000
116.046020 10.000000
116.060260 13.000000
117.056760 62.000000
117.072220 9.000000
118.063260 23.000000
118.071390 16.000000
119.051740 26.000000
119.058350 29.000000
120.084180 8.000000
124.030010 8.000000
126.555580 14.000000
128.054260 8.000000
129.068160 7.000000
129.388150 10.000000
130.042830 17.000000
130.066880 132.000000
130.413530 8.000000
130.683580 11.000000
131.049990 118.000000
131.066060 29.000000
131.073030 103.000000
132.047200 19.000000
132.057790 17.000000
132.081940 91.000000
132.096250 10.000000
133.079710 30.000000
134.031800 8.000000
134.095670 14.000000
134.103850 8.000000
135.045390 99.000000
135.055050 17.000000
135.444990 7.000000
137.035680 9.000000
144.064670 7.000000
144.084840 8.000000
145.057220 21.000000
145.071300 19.000000
146.058730 30.000000
146.064700 29.000000
147.039750 75.000000
147.046710 45.000000
147.070310 21.000000
148.046510 24.000000
148.060700 54.000000
148.083020 12.000000
149.013930 9.000000
149.038680 7.000000
149.047670 19.000000
149.059830 31.000000
150.072430 12.000000
151.040070 8.000000
151.052870 57.000000
151.058430 32.000000
152.059940 60.000000
152.072040 31.000000
153.060440 13.000000
153.070070 9.000000
153.078460 11.000000
154.064560 8.000000
154.073780 8.000000
155.049130 10.000000
155.055420 12.000000
155.318020 8.000000
156.080900 7.000000
158.048580 31.000000
158.063490 12.000000
159.045850 89.000000
159.069470 70.000000
159.293730 8.000000
160.022960 14.000000
160.041850 8.000000
160.055790 27.000000
160.077380 103.000000
160.090330 8.000000
161.018620 18.000000
161.048110 164.000000
161.060930 105.000000
161.081710 33.000000
162.038740 12.000000
162.055730 27.000000
162.062210 7.000000
162.075150 10.000000
162.090270 19.000000
162.104580 7.000000
163.034960 33.000000
163.046680 38.000000
163.066600 10.000000
164.051930 19.000000
164.286910 10.000000
165.044170 14.000000
165.051650 10.000000
165.073290 202.000000
166.059020 10.000000
166.073010 18.000000
167.055020 8.000000
167.070830 8.000000
167.084380 11.000000
172.026500 7.000000
172.042390 8.000000
173.056000 11.000000
173.925810 12.000000
174.020200 8.000000
174.047320 21.000000
174.056920 65.000000
174.063140 21.000000
174.089140 15.000000
175.063570 157.000000
175.070560 83.000000
176.040420 17.000000
176.063610 167.000000
176.080980 16.000000
176.420870 10.000000
177.050320 14.000000
177.065320 128.000000
177.077330 207.000000
177.240540 7.000000
178.019970 10.000000
178.047440 9.000000
178.055330 11.000000
178.071120 41.000000
178.083010 158.000000
178.328340 7.000000
179.066700 10.000000
179.085340 66.000000
179.098630 43.000000
180.074910 19.000000
180.093050 30.000000
180.386830 21.000000
181.064320 15.000000
183.083570 7.000000
183.680020 7.000000
184.076920 9.000000
184.304490 8.000000
184.849410 10.000000
186.050950 17.000000
186.061710 15.000000
187.051530 46.000000
187.113040 12.000000
188.071780 691.000000
189.046750 7.000000
189.071380 611.000000
189.090060 21.000000
189.370240 9.000000
190.016460 8.000000
190.037520 10.000000
190.048610 44.000000
190.070180 92.000000
190.087220 1000.000000
190.891430 7.000000
191.046220 14.000000
191.054820 8.000000
191.072480 17.000000
191.085100 133.000000
191.102190 49.000000
191.679460 8.000000
192.083540 19.000000
192.093510 9.000000
193.056590 27.000000
193.065830 47.000000
193.080750 18.000000
193.096980 15.000000
194.053210 9.000000
194.073150 17.000000
194.087830 16.000000
194.098480 9.000000
195.046950 17.000000
195.069090 7.000000
195.089290 8.000000
196.050780 10.000000
197.057590 9.000000
197.066350 8.000000
199.830350 13.000000
200.068560 8.000000
201.058760 16.000000
201.072100 10.000000
202.063550 14.000000
202.072680 25.000000
202.084300 10.000000
203.041840 7.000000
203.060000 7.000000
203.074550 10.000000
203.089080 7.000000
203.099520 37.000000
204.044540 11.000000
204.064350 9.000000
204.082240 75.000000
204.324580 8.000000
205.037540 8.000000
205.059130 184.000000
205.069230 351.000000
205.087690 41.000000
205.103440 8.000000
206.068190 103.000000
206.082790 17.000000
206.100460 24.000000
207.049940 10.000000
207.057940 10.000000
207.082140 66.000000
207.093060 7.000000
208.050250 23.000000
208.078980 8.000000
208.987110 8.000000
209.040210 8.000000
209.059430 38.000000
209.070240 23.000000
209.089900 14.000000
210.059430 8.000000
210.083130 8.000000
211.056950 19.000000
211.068790 8.000000
213.447950 7.000000
215.042330 16.000000
215.053700 21.000000
216.054670 23.000000
216.071700 15.000000
217.051670 22.000000
217.062450 111.000000
217.074840 34.000000
217.087370 41.000000
217.097030 19.000000
217.922450 12.000000
218.031200 14.000000
218.055450 7.000000
218.072830 55.000000
218.090520 40.000000
218.101500 23.000000
218.458530 10.000000
219.064150 31.000000
219.083920 48.000000
219.104930 16.000000
219.395780 9.000000
220.074580 41.000000
220.086070 19.000000
221.059650 124.000000
221.068910 40.000000
221.086350 19.000000
222.069870 32.000000
222.092150 16.000000
222.106110 10.000000
223.054240 8.000000
223.061050 23.000000
223.074520 74.000000
224.075380 7.000000
225.069700 7.000000
229.047260 8.000000
229.077390 7.000000
232.033020 11.000000
232.052400 19.000000
232.089040 7.000000
233.037870 29.000000
233.054170 141.000000
233.067540 177.000000
233.090680 51.000000
234.051770 33.000000
234.071640 53.000000
234.089170 33.000000
234.100480 11.000000
235.067210 69.000000
235.076580 71.000000
235.087680 87.000000
235.100860 17.000000
236.060610 20.000000
236.078020 98.000000
236.105960 31.000000
236.113040 11.000000
237.023060 10.000000
237.047100 10.000000
237.094310 30.000000
238.060910 9.000000
238.067870 23.000000
238.081300 14.000000
238.972430 7.000000
241.080980 8.000000
242.908100 8.000000
243.021880 14.000000
243.042140 8.000000
243.175810 8.000000
244.065890 14.000000
244.099030 9.000000
244.721240 19.000000
245.050430 19.000000
245.063570 38.000000
245.072340 35.000000
245.149580 13.000000
246.058170 82.000000
246.080110 9.000000
246.092360 12.000000
247.054490 16.000000
247.065460 81.000000
247.078220 126.000000
247.102890 7.000000
248.057300 18.000000
248.070240 9.000000
248.079470 9.000000
248.092180 15.000000
248.116440 8.000000
249.037660 8.000000
249.059630 32.000000
249.074390 58.000000
249.091190 16.000000
250.064060 18.000000
250.080780 63.000000
250.094910 35.000000
251.059310 20.000000
251.085300 59.000000
251.551250 8.000000
255.825590 8.000000
258.085420 18.000000
259.072750 16.000000
260.024410 21.000000
260.068210 7.000000
260.299190 7.000000
261.035100 35.000000
261.052670 51.000000
261.067570 95.000000
261.082370 80.000000
261.098720 19.000000
261.122160 7.000000
262.044070 10.000000
262.063900 23.000000
262.078220 70.000000
262.092010 56.000000
262.110900 9.000000
262.301420 7.000000
263.061040 20.000000
263.078060 126.000000
263.097960 48.000000
263.285220 12.000000
264.059230 29.000000
264.086980 43.000000
264.102910 43.000000
264.116390 12.000000
265.106840 10.000000
266.064640 7.000000
266.128970 14.000000
266.579620 8.000000
272.053470 12.000000
273.041560 21.000000
274.045070 7.000000
274.058780 26.000000
274.082090 9.000000
274.092410 8.000000
274.102540 7.000000
275.046080 27.000000
275.061740 35.000000
275.075900 84.000000
275.106350 23.000000
276.025540 8.000000
276.051760 17.000000
276.075810 72.000000
276.093170 38.000000
276.104920 103.000000
277.048520 8.000000
277.059230 20.000000
277.072480 17.000000
277.086030 54.000000
277.105220 8.000000
277.119230 7.000000
277.841310 8.000000
278.080050 75.000000
278.103520 22.000000
279.042330 10.000000
279.076930 7.000000
279.087890 7.000000
279.100740 13.000000
279.816470 11.000000
280.088870 10.000000
280.326750 7.000000
282.246980 8.000000
285.700260 8.000000
288.072810 8.000000
289.075680 10.000000
289.612610 13.000000
290.040160 25.000000
290.071590 14.000000
290.093570 64.000000
290.520230 7.000000
290.749480 10.000000
291.051060 15.000000
291.082400 42.000000
291.095460 33.000000
291.121520 7.000000
292.036680 8.000000
292.045870 12.000000
292.061550 8.000000
292.084380 27.000000
292.095890 101.000000
293.074890 17.000000
293.098570 35.000000
293.111270 21.000000
294.043910 13.000000
294.057920 13.000000
294.070830 25.000000
294.084050 30.000000
294.116520 10.000000
294.258000 10.000000
295.082730 11.000000
295.129300 8.000000
300.141270 7.000000
303.031100 10.000000
303.062960 35.000000
303.080290 44.000000
303.223720 10.000000
304.043670 10.000000
304.061280 19.000000
304.073700 23.000000
304.089290 15.000000
304.096620 32.000000
304.112520 7.000000
304.182340 8.000000
305.055450 10.000000
305.072330 8.000000
305.104030 7.000000
305.120390 10.000000
306.062710 8.000000
306.087070 19.000000
306.097050 10.000000
308.087070 16.000000
308.103550 12.000000
309.106140 15.000000
310.094420 10.000000
314.065030 10.000000
316.059480 10.000000
316.076260 10.000000
318.047820 7.000000
318.069370 60.000000
318.081970 82.000000
319.016200 11.000000
319.068080 10.000000
319.107970 10.000000
320.088840 378.000000
320.112610 78.000000
321.077330 17.000000
321.090520 28.000000
321.106260 47.000000
322.043980 10.000000
322.068210 8.000000
322.096590 7.000000
323.100980 7.000000
332.098720 8.000000
332.116390 8.000000
333.100590 8.000000
335.063810 8.000000
337.104610 9.000000
350.095400 7.000000
350.593380 7.000000
364.045560 7.000000

