>compound PR92819839
>parentmass 355.1028
>ionization [M+H]+
>formula C16H18O9
>rt 187.800000
>profile qtof
#smiles_iso C1C(C(C(CC1(C(=O)O)O)OC(=O)C=CC2=CC(=C(C=C2)O)O)O)O
#smiles_can C1C(C(C(CC1(C(=O)O)O)OC(=O)C=CC2=CC(=C(C=C2)O)O)O)O
#inchikey CWVRJTMFETXNAD-UHFFFAOYSA-N
#pubchem_id 348159
#mb_accession PR310745

>ms2
77.038680 17.000000
79.055950 19.000000
83.053360 21.000000
89.041020 17.000000
90.001220 27.000000
106.932240 16.000000
107.048970 23.000000
107.056340 18.000000
117.025990 43.000000
117.034380 195.000000
120.141730 19.000000
121.031430 17.000000
123.140940 27.000000
134.033390 18.000000
135.045760 401.000000
136.046800 50.000000
138.593280 16.000000
143.271650 16.000000
145.028730 801.000000
146.033020 62.000000
162.042560 17.000000
163.039410 8097.000000
164.042270 770.000000
164.437420 16.000000
165.043050 62.000000
165.050490 37.000000
167.061250 16.000000
177.388020 16.000000
181.046690 20.000000
182.045840 17.000000
193.054320 39.000000
204.971360 20.000000
227.064530 17.000000
337.101470 18.000000
355.101960 312.000000

