>compound PR93400795
>parentmass 597.1813967999999
>ionization [M+H]+
>formula C27H32O15
>rt 234.976980
>profile qtof
#smiles_iso C[C@H]1[C@@H]([C@H]([C@H]([C@@H](O1)OC[C@@H]2[C@H]([C@@H]([C@H]([C@@H](O2)OC3=CC(=C4C(=O)C[C@H](OC4=C3)C5=CC(=C(C=C5)O)O)O)O)O)O)O)O)O
#smiles_can CC1C(C(C(C(O1)OCC2C(C(C(C(O2)OC3=CC(=C4C(=O)CC(OC4=C3)C5=CC(=C(C=C5)O)O)O)O)O)O)O)O)O
#inchikey OMQADRGFMLGFJF-MNPJBKLOSA-N
#pubchem_id 83489
#mb_accession PR302480,PR302485,PR302491,PR302497,PR302503,PR302509,PR302515,PR302521,PR302527,PR302538,PR302544

>ms2
85.026250 109.000000
85.032200 145.000000
129.013760 35.000000
129.048610 60.000000
129.053300 163.000000
129.120420 26.000000
135.037230 39.000000
145.030930 31.000000
147.061870 57.000000
148.072170 43.000000
153.012910 24.000000
153.022800 98.000000
163.026870 42.000000
163.041700 134.000000
165.025540 35.000000
195.029170 101.000000
203.032290 42.000000
219.025940 37.000000
219.038540 26.000000
245.032320 33.000000
253.045230 29.000000
262.047360 24.000000
263.046910 171.000000
263.064730 43.000000
272.212860 22.000000
281.042020 24.000000
287.057650 39.000000
289.034420 26.000000
289.068270 1000.000000
289.080870 423.000000
290.061830 28.000000
290.069520 84.000000
290.089200 50.000000
291.054140 40.000000
301.048280 42.000000
301.062500 31.000000
331.072810 32.000000
331.087400 154.000000
332.070470 22.000000
348.071870 35.000000
353.073270 27.000000
355.021550 21.000000
355.053530 26.000000
355.100890 34.000000
381.076510 22.000000
381.103550 31.000000
388.973630 27.000000
397.099060 22.000000
398.628510 21.000000
399.098750 23.000000
399.121150 32.000000
400.105590 32.000000
401.105410 22.000000
417.024570 42.000000
417.114230 81.000000
418.111420 46.000000
419.111760 23.000000
425.111300 33.000000
433.118620 55.000000
434.090030 35.000000
434.107820 35.000000
435.093840 44.000000
435.116390 144.000000
435.136470 227.000000
436.133180 120.000000
436.147370 94.000000
450.107850 67.000000
451.122310 271.000000
452.118100 54.000000
452.132600 26.000000
460.145260 28.000000
475.097260 23.000000
475.143070 32.000000
476.105770 21.000000
476.126220 29.000000
476.143980 39.000000
479.131500 34.000000
595.094360 38.000000
595.153200 31.000000
596.152650 22.000000
597.134160 24.000000
597.170900 210.000000
597.195920 92.000000
597.223690 23.000000

>ms2
75.044310 31.000000
129.041560 27.000000
147.065640 19.000000
247.551130 29.000000
248.478360 16.000000
273.094940 21.000000
287.076290 29.000000
289.027740 31.000000
289.058040 91.000000
289.070680 440.000000
289.094510 23.000000
290.059910 36.000000
290.077700 178.000000
309.129850 17.000000
323.060580 26.000000
331.083620 64.000000
379.212770 41.000000
383.157380 35.000000
389.096070 50.000000
397.091610 41.000000
399.080810 23.000000
399.113950 68.000000
400.098630 19.000000
401.122770 19.000000
408.238310 17.000000
415.102480 18.000000
417.091090 24.000000
417.110320 96.000000
417.128690 135.000000
418.116760 18.000000
433.073910 19.000000
433.123660 39.000000
434.114350 25.000000
435.086150 53.000000
435.127590 1000.000000
436.111940 69.000000
436.134090 296.000000
437.128450 22.000000
438.129360 16.000000
440.114930 18.000000
441.455260 21.000000
449.080350 18.000000
450.115690 17.000000
451.115360 265.000000
451.134830 141.000000
452.128080 39.000000
452.151340 23.000000
453.094790 18.000000
457.145480 29.000000
459.128660 17.000000
475.138670 26.000000
477.135560 43.000000
477.153350 17.000000
478.134550 21.000000
481.115450 22.000000
483.129880 36.000000
490.851010 16.000000
525.137330 17.000000
543.152280 16.000000
543.175960 16.000000
544.158940 18.000000
545.161560 42.000000
561.157840 88.000000
562.150390 18.000000
562.186220 25.000000
579.174800 72.000000
595.162900 122.000000
595.181950 36.000000
596.156370 39.000000
596.184330 68.000000
596.615480 21.000000
597.115420 17.000000
597.155940 287.000000
597.186280 857.000000

>ms2
71.039890 24.000000
85.027780 158.000000
85.034000 28.000000
85.327120 19.000000
129.050090 49.000000
129.054670 98.000000
129.061360 86.000000
153.013080 33.000000
153.021440 65.000000
163.032910 18.000000
165.019270 16.000000
179.030350 19.000000
181.047450 31.000000
195.028580 121.000000
196.026340 21.000000
218.995390 22.000000
219.027560 17.000000
219.036680 41.000000
220.035720 17.000000
237.053040 39.000000
245.042500 21.000000
247.050720 16.000000
261.040890 16.000000
263.049380 55.000000
263.064060 38.000000
266.650020 17.000000
270.948000 17.000000
271.059170 30.000000
282.077030 26.000000
287.057980 151.000000
288.046840 24.000000
288.057830 42.000000
289.023900 22.000000
289.040710 41.000000
289.072600 1000.000000
290.043580 17.000000
290.072480 125.000000
291.070890 47.000000
299.079530 29.000000
300.062990 24.000000
301.059080 21.000000
301.071620 66.000000
313.067840 31.000000
332.081450 20.000000
343.064060 30.000000
343.081120 31.000000
355.090420 55.000000
358.113620 24.000000
381.089450 18.000000
397.076720 24.000000
399.088590 15.000000
399.103940 24.000000
399.119930 16.000000
425.111050 28.000000
433.122010 31.000000
435.103450 24.000000
449.060150 22.000000
451.081020 17.000000

>ms2
71.067730 45.000000
85.031510 386.000000
123.043630 130.000000
129.052930 127.000000
135.041640 116.000000
135.058530 69.000000
153.019300 1000.000000
153.028200 230.000000
153.464080 48.000000
154.020070 265.000000
162.588700 45.000000
162.745480 53.000000
163.037720 540.000000
165.016370 74.000000
165.027150 116.000000
175.039630 58.000000
179.033050 61.000000
191.032930 108.000000
195.020360 71.000000
195.028200 61.000000
203.033860 56.000000
219.037320 66.000000
245.044590 74.000000
271.051120 66.000000
271.065090 124.000000
287.042330 161.000000
287.062350 61.000000
289.068700 156.000000
289.076660 61.000000
290.074980 93.000000
295.062290 48.000000
353.115170 90.000000

>ms2
85.031400 49.000000
129.049510 15.000000
129.055250 24.000000
130.052690 22.000000
135.047380 39.000000
147.065060 87.000000
153.013610 93.000000
153.022960 51.000000
163.026470 23.000000
163.034500 49.000000
163.043010 35.000000
177.011720 19.000000
181.093510 28.000000
193.046860 24.000000
195.019820 26.000000
195.031630 38.000000
219.031950 26.000000
233.045010 17.000000
245.043990 58.000000
246.047680 25.000000
257.044740 59.000000
263.049930 47.000000
264.055390 38.000000
267.591860 20.000000
279.058200 25.000000
281.039790 21.000000
282.055880 14.000000
287.038090 31.000000
287.053340 71.000000
287.084470 23.000000
287.231380 14.000000
288.054080 14.000000
288.081790 19.000000
289.030790 14.000000
289.047970 86.000000
289.070340 1000.000000
289.096770 18.000000
289.402920 14.000000
290.067290 146.000000
290.089320 60.000000
296.364780 15.000000
313.078090 30.000000
327.083340 34.000000
331.082760 96.000000
331.090360 43.000000
332.036680 19.000000
332.086330 19.000000
341.053960 18.000000
341.658200 24.000000
353.097320 23.000000
355.079250 33.000000
367.076540 24.000000
370.400670 23.000000
381.096590 17.000000
382.096890 28.000000
399.054140 24.000000
399.087950 33.000000
399.111480 72.000000
400.107390 23.000000
400.134250 20.000000
415.097410 17.000000
417.106540 111.000000
417.131100 14.000000
418.122890 83.000000
418.138370 18.000000
433.098940 18.000000
434.098750 33.000000
435.124240 271.000000
435.146910 41.000000
436.122010 103.000000
437.128600 39.000000
438.143980 18.000000
449.110900 17.000000
451.116460 150.000000
452.114870 48.000000
458.123990 16.000000
478.133580 22.000000
517.130000 20.000000
561.158570 25.000000
562.156370 14.000000
580.189880 20.000000
595.157840 14.000000
597.170040 287.000000

>ms2
129.045760 17.000000
129.055160 20.000000
147.068220 26.000000
171.072680 13.000000
263.345370 13.000000
266.397400 25.000000
289.013980 11.000000
289.071530 327.000000
289.086910 55.000000
289.194850 11.000000
309.128200 15.000000
311.115080 20.000000
319.271610 36.000000
331.060090 12.000000
331.075500 38.000000
331.097350 18.000000
333.081730 16.000000
350.453340 20.000000
355.078370 15.000000
373.850490 16.000000
374.678250 11.000000
382.106870 17.000000
384.437230 19.000000
399.106050 144.000000
407.080050 12.000000
416.855710 18.000000
417.082550 12.000000
417.110960 124.000000
417.133700 85.000000
428.313170 22.000000
430.139010 22.000000
433.088530 16.000000
433.104250 20.000000
433.129430 39.000000
434.107730 28.000000
434.155700 13.000000
435.123810 1000.000000
435.171360 17.000000
436.119900 143.000000
436.135770 77.000000
436.153350 21.000000
437.115880 13.000000
437.146850 40.000000
437.575930 12.000000
449.089230 15.000000
451.089840 51.000000
451.125890 315.000000
452.098080 25.000000
452.112120 38.000000
452.140530 28.000000
453.138610 12.000000
454.128850 12.000000
460.138580 42.000000
467.906280 33.000000
475.081700 15.000000
475.129880 15.000000
483.120510 15.000000
526.166560 12.000000
543.139160 14.000000
552.698670 23.000000
561.155270 84.000000
563.161560 13.000000
567.204470 16.000000
579.187930 34.000000
580.062130 30.000000
580.143190 15.000000
595.169680 36.000000
595.196720 15.000000
596.082760 19.000000
596.105530 11.000000
596.144470 38.000000
596.189030 49.000000
596.425290 13.000000
597.125370 11.000000
597.180420 907.000000

>ms2
69.033140 57.000000
71.049160 67.000000
72.052960 29.000000
75.042100 18.000000
85.018840 35.000000
85.028160 176.000000
129.048780 53.000000
129.057170 134.000000
130.062230 15.000000
145.041320 29.000000
153.006590 22.000000
153.015410 66.000000
153.024260 33.000000
154.656220 28.000000
163.037340 67.000000
193.010150 18.000000
195.015990 17.000000
195.033050 15.000000
196.524830 15.000000
200.688540 15.000000
217.045030 15.000000
219.025180 87.000000
219.040360 57.000000
221.024310 15.000000
231.029240 25.000000
245.021000 20.000000
257.043820 20.000000
261.007170 16.000000
261.058040 22.000000
263.037080 30.000000
263.054200 72.000000
271.061710 20.000000
287.056980 126.000000
288.063630 44.000000
289.033480 62.000000
289.070740 1000.000000
289.287050 15.000000
289.985230 22.000000
290.036500 18.000000
290.066440 38.000000
290.074310 84.000000
290.090820 69.000000
293.107060 15.000000
301.069890 24.000000
302.081790 33.000000
313.070430 18.000000
313.083620 29.000000
327.079930 26.000000
331.073940 20.000000
331.085480 18.000000
341.070800 24.000000
355.085940 43.000000
356.091340 15.000000
356.478670 16.000000
368.098140 16.000000
375.114870 22.000000
381.077030 26.000000
399.136470 19.000000
400.086150 27.000000
401.118500 18.000000
434.099120 18.000000
435.127320 18.000000
439.098180 24.000000

>ms2
67.016860 46.000000
68.993650 47.000000
71.053190 70.000000
85.010900 34.000000
85.027920 63.000000
95.044080 116.000000
108.994600 44.000000
109.033150 44.000000
123.045630 40.000000
125.009800 42.000000
129.050160 59.000000
133.027470 42.000000
135.045700 36.000000
149.023620 38.000000
153.018390 1000.000000
163.035140 588.000000
164.041020 42.000000
165.012590 66.000000
166.017120 49.000000
177.014480 63.000000
180.689410 49.000000
189.025280 65.000000
194.986250 32.000000
195.022260 74.000000
195.031270 110.000000
205.046550 83.000000
214.045870 32.000000
215.068360 53.000000
243.022780 34.000000
243.033070 40.000000
245.026180 32.000000
245.046890 157.000000
247.064130 36.000000
253.056300 38.000000
287.054990 205.000000
289.068420 444.000000
292.062960 47.000000
301.085300 121.000000
325.055420 44.000000

>ms2
85.022880 94.000000
86.809680 14.000000
111.043460 15.000000
129.051590 13.000000
129.063140 27.000000
147.056980 14.000000
147.069000 18.000000
152.958630 21.000000
153.017070 48.000000
153.022310 19.000000
154.026080 14.000000
163.040280 38.000000
165.022080 24.000000
173.909000 16.000000
179.045270 19.000000
191.025130 15.000000
195.029170 66.000000
205.021670 21.000000
213.075300 16.000000
219.036440 13.000000
231.028230 13.000000
245.025020 27.000000
245.038930 19.000000
246.048020 20.000000
263.030610 17.000000
263.040220 34.000000
265.057160 18.000000
279.458310 13.000000
281.035770 17.000000
281.048000 19.000000
281.060210 16.000000
281.084930 19.000000
285.043520 27.000000
287.046170 33.000000
287.059660 72.000000
287.069370 36.000000
288.053500 17.000000
289.069490 1000.000000
290.032990 27.000000
290.058260 20.000000
290.076720 63.000000
291.066010 17.000000
291.089690 15.000000
296.149440 15.000000
297.050690 17.000000
298.414180 16.000000
313.068180 27.000000
313.087310 33.000000
331.072780 69.000000
331.090580 33.000000
331.171420 23.000000
332.083950 42.000000
355.076570 17.000000
355.084780 50.000000
356.095950 13.000000
367.068180 17.000000
375.216890 13.000000
397.348690 15.000000
399.054050 13.000000
399.087460 33.000000
399.100160 16.000000
399.120940 13.000000
399.135250 18.000000
400.106410 20.000000
402.463320 13.000000
403.234530 16.000000
415.099330 16.000000
416.084690 30.000000
417.058930 19.000000
417.093930 13.000000
417.125760 99.000000
417.136870 31.000000
418.084810 20.000000
418.107600 19.000000
418.123500 15.000000
420.150940 15.000000
425.079470 19.000000
428.113530 15.000000
433.107210 22.000000
434.104340 17.000000
435.095580 18.000000
435.126280 138.000000
435.149320 50.000000
436.118290 32.000000
436.134580 13.000000
437.165860 23.000000
449.125950 44.000000
451.103060 100.000000
451.128750 84.000000
452.083040 16.000000
452.139100 49.000000
465.103420 13.000000
475.113490 20.000000
493.110960 15.000000
561.137570 16.000000
595.056460 19.000000
595.186830 24.000000
596.160950 22.000000
596.184450 64.000000
597.165950 75.000000
597.193850 88.000000
597.220150 19.000000

>ms2
69.037880 38.000000
71.045970 44.000000
71.050900 41.000000
72.046940 29.000000
72.055490 17.000000
75.041630 15.000000
85.027660 233.000000
87.045920 17.000000
100.827640 24.000000
127.042420 21.000000
129.053760 63.000000
135.042470 16.000000
145.050920 13.000000
147.071490 15.000000
153.016660 77.000000
153.024490 46.000000
155.558030 13.000000
177.025850 15.000000
179.036930 18.000000
195.020340 45.000000
195.030360 17.000000
195.248700 15.000000
203.037030 30.000000
219.011440 20.000000
219.026700 22.000000
245.036160 66.000000
245.052510 13.000000
246.034550 13.000000
255.086230 15.000000
261.042330 21.000000
262.182680 19.000000
263.039460 17.000000
263.055630 44.000000
263.066830 17.000000
264.052640 13.000000
266.035100 13.000000
279.063200 31.000000
287.046940 72.000000
287.058990 49.000000
288.054170 94.000000
289.029910 16.000000
289.070950 1000.000000
290.066650 105.000000
290.084900 55.000000
291.061250 20.000000
291.092530 18.000000
301.071690 36.000000
313.064760 13.000000
313.078800 44.000000
331.087280 34.000000
333.091310 21.000000
355.087980 98.000000
356.078460 21.000000
381.104980 21.000000
382.099240 21.000000
399.126070 16.000000
407.084990 24.000000
417.081270 16.000000
418.119170 13.000000
423.097320 20.000000
433.088470 15.000000
447.098940 16.000000
449.078400 15.000000
477.139470 18.000000

>ms2
68.546940 53.000000
71.009640 53.000000
85.027000 182.000000
85.031810 154.000000
85.061780 44.000000
115.052140 31.000000
129.054810 39.000000
135.041790 37.000000
137.057250 44.000000
145.035160 53.000000
153.003830 70.000000
153.019710 1000.000000
153.986300 33.000000
154.022570 79.000000
161.064800 37.000000
163.034560 278.000000
163.044490 191.000000
164.046160 59.000000
165.016460 44.000000
166.025940 39.000000
167.053330 46.000000
179.004780 39.000000
179.025630 118.000000
187.031490 55.000000
191.032850 35.000000
195.026000 162.000000
196.028550 105.000000
217.017440 70.000000
219.038540 42.000000
230.021010 57.000000
231.022950 59.000000
244.995000 57.000000
245.035980 50.000000
245.047940 92.000000
255.073150 61.000000
259.061980 33.000000
271.070470 44.000000
272.058780 51.000000
287.033390 46.000000
287.050720 202.000000
287.064910 44.000000
288.055940 33.000000
288.072050 61.000000
289.055150 39.000000
289.068080 75.000000
290.057130 39.000000
290.074920 149.000000
430.387760 46.000000

