>compound PR93389396
>parentmass 373.1645649000001
>ionization [M+H]+
>formula C21H24O6
>rt 397.579020
>profile qtof
#smiles_iso COC1=C(C=C(C=C1)C[C@H]2COC(=O)[C@@H]2CC3=CC(=C(C=C3)O)OC)OC
#smiles_can COC1=C(C=C(C=C1)CC2COC(=O)C2CC3=CC(=C(C=C3)O)OC)OC
#inchikey NQWVSMVXKMHKTF-JKSUJKDBSA-N
#pubchem_id 64981
#mb_accession PR303917,PR303918,PR303919,PR303920,PR303921,PR303922,PR303923,PR303924

>ms2peaks
121.067740 20.000000
122.035020 31.000000
137.059560 1000.000000
138.063800 82.000000
139.067340 7.000000
145.067730 7.000000
146.072830 17.000000
147.039760 6.000000
147.078320 8.000000
149.054920 12.000000
149.063060 30.000000
150.063690 6.000000
151.075210 110.000000
152.080600 19.000000
161.059490 6.000000
163.073790 6.000000
165.056610 19.000000
175.073650 6.000000
177.055450 11.000000
177.090390 121.000000
178.083880 7.000000
178.094570 18.000000
179.071240 9.000000
187.074140 9.000000
189.086440 10.000000
189.092820 11.000000
191.111830 9.000000
193.085420 8.000000
201.086350 12.000000
203.085650 7.000000
217.082780 6.000000
219.097890 30.000000
220.103840 6.000000
235.093640 8.000000
235.108930 10.000000
237.112140 128.000000
238.114670 20.000000
245.091110 7.000000
245.101650 7.000000
246.099900 10.000000
249.117370 8.000000
262.098690 20.000000
263.105440 7.000000
273.079130 5.000000
273.094420 15.000000
274.102360 15.000000
277.121800 28.000000
290.099270 18.000000
291.101070 19.000000
292.106720 10.000000
295.130950 44.000000
305.117430 214.000000
306.109470 15.000000
306.123570 27.000000
306.137150 19.000000
307.134090 9.000000
308.107450 7.000000
323.129060 66.000000
324.126890 10.000000
324.141660 6.000000
337.143830 71.000000
338.145050 11.000000
355.153440 202.000000
356.151180 33.000000
356.166410 33.000000
357.153410 9.000000
372.158050 37.000000
373.163210 391.000000

>ms2peaks
91.055390 6.000000
109.066760 5.000000
121.065170 30.000000
122.036200 22.000000
136.044680 6.000000
137.059840 1000.000000
138.063520 95.000000
139.065140 14.000000
145.061430 6.000000
146.072460 43.000000
147.081600 10.000000
149.054570 13.000000
149.061740 22.000000
150.061130 5.000000
151.075210 90.000000
152.073490 6.000000
152.081420 16.000000
160.085360 7.000000
161.058610 7.000000
162.068120 10.000000
165.055050 20.000000
177.054610 18.000000
177.091170 102.000000
178.097470 12.000000
179.071260 6.000000
188.073520 6.000000
189.086620 6.000000
189.094250 10.000000
191.106370 23.000000
201.090440 7.000000
203.108150 9.000000
217.083910 6.000000
217.093020 5.000000
219.103940 11.000000
235.111430 10.000000
245.096280 22.000000
246.105210 13.000000
247.104050 6.000000
262.100160 16.000000
263.101170 7.000000
273.100190 10.000000
274.098790 27.000000
275.103760 11.000000
277.118500 7.000000
290.087800 12.000000
290.097470 6.000000
291.100800 15.000000
305.118470 34.000000
306.126460 16.000000
307.094390 5.000000
337.136630 5.000000

>ms2peaks
65.039790 5.000000
66.046380 14.000000
77.040380 10.000000
79.053570 28.000000
80.062470 9.000000
91.052250 44.000000
94.041250 179.000000
95.048540 19.000000
103.052810 21.000000
104.058710 10.000000
105.063650 7.000000
106.038760 8.000000
107.045640 10.000000
107.051960 28.000000
108.052600 9.000000
108.057590 16.000000
109.063960 6.000000
115.052830 13.000000
117.067710 9.000000
117.072470 12.000000
119.050250 19.000000
121.035640 6.000000
121.055980 6.000000
121.064770 19.000000
122.036930 467.000000
123.035580 21.000000
123.043160 26.000000
128.060390 16.000000
129.065280 9.000000
129.070390 10.000000
130.044750 6.000000
131.050600 42.000000
132.055600 9.000000
133.063390 9.000000
135.047810 8.000000
136.049610 10.000000
137.059780 1000.000000
138.053090 5.000000
138.064160 67.000000
145.065350 45.000000
146.032230 8.000000
146.063170 18.000000
146.074010 46.000000
147.042530 7.000000
147.074080 29.000000
147.084780 8.000000
149.061140 6.000000
151.075320 77.000000
157.066380 6.000000
160.040150 6.000000
160.101180 6.000000
161.060460 10.000000
162.069110 11.000000
174.070830 6.000000
175.069820 6.000000
177.095170 7.000000
189.094040 8.000000
190.077060 13.000000
191.080860 25.000000
202.078960 35.000000
202.086580 12.000000
203.078660 6.000000
205.104660 6.000000
207.082580 5.000000
215.088260 18.000000
216.096820 5.000000
218.075700 6.000000
219.078510 19.000000
219.089720 8.000000
220.092320 6.000000
231.074450 12.000000
231.088810 10.000000
232.083860 6.000000
245.088010 10.000000
245.098650 10.000000
247.073750 25.000000
248.083270 9.000000
260.091280 8.000000
278.089660 5.000000

>ms2peaks
94.045920 6.000000
107.046060 6.000000
121.064630 30.000000
122.035230 26.000000
131.051270 7.000000
137.059360 1000.000000
138.063220 113.000000
139.064940 7.000000
145.063160 14.000000
146.066440 9.000000
146.072780 26.000000
147.039790 6.000000
147.076220 5.000000
147.082890 12.000000
149.057950 26.000000
149.095210 8.000000
151.075880 95.000000
152.078000 13.000000
159.080350 5.000000
160.090210 10.000000
162.063290 10.000000
165.048510 6.000000
165.057110 7.000000
165.089980 5.000000
175.072310 7.000000
177.054380 27.000000
177.089830 93.000000
178.092250 13.000000
179.066450 10.000000
189.084110 6.000000
189.095250 15.000000
191.096950 5.000000
191.108730 20.000000
201.092440 12.000000
203.103700 7.000000
205.089340 8.000000
217.084810 9.000000
219.101720 13.000000
235.112350 9.000000
245.095610 19.000000
245.106020 6.000000
246.108410 7.000000
259.074830 5.000000
261.098210 8.000000
262.098050 17.000000
263.110200 15.000000
273.090850 12.000000
274.098390 27.000000
275.104860 12.000000
277.121700 13.000000
290.088170 15.000000
290.100860 13.000000
291.099910 19.000000
291.111940 7.000000
304.108000 5.000000
305.115140 36.000000
305.128940 13.000000
306.109130 8.000000
306.120150 11.000000
306.130890 9.000000
322.118530 13.000000

>ms2peaks
66.052250 6.000000
77.035630 9.000000
77.041920 13.000000
79.052030 35.000000
79.059550 10.000000
82.070090 9.000000
90.043230 7.000000
91.052970 50.000000
94.041410 186.000000
95.044620 11.000000
103.055660 21.000000
105.032100 9.000000
105.068200 9.000000
106.038780 14.000000
107.046490 24.000000
107.058370 12.000000
108.056740 27.000000
109.061910 6.000000
109.068780 6.000000
115.052220 16.000000
116.059360 9.000000
117.074120 22.000000
119.051250 11.000000
121.058970 22.000000
121.066820 14.000000
122.036600 452.000000
123.042690 40.000000
127.040790 6.000000
128.061160 6.000000
128.073470 5.000000
129.069060 9.000000
131.046600 28.000000
131.055150 8.000000
132.035800 8.000000
133.094990 6.000000
135.043460 38.000000
136.051350 30.000000
137.036620 7.000000
137.059770 1000.000000
137.079680 8.000000
138.061570 129.000000
139.058840 6.000000
141.073150 12.000000
145.066120 20.000000
146.072110 54.000000
146.080610 16.000000
147.039230 6.000000
147.074480 21.000000
147.082720 7.000000
148.067370 5.000000
149.058400 39.000000
150.032030 7.000000
151.076350 97.000000
152.059010 5.000000
153.093980 5.000000
157.070880 5.000000
158.071150 8.000000
160.087650 17.000000
162.058550 13.000000
173.059430 11.000000
174.070430 5.000000
176.084300 6.000000
178.077650 9.000000
182.073970 10.000000
188.088640 5.000000
189.069750 7.000000
191.082060 17.000000
192.555100 5.000000
202.077580 24.000000
203.080490 21.000000
204.096880 8.000000
205.063250 14.000000
205.103260 9.000000
215.087800 7.000000
216.090810 11.000000
218.069470 9.000000
219.077010 18.000000
219.089950 15.000000
219.098330 7.000000
220.089690 27.000000
221.083420 9.000000
222.076260 6.000000
222.107120 8.000000
231.080730 14.000000
232.079860 9.000000
232.102690 9.000000
233.095790 8.000000
234.101170 6.000000
245.094360 12.000000
247.070880 12.000000
249.102080 9.000000
261.079500 5.000000
261.090300 8.000000
274.094600 8.000000

>ms2peaks
94.040480 7.000000
107.048390 5.000000
121.061130 29.000000
121.069700 6.000000
122.036190 25.000000
122.068440 7.000000
137.059800 1000.000000
138.056030 20.000000
138.063690 90.000000
139.071810 8.000000
145.061840 11.000000
146.066330 6.000000
146.074480 24.000000
147.080730 22.000000
149.058610 29.000000
149.067730 7.000000
151.074520 140.000000
152.083510 45.000000
163.068450 7.000000
165.049880 18.000000
165.058040 11.000000
174.065580 12.000000
177.056140 24.000000
177.077650 8.000000
177.090810 97.000000
178.094940 17.000000
191.110610 13.000000
201.093510 13.000000
202.071640 5.000000
203.099950 9.000000
204.078670 5.000000
205.088670 10.000000
219.105760 12.000000
220.091110 7.000000
221.088420 6.000000
231.082820 7.000000
235.085340 9.000000
235.098040 9.000000
235.110490 17.000000
236.103790 6.000000
237.112240 84.000000
238.114910 17.000000
245.091950 6.000000
245.102940 9.000000
246.108550 7.000000
261.097410 7.000000
262.098970 5.000000
263.105770 18.000000
263.117490 11.000000
264.111210 7.000000
273.095370 9.000000
274.100460 11.000000
275.066590 6.000000
275.111910 6.000000
277.118800 5.000000
290.095760 7.000000
291.100430 16.000000
295.123050 11.000000
295.133120 17.000000
295.143220 10.000000
296.124970 11.000000
296.136540 6.000000
305.117860 195.000000
306.104710 7.000000
306.122920 54.000000
307.123200 10.000000
322.118800 12.000000
323.125030 76.000000
324.119840 6.000000
324.131900 21.000000
324.147980 5.000000
337.138340 38.000000
337.154510 36.000000
338.142730 15.000000
338.154270 12.000000
355.138150 41.000000
355.153230 206.000000
356.150510 29.000000
356.162750 38.000000
357.154170 8.000000
372.151790 13.000000
372.164890 15.000000
373.125370 6.000000
373.163600 431.000000

>ms2peaks
91.055540 5.000000
117.067290 6.000000
121.063690 25.000000
122.033440 19.000000
137.058960 1000.000000
138.061780 91.000000
145.058090 11.000000
145.067310 8.000000
146.064740 6.000000
146.075070 20.000000
147.081390 11.000000
149.048130 6.000000
149.058900 30.000000
150.063370 11.000000
151.075150 105.000000
152.083660 10.000000
160.091720 7.000000
161.060300 13.000000
162.062680 6.000000
165.051470 7.000000
165.057370 9.000000
175.073170 8.000000
177.047940 9.000000
177.055730 23.000000
177.091130 79.000000
178.092440 9.000000
189.091920 16.000000
191.096010 7.000000
191.108570 18.000000
201.090880 18.000000
205.086810 9.000000
219.102200 9.000000
235.107120 7.000000
245.093990 19.000000
246.098860 9.000000
261.087280 7.000000
262.100860 9.000000
263.104250 16.000000
264.111720 7.000000
273.092800 17.000000
274.097660 23.000000
275.089720 8.000000
275.107300 12.000000
277.114230 10.000000
280.108980 5.000000
290.087370 11.000000
291.089840 12.000000
291.104460 9.000000
292.103450 6.000000
305.107390 22.000000
305.122340 16.000000
306.122190 23.000000
307.095340 5.000000

>ms2peaks
65.037280 7.000000
66.042840 11.000000
77.035530 9.000000
77.042190 5.000000
79.055340 25.000000
80.058960 6.000000
81.066910 5.000000
91.055270 81.000000
93.035570 10.000000
93.070270 14.000000
94.041940 236.000000
95.050010 21.000000
103.053150 9.000000
105.070870 7.000000
107.047390 31.000000
107.055000 14.000000
108.048070 7.000000
108.056560 7.000000
109.030000 5.000000
115.055460 20.000000
117.033790 12.000000
117.070720 20.000000
118.035300 11.000000
118.048550 5.000000
119.052480 14.000000
121.064930 31.000000
122.036470 440.000000
122.069180 8.000000
123.038060 43.000000
123.045460 13.000000
124.043880 7.000000
127.054880 19.000000
128.063780 17.000000
129.071080 7.000000
131.048980 62.000000
133.067060 9.000000
134.034360 23.000000
135.045900 17.000000
136.052950 7.000000
137.059450 1000.000000
138.063050 137.000000
139.058820 16.000000
145.065250 65.000000
146.038160 5.000000
146.070390 61.000000
146.087690 5.000000
147.074780 6.000000
149.060490 12.000000
151.069630 17.000000
151.075440 53.000000
152.074040 5.000000
157.061370 13.000000
157.068440 9.000000
158.076750 11.000000
159.072680 5.000000
160.085400 10.000000
161.022840 6.000000
161.055480 14.000000
161.071270 5.000000
162.030560 7.000000
162.067350 28.000000
165.065050 9.000000
174.065160 8.000000
176.082820 11.000000
179.070540 5.000000
188.087230 6.000000
190.077610 5.000000
191.091160 9.000000
191.106610 10.000000
192.090580 7.000000
201.072590 7.000000
202.078400 14.000000
203.087880 31.000000
209.064070 6.000000
215.087970 9.000000
216.096500 6.000000
218.076020 7.000000
219.072340 11.000000
219.085250 42.000000
220.090420 10.000000
221.093720 10.000000
231.082580 15.000000
232.074520 6.000000
232.081790 16.000000
232.097600 12.000000
233.099230 5.000000
244.098600 11.000000
246.061800 7.000000
247.078550 16.000000
248.071010 9.000000
248.082030 5.000000
249.097370 6.000000
258.074580 10.000000
260.083710 7.000000
261.088840 6.000000
274.063020 9.000000
275.064450 7.000000
276.077090 5.000000

