>compound PR93961955
>parentmass 291.1014
>ionization [M+H]+
>formula C11H18N2O5S
>rt 178.800000
>profile qtof
#smiles_iso C=CCSCC(C(=O)O)NC(=O)CCC(C(=O)O)N
#smiles_can C=CCSCC(C(=O)O)NC(=O)CCC(C(=O)O)N
#inchikey FUTHBNRZCFKVQZ-UHFFFAOYSA-N
#pubchem_id 11193907
#mb_accession PR310782

>ms2peaks
73.009060 26.000000
84.046100 59.000000
103.027760 22.000000
114.030900 16.000000
116.063310 16.000000
145.029710 97.000000
145.035400 203.000000
150.072830 21.000000
162.059950 140.000000
163.041900 27.000000
164.049730 16.000000
164.059280 64.000000
174.987900 16.000000
180.006940 22.000000
210.452590 20.000000
247.087520 18.000000
255.515150 27.000000
270.111450 21.000000
274.986270 16.000000
275.067900 16.000000
289.566010 43.000000
291.102750 212.000000
291.130340 29.000000

