>compound PR93765900
>parentmass 706.4534
>ionization [M+H]+
>formula C39H63NO10
>rt 296.400000
>profile qtof
#smiles_iso CC1CCC2C(C3C(N2C1)CC4C3(CCC5C4CC=C6C5(CCC(C6)OC7C(C(C(C(O7)CO)O)O)OC8C(C(C(C(O8)C)O)O)O)C)C)C
#smiles_can CC1CCC2C(C3C(N2C1)CC4C3(CCC5C4CC=C6C5(CCC(C6)OC7C(C(C(C(O7)CO)O)O)OC8C(C(C(C(O8)C)O)O)O)C)C)C
#inchikey ZLSYCIYRYZUJCZ-UHFFFAOYSA-N
#pubchem_id 12302820
#mb_accession PR310700

>ms2peaks
144.417400 22.000000
197.125320 30.000000
201.809720 20.000000
251.178150 24.000000
352.146360 18.000000
370.527250 29.000000
371.018860 27.000000
373.537810 17.000000
376.443940 18.000000
377.116270 25.000000
379.905940 18.000000
380.315430 30.000000
389.210050 17.000000
390.703490 29.000000
396.563930 20.000000
398.334990 29.000000
401.001190 21.000000
410.129000 17.000000
410.445650 28.000000
411.406250 26.000000
411.501040 29.000000
413.101560 20.000000
413.338680 43.000000
413.834500 22.000000
417.585940 18.000000
419.784640 20.000000
427.637300 18.000000
437.246030 25.000000
441.028870 30.000000
445.634610 19.000000
445.727870 21.000000
446.559170 27.000000
454.350620 17.000000
455.643250 22.000000
456.642300 27.000000
458.955140 19.000000
462.781680 23.000000
462.826450 21.000000
463.068540 18.000000
463.289730 20.000000
463.858430 28.000000
465.258510 17.000000
466.617190 28.000000
490.190640 25.000000
495.006040 18.000000
506.716550 32.000000
514.082890 31.000000
521.136470 22.000000
532.061710 21.000000
535.367430 32.000000
538.705750 20.000000
543.297790 28.000000
543.976380 22.000000
545.103270 21.000000
547.815920 25.000000
551.010130 21.000000
559.055910 20.000000
560.366330 40.000000
560.394900 50.000000
560.411990 25.000000
561.380490 18.000000
561.405580 54.000000
572.215270 24.000000
588.009220 18.000000
591.671330 24.000000
592.883670 22.000000
595.847960 18.000000
600.762630 20.000000
601.991330 18.000000
615.257930 20.000000
632.003360 17.000000
633.649110 18.000000
636.589900 24.000000
636.843020 20.000000
641.298160 18.000000
653.631710 19.000000
655.419250 26.000000
659.835270 22.000000
660.119140 21.000000
665.057620 25.000000
673.707890 24.000000
685.885380 17.000000
686.603150 20.000000
687.296390 22.000000
692.049870 18.000000
692.999210 17.000000
694.033810 17.000000
700.034610 23.000000
703.505250 17.000000
703.575380 20.000000
704.259890 19.000000
704.395750 59.000000
704.441830 158.000000
705.167050 17.000000
705.363100 64.000000
705.404600 68.000000
705.431760 178.000000
705.454160 153.000000
705.605650 27.000000
705.633480 56.000000
705.782530 18.000000
705.897950 20.000000
705.977230 24.000000
706.031310 17.000000
706.167240 17.000000
706.256100 54.000000
706.308110 76.000000
706.327940 166.000000
706.351440 201.000000
706.380620 343.000000
706.453250 53011.000000
706.532900 289.000000
706.586000 17.000000
706.607730 17.000000

