>compound PR93034850
>parentmass 479.117854
>ionization [M]+
>formula C22H23O12+
>rt 192.754980
>profile qtof
#smiles_iso COC1=CC(=CC(=C1O)O)C2=[O+]C3=CC(=CC(=C3C=C2O[C@H]4[C@@H]([C@H]([C@@H]([C@H](O4)CO)O)O)O)O)O
#smiles_can COC1=CC(=CC(=C1O)O)C2=[O+]C3=CC(=CC(=C3C=C2OC4C(C(C(C(O4)CO)O)O)O)O)O
#inchikey CCQDWIRWKWIUKK-QKYBYQKWSA-O
#pubchem_id 443651
#mb_accession PR303048,PR303053,PR303058,PR303063,PR303068,PR303073,PR303078,PR303083,PR303088,PR303093,PR303098,PR303103

>ms2
121.028990 6.000000
153.019090 26.000000
201.061040 7.000000
217.050050 5.000000
228.043210 6.000000
229.053330 10.000000
257.044770 11.000000
273.034060 9.000000
274.039220 13.000000
274.052430 8.000000
285.041560 13.000000
285.055210 5.000000
302.036010 36.000000
302.049990 30.000000
303.042910 6.000000
317.015080 10.000000
317.066070 1000.000000
318.007420 6.000000
318.069120 184.000000
319.080140 6.000000
479.065030 7.000000
479.084780 23.000000
479.121400 322.000000

>ms2
317.064390 230.000000
318.070280 60.000000
319.093440 6.000000
479.048800 22.000000
479.072080 21.000000
479.117710 1000.000000

>ms2
139.034060 6.000000
153.018540 6.000000
165.018130 8.000000
274.046630 6.000000
285.031650 10.000000
302.032710 27.000000
302.049160 37.000000
303.049440 16.000000
303.065430 6.000000
316.982570 7.000000
317.018280 17.000000
317.065460 1000.000000
318.013980 6.000000
318.066650 143.000000
318.083160 40.000000
319.064150 18.000000
319.077270 10.000000

>ms2
92.027780 20.000000
93.028730 41.000000
93.035450 58.000000
106.041400 42.000000
112.849690 17.000000
121.027470 71.000000
121.036220 17.000000
122.013060 20.000000
122.033130 28.000000
122.038940 15.000000
123.043720 24.000000
126.014240 12.000000
126.037350 24.000000
127.029310 22.000000
128.054340 21.000000
131.030430 15.000000
131.047940 12.000000
132.054840 12.000000
135.046080 14.000000
136.018200 21.000000
137.027010 38.000000
137.033420 21.000000
139.031920 14.000000
139.039860 99.000000
140.047230 17.000000
146.066500 50.000000
147.044740 23.000000
150.031170 24.000000
151.037340 62.000000
152.017620 30.000000
152.027080 22.000000
153.018690 1000.000000
154.021190 44.000000
154.040240 17.000000
155.019620 15.000000
155.040470 17.000000
156.051710 15.000000
158.579740 24.000000
161.058760 17.000000
163.032710 18.000000
165.009350 14.000000
165.021090 47.000000
166.019740 21.000000
172.049850 48.000000
173.067500 20.000000
174.064580 19.000000
176.017010 40.000000
176.057190 12.000000
177.049960 15.000000
177.061290 42.000000
179.004490 14.000000
179.030820 16.000000
183.058090 36.000000
184.055310 15.000000
187.030440 27.000000
187.045810 17.000000
190.053340 15.000000
192.046190 28.000000
194.007140 15.000000
200.042220 12.000000
200.050930 17.000000
200.995470 12.000000
201.054600 51.000000
201.065900 56.000000
202.057910 28.000000
203.035200 54.000000
203.224060 15.000000
204.037570 28.000000
206.367260 15.000000
212.052990 26.000000
215.011310 15.000000
215.029340 17.000000
215.061610 20.000000
217.035370 12.000000
217.045410 58.000000
217.056350 69.000000
218.024510 20.000000
218.041050 14.000000
218.051040 44.000000
218.062060 49.000000
219.060470 36.000000
220.023880 12.000000
220.061600 26.000000
224.681590 23.000000
228.015350 16.000000
228.034810 39.000000
228.045430 55.000000
229.025410 12.000000
229.036970 63.000000
229.044630 168.000000
229.055890 175.000000
230.051740 17.000000
230.062180 37.000000
231.031400 36.000000
232.043080 66.000000
233.048200 18.000000
233.068220 31.000000
239.035900 17.000000
241.049760 15.000000
241.644680 18.000000
243.028930 20.000000
243.067260 17.000000
245.046490 212.000000
245.061720 50.000000
246.052470 351.000000
247.064060 13.000000
248.037250 19.000000
248.074970 13.000000
248.411090 15.000000
256.029300 28.000000
256.042020 68.000000
257.015260 23.000000
257.040280 200.000000
257.052550 69.000000
258.052310 40.000000
258.065830 65.000000
258.420500 18.000000
260.019290 13.000000
260.038420 14.000000
260.046660 17.000000
262.070710 17.000000
267.023530 17.000000
273.000090 19.000000
273.036960 194.000000
273.049350 82.000000
273.752990 22.000000
273.961490 21.000000
274.025450 79.000000
274.042480 136.000000
274.054630 157.000000
274.300260 17.000000
275.052460 66.000000
275.225770 18.000000
275.456090 15.000000
276.052370 20.000000
284.040250 36.000000
284.703550 13.000000
285.021970 34.000000
285.036190 120.000000
285.043910 238.000000
286.034790 17.000000
286.050080 32.000000
287.040530 29.000000
288.067750 15.000000
298.049290 19.000000
299.060700 14.000000
301.033290 32.000000
302.006740 35.000000
302.046660 733.000000
302.068120 20.000000
303.024990 34.000000
303.043980 130.000000
303.058380 57.000000
304.048800 24.000000
312.722050 15.000000
316.400360 15.000000
316.441930 15.000000
317.066590 353.000000

>ms2
147.041200 6.000000
183.039690 6.000000
229.050050 13.000000
229.057560 5.000000
230.058930 6.000000
231.038040 6.000000
257.031400 8.000000
257.048770 13.000000
274.039220 14.000000
274.051640 17.000000
284.020810 5.000000
284.033170 6.000000
285.037380 18.000000
286.039890 8.000000
301.961360 5.000000
302.040830 120.000000
302.070560 6.000000
303.046910 10.000000
317.065060 1000.000000
318.070250 200.000000
319.071690 34.000000
320.071930 6.000000
479.048370 6.000000
479.115480 285.000000
479.132110 104.000000

>ms2
317.016480 6.000000
317.035830 12.000000
317.066280 234.000000
318.069460 57.000000
479.044190 11.000000
479.065220 10.000000
479.117190 1000.000000

>ms2
153.021260 13.000000
285.044340 16.000000
302.041900 39.000000
303.049960 14.000000
317.026400 18.000000
317.065250 1000.000000
317.104220 6.000000
318.067900 188.000000
319.046750 6.000000
319.067930 28.000000

>ms2
77.036000 12.000000
92.024670 68.000000
93.026240 35.000000
93.031720 66.000000
93.042010 17.000000
93.201990 14.000000
95.012370 14.000000
106.034070 14.000000
111.006150 28.000000
119.014080 15.000000
120.021790 38.000000
121.017730 17.000000
121.025030 65.000000
121.635820 19.000000
122.031000 28.000000
123.042100 22.000000
126.035930 25.000000
126.041800 20.000000
129.064800 28.000000
131.078510 24.000000
133.027560 18.000000
136.013260 59.000000
137.062770 22.000000
139.036070 39.000000
139.040950 15.000000
144.066120 17.000000
145.034880 18.000000
148.012660 19.000000
149.021610 37.000000
151.037730 94.000000
151.048610 75.000000
151.998290 15.000000
152.012360 37.000000
152.994870 16.000000
153.018860 1000.000000
154.009700 30.000000
154.022950 124.000000
155.042010 24.000000
158.037640 17.000000
162.029270 24.000000
163.034130 31.000000
165.018680 136.000000
166.033480 15.000000
172.052900 35.000000
173.063690 55.000000
176.048860 15.000000
177.016850 15.000000
177.049440 15.000000
177.059140 41.000000
178.059360 22.000000
183.056920 15.000000
184.052780 45.000000
187.020370 15.000000
187.039990 22.000000
191.035710 15.000000
191.142070 22.000000
193.048160 22.000000
194.020770 24.000000
200.030030 17.000000
200.039000 13.000000
200.050370 28.000000
200.993130 30.000000
201.056660 151.000000
202.066910 23.000000
202.833540 12.000000
203.029460 85.000000
204.032230 35.000000
204.046070 12.000000
205.346790 24.000000
212.049850 17.000000
213.044200 25.000000
215.065460 14.000000
217.034850 18.000000
217.045810 71.000000
217.054120 33.000000
218.059020 210.000000
219.014020 12.000000
219.021880 17.000000
219.039260 34.000000
221.002930 24.000000
225.057630 38.000000
225.072280 26.000000
228.019870 13.000000
228.043030 252.000000
228.055100 41.000000
228.994840 30.000000
229.016530 21.000000
229.036090 46.000000
229.050540 397.000000
230.044680 18.000000
230.056000 42.000000
231.036320 24.000000
232.010800 15.000000
232.035290 54.000000
240.753190 19.000000
240.992280 15.000000
243.019390 19.000000
243.067440 18.000000
245.043950 272.000000
246.051090 104.000000
246.062900 48.000000
247.054490 50.000000
256.032070 23.000000
256.047610 54.000000
257.035400 86.000000
257.047820 165.000000
258.045530 27.000000
258.311460 15.000000
259.061220 19.000000
260.021640 34.000000
260.038090 20.000000
261.948520 15.000000
271.055480 34.000000
273.028900 56.000000
273.041050 214.000000
274.025300 14.000000
274.047180 407.000000
275.051790 39.000000
276.052700 12.000000
283.994080 12.000000
284.025020 39.000000
284.037450 60.000000
284.977020 19.000000
285.011510 25.000000
285.034480 305.000000
285.049930 56.000000
286.047970 71.000000
288.066590 24.000000
290.601930 17.000000
290.706630 14.000000
301.878080 20.000000
301.908630 14.000000
302.000980 26.000000
302.041600 752.000000
302.980260 17.000000
302.997440 13.000000
303.037960 66.000000
303.062870 30.000000
304.016880 15.000000
305.260250 14.000000
308.274050 42.000000
314.045530 12.000000
317.029540 12.000000
317.053830 71.000000
317.067200 203.000000
318.049350 24.000000
318.065460 19.000000
318.084290 47.000000
319.077060 19.000000
329.067380 12.000000
351.538150 17.000000
381.911680 17.000000

>ms2
139.040530 13.000000
154.010280 5.000000
211.773830 5.000000
228.046020 11.000000
242.355010 7.000000
246.048510 10.000000
274.046200 20.000000
284.690830 6.000000
285.032780 13.000000
285.044530 23.000000
286.044830 13.000000
302.018010 12.000000
302.029390 20.000000
302.046540 51.000000
303.041050 9.000000
303.059140 9.000000
316.963230 9.000000
316.989040 7.000000
317.025300 19.000000
317.065060 1000.000000
318.033050 14.000000
318.069550 197.000000
319.078090 36.000000
359.080810 7.000000
383.075840 8.000000
479.116790 410.000000

>ms2
235.366790 5.000000
317.066010 251.000000
318.062100 28.000000
318.076600 12.000000
479.037080 16.000000
479.060910 23.000000
479.119050 1000.000000
479.168210 5.000000

>ms2
274.054020 8.000000
285.043550 23.000000
302.027470 6.000000
302.044490 35.000000
302.066990 8.000000
303.037660 8.000000
303.047820 9.000000
317.037630 24.000000
317.066410 1000.000000
318.031650 6.000000
318.070710 232.000000
318.207370 6.000000
319.062290 7.000000
319.074650 19.000000

>ms2
55.290350 20.000000
92.025400 102.000000
92.034310 30.000000
93.029620 21.000000
109.031210 30.000000
120.023680 31.000000
121.020500 21.000000
121.031100 51.000000
124.014560 16.000000
126.033420 27.000000
131.057370 13.000000
133.061310 20.000000
136.009740 24.000000
137.021740 23.000000
137.058060 20.000000
138.022830 24.000000
139.036010 41.000000
140.876650 20.000000
150.029100 22.000000
151.012860 21.000000
151.034350 107.000000
152.078920 17.000000
152.972900 18.000000
152.999150 76.000000
153.018300 1000.000000
153.157530 22.000000
154.025450 48.000000
154.113830 13.000000
157.083340 28.000000
161.064350 24.000000
163.038910 28.000000
165.011110 20.000000
169.508680 20.000000
173.058500 14.000000
173.086320 16.000000
175.071820 16.000000
176.005690 17.000000
177.053830 16.000000
178.051830 20.000000
179.029280 30.000000
184.048520 26.000000
189.017820 28.000000
190.032410 18.000000
190.055070 17.000000
193.018490 20.000000
200.045360 16.000000
201.005330 31.000000
201.056580 79.000000
201.068770 26.000000
202.053730 14.000000
203.031370 17.000000
203.040740 42.000000
206.022110 13.000000
211.030840 39.000000
213.052800 14.000000
215.040570 14.000000
217.035720 19.000000
217.051620 194.000000
218.048970 90.000000
218.062900 38.000000
219.026490 17.000000
219.042500 26.000000
219.071720 28.000000
220.506740 39.000000
225.038970 16.000000
225.056670 19.000000
228.036030 144.000000
228.045390 108.000000
228.056470 41.000000
228.076140 24.000000
229.046810 496.000000
230.020570 16.000000
230.036440 20.000000
230.048460 49.000000
231.001530 14.000000
231.018860 65.000000
231.041610 68.000000
231.052400 24.000000
232.048770 17.000000
233.052540 14.000000
236.448670 13.000000
240.512860 40.000000
243.036320 14.000000
243.067290 26.000000
243.649370 23.000000
244.028730 21.000000
245.023800 13.000000
245.044860 154.000000
245.062210 54.000000
246.033740 40.000000
246.048650 159.000000
246.057850 112.000000
247.029460 14.000000
247.054870 18.000000
247.063840 20.000000
247.214780 23.000000
256.021640 17.000000
257.037960 216.000000
257.051940 109.000000
258.045680 14.000000
259.026400 19.000000
259.034700 20.000000
259.049160 35.000000
260.041470 33.000000
261.034240 35.000000
273.019010 46.000000
273.040620 173.000000
273.060580 37.000000
273.811040 16.000000
274.005370 25.000000
274.048550 429.000000
274.064330 50.000000
275.032010 45.000000
275.044830 16.000000
275.070800 14.000000
284.021790 23.000000
284.042080 13.000000
284.994480 17.000000
285.033170 241.000000
285.049320 57.000000
286.033510 41.000000
286.060420 17.000000
286.999150 21.000000
288.066560 13.000000
288.075930 24.000000
289.070950 25.000000
300.127410 31.000000
301.031560 28.000000
301.984890 39.000000
302.032380 193.000000
302.048280 476.000000
302.764430 25.000000
303.036870 20.000000
303.048340 28.000000
305.060360 18.000000
314.042140 18.000000
316.992860 21.000000
317.026610 22.000000
317.041350 39.000000
317.057740 203.000000
317.073030 192.000000
317.092350 29.000000
318.051240 13.000000
318.072720 20.000000
319.055820 16.000000

