>compound PR93269823
>parentmass 667.2861368833331
>ionization [M+H]+
>formula C35H42N2O11
>rt 403.210065
>profile qtof
#smiles_iso CCOC(=O)OC1=C(C=C(C=C1OC)C(=O)OC2CC3CN4CCC5=C(C4CC3C(C2OC)C(=O)OC)NC6=C5C=CC(=C6)OC)OC
#smiles_can CCOC(=O)OC1=C(C=C(C=C1OC)C(=O)OC2CC3CN4CCC5=C(C4CC3C(C2OC)C(=O)OC)NC6=C5C=CC(=C6)OC)OC
#inchikey ZCDNRPPFBQDQHR-UHFFFAOYSA-N
#pubchem_id 5367
#mb_accession PR301543,PR301547,PR301551,PR301558,PR301562,PR301566,PR301570,PR301574,PR301578,PR301582,PR301586,PR310653

>ms2peaks
174.090410 68.000000
175.094270 6.000000
181.046190 26.000000
181.055470 13.000000
192.099850 10.000000
224.121480 7.000000
224.135160 9.000000
236.130400 24.000000
253.072450 7.000000
336.160860 7.000000
365.174470 7.000000
365.188570 19.000000
397.203370 31.000000
397.219240 50.000000
398.216550 18.000000
494.190120 8.000000
494.213960 9.000000
506.202120 54.000000
507.193730 8.000000
507.216740 9.000000
667.207400 9.000000
667.289610 1000.000000
667.360290 10.000000
667.379700 7.000000

>ms2peaks
667.204410 9.000000
667.288510 1000.000000
667.364990 19.000000

>ms2peaks
162.091370 8.000000
174.092590 223.000000
175.076740 8.000000
175.096020 26.000000
176.109790 6.000000
181.050600 110.000000
182.051740 16.000000
188.108310 15.000000
192.101610 46.000000
193.106320 10.000000
200.108250 8.000000
204.102780 11.000000
209.083390 19.000000
210.116200 9.000000
215.120210 11.000000
224.129140 70.000000
225.131930 10.000000
236.129760 84.000000
237.135530 13.000000
253.071530 31.000000
254.072890 6.000000
322.143220 6.000000
334.147160 9.000000
336.158690 31.000000
348.160430 14.000000
365.187350 97.000000
366.162140 7.000000
366.190120 31.000000
367.187930 6.000000
368.187010 20.000000
380.188260 16.000000
397.172150 7.000000
397.212190 510.000000
398.216710 148.000000
399.205200 7.000000
399.220640 16.000000
426.159270 10.000000
462.176910 16.000000
474.174870 5.000000
492.173370 6.000000
492.189240 12.000000
494.204770 124.000000
495.205230 35.000000
496.203770 7.000000
506.147490 6.000000
506.203250 358.000000
507.207180 113.000000
508.201020 18.000000
595.268550 6.000000
635.262080 35.000000
636.259890 13.000000
637.275150 5.000000
638.264340 5.000000
649.298340 5.000000
650.252870 7.000000
667.186580 7.000000
667.208920 9.000000
667.232480 9.000000
667.287540 1000.000000
667.360600 5.000000

>ms2peaks
174.092770 67.000000
175.098240 6.000000
181.051100 38.000000
192.103350 17.000000
209.082080 7.000000
224.119400 5.000000
224.132390 9.000000
236.130340 22.000000
253.073290 8.000000
336.162720 7.000000
365.187810 17.000000
397.214630 76.000000
398.215970 19.000000
399.220310 6.000000
494.206330 14.000000
506.201510 62.000000
507.211060 15.000000
667.186770 7.000000
667.287540 1000.000000
667.365230 19.000000

>ms2peaks
667.287540 1000.000000
667.366640 20.000000

>ms2peaks
148.077420 9.000000
161.083280 5.000000
174.092120 256.000000
175.095990 34.000000
176.106930 11.000000
181.050450 116.000000
182.055020 10.000000
188.109830 11.000000
192.102970 56.000000
200.109920 8.000000
204.106400 6.000000
209.079830 26.000000
215.115430 11.000000
224.127720 68.000000
225.135470 11.000000
236.128190 98.000000
237.134830 12.000000
253.062450 15.000000
253.074580 40.000000
254.139310 5.000000
288.142790 6.000000
316.133510 8.000000
322.141630 8.000000
333.159670 9.000000
336.161650 27.000000
337.164220 5.000000
348.162320 21.000000
354.167910 6.000000
365.186920 110.000000
366.190090 24.000000
367.195590 5.000000
368.175290 8.000000
368.184970 20.000000
369.184390 6.000000
380.189150 16.000000
397.212800 540.000000
398.215300 155.000000
399.212490 14.000000
399.227940 10.000000
462.175020 10.000000
492.175350 15.000000
492.198970 9.000000
494.202790 130.000000
495.194310 18.000000
495.213350 23.000000
496.195430 8.000000
506.142240 8.000000
506.202610 388.000000
507.206820 127.000000
508.208190 24.000000
509.210600 5.000000
595.266660 9.000000
635.253850 16.000000
635.274110 19.000000
636.266420 15.000000
650.261290 8.000000
667.218870 20.000000
667.287410 1000.000000
667.360410 10.000000

>ms2peaks
85.028140 5.000000
91.052870 14.000000
94.066310 15.000000
97.064740 8.000000
106.066070 7.000000
108.081100 7.000000
109.064980 6.000000
111.043680 13.000000
117.072690 9.000000
118.067990 11.000000
120.080830 17.000000
121.062380 6.000000
123.081210 6.000000
130.066010 16.000000
131.074520 30.000000
131.083660 11.000000
132.083880 37.000000
136.074520 8.000000
142.065510 12.000000
143.067280 14.000000
143.076020 24.000000
144.069630 6.000000
144.080340 31.000000
145.065200 6.000000
145.086150 11.000000
146.097550 6.000000
147.066990 5.000000
147.078660 21.000000
148.077740 39.000000
149.061630 12.000000
149.078060 7.000000
150.091950 5.000000
153.054350 77.000000
154.059860 12.000000
155.074890 8.000000
157.085910 12.000000
158.057020 7.000000
159.069320 89.000000
160.076260 78.000000
161.067930 6.000000
161.081090 28.000000
161.090940 7.000000
162.091540 27.000000
164.109250 8.000000
172.076460 19.000000
173.084120 23.000000
174.092190 1000.000000
174.132420 5.000000
175.095600 154.000000
176.101560 27.000000
176.110430 14.000000
178.078090 7.000000
178.087950 6.000000
179.071850 6.000000
181.050000 662.000000
181.086880 7.000000
182.054750 75.000000
183.052990 10.000000
184.074970 5.000000
185.083600 9.000000
186.094100 20.000000
187.080260 7.000000
188.107790 39.000000
188.115160 12.000000
189.106410 8.000000
190.088410 12.000000
192.103500 113.000000
193.089400 7.000000
193.104610 17.000000
197.088730 8.000000
198.093540 16.000000
199.091220 6.000000
199.101320 20.000000
200.095640 9.000000
200.107910 33.000000
201.107420 16.000000
204.097380 11.000000
204.105590 35.000000
205.105180 8.000000
209.081280 38.000000
210.084950 5.000000
210.092930 12.000000
211.098950 9.000000
212.107360 14.000000
212.116090 7.000000
213.104230 6.000000
213.119320 6.000000
214.100140 5.000000
214.112440 16.000000
215.119000 18.000000
222.113830 10.000000
224.105740 10.000000
224.129440 37.000000
225.134900 6.000000
226.117480 8.000000
227.117580 20.000000
236.098390 5.000000
236.129350 123.000000
237.110140 7.000000
237.123260 14.000000
237.136430 14.000000
238.125120 27.000000
239.122390 9.000000
248.107410 9.000000
249.109450 10.000000
250.116820 15.000000
251.122890 15.000000
251.135540 6.000000
252.129910 6.000000
252.142490 9.000000
253.074190 9.000000
253.134200 10.000000
253.146290 5.000000
254.141940 5.000000
260.102450 7.000000
261.112000 12.000000
262.122960 38.000000
264.126370 5.000000
264.143070 10.000000
265.133480 20.000000
266.134860 8.000000
273.119750 9.000000
274.124020 12.000000
275.117000 5.000000
275.129610 10.000000
276.132290 14.000000
276.144870 17.000000
277.139220 15.000000
277.150210 9.000000
278.139530 5.000000
279.155730 6.000000
288.134860 11.000000
288.147430 11.000000
289.141690 14.000000
290.116060 9.000000
291.150300 5.000000
302.121150 6.000000
304.128170 12.000000
304.141020 7.000000
305.173610 7.000000
306.158940 7.000000
306.177460 5.000000
309.165800 8.000000
322.153050 7.000000
333.138850 6.000000
333.162350 16.000000
334.158870 6.000000
336.159090 20.000000
336.171360 7.000000
337.190370 6.000000
347.174320 8.000000
348.166720 13.000000
349.153050 6.000000
350.160550 14.000000
363.175600 5.000000
365.182460 55.000000
366.188630 11.000000
380.192230 6.000000
397.214870 32.000000
398.213170 6.000000
506.206360 25.000000
507.211000 7.000000

>ms2peaks
174.092850 74.000000
175.096500 12.000000
181.050740 40.000000
192.103450 16.000000
224.129970 15.000000
236.129590 23.000000
253.072830 7.000000
336.164150 7.000000
365.190310 21.000000
397.214970 80.000000
398.218600 19.000000
398.235200 5.000000
494.205840 18.000000
506.205200 62.000000
507.210050 22.000000
635.259030 7.000000
667.193420 10.000000
667.288020 1000.000000
667.367070 17.000000

>ms2peaks
667.205080 8.000000
667.288820 1000.000000
667.366390 21.000000

>ms2peaks
148.077010 11.000000
174.091980 247.000000
175.095600 35.000000
176.104510 13.000000
178.087020 7.000000
181.049880 115.000000
182.052960 9.000000
188.108900 14.000000
190.086530 6.000000
192.103120 51.000000
204.101850 9.000000
209.076340 11.000000
209.083860 24.000000
210.088170 7.000000
215.118500 12.000000
224.128770 73.000000
225.133470 9.000000
236.129180 107.000000
237.132030 12.000000
242.140210 8.000000
253.072340 48.000000
254.072490 10.000000
254.138950 7.000000
276.138980 6.000000
322.142940 7.000000
333.165440 5.000000
334.152340 6.000000
336.158720 33.000000
337.163060 8.000000
348.161770 17.000000
365.186860 106.000000
366.189760 38.000000
368.187650 22.000000
380.184020 11.000000
397.175200 6.000000
397.213620 546.000000
398.217010 161.000000
399.218170 29.000000
426.156130 9.000000
462.182710 13.000000
492.190770 24.000000
494.204380 137.000000
495.190000 11.000000
495.210450 31.000000
506.139680 6.000000
506.203250 388.000000
507.205870 122.000000
508.203490 17.000000
508.224400 14.000000
595.266360 9.000000
635.241270 11.000000
635.263490 34.000000
636.248840 8.000000
636.274410 15.000000
638.260990 7.000000
649.285830 7.000000
650.268800 12.000000
667.182980 6.000000
667.210880 11.000000
667.238040 5.000000
667.288210 1000.000000
667.367490 10.000000

>ms2peaks
91.055600 10.000000
93.035230 7.000000
94.065540 12.000000
105.072850 8.000000
106.064790 8.000000
107.080730 6.000000
108.080970 13.000000
111.044370 14.000000
115.055470 9.000000
116.061640 5.000000
117.068000 8.000000
118.066020 11.000000
120.081280 23.000000
123.081360 5.000000
129.069090 5.000000
130.065630 10.000000
131.073850 20.000000
131.086670 8.000000
132.071460 6.000000
132.082050 39.000000
133.064740 5.000000
133.087130 10.000000
135.082660 7.000000
142.065550 14.000000
143.073380 36.000000
144.073620 10.000000
144.080990 33.000000
145.057510 6.000000
145.085980 13.000000
146.061390 7.000000
146.093140 6.000000
147.079540 27.000000
148.077640 48.000000
149.058960 7.000000
149.091490 6.000000
153.055440 85.000000
154.057630 5.000000
158.059480 5.000000
159.069080 88.000000
160.076580 72.000000
161.063830 10.000000
161.082690 38.000000
162.092000 28.000000
163.096330 6.000000
164.105640 16.000000
169.090850 10.000000
172.075790 25.000000
173.082780 20.000000
174.061140 7.000000
174.092120 1000.000000
174.130040 10.000000
175.095490 138.000000
176.099500 13.000000
176.108630 22.000000
177.097020 5.000000
178.086910 10.000000
179.082700 6.000000
181.049910 674.000000
181.087010 5.000000
182.053740 85.000000
183.057360 9.000000
185.081860 11.000000
186.092190 39.000000
187.090850 6.000000
187.101440 8.000000
188.106750 41.000000
189.114170 6.000000
190.086910 25.000000
192.101910 109.000000
193.107800 12.000000
197.085920 5.000000
198.085360 8.000000
198.092960 11.000000
199.087490 12.000000
199.100510 17.000000
200.107790 42.000000
201.106610 20.000000
201.117720 5.000000
202.120880 7.000000
204.102940 58.000000
205.109740 7.000000
207.105450 7.000000
209.081380 36.000000
210.077800 5.000000
210.089780 5.000000
210.097630 6.000000
210.115510 7.000000
211.096410 9.000000
212.105770 19.000000
213.103970 11.000000
214.112840 17.000000
215.116230 20.000000
223.101640 9.000000
224.102230 11.000000
224.125930 28.000000
225.116150 7.000000
227.106160 6.000000
227.117770 11.000000
228.109990 6.000000
228.126820 5.000000
236.102980 8.000000
236.128190 125.000000
237.100490 5.000000
237.106840 9.000000
237.118160 15.000000
237.132390 12.000000
238.121720 36.000000
239.125150 11.000000
247.099820 6.000000
248.104450 19.000000
249.115010 12.000000
250.123050 14.000000
251.108310 5.000000
251.121200 15.000000
252.123140 10.000000
252.138170 8.000000
253.069550 7.000000
253.130420 18.000000
254.140470 6.000000
259.098270 6.000000
260.107640 13.000000
261.115300 8.000000
261.125000 7.000000
262.122740 32.000000
264.130310 10.000000
265.134860 20.000000
266.137150 7.000000
274.111240 8.000000
274.128780 13.000000
275.126530 8.000000
276.136540 37.000000
276.146790 11.000000
277.148280 15.000000
280.138950 7.000000
281.167630 5.000000
287.132870 7.000000
288.139860 29.000000
289.108550 6.000000
289.134120 6.000000
289.145230 7.000000
290.108830 5.000000
290.124270 7.000000
291.121060 6.000000
291.148250 13.000000
292.135710 6.000000
301.103580 7.000000
303.150420 5.000000
304.132970 13.000000
305.142460 5.000000
305.164120 12.000000
308.129270 6.000000
316.129700 7.000000
316.142120 6.000000
318.127410 5.000000
322.143310 8.000000
333.163760 11.000000
334.165830 6.000000
336.161100 37.000000
337.158780 10.000000
348.160800 10.000000
350.168240 10.000000
365.173250 17.000000
365.189120 69.000000
366.192410 14.000000
368.176940 6.000000
382.184970 8.000000
397.212800 31.000000
398.219450 7.000000
460.168760 6.000000
506.204930 20.000000
506.222230 6.000000
507.200810 7.000000
667.272160 6.000000

>ms2peaks
56.048750 49.000000
79.050050 17.000000
80.052520 32.000000
82.032120 24.000000
83.166550 17.000000
91.057750 48.000000
91.063620 21.000000
92.385400 20.000000
94.066410 130.000000
97.069850 23.000000
97.203190 26.000000
105.072600 39.000000
111.046130 86.000000
112.050230 26.000000
112.075260 49.000000
113.062250 31.000000
116.064610 28.000000
117.050530 18.000000
120.078290 22.000000
122.059340 69.000000
124.358120 22.000000
125.173450 20.000000
126.908000 38.000000
131.087650 114.000000
132.055830 37.000000
132.081280 21.000000
132.089710 46.000000
132.709850 18.000000
133.064440 38.000000
136.071080 27.000000
136.087300 30.000000
143.026500 22.000000
143.050740 18.000000
143.063860 50.000000
143.077070 73.000000
143.929990 36.000000
144.077420 40.000000
145.060260 20.000000
145.071230 25.000000
145.086170 23.000000
146.066940 66.000000
147.075130 22.000000
147.091670 45.000000
148.057910 55.000000
148.068010 83.000000
148.074890 114.000000
148.082660 110.000000
149.055560 51.000000
149.774380 22.000000
152.875630 17.000000
153.044950 21.000000
153.053990 62.000000
154.054230 17.000000
154.488830 21.000000
155.059190 21.000000
155.073260 20.000000
155.502810 21.000000
156.991420 24.000000
158.055890 22.000000
158.061280 52.000000
158.494840 17.000000
159.039760 21.000000
159.047530 56.000000
159.062410 67.000000
159.072570 84.000000
160.065960 81.000000
160.074680 205.000000
160.080810 69.000000
160.131160 29.000000
161.071400 41.000000
161.080090 32.000000
162.048030 26.000000
162.092710 94.000000
162.103450 49.000000
163.097050 38.000000
164.069000 20.000000
164.084490 19.000000
164.103070 24.000000
165.083820 34.000000
165.595050 18.000000
167.064880 48.000000
168.794020 17.000000
169.052030 27.000000
169.082080 67.000000
169.096050 41.000000
172.070950 21.000000
172.083440 130.000000
172.492740 18.000000
173.053050 19.000000
173.082400 17.000000
173.328400 18.000000
174.023320 48.000000
174.055160 48.000000
174.062610 23.000000
174.090410 6432.000000
174.120330 17.000000
174.686650 20.000000
175.061750 15.000000
175.085880 394.000000
175.094270 524.000000
175.103380 257.000000
175.759890 21.000000
176.061450 23.000000
176.091670 91.000000
176.113860 212.000000
177.088900 33.000000
177.100520 18.000000
177.111910 80.000000
177.126010 25.000000
177.861180 19.000000
178.092670 97.000000
179.077840 33.000000
179.162410 17.000000
180.746220 17.000000
180.850950 34.000000
181.011230 21.000000
181.046190 2459.000000
181.055470 1258.000000
181.991790 21.000000
182.053380 465.000000
183.099850 18.000000
183.732440 17.000000
184.029830 22.000000
184.426510 19.000000
185.071870 17.000000
185.078320 22.000000
185.093580 44.000000
186.087860 43.000000
186.096040 129.000000
187.075420 76.000000
187.093440 18.000000
187.105560 20.000000
188.077420 20.000000
188.102510 233.000000
188.121480 20.000000
188.166110 28.000000
189.100230 41.000000
189.110290 37.000000
190.083130 146.000000
190.096770 38.000000
190.667110 18.000000
192.099850 956.000000
192.112200 457.000000
192.167660 17.000000
193.047820 24.000000
193.088490 49.000000
193.098820 70.000000
193.106110 76.000000
193.114840 58.000000
193.260360 18.000000
194.114750 21.000000
195.059050 24.000000
197.227280 22.000000
197.758000 18.000000
198.080460 18.000000
198.089520 38.000000
199.055690 19.000000
199.084610 19.000000
199.105410 22.000000
200.086760 30.000000
200.109920 349.000000
200.711380 18.000000
201.075320 21.000000
201.089110 20.000000
201.105970 57.000000
203.120290 36.000000
204.080400 29.000000
204.097730 230.000000
204.108140 227.000000
205.094280 26.000000
205.109590 44.000000
205.877110 24.000000
206.092680 18.000000
206.119900 44.000000
206.132260 18.000000
207.096280 75.000000
207.104510 60.000000
209.001500 20.000000
209.053940 27.000000
209.076070 333.000000
209.085460 182.000000
210.084630 35.000000
210.094350 19.000000
210.106200 20.000000
210.117400 18.000000
210.234040 39.000000
211.082570 27.000000
211.109210 18.000000
211.233510 20.000000
211.569030 18.000000
212.087190 18.000000
212.098370 17.000000
212.106280 20.000000
214.116900 47.000000
215.109130 53.000000
215.118060 134.000000
215.128800 110.000000
216.107560 63.000000
216.129330 21.000000
216.467210 24.000000
217.098130 33.000000
218.115490 51.000000
218.127430 21.000000
219.108380 22.000000
222.092450 23.000000
222.113780 17.000000
222.122150 23.000000
223.094990 25.000000
223.122710 24.000000
223.179500 24.000000
224.079360 30.000000
224.121480 694.000000
224.135160 863.000000
225.057890 18.000000
225.081700 33.000000
225.127910 176.000000
225.179700 30.000000
226.077560 21.000000
226.123490 74.000000
226.157320 20.000000
226.256100 20.000000
227.107860 54.000000
228.098690 20.000000
228.117520 137.000000
229.127260 75.000000
229.140010 49.000000
230.141480 37.000000
230.632100 17.000000
231.091810 30.000000
233.734700 17.000000
233.853740 20.000000
234.013230 27.000000
234.598680 17.000000
235.929670 25.000000
236.096010 21.000000
236.130400 2227.000000
236.226520 20.000000
237.092240 24.000000
237.119050 68.000000
237.135830 69.000000
237.147310 88.000000
237.156980 42.000000
238.097470 26.000000
238.108510 39.000000
238.132540 143.000000
238.146470 54.000000
238.158330 39.000000
239.056840 18.000000
240.125110 17.000000
240.201230 42.000000
241.104890 56.000000
241.121870 20.000000
242.104930 20.000000
242.132830 82.000000
242.151690 23.000000
242.392060 21.000000
243.689410 18.000000
245.109880 33.000000
246.066150 22.000000
246.075290 17.000000
248.098540 34.000000
248.116490 20.000000
249.102260 80.000000
249.117710 36.000000
250.099760 42.000000
250.120760 34.000000
250.132640 68.000000
251.111570 17.000000
251.148850 28.000000
252.086750 24.000000
252.101460 22.000000
252.133030 114.000000
253.072450 693.000000
253.128940 17.000000
253.142030 22.000000
254.075390 131.000000
254.141340 124.000000
255.110750 53.000000
256.916290 17.000000
257.109830 17.000000
260.107730 17.000000
261.116760 20.000000
262.055110 19.000000
262.114290 20.000000
262.125820 44.000000
262.138000 17.000000
263.115480 47.000000
263.134370 35.000000
263.149260 19.000000
264.102480 25.000000
264.120510 83.000000
265.107730 35.000000
265.132290 51.000000
266.119350 18.000000
267.110840 17.000000
267.134340 17.000000
267.161070 17.000000
267.931060 19.000000
268.166290 34.000000
272.085050 20.000000
273.110350 39.000000
274.111360 21.000000
274.141600 80.000000
275.130920 65.000000
276.130520 239.000000
276.147220 64.000000
276.545840 18.000000
277.116970 24.000000
277.128510 24.000000
277.139770 42.000000
277.153470 80.000000
277.182830 24.000000
278.129580 20.000000
279.139770 18.000000
280.476380 23.000000
281.168120 32.000000
282.099670 18.000000
283.042180 21.000000
283.173610 17.000000
284.122740 22.000000
284.132020 23.000000
286.126160 35.000000
287.140870 17.000000
288.107300 28.000000
288.138730 159.000000
288.156190 17.000000
289.107420 18.000000
289.123840 35.000000
289.142360 38.000000
289.158600 22.000000
290.114840 60.000000
290.133700 17.000000
291.121120 17.000000
291.148860 20.000000
291.848110 33.000000
291.858430 24.000000
292.141080 78.000000
294.117340 28.000000
294.169710 17.000000
295.106720 18.000000
295.127990 18.000000
297.133730 38.000000
299.142700 21.000000
299.472900 21.000000
299.900510 19.000000
300.145660 27.000000
301.105130 56.000000
302.105470 17.000000
303.166050 17.000000
304.096680 22.000000
304.113310 71.000000
304.138640 120.000000
304.150700 24.000000
304.932370 17.000000
305.147550 42.000000
305.164460 54.000000
305.190980 41.000000
305.672450 20.000000
305.941740 18.000000
306.115390 37.000000
306.132080 25.000000
306.152070 21.000000
306.180820 21.000000
306.327270 20.000000
307.084320 31.000000
307.158840 17.000000
307.679170 17.000000
307.875430 18.000000
308.031460 22.000000
308.118930 20.000000
308.134860 25.000000
308.181640 78.000000
308.326230 42.000000
309.151430 58.000000
309.168240 41.000000
310.128170 25.000000
310.153660 72.000000
311.145480 17.000000
312.149570 17.000000
316.110260 20.000000
316.143590 122.000000
316.672240 20.000000
317.144350 20.000000
318.120790 20.000000
318.135380 49.000000
320.146450 20.000000
321.154540 36.000000
322.089360 71.000000
322.142640 121.000000
322.159210 54.000000
323.144130 23.000000
324.135930 18.000000
324.153200 33.000000
326.142940 21.000000
326.252780 24.000000
327.149720 24.000000
327.506350 36.000000
328.357090 25.000000
332.123960 25.000000
332.903140 18.000000
333.111970 46.000000
333.158420 180.000000
333.186400 20.000000
334.156280 172.000000
334.179260 23.000000
334.434600 21.000000
335.101010 21.000000
335.112270 17.000000
335.136840 28.000000
335.162870 38.000000
336.107210 25.000000
336.133270 52.000000
336.160860 666.000000
336.176570 173.000000
336.939360 17.000000
337.145750 21.000000
337.165830 180.000000
337.189180 65.000000
337.208280 53.000000
337.419280 18.000000
337.630550 22.000000
338.157410 20.000000
338.190000 51.000000
338.800990 29.000000
339.091980 18.000000
339.197050 20.000000
339.913850 21.000000
339.978060 22.000000
341.157260 20.000000
341.362210 21.000000
342.166080 18.000000
347.173310 24.000000
348.142060 143.000000
348.162350 345.000000
348.182560 96.000000
349.122990 21.000000
349.157870 109.000000
350.144230 78.000000
350.170620 23.000000
350.681490 20.000000
351.204530 24.000000
353.156650 19.000000
353.291410 17.000000
353.322300 17.000000
354.120790 20.000000
354.134640 110.000000
354.151550 61.000000
354.168240 41.000000
354.188200 38.000000
355.132570 23.000000
355.471410 24.000000
356.205140 17.000000
357.593020 21.000000
358.874970 17.000000
360.154210 21.000000
360.177550 18.000000
360.818120 26.000000
360.935390 23.000000
363.163670 23.000000
363.183810 24.000000
364.579900 17.000000
365.126280 18.000000
365.135380 45.000000
365.174470 660.000000
365.188570 1772.000000
365.234740 20.000000
365.627040 18.000000
366.133000 33.000000
366.160710 131.000000
366.175840 400.000000
366.208280 123.000000
366.226780 25.000000
367.122190 39.000000
367.156590 18.000000
367.190370 168.000000
367.838170 17.000000
368.162200 90.000000
368.182010 428.000000
368.238310 17.000000
368.446720 24.000000
369.169430 23.000000
369.198090 18.000000
370.136930 23.000000
370.173100 20.000000
370.824650 20.000000
370.837800 34.000000
373.515560 28.000000
374.243680 31.000000
376.447240 17.000000
377.110290 20.000000
378.072810 17.000000
378.549380 18.000000
379.202180 70.000000
380.171720 114.000000
380.190550 88.000000
380.698610 26.000000
381.138430 27.000000
381.175960 73.000000
381.191860 102.000000
382.147520 81.000000
382.194730 22.000000
383.162410 17.000000
383.883820 17.000000
383.924560 30.000000
384.048310 27.000000
384.156100 44.000000
384.584530 18.000000
385.026340 18.000000
386.333560 24.000000
386.432560 18.000000
387.186400 17.000000
387.568880 29.000000
390.169040 18.000000
390.929230 18.000000
390.971950 26.000000
391.729710 21.000000
393.959960 19.000000
393.979060 35.000000
395.165470 20.000000
395.197420 61.000000
395.213590 25.000000
395.542540 23.000000
395.976780 22.000000
396.009430 19.000000
396.188780 17.000000
396.209010 20.000000
396.412810 37.000000
396.494570 24.000000
396.923280 18.000000
397.015840 19.000000
397.105650 25.000000
397.134160 55.000000
397.156560 114.000000
397.203370 2921.000000
397.219240 4687.000000
397.272950 17.000000
397.302550 23.000000
397.933840 17.000000
397.948270 20.000000
398.141970 41.000000
398.166020 50.000000
398.189610 299.000000
398.216550 1715.000000
398.253690 26.000000
399.212950 203.000000
399.232940 216.000000
399.672820 35.000000
400.229980 49.000000
400.826510 26.000000
401.886900 17.000000
402.091610 20.000000
402.157530 19.000000
403.779630 30.000000
404.936310 44.000000
407.881500 20.000000
411.136230 21.000000
413.199740 108.000000
414.150940 21.000000
415.157990 25.000000
415.225070 19.000000
416.140990 40.000000
416.201290 23.000000
418.898410 28.000000
420.151490 17.000000
420.477660 21.000000
422.200410 17.000000
423.463680 24.000000
424.039860 17.000000
424.395750 30.000000
426.133700 17.000000
426.154480 91.000000
427.105680 18.000000
431.124420 39.000000
431.552460 17.000000
434.178890 17.000000
434.247770 48.000000
435.164460 27.000000
435.190030 38.000000
435.735500 21.000000
438.324580 19.000000
438.880340 18.000000
439.939060 44.000000
443.082860 21.000000
444.153020 33.000000
444.455840 18.000000
445.633420 27.000000
445.755400 26.000000
447.748020 20.000000
448.183870 24.000000
449.156590 53.000000
450.932130 37.000000
451.144560 26.000000
451.505740 22.000000
458.882480 18.000000
460.154050 114.000000
461.107090 21.000000
461.149720 21.000000
461.174590 19.000000
462.163020 89.000000
462.189670 53.000000
462.207820 17.000000
462.538970 45.000000
463.166720 45.000000
463.184720 18.000000
463.197780 20.000000
464.723080 17.000000
466.162320 30.000000
467.183320 51.000000
471.385280 24.000000
472.079160 17.000000
474.139470 20.000000
474.188630 92.000000
474.781590 40.000000
475.979430 24.000000
476.182370 22.000000
476.200530 20.000000
476.449160 18.000000
478.055180 17.000000
480.187320 27.000000
480.207210 20.000000
481.531890 33.000000
482.392730 27.000000
483.378080 25.000000
486.648070 27.000000
486.706600 17.000000
486.989870 40.000000
489.356510 18.000000
490.378970 17.000000
492.161650 73.000000
492.182800 121.000000
492.205140 147.000000
492.418820 18.000000
492.965270 19.000000
493.169650 19.000000
493.187840 41.000000
493.205380 42.000000
493.828890 21.000000
494.130430 65.000000
494.190120 713.000000
494.213960 875.000000
494.774930 22.000000
495.157350 17.000000
495.175200 27.000000
495.201080 150.000000
495.217620 323.000000
496.177890 22.000000
496.656590 19.000000
497.161650 27.000000
500.952390 32.000000
502.772220 21.000000
503.110660 18.000000
503.428620 17.000000
504.930050 18.000000
505.544710 24.000000
506.049040 17.000000
506.076600 30.000000
506.107300 18.000000
506.131960 57.000000
506.155430 300.000000
506.202120 5138.000000
507.143620 76.000000
507.193730 711.000000
507.216740 821.000000
507.430690 17.000000
508.145290 19.000000
508.192780 284.000000
508.220950 231.000000
508.249450 62.000000
508.482450 17.000000
509.216250 17.000000
511.083530 17.000000
512.189150 26.000000
517.205750 20.000000
517.226380 17.000000
517.840820 17.000000
520.133910 20.000000
534.209780 17.000000
544.191830 23.000000
549.781070 23.000000
552.266480 21.000000
554.991820 24.000000
555.460450 20.000000
557.427610 17.000000
562.531190 17.000000
563.278930 54.000000
564.135680 34.000000
564.231380 29.000000
564.247560 38.000000
569.214290 35.000000
570.123780 18.000000
573.139040 20.000000
573.337460 17.000000
573.871580 17.000000
573.902470 27.000000
579.296510 20.000000
582.769350 27.000000
583.400210 20.000000
583.865540 25.000000
586.052730 28.000000
587.396120 25.000000
592.190550 18.000000
593.257570 17.000000
593.381160 24.000000
593.995670 20.000000
594.249690 20.000000
595.247860 18.000000
595.265080 35.000000
596.158330 21.000000
596.741460 21.000000
597.260560 31.000000
597.567630 22.000000
598.327030 30.000000
602.339720 21.000000
603.946230 17.000000
604.224910 20.000000
607.214900 26.000000
607.265080 20.000000
609.419560 23.000000
610.110350 18.000000
610.816830 20.000000
617.167360 20.000000
617.254390 104.000000
617.299740 17.000000
618.247860 70.000000
618.295170 46.000000
619.208310 27.000000
619.241880 61.000000
619.279110 17.000000
621.215880 27.000000
624.253660 22.000000
625.234740 27.000000
625.274600 33.000000
626.381410 23.000000
635.173580 26.000000
635.194400 57.000000
635.221860 125.000000
635.254210 256.000000
635.282350 249.000000
636.246520 186.000000
636.276790 124.000000
636.305420 17.000000
636.620060 26.000000
636.730410 27.000000
637.290470 23.000000
638.216250 38.000000
638.244450 37.000000
638.267030 70.000000
638.287170 84.000000
639.281680 20.000000
640.255000 17.000000
640.291260 27.000000
640.605160 34.000000
648.154300 17.000000
649.245000 111.000000
649.291020 29.000000
649.671200 19.000000
650.250790 42.000000
651.255920 58.000000
651.304690 17.000000
652.324460 18.000000
654.302120 18.000000
655.534670 21.000000
655.787780 17.000000
659.045840 29.000000
660.127990 25.000000
661.954040 19.000000
662.775760 22.000000
664.995180 23.000000
665.137570 21.000000
665.266050 63.000000
665.570370 19.000000
666.056150 17.000000
666.090760 24.000000
666.213010 18.000000
666.251830 42.000000
666.285340 142.000000
666.309940 62.000000
666.339840 18.000000
666.362550 21.000000
666.547970 25.000000
666.567570 24.000000
666.706120 27.000000
666.941530 26.000000
667.028200 26.000000
667.047180 53.000000
667.083190 29.000000
667.108700 86.000000
667.180970 294.000000
667.207400 814.000000
667.289610 94314.000000
667.360290 960.000000
667.379700 681.000000
667.444700 31.000000
667.484860 67.000000

