>compound PR93479217
>parentmass 438.2398
>ionization [M+H]+
>formula C25H31N3O4
>rt 229.800000
>profile qtof
#smiles_iso C1=CC(=CC=C1C=CC(=O)NCCCCNCCCNC(=O)C=CC2=CC=C(C=C2)O)O
#smiles_can C1=CC(=CC=C1C=CC(=O)NCCCCNCCCNC(=O)C=CC2=CC=C(C=C2)O)O
#inchikey QYBCBMVQSCJMSA-UHFFFAOYSA-N
#pubchem_id 73190496
#mb_accession PR311082

>ms2
72.079300 24.000000
72.083360 35.000000
113.074200 18.000000
119.044620 21.000000
119.051990 38.000000
129.136670 27.000000
138.057940 16.000000
146.166120 24.000000
147.027770 23.000000
147.044010 1055.000000
147.887800 16.000000
148.040070 30.000000
148.049990 162.000000
149.053450 30.000000
155.104200 18.000000
156.111820 16.000000
156.117720 28.000000
162.099120 29.000000
171.152510 18.000000
172.142750 34.000000
176.091840 33.000000
176.607180 18.000000
181.422450 20.000000
186.059020 17.000000
203.117030 57.000000
203.129900 37.000000
203.583720 16.000000
204.064900 18.000000
204.102750 1224.000000
205.106930 179.000000
208.864260 17.000000
215.346470 17.000000
218.035400 18.000000
218.124880 49.000000
219.117250 27.000000
221.124630 84.000000
222.125320 16.000000
222.134630 33.000000
249.242970 25.000000
252.248720 20.000000
265.720520 16.000000
274.189760 46.000000
274.206450 38.000000
275.175020 265.000000
275.196840 23.000000
276.171940 70.000000
276.181950 73.000000
276.198910 22.000000
292.205470 934.000000
293.200740 172.000000
293.214420 86.000000
294.191680 17.000000
294.212310 37.000000
295.213810 23.000000
318.187290 35.000000
367.156400 17.000000
396.232420 16.000000
420.222690 21.000000
421.207520 58.000000
421.231750 56.000000
422.175570 16.000000
422.211270 66.000000
438.147460 49.000000
438.239560 4160.000000

