>compound PR94752457
>parentmass 449.10847
>ionization [M+H]+
>formula C21H20O11
>rt 247.800000
>profile qtof
#smiles_iso C1=CC(=CC=C1C2=CC(=O)C3=C(C(=C(C=C3O2)OC4C(C(C(C(O4)CO)O)O)O)O)O)O
#smiles_can C1=CC(=CC=C1C2=CC(=O)C3=C(C(=C(C=C3O2)OC4C(C(C(C(O4)CO)O)O)O)O)O)O
#inchikey VUGRLRAUZWGZJP-UHFFFAOYSA-N
#pubchem_id 14332446
#mb_accession PR310949,PR310950

>ms2peaks
85.028270 41.000000
119.042690 40.000000
119.049550 20.000000
123.010800 19.000000
123.014960 45.000000
124.009990 17.000000
124.016730 19.000000
135.039250 17.000000
145.051030 21.000000
169.007130 43.000000
169.015030 20.000000
181.179720 21.000000
182.479890 40.000000
192.097210 17.000000
209.625270 18.000000
227.040250 27.000000
241.052550 109.000000
250.764790 18.000000
255.484510 22.000000
258.034730 29.000000
269.030270 19.000000
269.041350 50.000000
269.052890 85.000000
270.033230 20.000000
285.921970 17.000000
286.202240 17.000000
286.799770 22.000000
286.927340 31.000000
286.992070 27.000000
287.020940 57.000000
287.056670 14483.000000
287.094020 49.000000
287.984220 17.000000
288.007510 18.000000
288.060060 2592.000000
288.403720 21.000000
289.061710 145.000000
289.079410 40.000000
290.069030 18.000000
293.406040 17.000000
297.401950 30.000000
323.539670 25.000000
330.954250 17.000000
346.528200 20.000000
348.944000 26.000000
349.040950 19.000000
394.143830 24.000000
449.111570 2486.000000

>ms2peaks
81.031460 18.000000
117.054530 16.000000
127.049540 25.000000
153.014040 20.000000
215.950390 23.000000
287.057130 339.000000
287.098390 17.000000
288.045680 25.000000
288.071040 73.000000
311.067200 18.000000
312.159270 63.000000
329.080110 16.000000
449.116180 37.000000

