>compound PR94629541
>parentmass 323.1615
>ionization [M+H]+
>formula C16H22N2O5
>rt 184.800000
>profile qtof
#smiles_iso COC1=C(C=CC(=C1)/C=C/C(=O)NCCCCC(C(=O)O)N)O
#smiles_can COC1=C(C=CC(=C1)C=CC(=O)NCCCCC(C(=O)O)N)O
#inchikey VHOPIWUPYREUSE-SOFGYWHQSA-N
#pubchem_id 102301053
#mb_accession PR311016

>ms2peaks
110.072010 28.000000
117.027920 19.000000
117.034850 84.000000
123.039640 16.000000
127.060040 22.000000
135.083790 22.000000
145.030290 182.000000
146.020280 49.000000
149.059020 52.000000
157.047010 41.000000
163.058350 20.000000
177.038250 24.000000
177.054920 599.000000
178.058150 42.000000
179.054110 18.000000
189.051680 18.000000
232.099030 33.000000
260.139920 25.000000
321.184450 33.000000
323.148190 31.000000
323.167210 227.000000

