>compound PR94926437
>parentmass 625.1763114000001
>ionization [M+H]+
>formula C28H32O16
>rt 251.598000
>profile qtof
#smiles_iso C[C@H]1[C@@H]([C@H]([C@H]([C@@H](O1)OC[C@@H]2[C@H]([C@@H]([C@H]([C@@H](O2)OC3=C(OC4=CC(=CC(=C4C3=O)O)O)C5=CC(=C(C=C5)O)OC)O)O)O)O)O)O
#smiles_can CC1C(C(C(C(O1)OCC2C(C(C(C(O2)OC3=C(OC4=CC(=CC(=C4C3=O)O)O)C5=CC(=C(C=C5)O)OC)O)O)O)O)O)O
#inchikey UIDGLYUNOUKLBM-GEBJFKNCSA-N
#pubchem_id 5481663
#mb_accession PR301896,PR301902,PR301908,PR301914,PR301920,PR301926,PR301932,PR301938,PR301944,PR301950,PR301956,PR301962

>ms2peaks
85.027320 11.000000
85.031990 11.000000
87.031300 8.000000
127.038120 7.000000
129.057170 18.000000
145.051510 7.000000
203.288480 5.000000
245.016220 6.000000
255.096600 5.000000
302.047360 10.000000
317.066530 1000.000000
318.065980 198.000000
318.089230 14.000000
319.072910 20.000000
319.088650 8.000000
461.117800 6.000000
463.142970 7.000000
479.080140 6.000000
479.108800 65.000000
479.130430 39.000000
480.119450 33.000000
481.105190 8.000000
575.041200 5.000000
625.152830 29.000000
625.179870 153.000000

>ms2peaks
85.029920 8.000000
103.010850 13.000000
129.055820 18.000000
130.059830 6.000000
147.066360 15.000000
273.095920 8.000000
303.300840 7.000000
309.112120 8.000000
309.122770 6.000000
315.450680 6.000000
317.066280 772.000000
318.061310 48.000000
318.074160 177.000000
319.070770 81.000000
321.487340 10.000000
376.907620 7.000000
412.340390 8.000000
463.075010 6.000000
463.119020 12.000000
464.051570 5.000000
464.124880 5.000000
464.141140 12.000000
465.138820 13.000000
479.064820 6.000000
479.118260 475.000000
479.178920 6.000000
479.326750 8.000000
480.075010 8.000000
480.098970 47.000000
480.113680 35.000000
480.133090 56.000000
480.964900 10.000000
481.128390 17.000000
622.753660 9.000000
624.772220 6.000000
625.104800 38.000000
625.179080 1000.000000
625.359800 7.000000

>ms2peaks
71.047820 19.000000
71.054150 8.000000
75.048670 6.000000
85.023170 6.000000
85.029160 24.000000
129.057600 10.000000
285.036290 7.000000
302.050960 8.000000
316.999390 6.000000
317.029240 12.000000
317.066530 1000.000000
318.038020 5.000000
318.068820 173.000000
319.069270 22.000000
320.085880 5.000000
321.075780 7.000000
383.068630 8.000000

>ms2peaks
71.051220 73.000000
85.025750 27.000000
85.033800 54.000000
91.036900 10.000000
129.058560 11.000000
135.049550 20.000000
139.036650 20.000000
139.048570 14.000000
150.031720 16.000000
151.040160 12.000000
153.002410 11.000000
153.019410 30.000000
165.017110 23.000000
176.041950 11.000000
185.054020 10.000000
192.035400 16.000000
202.060500 28.000000
203.056870 14.000000
228.038060 33.000000
229.043910 36.000000
230.047230 20.000000
235.218510 9.000000
243.061550 18.000000
243.074430 12.000000
244.029160 14.000000
247.046200 9.000000
257.045900 38.000000
258.058810 9.000000
262.078860 11.000000
274.025360 13.000000
274.052830 85.000000
275.041900 9.000000
284.025670 22.000000
284.046020 14.000000
285.026180 10.000000
285.043760 86.000000
286.049770 17.000000
287.040500 23.000000
300.577700 11.000000
301.524020 16.000000
302.012790 26.000000
302.044650 228.000000
302.063170 21.000000
302.838440 15.000000
303.051910 24.000000
304.046540 19.000000
317.025390 14.000000
317.041200 61.000000
317.066650 1000.000000
318.021060 13.000000
318.041140 23.000000
318.060760 52.000000
318.074550 112.000000
318.090300 22.000000
319.040830 13.000000
319.069610 18.000000
319.092290 10.000000
320.059780 19.000000
329.047090 10.000000
385.074100 14.000000
409.083130 9.000000
425.067020 17.000000

>ms2peaks
71.050870 5.000000
85.026440 29.000000
87.037480 7.000000
97.023280 5.000000
129.053940 14.000000
147.072620 9.000000
169.048130 5.000000
272.035710 7.000000
287.230380 5.000000
302.048340 11.000000
303.027070 5.000000
317.026210 14.000000
317.065000 1000.000000
318.065060 113.000000
319.051640 6.000000
319.062840 7.000000
319.075200 6.000000
359.062990 11.000000
439.397580 5.000000
463.129940 6.000000
479.098020 44.000000
479.115480 64.000000
479.144130 13.000000
480.116580 19.000000
625.182430 84.000000

>ms2peaks
111.041910 6.000000
129.046800 11.000000
129.053650 6.000000
145.050200 14.000000
147.060470 17.000000
195.455440 9.000000
237.075650 6.000000
274.092680 5.000000
309.140470 7.000000
316.771480 13.000000
317.037690 24.000000
317.065770 729.000000
318.033720 13.000000
318.069400 187.000000
318.085360 30.000000
319.065340 9.000000
462.092160 9.000000
463.114040 30.000000
463.127930 17.000000
464.106780 5.000000
464.131740 12.000000
464.145660 10.000000
465.102330 13.000000
479.026310 9.000000
479.053160 6.000000
479.090730 70.000000
479.118500 411.000000
479.152220 12.000000
479.188660 5.000000
480.061220 8.000000
480.079320 12.000000
480.109620 27.000000
480.126010 60.000000
481.126890 6.000000
499.458890 6.000000
529.856870 6.000000
624.628660 12.000000
625.076660 6.000000
625.175420 1000.000000

>ms2peaks
71.047420 5.000000
85.028720 48.000000
127.041730 6.000000
129.043370 7.000000
129.055770 32.000000
145.051570 10.000000
147.064650 5.000000
159.066060 5.000000
317.039250 12.000000
317.064760 1000.000000
317.093870 11.000000
318.069610 159.000000
318.091220 12.000000
319.053800 6.000000
319.074980 45.000000
329.063570 6.000000
359.055450 8.000000
369.108430 5.000000

>ms2peaks
71.046230 47.000000
71.051320 9.000000
85.029850 27.000000
87.042410 20.000000
97.020390 19.000000
109.023760 22.000000
127.039620 11.000000
137.023320 13.000000
139.035840 13.000000
153.020260 33.000000
172.048860 11.000000
179.359380 15.000000
183.044420 10.000000
191.030400 10.000000
228.045750 13.000000
229.055770 35.000000
232.029940 14.000000
243.009110 10.000000
243.064910 12.000000
243.106610 10.000000
246.031100 13.000000
246.050740 19.000000
257.044710 29.000000
273.045840 18.000000
273.054290 17.000000
274.029970 43.000000
274.051120 84.000000
275.059080 34.000000
282.612340 15.000000
285.026210 9.000000
285.043030 105.000000
286.040310 30.000000
301.018130 10.000000
302.001400 14.000000
302.037600 258.000000
303.024050 42.000000
303.046230 42.000000
303.066310 11.000000
316.990630 13.000000
317.067780 1000.000000
318.071560 236.000000
318.088780 24.000000
319.074280 29.000000
326.031010 12.000000

>ms2peaks
85.027630 7.000000
127.044430 6.000000
129.054340 41.000000
147.064670 7.000000
147.070920 8.000000
217.067120 6.000000
274.043430 6.000000
302.039310 14.000000
303.051360 9.000000
316.955720 5.000000
317.010560 6.000000
317.033450 12.000000
317.065830 1000.000000
318.069000 214.000000
319.063420 16.000000
319.078610 7.000000
359.053650 5.000000
463.104580 6.000000
463.145080 8.000000
479.079070 8.000000
479.114290 79.000000
479.128230 42.000000
480.129150 7.000000
481.143980 7.000000
625.166080 81.000000
625.184330 114.000000

>ms2peaks
129.048800 6.000000
129.055820 22.000000
147.069790 9.000000
206.053630 6.000000
237.060910 10.000000
255.083560 6.000000
261.485290 6.000000
309.072080 9.000000
309.101010 7.000000
316.992070 6.000000
317.025700 6.000000
317.065120 794.000000
317.100010 9.000000
318.047060 11.000000
318.071990 125.000000
319.051060 6.000000
319.062900 9.000000
319.076510 9.000000
364.296080 11.000000
374.190830 6.000000
375.908420 8.000000
413.080960 6.000000
462.757690 6.000000
463.125730 103.000000
464.118530 10.000000
464.133580 16.000000
468.195980 6.000000
469.039340 6.000000
479.098600 110.000000
479.117000 306.000000
479.134550 105.000000
479.705750 6.000000
480.089200 31.000000
480.121980 113.000000
480.138280 23.000000
481.113710 6.000000
481.146330 6.000000
482.129240 8.000000
499.483030 13.000000
507.111360 8.000000
584.955570 7.000000
613.200010 5.000000
624.728090 8.000000
625.047000 7.000000
625.091860 17.000000
625.110840 20.000000
625.177800 1000.000000

>ms2peaks
71.047870 10.000000
83.049100 8.000000
85.031560 53.000000
97.269190 6.000000
127.027900 6.000000
129.053680 27.000000
130.066360 5.000000
145.052460 9.000000
173.016890 5.000000
285.013760 6.000000
317.012120 13.000000
317.065920 1000.000000
317.097900 6.000000
318.069240 225.000000
318.144130 8.000000
319.054660 6.000000
319.067470 28.000000
319.091280 7.000000

>ms2peaks
57.033380 9.000000
71.050190 22.000000
83.051560 9.000000
85.021090 12.000000
85.028670 65.000000
139.042720 9.000000
153.015350 36.000000
153.026170 13.000000
201.057560 12.000000
219.021580 29.000000
228.974260 13.000000
229.053190 35.000000
230.044240 15.000000
230.065310 18.000000
243.074040 12.000000
245.026870 9.000000
246.047880 15.000000
247.049670 11.000000
256.757140 16.000000
257.044100 57.000000
257.061430 12.000000
258.063140 17.000000
271.021790 15.000000
273.028630 14.000000
274.027830 14.000000
274.045410 27.000000
274.052030 11.000000
275.062900 29.000000
275.238770 11.000000
284.025760 18.000000
285.043610 193.000000
286.031560 20.000000
286.043060 10.000000
287.043000 24.000000
302.020600 10.000000
302.045010 329.000000
302.319790 11.000000
303.050290 26.000000
317.030730 13.000000
317.065640 1000.000000
318.070160 187.000000
318.093660 25.000000
318.106350 9.000000
319.066930 29.000000
320.076420 11.000000
329.051390 17.000000
366.060490 12.000000

