>compound PR94531415
>parentmass 757.2191
>ionization [M+H]+
>formula C33H40O20
>rt 185.400000
>profile qtof
#smiles_iso CC1C(C(C(C(O1)OC2C(C(C(OC2OC3=C(OC4=CC(=CC(=C4C3=O)O)OC5C(C(C(C(O5)C)O)O)O)C6=CC(=C(C=C6)O)O)CO)O)O)O)O)O
#smiles_can CC1C(C(C(C(O1)OC2C(C(C(OC2OC3=C(OC4=CC(=CC(=C4C3=O)O)OC5C(C(C(C(O5)C)O)O)O)C6=CC(=C(C=C6)O)O)CO)O)O)O)O)O
#inchikey WLPJMCCYDZFCBL-UHFFFAOYSA-N
#pubchem_id 23760107
#mb_accession PR310934

>ms2peaks
129.055510 21.000000
147.068280 57.000000
303.026280 43.000000
303.050080 563.000000
304.054690 160.000000
305.030400 20.000000
306.070500 18.000000
346.933290 20.000000
448.098910 17.000000
449.104710 130.000000
449.122040 85.000000
449.755250 17.000000
450.089260 17.000000
450.113100 149.000000
451.103000 18.000000
451.116730 20.000000
452.114930 17.000000
585.393190 18.000000
611.144040 37.000000
611.167180 85.000000
611.187320 25.000000
612.165710 96.000000
613.170170 35.000000
614.160400 18.000000
757.191350 17.000000
757.217350 38.000000

