>compound PR95311580
>parentmass 465.1022036923076
>ionization [M]+
>formula C21H21O12+
>rt 156.865846
>profile qtof
#smiles_iso C1=C(C=C(C(=C1O)O)O)C2=[O+]C3=CC(=CC(=C3C=C2OC4C(C(C(C(O4)CO)O)O)O)O)O
#smiles_can C1=C(C=C(C(=C1O)O)O)C2=[O+]C3=CC(=CC(=C3C=C2OC4C(C(C(C(O4)CO)O)O)O)O)O
#inchikey XENHPQQLDPAYIJ-UHFFFAOYSA-O
#pubchem_id 13915667
#mb_accession PR303708,PR303711,PR303714,PR303717,PR303719,PR303722,PR303725,PR303728,PR303731,PR303734,PR303737,PR303740,PR311137

>ms2
229.050190 5.000000
257.046020 12.000000
301.041110 6.000000
303.021180 11.000000
303.050900 1000.000000
304.054720 135.000000
305.045590 5.000000
305.061370 19.000000
305.070560 7.000000
355.938230 7.000000
465.105040 390.000000

>ms2
303.047850 77.000000
304.054440 9.000000
465.056340 5.000000
465.103060 1000.000000

>ms2
303.015690 11.000000
303.049770 1000.000000
304.052730 177.000000
305.057590 35.000000

>ms2
69.031960 6.000000
79.017490 19.000000
82.078310 7.000000
83.047820 8.000000
92.052530 9.000000
94.037040 6.000000
95.040840 7.000000
95.051740 9.000000
103.058140 16.000000
109.027110 12.000000
111.003940 7.000000
111.009660 6.000000
115.054580 9.000000
117.064860 11.000000
117.075980 7.000000
121.030010 7.000000
125.017900 18.000000
127.049640 24.000000
127.762240 7.000000
128.063600 14.000000
129.070100 7.000000
130.036480 18.000000
131.041840 6.000000
131.050640 6.000000
134.600600 6.000000
135.044240 19.000000
136.165440 6.000000
137.018140 14.000000
139.042100 17.000000
143.678180 11.000000
145.069950 15.000000
145.073990 6.000000
147.050170 13.000000
147.067430 8.000000
149.016720 8.000000
149.025160 41.000000
150.027070 23.000000
150.034790 32.000000
150.045300 6.000000
151.036990 16.000000
151.044630 8.000000
152.994660 11.000000
153.017820 128.000000
153.030230 6.000000
154.014530 8.000000
154.021820 9.000000
155.028810 7.000000
155.044160 14.000000
155.052460 18.000000
156.054230 6.000000
157.053420 6.000000
159.042110 12.000000
159.052150 6.000000
161.045100 10.000000
161.059390 25.000000
163.032520 6.000000
164.010180 8.000000
165.009060 6.000000
165.019180 38.000000
167.045870 9.000000
171.029980 6.000000
171.043260 21.000000
171.475160 8.000000
173.012540 13.000000
173.025150 38.000000
173.059540 47.000000
174.029920 16.000000
175.017930 8.000000
175.042040 8.000000
176.456950 7.000000
177.017810 7.000000
177.046510 8.000000
177.071620 8.000000
177.648070 9.000000
178.518330 6.000000
179.001820 6.000000
179.031010 29.000000
180.039730 7.000000
181.037250 15.000000
183.039180 20.000000
184.047060 16.000000
187.037200 14.000000
191.031770 20.000000
191.072370 12.000000
193.040620 6.000000
194.068280 6.000000
195.029460 6.000000
200.047000 20.000000
201.029020 9.000000
201.049590 50.000000
201.059250 38.000000
201.071400 18.000000
204.037260 6.000000
205.043350 7.000000
211.046310 7.000000
213.055040 7.000000
213.069670 6.000000
215.034380 22.000000
215.348790 6.000000
216.031860 15.000000
217.041410 8.000000
217.052080 7.000000
219.061810 14.000000
220.068910 7.000000
224.386640 7.000000
229.048600 372.000000
230.042130 9.000000
230.054950 20.000000
230.758640 6.000000
232.492630 6.000000
237.903530 6.000000
240.032460 6.000000
244.029830 8.000000
245.042210 8.000000
245.069850 8.000000
246.058430 6.000000
247.052430 30.000000
247.065430 15.000000
248.075420 7.000000
256.028900 12.000000
256.042940 7.000000
256.980800 6.000000
257.025480 19.000000
257.047060 166.000000
257.395360 6.000000
257.898280 7.000000
257.989470 10.000000
258.053890 24.000000
259.038330 6.000000
261.038090 6.000000
270.207460 7.000000
274.046360 8.000000
284.038240 6.000000
285.046080 10.000000
286.081120 7.000000
303.051060 1000.000000
303.459350 6.000000
304.018980 9.000000
304.057650 172.000000
304.095030 6.000000
304.236480 6.000000
305.058590 16.000000
305.066190 6.000000
306.059540 14.000000
309.052700 6.000000

>ms2
212.052470 5.000000
247.065250 8.000000
257.040500 11.000000
301.023990 6.000000
303.050690 1000.000000
304.053040 180.000000
305.060580 10.000000
345.382810 5.000000
465.101350 390.000000

>ms2
303.049380 86.000000
304.049220 14.000000
465.053800 6.000000
465.101410 1000.000000

>ms2
303.050870 1000.000000
304.026490 5.000000
304.055450 154.000000
305.054690 16.000000
305.067750 5.000000

>ms2
81.066080 8.000000
97.027390 5.000000
105.068600 5.000000
109.027840 12.000000
111.005420 14.000000
116.062290 7.000000
117.063020 6.000000
117.069860 11.000000
121.021980 9.000000
121.032640 12.000000
121.066460 6.000000
125.023080 27.000000
127.055510 6.000000
128.060260 18.000000
129.070710 13.000000
131.045520 11.000000
133.036320 9.000000
133.074010 7.000000
135.010300 8.000000
135.038280 6.000000
135.044620 11.000000
135.053390 6.000000
136.055510 5.000000
137.022050 7.000000
138.026980 7.000000
139.038450 8.000000
144.055790 6.000000
145.026380 10.000000
145.059250 13.000000
145.067500 41.000000
145.079070 9.000000
147.039340 8.000000
149.020400 45.000000
149.032000 12.000000
150.009460 6.000000
150.031080 64.000000
152.035280 11.000000
153.006000 13.000000
153.018170 94.000000
155.043230 10.000000
155.050630 18.000000
157.065190 23.000000
159.033160 7.000000
159.043550 18.000000
160.045560 6.000000
160.056440 11.000000
160.817860 5.000000
161.054630 10.000000
163.036960 25.000000
163.047130 6.000000
164.036450 9.000000
165.015240 16.000000
165.025510 6.000000
166.031460 7.000000
171.047090 23.000000
173.026610 44.000000
173.057510 63.000000
173.068540 13.000000
174.429840 7.000000
177.012700 7.000000
177.047060 9.000000
179.034500 11.000000
183.047730 43.000000
184.053480 7.000000
187.034480 10.000000
187.041920 22.000000
188.047210 11.000000
189.053280 5.000000
191.033480 12.000000
192.044630 14.000000
193.963610 6.000000
201.032320 6.000000
201.054600 49.000000
202.056820 32.000000
203.035110 5.000000
205.035810 14.000000
205.055540 9.000000
211.046020 6.000000
212.050810 10.000000
213.055330 15.000000
214.059690 17.000000
215.033680 9.000000
216.040880 5.000000
217.046810 6.000000
219.018910 5.000000
219.062210 9.000000
228.047680 9.000000
229.050190 265.000000
230.046140 43.000000
230.059400 9.000000
239.029600 5.000000
240.044280 6.000000
247.059520 19.000000
256.034520 5.000000
257.000920 8.000000
257.032810 51.000000
257.042720 154.000000
258.050510 43.000000
270.361540 6.000000
275.056120 10.000000
285.037780 10.000000
285.051450 6.000000
302.953830 5.000000
303.006990 14.000000
303.050570 1000.000000
304.052580 107.000000
304.065490 34.000000
305.045810 19.000000
305.064090 10.000000

>ms2
229.050420 13.000000
302.047420 5.000000
303.018400 13.000000
303.048920 1000.000000
304.053310 186.000000
305.042270 8.000000
305.053560 14.000000
432.041020 5.000000
465.101990 370.000000

>ms2
303.036530 23.000000
303.047120 37.000000
303.062320 42.000000
304.045930 8.000000
465.103240 1000.000000

>ms2
302.981810 6.000000
303.050050 1000.000000
304.051300 166.000000
304.068390 23.000000
305.048160 12.000000
305.061160 31.000000

>ms2
56.019430 7.000000
68.995440 6.000000
69.003770 12.000000
96.050910 7.000000
97.025470 6.000000
107.011400 6.000000
107.018880 7.000000
107.047990 9.000000
108.012870 6.000000
109.029830 6.000000
111.005370 7.000000
117.067650 6.000000
117.697470 6.000000
121.022180 7.000000
122.030380 9.000000
123.006090 6.000000
123.044850 6.000000
125.026110 13.000000
125.029760 6.000000
126.025990 7.000000
127.042250 6.000000
127.054920 14.000000
129.067230 18.000000
131.047130 8.000000
133.029310 13.000000
134.061340 7.000000
135.039490 22.000000
135.045390 7.000000
139.039670 8.000000
145.065160 17.000000
145.074020 6.000000
146.070270 9.000000
147.043120 7.000000
149.013570 10.000000
149.019960 11.000000
149.031480 10.000000
149.061540 16.000000
150.014570 8.000000
150.031390 61.000000
150.977420 8.000000
152.938000 6.000000
153.003230 6.000000
153.017680 104.000000
153.030520 14.000000
154.028520 7.000000
154.740720 9.000000
155.050020 8.000000
155.057720 6.000000
155.291930 11.000000
156.051250 6.000000
158.066820 6.000000
158.074340 8.000000
159.044430 19.000000
161.023030 6.000000
161.059430 7.000000
161.262330 9.000000
163.081130 7.000000
164.049800 12.000000
164.967710 7.000000
165.019060 35.000000
172.057690 10.000000
173.023070 71.000000
173.059200 50.000000
174.033000 9.000000
174.065580 6.000000
175.025360 7.000000
177.061360 6.000000
178.059620 7.000000
179.034710 37.000000
180.036440 7.000000
181.038040 7.000000
181.759120 7.000000
183.042830 39.000000
184.048100 9.000000
187.040370 29.000000
188.038280 16.000000
189.019820 6.000000
189.048070 7.000000
190.064580 10.000000
190.070740 10.000000
191.029340 19.000000
191.070760 9.000000
193.046100 19.000000
200.046660 7.000000
200.443480 6.000000
201.055210 68.000000
202.048130 6.000000
202.063160 8.000000
203.014940 7.000000
203.034450 35.000000
204.997570 7.000000
205.043700 37.000000
205.064730 10.000000
206.045840 8.000000
211.023680 8.000000
211.041520 33.000000
213.042590 17.000000
213.061290 19.000000
214.015880 6.000000
214.063580 16.000000
215.034870 12.000000
216.033620 7.000000
216.053220 13.000000
217.047820 9.000000
218.043720 7.000000
219.059430 7.000000
219.071410 7.000000
222.267470 10.000000
227.017010 7.000000
229.049450 347.000000
230.011220 7.000000
230.051450 68.000000
230.063720 14.000000
231.036470 7.000000
231.049260 6.000000
231.058150 11.000000
232.039170 8.000000
233.045200 7.000000
234.038620 7.000000
239.017060 7.000000
240.046600 6.000000
243.965180 7.000000
245.041210 17.000000
248.060380 6.000000
248.244050 6.000000
256.026120 8.000000
256.042480 16.000000
257.044040 238.000000
258.037050 18.000000
258.050570 52.000000
258.063510 16.000000
258.296660 8.000000
258.767210 6.000000
259.033050 6.000000
259.046880 14.000000
259.065060 9.000000
260.095310 6.000000
260.751040 7.000000
274.047210 15.000000
283.144470 7.000000
285.501160 7.000000
288.639370 9.000000
301.918950 6.000000
302.859990 8.000000
302.964360 14.000000
302.990360 8.000000
303.018520 7.000000
303.050780 1000.000000
303.092590 8.000000
303.118440 6.000000
304.046110 74.000000
304.062010 109.000000
305.045440 6.000000
305.059970 16.000000
305.073880 6.000000
306.046810 6.000000
312.796050 6.000000

>ms2
121.027630 17.000000
137.028850 18.000000
149.017760 18.000000
150.027180 18.000000
165.015730 29.000000
173.024570 17.000000
186.973390 18.000000
191.037060 18.000000
219.063060 18.000000
229.050190 37.000000
245.048100 20.000000
247.062450 17.000000
247.071170 18.000000
257.046020 86.000000
267.041810 26.000000
274.612180 23.000000
301.024900 24.000000
301.041110 41.000000
302.045680 20.000000
302.147890 18.000000
302.993230 18.000000
303.008510 23.000000
303.021180 76.000000
303.050900 6903.000000
303.094420 28.000000
303.122410 17.000000
303.806880 17.000000
304.054720 931.000000
305.045590 37.000000
305.061370 128.000000
305.070560 50.000000
305.629610 21.000000
306.054110 25.000000
355.938230 47.000000
425.995240 18.000000
464.105740 21.000000
464.987520 24.000000
465.023350 20.000000
465.053960 23.000000
465.105040 2690.000000
465.216250 18.000000

