>compound PR95582450
>parentmass 451.1234880000001
>ionization [M+H]+
>formula C21H22O11
>rt 246.076020
>profile qtof
#smiles_iso C1=CC(=C(C=C1/C=C/C(=O)C2=C(C(=C(C=C2)O[C@H]3[C@@H]([C@H]([C@@H]([C@H](O3)CO)O)O)O)O)O)O)O
#smiles_can C1=CC(=C(C=C1C=CC(=O)C2=C(C(=C(C=C2)OC3C(C(C(C(O3)CO)O)O)O)O)O)O)O
#inchikey XGEYXJDOVMEJNG-HTFDPZBKSA-N
#pubchem_id 6441269
#mb_accession PR302410,PR302416,PR302422,PR302428,PR302434,PR302440,PR302446,PR302452,PR302458,PR302464,PR302470,PR302476

>ms2peaks
71.054150 11.000000
81.005010 15.000000
123.043440 16.000000
127.037160 24.000000
134.995800 9.000000
135.049410 13.000000
145.025390 31.000000
145.048860 26.000000
151.042600 9.000000
153.004010 13.000000
153.015530 133.000000
154.022460 25.000000
155.014820 19.000000
162.979810 11.000000
163.020690 15.000000
163.039340 271.000000
179.027250 8.000000
179.035020 38.000000
181.072070 6.000000
187.065800 8.000000
195.032440 10.000000
196.019180 9.000000
197.054610 22.000000
215.070040 7.000000
215.077700 7.000000
225.052410 16.000000
226.064540 10.000000
241.053820 7.000000
253.043330 65.000000
253.058520 7.000000
255.995850 6.000000
257.034330 7.000000
271.048100 10.000000
271.059360 41.000000
271.075130 9.000000
274.049740 9.000000
275.054720 12.000000
288.790740 10.000000
289.020750 19.000000
289.039980 21.000000
289.070920 1000.000000
290.053190 7.000000
290.069520 150.000000
291.073940 51.000000
291.095250 27.000000
314.075410 7.000000
355.074370 16.000000
403.282870 12.000000
416.107330 7.000000
450.113680 8.000000
451.091280 10.000000
451.114810 55.000000
451.129550 41.000000
451.156220 27.000000

>ms2peaks
97.024500 6.000000
144.295900 6.000000
145.184390 7.000000
260.983610 8.000000
262.516360 10.000000
287.063720 7.000000
288.051880 13.000000
289.025270 12.000000
289.035710 20.000000
289.070950 1000.000000
289.096440 15.000000
290.050660 14.000000
290.074680 234.000000
290.095830 12.000000
291.069760 18.000000
291.089970 7.000000
331.078370 22.000000
355.062740 8.000000
355.088870 10.000000
372.639980 7.000000
415.106600 7.000000
433.105320 14.000000
433.132260 11.000000
449.091830 8.000000
450.112580 10.000000
451.072480 10.000000
451.123780 603.000000

>ms2peaks
82.039770 17.000000
85.026580 33.000000
125.021000 22.000000
127.038900 13.000000
135.045260 26.000000
145.027940 21.000000
152.896000 19.000000
152.983690 19.000000
153.001240 21.000000
153.013110 240.000000
153.978090 23.000000
154.017210 22.000000
154.026600 21.000000
162.972610 19.000000
163.019590 12.000000
163.039520 862.000000
164.038160 30.000000
164.047160 42.000000
165.040280 13.000000
168.438540 17.000000
179.020030 13.000000
179.035170 80.000000
195.034870 30.000000
197.064060 40.000000
204.032230 13.000000
219.026250 37.000000
225.043880 45.000000
225.056460 34.000000
236.038180 17.000000
243.068500 15.000000
244.538560 12.000000
253.053050 46.000000
254.053620 71.000000
259.058230 20.000000
271.043030 24.000000
271.059810 90.000000
271.067440 186.000000
272.072240 12.000000
274.023040 19.000000
274.034390 63.000000
274.046780 44.000000
275.054380 16.000000
278.931760 17.000000
287.055180 17.000000
288.654140 15.000000
288.679990 13.000000
289.019870 25.000000
289.068050 1000.000000
289.438900 15.000000
289.473480 14.000000
290.061860 79.000000
290.079040 120.000000
290.149600 19.000000
291.063900 13.000000
291.089970 25.000000
291.691620 11.000000
291.796660 11.000000
292.076020 11.000000

>ms2peaks
67.014300 65.000000
69.000390 70.000000
69.025380 82.000000
79.021880 110.000000
79.050270 46.000000
87.049630 32.000000
89.019540 70.000000
89.034650 44.000000
89.039970 108.000000
97.026470 83.000000
107.007370 55.000000
107.013550 61.000000
107.049600 46.000000
109.021030 36.000000
115.051320 61.000000
117.033700 292.000000
117.041660 148.000000
125.008990 34.000000
125.022130 163.000000
134.037990 36.000000
135.043210 266.000000
135.050480 245.000000
141.064060 40.000000
141.071720 44.000000
145.027920 406.000000
145.825470 38.000000
146.031950 83.000000
153.007200 80.000000
153.019500 1000.000000
153.989530 32.000000
154.010120 38.000000
155.027300 53.000000
159.039610 44.000000
161.025560 32.000000
163.010220 32.000000
163.037020 296.000000
163.044020 224.000000
165.020490 114.000000
165.048770 78.000000
165.057430 42.000000
165.857270 32.000000
170.070940 68.000000
179.035580 133.000000
197.034880 65.000000
197.055440 112.000000
212.036030 38.000000
225.029420 40.000000
226.041430 83.000000
226.055770 40.000000
231.025450 63.000000
243.236080 32.000000
444.579130 65.000000

>ms2peaks
97.021370 6.000000
125.023700 10.000000
135.039840 16.000000
135.048310 17.000000
145.026090 15.000000
145.047130 12.000000
153.002440 6.000000
153.019550 87.000000
154.017260 6.000000
163.013210 6.000000
163.039150 188.000000
163.095960 6.000000
164.044110 22.000000
169.069090 11.000000
179.034970 12.000000
184.689240 7.000000
185.604580 7.000000
192.200810 8.000000
197.069410 6.000000
225.005220 8.000000
225.061080 18.000000
226.077390 7.000000
228.043870 6.000000
243.067150 6.000000
246.058440 10.000000
251.028730 9.000000
253.056790 6.000000
253.065230 11.000000
259.483000 15.000000
271.062930 28.000000
272.040710 6.000000
272.063510 13.000000
274.031740 6.000000
274.045410 19.000000
288.056950 9.000000
288.999790 6.000000
289.029140 23.000000
289.053410 85.000000
289.071200 1000.000000
290.016140 8.000000
290.055820 11.000000
290.073850 175.000000
291.073550 14.000000
292.100400 6.000000
293.133000 6.000000
299.814510 8.000000
382.914490 8.000000
451.125580 109.000000

>ms2peaks
91.034690 7.000000
230.393300 5.000000
259.065700 5.000000
287.057650 6.000000
288.909550 6.000000
288.938690 9.000000
289.015200 7.000000
289.069270 1000.000000
289.105930 7.000000
290.073390 195.000000
291.081700 14.000000
332.080840 6.000000
451.118680 421.000000

>ms2peaks
85.028240 43.000000
85.657560 12.000000
97.018460 18.000000
99.044640 11.000000
107.011760 25.000000
125.025900 20.000000
133.029370 26.000000
139.043840 13.000000
145.031330 15.000000
146.024600 33.000000
152.992360 10.000000
153.018200 301.000000
153.030040 29.000000
154.020750 28.000000
161.021850 13.000000
162.999050 31.000000
163.028120 59.000000
163.039460 668.000000
163.058670 13.000000
163.240450 19.000000
164.042620 38.000000
165.029020 18.000000
166.156600 13.000000
179.029560 151.000000
180.035870 26.000000
180.755950 18.000000
189.058870 20.000000
195.017300 18.000000
195.030430 33.000000
197.065950 42.000000
225.054900 67.000000
225.064610 41.000000
226.065030 15.000000
229.047700 15.000000
229.076800 24.000000
243.055710 37.000000
243.067730 18.000000
244.071850 12.000000
247.916750 10.000000
248.222670 13.000000
253.048400 90.000000
253.059310 16.000000
254.050170 21.000000
261.040040 11.000000
271.016110 10.000000
271.033910 11.000000
271.057460 157.000000
271.067140 213.000000
272.048100 15.000000
272.067410 41.000000
273.067840 10.000000
274.048770 24.000000
283.066710 27.000000
288.061860 15.000000
288.627470 19.000000
289.071260 1000.000000
290.070470 68.000000
290.083500 57.000000
291.058040 22.000000
291.080570 40.000000
301.069950 11.000000
302.077060 11.000000
412.393190 18.000000

>ms2peaks
69.035980 82.000000
77.038240 33.000000
79.015830 51.000000
79.051340 35.000000
81.034810 30.000000
89.036160 85.000000
97.027930 33.000000
107.015510 100.000000
112.638380 26.000000
117.025140 101.000000
117.037120 213.000000
117.044180 36.000000
118.039570 62.000000
121.088520 32.000000
123.046560 36.000000
125.015930 88.000000
125.026760 51.000000
127.051030 61.000000
133.028310 72.000000
134.033020 29.000000
135.040300 274.000000
135.047030 188.000000
136.033580 49.000000
136.047290 39.000000
141.067730 29.000000
145.011720 43.000000
145.027150 381.000000
145.037840 46.000000
146.030170 30.000000
151.060130 39.000000
152.984710 55.000000
153.000960 32.000000
153.017750 1000.000000
153.474730 25.000000
154.025300 38.000000
155.022340 35.000000
161.028000 91.000000
163.025380 26.000000
163.036940 236.000000
163.061480 51.000000
164.036030 39.000000
164.044530 61.000000
169.047990 27.000000
190.057890 27.000000
197.060610 129.000000
205.010730 30.000000
207.048320 27.000000
225.048890 26.000000
235.031720 56.000000
243.065840 67.000000
253.047040 29.000000
303.068120 46.000000

>ms2peaks
81.031330 9.000000
85.029170 9.000000
86.038260 8.000000
98.033910 6.000000
99.965540 6.000000
101.645930 6.000000
127.039080 14.000000
135.044590 11.000000
141.767640 9.000000
145.020950 17.000000
145.028120 22.000000
145.046660 10.000000
152.982650 6.000000
153.002850 5.000000
153.016560 81.000000
154.017880 7.000000
154.029980 19.000000
155.024290 5.000000
160.046310 7.000000
160.313050 6.000000
161.023680 10.000000
163.038530 202.000000
164.042980 25.000000
165.020870 6.000000
165.041340 6.000000
172.543700 10.000000
177.555880 6.000000
179.037080 32.000000
180.034820 8.000000
198.506330 12.000000
201.055050 6.000000
207.044950 5.000000
225.023990 7.000000
225.046080 8.000000
225.053590 10.000000
229.028110 7.000000
231.078700 9.000000
243.054490 20.000000
247.173320 6.000000
253.037160 6.000000
253.053220 33.000000
269.035980 12.000000
271.036870 5.000000
271.065030 19.000000
271.071560 7.000000
272.045320 6.000000
272.066310 13.000000
273.054260 12.000000
274.046600 38.000000
276.062810 6.000000
284.943450 10.000000
288.061610 9.000000
289.030490 10.000000
289.070470 1000.000000
290.073700 150.000000
291.068180 8.000000
291.079100 29.000000
423.084590 5.000000
451.106780 42.000000
451.123840 119.000000
451.153500 6.000000

>ms2peaks
283.299290 5.000000
286.903500 8.000000
287.047360 11.000000
288.051450 8.000000
288.065310 8.000000
288.533810 8.000000
288.785520 5.000000
288.996460 6.000000
289.010470 6.000000
289.028020 9.000000
289.069700 1000.000000
290.005740 7.000000
290.072780 252.000000
291.073970 55.000000
300.912050 6.000000
398.263550 9.000000
434.132870 7.000000
449.119720 6.000000
451.094540 50.000000
451.126620 494.000000

>ms2peaks
69.702730 9.000000
79.018580 10.000000
80.133220 13.000000
81.032730 19.000000
85.029360 53.000000
85.032730 17.000000
135.033220 25.000000
135.040100 22.000000
145.017900 36.000000
145.031200 42.000000
146.024460 12.000000
147.033080 14.000000
150.973540 9.000000
152.969190 18.000000
153.017330 306.000000
154.295180 12.000000
155.012880 12.000000
162.996150 20.000000
163.013730 23.000000
163.039550 941.000000
164.028870 45.000000
164.044910 91.000000
173.040560 10.000000
179.034390 107.000000
196.834930 23.000000
197.060000 30.000000
201.054700 24.000000
203.035000 22.000000
207.049190 19.000000
225.051070 14.000000
225.672230 24.000000
226.053360 15.000000
229.051410 28.000000
232.075290 18.000000
243.054840 17.000000
243.065250 35.000000
247.061800 16.000000
253.017440 14.000000
253.043720 13.000000
253.056930 73.000000
253.067170 21.000000
253.175320 12.000000
253.816480 12.000000
254.045720 10.000000
271.038600 13.000000
271.058320 340.000000
272.052800 13.000000
272.066410 51.000000
273.060300 20.000000
274.037290 45.000000
274.058500 68.000000
288.995330 10.000000
289.033630 17.000000
289.045010 69.000000
289.073210 1000.000000
289.124270 9.000000
290.057830 56.000000
290.069980 112.000000
290.089450 50.000000
291.058350 19.000000
292.061250 12.000000

>ms2peaks
51.025580 46.000000
69.030170 48.000000
79.017860 86.000000
81.037430 56.000000
89.037030 38.000000
101.039510 44.000000
107.013050 109.000000
107.047620 50.000000
107.055950 58.000000
108.017280 38.000000
117.029990 322.000000
117.039980 115.000000
117.060940 44.000000
118.033480 48.000000
123.048000 63.000000
124.049700 36.000000
125.012020 48.000000
125.023070 234.000000
128.069500 79.000000
133.035720 42.000000
135.011220 42.000000
135.046200 305.000000
135.412510 48.000000
136.040510 46.000000
137.051250 65.000000
141.068410 48.000000
145.016750 50.000000
145.029820 756.000000
152.995800 63.000000
153.004000 73.000000
153.018190 1000.000000
155.040370 38.000000
163.036150 518.000000
164.041750 40.000000
169.059160 36.000000
169.066890 48.000000
173.059980 40.000000
174.060090 42.000000
179.031750 73.000000
183.855960 75.000000
186.054340 33.000000
189.050080 36.000000
191.046950 48.000000
197.057190 186.000000
197.067050 44.000000
201.042860 44.000000
225.051500 90.000000
225.064320 155.000000
226.054990 38.000000
254.045820 35.000000
289.070950 44.000000

