>compound PR95105339
>parentmass 287.0914000000001
>ionization [M+H]+
>formula C16H14O5
>rt 445.249980
>profile qtof
#smiles_iso COC1=CC(=C2C(=O)C[C@H](OC2=C1)C3=CC=C(C=C3)O)O
#smiles_can COC1=CC(=C2C(=O)CC(OC2=C1)C3=CC=C(C=C3)O)O
#inchikey DJOJDHGQRNZXQQ-AWEZNQCLSA-N
#pubchem_id 73571
#mb_accession PR302346,PR302352,PR302358,PR302364,PR302369,PR302375,PR302380,PR302385,PR302390,PR302395,PR302401,PR302406

>ms2peaks
67.018530 9.000000
91.051690 15.000000
91.059230 6.000000
107.046190 7.000000
111.042480 18.000000
119.048130 76.000000
123.042340 15.000000
147.044510 284.000000
148.047910 30.000000
152.010530 5.000000
165.055890 9.000000
167.033890 568.000000
168.037220 64.000000
169.041200 8.000000
181.066020 8.000000
287.054170 5.000000
287.093320 1000.000000
287.142730 13.000000

>ms2peaks
147.044140 18.000000
167.033260 29.000000
287.055180 6.000000
287.091190 1000.000000
287.140930 22.000000

>ms2peaks
67.017360 24.000000
91.053920 64.000000
92.059210 5.000000
93.033490 7.000000
95.049740 18.000000
107.046910 13.000000
111.035470 5.000000
111.044940 33.000000
119.049150 211.000000
120.047060 8.000000
120.053500 21.000000
121.065020 7.000000
123.043360 22.000000
124.015320 8.000000
137.018360 7.000000
137.024990 8.000000
137.062180 6.000000
139.040920 6.000000
147.043440 383.000000
148.046920 42.000000
165.053270 9.000000
165.063050 6.000000
167.006670 9.000000
167.033660 1000.000000
168.036360 113.000000
169.036060 8.000000
172.046650 7.000000
181.061570 10.000000
193.054440 5.000000
245.073360 5.000000
287.093140 12.000000

>ms2peaks
65.038090 76.000000
67.017620 59.000000
68.028430 66.000000
68.998090 152.000000
69.034250 26.000000
77.032810 32.000000
77.038470 45.000000
79.009320 37.000000
79.017270 49.000000
79.050740 19.000000
81.031000 15.000000
83.047200 23.000000
83.052930 12.000000
85.031920 15.000000
91.053690 1000.000000
91.122780 13.000000
91.345210 12.000000
92.051080 15.000000
92.057700 48.000000
92.062820 41.000000
92.997250 15.000000
95.016800 23.000000
95.046500 23.000000
95.051370 15.000000
96.022510 153.000000
99.047840 31.000000
100.046660 13.000000
101.012520 12.000000
101.032860 17.000000
107.011730 37.000000
107.033260 15.000000
107.046330 38.000000
108.016270 59.000000
109.031730 15.000000
110.027450 15.000000
111.005710 15.000000
111.035180 36.000000
111.045250 162.000000
112.053030 45.000000
115.050840 28.000000
115.056420 17.000000
118.038580 34.000000
118.062520 20.000000
118.740220 20.000000
119.032710 14.000000
119.049550 445.000000
120.051860 62.000000
120.060430 14.000000
123.046750 20.000000
123.798680 15.000000
124.014950 272.000000
130.428150 14.000000
131.050870 14.000000
133.999910 23.000000
134.994200 26.000000
137.014800 49.000000
139.034010 13.000000
141.065830 16.000000
147.047520 35.000000
150.016110 12.000000
151.037870 14.000000
151.999620 13.000000
152.059190 26.000000
153.014330 46.000000
153.061480 13.000000
153.067090 45.000000
163.056430 19.000000
164.051610 15.000000
165.075780 18.000000
167.010730 19.000000
167.031270 301.000000
167.047790 27.000000
168.037540 15.000000
168.923360 15.000000
169.065000 14.000000
180.032580 17.000000
180.052900 21.000000

>ms2peaks
91.054310 21.000000
95.045480 5.000000
107.047990 6.000000
111.043990 21.000000
119.049650 55.000000
123.042530 11.000000
139.037540 5.000000
147.025820 5.000000
147.043180 254.000000
148.046770 43.000000
165.050920 8.000000
167.033190 622.000000
168.037350 42.000000
169.034190 7.000000
287.039460 8.000000
287.062410 6.000000
287.089840 1000.000000
287.138640 21.000000

>ms2peaks
147.043240 16.000000
167.033810 32.000000
287.091000 1000.000000
287.140010 22.000000

>ms2peaks
67.018980 16.000000
91.053700 58.000000
95.046780 12.000000
95.052620 7.000000
107.048550 12.000000
111.042760 41.000000
119.048150 221.000000
120.049660 25.000000
123.043640 26.000000
137.024550 18.000000
139.043520 6.000000
147.043350 322.000000
148.045730 35.000000
166.984510 5.000000
167.033460 1000.000000
168.024000 6.000000
168.038300 75.000000
169.036530 6.000000
169.044720 10.000000
171.045200 6.000000
181.066010 8.000000
189.055040 10.000000
193.054920 5.000000

>ms2peaks
57.690320 11.000000
64.999410 31.000000
65.037660 118.000000
65.552990 10.000000
67.015660 65.000000
67.022760 47.000000
68.024320 124.000000
68.396420 12.000000
68.422840 11.000000
68.998500 46.000000
69.032550 97.000000
69.946530 19.000000
70.031520 22.000000
70.035610 10.000000
71.017170 11.000000
75.025580 10.000000
77.038420 69.000000
77.430160 12.000000
78.042320 11.000000
79.009820 12.000000
79.015820 22.000000
79.020200 15.000000
79.053380 40.000000
80.026410 15.000000
83.048960 10.000000
91.017010 11.000000
91.054210 1000.000000
91.262540 13.000000
91.626550 10.000000
92.058200 52.000000
92.165110 15.000000
93.033150 42.000000
95.042970 41.000000
95.051200 54.000000
96.021290 169.000000
101.035960 28.000000
103.051860 16.000000
107.015360 12.000000
107.052140 64.000000
108.020530 47.000000
108.052990 26.000000
111.023100 10.000000
111.032090 23.000000
111.039600 127.000000
111.045160 76.000000
112.038860 12.000000
112.049550 31.000000
115.047960 47.000000
115.055820 82.000000
116.156390 10.000000
119.027030 11.000000
119.046760 295.000000
119.052070 124.000000
120.051590 38.000000
120.060030 30.000000
123.036800 29.000000
123.043550 39.000000
124.015080 318.000000
124.587930 15.000000
125.010130 15.000000
125.022250 42.000000
126.996990 12.000000
128.054600 11.000000
129.066860 12.000000
130.075260 15.000000
132.038130 17.000000
133.329390 14.000000
137.027160 18.000000
137.064470 20.000000
139.045030 22.000000
141.070710 15.000000
142.041980 10.000000
146.039870 14.000000
147.044140 55.000000
151.017460 15.000000
151.058640 16.000000
152.009670 30.000000
152.046740 20.000000
152.059800 52.000000
153.018910 18.000000
153.060840 14.000000
155.977220 12.000000
157.069430 19.000000
158.068130 14.000000
164.062870 22.000000
165.054730 16.000000
166.981290 19.000000
167.033810 383.000000
168.043550 47.000000
169.063450 31.000000
169.100490 12.000000
171.044850 14.000000
180.051620 14.000000
181.066470 13.000000
183.042360 12.000000
197.060700 11.000000
213.038560 15.000000
287.093690 44.000000

>ms2peaks
91.054810 12.000000
95.047920 7.000000
107.049400 8.000000
111.038630 7.000000
111.045420 26.000000
119.048060 83.000000
120.056540 10.000000
123.036510 6.000000
123.044200 9.000000
147.042790 259.000000
147.048690 95.000000
148.046880 12.000000
148.053470 14.000000
165.054370 8.000000
167.033520 554.000000
168.037260 55.000000
169.036990 9.000000
189.057050 10.000000
245.068940 10.000000
287.060820 8.000000
287.090970 1000.000000
287.139130 20.000000

>ms2peaks
147.042770 22.000000
167.035640 22.000000
287.044980 7.000000
287.092100 1000.000000
287.141450 24.000000

>ms2peaks
67.017270 34.000000
91.042470 6.000000
91.053340 73.000000
95.047230 10.000000
107.051700 21.000000
111.042580 58.000000
112.049570 10.000000
119.031020 7.000000
119.048440 227.000000
120.055070 22.000000
123.044460 17.000000
124.014830 9.000000
125.022310 6.000000
137.020720 5.000000
137.027660 6.000000
139.038410 12.000000
147.044040 347.000000
148.048740 54.000000
152.012310 9.000000
167.005400 8.000000
167.033190 1000.000000
168.036150 111.000000
169.041080 10.000000
189.055300 6.000000
193.052840 5.000000
197.047300 5.000000
287.091670 8.000000

>ms2peaks
65.034890 39.000000
65.040570 94.000000
67.012990 95.000000
67.018760 54.000000
68.021190 15.000000
68.027230 53.000000
68.248250 16.000000
68.996020 112.000000
69.032180 20.000000
69.038180 21.000000
69.999890 23.000000
77.039960 58.000000
78.043180 29.000000
79.017450 22.000000
80.022520 20.000000
83.012420 20.000000
83.046850 61.000000
84.051250 20.000000
84.055240 21.000000
85.056190 14.000000
89.034260 25.000000
89.040060 27.000000
91.053900 1000.000000
91.108380 31.000000
92.049180 40.000000
92.056020 53.000000
92.059650 20.000000
92.287860 14.000000
92.996810 24.000000
93.027840 52.000000
93.500620 15.000000
95.041120 59.000000
95.052990 17.000000
96.019970 294.000000
96.053900 14.000000
97.025990 34.000000
97.406720 18.000000
98.029610 16.000000
99.039150 16.000000
107.010700 41.000000
107.045930 29.000000
107.055470 27.000000
108.013520 23.000000
108.018740 19.000000
109.370350 19.000000
111.034440 42.000000
111.042830 203.000000
112.047890 55.000000
114.044040 14.000000
115.052090 21.000000
115.058530 52.000000
116.700650 19.000000
117.057910 18.000000
118.361000 14.000000
119.045710 193.000000
119.052670 103.000000
120.058490 25.000000
120.343940 15.000000
123.996460 26.000000
124.013820 282.000000
125.022870 19.000000
128.055190 20.000000
137.005190 15.000000
137.021580 68.000000
137.031660 23.000000
138.024960 15.000000
140.059110 21.000000
144.058610 17.000000
147.042760 53.000000
147.050310 12.000000
150.028180 34.000000
151.045230 33.000000
151.060030 14.000000
152.058000 25.000000
152.067640 37.000000
153.054690 18.000000
157.068340 27.000000
163.059020 14.000000
167.019180 49.000000
167.032650 274.000000
167.999600 33.000000
168.034970 46.000000
168.239930 14.000000
170.056410 25.000000
185.060530 34.000000
197.052700 16.000000
214.982190 29.000000

