>compound PR95648577
>parentmass 449.1072893
>ionization [M]+
>formula C21H21O11+
>rt 171.127980
>profile qtof
#smiles_iso C1=CC(=C(C=C1C2=[O+]C3=CC(=CC(=C3C=C2O[C@H]4[C@@H]([C@H]([C@H]([C@H](O4)CO)O)O)O)O)O)O)O
#smiles_can C1=CC(=C(C=C1C2=[O+]C3=CC(=CC(=C3C=C2OC4C(C(C(C(O4)CO)O)O)O)O)O)O)O
#inchikey RKWHWFONKJEUEF-WVXKDWSHSA-O
#pubchem_id 441699
#mb_accession PR302212,PR302217,PR302222,PR302227,PR302232,PR302237,PR302242,PR302247,PR302252,PR302257,PR302262,PR302267

>ms2peaks
149.019380 7.000000
165.844920 6.000000
181.867200 6.000000
213.045760 8.000000
287.008580 6.000000
287.021240 10.000000
287.055510 1000.000000
288.032260 10.000000
288.060120 172.000000
289.048280 8.000000
289.060030 15.000000
449.060240 14.000000
449.109440 304.000000

>ms2peaks
287.054840 166.000000
288.055820 35.000000
449.043550 6.000000
449.061610 7.000000
449.108730 1000.000000

>ms2peaks
287.021790 14.000000
287.054290 1000.000000
288.057740 135.000000
289.029720 5.000000
289.059780 11.000000
289.070860 6.000000
290.058500 6.000000

>ms2peaks
55.019710 14.000000
65.037240 8.000000
68.991770 12.000000
107.012700 18.000000
109.010090 8.000000
109.030410 47.000000
111.011890 12.000000
113.852490 7.000000
114.595780 8.000000
115.051930 9.000000
116.059620 25.000000
119.051020 33.000000
121.001430 8.000000
121.025130 24.000000
121.034160 31.000000
122.042220 11.000000
123.032240 10.000000
123.040020 32.000000
129.069320 14.000000
131.050420 8.000000
137.023480 202.000000
139.029170 8.000000
139.053150 9.000000
141.070570 10.000000
143.041990 15.000000
143.051090 23.000000
145.066190 18.000000
146.386200 8.000000
148.048890 12.000000
149.018650 15.000000
149.057880 24.000000
150.031800 22.000000
157.056520 6.000000
157.066020 38.000000
157.086820 8.000000
158.066670 19.000000
158.366840 14.000000
160.050000 8.000000
161.025650 7.000000
161.056700 31.000000
163.038380 10.000000
163.072250 9.000000
164.077240 9.000000
165.019520 18.000000
167.040330 11.000000
168.050550 13.000000
171.042510 46.000000
172.048160 35.000000
173.065140 12.000000
175.038740 26.000000
175.077180 16.000000
179.029370 7.000000
179.040910 17.000000
179.276540 10.000000
185.046780 8.000000
185.059340 64.000000
185.069140 12.000000
189.055890 38.000000
196.337630 15.000000
197.048780 8.000000
199.038300 41.000000
203.073990 15.000000
213.053970 175.000000
213.065260 34.000000
214.058490 25.000000
216.033220 18.000000
216.045000 44.000000
216.945310 10.000000
230.064990 15.000000
231.053160 20.000000
231.071850 16.000000
231.088460 7.000000
231.212660 7.000000
232.417540 7.000000
233.767810 8.000000
240.041690 8.000000
241.047550 62.000000
241.067340 28.000000
242.037000 11.000000
243.050830 7.000000
258.060640 11.000000
269.049990 10.000000
270.045680 7.000000
286.595180 7.000000
287.012790 9.000000
287.054110 1000.000000
287.143980 16.000000
287.158910 23.000000
287.332400 10.000000
288.054140 119.000000
288.069760 20.000000
289.052950 7.000000
289.069730 17.000000

>ms2peaks
213.053100 11.000000
231.064650 9.000000
259.063230 6.000000
287.054780 1000.000000
288.057460 156.000000
289.047180 10.000000
289.055600 26.000000
449.089900 99.000000
449.111820 266.000000

>ms2peaks
287.029790 11.000000
287.054780 212.000000
288.054660 28.000000
289.056610 7.000000
449.043370 7.000000
449.063110 14.000000
449.107970 1000.000000

>ms2peaks
287.006100 8.000000
287.024440 6.000000
287.054470 1000.000000
288.058870 145.000000
289.054200 9.000000

>ms2peaks
68.994450 7.000000
69.032270 9.000000
109.028690 35.000000
110.039450 18.000000
110.998810 5.000000
115.060340 14.000000
119.042990 6.000000
121.003910 5.000000
121.027090 15.000000
121.037480 7.000000
122.035390 8.000000
128.059810 23.000000
129.060230 14.000000
129.066560 7.000000
129.074130 8.000000
131.046780 11.000000
133.065290 8.000000
137.005510 12.000000
137.024280 201.000000
138.023860 28.000000
139.060120 11.000000
143.047760 15.000000
147.008210 9.000000
147.045870 14.000000
148.052290 8.000000
149.022690 19.000000
149.057360 5.000000
155.049530 7.000000
157.064320 54.000000
160.056350 10.000000
161.058700 24.000000
161.934780 8.000000
163.042190 9.000000
165.015690 38.000000
167.054140 24.000000
168.055860 5.000000
169.068210 5.000000
171.024150 5.000000
171.037380 12.000000
171.045640 21.000000
171.053540 6.000000
172.046400 19.000000
175.036640 21.000000
175.047970 5.000000
177.010410 8.000000
177.027240 7.000000
179.024430 7.000000
179.036420 8.000000
180.036710 6.000000
185.043200 5.000000
185.059140 58.000000
186.047880 13.000000
186.067660 10.000000
187.035170 11.000000
188.048680 13.000000
188.995480 8.000000
189.050660 28.000000
189.058910 12.000000
189.071140 5.000000
190.061340 17.000000
191.037000 6.000000
195.026410 5.000000
196.666560 6.000000
197.079940 7.000000
200.032270 6.000000
203.027100 8.000000
203.080350 10.000000
212.051830 9.000000
213.024150 17.000000
213.054500 191.000000
214.053820 30.000000
214.066930 6.000000
215.048170 6.000000
216.045520 20.000000
217.053740 18.000000
223.041840 7.000000
229.036410 5.000000
230.061680 8.000000
231.059710 25.000000
231.069370 16.000000
232.669270 6.000000
241.047940 38.000000
241.064900 5.000000
242.020430 5.000000
242.058320 37.000000
242.074570 7.000000
269.045930 23.000000
286.535060 7.000000
287.018220 11.000000
287.055390 1000.000000
288.060240 188.000000
289.049130 14.000000
289.061000 18.000000

>ms2peaks
167.056760 6.000000
213.053560 11.000000
287.023350 9.000000
287.054750 1000.000000
288.048740 67.000000
288.060700 90.000000
289.047120 6.000000
289.065640 21.000000
290.061770 8.000000
449.107940 285.000000

>ms2peaks
241.791500 6.000000
287.055080 146.000000
288.027250 6.000000
288.061400 31.000000
289.052250 7.000000
289.068970 8.000000
449.062350 14.000000
449.107150 1000.000000

>ms2peaks
286.039000 6.000000
286.986760 6.000000
287.019560 10.000000
287.055270 1000.000000
288.039730 17.000000
288.059420 162.000000
289.061800 32.000000
290.058530 7.000000

>ms2peaks
81.031900 15.000000
81.053810 7.000000
91.053440 10.000000
93.032550 19.000000
95.011420 8.000000
105.070540 7.000000
109.028050 50.000000
114.651280 8.000000
115.053170 20.000000
115.064160 7.000000
121.025670 7.000000
121.033940 17.000000
121.041910 10.000000
123.043790 8.000000
124.039790 8.000000
127.058420 9.000000
128.059650 9.000000
129.034230 6.000000
129.063920 16.000000
129.073440 12.000000
131.050230 12.000000
132.050000 7.000000
132.057600 12.000000
136.995790 6.000000
137.007250 13.000000
137.020460 123.000000
137.031040 36.000000
138.028430 8.000000
138.897020 11.000000
139.056440 12.000000
140.053090 9.000000
140.060100 14.000000
143.055360 9.000000
144.063140 12.000000
145.062560 7.000000
145.068790 27.000000
147.075880 11.000000
149.020740 69.000000
149.957170 9.000000
151.745150 6.000000
152.062770 12.000000
153.018810 7.000000
154.002300 7.000000
156.795650 6.000000
157.046010 10.000000
157.059690 32.000000
157.071880 7.000000
158.009890 11.000000
158.068790 9.000000
160.024510 8.000000
161.051420 15.000000
161.064440 8.000000
163.041720 23.000000
163.075060 10.000000
164.030150 7.000000
164.040770 12.000000
165.015240 22.000000
167.016460 8.000000
167.045870 14.000000
167.053890 16.000000
170.062420 11.000000
170.084300 13.000000
171.048740 39.000000
172.047760 10.000000
175.035020 18.000000
175.042770 22.000000
175.050980 12.000000
175.078750 14.000000
176.043990 7.000000
177.017040 8.000000
177.052670 6.000000
182.851760 6.000000
184.049190 15.000000
185.042110 7.000000
185.048570 7.000000
185.063260 54.000000
189.054840 33.000000
195.038100 5.000000
195.047940 17.000000
199.041030 24.000000
200.044200 8.000000
200.052990 6.000000
201.042270 11.000000
203.027730 8.000000
203.075330 20.000000
204.049410 12.000000
204.995530 12.000000
205.038730 7.000000
212.051180 9.000000
213.052280 190.000000
214.055160 15.000000
214.771970 7.000000
214.993680 10.000000
215.061920 7.000000
215.082240 14.000000
216.043760 43.000000
217.054950 11.000000
219.349950 9.000000
221.019550 7.000000
227.029340 6.000000
227.043150 14.000000
230.058910 15.000000
231.058810 37.000000
232.131930 8.000000
240.048170 6.000000
241.040540 41.000000
241.052520 92.000000
241.914170 7.000000
242.057460 15.000000
242.068620 11.000000
243.047010 14.000000
243.056320 7.000000
245.047910 6.000000
259.056060 6.000000
259.062840 14.000000
260.067140 8.000000
269.029240 8.000000
269.043060 40.000000
269.747830 6.000000
270.531220 6.000000
287.010380 7.000000
287.055180 1000.000000
287.481960 7.000000
288.021450 13.000000
288.063260 215.000000
288.182340 6.000000
289.061830 18.000000
298.843080 6.000000

