>compound PR95739198
>parentmass 179.1188
>ionization [M+H]+
>formula C10H14N2O
>rt 109.200000
>profile qtof
#smiles_iso C[N+]1(CCCC1C2=CN=CC=C2)[O-]
#smiles_can C[N+]1(CCCC1C2=CN=CC=C2)[O-]
#inchikey RWFBQHICRCUQJJ-UHFFFAOYSA-N
#pubchem_id 409
#mb_accession PR310815

>ms2peaks
84.081860 16.000000
92.050770 23.000000
106.028880 17.000000
115.054520 56.000000
117.059840 119.000000
118.064890 92.000000
119.050970 145.000000
123.037310 18.000000
130.051330 20.000000
130.066020 239.000000
131.071550 26.000000
132.081940 340.000000
132.087280 140.000000
132.154910 23.000000
136.075410 115.000000
142.970630 31.000000
147.051560 29.000000
147.085920 22.000000
148.076110 32.000000
148.087570 16.000000
161.108860 21.000000
165.055210 156.000000
179.103260 27.000000
179.120820 674.000000

