>compound PR95246858
>parentmass 218.08454100000003
>ionization [M+H]+
>formula C9H15NO3S
>rt 243.066000
>profile qtof
#smiles_iso C[C@H](CS)C(=O)N1CCC[C@H]1C(=O)O
#smiles_can CC(CS)C(=O)N1CCCC1C(=O)O
#inchikey FAKRSMQSSFJEIM-RQJHMYQMSA-N
#pubchem_id 44093
#mb_accession PR300877,PR300881,PR300885,PR300889,PR300893,PR300896,PR300900,PR300904,PR300908,PR300912,PR300916,PR300919

>ms2
70.054360 33.000000
70.065760 309.000000
70.187100 19.000000
71.058960 14.000000
71.070950 33.000000
75.025900 122.000000
75.033680 17.000000
76.030930 18.000000
103.020220 16.000000
116.045720 15.000000
116.071300 1000.000000
117.073060 14.000000
172.062330 12.000000
172.078780 276.000000
173.078630 23.000000
173.086810 29.000000
173.484590 14.000000
174.070370 22.000000
174.076720 16.000000
174.091510 16.000000
175.079210 17.000000
190.023530 41.000000
200.071490 61.000000
201.071180 15.000000
218.085330 847.000000
218.170820 16.000000

>ms2
70.068810 30.000000
77.388130 7.000000
116.071990 235.000000
116.080020 39.000000
117.073340 27.000000
172.079710 230.000000
173.086400 37.000000
174.079650 8.000000
200.074080 67.000000
218.065540 21.000000
218.085430 1000.000000

>ms2
70.066310 1000.000000
71.372560 74.000000
75.028910 70.000000
114.054450 74.000000
116.066810 193.000000
116.074870 152.000000
117.073660 148.000000
186.098100 74.000000

>ms2
70.059640 279.000000
70.064920 1000.000000
70.073590 183.000000
71.068980 163.000000
116.079910 173.000000

>ms2
70.053780 15.000000
70.065900 228.000000
71.067500 51.000000
75.019360 18.000000
75.027730 76.000000
93.587970 20.000000
95.937350 14.000000
116.069700 1000.000000
117.077430 16.000000
172.066040 42.000000
172.077650 303.000000
200.065340 18.000000
200.072600 24.000000
200.095210 21.000000
201.077390 18.000000
212.006700 14.000000
218.083110 786.000000
218.092350 205.000000

>ms2
70.066590 29.000000
103.024020 9.000000
116.071060 248.000000
117.078580 9.000000
155.620220 8.000000
169.349210 5.000000
172.079850 173.000000
173.075290 9.000000
173.081560 24.000000
200.078190 60.000000
201.072220 7.000000
201.090130 7.000000
218.030040 6.000000
218.051680 12.000000
218.084240 1000.000000

>ms2
70.066290 1000.000000
75.028780 244.000000
87.905010 70.000000
116.066170 157.000000
116.077940 129.000000
218.082310 73.000000
218.094620 59.000000

>ms2
70.066560 500.000000
116.072140 1000.000000
218.084060 300.000000

>ms2
70.008800 17.000000
70.065960 221.000000
71.069510 18.000000
75.014200 30.000000
75.026500 177.000000
75.035860 25.000000
76.029210 14.000000
76.033330 15.000000
116.052890 19.000000
116.071120 854.000000
117.075140 67.000000
117.081560 53.000000
117.531250 19.000000
118.074820 23.000000
172.072170 87.000000
172.081920 319.000000
173.053390 20.000000
173.064010 23.000000
174.064640 15.000000
200.063840 30.000000
200.071980 111.000000
200.085100 29.000000
201.077470 17.000000
202.061020 14.000000
217.928850 15.000000
218.086120 1000.000000

>ms2
70.064410 13.000000
70.069540 8.000000
75.028230 14.000000
116.070790 239.000000
117.079150 16.000000
118.071860 7.000000
172.080110 223.000000
173.086400 11.000000
200.069670 19.000000
200.076950 64.000000
202.070980 8.000000
218.048800 10.000000
218.084120 1000.000000

>ms2
70.059390 97.000000
70.066060 1000.000000
70.694500 91.000000
71.070800 134.000000
75.025560 371.000000
116.067690 462.000000
116.074600 306.000000

>ms2
70.066750 1000.000000

