>compound PR95103704
>parentmass 593.1516
>ionization [M+H]+
>formula C27H28O15
>rt 270.000000
>profile qtof
#smiles_iso CC(CC(=O)O)(CC(=O)OCC1C(C(C(C(O1)OC2=C(OC3=CC(=CC(=C3C2=O)O)O)C4=CC=C(C=C4)O)O)O)O)O
#smiles_can CC(CC(=O)O)(CC(=O)OCC1C(C(C(C(O1)OC2=C(OC3=CC(=CC(=C3C2=O)O)O)C4=CC=C(C=C4)O)O)O)O)O
#inchikey ZALWWUJLKFBCQF-UHFFFAOYSA-N
#pubchem_id 23757216
#mb_accession PR310914

>ms2peaks
85.033940 25.000000
103.037760 65.000000
109.029250 30.000000
127.039020 166.000000
145.043180 17.000000
145.049390 36.000000
241.893010 17.000000
258.906980 34.000000
287.002660 19.000000
287.057070 1574.000000
287.480290 18.000000
288.056880 295.000000
289.045560 18.000000
289.063780 34.000000
329.077510 18.000000
518.708440 20.000000
593.077270 18.000000
593.155330 311.000000
593.193120 31.000000

