>compound PR95096312
>parentmass 809.429
>ionization [M+H]+
>formula C42H64O15
>rt 387.000000
>profile qtof
#smiles_iso CC1(C2CCC3(C(C2(CCC1OC4C(C(C(C(O4)C(=O)O)O)O)OC5C(C(C(C(O5)C(=O)O)O)O)O)C)CC=C6C3(CCC7(C6CC(CC7)(C)C(=O)O)C)C)C)C
#smiles_can CC1(C2CCC3(C(C2(CCC1OC4C(C(C(C(O4)C(=O)O)O)O)OC5C(C(C(C(O5)C(=O)O)O)O)O)C)CC=C6C3(CCC7(C6CC(CC7)(C)C(=O)O)C)C)C)C
#inchikey BCNKILSUUHWRTG-UHFFFAOYSA-N
#pubchem_id 13457498
#mb_accession PR310663

>ms2
132.121600 20.000000
177.030470 20.000000
189.162700 18.000000
215.180300 24.000000
231.176270 17.000000
271.092590 23.000000
299.238100 20.000000
423.336610 21.000000
439.360930 323.000000
440.293240 23.000000
440.342590 50.000000
440.367770 94.000000
441.358520 25.000000
549.171260 18.000000
576.645750 27.000000
581.136840 19.000000
617.412350 24.000000
633.379330 21.000000
633.404170 57.000000
634.404110 18.000000
752.266720 18.000000
808.441160 33.000000
809.432500 54.000000

