>compound PR95906188
>parentmass 423.1994
>ionization [M+H]+
>formula C17H30N2O10
>rt 124.200000
>profile qtof
#smiles_iso CCC(C)C(C(=O)NC(CCC(=O)O)C(=O)O)NCC1(C(C(C(CO1)O)O)O)O
#smiles_can CCC(C)C(C(=O)NC(CCC(=O)O)C(=O)O)NCC1(C(C(C(CO1)O)O)O)O
#inchikey OJDUYMYADCXNAN-UHFFFAOYSA-N
#pubchem_id 85251621
#mb_accession PR310822

>ms2peaks
71.047110 25.000000
86.103840 36.000000
130.051090 16.000000
161.112260 31.000000
164.099730 20.000000
192.105640 17.000000
208.069000 17.000000
210.119490 22.000000
228.087160 25.000000
237.961000 20.000000
261.147060 36.000000
292.143100 16.000000
338.163300 22.000000
339.144960 18.000000
339.160000 18.000000
340.151060 39.000000
359.199770 20.000000
369.173650 49.000000
387.180630 16.000000
405.179230 62.000000
421.221530 16.000000
423.199550 149.000000

