>compound PR95460388
>parentmass 751.4627039999999
>ionization [M+H]+
>formula C41H66O12
>rt 477.561000
>profile qtof
#smiles_iso C[C@H]1[C@@H]([C@H]([C@H]([C@@H](O1)O[C@@H]2[C@H]([C@H](CO[C@H]2O[C@H]3CC[C@]4([C@H]([C@]3(C)CO)CC[C@@]5([C@@H]4CC=C6[C@]5(CC[C@@]7([C@H]6CC(CC7)(C)C)C(=O)O)C)C)C)O)O)O)O)O
#smiles_can CC1C(C(C(C(O1)OC2C(C(COC2OC3CCC4(C(C3(C)CO)CCC5(C4CC=C6C5(CCC7(C6CC(CC7)(C)C)C(=O)O)C)C)C)O)O)O)O)O
#inchikey KEOITPILCOILGM-LLJOFIFVSA-N
#pubchem_id 73296
#mb_accession PR301873,PR301874,PR301875,PR301876,PR301877,PR301878,PR301879,PR301880,PR301881,PR301882,PR301883

>ms2peaks
76.043550 20.000000
112.256140 15.000000
113.061770 25.000000
115.040040 50.000000
129.061230 18.000000
133.046200 23.000000
133.104800 18.000000
134.109880 18.000000
135.116730 21.000000
137.064830 18.000000
139.047090 25.000000
139.099520 24.000000
143.043320 23.000000
147.053070 16.000000
147.060350 38.000000
147.069230 18.000000
149.135280 40.000000
163.143340 18.000000
175.155000 15.000000
177.158650 16.000000
179.073120 19.000000
187.150470 17.000000
187.167450 17.000000
188.159730 20.000000
189.164540 80.000000
190.161820 43.000000
191.180970 37.000000
192.194210 19.000000
195.174620 16.000000
196.175920 18.000000
201.158810 16.000000
201.173900 15.000000
202.173740 15.000000
203.167250 17.000000
203.182420 51.000000
204.176130 25.000000
205.153790 18.000000
207.178120 71.000000
213.077270 46.000000
215.163620 20.000000
215.181660 17.000000
218.677640 15.000000
219.192490 26.000000
221.202450 19.000000
225.067030 16.000000
225.086380 38.000000
226.080370 19.000000
227.186540 15.000000
239.187610 15.000000
242.628300 19.000000
243.086150 71.000000
243.211040 17.000000
247.156950 18.000000
247.179600 37.000000
250.697830 16.000000
251.190030 18.000000
260.184420 15.000000
261.085750 18.000000
261.102510 17.000000
262.193360 18.000000
273.175750 25.000000
275.202970 24.000000
279.109620 199.000000
279.121670 66.000000
280.108700 33.000000
281.160710 22.000000
281.209530 29.000000
284.229890 21.000000
285.215640 18.000000
315.228490 15.000000
327.228610 20.000000
329.245000 15.000000
351.294590 16.000000
351.317660 16.000000
388.268460 21.000000
391.329530 60.000000
391.347170 25.000000
392.331450 25.000000
392.346560 16.000000
397.298610 49.000000
397.320560 21.000000
398.316650 45.000000
409.351620 170.000000
410.343540 49.000000
410.374150 20.000000
411.355870 21.000000
419.301300 17.000000
420.307680 19.000000
425.327940 37.000000
425.341770 31.000000
426.343410 16.000000
427.355470 15.000000
427.385500 21.000000
437.217130 16.000000
437.334990 340.000000
437.351350 275.000000
437.909790 27.000000
438.349910 382.000000
438.386080 19.000000
439.341950 16.000000
455.308720 20.000000
455.351380 709.000000
456.343570 155.000000
456.362640 91.000000
456.442840 15.000000
467.410770 20.000000
467.619480 24.000000
468.563050 21.000000
473.353490 15.000000
473.367430 30.000000
474.364750 15.000000
508.354430 21.000000
519.372740 18.000000
519.410220 20.000000
523.353580 17.000000
565.410830 21.000000
566.420410 15.000000
569.375730 17.000000
583.402530 33.000000
587.380680 33.000000
588.388790 17.000000
602.399170 19.000000
602.437740 16.000000
603.414490 18.000000
605.403200 32.000000
619.410460 164.000000
619.448850 63.000000
620.382080 16.000000
620.418150 140.000000
621.440920 18.000000
737.192320 21.000000
751.389100 20.000000
751.462830 1000.000000
751.523380 15.000000
751.557070 17.000000

>ms2peaks
147.055910 8.000000
147.070140 6.000000
147.077150 8.000000
159.057430 9.000000
177.061360 6.000000
177.164920 6.000000
189.162350 8.000000
203.169300 5.000000
208.177920 6.000000
243.092420 12.000000
249.091420 9.000000
279.113130 48.000000
280.092800 8.000000
280.104190 8.000000
297.112150 6.000000
398.317660 6.000000
403.417690 6.000000
409.345030 6.000000
418.451930 7.000000
425.351870 12.000000
427.349430 6.000000
437.310150 7.000000
437.340120 27.000000
437.359620 26.000000
438.330900 6.000000
439.070400 6.000000
450.245450 5.000000
455.353910 110.000000
456.356660 17.000000
456.386380 6.000000
457.343080 6.000000
457.378450 10.000000
474.345210 6.000000
474.372160 30.000000
503.132290 8.000000
507.353910 6.000000
517.252930 10.000000
546.542180 8.000000
565.367550 6.000000
565.414060 8.000000
565.493410 7.000000
585.720210 6.000000
588.395200 6.000000
601.192260 6.000000
601.387820 5.000000
601.427370 8.000000
601.447940 5.000000
602.396850 6.000000
602.425350 6.000000
605.371030 8.000000
605.405400 25.000000
606.422910 6.000000
609.318540 6.000000
619.361020 6.000000
619.422300 203.000000
619.458800 29.000000
620.400150 27.000000
620.428590 38.000000
620.471070 6.000000
621.397520 6.000000
621.427310 19.000000
621.438720 40.000000
621.478270 6.000000
622.439150 5.000000
700.407960 6.000000
715.444150 16.000000
733.438540 5.000000
749.434270 7.000000
751.465210 1000.000000

>ms2peaks
75.040040 20.000000
75.044730 22.000000
85.022860 36.000000
85.027620 44.000000
86.032710 28.000000
87.042780 19.000000
93.069040 21.000000
95.046080 19.000000
95.085450 23.000000
97.030720 48.000000
104.036000 24.000000
110.982820 29.000000
111.027820 19.000000
111.080440 35.000000
115.038670 176.000000
121.029690 28.000000
129.052290 56.000000
129.058040 103.000000
133.042470 25.000000
133.103790 18.000000
139.107510 21.000000
139.114590 27.000000
141.059620 38.000000
146.098690 22.000000
147.022080 20.000000
147.056730 21.000000
147.068600 115.000000
147.117250 48.000000
148.043810 18.000000
148.076480 30.000000
149.127960 19.000000
149.136050 34.000000
150.128330 21.000000
161.133680 55.000000
163.146790 19.000000
164.147320 20.000000
165.076130 19.000000
167.835510 26.000000
175.050780 25.000000
175.142990 42.000000
177.164250 25.000000
178.172780 21.000000
187.143370 20.000000
189.157590 61.000000
189.171740 67.000000
190.159730 39.000000
191.176590 29.000000
191.186400 25.000000
192.179440 24.000000
193.167100 24.000000
195.184110 37.000000
197.087460 28.000000
201.158810 29.000000
201.166150 36.000000
202.178180 18.000000
203.178130 116.000000
203.190060 51.000000
204.176010 20.000000
204.190640 20.000000
205.194820 23.000000
206.166380 18.000000
207.060240 18.000000
207.148900 24.000000
207.177030 171.000000
208.178650 19.000000
209.151820 25.000000
213.161380 20.000000
215.169080 29.000000
215.174870 19.000000
215.186800 19.000000
217.075200 22.000000
217.154270 43.000000
217.192600 18.000000
219.177890 19.000000
221.146260 18.000000
221.195160 21.000000
225.073360 143.000000
225.093960 107.000000
226.078540 21.000000
229.185380 19.000000
229.199910 18.000000
231.080860 40.000000
231.168550 19.000000
233.155880 31.000000
241.193210 24.000000
243.083040 132.000000
245.228390 26.000000
247.161450 75.000000
247.180600 26.000000
247.195760 27.000000
248.164600 18.000000
248.174320 18.000000
249.190000 24.000000
257.216740 18.000000
259.184330 26.000000
261.100520 18.000000
261.185030 21.000000
261.220000 50.000000
262.106690 19.000000
273.192290 21.000000
279.100560 119.000000
280.108120 21.000000
281.179140 21.000000
285.177340 20.000000
288.218290 22.000000
299.216770 26.000000
325.155730 21.000000
325.215210 22.000000
327.226010 20.000000
329.244540 25.000000
331.260620 28.000000
341.253880 29.000000
343.184270 21.000000
343.264280 18.000000
346.344600 19.000000
351.310240 21.000000
354.251370 19.000000
355.267880 23.000000
356.278260 30.000000
379.336210 47.000000
381.281160 21.000000
389.311000 25.000000
391.302580 28.000000
391.329620 26.000000
391.338960 72.000000
397.301910 19.000000
397.313390 27.000000
399.328700 24.000000
409.340730 231.000000
409.357300 99.000000
410.352450 121.000000
411.374850 18.000000
413.362340 19.000000
417.289400 20.000000
419.348080 25.000000
425.323580 40.000000
425.346890 83.000000
426.346440 63.000000
427.340330 19.000000
427.360570 18.000000
437.342470 1000.000000
437.359070 268.000000
438.236850 21.000000
438.342620 243.000000
438.734010 20.000000
439.317140 18.000000
439.345790 99.000000
450.686860 18.000000
455.331180 77.000000
455.350190 382.000000
456.291690 19.000000
456.325960 20.000000
456.350280 187.000000
456.368100 84.000000
457.357670 38.000000
489.282230 21.000000
506.383390 19.000000
519.378300 18.000000
520.413150 19.000000
551.371460 21.000000
569.361630 18.000000
583.386780 19.000000
583.422360 19.000000
584.400510 18.000000
584.424260 58.000000
601.399230 19.000000
602.315800 19.000000
716.450200 18.000000

>ms2peaks
73.027480 70.000000
81.068730 158.000000
83.049450 62.000000
85.023690 482.000000
86.027650 74.000000
95.084630 250.000000
97.032300 228.000000
99.054580 66.000000
107.084600 158.000000
109.026670 85.000000
109.095680 107.000000
109.101800 74.000000
111.083240 195.000000
112.042360 88.000000
113.055940 74.000000
115.037250 85.000000
115.044410 246.000000
119.083180 261.000000
121.100230 147.000000
127.033700 88.000000
127.259250 66.000000
129.051560 290.000000
129.059200 99.000000
130.055450 62.000000
131.084410 92.000000
133.099900 136.000000
135.112210 81.000000
135.124980 121.000000
139.033780 199.000000
139.042530 66.000000
147.066760 206.000000
147.117420 415.000000
149.112810 66.000000
149.133910 485.000000
151.143250 77.000000
153.054610 162.000000
153.094130 74.000000
155.949910 66.000000
157.051320 62.000000
157.084840 62.000000
159.062990 74.000000
159.119220 158.000000
160.112090 66.000000
161.059390 99.000000
161.129910 221.000000
161.139140 70.000000
163.143070 140.000000
163.153350 199.000000
171.115220 107.000000
173.129670 74.000000
175.152440 132.000000
175.160540 103.000000
177.167760 62.000000
179.672010 66.000000
181.045610 88.000000
187.152080 74.000000
189.167600 496.000000
190.168620 77.000000
191.176670 199.000000
192.104350 74.000000
192.185350 74.000000
193.160840 96.000000
201.157030 217.000000
201.169020 136.000000
202.115080 66.000000
202.165890 298.000000
203.182170 1000.000000
204.180340 371.000000
205.188750 77.000000
207.169780 88.000000
207.177380 92.000000
208.167860 88.000000
213.160450 140.000000
215.174330 110.000000
215.184830 268.000000
216.182800 70.000000
217.183640 66.000000
219.179890 162.000000
221.197200 118.000000
225.081310 66.000000
225.161650 74.000000
227.093580 66.000000
229.198260 184.000000
230.188780 85.000000
235.170500 62.000000
238.170260 74.000000
239.179670 66.000000
241.192810 143.000000
243.204830 118.000000
243.214920 62.000000
247.169110 70.000000
247.178480 85.000000
247.191640 99.000000
253.195160 74.000000
256.225890 195.000000
257.226230 88.000000
261.189730 213.000000
265.200200 74.000000
267.209010 199.000000
271.168610 103.000000
273.217350 62.000000
283.238100 74.000000
285.239170 88.000000
289.217100 88.000000
331.244570 66.000000
339.227660 62.000000
368.292300 66.000000
391.317200 92.000000
409.336490 162.000000
409.348910 114.000000

>ms2peaks
53.034950 20.000000
71.047990 30.000000
85.030230 51.000000
112.082260 20.000000
115.033290 15.000000
115.040230 71.000000
121.095400 20.000000
121.102010 24.000000
129.044390 21.000000
129.064830 19.000000
133.045350 17.000000
139.037980 19.000000
147.057500 19.000000
147.069150 81.000000
148.068980 32.000000
149.124470 57.000000
149.131870 47.000000
157.047550 16.000000
159.101170 18.000000
159.114300 26.000000
161.136520 17.000000
163.131670 16.000000
163.148900 16.000000
165.075320 20.000000
175.148740 18.000000
177.148530 16.000000
177.158520 18.000000
177.166200 30.000000
187.141360 22.000000
189.168000 36.000000
190.166750 41.000000
191.178470 37.000000
192.875840 17.000000
199.139540 22.000000
201.159010 15.000000
203.179840 84.000000
203.187360 33.000000
204.176800 17.000000
207.171880 175.000000
208.061370 16.000000
213.078920 17.000000
213.166560 26.000000
215.189730 18.000000
217.187650 18.000000
217.196810 18.000000
219.172530 37.000000
221.183360 35.000000
225.077790 101.000000
227.074680 31.000000
231.079900 16.000000
233.141980 16.000000
235.165880 15.000000
243.082520 24.000000
243.092700 63.000000
245.191060 18.000000
247.157470 42.000000
247.173280 21.000000
249.098300 18.000000
249.178020 21.000000
249.188710 17.000000
259.176670 16.000000
261.096530 34.000000
271.247190 19.000000
279.070620 15.000000
279.095490 46.000000
279.110350 165.000000
279.128690 15.000000
280.104190 15.000000
280.126280 18.000000
281.101650 19.000000
300.202510 19.000000
330.254730 15.000000
343.268160 22.000000
354.251590 17.000000
358.275820 18.000000
363.305760 22.000000
367.624270 17.000000
382.345340 28.000000
391.333860 37.000000
391.353210 23.000000
392.320040 18.000000
392.345090 19.000000
398.901030 15.000000
409.342800 135.000000
409.374270 15.000000
410.348180 62.000000
411.356840 35.000000
413.374540 24.000000
425.345490 33.000000
426.339230 35.000000
427.357790 17.000000
437.309630 15.000000
437.334780 273.000000
437.353580 138.000000
438.326840 80.000000
438.344060 184.000000
438.371490 22.000000
455.345340 452.000000
455.390080 29.000000
456.352230 90.000000
456.373170 75.000000
457.386260 20.000000
458.360170 22.000000
473.391820 15.000000
474.033230 15.000000
474.364010 16.000000
497.339720 18.000000
547.383360 20.000000
559.413940 20.000000
565.364260 22.000000
565.406130 18.000000
566.399230 18.000000
571.414000 18.000000
583.390870 46.000000
584.376400 19.000000
587.354740 17.000000
587.392580 16.000000
587.409240 18.000000
601.414180 65.000000
601.448000 16.000000
603.414550 31.000000
606.400630 41.000000
607.374020 18.000000
619.386660 35.000000
619.423220 190.000000
620.388060 18.000000
620.411190 18.000000
620.434390 15.000000
733.449770 18.000000
751.403810 21.000000
751.466430 1000.000000

>ms2peaks
213.079120 6.000000
244.584580 6.000000
279.086270 6.000000
279.100680 19.000000
279.110690 21.000000
297.113830 7.000000
392.503750 6.000000
409.336120 6.000000
409.352170 6.000000
437.320560 6.000000
437.342930 50.000000
437.355320 19.000000
438.290310 6.000000
438.348270 23.000000
439.340420 11.000000
439.500310 6.000000
442.515470 6.000000
454.245090 5.000000
455.348300 180.000000
456.301330 5.000000
456.353610 28.000000
457.378940 6.000000
473.343080 5.000000
473.364500 6.000000
474.370450 23.000000
490.396030 6.000000
497.544860 8.000000
507.335480 6.000000
508.352290 14.000000
533.276180 7.000000
547.344910 6.000000
565.390560 11.000000
566.400390 6.000000
569.387510 9.000000
583.385990 8.000000
584.408750 17.000000
587.401730 6.000000
601.410710 31.000000
602.437130 5.000000
605.384030 5.000000
605.406010 12.000000
619.359560 5.000000
619.375310 9.000000
619.419860 122.000000
620.418030 84.000000
621.357600 7.000000
621.425780 9.000000
621.449340 5.000000
639.990420 6.000000
654.264040 7.000000
679.415040 10.000000
749.973330 6.000000
750.892700 5.000000
751.215150 6.000000
751.461550 1000.000000

>ms2peaks
60.177190 66.000000
60.361550 66.000000
69.015140 103.000000
71.013690 124.000000
83.055180 76.000000
85.030830 138.000000
85.531360 66.000000
93.071230 59.000000
95.081700 97.000000
96.047840 66.000000
97.029020 83.000000
100.766150 69.000000
105.066310 69.000000
107.083240 138.000000
109.096530 162.000000
109.102110 66.000000
109.487010 72.000000
111.042680 79.000000
111.079380 69.000000
111.086240 90.000000
112.080340 76.000000
113.971210 97.000000
115.037220 79.000000
120.093470 62.000000
120.975610 62.000000
121.100700 266.000000
122.104780 62.000000
127.097200 59.000000
129.049410 93.000000
129.056150 255.000000
135.044540 121.000000
135.113710 62.000000
139.033620 59.000000
139.111560 62.000000
141.054840 117.000000
145.101010 72.000000
145.108410 166.000000
147.030670 83.000000
147.059830 62.000000
147.070500 72.000000
147.112440 279.000000
147.121580 100.000000
148.951740 62.000000
149.134770 59.000000
150.137340 169.000000
151.041080 69.000000
153.079470 76.000000
153.087330 62.000000
159.112870 124.000000
159.122010 72.000000
161.132200 410.000000
163.142840 83.000000
163.149780 134.000000
164.150700 62.000000
166.138820 62.000000
169.051070 59.000000
173.117250 62.000000
173.130400 221.000000
175.136540 69.000000
177.159970 431.000000
181.166790 79.000000
185.126080 72.000000
187.144030 141.000000
188.145890 90.000000
189.162190 1000.000000
190.166660 186.000000
190.178150 72.000000
191.166890 59.000000
191.177410 234.000000
201.166560 676.000000
202.173660 203.000000
203.179000 521.000000
207.131180 72.000000
207.153990 69.000000
207.171810 148.000000
212.152100 72.000000
213.155120 76.000000
215.147890 103.000000
215.158450 83.000000
215.175190 141.000000
215.185170 128.000000
218.149200 76.000000
219.171140 72.000000
219.332860 86.000000
225.079180 62.000000
225.161880 69.000000
227.088560 90.000000
227.186360 62.000000
228.197110 86.000000
229.159580 69.000000
229.186840 97.000000
229.200410 90.000000
233.198580 62.000000
235.166260 69.000000
235.174000 86.000000
243.089130 69.000000
243.100080 107.000000
248.180420 66.000000
254.209410 59.000000
262.182890 59.000000
265.197200 107.000000
267.216520 72.000000
268.213590 62.000000
270.743870 59.000000
271.151400 59.000000
273.217770 69.000000
281.234280 72.000000
282.232850 62.000000
299.273350 59.000000
325.228730 69.000000
326.238740 66.000000
327.225430 72.000000
335.219510 62.000000
351.262330 62.000000
362.292080 110.000000
363.301610 97.000000
389.317660 69.000000
391.332760 266.000000
391.372130 72.000000
392.341060 145.000000
397.308930 93.000000
409.345400 66.000000
409.361850 59.000000
435.318940 86.000000
437.327150 66.000000
438.352940 83.000000
622.406190 83.000000

>ms2peaks
81.025030 20.000000
85.028880 14.000000
88.245250 15.000000
97.005100 15.000000
109.102370 39.000000
111.045010 14.000000
111.051550 14.000000
111.075160 19.000000
112.048550 15.000000
115.032330 22.000000
115.040420 73.000000
129.055190 34.000000
147.062480 70.000000
149.134320 38.000000
159.060390 18.000000
163.148620 14.000000
163.158800 16.000000
165.075260 14.000000
171.061800 15.000000
171.071030 18.000000
173.140410 16.000000
177.154680 20.000000
177.162960 25.000000
187.150190 35.000000
189.138320 15.000000
189.165990 53.000000
195.170550 14.000000
199.147170 23.000000
201.153520 14.000000
201.167470 48.000000
202.124100 16.000000
202.156200 16.000000
203.172550 30.000000
203.183620 15.000000
204.181470 20.000000
205.078700 14.000000
207.164580 16.000000
207.174420 17.000000
215.166870 18.000000
215.184230 34.000000
219.143600 14.000000
225.068150 47.000000
225.086090 39.000000
226.092470 14.000000
231.207310 20.000000
233.168460 16.000000
234.200330 16.000000
243.085080 34.000000
243.095540 21.000000
243.215840 27.000000
245.100570 22.000000
245.197660 25.000000
246.226040 16.000000
247.167860 20.000000
249.193210 17.000000
251.010210 22.000000
255.204180 32.000000
259.171840 14.000000
261.105530 18.000000
261.168210 25.000000
261.185270 16.000000
267.208560 14.000000
275.196660 21.000000
278.138700 16.000000
279.107850 223.000000
279.121550 76.000000
280.115300 34.000000
290.198150 16.000000
295.268130 15.000000
295.478150 14.000000
299.232970 16.000000
301.221560 16.000000
306.704990 25.000000
311.226440 14.000000
328.983550 15.000000
343.254700 18.000000
350.291290 24.000000
355.262420 14.000000
363.301180 25.000000
381.258090 14.000000
381.302090 25.000000
389.344760 20.000000
391.303990 22.000000
391.327300 53.000000
391.342620 20.000000
392.254970 15.000000
392.336820 20.000000
393.352570 20.000000
393.371460 14.000000
397.305480 67.000000
398.310820 15.000000
399.339140 20.000000
407.338710 32.000000
408.348940 14.000000
409.322720 15.000000
409.339450 46.000000
409.362790 18.000000
410.303160 16.000000
410.385070 19.000000
411.359800 17.000000
412.369170 50.000000
420.331510 16.000000
425.332340 54.000000
427.350460 14.000000
427.376130 18.000000
428.367860 34.000000
436.316650 16.000000
437.318150 70.000000
437.338500 269.000000
437.354770 247.000000
438.341770 233.000000
439.328340 14.000000
439.362850 14.000000
441.355220 17.000000
442.679720 16.000000
455.298800 15.000000
455.352170 539.000000
456.347560 232.000000
456.371430 71.000000
457.350490 48.000000
466.336090 14.000000
474.358610 31.000000
479.253540 15.000000
492.585300 18.000000
514.768070 20.000000
519.379270 16.000000
538.390380 16.000000
540.407900 16.000000
547.366030 16.000000
565.366760 15.000000
565.402470 24.000000
566.401920 24.000000
569.394170 14.000000
583.390870 20.000000
584.414120 16.000000
587.385990 14.000000
587.400760 14.000000
589.388000 20.000000
601.434450 18.000000
605.403200 52.000000
619.406310 106.000000
619.431270 182.000000
620.374760 29.000000
620.424320 109.000000
621.555790 16.000000
661.732120 20.000000
715.485350 29.000000
733.423710 14.000000
733.467470 16.000000
751.460750 1000.000000

>ms2peaks
116.041330 8.000000
261.098970 6.000000
279.091770 8.000000
279.108610 25.000000
280.093350 5.000000
280.123500 6.000000
381.277800 6.000000
382.737430 6.000000
396.220060 8.000000
437.331880 12.000000
437.361270 19.000000
439.341130 6.000000
455.335880 34.000000
455.354920 56.000000
456.360140 70.000000
457.351930 6.000000
464.427800 6.000000
473.352290 8.000000
473.367610 20.000000
496.944270 5.000000
564.161380 7.000000
565.368100 6.000000
565.410580 17.000000
566.404850 6.000000
567.391420 7.000000
584.412110 5.000000
587.380490 5.000000
588.374940 7.000000
601.387880 7.000000
601.413880 17.000000
602.360230 7.000000
602.424800 10.000000
603.101200 5.000000
603.414120 8.000000
605.352110 13.000000
605.395020 8.000000
605.415040 6.000000
606.423520 13.000000
619.279170 6.000000
619.395690 29.000000
619.420040 156.000000
620.417180 38.000000
620.459660 9.000000
621.409480 6.000000
621.447020 22.000000
654.434750 6.000000
685.863710 8.000000
715.457760 7.000000
734.443970 6.000000
744.878050 6.000000
746.686160 6.000000
751.290470 8.000000
751.370540 5.000000
751.462400 1000.000000

>ms2peaks
71.050330 18.000000
75.040410 21.000000
81.858230 21.000000
83.025580 28.000000
85.026560 44.000000
86.024260 20.000000
86.033650 21.000000
97.024100 20.000000
97.033050 71.000000
97.054890 18.000000
109.099960 23.000000
110.371130 17.000000
111.042680 26.000000
111.079570 20.000000
112.080890 32.000000
115.038960 238.000000
121.063970 22.000000
123.070610 33.000000
125.817740 17.000000
127.048740 21.000000
129.052690 201.000000
129.062120 44.000000
133.044400 36.000000
133.052610 34.000000
133.059740 22.000000
139.110570 59.000000
145.093890 21.000000
147.055160 24.000000
147.063640 77.000000
147.069020 61.000000
147.077120 35.000000
147.554380 19.000000
149.124360 21.000000
149.134800 39.000000
150.149050 35.000000
150.399250 17.000000
159.073170 17.000000
160.681380 40.000000
163.151050 25.000000
165.072370 22.000000
165.134800 27.000000
165.164440 25.000000
166.080930 20.000000
166.094190 17.000000
171.062390 17.000000
175.067890 17.000000
175.143540 21.000000
175.151780 17.000000
177.154710 68.000000
177.165880 45.000000
178.172300 26.000000
184.089100 17.000000
185.139760 20.000000
189.153400 18.000000
189.165040 138.000000
194.160800 29.000000
199.132580 22.000000
201.151950 27.000000
201.160610 20.000000
201.170550 27.000000
201.181500 27.000000
202.082980 17.000000
202.166900 31.000000
203.169280 25.000000
203.184400 80.000000
204.168260 39.000000
204.179140 43.000000
207.164310 17.000000
207.182040 92.000000
213.066560 44.000000
215.169010 24.000000
215.174470 58.000000
216.194380 36.000000
217.201430 20.000000
219.168750 48.000000
221.189930 21.000000
225.079120 133.000000
225.088120 43.000000
226.071460 26.000000
226.086170 26.000000
227.181140 20.000000
231.070540 23.000000
231.081920 31.000000
231.161740 20.000000
235.177050 35.000000
236.156270 27.000000
243.077060 49.000000
243.089260 21.000000
243.145720 18.000000
243.210400 21.000000
243.221240 25.000000
244.223190 17.000000
247.164080 20.000000
247.180480 33.000000
247.215970 21.000000
248.179700 32.000000
249.175830 17.000000
249.190260 37.000000
256.205540 30.000000
259.168030 17.000000
261.089810 40.000000
261.178280 23.000000
261.227910 31.000000
275.195280 21.000000
279.094970 24.000000
279.113370 62.000000
279.125890 17.000000
280.097290 20.000000
287.755000 25.000000
293.206510 17.000000
296.234770 17.000000
297.226170 18.000000
298.273710 41.000000
303.189610 21.000000
313.232670 35.000000
314.342100 19.000000
315.230500 21.000000
329.243260 18.000000
330.254640 46.000000
343.273130 61.000000
344.280730 28.000000
345.258970 24.000000
355.238830 17.000000
355.253080 18.000000
355.280980 23.000000
357.254970 20.000000
361.187710 19.000000
391.331330 154.000000
391.352420 27.000000
392.344120 34.000000
397.311430 26.000000
398.319240 40.000000
409.324490 98.000000
409.351070 236.000000
410.271300 24.000000
410.318510 25.000000
410.338290 92.000000
410.354000 23.000000
411.355960 17.000000
425.339750 82.000000
425.371550 21.000000
426.324770 45.000000
426.345760 52.000000
427.349880 17.000000
427.368440 27.000000
435.301300 24.000000
437.341520 1000.000000
437.364350 165.000000
437.384980 20.000000
438.342590 212.000000
438.362850 91.000000
439.319310 19.000000
439.345340 21.000000
439.379210 17.000000
440.364990 18.000000
443.317320 22.000000
455.337980 215.000000
455.354430 170.000000
455.370700 155.000000
456.347960 38.000000
456.357760 108.000000
457.345860 29.000000
457.363800 33.000000
458.349730 17.000000
467.351470 23.000000
479.344420 23.000000
538.411010 17.000000
551.374570 23.000000
555.369750 17.000000
583.401980 75.000000
584.400700 20.000000
587.358760 21.000000
751.476500 17.000000

>ms2peaks
56.053400 113.000000
67.057300 102.000000
69.067950 69.000000
71.050500 287.000000
72.049970 73.000000
73.029160 153.000000
75.040660 138.000000
79.296290 109.000000
81.074520 73.000000
83.044150 80.000000
83.053380 84.000000
85.027440 487.000000
93.067260 62.000000
95.045370 76.000000
95.077690 87.000000
95.083240 65.000000
95.089830 65.000000
97.023120 98.000000
103.037700 135.000000
107.077260 65.000000
109.063140 65.000000
109.101440 255.000000
110.100940 65.000000
111.042150 164.000000
111.075100 62.000000
111.083530 145.000000
112.989780 69.000000
113.063270 105.000000
115.035420 498.000000
115.042110 193.000000
119.075390 80.000000
119.084160 76.000000
119.090780 76.000000
121.102940 207.000000
123.042390 73.000000
123.047490 65.000000
123.088300 65.000000
123.110060 149.000000
125.058110 73.000000
127.042020 62.000000
129.054030 262.000000
133.045810 87.000000
133.088670 65.000000
133.095830 298.000000
133.106260 269.000000
134.102920 135.000000
134.112340 69.000000
135.106740 87.000000
135.114180 73.000000
139.036710 76.000000
139.106480 84.000000
145.100070 247.000000
145.109160 138.000000
147.116490 171.000000
147.122800 98.000000
149.124210 153.000000
149.132340 69.000000
151.069790 84.000000
153.096920 69.000000
157.046390 62.000000
157.097990 73.000000
159.109270 65.000000
159.117580 62.000000
161.129550 327.000000
163.142140 345.000000
164.154100 98.000000
165.124470 135.000000
166.056990 178.000000
169.100280 87.000000
171.050350 65.000000
173.129750 196.000000
175.147140 95.000000
175.155300 105.000000
176.150730 84.000000
177.150160 87.000000
177.161300 695.000000
177.177090 127.000000
177.279600 62.000000
177.357850 65.000000
178.168720 138.000000
187.142590 62.000000
187.155490 305.000000
189.155900 313.000000
189.164780 665.000000
191.178470 69.000000
199.134890 91.000000
200.157420 62.000000
201.157260 120.000000
201.163270 316.000000
201.171430 218.000000
202.165440 95.000000
203.142410 65.000000
203.182360 1000.000000
203.194270 135.000000
204.175130 69.000000
204.188980 164.000000
205.158080 65.000000
213.069370 73.000000
213.157500 113.000000
213.166730 76.000000
215.167110 127.000000
215.179550 62.000000
216.180020 76.000000
217.193310 138.000000
221.189740 73.000000
225.079390 153.000000
225.153200 62.000000
225.166150 76.000000
227.182140 105.000000
231.180250 84.000000
233.193980 84.000000
236.182080 62.000000
240.188130 73.000000
241.193050 84.000000
241.202450 65.000000
242.204040 84.000000
247.163700 65.000000
259.179780 62.000000
265.365940 65.000000
267.200320 98.000000
269.214360 73.000000
269.224030 62.000000
271.164640 73.000000
282.231290 80.000000
283.244320 102.000000
284.255710 62.000000
293.223020 69.000000
293.664580 69.000000
297.270140 160.000000
309.202210 65.000000
310.248840 91.000000
325.264800 98.000000
341.229100 80.000000
341.251040 76.000000
349.304020 113.000000
351.311040 91.000000
353.282040 80.000000
391.319460 62.000000
391.336520 120.000000
392.340270 164.000000
395.288700 87.000000
397.313260 76.000000
409.333530 138.000000
437.302760 80.000000
438.354160 84.000000
439.345760 156.000000

