>compound PR95565569
>parentmass 378.2638851000001
>ionization [M+H]+
>formula C22H35NO4
>rt 173.353020
>profile qtof
#smiles_iso CCN1C[C@@]2(CC[C@@H]([C@@]34[C@@H]2C[C@@H](C31)[C@]5(C[C@@H]([C@H]6C[C@@H]4[C@@H]5[C@H]6O)OC)O)O)C
#smiles_can CCN1CC2(CCC(C34C2CC(C31)C5(CC(C6CC4C5C6O)OC)O)O)C
#inchikey HKQZUYOVMYOFIT-VHNBHZRZSA-N
#pubchem_id 441742
#mb_accession PR301137,PR301141,PR301145,PR301149,PR301153,PR301157,PR301161,PR301165,PR301169,PR301173,PR301177,PR301181

>ms2peaks
124.110020 6.000000
328.227200 14.000000
342.235990 7.000000
342.248900 6.000000
360.254120 144.000000
361.258360 41.000000
362.262300 6.000000
378.264740 1000.000000
378.320950 27.000000

>ms2peaks
378.264100 1000.000000
378.320980 30.000000

>ms2peaks
98.093770 11.000000
98.100340 9.000000
103.041400 5.000000
110.096370 8.000000
110.103710 5.000000
124.110770 14.000000
137.060780 7.000000
143.085080 6.000000
145.098980 7.000000
157.107540 7.000000
183.117370 6.000000
185.134020 9.000000
195.118420 5.000000
199.151520 6.000000
209.130710 6.000000
227.142400 13.000000
235.151780 6.000000
259.172490 7.000000
267.176360 8.000000
310.215820 15.000000
328.224700 40.000000
329.237790 7.000000
332.228610 8.000000
342.233700 13.000000
342.246550 51.000000
343.234410 7.000000
343.248440 7.000000
360.213990 9.000000
360.253510 613.000000
361.247740 62.000000
361.260500 146.000000
362.259520 19.000000
362.271880 6.000000
378.212770 7.000000
378.225100 6.000000
378.264400 1000.000000
378.325260 5.000000

>ms2peaks
52.723030 34.000000
55.043400 20.000000
55.052540 20.000000
55.061000 26.000000
56.047740 28.000000
56.055150 34.000000
58.067040 302.000000
59.070570 26.000000
61.027670 108.000000
64.971550 30.000000
65.040960 20.000000
65.632970 36.000000
67.051320 77.000000
67.056950 122.000000
68.062870 23.000000
68.924000 20.000000
69.002080 23.000000
69.037380 47.000000
69.076540 21.000000
71.043520 44.000000
71.053460 24.000000
72.019200 22.000000
72.029590 20.000000
72.081840 263.000000
77.035170 20.000000
79.039410 70.000000
79.048300 43.000000
79.056220 282.000000
80.006110 62.000000
81.070920 345.000000
81.192270 21.000000
81.232370 24.000000
82.064360 119.000000
84.077860 71.000000
84.083880 86.000000
85.033040 48.000000
85.064540 20.000000
85.085140 23.000000
85.090780 35.000000
86.096760 65.000000
86.103810 28.000000
89.892100 38.000000
90.181880 20.000000
91.040760 20.000000
91.046740 64.000000
91.055310 528.000000
91.085750 28.000000
92.064800 26.000000
92.367410 28.000000
92.578000 20.000000
93.070560 599.000000
94.043620 23.000000
94.066700 30.000000
95.041440 42.000000
95.049050 49.000000
95.065610 45.000000
95.071940 23.000000
95.085750 152.000000
95.092640 49.000000
96.081320 93.000000
96.087590 57.000000
96.093470 21.000000
98.096750 691.000000
101.056190 28.000000
103.033920 21.000000
103.040600 70.000000
104.064580 31.000000
105.032480 34.000000
105.050540 20.000000
105.058050 48.000000
105.071830 1000.000000
106.076890 94.000000
106.580760 20.000000
107.042560 45.000000
107.048380 86.000000
107.056880 58.000000
107.079640 71.000000
107.087150 166.000000
107.091320 69.000000
108.073230 34.000000
108.086440 61.000000
109.067760 37.000000
109.097260 31.000000
109.108890 56.000000
110.069230 24.000000
110.078790 28.000000
110.097120 724.000000
110.299100 20.000000
111.097720 108.000000
111.106060 70.000000
112.109490 31.000000
115.054760 105.000000
116.060810 43.000000
117.057920 55.000000
117.069040 538.000000
118.068640 26.000000
118.074280 28.000000
119.044590 20.000000
119.054010 93.000000
119.085700 234.000000
120.082930 22.000000
120.090610 75.000000
121.063940 84.000000
121.069270 64.000000
121.089630 23.000000
122.084400 40.000000
122.096150 347.000000
123.045750 252.000000
123.084000 27.000000
124.047870 23.000000
124.111660 524.000000
124.119480 155.000000
124.488750 26.000000
125.107620 26.000000
125.116600 76.000000
125.123770 20.000000
126.092750 28.000000
126.125600 90.000000
126.133770 29.000000
126.312340 20.000000
127.044120 27.000000
127.062870 29.000000
127.126750 43.000000
127.797430 30.000000
128.059680 291.000000
128.068850 57.000000
128.109860 23.000000
129.070420 603.000000
129.107770 22.000000
130.072490 100.000000
130.081250 125.000000
130.151700 38.000000
130.174190 29.000000
130.193710 27.000000
131.052690 75.000000
131.082960 443.000000
131.091890 172.000000
132.032810 23.000000
132.083760 54.000000
132.090880 40.000000
132.095790 21.000000
133.067230 24.000000
133.100370 280.000000
134.093840 52.000000
134.114270 27.000000
135.080580 117.000000
135.109340 61.000000
135.120560 155.000000
136.081620 79.000000
136.109340 50.000000
137.052630 24.000000
137.103640 24.000000
137.128080 23.000000
138.060200 50.000000
138.065170 22.000000
140.067000 28.000000
141.058000 26.000000
141.070080 304.000000
142.060970 22.000000
142.078690 186.000000
143.065080 20.000000
143.086090 798.000000
144.056930 43.000000
144.072190 24.000000
144.077790 22.000000
144.089370 51.000000
144.097060 69.000000
145.062580 118.000000
145.081590 20.000000
145.087480 26.000000
145.104220 618.000000
146.080800 31.000000
146.095640 24.000000
146.102130 86.000000
147.074330 113.000000
147.112290 20.000000
147.119420 49.000000
148.121490 134.000000
149.093110 23.000000
149.115200 71.000000
150.119640 23.000000
150.127410 31.000000
151.069960 52.000000
152.063460 96.000000
152.164980 21.000000
153.068210 89.000000
154.079880 161.000000
154.222370 27.000000
155.072330 45.000000
155.081760 110.000000
155.089190 534.000000
156.088610 112.000000
156.099460 76.000000
157.012160 20.000000
157.069840 29.000000
157.098430 227.000000
157.106640 220.000000
157.173840 22.000000
158.102890 79.000000
158.109100 20.000000
158.125050 24.000000
159.072850 22.000000
159.103040 21.000000
159.116260 311.000000
160.085210 61.000000
160.118790 139.000000
160.141680 23.000000
160.531750 24.000000
161.093430 28.000000
161.131030 75.000000
161.139980 55.000000
161.398700 26.000000
162.002460 20.000000
162.129320 361.000000
163.118770 23.000000
163.132490 27.000000
163.148970 55.000000
164.141950 56.000000
164.150330 30.000000
165.048320 23.000000
165.062650 98.000000
165.071440 205.000000
166.064440 43.000000
166.077840 121.000000
167.039900 47.000000
167.086060 458.000000
168.090790 107.000000
168.098360 41.000000
168.955030 28.000000
169.028760 33.000000
169.086880 20.000000
169.100220 245.000000
169.113420 34.000000
170.022080 24.000000
170.076050 21.000000
170.098140 33.000000
170.108930 99.000000
171.077160 28.000000
171.116230 191.000000
171.165910 20.000000
172.081470 30.000000
172.110180 72.000000
173.084760 27.000000
173.101430 47.000000
173.122510 36.000000
173.133990 96.000000
175.085850 20.000000
175.116240 48.000000
175.143940 29.000000
176.149700 24.000000
176.556500 22.000000
177.143570 33.000000
177.149990 23.000000
178.075290 108.000000
178.970320 34.000000
179.076390 34.000000
179.089870 212.000000
180.092380 197.000000
181.057450 23.000000
181.093090 23.000000
181.104420 217.000000
181.116560 40.000000
182.069340 20.000000
182.111270 209.000000
183.082350 101.000000
183.114470 228.000000
183.123780 191.000000
183.935300 42.000000
184.083860 52.000000
184.118330 55.000000
184.126850 58.000000
185.073970 21.000000
185.089650 54.000000
185.098630 96.000000
185.134200 147.000000
185.253050 23.000000
186.120900 54.000000
186.136610 113.000000
187.122860 45.000000
187.133260 23.000000
188.144700 50.000000
189.128270 21.000000
189.149830 20.000000
189.160720 69.000000
190.113490 24.000000
190.153180 20.000000
191.090070 120.000000
191.159790 24.000000
191.171690 49.000000
192.093050 115.000000
192.170410 28.000000
193.093990 69.000000
193.101680 218.000000
193.138920 20.000000
194.069870 28.000000
194.101990 52.000000
194.112700 24.000000
195.091800 24.000000
195.116640 195.000000
196.098570 35.000000
196.121870 35.000000
197.095930 78.000000
197.116870 31.000000
197.132030 172.000000
197.147080 79.000000
198.104740 26.000000
198.130950 21.000000
199.100650 51.000000
199.114410 69.000000
199.145690 77.000000
199.155560 114.000000
200.134490 17.000000
200.146070 73.000000
201.126680 49.000000
202.076770 23.000000
202.133380 29.000000
202.161100 45.000000
203.081600 28.000000
203.093320 47.000000
203.163210 23.000000
204.084550 49.000000
204.096450 22.000000
204.107710 52.000000
205.096420 124.000000
206.095140 17.000000
206.103700 41.000000
206.159710 29.000000
207.116260 240.000000
208.115110 20.000000
208.125370 65.000000
209.093690 48.000000
209.122500 56.000000
209.138180 55.000000
210.132550 91.000000
211.106830 20.000000
211.122190 52.000000
211.142010 34.000000
212.122240 29.000000
212.130260 23.000000
213.167720 29.000000
213.456120 20.000000
214.099790 20.000000
214.154070 91.000000
215.079700 24.000000
215.148030 42.000000
216.101360 26.000000
216.173690 24.000000
217.101070 49.000000
217.110120 26.000000
217.131390 34.000000
218.106480 28.000000
219.117950 23.000000
220.119450 44.000000
220.153180 27.000000
221.140260 58.000000
222.107410 31.000000
223.107930 42.000000
223.160310 44.000000
224.109570 23.000000
224.149120 23.000000
224.174650 48.000000
225.155350 22.000000
225.170490 20.000000
226.104740 20.000000
226.132580 20.000000
227.121250 20.000000
227.142640 164.000000
227.158450 20.000000
227.182880 26.000000
228.090590 20.000000
228.142820 28.000000
228.162450 26.000000
228.178100 35.000000
230.114870 23.000000
232.121150 23.000000
234.119430 35.000000
237.158720 47.000000
237.171520 21.000000
238.154800 37.000000
238.162960 20.000000
239.134460 29.000000
239.177570 59.000000
240.147130 22.000000
242.180480 20.000000
242.192120 48.000000
244.168690 20.000000
245.163220 24.000000
245.173720 22.000000
246.187130 35.000000
248.202650 35.000000
249.126600 36.000000
249.162800 28.000000
253.143140 28.000000
253.157940 22.000000
254.156720 23.000000
254.188200 42.000000
254.199980 21.000000
256.178500 41.000000
257.138890 20.000000
259.160860 22.000000
259.174260 20.000000
263.171080 21.000000
263.189540 24.000000
266.158910 24.000000
267.153750 28.000000
267.188900 28.000000
268.165680 24.000000
269.160890 20.000000
269.180940 29.000000
270.148930 24.000000
270.183590 34.000000
271.182340 20.000000
272.200740 44.000000
272.241180 22.000000
281.190310 23.000000
282.192540 23.000000
283.178380 59.000000
283.195620 28.000000
285.178500 29.000000
285.478730 26.000000
286.183870 20.000000
288.260860 23.000000
290.251800 20.000000
294.235720 20.000000
297.184140 29.000000
298.226590 64.000000
300.202210 21.000000
300.221370 115.000000
301.222200 21.000000
305.242400 29.000000
306.813780 44.000000
308.181090 27.000000
308.202420 28.000000
310.213710 56.000000
311.220370 22.000000
312.226260 44.000000
315.214600 20.000000
318.198000 21.000000
323.129090 23.000000
324.065730 42.000000
328.056120 28.000000
328.195500 75.000000
328.217860 111.000000
328.238980 152.000000
329.237370 29.000000
330.233430 20.000000
332.204470 20.000000
332.216980 71.000000
332.229610 96.000000
332.241670 21.000000
342.231230 24.000000
342.252530 94.000000
343.243650 24.000000
351.569030 30.000000
358.248750 21.000000
360.184970 20.000000
360.253850 847.000000
361.079410 45.000000
361.251770 120.000000
361.277470 23.000000
361.891630 20.000000
362.254910 23.000000
362.269560 68.000000
378.248230 23.000000
378.272610 62.000000

>ms2peaks
328.228030 9.000000
342.244380 6.000000
360.254240 155.000000
361.255950 42.000000
362.257840 7.000000
378.264040 1000.000000
378.319000 27.000000

>ms2peaks
378.202850 6.000000
378.263920 1000.000000
378.319370 31.000000

>ms2peaks
95.086480 5.000000
98.097680 29.000000
110.096150 11.000000
124.112050 19.000000
143.084990 7.000000
145.102280 6.000000
157.094730 8.000000
173.131150 7.000000
183.120610 5.000000
185.132680 6.000000
195.118670 7.000000
197.130780 6.000000
209.133560 7.000000
227.142200 13.000000
235.149310 7.000000
253.164520 5.000000
267.179320 5.000000
281.190830 6.000000
310.219020 16.000000
311.223720 5.000000
328.228390 44.000000
329.226990 16.000000
332.218380 12.000000
332.230990 5.000000
342.243560 49.000000
343.247310 18.000000
360.199800 12.000000
360.253420 696.000000
361.257230 200.000000
362.260620 26.000000
378.214200 10.000000
378.263120 1000.000000
378.324340 8.000000

>ms2peaks
54.030850 21.000000
58.062550 45.000000
58.067560 118.000000
59.070380 21.000000
61.031230 80.000000
62.036210 25.000000
67.053920 200.000000
68.057080 82.000000
68.997080 25.000000
69.035420 20.000000
69.051270 25.000000
69.059750 56.000000
69.069830 23.000000
69.074960 27.000000
70.061530 23.000000
71.011100 62.000000
71.042880 19.000000
71.051590 39.000000
72.075550 54.000000
72.081020 242.000000
72.089370 39.000000
73.085610 62.000000
76.769770 30.000000
77.038540 45.000000
79.050030 74.000000
79.056070 317.000000
81.034420 25.000000
81.060550 46.000000
81.071590 414.000000
82.067300 169.000000
84.059310 25.000000
84.081440 373.000000
84.168240 23.000000
85.029720 23.000000
85.066510 44.000000
85.079350 19.000000
85.084740 27.000000
85.089720 51.000000
86.095440 59.000000
86.101580 23.000000
88.071500 23.000000
89.017580 21.000000
91.042430 19.000000
91.055690 668.000000
91.242720 26.000000
92.058570 38.000000
92.065610 26.000000
92.940170 19.000000
92.987150 51.000000
93.045400 20.000000
93.060610 21.000000
93.070060 423.000000
93.075360 185.000000
94.074130 22.000000
95.042270 33.000000
95.053140 33.000000
95.075760 61.000000
95.084560 183.000000
95.344520 19.000000
96.079320 174.000000
96.091120 42.000000
97.062480 24.000000
98.040510 19.000000
98.080800 57.000000
98.098260 678.000000
99.100270 65.000000
100.100080 37.000000
101.057890 19.000000
101.066240 21.000000
103.040040 141.000000
103.056640 76.000000
104.065350 30.000000
105.034660 47.000000
105.055730 50.000000
105.070300 885.000000
106.044400 27.000000
106.071560 85.000000
106.848790 22.000000
107.047490 279.000000
107.084910 396.000000
108.057820 22.000000
108.078970 84.000000
108.086220 119.000000
108.096560 22.000000
109.064310 162.000000
109.070170 44.000000
109.085670 19.000000
109.090570 46.000000
109.103810 26.000000
110.023570 30.000000
110.095450 921.000000
110.105900 62.000000
111.041670 68.000000
111.077770 22.000000
111.083890 30.000000
111.099390 21.000000
111.106890 128.000000
111.916760 30.000000
112.044000 34.000000
112.085170 24.000000
112.106860 71.000000
115.048430 19.000000
116.065680 142.000000
117.045670 19.000000
117.052180 23.000000
117.070210 434.000000
117.411070 24.000000
118.075700 58.000000
118.579700 20.000000
119.045750 56.000000
119.051080 146.000000
119.075620 22.000000
119.087200 403.000000
119.735220 19.000000
120.042180 22.000000
120.080280 21.000000
120.083860 39.000000
121.067480 183.000000
121.100180 27.000000
122.094200 244.000000
122.100570 275.000000
122.110000 33.000000
122.885060 23.000000
123.012800 28.000000
123.043400 129.000000
123.052010 88.000000
123.074100 37.000000
123.082670 101.000000
123.097470 20.000000
123.107730 46.000000
123.114010 27.000000
124.096920 27.000000
124.113140 956.000000
125.060420 22.000000
125.105730 21.000000
125.111820 22.000000
125.121210 48.000000
125.326970 22.000000
126.065760 19.000000
126.122890 82.000000
126.132040 45.000000
127.053460 31.000000
127.129700 22.000000
127.344250 22.000000
128.053510 20.000000
128.063610 289.000000
128.647630 19.000000
129.069400 526.000000
130.077300 215.000000
131.049010 24.000000
131.085980 682.000000
132.019930 20.000000
132.088590 87.000000
132.096020 23.000000
133.048450 20.000000
133.069320 47.000000
133.101360 447.000000
133.109120 118.000000
134.099120 159.000000
135.040040 46.000000
135.077420 70.000000
135.083740 47.000000
135.108370 169.000000
135.114290 55.000000
135.123500 27.000000
136.086760 71.000000
136.097720 27.000000
136.108600 26.000000
136.117430 24.000000
137.047360 19.000000
137.059310 164.000000
138.067280 22.000000
138.131000 65.000000
139.139370 19.000000
140.113130 30.000000
141.071780 579.000000
142.066390 23.000000
142.075790 172.000000
142.082600 120.000000
143.085430 1000.000000
143.473110 20.000000
144.077300 21.000000
144.086330 42.000000
144.092820 179.000000
145.059480 74.000000
145.067140 173.000000
145.100620 436.000000
145.108280 97.000000
146.085240 23.000000
146.103850 55.000000
146.110550 20.000000
147.069340 22.000000
147.103840 28.000000
147.114210 174.000000
147.133440 20.000000
148.116880 44.000000
148.125000 50.000000
149.086360 38.000000
149.131700 61.000000
150.129550 110.000000
151.077900 26.000000
153.053010 47.000000
153.071260 145.000000
154.064680 27.000000
154.078290 152.000000
154.102340 23.000000
154.118160 31.000000
155.084410 301.000000
155.091980 206.000000
156.086780 20.000000
156.097460 80.000000
156.234540 35.000000
156.266430 31.000000
157.070820 19.000000
157.093600 82.000000
157.102260 563.000000
157.447850 19.000000
158.091170 23.000000
158.103350 96.000000
159.066330 20.000000
159.079070 72.000000
159.100300 58.000000
159.120190 274.000000
159.565580 34.000000
160.096500 30.000000
160.108670 160.000000
160.117720 60.000000
160.128110 22.000000
161.055110 24.000000
161.070630 21.000000
161.109860 26.000000
161.117600 44.000000
161.131680 76.000000
162.089570 27.000000
162.102480 22.000000
162.119220 136.000000
162.130540 111.000000
163.076890 22.000000
163.088640 26.000000
163.111820 22.000000
163.136830 35.000000
164.653660 21.000000
165.017120 27.000000
165.067580 278.000000
165.076140 234.000000
165.463840 20.000000
166.076290 171.000000
166.126460 20.000000
167.086500 266.000000
168.095230 222.000000
168.103640 46.000000
169.059510 19.000000
169.078220 19.000000
169.100810 356.000000
169.112590 38.000000
169.653530 19.000000
170.106950 174.000000
171.068940 19.000000
171.084850 21.000000
171.114670 204.000000
171.449310 19.000000
172.076770 21.000000
172.093510 20.000000
172.108510 82.000000
173.060490 26.000000
173.095760 118.000000
173.133740 82.000000
174.125980 48.000000
175.059620 27.000000
175.067840 26.000000
175.136080 25.000000
175.148540 64.000000
176.072170 24.000000
176.144350 22.000000
176.431900 43.000000
177.162200 39.000000
178.076250 234.000000
178.088030 23.000000
178.114380 30.000000
178.602950 23.000000
179.082700 444.000000
179.109240 23.000000
179.577610 33.000000
180.088820 67.000000
180.103440 46.000000
181.065260 21.000000
181.092240 70.000000
181.105830 297.000000
182.103070 24.000000
182.112140 102.000000
182.823330 21.000000
183.080670 23.000000
183.104770 42.000000
183.115770 338.000000
184.120480 62.000000
185.087890 23.000000
185.101150 100.000000
185.129560 105.000000
185.151790 19.000000
186.115780 20.000000
186.468520 19.000000
187.133290 20.000000
188.114360 20.000000
188.140660 66.000000
188.149400 25.000000
189.150380 24.000000
190.081950 32.000000
190.149460 104.000000
190.159450 60.000000
191.034040 22.000000
191.084930 65.000000
191.100420 47.000000
191.164660 57.000000
191.450030 19.000000
192.095860 157.000000
192.178050 23.000000
193.097400 156.000000
193.108470 89.000000
193.163740 19.000000
194.097690 19.000000
194.109970 123.000000
194.149060 31.000000
195.058900 23.000000
195.073870 32.000000
195.102450 51.000000
195.116960 211.000000
196.117920 73.000000
196.129620 51.000000
197.097030 30.000000
197.116640 89.000000
197.135910 116.000000
197.191530 37.000000
198.104060 24.000000
198.131580 38.000000
198.141880 26.000000
199.146470 180.000000
202.068940 26.000000
202.130020 41.000000
202.161540 33.000000
202.276350 20.000000
203.076460 38.000000
203.089940 69.000000
203.115950 31.000000
204.092240 43.000000
204.130540 19.000000
205.105360 117.000000
205.161090 21.000000
206.112340 46.000000
207.113770 65.000000
207.129580 27.000000
208.121000 85.000000
209.104420 25.000000
209.120250 49.000000
209.128750 56.000000
210.091540 20.000000
210.126650 45.000000
211.107910 26.000000
211.131200 24.000000
211.149580 79.000000
212.142270 23.000000
213.118190 30.000000
213.126660 19.000000
213.153670 21.000000
214.122990 25.000000
214.156660 48.000000
214.165220 24.000000
215.163220 19.000000
216.145720 20.000000
217.071730 22.000000
217.101390 141.000000
217.113710 28.000000
217.135640 20.000000
218.096590 41.000000
218.109070 200.000000
218.157100 22.000000
219.112900 23.000000
219.123950 48.000000
219.572810 20.000000
219.705550 26.000000
220.122630 35.000000
220.133150 24.000000
222.105870 39.000000
222.133760 27.000000
222.144990 59.000000
223.150250 97.000000
223.163220 25.000000
224.152950 35.000000
224.467030 19.000000
225.120470 23.000000
225.129680 70.000000
225.171260 37.000000
226.168560 19.000000
227.137570 114.000000
227.152020 55.000000
227.163620 25.000000
228.150180 26.000000
228.170120 19.000000
231.111470 26.000000
232.117520 39.000000
235.150420 23.000000
236.831310 24.000000
237.115050 22.000000
237.133820 27.000000
237.174130 33.000000
238.136830 47.000000
241.038130 21.000000
241.142700 19.000000
241.187500 22.000000
243.176010 26.000000
243.202260 20.000000
244.157460 25.000000
244.165760 45.000000
245.151580 43.000000
246.158000 31.000000
247.147340 22.000000
250.177090 33.000000
252.165070 19.000000
253.533940 23.000000
255.209120 22.000000
256.161290 24.000000
256.197480 32.000000
258.194030 26.000000
258.223630 26.000000
259.150630 61.000000
259.159360 24.000000
259.355190 20.000000
259.453190 22.000000
260.172420 19.000000
264.174710 19.000000
264.187870 21.000000
264.630220 28.000000
265.159940 21.000000
266.162140 26.000000
270.235320 21.000000
271.201780 21.000000
272.170440 26.000000
272.197450 20.000000
272.213470 26.000000
277.181640 19.000000
278.722960 23.000000
279.181880 30.000000
280.215180 19.000000
282.204590 26.000000
283.234590 56.000000
284.195710 25.000000
285.185150 26.000000
286.168580 27.000000
287.169920 21.000000
287.919590 19.000000
289.619750 53.000000
292.201720 25.000000
295.214900 28.000000
296.200200 21.000000
296.211430 24.000000
297.194400 21.000000
298.216490 24.000000
299.225100 23.000000
300.190370 23.000000
300.232540 102.000000
304.215420 49.000000
304.233830 23.000000
310.201750 49.000000
310.223510 187.000000
311.212860 20.000000
314.251340 19.000000
315.204410 26.000000
315.217040 24.000000
316.211640 24.000000
324.235810 19.000000
328.225920 406.000000
329.235720 23.000000
329.715760 19.000000
330.175990 22.000000
330.207610 24.000000
330.238040 26.000000
331.207860 24.000000
332.220830 134.000000
333.225310 22.000000
342.243010 88.000000
342.264890 32.000000
343.238980 58.000000
344.214450 20.000000
352.578060 22.000000
357.250030 21.000000
360.226230 19.000000
360.254850 698.000000
361.251830 225.000000
362.257690 20.000000
362.271730 42.000000
363.675450 22.000000
369.701810 19.000000
378.240940 19.000000
378.259370 131.000000
378.271090 171.000000

>ms2peaks
124.111310 5.000000
328.225280 12.000000
342.238340 6.000000
360.252380 144.000000
361.253690 36.000000
378.263610 1000.000000
378.319090 28.000000

>ms2peaks
378.264070 1000.000000
378.320010 30.000000

>ms2peaks
58.064910 11.000000
98.096980 21.000000
105.073840 5.000000
110.094990 11.000000
124.112110 21.000000
126.127370 8.000000
137.060010 7.000000
157.104420 7.000000
159.118150 7.000000
183.116290 7.000000
185.132030 6.000000
193.099000 5.000000
199.148040 7.000000
209.134630 7.000000
227.145940 14.000000
259.167790 7.000000
265.160830 7.000000
267.177490 6.000000
300.228090 7.000000
310.213810 11.000000
328.226680 36.000000
329.231200 9.000000
329.244140 6.000000
332.217860 10.000000
332.233030 10.000000
342.241180 54.000000
343.245910 14.000000
360.252870 676.000000
361.256560 168.000000
362.255220 23.000000
362.269470 9.000000
378.263670 1000.000000
378.320710 8.000000

>ms2peaks
55.016460 23.000000
55.055530 18.000000
56.049830 21.000000
58.049860 29.000000
58.056660 19.000000
58.065920 157.000000
61.025150 28.000000
61.031190 78.000000
62.030360 31.000000
67.056220 393.000000
68.491170 29.000000
69.037610 25.000000
70.065620 19.000000
70.908450 16.000000
71.013510 52.000000
71.046960 56.000000
71.052290 97.000000
71.639140 24.000000
72.081790 227.000000
73.029770 18.000000
73.413060 17.000000
74.083620 26.000000
77.035010 16.000000
77.039150 67.000000
79.056860 219.000000
79.065090 31.000000
80.052050 20.000000
80.059740 18.000000
81.053520 34.000000
81.063060 35.000000
81.071990 256.000000
82.064870 161.000000
82.075850 17.000000
83.050940 20.000000
83.068040 19.000000
84.038960 34.000000
84.053320 25.000000
84.074570 21.000000
84.081370 173.000000
85.028310 73.000000
85.090640 26.000000
86.093970 22.000000
86.098480 27.000000
87.046070 19.000000
91.026990 18.000000
91.053370 643.000000
91.057860 194.000000
92.058180 43.000000
92.062590 83.000000
92.603840 17.000000
93.033090 18.000000
93.040990 20.000000
93.066270 127.000000
93.070400 439.000000
94.053760 17.000000
94.066670 17.000000
94.075490 49.000000
95.044980 53.000000
95.049180 43.000000
95.054610 16.000000
95.074530 20.000000
95.085850 207.000000
95.089550 95.000000
96.051310 39.000000
96.076940 47.000000
96.081880 52.000000
96.091960 31.000000
97.066670 20.000000
97.081010 21.000000
98.094670 388.000000
98.099590 396.000000
99.095040 21.000000
99.105290 64.000000
99.930160 19.000000
103.038340 16.000000
103.057140 36.000000
104.330110 16.000000
105.070430 563.000000
105.078200 60.000000
106.069370 42.000000
106.190140 34.000000
107.040670 27.000000
107.049840 78.000000
107.085710 407.000000
107.295720 16.000000
108.049640 18.000000
108.079250 62.000000
108.083720 20.000000
109.066020 43.000000
109.086350 43.000000
109.095210 27.000000
110.038990 21.000000
110.075560 28.000000
110.097090 629.000000
110.106190 53.000000
110.418580 17.000000
111.035870 18.000000
111.041500 26.000000
111.046920 32.000000
111.071990 33.000000
111.076030 24.000000
111.095370 45.000000
111.103840 22.000000
112.116840 109.000000
113.058780 72.000000
115.053950 164.000000
115.061830 56.000000
116.057690 17.000000
116.064760 46.000000
117.056590 19.000000
117.069430 344.000000
118.061710 25.000000
118.068410 22.000000
118.077960 17.000000
119.039850 26.000000
119.049510 108.000000
119.084270 294.000000
119.088760 133.000000
120.050720 22.000000
120.072530 30.000000
120.084340 35.000000
120.092120 17.000000
121.064150 140.000000
121.101070 64.000000
121.107600 92.000000
122.064820 24.000000
122.084380 41.000000
122.097020 565.000000
123.046750 285.000000
123.078850 16.000000
123.104120 83.000000
124.113040 595.000000
125.069600 43.000000
125.109410 23.000000
125.119770 52.000000
126.121440 30.000000
126.128710 37.000000
126.422280 40.000000
127.053060 129.000000
127.130930 37.000000
128.057050 59.000000
128.062760 213.000000
128.072810 26.000000
129.016880 16.000000
129.071580 474.000000
129.085660 30.000000
130.069600 44.000000
130.074550 89.000000
130.081570 52.000000
131.049380 38.000000
131.072770 24.000000
131.086490 291.000000
131.218030 26.000000
132.076310 28.000000
132.085630 63.000000
132.140690 22.000000
133.066970 24.000000
133.090030 25.000000
133.097810 125.000000
135.073670 31.000000
135.085560 16.000000
135.101910 37.000000
135.121340 51.000000
136.081100 35.000000
136.115390 89.000000
137.056990 29.000000
137.061430 87.000000
137.100450 19.000000
137.113130 43.000000
137.119420 21.000000
138.130770 38.000000
139.126860 26.000000
141.057740 18.000000
141.069950 259.000000
142.064940 17.000000
142.076510 205.000000
143.086320 1000.000000
143.414470 17.000000
144.082430 18.000000
144.092250 110.000000
145.057050 22.000000
145.072040 66.000000
145.102770 464.000000
146.064480 26.000000
146.103290 26.000000
146.871310 16.000000
147.078840 47.000000
147.087220 16.000000
147.105330 30.000000
147.112980 44.000000
147.121700 72.000000
148.071300 25.000000
149.062300 23.000000
149.097790 19.000000
149.121460 16.000000
149.131710 19.000000
150.124450 79.000000
150.131530 25.000000
152.056840 32.000000
152.091170 60.000000
152.110030 22.000000
153.070210 198.000000
154.075530 136.000000
154.092330 18.000000
155.082380 450.000000
155.671740 22.000000
155.763310 22.000000
156.074920 16.000000
156.092480 73.000000
156.098070 43.000000
157.065950 67.000000
157.100750 471.000000
157.109860 70.000000
158.069020 37.000000
158.108490 19.000000
159.073500 38.000000
159.113160 153.000000
159.123960 78.000000
159.600010 17.000000
160.113200 72.000000
161.061000 22.000000
161.086580 23.000000
161.111040 65.000000
161.124180 68.000000
162.090450 19.000000
162.129100 114.000000
164.140760 32.000000
164.147350 20.000000
165.045100 26.000000
165.065800 81.000000
165.074600 145.000000
165.158690 27.000000
166.016740 16.000000
166.078700 227.000000
167.056440 17.000000
167.070180 16.000000
167.086670 324.000000
168.089610 70.000000
168.102160 41.000000
169.066510 21.000000
169.098770 177.000000
169.107410 95.000000
170.072430 17.000000
170.100250 40.000000
170.108250 37.000000
171.079530 106.000000
171.104140 16.000000
171.112630 54.000000
171.122020 90.000000
172.095610 18.000000
173.125210 19.000000
173.134660 63.000000
174.107450 17.000000
174.120360 22.000000
174.129900 36.000000
174.139400 23.000000
175.101820 22.000000
175.114790 22.000000
176.123550 39.000000
176.142580 61.000000
176.154020 20.000000
176.954030 17.000000
177.078600 18.000000
178.073180 129.000000
178.085250 21.000000
178.116710 20.000000
178.806400 37.000000
179.087510 253.000000
180.095280 156.000000
180.141420 21.000000
181.066880 33.000000
181.097900 295.000000
181.109120 66.000000
182.056170 27.000000
182.096480 20.000000
182.112320 50.000000
182.124480 19.000000
183.077970 24.000000
183.113630 215.000000
183.125260 71.000000
183.147220 19.000000
184.123860 142.000000
185.092860 41.000000
185.103590 23.000000
185.118640 33.000000
185.130290 112.000000
185.140230 126.000000
186.130000 41.000000
187.151310 41.000000
188.101150 19.000000
188.145490 31.000000
189.132520 19.000000
189.155530 40.000000
190.073750 20.000000
190.118180 17.000000
190.155000 80.000000
191.082020 44.000000
191.090440 18.000000
192.005540 16.000000
192.086140 60.000000
192.097060 85.000000
192.170810 70.000000
193.093670 19.000000
193.105800 238.000000
193.179020 17.000000
194.089630 19.000000
194.112700 160.000000
195.083270 38.000000
195.102600 18.000000
195.108900 58.000000
195.122020 87.000000
195.158390 26.000000
196.084460 18.000000
196.127210 32.000000
197.094310 20.000000
197.132020 91.000000
197.140980 71.000000
198.103260 40.000000
198.123700 63.000000
198.135220 52.000000
198.145520 43.000000
199.076870 35.000000
199.109790 35.000000
199.133420 78.000000
199.152180 63.000000
200.130720 22.000000
200.139820 26.000000
201.101750 16.000000
201.839280 19.000000
202.147520 19.000000
202.472200 19.000000
203.084170 44.000000
204.090450 25.000000
205.105000 33.000000
206.100130 19.000000
206.112750 37.000000
207.088640 18.000000
207.119810 181.000000
208.128430 61.000000
209.091750 92.000000
209.116650 69.000000
209.132830 47.000000
210.132720 21.000000
211.138630 89.000000
211.145630 30.000000
212.150360 84.000000
213.143910 34.000000
213.171800 30.000000
215.108510 17.000000
215.154820 29.000000
215.172040 32.000000
216.146030 21.000000
216.160800 16.000000
216.184780 19.000000
217.133070 26.000000
217.173190 16.000000
217.318620 17.000000
218.096910 21.000000
218.108830 20.000000
218.120160 17.000000
219.113330 21.000000
219.123980 34.000000
219.134510 19.000000
221.098720 16.000000
221.107010 20.000000
221.117140 20.000000
222.129100 17.000000
222.140500 34.000000
223.132610 20.000000
223.147640 52.000000
223.616030 17.000000
224.125020 20.000000
224.165740 31.000000
225.130250 26.000000
225.145320 16.000000
226.158110 24.000000
227.132450 17.000000
227.154220 75.000000
227.188900 19.000000
228.150360 26.000000
229.112430 21.000000
230.199160 23.000000
231.117360 26.000000
231.135470 19.000000
232.103670 26.000000
232.123900 23.000000
233.130580 24.000000
233.844070 17.000000
234.106190 16.000000
234.125810 16.000000
234.135180 26.000000
235.109270 19.000000
235.119780 24.000000
235.146960 40.000000
237.115040 19.000000
237.125900 24.000000
237.155990 61.000000
237.169620 35.000000
239.159760 19.000000
239.183530 19.000000
240.186610 24.000000
242.008530 37.000000
242.179990 19.000000
242.192080 20.000000
243.171620 21.000000
243.190730 21.000000
244.171480 46.000000
245.171250 41.000000
246.594040 29.000000
247.147770 37.000000
248.161970 21.000000
249.160640 23.000000
249.169490 17.000000
252.149230 18.000000
252.163700 33.000000
253.138060 20.000000
253.168210 83.000000
254.160860 19.000000
254.171050 19.000000
254.182340 19.000000
255.193210 23.000000
256.163880 20.000000
257.190920 16.000000
258.219360 42.000000
259.168300 24.000000
259.178380 23.000000
260.185730 19.000000
263.174650 16.000000
266.160890 21.000000
268.155850 19.000000
269.191470 26.000000
272.190250 18.000000
272.203920 16.000000
279.184080 27.000000
280.170990 23.000000
282.182310 29.000000
282.228940 39.000000
283.189790 19.000000
284.150510 20.000000
286.186920 19.000000
287.219240 19.000000
287.928010 26.000000
288.777530 22.000000
294.190090 19.000000
299.183440 39.000000
300.187440 17.000000
300.200380 16.000000
300.219910 45.000000
300.240630 46.000000
300.253660 30.000000
304.193630 26.000000
304.231260 24.000000
310.213100 61.000000
310.227840 32.000000
312.237460 17.000000
313.411900 17.000000
314.202030 17.000000
314.216520 17.000000
314.237370 21.000000
315.225680 17.000000
318.190730 23.000000
320.433530 25.000000
328.201080 17.000000
328.218720 50.000000
328.235810 109.000000
328.256590 20.000000
329.242650 23.000000
332.215520 101.000000
332.229550 24.000000
333.222290 71.000000
342.204900 16.000000
342.227450 17.000000
342.241460 52.000000
343.250270 20.000000
350.391850 26.000000
358.218050 27.000000
359.896790 16.000000
360.251340 737.000000
360.279540 78.000000
361.227690 21.000000
361.253570 43.000000
361.281740 24.000000
361.355870 19.000000
362.268520 18.000000
362.935820 20.000000
363.781400 28.000000
368.723390 26.000000
378.249050 29.000000
378.261720 40.000000
378.275480 22.000000

