>compound PR96018973
>parentmass 543.3064782
>ionization [M+H]+
>formula C30H42N2O7
>rt 297.070020
>profile qtof
#smiles_iso CCN1C[C@@]2(CC[C@@H](C34[C@@H]2CC(C31)[C@]5(C[C@@H]([C@H]6C[C@@H]4[C@@]5([C@H]6OC)O)OC)O)OC)OC(=O)C7=CC=CC=C7N
#smiles_can CCN1CC2(CCC(C34C2CC(C31)C5(CC(C6CC4C5(C6OC)O)OC)O)OC)OC(=O)C7=CC=CC=C7N
#inchikey VSUODASNSRJNCP-WGVBKJPXSA-N
#pubchem_id 159335
#mb_accession PR300491,PR300496,PR300501,PR300506,PR300511,PR300520,PR300525,PR300530,PR300535,PR300544

>ms2peaks
120.044170 18.000000
157.104020 7.000000
193.100810 7.000000
210.130190 9.000000
212.147810 7.000000
219.117740 19.000000
221.135470 5.000000
237.128520 10.000000
249.126650 6.000000
251.142720 9.000000
279.138430 10.000000
280.169860 5.000000
292.166930 10.000000
293.177190 6.000000
311.158970 6.000000
324.198210 49.000000
325.190000 6.000000
325.202120 9.000000
356.222350 47.000000
357.220890 11.000000
374.233090 21.000000
388.249790 38.000000
389.239260 6.000000
406.252470 15.000000
406.262790 33.000000
407.256990 12.000000
424.270200 10.000000
461.243440 7.000000
493.269230 23.000000
494.279140 6.000000
525.303960 10.000000
543.231020 7.000000
543.257930 7.000000
543.305850 1000.000000
543.375610 19.000000

>ms2peaks
543.240600 7.000000
543.307500 1000.000000
543.376160 26.000000

>ms2peaks
58.065910 8.000000
84.083730 9.000000
120.045050 85.000000
121.046680 6.000000
129.069600 7.000000
131.083920 13.000000
131.093060 6.000000
155.086650 7.000000
157.101940 23.000000
159.083080 6.000000
159.118650 8.000000
161.095760 15.000000
167.084180 7.000000
174.126250 5.000000
181.106670 7.000000
185.095630 7.000000
193.100880 15.000000
195.117740 15.000000
198.120130 7.000000
200.140850 5.000000
205.101000 8.000000
207.119260 17.000000
209.132450 11.000000
210.123600 19.000000
210.134410 13.000000
211.134540 7.000000
212.115740 5.000000
212.142760 53.000000
213.149480 10.000000
219.118760 44.000000
220.111070 6.000000
220.120440 11.000000
221.096880 9.000000
221.131270 15.000000
222.130540 6.000000
223.111250 17.000000
235.111630 10.000000
237.128070 36.000000
239.142320 7.000000
242.154980 11.000000
247.107470 18.000000
247.117400 17.000000
248.108670 6.000000
249.124790 10.000000
249.136470 12.000000
250.160260 7.000000
251.144990 25.000000
252.148010 7.000000
253.124440 6.000000
253.165020 5.000000
255.142940 7.000000
259.126980 8.000000
259.139770 6.000000
265.122100 11.000000
265.178500 5.000000
269.146360 10.000000
270.154110 5.000000
271.129670 5.000000
274.156400 17.000000
279.135770 62.000000
280.163940 30.000000
281.152530 26.000000
281.163970 10.000000
282.152470 5.000000
283.176970 8.000000
292.163450 23.000000
292.176330 34.000000
293.166900 12.000000
296.198790 9.000000
297.148320 23.000000
298.180180 24.000000
306.171510 7.000000
306.185180 16.000000
309.171970 6.000000
311.165920 31.000000
312.170560 8.000000
313.174320 8.000000
324.196750 269.000000
325.199160 66.000000
326.205570 10.000000
327.186890 5.000000
329.180110 8.000000
330.212520 6.000000
338.211640 23.000000
338.225680 5.000000
339.215120 10.000000
342.205080 20.000000
343.190090 12.000000
343.206450 10.000000
356.222690 297.000000
357.217710 32.000000
357.230770 50.000000
358.231540 13.000000
370.241910 17.000000
374.233700 144.000000
375.234620 46.000000
388.206270 7.000000
388.246800 198.000000
389.250060 75.000000
406.207980 9.000000
406.260990 223.000000
407.264530 62.000000
424.245390 8.000000
424.270720 56.000000
425.263240 10.000000
425.282710 18.000000
461.243560 31.000000
462.231870 11.000000
493.270050 150.000000
494.273040 51.000000
511.289580 9.000000
525.296200 114.000000
526.294740 26.000000
526.323060 9.000000
527.314820 5.000000
543.235110 20.000000
543.259770 7.000000
543.307680 1000.000000

>ms2peaks
55.057570 6.000000
56.051670 5.000000
58.062710 7.000000
67.056360 16.000000
68.053570 6.000000
71.051300 46.000000
75.044930 61.000000
79.054250 6.000000
81.034330 7.000000
82.064450 11.000000
83.051160 7.000000
84.082000 50.000000
85.025610 12.000000
85.067670 8.000000
87.045390 11.000000
88.076860 28.000000
91.055900 56.000000
92.049420 47.000000
93.030970 7.000000
94.717390 6.000000
95.051480 17.000000
96.416230 5.000000
97.066600 19.000000
101.040820 9.000000
101.061610 23.000000
101.068640 18.000000
103.050200 7.000000
103.057150 5.000000
105.029200 9.000000
105.039640 9.000000
105.072270 100.000000
107.049680 22.000000
107.087090 7.000000
108.078960 26.000000
108.088310 12.000000
109.027450 33.000000
109.061740 11.000000
109.067210 8.000000
110.095690 23.000000
111.045300 10.000000
111.100770 6.000000
112.893940 6.000000
113.067000 9.000000
114.095840 14.000000
115.057060 10.000000
117.071590 46.000000
118.074230 6.000000
119.053570 7.000000
119.087620 34.000000
120.045020 1000.000000
120.081390 14.000000
121.048110 98.000000
121.066600 44.000000
122.048060 12.000000
122.096790 7.000000
123.042370 15.000000
123.046390 9.000000
123.080480 11.000000
125.061120 20.000000
125.087080 7.000000
127.054310 17.000000
127.070560 6.000000
128.062270 31.000000
128.073440 10.000000
129.057340 8.000000
129.070790 219.000000
130.069700 26.000000
130.078980 8.000000
131.073380 11.000000
131.086940 160.000000
132.042130 8.000000
132.090910 20.000000
133.101230 8.000000
134.060990 9.000000
134.098390 34.000000
135.039320 8.000000
135.072860 7.000000
135.082980 22.000000
135.108840 15.000000
136.108060 7.000000
137.057530 25.000000
137.065860 20.000000
137.090880 9.000000
138.053670 17.000000
138.097140 10.000000
139.076520 21.000000
141.057910 21.000000
141.065160 53.000000
141.072220 61.000000
142.077240 54.000000
143.052570 6.000000
143.067230 7.000000
143.076070 13.000000
143.084880 56.000000
143.093020 14.000000
143.116240 6.000000
144.082950 13.000000
145.072200 9.000000
145.089250 30.000000
145.098880 16.000000
145.107510 6.000000
146.081890 9.000000
146.096390 31.000000
147.080800 30.000000
147.101030 12.000000
148.104920 13.000000
148.116150 8.000000
150.131940 6.000000
152.059860 12.000000
152.076200 5.000000
152.728060 6.000000
153.055570 19.000000
153.071270 57.000000
154.074800 30.000000
154.084810 8.000000
155.051850 10.000000
155.061360 13.000000
155.085950 212.000000
156.091540 62.000000
157.068800 12.000000
157.080950 5.000000
157.100740 206.000000
158.071840 15.000000
158.099400 26.000000
158.111160 8.000000
159.082440 39.000000
159.115680 58.000000
160.109740 10.000000
160.121000 8.000000
161.064300 24.000000
161.073650 6.000000
161.095410 79.000000
161.951830 6.000000
162.058270 6.000000
162.066500 8.000000
162.094710 10.000000
162.117690 6.000000
162.127980 9.000000
163.072370 9.000000
164.065120 6.000000
165.066800 42.000000
165.076070 26.000000
166.080380 17.000000
166.085740 8.000000
166.950490 7.000000
167.056380 10.000000
167.072940 34.000000
167.080440 58.000000
167.087970 81.000000
168.083370 29.000000
168.094760 27.000000
168.131680 5.000000
169.081300 15.000000
169.100250 90.000000
170.100970 34.000000
170.470630 7.000000
171.082810 52.000000
171.098680 10.000000
171.119090 9.000000
172.080920 18.000000
172.089630 9.000000
172.098620 6.000000
172.111980 43.000000
173.088590 14.000000
173.097640 20.000000
173.117680 38.000000
174.094070 10.000000
174.127560 76.000000
174.136220 27.000000
175.128600 29.000000
175.143830 11.000000
176.112630 7.000000
176.142360 5.000000
176.150990 8.000000
177.093870 5.000000
178.075590 34.000000
178.082580 46.000000
178.901460 6.000000
179.067860 7.000000
179.088070 132.000000
180.053130 6.000000
180.082890 20.000000
180.091780 43.000000
180.100880 22.000000
181.085330 40.000000
181.105130 79.000000
182.089430 14.000000
182.107770 57.000000
183.083440 57.000000
183.099290 12.000000
183.116880 51.000000
183.125340 18.000000
184.091090 17.000000
184.107800 25.000000
184.114870 54.000000
184.126140 8.000000
185.081540 7.000000
185.092510 38.000000
185.105040 21.000000
185.116560 20.000000
185.124800 7.000000
186.094510 8.000000
186.106090 15.000000
186.129010 36.000000
187.072110 12.000000
187.081120 7.000000
187.105790 22.000000
187.115370 27.000000
188.117600 20.000000
188.144710 12.000000
189.069520 11.000000
189.088810 7.000000
189.133210 18.000000
190.072390 20.000000
190.081940 34.000000
190.105590 10.000000
190.115780 7.000000
190.129440 6.000000
190.975890 5.000000
191.061680 9.000000
191.079180 29.000000
191.090880 94.000000
191.132640 11.000000
191.618320 6.000000
191.758590 6.000000
192.094020 87.000000
192.135060 12.000000
193.089140 31.000000
193.102620 213.000000
194.087690 25.000000
194.108510 74.000000
195.066240 12.000000
195.085040 37.000000
195.098690 20.000000
195.110930 54.000000
195.120420 73.000000
196.091280 37.000000
196.114870 111.000000
197.058090 10.000000
197.095320 49.000000
197.111150 6.000000
197.122680 15.000000
197.133420 14.000000
198.087300 8.000000
198.107210 9.000000
198.126800 27.000000
199.114470 26.000000
200.135760 11.000000
200.144210 43.000000
201.082760 10.000000
201.118320 6.000000
201.153440 10.000000
202.078780 54.000000
202.105130 6.000000
202.126560 5.000000
202.158840 35.000000
202.170320 8.000000
203.079220 43.000000
203.088990 111.000000
203.131300 10.000000
203.163330 10.000000
204.070010 7.000000
204.095540 223.000000
204.172160 7.000000
205.070010 10.000000
205.083050 11.000000
205.098210 85.000000
205.108830 47.000000
205.155900 7.000000
206.069120 8.000000
206.081470 17.000000
206.098940 19.000000
206.109020 50.000000
207.081830 30.000000
207.115490 105.000000
207.128480 13.000000
208.084260 19.000000
208.113830 11.000000
208.125790 16.000000
209.069440 6.000000
209.090730 22.000000
209.099700 30.000000
209.124300 67.000000
209.135910 51.000000
210.098110 17.000000
210.112950 44.000000
210.127850 136.000000
210.513320 5.000000
211.067200 6.000000
211.103500 7.000000
211.114620 45.000000
211.131150 32.000000
211.146670 35.000000
212.095540 30.000000
212.113140 11.000000
212.122470 9.000000
212.143630 180.000000
213.093600 15.000000
213.151380 44.000000
214.145920 12.000000
214.169690 9.000000
215.091170 12.000000
215.101210 9.000000
215.114580 11.000000
215.132420 6.000000
216.095630 18.000000
216.113830 9.000000
217.101910 32.000000
217.109770 12.000000
218.065750 7.000000
218.073620 13.000000
218.109190 40.000000
218.118960 10.000000
219.078410 13.000000
219.117580 263.000000
220.085420 76.000000
220.101070 12.000000
220.123580 40.000000
220.135500 9.000000
220.476970 7.000000
221.088710 14.000000
221.101900 58.000000
221.121370 20.000000
221.131300 36.000000
221.141570 18.000000
222.097030 10.000000
222.107530 54.000000
222.128520 37.000000
222.140750 13.000000
223.116010 80.000000
223.134660 24.000000
224.082080 9.000000
224.093320 15.000000
224.106630 11.000000
224.116240 24.000000
224.139690 14.000000
224.149930 22.000000
224.203160 5.000000
225.071530 5.000000
225.116740 13.000000
225.127870 17.000000
225.150730 17.000000
226.125230 6.000000
226.156980 28.000000
226.294310 6.000000
227.071030 6.000000
227.090000 15.000000
227.108140 23.000000
227.134870 18.000000
228.093440 14.000000
228.107500 9.000000
228.137080 11.000000
229.103880 47.000000
229.127110 9.000000
230.105180 40.000000
230.146150 8.000000
230.157710 9.000000
231.063100 6.000000
231.088000 14.000000
231.120770 35.000000
231.138090 6.000000
232.077190 6.000000
232.092030 26.000000
232.104800 16.000000
232.121610 12.000000
233.096650 40.000000
233.126590 15.000000
234.094420 10.000000
234.113940 16.000000
234.128450 14.000000
235.102840 8.000000
235.116610 46.000000
235.134780 6.000000
235.403530 8.000000
236.085130 16.000000
236.094830 11.000000
236.110790 18.000000
236.124470 52.000000
236.143720 32.000000
236.158140 9.000000
237.128160 132.000000
237.149830 8.000000
237.160450 5.000000
238.118670 9.000000
238.132520 22.000000
238.159730 77.000000
239.103990 12.000000
239.123210 9.000000
239.142410 20.000000
240.146130 8.000000
241.142240 6.000000
241.161390 9.000000
242.134030 6.000000
242.158690 25.000000
243.157930 6.000000
244.148590 11.000000
244.167130 7.000000
245.182600 6.000000
246.106220 17.000000
246.125140 13.000000
246.134770 7.000000
247.091250 10.000000
247.110630 63.000000
247.119220 27.000000
247.134310 7.000000
248.098510 8.000000
248.111510 24.000000
248.131380 38.000000
248.154740 13.000000
248.701860 8.000000
249.084550 9.000000
249.116520 10.000000
249.128040 36.000000
249.136570 27.000000
249.151350 41.000000
250.089390 6.000000
250.120410 14.000000
250.135060 12.000000
250.163650 37.000000
251.119980 5.000000
251.138230 79.000000
251.150680 29.000000
251.175290 9.000000
252.122920 6.000000
252.139070 20.000000
252.154390 9.000000
252.179320 10.000000
253.125350 37.000000
253.154480 28.000000
253.166400 6.000000
254.121980 8.000000
254.141560 5.000000
255.138870 8.000000
255.152650 13.000000
256.176850 7.000000
257.106660 5.000000
258.136930 21.000000
259.133700 34.000000
261.127750 20.000000
261.170720 6.000000
262.141330 20.000000
262.151400 11.000000
263.127080 53.000000
264.111270 8.000000
264.120450 16.000000
264.140080 35.000000
264.175660 71.000000
265.115690 9.000000
265.129910 9.000000
265.140260 9.000000
265.160100 6.000000
266.128110 10.000000
266.153530 42.000000
267.147520 11.000000
267.165250 10.000000
267.176270 6.000000
268.133450 7.000000
268.164280 8.000000
268.181700 7.000000
272.148900 6.000000
274.162200 40.000000
275.164860 12.000000
277.142330 12.000000
278.153110 12.000000
279.121000 11.000000
279.135650 23.000000
279.148070 32.000000
280.126130 9.000000
280.138890 26.000000
280.174040 61.000000
281.143310 12.000000
281.159450 13.000000
281.173070 18.000000
282.126920 5.000000
282.172180 10.000000
283.155940 13.000000
284.160830 8.000000
288.439450 7.000000
290.158260 9.000000
290.170260 6.000000
292.170530 110.000000
293.144290 6.000000
293.153750 8.000000
293.165680 10.000000
293.181490 19.000000
294.158600 26.000000
294.175320 19.000000
295.156310 21.000000
296.137850 6.000000
296.160550 26.000000
296.202060 46.000000
297.126460 8.000000
297.208620 8.000000
298.176640 18.000000
298.192200 21.000000
299.188200 9.000000
301.186800 6.000000
302.189120 5.000000
306.186400 20.000000
308.161220 9.000000
309.175320 9.000000
310.180850 15.000000
311.165680 16.000000
312.181730 8.000000
312.194950 6.000000
314.178860 12.000000
314.211300 5.000000
316.160890 7.000000
316.199740 11.000000
323.194550 5.000000
324.198360 154.000000
324.545810 8.000000
325.178500 7.000000
325.194700 12.000000
325.213010 10.000000
328.194400 11.000000
328.235780 11.000000
330.180210 6.000000
330.208770 17.000000
338.211730 7.000000
340.231570 6.000000
342.192290 5.000000
342.207550 16.000000
343.212550 8.000000
346.207150 9.000000
349.180910 7.000000
356.196470 23.000000
356.225620 97.000000
356.247160 9.000000
360.234590 6.000000
374.211330 7.000000
374.239840 31.000000
375.238830 11.000000
388.243560 34.000000
389.238710 9.000000
389.268040 5.000000
392.244900 11.000000
394.245730 6.000000
415.122310 8.000000
424.284550 15.000000
425.263850 7.000000
448.674470 5.000000
465.293090 6.000000
493.260560 15.000000
493.277800 13.000000
526.310120 10.000000

>ms2peaks
120.045380 19.000000
210.129670 13.000000
212.141860 12.000000
219.118350 9.000000
237.128340 5.000000
247.114170 6.000000
251.142350 10.000000
279.139770 13.000000
292.166900 10.000000
311.164400 6.000000
324.196930 43.000000
325.200710 8.000000
356.222140 46.000000
357.221410 13.000000
374.233400 19.000000
388.249450 29.000000
389.249330 7.000000
406.258940 43.000000
407.271180 6.000000
424.274930 8.000000
461.240570 5.000000
493.269900 22.000000
525.296200 20.000000
526.299440 6.000000
543.210270 5.000000
543.228760 5.000000
543.306820 1000.000000
543.375490 21.000000

>ms2peaks
75.044810 11.000000
84.081120 7.000000
120.045650 94.000000
121.046490 7.000000
129.069850 12.000000
131.088120 11.000000
137.060420 7.000000
155.084170 6.000000
157.102070 17.000000
158.103360 6.000000
159.114460 7.000000
161.097080 10.000000
169.105620 11.000000
193.103290 13.000000
195.115020 10.000000
198.129270 7.000000
204.093780 7.000000
205.095280 6.000000
207.121150 9.000000
209.134720 14.000000
210.127640 30.000000
210.136890 15.000000
211.120850 6.000000
211.131620 6.000000
211.153470 7.000000
212.139040 12.000000
212.146640 29.000000
213.138080 5.000000
219.116730 29.000000
219.128450 11.000000
220.119550 11.000000
221.093440 6.000000
221.132050 20.000000
223.108990 7.000000
227.111710 7.000000
229.100810 10.000000
231.119250 6.000000
235.116390 8.000000
237.127380 27.000000
238.120000 7.000000
238.134460 9.000000
239.140270 9.000000
242.152690 8.000000
247.113100 19.000000
248.123930 9.000000
248.143330 9.000000
249.125090 13.000000
250.152850 6.000000
251.144620 20.000000
253.157640 6.000000
259.123990 5.000000
259.134920 6.000000
264.180150 5.000000
265.118010 8.000000
269.155360 11.000000
274.161930 14.000000
279.138180 52.000000
280.142430 15.000000
280.162320 8.000000
280.177460 15.000000
281.129670 6.000000
281.150570 10.000000
281.163940 6.000000
282.149900 5.000000
292.169370 58.000000
292.186430 8.000000
293.169280 19.000000
293.183500 7.000000
296.204560 12.000000
297.148130 18.000000
298.163390 6.000000
298.174800 8.000000
298.187740 10.000000
306.176760 11.000000
306.193150 6.000000
311.154940 11.000000
311.169650 40.000000
312.165100 7.000000
313.185520 7.000000
324.196930 271.000000
325.200160 78.000000
326.212920 8.000000
329.170990 10.000000
330.210390 16.000000
338.212800 19.000000
338.224610 5.000000
342.199830 23.000000
342.215880 10.000000
343.184630 8.000000
343.203920 6.000000
356.223600 291.000000
357.225070 95.000000
370.232940 9.000000
374.232940 119.000000
375.237270 42.000000
388.249390 221.000000
389.250920 52.000000
390.230220 5.000000
406.207550 6.000000
406.260040 226.000000
407.244930 14.000000
407.265590 51.000000
408.250370 6.000000
424.269590 57.000000
425.273530 8.000000
433.242860 5.000000
461.233370 28.000000
461.259060 10.000000
462.243230 11.000000
493.268190 164.000000
494.250000 10.000000
494.274570 40.000000
494.299100 8.000000
495.281100 12.000000
511.290070 9.000000
525.278560 25.000000
525.302920 85.000000
526.298710 45.000000
526.336060 6.000000
527.303830 6.000000
543.246950 16.000000
543.307800 1000.000000

>ms2peaks
58.061630 7.000000
71.050340 37.000000
71.059190 5.000000
72.083950 7.000000
73.203700 6.000000
75.040440 6.000000
75.046730 26.000000
77.041180 11.000000
79.054180 31.000000
79.065450 5.000000
81.033150 8.000000
84.080830 49.000000
85.023930 6.000000
85.069380 14.000000
86.056490 5.000000
87.040920 12.000000
88.078300 45.000000
91.055780 35.000000
92.051070 19.000000
92.057900 7.000000
93.053120 9.000000
93.071060 28.000000
93.075230 10.000000
94.067770 9.000000
95.049880 11.000000
96.083400 7.000000
97.065570 8.000000
98.100020 9.000000
99.047790 7.000000
101.063160 29.000000
103.048000 6.000000
105.047860 6.000000
105.070590 46.000000
107.085710 6.000000
108.082480 14.000000
109.029910 32.000000
109.057960 14.000000
109.065980 14.000000
110.095460 9.000000
111.044910 7.000000
111.979770 6.000000
112.076310 6.000000
113.050330 6.000000
113.061690 24.000000
114.091240 7.000000
115.054710 22.000000
116.063020 9.000000
117.071850 37.000000
118.075970 9.000000
119.050500 10.000000
119.086690 7.000000
119.092400 6.000000
120.016460 6.000000
120.045280 1000.000000
121.049360 80.000000
121.067290 19.000000
121.072180 7.000000
121.092160 8.000000
122.053600 6.000000
122.064210 6.000000
123.043300 17.000000
123.050680 7.000000
123.081220 13.000000
123.089240 5.000000
124.030840 5.000000
124.073100 7.000000
124.116410 6.000000
125.053040 25.000000
125.063560 13.000000
127.055510 19.000000
127.074820 8.000000
128.048170 6.000000
128.062300 42.000000
129.070180 170.000000
129.078800 30.000000
130.066240 7.000000
130.074720 33.000000
131.077220 26.000000
131.087680 107.000000
132.045060 10.000000
132.088180 21.000000
133.059400 6.000000
133.070950 11.000000
133.103240 25.000000
134.090560 12.000000
134.098240 12.000000
135.076260 10.000000
135.082050 7.000000
136.055360 8.000000
137.050460 5.000000
137.060470 44.000000
137.070330 7.000000
138.064440 9.000000
138.094820 8.000000
141.052890 9.000000
141.067760 40.000000
142.067670 8.000000
142.077580 48.000000
143.069850 15.000000
143.086150 83.000000
144.075640 15.000000
144.090420 27.000000
145.065430 22.000000
145.090000 40.000000
145.102740 16.000000
146.100340 43.000000
147.072910 11.000000
147.084810 10.000000
147.101270 10.000000
148.102630 8.000000
148.112690 20.000000
149.061860 8.000000
149.087510 11.000000
149.122730 8.000000
150.089360 7.000000
152.083710 6.000000
152.364030 5.000000
153.059540 8.000000
153.071850 38.000000
153.980330 5.000000
154.052870 6.000000
154.078050 49.000000
155.063460 5.000000
155.085590 189.000000
156.051420 9.000000
156.090410 29.000000
157.102290 200.000000
157.375200 8.000000
158.070450 9.000000
158.087970 13.000000
158.099060 34.000000
158.112120 14.000000
159.070790 9.000000
159.083820 26.000000
159.097610 12.000000
159.109360 8.000000
159.120350 43.000000
160.089310 18.000000
160.112470 25.000000
161.061800 24.000000
161.095080 124.000000
162.103990 6.000000
165.066480 59.000000
165.077180 30.000000
166.063200 6.000000
166.072080 24.000000
166.080280 19.000000
167.056520 6.000000
167.069290 8.000000
167.085310 192.000000
168.082380 21.000000
168.090700 33.000000
168.098800 28.000000
169.075030 22.000000
169.093610 14.000000
169.103560 69.000000
169.868710 6.000000
170.096010 17.000000
170.106060 6.000000
171.082780 49.000000
171.097640 6.000000
171.106120 6.000000
171.118840 11.000000
172.074140 9.000000
172.108430 36.000000
172.119510 17.000000
173.093770 29.000000
173.123980 35.000000
174.090100 12.000000
174.105350 16.000000
174.126080 72.000000
175.072340 10.000000
175.081800 6.000000
175.116390 5.000000
175.131480 15.000000
176.048890 6.000000
176.110780 6.000000
176.137280 10.000000
176.151430 5.000000
177.609760 6.000000
178.070340 36.000000
178.078890 77.000000
179.083760 243.000000
179.109190 5.000000
180.091290 86.000000
181.093480 67.000000
181.105030 143.000000
182.070560 7.000000
182.098570 51.000000
182.929640 6.000000
183.070980 18.000000
183.082700 18.000000
183.105790 51.000000
183.119480 28.000000
184.083830 13.000000
184.110890 18.000000
184.118880 32.000000
185.059420 6.000000
185.090070 19.000000
185.101640 27.000000
185.116460 22.000000
185.126360 8.000000
186.096010 15.000000
186.108260 12.000000
186.122240 15.000000
187.077160 13.000000
187.109470 30.000000
187.121410 19.000000
187.131420 6.000000
188.134690 14.000000
188.149400 10.000000
189.070390 22.000000
189.086360 9.000000
190.069000 8.000000
191.063290 10.000000
191.081820 97.000000
191.095750 18.000000
192.053700 5.000000
192.093000 110.000000
192.140490 14.000000
193.073360 17.000000
193.093260 47.000000
193.104100 217.000000
194.066530 14.000000
194.077010 5.000000
194.106140 78.000000
194.119130 14.000000
195.082660 90.000000
195.102630 37.000000
195.115340 145.000000
195.134540 7.000000
196.081090 20.000000
196.104630 33.000000
196.116900 39.000000
196.124010 11.000000
197.098530 41.000000
197.110600 14.000000
197.119740 18.000000
197.129490 20.000000
197.139860 22.000000
197.403850 5.000000
198.102660 24.000000
198.130550 87.000000
199.115570 37.000000
199.132050 9.000000
199.144010 6.000000
200.083620 6.000000
200.101810 8.000000
200.117340 6.000000
200.145520 36.000000
201.093020 13.000000
201.118230 14.000000
201.150790 11.000000
202.079070 29.000000
202.088520 8.000000
202.100270 6.000000
202.124790 14.000000
202.155360 19.000000
202.167250 11.000000
203.085650 183.000000
204.093990 255.000000
204.118300 7.000000
205.060840 8.000000
205.087460 27.000000
205.100910 166.000000
206.066120 9.000000
206.082720 7.000000
206.096330 12.000000
206.107510 49.000000
206.122740 19.000000
206.156390 12.000000
207.078140 18.000000
207.092910 11.000000
207.102660 16.000000
207.117800 82.000000
207.821960 6.000000
208.083420 35.000000
208.110920 43.000000
208.121570 18.000000
209.084550 18.000000
209.097810 50.000000
209.113130 40.000000
209.124050 62.000000
209.135310 50.000000
210.091220 8.000000
210.104140 36.000000
210.131740 153.000000
210.361600 7.000000
211.110980 57.000000
211.138840 32.000000
211.156010 6.000000
211.990220 6.000000
212.082090 6.000000
212.090760 7.000000
212.108860 15.000000
212.139040 143.000000
212.149120 75.000000
213.092390 7.000000
213.111510 11.000000
213.135990 37.000000
213.155030 48.000000
214.148270 11.000000
214.159970 7.000000
215.077530 5.000000
215.091710 19.000000
216.089950 14.000000
216.098480 24.000000
217.099380 34.000000
218.098690 14.000000
218.112230 19.000000
218.121440 8.000000
219.075790 21.000000
219.086210 13.000000
219.117610 294.000000
220.090960 14.000000
220.110460 31.000000
220.120700 33.000000
221.083020 20.000000
221.098740 48.000000
221.110200 35.000000
221.130430 56.000000
222.081710 8.000000
222.100390 26.000000
222.115200 22.000000
222.131810 43.000000
222.146300 12.000000
223.077530 11.000000
223.090440 8.000000
223.113480 103.000000
223.138150 33.000000
224.108520 10.000000
224.123050 28.000000
224.144470 32.000000
225.094300 18.000000
225.124280 43.000000
226.123410 10.000000
226.136490 19.000000
227.107540 23.000000
227.115450 11.000000
227.143390 18.000000
227.172260 7.000000
228.082280 11.000000
228.091540 13.000000
228.138050 13.000000
229.092700 18.000000
229.102310 43.000000
229.119370 8.000000
229.131840 8.000000
230.112810 18.000000
230.124210 8.000000
231.074660 19.000000
231.096180 14.000000
231.111330 8.000000
231.125240 18.000000
232.075030 9.000000
232.094920 21.000000
232.116230 21.000000
233.096150 17.000000
233.118640 27.000000
233.133180 10.000000
234.090360 9.000000
234.105960 12.000000
234.120570 16.000000
234.133390 6.000000
235.080030 8.000000
235.089370 8.000000
235.101000 9.000000
235.122220 45.000000
235.152540 5.000000
236.113100 10.000000
236.121190 32.000000
236.134990 16.000000
236.146940 48.000000
237.088760 7.000000
237.124370 33.000000
237.135990 29.000000
237.149860 31.000000
237.158830 9.000000
238.116550 8.000000
238.129880 14.000000
238.144270 16.000000
238.164460 23.000000
239.098160 14.000000
239.120360 8.000000
239.140210 28.000000
240.119110 8.000000
240.142870 23.000000
240.661530 9.000000
241.122470 6.000000
242.106520 6.000000
242.124250 5.000000
242.152370 25.000000
244.087330 6.000000
244.142060 7.000000
245.128920 9.000000
246.094530 16.000000
246.109540 32.000000
246.127810 7.000000
247.093840 6.000000
247.110060 53.000000
247.117130 30.000000
247.139110 6.000000
247.156390 5.000000
248.095780 12.000000
248.109850 12.000000
248.123720 19.000000
248.140550 52.000000
249.083890 9.000000
249.109220 12.000000
249.124830 8.000000
249.145890 28.000000
249.169130 7.000000
250.128490 19.000000
250.154450 27.000000
250.167950 9.000000
251.117550 28.000000
251.136800 17.000000
251.148850 67.000000
252.133760 6.000000
252.150480 21.000000
252.171690 7.000000
253.128140 8.000000
253.139250 23.000000
253.152740 14.000000
253.181410 7.000000
254.121030 7.000000
254.154130 17.000000
255.152890 10.000000
255.169040 6.000000
257.120970 6.000000
258.155300 5.000000
259.132230 18.000000
259.143130 18.000000
260.136720 7.000000
260.154540 6.000000
261.133450 32.000000
261.146510 9.000000
262.134400 34.000000
262.157680 23.000000
262.168880 7.000000
263.086640 7.000000
263.126560 22.000000
263.144680 11.000000
264.103330 6.000000
264.114010 12.000000
264.125790 29.000000
264.146910 7.000000
264.169890 35.000000
264.183010 27.000000
265.112850 6.000000
265.125180 25.000000
265.145660 9.000000
265.159970 7.000000
265.182500 24.000000
266.140750 16.000000
266.158630 21.000000
266.203460 6.000000
267.123170 6.000000
267.159760 6.000000
268.166690 14.000000
268.175050 6.000000
269.176330 8.000000
270.130100 15.000000
272.133330 10.000000
273.149020 17.000000
274.157930 21.000000
274.169220 7.000000
275.173160 14.000000
277.126980 7.000000
277.140500 8.000000
277.156800 8.000000
278.127260 9.000000
278.160890 9.000000
278.174740 10.000000
279.147670 52.000000
279.168580 7.000000
280.145870 30.000000
280.159450 14.000000
280.174190 19.000000
280.184420 8.000000
281.129970 15.000000
281.172820 21.000000
282.137240 7.000000
282.157010 10.000000
282.189540 11.000000
283.171660 7.000000
284.175720 7.000000
285.064150 8.000000
291.136810 6.000000
291.164760 18.000000
292.172670 120.000000
293.158200 14.000000
293.173190 14.000000
294.143040 12.000000
294.185670 6.000000
294.201420 6.000000
295.154330 7.000000
295.165560 10.000000
295.185520 12.000000
296.153230 23.000000
296.167050 12.000000
296.200380 32.000000
296.215420 16.000000
297.148710 8.000000
297.160000 9.000000
297.179320 7.000000
298.153440 11.000000
298.180570 40.000000
298.190640 12.000000
306.184330 9.000000
309.182650 7.000000
309.199340 7.000000
310.133760 8.000000
310.182800 10.000000
310.201810 6.000000
311.160190 9.000000
311.175540 11.000000
312.166500 8.000000
312.188140 6.000000
312.201900 5.000000
316.173160 7.000000
316.194820 12.000000
316.675570 6.000000
321.243470 6.000000
323.182130 6.000000
324.193330 118.000000
324.209660 29.000000
324.288820 5.000000
325.166870 6.000000
325.186710 24.000000
325.202360 10.000000
325.213350 8.000000
326.189970 19.000000
328.195830 12.000000
330.208160 6.000000
338.214940 13.000000
342.207640 24.000000
346.201870 7.000000
346.223510 7.000000
356.223330 96.000000
357.229060 16.000000
357.248320 7.000000
360.218170 10.000000
360.250000 5.000000
361.213320 5.000000
370.238800 5.000000
374.208920 6.000000
374.227690 29.000000
388.224240 8.000000
388.251980 35.000000
388.273440 7.000000
389.266600 8.000000
392.244660 11.000000
406.256410 17.000000
407.260160 6.000000
424.272190 17.000000
425.112370 6.000000
451.723110 5.000000
493.255040 19.000000
493.284450 8.000000
525.285280 5.000000
543.303410 12.000000

>ms2peaks
120.044370 24.000000
131.086490 6.000000
210.128070 7.000000
212.144100 9.000000
219.119480 7.000000
237.128370 8.000000
247.116780 6.000000
251.144360 9.000000
264.171600 5.000000
279.137510 9.000000
292.171420 12.000000
324.194980 46.000000
325.199620 9.000000
356.222260 45.000000
357.213010 6.000000
357.230130 8.000000
374.228790 17.000000
374.243070 8.000000
375.230470 7.000000
388.249080 30.000000
389.251460 8.000000
406.247440 16.000000
406.261470 35.000000
407.267400 8.000000
424.259060 6.000000
493.250580 6.000000
493.270320 21.000000
494.274380 6.000000
525.294250 19.000000
526.292790 7.000000
543.234500 7.000000
543.307560 1000.000000
543.374330 20.000000
543.388430 7.000000

>ms2peaks
543.221250 5.000000
543.306950 1000.000000
543.375490 26.000000

>ms2peaks
56.047470 7.000000
56.052860 8.000000
58.064790 12.000000
59.048840 7.000000
67.056030 11.000000
69.070210 5.000000
71.049850 35.000000
75.044280 30.000000
79.053620 23.000000
80.051090 5.000000
81.053860 5.000000
81.061100 6.000000
81.069050 7.000000
83.053890 15.000000
84.080920 76.000000
84.086300 18.000000
85.060760 5.000000
85.089320 8.000000
86.098340 7.000000
88.079020 9.000000
88.621800 5.000000
91.054570 115.000000
92.042140 7.000000
92.049870 54.000000
92.060560 6.000000
93.070770 18.000000
95.047330 10.000000
97.063270 11.000000
98.065070 9.000000
98.099720 17.000000
101.021620 5.000000
101.060780 37.000000
105.069950 43.000000
106.065570 8.000000
107.048860 29.000000
107.084700 11.000000
108.081600 27.000000
109.034010 16.000000
109.064340 20.000000
110.100790 8.000000
111.036620 6.000000
111.043430 9.000000
111.081900 24.000000
113.054940 10.000000
113.064800 10.000000
114.089850 7.000000
115.056370 48.000000
116.060360 8.000000
117.071450 95.000000
118.062520 7.000000
118.072130 13.000000
119.053920 6.000000
119.080960 7.000000
119.087870 30.000000
120.025290 12.000000
120.044490 1000.000000
120.084520 8.000000
120.115610 7.000000
121.048250 98.000000
121.064420 31.000000
121.071040 15.000000
121.092980 10.000000
123.029710 5.000000
123.047690 10.000000
123.082440 27.000000
125.060750 35.000000
126.092230 13.000000
127.057620 8.000000
127.077230 6.000000
128.062000 33.000000
128.070240 7.000000
129.069890 230.000000
130.060270 11.000000
130.068280 18.000000
130.075160 25.000000
131.047700 9.000000
131.079610 34.000000
131.088290 117.000000
131.094790 30.000000
132.046160 24.000000
132.083100 7.000000
132.092680 14.000000
133.063030 7.000000
133.086520 7.000000
134.102330 9.000000
135.078870 22.000000
135.086590 18.000000
135.105790 7.000000
136.111540 9.000000
136.117940 9.000000
137.059110 50.000000
138.059690 9.000000
138.096600 5.000000
139.036700 11.000000
139.045910 8.000000
140.522750 6.000000
141.034240 7.000000
141.046450 5.000000
141.053150 12.000000
141.069610 74.000000
142.076830 79.000000
142.091770 8.000000
143.085460 111.000000
144.063510 5.000000
144.084230 19.000000
144.092740 50.000000
145.062410 11.000000
145.081920 9.000000
145.088680 17.000000
145.100980 26.000000
146.095320 30.000000
147.077070 22.000000
147.082860 16.000000
147.095280 5.000000
147.105650 10.000000
148.079040 15.000000
148.107680 19.000000
148.122100 7.000000
149.059020 15.000000
149.117260 7.000000
150.064510 14.000000
150.097500 11.000000
150.125180 10.000000
151.070910 7.000000
151.078320 24.000000
152.063080 12.000000
152.100360 5.000000
153.016370 7.000000
153.052310 9.000000
153.064770 12.000000
153.074130 36.000000
154.077730 31.000000
155.032730 9.000000
155.079830 71.000000
155.086430 103.000000
156.085820 20.000000
156.096440 50.000000
156.334260 8.000000
157.033740 5.000000
157.054520 7.000000
157.065700 30.000000
157.102720 272.000000
158.095340 23.000000
158.108350 29.000000
158.736620 6.000000
159.073580 13.000000
159.082600 41.000000
159.114560 58.000000
160.072100 12.000000
160.091280 16.000000
160.112750 37.000000
161.059010 15.000000
161.097270 135.000000
161.125840 6.000000
162.096690 13.000000
162.132000 17.000000
163.109120 10.000000
165.068600 99.000000
165.080540 7.000000
165.098680 7.000000
166.059100 8.000000
166.074920 29.000000
166.085210 8.000000
167.004640 8.000000
167.085820 219.000000
167.545240 12.000000
168.074630 15.000000
168.089970 54.000000
169.077730 5.000000
169.092590 49.000000
169.104060 87.000000
169.173540 6.000000
170.069060 11.000000
170.091080 11.000000
170.101010 7.000000
171.081600 60.000000
171.120910 7.000000
172.090760 19.000000
172.113360 42.000000
173.097900 59.000000
173.112850 8.000000
173.125630 13.000000
174.092650 15.000000
174.108800 14.000000
174.128560 89.000000
175.098070 12.000000
175.106670 6.000000
175.119340 15.000000
175.131560 23.000000
175.165220 6.000000
176.104920 7.000000
176.126480 10.000000
176.144330 6.000000
177.070660 9.000000
177.088300 11.000000
178.076740 96.000000
178.083570 37.000000
178.119280 14.000000
179.085360 220.000000
179.105760 6.000000
179.119460 5.000000
180.081970 21.000000
180.093000 70.000000
180.134310 11.000000
181.051180 14.000000
181.066300 15.000000
181.088170 17.000000
181.102170 166.000000
182.076830 24.000000
182.096500 34.000000
182.110020 17.000000
183.073750 21.000000
183.113160 25.000000
183.123380 7.000000
184.084610 13.000000
184.092670 6.000000
184.106190 37.000000
184.117290 26.000000
184.670470 6.000000
185.094800 43.000000
185.114400 26.000000
185.134740 6.000000
186.094760 14.000000
186.126570 20.000000
187.074910 23.000000
187.110090 62.000000
188.105670 12.000000
188.115220 10.000000
188.128070 12.000000
189.068940 10.000000
189.093950 8.000000
190.080230 53.000000
190.113270 7.000000
190.124790 25.000000
191.083330 128.000000
191.097870 11.000000
192.082290 22.000000
192.094670 90.000000
192.134340 21.000000
192.141630 6.000000
193.060360 11.000000
193.072420 5.000000
193.099910 279.000000
193.126880 5.000000
194.068270 18.000000
194.082210 18.000000
194.106160 114.000000
195.082280 49.000000
195.104610 59.000000
195.119450 65.000000
196.083440 23.000000
196.095980 20.000000
196.115840 68.000000
196.123120 18.000000
196.137210 5.000000
197.061330 7.000000
197.087420 8.000000
197.099410 62.000000
197.115070 37.000000
197.125080 18.000000
198.089450 5.000000
198.102400 9.000000
198.111630 5.000000
198.126660 78.000000
198.137340 21.000000
199.103450 6.000000
199.111340 20.000000
199.149830 6.000000
200.062710 5.000000
200.081190 7.000000
200.106610 10.000000
200.140530 25.000000
200.152660 8.000000
201.078920 6.000000
201.090850 8.000000
201.101360 9.000000
202.077120 35.000000
202.090940 6.000000
202.128590 5.000000
202.146240 7.000000
202.155980 23.000000
203.085630 178.000000
203.102690 9.000000
203.113450 5.000000
203.674150 6.000000
204.095310 310.000000
204.114180 6.000000
204.143890 10.000000
205.021820 6.000000
205.079380 11.000000
205.093380 60.000000
205.105620 89.000000
205.152160 6.000000
206.072080 15.000000
206.096570 21.000000
206.108760 66.000000
207.081770 36.000000
207.112340 128.000000
207.786070 7.000000
208.079130 23.000000
208.091630 17.000000
208.105290 9.000000
208.117810 27.000000
208.130200 8.000000
209.087510 11.000000
209.099640 42.000000
209.124540 46.000000
209.137040 58.000000
210.061650 6.000000
210.092680 14.000000
210.112230 38.000000
210.120270 71.000000
210.134490 71.000000
210.148240 5.000000
211.068860 8.000000
211.084880 7.000000
211.103650 75.000000
211.129790 53.000000
211.143330 16.000000
211.308990 6.000000
212.103330 19.000000
212.145360 173.000000
212.165040 5.000000
213.086590 9.000000
213.094710 20.000000
213.116060 10.000000
213.129090 11.000000
213.148210 91.000000
214.094270 6.000000
214.131970 10.000000
214.152150 13.000000
215.083470 8.000000
215.140580 6.000000
216.088590 5.000000
217.102080 68.000000
217.150420 5.000000
218.108700 22.000000
218.149310 11.000000
219.077260 27.000000
219.101880 31.000000
219.118710 261.000000
220.082600 36.000000
220.095730 18.000000
220.122090 98.000000
221.096590 100.000000
221.119980 21.000000
221.137190 63.000000
222.071490 8.000000
222.087010 18.000000
222.105560 51.000000
222.127810 57.000000
223.079160 5.000000
223.098800 13.000000
223.115590 57.000000
223.136020 19.000000
223.166560 5.000000
224.081020 7.000000
224.108050 21.000000
224.122150 8.000000
224.134200 6.000000
224.148860 32.000000
225.091870 16.000000
225.114070 16.000000
225.130870 47.000000
225.146380 26.000000
226.119800 15.000000
226.130390 6.000000
227.038910 7.000000
227.095600 13.000000
227.109680 14.000000
227.119140 7.000000
227.132860 18.000000
228.086550 19.000000
228.100360 18.000000
229.106600 36.000000
229.123280 13.000000
230.078600 5.000000
230.092590 6.000000
230.106770 14.000000
230.120860 6.000000
230.154480 15.000000
231.083510 23.000000
231.106950 11.000000
231.120040 30.000000
232.095410 46.000000
232.117390 17.000000
233.095490 28.000000
233.113300 16.000000
233.120940 15.000000
234.102290 13.000000
234.125820 30.000000
234.142790 14.000000
235.099090 8.000000
235.111270 29.000000
235.121800 14.000000
235.138200 11.000000
235.148060 18.000000
236.113330 9.000000
236.125340 18.000000
236.144580 60.000000
237.125780 84.000000
237.145550 55.000000
237.156480 21.000000
238.103590 6.000000
238.118560 22.000000
238.136890 13.000000
238.149920 10.000000
238.162580 46.000000
239.106520 8.000000
239.127590 17.000000
239.148860 12.000000
240.110120 12.000000
240.134480 11.000000
240.144790 9.000000
241.132630 6.000000
241.146710 8.000000
242.155270 29.000000
244.111310 12.000000
245.117230 16.000000
245.128200 9.000000
246.100510 17.000000
246.111760 13.000000
246.125980 22.000000
246.138470 9.000000
247.095290 20.000000
247.108990 72.000000
247.142960 10.000000
248.101260 27.000000
248.121540 30.000000
248.143260 155.000000
249.126300 29.000000
249.142230 14.000000
249.154920 30.000000
250.096450 13.000000
250.133540 12.000000
250.158810 29.000000
251.122770 7.000000
251.137410 29.000000
251.149690 65.000000
251.158110 29.000000
251.841720 6.000000
252.111910 13.000000
252.127930 19.000000
252.144230 24.000000
252.157260 6.000000
252.179920 8.000000
253.116010 17.000000
253.126980 11.000000
253.134000 7.000000
253.147570 8.000000
253.162310 8.000000
254.133700 5.000000
254.157530 17.000000
255.178420 8.000000
257.130280 6.000000
259.120910 14.000000
259.132930 18.000000
259.144440 17.000000
260.132050 7.000000
260.143430 8.000000
260.160520 18.000000
261.130220 31.000000
261.151250 16.000000
261.166170 7.000000
262.111910 7.000000
262.121700 8.000000
262.136440 20.000000
262.155700 12.000000
262.162960 24.000000
263.126920 14.000000
263.149810 22.000000
264.112090 9.000000
264.123230 9.000000
264.133820 7.000000
264.174010 42.000000
264.204070 8.000000
265.111080 11.000000
265.120670 13.000000
265.135040 14.000000
265.159610 20.000000
265.183650 13.000000
266.150700 13.000000
266.161870 12.000000
266.378140 8.000000
267.146360 18.000000
267.156430 6.000000
268.132320 6.000000
268.167450 22.000000
269.138920 10.000000
269.154750 29.000000
269.165040 15.000000
270.136840 18.000000
270.158480 11.000000
270.182500 27.000000
271.151400 9.000000
272.152980 28.000000
272.179080 6.000000
272.191500 6.000000
274.129730 6.000000
274.172610 8.000000
275.136990 10.000000
275.170440 13.000000
276.144990 7.000000
277.144170 8.000000
277.157990 8.000000
278.155700 11.000000
279.108890 7.000000
279.144260 27.000000
280.112760 9.000000
280.141300 36.000000
280.170900 46.000000
281.139160 9.000000
281.148190 7.000000
281.166780 14.000000
282.142060 9.000000
282.186400 11.000000
290.183780 11.000000
291.153840 12.000000
292.144010 8.000000
292.165340 61.000000
292.178560 25.000000
293.128810 7.000000
293.159880 14.000000
293.177090 9.000000
293.336330 5.000000
294.127410 7.000000
294.155550 23.000000
295.160060 11.000000
296.154510 15.000000
296.169740 15.000000
296.178620 22.000000
296.197110 14.000000
296.212950 9.000000
297.153260 11.000000
297.198490 6.000000
298.180420 26.000000
299.187740 21.000000
300.155330 9.000000
306.170140 14.000000
306.197540 10.000000
307.180080 9.000000
307.203060 6.000000
308.151550 17.000000
308.162900 17.000000
308.209140 10.000000
310.176670 14.000000
310.192200 9.000000
312.138950 6.000000
312.165650 8.000000
312.213500 9.000000
314.214260 11.000000
315.164700 6.000000
315.205900 8.000000
322.164760 11.000000
324.191440 69.000000
324.203550 77.000000
324.223790 5.000000
325.197390 45.000000
325.222690 6.000000
326.208160 6.000000
326.223690 7.000000
327.177610 6.000000
327.196440 7.000000
328.192750 16.000000
330.210780 7.000000
330.426820 5.000000
338.206600 11.000000
338.219330 9.000000
342.201780 31.000000
343.219020 7.000000
345.193020 5.000000
356.200290 7.000000
356.224300 65.000000
357.225770 22.000000
357.239230 8.000000
358.219510 11.000000
361.227940 6.000000
374.211150 9.000000
374.238590 53.000000
387.946230 8.000000
388.237790 29.000000
388.267790 11.000000
389.262210 11.000000
406.258970 7.000000
424.266170 11.000000
425.285130 5.000000
462.244480 8.000000
467.514220 5.000000
494.289520 9.000000
543.290340 8.000000
543.321720 10.000000

