>compound PR96067382
>parentmass 479.1178534285714
>ionization [M]+
>formula C22H23O12+
>rt 174.741446
>profile qtof
#smiles_iso COC1=CC(=CC(=C1O)O)C2=[O+]C3=CC(=CC(=C3C=C2OC4C(C(C(C(O4)CO)O)O)O)O)O
#smiles_can COC1=CC(=CC(=C1O)O)C2=[O+]C3=CC(=CC(=C3C=C2OC4C(C(C(C(O4)CO)O)O)O)O)O
#inchikey CCQDWIRWKWIUKK-UHFFFAOYSA-O
#pubchem_id 14311149
#mb_accession PR303840,PR303844,PR303848,PR303852,PR303856,PR303860,PR303864,PR303868,PR303872,PR303876,PR303880,PR303884,PR310524,PR310525

>ms2
217.047130 10.000000
245.039400 5.000000
274.047670 22.000000
274.057130 9.000000
302.025390 7.000000
302.044800 81.000000
303.041080 9.000000
304.046840 6.000000
316.062410 6.000000
317.013890 9.000000
317.039340 11.000000
317.065670 1000.000000
318.069210 206.000000
319.070010 14.000000
319.085270 7.000000
479.118560 412.000000

>ms2
317.066830 115.000000
318.064540 8.000000
318.075810 11.000000
479.078830 6.000000
479.117610 1000.000000

>ms2
302.040530 36.000000
317.065730 1000.000000
317.114410 5.000000
318.069150 174.000000
319.066590 16.000000
319.080410 9.000000

>ms2
68.999370 11.000000
69.033390 10.000000
81.032880 6.000000
95.017200 7.000000
104.058600 7.000000
108.017450 7.000000
111.012610 12.000000
121.027220 11.000000
126.032760 6.000000
127.040590 5.000000
132.050660 8.000000
134.033840 11.000000
135.048510 6.000000
139.030210 7.000000
147.045090 11.000000
149.025880 5.000000
150.029420 11.000000
154.788740 7.000000
159.936000 5.000000
161.992690 5.000000
162.033780 6.000000
163.034880 5.000000
163.994580 6.000000
164.046690 14.000000
165.021270 16.000000
166.025590 6.000000
167.029560 7.000000
170.396040 5.000000
171.046620 16.000000
172.016490 6.000000
172.060850 6.000000
173.064440 7.000000
174.033740 14.000000
174.065280 6.000000
174.962160 6.000000
175.029690 10.000000
175.041850 13.000000
175.070100 6.000000
176.040250 18.000000
188.041520 6.000000
189.041780 5.000000
189.049840 13.000000
190.025220 5.000000
190.059660 6.000000
190.065950 15.000000
190.080250 5.000000
191.031800 10.000000
191.041560 6.000000
192.041690 60.000000
193.095460 5.000000
199.037160 11.000000
200.040190 16.000000
200.056630 18.000000
200.763370 8.000000
201.049480 26.000000
201.678860 6.000000
202.070480 22.000000
202.092360 5.000000
203.011930 5.000000
203.033750 199.000000
204.035160 12.000000
204.046160 14.000000
204.054170 5.000000
205.034470 5.000000
206.813100 8.000000
207.689410 7.000000
212.031660 6.000000
212.048840 6.000000
213.024930 6.000000
213.056470 6.000000
214.027340 8.000000
216.031570 6.000000
217.049730 250.000000
217.067600 15.000000
218.016820 17.000000
218.040190 7.000000
218.055940 72.000000
218.650600 5.000000
219.061550 5.000000
227.034740 11.000000
227.056050 5.000000
228.040730 137.000000
228.050990 55.000000
228.115720 8.000000
229.040050 12.000000
229.050460 31.000000
230.044720 5.000000
230.053790 5.000000
231.025130 14.000000
231.035140 13.000000
232.032100 16.000000
234.053240 5.000000
237.359050 5.000000
243.022160 5.000000
243.035030 7.000000
244.032210 5.000000
244.555860 6.000000
244.753420 5.000000
244.988280 6.000000
245.024580 9.000000
245.044830 299.000000
245.063510 11.000000
245.771820 9.000000
246.051760 146.000000
246.104370 7.000000
247.039080 5.000000
247.049210 9.000000
247.483020 7.000000
247.705780 7.000000
248.069200 5.000000
250.790570 5.000000
255.019700 12.000000
255.036580 7.000000
256.035520 38.000000
257.044980 34.000000
258.049530 14.000000
258.059050 5.000000
261.023800 5.000000
269.048860 10.000000
273.023500 32.000000
273.046420 25.000000
274.047700 450.000000
274.173800 5.000000
274.740480 6.000000
274.994480 9.000000
275.050840 73.000000
275.063050 21.000000
276.042390 20.000000
276.057680 6.000000
276.071200 6.000000
283.216060 6.000000
284.024630 32.000000
285.038570 14.000000
285.051390 5.000000
285.249880 6.000000
286.033140 12.000000
287.032530 6.000000
289.249690 11.000000
301.040040 12.000000
302.003330 6.000000
302.041780 1000.000000
302.750730 5.000000
303.021970 11.000000
303.045900 166.000000
303.723880 8.000000
304.038700 22.000000
304.052980 12.000000
313.030060 8.000000
315.034940 6.000000
316.108120 5.000000
317.065190 345.000000
317.998350 8.000000
318.053250 7.000000
318.073580 47.000000
319.069210 12.000000
330.582700 9.000000

>ms2
164.037570 6.000000
217.058910 5.000000
245.044970 6.000000
274.043730 10.000000
274.056430 6.000000
275.063110 9.000000
302.041990 88.000000
303.041810 16.000000
315.048490 5.000000
317.022280 13.000000
317.065610 1000.000000
318.070800 184.000000
319.072300 34.000000
479.109770 221.000000
479.130130 136.000000

>ms2
316.056090 8.000000
317.056520 33.000000
317.067290 80.000000
318.073240 20.000000
479.063660 9.000000
479.117920 1000.000000

>ms2
302.033690 21.000000
302.049220 24.000000
317.066650 1000.000000
318.070560 185.000000
319.074430 41.000000

>ms2
91.057990 9.000000
120.018250 7.000000
121.026050 8.000000
123.043280 13.000000
125.198510 7.000000
126.033730 18.000000
131.053630 6.000000
132.056210 9.000000
133.028840 5.000000
135.041140 11.000000
138.030150 7.000000
143.043200 6.000000
147.040820 13.000000
147.047620 18.000000
150.027880 11.000000
150.033710 12.000000
151.029590 7.000000
151.037350 6.000000
161.058380 6.000000
162.030500 6.000000
162.041560 10.000000
162.066060 12.000000
163.044160 24.000000
164.043960 17.000000
164.051640 8.000000
165.020050 30.000000
165.057830 7.000000
167.033000 12.000000
172.047010 8.000000
173.024630 6.000000
175.032270 9.000000
175.041700 12.000000
176.033520 7.000000
176.040710 12.000000
176.054430 13.000000
183.038570 7.000000
187.041550 13.000000
189.050290 57.000000
189.063060 11.000000
190.028550 6.000000
190.036500 6.000000
190.058000 19.000000
190.065030 23.000000
191.026950 17.000000
191.050580 8.000000
192.023480 6.000000
192.040790 58.000000
193.044130 6.000000
199.000840 6.000000
200.025150 14.000000
200.048400 76.000000
201.048710 11.000000
201.059970 33.000000
201.233600 6.000000
202.057430 13.000000
203.000960 6.000000
203.022350 18.000000
203.035140 176.000000
203.065870 6.000000
203.134340 5.000000
204.008220 6.000000
204.032120 31.000000
204.045930 16.000000
212.049640 5.000000
216.043330 5.000000
216.985790 8.000000
217.049650 319.000000
217.347050 7.000000
218.017270 29.000000
218.032290 10.000000
218.052340 66.000000
218.066960 38.000000
219.027080 7.000000
219.046980 7.000000
227.038480 6.000000
228.041150 103.000000
228.052340 18.000000
228.824190 5.000000
229.039490 37.000000
229.051030 108.000000
230.040080 8.000000
231.020860 5.000000
231.032650 5.000000
232.037770 13.000000
243.058260 8.000000
243.821410 5.000000
244.613980 6.000000
245.037770 89.000000
245.047350 222.000000
246.019090 5.000000
246.052110 154.000000
247.049790 9.000000
247.059630 19.000000
247.290950 7.000000
251.100200 6.000000
255.024550 11.000000
255.629870 5.000000
256.039060 27.000000
257.018950 6.000000
257.038790 7.000000
258.037510 6.000000
258.056820 15.000000
260.036290 8.000000
262.871950 6.000000
269.043730 19.000000
273.039580 75.000000
273.996700 12.000000
274.014890 13.000000
274.049350 609.000000
275.039700 19.000000
275.057040 55.000000
275.214630 7.000000
283.617830 5.000000
285.040250 20.000000
285.055510 9.000000
288.889500 7.000000
301.010040 5.000000
301.032320 5.000000
302.002900 18.000000
302.042020 1000.000000
303.017460 6.000000
303.041930 120.000000
303.060910 48.000000
303.104860 6.000000
304.043240 5.000000
304.056850 6.000000
317.042540 26.000000
317.068940 342.000000
317.099550 6.000000
317.665920 5.000000
318.057010 46.000000
318.071840 45.000000
318.095520 8.000000
319.069400 18.000000
413.944120 6.000000

>ms2
203.040410 6.000000
274.044650 16.000000
302.041780 92.000000
303.050110 19.000000
317.030360 9.000000
317.067170 1000.000000
318.070500 181.000000
319.062590 14.000000
319.078280 14.000000
478.120420 6.000000
479.115390 370.000000

>ms2
315.050630 7.000000
316.062930 7.000000
317.060880 46.000000
317.073610 41.000000
318.069000 8.000000
318.085880 5.000000
479.066650 8.000000
479.119080 1000.000000

>ms2
302.038270 39.000000
302.049190 12.000000
317.066070 1000.000000
318.069820 204.000000
319.072780 38.000000

>ms2
81.033840 18.000000
85.027760 11.000000
91.060530 6.000000
120.055080 7.000000
126.025670 22.000000
134.037720 17.000000
135.037930 6.000000
138.038880 10.000000
140.045230 7.000000
147.047990 7.000000
148.059070 6.000000
149.029950 7.000000
149.058650 7.000000
150.026730 14.000000
152.002620 13.000000
152.011460 10.000000
159.087860 7.000000
161.052860 7.000000
161.063170 8.000000
162.030900 15.000000
163.037380 18.000000
164.043010 8.000000
165.013630 17.000000
165.028350 7.000000
165.053790 6.000000
165.086150 6.000000
166.023390 15.000000
166.588260 7.000000
172.051760 6.000000
173.051070 6.000000
174.059100 9.000000
175.034730 7.000000
177.013900 8.000000
177.042370 10.000000
178.027540 7.000000
183.044560 7.000000
187.075180 7.000000
189.021320 7.000000
189.052800 18.000000
190.022200 15.000000
190.055850 16.000000
190.064850 53.000000
191.029980 35.000000
191.037260 41.000000
191.053800 6.000000
191.062060 8.000000
192.020520 7.000000
192.040220 32.000000
192.050740 6.000000
193.044240 7.000000
196.616330 7.000000
199.027400 6.000000
200.038380 29.000000
200.047550 34.000000
201.050260 14.000000
201.062670 18.000000
202.004700 7.000000
202.022080 6.000000
203.034270 276.000000
204.039630 46.000000
204.110950 6.000000
205.019640 7.000000
205.042620 8.000000
205.816570 6.000000
215.035050 8.000000
216.001590 9.000000
216.036900 8.000000
217.024200 8.000000
217.046860 212.000000
217.063350 19.000000
217.999970 8.000000
218.016130 7.000000
218.029560 33.000000
218.057270 128.000000
219.059130 17.000000
220.012530 7.000000
220.061940 7.000000
221.261140 6.000000
224.579060 8.000000
227.952350 7.000000
228.040330 147.000000
229.003980 6.000000
229.022630 6.000000
229.049360 120.000000
230.040970 13.000000
230.052230 12.000000
231.034070 8.000000
231.068130 6.000000
231.999680 8.000000
232.030500 6.000000
232.064590 10.000000
232.083250 6.000000
233.650770 10.000000
233.973010 8.000000
236.993900 7.000000
240.054030 6.000000
243.074770 6.000000
245.017400 6.000000
245.041790 250.000000
245.050580 149.000000
246.051530 97.000000
246.090090 6.000000
246.375030 7.000000
247.030560 6.000000
247.047640 7.000000
247.059810 6.000000
247.174530 6.000000
255.021480 6.000000
256.026580 13.000000
256.042050 6.000000
257.035190 9.000000
257.049710 53.000000
258.050230 13.000000
258.060940 12.000000
259.064450 7.000000
259.921260 6.000000
263.347080 6.000000
269.163420 6.000000
270.050510 8.000000
272.971070 10.000000
273.035400 68.000000
273.053710 15.000000
273.952030 6.000000
274.009490 7.000000
274.048280 482.000000
274.076230 6.000000
274.105160 6.000000
275.050290 114.000000
275.088530 6.000000
275.270750 6.000000
275.488190 8.000000
276.038600 6.000000
276.061130 15.000000
276.076230 7.000000
276.619510 9.000000
277.699460 6.000000
284.016170 11.000000
284.028500 26.000000
284.039520 17.000000
285.034000 29.000000
285.052980 6.000000
287.052920 16.000000
288.570250 6.000000
291.958980 6.000000
299.047000 7.000000
301.035400 13.000000
301.984220 6.000000
302.013890 37.000000
302.041350 1000.000000
302.741520 8.000000
303.015990 6.000000
303.031770 23.000000
303.048430 142.000000
304.015200 6.000000
304.035800 7.000000
304.060880 50.000000
305.050050 6.000000
307.238680 9.000000
309.512210 6.000000
314.994050 7.000000
315.070190 6.000000
317.065120 400.000000
317.102140 7.000000
318.062130 49.000000
318.078400 35.000000
319.080170 29.000000
319.096440 7.000000
320.090730 7.000000
367.619510 8.000000

>ms2
65.569660 21.000000
121.028990 39.000000
145.064300 26.000000
152.043270 18.000000
153.019090 177.000000
184.050020 21.000000
201.061040 46.000000
209.340390 18.000000
209.622860 28.000000
216.763430 27.000000
217.050050 37.000000
220.045850 22.000000
223.045300 17.000000
228.036040 19.000000
228.043210 43.000000
229.053330 69.000000
230.132320 17.000000
230.166600 24.000000
250.385540 24.000000
257.044770 75.000000
270.119350 29.000000
273.034060 64.000000
274.039220 91.000000
274.052430 56.000000
275.052920 29.000000
285.005490 18.000000
285.041560 88.000000
285.055210 37.000000
286.035060 19.000000
287.044490 20.000000
302.036010 245.000000
302.049990 206.000000
303.042910 43.000000
303.065190 17.000000
304.049100 30.000000
304.061100 31.000000
316.979370 18.000000
317.015080 70.000000
317.035030 33.000000
317.066070 6766.000000
317.838530 20.000000
318.007420 41.000000
318.031430 28.000000
318.069120 1246.000000
318.117280 18.000000
319.056340 25.000000
319.080140 39.000000
320.078610 24.000000
322.421390 18.000000
322.573270 17.000000
329.749540 17.000000
334.061520 18.000000
359.100100 33.000000
367.074490 20.000000
383.080720 21.000000
437.048740 26.000000
479.065030 50.000000
479.084780 154.000000
479.121400 2178.000000
479.303650 19.000000

>ms2
162.028930 20.000000
191.017780 33.000000
203.024050 20.000000
205.013120 40.000000
217.047130 95.000000
218.067460 36.000000
229.048490 17.000000
241.636700 18.000000
244.045670 18.000000
245.039400 48.000000
245.052980 39.000000
245.065430 29.000000
246.051830 22.000000
247.060930 17.000000
247.917940 18.000000
252.671130 20.000000
256.031100 28.000000
257.565670 17.000000
259.055450 19.000000
260.067260 20.000000
273.012210 20.000000
273.022370 22.000000
273.042570 17.000000
274.017430 17.000000
274.047670 208.000000
274.057130 90.000000
274.073330 24.000000
274.085140 17.000000
275.041320 22.000000
275.068180 20.000000
281.509920 25.000000
281.973790 21.000000
287.050290 44.000000
287.809940 21.000000
295.713470 17.000000
298.860750 20.000000
302.012050 20.000000
302.025390 67.000000
302.044800 772.000000
303.041080 87.000000
303.053990 41.000000
304.046840 56.000000
309.837680 21.000000
313.607060 27.000000
316.062410 56.000000
317.013890 88.000000
317.039340 105.000000
317.065670 9556.000000
317.105410 22.000000
317.259550 18.000000
317.596310 33.000000
318.069210 1968.000000
318.630190 21.000000
319.052490 43.000000
319.070010 136.000000
319.085270 63.000000
319.749050 17.000000
320.090970 25.000000
324.957610 18.000000
325.083250 18.000000
329.552550 17.000000
333.490970 17.000000
337.644350 17.000000
421.239690 23.000000
479.003570 20.000000
479.057190 23.000000
479.118560 3937.000000

