>compound PR96395758
>parentmass 202.1259
>ionization [M+H]+
>formula C10H19NOS
>rt 237.600000
>profile qtof
#smiles_iso CS(=O)CCCCCCCCC#N
#smiles_can CS(=O)CCCCCCCCC#N
#inchikey XGRYRNQISNOEGY-UHFFFAOYSA-N
#pubchem_id 85993300
#mb_accession PR310885,PR310886

>ms2peaks
79.046790 19.000000
79.057840 27.000000
93.066680 20.000000
138.128040 18.000000
177.883360 18.000000
202.128850 262.000000

>ms2peaks
55.050690 19.000000
56.051190 26.000000
56.056870 18.000000
58.065430 22.000000
65.008600 62.000000
67.037370 20.000000
67.056790 20.000000
69.065540 17.000000
70.063150 20.000000
70.086310 17.000000
76.633160 18.000000
77.039630 44.000000
79.051540 122.000000
79.058750 75.000000
82.066210 112.000000
83.067370 21.000000
83.072880 39.000000
84.079840 17.000000
84.086790 20.000000
92.053500 18.000000
93.070180 225.000000
93.074040 132.000000
94.060340 23.000000
94.073530 57.000000
95.082310 63.000000
95.089380 17.000000
96.081710 140.000000
96.089880 17.000000
97.089220 77.000000
97.103360 38.000000
98.074010 20.000000
103.052440 18.000000
105.068820 18.000000
108.084800 21.000000
109.091290 34.000000
110.087050 38.000000
110.102850 43.000000
114.313140 20.000000
116.187000 26.000000
117.839390 22.000000
121.100780 139.000000
121.110130 18.000000
122.099750 38.000000
122.109680 21.000000
123.094860 17.000000
135.284060 22.000000
138.104800 17.000000
138.126920 490.000000
138.134340 200.000000
139.116670 30.000000
139.130620 102.000000
140.144090 20.000000
144.251020 21.000000
145.634090 22.000000
159.945910 17.000000
173.705050 33.000000
179.193880 19.000000
202.126130 5387.000000

