>compound PR96550850
>parentmass 147.0446
>ionization [M+H-H2O]+
>formula C9H8O3
>rt 188.400000
>profile qtof
#smiles_iso C1=CC(=CC(=C1)O)C=CC(=O)O
#smiles_can C1=CC(=CC(=C1)O)C=CC(=O)O
#inchikey KKSDGJDHHZEWEP-UHFFFAOYSA-N
#pubchem_id 11496
#mb_accession PR311089

>ms2peaks
84.046910 28.000000
91.054120 20.000000
98.515820 18.000000
112.958020 17.000000
119.049910 49.000000
120.053630 20.000000
147.042690 205.000000
147.080830 28.000000

