>compound PR96708816
>parentmass 299.12778549999996
>ionization [M+H]+
>formula C18H18O4
>rt 370.755960
>profile qtof
#smiles_iso C1[C@H]([C@@H](C(=O)O1)CC2=CC(=CC=C2)O)CC3=CC(=CC=C3)O
#smiles_can C1C(C(C(=O)O1)CC2=CC(=CC=C2)O)CC3=CC(=CC=C3)O
#inchikey HVDGDHBAMCBBLR-PBHICJAKSA-N
#pubchem_id 114739
#mb_accession PR304015,PR304016,PR304017,PR304018,PR304019,PR304020,PR304021,PR304022,PR304023,PR304024,PR304025,PR304026

>ms2
77.006930 7.000000
77.038590 6.000000
79.051150 7.000000
93.066840 7.000000
97.708830 7.000000
98.157720 14.000000
103.053460 15.000000
105.070980 34.000000
107.024840 6.000000
107.039650 26.000000
107.050030 509.000000
108.047640 6.000000
109.070910 6.000000
116.056780 7.000000
117.068700 6.000000
121.060870 11.000000
121.072220 7.000000
129.074480 9.000000
131.088390 7.000000
133.036850 7.000000
133.065290 1000.000000
134.066240 40.000000
134.071760 34.000000
135.037670 6.000000
135.045460 6.000000
141.064940 11.000000
141.075580 8.000000
145.037320 6.000000
145.052090 6.000000
145.067490 80.000000
146.071750 9.000000
147.080660 12.000000
149.059590 77.000000
151.035020 11.000000
151.243800 6.000000
159.073650 6.000000
170.058440 8.000000
178.078890 16.000000
181.095520 6.000000
185.319630 7.000000
190.078520 14.000000
196.070880 7.000000
205.085830 6.000000
207.079220 6.000000
207.097470 7.000000
215.097550 7.000000
217.091710 6.000000
217.104200 12.000000
218.077880 6.000000
219.088650 6.000000
220.093020 7.000000
226.078810 12.000000
227.097690 12.000000
232.680970 6.000000
233.091290 18.000000
235.081210 7.000000
235.111270 12.000000
244.098880 6.000000
245.086620 29.000000
245.097610 31.000000
245.107480 25.000000
248.073940 22.000000
248.088790 6.000000
249.077820 12.000000
253.119840 17.000000
255.132860 6.000000
263.108730 233.000000
263.649570 6.000000
264.103450 8.000000
281.071660 6.000000
281.098240 11.000000
281.118710 455.000000
281.285250 14.000000
281.491610 7.000000
282.121580 55.000000
283.124420 12.000000
290.684170 8.000000
299.095460 6.000000
299.128200 548.000000

>ms2
107.047780 15.000000
107.054540 8.000000
133.064940 145.000000
134.068560 11.000000
134.075090 10.000000
149.057170 27.000000
149.066090 10.000000
235.119840 6.000000
253.121020 5.000000
263.100520 30.000000
263.109890 118.000000
264.106050 13.000000
264.114840 6.000000
281.118440 659.000000
282.114990 26.000000
282.127620 56.000000
283.119050 5.000000
299.128630 1000.000000

>ms2
77.039810 29.000000
78.044320 6.000000
78.760030 6.000000
79.053020 39.000000
79.063610 6.000000
91.051480 38.000000
91.059070 9.000000
93.073500 6.000000
103.050290 27.000000
105.071910 227.000000
106.069510 6.000000
106.074550 8.000000
107.006770 16.000000
107.022190 9.000000
107.034920 8.000000
107.049420 1000.000000
107.075190 6.000000
108.040180 7.000000
108.055640 39.000000
108.132240 6.000000
109.053400 23.000000
115.048740 10.000000
117.073770 13.000000
119.037830 7.000000
119.055700 6.000000
120.305990 8.000000
121.026470 6.000000
121.065580 50.000000
122.068410 8.000000
127.049270 6.000000
127.059310 17.000000
129.068570 6.000000
131.050700 7.000000
131.089260 9.000000
132.907100 7.000000
133.052230 29.000000
133.065800 654.000000
134.058440 6.000000
134.069440 54.000000
134.082210 6.000000
135.074450 6.000000
141.066040 18.000000
141.076420 25.000000
144.061540 20.000000
145.040830 11.000000
145.050640 13.000000
145.063980 148.000000
145.948910 6.000000
146.067810 12.000000
149.037870 8.000000
149.050450 6.000000
149.059780 22.000000
152.444260 7.000000
157.065020 9.000000
157.075210 6.000000
159.079700 51.000000
160.087600 8.000000
161.057390 19.000000
161.066150 14.000000
165.468840 11.000000
169.056780 6.000000
170.068080 12.000000
171.074230 6.000000
173.054660 8.000000
174.033920 9.000000
174.063770 27.000000
174.079830 7.000000
175.072710 7.000000
176.081470 7.000000
179.091340 17.000000
192.090810 12.000000
194.052470 7.000000
202.055690 6.000000
202.083400 14.000000
203.083180 7.000000
206.105710 16.000000
215.077240 7.000000
215.086900 14.000000
215.095670 6.000000
216.098530 20.000000
217.099180 35.000000
217.109620 17.000000
218.069900 8.000000
218.078350 7.000000
219.075760 20.000000
219.095350 10.000000
220.067350 6.000000
220.078290 14.000000
220.091720 19.000000
226.067960 13.000000
227.067490 6.000000
227.088530 20.000000
227.098720 6.000000
228.036820 6.000000
228.088290 13.000000
230.074810 16.000000
231.076350 32.000000
232.037580 6.000000
232.071670 6.000000
232.677120 8.000000
233.095370 6.000000
233.104830 7.000000
235.067920 6.000000
235.111570 6.000000
243.081160 7.000000
244.084820 8.000000
244.100720 6.000000
245.098080 20.000000
246.106280 6.000000
247.077500 22.000000
248.068590 6.000000
248.094620 27.000000
249.094440 6.000000
252.107070 6.000000
258.622380 8.000000
258.686740 6.000000
263.092410 6.000000
263.106600 7.000000
290.925480 11.000000

>ms2
77.038860 216.000000
78.037200 100.000000
78.043350 41.000000
79.053050 139.000000
91.053670 50.000000
101.045140 48.000000
103.053490 118.000000
103.059010 61.000000
105.065180 39.000000
105.072480 98.000000
106.072160 39.000000
106.078570 36.000000
107.044370 284.000000
107.049320 1000.000000
115.064000 48.000000
119.080800 61.000000
127.053810 130.000000
131.053050 39.000000
133.051590 36.000000
133.060990 39.000000
133.072810 59.000000
141.069150 39.000000
145.071040 36.000000
165.062190 41.000000
177.065250 41.000000
178.071990 36.000000
182.056260 43.000000
201.069150 36.000000
201.187960 57.000000
202.077700 105.000000
203.087680 36.000000
203.095780 41.000000
213.070130 39.000000
215.076200 36.000000
218.054400 50.000000
218.063310 41.000000
226.078860 173.000000
227.075000 36.000000
242.069820 39.000000

>ms2
79.059400 11.000000
91.055080 17.000000
93.071400 6.000000
105.071190 69.000000
107.050160 532.000000
107.452470 5.000000
107.571310 6.000000
108.056180 41.000000
108.062310 16.000000
109.062090 5.000000
115.051080 6.000000
117.068300 6.000000
117.078400 9.000000
119.051450 9.000000
121.024570 6.000000
121.060550 6.000000
121.066680 6.000000
122.066770 13.000000
127.054420 5.000000
133.065660 1000.000000
133.108370 6.000000
134.067810 91.000000
134.454420 6.000000
135.044370 11.000000
135.075200 6.000000
136.075900 5.000000
142.066990 6.000000
144.060010 6.000000
145.041750 6.000000
145.066590 109.000000
146.068770 7.000000
149.057740 57.000000
149.064320 22.000000
150.056120 9.000000
150.061660 25.000000
157.061200 8.000000
158.075150 7.000000
159.036900 5.000000
159.082260 20.000000
161.054790 7.000000
161.071790 5.000000
168.048810 5.000000
173.059020 6.000000
187.074630 20.000000
190.053760 5.000000
190.084810 6.000000
192.095060 7.000000
195.082810 6.000000
202.075810 6.000000
202.083650 12.000000
202.527070 7.000000
207.115750 6.000000
215.065890 6.000000
217.103640 16.000000
221.100190 13.000000
227.083080 5.000000
231.055880 7.000000
231.065980 5.000000
231.091030 6.000000
235.074600 7.000000
235.114070 30.000000
235.122330 13.000000
236.113890 6.000000
244.085190 6.000000
245.078830 11.000000
245.093750 24.000000
245.103550 28.000000
246.094350 12.000000
248.092730 20.000000
253.121400 7.000000
254.116180 5.000000
254.135830 9.000000
260.061430 21.000000
263.073300 6.000000
263.106960 294.000000
264.103880 84.000000
264.114530 50.000000
265.108640 8.000000
275.752930 6.000000
278.907470 11.000000
281.117520 557.000000
281.141200 6.000000
281.167760 7.000000
281.988310 5.000000
282.121580 81.000000
283.092380 6.000000
283.113950 12.000000
286.769810 10.000000
289.766110 8.000000
299.128390 747.000000

>ms2
107.050160 20.000000
133.064640 181.000000
134.073230 7.000000
145.063670 7.000000
149.059780 18.000000
149.066470 13.000000
263.108000 152.000000
264.108030 25.000000
264.120760 6.000000
281.118410 615.000000
282.121340 97.000000
299.096710 7.000000
299.128420 1000.000000

>ms2
77.032850 12.000000
77.038020 11.000000
77.042430 5.000000
79.055220 24.000000
80.192010 5.000000
90.988940 5.000000
91.051400 5.000000
93.063910 6.000000
93.073330 25.000000
103.052560 5.000000
104.054720 6.000000
105.050490 6.000000
105.065670 69.000000
105.072490 81.000000
107.020290 5.000000
107.050430 1000.000000
108.045810 10.000000
108.052900 35.000000
109.060550 17.000000
115.054690 21.000000
116.056300 12.000000
117.068190 10.000000
119.048320 20.000000
119.091650 5.000000
120.053790 5.000000
121.034990 6.000000
121.065440 15.000000
127.057270 10.000000
128.054700 11.000000
129.080340 7.000000
131.038510 5.000000
131.049330 12.000000
131.080510 5.000000
131.087480 7.000000
131.094510 5.000000
132.063400 6.000000
132.087270 14.000000
133.064620 626.000000
133.076460 32.000000
133.105550 5.000000
133.476350 5.000000
134.067960 58.000000
135.041470 6.000000
135.047900 5.000000
141.069520 40.000000
143.049220 6.000000
144.056460 10.000000
144.376430 8.000000
145.049030 6.000000
145.064090 107.000000
145.071410 42.000000
146.061860 16.000000
146.070130 32.000000
147.081150 6.000000
149.045680 5.000000
149.065640 5.000000
150.064290 12.000000
157.062700 10.000000
159.079850 41.000000
160.054410 5.000000
161.050600 11.000000
161.062360 19.000000
161.072890 7.000000
168.088090 6.000000
168.695400 9.000000
169.059050 7.000000
169.070530 7.000000
173.058000 13.000000
174.074600 5.000000
187.062320 5.000000
193.108280 6.000000
194.073490 5.000000
200.829120 6.000000
202.074830 33.000000
202.085690 16.000000
203.078510 6.000000
203.096920 13.000000
205.108720 6.000000
206.060120 7.000000
207.066730 5.000000
207.087980 6.000000
208.094770 6.000000
208.129260 10.000000
211.078870 5.000000
215.071330 12.000000
215.085970 8.000000
215.101000 11.000000
216.084990 5.000000
217.081700 8.000000
217.103560 40.000000
217.118420 19.000000
218.086670 5.000000
219.079360 5.000000
220.079770 5.000000
220.093700 23.000000
221.088650 5.000000
228.086150 12.000000
228.100890 18.000000
231.077970 6.000000
233.105160 5.000000
235.074230 5.000000
235.096330 8.000000
236.105790 6.000000
236.120650 11.000000
236.132130 5.000000
242.075240 5.000000
244.062620 5.000000
244.085100 11.000000
245.072910 10.000000
245.086930 5.000000
245.097780 12.000000
245.106200 12.000000
246.089750 6.000000
246.105060 11.000000
247.072680 19.000000
248.079190 16.000000
248.090580 19.000000
249.071990 6.000000
249.088090 5.000000
261.095370 5.000000
261.105070 5.000000
263.112820 7.000000

>ms2
77.026890 46.000000
77.038740 350.000000
77.044850 105.000000
78.569420 41.000000
79.056100 144.000000
80.062000 57.000000
89.507700 41.000000
91.056320 95.000000
103.051880 131.000000
105.057370 51.000000
105.064820 180.000000
105.070230 247.000000
107.037070 118.000000
107.043710 247.000000
107.051740 1000.000000
107.077580 77.000000
108.048650 141.000000
115.056660 290.000000
116.060740 41.000000
117.062050 46.000000
127.046510 46.000000
127.059650 175.000000
131.045550 44.000000
131.055540 46.000000
133.051120 44.000000
133.062840 144.000000
135.049220 46.000000
144.051910 41.000000
145.066410 95.000000
145.073000 54.000000
165.074390 57.000000
179.077760 46.000000
183.081450 44.000000
189.068130 46.000000
190.076690 46.000000
191.085980 41.000000
197.538070 41.000000
201.074200 44.000000
202.069440 90.000000
203.069600 44.000000
205.100520 46.000000
206.080020 57.000000
215.073820 98.000000
215.084300 49.000000
215.099210 67.000000
218.029500 44.000000
226.066860 62.000000
227.090450 46.000000
231.093460 177.000000
281.118840 41.000000
299.137120 44.000000

>ms2
77.036010 13.000000
79.052170 6.000000
91.056750 6.000000
93.072160 12.000000
103.060600 6.000000
104.056020 6.000000
105.068990 66.000000
105.076390 12.000000
106.073720 6.000000
107.038420 29.000000
107.049840 464.000000
108.045050 9.000000
108.051260 9.000000
108.057380 13.000000
109.057820 6.000000
115.052090 11.000000
115.059500 10.000000
116.060740 6.000000
117.072670 6.000000
119.047060 6.000000
121.038030 11.000000
121.063140 44.000000
127.045120 8.000000
131.039960 7.000000
131.050860 15.000000
131.087280 23.000000
132.057480 9.000000
133.044490 6.000000
133.065690 1000.000000
134.064830 40.000000
134.071080 84.000000
135.044040 13.000000
135.051410 7.000000
135.076480 12.000000
141.072040 8.000000
142.071750 6.000000
143.978030 9.000000
144.047610 6.000000
144.069090 6.000000
145.057310 32.000000
145.067990 74.000000
146.066820 6.000000
146.076740 6.000000
147.083070 7.000000
149.038300 6.000000
149.050580 16.000000
149.062130 74.000000
150.057530 6.000000
150.063770 7.000000
159.040800 8.000000
159.079850 31.000000
161.063770 6.000000
170.086750 6.000000
175.065090 8.000000
175.084340 6.000000
176.081990 7.000000
181.056170 6.000000
187.072190 7.000000
187.080700 10.000000
187.851120 7.000000
191.079270 7.000000
202.075910 16.000000
203.089100 6.000000
207.115570 6.000000
215.083680 6.000000
216.096410 12.000000
217.065840 14.000000
217.100800 12.000000
218.067200 6.000000
219.081450 6.000000
220.064000 6.000000
220.094160 6.000000
226.073150 8.000000
234.109530 7.000000
235.100510 11.000000
235.112470 64.000000
236.116670 11.000000
245.097470 104.000000
246.083770 6.000000
246.103100 6.000000
246.112610 7.000000
248.085070 47.000000
249.093720 6.000000
254.122740 6.000000
261.110020 7.000000
263.083920 6.000000
263.107360 307.000000
264.116330 26.000000
264.125610 7.000000
281.067990 6.000000
281.095670 6.000000
281.117580 497.000000
281.143430 6.000000
281.517670 7.000000
282.084590 6.000000
282.105680 13.000000
282.122380 72.000000
282.132660 14.000000
283.130400 8.000000
298.865300 6.000000
299.130100 692.000000

>ms2
107.049890 19.000000
133.065660 160.000000
134.070080 9.000000
149.065600 14.000000
159.078260 10.000000
161.064540 6.000000
245.093370 8.000000
253.125120 11.000000
263.109250 118.000000
264.115170 31.000000
281.118590 575.000000
282.121640 109.000000
299.128630 1000.000000

>ms2
77.038720 22.000000
79.055710 6.000000
80.055730 7.000000
103.050510 11.000000
103.056760 11.000000
105.058540 6.000000
105.069220 166.000000
105.081910 10.000000
106.068600 11.000000
107.005420 9.000000
107.037220 10.000000
107.049690 1000.000000
108.045370 28.000000
108.053600 72.000000
109.051010 5.000000
110.045770 5.000000
115.054140 6.000000
117.072740 9.000000
120.526370 9.000000
121.065890 46.000000
121.075690 5.000000
127.053410 13.000000
129.073990 6.000000
131.049740 27.000000
131.056440 8.000000
131.085270 12.000000
131.091350 11.000000
132.064160 6.000000
133.065510 760.000000
134.059200 12.000000
134.070650 56.000000
135.041500 14.000000
141.063980 8.000000
141.071780 25.000000
145.050490 16.000000
145.062970 102.000000
145.070010 48.000000
146.056980 6.000000
146.067920 13.000000
149.049760 6.000000
149.061070 28.000000
157.062560 12.000000
159.082780 14.000000
160.081730 10.000000
161.066600 9.000000
167.442290 7.000000
169.069120 10.000000
173.058360 6.000000
174.063860 9.000000
174.072830 5.000000
191.080690 10.000000
201.074420 6.000000
202.079820 19.000000
202.337800 5.000000
203.073320 13.000000
205.095630 9.000000
207.083980 7.000000
215.086200 20.000000
216.076870 5.000000
217.099060 15.000000
220.084580 22.000000
220.095400 24.000000
221.091950 5.000000
225.027620 5.000000
226.078140 10.000000
227.063830 6.000000
227.083820 11.000000
227.093260 12.000000
230.073070 6.000000
231.088390 9.000000
231.097630 6.000000
235.096540 6.000000
235.110600 9.000000
244.084210 11.000000
244.100980 17.000000
245.088410 16.000000
245.100220 42.000000
246.096630 12.000000
248.065660 9.000000
248.088130 21.000000
249.072220 7.000000
263.113100 5.000000

>ms2
77.013530 28.000000
77.040420 358.000000
79.048840 73.000000
79.054240 188.000000
79.201920 39.000000
79.939100 28.000000
80.056150 28.000000
85.030740 28.000000
91.054880 28.000000
92.064410 51.000000
103.057030 60.000000
105.060470 41.000000
105.071720 211.000000
106.074580 35.000000
107.050510 1000.000000
108.051100 28.000000
109.056470 42.000000
109.067440 32.000000
115.015590 53.000000
115.050570 30.000000
115.055980 85.000000
115.061060 39.000000
116.064720 28.000000
117.072170 35.000000
121.062070 57.000000
127.044330 30.000000
127.059530 126.000000
131.045060 30.000000
131.082550 35.000000
132.056530 30.000000
133.064710 179.000000
134.065840 32.000000
141.071670 57.000000
144.052220 83.000000
145.065860 65.000000
149.060040 30.000000
165.072680 88.000000
166.061510 32.000000
178.085300 37.000000
189.069350 80.000000
189.079180 69.000000
190.071040 39.000000
191.079740 42.000000
192.082230 28.000000
193.061260 32.000000
200.036010 28.000000
202.074680 108.000000
203.094650 76.000000
206.065700 30.000000
215.080610 30.000000
216.095920 28.000000
217.095750 42.000000
219.074490 32.000000
219.090240 71.000000
220.094350 30.000000
220.902500 42.000000
226.001600 28.000000
226.072400 57.000000
248.080670 28.000000

