>compound PR96009223
>parentmass 219.1507
>ionization [M+H]+
>formula C13H18N2O
>rt 222.000000
>profile qtof
#smiles_iso C1=CC=C(C=C1)/C=C/C(=O)NCCCCN
#smiles_can C1=CC=C(C=C1)C=CC(=O)NCCCCN
#inchikey UYLFIIUIXMINML-CMDGGOBGSA-N
#pubchem_id 12073937
#mb_accession PR311093

>ms2peaks
77.041650 16.000000
103.055780 16.000000
113.938580 18.000000
131.052020 235.000000
133.053150 57.000000
202.120790 55.000000
202.134890 36.000000
219.156400 182.000000

