>compound PR97904438
>parentmass 325.1910545
>ionization [M+H]+
>formula C20H24N2O2
>rt 220.774980
>profile qtof
#smiles_iso C/C=C\1/CN2[C@H]3CC1C(C2CC4=C3NC5=C4C=CC(=C5)OC)CO
#smiles_can CC=C1CN2C3CC1C(C2CC4=C3NC5=C4C=CC(=C5)OC)CO
#inchikey RBALEJFQJCAPLN-RFEOFLAMSA-N
#pubchem_id 6445140
#mb_accession PR300322,PR300331,PR300336,PR300341,PR300346,PR300351,PR300356,PR300361,PR300366,PR300371,PR300376

>ms2peaks
108.080330 59.000000
109.084010 5.000000
120.081010 7.000000
122.095800 9.000000
134.096480 7.000000
138.090810 80.000000
139.096950 7.000000
146.091320 10.000000
146.097410 25.000000
148.073060 6.000000
148.112010 7.000000
155.072240 7.000000
157.086820 8.000000
158.054790 6.000000
159.076230 8.000000
160.077120 20.000000
161.075060 5.000000
161.084460 20.000000
162.090260 7.000000
164.104890 7.000000
167.069700 6.000000
167.079420 5.000000
169.086150 8.000000
170.063420 6.000000
171.068480 8.000000
172.075740 38.000000
173.080490 25.000000
174.090150 109.000000
175.094500 16.000000
183.067320 8.000000
185.084240 6.000000
186.091690 52.000000
186.104860 5.000000
187.098590 74.000000
188.105680 88.000000
189.110170 18.000000
198.091480 35.000000
199.098210 5.000000
200.104290 35.000000
201.104630 5.000000
201.114440 6.000000
210.089630 10.000000
222.090530 14.000000
223.095700 16.000000
224.103270 13.000000
225.113250 7.000000
226.119110 10.000000
234.090940 7.000000
235.094890 6.000000
236.107160 12.000000
237.105000 5.000000
237.116170 11.000000
238.124220 9.000000
249.102100 10.000000
249.117310 6.000000
250.113800 6.000000
251.122960 9.000000
252.135700 60.000000
253.145630 9.000000
254.121550 7.000000
260.104160 5.000000
261.097600 8.000000
262.125240 8.000000
263.127230 5.000000
264.135160 10.000000
265.129880 7.000000
265.142580 9.000000
275.125030 9.000000
276.133450 10.000000
277.118530 6.000000
277.131770 7.000000
278.133000 7.000000
278.150300 17.000000
279.150850 12.000000
282.152400 10.000000
290.151550 9.000000
291.143890 9.000000
292.145870 7.000000
292.157680 6.000000
293.168370 5.000000
294.169680 12.000000
295.179320 19.000000
296.179470 6.000000
307.171540 37.000000
307.183960 57.000000
307.203460 6.000000
308.159300 7.000000
308.179960 20.000000
325.190730 1000.000000
325.242340 27.000000

>ms2peaks
70.025280 6.000000
77.039650 5.000000
80.053380 7.000000
84.081000 12.000000
91.051370 12.000000
93.057880 54.000000
93.071250 39.000000
93.144740 6.000000
94.059890 7.000000
94.064880 16.000000
95.072150 6.000000
98.095710 6.000000
100.885990 7.000000
105.065820 10.000000
106.067290 30.000000
107.070570 22.000000
108.080150 565.000000
109.083140 33.000000
110.096430 30.000000
110.104260 6.000000
111.075290 12.000000
111.081350 16.000000
115.048660 6.000000
117.059010 13.000000
117.068270 10.000000
118.049620 7.000000
118.062990 33.000000
119.071640 23.000000
119.085680 12.000000
120.053550 6.000000
120.079030 87.000000
121.074910 7.000000
121.089120 49.000000
122.094870 89.000000
123.065980 12.000000
126.090460 9.000000
128.061870 9.000000
129.063960 6.000000
129.073910 29.000000
130.064680 10.000000
131.065660 22.000000
131.072400 29.000000
131.082400 7.000000
131.549500 5.000000
132.043620 7.000000
132.072370 20.000000
132.080510 12.000000
132.089680 6.000000
133.055740 15.000000
133.070180 11.000000
134.095340 105.000000
136.058880 5.000000
136.074580 36.000000
136.081560 9.000000
136.718150 9.000000
138.047320 5.000000
138.069850 13.000000
138.090440 514.000000
139.091800 71.000000
139.104020 6.000000
140.097700 7.000000
140.106580 12.000000
143.085240 20.000000
144.056760 21.000000
144.069930 9.000000
144.084110 31.000000
145.061940 19.000000
145.087750 34.000000
146.058470 46.000000
146.076140 6.000000
146.095280 268.000000
147.052370 10.000000
147.066270 58.000000
147.087110 21.000000
147.098300 13.000000
147.104810 8.000000
147.403520 7.000000
148.047650 6.000000
148.074450 73.000000
148.102230 14.000000
148.113980 28.000000
150.090910 12.000000
152.101500 7.000000
154.061340 18.000000
154.069990 6.000000
154.527070 5.000000
155.057430 9.000000
155.067370 30.000000
155.076720 14.000000
155.740600 5.000000
156.072490 8.000000
156.080430 6.000000
157.088730 46.000000
158.051380 9.000000
158.061260 15.000000
158.089110 11.000000
159.053440 8.000000
159.064120 56.000000
159.075610 10.000000
159.091490 16.000000
160.076030 136.000000
160.110820 37.000000
161.083540 292.000000
161.114380 6.000000
162.072280 9.000000
162.088420 57.000000
163.096680 6.000000
164.098740 6.000000
164.108870 34.000000
165.065890 5.000000
165.106580 5.000000
166.069790 13.000000
167.070270 29.000000
168.075420 20.000000
169.085020 62.000000
169.099780 6.000000
170.054240 20.000000
170.092270 14.000000
171.059450 19.000000
171.070250 20.000000
171.083940 7.000000
171.106890 7.000000
172.073820 298.000000
172.103260 9.000000
173.079590 213.000000
173.087490 132.000000
173.953860 5.000000
174.091060 1000.000000
175.093290 145.000000
175.119220 6.000000
176.098040 7.000000
176.108380 27.000000
180.074720 10.000000
181.084410 13.000000
181.096530 7.000000
183.068040 102.000000
184.073120 59.000000
184.113980 10.000000
185.084410 88.000000
186.059940 22.000000
186.073430 9.000000
186.090680 504.000000
187.075010 8.000000
187.098560 776.000000
187.117770 6.000000
188.060900 7.000000
188.085780 15.000000
188.105360 604.000000
189.106250 68.000000
189.115460 36.000000
189.140000 6.000000
190.114820 8.000000
192.088700 6.000000
193.086360 6.000000
194.089080 12.000000
194.110750 5.000000
195.068020 5.000000
196.073640 14.000000
196.087970 6.000000
196.882260 9.000000
197.081650 59.000000
198.090030 302.000000
199.092790 103.000000
199.110960 7.000000
200.084550 7.000000
200.106410 281.000000
201.102630 36.000000
201.112580 40.000000
203.092610 5.000000
205.083100 15.000000
206.098300 12.000000
208.072080 29.000000
208.096190 11.000000
209.079540 26.000000
210.073440 9.000000
210.088560 47.000000
210.098130 29.000000
211.092470 40.000000
211.114750 11.000000
212.057010 9.000000
212.097380 25.000000
212.107670 27.000000
213.068270 7.000000
213.089020 10.000000
213.106370 39.000000
214.106090 13.000000
214.125670 13.000000
218.102130 13.000000
219.099010 5.000000
220.042690 6.000000
221.075260 9.000000
221.083160 15.000000
221.120040 5.000000
221.130340 11.000000
222.087840 72.000000
222.126980 14.000000
222.137100 7.000000
223.071410 6.000000
223.097370 125.000000
223.112670 14.000000
224.108410 144.000000
225.088880 8.000000
225.111770 105.000000
226.119080 36.000000
227.130540 16.000000
228.231600 6.000000
232.079280 9.000000
232.112140 11.000000
234.091450 33.000000
235.081240 7.000000
235.099200 30.000000
235.108690 28.000000
235.122480 7.000000
235.135670 7.000000
236.084920 8.000000
236.099960 82.000000
236.110470 35.000000
237.095400 25.000000
237.112520 203.000000
238.078830 6.000000
238.120380 82.000000
238.131410 25.000000
239.086650 7.000000
239.120930 26.000000
239.132350 13.000000
240.114350 19.000000
240.134030 13.000000
240.145420 7.000000
242.111070 13.000000
244.108320 6.000000
246.088650 20.000000
246.112340 10.000000
246.129960 8.000000
246.139500 12.000000
247.080440 11.000000
247.098400 22.000000
247.126430 18.000000
247.140460 7.000000
248.103680 46.000000
248.119750 19.000000
249.107710 52.000000
249.119840 31.000000
249.156920 6.000000
249.631840 6.000000
250.106930 71.000000
250.120070 53.000000
250.139330 10.000000
251.083600 7.000000
251.103780 6.000000
251.121410 44.000000
251.133930 20.000000
252.095600 14.000000
252.116930 17.000000
252.136640 323.000000
253.117840 11.000000
253.138780 82.000000
254.103530 5.000000
254.118000 27.000000
254.148210 7.000000
254.159730 12.000000
255.118520 11.000000
255.129580 6.000000
256.130160 17.000000
259.130980 6.000000
260.096950 16.000000
260.106690 36.000000
261.115080 59.000000
261.125240 23.000000
262.098750 8.000000
262.119510 64.000000
263.104060 59.000000
263.121460 95.000000
263.140780 15.000000
263.167300 6.000000
264.055850 5.000000
264.113890 27.000000
264.133330 85.000000
264.169860 14.000000
265.104710 7.000000
265.134090 128.000000
265.148990 39.000000
266.100430 5.000000
266.140900 49.000000
266.194240 6.000000
267.110840 6.000000
268.132140 10.000000
270.149350 8.000000
274.117000 27.000000
274.128910 17.000000
275.128360 78.000000
275.151610 13.000000
276.131100 26.000000
276.155820 15.000000
277.094940 9.000000
277.135620 204.000000
278.139370 115.000000
278.157200 42.000000
279.018160 7.000000
279.130190 14.000000
279.149600 133.000000
279.173030 8.000000
280.133540 6.000000
280.153660 19.000000
280.170470 17.000000
281.123320 16.000000
281.132690 11.000000
281.151580 11.000000
282.156040 9.000000
283.150850 6.000000
290.138820 16.000000
290.156650 62.000000
291.112030 7.000000
291.148830 92.000000
291.164700 24.000000
292.150730 66.000000
292.166050 25.000000
293.142400 11.000000
293.162960 104.000000
293.180510 7.000000
294.148350 7.000000
294.162720 14.000000
295.145810 18.000000
295.182190 48.000000
296.152040 21.000000
306.165250 6.000000
307.155060 11.000000
307.178440 171.000000
307.198970 13.000000
308.156860 19.000000
308.184270 54.000000
309.156100 22.000000
309.170780 7.000000
310.115880 5.000000
310.152130 7.000000
310.169890 22.000000
323.176030 9.000000
325.185550 85.000000

>ms2peaks
67.056350 21.000000
67.787000 8.000000
76.722660 12.000000
77.037240 42.000000
77.044960 11.000000
78.036520 7.000000
79.041260 9.000000
79.056610 18.000000
80.049690 26.000000
82.052570 17.000000
83.066250 12.000000
90.021610 13.000000
90.050000 24.000000
90.343190 8.000000
90.866210 6.000000
91.043790 13.000000
91.053600 105.000000
92.047330 34.000000
92.066180 10.000000
93.029330 9.000000
93.047440 25.000000
93.057170 100.000000
93.066900 39.000000
94.065900 14.000000
94.072510 8.000000
95.048310 7.000000
95.064390 9.000000
97.050120 12.000000
98.875980 7.000000
103.053800 53.000000
104.059940 10.000000
105.059540 17.000000
105.066060 13.000000
105.073610 18.000000
105.856480 6.000000
106.050900 13.000000
106.064600 61.000000
107.047130 12.000000
107.057210 6.000000
107.072090 66.000000
108.079440 277.000000
108.732640 8.000000
109.083930 48.000000
110.060160 7.000000
110.096940 20.000000
114.585300 11.000000
115.051920 20.000000
115.057680 23.000000
116.042960 13.000000
116.060460 76.000000
116.066040 28.000000
117.023280 10.000000
117.043940 8.000000
117.053580 27.000000
117.060950 76.000000
118.059460 47.000000
118.066470 57.000000
118.076640 13.000000
119.065630 27.000000
119.075290 20.000000
119.086690 23.000000
120.077580 28.000000
120.083120 29.000000
120.324090 6.000000
121.063190 7.000000
121.086580 24.000000
121.094800 8.000000
122.056750 10.000000
122.065440 8.000000
122.095470 43.000000
122.744470 14.000000
123.058570 17.000000
123.067710 89.000000
124.064380 8.000000
127.056450 101.000000
128.031230 9.000000
128.061510 87.000000
129.052800 6.000000
129.059800 18.000000
129.071140 38.000000
130.064320 336.000000
131.048690 13.000000
131.056810 17.000000
131.067840 74.000000
131.073910 143.000000
131.149230 7.000000
131.956740 7.000000
132.046940 47.000000
132.075780 34.000000
132.082020 29.000000
132.426680 6.000000
133.053590 44.000000
133.088350 21.000000
134.031170 9.000000
134.070680 10.000000
134.096910 49.000000
134.106580 9.000000
134.214770 8.000000
134.706830 6.000000
134.904210 10.000000
136.076020 11.000000
136.115050 10.000000
137.089420 10.000000
138.069560 11.000000
138.089390 122.000000
138.098110 22.000000
139.050250 19.000000
139.088230 8.000000
139.098140 14.000000
141.041340 7.000000
141.054490 7.000000
141.066090 14.000000
142.064760 119.000000
143.045790 14.000000
143.051570 26.000000
143.071810 377.000000
144.052370 84.000000
144.058430 89.000000
144.065510 86.000000
144.079040 672.000000
144.110380 9.000000
145.054530 33.000000
145.061190 17.000000
145.086690 95.000000
145.140960 9.000000
145.798660 8.000000
145.898410 7.000000
145.996190 9.000000
146.040220 17.000000
146.062230 212.000000
146.080060 25.000000
146.098140 48.000000
146.273740 6.000000
146.288570 6.000000
147.051730 8.000000
147.068820 59.000000
147.084090 7.000000
147.099140 12.000000
147.742230 10.000000
148.078450 14.000000
149.115630 8.000000
151.060650 7.000000
153.052000 15.000000
153.060350 15.000000
153.070950 18.000000
154.044800 18.000000
154.062670 400.000000
155.025250 9.000000
155.059140 69.000000
155.071300 215.000000
155.086560 12.000000
155.977400 8.000000
156.049270 11.000000
156.069090 58.000000
156.077960 160.000000
156.822530 17.000000
157.070400 31.000000
157.083240 77.000000
157.091090 54.000000
157.930500 7.000000
158.057430 318.000000
158.074950 68.000000
158.091640 12.000000
158.409180 6.000000
159.038330 7.000000
159.052580 22.000000
159.066560 308.000000
159.090090 28.000000
159.097840 6.000000
159.280620 8.000000
159.867900 6.000000
160.054060 19.000000
160.074310 170.000000
160.732940 6.000000
161.062770 6.000000
161.073290 7.000000
161.083500 8.000000
161.095180 13.000000
162.079540 9.000000
162.095470 6.000000
162.956240 7.000000
163.052840 6.000000
165.056400 12.000000
165.065580 18.000000
165.074250 23.000000
166.050190 8.000000
166.062910 65.000000
166.071530 20.000000
166.084590 9.000000
167.068220 129.000000
167.077740 95.000000
167.098770 11.000000
168.059330 11.000000
168.078670 224.000000
169.045930 9.000000
169.059520 11.000000
169.067410 14.000000
169.082870 93.000000
169.094920 12.000000
170.037370 10.000000
170.059070 147.000000
170.082900 14.000000
170.091340 17.000000
171.016540 7.000000
171.057690 41.000000
171.066640 143.000000
171.087970 18.000000
171.140290 6.000000
171.951110 6.000000
172.036410 6.000000
172.044400 6.000000
172.073620 1000.000000
173.046680 8.000000
173.055480 10.000000
173.081680 465.000000
173.716890 12.000000
173.731110 7.000000
174.074460 9.000000
174.089840 208.000000
174.325380 13.000000
175.093720 9.000000
176.532940 12.000000
176.811340 6.000000
177.028340 12.000000
177.061860 10.000000
177.067960 17.000000
177.083740 11.000000
178.067520 14.000000
178.079090 12.000000
178.087970 9.000000
179.069240 6.000000
179.078740 24.000000
180.075290 86.000000
180.086620 23.000000
181.070330 10.000000
181.084750 65.000000
181.096220 46.000000
181.677200 8.000000
182.046950 17.000000
182.060680 89.000000
182.081770 10.000000
182.087050 19.000000
182.095580 26.000000
182.703140 11.000000
183.050250 16.000000
183.059300 27.000000
183.071240 66.000000
183.091800 6.000000
183.102650 6.000000
183.877010 10.000000
184.048050 13.000000
184.066220 35.000000
184.077390 109.000000
184.090480 12.000000
184.325550 7.000000
185.065380 6.000000
185.087170 59.000000
186.043930 6.000000
186.074780 7.000000
186.092940 152.000000
187.095290 91.000000
187.103410 26.000000
187.229200 6.000000
188.084350 7.000000
188.101930 31.000000
188.112590 15.000000
188.952420 6.000000
189.070280 8.000000
189.078920 6.000000
189.104100 14.000000
190.062100 10.000000
190.082890 26.000000
191.062700 8.000000
191.072800 45.000000
191.085780 7.000000
192.070880 35.000000
192.080660 75.000000
192.092190 16.000000
193.064210 14.000000
193.086180 115.000000
193.097200 35.000000
194.050170 7.000000
194.064420 23.000000
194.097020 170.000000
195.065050 48.000000
195.084340 29.000000
195.095090 31.000000
195.105500 7.000000
196.047550 7.000000
196.058090 8.000000
196.071120 16.000000
196.082290 49.000000
196.104220 24.000000
197.067250 7.000000
197.078190 32.000000
197.087140 17.000000
197.142330 8.000000
198.054600 8.000000
198.084110 65.000000
198.103070 18.000000
199.087840 29.000000
200.100830 11.000000
200.109560 13.000000
200.554400 8.000000
201.065120 11.000000
201.094650 7.000000
201.108470 15.000000
201.415120 6.000000
203.073680 6.000000
203.089450 25.000000
204.077480 128.000000
205.064220 12.000000
205.081470 43.000000
205.091720 66.000000
206.060170 11.000000
206.076810 9.000000
206.092830 94.000000
207.058980 12.000000
207.089310 53.000000
207.105770 32.000000
208.040450 10.000000
208.073780 152.000000
208.092220 10.000000
208.104400 52.000000
208.114520 17.000000
208.170560 7.000000
209.082440 63.000000
209.104450 8.000000
209.120880 20.000000
209.130450 18.000000
210.068470 16.000000
210.081710 63.000000
210.092070 142.000000
210.104680 23.000000
210.123610 8.000000
210.617550 7.000000
210.873760 7.000000
211.088000 23.000000
211.097990 29.000000
211.495270 6.000000
212.100860 15.000000
212.118640 9.000000
213.093350 10.000000
213.278090 9.000000
215.079010 7.000000
215.089260 11.000000
215.120680 14.000000
216.084870 6.000000
217.081180 85.000000
217.094020 55.000000
218.069530 18.000000
218.096530 90.000000
219.067630 7.000000
219.074310 8.000000
219.090450 67.000000
219.107210 32.000000
219.128130 6.000000
219.689150 6.000000
220.055740 10.000000
220.067520 49.000000
220.079680 53.000000
220.104920 100.000000
220.113510 39.000000
220.148380 8.000000
221.072950 66.000000
221.087070 36.000000
221.099730 34.000000
221.112180 23.000000
221.823230 10.000000
222.086290 191.000000
222.114550 8.000000
223.075790 16.000000
223.083360 37.000000
223.095280 57.000000
223.111100 8.000000
223.125730 18.000000
223.315580 8.000000
224.099720 54.000000
225.095320 12.000000
225.111080 51.000000
225.128860 25.000000
227.073470 16.000000
228.088550 7.000000
229.073590 11.000000
229.089290 8.000000
230.060440 8.000000
230.078490 7.000000
230.100570 31.000000
231.099240 95.000000
232.086870 24.000000
232.101060 16.000000
232.108690 12.000000
232.119740 16.000000
233.083800 30.000000
233.096220 29.000000
233.113650 42.000000
233.127270 30.000000
234.089800 112.000000
234.119260 54.000000
234.134190 12.000000
235.067410 10.000000
235.084670 27.000000
235.099790 7.000000
235.121250 24.000000
235.135820 10.000000
235.178160 13.000000
236.076080 14.000000
236.097660 59.000000
236.107770 113.000000
237.089720 10.000000
237.100660 14.000000
237.115160 15.000000
238.100740 7.000000
238.119840 18.000000
238.140460 7.000000
242.090820 8.000000
243.109050 16.000000
244.056210 8.000000
244.095460 10.000000
244.113740 7.000000
245.084780 27.000000
245.096770 14.000000
246.083040 31.000000
246.098630 11.000000
246.119340 15.000000
246.135350 7.000000
247.076020 7.000000
247.085400 26.000000
247.099140 42.000000
248.065660 9.000000
248.087710 23.000000
248.102780 93.000000
248.129030 13.000000
248.138280 8.000000
249.101060 59.000000
249.111880 31.000000
249.135470 25.000000
250.100200 61.000000
250.118930 9.000000
250.131650 18.000000
250.146910 16.000000
252.113280 7.000000
252.143300 11.000000
253.142060 14.000000
258.099120 7.000000
259.094700 8.000000
259.114500 6.000000
260.073270 8.000000
260.099550 37.000000
260.111300 14.000000
260.123230 15.000000
261.104280 44.000000
261.125120 18.000000
261.137600 10.000000
261.672450 7.000000
262.026700 6.000000
262.076810 11.000000
262.096070 14.000000
262.115230 34.000000
262.130710 20.000000
262.269530 7.000000
263.110870 32.000000
263.120270 31.000000
263.155150 7.000000
264.085660 7.000000
264.105870 16.000000
264.121280 46.000000
265.118800 7.000000
265.134550 24.000000
268.650760 7.000000
271.094360 9.000000
271.920170 6.000000
272.092770 7.000000
274.123170 11.000000
275.091190 7.000000
275.179380 9.000000
276.131770 21.000000
277.084990 9.000000
277.114170 8.000000
277.124600 23.000000
277.141330 32.000000
278.570590 7.000000
279.108280 26.000000
279.128570 10.000000
289.155150 8.000000
291.127110 15.000000
291.155330 17.000000
293.123990 9.000000
296.153020 12.000000
302.558380 14.000000
303.878230 9.000000
316.603730 7.000000
318.144930 10.000000
325.177430 23.000000
325.191620 63.000000

>ms2peaks
108.080740 55.000000
120.075820 5.000000
122.096750 12.000000
134.095200 15.000000
136.078340 6.000000
138.091370 62.000000
139.092610 5.000000
143.072600 7.000000
145.087720 6.000000
146.096160 26.000000
147.067980 6.000000
157.086730 5.000000
160.076400 18.000000
161.084050 15.000000
162.090350 7.000000
164.104920 11.000000
172.076000 42.000000
173.078900 13.000000
173.087510 19.000000
174.091800 104.000000
175.096150 20.000000
183.066120 11.000000
184.075500 5.000000
185.079800 9.000000
186.091580 48.000000
187.097580 67.000000
188.100810 27.000000
188.107640 62.000000
189.110350 14.000000
197.087040 5.000000
198.091570 23.000000
199.096830 7.000000
200.107640 40.000000
210.091280 5.000000
212.107160 10.000000
222.087890 11.000000
223.098110 8.000000
224.109220 11.000000
226.122240 5.000000
236.100280 12.000000
237.114760 8.000000
238.122160 8.000000
249.122090 10.000000
251.127260 6.000000
252.138520 53.000000
252.148040 13.000000
253.141510 11.000000
253.151120 6.000000
261.117770 7.000000
262.111600 6.000000
263.125460 9.000000
264.123990 5.000000
264.141780 10.000000
265.134400 17.000000
266.146030 5.000000
276.139220 5.000000
277.127590 8.000000
277.142300 8.000000
278.143430 9.000000
279.151820 12.000000
282.148960 12.000000
290.154790 11.000000
291.152740 17.000000
292.156070 16.000000
293.169950 6.000000
295.171690 11.000000
295.184050 21.000000
307.180300 90.000000
308.172300 7.000000
308.183560 14.000000
325.135010 6.000000
325.192260 1000.000000
325.244170 26.000000

>ms2peaks
188.104770 5.000000
295.182530 8.000000
307.178560 15.000000
325.135680 9.000000
325.191010 1000.000000
325.242490 31.000000

>ms2peaks
62.923820 7.000000
79.048520 9.000000
82.066570 10.000000
91.049530 9.000000
91.055060 8.000000
92.059720 8.000000
93.055140 25.000000
93.068370 28.000000
94.067010 7.000000
95.073640 8.000000
95.088910 8.000000
96.080020 17.000000
103.675190 6.000000
105.059680 5.000000
105.068810 13.000000
106.064380 31.000000
107.066990 10.000000
107.071370 20.000000
107.084240 5.000000
108.067180 16.000000
108.080980 527.000000
109.069280 17.000000
109.084310 33.000000
109.089080 10.000000
109.100900 10.000000
110.092840 9.000000
110.098150 7.000000
111.081010 7.000000
117.039100 8.000000
117.055250 12.000000
117.062930 32.000000
118.063380 41.000000
119.085970 13.000000
120.067860 6.000000
120.078770 55.000000
121.087140 37.000000
121.096490 12.000000
122.097320 102.000000
123.054130 5.000000
123.097990 19.000000
124.112620 5.000000
126.091580 9.000000
126.101910 6.000000
126.866400 6.000000
129.071620 14.000000
130.061050 10.000000
131.070020 15.000000
131.076190 23.000000
132.059740 7.000000
132.078450 8.000000
132.086360 11.000000
133.062230 11.000000
133.086210 13.000000
134.095960 93.000000
136.070040 6.000000
136.077620 10.000000
136.102710 9.000000
136.110700 12.000000
138.091670 535.000000
139.094650 33.000000
140.096970 13.000000
140.102400 9.000000
140.110760 11.000000
141.129750 9.000000
143.072170 17.000000
144.042360 5.000000
144.058260 34.000000
144.079700 43.000000
145.058790 7.000000
145.082340 13.000000
145.087840 33.000000
145.094540 14.000000
146.049180 9.000000
146.058590 44.000000
146.086940 25.000000
146.097230 232.000000
147.056460 8.000000
147.068410 31.000000
147.098980 19.000000
147.105700 15.000000
148.065990 7.000000
148.076080 53.000000
148.099610 7.000000
148.110900 20.000000
149.117450 9.000000
150.089070 30.000000
152.104550 32.000000
154.055910 13.000000
154.063920 12.000000
155.069030 40.000000
156.073040 8.000000
156.079670 8.000000
157.087220 13.000000
157.103100 16.000000
158.055500 23.000000
158.067950 8.000000
158.075300 8.000000
158.087430 10.000000
158.094850 7.000000
158.217860 6.000000
159.063370 56.000000
159.078670 14.000000
159.087620 15.000000
159.784070 6.000000
160.052050 9.000000
160.074570 160.000000
160.114470 24.000000
161.083390 299.000000
161.112720 5.000000
161.127170 8.000000
162.074020 17.000000
162.087340 71.000000
162.097050 12.000000
163.090240 9.000000
164.108670 34.000000
165.112490 8.000000
166.062880 7.000000
166.116350 11.000000
167.072370 28.000000
168.078990 31.000000
169.088910 57.000000
170.050570 8.000000
170.060640 30.000000
170.083630 13.000000
170.092090 7.000000
171.068420 49.000000
172.057830 7.000000
172.075200 343.000000
172.819610 9.000000
173.058590 12.000000
173.082870 308.000000
173.928480 7.000000
174.055010 9.000000
174.062620 21.000000
174.090760 1000.000000
175.041140 8.000000
175.081390 11.000000
175.095990 116.000000
176.067380 7.000000
179.083890 6.000000
181.086590 7.000000
182.053590 7.000000
182.059170 22.000000
182.097210 6.000000
183.067110 114.000000
184.072690 65.000000
184.084500 6.000000
184.108870 12.000000
185.032380 6.000000
185.081380 64.000000
186.091000 548.000000
187.067780 7.000000
187.098800 831.000000
188.068600 6.000000
188.077470 13.000000
188.106750 696.000000
189.109280 89.000000
190.084760 13.000000
190.107700 7.000000
194.084750 5.000000
194.097350 11.000000
195.069470 8.000000
196.072080 19.000000
196.085880 17.000000
196.488540 7.000000
197.081090 43.000000
197.093370 18.000000
198.060440 8.000000
198.090820 308.000000
198.106550 21.000000
199.083340 17.000000
199.093510 93.000000
199.108610 14.000000
200.081880 11.000000
200.107930 309.000000
201.082380 5.000000
201.097260 36.000000
201.110900 38.000000
204.090090 8.000000
205.079930 14.000000
206.086520 9.000000
206.097810 15.000000
207.104710 16.000000
208.065170 8.000000
208.073040 9.000000
208.080250 5.000000
209.082350 14.000000
209.121310 16.000000
210.091980 97.000000
211.099260 62.000000
211.140200 7.000000
212.086930 7.000000
212.105070 52.000000
212.111950 19.000000
213.096790 15.000000
213.108310 9.000000
214.097150 5.000000
214.118820 10.000000
216.112780 5.000000
218.093830 10.000000
220.081440 6.000000
220.112060 13.000000
221.115430 27.000000
221.125400 18.000000
222.083510 22.000000
222.092680 71.000000
222.124040 10.000000
223.081090 6.000000
223.098750 74.000000
224.086550 19.000000
224.107120 127.000000
224.124860 6.000000
225.103150 23.000000
225.112640 50.000000
225.125170 11.000000
226.103790 15.000000
226.123580 25.000000
226.133350 10.000000
227.088260 5.000000
227.118350 8.000000
227.131700 8.000000
228.132510 12.000000
230.073200 6.000000
231.093780 7.000000
232.082730 8.000000
232.109860 7.000000
233.115840 9.000000
234.080310 13.000000
234.092350 28.000000
235.085280 9.000000
235.106830 38.000000
236.088230 13.000000
236.103160 99.000000
236.112430 36.000000
236.138260 7.000000
237.078290 5.000000
237.100280 49.000000
237.114520 158.000000
238.078080 9.000000
238.099910 20.000000
238.119000 84.000000
239.118650 11.000000
239.131650 30.000000
240.132660 20.000000
242.125470 6.000000
244.113340 13.000000
245.110230 7.000000
246.096760 28.000000
246.131180 9.000000
247.099460 29.000000
247.112880 10.000000
247.133960 15.000000
247.144450 7.000000
248.106570 58.000000
248.130370 13.000000
248.147720 5.000000
249.095700 22.000000
249.110550 42.000000
249.125610 11.000000
250.106430 45.000000
250.122940 59.000000
250.132630 17.000000
251.099170 6.000000
251.121550 62.000000
251.136630 16.000000
252.137370 372.000000
253.103380 11.000000
253.116500 15.000000
253.136580 43.000000
253.147690 42.000000
254.108990 17.000000
254.120320 13.000000
254.133970 19.000000
254.150010 21.000000
255.109940 7.000000
255.154190 9.000000
256.131160 52.000000
259.133820 11.000000
260.104340 45.000000
260.114650 25.000000
261.098600 7.000000
261.110110 26.000000
261.119140 53.000000
261.142550 9.000000
262.115480 26.000000
262.124270 52.000000
263.118130 59.000000
263.126890 44.000000
263.156130 10.000000
264.119230 51.000000
264.138820 75.000000
264.791500 5.000000
265.110690 9.000000
265.137730 133.000000
266.101100 6.000000
266.144070 49.000000
267.134430 12.000000
267.153900 25.000000
267.167880 7.000000
268.130580 7.000000
268.168850 5.000000
270.149870 7.000000
274.104800 13.000000
274.123350 24.000000
275.131710 82.000000
275.158360 8.000000
276.134520 49.000000
276.161870 8.000000
277.135740 244.000000
277.685120 6.000000
278.120820 18.000000
278.140350 75.000000
278.161250 41.000000
279.124480 22.000000
279.150820 83.000000
280.140010 15.000000
280.157010 32.000000
280.169980 11.000000
281.115630 8.000000
281.134640 19.000000
281.147280 9.000000
281.170810 9.000000
282.153590 19.000000
290.134860 7.000000
290.151820 97.000000
291.128570 10.000000
291.147920 111.000000
291.172240 6.000000
291.990420 6.000000
292.139770 17.000000
292.155640 103.000000
293.128600 9.000000
293.144260 22.000000
293.165650 81.000000
293.175780 27.000000
294.141600 15.000000
294.165950 22.000000
294.176330 33.000000
295.152040 25.000000
295.174590 19.000000
295.189790 26.000000
296.150020 8.000000
296.168730 13.000000
296.186490 15.000000
297.160920 13.000000
305.145900 14.000000
305.181610 5.000000
306.194700 6.000000
307.140720 8.000000
307.162170 19.000000
307.181120 169.000000
308.162900 23.000000
308.180760 52.000000
308.201350 7.000000
309.165070 18.000000
310.153840 6.000000
311.171690 6.000000
325.159270 7.000000
325.183530 63.000000
325.198640 66.000000

>ms2peaks
55.046100 9.000000
55.407410 6.000000
57.602680 6.000000
60.390090 6.000000
66.048740 8.000000
67.040310 9.000000
68.046360 7.000000
68.266050 7.000000
69.792060 11.000000
77.038730 33.000000
78.033170 9.000000
79.055110 11.000000
80.042430 6.000000
80.050800 7.000000
81.056170 15.000000
81.070550 14.000000
82.067910 11.000000
84.075910 12.000000
86.055320 5.000000
91.037480 7.000000
91.054130 97.000000
91.928510 7.000000
92.047950 26.000000
92.056050 11.000000
93.042330 5.000000
93.057360 231.000000
93.067790 5.000000
94.064770 18.000000
95.071870 8.000000
96.082110 7.000000
98.882710 5.000000
101.041260 12.000000
102.032860 6.000000
103.054190 12.000000
104.032670 8.000000
105.058050 9.000000
105.068870 8.000000
106.060990 49.000000
106.066860 76.000000
107.064150 15.000000
107.074970 54.000000
107.422500 6.000000
108.063070 11.000000
108.080540 405.000000
108.225470 7.000000
108.391490 6.000000
109.080160 25.000000
109.087170 14.000000
109.391530 6.000000
110.085650 6.000000
110.098200 19.000000
110.428130 11.000000
111.314680 7.000000
114.044530 9.000000
115.052380 46.000000
116.048980 12.000000
116.059470 68.000000
116.070830 6.000000
117.038450 6.000000
117.056290 159.000000
117.071100 78.000000
118.056680 15.000000
118.064440 42.000000
118.072530 21.000000
119.072060 8.000000
119.087310 27.000000
120.076420 29.000000
120.082310 49.000000
121.064990 51.000000
121.086300 57.000000
122.094540 9.000000
123.064060 112.000000
125.417270 10.000000
126.907810 7.000000
127.048410 6.000000
127.053650 7.000000
127.060840 6.000000
128.037320 7.000000
128.049990 37.000000
128.061140 56.000000
129.045350 10.000000
129.056240 18.000000
129.067830 14.000000
129.076870 5.000000
130.051640 24.000000
130.064800 189.000000
130.074660 28.000000
130.097290 6.000000
130.498700 6.000000
131.053220 11.000000
131.071750 237.000000
132.032120 6.000000
132.039490 21.000000
132.077800 46.000000
132.084050 22.000000
132.260010 8.000000
133.045150 16.000000
134.096220 14.000000
134.254940 6.000000
134.670320 10.000000
135.468260 7.000000
136.071400 5.000000
136.084630 21.000000
136.110750 9.000000
136.626390 8.000000
137.079530 7.000000
138.060060 10.000000
138.077410 7.000000
138.090230 115.000000
138.096570 62.000000
139.051930 8.000000
139.080550 13.000000
139.093690 33.000000
140.049850 7.000000
141.059690 16.000000
141.067630 7.000000
142.064500 84.000000
142.082140 6.000000
143.071610 415.000000
143.660140 7.000000
143.820370 6.000000
144.049450 41.000000
144.057250 94.000000
144.079930 387.000000
144.535310 6.000000
144.611110 6.000000
145.048920 47.000000
145.062150 48.000000
145.087510 200.000000
146.058650 274.000000
146.094910 55.000000
147.062740 36.000000
147.081310 13.000000
147.093200 8.000000
148.036250 7.000000
148.069810 14.000000
148.108470 8.000000
148.903820 12.000000
151.975110 6.000000
152.059130 21.000000
152.068630 7.000000
153.071780 6.000000
153.095380 5.000000
154.023530 12.000000
154.031160 7.000000
154.041260 7.000000
154.065770 275.000000
154.158070 7.000000
154.384220 5.000000
155.053410 8.000000
155.071290 279.000000
156.049030 26.000000
156.077620 164.000000
156.088810 52.000000
157.055770 10.000000
157.074710 11.000000
157.088590 119.000000
158.036450 8.000000
158.058700 407.000000
158.069380 69.000000
158.084920 12.000000
158.092740 5.000000
158.362430 6.000000
159.044560 18.000000
159.064160 166.000000
159.080900 51.000000
160.042470 8.000000
160.070830 87.000000
160.080020 43.000000
161.080630 124.000000
162.086150 22.000000
164.540530 7.000000
165.048200 8.000000
165.071350 40.000000
166.034940 6.000000
166.070570 41.000000
166.079500 13.000000
167.054110 6.000000
167.071210 187.000000
167.311950 10.000000
168.066160 15.000000
168.081160 142.000000
169.054050 28.000000
169.087130 53.000000
170.032200 8.000000
170.057830 169.000000
170.085560 10.000000
170.096690 10.000000
171.045430 8.000000
171.058040 16.000000
171.068340 59.000000
171.087270 10.000000
172.017440 10.000000
172.047200 6.000000
172.075360 1000.000000
173.081590 339.000000
173.281190 5.000000
173.537310 6.000000
174.064100 7.000000
174.089480 197.000000
174.579220 5.000000
175.011980 6.000000
175.085680 23.000000
175.095930 16.000000
175.659820 5.000000
175.690410 6.000000
176.091230 7.000000
176.107480 10.000000
177.053390 7.000000
178.063800 24.000000
178.082320 15.000000
179.052490 7.000000
179.068180 6.000000
179.076510 22.000000
179.087400 25.000000
179.934810 7.000000
180.081790 164.000000
181.001390 7.000000
181.073580 24.000000
181.085430 34.000000
181.093140 39.000000
182.043840 8.000000
182.054700 19.000000
182.063540 59.000000
182.090960 49.000000
182.826100 5.000000
183.063860 153.000000
183.079240 27.000000
183.089900 8.000000
184.040440 7.000000
184.075100 146.000000
185.066410 17.000000
185.081390 127.000000
185.389510 6.000000
186.074650 21.000000
186.090010 71.000000
186.100850 19.000000
187.084850 37.000000
187.094180 55.000000
187.102840 104.000000
188.101330 21.000000
188.122790 6.000000
189.109880 8.000000
190.073560 12.000000
191.031010 6.000000
191.062420 6.000000
191.068890 16.000000
191.087110 29.000000
192.052090 7.000000
192.066020 12.000000
192.081680 112.000000
193.069440 17.000000
193.086760 82.000000
194.064420 18.000000
194.079160 22.000000
194.097270 201.000000
195.054020 13.000000
195.063080 31.000000
195.078030 15.000000
195.097520 24.000000
195.114300 18.000000
196.050490 9.000000
196.064160 7.000000
196.075040 21.000000
196.083370 36.000000
196.098800 6.000000
197.071080 7.000000
197.079420 22.000000
197.511030 5.000000
198.053360 6.000000
198.072170 6.000000
198.086960 57.000000
199.068180 6.000000
199.078370 10.000000
199.086550 17.000000
200.077850 8.000000
200.102390 21.000000
200.110840 32.000000
201.095120 7.000000
202.113600 19.000000
203.070220 6.000000
203.088500 7.000000
203.818050 10.000000
204.081670 78.000000
204.094420 17.000000
205.061390 5.000000
205.072940 15.000000
205.086700 34.000000
205.095860 44.000000
206.070940 6.000000
206.089420 98.000000
206.100630 29.000000
207.044310 13.000000
207.067460 71.000000
207.090480 33.000000
207.103230 55.000000
207.121580 8.000000
207.798490 10.000000
208.073430 101.000000
208.085210 57.000000
208.106520 30.000000
208.121110 8.000000
209.076320 36.000000
209.092680 7.000000
209.112200 21.000000
209.122570 6.000000
209.262850 6.000000
210.040540 7.000000
210.089720 187.000000
210.114690 9.000000
211.089110 37.000000
211.099380 18.000000
211.109560 5.000000
211.272020 8.000000
212.101520 10.000000
216.049260 8.000000
216.082320 29.000000
216.092030 6.000000
217.061520 5.000000
217.088240 73.000000
218.052950 7.000000
218.078400 13.000000
218.090210 43.000000
218.103230 33.000000
218.138050 6.000000
219.042160 6.000000
219.092330 44.000000
219.101520 89.000000
219.116560 7.000000
220.053130 6.000000
220.065570 25.000000
220.099430 62.000000
220.113510 25.000000
221.056120 13.000000
221.071550 63.000000
221.086180 100.000000
221.105610 35.000000
221.118650 15.000000
222.064350 7.000000
222.077820 41.000000
222.089480 224.000000
222.113540 22.000000
222.137570 5.000000
222.741740 5.000000
223.082860 9.000000
223.096950 52.000000
224.056060 9.000000
224.067210 9.000000
224.081180 6.000000
224.091980 23.000000
224.119900 9.000000
224.132290 16.000000
225.096690 12.000000
225.111920 11.000000
225.166990 7.000000
226.096180 7.000000
226.115040 18.000000
228.087220 6.000000
229.355970 5.000000
230.058060 8.000000
230.078690 7.000000
230.089550 32.000000
230.098970 19.000000
231.094960 17.000000
231.104320 8.000000
232.066470 15.000000
232.085590 21.000000
232.098250 30.000000
232.111560 52.000000
233.074770 10.000000
233.093510 22.000000
233.105330 28.000000
233.115370 35.000000
234.071850 31.000000
234.085240 40.000000
234.097930 26.000000
234.112380 41.000000
234.119750 22.000000
234.132250 8.000000
234.490780 6.000000
235.079530 11.000000
235.091170 18.000000
235.104630 8.000000
235.118260 13.000000
235.127980 14.000000
236.080060 12.000000
236.088900 43.000000
236.108640 80.000000
236.141830 6.000000
237.104020 47.000000
237.117320 11.000000
238.088120 8.000000
238.105710 12.000000
238.121540 22.000000
239.107650 7.000000
240.128510 6.000000
243.101430 20.000000
244.075320 6.000000
244.106430 21.000000
244.119200 8.000000
245.083530 8.000000
245.108150 30.000000
245.122280 19.000000
246.087920 16.000000
246.102170 6.000000
246.118620 8.000000
247.073590 10.000000
247.089570 31.000000
247.103180 46.000000
247.127640 21.000000
248.085400 7.000000
248.099730 12.000000
248.112050 47.000000
248.130230 21.000000
249.078160 8.000000
249.099810 80.000000
249.138990 27.000000
250.106220 36.000000
250.124250 40.000000
250.136670 15.000000
251.107440 7.000000
251.122630 41.000000
252.138230 15.000000
253.129970 7.000000
253.141250 6.000000
255.111790 6.000000
257.088040 7.000000
257.424290 5.000000
258.084440 6.000000
258.382140 6.000000
259.107790 6.000000
260.031160 5.000000
260.093930 9.000000
260.112820 55.000000
260.993100 12.000000
261.102290 31.000000
261.121520 22.000000
261.137820 7.000000
261.151610 15.000000
262.091090 13.000000
262.104000 30.000000
262.114380 46.000000
262.130800 30.000000
263.103730 35.000000
263.118260 49.000000
263.126800 19.000000
264.113040 22.000000
264.122680 20.000000
264.136840 20.000000
265.110110 7.000000
265.128170 29.000000
265.139950 22.000000
266.137020 6.000000
267.196410 7.000000
269.387880 11.000000
269.909390 7.000000
273.090360 7.000000
274.128200 12.000000
274.951600 9.000000
275.123960 8.000000
275.138790 22.000000
276.101380 7.000000
276.122070 25.000000
276.145320 26.000000
277.119630 8.000000
277.128600 27.000000
277.141940 5.000000
279.147550 9.000000
279.162720 7.000000
282.137730 8.000000
289.129390 13.000000
291.167330 10.000000
292.133580 6.000000
292.372590 6.000000
293.121400 12.000000
297.859010 11.000000
300.814390 7.000000
317.074950 14.000000

>ms2peaks
108.079690 44.000000
122.097300 8.000000
134.097890 9.000000
138.091630 76.000000
146.086230 6.000000
146.094250 18.000000
159.072600 6.000000
160.070590 7.000000
160.079060 14.000000
161.083500 18.000000
164.106320 13.000000
167.073490 8.000000
172.076630 37.000000
173.081040 27.000000
174.089520 90.000000
174.100660 14.000000
175.095260 17.000000
183.064770 6.000000
186.091050 51.000000
187.099080 77.000000
188.105500 84.000000
189.103060 5.000000
189.109630 12.000000
198.084000 13.000000
198.093720 19.000000
200.106660 33.000000
210.089980 10.000000
211.098530 8.000000
212.106830 7.000000
222.089660 9.000000
223.097350 5.000000
236.104200 10.000000
237.111650 10.000000
249.116230 6.000000
250.120820 6.000000
252.137020 57.000000
253.140370 6.000000
254.124160 6.000000
262.121060 7.000000
263.117610 5.000000
264.133820 6.000000
265.128940 10.000000
266.135990 7.000000
275.136600 7.000000
277.127500 10.000000
277.140870 6.000000
278.148280 12.000000
279.149630 8.000000
282.150670 14.000000
290.154630 20.000000
291.154390 10.000000
292.159120 13.000000
293.159640 8.000000
295.178380 22.000000
307.181240 73.000000
308.180690 17.000000
325.191500 1000.000000
325.243800 26.000000

>ms2peaks
174.090840 5.000000
307.180660 14.000000
325.130680 8.000000
325.190220 1000.000000
325.242340 31.000000

>ms2peaks
79.053900 7.000000
80.051730 5.000000
81.070040 7.000000
82.064700 8.000000
83.051730 6.000000
84.045620 6.000000
91.055150 36.000000
93.056300 11.000000
93.069700 15.000000
94.059520 6.000000
95.068370 7.000000
105.066510 16.000000
106.066640 13.000000
107.072120 10.000000
107.083540 6.000000
108.062510 8.000000
108.080620 503.000000
109.069170 8.000000
109.085920 31.000000
110.086010 6.000000
110.097150 29.000000
110.364780 5.000000
111.080760 11.000000
111.099210 10.000000
112.075600 6.000000
117.058500 16.000000
117.065210 7.000000
117.072170 7.000000
118.064990 32.000000
119.068740 6.000000
119.081850 12.000000
120.077730 33.000000
120.083910 17.000000
121.080610 13.000000
121.088980 33.000000
122.073190 5.000000
122.095190 105.000000
123.103040 6.000000
128.205410 5.000000
129.067750 13.000000
129.078780 11.000000
131.074370 44.000000
131.084930 7.000000
132.067900 7.000000
133.049060 27.000000
133.065520 11.000000
134.085210 14.000000
134.095930 119.000000
135.067730 5.000000
135.074800 5.000000
135.100540 13.000000
135.109150 5.000000
136.071730 11.000000
138.070040 9.000000
138.090740 596.000000
139.095230 42.000000
139.103900 8.000000
140.096660 10.000000
140.106890 23.000000
140.127370 5.000000
141.111950 7.000000
142.064470 8.000000
142.252240 6.000000
143.072300 13.000000
143.078050 7.000000
144.053920 26.000000
144.080570 34.000000
145.057680 8.000000
145.090060 27.000000
146.058060 43.000000
146.068630 9.000000
146.095520 231.000000
147.070720 49.000000
147.101230 31.000000
148.066940 10.000000
148.077360 23.000000
148.109380 16.000000
149.080030 9.000000
149.086640 6.000000
150.087710 25.000000
151.993970 8.000000
152.068190 5.000000
152.100680 12.000000
152.112230 9.000000
154.051090 6.000000
154.067110 25.000000
155.068760 29.000000
155.077240 29.000000
156.074970 9.000000
156.082890 16.000000
157.067090 5.000000
157.079820 15.000000
157.090160 10.000000
157.096620 13.000000
158.053500 9.000000
158.062790 31.000000
158.074020 6.000000
159.047940 10.000000
159.056440 13.000000
159.067600 26.000000
159.077610 10.000000
160.076190 153.000000
160.113340 50.000000
161.060620 13.000000
161.081150 207.000000
161.115010 7.000000
162.087020 51.000000
162.099790 9.000000
163.091250 9.000000
163.101010 9.000000
164.106320 30.000000
164.112030 11.000000
165.111400 5.000000
166.057110 9.000000
166.067920 29.000000
167.071490 26.000000
168.082140 25.000000
168.089460 7.000000
168.944900 8.000000
169.085010 49.000000
169.092650 25.000000
170.057130 13.000000
170.070020 6.000000
170.088640 9.000000
170.125990 7.000000
171.066760 31.000000
172.010220 8.000000
172.024440 9.000000
172.046110 5.000000
172.074780 333.000000
172.803620 6.000000
173.082640 315.000000
174.091050 1000.000000
175.093290 145.000000
176.096190 12.000000
178.077060 10.000000
181.094280 10.000000
182.054520 9.000000
182.060990 9.000000
183.043730 6.000000
183.067640 89.000000
184.073270 24.000000
184.088100 8.000000
184.113390 13.000000
185.083100 67.000000
185.107420 6.000000
186.054230 18.000000
186.090820 570.000000
187.099140 769.000000
188.071500 9.000000
188.106690 678.000000
189.108900 96.000000
190.088420 8.000000
190.110140 6.000000
193.080570 10.000000
193.095830 5.000000
195.105530 8.000000
196.077190 5.000000
196.086070 6.000000
197.076800 29.000000
197.087940 38.000000
198.062500 6.000000
198.086750 170.000000
198.096730 139.000000
199.080520 26.000000
199.091900 70.000000
199.103680 27.000000
200.070470 8.000000
200.088710 21.000000
200.106230 238.000000
201.104350 62.000000
201.116410 57.000000
202.084370 10.000000
203.126390 7.000000
204.082610 7.000000
204.090620 8.000000
206.090850 17.000000
208.070570 11.000000
208.078640 8.000000
208.109600 10.000000
209.022000 5.000000
209.109190 12.000000
210.078640 11.000000
210.091350 75.000000
210.111220 6.000000
211.080490 8.000000
211.098880 43.000000
211.108000 16.000000
212.104280 40.000000
213.102860 20.000000
214.119050 15.000000
215.114380 8.000000
217.087980 14.000000
218.091400 17.000000
218.101350 10.000000
219.108890 6.000000
220.095930 6.000000
221.082090 11.000000
221.117110 17.000000
221.127960 6.000000
222.091160 44.000000
222.127140 7.000000
223.098560 147.000000
224.086760 12.000000
224.107890 84.000000
225.103390 37.000000
225.119870 44.000000
226.122600 44.000000
227.113070 9.000000
227.123670 12.000000
227.132800 6.000000
231.101960 9.000000
232.072450 8.000000
232.087940 7.000000
232.107350 6.000000
233.069270 8.000000
233.090990 9.000000
234.090000 48.000000
235.076080 6.000000
235.090480 17.000000
235.101010 19.000000
235.115490 7.000000
236.086940 14.000000
236.096880 46.000000
236.111330 64.000000
237.096180 27.000000
237.112490 140.000000
238.095670 8.000000
238.121570 60.000000
239.076780 5.000000
239.112880 8.000000
239.126790 32.000000
240.081040 7.000000
241.118160 8.000000
242.115100 6.000000
246.074050 8.000000
246.099660 25.000000
247.098660 19.000000
248.103810 23.000000
248.115140 25.000000
248.126790 8.000000
248.140200 6.000000
249.103900 46.000000
249.113100 49.000000
249.126750 24.000000
250.115190 101.000000
250.130100 24.000000
250.153840 7.000000
251.091320 8.000000
251.104750 11.000000
251.116550 41.000000
251.128980 47.000000
251.144960 7.000000
252.099660 13.000000
252.137160 316.000000
253.107970 37.000000
253.142110 75.000000
254.118530 24.000000
254.139470 12.000000
254.153700 10.000000
255.137310 6.000000
255.151890 11.000000
256.133540 15.000000
256.142760 16.000000
257.127230 6.000000
258.131470 9.000000
259.134190 13.000000
259.145050 9.000000
260.106350 91.000000
261.093900 6.000000
261.113830 37.000000
261.136600 11.000000
262.101750 7.000000
262.119050 48.000000
262.130890 35.000000
263.066070 8.000000
263.120360 105.000000
263.129880 32.000000
263.166470 12.000000
264.107360 12.000000
264.134770 98.000000
265.116610 19.000000
265.137080 135.000000
266.133640 68.000000
266.154300 12.000000
267.138090 20.000000
274.125240 42.000000
275.117550 16.000000
275.125790 42.000000
275.143400 21.000000
275.156250 31.000000
276.125550 15.000000
276.148930 18.000000
277.129300 154.000000
277.143650 67.000000
277.160220 9.000000
278.133880 89.000000
278.151520 72.000000
278.160830 21.000000
279.146480 139.000000
279.168760 14.000000
280.138820 15.000000
280.153110 36.000000
280.170960 21.000000
281.123930 26.000000
281.137600 8.000000
281.164580 10.000000
282.155490 10.000000
289.134770 6.000000
289.148100 12.000000
290.123320 6.000000
290.152220 65.000000
290.169130 9.000000
291.150760 85.000000
291.159850 46.000000
292.139250 14.000000
292.158330 127.000000
293.121640 6.000000
293.145940 11.000000
293.161500 53.000000
293.175810 47.000000
294.158230 8.000000
294.173580 30.000000
295.133970 9.000000
295.149690 22.000000
295.180850 44.000000
296.145200 8.000000
296.156160 17.000000
296.177520 28.000000
297.167020 5.000000
301.809840 7.000000
305.159030 8.000000
305.168180 11.000000
306.138890 9.000000
307.181610 142.000000
308.160920 51.000000
308.172420 52.000000
309.168060 6.000000
309.182500 5.000000
310.165500 9.000000
325.171170 17.000000
325.191380 122.000000

>ms2peaks
55.053980 24.000000
60.983800 10.000000
62.633730 6.000000
67.057370 13.000000
77.038680 50.000000
78.013690 6.000000
78.034090 14.000000
78.046650 11.000000
79.054890 30.000000
80.049880 27.000000
81.058500 8.000000
82.034640 11.000000
82.065440 8.000000
84.080520 23.000000
86.643080 7.000000
88.569120 18.000000
91.052990 81.000000
91.061810 12.000000
92.037300 7.000000
92.051390 20.000000
92.058330 18.000000
93.020200 15.000000
93.056890 299.000000
93.076500 12.000000
94.026060 11.000000
94.051470 6.000000
94.061750 9.000000
94.067380 19.000000
96.072690 8.000000
96.082000 11.000000
97.062320 7.000000
101.042180 8.000000
102.045660 10.000000
103.051800 18.000000
104.045100 41.000000
104.057430 25.000000
105.054590 11.000000
105.073470 24.000000
106.049350 29.000000
106.058130 51.000000
106.066930 61.000000
107.064700 6.000000
107.072820 48.000000
107.944310 14.000000
108.056200 6.000000
108.064290 7.000000
108.081780 355.000000
108.662730 6.000000
109.061970 8.000000
109.068130 7.000000
109.086560 25.000000
109.600120 6.000000
109.972000 6.000000
110.097500 18.000000
111.083240 7.000000
115.051990 105.000000
116.047280 6.000000
116.059550 89.000000
116.067310 18.000000
117.015050 7.000000
117.056330 100.000000
117.065990 32.000000
117.071470 64.000000
118.044200 7.000000
118.061080 116.000000
118.068440 48.000000
119.077140 16.000000
120.062700 17.000000
120.080760 69.000000
120.089170 13.000000
120.954680 7.000000
121.090990 25.000000
121.199380 7.000000
122.092570 18.000000
122.098820 23.000000
123.056010 8.000000
123.067180 33.000000
123.074290 18.000000
126.682460 6.000000
127.055180 29.000000
127.061400 20.000000
127.725670 11.000000
127.844470 13.000000
128.045030 26.000000
128.056990 48.000000
128.064420 18.000000
129.046940 18.000000
129.057920 20.000000
129.066500 50.000000
129.075900 15.000000
130.039150 9.000000
130.063810 298.000000
130.075940 15.000000
130.146470 6.000000
131.051560 8.000000
131.071150 356.000000
131.083470 12.000000
132.034160 9.000000
132.045010 61.000000
132.061580 27.000000
132.078670 81.000000
133.050460 11.000000
133.057530 12.000000
133.084080 6.000000
133.276840 6.000000
134.070570 12.000000
134.094560 20.000000
134.100310 32.000000
134.513610 6.000000
136.074370 41.000000
136.107570 7.000000
138.089080 191.000000
139.093640 7.000000
139.100890 38.000000
141.012730 8.000000
141.052320 7.000000
141.061110 8.000000
141.071900 19.000000
142.065400 100.000000
142.686650 9.000000
143.059600 30.000000
143.072040 317.000000
143.238770 6.000000
143.305880 7.000000
143.873610 7.000000
144.057170 141.000000
144.072070 181.000000
144.079390 410.000000
144.131650 6.000000
144.153060 6.000000
144.734240 12.000000
145.015460 6.000000
145.051710 30.000000
145.065310 10.000000
145.088260 176.000000
145.109740 10.000000
145.399670 6.000000
146.039280 6.000000
146.058260 176.000000
146.070310 7.000000
146.081250 11.000000
146.089420 33.000000
146.095900 51.000000
147.030010 7.000000
147.055010 18.000000
147.068920 72.000000
147.100050 10.000000
147.107160 7.000000
148.061710 6.000000
148.068360 12.000000
149.694320 8.000000
152.053180 8.000000
152.063870 16.000000
153.055570 8.000000
154.011310 7.000000
154.065090 315.000000
154.078340 12.000000
154.110280 9.000000
155.033970 6.000000
155.047180 11.000000
155.071980 228.000000
156.075850 139.000000
156.086260 31.000000
156.097340 11.000000
157.040760 12.000000
157.068560 7.000000
157.081420 86.000000
157.091870 51.000000
158.057970 256.000000
158.068500 55.000000
158.093340 12.000000
158.102340 12.000000
158.631610 10.000000
159.047850 31.000000
159.061900 89.000000
159.068820 191.000000
159.081950 42.000000
159.211980 12.000000
159.657880 13.000000
159.909770 6.000000
160.055220 23.000000
160.067050 55.000000
160.075820 146.000000
160.930680 10.000000
161.071900 38.000000
161.081650 63.000000
161.094390 6.000000
162.063430 6.000000
162.088440 6.000000
165.061870 6.000000
165.072650 22.000000
166.050400 9.000000
166.061810 39.000000
166.069850 49.000000
166.079930 9.000000
167.043200 18.000000
167.065540 61.000000
167.076890 128.000000
167.096770 6.000000
167.143260 6.000000
167.414380 10.000000
167.764210 7.000000
168.073170 77.000000
168.084560 93.000000
169.047040 14.000000
169.056230 33.000000
169.075990 18.000000
169.089250 25.000000
170.024370 14.000000
170.051820 77.000000
170.060000 164.000000
170.081220 14.000000
170.091340 10.000000
171.050780 7.000000
171.065490 114.000000
171.086940 6.000000
172.039920 6.000000
172.056810 27.000000
172.074510 1000.000000
172.098600 8.000000
172.112180 8.000000
172.828380 8.000000
172.993790 12.000000
173.046070 10.000000
173.056760 29.000000
173.080860 365.000000
173.087810 127.000000
174.059830 10.000000
174.079040 37.000000
174.089140 141.000000
174.096830 56.000000
175.083530 15.000000
175.096890 10.000000
175.635250 6.000000
175.818570 7.000000
176.543120 6.000000
177.058320 8.000000
177.180440 6.000000
178.076800 33.000000
179.069410 18.000000
179.081040 31.000000
179.241930 8.000000
180.061420 17.000000
180.078950 171.000000
180.733550 6.000000
181.064910 11.000000
181.076690 39.000000
181.089400 85.000000
181.098040 18.000000
181.564450 10.000000
182.060940 77.000000
182.074720 10.000000
182.090350 27.000000
182.097020 23.000000
183.039410 7.000000
183.066390 238.000000
183.092530 12.000000
183.102890 9.000000
184.029850 11.000000
184.052730 18.000000
184.070760 104.000000
184.079680 54.000000
184.109990 6.000000
185.071110 32.000000
185.080810 73.000000
185.119510 6.000000
185.194290 6.000000
186.071440 24.000000
186.091800 187.000000
187.081940 10.000000
187.098590 62.000000
187.108090 30.000000
188.095520 34.000000
188.106890 49.000000
189.032390 7.000000
189.067780 13.000000
190.068700 9.000000
190.077290 6.000000
190.116870 8.000000
191.067950 17.000000
191.075410 58.000000
191.086990 39.000000
191.736570 10.000000
192.054240 18.000000
192.081190 128.000000
192.698530 11.000000
193.074770 54.000000
193.089100 116.000000
193.097200 64.000000
194.058790 8.000000
194.070370 10.000000
194.094800 196.000000
194.106580 57.000000
194.943190 6.000000
195.060230 8.000000
195.077550 12.000000
195.090590 15.000000
195.101000 30.000000
195.202010 6.000000
196.071620 82.000000
196.108310 20.000000
197.065290 9.000000
197.084320 32.000000
198.077840 7.000000
198.087680 36.000000
198.099400 23.000000
198.715550 6.000000
199.085590 37.000000
199.103060 9.000000
199.110980 10.000000
199.339170 6.000000
200.089490 20.000000
200.111300 9.000000
201.011990 7.000000
201.104450 20.000000
203.089360 10.000000
204.069840 17.000000
204.084110 46.000000
204.099380 7.000000
205.075700 17.000000
205.090290 125.000000
205.821240 6.000000
206.051180 7.000000
206.088760 158.000000
206.095030 63.000000
206.106280 13.000000
206.120760 6.000000
206.780210 6.000000
207.061690 8.000000
207.075940 6.000000
207.092100 87.000000
207.109860 36.000000
207.192400 7.000000
207.298000 6.000000
208.010890 9.000000
208.036410 6.000000
208.070830 62.000000
208.079860 95.000000
208.095930 8.000000
208.106400 7.000000
208.121400 17.000000
208.602650 6.000000
209.061970 11.000000
209.079350 32.000000
209.105180 11.000000
209.120860 19.000000
209.620480 6.000000
210.062680 7.000000
210.082860 88.000000
210.096850 149.000000
210.724810 12.000000
211.071820 6.000000
211.089810 46.000000
211.104170 7.000000
212.089000 12.000000
212.110090 20.000000
213.100910 6.000000
214.070050 8.000000
216.080870 7.000000
217.088870 103.000000
217.961730 7.000000
218.075560 15.000000
218.094090 127.000000
219.032910 7.000000
219.066250 9.000000
219.090230 45.000000
219.100160 65.000000
219.429920 9.000000
219.995700 6.000000
220.066680 24.000000
220.082020 24.000000
220.102370 61.000000
220.113890 23.000000
221.019330 6.000000
221.055650 15.000000
221.075550 77.000000
221.088040 16.000000
221.099840 28.000000
221.117920 14.000000
221.125340 19.000000
222.060580 9.000000
222.090120 202.000000
222.111820 73.000000
222.404340 9.000000
223.073360 6.000000
223.086930 18.000000
223.103200 68.000000
224.086330 9.000000
224.105320 28.000000
224.542010 7.000000
225.103760 13.000000
225.112660 36.000000
225.126570 12.000000
226.088230 18.000000
226.116550 15.000000
227.124110 6.000000
227.788500 7.000000
230.091280 15.000000
230.103940 19.000000
231.073930 14.000000
231.085980 8.000000
231.101350 55.000000
231.111210 34.000000
232.072590 18.000000
232.089040 11.000000
232.112990 72.000000
232.124800 21.000000
232.135800 7.000000
233.050140 16.000000
233.062550 28.000000
233.077440 60.000000
233.085490 28.000000
233.102260 66.000000
233.125320 6.000000
233.403340 7.000000
234.062000 8.000000
234.089650 65.000000
234.111570 53.000000
234.125470 26.000000
234.141220 14.000000
235.062320 17.000000
235.080230 44.000000
235.094500 57.000000
235.109740 30.000000
235.126940 9.000000
236.083710 16.000000
236.101150 89.000000
236.109860 28.000000
236.134020 12.000000
236.143660 8.000000
237.090700 9.000000
237.102660 58.000000
237.122710 6.000000
238.113430 29.000000
239.088060 10.000000
239.108150 8.000000
239.127440 6.000000
239.532910 6.000000
241.077610 12.000000
242.100130 6.000000
243.103450 15.000000
245.071760 7.000000
245.086040 35.000000
245.118990 6.000000
246.086650 16.000000
246.101140 8.000000
247.074570 6.000000
247.092030 48.000000
247.101720 13.000000
247.123230 11.000000
248.029400 6.000000
248.099930 121.000000
248.114460 46.000000
248.127010 25.000000
248.137880 11.000000
249.081530 23.000000
249.105120 62.000000
249.119640 30.000000
249.898960 8.000000
250.109410 19.000000
250.123280 60.000000
250.144870 8.000000
251.114000 6.000000
251.129330 10.000000
251.152920 8.000000
252.107220 6.000000
252.125200 15.000000
253.139100 9.000000
259.082520 22.000000
259.105070 29.000000
260.018430 8.000000
260.108520 83.000000
260.127870 7.000000
261.094670 27.000000
261.109190 35.000000
261.138820 9.000000
262.106450 38.000000
262.114930 96.000000
262.997070 6.000000
263.110050 6.000000
263.120450 17.000000
263.136290 6.000000
263.156920 23.000000
263.172970 14.000000
263.245730 6.000000
263.324010 6.000000
264.119450 41.000000
264.137120 12.000000
264.159880 8.000000
265.101620 10.000000
265.117980 13.000000
265.141170 16.000000
266.105530 10.000000
266.128720 11.000000
267.153720 9.000000
273.039920 6.000000
275.122310 17.000000
276.135280 6.000000
277.108950 7.000000
277.133120 54.000000
277.149230 11.000000
278.116270 8.000000
278.141240 53.000000
279.146150 6.000000
284.623990 6.000000
293.155940 6.000000
294.166810 6.000000
295.143220 7.000000
296.144040 8.000000
304.414700 6.000000
322.790190 6.000000
325.183840 36.000000
325.194520 19.000000

