>compound PR97981292
>parentmass 340.1543342461538
>ionization [M+H]+
>formula C20H21NO4
>rt 269.493212
>profile qtof
#smiles_iso COC1=C(C=C(C=C1)CC2=NC=CC3=CC(=C(C=C32)OC)OC)OC
#smiles_can COC1=C(C=C(C=C1)CC2=NC=CC3=CC(=C(C=C32)OC)OC)OC
#inchikey XQYZDYMELSJDRZ-UHFFFAOYSA-N
#pubchem_id 4680
#mb_accession PR301401,PR301405,PR301409,PR301413,PR301417,PR301421,PR301425,PR301429,PR301432,PR301436,PR301440,PR301444,PR310594

>ms2
158.060560 7.000000
159.067230 5.000000
170.060260 8.000000
171.067890 69.000000
172.071790 20.000000
186.057310 13.000000
187.061250 12.000000
188.069460 5.000000
202.085910 205.000000
203.090480 38.000000
280.094390 19.000000
294.117340 5.000000
295.119480 7.000000
296.128200 29.000000
308.089750 22.000000
309.092100 5.000000
310.104640 6.000000
324.121980 194.000000
325.126500 63.000000
326.132540 10.000000
340.154480 1000.000000
340.207610 30.000000

>ms2
340.154360 1000.000000
340.207310 35.000000

>ms2
115.055270 6.000000
123.044270 28.000000
133.067230 6.000000
142.065110 18.000000
148.050640 17.000000
156.047330 9.000000
158.061170 23.000000
159.068470 18.000000
170.061360 20.000000
171.068500 248.000000
172.074830 64.000000
174.068210 6.000000
174.091980 11.000000
175.077850 24.000000
186.055480 16.000000
187.064160 57.000000
188.068770 26.000000
189.075120 5.000000
202.087250 901.000000
202.127810 9.000000
203.091190 198.000000
204.094450 12.000000
241.111680 5.000000
249.117630 11.000000
263.097870 6.000000
264.102330 12.000000
278.116790 11.000000
279.122990 6.000000
280.090300 13.000000
280.101380 14.000000
281.107360 10.000000
282.106960 6.000000
292.104310 5.000000
294.113650 26.000000
295.119230 33.000000
295.131470 8.000000
296.128630 202.000000
297.125030 19.000000
297.135990 28.000000
307.119780 6.000000
308.093200 13.000000
308.116030 9.000000
308.130370 11.000000
309.103030 13.000000
309.115660 6.000000
310.108760 35.000000
324.077000 10.000000
324.124420 1000.000000
324.175020 9.000000
325.128630 279.000000
326.132810 47.000000
340.155520 243.000000

>ms2
77.038200 25.000000
79.055850 5.000000
89.035870 8.000000
91.054270 48.000000
95.048710 73.000000
101.040250 26.000000
102.046290 17.000000
103.053710 111.000000
103.061900 17.000000
104.047790 5.000000
104.057880 16.000000
105.070430 6.000000
107.050940 25.000000
107.059080 11.000000
108.059040 6.000000
113.039890 8.000000
114.036930 6.000000
114.045520 34.000000
115.054760 143.000000
116.050920 125.000000
116.061420 29.000000
117.063840 42.000000
118.063560 50.000000
119.048470 9.000000
123.044020 115.000000
124.051990 12.000000
127.041100 38.000000
127.056560 11.000000
128.032140 5.000000
128.050900 358.000000
129.045500 17.000000
129.057510 90.000000
130.049000 6.000000
130.067020 191.000000
131.050740 225.000000
131.064240 25.000000
131.073320 68.000000
131.241760 6.000000
132.046860 24.000000
132.055100 26.000000
132.063370 8.000000
132.079410 6.000000
133.025040 11.000000
133.057920 8.000000
133.064350 7.000000
135.045350 20.000000
138.065720 14.000000
140.047520 100.000000
140.055390 74.000000
141.044970 7.000000
141.057400 118.000000
142.065660 83.000000
143.049210 8.000000
143.056260 7.000000
143.068740 15.000000
143.075360 25.000000
144.044780 62.000000
144.053390 21.000000
144.065220 6.000000
144.079530 21.000000
145.050280 15.000000
145.064640 68.000000
145.085800 8.000000
146.041990 7.000000
146.058110 46.000000
146.065350 30.000000
146.075350 18.000000
147.074600 6.000000
147.083650 8.000000
148.046830 16.000000
149.057950 6.000000
151.069890 6.000000
151.077640 17.000000
154.060270 6.000000
154.065480 14.000000
155.031480 12.000000
155.039490 20.000000
155.056030 6.000000
155.073120 5.000000
156.044950 419.000000
156.071240 5.000000
157.050520 146.000000
157.093690 8.000000
157.977780 7.000000
158.061110 544.000000
159.041950 22.000000
159.054950 18.000000
159.068210 125.000000
160.055250 33.000000
160.071030 23.000000
160.080720 20.000000
161.058520 17.000000
161.066600 6.000000
166.054000 5.000000
167.072100 18.000000
170.063510 58.000000
171.046390 5.000000
171.068940 1000.000000
172.039510 44.000000
172.054020 9.000000
172.073840 153.000000
172.294390 5.000000
172.959550 6.000000
173.048000 8.000000
173.077390 26.000000
173.766740 6.000000
174.041020 7.000000
174.057720 39.000000
174.095460 18.000000
175.057570 17.000000
175.075410 34.000000
175.083070 18.000000
178.727680 7.000000
179.068450 7.000000
180.082920 31.000000
181.080860 9.000000
181.096440 7.000000
183.066380 31.000000
184.039350 6.000000
184.060900 9.000000
184.072040 9.000000
186.056990 406.000000
187.036960 6.000000
187.060870 144.000000
187.069150 62.000000
188.048660 9.000000
188.070650 58.000000
189.071640 18.000000
189.083250 11.000000
190.087140 7.000000
190.096820 6.000000
191.073350 33.000000
192.081600 40.000000
193.083240 13.000000
193.092060 10.000000
194.101380 7.000000
196.076920 43.000000
197.073870 11.000000
197.087070 12.000000
198.089400 11.000000
200.073530 15.000000
201.076490 5.000000
202.057630 6.000000
202.086580 281.000000
203.070770 5.000000
203.092220 40.000000
204.081010 42.000000
204.090060 14.000000
205.086620 16.000000
205.097820 12.000000
206.099090 35.000000
207.077030 8.000000
207.089310 6.000000
208.075330 31.000000
208.082730 13.000000
209.085740 43.000000
210.091580 45.000000
210.103740 12.000000
211.059050 5.000000
217.089040 14.000000
218.098770 17.000000
219.093000 5.000000
219.105030 7.000000
219.183470 7.000000
220.076250 97.000000
220.086960 25.000000
221.059510 9.000000
221.085560 59.000000
222.053680 11.000000
222.066360 6.000000
222.094910 129.000000
222.104510 38.000000
223.070980 9.000000
223.090590 16.000000
223.100510 40.000000
224.069610 45.000000
224.079880 12.000000
224.092420 5.000000
224.105440 11.000000
225.073520 10.000000
225.081590 6.000000
225.105830 6.000000
226.081280 6.000000
226.090930 11.000000
227.099110 21.000000
228.106340 7.000000
232.082580 6.000000
233.074490 15.000000
233.087340 31.000000
234.075090 9.000000
234.093460 113.000000
235.065120 5.000000
235.099780 39.000000
235.109390 11.000000
236.067110 17.000000
236.077220 10.000000
236.098280 17.000000
236.109760 17.000000
237.068540 14.000000
237.079570 18.000000
238.076950 17.000000
238.090820 72.000000
239.090360 14.000000
240.096650 27.000000
240.108400 20.000000
241.099660 10.000000
241.111540 10.000000
245.086170 7.000000
246.087520 5.000000
247.091060 9.000000
248.067470 12.000000
248.077070 11.000000
249.083040 27.000000
250.085250 170.000000
250.098190 47.000000
251.086460 32.000000
251.096240 67.000000
252.092730 29.000000
252.104130 115.000000
253.102600 19.000000
254.112500 5.000000
254.135470 9.000000
260.100520 6.000000
261.069120 12.000000
261.081670 10.000000
261.095580 6.000000
262.055540 5.000000
262.085570 25.000000
262.096100 11.000000
263.077030 9.000000
263.093020 28.000000
263.101780 13.000000
264.068300 15.000000
264.101810 48.000000
264.121250 13.000000
265.089480 8.000000
265.104030 8.000000
266.072240 18.000000
266.085720 25.000000
266.105710 7.000000
266.119380 21.000000
266.132480 11.000000
267.089630 16.000000
267.118740 7.000000
278.066350 18.000000
278.084960 116.000000
278.125640 10.000000
279.079900 41.000000
279.095580 44.000000
280.056210 6.000000
280.098820 528.000000
281.091030 36.000000
281.105350 95.000000
281.134460 7.000000
282.093440 14.000000
282.108730 10.000000
290.080050 16.000000
290.091950 6.000000
292.098050 17.000000
293.094880 6.000000
293.495360 5.000000
294.113950 33.000000
294.123960 23.000000
295.105160 7.000000
296.128600 17.000000
297.127840 5.000000
306.067170 7.000000
306.077360 18.000000
308.049560 13.000000
308.092160 701.000000
309.086850 60.000000
309.100130 132.000000
310.089870 5.000000
310.105010 22.000000
322.110600 5.000000
322.121190 7.000000
324.114780 41.000000
324.126340 88.000000
325.121800 32.000000
325.135990 11.000000
325.148680 6.000000
340.155330 23.000000

>ms2
123.044690 6.000000
156.045100 6.000000
158.061130 9.000000
171.068370 59.000000
172.074890 18.000000
175.078890 6.000000
186.056260 9.000000
187.062420 12.000000
202.086820 205.000000
203.091770 39.000000
252.098300 5.000000
280.098790 17.000000
294.111630 6.000000
295.121120 8.000000
296.129390 33.000000
297.133450 7.000000
308.092560 17.000000
309.100830 9.000000
324.124330 190.000000
325.128510 57.000000
326.129210 8.000000
340.155730 1000.000000
340.208590 33.000000

>ms2
340.154880 1000.000000
340.207610 37.000000
340.256350 5.000000

>ms2
123.045200 29.000000
142.067640 14.000000
147.081310 8.000000
148.052610 21.000000
151.080220 5.000000
156.045910 7.000000
158.060750 26.000000
159.066710 8.000000
160.072220 5.000000
170.060120 14.000000
171.068150 211.000000
172.073640 71.000000
174.093540 13.000000
175.070570 14.000000
175.078670 16.000000
186.054890 15.000000
186.061740 9.000000
187.062330 52.000000
188.067080 19.000000
202.053770 7.000000
202.087040 930.000000
202.126360 13.000000
203.092150 196.000000
204.094560 23.000000
240.100920 7.000000
249.114850 9.000000
266.123900 8.000000
279.125210 7.000000
280.099790 25.000000
280.114010 5.000000
281.097530 5.000000
282.104920 6.000000
282.117430 7.000000
292.102200 5.000000
294.113560 26.000000
295.121000 39.000000
296.129150 180.000000
297.130250 37.000000
297.150570 7.000000
308.096890 18.000000
308.128170 13.000000
309.098140 19.000000
310.106600 29.000000
324.073580 7.000000
324.124150 1000.000000
324.178770 11.000000
325.128780 296.000000
326.132480 57.000000
340.156430 227.000000

>ms2
68.283460 5.000000
77.038960 16.000000
91.056380 33.000000
95.050660 112.000000
100.542380 6.000000
102.047680 23.000000
103.044790 14.000000
103.054750 212.000000
104.047820 9.000000
104.059840 26.000000
104.063930 11.000000
107.050160 63.000000
108.058140 21.000000
114.042020 18.000000
114.048950 13.000000
115.041530 11.000000
115.054380 129.000000
116.049750 43.000000
116.062550 28.000000
117.050640 8.000000
117.058510 27.000000
117.067610 14.000000
118.037090 9.000000
118.063250 26.000000
118.070930 20.000000
119.049080 14.000000
119.070590 7.000000
121.061740 9.000000
121.066850 11.000000
123.044000 107.000000
124.050440 7.000000
127.045540 39.000000
128.035550 36.000000
128.050510 426.000000
128.198170 6.000000
129.055710 135.000000
130.064410 245.000000
130.078630 12.000000
130.992920 7.000000
131.050170 321.000000
131.075820 54.000000
132.051850 44.000000
132.065320 10.000000
133.028470 41.000000
133.047290 5.000000
133.067250 10.000000
134.063540 6.000000
135.037430 23.000000
135.045610 23.000000
135.052690 9.000000
137.409160 8.000000
140.042140 34.000000
140.051010 129.000000
140.076640 6.000000
141.054870 80.000000
141.065810 12.000000
142.054640 17.000000
142.065310 109.000000
142.074550 28.000000
142.505480 7.000000
143.038310 7.000000
143.052440 20.000000
143.075900 29.000000
144.043670 88.000000
144.050780 46.000000
144.065830 7.000000
144.073750 10.000000
144.086990 7.000000
145.040220 6.000000
145.052490 48.000000
145.063110 64.000000
145.084530 8.000000
146.056350 13.000000
146.064060 36.000000
147.008210 6.000000
147.052570 11.000000
147.074830 7.000000
148.053340 46.000000
149.049120 6.000000
149.057020 9.000000
151.065920 10.000000
151.073760 26.000000
154.068150 13.000000
155.040070 10.000000
155.071460 11.000000
156.044780 576.000000
156.068100 7.000000
157.028900 12.000000
157.047010 77.000000
157.054600 67.000000
157.069340 5.000000
158.028370 13.000000
158.044980 20.000000
158.060520 550.000000
159.041780 42.000000
159.066270 187.000000
159.073290 49.000000
160.050750 32.000000
160.067500 32.000000
160.075120 37.000000
160.086330 5.000000
160.099350 6.000000
161.051130 7.000000
161.062550 17.000000
161.081130 11.000000
162.056700 9.000000
162.066360 7.000000
170.045270 19.000000
170.062130 123.000000
171.043840 26.000000
171.068630 1000.000000
171.109310 5.000000
172.033800 10.000000
172.041500 23.000000
172.062100 27.000000
172.072660 143.000000
172.080700 40.000000
173.040770 22.000000
173.077120 12.000000
174.058410 58.000000
174.069260 19.000000
174.093810 11.000000
174.162520 5.000000
175.057710 9.000000
175.066510 30.000000
175.077620 48.000000
175.097580 14.000000
175.836870 7.000000
176.079040 19.000000
179.070210 17.000000
180.079420 34.000000
181.084780 15.000000
181.093770 7.000000
182.096220 8.000000
183.073970 22.000000
184.078340 36.000000
185.978450 6.000000
186.055100 517.000000
187.061540 244.000000
188.067860 39.000000
189.080950 32.000000
190.088290 20.000000
191.073590 12.000000
192.080800 31.000000
193.063610 9.000000
193.083800 6.000000
194.060230 8.000000
194.085680 6.000000
194.098390 14.000000
195.084230 6.000000
195.102200 7.000000
196.060380 6.000000
196.076110 57.000000
197.077870 16.000000
197.086980 7.000000
198.053390 5.000000
198.087130 7.000000
198.095180 7.000000
202.058900 6.000000
202.086670 362.000000
202.104200 11.000000
203.090390 61.000000
204.079590 61.000000
204.099110 6.000000
205.067730 8.000000
205.083370 24.000000
205.094560 16.000000
206.093120 41.000000
207.073120 7.000000
207.099270 7.000000
208.072530 47.000000
208.081850 33.000000
208.116030 6.000000
209.084790 35.000000
209.094670 27.000000
210.087110 45.000000
210.099930 13.000000
211.068220 10.000000
211.093860 15.000000
212.069340 8.000000
216.079220 6.000000
217.079760 13.000000
218.101320 9.000000
218.114200 11.000000
219.070720 14.000000
219.107480 7.000000
220.077320 140.000000
221.064710 10.000000
221.080950 69.000000
221.093860 11.000000
222.057980 8.000000
222.092360 170.000000
223.064070 7.000000
223.081360 6.000000
223.095170 54.000000
223.106920 18.000000
224.061430 8.000000
224.073550 44.000000
224.081710 19.000000
224.104060 23.000000
224.121260 8.000000
225.075930 35.000000
225.087890 11.000000
227.084430 8.000000
232.069630 16.000000
232.085650 22.000000
233.081280 69.000000
233.125490 6.000000
234.081630 25.000000
234.090970 96.000000
234.100010 56.000000
235.060930 14.000000
235.086490 19.000000
235.098280 54.000000
235.108800 24.000000
236.071700 50.000000
236.105150 30.000000
237.064130 12.000000
237.081390 13.000000
237.121280 7.000000
238.079320 24.000000
238.092850 38.000000
239.092680 13.000000
239.847380 5.000000
240.101850 61.000000
241.075740 8.000000
241.097550 12.000000
241.112870 8.000000
247.094710 6.000000
248.072630 56.000000
248.107280 13.000000
249.064610 15.000000
249.079910 67.000000
250.061740 6.000000
250.087200 199.000000
251.091050 84.000000
252.101040 197.000000
253.085400 6.000000
253.107790 22.000000
253.118160 12.000000
254.092740 7.000000
255.106720 7.000000
255.729230 5.000000
261.075320 12.000000
261.092160 7.000000
262.066960 7.000000
262.087710 72.000000
263.082340 11.000000
263.093440 45.000000
263.104610 17.000000
264.086550 10.000000
264.102630 61.000000
265.076140 6.000000
265.110140 18.000000
266.073760 10.000000
266.082610 33.000000
266.119290 58.000000
266.480620 5.000000
267.083040 19.000000
268.139800 6.000000
278.079740 116.000000
278.095760 25.000000
278.122340 7.000000
279.085630 93.000000
280.070430 22.000000
280.096740 624.000000
280.122280 7.000000
281.062100 8.000000
281.076450 18.000000
281.102750 149.000000
282.103240 18.000000
282.116420 13.000000
288.063350 5.000000
290.065520 5.000000
290.086520 8.000000
292.081630 5.000000
292.102970 12.000000
293.106080 11.000000
294.096010 6.000000
294.111420 50.000000
295.114900 11.000000
296.126770 25.000000
297.139250 6.000000
306.077850 34.000000
306.103180 20.000000
308.062130 17.000000
308.091030 634.000000
308.101840 279.000000
309.089810 92.000000
309.101010 100.000000
310.096890 26.000000
322.117070 18.000000
323.118590 18.000000
324.106570 26.000000
324.121220 83.000000
324.136260 38.000000
325.094880 7.000000
325.113280 13.000000
325.132230 29.000000
340.163480 16.000000

>ms2
123.045520 6.000000
156.046160 8.000000
158.062180 8.000000
171.068120 61.000000
172.072390 15.000000
175.074340 6.000000
186.056290 11.000000
187.063140 18.000000
202.086720 196.000000
203.090790 32.000000
280.098750 16.000000
294.107640 6.000000
296.127040 37.000000
297.129300 6.000000
308.091950 20.000000
309.094210 7.000000
310.111510 6.000000
324.123570 183.000000
325.127810 61.000000
326.125370 6.000000
340.155910 1000.000000
340.208370 33.000000

>ms2
340.154020 1000.000000
340.206670 35.000000
340.255920 6.000000

>ms2
123.045010 30.000000
142.067200 9.000000
143.070210 8.000000
144.074910 5.000000
148.053180 12.000000
151.075790 7.000000
156.041260 6.000000
157.089720 6.000000
158.060420 22.000000
159.066100 22.000000
170.059270 22.000000
171.068100 220.000000
172.073700 54.000000
173.078190 7.000000
174.058210 6.000000
174.092860 6.000000
175.075880 27.000000
186.053880 19.000000
187.063050 52.000000
188.070540 22.000000
202.058690 7.000000
202.086470 870.000000
202.125050 8.000000
203.092000 179.000000
204.086870 10.000000
204.096330 19.000000
236.111190 5.000000
249.117370 15.000000
250.114760 5.000000
252.105910 9.000000
264.100890 10.000000
266.119110 7.000000
278.115200 8.000000
279.127470 6.000000
280.098140 21.000000
281.105160 9.000000
282.115810 11.000000
292.099950 5.000000
294.110350 27.000000
294.120790 12.000000
295.114750 19.000000
295.123780 31.000000
296.129060 181.000000
297.130980 41.000000
308.097290 14.000000
308.130550 11.000000
309.102390 16.000000
310.110690 31.000000
324.075740 7.000000
324.124020 1000.000000
324.174530 9.000000
325.127260 279.000000
326.132020 40.000000
327.128510 6.000000
340.155730 249.000000

>ms2
77.039630 48.000000
77.048770 6.000000
78.042900 7.000000
89.037370 9.000000
90.434780 7.000000
91.053950 48.000000
95.048160 58.000000
95.054270 28.000000
101.040080 21.000000
102.041000 18.000000
102.049710 8.000000
103.033980 12.000000
103.055180 185.000000
104.050960 6.000000
104.058980 8.000000
104.063750 10.000000
105.071910 5.000000
107.045770 25.000000
108.061640 10.000000
114.045820 24.000000
114.050740 18.000000
115.055790 138.000000
116.050660 64.000000
116.063340 31.000000
118.042850 37.000000
118.066180 26.000000
118.073520 7.000000
119.051600 7.000000
119.070470 9.000000
121.068080 7.000000
123.042440 90.000000
123.048070 40.000000
124.040800 9.000000
124.052330 6.000000
127.021080 8.000000
127.038760 5.000000
127.051400 48.000000
128.049840 464.000000
128.064300 7.000000
128.131360 7.000000
129.040770 6.000000
129.056790 94.000000
130.044820 7.000000
130.066640 207.000000
131.049970 194.000000
131.056820 60.000000
131.074100 86.000000
132.052050 36.000000
133.021390 6.000000
133.028980 12.000000
133.057450 7.000000
133.073060 10.000000
135.037990 6.000000
135.046620 15.000000
135.056370 11.000000
136.051250 6.000000
138.068890 14.000000
140.046890 99.000000
140.054050 80.000000
141.033680 7.000000
141.058490 75.000000
142.066670 67.000000
142.076430 7.000000
143.047610 17.000000
143.060120 5.000000
143.071990 58.000000
144.044920 122.000000
144.075960 7.000000
144.085130 13.000000
145.058090 23.000000
145.066540 21.000000
145.073560 9.000000
146.054660 31.000000
146.063550 36.000000
146.078480 9.000000
146.092940 9.000000
147.046600 12.000000
147.087050 8.000000
148.043000 11.000000
148.051670 19.000000
148.061420 7.000000
149.060590 7.000000
151.075040 15.000000
153.054920 5.000000
154.033000 18.000000
154.059250 6.000000
154.064450 17.000000
154.649410 6.000000
155.035960 14.000000
155.068630 6.000000
156.045210 463.000000
156.075090 8.000000
157.046650 64.000000
157.057010 56.000000
158.020780 6.000000
158.061610 533.000000
159.033720 6.000000
159.048690 41.000000
159.068150 227.000000
160.037990 6.000000
160.053050 14.000000
160.068680 13.000000
160.078230 17.000000
161.054180 20.000000
161.066280 17.000000
162.067180 7.000000
164.454560 7.000000
165.067760 7.000000
166.058980 8.000000
167.072890 8.000000
168.047970 5.000000
169.094250 6.000000
170.046890 6.000000
170.061970 74.000000
171.027360 9.000000
171.067890 1000.000000
172.041310 41.000000
172.074330 172.000000
173.045470 6.000000
173.058580 15.000000
173.078840 18.000000
174.056140 46.000000
174.067950 18.000000
174.134770 6.000000
175.056440 8.000000
175.064450 20.000000
175.075100 47.000000
176.057330 9.000000
177.072020 7.000000
179.078740 7.000000
180.081270 18.000000
181.058700 9.000000
181.087250 7.000000
183.064160 34.000000
183.073560 17.000000
184.040480 9.000000
184.073840 9.000000
185.052150 7.000000
186.030460 20.000000
186.055950 434.000000
186.073960 10.000000
187.061680 238.000000
188.065720 31.000000
189.069610 10.000000
189.078920 36.000000
190.061290 6.000000
190.081800 9.000000
190.088200 18.000000
191.071720 11.000000
191.079420 15.000000
192.064770 7.000000
192.076720 14.000000
192.085330 23.000000
193.089190 23.000000
194.078250 7.000000
194.089430 20.000000
194.099580 14.000000
195.061220 6.000000
196.073290 34.000000
197.084430 16.000000
200.068910 11.000000
202.088650 362.000000
203.091130 81.000000
204.079060 17.000000
204.086490 41.000000
205.088580 37.000000
206.061230 6.000000
206.094770 33.000000
207.068700 20.000000
207.091080 12.000000
207.108050 6.000000
208.077210 38.000000
208.084470 16.000000
209.084460 45.000000
210.091930 59.000000
211.094730 11.000000
212.068600 6.000000
213.078060 10.000000
216.076430 5.000000
216.089900 9.000000
217.065190 7.000000
217.092730 32.000000
218.099290 28.000000
219.072970 6.000000
220.071910 87.000000
220.086980 33.000000
221.068530 10.000000
221.079620 47.000000
221.092100 45.000000
222.093640 165.000000
222.121340 6.000000
223.098300 35.000000
223.107330 45.000000
224.069990 60.000000
224.102290 8.000000
224.116590 17.000000
225.075060 18.000000
225.085850 10.000000
225.108250 10.000000
226.085370 29.000000
227.091140 20.000000
232.078190 38.000000
233.086140 60.000000
233.105850 10.000000
234.088810 74.000000
234.098010 31.000000
235.098480 74.000000
236.066220 30.000000
236.079440 39.000000
236.090090 9.000000
236.104750 9.000000
237.071780 9.000000
237.078960 27.000000
238.077360 30.000000
238.086850 44.000000
238.097230 28.000000
239.094990 15.000000
239.104660 11.000000
240.078520 7.000000
240.094800 15.000000
240.108490 54.000000
240.729460 6.000000
241.106350 10.000000
246.096880 7.000000
246.105420 6.000000
248.067790 20.000000
248.085910 10.000000
249.075500 29.000000
249.092590 10.000000
250.071700 30.000000
250.087450 250.000000
250.938170 5.000000
251.074220 40.000000
251.098020 50.000000
252.101000 147.000000
252.114550 38.000000
253.100680 6.000000
253.115480 9.000000
254.110750 7.000000
254.123080 8.000000
260.074740 9.000000
261.075040 10.000000
262.088680 69.000000
263.074460 5.000000
263.086670 27.000000
263.099490 47.000000
264.057310 7.000000
264.102630 78.000000
264.120850 16.000000
265.063450 9.000000
265.102230 11.000000
265.118290 16.000000
266.081480 37.000000
266.104030 15.000000
266.123660 39.000000
267.088350 10.000000
267.119570 9.000000
274.082950 9.000000
277.065310 9.000000
277.079770 6.000000
277.315370 6.000000
278.075470 50.000000
278.087650 79.000000
278.122280 10.000000
279.089360 114.000000
280.063170 12.000000
280.078830 53.000000
280.099210 562.000000
280.184840 8.000000
281.076630 10.000000
281.100950 117.000000
281.119450 21.000000
282.114810 10.000000
283.114990 6.000000
290.076900 9.000000
290.090000 10.000000
292.106570 15.000000
293.112520 11.000000
294.113620 44.000000
295.111540 7.000000
296.117340 8.000000
296.128360 10.000000
306.059480 7.000000
306.085570 29.000000
308.067290 34.000000
308.094120 698.000000
308.124180 9.000000
309.065190 10.000000
309.089690 55.000000
309.103880 128.000000
310.093170 7.000000
310.106750 29.000000
311.085080 5.000000
322.096130 11.000000
324.101320 7.000000
324.126040 144.000000
325.123350 31.000000
325.137270 11.000000
326.133700 6.000000
340.153260 17.000000

>ms2
71.907580 24.000000
75.039120 25.000000
91.053790 52.000000
95.038670 17.000000
95.049290 110.000000
95.055600 17.000000
97.712230 19.000000
101.607410 27.000000
103.059290 37.000000
106.917590 27.000000
107.049100 23.000000
107.053840 17.000000
107.366260 20.000000
108.057240 78.000000
114.050940 18.000000
115.041390 17.000000
115.053150 126.000000
116.050930 24.000000
117.070260 25.000000
117.076160 21.000000
119.072600 25.000000
121.060080 34.000000
121.068520 57.000000
122.035970 21.000000
122.066830 26.000000
123.032030 82.000000
123.042270 355.000000
123.050820 164.000000
124.049800 69.000000
124.058320 25.000000
127.036770 21.000000
128.034940 25.000000
128.047000 134.000000
128.065250 36.000000
129.627140 20.000000
129.684140 23.000000
129.877660 17.000000
130.031560 47.000000
130.044340 20.000000
130.060460 21.000000
130.068480 115.000000
131.047470 161.000000
131.055510 30.000000
131.064770 35.000000
131.072040 39.000000
131.079250 52.000000
131.475370 20.000000
132.059660 43.000000
133.032200 25.000000
133.061480 19.000000
133.068700 65.000000
135.048020 40.000000
136.055280 67.000000
136.729280 28.000000
137.057800 92.000000
139.071120 17.000000
140.045330 17.000000
141.056370 134.000000
141.068660 57.000000
142.045350 37.000000
142.052570 20.000000
142.064320 162.000000
142.070330 171.000000
142.885300 21.000000
143.061520 22.000000
143.071210 25.000000
143.078250 64.000000
144.044720 17.000000
144.061940 26.000000
144.076690 25.000000
145.057040 20.000000
145.064560 54.000000
145.071300 18.000000
146.033400 17.000000
146.060590 141.000000
146.071690 50.000000
146.820970 17.000000
147.043900 20.000000
147.076640 84.000000
148.052350 338.000000
149.060850 74.000000
151.077090 105.000000
151.083510 30.000000
152.080610 53.000000
154.073550 17.000000
155.029240 37.000000
155.041080 27.000000
155.073490 30.000000
155.992260 29.000000
156.004870 19.000000
156.013400 47.000000
156.044590 365.000000
156.081740 22.000000
157.044680 69.000000
157.053130 81.000000
157.063110 27.000000
157.086840 73.000000
157.662260 27.000000
158.060560 547.000000
158.102800 36.000000
158.550380 20.000000
159.025010 19.000000
159.067230 408.000000
159.097340 21.000000
159.991440 20.000000
160.047960 83.000000
160.058120 46.000000
160.066240 57.000000
160.076740 45.000000
160.084880 54.000000
160.159990 20.000000
161.049710 23.000000
161.059920 68.000000
161.582110 17.000000
161.973850 26.000000
162.058000 38.000000
162.068100 89.000000
162.372620 24.000000
166.823610 21.000000
170.060260 576.000000
170.822100 17.000000
170.913280 20.000000
171.041870 99.000000
171.067890 5219.000000
171.171200 24.000000
171.202220 19.000000
171.461790 20.000000
172.030380 19.000000
172.038280 63.000000
172.047120 116.000000
172.071790 1549.000000
172.279880 21.000000
173.054520 17.000000
173.067380 38.000000
173.080980 76.000000
173.105590 17.000000
174.052890 95.000000
174.067730 83.000000
174.090850 59.000000
175.066090 75.000000
175.071880 183.000000
175.080290 337.000000
175.095320 26.000000
175.943910 35.000000
176.065480 39.000000
176.073750 43.000000
177.071460 18.000000
177.489010 20.000000
183.079900 27.000000
184.073260 18.000000
185.619430 19.000000
186.015140 19.000000
186.023710 32.000000
186.057310 1026.000000
187.013090 19.000000
187.038070 33.000000
187.049850 134.000000
187.061250 910.000000
187.746900 33.000000
187.771960 17.000000
188.044190 17.000000
188.060150 123.000000
188.069460 410.000000
188.089130 20.000000
189.076720 303.000000
190.074520 27.000000
190.082820 49.000000
190.721360 18.000000
191.082600 20.000000
192.083820 28.000000
192.941100 28.000000
193.066760 30.000000
194.097930 30.000000
194.368580 18.000000
194.553480 28.000000
194.982380 21.000000
195.065890 24.000000
195.900020 20.000000
196.079030 20.000000
197.455340 17.000000
200.063160 17.000000
200.073140 35.000000
200.688900 25.000000
201.033890 30.000000
201.643490 23.000000
201.782880 38.000000
202.024510 41.000000
202.034480 42.000000
202.045640 84.000000
202.057100 101.000000
202.085910 15554.000000
202.130710 114.000000
202.285480 18.000000
203.026140 17.000000
203.064610 57.000000
203.090480 2922.000000
203.137730 18.000000
203.484100 17.000000
204.089690 239.000000
204.103680 105.000000
204.281860 17.000000
204.444720 18.000000
205.098750 34.000000
207.565490 18.000000
207.807190 18.000000
207.889210 19.000000
208.061280 25.000000
208.077040 53.000000
208.085860 47.000000
208.957020 20.000000
209.071900 35.000000
209.088230 20.000000
210.090560 62.000000
210.101870 17.000000
211.078550 31.000000
211.129200 22.000000
212.063570 20.000000
212.385880 17.000000
214.886290 19.000000
215.399310 17.000000
215.911670 20.000000
216.737640 20.000000
217.081510 17.000000
217.238360 21.000000
217.693790 19.000000
218.077290 19.000000
218.091370 33.000000
218.102600 23.000000
219.582670 21.000000
219.773650 18.000000
220.059810 26.000000
220.072570 139.000000
220.142940 17.000000
220.192470 18.000000
220.811680 19.000000
221.111130 24.000000
221.401840 19.000000
221.646270 27.000000
221.901380 17.000000
222.069900 37.000000
222.090640 17.000000
223.082610 24.000000
223.096650 44.000000
223.665940 18.000000
223.813510 19.000000
224.105870 41.000000
224.166630 21.000000
224.966320 19.000000
225.081990 18.000000
225.987060 18.000000
226.320850 21.000000
227.086150 38.000000
227.100980 19.000000
227.138110 19.000000
230.707790 17.000000
230.961530 20.000000
232.102170 35.000000
232.506060 37.000000
233.079280 21.000000
233.104060 19.000000
233.560200 17.000000
234.088470 128.000000
234.212140 18.000000
235.065890 20.000000
235.082930 20.000000
235.102460 82.000000
236.067180 20.000000
236.084300 39.000000
236.107800 153.000000
236.280080 32.000000
236.289230 20.000000
236.767360 17.000000
237.065080 24.000000
237.073360 22.000000
237.110640 17.000000
237.829760 27.000000
238.081940 44.000000
238.094210 32.000000
238.180070 17.000000
238.389620 25.000000
238.730030 20.000000
238.793060 19.000000
239.084120 30.000000
239.103840 18.000000
239.936050 30.000000
240.096800 102.000000
240.107420 27.000000
241.100480 21.000000
241.118760 18.000000
245.238200 21.000000
248.057950 31.000000
248.110720 137.000000
248.212920 18.000000
249.076630 19.000000
249.117720 160.000000
250.049130 23.000000
250.070690 32.000000
250.090770 104.000000
250.121260 75.000000
250.336980 18.000000
250.767040 20.000000
251.084090 43.000000
251.096250 98.000000
252.073550 87.000000
252.096950 351.000000
252.107700 284.000000
253.110690 46.000000
253.435090 27.000000
253.889050 17.000000
254.087690 38.000000
254.118970 80.000000
256.111850 21.000000
258.476990 20.000000
260.108220 28.000000
261.063230 17.000000
261.089390 17.000000
261.099760 25.000000
261.112340 45.000000
261.273830 18.000000
262.082460 31.000000
263.089200 127.000000
263.104640 52.000000
263.522090 22.000000
264.091370 160.000000
264.109990 207.000000
265.058720 21.000000
265.085540 38.000000
265.110410 68.000000
265.121950 24.000000
266.072360 21.000000
266.086060 22.000000
266.109310 78.000000
266.121060 338.000000
266.582400 33.000000
267.079960 65.000000
267.120210 86.000000
267.129880 96.000000
267.381590 21.000000
268.085390 20.000000
268.101590 29.000000
268.120390 25.000000
269.130550 41.000000
274.240230 33.000000
275.064240 26.000000
275.096830 22.000000
276.084870 22.000000
276.615660 20.000000
277.037900 22.000000
278.084050 163.000000
278.092710 99.000000
278.112880 102.000000
278.131530 31.000000
279.079680 106.000000
279.092960 127.000000
279.110780 39.000000
279.123840 102.000000
280.063480 29.000000
280.094390 1459.000000
280.131040 50.000000
280.281740 18.000000
280.399960 24.000000
281.050600 22.000000
281.088230 76.000000
281.107120 331.000000
281.123020 22.000000
281.156980 17.000000
281.699890 23.000000
282.072660 18.000000
282.092190 110.000000
282.109190 199.000000
282.119600 97.000000
283.110080 43.000000
283.120670 37.000000
283.663640 23.000000
284.069430 18.000000
285.987880 42.000000
286.137630 34.000000
286.243650 17.000000
287.675930 41.000000
288.456700 31.000000
288.558200 23.000000
290.054140 46.000000
290.078700 22.000000
291.080660 18.000000
291.094670 18.000000
292.078700 82.000000
292.092710 97.000000
292.743930 17.000000
293.053530 26.000000
293.076290 22.000000
293.092770 67.000000
293.115570 33.000000
293.623720 22.000000
293.763240 19.000000
294.107090 167.000000
294.117340 404.000000
294.208220 18.000000
294.873440 31.000000
295.033780 23.000000
295.088290 52.000000
295.119480 563.000000
296.082520 39.000000
296.101230 18.000000
296.128200 2229.000000
297.098020 41.000000
297.109220 76.000000
297.133540 377.000000
297.552700 17.000000
298.106660 23.000000
298.136780 35.000000
298.153110 17.000000
306.091860 19.000000
306.102230 20.000000
307.130770 21.000000
307.607820 17.000000
307.695620 20.000000
308.056580 19.000000
308.089750 1661.000000
308.105040 348.000000
308.128300 43.000000
308.140110 27.000000
309.019840 23.000000
309.041260 19.000000
309.066310 33.000000
309.092100 392.000000
309.109100 158.000000
309.138490 30.000000
309.149170 19.000000
309.165890 26.000000
310.070980 17.000000
310.104640 437.000000
310.119930 135.000000
310.821780 18.000000
311.087340 20.000000
311.108400 39.000000
311.131010 17.000000
311.914920 17.000000
311.950900 24.000000
312.112760 18.000000
312.123440 47.000000
313.094210 17.000000
313.633540 22.000000
316.691190 25.000000
322.096370 109.000000
322.108550 103.000000
322.133510 20.000000
323.125180 28.000000
323.164090 27.000000
323.793700 26.000000
323.882390 25.000000
323.952970 24.000000
324.013790 42.000000
324.040410 18.000000
324.060940 103.000000
324.074830 60.000000
324.121980 14774.000000
324.153960 50.000000
324.171140 86.000000
324.180240 37.000000
324.345090 18.000000
324.525730 27.000000
325.064360 21.000000
325.074550 27.000000
325.126500 4785.000000
325.159180 92.000000
325.406160 21.000000
325.865050 17.000000
325.887050 17.000000
326.009220 17.000000
326.024930 18.000000
326.090610 21.000000
326.132540 739.000000
326.156280 45.000000
326.181700 21.000000
327.110990 19.000000
327.136600 80.000000
327.703370 20.000000
328.117890 39.000000
329.019810 17.000000
329.332520 22.000000
330.830660 18.000000
330.886510 22.000000
332.186000 17.000000
333.604860 17.000000
335.158420 27.000000
336.701720 21.000000
338.868590 19.000000
338.920810 23.000000
339.074890 18.000000
339.194730 20.000000
339.465330 27.000000
339.671840 17.000000
339.731020 18.000000
339.823090 44.000000
339.866820 18.000000
340.049840 18.000000
340.076080 90.000000
340.094090 114.000000
340.106260 156.000000
340.154480 76049.000000
340.207610 2315.000000
340.255800 287.000000
340.319340 18.000000

