>compound PR97972553
>parentmass 231.1713
>ionization [M+H]+
>formula C11H22N2O3
>rt 159.600000
>profile qtof
#smiles_iso CC(C)CC(C(=O)NC(C(C)C)C(=O)O)N
#smiles_can CC(C)CC(C(=O)NC(C(C)C)C(=O)O)N
#inchikey MDSUKZSLOATHMH-UHFFFAOYSA-N
#pubchem_id 352038
#mb_accession PR311048

>ms2peaks
49.995180 17.000000
72.080000 56.000000
72.085180 19.000000
86.083360 23.000000
86.094430 379.000000
86.098440 153.000000
87.092800 20.000000
87.102120 17.000000
114.993490 26.000000
116.074800 41.000000
117.072690 18.000000
118.077200 20.000000
118.086730 38.000000
119.054890 18.000000
129.100750 20.000000
132.103620 22.000000
185.167140 36.000000
186.180820 17.000000
214.152860 23.000000
230.157120 34.000000
231.143190 22.000000
231.170010 390.000000
231.189960 21.000000

