>compound PR97717980
>parentmass 360.25332040000006
>ionization [M+H]+
>formula C22H33NO3
>rt 183.093000
>profile qtof
#smiles_iso CCN1C[C@@]2(CC[C@@H]([C@@]34[C@@H]2C[C@@H](C31)[C@]56[C@H]4C[C@@H]([C@@H](C5)C(=C)[C@H]6O)O)O)C
#smiles_can CCN1CC2(CCC(C34C2CC(C31)C56C4CC(C(C5)C(=C)C6O)O)O)C
#inchikey AZAZKLKDEOMJBJ-BOPAMEKVSA-N
#pubchem_id 441749
#mb_accession PR301030,PR301035,PR301040,PR301045,PR301050,PR301055,PR301060,PR301065,PR301070,PR301075,PR301080,PR301085

>ms2
107.088610 8.000000
342.243070 407.000000
343.245180 86.000000
344.246610 14.000000
344.259550 5.000000
360.254180 1000.000000
360.308650 18.000000

>ms2
342.240260 8.000000
360.253810 1000.000000
360.308040 24.000000

>ms2
93.072010 10.000000
98.096640 10.000000
105.071770 7.000000
107.086560 24.000000
110.098170 6.000000
117.071420 7.000000
135.078840 17.000000
143.086150 7.000000
145.096630 9.000000
147.115920 13.000000
159.120040 6.000000
171.121050 8.000000
188.146650 5.000000
189.151570 9.000000
235.147690 7.000000
237.163060 10.000000
324.226230 12.000000
342.193910 9.000000
342.243440 1000.000000
342.289950 6.000000
343.199830 6.000000
343.246860 274.000000
344.245700 20.000000
344.261690 15.000000
360.255160 309.000000

>ms2
56.046830 44.000000
57.052950 18.000000
58.065750 206.000000
58.071010 64.000000
58.655890 20.000000
58.789170 19.000000
60.857110 19.000000
67.055420 50.000000
67.060940 22.000000
67.685720 35.000000
69.070720 51.000000
70.064760 22.000000
70.078610 27.000000
72.079150 24.000000
73.460170 23.000000
77.037960 19.000000
79.052390 186.000000
79.057690 308.000000
80.057090 53.000000
81.032140 30.000000
81.067800 47.000000
81.074080 89.000000
82.067730 112.000000
84.077490 19.000000
84.083960 61.000000
91.055940 1000.000000
92.051490 21.000000
93.070300 397.000000
93.182740 21.000000
94.069820 22.000000
94.076280 50.000000
95.054810 23.000000
95.086450 249.000000
96.080920 18.000000
96.090000 52.000000
97.086500 18.000000
98.094410 274.000000
98.101400 246.000000
98.575580 22.000000
99.100890 60.000000
102.388090 36.000000
103.058930 23.000000
105.069870 911.000000
106.065430 18.000000
106.073740 110.000000
106.084500 18.000000
107.050030 109.000000
107.070350 23.000000
107.082130 240.000000
107.088040 351.000000
107.365460 22.000000
108.087590 32.000000
109.064090 50.000000
109.091950 20.000000
110.096570 103.000000
110.103090 29.000000
111.087870 28.000000
111.101520 29.000000
111.110370 23.000000
112.119640 32.000000
113.117830 19.000000
115.049090 36.000000
115.055420 68.000000
116.053350 21.000000
117.061930 108.000000
117.073150 286.000000
118.059860 19.000000
118.074170 99.000000
119.084960 234.000000
119.093120 20.000000
120.055790 19.000000
120.080300 59.000000
120.090030 30.000000
121.076410 38.000000
121.107520 19.000000
122.100010 28.000000
123.081970 75.000000
123.093170 32.000000
124.115200 19.000000
127.055950 94.000000
128.054690 85.000000
128.065110 186.000000
129.062440 71.000000
129.069080 106.000000
129.074490 92.000000
130.065630 50.000000
130.077800 208.000000
130.087770 26.000000
131.087360 601.000000
131.120820 22.000000
132.081020 19.000000
132.089080 82.000000
132.095790 20.000000
133.103870 188.000000
133.113280 51.000000
134.096270 26.000000
134.772600 21.000000
135.079680 170.000000
135.113750 18.000000
135.508700 18.000000
137.080730 18.000000
137.086170 19.000000
138.127000 21.000000
141.070190 144.000000
141.077350 77.000000
142.075970 261.000000
142.081990 121.000000
143.075930 19.000000
143.088420 257.000000
144.085880 119.000000
144.098130 52.000000
144.108200 35.000000
145.070970 18.000000
145.093480 71.000000
145.101700 358.000000
146.094970 24.000000
146.101810 28.000000
147.101700 46.000000
147.118520 293.000000
148.093380 22.000000
148.108600 94.000000
148.117580 29.000000
148.726490 18.000000
149.110890 27.000000
151.069990 80.000000
151.082460 44.000000
152.063980 42.000000
152.079210 33.000000
153.063260 73.000000
153.071720 56.000000
153.224410 35.000000
154.069180 23.000000
154.077850 129.000000
154.089280 20.000000
155.066420 46.000000
155.087390 266.000000
156.075490 27.000000
156.092850 45.000000
156.953720 21.000000
157.089860 79.000000
157.101560 326.000000
158.081820 31.000000
158.105730 18.000000
159.088130 26.000000
159.100490 38.000000
159.116680 150.000000
160.118180 52.000000
160.125230 26.000000
160.271790 21.000000
161.112810 19.000000
161.127840 32.000000
162.119980 26.000000
162.133530 45.000000
165.071150 99.000000
166.063520 23.000000
166.074480 36.000000
166.081630 75.000000
167.082760 144.000000
167.093280 111.000000
168.083850 48.000000
168.096150 66.000000
168.103900 49.000000
168.336320 18.000000
169.100630 241.000000
170.103670 89.000000
170.111790 19.000000
171.074860 27.000000
171.104060 53.000000
171.117000 85.000000
171.132720 18.000000
172.118710 19.000000
172.130000 23.000000
172.656510 22.000000
173.103120 21.000000
173.131290 45.000000
173.141300 21.000000
174.125090 18.000000
174.133330 26.000000
175.117490 26.000000
175.128540 21.000000
176.110690 19.000000
176.145460 26.000000
177.155720 21.000000
178.076130 142.000000
178.082570 72.000000
178.856310 65.000000
179.083100 207.000000
179.157350 47.000000
180.094130 36.000000
180.135240 20.000000
181.094500 88.000000
181.103410 209.000000
182.089540 37.000000
182.106780 37.000000
182.114560 113.000000
183.083070 26.000000
183.102660 24.000000
183.110820 55.000000
183.120760 76.000000
184.080170 31.000000
184.115370 22.000000
184.606490 18.000000
185.132350 33.000000
186.126710 19.000000
186.146910 18.000000
187.111420 36.000000
187.130890 26.000000
187.490940 26.000000
188.145290 94.000000
189.147580 81.000000
190.079560 19.000000
190.160800 46.000000
190.171830 18.000000
191.084820 84.000000
191.095700 21.000000
192.093350 61.000000
192.102480 31.000000
192.178590 22.000000
193.099880 87.000000
193.109560 87.000000
194.109020 75.000000
194.122860 18.000000
195.116030 226.000000
195.125690 63.000000
195.722850 18.000000
196.111530 98.000000
197.125930 22.000000
197.136670 43.000000
198.114850 18.000000
198.126100 18.000000
198.133620 29.000000
199.152980 20.000000
201.115630 18.000000
203.074430 27.000000
203.086180 81.000000
204.083330 18.000000
205.087400 39.000000
205.101100 150.000000
206.110120 89.000000
207.099460 20.000000
207.118390 130.000000
208.134540 21.000000
208.145660 24.000000
209.132680 101.000000
210.103100 38.000000
210.142040 27.000000
210.151610 21.000000
211.106750 19.000000
212.134110 27.000000
213.124890 34.000000
213.944920 22.000000
214.155180 81.000000
215.133450 19.000000
216.092360 27.000000
217.096970 35.000000
218.110640 92.000000
218.198840 18.000000
219.112640 20.000000
219.123170 21.000000
219.155000 23.000000
220.122410 82.000000
221.134610 61.000000
222.145050 22.000000
223.140400 19.000000
224.069920 21.000000
224.138900 18.000000
224.149190 39.000000
225.135680 30.000000
225.158170 27.000000
226.149810 21.000000
226.596440 18.000000
227.169620 18.000000
230.109790 26.000000
231.118880 18.000000
233.092270 21.000000
233.125810 24.000000
234.105440 18.000000
235.142590 27.000000
235.154010 21.000000
236.092000 23.000000
236.165710 21.000000
237.147810 62.000000
237.164460 22.000000
237.175350 80.000000
238.176770 24.000000
239.141530 23.000000
239.186160 33.000000
240.150910 28.000000
240.171330 27.000000
240.186110 29.000000
241.117310 29.000000
245.138000 22.000000
249.166260 36.000000
251.187420 36.000000
253.109540 23.000000
255.656660 18.000000
259.145940 28.000000
261.163120 22.000000
267.167480 21.000000
270.217930 32.000000
276.054930 21.000000
279.180420 19.000000
280.205350 22.000000
282.236050 22.000000
284.191710 21.000000
286.179660 19.000000
296.213750 23.000000
299.178340 19.000000
300.195010 22.000000
308.189360 24.000000
324.213710 39.000000
324.236970 27.000000
342.244260 570.000000
342.272550 21.000000
343.219240 18.000000
343.244900 136.000000
360.217070 19.000000
360.271580 38.000000

>ms2
107.086190 7.000000
145.101120 8.000000
190.163210 5.000000
195.120320 7.000000
235.152830 6.000000
324.235020 6.000000
342.191500 5.000000
342.242710 385.000000
343.246220 110.000000
344.250030 14.000000
360.254060 1000.000000
360.308530 21.000000

>ms2
342.244870 10.000000
342.258640 5.000000
360.197720 6.000000
360.252110 1000.000000
360.306980 27.000000

>ms2
93.069660 9.000000
98.097270 9.000000
107.085760 18.000000
135.082750 11.000000
143.080470 5.000000
145.102580 13.000000
147.116240 17.000000
151.077560 6.000000
157.100710 5.000000
159.118320 8.000000
183.113280 5.000000
190.156880 6.000000
237.163190 20.000000
324.235840 13.000000
342.199680 10.000000
342.243290 1000.000000
342.295870 10.000000
343.212220 6.000000
343.246340 275.000000
344.250520 34.000000
360.254000 318.000000

>ms2
56.052730 54.000000
56.953990 17.000000
57.031150 13.000000
58.064750 91.000000
58.068080 76.000000
67.053140 120.000000
68.303290 13.000000
69.033270 18.000000
69.067760 48.000000
69.070660 84.000000
70.061360 13.000000
71.089340 13.000000
72.082470 93.000000
77.039050 33.000000
77.570920 13.000000
79.040540 20.000000
79.054970 394.000000
80.057560 15.000000
80.065090 20.000000
81.066680 36.000000
81.071460 39.000000
82.065830 58.000000
83.071980 14.000000
83.085320 19.000000
84.081310 106.000000
85.086550 13.000000
88.521230 14.000000
90.802690 17.000000
91.030430 15.000000
91.043070 16.000000
91.054760 515.000000
92.055150 22.000000
92.061690 94.000000
93.060380 14.000000
93.071720 247.000000
94.066310 13.000000
94.071680 22.000000
95.046710 16.000000
95.082580 43.000000
95.088230 83.000000
95.630070 13.000000
96.079860 52.000000
97.069340 32.000000
97.088790 24.000000
97.352060 14.000000
98.093800 398.000000
98.099140 276.000000
99.102260 62.000000
105.052850 19.000000
105.070690 1000.000000
106.071420 47.000000
107.047610 32.000000
107.069690 30.000000
107.085570 538.000000
108.044920 14.000000
108.079410 40.000000
108.086480 15.000000
109.061940 24.000000
109.098120 14.000000
109.105060 16.000000
110.093190 58.000000
110.099710 59.000000
110.163110 20.000000
110.436450 14.000000
111.043660 14.000000
111.090690 16.000000
111.096930 20.000000
111.104520 32.000000
111.820680 14.000000
112.885730 13.000000
115.051960 222.000000
116.048910 14.000000
116.059240 58.000000
117.025540 15.000000
117.071270 549.000000
118.073310 36.000000
119.066490 15.000000
119.083240 306.000000
120.084430 14.000000
121.065730 28.000000
121.095080 18.000000
121.101940 24.000000
122.091090 13.000000
122.096820 22.000000
122.693380 14.000000
123.044630 17.000000
123.086880 14.000000
124.108760 33.000000
124.118050 14.000000
125.056720 27.000000
125.113990 27.000000
125.120250 12.000000
125.504200 21.000000
127.036900 17.000000
127.053760 25.000000
127.835540 14.000000
128.058360 185.000000
128.067630 29.000000
129.046830 15.000000
129.069410 328.000000
130.076610 57.000000
130.082640 32.000000
131.084370 322.000000
131.458910 18.000000
132.054460 15.000000
132.085630 14.000000
132.098040 17.000000
132.105060 14.000000
132.618770 14.000000
133.051620 14.000000
133.066450 27.000000
133.087950 36.000000
133.099320 24.000000
134.102100 16.000000
135.065350 14.000000
135.075070 49.000000
135.083650 90.000000
135.103450 16.000000
135.116590 70.000000
136.111740 19.000000
137.118040 21.000000
138.121000 53.000000
141.049910 14.000000
141.065460 83.000000
141.071140 187.000000
142.062160 31.000000
142.077650 299.000000
143.020170 13.000000
143.077260 108.000000
143.088070 263.000000
143.095780 48.000000
144.091710 49.000000
145.000550 15.000000
145.046170 16.000000
145.065920 14.000000
145.073330 17.000000
145.102050 417.000000
145.732090 13.000000
146.075870 42.000000
146.093870 53.000000
146.107500 105.000000
146.377520 13.000000
146.470430 15.000000
146.593120 13.000000
147.084810 14.000000
147.103270 14.000000
147.115940 106.000000
147.126690 40.000000
148.105730 45.000000
148.117260 42.000000
149.098460 14.000000
150.133120 38.000000
151.076080 33.000000
151.131090 14.000000
151.760530 14.000000
152.065840 17.000000
153.059680 31.000000
153.070890 121.000000
154.076750 157.000000
155.077290 104.000000
155.088780 250.000000
156.073990 32.000000
156.092330 126.000000
157.066560 18.000000
157.088150 23.000000
157.102340 244.000000
157.108960 57.000000
158.101650 27.000000
158.113280 14.000000
159.083160 19.000000
159.110410 81.000000
159.121990 95.000000
159.764240 14.000000
160.112580 124.000000
160.958190 17.000000
161.087620 23.000000
161.131360 37.000000
162.124240 36.000000
163.112690 13.000000
163.131130 23.000000
164.203660 16.000000
165.065260 168.000000
165.074540 164.000000
166.050740 27.000000
166.074400 149.000000
166.086000 64.000000
167.085690 266.000000
168.093030 74.000000
168.105330 16.000000
169.097900 275.000000
170.103740 68.000000
171.083760 20.000000
171.103360 40.000000
171.116130 125.000000
171.192380 14.000000
172.087690 14.000000
172.105700 19.000000
172.122440 21.000000
173.130110 16.000000
173.136280 14.000000
174.125090 49.000000
174.142700 18.000000
175.110730 15.000000
176.150860 18.000000
177.067030 17.000000
178.074510 102.000000
178.092450 13.000000
179.070430 14.000000
179.083070 59.000000
179.095370 43.000000
180.085400 87.000000
180.094990 85.000000
181.064210 20.000000
181.097440 195.000000
181.107970 57.000000
181.133510 18.000000
182.103520 26.000000
182.111040 80.000000
183.101320 32.000000
183.112850 86.000000
183.184910 25.000000
184.081210 13.000000
184.124100 15.000000
185.093120 13.000000
185.120820 15.000000
185.136180 42.000000
186.125260 16.000000
186.135040 36.000000
187.103360 17.000000
187.124680 17.000000
188.115780 19.000000
188.142850 15.000000
188.152910 33.000000
189.151260 45.000000
190.073640 37.000000
190.092940 14.000000
190.167310 41.000000
191.087770 69.000000
191.098480 13.000000
192.073100 19.000000
192.089420 25.000000
192.096690 36.000000
193.093640 113.000000
193.102390 145.000000
193.908840 19.000000
194.075560 15.000000
194.102370 33.000000
194.114530 20.000000
195.086180 19.000000
195.109770 96.000000
195.116380 59.000000
195.128590 48.000000
196.124590 86.000000
197.093410 30.000000
197.128400 67.000000
197.139470 21.000000
198.049150 14.000000
198.094310 13.000000
198.134020 86.000000
199.274000 13.000000
201.147600 18.000000
202.074080 13.000000
202.151690 19.000000
203.079730 20.000000
204.089920 71.000000
204.262160 24.000000
205.084580 14.000000
205.098040 112.000000
205.111400 16.000000
206.105300 30.000000
206.117570 17.000000
207.092190 15.000000
207.115710 90.000000
208.093090 13.000000
208.107350 17.000000
208.127030 89.000000
209.111770 16.000000
209.129750 25.000000
209.139070 16.000000
210.136260 53.000000
211.094100 14.000000
211.103360 17.000000
211.126530 15.000000
211.135510 17.000000
211.147460 13.000000
212.123980 16.000000
213.120650 15.000000
213.135390 17.000000
213.637470 14.000000
214.149260 13.000000
214.158040 23.000000
215.170010 15.000000
216.086470 15.000000
216.094820 22.000000
216.135940 13.000000
216.179840 18.000000
217.090030 17.000000
218.115540 23.000000
218.690120 15.000000
219.115650 14.000000
219.123790 18.000000
219.940690 17.000000
220.140120 19.000000
221.127870 21.000000
221.143430 13.000000
222.119690 34.000000
222.142500 20.000000
223.147990 20.000000
223.156340 22.000000
224.142730 39.000000
225.129320 22.000000
225.164540 57.000000
225.233690 18.000000
225.334200 14.000000
228.175160 14.000000
230.127320 15.000000
230.158230 17.000000
231.106110 13.000000
232.115230 13.000000
233.129990 24.000000
235.142840 33.000000
235.152390 13.000000
236.157620 17.000000
237.118000 17.000000
237.157900 76.000000
237.174330 14.000000
237.218140 13.000000
238.159910 15.000000
239.147810 18.000000
239.176040 29.000000
239.188230 27.000000
240.167860 17.000000
241.171080 14.000000
245.127330 16.000000
246.419540 17.000000
248.161790 18.000000
249.147430 16.000000
249.157360 30.000000
251.135380 14.000000
251.148930 17.000000
251.177340 20.000000
251.187350 15.000000
251.197020 13.000000
251.212340 14.000000
252.151570 13.000000
253.147990 29.000000
256.209690 18.000000
257.120970 13.000000
257.932920 16.000000
261.146880 21.000000
262.602330 16.000000
266.193210 24.000000
268.168980 16.000000
273.931950 19.000000
278.197540 16.000000
280.215580 20.000000
282.232270 14.000000
283.194640 16.000000
284.160610 13.000000
284.182160 14.000000
284.192050 20.000000
294.181460 17.000000
296.204770 15.000000
296.228520 14.000000
298.221010 41.000000
300.169980 14.000000
303.776460 14.000000
308.197390 29.000000
314.221500 14.000000
324.224670 20.000000
342.226170 104.000000
342.241970 605.000000
342.278440 23.000000
343.210110 22.000000
343.235810 105.000000
343.264280 16.000000
344.241910 14.000000
344.256260 19.000000
360.248600 14.000000
360.267270 33.000000

>ms2
189.149290 6.000000
324.226750 5.000000
342.243010 402.000000
343.245570 105.000000
344.252560 17.000000
360.208920 8.000000
360.252810 1000.000000
360.307920 23.000000

>ms2
342.245030 11.000000
360.253140 1000.000000
360.306920 30.000000

>ms2
93.070120 7.000000
98.092770 7.000000
98.097520 11.000000
107.085980 22.000000
117.071750 7.000000
133.101760 5.000000
135.082900 14.000000
145.096440 6.000000
145.105060 7.000000
147.113160 6.000000
189.151400 7.000000
235.150500 6.000000
280.208590 6.000000
324.235900 8.000000
342.197690 7.000000
342.243990 1000.000000
342.297330 11.000000
343.246980 290.000000
344.252900 33.000000
360.255620 282.000000

>ms2
54.839540 13.000000
55.017020 33.000000
56.048160 41.000000
56.052930 111.000000
57.235860 13.000000
58.062460 30.000000
58.066990 46.000000
60.191370 15.000000
65.039410 13.000000
67.055980 26.000000
67.060820 38.000000
69.032500 18.000000
70.068900 15.000000
72.084810 17.000000
77.033720 18.000000
77.041520 13.000000
79.047090 47.000000
79.054880 403.000000
80.054270 24.000000
80.058820 18.000000
81.070040 207.000000
81.664050 13.000000
82.062840 29.000000
82.070710 40.000000
82.078650 16.000000
83.082890 30.000000
83.088260 18.000000
84.081840 78.000000
85.084810 20.000000
91.040650 16.000000
91.046330 30.000000
91.055470 442.000000
92.055690 37.000000
92.066260 22.000000
93.033330 13.000000
93.056630 15.000000
93.070930 208.000000
93.768530 17.000000
94.022900 13.000000
94.075900 21.000000
95.049140 19.000000
95.076160 34.000000
95.087950 59.000000
96.079910 50.000000
96.091170 20.000000
97.093150 20.000000
98.088770 17.000000
98.097970 399.000000
99.097140 19.000000
99.104230 18.000000
102.892620 13.000000
103.048510 27.000000
103.054240 33.000000
105.069610 1000.000000
106.054450 16.000000
106.065440 14.000000
106.072450 61.000000
107.054120 13.000000
107.086000 398.000000
107.094210 47.000000
108.079660 13.000000
109.014310 16.000000
109.055040 13.000000
109.066180 14.000000
109.085490 16.000000
110.090100 20.000000
110.099620 44.000000
111.110600 16.000000
112.105570 31.000000
114.091180 13.000000
114.129440 15.000000
115.051120 64.000000
115.058620 50.000000
115.065580 26.000000
116.060130 20.000000
117.068710 496.000000
117.987010 18.000000
118.073590 101.000000
118.079180 43.000000
119.050750 18.000000
119.067070 13.000000
119.083930 137.000000
119.089550 142.000000
120.088430 17.000000
121.061770 16.000000
121.080640 31.000000
121.105100 16.000000
121.328670 24.000000
122.067020 18.000000
122.096250 28.000000
122.101910 27.000000
123.083650 44.000000
123.102780 58.000000
124.103940 17.000000
124.118150 18.000000
127.058440 16.000000
128.061980 203.000000
128.963100 14.000000
129.070540 152.000000
130.070110 70.000000
130.077360 57.000000
130.082980 38.000000
130.162640 13.000000
131.074660 35.000000
131.088500 283.000000
132.077610 13.000000
132.087970 31.000000
132.749620 13.000000
133.071900 13.000000
133.079300 18.000000
133.095000 118.000000
133.104840 79.000000
134.102200 16.000000
134.671540 14.000000
135.039320 17.000000
135.071960 28.000000
135.077190 37.000000
135.086580 30.000000
135.112030 24.000000
135.119510 46.000000
136.073820 18.000000
136.089000 22.000000
138.122210 15.000000
138.129680 27.000000
139.093230 16.000000
139.190090 30.000000
141.064500 143.000000
141.074230 137.000000
142.069430 41.000000
142.077450 164.000000
143.081950 268.000000
143.090500 123.000000
144.050020 13.000000
144.064770 20.000000
144.088680 48.000000
144.095120 50.000000
145.063670 42.000000
145.071440 19.000000
145.085800 13.000000
145.102050 356.000000
146.097240 36.000000
146.102600 107.000000
147.086140 33.000000
147.116850 182.000000
148.114470 61.000000
151.072560 48.000000
151.082980 41.000000
152.063800 49.000000
153.062320 16.000000
153.075060 24.000000
154.059050 15.000000
154.076570 54.000000
154.085890 52.000000
155.066250 26.000000
155.082600 203.000000
155.095150 121.000000
156.092670 102.000000
156.101140 32.000000
156.811570 15.000000
157.055210 15.000000
157.092640 81.000000
157.100110 229.000000
157.117750 18.000000
158.083150 16.000000
158.105440 106.000000
158.191300 13.000000
159.092790 15.000000
159.117230 143.000000
160.111180 106.000000
161.091340 16.000000
161.115720 30.000000
161.132160 50.000000
161.166720 13.000000
162.127750 45.000000
162.134400 25.000000
162.343020 16.000000
163.132480 27.000000
165.053500 16.000000
165.068100 219.000000
165.913440 13.000000
166.068190 56.000000
166.076740 101.000000
166.082730 45.000000
167.086580 345.000000
168.076370 16.000000
168.091080 135.000000
169.075230 13.000000
169.100880 218.000000
169.637850 16.000000
170.107530 70.000000
171.084550 18.000000
171.100890 17.000000
171.117750 127.000000
171.125400 41.000000
172.108730 31.000000
172.128480 53.000000
172.148900 22.000000
173.098310 38.000000
173.117020 24.000000
173.140640 42.000000
174.114840 16.000000
174.131970 32.000000
174.371440 21.000000
175.113940 15.000000
175.135820 40.000000
176.065900 13.000000
176.162050 16.000000
177.064610 20.000000
178.077550 119.000000
178.485860 13.000000
179.072040 13.000000
179.081990 74.000000
179.090070 107.000000
179.101990 21.000000
180.079120 15.000000
180.088960 52.000000
180.097140 52.000000
181.059450 15.000000
181.100390 308.000000
182.066760 21.000000
182.105620 78.000000
182.115570 30.000000
183.106830 15.000000
183.121140 115.000000
184.092900 21.000000
184.122530 34.000000
184.720170 19.000000
185.128140 63.000000
185.139860 13.000000
186.082640 14.000000
186.111390 13.000000
186.135970 48.000000
187.117190 13.000000
188.148320 15.000000
189.107300 16.000000
189.148930 53.000000
190.081890 50.000000
190.157940 30.000000
190.977200 15.000000
191.085170 72.000000
191.098630 18.000000
191.163350 27.000000
192.084660 87.000000
192.097060 53.000000
192.143130 16.000000
192.189270 23.000000
193.093750 61.000000
193.102950 94.000000
193.165560 13.000000
194.093430 18.000000
194.106060 33.000000
194.117570 15.000000
195.111160 49.000000
195.120790 128.000000
196.129520 50.000000
197.105320 15.000000
197.120650 31.000000
197.136700 15.000000
198.105380 13.000000
198.123610 15.000000
198.131610 18.000000
199.112560 22.000000
199.135540 38.000000
200.127810 33.000000
200.151820 18.000000
200.605470 31.000000
201.130080 13.000000
202.075200 24.000000
202.135470 13.000000
202.157070 55.000000
202.189320 15.000000
203.079900 20.000000
203.093310 22.000000
204.094190 40.000000
204.102100 24.000000
204.135280 13.000000
205.097700 50.000000
205.805890 14.000000
206.082440 35.000000
206.104870 91.000000
206.122120 35.000000
207.105390 28.000000
207.114430 48.000000
208.118790 44.000000
208.131550 14.000000
209.104080 13.000000
209.123830 13.000000
209.134550 58.000000
209.148410 14.000000
210.135700 24.000000
211.114960 19.000000
211.138850 25.000000
214.134260 15.000000
215.073530 13.000000
215.108580 16.000000
216.181260 13.000000
217.094790 13.000000
217.109020 13.000000
217.177030 19.000000
218.153730 28.000000
219.191280 13.000000
220.108080 13.000000
220.131330 15.000000
220.802930 25.000000
221.110210 16.000000
221.126270 85.000000
221.140380 15.000000
222.138930 33.000000
222.146070 22.000000
223.120090 25.000000
223.140300 75.000000
224.145080 18.000000
224.157230 13.000000
225.113880 15.000000
225.138640 14.000000
225.156850 15.000000
225.983610 18.000000
226.150730 20.000000
226.169530 30.000000
227.851870 13.000000
228.112060 16.000000
229.176900 18.000000
230.512830 16.000000
231.112750 13.000000
231.126500 27.000000
232.124730 16.000000
233.120510 13.000000
233.141340 13.000000
235.109240 16.000000
237.148970 35.000000
237.173830 18.000000
238.138020 15.000000
238.153960 32.000000
240.212310 13.000000
244.198530 18.000000
246.137710 30.000000
246.188930 13.000000
247.143590 19.000000
249.135640 14.000000
252.142730 24.000000
252.178120 16.000000
253.189360 16.000000
256.200380 15.000000
257.161590 24.000000
264.155360 18.000000
264.176970 29.000000
264.188290 13.000000
264.919770 13.000000
266.181270 36.000000
269.012510 19.000000
270.187770 13.000000
270.224270 18.000000
280.226560 18.000000
281.211640 16.000000
294.574920 14.000000
296.205720 20.000000
297.236270 13.000000
298.231780 26.000000
303.448670 13.000000
306.185240 15.000000
308.204560 89.000000
309.193270 14.000000
324.202360 15.000000
324.214780 19.000000
324.238740 15.000000
325.159910 22.000000
326.217100 37.000000
330.068270 21.000000
342.203860 19.000000
342.239720 412.000000
342.255000 122.000000
342.626980 13.000000
343.242070 180.000000
343.260220 81.000000
344.231450 34.000000
345.097110 20.000000
345.247650 13.000000

