>compound PR98146396
>parentmass 852.51038
>ionization [M+H]+
>formula C45H73NO14
>rt 300.600000
>profile qtof
#smiles_iso CC1CCC2C(C3C(N2C1)CC4C3(CCC5C4CC=C6C5(CCC(C6)OC7C(C(C(C(O7)CO)OC8C(C(C(C(O8)C)O)O)O)O)OC9C(C(C(C(O9)C)O)O)O)C)C)C
#smiles_can CC1CCC2C(C3C(N2C1)CC4C3(CCC5C4CC=C6C5(CCC(C6)OC7C(C(C(C(O7)CO)OC8C(C(C(C(O8)C)O)O)O)O)OC9C(C(C(C(O9)C)O)O)O)C)C)C
#inchikey TYNQWWGVEGFKRU-UHFFFAOYSA-N
#pubchem_id 4115417
#mb_accession PR310711

>ms2
55.286210 20.000000
60.443260 19.000000
71.651140 17.000000
121.898580 20.000000
197.127910 19.000000
233.587660 24.000000
234.937530 22.000000
239.793690 17.000000
326.214080 26.000000
336.700560 18.000000
339.170900 17.000000
350.535980 24.000000
362.450530 38.000000
398.334140 17.000000
413.364260 18.000000
418.886990 21.000000
420.667570 19.000000
421.874940 20.000000
423.589230 20.000000
427.519130 17.000000
432.183110 28.000000
434.681760 22.000000
437.075870 22.000000
438.774290 17.000000
438.858520 20.000000
439.336000 22.000000
441.161380 22.000000
449.807220 28.000000
450.964900 18.000000
454.771850 22.000000
458.199550 17.000000
464.704680 20.000000
465.528200 24.000000
466.082120 17.000000
466.674530 21.000000
468.008910 25.000000
468.129760 20.000000
469.317050 20.000000
471.121920 18.000000
472.676510 20.000000
473.537750 20.000000
478.892550 18.000000
480.459900 21.000000
482.934690 29.000000
484.613070 42.000000
485.253810 20.000000
485.394990 29.000000
485.762240 25.000000
488.355740 22.000000
489.072420 18.000000
494.226010 24.000000
496.767210 20.000000
497.537230 18.000000
498.292140 25.000000
498.522550 19.000000
498.861940 18.000000
498.961150 24.000000
499.025240 21.000000
500.112790 18.000000
502.626710 24.000000
509.122650 23.000000
510.916230 30.000000
511.308960 17.000000
512.383060 17.000000
515.082340 24.000000
515.486390 17.000000
516.703980 22.000000
519.393070 21.000000
521.034240 17.000000
521.807310 22.000000
524.732970 28.000000
525.678160 20.000000
526.147220 36.000000
526.907960 30.000000
527.415220 17.000000
530.945680 22.000000
531.184390 18.000000
532.299500 17.000000
533.048340 20.000000
537.552670 17.000000
538.392640 20.000000
539.965520 23.000000
544.863890 20.000000
549.318120 36.000000
550.027770 28.000000
550.728760 20.000000
552.336000 20.000000
553.497380 18.000000
553.846250 23.000000
556.952580 25.000000
557.475830 21.000000
564.352840 22.000000
567.486020 17.000000
572.688540 25.000000
573.108090 24.000000
574.870000 19.000000
576.403320 18.000000
576.611510 33.000000
577.790220 20.000000
579.825130 18.000000
585.070560 17.000000
587.766170 22.000000
591.812320 18.000000
593.230770 17.000000
594.617980 39.000000
595.225890 18.000000
600.394100 51.000000
603.213320 25.000000
609.240540 19.000000
610.281430 21.000000
611.621700 17.000000
614.352360 22.000000
617.602600 43.000000
617.755130 17.000000
618.356630 32.000000
619.908260 20.000000
623.674130 27.000000
624.257810 21.000000
647.070620 25.000000
649.950260 17.000000
658.617550 24.000000
667.590390 25.000000
668.105290 18.000000
672.346860 26.000000
673.821530 23.000000
676.736760 17.000000
677.737920 17.000000
683.820500 18.000000
686.507630 17.000000
690.120610 20.000000
691.586240 36.000000
692.384030 21.000000
693.149600 20.000000
699.824830 21.000000
701.484380 22.000000
706.428100 20.000000
707.449340 27.000000
715.881230 29.000000
718.888550 20.000000
721.138920 34.000000
721.296260 24.000000
724.241460 19.000000
728.559630 17.000000
736.784480 22.000000
737.049560 18.000000
739.631040 17.000000
740.558290 29.000000
740.848140 26.000000
741.112060 17.000000
762.227660 19.000000
776.313600 19.000000
785.284790 35.000000
785.458920 42.000000
788.480160 18.000000
789.702580 22.000000
790.022460 27.000000
790.436460 17.000000
823.104250 17.000000
830.181700 19.000000
833.072940 21.000000
833.411440 21.000000
833.839170 25.000000
835.863100 19.000000
836.135250 17.000000
836.269040 29.000000
836.384030 19.000000
836.506100 20.000000
836.525630 17.000000
838.195500 19.000000
838.234070 38.000000
838.350460 20.000000
838.474240 33.000000
841.759770 19.000000
841.799620 18.000000
844.582520 20.000000
846.367430 22.000000
848.633610 20.000000
849.229800 24.000000
849.635990 34.000000
849.835080 19.000000
850.379150 22.000000
850.431760 17.000000
850.501650 56.000000
850.542110 20.000000
851.147950 17.000000
851.458190 57.000000
851.500980 59.000000
851.587220 49.000000
851.638120 20.000000
851.681580 45.000000
851.846440 36.000000
852.061220 34.000000
852.116580 82.000000
852.162840 83.000000
852.203310 21.000000
852.238100 37.000000
852.263730 65.000000
852.326110 157.000000
852.373230 421.000000
852.405090 574.000000
852.432860 359.000000
852.508850 107379.000000
852.581360 345.000000
852.609010 609.000000
852.649960 63.000000

