>compound PR98341635
>parentmass 369.1182
>ionization [M+H]+
>formula C17H20O9
>rt 222.600000
>profile qtof
#smiles_iso COC1=C(C=CC(=C1)C=CC(=O)OC2CC(CC(C2O)O)(C(=O)O)O)O
#smiles_can COC1=C(C=CC(=C1)C=CC(=O)OC2CC(CC(C2O)O)(C(=O)O)O)O
#inchikey RAGZUCNPTLULOL-UHFFFAOYSA-N
#pubchem_id 73210496
#mb_accession PR311017

>ms2
117.034620 52.000000
117.040040 27.000000
143.280030 18.000000
145.029590 223.000000
146.034670 17.000000
146.059970 21.000000
177.018880 24.000000
177.052800 539.000000
177.062390 127.000000
178.060440 34.000000
189.097990 25.000000
241.207780 25.000000
352.035550 20.000000
368.173860 21.000000
369.111660 20.000000

