>compound PR98030021
>parentmass 303.1590856000001
>ionization [M+H]+
>formula C18H22O4
>rt 315.717000
>profile qtof
#smiles_iso C1=CC(=CC(=C1)O)C[C@@H](CO)[C@@H](CC2=CC(=CC=C2)O)CO
#smiles_can C1=CC(=CC(=C1)O)CC(CO)C(CC2=CC(=CC=C2)O)CO
#inchikey DWONJCNDULPHLV-HOTGVXAUSA-N
#pubchem_id 115089
#mb_accession PR303935,PR303936,PR303937,PR303938,PR303939,PR303940,PR303941,PR303942,PR303943,PR303944,PR303945

>ms2peaks
91.053430 39.000000
107.047520 1000.000000
107.055620 156.000000
108.047640 67.000000
108.054250 45.000000
115.051440 28.000000
120.083460 28.000000
121.065510 125.000000
131.088030 59.000000
132.058120 55.000000
132.096760 31.000000
133.047520 50.000000
133.063920 265.000000
133.087810 31.000000
135.072110 50.000000
145.069720 44.000000
148.081150 33.000000
148.365220 45.000000
148.940700 47.000000
149.090700 33.000000
158.320980 28.000000
159.077940 315.000000
159.095280 33.000000
161.090150 37.000000
177.090210 34.000000
255.133330 31.000000
267.132350 841.000000
267.148190 147.000000
268.128810 75.000000
268.139620 151.000000
285.145480 117.000000
287.151670 31.000000
303.153440 34.000000

>ms2peaks
107.037430 11.000000
107.048300 155.000000
121.064700 32.000000
121.072370 18.000000
133.063870 32.000000
135.079130 9.000000
147.070560 28.000000
147.085020 48.000000
147.094020 16.000000
147.104290 12.000000
159.077970 19.000000
159.088260 16.000000
160.083210 10.000000
160.095950 12.000000
161.094830 12.000000
161.106660 11.000000
161.849080 7.000000
162.093110 8.000000
173.093520 7.000000
173.102620 18.000000
174.094600 10.000000
195.070860 7.000000
199.060780 8.000000
206.751310 7.000000
246.425890 17.000000
249.125400 11.000000
267.109890 11.000000
267.138150 1000.000000
267.212190 10.000000
268.138280 190.000000
269.144290 17.000000
270.138460 12.000000
272.276670 7.000000
285.147740 214.000000
286.040680 7.000000
286.151340 18.000000
302.143070 9.000000
303.165470 15.000000

>ms2peaks
73.138540 532.000000
77.039020 514.000000
79.052670 229.000000
80.061150 257.000000
91.046470 183.000000
103.053630 752.000000
104.060580 257.000000
105.069210 1000.000000
107.039100 183.000000
107.048830 706.000000
107.054620 431.000000
115.052530 431.000000
115.056230 220.000000
116.060940 165.000000
132.056760 183.000000
143.076250 165.000000
144.055440 321.000000
145.062760 422.000000
157.068890 248.000000
205.069750 183.000000

>ms2peaks
55.022670 25.000000
77.042900 33.000000
79.037750 28.000000
106.071670 23.000000
107.049220 1000.000000
108.051410 54.000000
109.064130 60.000000
119.240960 21.000000
121.057990 45.000000
121.066550 103.000000
121.076460 45.000000
131.052000 58.000000
131.083100 32.000000
133.064730 405.000000
135.082570 47.000000
144.052110 27.000000
144.059040 21.000000
145.065090 113.000000
147.083510 218.000000
148.089690 22.000000
159.074170 56.000000
159.082640 59.000000
160.087010 33.000000
199.076800 40.000000
249.136570 26.000000
267.138460 799.000000
268.139250 120.000000
268.149840 102.000000
269.140380 22.000000
285.147520 67.000000
285.160280 33.000000

>ms2peaks
107.043510 30.000000
107.049980 82.000000
108.051090 15.000000
111.078210 6.000000
117.318750 6.000000
121.060680 8.000000
121.067570 18.000000
131.697750 6.000000
133.065080 113.000000
134.075610 6.000000
134.792330 7.000000
135.080350 13.000000
147.073030 23.000000
147.082260 14.000000
159.064030 7.000000
159.081680 76.000000
160.083340 14.000000
173.092090 29.000000
173.101810 25.000000
174.095520 12.000000
177.095860 9.000000
223.109180 8.000000
249.125110 6.000000
257.798580 6.000000
265.139920 6.000000
266.142520 9.000000
266.199890 6.000000
267.138000 1000.000000
268.138430 143.000000
268.152500 57.000000
269.140660 27.000000
269.156250 5.000000
285.147800 193.000000
286.140140 18.000000
286.154970 72.000000
287.160980 9.000000
303.147430 7.000000

>ms2peaks
77.040200 48.000000
78.039820 20.000000
79.056120 15.000000
93.379040 26.000000
94.072890 13.000000
95.046090 21.000000
99.078120 22.000000
105.067210 169.000000
107.027440 27.000000
107.049270 1000.000000
108.051900 49.000000
109.055100 19.000000
117.062840 24.000000
117.072810 30.000000
119.086270 15.000000
120.091220 21.000000
121.062940 81.000000
121.069170 73.000000
122.063950 28.000000
129.070070 34.000000
131.082920 86.000000
131.093860 15.000000
132.060210 14.000000
133.051960 24.000000
133.063670 477.000000
134.069030 27.000000
137.776820 15.000000
141.065290 13.000000
141.073170 33.000000
142.070720 19.000000
144.053830 77.000000
144.067610 18.000000
144.902010 15.000000
145.044940 21.000000
145.062160 59.000000
147.062760 18.000000
147.081700 209.000000
147.666310 13.000000
148.088130 15.000000
158.073290 15.000000
159.073560 53.000000
159.081010 149.000000
160.085080 54.000000
161.098130 63.000000
161.227660 13.000000
179.084760 25.000000
219.069780 19.000000
234.108670 37.000000
267.122560 23.000000

>ms2peaks
77.040060 747.000000
79.051950 253.000000
91.057460 198.000000
105.068650 549.000000
107.051240 1000.000000
108.051220 253.000000
109.057260 297.000000
116.054210 275.000000
116.062410 220.000000
131.087140 220.000000
145.059840 396.000000

>ms2peaks
92.055290 37.000000
95.488750 34.000000
103.053890 31.000000
107.034990 45.000000
107.049600 1000.000000
108.045490 32.000000
117.070120 29.000000
132.059770 32.000000
133.064500 333.000000
134.067350 73.000000
135.085630 62.000000
135.630400 34.000000
141.070920 75.000000
142.080730 41.000000
145.065950 86.000000
147.081820 271.000000
148.086840 62.000000
148.338730 28.000000
154.073230 44.000000
159.076930 170.000000
159.085820 112.000000
160.083280 179.000000
177.085970 32.000000
179.074860 29.000000
211.067310 32.000000
221.098100 109.000000
267.139860 794.000000
268.125000 52.000000
268.145600 364.000000
285.152130 99.000000
286.150270 44.000000

>ms2peaks
107.048900 181.000000
110.527340 6.000000
121.062730 14.000000
121.067300 14.000000
133.064990 81.000000
147.079560 27.000000
147.090450 19.000000
147.227830 6.000000
148.089230 13.000000
159.081880 34.000000
159.364270 7.000000
160.082990 18.000000
160.098720 7.000000
161.090180 19.000000
171.082670 12.000000
173.085740 7.000000
173.104510 6.000000
177.090450 9.000000
208.088500 10.000000
209.100850 9.000000
219.974350 8.000000
250.120130 7.000000
255.143160 19.000000
256.007840 14.000000
259.151730 8.000000
266.830990 6.000000
266.964390 7.000000
267.140350 1000.000000
268.009610 6.000000
268.104460 9.000000
268.139250 162.000000
268.162660 13.000000
269.140440 47.000000
269.157870 15.000000
270.153470 9.000000
271.686130 6.000000
285.149380 177.000000
286.149480 23.000000
287.161250 9.000000
301.151550 15.000000

>ms2peaks
77.035750 21.000000
93.073520 26.000000
94.035320 28.000000
105.069150 157.000000
107.048240 1000.000000
107.066360 20.000000
108.048510 175.000000
108.327870 20.000000
109.060890 39.000000
109.372410 38.000000
115.059780 25.000000
116.067090 26.000000
119.084890 77.000000
120.086360 34.000000
121.062680 278.000000
121.067850 116.000000
124.145550 20.000000
127.055510 27.000000
129.068330 24.000000
130.079130 22.000000
131.048510 135.000000
131.086000 160.000000
132.084630 41.000000
133.060840 360.000000
135.079700 31.000000
138.065750 37.000000
141.065460 79.000000
142.073970 21.000000
144.053390 101.000000
145.056060 38.000000
145.066190 86.000000
147.078780 160.000000
147.088670 51.000000
152.065800 43.000000
157.058490 85.000000
159.080610 340.000000
160.083270 62.000000
173.091090 127.000000
179.081560 39.000000
181.050740 28.000000
181.066830 27.000000
207.079680 20.000000
222.403460 26.000000
267.137630 21.000000

>ms2peaks
77.040510 227.000000
79.052480 356.000000
80.058040 108.000000
91.055460 155.000000
101.955430 103.000000
105.065780 103.000000
107.051510 1000.000000
115.049390 175.000000
115.057930 469.000000
116.060970 258.000000
119.079900 93.000000
122.064350 113.000000
128.066560 170.000000
131.049070 134.000000
133.061520 222.000000
136.269530 93.000000
144.054310 345.000000
145.062130 216.000000
161.088870 98.000000
168.061050 108.000000

