>compound PR98642064
>parentmass 309.1597542999999
>ionization [M+H]+
>formula C19H20N2O2
>rt 202.731000
>profile qtof
#smiles_iso C/C=C\1/CN2CC[C@@]34[C@@H]2C[C@@H]1C(=C3NC5=C4C=CC=C5O)C=O
#smiles_can CC=C1CN2CCC34C2CC1C(=C3NC5=C4C=CC=C5O)C=O
#inchikey JDOFCMASVRMYJU-JYTRXFNOSA-N
#pubchem_id 11870645
#mb_accession PR300656,PR300661,PR300666,PR300671,PR300676,PR300681,PR300686,PR300691,PR300696,PR300701,PR300706,PR300711

>ms2
81.068340 6.000000
122.098830 7.000000
146.061290 31.000000
154.064730 10.000000
160.073290 17.000000
162.516570 5.000000
166.066760 9.000000
167.072810 10.000000
170.064670 11.000000
172.079610 8.000000
173.083480 6.000000
174.091600 16.000000
180.085950 6.000000
182.059690 5.000000
183.068210 7.000000
184.075070 32.000000
184.683900 6.000000
185.070570 32.000000
186.052830 10.000000
187.090190 21.000000
192.078450 6.000000
196.078840 44.000000
197.069890 12.000000
198.092290 8.000000
199.058580 5.000000
200.071270 5.000000
200.104310 6.000000
202.083510 6.000000
203.091720 5.000000
205.082790 5.000000
207.064760 6.000000
208.077330 8.000000
209.089070 9.000000
210.089450 10.000000
212.100540 10.000000
215.080200 21.000000
216.082230 9.000000
221.086210 5.000000
222.094150 6.000000
223.090320 27.000000
223.102100 14.000000
224.069500 6.000000
224.097640 14.000000
224.111820 11.000000
225.100690 11.000000
227.119000 7.000000
234.090500 10.000000
236.092590 10.000000
236.108860 27.000000
237.118390 7.000000
238.110690 13.000000
238.119670 31.000000
238.128450 9.000000
239.094180 6.000000
239.128400 7.000000
247.091370 10.000000
248.092940 7.000000
249.112870 7.000000
249.127790 6.000000
251.103530 7.000000
252.109830 5.000000
252.144410 20.000000
254.111620 9.000000
262.125700 6.000000
264.141270 29.000000
265.120570 5.000000
265.137020 7.000000
266.120210 23.000000
267.128910 5.000000
274.124270 8.000000
280.122860 7.000000
280.141050 19.000000
281.136570 6.000000
281.164400 13.000000
291.151090 12.000000
309.110750 11.000000
309.159880 1000.000000

>ms2
309.117340 8.000000
309.160490 1000.000000
309.203640 6.000000

>ms2
68.048620 35.000000
70.067270 38.000000
79.043480 35.000000
79.051050 41.000000
85.064980 42.000000
91.056850 132.000000
93.055660 52.000000
95.051050 61.000000
96.077630 41.000000
96.082550 64.000000
106.065440 85.000000
106.070810 50.000000
108.041930 33.000000
108.080330 153.000000
109.063190 52.000000
110.095540 35.000000
118.069450 41.000000
120.034280 26.000000
122.062580 55.000000
122.091080 134.000000
123.106920 33.000000
127.055400 47.000000
132.094890 30.000000
133.065630 26.000000
133.091610 30.000000
134.056340 32.000000
136.078860 36.000000
136.113400 58.000000
139.049480 52.000000
143.053730 41.000000
144.044860 27.000000
146.051860 74.000000
146.061950 385.000000
146.099520 80.000000
147.066420 140.000000
147.992940 29.000000
148.042830 62.000000
148.075160 33.000000
148.103680 30.000000
148.109860 35.000000
150.098890 38.000000
150.165150 36.000000
154.065780 30.000000
155.078920 27.000000
156.078720 33.000000
157.090060 32.000000
159.063710 77.000000
160.070860 162.000000
160.078900 322.000000
161.078110 27.000000
162.007840 27.000000
162.094730 36.000000
163.016540 33.000000
166.046840 30.000000
166.057330 77.000000
166.065020 77.000000
167.076830 56.000000
167.084630 27.000000
168.072780 46.000000
168.079670 58.000000
170.033570 32.000000
170.062060 134.000000
171.065020 73.000000
171.072220 83.000000
172.058900 35.000000
172.081850 86.000000
173.075390 42.000000
174.085360 162.000000
174.094090 115.000000
175.088840 32.000000
175.096970 27.000000
179.086360 35.000000
181.073360 38.000000
182.054060 29.000000
182.061490 38.000000
182.086940 36.000000
182.097210 46.000000
183.068830 376.000000
183.081850 65.000000
183.122040 33.000000
184.063310 162.000000
184.074340 809.000000
184.081990 287.000000
184.095140 88.000000
185.064190 208.000000
185.072100 290.000000
185.085910 96.000000
186.053970 93.000000
186.062410 27.000000
186.075850 85.000000
186.084980 30.000000
186.101720 38.000000
186.126630 49.000000
187.047000 32.000000
187.082380 222.000000
187.091350 402.000000
188.035280 35.000000
188.075090 127.000000
188.088880 26.000000
192.086200 115.000000
192.668870 27.000000
193.084640 59.000000
193.968400 74.000000
194.072300 55.000000
195.072650 38.000000
195.086940 38.000000
196.077620 1000.000000
196.263550 35.000000
197.029880 38.000000
197.077480 514.000000
197.088850 322.000000
197.484590 39.000000
198.056690 96.000000
198.071180 83.000000
198.082230 137.000000
198.094760 158.000000
199.054860 32.000000
199.067140 121.000000
199.093730 134.000000
200.066990 129.000000
200.091920 29.000000
200.107360 38.000000
201.112780 32.000000
202.077700 82.000000
202.087970 206.000000
203.089250 50.000000
203.388760 68.000000
205.077970 41.000000
206.025540 35.000000
206.073230 27.000000
206.090850 27.000000
206.104970 44.000000
207.066270 294.000000
207.081450 55.000000
207.381550 39.000000
208.069720 68.000000
208.079640 357.000000
208.103960 30.000000
209.070570 26.000000
209.086380 114.000000
210.057430 65.000000
210.065870 41.000000
210.088490 390.000000
210.100830 111.000000
210.136630 46.000000
211.051090 35.000000
211.068760 108.000000
211.083440 111.000000
211.099670 179.000000
212.065860 70.000000
212.075760 29.000000
212.097400 170.000000
213.125290 46.000000
215.080660 153.000000
215.090550 202.000000
216.060640 33.000000
216.083950 77.000000
216.093290 26.000000
217.089510 41.000000
218.094270 58.000000
218.102080 52.000000
218.113430 38.000000
219.117170 41.000000
220.075880 197.000000
220.084240 77.000000
220.109480 109.000000
220.120100 32.000000
220.935330 27.000000
221.062270 36.000000
221.079770 370.000000
221.094240 159.000000
221.112500 49.000000
222.069200 74.000000
222.090820 640.000000
223.063160 88.000000
223.084730 281.000000
223.094860 261.000000
223.104340 202.000000
224.073810 90.000000
224.083010 140.000000
224.099270 372.000000
224.110460 258.000000
225.057890 39.000000
225.081250 36.000000
225.100540 272.000000
226.072360 27.000000
226.097470 138.000000
226.122800 120.000000
226.129710 41.000000
227.074260 27.000000
232.102290 33.000000
232.563890 26.000000
233.059650 35.000000
233.086880 196.000000
233.163770 30.000000
234.054030 35.000000
234.088330 454.000000
234.110380 35.000000
234.136150 50.000000
234.323990 47.000000
235.097960 241.000000
235.935940 32.000000
236.071590 102.000000
236.105960 731.000000
236.121960 153.000000
237.073650 99.000000
237.086620 206.000000
237.110280 246.000000
237.123600 49.000000
238.086210 36.000000
238.101290 261.000000
238.121370 284.000000
238.131120 275.000000
239.073970 61.000000
239.097660 61.000000
239.128220 187.000000
240.088200 80.000000
240.098570 64.000000
240.134890 35.000000
241.100780 42.000000
242.035460 26.000000
243.078400 58.000000
244.101730 30.000000
244.121310 65.000000
245.101560 50.000000
245.114200 26.000000
246.073840 41.000000
246.090620 52.000000
246.101970 42.000000
246.113850 32.000000
247.096620 64.000000
247.106190 223.000000
247.114210 68.000000
248.089610 73.000000
248.106290 219.000000
249.073620 33.000000
249.088820 62.000000
249.099060 52.000000
249.115540 241.000000
249.131390 30.000000
250.081380 27.000000
250.094310 27.000000
250.103360 58.000000
250.127150 144.000000
251.075520 46.000000
251.094790 44.000000
251.120180 231.000000
251.128860 90.000000
252.099640 222.000000
252.117810 53.000000
252.131000 76.000000
252.138490 134.000000
253.088380 39.000000
253.101550 27.000000
253.123660 36.000000
253.134670 88.000000
253.147870 167.000000
254.093090 42.000000
254.125810 123.000000
255.110310 138.000000
258.094570 36.000000
259.075040 30.000000
259.091250 79.000000
259.105130 38.000000
260.101990 29.000000
261.092860 41.000000
261.107420 90.000000
262.062440 36.000000
262.083340 32.000000
262.114960 35.000000
262.122960 33.000000
262.136380 50.000000
262.189700 38.000000
262.387600 41.000000
263.104830 124.000000
263.127440 79.000000
264.118320 38.000000
264.135860 62.000000
264.147830 126.000000
265.087430 58.000000
265.105470 59.000000
265.119230 26.000000
265.133610 153.000000
266.090730 85.000000
266.115840 335.000000
266.131960 56.000000
267.125270 109.000000
267.157010 91.000000
268.135190 27.000000
272.115910 38.000000
274.119690 53.000000
275.114750 74.000000
276.125030 35.000000
277.125520 96.000000
279.113890 38.000000
279.145720 32.000000
279.163240 35.000000
280.114840 32.000000
280.136440 83.000000
280.152860 164.000000
280.171510 68.000000
281.112550 26.000000
281.131810 46.000000
281.162450 226.000000
282.139620 30.000000
289.000520 27.000000
289.131740 33.000000
290.124600 46.000000
291.154300 103.000000
292.154540 36.000000
293.137940 82.000000
307.147890 27.000000
309.125030 39.000000
309.150910 241.000000
309.161900 455.000000
309.184780 55.000000

>ms2
55.052380 57.000000
77.036710 96.000000
77.040980 98.000000
79.047520 52.000000
79.054960 52.000000
80.054290 70.000000
91.052330 78.000000
93.056690 65.000000
94.068050 78.000000
103.046570 44.000000
105.067270 52.000000
109.064760 67.000000
115.056480 132.000000
116.044360 47.000000
116.066550 54.000000
118.064670 142.000000
119.077750 52.000000
120.085950 52.000000
127.022350 83.000000
127.060020 134.000000
128.063550 54.000000
129.005310 44.000000
129.076450 75.000000
129.263050 80.000000
130.064640 83.000000
131.046830 52.000000
131.054080 65.000000
131.070360 44.000000
131.078290 145.000000
132.021360 47.000000
133.690020 47.000000
139.055220 207.000000
140.054080 248.000000
140.063130 78.000000
141.072740 98.000000
142.065660 137.000000
142.072800 116.000000
143.072810 225.000000
144.066380 52.000000
146.056270 134.000000
146.064060 72.000000
147.072880 70.000000
151.053130 75.000000
152.047010 103.000000
152.055500 114.000000
152.062580 70.000000
153.065140 78.000000
153.076630 101.000000
154.064000 271.000000
154.074360 44.000000
154.435500 44.000000
155.071790 57.000000
155.084610 44.000000
156.069780 70.000000
156.080570 70.000000
157.068480 70.000000
157.076100 57.000000
157.093890 59.000000
158.062760 204.000000
159.067210 57.000000
160.078000 44.000000
161.079410 85.000000
165.065250 124.000000
165.076810 70.000000
165.990110 49.000000
166.043140 52.000000
166.062470 315.000000
166.073230 132.000000
166.556170 52.000000
167.068080 222.000000
167.079270 70.000000
167.092100 85.000000
168.088270 222.000000
169.086380 158.000000
170.062440 54.000000
171.055890 54.000000
171.068180 65.000000
171.100630 111.000000
172.060390 204.000000
172.068770 59.000000
174.096770 62.000000
176.060900 47.000000
177.073210 109.000000
178.062390 191.000000
178.075200 142.000000
180.079570 264.000000
180.090130 75.000000
181.084440 62.000000
182.062120 145.000000
182.096410 54.000000
183.069760 240.000000
183.076190 217.000000
183.094560 65.000000
184.072110 194.000000
184.083590 116.000000
184.804140 62.000000
185.070720 114.000000
185.080470 54.000000
186.058150 44.000000
186.069850 57.000000
186.090700 67.000000
187.077300 65.000000
188.023220 90.000000
189.070540 163.000000
190.067350 47.000000
191.069400 173.000000
191.097720 62.000000
192.082870 230.000000
193.081530 106.000000
194.059770 80.000000
194.100770 109.000000
195.100850 57.000000
196.054280 62.000000
196.074800 1000.000000
196.580260 44.000000
197.065510 49.000000
198.080860 59.000000
199.061220 111.000000
199.095250 137.000000
204.075380 220.000000
204.086730 333.000000
205.076290 44.000000
205.095930 47.000000
206.044490 88.000000
206.082550 72.000000
206.101650 121.000000
207.063280 72.000000
208.073290 52.000000
209.089070 287.000000
209.101670 49.000000
210.085210 189.000000
211.096220 62.000000
212.062160 65.000000
216.076710 85.000000
217.088880 380.000000
218.097440 145.000000
218.111830 85.000000
220.075520 289.000000
220.095580 54.000000
221.074400 49.000000
222.085940 163.000000
223.088520 171.000000
223.112090 194.000000
223.183810 47.000000
225.087070 47.000000
225.107740 101.000000
225.571520 54.000000
227.063670 72.000000
230.088240 114.000000
233.082900 163.000000
234.065720 65.000000
234.087680 207.000000
234.110930 85.000000
236.073150 47.000000
236.096150 103.000000
237.095400 183.000000
237.113200 65.000000
246.090060 52.000000
247.100080 54.000000
248.090930 49.000000
248.110530 85.000000
249.106170 85.000000
251.121380 65.000000
259.082460 88.000000
262.102970 88.000000
264.110720 103.000000
265.133730 44.000000
265.269990 44.000000

>ms2
142.069270 5.000000
146.061520 16.000000
147.064130 6.000000
159.063960 6.000000
160.071470 20.000000
166.065960 10.000000
170.058410 5.000000
172.079120 6.000000
174.092880 20.000000
175.088180 6.000000
181.062900 5.000000
183.059250 8.000000
183.070680 14.000000
184.078120 22.000000
185.072620 26.000000
186.057540 6.000000
187.086650 37.000000
196.074970 39.000000
197.071120 6.000000
197.083970 13.000000
198.084090 13.000000
198.093370 5.000000
199.069610 8.000000
199.086120 12.000000
200.074550 8.000000
202.086200 25.000000
207.070920 8.000000
208.042830 5.000000
209.079790 12.000000
210.083510 8.000000
210.092300 13.000000
211.092900 13.000000
212.076080 6.000000
213.080090 5.000000
215.070540 8.000000
215.084300 20.000000
215.091670 13.000000
221.088900 6.000000
222.084530 18.000000
222.097210 9.000000
223.080000 6.000000
223.091200 10.000000
223.102050 15.000000
224.107390 8.000000
225.098390 7.000000
225.108430 7.000000
226.104190 10.000000
232.071400 6.000000
233.078320 7.000000
234.087800 7.000000
234.098460 6.000000
235.091250 10.000000
235.106480 9.000000
236.098080 16.000000
236.107130 29.000000
237.096240 10.000000
237.105970 7.000000
237.117310 5.000000
238.126220 40.000000
239.089400 5.000000
239.114230 6.000000
239.123670 10.000000
246.088620 5.000000
247.093050 6.000000
248.101100 10.000000
249.120740 6.000000
250.078580 6.000000
250.118710 6.000000
251.090480 9.000000
251.105410 10.000000
252.099550 9.000000
254.106200 6.000000
254.122510 8.000000
255.108980 6.000000
261.102780 5.000000
262.121980 15.000000
264.136110 13.000000
265.152950 5.000000
266.115420 29.000000
267.116180 8.000000
267.125700 11.000000
267.153050 6.000000
276.115750 6.000000
280.134700 12.000000
281.146240 10.000000
281.165560 24.000000
282.176850 6.000000
291.152830 9.000000
291.166960 6.000000
309.064640 6.000000
309.159820 1000.000000

>ms2
308.150600 5.000000
309.116330 5.000000
309.160190 1000.000000
309.209630 11.000000

>ms2
68.046090 32.000000
68.055760 26.000000
69.070760 24.000000
70.065760 40.000000
76.552130 21.000000
80.049510 20.000000
90.580640 64.000000
91.060630 36.000000
93.066100 80.000000
93.081230 52.000000
95.081630 68.000000
95.090640 61.000000
103.049640 20.000000
105.066880 52.000000
105.073030 77.000000
107.082820 29.000000
108.076870 50.000000
110.095780 34.000000
110.100340 27.000000
115.051990 39.000000
116.060550 29.000000
117.035730 26.000000
117.058400 20.000000
117.063310 42.000000
118.061520 26.000000
118.068200 30.000000
119.087800 42.000000
119.134920 24.000000
120.045660 30.000000
120.082630 24.000000
122.047040 23.000000
122.053890 53.000000
122.084730 27.000000
122.094990 103.000000
128.064770 26.000000
129.074010 29.000000
130.068160 80.000000
131.048650 39.000000
131.085720 59.000000
131.093640 26.000000
132.080950 52.000000
133.052550 30.000000
133.561810 29.000000
134.058870 24.000000
134.093690 21.000000
136.120740 27.000000
138.085570 23.000000
140.047670 37.000000
144.055020 53.000000
144.072630 24.000000
146.061040 534.000000
147.031300 23.000000
147.058670 24.000000
147.068360 325.000000
147.090260 25.000000
147.103120 30.000000
150.089100 37.000000
152.262730 58.000000
153.066360 33.000000
154.030380 40.000000
154.062850 37.000000
154.071500 21.000000
155.074770 57.000000
156.055680 30.000000
156.085680 86.000000
157.057890 57.000000
157.067020 24.000000
157.092760 80.000000
158.056060 34.000000
159.050750 30.000000
159.067520 216.000000
159.080930 32.000000
160.014740 44.000000
160.077270 298.000000
161.082090 25.000000
162.071290 31.000000
162.084990 20.000000
162.093510 71.000000
165.061400 84.000000
166.063600 94.000000
166.071810 70.000000
167.061600 26.000000
167.071290 103.000000
167.079560 25.000000
168.059010 71.000000
169.064010 26.000000
169.085360 27.000000
170.034320 46.000000
170.052120 70.000000
170.062550 50.000000
171.036010 32.000000
171.057630 29.000000
171.071270 169.000000
172.045790 77.000000
172.068210 109.000000
172.078190 340.000000
173.050050 53.000000
173.071410 30.000000
173.083360 56.000000
174.051700 58.000000
174.079450 67.000000
174.092060 384.000000
175.060070 23.000000
175.267270 29.000000
175.295040 32.000000
176.079270 24.000000
176.099730 30.000000
176.986890 21.000000
179.062680 26.000000
179.083880 62.000000
180.066180 39.000000
181.087310 30.000000
181.094450 23.000000
181.237630 20.000000
182.083190 24.000000
182.095400 23.000000
182.108550 25.000000
183.069170 789.000000
183.095950 84.000000
184.050020 52.000000
184.078540 960.000000
184.219700 20.000000
185.053590 33.000000
185.068210 281.000000
185.079250 147.000000
186.013780 29.000000
186.058520 139.000000
186.073930 103.000000
186.085740 36.000000
186.094150 33.000000
186.255140 36.000000
187.051910 24.000000
187.066120 34.000000
187.080410 121.000000
187.088870 373.000000
187.360790 21.000000
188.067700 67.000000
188.077820 39.000000
188.089130 20.000000
192.096650 33.000000
194.054180 20.000000
194.086900 29.000000
194.106520 24.000000
195.084590 25.000000
195.098050 25.000000
196.061520 84.000000
196.077320 1000.000000
196.114400 55.000000
197.052860 33.000000
197.065480 52.000000
197.081790 417.000000
198.056880 68.000000
198.075180 151.000000
198.086040 146.000000
198.097460 125.000000
199.055400 38.000000
199.066640 119.000000
199.080260 131.000000
199.094530 77.000000
200.073930 76.000000
200.095700 21.000000
200.106490 30.000000
201.080060 81.000000
202.059390 39.000000
202.079960 243.000000
202.090770 271.000000
203.096240 108.000000
203.676120 21.000000
204.081570 48.000000
204.093460 34.000000
204.180270 21.000000
204.697490 20.000000
204.843780 48.000000
205.081240 30.000000
205.089940 80.000000
205.132190 30.000000
206.069670 20.000000
206.083040 52.000000
206.096860 68.000000
207.062520 114.000000
207.081310 86.000000
207.092210 50.000000
208.067490 74.000000
208.078230 208.000000
208.107480 52.000000
209.081180 126.000000
209.094470 34.000000
209.109920 34.000000
210.053650 52.000000
210.084900 189.000000
210.093340 176.000000
210.137390 42.000000
211.011780 24.000000
211.062870 84.000000
211.088460 86.000000
211.097660 182.000000
211.111420 50.000000
211.130690 24.000000
212.049090 32.000000
212.072480 52.000000
212.093460 103.000000
212.103560 165.000000
212.114440 67.000000
213.103450 106.000000
213.117450 24.000000
214.089280 30.000000
215.062360 21.000000
215.082430 734.000000
216.078340 71.000000
216.089510 61.000000
217.078520 64.000000
217.094830 99.000000
218.097080 103.000000
219.073990 50.000000
219.097670 48.000000
219.119460 36.000000
220.079190 211.000000
220.117740 51.000000
220.135070 21.000000
221.080250 420.000000
221.106960 24.000000
221.123950 64.000000
221.203290 21.000000
221.622990 26.000000
222.071560 58.000000
222.088010 290.000000
222.099010 215.000000
223.057070 62.000000
223.070400 36.000000
223.083070 215.000000
223.098340 481.000000
224.079760 27.000000
224.096220 445.000000
224.107480 299.000000
224.145510 25.000000
225.074280 64.000000
225.104020 287.000000
226.088870 91.000000
226.122710 208.000000
227.079730 23.000000
227.117610 21.000000
227.131850 29.000000
227.609650 21.000000
228.131970 37.000000
228.911220 25.000000
229.076630 31.000000
230.092220 21.000000
231.068910 24.000000
231.144230 21.000000
232.071210 83.000000
232.118190 29.000000
233.076170 184.000000
233.087400 140.000000
233.408370 21.000000
233.767620 26.000000
234.058060 24.000000
234.066280 29.000000
234.085820 261.000000
234.097600 189.000000
234.128010 52.000000
235.069060 29.000000
235.082980 96.000000
235.090160 159.000000
235.106220 190.000000
236.098630 365.000000
236.109130 243.000000
236.118150 99.000000
236.140590 80.000000
237.074810 109.000000
237.088530 29.000000
237.106520 211.000000
237.114000 422.000000
238.075490 71.000000
238.086720 164.000000
238.109210 204.000000
238.123370 773.000000
239.080870 24.000000
239.093580 90.000000
239.111400 82.000000
239.123430 64.000000
239.133680 43.000000
239.240230 21.000000
240.097750 29.000000
240.116300 36.000000
241.116970 20.000000
242.108950 23.000000
244.088060 21.000000
245.090940 87.000000
246.091550 91.000000
246.124300 105.000000
246.132570 51.000000
247.086880 75.000000
247.096560 102.000000
247.106510 75.000000
247.123810 26.000000
247.779360 29.000000
248.071230 69.000000
248.084720 75.000000
248.105070 234.000000
248.127640 36.000000
249.069140 33.000000
249.083710 105.000000
249.106380 160.000000
249.117710 84.000000
249.127610 49.000000
250.045350 29.000000
250.098100 88.000000
250.122240 222.000000
251.077070 20.000000
251.095610 270.000000
251.121610 213.000000
251.138670 56.000000
251.768160 20.000000
252.067120 23.000000
252.094500 106.000000
252.108700 48.000000
252.140780 499.000000
252.182240 24.000000
253.085650 71.000000
253.127060 72.000000
253.139500 120.000000
254.080430 29.000000
254.098190 56.000000
254.115420 145.000000
254.131740 56.000000
254.147020 55.000000
254.156950 20.000000
255.097350 27.000000
255.113710 139.000000
255.633500 20.000000
256.119110 43.000000
256.127660 38.000000
257.118070 51.000000
258.079770 26.000000
258.090030 20.000000
259.099090 95.000000
259.112340 32.000000
260.103970 24.000000
261.095670 107.000000
261.114960 50.000000
262.096920 80.000000
262.122130 438.000000
262.139620 39.000000
263.097440 77.000000
263.109280 89.000000
263.128420 59.000000
263.141570 21.000000
263.226680 24.000000
264.031130 23.000000
264.104740 88.000000
264.134580 316.000000
264.147030 118.000000
265.122650 23.000000
265.142330 144.000000
265.153660 65.000000
266.104710 135.000000
266.124210 182.000000
266.140440 75.000000
266.778290 24.000000
267.120030 52.000000
267.141690 82.000000
267.154630 169.000000
268.134800 29.000000
269.351720 21.000000
274.125790 121.000000
275.109830 102.000000
275.126680 56.000000
276.095950 30.000000
276.115940 31.000000
276.137240 77.000000
277.129360 25.000000
277.141420 45.000000
277.319340 29.000000
278.106960 29.000000
278.144960 30.000000
278.735720 30.000000
279.099180 20.000000
279.114960 88.000000
279.143710 23.000000
280.108760 52.000000
280.133880 223.000000
280.155090 57.000000
280.170470 26.000000
280.198490 21.000000
281.130280 51.000000
281.143800 49.000000
281.159300 116.000000
281.171170 27.000000
282.119140 27.000000
282.156590 20.000000
282.177520 44.000000
283.167940 43.000000
291.147800 127.000000
292.125210 20.000000
292.137480 29.000000
293.161530 20.000000
293.855290 31.000000
295.084470 25.000000
309.135500 20.000000
309.153410 347.000000
309.161800 855.000000

>ms2
67.046000 56.000000
79.053190 54.000000
79.292350 48.000000
79.452770 40.000000
80.045320 29.000000
81.044310 29.000000
91.044290 38.000000
91.050250 27.000000
92.055760 40.000000
92.061120 72.000000
93.056440 35.000000
94.063960 110.000000
95.054890 48.000000
101.035340 40.000000
101.783170 27.000000
102.030360 45.000000
102.035290 30.000000
105.057860 29.000000
107.039670 43.000000
115.047110 72.000000
115.055960 243.000000
115.063780 30.000000
116.055210 77.000000
117.054180 27.000000
117.060060 45.000000
118.063060 29.000000
118.071750 40.000000
119.064380 109.000000
120.029800 46.000000
120.091160 51.000000
127.045850 72.000000
127.057980 126.000000
128.045580 66.000000
128.062550 29.000000
129.053830 53.000000
129.068280 59.000000
129.074620 136.000000
130.052900 34.000000
130.061980 221.000000
130.071370 144.000000
130.861620 37.000000
131.049450 29.000000
131.063400 74.000000
131.071810 29.000000
132.503280 46.000000
133.027500 32.000000
133.043440 75.000000
134.046140 29.000000
134.905620 32.000000
139.047410 82.000000
140.046920 51.000000
140.207990 35.000000
141.069660 58.000000
141.078090 38.000000
141.695280 29.000000
142.061890 117.000000
143.069320 46.000000
144.052510 43.000000
144.081590 50.000000
145.051250 34.000000
145.085980 32.000000
145.971360 53.000000
146.054790 120.000000
146.065310 232.000000
146.626790 59.000000
147.064640 107.000000
148.053800 32.000000
148.080260 53.000000
151.053990 270.000000
152.043620 40.000000
152.051970 170.000000
152.066560 101.000000
152.074170 37.000000
152.240840 27.000000
153.050920 38.000000
153.064900 27.000000
154.066330 523.000000
155.072980 168.000000
155.081830 48.000000
156.066850 34.000000
156.077010 34.000000
156.084410 85.000000
158.061900 101.000000
158.724430 42.000000
159.065220 189.000000
159.077350 88.000000
160.067140 30.000000
160.077160 78.000000
161.076550 69.000000
164.056610 38.000000
165.060420 30.000000
165.070940 168.000000
166.065610 264.000000
167.064760 288.000000
167.073140 595.000000
167.096790 35.000000
168.052430 27.000000
168.067380 40.000000
168.078630 120.000000
168.087070 94.000000
169.067030 32.000000
169.083560 166.000000
170.045070 96.000000
170.062770 373.000000
170.087490 53.000000
171.048810 48.000000
171.067990 192.000000
171.101870 40.000000
172.058040 77.000000
172.068570 27.000000
173.065290 45.000000
173.074160 37.000000
174.050780 54.000000
174.076480 38.000000
174.103650 27.000000
176.050310 30.000000
176.066150 106.000000
177.069310 46.000000
178.064760 45.000000
178.076050 75.000000
179.070130 64.000000
179.091060 78.000000
179.998900 29.000000
180.075580 227.000000
181.058110 82.000000
181.078600 37.000000
181.085390 38.000000
181.099410 59.000000
181.115660 48.000000
182.062680 32.000000
182.070630 59.000000
182.081990 86.000000
182.104310 58.000000
183.065170 482.000000
183.072720 438.000000
183.107940 32.000000
184.070300 160.000000
184.081070 133.000000
185.057080 30.000000
185.076340 166.000000
186.049150 30.000000
186.574540 34.000000
187.084520 109.000000
187.104400 32.000000
189.066010 42.000000
190.053650 86.000000
190.074360 142.000000
190.849850 50.000000
191.066940 139.000000
191.085480 150.000000
191.097260 38.000000
192.061580 32.000000
192.076370 341.000000
192.089750 256.000000
193.067320 35.000000
193.079960 142.000000
193.087300 75.000000
194.060330 62.000000
194.096660 237.000000
195.088560 35.000000
195.095460 35.000000
195.109220 72.000000
196.055280 35.000000
196.078230 1000.000000
196.095950 83.000000
197.079710 171.000000
197.673540 29.000000
198.072400 34.000000
199.067730 98.000000
199.080730 69.000000
201.061310 38.000000
202.066500 43.000000
203.073590 38.000000
204.062990 78.000000
204.076250 568.000000
204.087330 202.000000
204.109710 27.000000
204.847060 42.000000
205.076600 170.000000
205.093550 66.000000
205.313950 29.000000
206.067110 40.000000
206.081890 147.000000
206.102100 90.000000
207.064680 30.000000
207.075790 107.000000
208.076690 325.000000
208.099330 56.000000
208.111020 53.000000
209.067730 82.000000
209.074920 179.000000
209.087250 174.000000
209.611020 29.000000
210.097340 158.000000
212.104640 32.000000
214.107560 59.000000
215.074800 74.000000
215.096500 64.000000
216.070770 61.000000
216.078250 146.000000
216.089420 74.000000
217.074420 32.000000
217.088130 104.000000
218.059950 53.000000
218.098920 61.000000
219.058040 27.000000
219.097000 72.000000
219.104770 74.000000
220.063890 182.000000
220.077450 477.000000
220.089140 307.000000
221.032850 38.000000
221.081450 139.000000
221.095870 133.000000
221.984480 27.000000
222.055310 67.000000
222.073410 168.000000
222.084300 290.000000
222.728840 27.000000
223.092560 158.000000
223.102570 117.000000
224.102460 32.000000
224.120710 34.000000
227.059460 29.000000
228.081180 75.000000
229.083530 34.000000
229.110460 27.000000
230.067090 32.000000
230.089780 112.000000
231.092210 85.000000
231.098850 35.000000
232.082920 75.000000
232.099640 53.000000
233.080670 115.000000
233.095090 174.000000
234.087450 320.000000
234.098300 168.000000
235.087590 181.000000
235.101550 64.000000
235.141710 54.000000
236.074010 190.000000
236.100560 109.000000
236.116230 53.000000
236.157790 27.000000
237.098720 53.000000
237.110980 162.000000
239.113280 38.000000
241.093030 61.000000
242.066360 32.000000
244.075550 34.000000
247.072890 34.000000
247.097520 118.000000
247.104370 45.000000
249.080700 48.000000
249.118820 64.000000
250.087860 45.000000
250.102250 64.000000
251.058470 46.000000
251.119050 128.000000
260.087770 67.000000
261.090120 34.000000
261.100190 38.000000
265.147060 29.000000
266.119930 30.000000
266.134120 91.000000
275.121000 34.000000
279.116940 58.000000
279.140660 82.000000

>ms2
104.060370 6.000000
120.083950 6.000000
146.055590 9.000000
146.063930 13.000000
147.068480 6.000000
156.061780 5.000000
159.071530 6.000000
160.067720 6.000000
160.075500 18.000000
166.073820 6.000000
170.063900 6.000000
171.069410 9.000000
183.061390 17.000000
183.071550 10.000000
184.075700 23.000000
185.071410 9.000000
185.077590 17.000000
186.058210 6.000000
187.085680 19.000000
188.099260 5.000000
192.073750 7.000000
194.098010 11.000000
196.075810 23.000000
197.068310 8.000000
197.083760 15.000000
198.095310 8.000000
200.063280 11.000000
200.081280 5.000000
202.080410 10.000000
202.089130 18.000000
203.086470 13.000000
207.066220 11.000000
208.076320 10.000000
209.077650 9.000000
210.051160 5.000000
210.092270 10.000000
212.069150 6.000000
215.083950 30.000000
217.085940 7.000000
218.100300 7.000000
220.081630 7.000000
221.083470 17.000000
222.086720 13.000000
223.090330 7.000000
223.096970 21.000000
224.091570 8.000000
224.100370 25.000000
225.074480 7.000000
225.114720 7.000000
233.093750 5.000000
234.081270 11.000000
234.096800 9.000000
235.106800 14.000000
236.109480 29.000000
237.096450 15.000000
237.111600 22.000000
238.121090 36.000000
239.123090 6.000000
246.093810 9.000000
248.105770 17.000000
249.106060 14.000000
250.123920 17.000000
251.102290 10.000000
251.128750 6.000000
252.097000 10.000000
252.128460 7.000000
252.142670 28.000000
253.134700 9.000000
254.120250 16.000000
262.118560 10.000000
263.114410 6.000000
264.136410 7.000000
264.149200 7.000000
265.132480 13.000000
266.109560 6.000000
266.117550 17.000000
267.125400 7.000000
276.129790 7.000000
280.134280 6.000000
281.172330 9.000000
309.114620 12.000000
309.160130 1000.000000
309.214510 8.000000

>ms2
309.124940 12.000000
309.160400 1000.000000
309.209720 9.000000

>ms2
79.059640 33.000000
80.056290 24.000000
81.070890 50.000000
92.051960 41.000000
92.057570 25.000000
93.073830 113.000000
94.065350 90.000000
98.097730 50.000000
105.067540 51.000000
106.058400 49.000000
107.044690 25.000000
107.087690 32.000000
108.073890 42.000000
108.084090 28.000000
109.050460 69.000000
109.063670 125.000000
118.070310 29.000000
119.057940 43.000000
119.075870 37.000000
119.094560 25.000000
120.083930 37.000000
121.066390 33.000000
122.094890 63.000000
122.705510 28.000000
129.071670 25.000000
130.044450 36.000000
131.065120 24.000000
131.078640 22.000000
132.052760 33.000000
133.051860 83.000000
134.053510 28.000000
134.091920 28.000000
135.084030 42.000000
137.786940 24.000000
140.054050 24.000000
143.070080 33.000000
144.054200 22.000000
145.058410 38.000000
146.055880 170.000000
146.064730 167.000000
147.064730 250.000000
147.113190 42.000000
147.498030 25.000000
148.062480 32.000000
148.067780 95.000000
148.077770 47.000000
150.091720 84.000000
151.057010 34.000000
151.695300 22.000000
154.066420 36.000000
154.322480 25.000000
156.075150 124.000000
156.083940 76.000000
157.066860 61.000000
158.097320 22.000000
159.059020 72.000000
159.066650 142.000000
159.072650 47.000000
160.056000 50.000000
160.078170 578.000000
162.092190 61.000000
163.063950 42.000000
163.101820 45.000000
166.065960 186.000000
167.073010 26.000000
167.082230 40.000000
167.090290 58.000000
168.079480 33.000000
169.085130 26.000000
169.937300 34.000000
170.046520 70.000000
170.061040 208.000000
171.068080 84.000000
171.113340 26.000000
172.045460 28.000000
172.061780 43.000000
172.076780 256.000000
172.088200 26.000000
173.069780 30.000000
173.083830 22.000000
174.047350 51.000000
174.087450 282.000000
174.097630 47.000000
175.054570 22.000000
175.102400 33.000000
176.093570 29.000000
179.058200 53.000000
179.081620 28.000000
179.097460 36.000000
180.079100 70.000000
181.082550 58.000000
181.100050 30.000000
182.059480 28.000000
182.076250 41.000000
183.066160 514.000000
184.051560 26.000000
184.076720 1000.000000
184.128370 47.000000
185.051940 58.000000
185.067810 213.000000
185.077220 126.000000
185.086360 129.000000
186.054960 211.000000
186.081190 132.000000
186.096220 29.000000
187.035480 33.000000
187.064760 34.000000
187.076540 146.000000
187.086360 369.000000
187.096890 138.000000
188.063690 26.000000
188.088380 144.000000
190.055690 22.000000
191.066910 28.000000
193.096940 69.000000
193.106480 30.000000
194.065460 54.000000
194.100390 61.000000
195.093580 29.000000
195.107880 38.000000
195.398850 59.000000
196.076980 523.000000
196.104050 47.000000
197.074860 212.000000
197.083420 194.000000
197.092510 67.000000
198.050930 34.000000
198.061510 37.000000
198.073990 137.000000
198.095760 277.000000
198.122830 45.000000
199.056490 70.000000
199.069290 125.000000
199.089650 109.000000
199.109860 76.000000
199.134950 22.000000
199.411580 28.000000
199.914790 24.000000
200.070420 47.000000
200.080490 25.000000
200.100160 182.000000
200.610660 25.000000
202.050550 40.000000
202.069080 145.000000
202.082150 72.000000
202.093340 319.000000
204.085710 36.000000
205.098680 72.000000
206.099400 150.000000
206.113710 28.000000
207.060900 25.000000
207.077290 101.000000
207.093430 26.000000
207.124910 36.000000
208.076540 124.000000
209.047200 25.000000
209.077130 94.000000
209.086060 84.000000
210.082110 132.000000
210.094700 244.000000
210.105550 97.000000
211.036960 22.000000
211.080410 198.000000
211.107930 142.000000
212.069060 166.000000
212.096920 204.000000
212.108930 37.000000
213.071810 59.000000
213.078350 103.000000
213.109660 26.000000
214.098130 29.000000
214.107030 30.000000
214.115970 36.000000
214.126210 26.000000
215.045230 57.000000
215.082060 402.000000
215.228290 22.000000
215.941160 24.000000
216.084900 28.000000
218.089320 43.000000
218.100370 94.000000
219.090270 69.000000
219.110490 119.000000
220.073680 149.000000
220.100560 37.000000
221.067840 194.000000
221.084900 410.000000
221.124710 26.000000
222.081440 105.000000
222.093520 344.000000
223.091310 402.000000
223.102100 187.000000
224.043460 55.000000
224.080440 25.000000
224.100330 325.000000
224.117000 119.000000
224.147750 46.000000
225.067980 90.000000
225.078000 38.000000
225.106490 212.000000
225.117940 82.000000
225.473240 25.000000
226.073040 41.000000
226.093900 32.000000
226.119430 267.000000
226.188170 38.000000
227.117080 82.000000
228.085210 111.000000
228.104870 29.000000
228.117580 38.000000
228.571780 22.000000
229.108750 32.000000
230.095990 87.000000
230.105360 28.000000
233.087010 387.000000
234.070220 58.000000
234.092990 208.000000
234.111240 38.000000
234.130070 22.000000
235.080520 161.000000
235.098690 319.000000
235.112000 74.000000
236.050230 22.000000
236.100010 240.000000
236.112550 580.000000
236.138520 36.000000
237.073500 134.000000
237.090440 26.000000
237.107590 588.000000
237.123550 100.000000
238.054240 88.000000
238.086790 38.000000
238.121630 443.000000
239.087450 30.000000
239.110050 145.000000
239.130170 170.000000
240.085210 30.000000
240.094760 22.000000
240.123640 61.000000
241.985000 22.000000
242.092560 47.000000
242.130220 45.000000
243.132420 32.000000
246.066710 28.000000
246.092970 115.000000
246.131410 75.000000
247.093110 88.000000
247.104580 32.000000
247.121630 54.000000
247.934540 46.000000
248.070140 30.000000
248.084180 29.000000
248.096530 69.000000
248.110720 298.000000
248.123280 76.000000
248.325420 22.000000
248.382490 36.000000
249.106490 101.000000
249.123020 37.000000
250.092380 72.000000
250.115250 161.000000
251.093960 183.000000
251.113170 97.000000
251.129040 123.000000
251.148300 22.000000
251.160390 28.000000
252.073410 54.000000
252.092710 22.000000
252.104450 40.000000
252.132640 217.000000
252.150880 111.000000
253.064800 51.000000
253.102800 37.000000
253.111770 41.000000
253.121440 62.000000
253.138030 26.000000
254.109380 59.000000
254.120120 174.000000
254.129900 103.000000
254.145660 32.000000
255.114270 140.000000
255.122570 123.000000
256.116580 58.000000
256.137480 25.000000
257.757840 22.000000
259.098210 105.000000
260.092740 36.000000
261.110750 71.000000
261.132450 30.000000
262.075040 26.000000
262.111940 158.000000
262.128510 30.000000
263.097440 36.000000
263.117070 75.000000
263.131410 144.000000
263.157170 41.000000
263.951420 28.000000
264.075870 26.000000
264.089690 37.000000
264.122190 92.000000
264.138890 199.000000
264.153840 26.000000
265.090300 24.000000
265.102940 40.000000
265.118160 88.000000
265.129300 22.000000
265.144680 57.000000
266.043370 46.000000
266.092710 34.000000
266.116610 202.000000
266.129820 49.000000
266.147030 163.000000
267.105290 25.000000
267.123750 170.000000
267.139950 65.000000
268.126340 70.000000
268.148380 34.000000
269.426480 37.000000
270.096860 29.000000
274.108890 79.000000
274.134700 87.000000
275.109680 45.000000
275.120240 49.000000
276.112430 45.000000
277.112490 53.000000
278.140260 95.000000
279.119630 37.000000
279.149050 87.000000
279.163270 24.000000
280.132480 45.000000
280.164120 69.000000
280.176330 21.000000
281.105930 58.000000
281.133270 50.000000
281.159210 82.000000
281.170040 219.000000
282.136690 33.000000
282.160220 22.000000
282.173160 24.000000
291.145360 129.000000
291.158720 29.000000
292.114930 30.000000
292.148130 38.000000
294.293820 40.000000
308.871430 50.000000
309.123690 33.000000
309.150670 128.000000
309.161410 287.000000
309.171420 207.000000

>ms2
68.047450 56.000000
75.026910 62.000000
79.057410 52.000000
81.468140 34.000000
91.053960 46.000000
93.058930 54.000000
93.077290 66.000000
102.047460 42.000000
105.054280 66.000000
105.062470 40.000000
106.029690 38.000000
107.045500 46.000000
107.081360 40.000000
115.043800 54.000000
115.052240 199.000000
115.057500 122.000000
116.049790 50.000000
116.064540 60.000000
117.056950 52.000000
117.065820 215.000000
118.040690 50.000000
118.065410 169.000000
119.073000 62.000000
127.041690 38.000000
127.051530 36.000000
127.059660 46.000000
128.043700 50.000000
128.062680 141.000000
129.054990 86.000000
129.062520 56.000000
129.072270 133.000000
130.073930 48.000000
130.660130 40.000000
133.056790 169.000000
133.067950 50.000000
134.094700 62.000000
139.044240 42.000000
139.052150 88.000000
139.064160 34.000000
141.054400 62.000000
141.067150 153.000000
142.055160 80.000000
142.066570 365.000000
144.046040 108.000000
144.074620 54.000000
144.095550 52.000000
145.066910 50.000000
145.086410 36.000000
145.727200 42.000000
146.059220 373.000000
146.067640 98.000000
146.636460 40.000000
147.040990 40.000000
147.062710 100.000000
151.053590 341.000000
152.048690 42.000000
152.061780 163.000000
153.054900 66.000000
153.065520 36.000000
153.072450 34.000000
154.066350 851.000000
154.080670 70.000000
155.045140 42.000000
155.066350 38.000000
155.078310 343.000000
156.048900 40.000000
156.081250 255.000000
157.074370 84.000000
159.065350 229.000000
160.079280 189.000000
161.214510 40.000000
164.068020 42.000000
165.060180 90.000000
165.066590 251.000000
166.049510 70.000000
166.073000 215.000000
166.625400 52.000000
167.043110 52.000000
167.050840 56.000000
167.069870 448.000000
168.044460 64.000000
168.078870 339.000000
169.079440 211.000000
170.036010 50.000000
170.060010 161.000000
170.068770 64.000000
170.079090 36.000000
171.050480 46.000000
171.065660 281.000000
171.078490 42.000000
171.094010 40.000000
172.057940 46.000000
172.065810 211.000000
172.075590 72.000000
172.081120 34.000000
174.084750 40.000000
176.066090 78.000000
178.073320 293.000000
179.077330 159.000000
179.090320 98.000000
180.068650 36.000000
180.079410 122.000000
181.079320 197.000000
182.101380 42.000000
183.069990 249.000000
184.069600 92.000000
184.082860 118.000000
185.070820 116.000000
185.078950 127.000000
186.089070 54.000000
187.064250 72.000000
190.064580 311.000000
191.061600 44.000000
191.077100 408.000000
192.020740 40.000000
192.079150 464.000000
192.090440 56.000000
193.063060 36.000000
193.077240 133.000000
193.089420 157.000000
193.834490 46.000000
194.074650 36.000000
194.096340 261.000000
195.066740 84.000000
195.098530 108.000000
196.078310 1000.000000
196.105360 58.000000
197.079710 345.000000
197.093280 76.000000
198.064160 76.000000
198.085560 76.000000
199.063600 42.000000
199.074750 159.000000
199.086550 42.000000
202.065520 163.000000
203.069920 48.000000
204.067540 104.000000
204.082310 655.000000
205.075210 48.000000
205.087460 211.000000
205.527040 72.000000
206.084730 56.000000
206.093490 98.000000
207.065770 120.000000
207.075780 34.000000
207.102310 36.000000
208.071690 225.000000
208.088750 94.000000
209.066670 100.000000
209.084380 253.000000
209.098590 189.000000
210.113710 40.000000
210.681750 42.000000
216.078860 122.000000
216.087910 52.000000
218.112210 50.000000
219.061280 68.000000
219.087590 147.000000
220.058550 94.000000
220.071660 378.000000
220.080960 337.000000
220.107990 54.000000
220.122190 42.000000
221.062360 122.000000
221.081890 139.000000
221.095810 52.000000
221.136380 40.000000
222.072560 44.000000
222.079560 84.000000
222.096820 478.000000
222.117690 46.000000
223.064620 34.000000
223.080180 42.000000
223.095700 141.000000
223.103150 44.000000
224.084460 104.000000
224.107300 137.000000
225.070800 40.000000
225.103100 197.000000
229.056660 40.000000
230.053330 40.000000
230.099350 34.000000
233.071790 48.000000
233.082150 155.000000
233.093830 48.000000
233.107480 66.000000
234.067600 106.000000
234.085770 36.000000
234.096850 141.000000
235.059690 40.000000
235.085980 48.000000
235.098630 52.000000
235.113080 48.000000
236.072710 66.000000
236.089250 203.000000
236.106380 66.000000
237.094090 100.000000
237.110730 62.000000
238.076340 66.000000
239.125730 34.000000
241.081970 34.000000
246.082960 124.000000
246.125320 60.000000
247.111430 66.000000
248.099690 56.000000
248.130100 64.000000
250.073240 38.000000
251.119430 50.000000
252.727830 36.000000
255.100490 42.000000
256.109710 60.000000
259.085300 40.000000
260.107240 106.000000
261.106510 46.000000
264.085540 58.000000
265.070100 44.000000
265.142700 78.000000
272.097930 36.000000
309.162510 165.000000

