>compound PR98556232
>parentmass 503.11843333333337
>ionization [M+H]+
>formula C24H22O12
>rt 254.600000
>profile qtof
#smiles_iso C1=CC(=CC=C1C2=COC3=C(C2=O)C=CC(=C3)OC4C(C(C(C(O4)COC(=O)CC(=O)O)O)O)O)O
#smiles_can C1=CC(=CC=C1C2=COC3=C(C2=O)C=CC(=C3)OC4C(C(C(C(O4)COC(=O)CC(=O)O)O)O)O)O
#inchikey MTXMHWSVSZKYBT-UHFFFAOYSA-N
#pubchem_id 14500869
#mb_accession PR310869,PR310870,PR310871

>ms2
129.069290 30.000000
129.078740 24.000000
137.028380 23.000000
182.070800 30.000000
193.822650 20.000000
195.093900 17.000000
199.029100 19.000000
199.066680 30.000000
199.089600 41.000000
209.067030 18.000000
219.147020 17.000000
227.078430 17.000000
237.059340 26.000000
255.014820 17.000000
255.064940 2989.000000
256.069310 583.000000
256.098570 18.000000
257.058290 21.000000
257.067810 19.000000
282.612920 28.000000
302.164000 23.000000
361.038850 20.000000
383.114690 32.000000
501.689210 34.000000
503.083220 65.000000
503.117650 455.000000
503.135440 116.000000

>ms2
81.350950 17.000000
137.019870 48.000000
161.209790 18.000000
165.068070 17.000000
181.070880 20.000000
182.073430 41.000000
199.068880 34.000000
199.079700 80.000000
200.073560 35.000000
221.717250 27.000000
227.081530 21.000000
237.054140 17.000000
249.548930 20.000000
254.046430 24.000000
254.121120 17.000000
255.065020 4375.000000
256.068050 897.000000
257.068270 61.000000
258.074680 18.000000
260.045840 41.000000
285.139980 18.000000
320.742250 21.000000
323.129640 17.000000
325.004880 17.000000
399.112370 19.000000
406.927830 20.000000
445.061160 18.000000
459.150420 17.000000
503.080350 36.000000
503.117950 1112.000000

>ms2
109.019080 35.000000
109.030250 22.000000
127.035310 78.000000
128.039540 24.000000
129.062610 20.000000
137.016920 17.000000
137.027130 18.000000
138.024960 20.000000
145.026640 20.000000
145.048320 21.000000
157.069780 23.000000
181.069640 18.000000
188.918750 19.000000
193.067350 24.000000
199.076430 72.000000
206.133650 21.000000
213.040410 29.000000
232.976320 18.000000
237.054380 18.000000
253.082060 18.000000
254.067670 40.000000
255.031520 21.000000
255.065810 3267.000000
255.286440 17.000000
256.061430 310.000000
256.071990 370.000000
257.069150 18.000000
274.860660 21.000000
279.010530 17.000000
279.070710 41.000000
293.079800 24.000000
297.065030 18.000000
297.085910 46.000000
302.905760 18.000000
313.288510 17.000000
371.701080 18.000000
381.083250 17.000000
385.063050 23.000000
417.117680 20.000000
417.146550 48.000000
418.133580 21.000000
485.013640 20.000000
485.099430 18.000000
486.088530 18.000000
503.052190 20.000000
503.113070 1061.000000
503.130710 604.000000

