>compound PR98976947
>parentmass 147.0445
>ionization [M+H-H2O]+
>formula C9H8O3
>rt 170.700000
>profile qtof
#smiles_iso C1=CC(=CC=C1C=CC(=O)O)O
#smiles_can C1=CC(=CC=C1C=CC(=O)O)O
#inchikey NGSWKAQJJWESNS-UHFFFAOYSA-N
#pubchem_id 322
#mb_accession PR311087,PR311088

>ms2
91.050510 16.000000
91.056970 95.000000
119.046870 183.000000
119.057260 47.000000
128.940960 21.000000
129.029630 44.000000
146.828120 25.000000
147.021380 22.000000
147.041240 234.000000
147.048310 371.000000

>ms2
91.047560 17.000000
91.052980 35.000000
91.059270 36.000000
119.049480 161.000000
129.016310 26.000000
147.030470 23.000000
147.046170 322.000000

