>compound PR98471069
>parentmass 513.1867568999999
>ionization [M+H]+
>formula C26H28N2O9
>rt 223.075020
>profile qtof
#smiles_iso C=C[C@@H]1[C@H](C(=CO[C@H]1O[C@H]2[C@@H]([C@H]([C@@H]([C@H](O2)CO)O)O)O)C(=O)O)CC3=NC=CC4=C3NC5=CC=CC=C45
#smiles_can C=CC1C(C(=COC1OC2C(C(C(C(O2)CO)O)O)O)C(=O)O)CC3=NC=CC4=C3NC5=CC=CC=C45
#inchikey UZLBTLIRYSYTRG-FMKZDVGKSA-N
#pubchem_id 137832353
#mb_accession PR300178,PR300183,PR300188,PR300193,PR300198,PR300203,PR300208,PR300213,PR300218,PR300223,PR300228,PR300233

>ms2peaks
182.083590 62.000000
183.089600 26.000000
207.091290 8.000000
208.098630 7.000000
219.091520 10.000000
220.096620 7.000000
235.079680 10.000000
235.089970 19.000000
237.099210 13.000000
247.088520 28.000000
261.058350 5.000000
261.070310 6.000000
263.049010 5.000000
263.081540 231.000000
264.086400 59.000000
265.088100 7.000000
279.151120 8.000000
281.091890 36.000000
282.101100 11.000000
289.136470 8.000000
305.116330 6.000000
305.129850 12.000000
307.144530 105.000000
308.147310 19.000000
315.107940 8.000000
333.124450 125.000000
334.128050 27.000000
351.133850 194.000000
352.135560 56.000000
353.133970 6.000000
469.193660 13.000000
513.121030 14.000000
513.186770 1000.000000
513.251530 16.000000

>ms2peaks
351.137240 12.000000
513.121640 15.000000
513.188540 1000.000000
513.254640 21.000000

>ms2peaks
81.034020 6.000000
85.026120 19.000000
87.046200 6.000000
97.027480 9.000000
127.040250 10.000000
145.051030 7.000000
181.073850 5.000000
182.083300 169.000000
183.075730 7.000000
183.089580 77.000000
207.086030 8.000000
207.097520 7.000000
209.109600 7.000000
211.087130 18.000000
219.090070 25.000000
220.077530 5.000000
220.101090 20.000000
234.079790 13.000000
235.085850 48.000000
236.089970 31.000000
237.081530 7.000000
237.101940 53.000000
238.108220 31.000000
247.068700 9.000000
247.085830 121.000000
248.077040 5.000000
248.089450 7.000000
253.099200 8.000000
261.067870 29.000000
261.103270 11.000000
263.023770 5.000000
263.080600 1000.000000
263.129520 8.000000
264.083400 197.000000
265.077850 7.000000
265.089260 21.000000
277.125370 9.000000
279.138240 22.000000
279.154240 14.000000
281.086270 83.000000
281.097500 65.000000
282.086300 21.000000
282.099730 53.000000
283.107700 10.000000
287.117340 22.000000
289.098850 16.000000
289.119450 15.000000
289.138280 44.000000
290.131740 11.000000
290.140750 9.000000
297.098820 6.000000
305.126040 67.000000
305.139040 30.000000
306.134550 11.000000
307.112610 9.000000
307.143740 552.000000
308.113460 6.000000
308.143890 71.000000
308.155610 60.000000
309.146060 11.000000
315.107940 41.000000
315.118840 31.000000
316.115690 24.000000
316.125520 9.000000
333.063510 12.000000
333.121580 648.000000
334.125210 158.000000
335.118470 8.000000
335.130710 17.000000
351.092070 14.000000
351.132900 835.000000
352.101320 6.000000
352.137510 212.000000
353.135010 29.000000
469.182250 7.000000
469.211030 10.000000
513.173890 34.000000
513.191890 42.000000
513.207890 13.000000

>ms2peaks
69.034450 8.000000
73.026460 8.000000
73.031470 6.000000
81.033130 34.000000
85.028140 36.000000
97.023350 12.000000
97.029410 17.000000
105.037780 5.000000
151.027910 6.000000
151.040410 12.000000
155.069640 9.000000
168.065370 13.000000
169.073180 6.000000
181.077850 44.000000
182.083890 1000.000000
183.079650 51.000000
183.089870 239.000000
184.093050 24.000000
184.099780 11.000000
193.073880 25.000000
193.083650 10.000000
195.086590 10.000000
205.070890 12.000000
205.080860 8.000000
206.083180 125.000000
207.070270 11.000000
207.091460 508.000000
208.095520 171.000000
209.106090 79.000000
210.102130 6.000000
217.066990 14.000000
217.079380 11.000000
217.090180 6.000000
218.083330 12.000000
219.090940 207.000000
219.106800 11.000000
220.096480 63.000000
221.071010 17.000000
221.100750 14.000000
221.112690 6.000000
222.116390 6.000000
223.067900 6.000000
223.086360 13.000000
223.106480 7.000000
233.070890 12.000000
233.109530 10.000000
234.078700 45.000000
235.061280 14.000000
235.087160 695.000000
235.132680 10.000000
236.043690 6.000000
236.077910 43.000000
236.090070 172.000000
236.107100 13.000000
237.081710 6.000000
237.100680 77.000000
238.092620 7.000000
238.106740 12.000000
243.086260 6.000000
243.099620 9.000000
245.098330 9.000000
245.107540 16.000000
247.085650 156.000000
248.086330 24.000000
248.104630 6.000000
249.068440 10.000000
253.096010 9.000000
256.100890 9.000000
257.109860 15.000000
257.124150 8.000000
259.121520 69.000000
260.123200 15.000000
261.023560 7.000000
261.064610 329.000000
261.096220 16.000000
261.139430 7.000000
262.067500 45.000000
262.076810 25.000000
263.033080 9.000000
263.081790 723.000000
264.070310 22.000000
264.088290 155.000000
265.080170 11.000000
265.096800 23.000000
266.100980 8.000000
269.110960 9.000000
270.113280 9.000000
271.117490 9.000000
271.127990 11.000000
272.122190 5.000000
277.129300 10.000000
277.136780 24.000000
279.129030 6.000000
285.112030 17.000000
286.112550 5.000000
287.095030 5.000000
287.114690 42.000000
287.134160 10.000000
289.126590 13.000000
305.128080 20.000000
307.146820 14.000000
313.098450 7.000000
315.113800 17.000000
333.121310 8.000000

>ms2peaks
182.083100 64.000000
183.088130 22.000000
207.092710 12.000000
208.100860 7.000000
219.092830 14.000000
235.086980 37.000000
236.092640 11.000000
237.104350 11.000000
238.103700 6.000000
247.088170 29.000000
261.069370 18.000000
263.081910 234.000000
264.085600 63.000000
265.089480 7.000000
277.138030 5.000000
281.089970 43.000000
282.096560 18.000000
287.113040 7.000000
289.100160 5.000000
289.136510 9.000000
305.128720 20.000000
307.144710 115.000000
308.149720 22.000000
315.111050 13.000000
333.124110 139.000000
334.127780 31.000000
351.093540 5.000000
351.133510 220.000000
352.138370 55.000000
353.140230 7.000000
469.202910 14.000000
513.088070 6.000000
513.118840 8.000000
513.186950 1000.000000
513.254030 22.000000

>ms2peaks
351.134610 9.000000
513.115600 15.000000
513.185060 1000.000000
513.252930 23.000000

>ms2peaks
81.033860 9.000000
85.027760 20.000000
97.028380 6.000000
127.039410 9.000000
145.047520 6.000000
151.040370 6.000000
182.082930 128.000000
183.073550 7.000000
183.090000 68.000000
207.088700 6.000000
207.097180 8.000000
208.096730 10.000000
209.096710 6.000000
211.085070 13.000000
219.091920 33.000000
220.102140 10.000000
234.080020 10.000000
235.085770 51.000000
236.090590 25.000000
237.092640 12.000000
237.103780 37.000000
237.113300 8.000000
238.080430 5.000000
238.097410 7.000000
238.111400 45.000000
247.085340 84.000000
248.089630 11.000000
253.099320 12.000000
261.063660 16.000000
261.110140 8.000000
262.061950 7.000000
263.044590 15.000000
263.081240 1000.000000
264.059390 9.000000
264.086240 219.000000
265.089420 33.000000
271.123470 6.000000
277.129490 6.000000
279.135620 6.000000
279.151090 23.000000
281.092500 163.000000
282.089660 32.000000
282.099880 66.000000
283.102970 13.000000
287.118190 17.000000
289.092740 12.000000
289.136350 36.000000
290.131930 10.000000
305.106480 9.000000
305.129820 75.000000
306.102870 6.000000
306.115510 6.000000
306.130980 12.000000
306.144990 9.000000
307.114230 8.000000
307.143340 541.000000
308.149050 140.000000
309.140140 7.000000
309.155400 13.000000
315.114320 70.000000
316.108760 7.000000
316.120670 10.000000
323.134030 11.000000
333.122680 625.000000
334.126460 161.000000
335.123960 6.000000
335.136140 9.000000
351.082310 10.000000
351.133480 799.000000
352.107090 6.000000
352.135590 220.000000
353.141540 36.000000
469.194340 6.000000
469.212710 8.000000
513.185240 77.000000

>ms2peaks
69.031990 8.000000
81.027410 7.000000
81.035140 20.000000
85.031580 10.000000
97.029250 16.000000
105.035490 9.000000
151.041930 7.000000
154.061370 9.000000
155.067860 6.000000
167.063200 5.000000
181.068920 22.000000
181.077800 54.000000
182.063350 6.000000
182.084060 1000.000000
183.067490 7.000000
183.089830 234.000000
184.095440 20.000000
193.078370 36.000000
194.086520 6.000000
195.091140 15.000000
196.091430 5.000000
196.102570 6.000000
197.072830 6.000000
205.076640 18.000000
206.084340 106.000000
207.091960 422.000000
208.098040 173.000000
209.106460 111.000000
210.113970 12.000000
211.084760 11.000000
217.078990 14.000000
218.083850 6.000000
219.072880 11.000000
219.092540 222.000000
220.087200 12.000000
220.097960 51.000000
221.064620 9.000000
221.082290 9.000000
221.097020 9.000000
221.111920 17.000000
222.074830 6.000000
223.087140 7.000000
232.091800 7.000000
232.110260 7.000000
233.107130 17.000000
234.080810 25.000000
234.115400 8.000000
235.086720 735.000000
235.124330 17.000000
235.136170 7.000000
236.090640 175.000000
237.100010 64.000000
237.115280 7.000000
238.106900 20.000000
243.091340 21.000000
244.098080 5.000000
245.094740 5.000000
245.111540 14.000000
246.118520 7.000000
247.069810 23.000000
247.088550 180.000000
248.088440 35.000000
249.068100 14.000000
257.109100 22.000000
258.109070 6.000000
259.086790 5.000000
259.109950 8.000000
259.123810 29.000000
260.128780 15.000000
261.033390 5.000000
261.046200 12.000000
261.067350 288.000000
261.101320 25.000000
261.115020 7.000000
261.143800 7.000000
262.058750 20.000000
262.072810 56.000000
263.047180 6.000000
263.081600 619.000000
263.126680 6.000000
264.055760 7.000000
264.085080 146.000000
265.081270 15.000000
265.097870 7.000000
269.109650 16.000000
271.086400 10.000000
271.116970 6.000000
271.129430 5.000000
273.105680 7.000000
277.128170 14.000000
277.143620 7.000000
279.152040 23.000000
279.160370 8.000000
280.156220 6.000000
285.086430 5.000000
285.109920 12.000000
287.093870 10.000000
287.113190 15.000000
287.125180 12.000000
288.114470 7.000000
289.101530 10.000000
289.135860 15.000000
305.126800 25.000000
307.145110 10.000000
315.105100 13.000000
316.117340 6.000000
334.129790 9.000000

>ms2peaks
182.082530 79.000000
183.089110 26.000000
207.090420 14.000000
208.095440 9.000000
209.103650 6.000000
219.085170 6.000000
219.096240 7.000000
220.095340 5.000000
234.079300 6.000000
235.087540 30.000000
236.090270 9.000000
237.101870 13.000000
238.110840 6.000000
247.083390 29.000000
261.063080 13.000000
263.080020 257.000000
264.084870 59.000000
265.082060 5.000000
279.149660 9.000000
281.093020 51.000000
282.090580 10.000000
282.101010 8.000000
287.115360 8.000000
305.124420 18.000000
306.124240 5.000000
307.143160 114.000000
308.143950 23.000000
315.100770 7.000000
315.113830 12.000000
333.121890 120.000000
334.124110 34.000000
351.133700 238.000000
352.137540 63.000000
353.147740 7.000000
469.195830 19.000000
513.128910 8.000000
513.187190 1000.000000
513.254820 22.000000

>ms2peaks
351.135130 7.000000
513.117980 12.000000
513.189390 1000.000000
513.256900 22.000000

>ms2peaks
81.032010 12.000000
85.028030 19.000000
97.029510 7.000000
127.033960 11.000000
127.043030 10.000000
151.042540 5.000000
181.076130 5.000000
182.083130 111.000000
183.089050 69.000000
184.084990 7.000000
184.096270 6.000000
207.088420 7.000000
208.096600 16.000000
211.086640 15.000000
219.086170 10.000000
219.095720 13.000000
220.098020 22.000000
223.090450 5.000000
234.074460 9.000000
234.084500 6.000000
235.081190 24.000000
235.089860 27.000000
236.086440 6.000000
236.093630 17.000000
237.102460 43.000000
238.109660 30.000000
247.086790 107.000000
248.089830 17.000000
253.097210 12.000000
261.063870 22.000000
261.099880 6.000000
261.137700 10.000000
263.046720 10.000000
263.080720 1000.000000
263.127410 9.000000
264.084720 259.000000
265.086610 24.000000
271.122590 7.000000
279.146180 30.000000
279.161620 5.000000
281.093020 143.000000
282.100100 62.000000
283.107670 15.000000
287.115510 25.000000
289.094330 7.000000
289.107090 10.000000
289.132540 46.000000
290.085020 5.000000
290.117310 7.000000
290.135650 5.000000
305.126400 102.000000
306.137150 17.000000
307.109990 9.000000
307.143830 541.000000
308.146850 135.000000
309.153690 14.000000
315.111390 75.000000
316.115910 20.000000
323.142240 13.000000
333.066380 8.000000
333.122990 612.000000
334.127620 198.000000
335.129090 24.000000
351.086030 7.000000
351.103090 6.000000
351.133670 783.000000
352.136410 229.000000
353.134160 23.000000
469.190550 21.000000
513.187500 75.000000

>ms2peaks
69.033330 13.000000
81.031520 14.000000
85.027200 20.000000
85.032860 5.000000
95.046320 6.000000
97.028220 8.000000
107.050090 20.000000
127.038840 7.000000
151.040240 16.000000
154.066220 7.000000
155.067900 6.000000
167.062520 6.000000
168.069810 7.000000
181.075940 52.000000
182.083800 1000.000000
183.070850 8.000000
183.089510 306.000000
184.093690 27.000000
184.103150 6.000000
193.073590 14.000000
193.081150 7.000000
195.085650 8.000000
195.093890 9.000000
205.078860 27.000000
206.086010 115.000000
207.057600 5.000000
207.092300 515.000000
208.098620 181.000000
209.104720 82.000000
210.097060 7.000000
210.106250 6.000000
210.115430 7.000000
211.091610 7.000000
217.064500 7.000000
217.079280 9.000000
217.092390 7.000000
219.092390 214.000000
220.097170 47.000000
221.072690 7.000000
221.096360 11.000000
221.107800 24.000000
222.115220 6.000000
223.088410 7.000000
232.099040 8.000000
233.110240 22.000000
234.078480 28.000000
235.059220 13.000000
235.087130 664.000000
235.128080 12.000000
236.081670 28.000000
236.094240 124.000000
237.102750 73.000000
238.105710 18.000000
243.097750 9.000000
244.098540 19.000000
245.106480 10.000000
246.103360 5.000000
247.089860 152.000000
248.082240 10.000000
248.091250 35.000000
249.069090 6.000000
249.094940 8.000000
253.090910 10.000000
257.109590 7.000000
259.125760 49.000000
261.066010 338.000000
261.104520 17.000000
261.119510 9.000000
262.060060 31.000000
262.070710 50.000000
263.057710 10.000000
263.082890 723.000000
264.076840 37.000000
264.086940 124.000000
265.088200 32.000000
269.108920 7.000000
271.121980 10.000000
272.099700 5.000000
277.125090 21.000000
277.139470 19.000000
279.142820 19.000000
281.093810 5.000000
282.102570 5.000000
285.099880 18.000000
287.119050 37.000000
287.130100 15.000000
289.104280 6.000000
297.111360 7.000000
305.124790 21.000000
306.131810 6.000000
307.139400 11.000000
307.150670 5.000000
315.114410 17.000000
333.124760 11.000000
513.184390 18.000000

