>compound PR98654403
>parentmass 478.2945
>ionization [M+H]+
>formula C23H44NO7P
>rt 554.400000
>profile qtof
#smiles_iso CCCCCC=CCC=CCCCCCCCC(=O)OCC(COP(=O)(O)OCCN)O
#smiles_can CCCCCC=CCC=CCCCCCCCC(=O)OCC(COP(=O)(O)OCCN)O
#inchikey DBHKHNGBVGWQJE-UHFFFAOYSA-N
#pubchem_id 75958059
#mb_accession PR310835

>ms2
69.044630 20.000000
95.084250 46.000000
109.099560 25.000000
337.223880 17.000000
337.249300 18.000000
337.272980 319.000000
338.283840 58.000000
338.317200 21.000000
339.277560 20.000000
340.280520 24.000000
349.973510 18.000000
460.268190 24.000000
478.251310 20.000000
478.288120 125.000000
478.313840 40.000000

