>compound PR99150444
>parentmass 369.1808836999999
>ionization [M+H]+
>formula C21H24N2O4
>rt 265.440000
>profile qtof
#smiles_iso C[C@@H]1[C@H]2CN3CC[C@@]4([C@@H]3C[C@@H]2C(=CO1)C(=O)OC)C5=CC=CC=C5NC4=O
#smiles_can CC1C2CN3CCC4(C3CC2C(=CO1)C(=O)OC)C5=CC=CC=C5NC4=O
#inchikey JMIAZDVHNCCPDM-DQDWJNSRSA-N
#pubchem_id 188999
#mb_accession PR300002,PR300007,PR300012,PR300017,PR300022,PR300027,PR300032,PR300037,PR300042,PR300046,PR300051,PR300056

>ms2
118.063090 8.000000
124.039440 12.000000
132.045780 14.000000
132.079330 28.000000
142.064500 25.000000
150.092220 5.000000
158.059560 14.000000
158.065400 5.000000
160.075590 174.000000
161.078230 24.000000
178.086350 22.000000
187.085750 53.000000
201.101850 27.000000
210.112150 6.000000
241.132950 12.000000
265.098270 6.000000
281.090520 15.000000
282.096560 6.000000
283.108490 9.000000
309.159730 17.000000
337.154820 42.000000
338.160610 14.000000
369.119290 6.000000
369.182430 1000.000000
369.238430 30.000000

>ms2
369.123050 6.000000
369.182560 1000.000000
369.237920 33.000000
369.288510 5.000000

>ms2
108.080140 15.000000
115.051370 7.000000
117.056720 5.000000
118.065670 25.000000
124.038340 98.000000
125.043370 8.000000
130.065750 11.000000
132.043840 48.000000
132.080060 118.000000
133.084140 11.000000
137.047490 8.000000
138.054380 9.000000
139.036730 14.000000
139.042270 10.000000
142.064620 104.000000
143.067050 13.000000
150.092450 11.000000
158.059920 64.000000
159.066500 30.000000
160.041000 6.000000
160.075060 1000.000000
160.111160 22.000000
161.078030 120.000000
162.082600 8.000000
178.085300 112.000000
179.088610 15.000000
185.071530 9.000000
187.085820 275.000000
188.088700 30.000000
199.087940 8.000000
201.100940 121.000000
202.104190 21.000000
210.112380 26.000000
213.097790 7.000000
237.102830 7.000000
241.132830 58.000000
242.137470 9.000000
265.095550 45.000000
265.136930 7.000000
266.088230 5.000000
267.137540 7.000000
267.149110 21.000000
268.148470 6.000000
279.075260 9.000000
281.079380 14.000000
281.092590 67.000000
281.159940 9.000000
282.096190 19.000000
282.107670 6.000000
283.106630 34.000000
283.119200 7.000000
284.114810 5.000000
291.151580 6.000000
295.098050 8.000000
295.113560 9.000000
297.119840 11.000000
309.147060 8.000000
309.164060 31.000000
310.159240 9.000000
337.154110 80.000000
338.156340 18.000000
367.163940 7.000000
369.131710 6.000000
369.179080 300.000000

>ms2
55.052020 7.000000
55.056440 5.000000
77.035210 21.000000
77.041890 11.000000
78.032460 9.000000
78.039250 6.000000
79.009780 6.000000
79.056610 12.000000
80.049390 20.000000
80.057950 6.000000
81.032300 6.000000
81.060240 8.000000
81.070270 25.000000
82.031260 7.000000
82.058870 8.000000
82.068930 9.000000
83.010150 16.000000
83.015170 24.000000
91.052930 20.000000
91.058000 21.000000
92.048050 12.000000
96.042420 6.000000
96.047130 10.000000
103.049610 15.000000
103.055510 25.000000
104.047760 39.000000
104.053990 18.000000
105.051460 6.000000
105.070140 35.000000
106.060460 12.000000
106.070900 10.000000
108.043990 28.000000
108.079640 53.000000
109.044140 11.000000
109.054290 72.000000
109.087040 14.000000
111.044600 14.000000
115.040210 16.000000
115.053600 593.000000
116.050770 97.000000
116.059590 61.000000
117.026870 7.000000
117.057150 530.000000
117.099440 9.000000
118.058070 105.000000
118.065310 215.000000
118.078540 6.000000
119.066120 31.000000
120.044820 16.000000
122.023510 83.000000
123.027340 16.000000
124.038840 169.000000
124.074170 7.000000
127.051020 7.000000
127.056560 8.000000
128.049390 80.000000
129.071290 7.000000
130.049550 15.000000
130.064910 462.000000
130.454180 5.000000
130.715680 5.000000
131.069810 93.000000
131.322390 6.000000
132.021390 16.000000
132.043910 779.000000
132.061370 13.000000
132.080310 1000.000000
132.099780 6.000000
133.032470 8.000000
133.042300 41.000000
133.051440 62.000000
133.067340 18.000000
133.083040 151.000000
134.063510 5.000000
134.092440 5.000000
139.039890 33.000000
140.023360 6.000000
140.047070 145.000000
141.050920 14.000000
141.060090 20.000000
142.033940 7.000000
142.063890 922.000000
143.068130 63.000000
144.030230 6.000000
144.043910 61.000000
144.064210 9.000000
144.078370 22.000000
144.088580 9.000000
145.025010 6.000000
145.049510 7.000000
145.056110 12.000000
145.072010 8.000000
145.078120 12.000000
146.053510 19.000000
146.062580 8.000000
147.058500 7.000000
151.060960 7.000000
151.087170 8.000000
158.049440 17.000000
158.059430 92.000000
159.066350 39.000000
159.075200 28.000000
159.086260 30.000000
159.092940 21.000000
159.098660 8.000000
160.041630 9.000000
160.075440 741.000000
161.061280 8.000000
161.077070 93.000000
162.090150 13.000000
166.066100 11.000000
167.057160 15.000000
167.071500 16.000000
168.064040 7.000000
168.080640 11.000000
169.058620 9.000000
169.078720 55.000000
170.065780 16.000000
172.065020 7.000000
172.081250 10.000000
173.073390 17.000000
173.106510 28.000000
178.083920 7.000000
180.074570 11.000000
180.089900 9.000000
181.068800 6.000000
182.062040 6.000000
182.080150 6.000000
183.095790 7.000000
185.047040 5.000000
185.053710 5.000000
185.074430 23.000000
185.083180 8.000000
186.081560 14.000000
187.056440 5.000000
187.066710 7.000000
187.087490 92.000000
188.091670 25.000000
190.062670 6.000000
190.074940 15.000000
192.063870 5.000000
194.064290 6.000000
194.094670 12.000000
196.072630 8.000000
197.072600 28.000000
199.086200 13.000000
201.089970 11.000000
201.104800 30.000000
202.113980 10.000000
205.071660 8.000000
205.082840 6.000000
206.098280 15.000000
207.079910 5.000000
207.096360 6.000000
208.087910 5.000000
210.080200 5.000000
210.095140 6.000000
211.087220 12.000000
213.099240 8.000000
216.073810 10.000000
217.082520 8.000000
218.063220 8.000000
218.425540 5.000000
219.089580 16.000000
221.069610 5.000000
223.088030 12.000000
224.060810 7.000000
224.079240 7.000000
225.060580 7.000000
234.078410 7.000000
235.091370 13.000000
251.075670 14.000000
265.088590 6.000000
265.098480 9.000000
279.076320 10.000000
281.099610 6.000000
357.501860 6.000000

>ms2
115.056500 6.000000
118.065030 7.000000
124.038340 20.000000
132.044430 16.000000
132.080350 31.000000
142.064830 32.000000
158.061650 16.000000
159.069610 7.000000
160.075210 198.000000
161.078450 24.000000
178.086360 24.000000
187.086110 48.000000
188.089140 10.000000
201.101490 27.000000
210.110290 7.000000
241.133210 12.000000
265.099030 6.000000
267.151670 6.000000
281.094480 14.000000
283.101440 7.000000
309.150210 8.000000
309.162570 26.000000
310.168330 6.000000
337.156650 43.000000
338.160310 8.000000
369.123140 6.000000
369.180910 1000.000000
369.236600 30.000000
369.288360 5.000000

>ms2
369.121430 6.000000
369.182130 1000.000000
369.237700 33.000000
369.288480 6.000000

>ms2
108.079610 10.000000
108.085070 6.000000
109.055680 6.000000
115.054210 9.000000
117.056090 6.000000
118.064600 28.000000
124.039530 100.000000
130.065460 18.000000
132.044690 42.000000
132.081210 114.000000
133.045070 6.000000
133.084490 14.000000
137.046220 10.000000
138.055500 12.000000
139.038730 30.000000
140.041030 6.000000
142.065770 98.000000
143.068980 12.000000
150.091890 17.000000
158.060210 62.000000
159.059430 7.000000
159.067720 27.000000
160.075670 1000.000000
160.112210 23.000000
161.079180 109.000000
162.081730 11.000000
172.078920 8.000000
173.073380 7.000000
178.086060 130.000000
179.087140 12.000000
179.094620 8.000000
185.070390 11.000000
187.087140 271.000000
188.089000 36.000000
199.086490 8.000000
201.102390 118.000000
202.106490 20.000000
210.112580 24.000000
213.105510 11.000000
214.125670 5.000000
241.134230 45.000000
265.100070 41.000000
266.103970 6.000000
267.150600 31.000000
268.152010 5.000000
279.076450 8.000000
281.093540 71.000000
281.168030 5.000000
282.096500 20.000000
283.108490 36.000000
284.113740 7.000000
295.109340 12.000000
297.114870 6.000000
309.161870 53.000000
310.167180 12.000000
337.157010 58.000000
338.157010 19.000000
369.144780 7.000000
369.182310 295.000000

>ms2
55.054490 14.000000
70.026500 7.000000
77.041150 11.000000
78.030970 19.000000
79.054700 10.000000
79.059790 20.000000
80.050860 7.000000
81.071830 13.000000
82.055400 6.000000
82.065180 7.000000
83.009780 7.000000
83.015910 10.000000
83.050660 6.000000
90.042330 6.000000
91.055010 38.000000
93.059520 6.000000
95.048920 8.000000
103.050580 30.000000
103.057160 14.000000
104.049620 73.000000
105.068830 42.000000
106.066670 20.000000
108.044200 31.000000
108.079690 36.000000
109.052020 64.000000
111.045720 11.000000
115.054310 646.000000
116.054120 129.000000
117.044850 22.000000
117.056460 472.000000
117.072230 6.000000
118.050640 14.000000
118.064600 302.000000
119.060740 18.000000
119.069250 12.000000
120.045070 11.000000
122.016230 18.000000
122.022300 62.000000
124.039020 127.000000
124.049390 7.000000
125.041120 11.000000
127.053760 6.000000
128.049620 69.000000
129.072040 6.000000
130.064770 419.000000
131.053450 6.000000
131.068730 99.000000
132.043440 736.000000
132.080260 1000.000000
133.047880 96.000000
133.063370 6.000000
133.079850 57.000000
133.087460 48.000000
134.046890 6.000000
134.097900 8.000000
137.047380 8.000000
139.031630 12.000000
139.039930 24.000000
139.052260 8.000000
140.046020 83.000000
140.053040 55.000000
141.058900 27.000000
142.065120 891.000000
142.135650 5.000000
143.051350 12.000000
143.070210 143.000000
144.028210 9.000000
144.043750 77.000000
144.078190 57.000000
144.084300 19.000000
145.033840 6.000000
145.051640 33.000000
145.076550 6.000000
146.050670 7.000000
152.048570 6.000000
153.071900 5.000000
154.063980 24.000000
156.050340 8.000000
157.076320 8.000000
158.044130 9.000000
158.060560 112.000000
158.097580 6.000000
159.051570 16.000000
159.060970 23.000000
159.068050 23.000000
159.074130 14.000000
159.089750 31.000000
159.096040 26.000000
160.051610 6.000000
160.075010 720.000000
161.078630 120.000000
162.075470 11.000000
162.093640 6.000000
166.061900 32.000000
167.042450 8.000000
167.054030 6.000000
167.062260 29.000000
168.064290 10.000000
168.078570 7.000000
169.075420 38.000000
169.084520 11.000000
170.060820 18.000000
172.072860 10.000000
172.088780 10.000000
173.067990 10.000000
173.102860 13.000000
173.114850 12.000000
178.061100 8.000000
178.084560 14.000000
178.095280 7.000000
180.061100 8.000000
180.068220 7.000000
181.080120 13.000000
182.059400 13.000000
183.068880 10.000000
184.065800 7.000000
184.074950 18.000000
185.070880 36.000000
186.078950 30.000000
187.086230 150.000000
188.038730 7.000000
188.079540 6.000000
188.092320 9.000000
191.069060 10.000000
192.060030 6.000000
192.080490 5.000000
193.077180 7.000000
195.084440 12.000000
195.100300 7.000000
197.071820 15.000000
199.088620 31.000000
201.096050 20.000000
201.107540 19.000000
202.101700 15.000000
204.078810 7.000000
205.068250 7.000000
205.077030 5.000000
206.090970 10.000000
207.080720 8.000000
208.065490 7.000000
208.076170 14.000000
209.069140 9.000000
209.085980 6.000000
210.075590 12.000000
210.095340 5.000000
219.087780 12.000000
223.094570 9.000000
237.098910 15.000000
252.089870 7.000000
279.075530 19.000000
280.068210 6.000000
280.080990 7.000000
281.090360 10.000000
282.095980 5.000000

>ms2
115.052360 5.000000
118.063310 7.000000
124.033670 6.000000
124.039030 13.000000
132.043810 14.000000
132.080630 33.000000
139.039200 5.000000
142.065080 31.000000
158.058930 13.000000
159.067310 5.000000
160.075780 191.000000
161.070820 6.000000
161.080110 14.000000
178.078570 7.000000
178.087050 24.000000
187.085860 58.000000
188.091900 10.000000
201.102600 35.000000
202.108600 5.000000
210.112870 9.000000
241.133710 12.000000
265.099400 10.000000
281.085270 8.000000
281.099400 8.000000
283.108860 10.000000
309.158780 23.000000
337.155730 46.000000
338.165130 8.000000
369.124080 7.000000
369.181880 1000.000000
369.237370 32.000000
369.289000 6.000000

>ms2
337.155150 6.000000
369.119510 9.000000
369.181880 1000.000000
369.237120 33.000000
369.287840 6.000000

>ms2
108.081990 16.000000
109.057240 6.000000
115.051490 7.000000
118.065910 21.000000
124.039760 95.000000
125.044230 7.000000
130.063480 9.000000
132.044170 47.000000
132.081450 111.000000
133.085160 12.000000
138.053120 7.000000
139.039410 27.000000
142.064790 101.000000
143.068240 11.000000
150.090150 19.000000
158.060180 78.000000
159.066360 35.000000
160.075700 1000.000000
160.111830 26.000000
161.079590 111.000000
162.082240 8.000000
173.071930 6.000000
178.087310 127.000000
179.092800 16.000000
185.073810 13.000000
187.087010 271.000000
188.088240 33.000000
201.102570 131.000000
202.103710 16.000000
202.113220 9.000000
210.114580 29.000000
213.102050 13.000000
237.103840 5.000000
241.132680 57.000000
242.137830 6.000000
265.097560 31.000000
265.114590 7.000000
267.151120 33.000000
279.082820 8.000000
281.091890 76.000000
281.167420 8.000000
282.098600 24.000000
283.108800 43.000000
284.113280 5.000000
291.148470 7.000000
295.106810 18.000000
297.125240 13.000000
309.160160 56.000000
310.167050 13.000000
337.154910 87.000000
338.159390 19.000000
367.161900 7.000000
369.138980 7.000000
369.182460 322.000000

>ms2
55.054630 18.000000
77.037130 30.000000
78.030850 13.000000
78.036500 15.000000
79.051000 7.000000
79.057460 5.000000
80.045180 7.000000
80.050540 12.000000
81.055200 6.000000
81.067310 15.000000
81.074800 6.000000
82.066380 24.000000
83.011150 17.000000
91.054080 27.000000
93.054240 12.000000
94.028450 8.000000
94.068870 6.000000
95.053470 15.000000
95.080720 5.000000
96.080170 16.000000
101.036900 5.000000
103.054690 12.000000
104.049240 68.000000
105.052080 5.000000
105.066300 58.000000
106.063500 15.000000
108.034930 7.000000
108.045910 36.000000
108.053840 5.000000
108.080120 45.000000
109.027760 10.000000
109.050090 30.000000
109.061950 10.000000
110.030090 6.000000
111.040750 7.000000
115.032750 5.000000
115.054290 577.000000
116.047930 52.000000
116.057470 57.000000
117.046960 54.000000
117.057430 484.000000
118.051510 12.000000
118.064680 332.000000
119.047420 7.000000
119.066150 12.000000
120.043340 8.000000
121.061000 9.000000
122.022370 65.000000
122.064740 9.000000
122.100980 6.000000
124.039440 173.000000
125.039890 16.000000
127.052470 8.000000
128.044850 17.000000
128.051390 53.000000
129.052220 17.000000
130.064820 385.000000
131.062440 27.000000
131.070020 66.000000
132.002790 6.000000
132.044370 740.000000
132.080510 1000.000000
132.194290 6.000000
133.020720 9.000000
133.041610 17.000000
133.051060 39.000000
133.063400 7.000000
133.083160 105.000000
134.061080 10.000000
134.091520 8.000000
135.064710 7.000000
137.116360 5.000000
138.053090 5.000000
139.025150 5.000000
139.039810 22.000000
140.033020 5.000000
140.049550 114.000000
141.055330 14.000000
142.047910 11.000000
142.064610 847.000000
142.376980 5.000000
143.050750 7.000000
143.068280 132.000000
144.031940 13.000000
144.043930 43.000000
144.052000 14.000000
144.073090 18.000000
144.081680 28.000000
144.095720 10.000000
145.030750 7.000000
145.051960 38.000000
145.060840 11.000000
145.087980 9.000000
146.048710 5.000000
146.055130 21.000000
150.087110 8.000000
154.062290 24.000000
154.072170 10.000000
155.074740 7.000000
156.047500 9.000000
158.044340 5.000000
158.059250 75.000000
158.069960 17.000000
158.084240 7.000000
159.066510 65.000000
159.090360 18.000000
160.050990 7.000000
160.074780 631.000000
160.096600 5.000000
161.062420 8.000000
161.077360 73.000000
161.087070 9.000000
163.067140 7.000000
166.062090 18.000000
167.056340 15.000000
167.067870 32.000000
167.076690 16.000000
167.975880 5.000000
168.079030 24.000000
169.068080 10.000000
170.057360 9.000000
170.069310 8.000000
172.065830 8.000000
172.078060 7.000000
173.071110 11.000000
173.104570 8.000000
178.086210 8.000000
180.068600 6.000000
180.081620 7.000000
181.070140 6.000000
182.086990 9.000000
183.067980 5.000000
184.067140 11.000000
185.075420 33.000000
186.081710 27.000000
186.096450 5.000000
187.072220 10.000000
187.086060 125.000000
188.088380 24.000000
190.069320 5.000000
192.073520 8.000000
192.086230 15.000000
193.080140 11.000000
194.083370 6.000000
196.079220 14.000000
197.073010 11.000000
198.066360 6.000000
199.077130 7.000000
199.090180 15.000000
200.086200 6.000000
201.101900 48.000000
204.078640 7.000000
205.081180 11.000000
206.063630 5.000000
207.094350 13.000000
208.078700 7.000000
208.097440 9.000000
209.083500 7.000000
209.101790 5.000000
214.099080 5.000000
219.095000 5.000000
220.077470 7.000000
221.077670 5.000000
223.081940 5.000000
223.093990 9.000000
224.049800 7.000000
225.055280 6.000000
225.067060 7.000000
226.074140 6.000000
233.074300 9.000000
234.077870 6.000000
235.095000 6.000000
238.073580 6.000000
238.097230 6.000000
239.116210 8.000000
250.090060 8.000000
251.081280 15.000000
265.103270 9.000000
279.074680 6.000000
281.082240 6.000000
281.097900 6.000000
369.177000 15.000000
369.189390 7.000000

