>compound PR99581441
>parentmass 389.215
>ionization [M+H]+
>formula C19H32O8
>rt 228.600000
>profile qtof
#smiles_iso CC(CCC1C(=CC(=O)CC1(C)C)CO)OC2C(C(C(C(O2)CO)O)O)O
#smiles_can CC(CCC1C(=CC(=O)CC1(C)C)CO)OC2C(C(C(C(O2)CO)O)O)O
#inchikey ZZFQYZCZBBRLTI-UHFFFAOYSA-N
#pubchem_id 72791584
#mb_accession PR311032

>ms2
93.072660 20.000000
129.096850 25.000000
149.098390 65.000000
149.104840 16.000000
149.134960 16.000000
150.137540 22.000000
163.151280 39.000000
173.135480 66.000000
177.098420 29.000000
191.134380 21.000000
191.143040 16.000000
192.142940 19.000000
209.145680 18.000000
209.159380 43.000000
210.164840 17.000000
215.121280 38.000000
227.165860 45.000000
228.165570 20.000000
389.136200 16.000000

