>compound PR99539212
>parentmass 189.1232
>ionization [M+H]+
>formula C8H16N2O3
>rt 150.000000
>profile qtof
#smiles_iso CC(C)CC(C(=O)O)NC(=O)CN
#smiles_can CC(C)CC(C(=O)O)NC(=O)CN
#inchikey DKEXFJVMVGETOO-UHFFFAOYSA-N
#pubchem_id 102468
#mb_accession PR311065

>ms2peaks
86.096350 30.000000
86.106320 17.000000
129.022050 20.000000
132.094670 16.000000
132.103390 134.000000
143.094990 17.000000
143.108220 29.000000
143.116070 38.000000
143.122620 96.000000
171.123290 20.000000
189.104370 21.000000

