>compound PR99851670
>parentmass 333.1239
>ionization [M+H]+
>formula C20H16N2O3
>rt 346.200000
>profile qtof
#smiles_iso CCC1C2=C(COC1=O)C(=O)N3CC4=CC5=CC=CC=C5N=C4C3=C2
#smiles_can CCC1C2=C(COC1=O)C(=O)N3CC4=CC5=CC=CC=C5N=C4C3=C2
#inchikey PEZXVOHRDBYBFR-UHFFFAOYSA-N
#pubchem_id 266552
#mb_accession PR311098

>ms2peaks
144.078960 18.000000
244.106480 17.000000
262.112760 20.000000
271.074220 22.000000
276.134700 20.000000
277.242770 17.000000
287.120540 31.000000
332.246830 16.000000
333.109950 18.000000

