>compound PR99972826
>parentmass 189.1131
>ionization [M+H]+
>formula C9H16O4
>rt 286.800000
>profile qtof
#smiles_iso C(CCCC(=O)O)CCCC(=O)O
#smiles_can C(CCCC(=O)O)CCCC(=O)O
#inchikey BDJRBEYXGGNYIS-UHFFFAOYSA-N
#pubchem_id 2266
#mb_accession PR311034

>ms2
55.020860 25.000000
55.055360 95.000000
67.053580 21.000000
67.058660 25.000000
69.069110 20.000000
79.050330 16.000000
79.055870 51.000000
81.069980 23.000000
83.051480 24.000000
83.081790 61.000000
83.088970 157.000000
83.096270 18.000000
84.088870 20.000000
85.066460 38.000000
93.064190 38.000000
93.072170 55.000000
93.280760 16.000000
97.091450 18.000000
97.103390 603.000000
97.788940 21.000000
98.104520 70.000000
103.052560 22.000000
105.064800 17.000000
107.077420 16.000000
107.085970 155.000000
107.092830 46.000000
109.098580 16.000000
125.077900 36.000000
125.098180 809.000000
126.096010 34.000000
126.104450 22.000000
135.080950 89.000000
136.084550 20.000000
143.109010 16.000000
144.115010 21.000000
149.932070 18.000000
153.092250 129.000000
155.088010 19.000000
163.070360 16.000000
171.073960 20.000000
171.102130 1957.000000
172.104710 193.000000
173.103210 46.000000
173.114170 17.000000
174.092710 17.000000
174.330470 17.000000

