>compound PR99432423
>parentmass 369.1335
>ionization [M+H]+
>formula C21H20O6
>rt 420.600000
>profile qtof
#smiles_iso CC(=CCC1=C(C2=C(C=C1O)OC(=O)C(=C2)C3=C(C=C(C=C3)O)O)OC)C
#smiles_can CC(=CCC1=C(C2=C(C=C1O)OC(=O)C(=C2)C3=C(C=C(C=C3)O)O)OC)C
#inchikey NZYSZZDSYIBYLC-UHFFFAOYSA-N
#pubchem_id 5317756
#mb_accession PR310763

>ms2peaks
93.032540 20.000000
129.072690 21.000000
147.046540 18.000000
165.019360 68.000000
169.066070 37.000000
170.067780 26.000000
178.029330 19.000000
179.145800 18.000000
201.127640 25.000000
205.079510 22.000000
205.092420 26.000000
219.065720 21.000000
224.056870 27.000000
226.074080 27.000000
242.050460 17.000000
261.088010 18.000000
281.030610 18.000000
283.064360 28.000000
285.070560 27.000000
288.303710 25.000000
298.073550 25.000000
313.066040 157.000000
313.091030 22.000000
314.066220 19.000000
314.076930 80.000000
315.072390 18.000000
315.088410 21.000000
348.066560 21.000000
354.117710 18.000000
369.118590 150.000000
369.134190 540.000000
369.218870 17.000000

