>compound PR99346982
>parentmass 289.07066459999993
>ionization [M+H]+
>formula C15H12O6
>rt 320.994960
>profile qtof
#smiles_iso C1[C@H](OC2=CC(=CC(=C2C1=O)O)O)C3=CC(=C(C=C3)O)O
#smiles_can C1C(OC2=CC(=CC(=C2C1=O)O)O)C3=CC(=C(C=C3)O)O
#inchikey SBHXYTNGIZCORC-ZDUSSCGKSA-N
#pubchem_id 440735
#mb_accession PR302483,PR302488,PR302494,PR302500,PR302506,PR302512,PR302518,PR302524,PR302530,PR302535,PR302541,PR302547

>ms2peaks
69.028360 6.000000
69.033780 8.000000
89.033780 6.000000
89.039440 18.000000
97.025700 5.000000
107.046380 11.000000
111.005780 9.000000
114.649700 5.000000
117.026110 9.000000
117.033710 45.000000
123.046820 12.000000
135.040790 41.000000
135.046080 22.000000
136.053710 9.000000
137.056820 6.000000
139.035310 7.000000
145.027500 81.000000
151.036830 7.000000
153.017400 514.000000
154.006290 10.000000
154.021500 55.000000
155.016530 9.000000
163.038270 363.000000
164.038420 52.000000
165.040340 6.000000
179.026410 11.000000
179.037140 22.000000
180.037960 6.000000
187.028760 8.000000
187.042820 15.000000
271.058720 13.000000
287.044070 19.000000
287.061680 6.000000
289.068080 1000.000000
289.109800 7.000000

>ms2peaks
153.018010 20.000000
163.038530 45.000000
179.035770 7.000000
287.059480 12.000000
288.056610 7.000000
289.010160 6.000000
289.025880 7.000000
289.070470 1000.000000

>ms2peaks
65.038940 9.000000
67.013000 6.000000
67.018050 15.000000
68.998500 10.000000
69.034530 13.000000
79.055180 7.000000
89.040110 39.000000
93.035110 11.000000
107.046160 5.000000
107.052310 14.000000
111.041570 7.000000
115.054370 8.000000
117.034120 124.000000
118.033180 10.000000
123.042100 56.000000
124.026760 8.000000
124.049460 7.000000
131.051680 7.000000
133.102310 6.000000
135.043640 123.000000
137.022170 8.000000
144.423540 6.000000
145.027850 173.000000
146.029080 34.000000
151.041920 5.000000
152.044280 7.000000
152.984950 8.000000
152.997330 16.000000
153.017840 1000.000000
154.021880 67.000000
155.023670 27.000000
159.042190 30.000000
160.045140 11.000000
163.038530 164.000000
164.039750 22.000000
165.047680 5.000000
179.029630 12.000000
187.040180 9.000000
205.044560 8.000000
225.057010 6.000000

>ms2peaks
63.019850 70.000000
67.022150 90.000000
68.998020 132.000000
69.002240 54.000000
69.031440 82.000000
69.035100 126.000000
79.015140 50.000000
80.059150 52.000000
87.007200 58.000000
89.012550 46.000000
89.026010 32.000000
89.036990 1000.000000
93.033390 92.000000
97.022460 60.000000
97.028690 40.000000
98.031200 104.000000
107.043300 54.000000
108.050710 72.000000
111.007640 36.000000
117.025130 120.000000
117.035700 250.000000
123.029110 96.000000
123.038220 50.000000
124.016740 70.000000
127.053480 136.000000
135.038060 206.000000
136.050610 40.000000
139.047680 46.000000
145.026210 106.000000
152.991940 46.000000
153.013960 642.000000
153.023250 264.000000
153.455470 80.000000
154.021330 40.000000
155.048650 46.000000
155.481550 36.000000

>ms2peaks
67.012370 9.000000
79.051190 8.000000
79.058200 6.000000
83.013370 8.000000
89.033680 6.000000
89.039750 8.000000
89.045070 5.000000
90.042430 10.000000
93.033130 8.000000
95.048160 6.000000
107.047180 16.000000
111.004500 12.000000
111.009880 16.000000
115.057260 6.000000
117.025870 7.000000
117.034050 50.000000
117.039620 13.000000
118.034250 5.000000
125.020060 10.000000
135.037960 11.000000
135.044200 16.000000
137.058610 15.000000
145.015080 7.000000
145.027270 79.000000
151.035640 12.000000
152.986420 7.000000
153.016190 587.000000
154.017640 22.000000
154.024690 25.000000
155.020600 9.000000
161.067090 6.000000
163.037090 377.000000
164.036910 15.000000
164.043550 43.000000
164.051330 10.000000
179.035160 26.000000
180.027800 8.000000
183.643260 6.000000
187.038040 13.000000
187.047010 10.000000
190.028090 5.000000
194.033050 5.000000
205.046420 7.000000
205.062550 9.000000
253.052220 5.000000
271.042020 6.000000
271.062680 8.000000
272.062040 6.000000
287.059940 9.000000
288.062380 9.000000
288.995240 6.000000
289.029720 7.000000
289.069890 1000.000000

>ms2peaks
153.015850 22.000000
163.036730 48.000000
179.029010 6.000000
271.057040 7.000000
287.063780 5.000000
288.065610 8.000000
289.022280 7.000000
289.039370 10.000000
289.070560 1000.000000

>ms2peaks
68.997830 7.000000
79.054530 6.000000
81.034290 11.000000
89.021600 8.000000
89.037240 33.000000
93.034190 8.000000
93.039280 7.000000
97.028280 24.000000
107.045070 13.000000
111.006000 29.000000
111.013570 10.000000
111.044110 28.000000
117.019100 7.000000
117.033120 148.000000
118.037500 13.000000
123.038710 17.000000
123.045010 23.000000
124.045300 6.000000
125.025070 6.000000
129.065490 5.000000
135.044400 177.000000
136.051730 8.000000
137.064850 8.000000
145.027770 188.000000
146.034210 29.000000
152.972320 6.000000
153.018020 1000.000000
154.020340 94.000000
155.023760 21.000000
159.038270 6.000000
159.048190 10.000000
160.051680 7.000000
163.037800 231.000000
164.045330 15.000000
177.056530 11.000000
179.024750 11.000000
179.037980 17.000000
201.060550 7.000000
237.049180 6.000000
289.067410 10.000000
289.076020 8.000000

>ms2peaks
62.012590 44.000000
63.025910 62.000000
67.016840 31.000000
68.998860 174.000000
69.024830 25.000000
69.036040 69.000000
71.447880 19.000000
77.038020 29.000000
77.043590 127.000000
78.048220 38.000000
79.200510 21.000000
83.011990 58.000000
85.027440 53.000000
89.038370 1000.000000
90.040410 46.000000
90.046380 19.000000
91.182060 19.000000
92.993830 44.000000
93.029840 37.000000
103.043140 28.000000
103.057190 31.000000
105.032110 23.000000
107.046480 24.000000
115.053130 20.000000
115.058070 19.000000
116.554300 41.000000
117.024230 24.000000
117.033060 258.000000
118.034180 38.000000
123.045570 68.000000
127.047760 25.000000
127.059600 20.000000
129.068800 21.000000
135.010030 24.000000
135.041500 53.000000
145.027530 29.000000
152.980030 19.000000
153.002910 34.000000
153.019670 229.000000
168.057560 23.000000
185.121870 23.000000
197.070470 33.000000
238.595690 37.000000
289.065890 78.000000
289.076720 107.000000

>ms2peaks
63.019750 5.000000
67.021210 9.000000
69.034780 6.000000
79.054630 6.000000
89.025120 8.000000
89.039400 30.000000
107.048080 6.000000
107.053550 6.000000
111.007800 10.000000
111.044150 10.000000
117.020800 6.000000
117.032070 46.000000
117.042240 5.000000
118.037280 10.000000
123.043800 29.000000
135.028350 5.000000
135.044450 63.000000
136.048030 18.000000
139.036970 7.000000
145.028490 75.000000
146.031330 5.000000
147.031140 7.000000
153.018080 584.000000
154.022630 39.000000
155.026060 7.000000
159.045430 6.000000
163.038700 374.000000
164.026870 5.000000
164.041530 31.000000
179.034480 67.000000
179.047900 6.000000
187.038540 13.000000
187.045550 12.000000
189.047240 5.000000
205.040950 7.000000
205.050540 9.000000
206.047710 5.000000
225.060780 6.000000
256.402830 5.000000
271.058960 15.000000
287.057680 10.000000
288.051270 8.000000
289.004820 6.000000
289.072240 1000.000000

>ms2peaks
153.016600 30.000000
163.035610 40.000000
163.045900 8.000000
179.030840 10.000000
271.061710 12.000000
287.056150 10.000000
289.026950 9.000000
289.070190 1000.000000
289.120060 9.000000

>ms2peaks
67.017010 8.000000
89.035440 21.000000
89.041600 30.000000
93.031880 8.000000
97.027840 19.000000
107.053550 12.000000
111.038570 5.000000
113.702310 6.000000
117.032490 132.000000
118.035570 17.000000
119.049450 5.000000
123.043790 44.000000
125.030010 10.000000
131.047740 7.000000
135.002530 6.000000
135.042500 176.000000
136.052050 8.000000
139.041980 8.000000
145.026920 211.000000
146.032300 23.000000
152.999150 10.000000
153.017270 1000.000000
154.021330 65.000000
155.016650 9.000000
155.026720 15.000000
155.039170 5.000000
159.044160 14.000000
162.772900 5.000000
163.037400 181.000000
164.043240 16.000000
179.030780 7.000000
179.037670 6.000000
183.024770 6.000000
187.047910 8.000000
205.046300 11.000000
271.056430 8.000000
288.063110 6.000000

>ms2peaks
64.024410 29.000000
67.021390 43.000000
68.990030 23.000000
68.996620 71.000000
69.001900 18.000000
69.032040 57.000000
69.038880 22.000000
77.039870 82.000000
79.052560 31.000000
83.015920 80.000000
88.946140 34.000000
89.039050 1000.000000
90.040220 150.000000
90.503650 18.000000
91.116180 22.000000
92.996780 24.000000
93.031500 27.000000
97.022890 25.000000
97.029560 32.000000
97.035560 38.000000
103.048740 49.000000
108.050670 26.000000
115.052040 31.000000
117.025160 85.000000
117.033610 88.000000
117.430250 18.000000
118.040760 43.000000
123.043540 27.000000
124.048950 55.000000
125.020560 28.000000
127.057170 18.000000
134.036670 31.000000
135.042820 63.000000
139.056170 30.000000
145.026000 22.000000
145.033110 18.000000
151.055480 24.000000
152.065600 49.000000
153.011490 156.000000
153.021590 144.000000
155.011900 64.000000
159.039170 55.000000
165.014800 29.000000
289.062260 51.000000
289.078920 80.000000
289.085850 30.000000

