>compound AU00016413
>parentmass 205.0794
>ionization [M+H]+
>formula C11H12N2S
>rt 228.000000
>profile qtof
#smiles_iso C1CSC2=N[C@H](CN21)C3=CC=CC=C3
#smiles_can C1CSC2=NC(CN21)C3=CC=CC=C3
#inchikey HLFSDGLLUJUHTE-SNVBAGLBSA-N
#pubchem_id 26879
#mb_accession AU117201,AU117202,AU117203,AU117204,AU117205

>ms2
178.066300 2064.000000
205.076600 357132.000000
206.080400 42600.000000
207.072200 10600.000000

>ms2
123.021000 3000.000000
129.062500 4676.000000
145.073500 2088.000000
178.058800 88476.000000
179.062800 8164.000000
180.061600 2432.000000
205.076200 358132.000000
206.079200 36468.000000

>ms2
115.046600 2256.000000
117.049700 2112.000000
117.067700 2788.000000
118.058100 4600.000000
123.020900 18148.000000
124.025200 1284.000000
128.042000 1068.000000
128.055200 4988.000000
129.062200 8076.000000
130.057800 3760.000000
131.065700 2328.000000
132.073500 1852.000000
135.021100 1816.000000
144.073700 3192.000000
145.058300 532.000000
145.069700 2448.000000
146.052900 748.000000
147.094300 696.000000
150.031700 3308.000000
155.053400 692.000000
178.058500 96956.000000
179.062600 8020.000000
180.061400 2692.000000
188.042800 1528.000000
205.075800 63344.000000
206.079400 5260.000000

>ms2
115.047000 3152.000000
116.053000 360.000000
117.050000 3900.000000
117.062100 1520.000000
118.057100 3192.000000
119.065700 628.000000
123.020800 13124.000000
125.017200 492.000000
128.041200 1072.000000
128.054500 8432.000000
129.062200 3596.000000
130.057500 10400.000000
131.066300 2304.000000
132.073100 1984.000000
135.020800 1496.000000
144.073500 2872.000000
145.058200 1120.000000
145.073800 620.000000
146.094200 1316.000000
148.016800 564.000000
150.031000 1640.000000
155.053600 1396.000000
178.058500 18060.000000
179.063100 1372.000000
180.058200 516.000000
188.043100 396.000000
205.076000 3196.000000

>ms2
115.046200 2164.000000
116.051600 364.000000
117.049200 2800.000000
118.057300 1372.000000
124.023900 332.000000
126.045900 308.000000
127.046200 1024.000000
128.041500 660.000000
128.053900 6188.000000
129.061900 844.000000
130.057500 9444.000000
131.064400 1504.000000
132.072900 716.000000
135.021400 424.000000
144.073500 1056.000000
145.058200 1044.000000
148.015900 348.000000
150.031300 316.000000
155.057400 824.000000
178.065500 1508.000000

