>compound AU02041054
>parentmass 281.0703
>ionization [M+H]+
>formula C11H12N4O3S
>rt 256.800000
>profile qtof
#smiles_iso COC1=NN=C(C=C1)NS(=O)(=O)C2=CC=C(C=C2)N
#smiles_can COC1=NN=C(C=C1)NS(=O)(=O)C2=CC=C(C=C2)N
#inchikey VLYWMPOKSSWJAL-UHFFFAOYSA-N
#pubchem_id 5330
#mb_accession AU101501,AU101502,AU101503,AU101504,AU101505

>ms2
126.065700 696.000000
156.010400 4428.000000
204.043300 1600.000000
215.092100 436.000000
279.090600 26280.000000
281.070200 78952.000000
282.073500 6592.000000
283.067300 1804.000000

>ms2
124.086300 6092.000000
125.090400 352.000000
126.065400 12752.000000
127.068200 636.000000
156.010700 59628.000000
157.013600 2840.000000
158.007200 1416.000000
186.032800 3512.000000
187.036700 436.000000
188.012000 2104.000000
204.043300 16740.000000
205.047700 1292.000000
206.021400 448.000000
206.041600 620.000000
213.112300 2144.000000
215.093400 2792.000000
216.096800 408.000000
279.090900 10292.000000
281.070400 14020.000000
282.072900 1448.000000
283.065300 424.000000
283.074000 524.000000

>ms2
122.070600 536.000000
124.086400 6024.000000
125.090300 332.000000
126.065600 8464.000000
156.010800 13344.000000
157.013200 652.000000
158.007000 588.000000
186.032100 1060.000000
188.011400 780.000000
204.043600 3228.000000
205.045100 540.000000
213.114200 1028.000000
215.094700 1212.000000

>ms2
122.070100 336.000000
124.049500 316.000000
124.086400 3640.000000
125.090300 376.000000
126.066000 5288.000000
156.011100 1432.000000
172.074900 612.000000
204.044100 544.000000
213.113000 720.000000

>ms2
124.086700 1936.000000
125.090100 396.000000
126.066100 1940.000000
172.075000 608.000000

