>compound AU04112984
>parentmass 375.0066
>ionization [M+H]+
>formula C14H20Br2N2
>rt 616.500000
>profile qtof
#smiles_iso CN(CC1=C(C(=CC(=C1)Br)Br)N)C2CCCCC2
#smiles_can CN(CC1=C(C(=CC(=C1)Br)Br)N)C2CCCCC2
#inchikey OJGDCBLYJGHCIH-UHFFFAOYSA-N
#pubchem_id 2442
#mb_accession AU117302,AU117303,AU117304,AU117305

>ms2
261.876900 6536.000000
262.879200 380.000000
263.875100 10636.000000
264.882900 308.000000
374.999300 3760.000000
376.992800 5656.000000
377.999500 680.000000

>ms2
114.126200 1536.000000
261.877300 13484.000000
262.885200 860.000000
263.875200 23360.000000
264.879000 572.000000

>ms2
182.958500 460.000000
261.876300 2612.000000
262.879500 380.000000
263.875200 5644.000000

>ms2
181.957400 316.000000
182.958300 1516.000000
184.957300 688.000000
261.877600 2872.000000
263.874500 4344.000000

