>compound AU04720586
>parentmass 363.0217
>ionization [M+H]+
>formula C14H16ClO5PS
>rt 660.000000
>profile qtof
#smiles_iso CCOP(=S)(OCC)OC1=CC2=C(C=C1)C(=C(C(=O)O2)Cl)C
#smiles_can CCOP(=S)(OCC)OC1=CC2=C(C=C1)C(=C(C(=O)O2)Cl)C
#inchikey BXNANOICGRISHX-UHFFFAOYSA-N
#pubchem_id 2871
#mb_accession AU113601,AU113602,AU113603,AU113604,AU113605

>ms2peaks
226.989400 300.000000
306.958600 668.000000
334.990900 1464.000000
336.991200 464.000000
363.021200 38216.000000
364.025400 3552.000000
365.019200 7996.000000
366.027000 628.000000

>ms2peaks
211.008400 1380.000000
226.986700 11592.000000
227.989200 812.000000
228.982600 3060.000000
288.941500 2420.000000
290.937400 680.000000
306.950800 16796.000000
307.953500 1180.000000
308.948700 3656.000000
334.992000 10696.000000
335.995200 944.000000
336.989900 2428.000000
363.022600 18012.000000
364.025700 1532.000000
365.018800 3868.000000
366.012900 392.000000

>ms2peaks
191.018300 308.000000
194.010900 576.000000
211.015200 7704.000000
213.012900 1756.000000
224.977800 488.000000
225.983900 680.000000
226.992900 55684.000000
227.996100 3936.000000
228.989700 12156.000000
229.992300 616.000000
270.937700 364.000000
288.948400 8384.000000
289.950100 932.000000
290.945900 2224.000000
290.983300 1356.000000
306.959400 9496.000000
307.963500 964.000000
308.959700 1900.000000
334.990000 2868.000000
335.997600 364.000000
336.989500 688.000000
363.022300 648.000000

>ms2peaks
115.055200 448.000000
131.048400 664.000000
132.056200 588.000000
147.026700 904.000000
150.023300 600.000000
163.020100 628.000000
164.028500 816.000000
165.010100 408.000000
166.018600 316.000000
191.018900 436.000000
192.021700 328.000000
194.013400 1680.000000
196.008900 328.000000
196.982800 336.000000
208.999400 456.000000
210.006900 904.000000
211.015500 10328.000000
212.018800 1064.000000
213.012800 2060.000000
224.976600 1340.000000
225.985700 3276.000000
226.992600 46500.000000
227.995200 3280.000000
228.989700 10388.000000
229.994200 528.000000
256.977400 324.000000
270.939600 688.000000
272.936200 360.000000
272.971400 432.000000
288.949300 5712.000000
289.954900 816.000000
290.945100 1576.000000
290.983800 820.000000
292.982600 356.000000
306.961800 808.000000

>ms2peaks
115.054200 1184.000000
131.048700 2688.000000
132.055700 1256.000000
135.025800 868.000000
137.014500 452.000000
147.025300 2228.000000
147.043200 800.000000
148.032600 428.000000
148.051700 1120.000000
150.022300 884.000000
155.027400 360.000000
159.043000 712.000000
163.020600 1612.000000
164.027800 2388.000000
165.008400 332.000000
166.017900 1104.000000
171.002300 680.000000
175.038500 628.000000
182.012200 756.000000
191.016100 808.000000
192.021900 340.000000
194.012500 2644.000000
196.009600 616.000000
196.982000 780.000000
210.008700 676.000000
211.015600 6660.000000
213.011700 1448.000000
224.977600 332.000000
225.984800 5876.000000
226.992400 17408.000000
227.982400 1192.000000
227.994300 1528.000000
228.990000 3916.000000
256.976900 1164.000000
270.939200 536.000000
288.951000 1276.000000
289.951300 344.000000
290.946400 312.000000
290.983600 604.000000

