>compound AU06460793
>parentmass 261.1346
>ionization [M+H]+
>formula C13H16N4O2
>rt 246.000000
>profile qtof
#smiles_iso COC1=C(C=C(C=C1)CC2=CN=C(N=C2N)N)OC
#smiles_can COC1=C(C=C(C=C1)CC2=CN=C(N=C2N)N)OC
#inchikey LDBTVAXGKYIFHO-UHFFFAOYSA-N
#pubchem_id 21453
#mb_accession AU108501

>ms2peaks
81.044300 50028.000000
123.067200 343960.000000
124.070000 13616.000000
151.075300 5724.000000
187.098300 3488.000000
200.105500 3916.000000
202.086200 4536.000000
203.092100 6380.000000
215.092800 3608.000000
216.100900 28924.000000
217.109000 98776.000000
218.111900 10296.000000
229.109200 4300.000000
231.088100 15948.000000
232.093800 3608.000000
245.104400 600740.000000
246.109900 159152.000000
247.112900 13656.000000
261.135900 637160.000000
262.139000 117472.000000
263.140500 10072.000000

