>compound AU07186471
>parentmass 298.0856
>ionization [M+H]+
>formula C12H15N3O4S
>rt 348.000000
>profile qtof
#smiles_iso CCCS(=O)(=O)C1=CC2=C(C=C1)N=C(N2)NC(=O)OC
#smiles_can CCCS(=O)(=O)C1=CC2=C(C=C1)N=C(N2)NC(=O)OC
#inchikey CLSJYOLYMZNKJB-UHFFFAOYSA-N
#pubchem_id 53174
#mb_accession AU105901,AU105904,AU105905

>ms2
159.042600 10476.000000
160.048000 1324.000000
175.036900 352.000000
191.033000 9436.000000
191.069500 1120.000000
192.036400 908.000000
192.072300 532.000000
207.012200 420.000000
223.059300 1756.000000
224.012900 26352.000000
225.015700 2532.000000
226.009800 1152.000000
256.039700 2380.000000
257.038900 676.000000
266.060800 65204.000000
267.063500 7396.000000
268.056600 2516.000000
298.087000 21984.000000
299.089500 3124.000000
300.084000 900.000000

>ms2
131.049000 372.000000
159.041900 5636.000000
160.046600 604.000000
191.034300 1400.000000
224.011900 1760.000000
266.061300 584.000000

>ms2
131.047700 640.000000
159.042200 6696.000000
160.045100 524.000000
191.032000 1860.000000
192.036100 356.000000
224.012000 364.000000

