>compound AU10677716
>parentmass 869.5733
>ionization [M+H]+
>formula C46H80N2O13
>rt 408.000000
>profile qtof
#smiles_iso CC[C@@H]1[C@H](/C=C(/C=C/C(=O)[C@@H](C[C@@H]([C@@H]([C@H]([C@@H](CC(=O)O1)O)C)O[C@H]2[C@@H]([C@H]([C@@H]([C@H](O2)C)O)N(C)C)O)CCN3C[C@@H](C[C@@H](C3)C)C)C)\C)CO[C@H]4[C@@H]([C@@H]([C@@H]([C@H](O4)C)O)OC)OC
#smiles_can CCC1C(C=C(C=CC(=O)C(CC(C(C(C(CC(=O)O1)O)C)OC2C(C(C(C(O2)C)O)N(C)C)O)CCN3CC(CC(C3)C)C)C)C)COC4C(C(C(C(O4)C)O)OC)OC
#inchikey JTSDBFGMPLKDCD-XVFHVFLVSA-N
#pubchem_id 5282521
#mb_accession AU105603

>ms2peaks
58.064800 552.000000
84.080400 416.000000
88.075200 1076.000000
98.096700 668.000000
100.077400 424.000000
114.092800 424.000000
115.098200 480.000000
116.070800 1192.000000
126.091100 412.000000
126.127800 980.000000
132.102100 7500.000000
133.105000 412.000000
156.101700 3604.000000
174.113000 44020.000000
175.115900 4056.000000
176.118600 420.000000
504.370900 336.000000
522.385700 384.000000
678.462200 932.000000
679.465300 644.000000
695.487900 356.000000
696.473500 12136.000000
697.478200 4584.000000
698.478400 1540.000000
738.495500 484.000000
869.583400 64228.000000
870.584700 29408.000000
871.591500 7860.000000
872.593100 1680.000000

