>compound AU10594639
>parentmass 240.1594
>ionization [M+H]+
>formula C13H21NO3
>rt 192.000000
>profile qtof
#smiles_iso CC(C)(C)NCC(C1=CC(=C(C=C1)O)CO)O
#smiles_can CC(C)(C)NCC(C1=CC(=C(C=C1)O)CO)O
#inchikey NDAUXUAQIAJITI-UHFFFAOYSA-N
#pubchem_id 2083
#mb_accession AU110001,AU110002

>ms2
148.074500 3156.000000
166.085600 5820.000000
167.088500 612.000000
222.148700 21988.000000
223.152900 2476.000000
240.159200 21556.000000
241.162400 2340.000000
242.166800 316.000000

>ms2
57.069400 29504.000000
79.053700 2400.000000
93.070200 2128.000000
120.081200 10056.000000
121.065100 25260.000000
122.068600 2328.000000
130.065200 20548.000000
131.049400 4124.000000
131.070000 2576.000000
133.052600 17596.000000
136.075300 4616.000000
148.076300 406812.000000
149.079400 42220.000000
150.080500 2356.000000
166.087600 66252.000000
167.089800 6048.000000
222.149500 24236.000000
223.153000 4340.000000

