>compound AU10217326
>parentmass 376.1474
>ionization [M+H]+
>formula C21H23ClFNO2
>rt 454.800000
>profile qtof
#smiles_iso C1CN(CCC1(C2=CC=C(C=C2)Cl)O)CCCC(=O)C3=CC=C(C=C3)F
#smiles_can C1CN(CCC1(C2=CC=C(C=C2)Cl)O)CCCC(=O)C3=CC=C(C=C3)F
#inchikey LNEPOXFFQSENCJ-UHFFFAOYSA-N
#pubchem_id 3559
#mb_accession AU112201,AU112202,AU112203,AU112204,AU112205

>ms2
165.070300 1472.000000
358.137900 1420.000000
376.147600 157500.000000
377.151000 29860.000000
378.144600 41156.000000
379.147400 2792.000000

>ms2
165.065600 115480.000000
166.069300 5620.000000
194.069800 1016.000000
194.091800 1444.000000
358.129700 25144.000000
359.134400 3284.000000
360.127800 4800.000000
376.140200 186504.000000
377.143800 29892.000000

>ms2
123.023500 53212.000000
124.027600 2392.000000
165.070300 331872.000000
166.073800 17252.000000
194.097200 2204.000000
206.097900 2772.000000
358.137000 16392.000000
359.140100 3024.000000
360.134900 3492.000000
376.147100 10896.000000
377.152300 2760.000000
378.144600 2492.000000

>ms2
123.023800 137500.000000
124.027500 6780.000000
163.055200 812.000000
165.070700 143128.000000
166.074000 9904.000000
206.097900 3196.000000
358.137500 1432.000000

>ms2
123.023300 171464.000000
124.026900 8756.000000
165.070200 42272.000000
166.074300 2420.000000
206.096400 948.000000

