>compound AU12262673
>parentmass 494.3299
>ionization [M+H]+
>formula C28H47NO4S
>rt 468.000000
>profile qtof
#smiles_iso CCN(CC)CCSCC(=O)O[C@@H]1C[C@@]([C@H]([C@@H]([C@@]23CC[C@H]([C@@]1([C@@H]2C(=O)CC3)C)C)C)O)(C)C=C
#smiles_can CCN(CC)CCSCC(=O)OC1CC(C(C(C23CCC(C1(C2C(=O)CC3)C)C)C)O)(C)C=C
#inchikey UURAUHCOJAIIRQ-QGLSALSOSA-N
#pubchem_id 656958
#mb_accession AU105501,AU105502

>ms2
55.053700 5600.000000
69.069300 6644.000000
73.010200 21612.000000
74.095900 65752.000000
79.053800 6700.000000
81.069500 65064.000000
83.085000 8756.000000
89.059400 8400.000000
93.069800 12420.000000
95.085600 33908.000000
97.064900 5616.000000
97.101100 8368.000000
99.044400 10280.000000
100.112400 8264.000000
105.070300 9600.000000
107.086600 17812.000000
109.066400 5412.000000
109.102500 16076.000000
119.016900 174796.000000
119.086000 19512.000000
120.019400 6476.000000
121.101700 15216.000000
123.117200 7224.000000
133.101500 23524.000000
135.116900 8104.000000
145.101100 12088.000000
147.117200 17504.000000
149.096200 18264.000000
149.132600 9428.000000
157.101000 6624.000000
159.117100 13664.000000
161.095900 7096.000000
161.132700 10608.000000
163.111900 69168.000000
163.148100 6856.000000
164.115200 6636.000000
165.127000 5940.000000
171.116900 7192.000000
173.132700 15688.000000
175.112000 16952.000000
175.148800 13536.000000
177.127800 19564.000000
185.133000 9712.000000
187.148400 11892.000000
189.127300 6968.000000
191.143300 6404.000000
192.106200 1072972.000000
193.108900 113864.000000
194.102200 40212.000000
197.132700 7480.000000
199.148700 6548.000000
201.164900 9032.000000
203.143700 14820.000000
211.149100 10748.000000
213.164700 6056.000000
215.143200 7480.000000
215.180200 6932.000000
217.160600 6592.000000
221.154400 13820.000000
227.180200 15888.000000
229.159500 7348.000000
229.196500 10256.000000
233.154400 6912.000000
245.191400 39404.000000
246.194700 6500.000000
257.227600 13376.000000
267.212400 34568.000000
268.215700 5748.000000
285.223200 50804.000000
286.226700 10360.000000
303.234000 31028.000000
304.237100 6336.000000
494.333800 90768.000000
495.337100 35608.000000
496.338200 6728.000000

>ms2
119.016700 1248.000000
163.111500 1364.000000
192.104800 246352.000000
193.108200 17488.000000
194.101600 5276.000000
245.189600 3184.000000
267.211200 1884.000000
303.232600 3612.000000
494.330300 88648.000000
495.333800 23552.000000
496.332000 4140.000000

