>compound AU14165971
>parentmass 283.0689
>ionization [M+H]+
>formula C13H9F3N2O2
>rt 572.000000
>profile qtof
#smiles_iso C1=CC(=CC(=C1)NC2=C(C=CC=N2)C(=O)O)C(F)(F)F
#smiles_can C1=CC(=CC(=C1)NC2=C(C=CC=N2)C(=O)O)C(F)(F)F
#inchikey JZFPYUNJRRFVQU-UHFFFAOYSA-N
#pubchem_id 4488
#mb_accession AU115401,AU115404,AU115405

>ms2
60.055500 908.000000
145.027100 1212.000000
168.071600 1304.000000
196.064300 2272.000000
197.067000 912.000000
217.061100 1892.000000
237.054700 984.000000
237.067200 1384.000000
245.056000 14884.000000
246.057600 2672.000000
263.065400 3792.000000
265.064900 158356.000000
266.067300 26080.000000
267.071500 1944.000000
283.076400 58892.000000
284.077300 11032.000000

>ms2
145.020000 8052.000000
146.024500 540.000000
168.061400 6956.000000
169.064700 656.000000
190.038700 720.000000
196.055700 6812.000000
197.057200 852.000000
198.049000 596.000000
217.049000 9408.000000
218.052300 1364.000000
236.047500 616.000000
237.054600 2280.000000
238.039600 1532.000000
245.048100 23984.000000
246.051100 2476.000000
247.048400 464.000000
263.057700 752.000000
264.045300 820.000000
265.053100 68752.000000
266.057400 6552.000000
267.054200 512.000000

>ms2
125.014500 1592.000000
140.043700 832.000000
141.050600 1384.000000
145.019800 23168.000000
146.023300 1288.000000
167.051900 1500.000000
168.061300 16560.000000
169.064300 1816.000000
170.032700 756.000000
183.034300 628.000000
188.042500 392.000000
190.039000 2588.000000
191.039100 456.000000
195.047500 720.000000
196.056400 5036.000000
197.044300 3764.000000
198.011900 380.000000
198.047800 960.000000
215.053700 432.000000
216.041900 556.000000
217.049000 17188.000000
218.052500 1808.000000
219.038200 524.000000
225.038400 444.000000
236.047900 1136.000000
237.054300 2088.000000
238.038700 872.000000
238.058200 384.000000
245.047300 10268.000000
246.052000 1620.000000
263.059000 336.000000
264.047000 924.000000
265.053700 8728.000000
266.057600 1112.000000

