>compound AU15973004
>parentmass 215.0597
>ionization [M+H]+
>formula C7H10N4O2S
>rt 126.000000
>profile qtof
#smiles_iso C1=CC(=CC=C1N)S(=O)(=O)N=C(N)N
#smiles_can C1=CC(=CC=C1N)S(=O)(=O)N=C(N)N
#inchikey BRBKOPJOKNSWSG-UHFFFAOYSA-N
#pubchem_id 5324
#mb_accession AU101201

>ms2
60.055500 2164.000000
68.049200 464.000000
108.045000 568.000000
110.061000 324.000000
120.056600 348.000000
122.001200 344.000000
156.011500 9368.000000
157.013900 648.000000
158.010200 364.000000
173.036600 336.000000
215.060900 640.000000

