>compound AU17691775
>parentmass 316.075
>ionization [M+H]+
>formula C15H13N3O3S
>rt 390.000000
>profile qtof
#smiles_iso COC(=O)NC1=NC2=C(N1)C=C(C=C2)S(=O)C3=CC=CC=C3
#smiles_can COC(=O)NC1=NC2=C(N1)C=C(C=C2)S(=O)C3=CC=CC=C3
#inchikey BEZZFPOZAYTVHN-UHFFFAOYSA-N
#pubchem_id 40854
#mb_accession AU106501,AU106502,AU106503,AU106504,AU106505,AU116502

>ms2peaks
284.048000 364.000000
316.074600 24440.000000
317.077900 3140.000000
318.073100 924.000000

>ms2peaks
125.005400 376.000000
159.041900 1924.000000
191.032300 588.000000
191.068500 10144.000000
192.072800 840.000000
207.065300 484.000000
223.059200 1548.000000
239.036200 1580.000000
284.048800 8304.000000
285.052600 1056.000000
299.072600 2772.000000
300.076800 516.000000
316.075000 18524.000000
317.079500 2808.000000
318.072600 852.000000

>ms2peaks
125.006000 308.000000
146.071200 732.000000
159.041700 18392.000000
160.044900 1052.000000
175.036900 1428.000000
191.031500 3092.000000
191.068700 11248.000000
192.070800 1092.000000
207.009500 2236.000000
207.063300 516.000000
223.058500 2688.000000
224.064300 368.000000
239.035700 1800.000000
256.088600 404.000000
266.037200 776.000000
267.045900 4164.000000
268.050900 660.000000
284.048500 4100.000000
285.051100 776.000000
299.071500 3488.000000
300.074400 580.000000
316.075500 748.000000

>ms2peaks
131.047700 1084.000000
146.069600 664.000000
147.043800 312.000000
159.042200 31720.000000
160.045800 2156.000000
174.029700 336.000000
175.037200 960.000000
191.032500 6164.000000
191.069300 2932.000000
192.036700 652.000000
192.071600 300.000000
199.045300 364.000000
207.009600 3984.000000
208.010000 548.000000
223.058400 896.000000
239.036000 352.000000
256.089500 332.000000
266.038600 4024.000000
267.046800 5876.000000
299.072800 460.000000

>ms2peaks
118.051800 352.000000
131.046900 3872.000000
132.053700 408.000000
146.070800 500.000000
147.043200 708.000000
159.042100 29872.000000
160.045500 2216.000000
175.036400 812.000000
190.005800 492.000000
191.032300 5192.000000
191.068700 820.000000
198.037100 516.000000
199.045200 416.000000
207.010000 1236.000000
224.040700 308.000000
234.066500 416.000000
235.073400 792.000000
238.042100 484.000000
239.051000 368.000000
240.057100 320.000000
266.038200 5432.000000
267.045500 2392.000000
268.045400 460.000000

>ms2peaks
60.055200 552.000000
67.053100 396.000000
108.079600 616.000000
134.047400 3308.000000
136.075600 26928.000000
137.083400 21708.000000
138.087700 1492.000000
140.051900 768.000000
149.071100 51360.000000
150.074300 3452.000000
154.086800 24108.000000
155.089500 1936.000000
161.071500 400.000000
166.032200 604.000000
168.048200 79076.000000
169.051200 5976.000000
170.044000 2412.000000
180.033500 1132.000000
181.043100 3720.000000
268.109200 3484.000000
269.113000 640.000000
284.089300 664.000000
301.087700 572.000000

