>compound AU19962530
>parentmass 366.0674
>ionization [M+H]+
>formula C16H16ClN3O3S
>rt 396.000000
>profile qtof
#smiles_iso CC1CC2=CC=CC=C2N1NC(=O)C3=CC(=C(C=C3)Cl)S(=O)(=O)N
#smiles_can CC1CC2=CC=CC=C2N1NC(=O)C3=CC(=C(C=C3)Cl)S(=O)(=O)N
#inchikey NDDAHWYSQHTHNT-UHFFFAOYSA-N
#pubchem_id 3702
#mb_accession AU111101,AU111102,AU111103,AU111104,AU111105

>ms2
117.057800 436.000000
132.080300 18436.000000
133.084300 1868.000000
366.066800 7072.000000
367.070400 1616.000000
368.065100 2016.000000

>ms2
117.053300 1316.000000
133.080300 2820.000000
234.987900 312.000000

>ms2
117.056800 2580.000000
118.063900 520.000000
130.063900 408.000000
133.084600 1752.000000
217.966400 300.000000

>ms2
117.056500 3736.000000
118.062500 952.000000
132.080400 12008.000000
133.084500 920.000000

>ms2
117.056400 4428.000000
118.063200 1256.000000
131.070300 356.000000
132.080300 6932.000000
133.084000 832.000000

