>compound AU19285622
>parentmass 237.10219999999998
>ionization [M+H]+
>formula C15H12N2O
>rt 438.000000
>profile qtof
#smiles_iso C1=CC=C2C(=C1)C=CC3=CC=CC=C3N2C(=O)N
#smiles_can C1=CC=C2C(=C1)C=CC3=CC=CC=C3N2C(=O)N
#inchikey FFGPTBGBLSHEPO-UHFFFAOYSA-N
#pubchem_id 2554
#mb_accession AU112001,AU112002,AU112003,AU112004,AU112005

>ms2peaks
192.080700 2112.000000
194.096400 31708.000000
195.099600 3416.000000
237.102000 370068.000000
238.105200 53600.000000
239.108100 2556.000000

>ms2peaks
192.080600 67400.000000
193.088300 14640.000000
194.096300 432176.000000
195.094100 49952.000000
196.097600 2428.000000
220.075700 3920.000000
237.102100 86340.000000
238.103000 11692.000000

>ms2peaks
165.069500 5932.000000
167.084700 3864.000000
191.072700 4108.000000
193.087300 66376.000000
194.095800 420852.000000
195.099400 58204.000000
196.102500 2196.000000

>ms2peaks
117.057000 1156.000000
151.053600 1076.000000
165.069400 37400.000000
166.073700 5360.000000
167.072800 9512.000000
167.083300 5040.000000
168.078500 1412.000000
176.062100 2312.000000
177.068500 3836.000000
178.064800 5996.000000
179.072600 71500.000000
180.075900 7068.000000
190.065000 6036.000000
191.072700 27372.000000
192.080400 90700.000000
193.088200 181000.000000
194.095800 184776.000000
195.103000 19484.000000
196.102200 1132.000000

>ms2peaks
117.056600 1516.000000
139.053400 1992.000000
140.049900 1332.000000
150.045500 996.000000
151.053900 2704.000000
152.061400 21120.000000
153.064700 2044.000000
163.053200 1580.000000
164.061300 4064.000000
165.069300 77152.000000
166.072400 7248.000000
167.072400 26968.000000
168.076800 2900.000000
169.064100 2232.000000
176.061500 3228.000000
177.057000 6196.000000
178.064500 26072.000000
179.072400 76048.000000
180.075800 6436.000000
190.064800 15636.000000
191.072800 60536.000000
192.080300 110584.000000
193.088000 176100.000000
194.094600 45380.000000
195.099000 4340.000000

