>compound AU20107351
>parentmass 172.0717
>ionization [M+H]+
>formula C6H9N3O3
>rt 228.000000
>profile qtof
#smiles_iso CC1=NC=C(N1CCO)[N+](=O)[O-]
#smiles_can CC1=NC=C(N1CCO)[N+](=O)[O-]
#inchikey VAOCPAMSLUNLGC-UHFFFAOYSA-N
#pubchem_id 4173
#mb_accession AU106901

>ms2peaks
45.033800 2836.000000
56.036400 5100.000000
60.055200 912.000000
82.052400 3272.000000
97.039800 476.000000
98.046600 1364.000000
111.041700 2168.000000
128.045800 84720.000000
130.049800 672.000000
172.072200 24084.000000

