>compound AU20374450
>parentmass 238.1074
>ionization [M+H]+
>formula C12H15NO4
>rt 382.000000
>profile qtof
#smiles_iso CCOC1=C(C=CC(=C1)NC(=O)C)C(=O)OC
#smiles_can CCOC1=C(C=CC(=C1)NC(=O)C)C(=O)OC
#inchikey GOVWOKSKFSBNGD-UHFFFAOYSA-N
#pubchem_id 6034
#mb_accession AU108401,AU108402,AU108403,AU108404,AU108405,AU118402

>ms2peaks
164.069500 1168.000000
206.080700 150704.000000
207.084000 11932.000000
210.077600 840.000000
238.107100 16068.000000
239.111800 1280.000000

>ms2peaks
136.038600 12512.000000
136.075200 14688.000000
137.022600 2228.000000
137.059500 1800.000000
137.079000 764.000000
146.059500 2472.000000
147.043300 608.000000
164.070100 57060.000000
165.054200 6988.000000
165.073400 3468.000000
178.049400 11440.000000
178.085900 4620.000000
179.051900 980.000000
188.070100 2900.000000
206.080900 97332.000000
207.084400 8116.000000
210.076500 648.000000

>ms2peaks
118.065100 828.000000
136.038700 94200.000000
136.075100 24032.000000
137.022700 6764.000000
137.041800 4780.000000
137.058700 1520.000000
137.078200 1808.000000
146.059400 4552.000000
147.043400 708.000000
164.070000 44772.000000
165.053900 2080.000000
165.073000 2804.000000
178.049500 5636.000000
178.088000 760.000000
188.071000 900.000000
206.080700 2852.000000

>ms2peaks
117.057600 772.000000
118.064200 880.000000
136.038800 102276.000000
136.075300 5920.000000
137.023200 3416.000000
137.042300 4792.000000
146.059800 2584.000000
164.070100 4508.000000

>ms2peaks
117.057400 448.000000
118.064400 512.000000
136.038800 38236.000000
137.022100 1028.000000
137.041600 1964.000000
146.059800 1236.000000
164.069500 448.000000

>ms2peaks
105.033000 736.000000
133.063800 420.000000
238.098000 28576.000000
240.102300 516.000000

