>compound AU21760678
>parentmass 348.1013
>ionization [M+H]+
>formula C16H17N3O4S
>rt 252.000000
>profile qtof
#smiles_iso CC1=C(N2[C@@H]([C@@H](C2=O)NC(=O)[C@@H](C3=CC=CC=C3)N)SC1)C(=O)O
#smiles_can CC1=C(N2C(C(C2=O)NC(=O)C(C3=CC=CC=C3)N)SC1)C(=O)O
#inchikey ZAIPMKNFIOOWCQ-UEKVPHQBSA-N
#pubchem_id 27447
#mb_accession AU104601

>ms2
60.054300 456.000000
68.048900 1116.000000
106.066300 1952.000000
114.001500 952.000000
118.039000 412.000000
118.065300 1364.000000
121.011700 352.000000
134.059000 412.000000
140.016900 1128.000000
140.035000 828.000000
146.059600 1080.000000
150.037800 1004.000000
158.027800 16744.000000
159.030500 1124.000000
160.023200 796.000000
162.038300 376.000000
164.053600 1000.000000
174.055600 9404.000000
175.058700 1568.000000
178.031600 1080.000000
186.047700 740.000000
190.031200 384.000000
191.040800 1112.000000
192.048100 3216.000000
193.052100 432.000000
242.066800 316.000000
257.088400 336.000000
303.078200 308.000000

