>compound AU21153868
>parentmass 173.0379
>ionization [M+H]+
>formula C6H8N2O2S
>rt 138.000000
>profile qtof
#smiles_iso C1=CC(=CC=C1N)S(=O)(=O)N
#smiles_can C1=CC(=CC=C1N)S(=O)(=O)N
#inchikey FDDDEECHVMSUSB-UHFFFAOYSA-N
#pubchem_id 5333
#mb_accession AU102202

>ms2peaks
65.038100 316.000000
108.047200 332.000000
125.047900 472.000000
156.012500 848.000000
173.038300 1804.000000

