>compound AU21855672
>parentmass 419.27920000000006
>ionization [M+H]+
>formula C25H38O5
>rt 750.000000
>profile qtof
#smiles_iso CCC(C)(C)C(=O)O[C@H]1C[C@H](C=C2[C@H]1[C@H]([C@H](C=C2)C)CC[C@@H]3C[C@H](CC(=O)O3)O)C
#smiles_can CCC(C)(C)C(=O)OC1CC(C=C2C1C(C(C=C2)C)CCC3CC(CC(=O)O3)O)C
#inchikey RYMZZMVNJRMUDD-HGQWONQESA-N
#pubchem_id 54454
#mb_accession AU112801,AU112802,AU112803,AU112804,AU112805

>ms2
173.131300 392.000000
199.148200 960.000000
225.164200 356.000000
285.185100 984.000000
303.196600 920.000000
320.285000 420.000000
419.281600 608.000000

>ms2
173.129700 916.000000
185.077500 444.000000
199.144500 1180.000000
201.161100 316.000000
217.027400 300.000000
225.159800 560.000000
243.170700 856.000000
249.159300 392.000000
267.169200 448.000000
286.182700 312.000000

>ms2
157.013200 312.000000
159.116300 392.000000
171.116800 360.000000
173.132000 796.000000
185.078600 384.000000
199.148400 1132.000000
225.164500 700.000000
226.168200 396.000000
243.176100 428.000000

>ms2
129.019300 404.000000
143.085300 432.000000
145.101600 484.000000
157.100800 328.000000
159.116500 520.000000
169.102600 528.000000
173.133300 1140.000000
199.147900 1580.000000
225.163000 740.000000

>ms2
131.085800 452.000000
143.084200 1040.000000
144.092400 364.000000
145.100800 440.000000
157.100800 488.000000
159.114700 556.000000
169.101300 508.000000
173.132200 764.000000
183.115900 320.000000
197.131800 336.000000
199.147400 648.000000
225.163100 420.000000

