>compound AU22002244
>parentmass 334.0621
>ionization [M+H]+
>formula C15H13Cl2N5
>rt 692.400000
>profile qtof
#smiles_iso C1=CC(=CC=C1/C=N/N/C(=N/N=C/C2=CC=C(C=C2)Cl)/N)Cl
#smiles_can C1=CC(=CC=C1C=NNC(=NN=CC2=CC=C(C=C2)Cl)N)Cl
#inchikey MOOFYEJFXBSZGE-LQGKIZFRSA-N
#pubchem_id 9570438
#mb_accession AU109302,AU109303,AU109304,AU109305,AU119301

>ms2peaks
125.015300 1744.000000
138.010000 3176.000000
139.014200 448.000000
140.007100 688.000000
140.025800 3124.000000
142.022400 528.000000
153.021800 504.000000
155.036300 7620.000000
157.033400 1608.000000
178.015900 4684.000000
179.021600 720.000000
180.012700 804.000000
180.032000 3032.000000
182.030500 660.000000
195.043000 2252.000000
196.051100 1216.000000
263.025600 452.000000
265.023900 388.000000
317.037000 1328.000000
318.033700 320.000000
334.062100 14068.000000
335.065700 1976.000000
336.059400 7400.000000
337.063100 720.000000

>ms2peaks
125.015000 2588.000000
138.009700 9940.000000
140.006900 1672.000000
140.025400 3116.000000
142.022300 668.000000
143.046800 1096.000000
151.004500 1692.000000
153.002300 356.000000
153.020900 788.000000
155.036200 8484.000000
157.032900 2100.000000
171.066400 328.000000
178.016200 6708.000000
179.022600 1260.000000
180.012600 1556.000000
182.029600 536.000000
195.043200 2428.000000
196.050300 384.000000
197.040900 616.000000
262.015600 364.000000
263.022400 380.000000
334.063400 412.000000

>ms2peaks
110.999700 740.000000
123.995400 944.000000
125.014900 1816.000000
138.010200 8100.000000
139.016000 920.000000
140.007000 1444.000000
140.025500 2096.000000
143.048200 2008.000000
151.005600 2004.000000
152.010800 300.000000
153.020100 772.000000
154.029300 516.000000
155.016300 316.000000
155.037000 4396.000000
157.033200 852.000000
178.016700 2500.000000
179.021500 412.000000
180.014800 636.000000
195.044300 1472.000000

>ms2peaks
110.999100 776.000000
116.036100 372.000000
123.994800 1632.000000
125.014400 1152.000000
138.009700 4324.000000
139.016000 508.000000
140.007800 1380.000000
140.025400 848.000000
143.046300 1156.000000
151.005400 920.000000
151.021000 364.000000
153.019100 976.000000
155.035900 1372.000000
164.002000 328.000000
178.016900 612.000000
195.044100 1484.000000

>ms2peaks
51.022400 652.000000
58.039500 1716.000000
59.047200 7048.000000
60.054800 4588.000000
75.021600 428.000000
85.050800 13712.000000
86.998900 580.000000
98.984000 616.000000
111.000300 1452.000000
112.995300 852.000000
113.015900 504.000000
115.030600 752.000000
116.037200 460.000000
117.056900 496.000000
118.051200 708.000000
123.994400 3168.000000
124.006700 480.000000
125.015400 34128.000000
125.992100 796.000000
126.019400 1736.000000
127.012300 7304.000000
129.010500 2144.000000
131.006500 636.000000
131.060000 488.000000
132.068900 1188.000000
138.010400 75024.000000
139.010200 6828.000000
140.007700 20032.000000
140.026200 42280.000000
141.005700 1352.000000
141.008800 1224.000000
141.029900 3748.000000
142.023500 8872.000000
142.038900 1160.000000
143.026300 512.000000
143.047800 8080.000000
144.052100 756.000000
150.010900 928.000000
151.005900 11452.000000
152.009100 1640.000000
153.002200 2584.000000
153.021200 7164.000000
154.025300 808.000000
155.037100 82748.000000
156.021900 428.000000
156.040500 7056.000000
157.034600 20856.000000
158.035600 844.000000
160.048500 532.000000
163.007500 652.000000
165.021800 804.000000
169.017000 2168.000000
170.045600 428.000000
171.013200 444.000000
171.066500 1256.000000
178.016900 65992.000000
179.023100 10568.000000
180.014500 15368.000000
180.032800 31456.000000
181.019800 2020.000000
181.035500 2172.000000
182.029900 7620.000000
195.043700 24884.000000
196.026600 792.000000
196.051600 12696.000000
197.041400 5328.000000
197.056900 1624.000000
198.048300 2468.000000
219.045600 464.000000
262.020600 1388.000000
263.027900 4800.000000
264.019100 1280.000000
264.031000 808.000000
265.025200 3444.000000
277.030600 1652.000000
279.029400 1228.000000
282.064000 488.000000
288.023200 2840.000000
289.028800 724.000000
290.021800 2636.000000
317.037700 7968.000000
318.040700 1316.000000
319.036100 5192.000000
320.037800 860.000000
334.064200 49316.000000
335.068500 10740.000000
336.062100 35672.000000
337.063300 4188.000000
338.059400 420.000000

