>compound AU23378660
>parentmass 358.9574
>ionization [M+H]+
>formula C14H9Cl3N2OS
>rt 710.000000
>profile qtof
#smiles_iso CSC1=NC2=CC(=C(C=C2N1)Cl)OC3=C(C(=CC=C3)Cl)Cl
#smiles_can CSC1=NC2=CC(=C(C=C2N1)Cl)OC3=C(C(=CC=C3)Cl)Cl
#inchikey NQPDXQQQCQDHHW-UHFFFAOYSA-N
#pubchem_id 50248
#mb_accession AU106702,AU106704,AU106705

>ms2peaks
60.054800 3008.000000
165.021800 5656.000000
166.025700 632.000000
167.017100 1360.000000
196.994100 1736.000000
198.001900 8584.000000
198.973400 2040.000000
199.005500 1232.000000
199.999000 2372.000000
229.993000 2180.000000
242.024500 1596.000000
250.992100 1516.000000
252.988700 1136.000000
272.989400 1168.000000
273.998200 23928.000000
274.999800 3368.000000
275.995000 5052.000000
276.995300 4552.000000
278.991400 2588.000000
291.014600 712.000000
308.965900 4608.000000
309.969400 776.000000
310.964700 2092.000000
311.965700 2360.000000
313.959400 1748.000000
343.935900 70668.000000
344.938900 7824.000000
345.932800 61472.000000
346.936100 5684.000000
347.932400 1684.000000
358.959600 125964.000000
359.963500 19716.000000
360.956800 111236.000000
361.960700 10556.000000
362.952900 3340.000000

>ms2peaks
163.031600 412.000000
165.020500 2556.000000
167.019200 420.000000
170.976600 564.000000
196.994900 448.000000
198.001400 1852.000000
198.972500 2600.000000
200.970100 584.000000
242.026500 812.000000
250.990700 1296.000000
252.990700 572.000000
272.987000 464.000000
273.996300 15080.000000
275.000000 1528.000000
275.992800 2216.000000
276.994100 1716.000000
278.990500 596.000000
280.967800 324.000000
307.961600 584.000000
308.964800 1896.000000
309.967600 332.000000
310.961900 700.000000
343.934500 10344.000000
344.937500 1356.000000
346.934700 668.000000
358.958500 1664.000000
360.955600 1204.000000

>ms2peaks
148.008300 336.000000
163.032300 1716.000000
165.020600 2408.000000
167.018400 388.000000
170.977400 3848.000000
172.973200 524.000000
182.977800 512.000000
196.992300 492.000000
198.001700 1220.000000
198.972500 9648.000000
199.974300 492.000000
200.969500 1624.000000
229.989400 352.000000
239.025900 344.000000
242.024500 2320.000000
244.019300 324.000000
250.989900 2472.000000
251.994800 376.000000
252.987300 1000.000000
272.988100 868.000000
273.996100 30504.000000
274.999500 2836.000000
275.992300 5540.000000
276.994900 1488.000000
280.970900 676.000000
307.958600 572.000000
308.965700 1036.000000
309.963000 312.000000
343.934000 2108.000000

