>compound AU24903511
>parentmass 314.0935
>ionization [M+H]+
>formula C16H12FN3O3
>rt 512.000000
>profile qtof
#smiles_iso COC(=O)NC1=NC2=C(N1)C=C(C=C2)C(=O)C3=CC=C(C=C3)F
#smiles_can COC(=O)NC1=NC2=C(N1)C=C(C=C2)C(=O)C3=CC=C(C=C3)F
#inchikey CPEUVMUXAHMANV-UHFFFAOYSA-N
#pubchem_id 35802
#mb_accession AU106301,AU106302,AU106303,AU106304,AU106305,AU116304

>ms2peaks
282.068800 496.000000
314.093700 22816.000000
315.096900 3556.000000
316.098700 540.000000

>ms2peaks
282.066900 29708.000000
283.069600 3296.000000
284.074400 632.000000
314.093500 19356.000000
315.095700 2988.000000
316.097000 516.000000

>ms2peaks
123.023600 1212.000000
282.066900 47312.000000
283.069900 5580.000000
314.093800 748.000000

>ms2peaks
123.023900 9764.000000
124.027600 596.000000
160.051200 620.000000
226.078100 348.000000
254.075100 364.000000
282.068000 28240.000000
283.071200 3012.000000

>ms2peaks
123.023700 8184.000000
124.026900 440.000000
159.042500 704.000000
160.050500 520.000000
184.056300 464.000000
186.031700 476.000000
191.032600 380.000000
226.077800 556.000000
282.067200 3664.000000
283.074000 652.000000

>ms2peaks
60.055500 1700.000000
123.024000 12416.000000
282.068900 201784.000000
283.072200 43796.000000
284.074300 3608.000000
314.096100 55368.000000
315.098700 9952.000000
316.103100 1096.000000

