>compound AU28904956
>parentmass 251.0597
>ionization [M+H]+
>formula C10H10N4O2S
>rt 199.500000
>profile qtof
#smiles_iso C1=CN=C(N=C1)NS(=O)(=O)C2=CC=C(C=C2)N
#smiles_can C1=CN=C(N=C1)NS(=O)(=O)C2=CC=C(C=C2)N
#inchikey SEEPANYCNGTZFQ-UHFFFAOYSA-N
#pubchem_id 5215
#mb_accession AU101101,AU101102,AU101103,AU101104

>ms2peaks
156.010600 4912.000000
174.019900 380.000000
176.012000 364.000000
251.059600 52468.000000
252.061600 4128.000000
253.056500 1432.000000

>ms2peaks
156.010800 30040.000000
157.014100 1456.000000
158.004300 1496.000000
174.023100 368.000000
176.012100 1532.000000
185.081300 1272.000000
251.060700 5052.000000
252.063400 668.000000

>ms2peaks
156.011000 4480.000000
157.013600 304.000000
158.003200 568.000000
176.013000 772.000000
185.082300 980.000000

>ms2peaks
156.011300 432.000000
185.082400 496.000000

