>compound AU31234860
>parentmass 363.1463
>ionization [M+H]+
>formula C17H19FN4O4
>rt 252.000000
>profile qtof
#smiles_iso CN1CCN(CC1)C2=C(C=C3C4=C2OCN(N4C=C(C3=O)C(=O)O)C)F
#smiles_can CN1CCN(CC1)C2=C(C=C3C4=C2OCN(N4C=C(C3=O)C(=O)O)C)F
#inchikey BPFYOAJNDMUVBL-UHFFFAOYSA-N
#pubchem_id 60651
#mb_accession AU103102

>ms2
70.064700 1384.000000
72.080800 7752.000000
149.024100 340.000000
192.044600 732.000000
204.044800 544.000000
205.042200 1472.000000
206.044400 324.000000
213.067300 320.000000
219.056500 520.000000
233.072900 1408.000000
248.034300 340.000000
249.033400 576.000000
261.104200 1740.000000
262.104200 540.000000
274.067900 300.000000
276.115500 644.000000
277.063400 1916.000000
278.068100 416.000000
318.162400 1888.000000
319.169700 420.000000
320.106400 5772.000000
321.109200 992.000000
345.141100 576.000000
361.151300 536.000000
363.149900 8196.000000
364.153200 2152.000000
365.162300 512.000000

