>compound AU31519679
>parentmass 265.0754
>ionization [M+H]+
>formula C11H12N4O2S
>rt 240.000000
>profile qtof
#smiles_iso CC1=NC(=NC=C1)NS(=O)(=O)C2=CC=C(C=C2)N
#smiles_can CC1=NC(=NC=C1)NS(=O)(=O)C2=CC=C(C=C2)N
#inchikey QPPBRPIAZZHUNT-UHFFFAOYSA-N
#pubchem_id 5325
#mb_accession AU101601

>ms2
53.038300 812.000000
54.033700 664.000000
55.017000 604.000000
65.038200 10420.000000
66.041600 824.000000
68.049100 15520.000000
69.033200 1932.000000
78.033400 2144.000000
79.017400 2040.000000
80.049700 1336.000000
81.044300 2512.000000
82.027900 852.000000
92.049600 25444.000000
93.056100 2688.000000
94.064800 5344.000000
96.044800 1828.000000
108.046200 37664.000000
109.049400 2480.000000
110.072700 38856.000000
111.075000 2312.000000
120.055800 4488.000000
156.011900 115064.000000
157.014600 8480.000000
158.007900 5580.000000
172.017500 9988.000000
173.019500 648.000000
174.021800 5340.000000
190.029000 78604.000000
191.030700 4720.000000
192.024900 2512.000000
199.098600 25400.000000
200.100100 2408.000000
201.113500 1908.000000
265.076800 66984.000000
266.080000 7192.000000
267.073900 2652.000000

