>compound AU32275543
>parentmass 226.14379999999997
>ionization [M+H]+
>formula C12H19NO3
>rt 182.000000
>profile qtof
#smiles_iso CC(C)(C)NCC(C1=CC(=CC(=C1)O)O)O
#smiles_can CC(C)(C)NCC(C1=CC(=CC(=C1)O)O)O
#inchikey XWTYSIMOBUGWOL-UHFFFAOYSA-N
#pubchem_id 5403
#mb_accession AU110101,AU110102,AU110103

>ms2
152.070300 6148.000000
170.080700 1800.000000
208.133900 704.000000
224.127300 556.000000
226.143900 21132.000000
227.148100 2072.000000

>ms2
125.058700 1564.000000
135.043900 612.000000
152.070100 25928.000000
153.072500 2488.000000
170.080100 612.000000
226.145100 504.000000

>ms2
125.059600 3164.000000
135.043700 752.000000
152.070200 8464.000000
153.075000 648.000000

