>compound AU32923397
>parentmass 202.04329999999996
>ionization [M+H]+
>formula C10H7N3S
>rt 372.000000
>profile qtof
#smiles_iso C1=CC=C2C(=C1)NC(=N2)C3=CSC=N3
#smiles_can C1=CC=C2C(=C1)NC(=N2)C3=CSC=N3
#inchikey WJCNZQLZVWNLKY-UHFFFAOYSA-N
#pubchem_id 5430
#mb_accession AU106601,AU106604,AU106605

>ms2peaks
65.037900 7856.000000
92.049500 33712.000000
131.060700 95472.000000
132.063700 8392.000000
143.060900 16000.000000
158.071300 17456.000000
170.071000 7060.000000
175.033200 681540.000000
176.035600 55968.000000
177.028400 20428.000000
202.045000 1254324.000000
204.040100 70260.000000

>ms2peaks
118.051700 1356.000000
131.060100 117024.000000
132.063100 6988.000000
134.005900 3072.000000
142.052300 1396.000000
143.059900 11728.000000
144.063400 1032.000000
157.063000 1788.000000
158.070500 3068.000000
170.071200 2776.000000
174.024900 908.000000
175.032100 179728.000000
176.035100 12004.000000
177.028300 3776.000000
202.043500 30040.000000
203.046400 2976.000000

>ms2peaks
118.052300 1260.000000
129.043700 552.000000
131.059800 67448.000000
132.063000 3644.000000
134.005200 2300.000000
142.052300 1812.000000
143.060100 8184.000000
156.055100 992.000000
157.062500 1012.000000
158.070200 744.000000
168.056000 540.000000
170.070700 920.000000
174.024300 1408.000000
175.032000 23820.000000
176.035100 2068.000000
177.028900 708.000000
202.043500 1480.000000

