>compound AU35291938
>parentmass 297.0845
>ionization [M+H]+
>formula C14H11F3N2O2
>rt 552.000000
>profile qtof
#smiles_iso CC1=C(C=CC=C1NC2=C(C=CC=N2)C(=O)O)C(F)(F)F
#smiles_can CC1=C(C=CC=C1NC2=C(C=CC=N2)C(=O)O)C(F)(F)F
#inchikey NOOCSNJCXJYGPE-UHFFFAOYSA-N
#pubchem_id 38081
#mb_accession AU114801,AU114802,AU114803,AU114804,AU114805

>ms2peaks
279.069000 4180.000000
297.083400 480732.000000
298.086600 60656.000000

>ms2peaks
277.074800 6100.000000
279.070400 212484.000000
280.072500 24776.000000
297.080500 434600.000000
298.082700 57604.000000

>ms2peaks
211.059300 3036.000000
257.063200 3800.000000
264.041400 47316.000000
265.045400 4364.000000
277.073100 3832.000000
279.068700 558464.000000
280.072800 73096.000000
281.076100 3284.000000
297.078700 45892.000000
298.083200 5648.000000

>ms2peaks
139.029300 1148.000000
181.068700 4872.000000
182.076200 4444.000000
184.048600 6092.000000
191.053700 1644.000000
192.061200 1340.000000
209.063000 4264.000000
210.049700 1880.000000
210.070900 27324.000000
211.058700 9744.000000
212.062600 1284.000000
219.047700 1512.000000
231.064200 4044.000000
234.044400 1816.000000
236.047000 11728.000000
237.052900 1600.000000
239.053100 20556.000000
240.056500 2148.000000
241.048800 2892.000000
249.054000 1384.000000
251.070600 2140.000000
257.063000 1428.000000
259.062600 43324.000000
260.066800 4572.000000
261.055100 1528.000000
264.041300 211348.000000
265.044300 20156.000000
278.061800 1996.000000
279.068700 226128.000000
280.072800 25696.000000

>ms2peaks
109.040400 1428.000000
119.023800 1836.000000
139.029300 2740.000000
140.043300 2628.000000
147.029200 2380.000000
154.059300 1668.000000
157.038100 988.000000
159.035200 16344.000000
160.038700 1100.000000
164.042900 1376.000000
167.053400 1564.000000
180.061600 1400.000000
181.068800 24296.000000
182.075500 7356.000000
184.048800 14328.000000
185.052400 2016.000000
186.051800 3944.000000
189.031500 1124.000000
191.052800 3624.000000
192.060800 2928.000000
195.049100 1528.000000
209.037700 1380.000000
209.063400 12348.000000
210.050600 5416.000000
210.070900 18124.000000
211.058700 13180.000000
212.063400 1624.000000
214.041900 1264.000000
216.041700 3032.000000
217.049600 2368.000000
219.047400 1544.000000
229.048000 1016.000000
230.056400 1424.000000
231.064800 5060.000000
234.045000 2260.000000
235.039400 3040.000000
236.047200 65872.000000
237.051400 4644.000000
239.052900 10772.000000
240.055800 1248.000000
241.048500 4400.000000
249.055300 3608.000000
250.061700 1524.000000
251.069700 1312.000000
257.047800 1324.000000
258.055400 1788.000000
259.062700 13768.000000
260.067100 1948.000000
263.034200 2992.000000
264.041500 188656.000000
265.044300 15800.000000
277.054300 2548.000000
278.062200 1436.000000
279.068900 22076.000000
280.072900 2536.000000

