>compound AU38336436
>parentmass 254.0594
>ionization [M+H]+
>formula C10H11N3O3S
>rt 282.000000
>profile qtof
#smiles_iso CC1=CC(=NO1)NS(=O)(=O)C2=CC=C(C=C2)N
#smiles_can CC1=CC(=NO1)NS(=O)(=O)C2=CC=C(C=C2)N
#inchikey JLKIGFTWXXRPMT-UHFFFAOYSA-N
#pubchem_id 5329
#mb_accession AU101801

>ms2peaks
53.038500 728.000000
54.033500 684.000000
55.017300 1116.000000
59.049100 560.000000
60.055400 848.000000
65.038200 8132.000000
66.042100 540.000000
67.041300 616.000000
68.049000 18688.000000
69.033100 1060.000000
72.043900 1236.000000
78.033800 1964.000000
79.017300 2468.000000
80.049800 1580.000000
92.049600 19548.000000
93.057500 21176.000000
94.064800 2412.000000
96.044800 1420.000000
99.056200 16376.000000
100.058500 880.000000
107.061300 1312.000000
108.046000 31732.000000
109.048800 3024.000000
110.060500 8652.000000
111.064800 1112.000000
119.060900 768.000000
120.056200 3812.000000
131.059700 908.000000
132.068200 1020.000000
133.062800 812.000000
146.071000 6868.000000
147.079100 19788.000000
148.086400 5428.000000
156.011900 102740.000000
157.014600 9336.000000
158.007800 5096.000000
160.087300 21440.000000
161.001500 2108.000000
161.091100 2576.000000
172.087000 568.000000
173.059400 768.000000
174.021100 1156.000000
176.028800 1384.000000
188.082200 13976.000000
189.085500 1300.000000
190.098100 3432.000000
194.037900 3232.000000
254.060300 26712.000000
255.062400 2648.000000
256.056600 1012.000000

