>compound AU39103039
>parentmass 748.4842
>ionization [M+H]+
>formula C38H69NO13
>rt 558.000000
>profile qtof
#smiles_iso CC[C@@H]1[C@@]([C@@H]([C@H](C(=O)[C@@H](C[C@@]([C@@H]([C@H]([C@@H]([C@H](C(=O)O1)C)O[C@H]2C[C@@]([C@H]([C@@H](O2)C)O)(C)OC)C)O[C@H]3[C@@H]([C@H](C[C@H](O3)C)N(C)C)O)(C)OC)C)C)O)(C)O
#smiles_can CCC1C(C(C(C(=O)C(CC(C(C(C(C(C(=O)O1)C)OC2CC(C(C(O2)C)O)(C)OC)C)OC3C(C(CC(O3)C)N(C)C)O)(C)OC)C)C)O)(C)O
#inchikey AGOYDEPGAOXOCK-KCBOHYOISA-N
#pubchem_id 84029
#mb_accession AU105301

>ms2
55.054000 5612.000000
72.080600 22716.000000
83.049500 214176.000000
84.052700 11348.000000
87.044700 8068.000000
88.076400 4940.000000
98.098100 23312.000000
99.081800 4632.000000
113.062200 7032.000000
115.077100 13744.000000
116.072100 24392.000000
116.108500 62320.000000
117.111500 4168.000000
127.076100 19640.000000
158.118000 603828.000000
159.121500 59864.000000
160.123400 3896.000000
284.186900 3284.000000
316.214000 6864.000000
365.234200 4676.000000
540.357700 3164.000000
558.369200 42544.000000
559.373200 11500.000000
590.395700 94372.000000
591.398700 33268.000000
592.402700 6784.000000
748.493700 12016.000000
749.496800 5020.000000

