>compound AU40662570
>parentmass 313.0795
>ionization [M+H]+
>formula C14H11F3N2O3
>rt 516.000000
>profile qtof
#smiles_iso CC1=C(C=CC=C1NC2=C(C=C(C=N2)O)C(=O)O)C(F)(F)F
#smiles_can CC1=C(C=CC=C1NC2=C(C=C(C=N2)O)C(=O)O)C(F)(F)F
#inchikey JSXNJGKWSWRIGA-UHFFFAOYSA-N
#pubchem_id 12978215
#mb_accession AU115702,AU115703,AU115704,AU115705

>ms2
295.063700 2044.000000
296.064800 344.000000
313.073900 7468.000000
314.077900 1404.000000

>ms2
275.048100 384.000000
280.036300 688.000000
295.063500 7248.000000
296.067600 1320.000000
313.073500 1644.000000

>ms2
226.064500 452.000000
275.057500 392.000000
280.036000 2876.000000
281.040200 360.000000
295.063200 3232.000000

>ms2
198.072500 332.000000
225.058900 340.000000
226.066400 528.000000
252.042800 868.000000
275.057400 440.000000
280.036700 3000.000000
281.039800 496.000000
295.064100 740.000000

