>compound AU40933114
>parentmass 916.5264
>ionization [M+H]+
>formula C46H77NO17
>rt 480.000000
>profile qtof
#smiles_iso CC[C@@H]1[C@H](/C=C(/C=C/C(=O)[C@@H](C[C@@H]([C@@H]([C@H]([C@@H](CC(=O)O1)O)C)O[C@H]2[C@@H]([C@H]([C@@H]([C@H](O2)C)O[C@H]3C[C@@]([C@H]([C@@H](O3)C)O)(C)O)N(C)C)O)CC=O)C)\C)CO[C@H]4[C@@H]([C@@H]([C@@H]([C@H](O4)C)O)OC)OC
#smiles_can CCC1C(C=C(C=CC(=O)C(CC(C(C(C(CC(=O)O1)O)C)OC2C(C(C(C(O2)C)OC3CC(C(C(O3)C)O)(C)O)N(C)C)O)CC=O)C)C)COC4C(C(C(C(O4)C)O)OC)OC
#inchikey WBPYTXDJUQJLPQ-VMXQISHHSA-N
#pubchem_id 5280440
#mb_accession AU105705

>ms2
127.074900 580.000000
132.101500 968.000000
145.085700 728.000000
156.100600 632.000000
174.112600 11204.000000
175.115100 1640.000000
318.191000 380.000000
772.459000 972.000000
916.538200 1016.000000
917.549000 704.000000

