>compound AU41500472
>parentmass 311.1133
>ionization [M+H]+
>formula C13H18ClF3N2O
>rt 322.000000
>profile qtof
#smiles_iso CC(C)(C)NCC(C1=CC(=C(C(=C1)Cl)N)C(F)(F)F)O
#smiles_can CC(C)(C)NCC(C1=CC(=C(C(=C1)Cl)N)C(F)(F)F)O
#inchikey JSJCTEKTBOKRST-UHFFFAOYSA-N
#pubchem_id 3995
#mb_accession AU110201,AU110204,AU110205

>ms2peaks
57.069500 63760.000000
132.068300 14480.000000
168.044700 3656.000000
181.057500 71124.000000
182.063800 12824.000000
190.023400 19628.000000
192.020400 4288.000000
197.028300 23260.000000
199.025800 5020.000000
201.064100 57736.000000
202.071900 150560.000000
203.074600 14416.000000
217.034700 290212.000000
218.037700 26264.000000
219.031800 72684.000000
235.045600 4152.000000
237.041500 698268.000000
238.044500 76284.000000
239.038600 186272.000000
240.041100 9700.000000
293.104600 30972.000000
294.107200 4076.000000
295.101700 9180.000000
311.114600 5788.000000

>ms2peaks
116.049100 664.000000
131.059700 1720.000000
132.067800 11676.000000
133.072900 1220.000000
134.039300 808.000000
135.047700 796.000000
142.052300 596.000000
154.045600 2004.000000
161.050900 2916.000000
162.058300 2784.000000
166.029400 992.000000
168.020900 648.000000
168.044700 2328.000000
170.016200 1824.000000
170.040600 764.000000
172.013100 652.000000
174.051800 2004.000000
181.057000 35352.000000
182.064000 18612.000000
183.068100 1128.000000
185.044200 632.000000
186.051300 576.000000
190.022800 24076.000000
191.027300 1692.000000
192.020400 4544.000000
197.027600 13836.000000
198.030500 1164.000000
199.024500 3464.000000
200.007500 2816.000000
201.063300 19304.000000
202.071300 109632.000000
203.074100 5232.000000
208.013300 752.000000
217.033900 76728.000000
218.037400 4660.000000
219.030900 15048.000000
220.033000 576.000000
237.040100 13216.000000
238.043600 804.000000
239.038200 2924.000000

>ms2peaks
116.048900 1268.000000
117.056400 344.000000
127.035800 1080.000000
131.059700 4792.000000
132.067400 12760.000000
133.073600 1800.000000
134.038900 2232.000000
134.057500 388.000000
135.046700 3456.000000
140.026000 1048.000000
141.041500 608.000000
142.052000 1848.000000
143.056500 544.000000
150.009800 948.000000
151.017300 364.000000
154.045400 6088.000000
155.052900 2372.000000
159.055500 348.000000
161.050100 4948.000000
162.058200 6240.000000
165.038200 936.000000
166.029100 908.000000
166.044900 1100.000000
167.038100 424.000000
168.023700 676.000000
168.044100 2820.000000
169.049600 312.000000
170.016300 4556.000000
170.042100 460.000000
171.020800 464.000000
172.013200 920.000000
174.051600 4356.000000
174.999100 424.000000
175.058300 660.000000
176.007000 480.000000
177.020600 612.000000
181.056700 24456.000000
182.064200 50320.000000
183.068100 2512.000000
184.037700 468.000000
185.043000 924.000000
186.051400 592.000000
187.049600 392.000000
188.007100 880.000000
189.014300 908.000000
190.022300 33588.000000
191.026300 2192.000000
192.019300 6112.000000
197.027300 7540.000000
198.031400 664.000000
199.024400 1856.000000
200.007400 2768.000000
201.062800 9416.000000
202.070700 57944.000000
203.073900 2828.000000
208.013200 912.000000
210.008600 348.000000
216.026000 336.000000
217.033500 9536.000000
218.037000 940.000000
219.030600 2604.000000
237.039400 396.000000

