>compound AU41105539
>parentmass 346.122
>ionization [M+H]+
>formula C17H19N3O3S
>rt 450.000000
>profile qtof
#smiles_iso CC1=CN=C(C(=C1OC)C)CS(=O)C2=NC3=C(N2)C=C(C=C3)OC
#smiles_can CC1=CN=C(C(=C1OC)C)CS(=O)C2=NC3=C(N2)C=C(C=C3)OC
#inchikey SUBDBMMJDZJVOS-UHFFFAOYSA-N
#pubchem_id 4594
#mb_accession AU111301,AU111302,AU111303,AU111304,AU111305

>ms2peaks
149.070200 1812.000000
151.098700 2584.000000
152.101800 344.000000
166.085400 388.000000
168.101700 3184.000000
179.028700 412.000000
180.047700 372.000000
198.058000 33996.000000
199.061100 2084.000000
200.055600 968.000000
346.122100 6324.000000
347.127900 980.000000

>ms2peaks
136.071100 3204.000000
150.085800 868.000000
151.094000 14788.000000
166.081100 496.000000
168.096300 5184.000000
169.099800 396.000000
179.022300 1724.000000
180.041800 2288.000000
181.050500 448.000000
198.052000 28040.000000
199.055300 1812.000000
200.048300 780.000000

>ms2peaks
120.079800 316.000000
121.088400 1416.000000
122.095700 728.000000
134.048000 372.000000
136.075100 14144.000000
137.078700 924.000000
149.070300 2288.000000
150.091500 3184.000000
151.098600 13152.000000
152.102900 1104.000000
165.023500 544.000000
168.101600 2104.000000
179.026700 1696.000000
180.047400 8072.000000
198.058000 12212.000000
199.061500 892.000000
200.058600 340.000000

>ms2peaks
120.081000 976.000000
121.088000 1888.000000
122.095500 892.000000
134.047700 400.000000
136.075200 21140.000000
137.078600 1100.000000
149.070400 1900.000000
150.090400 4508.000000
151.098600 5636.000000
152.015900 604.000000
152.102200 516.000000
165.024100 668.000000
166.030900 420.000000
166.086100 368.000000
168.100700 992.000000
179.027400 1416.000000
180.047200 8104.000000
181.054800 2304.000000
182.049300 436.000000
198.058500 3148.000000

>ms2peaks
120.080400 1504.000000
121.087800 2668.000000
122.095700 1552.000000
134.046500 1124.000000
136.075000 18496.000000
137.078400 968.000000
149.070300 1068.000000
150.090800 6052.000000
151.097700 1900.000000
152.016200 1280.000000
165.024200 1872.000000
166.030100 868.000000
168.101100 412.000000
179.027400 732.000000
180.047300 4688.000000
181.053900 2012.000000
198.057900 376.000000

