>compound AU42448240
>parentmass 349.1771
>ionization [M+H]+
>formula C19H20N6O
>rt 240.000000
>profile qtof
#smiles_iso C1CN=C(N1)C2=CC(=CC=C2)NC(=O)NC3=CC=CC(=C3)C4=NCCN4
#smiles_can C1CN=C(N1)C2=CC(=CC=C2)NC(=O)NC3=CC=CC(=C3)C4=NCCN4
#inchikey SCEVFJUWLLRELN-UHFFFAOYSA-N
#pubchem_id 21389
#mb_accession AU117003

>ms2peaks
162.103400 71444.000000
163.106600 8788.000000
188.082700 124928.000000
189.086000 21032.000000
190.087500 1172.000000
306.137900 9844.000000
307.140600 1444.000000
349.180600 93460.000000
350.184400 24120.000000
351.186200 2560.000000

