>compound AU44170706
>parentmass 319.103
>ionization [M+H]+
>formula C17H19ClN2S
>rt 564.000000
>profile qtof
#smiles_iso CN(C)CCCN1C2=CC=CC=C2SC3=C1C=C(C=C3)Cl
#smiles_can CN(C)CCCN1C2=CC=CC=C2SC3=C1C=C(C=C3)Cl
#inchikey ZPEIMTDSQAKGNT-UHFFFAOYSA-N
#pubchem_id 2726
#mb_accession AU112102,AU112103,AU112104,AU112105

>ms2
246.007500 7032.000000
247.011400 608.000000
248.004700 2048.000000
274.037500 3608.000000
276.035400 1244.000000
319.099900 111196.000000
320.102200 16500.000000

>ms2
211.045500 1012.000000
214.041700 3316.000000
215.047300 596.000000
216.039800 808.000000
233.006600 1788.000000
234.010000 408.000000
235.004300 604.000000
238.069400 464.000000
239.076600 9112.000000
240.080300 1184.000000
241.067300 1136.000000
246.014000 15960.000000
247.017200 2232.000000
248.011100 4628.000000
274.046300 2372.000000
276.043300 696.000000
319.103900 1936.000000
320.098900 444.000000

>ms2
198.037900 724.000000
205.088400 352.000000
206.097100 968.000000
210.036500 476.000000
211.044800 4760.000000
212.049100 592.000000
213.035800 1164.000000
214.041800 13244.000000
215.046600 1660.000000
216.039000 3192.000000
217.042800 588.000000
224.052900 516.000000
233.006100 2840.000000
234.009800 680.000000
235.003900 740.000000
238.068700 884.000000
239.076400 6456.000000
240.077300 612.000000
241.067800 672.000000
246.014000 9308.000000
247.018200 1144.000000
248.010400 2872.000000
274.047800 400.000000

>ms2
152.061600 576.000000
154.063700 452.000000
166.063100 308.000000
167.072100 804.000000
177.056900 608.000000
178.065300 716.000000
179.071200 532.000000
184.034000 508.000000
198.037700 2800.000000
201.034600 868.000000
204.080500 636.000000
205.090100 524.000000
206.095400 1656.000000
207.102100 564.000000
210.037600 1512.000000
211.044800 8276.000000
212.029400 336.000000
212.049300 1392.000000
214.041600 21980.000000
215.044800 2840.000000
216.039200 4372.000000
217.041500 468.000000
223.045500 332.000000
224.052900 916.000000
233.005900 1572.000000
234.009300 396.000000
235.003800 412.000000
238.068700 1360.000000
239.076300 1944.000000
246.014200 2520.000000
248.010600 864.000000

