>compound AU45777839
>parentmass 309.1822
>ionization [M+H]+
>formula C17H20N6
>rt 213.000000
>profile qtof
#smiles_iso CC1=CC(=C2C=CC=NC2=C1N(C)C)CC3=CN=C(N=C3N)N
#smiles_can CC1=CC(=C2C=CC=NC2=C1N(C)C)CC3=CN=C(N=C3N)N
#inchikey AIOWJIMWVFWROP-UHFFFAOYSA-N
#pubchem_id 9861430
#mb_accession AU117802,AU117803,AU117804,AU117805

>ms2peaks
171.080000 1644.000000
294.152900 15148.000000
295.157300 2368.000000
307.160800 4052.000000
309.176600 285300.000000
310.181200 35664.000000

>ms2peaks
155.070200 600.000000
171.081800 21532.000000
172.086100 2968.000000
173.094700 452.000000
184.090100 596.000000
185.098100 1200.000000
187.113700 2504.000000
234.093500 416.000000
248.084100 604.000000
260.096100 412.000000
262.099700 3764.000000
263.104300 668.000000
264.114200 876.000000
265.124500 1388.000000
266.130300 30480.000000
267.133700 3068.000000
276.114500 4004.000000
277.122600 20692.000000
278.125100 3104.000000
279.129800 15112.000000
280.133700 2100.000000
292.136300 1944.000000
294.153300 57024.000000
295.157200 5932.000000
296.155900 428.000000
307.160500 21796.000000
308.164500 3440.000000
309.176400 77128.000000
310.180200 9124.000000

>ms2peaks
135.064200 352.000000
143.070900 776.000000
144.078500 1676.000000
154.055200 1616.000000
155.063200 2244.000000
156.070700 1116.000000
157.078100 664.000000
158.093800 820.000000
167.069800 312.000000
169.066500 1020.000000
170.073400 1604.000000
171.082500 17992.000000
172.086200 3044.000000
180.071500 360.000000
182.074100 352.000000
183.081800 1432.000000
184.090000 896.000000
185.097700 3208.000000
187.112600 936.000000
193.073100 404.000000
195.082400 300.000000
206.074300 584.000000
207.082500 1188.000000
208.090000 404.000000
217.067700 664.000000
218.075400 1252.000000
219.082600 636.000000
220.077500 2088.000000
221.083600 576.000000
222.098700 372.000000
224.110000 908.000000
232.079000 448.000000
233.086400 588.000000
234.094500 1236.000000
235.098400 1200.000000
236.097500 336.000000
237.105500 2036.000000
238.108300 444.000000
245.074900 352.000000
247.089600 612.000000
248.085200 2332.000000
249.103000 1548.000000
250.102800 1368.000000
251.114200 568.000000
252.115400 344.000000
259.089400 892.000000
260.095300 1384.000000
261.102000 1232.000000
262.099300 14128.000000
263.103200 2460.000000
264.113800 2200.000000
265.122700 4792.000000
266.130800 56404.000000
267.133500 6168.000000
268.138300 476.000000
275.107300 412.000000
277.122100 14700.000000
278.126700 2524.000000
279.129800 43516.000000
280.133800 5240.000000
281.130700 384.000000
290.128000 320.000000
291.126700 2008.000000
292.137900 4044.000000
294.146800 8524.000000
295.150200 980.000000
307.162000 6964.000000
308.164900 1372.000000
309.178000 2192.000000

>ms2peaks
123.064600 3456.000000
142.059000 676.000000
143.066500 1600.000000
144.074100 3284.000000
145.078100 396.000000
154.054600 4784.000000
155.061700 1896.000000
156.070200 2492.000000
157.078100 2408.000000
158.085300 2032.000000
159.090400 416.000000
166.054200 372.000000
167.062700 940.000000
168.069500 568.000000
169.073000 1836.000000
170.072600 1820.000000
171.081500 7380.000000
172.088800 948.000000
179.050500 308.000000
180.070900 1188.000000
181.078600 716.000000
182.081300 604.000000
183.081700 2276.000000
184.088200 1100.000000
185.096900 2588.000000
186.100400 716.000000
192.057900 1232.000000
193.065800 3056.000000
194.072600 568.000000
195.081300 1548.000000
196.084500 512.000000
196.089500 468.000000
197.098500 348.000000
205.066600 1276.000000
206.074800 1588.000000
207.081700 4216.000000
208.087200 724.000000
209.090900 408.000000
209.097100 368.000000
210.099900 996.000000
217.066900 1176.000000
218.075000 1184.000000
219.070100 772.000000
220.077900 8320.000000
221.081800 1344.000000
222.091700 936.000000
223.101400 940.000000
224.110000 3824.000000
225.114400 520.000000
232.078600 1624.000000
233.084700 884.000000
234.094200 4316.000000
235.094000 1904.000000
236.090300 712.000000
236.104500 548.000000
237.104800 6908.000000
238.107900 804.000000
245.074100 1588.000000
246.078800 488.000000
247.088400 1072.000000
248.084600 4380.000000
249.103400 4056.000000
250.101000 2932.000000
251.119800 1488.000000
252.114300 552.000000
259.089100 3100.000000
260.095800 1240.000000
261.092700 2316.000000
262.099700 12688.000000
263.103400 3096.000000
264.113800 4220.000000
265.123400 3888.000000
266.130600 23904.000000
267.134400 2888.000000
274.098800 696.000000
275.106100 528.000000
276.114800 13636.000000
277.118700 3280.000000
278.123300 1188.000000
279.131600 17060.000000
291.131200 2188.000000
292.139200 1228.000000
293.145500 7524.000000
294.149200 1344.000000
307.163000 416.000000

