>compound AU47450940
>parentmass 249.0692
>ionization [M+H]+
>formula C12H12N2O2S
>rt 252.000000
>profile qtof
#smiles_iso C1=CC(=CC=C1N)S(=O)(=O)C2=CC=C(C=C2)N
#smiles_can C1=CC(=CC=C1N)S(=O)(=O)C2=CC=C(C=C2)N
#inchikey MQJKPEGWNLWLTK-UHFFFAOYSA-N
#pubchem_id 2955
#mb_accession AU102401

>ms2
53.038200 1080.000000
54.033400 1088.000000
55.017700 876.000000
60.055500 1532.000000
65.038100 16168.000000
66.041600 976.000000
68.048900 25832.000000
69.032800 2296.000000
74.095000 760.000000
78.033300 2364.000000
79.017700 4320.000000
80.049500 2092.000000
82.029000 728.000000
92.049700 33124.000000
93.057300 18160.000000
94.060500 1336.000000
96.044200 3516.000000
108.046400 45412.000000
109.048900 4180.000000
110.061000 11692.000000
111.063800 708.000000
120.055900 5440.000000
156.011600 121572.000000
157.014300 12084.000000
158.007600 5236.000000
249.070400 34296.000000
250.072100 4492.000000
251.067200 1288.000000

