>compound AU47073875
>parentmass 268.075
>ionization [M+H]+
>formula C11H13N3O3S
>rt 288.000000
>profile qtof
#smiles_iso CC1=C(OC(=N1)NS(=O)(=O)C2=CC=C(C=C2)N)C
#smiles_can CC1=C(OC(=N1)NS(=O)(=O)C2=CC=C(C=C2)N)C
#inchikey CYFLXLSBHQBMFT-UHFFFAOYSA-N
#pubchem_id 12894
#mb_accession AU101902

>ms2peaks
53.037900 556.000000
54.033800 828.000000
55.017400 3796.000000
58.064600 508.000000
65.038100 4452.000000
66.040700 424.000000
67.016900 396.000000
68.049000 11748.000000
69.033000 1164.000000
71.060400 3576.000000
72.043900 976.000000
78.034300 972.000000
79.017300 1040.000000
80.050400 480.000000
86.060100 1164.000000
92.049800 9272.000000
93.053700 424.000000
96.045200 2064.000000
99.044900 5440.000000
108.045900 11868.000000
109.048600 1684.000000
110.061100 5072.000000
113.071800 19176.000000
114.075400 1820.000000
120.055900 3980.000000
140.017200 1512.000000
156.011700 78636.000000
157.014500 6712.000000
158.007500 3588.000000
173.014800 1004.000000
175.018100 568.000000
268.075100 3208.000000

