>compound AU49673652
>parentmass 400.1755
>ionization [M+H]+
>formula C22H25NO6
>rt 375.000000
>profile qtof
#smiles_iso CC(=O)N[C@H]1CCC2=CC(=C(C(=C2C3=CC=C(C(=O)C=C13)OC)OC)OC)OC
#smiles_can CC(=O)NC1CCC2=CC(=C(C(=C2C3=CC=C(C(=O)C=C13)OC)OC)OC)OC
#inchikey IAKHMKGGTNLKSZ-INIZCTEOSA-N
#pubchem_id 6167
#mb_accession AU117102,AU117103,AU117104,AU117105

>ms2peaks
310.111200 3048.000000
313.133800 1724.000000
326.132800 2632.000000
358.158500 11152.000000
359.162600 1880.000000
382.157700 3780.000000
400.167900 325516.000000
401.171400 72840.000000

>ms2peaks
137.057400 524.000000
152.064200 340.000000
181.076000 1164.000000
193.067900 312.000000
203.086900 412.000000
205.076800 384.000000
207.092600 424.000000
219.092900 644.000000
220.089900 308.000000
222.103900 312.000000
234.104200 3064.000000
235.110500 420.000000
238.090200 408.000000
239.098100 380.000000
240.100900 312.000000
242.086000 520.000000
245.095800 412.000000
249.081900 612.000000
250.088200 552.000000
251.062100 400.000000
251.096300 648.000000
252.068700 356.000000
252.104200 588.000000
253.075700 456.000000
253.113700 348.000000
254.086000 376.000000
255.090600 436.000000
256.098200 620.000000
257.107900 320.000000
263.087600 308.000000
264.092900 340.000000
266.083200 684.000000
266.108200 364.000000
267.092100 2272.000000
268.099200 1424.000000
270.081400 672.000000
270.113800 732.000000
271.086700 424.000000
271.123000 424.000000
273.101500 584.000000
276.116700 332.000000
278.083600 2668.000000
279.055400 388.000000
279.091300 1016.000000
280.096000 872.000000
281.108100 3120.000000
282.115200 14436.000000
283.120400 3260.000000
284.094900 824.000000
284.122300 788.000000
285.102400 5404.000000
285.130300 440.000000
287.080400 628.000000
287.114900 592.000000
292.098300 440.000000
294.078800 1628.000000
294.101500 900.000000
296.087500 1112.000000
296.116300 808.000000
298.075900 572.000000
298.110400 4084.000000
298.133500 2704.000000
299.116800 2812.000000
300.087100 436.000000
300.118900 1172.000000
301.097300 384.000000
301.124600 700.000000
302.103500 1200.000000
302.132300 300.000000
303.109900 356.000000
307.108900 572.000000
308.091300 360.000000
308.116600 936.000000
309.128300 856.000000
310.109300 20240.000000
311.110000 4432.000000
312.113600 1264.000000
313.096700 2180.000000
313.133800 5524.000000
314.133600 1648.000000
315.113900 588.000000
315.140600 344.000000
316.145000 1700.000000
317.150200 460.000000
322.133800 396.000000
323.116700 668.000000
323.141900 416.000000
324.118100 1208.000000
325.125800 1572.000000
326.121400 10876.000000
327.108800 1440.000000
328.108800 2100.000000
329.113600 1044.000000
330.122900 1052.000000
330.163600 700.000000
331.162000 320.000000
336.116400 372.000000
339.139800 1448.000000
341.127700 15700.000000
342.128500 3536.000000
343.126700 2636.000000
344.133400 468.000000
350.133900 512.000000
351.139700 484.000000
352.112000 568.000000
354.163800 1024.000000
356.142300 328.000000
357.140000 832.000000
358.157800 35812.000000
359.155200 6144.000000
360.160000 688.000000
367.134300 2464.000000
368.132400 1164.000000
369.149800 304.000000
382.158300 6352.000000
383.162200 1700.000000
400.168500 59032.000000
401.171800 11828.000000

>ms2peaks
137.057500 928.000000
145.058600 308.000000
150.048000 372.000000
151.072800 324.000000
152.064600 632.000000
160.070000 364.000000
161.050000 428.000000
165.071800 732.000000
176.065200 696.000000
177.045000 512.000000
178.071500 308.000000
179.061100 424.000000
181.056200 348.000000
181.076500 2164.000000
182.081500 312.000000
188.074000 312.000000
190.079900 376.000000
191.061300 420.000000
193.066800 520.000000
195.073500 612.000000
203.086600 784.000000
204.057800 424.000000
205.076100 372.000000
207.073100 528.000000
207.093000 1440.000000
208.080900 432.000000
209.086000 332.000000
211.067000 448.000000
212.073900 308.000000
213.079900 336.000000
218.070500 312.000000
219.082500 544.000000
220.088000 624.000000
221.088900 328.000000
222.103900 432.000000
223.066700 868.000000
224.074400 848.000000
225.082400 1012.000000
226.054100 304.000000
226.090600 668.000000
227.062100 808.000000
227.097200 376.000000
234.059300 308.000000
234.105200 1328.000000
235.066500 1556.000000
235.109900 420.000000
236.073900 836.000000
237.086800 1040.000000
238.089500 656.000000
239.060300 552.000000
239.098600 1736.000000
240.069200 628.000000
240.104100 704.000000
241.077000 1276.000000
242.085700 2076.000000
243.056700 388.000000
243.089400 356.000000
247.066800 472.000000
248.075400 528.000000
249.081400 848.000000
250.089300 1576.000000
251.061800 1760.000000
251.097600 1836.000000
252.069000 1668.000000
252.103400 1236.000000
253.076300 1044.000000
253.108400 432.000000
254.083800 1104.000000
255.057600 1272.000000
255.093000 1732.000000
256.063600 352.000000
256.098300 868.000000
257.072500 508.000000
257.109500 464.000000
258.079400 668.000000
258.110200 392.000000
259.086900 320.000000
263.060600 1156.000000
263.084400 428.000000
264.063200 580.000000
264.090900 708.000000
265.076600 1596.000000
265.102000 832.000000
266.083800 2356.000000
266.107700 1056.000000
268.063800 532.000000
268.095800 3624.000000
268.120400 356.000000
269.070800 1000.000000
269.103600 852.000000
270.080400 2372.000000
270.113700 632.000000
271.085200 1032.000000
271.113300 332.000000
272.095200 592.000000
272.118200 356.000000
273.101900 668.000000
276.068400 484.000000
277.077200 860.000000
277.098700 592.000000
278.082600 2768.000000
279.057000 1460.000000
279.089900 1992.000000
279.112500 352.000000
280.062300 728.000000
280.090400 1488.000000
281.073200 684.000000
281.107700 3580.000000
282.115000 13324.000000
283.116800 2808.000000
284.092300 2748.000000
284.119000 1012.000000
285.067600 468.000000
285.102600 6432.000000
285.125400 560.000000
286.105100 1712.000000
287.082500 1720.000000
292.088200 716.000000
292.098600 692.000000
295.086500 12404.000000
295.109100 2768.000000
296.058500 408.000000
296.088200 3536.000000
297.101400 1732.000000
297.127200 1120.000000
298.073500 576.000000
298.109700 4300.000000
298.134100 3024.000000
299.114900 2072.000000
300.083800 768.000000
300.114100 3808.000000
301.096600 464.000000
301.120400 1964.000000
302.107500 1096.000000
306.104000 440.000000
307.110600 428.000000
308.093600 716.000000
308.119300 1612.000000
309.102400 2488.000000
310.108900 13128.000000
311.081300 8624.000000
311.109600 3648.000000
312.083600 1488.000000
313.097700 896.000000
313.133000 1784.000000
314.093700 1632.000000
314.129100 1520.000000
315.102600 588.000000
315.133700 548.000000
316.144100 804.000000
320.085900 300.000000
323.115000 428.000000
323.143200 392.000000
324.116900 2968.000000
325.103400 780.000000
326.108900 4724.000000
328.107700 5800.000000
328.135900 376.000000
329.113500 1528.000000
330.124400 596.000000
330.154900 368.000000
336.105000 308.000000
336.117700 452.000000
341.129100 2660.000000
342.126800 3164.000000
343.126000 2004.000000
344.130900 324.000000
350.121700 388.000000
352.112100 740.000000
354.163000 324.000000
358.158300 4520.000000
359.161800 896.000000
366.126800 312.000000
367.134500 700.000000
368.132000 324.000000
382.146500 548.000000
400.167800 820.000000

>ms2peaks
133.048200 960.000000
137.054200 1204.000000
145.059500 364.000000
147.032100 340.000000
148.045300 484.000000
150.048500 732.000000
151.064000 340.000000
152.059300 728.000000
153.063300 332.000000
160.070600 400.000000
161.048800 384.000000
165.065700 684.000000
166.069000 340.000000
167.060400 368.000000
167.078500 364.000000
169.057600 360.000000
173.057500 396.000000
174.056000 324.000000
175.055800 368.000000
176.067500 932.000000
177.052400 624.000000
177.062900 428.000000
178.072000 672.000000
179.061100 656.000000
179.078200 652.000000
181.057700 844.000000
181.075800 1644.000000
182.063900 676.000000
183.073700 488.000000
188.064200 512.000000
189.065000 424.000000
190.079200 884.000000
191.060100 764.000000
191.078900 352.000000
192.057100 596.000000
192.075200 320.000000
193.058000 556.000000
194.065300 768.000000
194.091200 368.000000
195.072800 1364.000000
196.080800 824.000000
197.050100 720.000000
197.087500 660.000000
198.058100 556.000000
199.065900 636.000000
203.086300 532.000000
204.060700 700.000000
204.068800 640.000000
204.081600 380.000000
205.059000 1048.000000
205.076100 348.000000
206.069100 744.000000
207.072600 1804.000000
207.091600 852.000000
208.079100 968.000000
209.050400 700.000000
209.087800 1136.000000
209.108600 324.000000
210.059100 880.000000
211.065600 1612.000000
211.102500 436.000000
212.074500 1348.000000
213.081500 844.000000
216.068100 336.000000
217.060200 404.000000
218.070300 752.000000
219.072900 940.000000
220.049500 340.000000
220.080900 752.000000
221.056800 680.000000
221.088000 768.000000
222.058200 760.000000
222.084800 796.000000
223.066800 3180.000000
224.074700 3588.000000
224.101000 460.000000
225.045700 432.000000
225.081000 1564.000000
226.054000 664.000000
226.088000 1156.000000
227.061400 2872.000000
227.096600 744.000000
228.065500 884.000000
228.092900 300.000000
229.076800 352.000000
232.069500 332.000000
233.051500 656.000000
234.058900 820.000000
234.085200 400.000000
234.103100 452.000000
235.066900 3460.000000
235.092800 332.000000
236.038900 320.000000
236.073700 2012.000000
236.101300 668.000000
237.050400 760.000000
237.083000 3024.000000
237.108100 432.000000
238.052700 488.000000
238.087700 1512.000000
239.061600 1044.000000
239.098400 4032.000000
240.069400 2592.000000
240.099500 1216.000000
241.077400 3600.000000
242.085000 1796.000000
243.056000 904.000000
243.090400 784.000000
244.062600 360.000000
247.066500 796.000000
248.074000 1232.000000
249.045400 396.000000
249.082000 1212.000000
250.052300 832.000000
250.086200 2016.000000
251.062100 5288.000000
251.097800 2340.000000
252.069000 4988.000000
252.095700 1724.000000
253.040700 836.000000
253.074700 2300.000000
253.102400 648.000000
254.046800 464.000000
254.079800 1620.000000
254.105300 412.000000
255.056700 2564.000000
255.093100 2960.000000
256.061400 1288.000000
256.094500 1256.000000
257.071300 584.000000
257.105500 336.000000
258.104200 344.000000
259.087500 404.000000
262.076600 460.000000
263.059500 2052.000000
263.084500 604.000000
264.066600 1624.000000
264.093500 1188.000000
265.038500 492.000000
265.076400 3292.000000
266.082300 2556.000000
266.110100 784.000000
267.092000 16596.000000
268.064000 2200.000000
268.091900 3980.000000
269.071000 2404.000000
269.097600 1272.000000
270.078000 2124.000000
270.107300 776.000000
271.086200 1456.000000
272.061200 320.000000
272.088400 632.000000
272.119400 764.000000
276.068900 400.000000
276.091900 420.000000
277.076100 732.000000
277.100100 448.000000
278.080100 1784.000000
278.107700 444.000000
279.055700 2796.000000
279.089500 1768.000000
280.062100 2088.000000
280.087400 2120.000000
281.072100 1168.000000
281.105300 1436.000000
282.074000 968.000000
282.112100 3352.000000
283.086700 6860.000000
283.113000 1184.000000
284.090300 1776.000000
285.068600 764.000000
285.101700 1924.000000
286.099900 1628.000000
287.082400 2124.000000
287.111300 360.000000
288.086100 488.000000
292.089500 1060.000000
293.071000 1488.000000
293.093100 1232.000000
294.076900 1112.000000
294.101300 2044.000000
296.084200 3536.000000
297.062500 420.000000
297.100400 1920.000000
297.125000 440.000000
298.073100 396.000000
298.107500 1404.000000
298.133400 712.000000
299.080900 576.000000
299.108600 1004.000000
300.082200 680.000000
300.113000 4204.000000
301.118400 1696.000000
302.108000 380.000000
302.122100 364.000000
306.101000 532.000000
308.084800 608.000000
308.118800 792.000000
309.100600 1768.000000
310.072900 364.000000
310.101900 2980.000000
311.085300 5964.000000
312.083700 1120.000000
313.089100 488.000000
313.117700 392.000000
314.091800 992.000000
314.129500 848.000000
315.093900 628.000000
320.086200 336.000000
321.094700 424.000000
322.091300 372.000000
323.109400 376.000000
324.117200 2192.000000
325.101200 784.000000
327.107700 444.000000
327.130500 316.000000
328.109500 1952.000000
329.112600 652.000000
338.134100 312.000000
339.140500 400.000000
340.135700 408.000000
342.118800 1152.000000
343.125100 540.000000

