>compound AU51245766
>parentmass 115.0324
>ionization [M+H]+
>formula C4H6N2S
>rt 162.000000
>profile qtof
#smiles_iso CN1C=CNC1=S
#smiles_can CN1C=CNC1=S
#inchikey PMRYVIKBURPHAH-UHFFFAOYSA-N
#pubchem_id 1349907
#mb_accession AU116601

>ms2peaks
56.049000 5576.000000
57.056800 14448.000000
58.994600 888.000000
69.044100 500.000000
71.059800 632.000000
74.004900 2296.000000
81.043500 336.000000
82.052200 440.000000
83.060200 960.000000
88.021400 2612.000000
100.009100 552.000000
114.023900 396.000000
115.032700 28892.000000
117.028500 1716.000000

