>compound AU52492459
>parentmass 749.5158
>ionization [M+H]+
>formula C38H72N2O12
>rt 372.000000
>profile qtof
#smiles_iso CC[C@@H]1[C@@]([C@@H]([C@H](N(C[C@@H](C[C@@]([C@@H]([C@H]([C@@H]([C@H](C(=O)O1)C)O[C@H]2C[C@@]([C@H]([C@@H](O2)C)O)(C)OC)C)O[C@H]3[C@@H]([C@H](C[C@H](O3)C)N(C)C)O)(C)O)C)C)C)O)(C)O
#smiles_can CCC1C(C(C(N(CC(CC(C(C(C(C(C(=O)O1)C)OC2CC(C(C(O2)C)O)(C)OC)C)OC3C(C(CC(O3)C)N(C)C)O)(C)O)C)C)C)O)(C)O
#inchikey MQTOSJVFKKJCRP-BICOPXKESA-N
#pubchem_id 447043
#mb_accession AU105202

>ms2
55.054100 920.000000
72.080300 2344.000000
83.049000 11444.000000
84.052200 1488.000000
98.095600 656.000000
115.075300 1196.000000
116.070900 1360.000000
116.107100 12728.000000
117.110900 944.000000
127.074800 2676.000000
158.118000 50780.000000
159.120700 4180.000000
176.128000 492.000000
186.149000 2168.000000
398.292400 4028.000000
399.294900 684.000000
416.300200 2024.000000
417.305200 492.000000
434.314300 6136.000000
435.317700 1904.000000
457.328100 640.000000
573.415300 14900.000000
574.419400 5800.000000
575.423200 948.000000
591.426500 73112.000000
592.428400 22564.000000
593.429200 5308.000000
594.439600 664.000000
731.507200 380.000000
731.524900 548.000000
749.523000 54036.000000
750.525300 23716.000000
751.528600 4960.000000
752.532600 808.000000

