>compound AU52839501
>parentmass 640.3844
>ionization [M+H]+
>formula C37H53NO8
>rt 848.000000
>profile qtof
#smiles_iso C[C@@H]\1C/C(=C/C[C@@H]2C[C@@H](C[C@@]3(O2)C/C(=N\OC)/[C@@H]([C@H](O3)/C(=C/C(C)C)/C)C)OC(=O)[C@@H]4C=C([C@H]([C@@H]5[C@]4(/C(=C/C=C1)/CO5)O)O)C)/C
#smiles_can CC1CC(=CCC2CC(CC3(O2)CC(=NOC)C(C(O3)C(=CC(C)C)C)C)OC(=O)C4C=C(C(C5C4(C(=CC=C1)CO5)O)O)C)C
#inchikey YZBLFMPOMVTDJY-LSGXYNIPSA-N
#pubchem_id 9832912
#mb_accession AU114401,AU114402,AU114403

>ms2peaks
196.165100 548.000000
478.246900 480.000000
496.257500 928.000000
497.259500 416.000000
498.269400 1000.000000
499.276500 368.000000
510.272700 304.000000
528.283500 2524.000000
529.288600 832.000000
640.380500 668.000000

>ms2peaks
164.138800 300.000000
166.153200 468.000000
196.163700 572.000000
199.105000 1280.000000
200.107200 352.000000
416.250100 900.000000
417.257200 328.000000
418.264000 384.000000
434.261900 440.000000
448.275700 552.000000
478.245200 656.000000
496.256600 824.000000
497.267600 588.000000
498.272300 1292.000000
499.273800 532.000000
528.281400 968.000000
529.286900 424.000000

>ms2peaks
59.048300 1192.000000
60.055200 2652.000000
99.044300 1688.000000
117.091200 596.000000
122.096100 308.000000
123.117900 380.000000
131.085000 388.000000
133.086300 976.000000
145.064200 968.000000
150.091400 400.000000
159.082900 312.000000
159.115000 412.000000
161.115600 360.000000
164.142800 568.000000
165.151000 300.000000
166.159000 936.000000
171.116600 776.000000
175.133300 488.000000
176.136000 300.000000
177.109800 572.000000
199.112300 3200.000000
200.115800 544.000000
204.139100 304.000000
215.106300 332.000000
217.122600 332.000000
218.154100 1508.000000
219.162200 740.000000
283.264600 2132.000000
284.269400 472.000000
311.294300 1012.000000
337.277200 520.000000
338.281100 392.000000
339.290000 744.000000
341.305600 1004.000000
416.262500 608.000000
417.264300 308.000000
418.275700 420.000000
436.283000 440.000000
448.296200 376.000000
478.250300 392.000000
478.265400 476.000000
496.278300 328.000000
498.291400 500.000000

