>compound AU55620611
>parentmass 152.0706
>ionization [M+H]+
>formula C8H9NO2
>rt 216.000000
>profile qtof
#smiles_iso CC(=O)NC1=CC=C(C=C1)O
#smiles_can CC(=O)NC1=CC=C(C=C1)O
#inchikey RZVAJINKPMORJF-UHFFFAOYSA-N
#pubchem_id 1983
#mb_accession AU112601

>ms2
59.048900 3228.000000
65.038900 8696.000000
66.042700 564.000000
67.055000 1004.000000
70.065900 432.000000
73.076200 592.000000
82.065800 2092.000000
92.049800 4836.000000
93.035500 832.000000
93.056900 560.000000
109.052300 448.000000
110.062200 30696.000000
111.045200 8516.000000
111.064700 3400.000000
112.047600 464.000000
121.040800 804.000000
134.061100 4480.000000
136.076200 368.000000
152.071600 65236.000000
154.078100 464.000000

