>compound AU59278049
>parentmass 255.1016
>ionization [M+H]+
>formula C16H14O3
>rt 504.000000
>profile qtof
#smiles_iso CC(C1=CC(=CC=C1)C(=O)C2=CC=CC=C2)C(=O)O
#smiles_can CC(C1=CC(=CC=C1)C(=O)C2=CC=CC=C2)C(=O)O
#inchikey DKYWVDODHFEZIM-UHFFFAOYSA-N
#pubchem_id 3825
#mb_accession AU115001,AU115002,AU115003

>ms2
209.093000 4324.000000
210.091700 924.000000
255.097800 9104.000000
256.100300 1496.000000

>ms2
177.052600 1036.000000
194.069000 352.000000
209.092700 6972.000000
210.095900 1172.000000
255.098100 484.000000

>ms2
131.046600 524.000000
177.051800 1100.000000
194.068800 612.000000
209.092300 1176.000000

