>compound AU60105795
>parentmass 418.3064
>ionization [M+H]+
>formula C24H39N3O3
>rt 795.000000
>profile qtof
#smiles_iso CCN(CCCC(=O)N1CCC(CC1)C(=O)N(C)C)[C@@H](C)CC2=CC=C(C=C2)OC
#smiles_can CCN(CCCC(=O)N1CCC(CC1)C(=O)N(C)C)C(C)CC2=CC=C(C=C2)OC
#inchikey FUWZBLSXACKFQX-IBGZPJMESA-N
#pubchem_id 10341921
#mb_accession AU108504,AU108505

>ms2
222.040200 592.000000
242.174300 604.000000
250.070500 900.000000

>ms2
148.037700 1012.000000
160.038800 796.000000
176.033300 1288.000000
203.021000 644.000000
204.028700 6016.000000
205.031700 768.000000
206.045200 1356.000000
221.032000 1184.000000
222.039200 11812.000000
223.042700 1148.000000
232.060100 2048.000000
233.062400 392.000000
234.039000 588.000000
234.077000 480.000000
242.178000 400.000000
250.071100 5976.000000
251.074800 1080.000000
391.231300 404.000000

