>compound AU60506642
>parentmass 221.11070000000004
>ionization [M+H]+
>formula C12H16N2S
>rt 278.000000
>profile qtof
#smiles_iso CC1=C(SC=C1)/C=C/C2=NCCCN2C
#smiles_can CC1=C(SC=C1)C=CC2=NCCCN2C
#inchikey NVEPPWDVLBMNMB-SNAWJCMRSA-N
#pubchem_id 5353792
#mb_accession AU113801,AU113804,AU113805

>ms2
69.044200 14248.000000
70.064500 28532.000000
72.080100 36260.000000
111.027500 99036.000000
111.092800 10436.000000
112.029500 7400.000000
123.026600 32360.000000
136.100000 7484.000000
149.029100 9324.000000
150.037000 55552.000000
164.052900 107452.000000
165.055800 9956.000000
173.107000 13392.000000
187.122900 17308.000000
188.130800 36468.000000
189.135600 6148.000000
205.079200 13320.000000
206.087200 12068.000000
221.111800 1092396.000000
222.114100 156232.000000
223.107500 54252.000000

>ms2
111.022600 600.000000
117.050000 1912.000000
118.058000 524.000000
121.005200 624.000000
122.000200 328.000000
122.013100 1388.000000
123.020800 27088.000000
124.024700 1560.000000
125.015900 692.000000
130.058200 444.000000
131.065200 988.000000
133.005600 564.000000
134.012600 852.000000
135.007800 352.000000
135.021200 688.000000
136.093400 896.000000
137.036800 468.000000
138.032300 1144.000000
145.069500 488.000000
148.015900 708.000000
150.031500 23176.000000
151.018500 388.000000
151.035300 1280.000000
152.023500 540.000000
159.088800 668.000000
160.092800 324.000000
161.011700 300.000000
161.104200 328.000000
163.026400 500.000000
163.034600 696.000000
164.046800 24032.000000
165.050400 1980.000000
166.039500 788.000000
173.100300 3704.000000
174.103600 436.000000
177.042300 640.000000
187.119600 2264.000000
188.127900 1808.000000
189.128700 596.000000
191.055900 756.000000
192.061900 324.000000
193.076100 356.000000
205.075800 2376.000000
206.077800 760.000000
221.106800 13736.000000
222.110500 1876.000000

>ms2
116.048300 336.000000
117.050100 2208.000000
118.057200 712.000000
121.005700 1376.000000
121.070300 324.000000
122.001300 836.000000
122.013200 3992.000000
123.020800 20392.000000
124.025000 1232.000000
125.016600 760.000000
130.056900 1396.000000
131.053500 308.000000
131.065400 796.000000
133.005400 484.000000
134.001700 368.000000
134.013600 716.000000
135.008000 972.000000
135.021400 380.000000
136.016400 388.000000
136.093900 332.000000
138.031400 728.000000
145.074500 356.000000
148.016200 1508.000000
150.032600 7324.000000
151.016600 500.000000
151.033400 524.000000
152.027200 340.000000
159.089800 544.000000
161.010800 632.000000
161.100000 356.000000
162.031400 424.000000
163.034700 528.000000
164.046900 5608.000000
165.048400 404.000000
166.041800 324.000000
173.105100 1144.000000
177.042300 836.000000
187.119900 792.000000
189.135000 312.000000
205.076200 544.000000
221.107700 668.000000

