>compound AU61933188
>parentmass 278.0603
>ionization [M+H]+
>formula C12H9ClFN5
>rt 396.000000
>profile qtof
#smiles_iso C1=CC(=C(C(=C1)Cl)CN2C=NC3=C(N=CN=C32)N)F
#smiles_can C1=CC(=C(C(=C1)Cl)CN2C=NC3=C(N=CN=C32)N)F
#inchikey NAPNOSFRRMHNBJ-UHFFFAOYSA-N
#pubchem_id 41574
#mb_accession AU108201,AU108202,AU108203,AU108204,AU108205

>ms2
143.005500 656.000000
278.060400 97980.000000
279.062900 8472.000000
280.057400 21672.000000
281.061800 1748.000000

>ms2
143.005300 36116.000000
144.008500 2308.000000
145.002200 9472.000000
278.060900 99592.000000
279.063300 9904.000000
280.057900 21548.000000
281.060200 1192.000000

>ms2
143.005200 129904.000000
144.008600 6812.000000
145.002400 26084.000000
278.061000 9272.000000
279.063100 1260.000000
280.057900 2396.000000

>ms2
116.989900 716.000000
143.005400 131076.000000
144.009000 4844.000000
145.002500 26964.000000

>ms2
116.990300 2108.000000
118.986800 608.000000
122.999000 644.000000
143.004900 87848.000000
144.008800 3804.000000
146.005400 516.000000

