>compound AU62089534
>parentmass 358.1561
>ionization [M+H]+
>formula C19H20FN3O3
>rt 282.000000
>profile qtof
#smiles_iso CN1C[C@@H]2C[C@H]1CN2C3=C(C=C4C(=C3)N(C=C(C4=O)C(=O)O)C5CC5)F
#smiles_can CN1CC2CC1CN2C3=C(C=C4C(=C3)N(C=C(C4=O)C(=O)O)C5CC5)F
#inchikey QMLVECGLEOSESV-RYUDHWBXSA-N
#pubchem_id 71335
#mb_accession AU102701,AU102704,AU102705

>ms2
82.065100 2484.000000
245.109400 3672.000000
255.057600 3224.000000
261.103600 4356.000000
283.125500 2168.000000
286.100600 1140.000000
314.167300 2388.000000
318.162700 5952.000000
340.147000 25632.000000
341.149400 5136.000000
342.159400 1352.000000
358.158500 227648.000000
359.161100 59812.000000
360.171900 25148.000000
362.152900 3244.000000

>ms2
203.063200 672.000000
204.068000 728.000000
218.049100 588.000000
229.079400 424.000000
231.090600 416.000000
245.108800 2216.000000
255.056300 3820.000000
256.062600 676.000000
257.068200 408.000000
258.068800 352.000000
286.100000 2124.000000
340.145300 5732.000000
341.151900 1144.000000
342.160900 1024.000000
358.156600 21528.000000
359.159200 3032.000000

>ms2
187.066500 340.000000
189.045500 396.000000
202.065900 472.000000
203.061300 760.000000
204.071600 408.000000
205.077400 356.000000
215.024000 964.000000
215.061800 316.000000
217.040600 1224.000000
217.079300 320.000000
218.047600 836.000000
229.075700 472.000000
231.091800 304.000000
240.104100 332.000000
243.056700 884.000000
245.108200 908.000000
254.050200 460.000000
255.056500 7992.000000
256.062300 1796.000000
258.069200 372.000000
271.073200 356.000000
273.066000 444.000000
274.074100 308.000000
286.098600 2104.000000
340.148400 1140.000000
358.156500 2692.000000
359.159800 668.000000

