>compound AU62532521
>parentmass 296.024
>ionization [M+H]+
>formula C14H11Cl2NO2
>rt 612.000000
>profile qtof
#smiles_iso C1=CC=C(C(=C1)CC(=O)O)NC2=C(C=CC=C2Cl)Cl
#smiles_can C1=CC=C(C(=C1)CC(=O)O)NC2=C(C=CC=C2Cl)Cl
#inchikey DCOPUUMXTXDBNB-UHFFFAOYSA-N
#pubchem_id 3033
#mb_accession AU114701,AU114702,AU114703,AU114704,AU114705

>ms2peaks
215.046400 588.000000
250.015200 1600.000000
251.014800 332.000000
252.013900 876.000000
278.009800 1024.000000
280.000600 648.000000
296.019000 1456.000000

>ms2peaks
214.033800 1180.000000
215.048100 5816.000000
216.045900 576.000000
217.045500 880.000000
250.015100 1348.000000
252.006500 744.000000

>ms2peaks
215.046200 4860.000000
216.043400 612.000000
217.043100 792.000000

>ms2peaks
180.070400 380.000000
214.033900 6336.000000
215.037900 1244.000000
216.032200 1476.000000

>ms2peaks
178.056900 584.000000
179.065100 532.000000
180.077500 388.000000
214.033800 9900.000000
215.041500 824.000000
216.031500 2020.000000

