>compound AU62706893
>parentmass 352.042
>ionization [M+H]+
>formula C14H13N3O4S2
>rt 438.000000
>profile qtof
#smiles_iso CC1=CN=C(S1)NC(=O)C2=C(C3=CC=CC=C3S(=O)(=O)N2C)O
#smiles_can CC1=CN=C(S1)NC(=O)C2=C(C3=CC=CC=C3S(=O)(=O)N2C)O
#inchikey ZRVUJXDFFKFLMG-UHFFFAOYSA-N
#pubchem_id 54677470
#mb_accession AU115201,AU115202,AU115203,AU115204,AU115205

>ms2peaks
115.028100 1536.000000
141.006300 948.000000
352.041400 29064.000000
353.044600 3676.000000

>ms2peaks
115.028000 6528.000000
116.029800 520.000000
141.005900 8900.000000
142.007900 668.000000
184.047700 1164.000000
194.020000 488.000000
352.038600 3072.000000

>ms2peaks
115.027500 4700.000000
116.030800 420.000000
141.005600 9772.000000
142.008400 700.000000
152.994000 340.000000
194.019100 564.000000
210.015300 496.000000

>ms2peaks
115.027900 3200.000000
141.005700 6584.000000
152.993600 796.000000
168.987100 312.000000
210.017500 312.000000

>ms2peaks
115.028100 2272.000000
137.001100 316.000000
141.005700 4860.000000
152.994600 452.000000
168.986600 308.000000

