>compound AU67604468
>parentmass 242.11759999999998
>ionization [M+H]+
>formula C15H15NO2
>rt 690.000000
>profile qtof
#smiles_iso CC1=C(C(=CC=C1)NC2=CC=CC=C2C(=O)O)C
#smiles_can CC1=C(C(=CC=C1)NC2=CC=CC=C2C(=O)O)C
#inchikey HYYBABOKPJLUIN-UHFFFAOYSA-N
#pubchem_id 4044
#mb_accession AU115101,AU115102,AU115103,AU115104,AU115105

>ms2peaks
224.105000 2676.000000
225.103100 512.000000
241.108000 908.000000
242.115900 2396.000000

>ms2peaks
209.072800 304.000000
223.095000 1336.000000
224.103200 9324.000000
225.108200 1664.000000

>ms2peaks
180.074100 476.000000
181.079100 348.000000
208.072200 916.000000
209.078900 2516.000000
210.079000 364.000000
222.087700 656.000000
223.091200 528.000000
224.103200 5840.000000
225.102200 956.000000

>ms2peaks
179.069600 308.000000
180.073400 1296.000000
181.078000 364.000000
208.066300 1880.000000
209.079900 3664.000000
210.078600 708.000000
222.082100 424.000000
224.102800 660.000000
225.100600 320.000000

>ms2peaks
152.059200 452.000000
179.069500 776.000000
180.077700 4632.000000
181.078800 1000.000000
208.073000 2664.000000
209.075100 1544.000000

