>compound AU68455733
>parentmass 296.103
>ionization [M+H]+
>formula C16H13N3O3
>rt 488.000000
>profile qtof
#smiles_iso COC(=O)NC1=NC2=C(N1)C=C(C=C2)C(=O)C3=CC=CC=C3
#smiles_can COC(=O)NC1=NC2=C(N1)C=C(C=C2)C(=O)C3=CC=CC=C3
#inchikey OPXLLQIJSORQAM-UHFFFAOYSA-N
#pubchem_id 4030
#mb_accession AU106401,AU106402,AU106403,AU106404,AU106405,AU116401

>ms2
264.076800 972.000000
296.103000 26828.000000
297.106300 3464.000000

>ms2
264.076700 29748.000000
265.080600 3600.000000
266.082700 440.000000
296.103100 15232.000000
297.107000 2472.000000

>ms2
186.028600 356.000000
264.076500 57228.000000
265.079800 7816.000000
266.083200 460.000000
296.104500 600.000000

>ms2
159.042900 332.000000
160.051500 480.000000
186.029500 888.000000
236.082600 328.000000
264.077500 23212.000000
265.080400 2952.000000

>ms2
130.038400 716.000000
131.047500 384.000000
159.042400 1072.000000
160.049600 728.000000
166.064400 640.000000
191.034600 332.000000
208.086100 344.000000
264.077700 2948.000000
265.080000 624.000000

>ms2
105.033600 4868.000000
186.030600 2056.000000
264.078000 315336.000000
265.081100 63148.000000
266.084000 5448.000000
296.104500 70420.000000
297.107100 12728.000000

