>compound AU70705778
>parentmass 282.0907
>ionization [M+H]+
>formula C12H15N3O3S
>rt 338.400000
>profile qtof
#smiles_iso CCCS(=O)C1=CC2=C(C=C1)N=C(N2)NC(=O)OC
#smiles_can CCCS(=O)C1=CC2=C(C=C1)N=C(N2)NC(=O)OC
#inchikey VXTGHWHFYNYFFV-UHFFFAOYSA-N
#pubchem_id 83969
#mb_accession AU106001,AU106002,AU106003,AU106004,AU106005

>ms2peaks
191.070800 316.000000
222.034300 784.000000
239.036400 608.000000
240.043600 16568.000000
241.046000 1800.000000
242.040200 688.000000
282.090600 48492.000000
283.094100 5352.000000
284.088000 1376.000000

>ms2peaks
159.042500 1108.000000
160.049800 476.000000
190.006500 2376.000000
192.074900 3400.000000
193.079200 356.000000
204.077300 320.000000
207.010000 1276.000000
208.017200 15580.000000
209.018700 992.000000
210.013200 592.000000
218.092200 340.000000
222.033100 15488.000000
223.038500 1936.000000
224.030700 480.000000
233.115500 500.000000
239.035500 9236.000000
240.043300 43052.000000
241.046000 3324.000000
242.041500 1052.000000
250.064500 1000.000000
265.090300 1416.000000
282.090700 10664.000000
283.093600 1464.000000
284.086400 508.000000

>ms2peaks
133.063500 484.000000
134.070200 300.000000
146.070200 852.000000
159.041800 9344.000000
160.048000 2108.000000
178.042400 608.000000
191.012100 3100.000000
191.068300 16380.000000
192.004800 576.000000
192.074500 2544.000000
193.081900 304.000000
204.076300 492.000000
205.083200 384.000000
207.009600 8556.000000
208.016700 48832.000000
209.020200 2968.000000
210.014200 1152.000000
222.032700 8984.000000
223.039800 2504.000000
224.028400 304.000000
224.042400 396.000000
233.061000 336.000000
239.035700 4708.000000
240.043000 6024.000000
241.048000 664.000000
265.088700 704.000000

>ms2peaks
118.052000 720.000000
119.059800 636.000000
122.005700 1040.000000
129.044900 328.000000
131.047600 1196.000000
132.054300 368.000000
133.063700 872.000000
134.005200 304.000000
134.070100 468.000000
145.063600 380.000000
146.071100 2828.000000
149.016100 784.000000
150.024100 380.000000
159.042300 33140.000000
160.048200 4600.000000
161.017900 376.000000
161.052600 304.000000
163.019200 480.000000
172.051300 616.000000
177.036200 336.000000
178.043500 572.000000
179.026900 344.000000
179.048900 336.000000
180.020900 316.000000
186.066200 300.000000
190.006900 13092.000000
191.014000 12596.000000
191.031200 1536.000000
191.069700 4500.000000
192.015800 836.000000
192.073900 404.000000
207.009600 9212.000000
208.017600 26868.000000
209.020300 2100.000000
210.015300 560.000000
222.034700 912.000000
223.041100 824.000000
239.033300 468.000000

>ms2peaks
118.052300 1044.000000
119.059700 972.000000
122.005100 1800.000000
129.043700 328.000000
131.047200 2968.000000
132.054700 672.000000
133.062400 680.000000
134.069800 336.000000
136.007700 428.000000
146.034900 364.000000
146.070800 3156.000000
147.043000 364.000000
149.016200 704.000000
150.023200 460.000000
159.042000 38664.000000
160.048400 3876.000000
163.020400 996.000000
172.051300 760.000000
177.034400 356.000000
178.043900 308.000000
186.067600 348.000000
190.006500 5836.000000
191.014300 14072.000000
191.032800 3232.000000
192.016200 996.000000
193.009300 372.000000
207.010300 2184.000000
208.017400 5964.000000
209.018200 444.000000

