>compound AU72451573
>parentmass 354.0294
>ionization [M+H]+
>formula C16H13Cl2NO4
>rt 552.000000
>profile qtof
#smiles_iso C1=CC=C(C(=C1)CC(=O)OCC(=O)O)NC2=C(C=CC=C2Cl)Cl
#smiles_can C1=CC=C(C(=C1)CC(=O)OCC(=O)O)NC2=C(C=CC=C2Cl)Cl
#inchikey MNIPYSSQXLZQLJ-UHFFFAOYSA-N
#pubchem_id 71771
#mb_accession AU116101,AU116102,AU116103,AU116104,AU116105

>ms2peaks
250.010400 820.000000
252.007200 368.000000
278.006100 1360.000000
280.004300 728.000000
354.029000 1684.000000

>ms2peaks
214.034400 340.000000
215.042600 2852.000000
216.046800 468.000000
217.039800 616.000000
250.010400 2400.000000
251.012200 388.000000
252.003500 984.000000
278.004900 372.000000

>ms2peaks
214.034900 2184.000000
215.041900 6232.000000
216.030500 496.000000
216.043600 1056.000000
217.039100 1456.000000
250.008800 348.000000

>ms2peaks
215.041100 2868.000000
216.033800 932.000000
217.038800 472.000000

>ms2peaks
214.034000 9028.000000
215.039300 1164.000000
216.032800 1560.000000
217.038100 404.000000

