>compound AU72844111
>parentmass 315.2319
>ionization [M+H]+
>formula C21H30O2
>rt 672.000000
>profile qtof
#smiles_iso CC(=O)[C@H]1CC[C@@H]2[C@@]1(CC[C@H]3[C@H]2CCC4=CC(=O)CC[C@]34C)C
#smiles_can CC(=O)C1CCC2C1(CCC3C2CCC4=CC(=O)CCC34C)C
#inchikey RJKFOVLPORLFTN-LEKSSAKUSA-N
#pubchem_id 5994
#mb_accession AU107701

>ms2
55.016800 644.000000
60.055000 3540.000000
67.053800 2984.000000
69.032500 864.000000
69.069200 2036.000000
71.048600 1780.000000
79.053600 5808.000000
81.069700 9112.000000
83.048800 7624.000000
85.064800 6900.000000
91.054200 1288.000000
93.069800 3544.000000
95.085600 5776.000000
97.065400 109324.000000
98.068800 8032.000000
105.070000 1400.000000
107.086800 1844.000000
109.066700 56140.000000
110.069200 5168.000000
117.069200 864.000000
119.085500 4256.000000
121.065700 1140.000000
121.101200 3236.000000
122.105100 620.000000
123.080400 13988.000000
124.084100 1296.000000
131.085900 4364.000000
133.101600 4476.000000
134.104000 652.000000
135.079800 664.000000
135.116600 3060.000000
137.095800 3112.000000
137.132500 708.000000
143.085800 1808.000000
145.101300 4956.000000
146.103800 820.000000
147.116800 6300.000000
148.120000 692.000000
149.096700 1688.000000
149.132500 2304.000000
151.111900 1220.000000
155.084000 824.000000
157.101100 2476.000000
159.116800 7948.000000
160.120100 1076.000000
161.095100 676.000000
161.132800 4848.000000
162.136100 808.000000
163.112100 4592.000000
163.147900 1172.000000
164.115000 572.000000
165.127800 632.000000
169.101800 1152.000000
171.116800 4408.000000
172.120900 656.000000
173.132800 7824.000000
174.136800 748.000000
175.111900 1324.000000
175.148700 2392.000000
177.128000 5768.000000
179.143300 680.000000
183.117100 1644.000000
185.132200 2084.000000
187.111300 1100.000000
187.148800 2948.000000
188.153500 604.000000
189.127200 2840.000000
189.163400 1560.000000
191.143900 2692.000000
192.147700 588.000000
195.117400 908.000000
197.132400 1588.000000
199.147700 1880.000000
201.129200 796.000000
201.164300 4044.000000
202.166800 776.000000
203.142500 1640.000000
205.159900 812.000000
207.173100 680.000000
209.131600 1000.000000
211.149000 944.000000
213.126700 660.000000
213.164400 3608.000000
214.168900 932.000000
215.143600 1636.000000
215.181000 3420.000000
216.186200 900.000000
217.159400 776.000000
219.175500 1400.000000
223.148300 1848.000000
224.151900 1140.000000
225.163700 632.000000
227.145800 656.000000
227.180600 2440.000000
229.159200 2048.000000
231.174500 1696.000000
233.190200 2032.000000
237.164700 1576.000000
239.179500 6476.000000
240.185700 900.000000
241.159800 1820.000000
245.191500 2140.000000
251.180700 1040.000000
253.195400 1776.000000
254.200700 756.000000
255.176000 1080.000000
255.211500 7952.000000
256.213500 1876.000000
257.191100 2332.000000
269.191600 896.000000
269.229400 576.000000
271.207200 1376.000000
273.222900 4780.000000
274.227300 1124.000000
279.211400 8416.000000
280.215700 1728.000000
297.223000 26340.000000
298.225600 5464.000000
299.230900 672.000000
315.233700 98424.000000
316.237000 25628.000000
317.240300 2056.000000

