>compound AU76936575
>parentmass 254.1149
>ionization [M+H]+
>formula C12H11N7
>rt 282.000000
>profile qtof
#smiles_iso C1=CC=C(C=C1)C2=NC3=C(N=C(N=C3N=C2N)N)N
#smiles_can C1=CC=C(C=C1)C2=NC3=C(N=C(N=C3N=C2N)N)N
#inchikey FNYLWPVRPXGIIP-UHFFFAOYSA-N
#pubchem_id 5546
#mb_accession AU110903,AU110904,AU110905

>ms2
143.059800 4488.000000
168.054900 6684.000000
227.103900 7476.000000
237.088100 291148.000000
238.091200 28944.000000
254.114600 493888.000000
255.116800 47984.000000

>ms2
116.049400 6352.000000
131.059900 2044.000000
134.045400 1408.000000
142.051200 3380.000000
143.059800 32224.000000
144.063100 2324.000000
168.055200 63308.000000
169.059200 4408.000000
183.066200 7912.000000
186.066200 1960.000000
193.051000 4456.000000
195.066300 73812.000000
196.069400 5688.000000
210.077300 33496.000000
211.081600 2796.000000
212.092900 19228.000000
213.076200 3132.000000
213.096300 1924.000000
227.103900 6168.000000
237.088300 231612.000000
238.091100 21364.000000
254.115100 50012.000000
255.118100 4328.000000

>ms2
114.033600 844.000000
116.049100 16196.000000
117.054000 1396.000000
128.036000 1088.000000
129.044500 2224.000000
131.059800 5736.000000
141.044000 81892.000000
142.050400 12520.000000
143.059700 26588.000000
144.063000 1528.000000
153.044800 1984.000000
156.055200 740.000000
158.071200 452.000000
159.054700 728.000000
166.038900 2308.000000
167.048100 780.000000
168.055000 59960.000000
169.059200 4752.000000
170.068300 480.000000
171.055900 492.000000
183.066200 8716.000000
184.050200 664.000000
184.071500 972.000000
185.082300 4256.000000
186.066000 1064.000000
193.051000 7568.000000
195.066300 31276.000000
196.069900 2252.000000
210.077000 15180.000000
211.081000 1540.000000
212.093100 3300.000000
213.076300 580.000000
213.097600 660.000000
220.061200 5012.000000
221.066000 480.000000
227.103200 612.000000
237.088500 22392.000000
238.072500 628.000000
238.091400 2536.000000
254.115600 1532.000000

