>compound AU76653869
>parentmass 281.0703
>ionization [M+H]+
>formula C11H12N4O3S
>rt 252.000000
>profile qtof
#smiles_iso COC1=CN=C(N=C1)NS(=O)(=O)C2=CC=C(C=C2)N
#smiles_can COC1=CN=C(N=C1)NS(=O)(=O)C2=CC=C(C=C2)N
#inchikey GPTONYMQFTZPKC-UHFFFAOYSA-N
#pubchem_id 5326
#mb_accession AU102501

>ms2
53.038600 856.000000
54.033400 976.000000
55.017300 1184.000000
65.038100 8424.000000
66.042100 564.000000
68.049000 15708.000000
69.032600 1256.000000
69.044000 564.000000
78.033800 1364.000000
79.017800 2160.000000
80.049800 908.000000
82.039900 692.000000
92.049900 29052.000000
93.057500 10744.000000
94.065400 8152.000000
95.068800 684.000000
96.044900 1576.000000
108.046500 34744.000000
109.049200 2576.000000
110.034900 984.000000
110.061500 9392.000000
111.064500 728.000000
120.056700 3020.000000
124.050400 3780.000000
125.058500 7556.000000
126.066400 69756.000000
127.069500 3964.000000
149.022900 808.000000
156.011600 111388.000000
157.015000 8868.000000
157.064500 1096.000000
158.007300 5588.000000
172.074500 5312.000000
174.021800 2688.000000
185.058900 1668.000000
188.012800 6052.000000
200.070000 4896.000000
201.073800 796.000000
206.023900 31952.000000
207.025700 1192.000000
208.023300 956.000000
215.093600 65968.000000
216.097100 7776.000000
217.108700 5384.000000
218.111100 600.000000
281.071900 71396.000000
282.074000 10244.000000
283.068400 2272.000000

