>compound AU80731809
>parentmass 524.0363
>ionization [M+H]+
>formula C19H17N5O7S3
>rt 330.000000
>profile qtof
#smiles_iso CO/N=C(/C1=CSC(=N1)N)\C(=O)N[C@H]2[C@@H]3N(C2=O)C(=C(CS3)CSC(=O)C4=CC=CO4)C(=O)O
#smiles_can CON=C(C1=CSC(=N1)N)C(=O)NC2C3N(C2=O)C(=C(CS3)CSC(=O)C4=CC=CO4)C(=O)O
#inchikey ZBHXIWJRIFEVQY-IHMPYVIRSA-N
#pubchem_id 6328657
#mb_accession AU105101

>ms2peaks
112.040100 320.000000
125.004200 1200.000000
126.011900 3192.000000
127.020400 668.000000
139.031300 512.000000
140.017200 708.000000
140.999800 608.000000
144.022700 616.000000
152.016000 356.000000
156.023000 3064.000000
166.031200 1676.000000
167.027800 3368.000000
168.011600 312.000000
171.988900 448.000000
174.033600 488.000000
179.000400 332.000000
181.017700 576.000000
182.024600 648.000000
183.033400 520.000000
197.050300 2812.000000
199.994600 432.000000
201.045300 452.000000
202.027700 492.000000
208.993900 316.000000
209.013600 1644.000000
210.020700 4136.000000
211.020700 2296.000000
211.994100 540.000000
213.047400 464.000000
225.045400 432.000000
225.994900 376.000000
226.002300 656.000000
227.006200 1828.000000
241.040300 5920.000000
242.042300 888.000000
243.040600 360.000000
244.067100 360.000000
253.992000 332.000000
257.018500 1352.000000
258.023900 468.000000
259.013800 320.000000
277.022800 628.000000
278.025600 308.000000
284.005100 1008.000000
285.012200 2604.000000
286.012000 396.000000
293.039700 480.000000
324.059200 1132.000000
368.048700 392.000000
524.038700 640.000000
526.042900 364.000000

