>compound AU81941303
>parentmass 418.25879999999995
>ionization [M+H]+
>formula C24H35NO5
>rt 804.000000
>profile qtof
#smiles_iso CCCCCCCCCCOC1=C(C=C2C(=C1)C(=O)C(=CN2)C(=O)OCC)OCC
#smiles_can CCCCCCCCCCOC1=C(C=C2C(=C1)C(=O)C(=CN2)C(=O)OCC)OCC
#inchikey JHAYEQICABJSTP-UHFFFAOYSA-N
#pubchem_id 29112
#mb_accession AU108701,AU108702,AU108703,AU108704,AU108705

>ms2peaks
242.173800 492.000000
390.231400 520.000000
418.259300 90120.000000
419.263400 18864.000000
420.267300 2356.000000

>ms2peaks
372.216800 6364.000000
373.222300 1372.000000
390.228000 33536.000000
391.231900 5712.000000
392.234800 808.000000
418.259400 120588.000000
419.262300 24968.000000
420.265800 2540.000000

>ms2peaks
204.029000 1204.000000
222.040100 1256.000000
232.060600 2332.000000
250.071000 4152.000000
372.217200 41300.000000
373.220400 9464.000000
374.226800 1004.000000
390.228000 166864.000000
391.231200 29792.000000
392.234600 3364.000000
418.259500 9976.000000
419.262400 2612.000000

>ms2peaks
148.038800 912.000000
176.033700 1652.000000
203.021800 1536.000000
204.028800 22896.000000
205.032700 1904.000000
206.044600 7768.000000
207.046900 816.000000
221.033400 1160.000000
222.039400 27104.000000
223.043500 2136.000000
232.060500 31472.000000
233.064000 2708.000000
234.039100 752.000000
234.075800 6204.000000
250.071100 51848.000000
251.075000 4020.000000
252.075700 528.000000
344.186200 2360.000000
345.190600 796.000000
362.197200 3292.000000
363.201300 584.000000
372.217600 35916.000000
373.220400 5728.000000
374.225700 800.000000
390.228400 98612.000000
391.230900 17852.000000
392.233500 1900.000000

>ms2peaks
121.028000 1040.000000
147.030700 904.000000
148.038600 9156.000000
158.023000 1080.000000
160.038500 4604.000000
175.025500 796.000000
176.033100 10480.000000
177.036100 892.000000
194.044000 1028.000000
203.021300 3100.000000
204.028700 89176.000000
205.031700 5752.000000
206.044300 8520.000000
216.028400 1296.000000
221.031200 6800.000000
222.039300 106128.000000
223.042500 7432.000000
224.045800 868.000000
232.060000 28096.000000
233.064100 2824.000000
234.039700 1780.000000
234.076000 1772.000000
250.070800 50480.000000
251.074400 4632.000000
252.076200 616.000000
344.187900 864.000000
362.195900 1480.000000
372.216700 3252.000000
373.221400 800.000000
390.227500 7776.000000
391.231100 2024.000000

