>compound AU85012035
>parentmass 309.1598
>ionization [M+H]+
>formula C19H20N2O2
>rt 279.600000
>profile qtof
#smiles_iso CCCCC1C(=O)N(N(C1=O)C2=CC=CC=C2)C3=CC=CC=C3
#smiles_can CCCCC1C(=O)N(N(C1=O)C2=CC=CC=C2)C3=CC=CC=C3
#inchikey VYMDGNCVAMGZFE-UHFFFAOYSA-N
#pubchem_id 4781
#mb_accession AU115801,AU115802,AU115803,AU115804,AU115805

>ms2peaks
162.126300 316.000000
188.105000 368.000000
190.120800 428.000000
309.155100 26672.000000
310.159000 5996.000000
311.153100 508.000000

>ms2peaks
171.088500 1696.000000
294.148900 14832.000000
295.154200 2060.000000
307.157300 4076.000000

>ms2peaks
123.061600 1496.000000
124.069200 1384.000000
171.082800 21532.000000
172.087700 2968.000000
173.094700 452.000000
184.091400 596.000000
185.099100 1200.000000
187.113700 2504.000000
234.093500 416.000000
248.086400 604.000000
260.096100 412.000000
262.099700 3764.000000
263.104300 668.000000
264.114200 876.000000
265.125100 1388.000000
266.130300 30480.000000
267.133700 3068.000000
276.114500 4004.000000
277.122600 20692.000000
278.125100 3104.000000
279.125600 15112.000000
280.128400 2100.000000
292.133300 1944.000000
294.148500 57024.000000
295.152200 5932.000000
296.155900 428.000000
307.156400 21796.000000
308.154500 3440.000000
309.165800 77128.000000
310.169100 9124.000000

>ms2peaks
123.061900 2952.000000
124.069300 1452.000000
135.061200 352.000000
143.070400 776.000000
155.063200 2244.000000
156.070700 1116.000000
157.078500 664.000000
167.069800 312.000000
169.067500 1020.000000
170.075400 1604.000000
171.083500 17992.000000
172.087700 3044.000000
183.083800 1432.000000
184.091300 896.000000
185.099700 3208.000000
187.114600 936.000000
193.068500 404.000000
195.083500 300.000000
206.074300 584.000000
207.084500 1188.000000
208.090000 404.000000
217.067700 664.000000
218.075400 1252.000000
219.082600 636.000000
220.079200 2088.000000
221.083600 576.000000
222.095300 372.000000
224.110600 908.000000
232.079000 448.000000
233.086900 588.000000
234.095000 1236.000000
235.098400 1200.000000
237.105500 2036.000000
238.108300 444.000000
245.074900 352.000000
247.089600 612.000000
248.085200 2332.000000
249.103000 1548.000000
250.102800 1368.000000
251.114200 568.000000
252.115400 344.000000
259.089400 892.000000
260.095300 1384.000000
261.102000 1232.000000
262.099300 14128.000000
263.103200 2460.000000
264.113800 2200.000000
265.122700 4792.000000
266.130800 56404.000000
267.133500 6168.000000
268.138300 476.000000
275.107300 412.000000
277.122100 14700.000000
278.126700 2524.000000
279.125400 43516.000000
280.128500 5240.000000
281.129700 384.000000
291.126700 2008.000000
292.132900 4044.000000
294.146800 8524.000000
295.150200 980.000000
307.150100 6964.000000
308.154000 1372.000000

>ms2peaks
123.061600 3456.000000
124.071200 596.000000
135.061200 424.000000
142.059000 676.000000
143.066500 1600.000000
144.074100 3284.000000
145.078100 396.000000
154.054600 4784.000000
155.062700 1896.000000
156.070200 2492.000000
157.078100 2408.000000
158.086300 2032.000000
159.089400 416.000000
166.054200 372.000000
167.062700 940.000000
168.070500 568.000000
169.067000 1836.000000
170.074600 1820.000000
171.082500 7380.000000
172.087000 948.000000
179.052500 308.000000
180.070900 1188.000000
181.078600 716.000000
182.080300 604.000000
183.082700 2276.000000
184.091000 1100.000000
185.098900 2588.000000
186.094400 716.000000
192.060000 1232.000000
193.067800 3056.000000
194.072600 568.000000
195.084300 1548.000000
196.084500 512.000000
196.091500 468.000000
197.098500 348.000000
205.068600 1276.000000
206.074800 1588.000000
207.083700 4216.000000
208.087200 724.000000
209.092900 408.000000
209.099100 368.000000
210.094900 996.000000
217.067900 1176.000000
218.075000 1184.000000
219.072100 772.000000
220.078900 8320.000000
221.083800 1344.000000
222.091700 936.000000
223.101400 940.000000
224.110200 3824.000000
225.114400 520.000000
232.078600 1624.000000
233.084700 884.000000
234.094200 4316.000000
235.095500 1904.000000
236.090300 712.000000
236.104500 548.000000
237.104800 6908.000000
238.107900 804.000000
245.074100 1588.000000
246.078800 488.000000
247.088400 1072.000000
248.085600 4380.000000
249.103400 4056.000000
250.101200 2932.000000
251.119800 1488.000000
252.117300 552.000000
259.089100 3100.000000
260.095800 1240.000000
261.092700 2316.000000
262.099700 12688.000000
263.103400 3096.000000
264.113800 4220.000000
265.123400 3888.000000
266.130600 23904.000000
267.134400 2888.000000
274.098800 696.000000
275.106100 528.000000
276.114800 13636.000000
277.118700 3280.000000
278.121300 1188.000000
279.125600 17060.000000
280.126800 2752.000000
291.125200 2188.000000
292.133200 1228.000000
293.140500 7524.000000
294.143800 1344.000000
307.157500 416.000000

