>compound AU86936215
>parentmass 277.0869
>ionization [M+H]+
>formula C12H18Cl2N2O
>rt 294.000000
>profile qtof
#smiles_iso CC(C)(C)NCC(C1=CC(=C(C(=C1)Cl)N)Cl)O
#smiles_can CC(C)(C)NCC(C1=CC(=C(C(=C1)Cl)N)Cl)O
#inchikey STJMRWALKKWQGH-UHFFFAOYSA-N
#pubchem_id 2783
#mb_accession AU109901

>ms2peaks
57.069400 56756.000000
131.060700 48016.000000
132.068400 197260.000000
133.072000 14876.000000
140.026100 7452.000000
151.018600 6752.000000
167.037500 86116.000000
168.045200 172428.000000
169.034700 18248.000000
169.047700 9504.000000
170.042200 36104.000000
185.987900 11580.000000
187.985200 5976.000000
203.014700 474260.000000
204.017800 47696.000000
205.011600 269816.000000
206.014800 12552.000000
221.024900 5092.000000
223.023200 2604.000000
259.078300 27764.000000
260.079800 2376.000000
261.074700 14228.000000

