>compound AU87824275
>parentmass 360.1718
>ionization [M+H]+
>formula C19H22FN3O3
>rt 300.000000
>profile qtof
#smiles_iso CCN1CCN(CC1)C2=C(C=C3C(=C2)N(C=C(C3=O)C(=O)O)C4CC4)F
#smiles_can CCN1CCN(CC1)C2=C(C=C3C(=C2)N(C=C(C3=O)C(=O)O)C4CC4)F
#inchikey SPFYMRJSYKOXGV-UHFFFAOYSA-N
#pubchem_id 71188
#mb_accession AU102904,AU102905

>ms2peaks
136.054800 436.000000
176.072600 432.000000
178.029300 372.000000
179.037700 400.000000
185.072100 328.000000
189.046300 660.000000
189.083400 560.000000
191.060700 396.000000
192.045900 372.000000
193.039200 428.000000
199.048000 400.000000
202.066900 328.000000
203.061400 1884.000000
204.045700 480.000000
204.069200 2280.000000
205.041000 1372.000000
205.074800 1208.000000
216.069700 440.000000
217.041200 616.000000
217.078100 500.000000
217.115500 320.000000
218.047700 948.000000
219.056700 1876.000000
220.064100 404.000000
221.071300 2220.000000
229.076800 620.000000
230.049900 468.000000
231.055700 308.000000
231.091400 1228.000000
233.070100 700.000000
234.083400 320.000000
235.051100 328.000000
243.056400 788.000000
243.091800 360.000000
244.064300 364.000000
245.072500 616.000000
245.108500 8944.000000
246.113000 1468.000000
247.086900 744.000000
254.054800 312.000000
255.056600 3824.000000
256.062000 916.000000
257.110100 356.000000
258.067000 680.000000
261.103600 20928.000000
262.106500 1548.000000
271.087400 308.000000
285.129000 412.000000
286.098400 9024.000000
287.101900 1456.000000
300.115500 972.000000
301.087800 472.000000
301.123100 748.000000
304.107500 320.000000
314.136400 308.000000
314.165700 760.000000
316.151300 524.000000
316.182900 1480.000000
318.162700 1488.000000
340.146200 4248.000000
341.151100 1212.000000
342.161700 4932.000000
343.164900 604.000000
344.142500 620.000000
358.156300 13748.000000
359.160600 3840.000000
360.171900 12704.000000
361.176600 1884.000000
362.152700 1284.000000
363.149400 404.000000

>ms2peaks
122.040700 436.000000
135.046900 512.000000
136.055500 568.000000
148.057000 332.000000
150.033900 460.000000
154.066000 360.000000
156.067900 388.000000
160.055200 380.000000
161.049300 344.000000
164.049800 340.000000
169.075000 304.000000
171.053200 400.000000
172.055200 476.000000
174.071500 428.000000
175.065900 460.000000
176.074900 1048.000000
178.029100 928.000000
179.038100 1288.000000
180.045600 336.000000
184.061700 448.000000
185.070900 400.000000
187.069000 424.000000
188.051600 476.000000
189.046600 1316.000000
189.080900 372.000000
190.052700 660.000000
192.046600 624.000000
193.041100 880.000000
199.050700 748.000000
199.065600 360.000000
200.053800 468.000000
201.058200 388.000000
202.031900 300.000000
202.066800 616.000000
203.035700 428.000000
203.061300 3104.000000
204.044500 600.000000
204.069300 2124.000000
205.041400 2304.000000
205.077400 1744.000000
213.064600 324.000000
214.089200 384.000000
215.024900 1280.000000
215.058700 476.000000
216.031000 428.000000
216.069300 780.000000
217.040500 2216.000000
217.075100 552.000000
218.049500 1408.000000
219.056000 2792.000000
220.067600 612.000000
221.072600 3692.000000
222.079900 496.000000
225.102100 324.000000
227.063600 416.000000
229.077400 964.000000
230.044800 336.000000
230.086800 764.000000
231.055800 640.000000
231.092800 940.000000
233.072900 500.000000
235.050500 612.000000
243.056400 2592.000000
243.092800 316.000000
244.056700 364.000000
245.074600 660.000000
245.108600 2900.000000
246.112800 620.000000
247.088000 724.000000
253.123500 352.000000
255.056500 6072.000000
256.060100 1376.000000
257.069600 484.000000
258.068700 1244.000000
259.082600 388.000000
261.103300 5664.000000
262.109300 340.000000
271.074500 1048.000000
273.068700 344.000000
286.098900 6844.000000
287.102300 1052.000000
288.108800 300.000000
300.113700 856.000000
340.147700 840.000000
342.161200 304.000000
358.156700 1924.000000
359.160600 788.000000
360.174400 1200.000000

