>compound AU87927430
>parentmass 262.0874
>ionization [M+H]+
>formula C14H12FNO3
>rt 438.000000
>profile qtof
#smiles_iso CC1CCC2=C3N1C=C(C(=O)C3=CC(=C2)F)C(=O)O
#smiles_can CC1CCC2=C3N1C=C(C(=O)C3=CC(=C2)F)C(=O)O
#inchikey DPSPPJIUMHPXMA-UHFFFAOYSA-N
#pubchem_id 3374
#mb_accession AU103004,AU103005

>ms2
126.033200 1348.000000
144.042600 476.000000
146.039500 4136.000000
148.055300 740.000000
154.039200 2092.000000
174.034300 21072.000000
175.038400 1920.000000
176.086900 1104.000000
192.045500 652.000000
200.087600 688.000000
202.029600 94544.000000
203.033100 7400.000000
216.046900 520.000000
216.081700 576.000000
220.040000 73080.000000
221.043900 5644.000000
238.050800 37384.000000
239.053800 2520.000000
244.076500 21884.000000
245.079800 2744.000000
262.087500 29468.000000
263.090900 2880.000000

>ms2
116.049100 420.000000
119.029300 960.000000
120.035400 468.000000
126.033100 9336.000000
127.037300 896.000000
133.044300 536.000000
144.043100 2672.000000
146.039500 26540.000000
147.045100 3032.000000
148.054200 988.000000
154.039200 17184.000000
155.042400 996.000000
158.039500 556.000000
159.046600 672.000000
160.037500 368.000000
161.062300 616.000000
164.049700 1796.000000
172.039100 308.000000
172.055100 1036.000000
173.061400 372.000000
174.034400 59312.000000
175.037400 4056.000000
176.048800 564.000000
176.087800 340.000000
187.042800 316.000000
188.051000 300.000000
192.045100 1500.000000
200.049400 980.000000
200.087400 468.000000
202.029400 57880.000000
203.033500 4568.000000
220.040100 40016.000000
221.044300 3588.000000
232.040000 424.000000
238.050600 20876.000000
239.054600 1988.000000
244.075500 1388.000000
262.088100 2380.000000

