>compound AU87721567
>parentmass 300.0801
>ionization [M+H]+
>formula C15H13N3O2S
>rt 610.800000
>profile qtof
#smiles_iso COC(=O)NC1=NC2=C(N1)C=C(C=C2)SC3=CC=CC=C3
#smiles_can COC(=O)NC1=NC2=C(N1)C=C(C=C2)SC3=CC=CC=C3
#inchikey HDDSHPAODJUKPD-UHFFFAOYSA-N
#pubchem_id 3334
#mb_accession AU106201,AU106202,AU106203,AU106204,AU106205

>ms2peaks
268.053900 1564.000000
300.079900 62208.000000
301.083100 7032.000000
302.076700 1704.000000

>ms2peaks
159.042800 884.000000
268.054000 74316.000000
269.057100 7944.000000
270.051000 2400.000000
300.080100 41348.000000
301.082900 5496.000000
302.082200 1112.000000

>ms2peaks
159.041900 19600.000000
160.045700 1596.000000
190.006600 3416.000000
268.054100 123596.000000
269.056900 13880.000000
270.052600 3232.000000
300.080500 1788.000000

>ms2peaks
122.006200 552.000000
131.047100 3500.000000
146.069400 432.000000
159.042000 75196.000000
160.045000 4748.000000
190.006500 9156.000000
191.013400 1564.000000
198.036600 520.000000
225.049300 552.000000
226.055900 688.000000
240.059300 848.000000
241.069200 468.000000
268.053800 47228.000000
269.058000 4652.000000
270.050600 1148.000000

>ms2peaks
122.004500 1172.000000
131.047200 14296.000000
132.049800 924.000000
159.041900 72360.000000
160.045200 4488.000000
163.018700 392.000000
164.027700 520.000000
171.024600 948.000000
190.006100 5792.000000
191.013800 3064.000000
192.016600 392.000000
198.036800 988.000000
199.043300 744.000000
225.048900 1200.000000
226.055800 760.000000
240.059600 728.000000
268.054300 3908.000000
269.057300 584.000000

