>compound AU89313314
>parentmass 191.9977
>ionization [M+H]+
>formula C7H7Cl2NO
>rt 248.400000
>profile qtof
#smiles_iso CC1=C(C(=O)C(=C(N1)C)Cl)Cl
#smiles_can CC1=C(C(=O)C(=C(N1)C)Cl)Cl
#inchikey ZDPIZLCVJAAHHR-UHFFFAOYSA-N
#pubchem_id 18087
#mb_accession AU108302,AU108303,AU108304,AU108305,AU118301

>ms2peaks
156.020000 1792.000000
157.029000 1516.000000
191.997100 267308.000000
193.000300 11392.000000
193.994200 135544.000000
194.998000 3328.000000

>ms2peaks
120.044000 668.000000
120.960300 1856.000000
122.059900 812.000000
122.956600 748.000000
128.025700 4604.000000
129.032700 1200.000000
130.022400 852.000000
156.020100 5172.000000
157.028200 7112.000000
158.017600 912.000000
159.024700 1220.000000
190.989700 2956.000000
191.997300 113496.000000
192.988500 1348.000000
193.000300 4788.000000
193.994400 48176.000000
194.998900 1192.000000

>ms2peaks
120.960200 1568.000000
121.050400 472.000000
122.059300 1020.000000
122.957000 1212.000000
127.016700 368.000000
128.025600 2752.000000
129.010100 324.000000
129.032600 828.000000
138.010200 324.000000
156.021000 3956.000000
157.028100 6252.000000
158.018800 808.000000
159.025300 968.000000
176.973100 324.000000
190.989900 2408.000000
191.997500 7816.000000
192.986900 1488.000000
193.995000 4288.000000

>ms2peaks
120.959800 856.000000
122.059100 340.000000
128.025600 1888.000000
138.011600 360.000000
156.020400 2004.000000
157.029100 1100.000000
190.989700 760.000000
191.999800 492.000000
193.992000 392.000000

>ms2peaks
51.022900 2468.000000
58.028600 8696.000000
65.038200 2988.000000
76.039100 1928.000000
87.000000 18488.000000
92.049300 1300.000000
93.057800 1544.000000
101.016800 23224.000000
102.019700 7364.000000
103.013600 4464.000000
120.961600 1692.000000
128.027000 3768.000000
129.034400 1304.000000
145.015600 2936.000000
145.025700 3272.000000
156.021400 4084.000000
157.029200 4924.000000
174.024000 4600.000000
190.981100 1428.000000
190.993500 2332.000000
192.000300 254432.000000
193.997100 110984.000000
195.000600 4104.000000

