>compound AU91068472
>parentmass 320.1405
>ionization [M+H]+
>formula C16H18FN3O3
>rt 276.000000
>profile qtof
#smiles_iso CCN1C=C(C(=O)C2=CC(=C(C=C21)N3CCNCC3)F)C(=O)O
#smiles_can CCN1C=C(C(=O)C2=CC(=C(C=C21)N3CCNCC3)F)C(=O)O
#inchikey OGJPXUAPXNRGGI-UHFFFAOYSA-N
#pubchem_id 4539
#mb_accession AU103204,AU103205

>ms2peaks
163.067300 368.000000
171.090300 340.000000
176.073800 400.000000
179.099300 440.000000
189.082000 968.000000
198.102600 316.000000
203.061500 768.000000
204.069300 452.000000
204.105600 2656.000000
205.077600 928.000000
205.109600 396.000000
211.110800 708.000000
219.092300 336.000000
226.097500 772.000000
226.136100 612.000000
231.056200 13116.000000
232.059600 1676.000000
233.109200 956.000000
249.067700 768.000000
253.085300 548.000000
254.093200 980.000000
254.128400 784.000000
259.087300 364.000000
263.083400 440.000000
272.103000 1688.000000
273.108400 300.000000
274.099800 860.000000
274.136000 656.000000
282.124500 1900.000000
283.128400 356.000000
292.109300 892.000000
300.135000 4168.000000
301.137800 720.000000
302.129200 7972.000000
303.134000 1180.000000
320.140300 26772.000000
321.143800 3512.000000

>ms2peaks
136.055500 444.000000
148.055300 644.000000
152.075500 424.000000
161.050900 476.000000
161.062000 548.000000
162.069400 324.000000
163.064800 764.000000
165.082000 572.000000
171.091000 520.000000
174.058200 320.000000
175.065500 896.000000
176.073300 2304.000000
177.079700 344.000000
179.060900 416.000000
179.095600 360.000000
187.065400 300.000000
188.038600 472.000000
189.081600 5996.000000
190.087400 688.000000
197.093200 508.000000
198.065400 400.000000
198.103000 604.000000
203.061300 2332.000000
203.097500 784.000000
204.067100 696.000000
204.105500 4956.000000
205.074200 584.000000
205.109700 644.000000
211.111300 956.000000
217.041700 504.000000
217.076400 308.000000
219.089000 332.000000
225.086700 344.000000
226.098200 884.000000
226.133100 304.000000
231.055900 26448.000000
232.059800 3064.000000
233.062600 416.000000
235.051300 352.000000
244.071200 436.000000
245.072000 476.000000
249.067000 1624.000000
253.085700 316.000000
254.092000 1096.000000
254.129500 544.000000
258.139600 312.000000
259.084800 304.000000
263.083600 328.000000
272.102600 1108.000000
274.098700 408.000000
274.136800 340.000000
282.123600 484.000000
292.109500 1132.000000
300.134700 1124.000000
301.137800 308.000000
302.129100 1364.000000
320.141300 2940.000000
321.144400 468.000000

