>compound AU92165843
>parentmass 186.0873
>ionization [M+H]+
>formula C7H11N3O3
>rt 264.000000
>profile qtof
#smiles_iso CC1=NC=C(N1CCCO)[N+](=O)[O-]
#smiles_can CC1=NC=C(N1CCCO)[N+](=O)[O-]
#inchikey DUOHVNSMLSPTMI-UHFFFAOYSA-N
#pubchem_id 68944
#mb_accession AU107001

>ms2
56.036300 5568.000000
57.020500 936.000000
59.048900 4768.000000
60.043800 784.000000
82.052300 5504.000000
98.047500 1540.000000
111.043700 1876.000000
128.045400 126268.000000
130.049800 676.000000
186.087700 27364.000000

