>compound AU92398397
>parentmass 386.1311
>ionization [M+H]+
>formula C20H17F2N3O3
>rt 300.000000
>profile qtof
#smiles_iso C1CN(CCN1)C2=C(C=C3C(=C2)N(C=C(C3=O)C(=O)O)C4=CC=C(C=C4)F)F
#smiles_can C1CN(CCN1)C2=C(C=C3C(=C2)N(C=C(C3=O)C(=O)O)C4=CC=C(C=C4)F)F
#inchikey XBHBWNFJWIASRO-UHFFFAOYSA-N
#pubchem_id 56208
#mb_accession AU103501,AU103504,AU103505

>ms2
270.098500 1172.000000
285.086400 1704.000000
292.126400 1284.000000
299.101400 16208.000000
300.103500 3344.000000
322.137000 2132.000000
340.128500 1212.000000
342.143900 16720.000000
343.147400 3980.000000
348.117400 1552.000000
366.127600 6968.000000
367.129900 1880.000000
368.123000 18580.000000
369.123900 5260.000000
386.134600 200800.000000
387.137300 57768.000000
388.138900 6352.000000

>ms2
171.091100 360.000000
189.082200 984.000000
270.095700 1188.000000
273.083700 304.000000
285.086600 500.000000
291.115300 300.000000
292.090300 412.000000
292.128100 688.000000
299.099100 1524.000000
300.102700 532.000000
312.129900 476.000000
320.085200 736.000000
320.121200 664.000000
338.091500 788.000000
340.123000 464.000000
348.115200 1328.000000
366.126300 2936.000000
367.129300 892.000000
368.120200 6488.000000
369.124000 1292.000000
386.131300 23508.000000
387.136100 4628.000000

>ms2
169.074600 320.000000
171.091700 1208.000000
174.057700 844.000000
189.082400 2260.000000
190.086000 504.000000
227.053200 408.000000
228.064200 324.000000
238.091400 328.000000
244.083700 308.000000
249.083100 344.000000
255.073500 1516.000000
256.056900 380.000000
256.078900 672.000000
257.087800 436.000000
263.087500 316.000000
264.098800 504.000000
265.115100 412.000000
269.090200 632.000000
270.096300 5100.000000
273.083200 1020.000000
274.086200 324.000000
277.100700 372.000000
283.066900 324.000000
292.089800 1188.000000
292.123600 1420.000000
293.107800 356.000000
299.098800 1144.000000
312.133800 376.000000
320.084700 916.000000
320.122000 912.000000
325.079700 332.000000
329.072200 412.000000
338.093900 1356.000000
339.097400 424.000000
348.114800 972.000000
366.127200 1580.000000
367.128100 592.000000
368.121500 1232.000000
369.124300 472.000000
386.132000 4972.000000
387.134800 1308.000000

