>compound AU94372542
>parentmass 302.1751
>ionization [M+H]+
>formula C18H23NO3
>rt 270.000000
>profile qtof
#smiles_iso CC(CCC1=CC=C(C=C1)O)NCC(C2=CC=C(C=C2)O)O
#smiles_can CC(CCC1=CC=C(C=C1)O)NCC(C2=CC=C(C=C2)O)O
#inchikey YJQZYXCXBBCEAQ-UHFFFAOYSA-N
#pubchem_id 56052
#mb_accession AU110301

>ms2peaks
60.055300 1036.000000
91.054400 23040.000000
92.057800 1612.000000
93.070300 2056.000000
107.051000 113092.000000
108.054300 10096.000000
118.065200 1496.000000
119.049400 19096.000000
120.052500 2044.000000
121.065300 102620.000000
122.068300 12852.000000
123.072800 964.000000
136.075900 99760.000000
137.079300 11764.000000
138.081300 856.000000
147.080000 856.000000
149.096300 2532.000000
164.107600 146916.000000
165.110500 21776.000000
166.113000 1096.000000
284.166400 79536.000000
285.169600 17496.000000
286.171900 1788.000000
302.177500 2664.000000
303.179600 740.000000

