>compound AU96817559
>parentmass 262.071
>ionization [M+H]+
>formula C13H11NO5
>rt 358.000000
>profile qtof
#smiles_iso CCN1C=C(C(=O)C2=CC3=C(C=C21)OCO3)C(=O)O
#smiles_can CCN1C=C(C(=O)C2=CC3=C(C=C21)OCO3)C(=O)O
#inchikey KYGZCKSPAKDVKC-UHFFFAOYSA-N
#pubchem_id 4628
#mb_accession AU103401,AU103404,AU103405

>ms2
60.055400 1372.000000
146.059600 884.000000
148.039400 828.000000
158.060400 1292.000000
160.039600 964.000000
172.038400 756.000000
188.034700 1156.000000
188.069700 884.000000
200.070500 1336.000000
215.021500 1040.000000
216.030200 2824.000000
216.067300 2936.000000
233.033700 868.000000
234.041300 6964.000000
244.061600 21720.000000
245.064500 3248.000000
262.072500 137988.000000
263.076500 22196.000000
264.077300 2660.000000

>ms2
118.063900 664.000000
130.064400 1940.000000
133.027400 524.000000
146.060200 888.000000
148.038500 2468.000000
158.023200 1152.000000
158.059100 2568.000000
159.063200 624.000000
160.038700 6980.000000
161.042300 420.000000
172.038300 2944.000000
173.046300 1600.000000
176.032900 540.000000
176.070300 588.000000
186.018700 568.000000
186.054200 696.000000
187.026400 760.000000
187.061800 524.000000
188.033800 2380.000000
188.071300 1180.000000
200.069700 1320.000000
201.042800 668.000000
202.030000 440.000000
214.012900 1572.000000
215.021400 2752.000000
216.029200 4136.000000
216.066000 1832.000000
217.033100 560.000000
229.037900 956.000000
233.031500 1068.000000
234.039700 5852.000000
244.060600 5324.000000
245.064400 692.000000
262.071200 6920.000000
263.074600 872.000000

>ms2
118.064400 480.000000
121.028300 488.000000
130.028400 652.000000
130.065000 2952.000000
132.044900 384.000000
133.028100 1584.000000
142.066300 324.000000
146.059300 444.000000
148.038400 1712.000000
158.023700 1680.000000
158.059500 1228.000000
159.030400 440.000000
159.064900 384.000000
160.039000 9904.000000
161.042700 824.000000
172.038700 3632.000000
173.045900 2232.000000
176.034200 388.000000
176.069800 308.000000
186.018100 1756.000000
187.025700 1024.000000
187.060600 604.000000
188.033200 1568.000000
214.014200 2520.000000
215.020500 1356.000000
216.028500 1272.000000
216.066700 304.000000
229.037000 352.000000
233.031300 924.000000
234.040100 1656.000000
244.060400 468.000000
262.070700 604.000000

