>compound AU96502016
>parentmass 201.0618
>ionization [M+H]+
>formula C6H8N4O4
>rt 228.000000
>profile qtof
#smiles_iso CN1C(=CN=C1COC(=O)N)[N+](=O)[O-]
#smiles_can CN1C(=CN=C1COC(=O)N)[N+](=O)[O-]
#inchikey PQFRTXSWDXZRRS-UHFFFAOYSA-N
#pubchem_id 5094
#mb_accession AU107101

>ms2peaks
54.033300 3840.000000
55.041200 31640.000000
60.054500 396.000000
67.041100 584.000000
71.023600 504.000000
72.007600 424.000000
82.051700 960.000000
94.052900 444.000000
110.049000 1788.000000
140.046000 60404.000000
141.048400 3852.000000
157.070400 340.000000
158.056100 1072.000000
172.071600 792.000000
181.073400 3736.000000
201.064400 352.000000

