>compound AU97683110
>parentmass 786.3596000000001
>ionization [M+H]+
>formula C43H51N3O11
>rt 596.000000
>profile qtof
#smiles_iso C[C@H]1/C=C/C=C(\C(=O)NC2=C(C3=C(C4=C(C(=C3O)C)O[C@@](C4=O)(O/C=C/[C@@H]([C@H]([C@H]([C@@H]([C@@H]([C@@H]([C@H]1O)C)O)C)OC(=O)C)C)OC)C)C5=C2N6C=CC(=CC6=N5)C)O)/C
#smiles_can CC1C=CC=C(C(=O)NC2=C(C3=C(C4=C(C(=C3O)C)OC(C4=O)(OC=CC(C(C(C(C(C(C1O)C)O)C)OC(=O)C)C)OC)C)C5=C2N6C=CC(=CC6=N5)C)O)C
#inchikey NZCRJKRKKOLAOJ-XRCRFVBUSA-N
#pubchem_id 6436173
#mb_accession AU117901,AU117902,AU117903

>ms2
55.053200 520.000000
57.032500 556.000000
60.054500 748.000000
67.053500 1112.000000
69.033200 1016.000000
69.069700 844.000000
71.048000 364.000000
79.054900 528.000000
81.069700 716.000000
83.048300 392.000000
85.064700 688.000000
93.070500 1564.000000
95.049900 2744.000000
95.086100 3272.000000
96.089300 420.000000
97.065600 1172.000000
97.100500 312.000000
105.071900 920.000000
107.086700 2364.000000
108.090300 400.000000
109.065500 1052.000000
109.102600 976.000000
111.081500 588.000000
119.086000 1444.000000
121.065500 1064.000000
121.101200 2380.000000
122.104600 404.000000
123.080900 11060.000000
123.117400 964.000000
124.084700 736.000000
125.097500 1328.000000
133.064400 660.000000
133.101300 1576.000000
135.080600 5144.000000
135.117300 1968.000000
136.084200 600.000000
136.121100 420.000000
137.060200 544.000000
137.096400 3464.000000
137.133000 992.000000
139.075300 1736.000000
139.111800 552.000000
140.079500 300.000000
141.089500 312.000000
143.086600 460.000000
145.101000 2608.000000
146.103900 536.000000
147.080500 1048.000000
147.117500 3684.000000
148.120600 736.000000
149.061100 864.000000
149.095200 1224.000000
149.133800 672.000000
151.075900 34828.000000
152.078300 3388.000000
153.091000 7004.000000
154.094800 632.000000
155.106400 784.000000
157.100900 760.000000
158.104000 464.000000
159.117300 2728.000000
160.122100 404.000000
161.096100 5600.000000
161.134300 448.000000
162.098700 500.000000
163.112400 26172.000000
164.114800 2244.000000
165.090700 484.000000
165.127900 2944.000000
166.129600 332.000000
171.117000 548.000000
173.096800 4980.000000
173.132500 3248.000000
174.099600 916.000000
174.136300 436.000000
175.112300 4440.000000
175.148500 1096.000000
176.117700 680.000000
177.092100 1144.000000
177.128700 1824.000000
178.133700 320.000000
179.107300 10960.000000
180.109300 680.000000
181.122700 1704.000000
182.125000 364.000000
183.117200 496.000000
183.138100 464.000000
185.097000 324.000000
185.133600 2028.000000
186.136900 436.000000
187.113200 372.000000
187.148100 736.000000
188.152600 300.000000
189.090100 832.000000
189.127000 784.000000
191.107900 11876.000000
192.109800 1328.000000
193.122700 3732.000000
194.127300 444.000000
195.118900 432.000000
195.138700 376.000000
198.142200 388.000000
199.112100 572.000000
199.147400 992.000000
200.153000 328.000000
201.128200 3096.000000
202.132400 436.000000
203.107200 664.000000
203.143300 1716.000000
205.123700 784.000000
207.102800 404.000000
209.117400 4924.000000
210.121300 608.000000
211.112200 348.000000
211.132600 1108.000000
213.129100 1768.000000
213.164600 332.000000
215.144300 716.000000
216.146700 536.000000
217.124000 612.000000
217.157800 368.000000
218.128800 324.000000
219.139200 2124.000000
220.143100 556.000000
221.153100 1420.000000
223.149800 520.000000
225.164800 748.000000
227.145700 444.000000
231.138500 1808.000000
232.142800 424.000000
235.134400 420.000000
237.129100 660.000000
237.147800 524.000000
241.157600 452.000000
241.194800 584.000000
243.174000 368.000000
249.148900 876.000000
251.180400 996.000000
253.160000 792.000000
255.138900 460.000000
255.178100 408.000000
257.157800 360.000000
259.166700 312.000000
261.164700 548.000000
261.187000 500.000000
264.150300 324.000000
269.190300 1148.000000
270.194700 508.000000
271.169700 1204.000000
277.188100 332.000000
279.175300 2144.000000
280.178100 380.000000
281.178200 328.000000
287.203700 796.000000
289.180700 932.000000
297.185500 4000.000000
298.190700 928.000000
315.196600 5096.000000
316.201900 852.000000
333.208600 1172.000000
334.213700 416.000000
347.104400 2604.000000
348.109800 756.000000
357.206200 328.000000
361.108100 1660.000000
362.115600 16640.000000
363.118700 3032.000000
364.120500 548.000000
375.217600 688.000000
388.101400 316.000000
466.187400 472.000000
495.184300 420.000000
496.185200 400.000000
511.177200 724.000000
512.185100 1120.000000
513.186200 328.000000
513.202600 308.000000
540.226600 348.000000
639.296800 532.000000
676.309200 728.000000
694.314800 816.000000
695.325500 556.000000
698.319400 344.000000
708.342700 516.000000
725.335100 548.000000
726.337100 752.000000
727.335900 304.000000
727.354900 452.000000
736.325800 2268.000000
737.335900 1336.000000
752.344300 348.000000
753.330500 308.000000
754.342100 34228.000000
755.344100 13952.000000
756.344900 4000.000000
757.347600 804.000000
768.355500 1572.000000
768.400300 372.000000
769.358100 828.000000
784.350400 2128.000000
785.351400 1476.000000
786.367400 8080.000000
787.367100 3656.000000
788.377700 1204.000000

>ms2
754.313500 5956.000000
755.318600 2088.000000
756.321100 360.000000
756.332500 588.000000
786.339200 30920.000000
787.348200 14888.000000

>ms2
754.325400 352.000000
786.350800 22060.000000
787.354000 10488.000000

