>compound BS19127510
>parentmass 279.23426666666666
>ionization [M-H]-
>formula C18H32O2
>rt 1852.800000
>profile qtof
#smiles_iso CCCCCC/C=C/C=C/CCCCCCCC(=O)O
#smiles_can CCCCCCC=CC=CCCCCCCCC(=O)O
#inchikey JBYXPOFIGCOSSB-XBLVEGMJSA-N
#pubchem_id 5282796
#mb_accession BS004007,BS004008,BS004010

>ms2peaks
279.234400 999.000000
280.237200 181.000000

>ms2peaks
279.234500 999.000000
280.237700 160.000000

>ms2peaks
279.233900 999.000000
280.237700 179.000000

