>compound BS49488926
>parentmass 137.025
>ionization [M-H]-
>formula C7H6O3
>rt 297.000000
>profile qtof
#smiles_iso C1=CC=C(C(=C1)C(=O)O)O
#smiles_can C1=CC=C(C(=C1)C(=O)O)O
#inchikey YGSDEFSMJLZEOE-UHFFFAOYSA-N
#pubchem_id 338
#mb_accession BS003128

>ms2
137.025000 999.000000
138.028700 73.000000

