>compound BS51563709
>parentmass 564.328
>ionization [M+HCOO]-
>formula C26H50NO7P
>rt 1361.400000
>profile qtof
#smiles_iso CCCCC/C=C\C/C=C\CCCCCCCC(=O)O[C@H](CO)COP(=O)([O-])OCC[N+](C)(C)C
#smiles_can CCCCCC=CCC=CCCCCCCCC(=O)OC(CO)COP(=O)([O-])OCC[N+](C)(C)C
#inchikey LSUXCWJOIAWGOU-FTJOPAKQSA-N
#pubchem_id 71768169
#mb_accession BS001054

>ms2peaks
279.230000 999.000000
280.233000 166.000000

