>compound BS52147439
>parentmass 279.23316666666665
>ionization [M-H]-
>formula C18H32O2
>rt 1820.400000
>profile qtof
#smiles_iso CCCCCC/C=C/C=C\CCCCCCCC(=O)O
#smiles_can CCCCCCC=CC=CCCCCCCCC(=O)O
#inchikey JBYXPOFIGCOSSB-GOJKSUSPSA-N
#pubchem_id 5280644
#mb_accession BS004022,BS004023,BS004024

>ms2
279.233700 999.000000
280.236700 160.000000

>ms2
279.232400 999.000000
280.236100 201.000000

>ms2
279.233400 999.000000
280.236400 166.000000

