>compound BS54882941
>parentmass 255.0636
>ionization [M-H]-
>formula C15H12O4
>rt 750.000000
>profile qtof
#smiles_iso C1C(OC2=C(C=CC(=C2C1=O)O)O)C3=CC=CC=C3
#smiles_can C1C(OC2=C(C=CC(=C2C1=O)O)O)C3=CC=CC=C3
#inchikey JJRIYFGZKRETII-UHFFFAOYSA-N
#pubchem_id 129685457
#mb_accession BS003572

>ms2
227.069500 388.000000
255.063600 999.000000

