>compound BS65145663
>parentmass 347.1862
>ionization [M-H]-
>formula C20H28O5
>rt 1490.400000
>profile qtof
#smiles_iso CC(C)C(=O)C1=C(C(=C(C(C1=O)(CC=C(C)C)O)O)CC=C(C)C)O
#smiles_can CC(C)C(=O)C1=C(C(=C(C(C1=O)(CC=C(C)C)O)O)CC=C(C)C)O
#inchikey DRSITEVYZGOOQG-UHFFFAOYSA-N
#pubchem_id 196915
#mb_accession BS003090

>ms2peaks
278.114700 369.000000
347.186200 999.000000

