>compound BS74215875
>parentmass 476.277
>ionization [M-H]-
>formula C23H44NO7P
>rt 1353.600000
>profile qtof
#smiles_iso CCCCC/C=C\C/C=C\CCCCCCCC(=O)O[C@H](CO)COP(=O)(O)OCCN
#smiles_can CCCCCC=CCC=CCCCCCCCC(=O)OC(CO)COP(=O)(O)OCCN
#inchikey SVRBKLJIDJHADS-USWSLJGRSA-N
#pubchem_id 53480926
#mb_accession BS001050

>ms2peaks
279.230000 999.000000
280.236000 227.000000

