>compound BS81205380
>parentmass 253.21765
>ionization [M-H]-
>formula C16H30O2
>rt 1733.400000
>profile qtof
#smiles_iso CCCCCC/C=C\CCCCCCCC(=O)O
#smiles_can CCCCCCC=CCCCCCCCC(=O)O
#inchikey SECPZKHBENQXJG-FPLPWBNLSA-N
#pubchem_id 445638
#mb_accession BS003993,BS003994

>ms2
253.217900 999.000000
254.220700 113.000000

>ms2
253.217400 999.000000
254.220000 116.000000

