>compound BS83418236
>parentmass 277.21833333333336
>ionization [M-H]-
>formula C18H30O2
>rt 1672.200000
>profile qtof
#smiles_iso CC/C=C\C/C=C\C/C=C\CCCCCCCC(=O)O
#smiles_can CCC=CCC=CCC=CCCCCCCCC(=O)O
#inchikey DTOSIQBPPRVQHS-PDBXOOCHSA-N
#pubchem_id 5280934
#mb_accession BS001069,BS001071,BS001072

>ms2peaks
277.218300 999.000000
278.221100 143.000000

>ms2peaks
277.218000 999.000000
278.221100 163.000000

>ms2peaks
277.218700 999.000000
278.220900 269.000000

