>compound BS94024671
>parentmass 281.2481333333333
>ionization [M-H]-
>formula C18H34O2
>rt 1905.000000
>profile qtof
#smiles_iso CCCCCCCC/C=C\CCCCCCCC(=O)O
#smiles_can CCCCCCCCC=CCCCCCCCC(=O)O
#inchikey ZQPPMHVWECSIRJ-KTKRTIGZSA-N
#pubchem_id 445639
#mb_accession BS003988,BS003989,BS003990

>ms2peaks
281.248600 999.000000
282.251900 141.000000

>ms2peaks
281.248400 999.000000
282.251600 149.000000

>ms2peaks
281.247400 999.000000
282.250900 183.000000

