>compound EQ00725687
>parentmass 324.20699999999994
>ionization [M+H]+
>formula C20H25N3O
>rt 336.000000
>profile orbitrap
#smiles_iso CCN(CC)C(=O)C1CN(C2CC3=CNC4=CC=CC(=C34)C2=C1)C
#smiles_can CCN(CC)C(=O)C1CN(C2CC3=CNC4=CC=CC(=C34)C2=C1)C
#inchikey VAYOSLLFUXYJDT-UHFFFAOYSA-N
#pubchem_id 3981
#mb_accession EQ368801,EQ368802,EQ368803,EQ368804,EQ368805,EQ368806,EQ368807,EQ368808,EQ368809

>ms2peaks
197.107200 1907298.400000
208.075800 1709180.600000
223.122700 5543051.500000
251.118000 1803688.000000
281.164800 85083080.000000
293.164500 1777633.400000
324.206800 1370816640.000000

>ms2peaks
72.044300 542880.100000
72.080700 2555919.800000
74.096400 26185304.000000
100.075600 8069158.000000
128.106900 11158272.000000
156.080800 3880012.200000
168.080700 1832886.500000
180.080600 20165506.000000
182.083500 561876.400000
182.096400 764594.200000
192.080700 12883760.000000
194.096500 1260090.600000
197.107300 44770304.000000
207.067800 820132.600000
207.091400 916386.100000
208.075700 107556192.000000
209.107300 915003.500000
210.091300 5786293.500000
220.075300 1017443.600000
221.107000 1436948.900000
222.114900 753801.400000
223.123000 243886144.000000
224.130300 1187968.800000
251.117900 25861956.000000
279.148400 1328810.900000
281.164800 390865312.000000
293.164600 9153901.000000
309.183300 10319243.000000
324.206900 500636928.000000

>ms2peaks
56.049400 1314061.400000
72.044300 7336382.500000
72.080700 7094872.000000
74.096400 51617224.000000
86.096300 695690.100000
100.075700 19361896.000000
128.107000 20103142.000000
152.061600 754920.300000
153.069900 734964.800000
154.065000 1658684.800000
156.080800 12595171.000000
165.069800 576390.800000
167.072800 2773699.500000
168.080700 5750480.500000
179.072800 755796.800000
180.080700 154501312.000000
181.064800 948426.400000
181.088500 2308104.200000
182.084200 3545652.800000
182.096400 16216758.000000
190.064900 2197787.000000
191.072900 4136253.200000
192.080700 32054534.000000
193.076000 2188820.200000
193.088600 3521008.200000
194.083700 1513683.400000
194.096500 9220594.000000
195.104300 1791158.000000
196.112100 3882137.200000
197.107300 48618012.000000
206.096900 1397277.000000
207.067900 9372034.000000
207.091500 10337523.000000
208.075700 297064032.000000
208.099300 71739168.000000
209.107200 2549178.200000
210.091300 16401506.000000
220.075800 3273540.800000
220.099400 2363702.500000
221.107300 11903837.000000
222.115100 4181794.000000
223.123000 389442016.000000
224.130700 2889612.200000
236.094900 1203100.900000
251.117900 14238005.000000
253.169700 2937023.000000
279.149100 1207110.800000
281.164900 128290576.000000
293.164600 1402061.100000
309.183500 6593313.000000
324.207000 27238176.000000

>ms2peaks
55.017900 1182425.500000
56.049500 3497355.500000
68.049400 609355.200000
70.065100 661601.400000
72.044300 15433083.000000
72.080700 5937725.500000
74.096400 36037700.000000
83.049100 533564.400000
86.096400 619351.200000
100.075600 11208624.000000
128.107000 9602945.000000
129.069800 3088236.000000
130.065100 874610.100000
139.053600 308216.200000
142.065300 655418.200000
144.080900 517052.200000
153.069900 13386680.000000
154.065100 7916575.000000
155.072900 707852.100000
155.085700 285481.100000
156.080800 10515933.000000
165.069900 3568375.800000
166.064800 712633.800000
167.072900 16110000.000000
167.085500 1357734.000000
168.080700 8215359.500000
170.096300 535483.600000
178.064600 1129763.800000
179.072700 2484172.200000
179.085400 679082.700000
180.080700 214204992.000000
181.064800 6380134.500000
181.075700 749385.600000
181.088500 10475178.000000
182.084100 11585570.000000
182.096400 29957716.000000
183.080300 231126.200000
190.065000 10287732.000000
191.072900 31352016.000000
192.080700 46867352.000000
193.076100 9981784.000000
193.088600 5639946.000000
194.060200 2061247.900000
194.083700 2492915.000000
194.096400 15135637.000000
195.091800 1070378.500000
195.104200 6820641.500000
196.099400 788807.300000
196.112100 10177188.000000
197.107300 27601232.000000
205.075700 1150899.900000
206.084900 1357457.800000
206.096500 2905329.500000
207.068000 48655072.000000
207.091700 67764536.000000
208.075800 192750032.000000
208.099400 116085120.000000
209.107200 2599251.500000
210.091300 6982527.500000
220.075800 2650163.800000
220.099500 2335158.200000
221.107300 20900524.000000
222.115100 7620401.500000
223.123000 137746608.000000
224.130700 1509446.200000
236.093900 1316780.400000
251.118200 1768509.900000
253.169800 2588282.800000
281.164800 9461500.000000
309.182500 322714.500000

>ms2peaks
55.017800 2138539.200000
56.049500 3770711.500000
68.049400 706846.700000
70.065100 1328846.200000
72.044400 18518472.000000
72.080700 4333487.000000
74.096400 27898940.000000
83.049100 271533.500000
86.096400 1581786.100000
94.065200 562234.900000
100.075700 3906677.500000
115.054200 1430857.800000
117.057200 230347.800000
127.054000 256970.200000
128.062000 937529.600000
128.106900 4653241.000000
129.069900 8124415.000000
130.065100 1653346.800000
139.054400 326240.500000
141.070100 1709800.500000
142.065100 899633.800000
144.080800 777877.500000
151.053900 655984.600000
152.062000 10092835.000000
153.069900 76017360.000000
154.065100 19678746.000000
155.072800 1046176.300000
155.085400 2176142.000000
156.080800 7742577.500000
163.054200 616580.800000
164.061800 1582535.200000
165.069900 12396450.000000
166.065400 1348932.200000
166.077700 934013.900000
167.073000 43239056.000000
167.085400 3469111.000000
168.057000 638088.900000
168.080800 12733693.000000
169.065000 297571.500000
169.076000 301529.800000
169.088800 224300.600000
170.096400 802406.400000
171.080500 1003542.200000
177.070300 244008.900000
178.065100 3582483.200000
178.077700 280858.700000
179.072900 10857621.000000
179.085700 683805.900000
180.080800 223669616.000000
181.064800 14689941.000000
181.076000 5311544.500000
181.088500 19690018.000000
182.083800 25270254.000000
182.096400 21940498.000000
183.080100 500090.300000
183.091800 274875.300000
184.051600 572833.900000
190.065100 18447834.000000
191.072900 66891916.000000
192.080800 50384632.000000
193.076100 21985950.000000
193.088700 5147402.000000
194.060100 3644690.500000
194.083900 1841971.000000
194.096500 16633445.000000
195.091700 1774498.800000
195.104300 9437060.000000
196.099600 1705551.500000
196.112100 5554657.000000
197.107300 14526462.000000
204.080800 642932.400000
205.076200 4278355.000000
206.060200 817295.800000
206.083900 4463899.500000
206.096400 2180012.200000
207.068100 98384120.000000
207.091700 175071712.000000
208.075800 71748944.000000
208.099500 68300248.000000
209.083700 333106.900000
209.107300 3072760.500000
210.091200 2140056.000000
212.046400 248214.800000
219.091600 773960.600000
220.075800 933559.800000
220.099600 5913394.500000
221.107400 22953210.000000
222.115100 5985714.000000
223.123000 32009854.000000
224.131000 316543.800000
235.086200 674547.200000
236.094100 532927.400000
253.170200 251908.300000
281.164000 282913.500000

>ms2peaks
54.033900 265554.900000
55.017800 3844779.800000
56.049500 3179343.800000
58.065100 296505.100000
68.049400 592654.900000
70.065100 1124519.000000
72.044300 10163412.000000
72.080700 2977922.800000
74.096400 16924472.000000
84.044300 236719.900000
86.096400 1146318.000000
94.065000 295799.600000
100.075500 1111765.800000
103.054200 261184.300000
115.054200 3321809.200000
116.062000 518234.900000
117.057300 912483.900000
126.046200 260839.700000
127.054000 519407.600000
128.062000 3475393.200000
128.106900 1449511.000000
129.069800 9473971.000000
130.065200 2334254.800000
139.054100 1883573.600000
140.049100 274137.700000
140.062000 2905776.800000
141.069800 3309126.000000
142.065100 538274.100000
144.080800 810879.200000
145.064800 792055.600000
151.053900 1495859.600000
152.062000 49387052.000000
153.069900 126429512.000000
154.065100 27719968.000000
155.060300 2514149.800000
155.072900 2851648.000000
155.085500 2453325.200000
156.080800 3512454.200000
163.054100 2358441.800000
164.062000 10037685.000000
165.069900 20982212.000000
166.065200 4742594.000000
166.077200 991057.600000
167.073000 57598732.000000
168.057000 3695577.800000
168.080800 9311330.000000
169.064900 2772497.800000
169.076200 525748.100000
169.088400 248167.600000
170.059900 236583.900000
170.096400 777462.500000
171.080500 2303386.500000
177.070100 195552.100000
178.065100 16068870.000000
179.061400 2129687.000000
179.072900 22161250.000000
180.057200 11411018.000000
180.080700 135521248.000000
181.064700 15020099.000000
181.075900 11680280.000000
181.088500 20262216.000000
182.083800 21377314.000000
182.096400 9205632.000000
183.091700 184491.300000
184.051800 3672144.200000
184.075600 620722.900000
185.046900 300095.200000
190.065100 14836200.000000
191.072900 67700264.000000
192.080700 36803220.000000
193.076100 24770358.000000
193.088500 3444023.000000
194.059900 2391851.000000
194.096400 14773716.000000
195.091800 1547250.100000
195.104100 4504296.000000
196.051900 287765.300000
196.099600 1334694.000000
196.111900 1216806.900000
197.107300 3804507.200000
204.081000 928511.700000
205.076200 8290198.500000
206.060200 2031304.600000
206.083900 9980617.000000
206.096100 956414.700000
207.068100 75727256.000000
207.091700 179439360.000000
208.075700 13718805.000000
208.099500 18453166.000000
209.083200 182868.300000
209.107200 1761797.000000
219.091700 1122033.500000
220.099400 6168422.500000
221.107300 16335721.000000
222.115200 1846034.200000
223.123000 6367910.000000
235.086200 758794.400000

>ms2peaks
51.022800 204267.500000
54.033800 879297.300000
55.017900 2817860.000000
55.054200 200489.700000
56.049500 2109698.800000
63.022800 500522.800000
68.049400 526003.800000
70.065100 641541.600000
72.044300 2233471.000000
72.080800 936345.500000
74.096400 4642183.500000
77.038500 624906.800000
86.096400 205424.200000
89.038400 211452.100000
91.054300 306740.500000
94.065000 275662.900000
95.049100 597888.500000
103.054200 1615964.400000
105.044700 610724.800000
115.054200 9599357.000000
116.062000 1711344.400000
117.057300 1538098.400000
126.046500 2194261.800000
127.054200 5419561.500000
128.062000 8892496.000000
129.057300 270745.500000
129.069800 4507814.000000
130.065200 2417987.000000
139.054200 19480400.000000
140.049900 2128804.000000
140.062000 15315617.000000
141.057400 817317.000000
141.069900 3873116.800000
142.065300 745190.600000
143.072600 202986.200000
144.057300 506781.100000
145.064800 5690638.500000
150.046600 1615734.600000
151.054200 8052696.000000
152.062000 198341760.000000
153.057300 6758611.500000
153.069900 70681720.000000
154.065100 32016588.000000
155.060300 16210164.000000
155.072900 3342443.000000
156.057200 209686.500000
156.080800 1293576.400000
163.054200 12036338.000000
164.062000 31877252.000000
165.069900 28766620.000000
166.065100 21890812.000000
167.072900 35915260.000000
168.056900 12581822.000000
168.080700 3262503.800000
169.064800 16605942.000000
170.059900 1606877.800000
171.080400 1197631.800000
172.051900 956010.900000
176.061700 240769.500000
177.057100 825074.900000
177.070000 247965.200000
178.065100 42823028.000000
179.060500 11714426.000000
179.072800 15796827.000000
180.057000 13718784.000000
180.080700 55606156.000000
181.064800 4010847.500000
181.076000 10044792.000000
181.088200 4869986.000000
182.083900 4662456.000000
182.096600 540709.900000
183.068300 238368.100000
184.051900 4029962.200000
184.075500 2383715.200000
185.047100 1580467.500000
189.057500 850886.900000
190.065100 9751357.000000
191.072900 27890404.000000
192.068100 11995823.000000
192.080700 11932159.000000
193.076100 12311103.000000
193.088600 1784330.200000
194.060300 737506.700000
194.083700 609704.800000
194.096500 8625325.000000
195.092200 446450.200000
195.104200 457047.200000
196.051900 3386386.000000
196.075800 200363.400000
198.091300 1053552.200000
204.081100 526722.200000
205.076100 15379020.000000
206.060200 3982817.800000
206.083900 23835182.000000
207.068300 8807726.000000
207.091700 68304568.000000
208.075900 213318.300000
208.099800 1813506.500000
211.062800 833747.300000
212.046500 2028333.400000
219.091700 906890.500000
220.099500 2301443.800000
221.107300 3984634.000000
223.123200 563456.100000

>ms2peaks
50.015100 749872.400000
51.022900 833937.000000
53.038600 1885412.400000
54.033800 1085153.100000
55.017800 1930711.600000
56.049500 994750.500000
63.022700 991761.700000
65.038500 914305.400000
68.049500 300203.400000
70.065100 276184.400000
72.044400 261262.500000
74.015000 535880.400000
74.096400 751887.500000
75.022800 1256074.100000
76.030600 497579.700000
77.038500 2703630.200000
78.046400 1195114.000000
86.014900 263815.200000
87.022900 588737.500000
89.038500 3293710.500000
90.046500 1004197.100000
91.054200 964484.200000
95.049100 4818795.000000
99.022900 569090.600000
102.046400 3044283.000000
103.054200 2362245.000000
105.044700 3419307.800000
113.038500 1440324.100000
114.046400 1641368.600000
115.054200 15412047.000000
116.049600 257645.800000
116.062000 1294989.000000
117.057300 1159123.100000
117.069900 274532.200000
119.049200 614362.200000
125.038600 1970370.200000
126.046400 14101734.000000
127.054200 13802438.000000
128.049400 758616.100000
128.062000 8695896.000000
129.044600 1690688.500000
129.057500 219267.900000
129.069900 926448.400000
130.065300 964602.400000
132.057100 525635.300000
137.038500 255040.900000
138.046400 1162553.800000
139.054200 56966700.000000
140.049500 8781007.000000
140.062000 10633970.000000
141.057400 1188684.100000
141.070000 1725909.200000
142.065200 702398.200000
143.049400 264218.900000
145.064800 9888925.000000
149.038600 219405.300000
150.046500 12666644.000000
151.054200 16757410.000000
152.062000 216651360.000000
153.057300 6660180.000000
153.069900 18043582.000000
154.065100 19888798.000000
155.060300 25104500.000000
156.057400 602806.200000
156.081000 217046.600000
162.046300 943618.200000
163.054200 32157718.000000
164.049700 2473639.500000
164.062000 25577602.000000
165.058000 4227580.000000
165.069900 20399278.000000
166.065100 20795696.000000
167.072900 9714214.000000
168.056900 9098058.000000
168.080800 639615.400000
169.064800 40722148.000000
170.060000 1485441.500000
172.052400 290460.600000
176.062400 506671.100000
177.057200 2212692.200000
178.065100 31057810.000000
179.060400 22736292.000000
179.072700 12547215.000000
180.057100 2684450.800000
180.080700 18414410.000000
181.065100 483839.700000
181.075900 2404020.500000
181.088400 271382.300000
182.060000 662916.100000
183.067900 891036.900000
183.080700 293381.400000
184.051500 881165.900000
184.075600 966307.900000
185.047200 1130276.100000
188.049900 989285.800000
189.057300 581373.000000
190.065000 4631245.000000
191.060900 1118844.800000
191.072900 10529767.000000
192.068200 9706925.000000
192.080800 2590761.200000
193.076100 2912505.500000
193.088900 578998.000000
194.059700 510005.300000
194.096500 1378280.900000
196.051900 3960984.800000
198.091700 240368.000000
205.076100 15972078.000000
206.059900 711661.400000
206.083900 9619645.000000
207.091700 7568577.500000
211.063000 1797925.000000
219.091700 513814.500000
221.107200 257584.300000

>ms2peaks
50.015100 1942395.000000
51.022900 3129237.500000
53.038600 4568332.500000
54.033900 750517.900000
55.017800 1410317.400000
56.049400 473128.000000
62.015000 1060656.400000
63.022900 4774497.000000
65.038600 3053702.200000
68.049600 133958.900000
74.015000 2880334.800000
75.022900 6935071.000000
76.030700 3116874.800000
77.038500 6849066.000000
78.046400 4844451.000000
86.015000 786482.500000
87.022900 2560093.500000
88.030700 1718251.000000
89.038600 12534184.000000
90.046400 1329468.600000
91.054200 1209511.000000
95.049100 13396470.000000
98.015100 2013641.000000
99.022900 2970827.000000
100.030700 1360071.375000
101.038700 1689128.200000
102.046400 12250957.000000
103.054200 2590307.800000
105.044700 9029884.000000
113.038500 8554932.000000
114.046400 2807786.000000
115.054200 18162276.000000
116.049500 527432.600000
117.057300 739784.800000
117.069900 232492.900000
119.049200 1143285.600000
125.038600 6300518.000000
126.046400 37067100.000000
127.054200 15303425.000000
128.049400 1054888.400000
128.062000 6814065.500000
129.044700 3791686.800000
129.057300 198248.700000
130.065400 290551.700000
131.049000 157493.700000
132.057000 1205605.600000
137.038700 2621925.200000
138.046400 4314739.500000
139.054200 73507384.000000
140.049500 10816186.000000
140.061900 3157011.200000
141.057100 582005.400000
141.069800 499036.500000
143.049200 827058.300000
144.057100 150796.900000
145.064800 7588313.500000
149.038500 1069342.200000
150.046500 42184992.000000
151.054200 22190618.000000
152.062000 133176592.000000
153.057300 4885487.500000
153.069900 3514714.200000
154.065100 7373234.500000
155.060300 20389256.000000
156.057300 437592.000000
157.052500 184257.600000
162.046400 2777837.200000
163.054200 50436736.000000
164.049600 7772759.500000
164.062000 12828441.000000
165.057600 3808410.500000
165.069900 10024479.000000
166.065200 9600363.000000
167.072800 1902443.100000
168.057000 6225951.500000
169.064800 56945708.000000
170.060400 1062235.500000
176.062100 191418.100000
177.057300 3844175.000000
178.065100 17125104.000000
179.060400 23669274.000000
179.072300 4229954.500000
180.056700 283419.500000
180.080700 3436176.000000
181.076000 744318.800000
182.060500 232707.900000
183.068000 523491.500000
183.080400 614981.100000
185.046900 626744.300000
185.059600 241265.800000
188.049400 993195.700000
189.057500 575275.800000
190.065100 2456973.800000
191.060400 1019670.500000
191.073000 2971438.200000
192.068300 2733377.000000
192.081000 1019473.100000
193.088300 143465.300000
194.036500 298487.900000
194.060000 170570.300000
196.052000 2019361.100000
205.076100 8028481.500000
206.084000 1317076.600000
207.091700 545843.100000
211.062700 249076.400000
219.092200 157681.700000

