>compound EQ00341518
>parentmass 208.1332
>ionization [M+H]+
>formula C12H17NO2
>rt 240.000000
>profile orbitrap
#smiles_iso CCNC(C)CC1=CC2=C(C=C1)OCO2
#smiles_can CCNC(C)CC1=CC2=C(C=C1)OCO2
#inchikey PVXVWWANJIWJOO-UHFFFAOYSA-N
#pubchem_id 105039
#mb_accession EQ360601,EQ360602,EQ360603,EQ360604,EQ360605,EQ360606,EQ360607,EQ360608,EQ360609

>ms2peaks
72.080700 157552208.000000
77.038300 2792358.500000
105.069700 16347505.000000
133.064700 45037604.000000
135.043900 52544724.000000
163.075100 2004800256.000000
208.133100 833962816.000000

>ms2peaks
72.080700 163585952.000000
77.038300 3561067.800000
105.069800 58468732.000000
133.064700 149509696.000000
135.043900 162316528.000000
148.051400 2327134.500000
151.075300 3627650.500000
163.075100 2285888256.000000
208.133100 330929120.000000

>ms2peaks
51.022800 3358635.800000
55.017800 5641880.000000
72.080700 148890640.000000
79.054100 7881264.000000
91.054100 1444093.400000
103.054000 4826313.500000
105.069800 441746240.000000
107.048900 1897415.200000
115.054000 2645892.000000
121.028200 5985806.000000
122.036100 8103380.000000
133.064700 674279744.000000
135.043800 621729344.000000
145.064800 2750370.800000
148.051600 1544149.600000
151.075300 17379258.000000
163.075100 1238468352.000000
208.133100 12133948.000000

>ms2peaks
51.022800 3366088.500000
53.038500 1812414.900000
55.017800 21178922.000000
65.038400 2811887.000000
72.080700 107800568.000000
77.038300 9246620.000000
79.054100 62204744.000000
91.054100 4655290.500000
93.033400 4275923.000000
95.049000 5725347.500000
103.054100 40715392.000000
105.069700 874909248.000000
107.048900 2341431.800000
111.044000 1502220.900000
115.054100 7663900.500000
121.028200 4274133.500000
122.036100 16765651.000000
133.064600 632420096.000000
135.043800 673614016.000000
145.064600 1929235.800000
148.051600 2569548.000000
151.075200 13153237.000000
163.075200 265937856.000000

>ms2peaks
50.015000 1791563.600000
51.022800 4134077.000000
53.038500 8491772.000000
55.017800 37307684.000000
65.038400 7981764.000000
72.080700 77646368.000000
77.038400 30836520.000000
79.054100 227449808.000000
91.054100 8932740.000000
93.033400 15411793.000000
95.049000 33489394.000000
103.054100 128791064.000000
105.069800 942688448.000000
107.049000 2883587.500000
111.044000 4924520.500000
115.054200 12537624.000000
121.028200 8592122.000000
122.036100 19550366.000000
131.049200 1373945.800000
133.064700 320656000.000000
135.043900 556410560.000000
147.043800 2485670.500000
148.051600 6929135.500000
151.075300 3595439.200000
163.075200 35228372.000000

>ms2peaks
50.015000 3035286.000000
53.038500 28268376.000000
55.017800 41133196.000000
65.038500 27157088.000000
67.054100 1546938.500000
72.080700 53131716.000000
77.038400 90267080.000000
78.046300 1111249.200000
79.054100 406293248.000000
81.033400 3333711.000000
89.038300 787645.000000
91.054200 10289180.000000
93.033400 20425564.000000
94.041200 1478591.400000
95.049000 104110568.000000
102.046400 748864.900000
103.054100 243996192.000000
104.061900 1654297.000000
105.033400 34502100.000000
105.044700 63740008.000000
105.069800 687288256.000000
107.048900 3720625.200000
111.043900 8096472.500000
115.054100 15970012.000000
118.041300 729591.000000
121.028300 16256603.000000
122.036100 17034030.000000
131.049300 2228285.000000
133.064700 109524552.000000
135.043900 402548992.000000
147.043900 8056947.000000
148.051700 9288008.000000
163.075200 4877577.000000

>ms2peaks
50.015100 23224732.000000
51.022900 27875732.000000
53.038600 69011064.000000
55.017800 25408154.000000
63.022900 409460.400000
65.038500 62296532.000000
66.046300 726119.500000
67.054100 3971037.500000
68.025600 459533.800000
68.996900 375075.500000
72.080700 15312405.000000
77.038400 216567136.000000
78.046300 2710409.200000
79.054100 350223360.000000
81.033400 8465867.000000
89.038500 4443306.000000
90.046500 671353.000000
91.054100 11524900.000000
93.033500 7774264.500000
94.041100 2625713.000000
95.049000 238399088.000000
102.046300 3473379.200000
103.054100 197674144.000000
104.062000 2849580.200000
105.033400 38587912.000000
105.044600 144461712.000000
105.069800 135305552.000000
106.041600 1427168.500000
107.048900 2338056.500000
109.064700 379450.800000
111.044000 3505301.000000
115.054100 10466124.000000
118.041100 566014.200000
121.028300 21649142.000000
122.036100 3640142.000000
131.048800 1457498.200000
133.064600 3771569.500000
135.043900 82190040.000000
147.043900 24429268.000000
148.051700 3994539.000000

>ms2peaks
50.015100 67227384.000000
51.022900 103456008.000000
53.002200 4584065.000000
53.038600 81294368.000000
53.997400 466613.000000
55.017800 13614436.000000
63.022900 4554944.500000
64.030700 554042.300000
65.038500 74288968.000000
66.046300 3201172.500000
67.054200 2794634.500000
68.025500 286929.400000
68.997000 428753.300000
72.080700 2980486.000000
74.015000 347991.000000
75.022800 1786360.900000
77.038400 231043888.000000
78.046300 4915554.000000
79.054100 150070480.000000
81.033400 8863697.000000
89.038500 17671528.000000
90.046400 2793918.800000
91.054200 14820596.000000
93.033400 675956.100000
93.069700 342161.400000
94.041300 2921110.500000
95.049100 249824432.000000
102.046300 5096129.000000
103.054100 80066760.000000
104.061900 1718279.800000
105.033400 11691462.000000
105.044700 155183888.000000
105.069800 15445733.000000
106.041600 1303198.800000
107.048800 668375.400000
109.064800 524245.800000
115.054200 5281684.500000
121.028300 18694602.000000
122.036100 344371.900000
135.043900 11337710.000000
147.043900 16129833.000000

>ms2peaks
50.015100 112279560.000000
51.022900 228484736.000000
53.002200 7684555.000000
53.038500 61285172.000000
53.997400 551285.800000
55.017800 6918204.000000
62.015000 2062142.000000
63.022900 15545270.000000
64.030600 3327601.500000
65.002100 6663987.500000
65.038500 60030540.000000
66.046300 4636931.000000
67.054200 1823996.800000
68.997100 370186.700000
72.080700 278205.000000
74.015000 1159966.500000
75.022700 2394582.800000
76.030500 455803.200000
77.038400 142724864.000000
78.046300 7649076.500000
79.054100 46905108.000000
81.033400 5786017.000000
89.038500 28782158.000000
90.046300 1480906.200000
91.054100 13019847.000000
93.033900 296088.700000
94.041200 596224.900000
95.049000 168934048.000000
102.046300 3879904.800000
103.054100 21588356.000000
104.061900 634896.900000
105.044600 108223208.000000
106.041500 625107.400000
109.064800 323222.700000
115.054100 1605899.900000
118.041100 408839.300000
121.028300 9301422.000000
135.043900 527086.600000
147.043900 4580581.000000

