>compound EQ00093953
>parentmass 389.1123
>ionization [M+H]+
>formula C17H17ClN6O3
>rt 276.000000
>profile orbitrap
#smiles_iso CN1CCN(CC1)C(=O)OC2C3=NC=CN=C3C(=O)N2C4=NC=C(C=C4)Cl
#smiles_can CN1CCN(CC1)C(=O)OC2C3=NC=CN=C3C(=O)N2C4=NC=C(C=C4)Cl
#inchikey GBBSUAFBMRNDJC-UHFFFAOYSA-N
#pubchem_id 5735
#mb_accession EQ364301,EQ364302,EQ364303,EQ364304,EQ364305,EQ364306,EQ364307,EQ364308,EQ364309

>ms2
98.083500 173896.800000
99.091700 4995525.000000
111.994900 736471.900000
139.005900 519663.800000
143.081600 3858518.500000
217.108500 1086151.500000
245.022600 102559696.000000
247.038100 2512844.500000
263.033200 10360102.000000
277.048700 1166282.400000
345.122700 26821540.000000

>ms2
84.068300 155631.800000
97.076100 171649.500000
98.083900 1910766.600000
99.091700 3060773.000000
111.994900 1179211.100000
143.081600 2334637.200000
174.066100 164032.800000
217.027700 8407851.000000
217.108500 1817883.600000
245.022600 147562528.000000
247.038100 2535770.000000
263.033200 14409436.000000
277.048700 1598020.500000
345.122700 1200393.800000

>ms2
56.049500 167161.300000
58.065100 135472.700000
70.065100 315562.100000
76.018100 82434.100000
83.060300 84639.500000
84.068200 153724.900000
97.076100 407395.600000
98.083900 1399847.000000
99.091700 1509890.800000
111.994300 803960.400000
127.086600 100100.800000
130.005500 4397377.500000
139.005800 6563602.500000
141.021300 82072.800000
143.081600 784925.900000
157.016400 1741848.600000
160.050800 139840.200000
174.066200 186385.500000
181.051000 302447.900000
182.059000 103725.000000
186.066400 149689.100000
190.016700 657895.500000
199.061300 108590.800000
200.081800 92057.500000
202.084300 158403.200000
217.027700 78552520.000000
245.022600 63518288.000000
247.038000 692165.100000
263.033200 5158027.000000
277.048700 541241.600000

>ms2
56.049500 293507.400000
58.065100 140680.700000
70.065100 456708.100000
76.018000 519553.800000
79.029100 114322.300000
83.060300 145208.400000
84.068200 238502.900000
94.028800 130150.300000
97.039600 114205.100000
97.076100 546435.100000
98.083900 897011.400000
99.091700 903097.200000
111.994800 3501928.500000
130.005500 28931066.000000
139.005800 26224402.000000
143.081600 247579.000000
144.021100 92383.800000
152.013700 202117.600000
154.040300 270646.800000
156.055700 127917.100000
157.016400 7621116.500000
163.005900 774134.800000
171.032000 318168.100000
172.050500 407809.500000
174.066100 127569.700000
181.050900 2313863.800000
182.058800 1432905.500000
190.016700 5603431.000000
199.061300 341577.000000
202.084800 125268.000000
210.053900 127136.700000
214.049500 138299.800000
217.027700 86782752.000000
219.043300 161082.200000
245.022600 8093813.000000
247.038400 210593.100000
263.033200 624368.400000
277.048500 89016.100000

>ms2
52.018100 219656.900000
56.049500 348033.300000
58.065100 81499.700000
61.979200 175728.400000
66.033800 225250.300000
70.065100 505729.400000
76.018100 2604790.500000
79.029000 224045.800000
83.060300 150410.000000
84.068200 127897.500000
84.983900 379969.600000
94.028800 457389.200000
97.039700 333893.800000
97.076100 444284.400000
98.083900 498703.500000
99.091700 292164.000000
103.029000 125285.700000
111.994900 8479487.000000
121.039700 349672.200000
126.010600 133963.700000
127.029100 349935.200000
129.044600 86611.100000
130.005500 62829264.000000
131.047800 113967.400000
136.039500 70952.400000
139.005800 22363218.000000
144.021000 253138.800000
144.055800 166626.900000
145.039700 147533.800000
152.013700 397153.700000
154.040100 1091117.500000
155.035000 155949.300000
155.047800 508292.700000
156.055600 417750.600000
157.016400 5905977.000000
163.005800 2444963.200000
164.001000 177728.500000
167.000800 91120.100000
171.032100 242497.000000
172.050600 1392198.000000
177.008900 312049.900000
181.016300 355868.700000
181.050900 3743105.500000
182.058800 3001474.200000
187.037700 83026.500000
190.016700 8331976.000000
199.061500 187056.300000
208.027300 76267.800000
214.048800 307261.700000
215.012000 115546.400000
216.020000 99936.500000
217.027700 34284320.000000
245.022700 376736.700000

>ms2
50.015100 112760.600000
52.018200 328574.000000
53.002200 102490.800000
56.049500 371222.100000
58.065100 113285.800000
61.979200 547926.400000
66.033800 513412.400000
70.065100 420183.600000
75.010300 243533.400000
76.018200 8991261.000000
77.026000 90609.300000
78.033800 102949.800000
79.029000 263827.900000
83.060400 204917.500000
84.068300 127385.500000
84.984000 943749.200000
94.028800 624987.400000
97.039700 669336.600000
97.076000 321658.100000
98.083900 253550.700000
99.091700 116111.200000
100.018200 355209.600000
103.029000 483207.400000
104.036800 157820.500000
111.994900 16019651.000000
121.039700 889831.500000
126.010700 269834.800000
127.029100 1324297.900000
128.037000 275061.100000
129.044900 116516.200000
130.005500 86542376.000000
131.048000 241011.100000
135.995000 150928.300000
136.039400 95490.000000
139.005800 12757694.000000
144.021200 411932.600000
144.055700 194724.200000
145.039600 264821.600000
148.050700 312981.600000
152.013700 357017.300000
154.005500 127600.700000
154.040000 1562277.400000
155.035200 328102.400000
155.047800 1203727.400000
156.055600 358406.800000
157.016400 1991346.500000
163.005800 2576787.000000
164.001000 297094.900000
171.032100 103177.800000
172.050600 1830265.400000
177.008900 283907.100000
181.016500 387517.300000
181.050900 2669687.500000
182.058800 2540369.800000
187.037600 218427.900000
190.016700 4922636.500000
217.027700 8327868.000000

>ms2
50.015100 427405.900000
51.023000 128634.000000
52.018200 748580.000000
53.002200 295827.900000
56.049500 312257.800000
60.984000 190557.600000
61.979200 2600631.000000
65.002200 122498.000000
66.033800 1633817.600000
70.065100 148289.700000
75.010400 1686804.200000
76.018100 34921176.000000
77.025900 245537.100000
78.033800 133889.200000
79.029100 175305.500000
80.037000 68375.500000
83.060400 144105.200000
84.984000 4097236.200000
94.028800 836255.600000
97.039700 317841.300000
97.076100 87830.500000
100.018200 1302026.400000
101.026100 236088.500000
103.029100 775078.000000
104.036800 165346.000000
105.044800 74123.600000
111.994900 24332434.000000
118.028800 298118.800000
121.039700 560167.300000
126.010700 85361.500000
127.029200 1309408.400000
128.037100 507102.200000
130.005500 51644320.000000
131.048000 78115.100000
135.995100 193864.900000
136.026800 94019.000000
136.990200 110068.900000
139.005800 2237752.200000
144.021200 244631.100000
145.039700 165503.200000
148.050600 120683.700000
154.005500 91198.300000
154.040100 435608.200000
155.035100 162877.500000
155.047800 413335.000000
156.055600 102508.000000
157.016400 85676.500000
163.005800 453952.800000
164.000800 192570.300000
172.050500 197065.900000
181.050900 617220.400000
182.058700 203168.900000
187.037800 81394.500000
190.016800 321805.100000
217.027600 159523.100000

>ms2
50.015100 970673.500000
51.010300 79936.000000
51.022900 141740.400000
52.018200 886881.800000
53.002200 408099.900000
56.049500 203134.200000
60.984000 712308.000000
61.979200 5487070.000000
64.018200 93094.800000
65.002200 566298.800000
66.033800 1575412.400000
74.015200 158623.600000
75.010400 6337550.500000
76.018100 64097864.000000
77.013400 161529.900000
77.025900 496955.600000
78.033800 85310.600000
83.060300 119701.200000
84.984000 8410569.000000
85.979200 110936.600000
91.041700 69050.600000
94.028800 716455.700000
99.010500 186815.200000
100.018200 1259294.800000
101.013400 141532.000000
101.026000 349085.200000
103.029100 381086.900000
104.036800 153499.100000
108.044400 75613.900000
109.979300 127707.100000
111.994900 15727276.000000
118.028900 136248.700000
121.039700 116915.100000
127.029200 323479.200000
128.037000 175061.400000
130.005500 15463900.000000
136.026700 126770.800000
139.005700 208303.000000
154.040100 132208.300000
163.006000 71605.100000
181.050900 107175.600000

>ms2
50.015200 2670019.000000
51.010400 67936.600000
51.023000 139989.200000
52.018200 1083551.100000
53.002200 387979.700000
56.049500 174848.900000
60.984000 1183190.900000
61.979200 6129673.500000
64.018200 71174.600000
65.002200 1766708.400000
66.033900 801598.900000
74.015200 220378.000000
75.010400 14194921.000000
76.018100 59073468.000000
77.013400 308735.400000
77.026000 550404.800000
84.984000 8685176.000000
85.979200 164287.500000
94.028800 325902.600000
99.010400 431870.800000
100.018200 675311.800000
101.013400 76487.500000
101.026100 78706.900000
103.029100 110150.200000
104.036900 74198.200000
109.979300 68710.000000
111.994900 4388995.000000
118.028800 75631.000000
130.005500 2557993.000000
136.027000 79820.000000

