>compound EQ01542076
>parentmass 361.201
>ionization [M+H]+
>formula C21H28O5
>rt 438.000000
>profile orbitrap
#smiles_iso C[C@]12CCC(=O)C=C1CC[C@@H]3[C@@H]2C(=O)C[C@]4([C@H]3CC[C@@]4(C(=O)CO)O)C
#smiles_can CC12CCC(=O)C=C1CCC3C2C(=O)CC4(C3CCC4(C(=O)CO)O)C
#inchikey MFYSYFVPBJMHGN-ZPOLXVRWSA-N
#pubchem_id 222786
#mb_accession EQ319901,EQ319902,EQ319903,EQ319904,EQ319905,EQ319906,EQ319907,EQ319908,EQ319909

>ms2peaks
121.064300 438333.700000
163.111600 3371673.500000
283.169000 659115.900000
285.184100 552167.900000
301.180700 729041.700000
307.170000 483431.400000
313.180800 690907.400000
325.179200 1051182.800000
343.190400 3999215.200000
361.200900 423542432.000000

>ms2peaks
55.017800 243565.800000
55.054100 214370.000000
67.054200 394456.700000
69.033400 201061.700000
69.069700 281334.200000
71.049000 260836.100000
79.054000 344422.300000
81.033500 1089085.200000
81.069900 1413789.400000
83.049100 708181.600000
85.064800 281127.900000
91.054000 395221.300000
93.069900 1867019.100000
95.049100 262958.300000
95.085500 1299713.900000
97.064800 2209958.000000
101.059500 226041.400000
105.069900 3524482.200000
107.049100 239373.200000
107.085500 2608614.200000
109.064900 631079.100000
109.101200 320807.500000
111.080300 422776.400000
115.075400 205975.100000
117.069900 188636.100000
119.085500 1913462.900000
121.064800 12861159.000000
121.101300 1491113.200000
123.080400 2039418.200000
125.059800 322289.200000
129.069700 208160.700000
131.085600 1335179.600000
133.064800 656539.700000
133.101200 1273678.600000
135.080400 4798776.500000
135.116800 2519576.000000
137.059800 238830.300000
137.096100 1339558.400000
139.075300 4030933.800000
143.085600 1086137.800000
145.064900 637114.300000
145.101200 4880507.500000
147.080500 4586698.500000
147.116800 873873.500000
149.096100 1677657.100000
151.075500 982340.400000
151.111900 487902.100000
153.090900 909717.600000
155.085600 843852.000000
157.065000 372343.400000
157.101200 1200160.800000
159.080500 1465507.400000
159.116900 775855.100000
161.059700 364597.500000
161.096100 3164594.000000
161.132500 173192.800000
163.111700 77228472.000000
165.090900 921347.000000
165.127400 460726.200000
169.101100 841186.800000
171.080300 1304850.200000
171.116900 1931847.500000
173.096100 2668336.800000
173.132600 247768.700000
175.075000 165030.600000
175.111800 1390843.600000
177.091000 1451869.600000
177.127400 230310.300000
179.070400 206952.100000
179.085500 178604.000000
179.106600 962425.700000
181.101100 1024396.900000
183.080400 302643.400000
183.116800 1306606.900000
185.096100 1128425.500000
185.132600 538891.100000
187.075300 435620.600000
187.111800 1438828.600000
189.091000 2266398.800000
189.127300 1256220.800000
191.106600 1675719.600000
193.100700 314672.400000
195.116800 998567.600000
197.096000 640462.800000
197.132500 975593.900000
199.111800 2034033.800000
199.148300 248744.900000
201.090700 388186.900000
201.127600 1074210.100000
203.106800 595011.300000
203.143300 277063.400000
205.085800 239815.800000
205.101200 180499.000000
205.122400 690626.500000
207.101800 941578.600000
207.116600 789152.900000
209.096700 426649.900000
209.132700 1025029.100000
211.111800 945282.300000
211.148400 614550.600000
213.091000 175997.200000
213.127600 1099983.800000
213.164300 155870.100000
215.106800 363799.700000
215.143000 535793.100000
217.122400 963528.500000
219.101600 215358.800000
219.116900 216524.100000
221.132600 1419980.100000
223.111800 1438509.400000
223.148100 1319683.600000
225.127500 2025841.100000
225.163700 1185755.200000
227.107200 304386.700000
227.143100 1361273.800000
229.122400 1036185.200000
229.158500 187178.000000
231.138000 161690.000000
233.132300 294861.600000
235.111800 191781.200000
235.148000 956737.000000
237.127600 1301146.800000
237.163900 1321534.500000
239.143100 4222874.500000
239.179400 854807.800000
241.122300 2388823.000000
241.158700 2460461.500000
242.166300 270475.200000
243.138000 1345112.200000
243.174500 1542398.800000
245.132400 274741.100000
245.153900 237467.800000
247.148300 1318382.800000
249.127600 923888.800000
249.163800 1106447.900000
251.142900 818733.100000
251.179400 464603.500000
253.122200 196380.700000
253.159000 1143438.400000
255.138100 1201592.000000
255.174300 2170609.500000
256.181800 306532.400000
257.153700 2853496.200000
257.190000 1534249.900000
258.161700 879173.100000
261.148600 826559.400000
261.163900 784093.900000
263.143200 922502.700000
264.151100 276935.000000
265.158700 7768455.500000
266.165800 358280.800000
267.138100 2044259.600000
267.174400 7947691.000000
269.153800 587104.000000
269.189700 644630.700000
271.169200 541592.200000
273.149100 316030.100000
277.159100 858121.900000
279.137900 259757.900000
279.174400 3610678.500000
281.153600 868859.400000
283.169300 10729707.000000
284.177100 1738972.500000
285.149100 1606535.200000
285.184900 6480583.000000
289.158700 1561309.600000
295.169300 3806998.500000
297.148800 195543.200000
297.185000 3571509.000000
299.164300 10294882.000000
300.172100 1233815.500000
301.179900 12416648.000000
303.159200 688158.400000
307.169400 6596291.500000
313.179900 6902044.000000
315.195400 1757497.200000
317.174900 1353213.500000
325.179900 9884102.000000
343.190600 18721858.000000
361.201000 129762320.000000

>ms2peaks
53.038500 272275.400000
55.017800 958826.500000
55.054200 884643.200000
57.033500 194525.700000
57.069800 82466.300000
67.054200 1261878.100000
69.033500 728538.900000
69.069900 1180021.500000
71.049100 550307.500000
77.038400 260342.900000
79.054200 2410943.000000
81.033500 952836.300000
81.069900 4799818.000000
83.049100 2576784.000000
85.064600 318368.700000
91.054200 1866472.900000
93.069900 8675191.000000
95.049200 960779.400000
95.085500 3683727.200000
97.064800 6976313.000000
99.044100 315882.600000
99.080500 99856.000000
101.059600 192884.200000
105.069900 11730422.000000
107.049100 1072579.200000
107.085500 10180961.000000
109.064800 1809425.900000
109.101200 680777.600000
111.044000 242722.700000
111.080500 663803.200000
115.053900 148120.000000
117.069900 1780527.800000
119.049100 360665.900000
119.085600 6585554.500000
121.064800 20839178.000000
121.101200 5253666.000000
123.080400 4187915.500000
125.059700 403280.200000
125.096100 174832.700000
128.062000 223731.100000
129.069900 968842.100000
130.077700 246555.400000
131.085600 3780564.000000
133.064800 1732827.900000
133.101200 3311065.200000
135.080500 6596677.000000
135.116800 5916424.000000
137.059800 492698.000000
137.096100 986283.000000
139.075400 3668935.500000
141.069800 359697.800000
142.077400 172663.200000
143.085600 3627491.200000
145.064900 1289265.500000
145.101200 12516184.000000
147.080400 6909722.500000
147.116800 1600912.100000
148.088300 631998.800000
149.059800 261270.300000
149.096100 2620138.800000
151.075500 801893.900000
151.111700 230906.800000
153.091000 643497.900000
155.085600 1684081.000000
156.093300 86223.600000
157.065000 484494.900000
157.101300 2932621.800000
159.080500 3524931.000000
159.116900 2009210.000000
161.059900 470012.000000
161.096100 5786848.000000
161.132600 535021.800000
162.103800 401738.100000
163.111700 77162672.000000
165.069700 100842.500000
165.090900 681914.800000
165.127300 156615.900000
167.085500 559829.300000
168.093400 230742.400000
169.101200 2317965.000000
170.109000 233813.200000
171.080500 2132432.800000
171.116800 3144257.800000
173.096200 3840791.200000
173.132500 641480.600000
174.104200 80381.500000
175.075400 389999.800000
175.111800 2297067.800000
177.090900 913033.900000
177.127200 186492.800000
179.070200 91763.800000
179.085500 451654.000000
179.106500 713038.600000
180.093300 202034.600000
181.101100 2141787.500000
182.109200 261415.900000
183.080600 562842.500000
183.116900 3399285.500000
184.088100 90898.800000
184.124600 230910.800000
185.096100 2189691.200000
185.132400 1326806.400000
187.075200 508606.000000
187.111800 2245093.500000
187.148000 224282.100000
189.091000 2500390.500000
189.127400 2169694.800000
191.106500 775821.400000
193.101100 742688.000000
194.108600 99994.000000
195.080400 241488.500000
195.116800 2845873.500000
196.088000 187772.700000
196.124800 224027.700000
197.096100 1165097.500000
197.132500 2738213.000000
198.103800 80923.700000
199.111800 2638995.500000
199.148100 917375.400000
200.119700 95898.600000
201.091000 560812.100000
201.127300 1445256.600000
202.135100 183458.500000
203.106600 815460.700000
203.143100 527348.200000
205.101500 499397.500000
205.122000 323701.300000
206.108800 409837.700000
207.102000 472070.300000
207.116800 1501690.600000
208.125000 185302.900000
209.096200 796861.800000
209.132500 2194993.000000
210.104000 187073.400000
210.140400 98371.300000
211.111800 1695978.000000
211.148300 1210985.900000
212.119400 96994.900000
213.091200 209477.000000
213.127400 1568743.900000
213.163900 494863.700000
215.107000 496364.900000
215.143000 673653.300000
217.101700 83628.800000
217.122400 568747.600000
218.108800 210257.500000
219.117000 729790.600000
220.124700 90376.500000
221.096400 185800.400000
221.132500 1820168.400000
222.103900 178375.500000
222.140200 273215.800000
223.111900 2014536.400000
223.148200 2117329.800000
224.119700 205343.300000
224.156000 209913.100000
225.127400 2794838.200000
225.163800 1487700.000000
226.135200 491543.000000
227.106700 382056.900000
227.143000 1797560.900000
229.122600 659303.900000
229.158700 313039.700000
231.116600 160835.300000
231.138100 288536.400000
232.124900 430425.200000
233.132500 492568.200000
234.103800 89484.300000
234.140300 159153.300000
235.111800 234036.800000
235.148200 1004405.400000
236.119600 206172.000000
236.155900 91799.700000
237.127500 1345973.500000
237.163700 1470520.600000
238.135300 193978.100000
238.171700 167008.300000
239.143100 4188409.800000
239.179300 789007.600000
240.151000 367957.200000
241.122500 1232278.600000
241.158700 4920330.000000
242.166600 1683081.800000
243.137900 1044509.900000
243.174300 1328121.600000
245.118200 90871.800000
245.132300 176718.700000
245.153400 84495.400000
246.140400 153134.500000
247.148000 1161082.600000
248.119700 91333.500000
249.127400 861377.100000
249.163700 883840.100000
250.135200 98729.700000
251.143000 907989.500000
251.179700 365061.400000
252.150600 251219.500000
253.122400 213992.800000
253.158800 1269358.400000
254.166700 94146.800000
255.137900 976979.200000
255.174400 1971551.400000
256.182100 1394883.600000
257.153600 1565530.900000
257.190100 602931.500000
258.161500 4705207.000000
259.133900 93175.200000
261.148700 304394.700000
261.163700 436473.800000
263.142700 597312.000000
264.151500 99506.100000
265.158800 3750266.200000
266.166700 693446.200000
267.137900 997346.700000
267.174400 3374793.200000
268.145600 156768.200000
269.153700 1622337.100000
269.189900 350008.800000
270.161100 89787.200000
271.169200 611220.400000
273.149500 100062.400000
274.135200 220488.400000
277.159000 565667.200000
279.137500 164890.700000
279.174300 1366410.400000
281.153700 933636.100000
282.161800 86964.900000
283.169300 3347911.800000
284.177200 3984697.200000
285.149100 631640.000000
285.184900 1288246.900000
287.164300 170582.900000
289.158900 566012.800000
295.169400 872215.900000
297.184900 827697.900000
299.164300 4384792.500000
300.172200 1088128.200000
301.179900 2536509.000000
303.159400 250768.300000
307.169400 959556.600000
313.180000 890866.700000
315.195500 264321.900000
317.174300 371470.700000
325.179900 1108323.600000
343.190200 972688.100000
361.201200 2097993.000000

>ms2peaks
51.022800 61640.500000
53.002300 88751.500000
53.038500 457450.900000
55.017800 2595285.500000
55.054200 1940049.000000
57.033500 313041.500000
57.069900 203335.700000
61.028400 92004.800000
65.038500 422335.700000
67.054200 3683118.500000
69.033500 1249086.100000
69.069900 2598798.500000
71.049100 786584.200000
75.044000 101955.300000
77.038400 630327.300000
79.054200 7203285.000000
81.033500 859645.600000
81.069900 8094624.500000
83.049100 6783257.000000
85.064800 254956.000000
91.054200 7488103.500000
93.069900 17654448.000000
95.049100 2475482.500000
95.085500 4282593.000000
97.064800 10789329.000000
99.044100 254835.600000
103.054200 636484.200000
105.069900 21671866.000000
106.077700 74565.500000
107.049100 2583026.500000
107.085500 14802208.000000
108.056800 59620.700000
109.064800 2698457.500000
109.101100 645090.400000
111.044100 243294.900000
111.080400 551702.300000
115.054100 724961.400000
116.062200 237164.200000
117.069900 5466417.000000
118.077700 85227.700000
119.085600 10059165.000000
120.093400 59508.200000
121.064800 23650032.000000
121.101200 6233820.000000
123.080400 4633927.000000
125.059900 302106.600000
125.096100 61296.700000
127.053700 56054.000000
128.061900 1160180.400000
129.069800 2724685.500000
130.077800 1593465.800000
131.085500 6092546.500000
132.056900 197243.500000
132.093500 60103.300000
133.064800 2241989.500000
133.101200 4503389.500000
134.072700 204049.600000
135.080400 5113544.500000
135.116800 3855798.800000
137.059700 346023.100000
137.096100 626185.600000
139.075300 1050835.100000
141.069800 1176879.900000
142.077700 1296178.100000
143.085600 6844950.000000
144.057100 269526.600000
144.093200 330147.000000
145.064800 1623663.400000
145.101200 14757702.000000
146.072600 303057.100000
146.109000 183639.400000
147.080400 5686865.500000
147.116800 1286850.500000
148.088200 4021262.500000
149.096100 1751359.000000
151.075300 368633.900000
152.061900 102642.000000
153.069800 402339.600000
154.077900 466804.600000
155.085500 3259174.500000
156.093400 684019.200000
157.064900 865412.100000
157.101200 4168296.500000
158.072600 437461.000000
158.109000 227258.200000
159.080400 3483563.000000
159.116800 2437630.200000
160.088400 275490.000000
160.124700 63660.800000
161.059600 247400.900000
161.096100 3830306.800000
161.132700 428424.200000
162.103900 368005.200000
163.111700 44187708.000000
165.069800 790067.300000
165.091100 215136.900000
166.077500 449235.800000
167.085500 1080414.600000
168.093300 905217.000000
169.064900 176650.700000
169.101200 3171985.000000
170.072700 240279.800000
170.108800 379590.900000
171.080400 1778938.800000
171.116800 2507928.200000
172.088300 279953.100000
173.096100 2627491.500000
173.132600 700077.800000
174.103900 670166.300000
175.075300 385739.000000
175.111900 1514990.500000
176.119500 204465.100000
177.091000 418165.700000
178.077600 256645.400000
179.085600 1158107.200000
179.106600 89426.700000
180.093300 730661.800000
181.101100 2895665.800000
182.072500 177353.600000
182.109000 907675.700000
183.080600 687735.600000
183.116800 3897962.800000
184.088500 400718.400000
184.124800 437108.600000
185.096100 1854216.400000
185.132500 1799185.000000
186.104000 209973.100000
186.140300 292567.700000
187.075400 298480.800000
187.111800 1429651.800000
187.147900 170151.900000
188.119600 198793.600000
189.091100 795437.700000
189.127300 1553945.100000
190.077800 59128.900000
191.085400 310828.500000
191.106400 230776.500000
192.093500 507953.400000
193.101200 1615670.000000
194.109100 755213.200000
195.080500 420665.600000
195.116800 2802948.500000
196.088500 315726.700000
196.124400 493842.900000
197.096100 1323309.600000
197.132500 2502999.000000
198.103800 251488.500000
198.140500 191089.100000
199.111800 1762900.400000
199.148000 983310.200000
200.119700 197026.400000
200.156200 179405.800000
201.091100 283252.600000
201.127400 722219.000000
202.135200 204625.700000
203.085600 170158.200000
203.106700 268068.700000
203.143200 367176.400000
204.093900 245230.500000
205.101200 696079.600000
206.109100 942911.700000
207.080700 91816.600000
207.116800 1201729.500000
208.088300 321512.000000
208.124800 612404.900000
209.096300 786842.400000
209.132600 1905507.000000
210.104100 383757.800000
210.140100 293512.900000
211.111800 1233072.400000
211.148100 952242.600000
212.119500 322523.100000
212.155600 59393.400000
213.090800 152354.700000
213.127400 1108821.200000
213.163900 380435.500000
214.135600 286369.900000
215.106900 149752.900000
215.143000 480605.400000
216.093900 53185.300000
217.101400 301425.500000
217.122300 101127.600000
218.109000 320919.200000
219.080400 63243.200000
219.117000 629899.200000
220.124800 260918.200000
221.096200 273004.800000
221.132600 1220329.000000
222.104400 159912.300000
222.140900 302143.300000
223.111800 1051991.200000
223.148200 1144428.400000
224.119800 474356.300000
224.156100 276075.000000
225.127400 1740761.800000
225.163900 922416.400000
226.135200 1081256.800000
227.107000 188200.400000
227.143100 1199846.100000
228.151300 92177.600000
229.101100 75587.600000
229.122600 220656.500000
229.159000 229185.700000
231.116500 208334.500000
232.124400 397726.800000
233.095900 63737.500000
233.132300 448412.300000
234.103700 62504.600000
234.140900 179649.800000
235.111700 238939.600000
235.148100 387808.000000
236.119700 189071.100000
236.155100 66642.500000
237.127400 888784.900000
237.163700 601672.100000
238.135300 279099.300000
238.172000 71404.500000
239.143100 1333604.000000
239.179500 273100.800000
240.151000 593487.600000
241.122400 334320.700000
241.158700 3615057.000000
242.166600 1484982.200000
243.138000 1970340.600000
243.173900 302314.100000
244.144900 80826.000000
245.132800 53329.800000
246.140100 184726.900000
247.112300 54869.400000
247.148500 255136.500000
248.118700 58587.600000
249.127700 413063.200000
249.163900 230406.300000
250.135300 240104.900000
251.106500 79193.400000
251.143100 962998.200000
251.179600 58764.400000
252.150600 341839.800000
253.158600 663172.900000
254.130200 221136.800000
254.166500 63626.200000
255.137800 264953.600000
255.174400 848357.300000
256.182200 913880.700000
257.153700 487289.300000
257.190200 82002.300000
258.161500 5618873.500000
261.163700 65831.200000
263.143300 97735.100000
264.150700 51949.800000
265.158900 660208.200000
266.166600 291863.700000
267.138000 249425.800000
267.174300 375431.300000
268.146000 82019.100000
269.153600 2734491.200000
270.161900 98077.800000
271.169600 189644.000000
274.134300 45457.800000
279.174600 96097.100000
281.153200 238156.900000
282.161800 49351.900000
283.169200 327654.000000
284.177100 1662339.100000
285.148100 204336.900000
287.164400 60276.200000
295.169500 80551.500000
299.164400 446361.500000
300.171700 211684.900000
301.179100 73611.700000
303.159300 47289.800000
313.178600 48118.600000

>ms2peaks
50.015100 85256.300000
51.022900 238845.300000
52.030600 43797.300000
53.002200 91507.600000
53.038600 1069870.600000
55.017900 3798740.500000
55.054200 3620777.800000
57.033500 437438.800000
57.069900 83033.700000
65.038600 900920.400000
67.054200 5328847.500000
67.989200 51651.600000
69.033500 1521578.800000
69.069900 2933046.500000
71.049100 752869.200000
77.038500 1359726.900000
78.046400 57369.300000
79.054200 12723396.000000
80.062000 69651.900000
81.033500 751065.400000
81.069900 8532956.000000
83.049100 7726334.500000
85.064700 82019.100000
91.054300 18753868.000000
92.062100 80920.800000
93.069900 19223212.000000
94.041400 72264.600000
94.077800 55575.900000
95.049200 4631784.000000
95.085500 3872530.500000
97.064800 10790336.000000
99.044000 91287.000000
103.054200 1942418.800000
104.062100 271883.200000
105.044800 1792746.000000
105.069900 25316484.000000
106.077800 59253.600000
107.049100 3484535.200000
107.085500 12214029.000000
108.056900 243308.100000
109.064800 2852982.800000
109.101200 315252.800000
111.044000 168488.900000
111.080500 192600.200000
115.054200 2768031.000000
116.062100 1013234.500000
117.069900 7606201.000000
118.077700 93544.200000
119.049200 599803.700000
119.060500 618436.900000
119.085600 10072227.000000
120.057100 73773.100000
121.064800 19402758.000000
121.101200 3377519.800000
122.072500 97317.100000
123.080400 3009057.200000
125.059700 51371.400000
128.062100 3715067.500000
129.069900 4742954.000000
130.077800 3232081.200000
131.049300 305610.300000
131.085600 5772126.000000
132.057000 519426.500000
132.093400 92564.900000
133.064800 2537114.800000
133.101200 2734811.500000
134.072700 388600.700000
135.080500 2711587.000000
135.116900 1336375.500000
137.059700 89169.200000
137.096200 340733.100000
139.075300 85153.100000
141.069900 2356337.000000
142.077800 2660415.500000
143.085600 5854424.500000
144.057000 603088.400000
144.093500 525115.400000
145.064900 1665541.600000
145.101200 8950948.000000
146.072600 807527.800000
146.108900 173048.000000
147.080500 3850342.800000
147.116900 535155.800000
148.088300 8647898.000000
149.059900 75864.300000
149.096100 794325.000000
152.062200 277848.800000
153.069900 1300072.800000
154.077800 1180084.400000
155.060400 428172.200000
155.085600 3694704.000000
156.093400 1066674.900000
157.064900 843236.800000
157.101300 2755375.000000
158.072800 773534.900000
158.109100 314000.400000
159.080500 2166301.800000
159.116900 1181539.400000
160.088500 336694.800000
160.125100 51610.000000
161.096100 1961743.400000
162.103500 143707.300000
163.111800 14837360.000000
165.069900 1967445.600000
166.077700 1128038.800000
167.085500 2316789.800000
168.093400 1362104.400000
169.064700 307276.300000
169.101200 3076963.000000
170.072500 216057.200000
170.109000 465609.600000
171.080500 1208198.500000
171.116800 1396101.500000
172.088000 289235.200000
172.124700 98597.700000
173.096100 1226027.900000
173.132700 321778.100000
174.104000 1599164.100000
175.111900 695539.700000
176.119300 67077.700000
178.077900 689800.100000
179.085600 1875455.400000
180.093400 1324398.900000
181.064900 241413.100000
181.101200 2480957.000000
182.072700 268304.800000
182.109100 909733.800000
183.080500 588511.700000
183.116900 2365905.200000
184.088600 408661.400000
184.124400 298181.100000
185.095900 787106.600000
185.132500 1505462.100000
186.103800 93407.500000
186.140300 300623.500000
187.075300 60801.000000
187.111600 506603.700000
187.148100 77140.000000
188.119700 93746.800000
189.069900 61404.300000
189.090800 169879.300000
189.127600 530364.400000
190.077900 195742.700000
191.085600 884766.400000
192.093400 901770.600000
193.101200 1392357.600000
194.072300 81216.900000
194.109100 665483.700000
195.080700 526865.400000
195.116900 1602097.100000
196.088300 366014.900000
196.124500 381826.900000
197.096200 741948.100000
197.132500 1140375.200000
198.103900 234505.300000
198.140300 210002.900000
199.111800 891542.400000
199.148000 570707.500000
200.119500 178247.200000
200.156200 226104.800000
201.127500 259348.200000
202.135100 82488.700000
203.085500 356444.500000
203.143100 53421.700000
204.093200 262373.900000
205.101300 719571.600000
206.109100 744490.400000
207.080800 86031.300000
207.116900 938299.900000
208.088500 300905.800000
208.124500 402824.500000
209.096200 750278.900000
209.132600 948839.600000
210.104500 316683.200000
210.140500 85117.700000
211.112000 790212.400000
211.148400 281669.100000
212.119400 62764.200000
212.156200 47398.600000
213.127400 516016.500000
213.163600 181118.500000
214.135600 99338.500000
215.084900 63458.900000
215.106900 76801.600000
215.142800 195958.800000
216.093100 80697.400000
217.101200 469186.200000
218.109000 228726.200000
219.117100 423810.800000
220.088300 42489.000000
220.124500 198180.700000
221.096200 177715.000000
221.132700 361193.400000
222.104000 160697.600000
222.140000 85697.100000
223.111700 371699.000000
223.148100 404283.100000
224.119700 318451.000000
224.156100 77169.900000
225.127600 1173129.600000
225.163700 99650.000000
226.135200 1261289.500000
227.143100 1471241.100000
228.150600 81033.900000
229.101200 145007.100000
229.158800 84953.800000
231.117200 283091.000000
232.125000 74350.400000
233.095900 69748.300000
233.132600 176888.600000
234.103900 60565.000000
235.112100 295763.200000
235.147800 100556.900000
236.119600 82288.100000
237.127400 327069.000000
237.163700 51540.700000
238.135100 231861.900000
239.143000 396828.900000
240.151200 438663.100000
241.158800 1644271.900000
242.129800 85855.800000
242.166500 511222.400000
243.138100 3880533.800000
247.111300 50833.500000
249.127200 156786.600000
251.143200 582894.400000
252.151200 75484.100000
253.123300 46730.800000
253.158100 73445.200000
254.129800 261755.300000
255.138500 66094.000000
255.174200 256916.100000
256.182500 207459.500000
257.153100 97030.900000
258.161500 1910571.800000
265.158700 72385.700000
267.138500 48350.200000
269.153500 1192265.400000
284.177700 85817.400000

>ms2peaks
50.015100 283620.200000
51.022900 256374.100000
53.002200 311408.200000
53.038600 2397185.800000
55.017900 4640747.500000
55.054300 4251237.000000
57.033500 567821.000000
57.069900 67818.500000
59.049200 49102.800000
63.022800 56109.800000
65.038600 2033044.800000
66.046400 85772.000000
67.054200 6400672.500000
67.989300 50044.900000
69.033500 1335866.600000
69.069900 2319481.000000
71.049200 387417.400000
77.038500 2652343.000000
78.046400 436537.800000
79.054200 17063188.000000
80.062100 194317.900000
81.033500 933668.800000
81.069900 8037948.000000
82.041300 50751.800000
83.049100 8287060.000000
85.064800 81255.000000
91.054300 29788020.000000
92.062000 317291.900000
93.069900 15214847.000000
94.041400 294715.400000
94.077800 99850.400000
95.049200 8310224.000000
95.085500 2693217.000000
97.064800 9675211.000000
99.044100 40757.700000
102.046500 94022.700000
103.054200 3906347.200000
104.062100 823951.900000
105.044800 3815793.500000
105.069900 25585634.000000
106.041500 60089.300000
106.077800 252077.300000
107.049100 4409235.500000
107.085500 7044182.500000
108.057000 555887.700000
109.064800 2449786.500000
111.044000 61154.700000
111.080600 94638.600000
115.054300 6370470.500000
116.062100 1929459.500000
117.069900 8346266.500000
118.077800 280062.800000
119.049200 505044.100000
119.060400 853552.600000
119.085600 7554393.500000
120.057100 328545.700000
120.093400 82807.100000
121.064800 13527027.000000
121.101200 1419639.800000
122.072600 95218.700000
123.080400 1792126.600000
127.054200 239322.900000
128.062100 6630261.000000
129.069900 6647642.500000
130.077800 4879315.000000
131.049200 609781.900000
131.085600 4722583.000000
132.057000 999457.200000
132.093400 82094.000000
133.064800 3758103.800000
133.101200 1187715.800000
134.072700 517473.700000
135.080400 1301688.600000
135.116700 390563.200000
137.059700 71253.600000
141.069900 4018991.000000
142.077800 3309897.200000
143.085600 4728683.000000
144.057000 630075.800000
144.093400 632282.800000
145.064800 1929938.000000
145.101200 4512827.000000
146.072700 967046.100000
146.108900 65949.000000
147.080500 4140039.500000
148.088300 9151003.000000
149.096100 345181.300000
152.062000 774312.800000
153.069900 2130282.000000
154.077700 1693365.400000
155.060500 951098.200000
155.085500 3757284.800000
156.093500 1159544.900000
157.064900 780581.600000
157.101200 1647659.000000
158.072600 745760.400000
158.109100 74799.900000
159.080500 1672764.600000
159.116800 473292.900000
160.088200 262284.600000
161.059900 75661.300000
161.096200 1048948.900000
162.104100 86573.600000
163.111800 4078160.200000
165.069900 3378627.200000
166.077800 1574407.800000
167.085600 3074838.200000
168.093400 1151497.100000
169.065000 449556.500000
169.101200 1984778.400000
170.072800 320154.500000
170.109100 435023.100000
171.080300 677754.900000
171.116800 881977.400000
172.088400 233907.400000
173.096100 691894.800000
174.104000 1301386.900000
175.074900 45408.100000
175.111800 155267.600000
177.070200 66114.300000
178.077700 1498408.000000
179.085600 2375425.000000
180.093300 953240.100000
181.064800 467597.700000
181.101200 1990682.600000
182.072700 408263.200000
182.108900 644687.100000
183.080500 601367.700000
183.116900 997396.300000
184.088300 306041.200000
184.124600 167221.500000
185.096200 571714.700000
185.132600 590726.800000
186.104300 194988.500000
186.140200 78420.800000
187.111800 245809.300000
188.119700 61146.300000
189.069500 267976.900000
189.127200 188238.800000
190.078100 306570.500000
191.085600 1168924.400000
192.093400 1051760.600000
193.101200 1160604.400000
194.072200 185860.900000
194.108900 413407.700000
195.080700 626527.400000
195.116900 892371.600000
196.088200 259966.700000
196.124600 170837.600000
197.096100 618203.900000
197.132700 494265.700000
198.104000 169927.000000
199.111600 432165.500000
199.148200 333671.000000
200.119200 96334.800000
200.155900 73988.600000
201.127700 167935.700000
202.077600 258033.700000
202.135000 68065.900000
203.085600 534223.500000
204.093500 374817.800000
205.101300 720001.600000
206.109200 388264.300000
207.080400 248792.000000
207.117000 633760.200000
208.088500 243495.900000
208.124800 65471.100000
209.096100 632348.700000
209.132600 360065.200000
210.104000 252472.300000
211.111900 621110.600000
211.148300 45356.500000
212.119200 76528.000000
213.127400 252545.700000
213.163800 50412.900000
215.085600 227404.000000
215.143000 59456.100000
216.093600 202609.700000
217.101500 275100.100000
218.108800 179644.000000
219.080500 98698.400000
219.116700 233295.700000
220.088000 71114.500000
221.132400 197679.600000
222.104000 204150.200000
223.112000 315093.500000
223.148000 194109.800000
224.119200 69771.100000
225.127500 1367252.100000
226.135300 843345.900000
227.143000 789893.000000
229.100800 69493.000000
231.116500 46327.300000
233.132000 47706.900000
235.111500 61847.100000
236.120100 67900.600000
237.128100 60066.800000
238.134800 94017.700000
239.142400 162522.500000
240.150600 361374.600000
241.158600 456469.400000
242.129900 89498.300000
243.138100 2764571.200000
251.143000 165085.900000
254.129600 69467.600000
257.153400 68025.500000
258.161200 263081.600000
269.153400 238502.000000

>ms2peaks
50.015100 790440.900000
51.022900 725041.500000
52.030800 44932.500000
53.002200 711078.400000
53.038600 4886579.000000
53.997500 159803.200000
55.017900 3941225.800000
55.054300 4635308.000000
57.033500 341407.700000
63.022900 211075.900000
65.038600 6685201.000000
66.046400 343581.600000
67.054200 5338022.500000
67.989300 75260.800000
69.033500 682574.900000
69.069900 823889.100000
71.049200 171968.900000
77.038600 5502567.000000
78.046400 1420835.600000
79.054200 17073712.000000
80.062100 338125.600000
81.033500 1062379.000000
81.069900 3497334.500000
82.041400 204642.800000
83.049100 4256674.500000
89.038600 379942.800000
90.046500 83889.500000
91.054300 38085688.000000
92.062100 551292.600000
93.070000 4616539.500000
94.041400 928756.600000
95.049200 15914553.000000
95.085500 930010.500000
96.057000 67658.800000
97.064900 3684873.500000
102.046500 349227.500000
103.054300 5745804.500000
104.062100 1541830.600000
105.044800 7817271.000000
105.069900 14581848.000000
106.041500 91182.800000
106.077800 222709.500000
107.049200 3558787.200000
107.085600 955730.600000
108.057200 273405.400000
109.064800 1363041.100000
115.054300 13866598.000000
116.062100 2750020.200000
117.069900 5189184.000000
118.041800 44878.100000
118.077800 191649.300000
119.049200 549345.200000
119.060400 423955.300000
119.085600 2176185.000000
120.057000 437292.800000
121.064900 3632491.800000
123.080600 244141.100000
126.046500 87017.800000
127.054200 689144.200000
128.062100 12001467.000000
129.069900 7805155.500000
130.077800 2386835.000000
131.049200 1362482.900000
131.085600 1675601.900000
132.057000 779728.200000
133.064900 4120364.200000
134.072200 131284.000000
135.080300 228112.100000
139.054300 85583.000000
140.062000 75329.300000
141.069900 6201774.000000
142.077800 2310329.500000
143.085600 1442764.800000
144.057100 553756.700000
144.093500 208676.300000
145.064900 1852273.200000
145.101400 543365.900000
146.072600 724000.800000
147.080500 6265553.500000
148.088300 2750631.000000
152.062100 2794231.800000
153.070000 4294144.500000
154.077800 1225821.500000
155.060400 1812715.400000
155.085600 1989003.200000
156.093400 377226.300000
157.064900 618898.000000
157.101300 368088.400000
158.072700 279267.600000
159.080500 517615.700000
160.088100 48557.100000
161.096300 205453.000000
163.111700 149394.800000
165.070000 6012009.000000
166.077800 1310339.400000
167.085600 1952636.800000
168.057600 66114.700000
168.093500 459098.400000
169.064700 481396.800000
169.101300 553036.000000
170.108800 48626.400000
171.080800 278711.700000
171.117300 44919.700000
172.088600 60229.500000
173.096300 449134.800000
174.104100 288934.700000
176.062300 169863.400000
177.070000 284719.700000
178.077800 2736640.000000
179.085600 1676275.400000
180.093300 323922.200000
181.064800 456973.300000
181.101200 594976.300000
182.072700 144777.100000
182.109000 59590.300000
183.080500 286736.100000
183.117200 197203.700000
185.096400 179957.000000
185.132900 69484.000000
186.103500 53171.100000
187.111900 78179.800000
189.070000 744242.800000
190.077800 667124.500000
191.085500 1045107.300000
192.093500 362482.600000
193.101300 447089.400000
194.072900 154971.700000
194.109000 54310.400000
195.080700 300771.900000
195.117100 56880.600000
196.088800 79397.000000
197.096400 158016.800000
199.112000 48068.000000
201.127800 73002.000000
202.077900 722323.400000
203.085600 541460.800000
204.093300 44042.900000
205.101400 189344.700000
207.081200 129824.600000
209.096100 71188.900000
211.111900 350446.000000
212.119800 42766.600000
215.085500 329553.100000
216.093600 82307.500000
217.101100 65950.700000
219.080700 67732.300000
223.112100 52458.000000
225.127400 150516.700000
243.137900 150208.300000

>ms2peaks
50.015100 2230717.000000
51.023000 2400917.200000
53.002200 966362.100000
53.038600 5840502.000000
53.997500 214513.100000
55.017900 2831117.800000
55.054300 2894650.000000
57.033500 293592.700000
62.015100 35184.200000
63.022900 680909.200000
65.038600 11537516.000000
66.046400 561141.600000
67.054200 3095974.000000
67.989300 89646.100000
69.033500 320694.600000
69.069800 253459.700000
75.022800 182755.800000
76.030700 33830.200000
77.038600 6344269.500000
78.046400 2846655.200000
79.054200 11419348.000000
80.062100 156551.900000
81.033500 1192490.500000
81.069900 1170974.000000
82.041300 191075.400000
83.049100 1826905.900000
89.038600 1033298.100000
90.046300 87869.800000
91.054300 28262922.000000
92.062100 317842.300000
93.070000 791915.500000
94.041400 849050.200000
95.049200 16386425.000000
97.064900 675141.900000
102.046500 1267217.900000
103.054300 4931788.500000
104.062100 943936.200000
105.044800 8962408.000000
105.069900 5594444.500000
107.049200 2166136.800000
108.056900 63189.600000
109.064900 329823.000000
115.054300 16951072.000000
116.062100 1537588.500000
117.069900 2524808.800000
118.041800 39128.100000
119.049200 372124.400000
119.060500 79953.300000
119.085600 547590.700000
120.057100 75046.400000
121.064800 568897.700000
126.046400 353900.500000
127.054300 1195059.000000
128.062100 12578243.000000
129.069900 4448262.500000
130.077600 503585.300000
131.049200 1297545.500000
131.085500 302978.900000
132.057000 539704.900000
133.064900 1396749.800000
139.054200 555099.800000
140.062300 51033.700000
141.069900 4732597.500000
142.077900 536322.800000
143.085700 231399.300000
144.056800 346495.000000
145.064900 1419947.000000
146.072600 70400.100000
147.080500 2763813.000000
148.088200 254563.600000
150.046600 140908.000000
151.054900 78516.800000
152.062100 4418760.500000
153.069900 2982343.200000
154.077700 506050.200000
155.060400 2150550.200000
155.085600 579264.100000
157.064900 243733.900000
158.072900 46219.000000
159.080700 56435.200000
163.054300 170560.400000
164.061700 229956.900000
165.070000 5608239.500000
166.077700 537227.700000
167.085500 648961.900000
168.057100 249853.300000
168.092800 54422.700000
169.064800 586997.600000
171.080500 41797.500000
176.062100 430150.600000
177.069800 403654.300000
178.077800 2534946.200000
179.060500 159714.800000
179.085700 526305.400000
181.064800 309042.600000
181.101100 77006.600000
184.087600 35441.400000
189.070000 1459274.200000
190.077700 440489.400000
191.085700 604366.400000
192.093200 63401.700000
196.051900 45332.000000
200.062000 48605.100000
201.070100 46318.100000
202.077700 626860.600000
203.085600 210489.500000
205.065200 45464.100000
215.085800 232451.300000

>ms2peaks
50.015100 3877210.500000
51.023000 5600659.500000
52.030700 171530.800000
53.002200 1167956.000000
53.038600 4914119.500000
53.997500 231865.400000
55.017900 2047490.900000
55.054300 1458330.200000
57.033500 181491.900000
62.015000 347328.300000
63.022900 1791658.800000
65.038600 14714210.000000
66.046400 623518.800000
67.054200 1456175.500000
67.989300 155032.700000
69.033600 48067.900000
74.015100 233382.375000
75.022900 552534.400000
76.030700 268344.400000
77.038600 6395335.500000
78.046400 3584548.800000
79.054200 6115730.000000
81.033500 974295.800000
81.069800 265949.400000
82.041300 170027.600000
83.049100 635075.200000
89.038600 2615027.000000
90.046300 75858.000000
91.054300 18821864.000000
92.062300 46046.200000
93.069900 192410.300000
94.041400 750953.600000
95.049200 14246198.000000
96.057100 44622.100000
97.064900 128447.400000
102.046400 2411994.500000
103.054300 3637204.200000
104.062000 424790.600000
105.044800 8002201.500000
105.070000 1645534.000000
106.041400 44201.300000
107.049100 1201313.400000
109.064700 58080.800000
115.054300 16739023.000000
116.062100 645782.100000
117.069900 907689.800000
118.041500 45834.400000
119.049400 232373.700000
119.085700 126779.500000
121.064900 56666.700000
126.046500 887186.200000
127.054300 1395193.500000
128.062100 10596706.000000
129.044700 217770.109400
129.069900 1352757.800000
130.077900 130907.800000
131.049200 692688.900000
132.057100 355329.600000
133.064900 225325.100000
139.054200 985264.200000
141.069900 2512749.200000
142.077800 149144.200000
143.085500 49257.600000
144.056800 36411.900000
145.064900 1000641.200000
147.080500 522754.600000
150.046300 321118.900000
151.054400 174121.200000
152.062100 4672460.500000
153.070000 1317281.400000
154.077800 141263.400000
155.060400 1613223.800000
157.065200 40930.800000
163.054200 590154.100000
164.062000 497119.200000
165.070000 3906997.200000
166.077600 80137.600000
167.085600 149771.100000
168.057000 232553.400000
169.064900 817291.300000
176.062200 710526.800000
177.069900 347517.800000
178.077800 1124112.200000
179.060400 292115.400000
179.085300 67754.600000
181.064900 66272.700000
189.070000 1072195.400000
190.077800 159713.000000
191.085600 153185.700000
196.052100 43663.700000
200.062400 79102.200000
201.069900 36732.800000
202.077700 400608.500000
203.086000 41040.600000
215.086400 74111.600000

