>compound EQ01785039
>parentmass 236.1645
>ionization [M+H]+
>formula C14H21NO2
>rt 312.000000
>profile orbitrap
#smiles_iso COC1=CC=CC(=C1)C2(CCCCC2CN)O
#smiles_can COC1=CC=CC(=C1)C2(CCCCC2CN)O
#inchikey QNPPIKMBCJUUTG-UHFFFAOYSA-N
#pubchem_id 3056578
#mb_accession EQ339801,EQ339802,EQ339803,EQ339804,EQ339805,EQ339806,EQ339807,EQ339808,EQ339809

>ms2peaks
81.069700 677330.400000
121.064500 3552155.000000
187.111600 449395.100000
189.127400 327062432.000000
201.127300 3286039.000000
218.154000 124614736.000000
236.164700 6946625.000000

>ms2peaks
81.069800 2504068.000000
121.064800 18518704.000000
187.111600 425418.200000
189.127300 266762640.000000
201.127300 4065478.800000
218.154000 15619121.000000

>ms2peaks
67.054200 597653.800000
78.046200 137701.800000
79.054100 685399.000000
81.069900 13109860.000000
91.054200 552056.400000
93.069800 622786.100000
109.064700 445389.400000
121.064800 101609960.000000
135.080300 190625.200000
147.080400 2005509.400000
157.101400 186670.300000
159.080300 1330486.200000
160.088900 112223.900000
173.096000 516579.500000
187.111600 224183.700000
189.127400 102055744.000000
201.127400 1408918.800000

>ms2peaks
53.038500 144114.800000
55.054200 449228.800000
67.054100 572965.100000
77.038300 234970.300000
78.046300 467518.800000
79.054200 1510081.200000
81.069900 14983597.000000
91.054200 2448088.500000
93.069900 1376380.000000
95.049200 230472.300000
106.041200 189911.100000
109.064700 1193604.600000
119.060300 187647.500000
121.064800 143287696.000000
135.080400 970329.600000
144.057000 514885.000000
145.064700 374549.600000
147.080500 5791899.500000
158.072600 446789.400000
159.080400 1684441.400000
160.088400 207447.400000
173.096300 406960.400000
189.127400 15803588.000000
201.127600 156763.500000

>ms2peaks
53.038600 746118.400000
55.054200 761455.200000
65.038500 209225.200000
67.054200 695434.600000
77.038400 598708.100000
78.046300 612041.200000
79.054200 3088180.500000
81.069900 10540117.000000
91.054200 11510548.000000
93.069900 2035404.400000
95.049100 1203909.800000
105.044800 828941.100000
105.069900 205481.200000
106.041300 637794.500000
107.049100 575338.200000
109.064800 1238977.400000
115.054300 384346.200000
117.069800 559905.100000
119.060300 708743.600000
121.064800 116833464.000000
129.069900 563154.100000
132.056900 465981.800000
133.064500 130230.900000
135.080400 702036.600000
144.057000 991509.600000
145.064700 425332.500000
147.080400 4200953.000000
158.072700 526609.400000
159.080400 863441.100000
160.088500 446017.400000
173.096300 134715.200000
189.127600 980973.800000

>ms2peaks
51.022800 187783.000000
53.038600 1523091.000000
55.054300 659023.400000
56.049500 124418.000000
65.038600 1519487.000000
67.054200 777807.000000
77.038500 1418928.000000
78.046300 1674175.100000
79.054200 3661802.000000
81.069900 5585358.000000
91.054300 22228876.000000
93.069900 1169489.500000
95.049100 3011632.200000
103.054300 178880.200000
105.033300 96323.700000
105.044800 1786183.800000
105.069800 172228.000000
106.041300 1463109.200000
107.049200 552110.900000
109.064800 1156692.800000
115.054200 713092.600000
116.061900 527406.900000
117.069900 645290.700000
119.060400 715135.000000
121.064800 78831912.000000
128.062000 530008.700000
129.069500 722102.400000
131.049300 170655.900000
132.057000 539873.100000
133.064700 139839.700000
135.080300 438546.400000
144.057000 1122405.600000
145.064800 502675.700000
147.080500 1668397.500000
155.060100 191192.500000
158.072600 478194.400000
159.080500 520260.600000

>ms2peaks
50.015100 113334.300000
51.022900 1520449.500000
52.030800 120239.600000
53.038600 3120335.500000
55.017800 216053.000000
55.054200 217230.900000
56.049500 111980.100000
63.022800 123809.200000
65.038600 9176429.000000
66.046400 167937.200000
67.054200 625894.200000
77.038500 3878757.800000
78.046400 12740716.000000
79.054200 3504143.800000
81.033500 120283.700000
81.069900 1665158.400000
89.038700 397698.600000
90.046300 220947.600000
91.054300 29609460.000000
92.025700 96887.000000
93.069900 406600.300000
95.049100 6570666.000000
102.046400 441234.700000
103.054200 918837.200000
104.062000 498872.200000
105.044700 3772890.000000
105.070000 372274.900000
106.041300 2572895.000000
107.049000 663460.300000
109.064800 345981.600000
115.054300 3433159.200000
116.062000 1024434.300000
117.070000 548864.800000
119.060400 196025.000000
121.064800 21069810.000000
127.054500 122002.600000
128.062000 1262268.200000
129.069900 769483.200000
131.049100 810954.200000
132.056900 176265.000000
144.056900 742014.100000
145.064700 356840.700000
147.080600 113644.600000
155.060600 382787.300000

>ms2peaks
50.015100 920900.400000
51.022900 3119239.800000
52.030800 1128576.000000
53.002200 183754.400000
53.038600 2365432.800000
55.017800 211628.200000
55.054200 184061.000000
56.049400 101159.300000
63.022900 912170.200000
64.030700 143128.900000
65.038600 13703713.000000
66.046400 136086.300000
67.054200 517446.400000
76.030700 372495.400000
77.038500 3129451.800000
78.046400 20005828.000000
79.054200 1390954.500000
81.033500 149564.800000
81.069800 105099.900000
89.038600 963959.400000
90.046300 201460.900000
91.054200 13293464.000000
92.025700 139550.700000
95.049100 5491774.000000
102.046400 762237.200000
103.054200 1092781.000000
104.061900 142220.000000
105.033500 174588.400000
105.044700 2572511.200000
106.041400 967321.900000
107.049100 437778.200000
115.054200 4528944.500000
116.061800 699773.300000
121.064800 2341583.000000
127.054100 344550.600000
128.062100 1672543.600000
129.069700 194059.300000
131.049100 645109.400000
144.057000 116549.800000
145.064900 337403.400000
155.060400 419745.000000

>ms2peaks
50.015100 2842597.200000
51.023000 5612031.500000
52.030800 3306874.000000
53.002200 690441.700000
53.038600 2203244.800000
55.017800 181359.200000
63.022900 2605872.000000
64.030600 398854.400000
65.038600 11965051.000000
66.046300 375056.500000
67.054100 122786.900000
75.022800 187206.500000
76.030800 631739.800000
77.038500 2559981.800000
78.046400 16408484.000000
79.054100 539523.600000
81.033300 138076.800000
89.038500 1616172.400000
90.046400 141509.300000
91.054200 5473192.500000
95.049100 4095715.500000
102.046400 1262528.900000
103.054200 939231.300000
104.061900 97866.000000
105.044700 2542126.500000
106.041300 163245.300000
107.049100 208907.200000
115.054200 4663932.000000
116.062000 220823.500000
121.064800 165029.600000
126.046500 159761.300000
127.054300 339810.600000
128.062100 1566442.800000
131.049200 175938.000000
155.060300 152358.600000

