>compound EQ01779179
>parentmass 233.0896
>ionization [M+H]+
>formula C10H11F3N2O
>rt 480.000000
>profile orbitrap
#smiles_iso CN(C)C(=O)NC1=CC=CC(=C1)C(F)(F)F
#smiles_can CN(C)C(=O)NC1=CC=CC(=C1)C(F)(F)F
#inchikey RZILCCPWPBTYDO-UHFFFAOYSA-N
#pubchem_id 16562
#mb_accession EQ370901,EQ370902,EQ370903,EQ370904,EQ370905,EQ370906,EQ370907,EQ370908,EQ370909

>ms2
72.044400 18579520.000000
213.083400 553682.000000
233.089700 79846152.000000

>ms2
56.013100 68190.200000
72.044400 37789288.000000
168.025700 330995.700000
188.031800 448593.800000
213.083500 801725.100000
233.089700 35170900.000000

>ms2
56.013100 160518.600000
72.044400 45459996.000000
160.036900 785029.000000
168.025700 802107.400000
173.032200 62792.900000
188.031900 1383138.200000
213.083600 235834.600000
233.089800 2702137.800000

>ms2
56.013100 340651.000000
72.044400 44140704.000000
140.030600 143318.400000
145.026100 385522.700000
160.036900 2509212.500000
168.025600 866541.200000
173.032300 324319.200000
178.047600 64308.100000
188.031800 800127.200000
233.089800 58830.400000

>ms2
56.013100 526231.100000
72.044400 38901608.000000
133.026000 118172.500000
140.030700 645873.600000
145.026000 1598112.800000
148.030600 80304.100000
160.036900 2271033.500000
163.036500 53638.100000
168.025600 768764.400000
173.032300 353248.600000
178.047600 54955.100000
188.031800 168268.500000
192.062800 47911.900000

>ms2
56.013100 952259.900000
72.044400 32707862.000000
91.041600 62472.400000
113.039700 70799.100000
123.035400 155490.500000
125.019800 70954.800000
133.026000 331983.800000
140.030700 1133961.500000
141.025900 132483.400000
145.026000 2627981.200000
148.030600 204055.500000
160.036900 1193099.400000
168.025600 543560.400000
173.032200 185272.600000

>ms2
51.023000 44853.500000
56.013100 1667026.900000
57.013500 48547.800000
63.022900 184841.100000
68.994700 30912.600000
71.029200 41524.000000
72.044400 17450516.000000
75.004000 119908.600000
75.022900 358552.500000
81.013500 18465.000000
83.029200 162805.500000
90.033900 148353.800000
91.041700 207425.700000
95.010400 38913.700000
95.029200 116156.200000
99.004200 22001.600000
100.018200 156318.400000
111.024200 17739.000000
113.019800 180040.500000
113.039800 321253.800000
119.010500 37488.400000
120.024500 86731.800000
123.035300 682553.800000
125.019900 388171.800000
131.030300 49188.600000
133.026000 288433.600000
138.035100 50589.600000
140.030700 528867.700000
141.025900 505588.000000
145.026100 1870401.800000
148.030600 245167.100000
160.037100 105232.600000
168.025500 130551.800000

>ms2
51.004200 116274.800000
51.023000 47868.900000
53.002200 40961.000000
56.013100 1524700.600000
57.013500 162224.200000
62.015100 13577.100000
63.023000 603058.100000
64.018200 37020.700000
64.030700 35624.900000
68.994700 136301.000000
69.013600 14016.300000
71.029200 40593.300000
72.044400 6075871.500000
74.015100 188400.300000
75.004100 344665.100000
75.022900 1258709.000000
76.018100 9355.200000
81.013600 49102.500000
83.029200 260064.000000
90.033900 139102.700000
91.041700 102796.600000
93.013700 43951.700000
95.010400 38078.000000
95.029200 190176.000000
99.004100 84206.300000
99.010400 14989.100000
100.018200 176554.400000
105.013600 8971.400000
111.024200 14983.500000
113.019800 125363.300000
113.039800 263608.700000
115.035300 10865.600000
119.010500 63295.600000
120.024600 16311.100000
123.035400 526444.800000
125.019800 285726.200000
131.030600 67273.600000
132.018500 36059.900000
133.026000 66128.300000
140.030700 66626.300000
141.025900 288796.200000
145.026100 349697.700000
148.030700 60873.700000

>ms2
51.004200 160602.100000
51.023000 44457.600000
53.002200 33871.200000
56.013100 1262923.100000
57.013500 306890.200000
62.015100 72203.100000
63.023000 867397.600000
64.018200 79506.600000
64.030800 33777.400000
68.994700 271297.600000
69.013500 68562.800000
71.029200 14478.400000
72.044400 1923642.900000
74.015100 696463.900000
75.004100 449918.900000
75.022900 1813448.600000
76.018100 8454.100000
81.013600 54468.200000
83.029100 249148.400000
90.033900 91219.100000
91.041800 78254.300000
93.013500 57856.200000
95.010400 20207.400000
95.029200 100298.400000
99.004200 107623.200000
99.010400 49622.400000
100.018200 130008.800000
105.013500 9666.000000
113.019800 51563.200000
113.039700 92153.900000
119.010300 62317.200000
120.024600 8273.400000
123.035300 205401.100000
125.019900 106609.500000
132.018300 15449.200000
140.030800 10515.800000
141.026000 84373.500000
145.026000 50272.500000

