>compound EQ03319824
>parentmass 218.1539
>ionization [M+H]+
>formula C14H19NO
>rt 420.000000
>profile orbitrap
#smiles_iso CCOC1=CC2=C(C=C1)NC(C=C2C)(C)C
#smiles_can CCOC1=CC2=C(C=C1)NC(C=C2C)(C)C
#inchikey DECIPOUIJURFOJ-UHFFFAOYSA-N
#pubchem_id 3293
#mb_accession EQ365201,EQ365202,EQ365203,EQ365204,EQ365205,EQ365206,EQ365207,EQ365208,EQ365209

>ms2
148.075800 95806.300000
162.091200 58626.800000
176.107200 265684.400000
189.114700 80215.000000
190.122900 182208.200000
218.154100 38812240.000000

>ms2
134.060100 78660.000000
136.075700 86185.500000
148.075800 423617.200000
158.096500 45848.600000
160.075300 38800.800000
162.091400 309448.900000
172.112200 120230.200000
173.096400 83858.700000
173.120100 111860.800000
174.091500 136513.100000
174.128100 66400.200000
175.099400 87441.700000
176.107200 1011938.300000
188.107000 210833.200000
189.114900 339650.900000
190.122800 928423.200000
201.127300 51243.100000
202.122500 210558.800000
203.094500 42842.200000
203.131400 247678.600000
218.154100 36171836.000000

>ms2
55.054300 44095.300000
57.069900 108781.100000
59.049100 17428.700000
71.085600 23510.400000
81.069900 54596.900000
82.028700 18880.200000
83.049200 20514.000000
83.085500 76842.700000
97.101300 33334.500000
101.059900 23495.000000
106.065300 65163.400000
107.049200 27218.800000
107.085600 37082.200000
109.101200 18520.900000
111.044100 44147.400000
117.069900 24135.500000
120.080900 176526.000000
122.060100 169027.500000
130.065100 29883.300000
132.080800 32291.300000
133.052300 56799.500000
134.060100 639781.400000
134.096500 77293.400000
135.080600 27644.400000
136.075800 242837.500000
137.083600 56572.600000
138.091500 28739.000000
144.056000 19172.600000
144.080900 84306.300000
145.065000 61384.600000
145.089000 23458.900000
145.101300 133574.900000
146.060100 108883.700000
146.096500 36066.500000
147.068000 330713.600000
147.080700 17289.600000
148.075800 2824766.200000
149.096300 20650.300000
150.091500 130336.500000
155.085600 18229.100000
157.088900 64606.800000
158.072300 76391.400000
158.096500 313913.700000
159.080600 16731.700000
159.104600 33106.200000
160.075900 384920.500000
161.083600 325147.200000
161.120100 50564.400000
162.091500 1191583.400000
162.127800 161873.200000
163.099200 24408.800000
172.112200 340421.400000
173.096300 344407.700000
173.120100 485852.700000
174.091500 1266648.800000
174.127800 137670.900000
175.099300 674787.700000
176.107100 2612468.000000
188.107200 1602741.400000
189.115000 1401469.900000
190.122800 3793589.500000
201.127300 86136.900000
202.122800 1570814.800000
203.094400 46030.100000
203.130800 805482.800000
216.138700 24520.800000
218.154100 15678621.000000

>ms2
53.002200 4691.100000
53.038600 18859.200000
55.017800 5688.500000
55.054300 100810.600000
56.049500 10135.900000
57.069900 196936.000000
59.049100 7271.900000
65.038500 23548.300000
66.046400 4681.900000
67.054200 19519.400000
68.049400 5753.800000
69.069900 24806.400000
70.028700 5640.800000
71.085500 9944.600000
77.038200 8894.700000
79.054200 115752.100000
81.033500 6543.900000
81.057400 8386.400000
81.069900 116015.400000
82.028800 32084.900000
82.065100 9802.500000
83.049100 42203.100000
83.085500 44890.600000
84.044500 9261.600000
91.054300 59059.500000
92.049600 5173.700000
93.057400 9211.400000
93.069900 29248.400000
94.065100 24493.600000
95.049200 18594.100000
96.044400 5003.300000
96.080800 9052.200000
97.101100 8295.300000
101.059500 12886.400000
103.054200 76685.800000
105.057100 6311.700000
105.070000 83960.900000
106.065200 402281.300000
107.049200 146553.000000
107.085500 49518.700000
108.044500 40050.900000
108.080900 28989.900000
109.052400 44560.100000
109.101200 26687.200000
110.060100 41424.800000
111.044000 25949.900000
115.054300 7216.800000
116.049500 24291.800000
117.057200 27689.200000
117.069900 72756.800000
118.065200 44418.300000
119.049300 6433.700000
119.072900 31926.800000
119.085500 34022.600000
120.080900 646805.200000
121.039700 9142.300000
121.064900 21709.900000
121.101200 42683.000000
122.060100 478324.700000
129.069900 20811.200000
130.065200 122673.900000
130.077900 27797.200000
131.049200 48416.100000
131.072900 50770.300000
131.085700 33431.000000
132.080900 118276.400000
133.052300 495321.800000
133.064900 28873.000000
134.060100 1959629.200000
134.096500 120335.100000
135.067800 38651.000000
135.080500 40708.100000
136.075800 176205.600000
137.083600 77625.000000
138.091200 37515.600000
139.075400 5302.400000
142.077700 7728.400000
143.072800 22524.400000
143.086000 13421.400000
144.056000 91065.700000
144.081000 178884.900000
145.064900 97886.100000
145.089000 58201.500000
145.101300 320082.500000
146.060100 814637.900000
146.096600 223025.800000
147.068000 1146991.600000
148.075700 4479311.500000
149.070700 4674.100000
149.083600 22616.600000
149.096000 28108.500000
150.091400 202761.800000
155.085700 65668.200000
157.088700 185323.200000
158.072500 245235.800000
158.096500 746531.900000
159.067800 28682.000000
159.080600 17693.000000
159.104300 49192.400000
160.075800 1662881.400000
161.083600 852519.500000
161.120000 134099.600000
162.091400 1370030.600000
162.127800 271127.500000
163.099200 32915.400000
164.107100 20478.300000
172.112200 340865.300000
173.083700 23952.600000
173.096200 302161.700000
173.120100 347054.000000
174.091500 3385630.000000
175.099400 1076800.900000
176.107100 1199917.500000
177.115000 18594.200000
183.092000 18206.600000
188.107100 2997173.800000
189.114900 1257122.500000
190.122700 2697873.200000
201.127400 22764.500000
202.122700 2826107.500000
203.130700 408875.200000
216.138500 20332.000000
218.154200 2733621.200000

>ms2
51.022800 8518.600000
53.002200 4486.400000
53.038600 44340.700000
54.033900 4430.800000
55.017900 22333.500000
55.054300 141862.200000
56.049500 8824.900000
57.069900 159341.800000
59.049100 6956.200000
65.038600 111045.400000
67.054200 32641.900000
68.013100 6327.300000
68.049400 6285.500000
69.033600 7346.000000
69.069900 19093.800000
70.028800 10231.900000
77.038500 23448.600000
79.054200 359637.800000
80.049500 37846.900000
81.033600 7846.900000
81.057300 22677.500000
81.069900 95854.900000
82.028700 35134.500000
82.065200 6084.600000
83.049200 35189.700000
83.085600 25807.300000
89.038600 6337.300000
91.054300 175187.500000
92.049500 28001.800000
93.033600 20413.100000
93.057300 39797.200000
93.069900 75030.700000
94.041200 5701.400000
94.065200 90740.500000
95.049200 65329.900000
96.044400 24942.900000
96.080800 7544.100000
97.101400 5769.800000
103.054300 182212.400000
104.049500 6896.600000
105.044800 42419.900000
105.057500 56844.200000
105.069900 149275.500000
106.065200 837830.900000
107.049200 473507.000000
107.085500 38679.100000
108.044400 110163.900000
108.080700 32202.500000
109.052300 142696.800000
109.101200 8931.600000
110.060100 60978.000000
111.044100 88907.500000
115.054200 77530.000000
116.049500 70450.300000
116.062400 29750.800000
117.057300 111144.400000
117.069900 120662.100000
118.065200 279543.400000
119.049200 19143.400000
119.073000 143140.500000
119.085700 50170.200000
120.044400 57537.100000
120.080900 980377.800000
121.039800 107083.700000
121.064900 89970.100000
121.101300 34969.600000
122.060100 723426.900000
128.049600 4531.400000
128.062100 25276.300000
129.069900 105621.600000
130.065200 235118.200000
130.077800 75493.000000
131.049200 100285.900000
131.073000 163794.200000
131.085500 32876.700000
132.080900 238310.600000
133.052300 1339332.400000
134.060100 2230812.500000
135.067900 63394.700000
135.080300 17767.700000
136.075800 75656.000000
137.083600 49305.000000
138.091300 22052.700000
139.075500 20237.700000
141.069900 5052.500000
142.078100 7102.200000
143.049400 5093.000000
143.073000 79181.600000
143.085500 25436.000000
144.055900 241975.400000
144.080900 242121.400000
145.052300 18054.800000
145.064900 86452.100000
145.089000 55464.100000
145.101200 236086.200000
146.060100 1908145.100000
146.096500 718124.400000
147.067900 1362686.600000
148.075700 2827406.200000
149.071000 10044.700000
149.083600 29176.800000
149.096400 5938.200000
150.091400 89092.700000
153.070000 8691.500000
155.060500 30320.000000
155.085600 54566.500000
156.080900 41251.600000
157.064900 46439.000000
157.088700 235314.000000
158.072500 331691.400000
158.096600 864054.600000
159.067900 218765.300000
159.080800 19422.200000
159.104300 34544.100000
160.075800 3463046.200000
161.083600 715782.900000
161.120000 146413.000000
162.091400 509792.300000
162.127800 122817.900000
163.099400 22309.300000
164.107300 5212.700000
172.112200 178610.900000
173.083900 48926.400000
173.096200 100639.300000
173.120000 89087.400000
174.091500 4339113.500000
175.099500 566581.300000
176.107100 208561.300000
177.115200 4374.300000
188.107100 2359933.500000
189.114900 363831.500000
190.122700 697990.500000
202.122700 2069994.100000
203.130700 72075.000000
216.138300 6067.300000
218.154100 197311.200000

>ms2
50.015000 5315.400000
51.022800 6311.100000
53.002200 9573.000000
53.038600 85639.400000
53.997600 4804.900000
54.033800 10181.400000
55.017900 28780.800000
55.054300 122734.600000
56.049500 15731.500000
57.069900 104307.400000
59.049100 17669.900000
65.038600 284621.400000
66.046400 9712.300000
67.054200 73296.700000
68.013100 10376.200000
68.049300 4586.400000
69.033600 6652.100000
69.069900 10609.500000
70.028800 5342.900000
77.038500 64192.900000
78.033600 5954.400000
78.046400 10531.500000
79.054200 604502.800000
80.049500 69150.700000
81.033600 8660.200000
81.057400 25077.700000
81.070000 85424.100000
82.028900 36748.000000
82.065100 30561.700000
83.036500 7230.900000
83.049100 21023.400000
83.085500 4646.700000
84.044400 7025.200000
89.038600 83806.500000
91.054300 308322.200000
92.049500 45583.600000
92.062300 6089.800000
93.033600 20377.800000
93.057400 84492.900000
93.070000 116315.000000
94.041500 20103.300000
94.065200 185664.300000
95.049200 220653.800000
96.044500 35935.200000
102.046400 10367.300000
103.054300 357747.300000
104.049500 57672.500000
105.044800 124273.100000
105.057400 180440.800000
105.070000 208572.800000
106.065200 934132.500000
107.049200 675057.500000
108.044400 124490.900000
108.080900 22830.500000
109.052300 184892.200000
110.060200 67815.400000
111.044100 115164.300000
115.054300 223168.800000
116.049500 129967.600000
116.062000 32398.300000
117.057400 262826.600000
117.069900 118487.300000
118.065200 763000.400000
119.073100 224662.300000
119.085500 42739.900000
120.080900 748927.900000
121.039800 165836.900000
121.064900 89519.200000
121.101300 9390.200000
122.060100 731414.900000
128.049500 6297.000000
128.062100 63392.300000
129.069900 248613.000000
130.065300 337066.400000
130.077900 122804.800000
131.049300 86799.800000
131.073100 478860.400000
131.085700 28160.100000
132.044500 32040.100000
132.080900 486986.600000
133.052300 1808232.400000
134.060100 1587583.100000
135.067900 63216.000000
136.075600 43642.900000
137.083500 9986.600000
141.069900 22426.100000
142.065200 25404.900000
143.049500 23053.500000
143.073100 223083.400000
143.085600 28315.500000
144.055900 290736.000000
144.080900 217662.500000
145.052400 31747.800000
145.065000 53537.400000
145.088800 138814.800000
145.101300 76326.800000
146.060200 2627531.800000
146.096600 1090878.400000
147.068000 818071.700000
148.075800 1062258.900000
149.083600 21178.900000
150.091500 23112.700000
153.070000 22858.000000
155.060400 38441.900000
155.085600 20904.500000
156.081000 106631.100000
157.065000 84514.400000
157.088800 170631.100000
158.072500 245356.100000
158.096600 606919.600000
159.068000 484108.400000
160.075800 4331215.000000
161.083600 256717.800000
161.120300 37206.400000
162.091400 129674.800000
162.127700 34737.000000
172.075700 7413.200000
172.112200 114951.900000
173.083700 103494.700000
173.096200 25374.400000
173.119900 9041.900000
174.091500 4107136.500000
175.099800 143999.400000
176.107200 19476.400000
188.107100 887023.900000
189.114800 45399.200000
190.122700 88019.400000
202.122800 749652.300000

>ms2
50.015100 33533.500000
51.022900 32305.800000
52.030800 4796.500000
53.002200 29388.500000
53.038600 224275.800000
53.997500 5820.900000
54.033900 33737.400000
55.017900 71941.900000
55.054300 76413.500000
56.049500 8927.000000
57.069900 20523.300000
59.049100 3774.600000
63.022900 41266.000000
64.030800 3924.300000
65.038600 645956.200000
66.046400 56457.000000
67.041700 26587.200000
67.054300 140698.200000
68.013100 31991.300000
68.049500 19985.300000
68.997200 4844.000000
70.028700 5500.600000
77.038500 236406.300000
78.033800 20899.700000
78.046400 146806.100000
79.041600 46312.600000
79.054300 839921.200000
80.013100 16531.300000
80.049500 197992.100000
81.033600 53778.200000
81.057400 39801.900000
81.069900 19240.400000
82.028800 16391.100000
82.041300 3946.700000
82.065200 19101.100000
83.036600 4718.800000
89.038600 410679.500000
90.033900 16776.200000
90.046500 52979.500000
91.054300 993271.100000
92.049500 52553.800000
92.062100 3671.300000
93.033600 27106.100000
93.057400 157283.400000
93.070000 100116.300000
94.041300 46860.300000
94.065200 189812.400000
95.049200 733893.800000
96.044400 68021.800000
102.046500 46626.900000
103.054300 535108.500000
104.049500 453047.600000
105.033700 42696.900000
105.044800 422307.000000
105.057400 492482.900000
105.070000 233179.300000
106.041500 31804.900000
106.065200 474820.800000
107.049200 675231.600000
108.044400 118896.300000
109.052300 135190.900000
110.060100 38931.300000
111.031600 8789.100000
111.044100 70615.100000
112.039100 6612.600000
115.054300 797210.900000
116.049500 235539.200000
116.062100 78421.300000
117.057400 1339567.000000
117.069800 71858.000000
118.065200 1400346.000000
119.049400 18642.000000
119.073100 108050.500000
119.085500 28267.800000
120.044300 33918.500000
120.080900 169854.900000
121.039700 77903.900000
121.064900 26982.100000
122.060100 272876.000000
127.054300 28962.400000
128.049600 42250.000000
128.062100 288240.600000
129.069900 320597.500000
130.065300 916058.400000
130.077700 47059.100000
131.073100 1806558.200000
132.044500 63178.900000
132.080900 727532.400000
133.052300 1256746.000000
134.060100 388723.000000
135.067900 24374.200000
139.054200 7060.500000
140.049600 15726.600000
141.057400 9527.500000
141.069900 42285.800000
142.065200 79785.400000
143.049500 22581.700000
143.073100 437716.500000
144.044500 84639.100000
144.055900 132580.200000
144.080900 216952.000000
145.052400 67270.200000
145.064800 48425.300000
145.088800 412523.400000
146.060200 2107115.500000
146.096500 813390.100000
147.068000 107000.400000
147.080700 6168.200000
148.075800 122548.800000
152.061900 6101.800000
153.070200 6156.800000
154.065400 5973.700000
155.060600 83285.000000
156.080900 166541.800000
157.065000 119481.100000
157.088700 128245.600000
158.060100 51884.900000
158.072400 47494.000000
158.096600 182951.600000
159.068000 798017.900000
160.075800 2318311.500000
161.083700 19274.800000
162.055100 31764.600000
172.075900 39473.300000
172.112400 16266.300000
173.083700 137609.800000
174.091500 1588467.600000
188.107400 40964.400000
202.122700 21855.800000

>ms2
50.015100 125044.200000
51.023000 95623.600000
52.018200 21311.200000
52.030900 6312.700000
53.002200 36424.700000
53.038600 404496.000000
53.997500 8485.900000
54.033900 62943.500000
55.017900 108193.800000
55.054300 36397.100000
56.049500 15060.800000
62.015100 15467.700000
63.023000 202282.400000
64.030800 6668.300000
65.038600 924703.500000
66.046400 117318.500000
67.041700 63625.800000
67.054300 92438.700000
68.013100 32417.300000
68.025500 4192.500000
68.049500 7512.100000
75.023000 29557.000000
76.018300 4843.200000
76.030600 9242.100000
77.038600 390684.600000
78.033900 41872.200000
78.046400 385892.700000
79.041700 116946.700000
79.054200 631609.500000
80.013100 22171.300000
80.049500 326706.300000
81.033500 86370.500000
81.057300 28408.700000
81.069900 5572.700000
82.065300 5544.800000
83.036600 5869.700000
89.038600 759836.200000
90.034000 21827.000000
90.046500 262290.300000
91.054300 1545363.900000
92.049500 55226.100000
92.062200 3946.300000
93.057400 165126.700000
93.070000 30331.600000
94.041400 66578.900000
94.065200 90524.400000
95.049200 1184026.800000
96.044400 115091.700000
101.038700 5777.400000
102.046500 74896.000000
103.054300 674783.800000
104.049500 807024.400000
105.033600 67369.600000
105.044800 739261.600000
105.057400 372616.100000
105.070000 155611.500000
106.041500 40414.100000
106.065200 227615.000000
107.049200 286581.400000
108.044400 53628.500000
109.052400 53127.200000
110.060100 44927.900000
111.031600 23139.900000
111.044100 15311.700000
114.046500 5680.400000
115.054300 1066082.000000
116.049500 212141.800000
116.062100 117110.600000
117.057400 1936333.100000
118.065200 866081.400000
119.049300 26333.200000
119.073100 20129.800000
120.044600 19414.400000
120.080800 34217.600000
121.039800 14964.500000
121.065100 4442.900000
122.060100 48119.500000
126.046700 28943.600000
127.054300 57548.900000
128.049600 95767.000000
128.062100 433588.000000
129.044800 30678.500000
129.070000 156312.900000
130.065300 2101897.800000
131.049300 108248.000000
131.073100 1403609.200000
132.044500 81735.300000
132.057000 24909.000000
132.080900 273280.600000
133.052300 390487.400000
134.060000 100868.000000
139.054400 19946.100000
140.049400 32463.400000
141.057300 26435.400000
141.069900 24690.800000
142.065200 93876.800000
143.073100 288484.100000
144.044500 97833.300000
144.056000 44221.100000
144.080900 348170.100000
145.052400 82013.300000
145.065000 54672.400000
145.088800 266582.600000
146.060100 688099.500000
146.096500 143565.700000
147.067800 16607.700000
148.075800 9671.500000
152.062300 5660.500000
154.065400 22252.800000
155.060500 109720.400000
156.080900 105334.300000
157.065000 56189.400000
157.088700 40737.300000
158.060300 69061.100000
158.096700 29863.100000
159.068000 455037.700000
160.075800 436341.200000
162.055200 9777.500000
172.075900 33368.500000
173.083900 85672.800000
174.091500 199209.600000

>ms2
50.015200 311649.100000
51.023000 304843.500000
52.018100 29929.000000
52.030800 24564.900000
53.002300 78228.500000
53.038600 480420.600000
53.997500 21173.500000
54.033900 70346.800000
55.017900 90982.900000
55.054200 15855.200000
56.049500 6458.600000
62.015100 64302.300000
63.023000 481602.900000
64.030800 36114.800000
65.038600 1279810.000000
66.046400 168523.500000
67.041700 74172.400000
67.054200 51910.400000
68.013100 16640.900000
68.025600 5186.300000
68.049400 6698.500000
68.997000 4683.100000
75.022900 88992.400000
76.018200 6901.200000
76.030700 28634.000000
77.038600 599503.100000
78.033800 93541.800000
78.046400 482498.500000
79.041600 103063.400000
79.054300 340590.200000
80.049500 316821.700000
81.033600 73711.500000
81.057300 16104.800000
82.041300 4852.700000
89.038600 1247774.400000
90.034000 31901.700000
90.046500 465060.700000
91.054300 1262780.000000
92.049500 59499.900000
93.057400 127591.200000
93.070000 8749.500000
94.041400 61991.500000
94.065200 23600.300000
95.049200 1409054.600000
96.044500 189859.900000
101.038700 17103.800000
102.046400 156925.700000
103.054300 895152.100000
104.049500 782091.600000
105.033500 73965.800000
105.044800 823475.300000
105.057300 132423.700000
105.070000 48895.700000
106.041500 25371.100000
106.065200 74555.100000
107.049200 127138.200000
108.044500 20649.500000
109.052300 19088.100000
110.060200 21987.900000
111.031500 23138.100000
111.044000 6688.100000
112.039200 3472.700000
114.046400 15133.600000
115.054300 989565.500000
116.049500 154671.000000
116.062100 80009.700000
117.057400 1389837.800000
118.065200 312443.500000
119.049300 17842.700000
120.044600 15573.300000
120.080900 6678.300000
121.039600 6801.100000
122.060300 4916.500000
126.046500 56155.000000
127.054300 64028.100000
128.049600 95972.800000
128.062200 441118.600000
129.044800 42130.200000
129.069900 57057.900000
130.065300 2313435.000000
131.049300 95151.600000
131.073100 511343.600000
132.044400 52164.800000
132.057000 25152.500000
132.080900 62100.500000
133.052300 125978.000000
134.060200 38609.100000
139.054500 26577.900000
140.049700 41119.000000
141.057500 29269.100000
141.070100 8859.200000
142.065200 52812.300000
143.073100 155657.800000
144.044600 49788.400000
144.080900 312817.400000
145.052500 40094.500000
145.064900 39330.000000
145.088700 79199.800000
146.060100 178256.500000
146.096500 25234.600000
148.075800 4070.100000
152.062200 5824.300000
154.065200 22712.300000
155.060500 85655.600000
156.081100 56184.100000
157.065200 6796.400000
158.060100 56148.700000
159.068100 133585.200000
160.075700 43138.500000
162.055100 5244.800000
172.075900 29546.900000
173.083700 20656.100000
174.091800 3747.300000

