>compound EQ03054991
>parentmass 172.0427
>ionization [M+H]+
>formula C7H9NO2S
>rt 276.000000
>profile orbitrap
#smiles_iso CC1=CC=CC=C1S(=O)(=O)N
#smiles_can CC1=CC=CC=C1S(=O)(=O)N
#inchikey YCMLQMDWSXFTIF-UHFFFAOYSA-N
#pubchem_id 6924
#mb_accession EQ360501,EQ360502,EQ360503,EQ360504,EQ360505,EQ360506,EQ360507,EQ360508,EQ360509

>ms2
53.038600 10625.900000
55.017900 68985.900000
63.022700 13199.300000
65.038600 408340.300000
67.054200 296902.200000
77.038500 100094.200000
78.046400 65658.800000
91.054200 10218104.000000
93.069900 22126.300000
94.041400 16487.100000
95.049200 105036.600000
105.044600 36035.100000
106.041300 1670179.200000
107.049100 1392245.600000
108.057000 79138.100000
109.064800 8709633.000000
119.060400 8787399.000000
124.051900 354445.100000
155.016100 7032472.500000
172.042700 119379.000000

>ms2
51.022900 28114.300000
53.038600 23041.100000
55.017800 67872.800000
65.038600 359156.800000
67.054200 278542.600000
77.038500 68186.800000
78.046400 54532.000000
91.054200 10092344.000000
93.069800 19626.900000
95.049200 110726.600000
105.044600 25091.400000
106.041300 1635037.500000
107.049100 1350164.600000
108.056900 62412.300000
109.064800 8157999.500000
119.060400 8380899.000000
124.051900 358807.800000
155.016100 5933687.500000
172.042500 83921.900000

>ms2
51.022800 25415.200000
55.017900 46244.400000
65.038600 582757.100000
67.054200 196954.300000
77.038500 53184.300000
78.046400 38939.000000
91.054200 21896230.000000
93.069900 24280.400000
95.049200 69295.800000
105.044700 31920.100000
106.041300 1085530.500000
107.049100 859942.300000
108.056900 60085.500000
109.064800 5637698.500000
119.060400 6057405.500000
124.051900 231583.000000
155.016100 495517.500000

>ms2
65.038600 1464930.200000
67.054200 72898.300000
91.054200 28677188.000000
106.041300 362805.900000
107.049100 298427.200000
109.064800 2006176.600000
119.060400 1999869.200000
124.051900 93138.400000

>ms2
51.022700 33281.100000
63.022900 89710.200000
65.038600 4804335.000000
91.054200 30111070.000000
106.041400 109440.900000
107.049200 91196.300000
109.064800 557470.600000
119.060400 585280.100000

>ms2
50.015000 34256.000000
51.022800 33454.600000
53.002200 46276.600000
63.022900 226582.600000
65.038600 8964852.000000
89.038500 24689.600000
91.054200 21412882.000000
107.049100 30060.100000
109.064900 91224.100000
119.060400 104691.800000

>ms2
50.015100 75518.800000
51.023000 70064.300000
53.002200 148844.700000
53.997500 47926.000000
62.015000 59360.000000
63.022900 737878.100000
65.038600 13620664.000000
67.989200 34454.400000
89.038500 50931.500000
91.054200 7955880.000000
95.049100 17822.600000

>ms2
50.015100 214810.200000
51.023000 290561.200000
53.002200 307292.500000
53.038600 17663.200000
53.997400 75300.500000
61.007300 26489.100000
62.015100 197251.600000
63.022900 1119868.500000
65.038600 9608484.000000
67.989300 57295.700000
78.008700 22684.300000
89.038600 74457.100000
90.046500 19999.100000
91.054200 1981039.500000
93.057300 20206.000000

>ms2
50.015100 398072.000000
51.023000 559765.700000
52.018300 6815.000000
52.030800 6325.200000
53.002200 437885.600000
53.997500 110303.600000
54.010100 18581.900000
61.007300 74067.100000
62.015100 427534.200000
63.022900 1168494.600000
64.030800 16258.600000
65.038600 4905898.000000
66.046300 7254.200000
67.989300 71993.600000
74.015000 20435.600000
75.022800 19806.400000
78.008600 24499.200000
79.017700 6427.700000
89.038600 70638.700000
90.046300 8066.300000
91.054200 405422.500000

