>compound EQ03448849
>parentmass 312.0189
>ionization [M+H]+
>formula C14H11Cl2NO3
>rt 618.000000
>profile orbitrap
#smiles_iso C1=CC(=C(C(=C1)Cl)NC2=C(C=C(C=C2)O)CC(=O)O)Cl
#smiles_can C1=CC(=C(C(=C1)Cl)NC2=C(C=C(C=C2)O)CC(=O)O)Cl
#inchikey VNQURRWYKFZKJZ-UHFFFAOYSA-N
#pubchem_id 3052566
#mb_accession EQ340301,EQ340302,EQ340303,EQ340304,EQ340305,EQ340306,EQ340307,EQ340308,EQ340309

>ms2
230.036400 6490364.500000
231.044500 14931798.000000
266.013400 96482848.000000
294.008200 98758920.000000
312.018800 86078432.000000

>ms2
195.068000 221373.900000
230.036800 44354456.000000
231.044500 169069712.000000
266.013400 59755616.000000
277.050700 316335.900000
293.989800 3779426.250000
294.008200 6398476.500000
312.018600 1130944.100000

>ms2
159.971600 162401.700000
194.060300 592312.800000
195.067900 1216986.000000
196.075800 1454575.500000
201.034100 269472.600000
202.042500 227651.700000
214.041900 1238142.900000
224.070900 625882.900000
229.028600 338345.800000
230.036800 118289080.000000
231.044500 158768656.000000
236.992400 337576.000000
237.999900 560418.200000
259.039800 352086.000000
266.013300 1399512.900000
277.050700 349117.300000

>ms2
159.971400 317713.800000
166.065100 1161186.500000
167.072900 943303.100000
183.068500 230468.900000
194.060100 895567.500000
195.067900 4278669.500000
196.075800 4348086.500000
201.034100 904574.900000
202.041800 1589864.100000
214.042000 3808338.800000
224.071000 937644.000000
229.028500 518696.200000
230.036700 221708448.000000
231.044600 32878152.000000
236.992300 546084.900000
238.000200 362803.800000

>ms2
132.960600 442042.600000
139.054100 576978.900000
140.049300 293201.500000
166.065200 2651101.200000
167.073000 6020469.500000
168.081100 296872.800000
183.068000 540285.600000
193.051400 276178.200000
194.060200 2936158.500000
195.068000 12090534.000000
196.075800 6540652.500000
201.034000 1561644.900000
202.041900 4867392.500000
212.026500 276926.600000
214.041900 4374558.000000
224.071100 941620.400000
229.028500 520977.100000
230.036700 220590336.000000
231.044700 2365218.500000
236.992500 430953.100000

>ms2
98.999600 199067.600000
115.054100 228947.800000
123.994900 173579.600000
125.002700 365153.900000
132.960700 657416.800000
139.054200 2844958.200000
140.049500 1803867.900000
140.061600 274778.200000
159.971400 189548.900000
164.049500 231759.700000
165.057400 329067.400000
166.065200 6748269.500000
167.073000 17873742.000000
168.080800 1235376.200000
177.057200 463588.400000
178.065100 316955.500000
179.072800 276595.000000
183.068200 606885.800000
193.052300 1156302.400000
194.060200 10775427.000000
195.067900 27817554.000000
196.075800 5123687.000000
200.026600 233906.300000
201.034000 2933280.800000
202.041800 11410100.000000
204.055700 240202.400000
212.026400 877339.400000
212.070800 221855.200000
214.041900 4116182.000000
224.071000 289541.300000
226.086000 175990.700000
229.028500 488519.000000
230.036700 167477808.000000
236.992400 272975.200000

>ms2
62.015000 57864.400000
63.022700 310327.400000
65.038500 233308.000000
72.983900 655160.200000
75.022900 119734.300000
79.054200 62482.100000
81.033500 62709.800000
82.945000 289907.700000
87.022800 58818.300000
89.038600 331790.900000
90.033900 273015.900000
91.054200 198737.000000
95.049100 225924.500000
96.984000 113282.500000
98.999500 227939.900000
105.044800 133914.900000
106.945100 161311.700000
107.049100 137068.500000
108.984000 108671.100000
113.038600 626214.800000
114.046300 185757.500000
115.054200 3034321.200000
116.049500 501361.300000
116.062000 61215.500000
120.044300 299617.300000
123.995100 105636.500000
125.002800 486735.200000
126.046400 120664.800000
127.041600 114805.700000
127.054100 115675.700000
128.049500 486540.900000
128.062100 111417.300000
129.057400 58578.100000
132.057100 59422.400000
132.960700 788200.600000
138.046400 271433.600000
139.054300 23863294.000000
140.049500 18652678.000000
141.057400 490404.800000
141.069700 187928.400000
142.065200 121197.900000
143.049300 105132.000000
144.044400 160743.700000
146.060000 138378.700000
149.015100 123738.300000
149.038600 399539.700000
150.046700 291871.100000
151.054200 213424.400000
152.062100 122870.200000
154.065200 1048186.000000
155.060200 63265.700000
155.073000 114782.000000
162.010500 232611.000000
162.054900 112373.100000
164.049500 2173183.800000
165.057400 2253398.000000
166.065200 27663624.000000
167.073000 56827192.000000
168.044400 862010.500000
168.056500 454709.500000
168.080800 1190552.500000
169.052300 109714.900000
169.064800 807766.800000
170.059700 270191.500000
171.055100 66625.800000
175.041500 305912.700000
176.049400 606176.800000
177.057300 3256405.500000
178.065100 1001328.000000
179.060800 353121.000000
179.072900 1123226.200000
180.021300 58512.500000
180.044400 268483.200000
182.060100 254004.800000
183.068100 464104.800000
184.075800 405094.000000
185.059700 577858.900000
186.055000 142177.500000
193.052400 8016220.500000
194.060200 15558469.000000
195.067900 38649708.000000
196.075700 1298628.400000
200.026500 218280.800000
201.034000 5836095.500000
202.041800 8540131.000000
204.055700 1655485.200000
212.026300 1262585.100000
212.070000 209703.400000
213.033700 191604.600000
214.041800 906900.800000
226.086300 180642.200000
229.029100 710066.800000
230.036900 22818894.000000

>ms2
50.015000 282789.000000
51.022900 154214.300000
53.002200 104896.800000
53.038700 228007.200000
55.017800 102814.800000
61.007200 144500.600000
62.015100 510407.800000
63.022900 2080670.400000
64.018100 137418.700000
65.038600 1109118.200000
66.046400 166258.300000
72.983900 1473423.900000
74.015000 234630.500000
75.022900 612705.500000
76.030700 51742.900000
77.038500 334584.800000
78.046400 104899.700000
79.054300 40536.600000
81.033500 252822.500000
82.945000 514710.800000
86.014900 121667.800000
87.022900 638328.700000
88.018100 256323.800000
88.030900 255587.900000
89.038600 3408721.800000
90.033900 518427.500000
90.046500 474639.100000
91.054300 499170.800000
95.049200 748670.500000
96.984000 245312.800000
98.015000 117420.600000
98.999700 127912.300000
99.022900 435137.100000
100.018100 208909.000000
100.030700 49733.800000
101.038600 116025.100000
102.046400 420018.800000
103.054400 61576.600000
105.044700 414069.900000
106.945000 172128.200000
107.049100 49594.900000
108.984200 43366.400000
113.038600 6966413.000000
114.033800 769955.100000
114.046400 1165499.000000
115.054300 6944657.500000
116.049500 1411528.800000
116.062100 200540.900000
117.057300 307626.800000
118.041000 211931.300000
119.049100 107856.400000
120.044500 354749.600000
122.014800 41400.300000
123.022900 464169.400000
125.002800 283339.700000
125.038600 530535.300000
126.033800 103192.000000
126.046500 706855.300000
127.041700 409886.500000
127.054200 225302.100000
128.049500 1348084.200000
128.062100 273258.200000
129.044700 376996.100000
129.057400 52295.600000
130.040000 46455.600000
132.044500 115896.700000
132.057000 484487.000000
132.960600 319919.800000
134.060600 46897.300000
137.038700 670874.700000
138.046500 2039910.400000
139.054300 40314528.000000
140.049500 31665330.000000
140.061600 3726334.200000
141.033200 47938.300000
141.057300 903248.200000
141.069800 307642.000000
142.065000 140618.800000
143.036700 43167.500000
143.049200 114561.200000
144.044200 237373.200000
145.064700 193152.700000
146.059900 420356.400000
149.015400 142431.200000
149.038700 1413343.500000
150.046500 1935354.500000
151.041800 328139.200000
151.054300 275456.500000
152.049700 215311.500000
152.062000 316110.800000
153.057300 172848.400000
154.040300 138389.200000
154.065200 917253.900000
155.049300 131480.300000
155.060400 420726.200000
156.057100 438164.600000
157.052000 212274.500000
158.060200 50955.600000
162.010500 131155.200000
164.049500 11510245.000000
165.057400 4092189.200000
166.065200 35182752.000000
167.073000 31286820.000000
168.044400 819993.100000
168.056700 401263.200000
168.080800 347848.800000
169.052800 277112.900000
169.064700 1068366.400000
170.036100 156971.600000
170.060100 301640.800000
173.015300 41535.600000
175.041700 1618999.600000
176.049600 391288.400000
177.044800 228426.300000
177.057300 4203502.000000
178.065200 1075543.000000
179.060700 286921.500000
179.072800 411050.600000
180.021300 47602.200000
180.044400 211842.300000
182.059800 126867.100000
183.068000 635649.800000
184.075700 286446.400000
185.059600 425639.900000
186.055200 52393.800000
192.044200 110295.300000
193.052300 5713275.000000
194.060100 3219404.800000
195.067900 5745679.500000
196.075700 225973.800000
198.091600 53109.500000
200.026200 177741.000000
201.034100 2329870.500000
202.041700 469285.100000
204.055700 1032833.100000
212.026400 267479.500000
213.033900 60788.700000
229.028900 175555.300000
230.036900 547184.900000

>ms2
50.015100 535046.100000
51.022900 362329.500000
52.018100 52506.700000
53.002200 281638.700000
53.038600 328142.400000
55.017800 151651.200000
61.007300 524621.200000
62.015100 1456747.000000
63.022900 7519384.500000
64.018100 408060.300000
65.038600 3081817.800000
66.046400 207964.800000
72.983900 1669626.400000
74.015100 1150417.800000
75.022900 2304062.000000
76.030700 500862.300000
77.002200 112446.800000
77.038600 659349.900000
78.046400 214819.100000
79.054300 58470.700000
81.033500 235681.000000
82.945000 643161.000000
86.015100 668966.300000
87.023000 3227997.800000
88.018200 1005356.500000
88.030700 1265035.900000
89.038600 9656419.000000
90.033900 721619.400000
90.046500 811219.400000
91.054300 740624.100000
94.041300 52778.800000
95.049200 1197849.500000
96.984100 235483.400000
98.015100 750019.400000
99.022900 1573980.400000
100.018200 563584.500000
100.030700 319294.000000
101.038600 335638.900000
102.046400 844232.500000
104.049300 50416.500000
105.044800 626163.900000
106.945000 252946.200000
108.984200 60553.500000
112.018200 124885.600000
112.030800 212428.900000
113.038600 15036476.000000
114.033900 2382211.200000
114.046400 1457801.800000
115.054300 7694169.500000
116.049500 1543389.000000
117.057200 398957.700000
118.041200 242698.900000
119.049200 259478.700000
120.044300 189906.200000
122.015100 289533.000000
123.022900 1090019.400000
124.018300 226033.900000
125.002700 59343.700000
125.038600 484710.900000
126.033700 111399.400000
126.046500 1172995.500000
127.041700 698075.000000
127.054100 333557.800000
128.049400 1218251.000000
128.062100 169248.800000
129.044700 735244.800000
129.057300 93715.400000
130.040000 121195.200000
131.049400 46523.300000
132.044500 215760.400000
132.057000 641673.400000
132.960600 62367.500000
134.060100 47160.700000
137.038700 3327486.000000
138.034100 529116.000000
138.046400 2824239.200000
139.054300 37651296.000000
140.049500 27878262.000000
141.033400 45172.100000
141.057400 419511.100000
141.069800 120705.000000
143.036400 38343.500000
143.049100 121379.800000
144.044400 120693.600000
145.064900 179690.400000
146.059800 244414.900000
149.038600 794249.800000
150.046500 3268212.800000
151.041700 485847.700000
151.054100 135185.100000
152.049500 171054.500000
152.061800 186759.400000
153.057400 132163.000000
154.040300 47514.800000
154.065300 239349.800000
155.060500 357205.300000
156.057000 446146.700000
157.052200 376868.000000
158.060200 100925.700000
162.010800 51009.600000
164.049500 15501628.000000
165.057400 2646445.800000
166.065200 17067306.000000
167.073000 5187254.500000
168.044300 257719.300000
168.057000 104701.000000
169.052900 78702.000000
169.064800 679129.800000
170.036200 364441.200000
170.060200 125305.700000
173.015000 58401.900000
175.041700 1610548.100000
176.049500 286128.500000
177.044500 110267.300000
177.057300 1720972.400000
178.065200 388342.800000
179.060600 217410.400000
183.067900 232146.900000
184.075400 174497.200000
185.059700 175652.800000
193.052300 925246.700000
194.060200 705894.000000
195.068100 279168.700000
198.091300 42091.900000
200.026100 63958.200000
201.034000 331783.800000
204.055600 288032.300000

