>compound EQ03807421
>parentmass 280.19070000000005
>ionization [M+H]+
>formula C16H25NO3
>rt 306.000000
>profile orbitrap
#smiles_iso C[N+](C)(C[C@H]1CCCC[C@@]1(C2=CC(=CC=C2)OC)O)[O-]
#smiles_can C[N+](C)(CC1CCCCC1(C2=CC(=CC=C2)OC)O)[O-]
#inchikey HBXKSXMNNGHBEA-ZBFHGGJFSA-N
#pubchem_id 9861699
#mb_accession EQ331001,EQ331002,EQ331003,EQ331004,EQ331005,EQ331006,EQ331007,EQ331008,EQ331009

>ms2
58.065000 49547840.000000
74.060000 1554766.900000
110.096400 3603025.200000
121.064800 1504483.900000
135.043800 23934092.000000
201.127300 16590210.000000
262.180100 391272384.000000
280.190500 1416836352.000000

>ms2
58.065100 269862560.000000
62.060000 2963349.200000
72.080700 660203.600000
74.060000 13356937.000000
81.069900 866696.200000
82.065000 689577.900000
93.069900 982466.600000
107.049300 766537.100000
109.064700 1708847.600000
110.096400 54433044.000000
111.080300 767072.900000
121.064700 10346894.000000
125.059700 865727.200000
126.127600 1977422.200000
135.044000 215819904.000000
137.059600 2353122.000000
145.064600 702435.400000
147.080300 2059700.800000
159.080400 7590054.000000
173.096500 1765025.400000
189.127100 1283473.400000
191.106500 8937157.000000
199.111400 1486755.000000
201.127300 82805584.000000
217.122100 2566251.200000
219.137800 3426337.200000
244.169100 923196.700000
262.180100 503892928.000000
280.190600 294130208.000000

>ms2
55.054200 2787023.500000
56.049500 1451920.000000
58.065100 349980864.000000
62.060000 5586097.500000
67.054200 6025873.000000
68.049400 3787817.200000
69.033400 1229844.800000
69.069800 1410161.800000
70.065100 1372430.800000
71.072900 1469060.600000
72.080700 3664809.500000
74.060000 13987043.000000
77.038400 1287765.500000
79.054100 3373169.200000
81.057200 734793.200000
81.069800 5042264.500000
82.065100 7782993.500000
83.085500 4458240.000000
84.080800 5716083.000000
91.054200 2670893.800000
92.025300 1548446.200000
93.069900 9243096.000000
94.065100 1823454.600000
95.049200 2310169.800000
95.073000 4739449.500000
97.088600 1235578.000000
107.049100 5846212.500000
108.080700 6213307.000000
109.064800 8478624.000000
110.096400 118573064.000000
111.080400 1231560.500000
121.064800 57965372.000000
125.059700 16372228.000000
126.127700 2362019.200000
131.049200 1131086.600000
133.064900 854947.700000
135.044000 411876512.000000
137.059700 4376743.500000
144.057100 1819900.900000
145.064800 4525597.000000
146.072800 879009.100000
147.080400 14722105.000000
151.075000 1203720.600000
158.072600 1928821.400000
159.080400 51747424.000000
160.088300 3186472.000000
161.059700 975879.500000
161.096000 2309521.000000
163.075200 1470625.800000
171.080500 1172253.500000
172.088200 1114915.500000
173.096100 12326646.000000
175.075300 901027.200000
175.111600 1439649.800000
184.088300 1069907.200000
186.104000 1022931.400000
189.127600 2059788.000000
191.106500 9169926.000000
199.111800 1943719.000000
201.127300 79201104.000000
217.122700 725554.500000
219.137900 1685076.000000
234.148500 1154484.500000
244.169600 697899.200000
262.180100 75919872.000000
280.190700 8808429.000000

>ms2
53.038600 3015244.000000
55.017800 2166288.500000
55.054200 8424593.000000
56.049500 3335816.000000
57.033500 886144.500000
57.057300 922541.900000
58.065100 307784768.000000
62.060000 6500373.500000
65.038500 1096586.900000
67.054200 10679932.000000
68.025700 826513.400000
68.049500 4994264.000000
69.033500 982623.900000
69.069800 4283927.500000
70.065100 5308277.500000
71.072900 3936345.500000
72.080700 3734501.500000
74.060000 6908210.500000
77.038500 7461327.500000
79.054200 11328062.000000
80.049500 409162.800000
81.057300 1813070.200000
81.069900 8733523.000000
82.065100 14617865.000000
83.049000 648226.800000
83.085500 5738047.000000
84.080800 14587204.000000
91.054200 16224987.000000
92.025600 5442304.500000
93.069900 14093780.000000
94.041300 1650329.800000
94.065100 5278979.500000
95.049100 11215646.000000
95.073000 11506176.000000
96.080700 868979.900000
97.088600 1117360.800000
98.096400 798488.900000
105.044700 6402964.000000
105.070000 1459383.900000
106.041200 356992.000000
107.049100 18187348.000000
108.080700 9972889.000000
109.064800 13635526.000000
110.096400 56925972.000000
111.080400 1119775.800000
111.104300 420654.400000
115.053900 1529131.000000
117.069900 998035.800000
119.049100 404133.800000
119.060300 1158057.100000
119.085600 719036.300000
121.064800 96509264.000000
122.096400 326166.200000
123.080300 346852.900000
123.104100 326409.000000
124.051800 386770.300000
125.059700 64828180.000000
126.127700 1912133.400000
128.061900 1075547.200000
129.069700 2457385.500000
131.049000 1809344.200000
131.085600 373806.400000
132.057200 1263910.100000
133.064900 2103938.000000
135.044000 300626016.000000
135.054900 33401980.000000
136.052200 351600.400000
137.059700 2409998.000000
141.069900 879951.000000
142.077800 319489.200000
144.057000 13164640.000000
145.064800 8424921.000000
146.072600 3337308.200000
147.080400 20537860.000000
151.075500 345245.200000
155.060300 387689.900000
158.072600 10385511.000000
159.080400 73422856.000000
160.088300 10884142.000000
161.059600 766464.600000
161.096100 2413900.000000
163.075200 1105521.000000
169.064700 383424.000000
169.101300 761689.400000
171.080400 2078004.500000
172.088100 3958961.500000
173.096100 13309533.000000
175.111900 673079.900000
184.088600 1250338.500000
186.103900 2260470.800000
189.127500 338788.600000
191.106500 1349007.600000
199.111600 1383205.400000
201.127300 19118134.000000
262.180300 3036836.800000

>ms2
50.015100 409522.500000
51.022900 772164.600000
53.038600 9874845.000000
55.017900 4140327.200000
55.054200 14050384.000000
56.049500 5609899.500000
57.033500 1070832.600000
57.057300 1285450.000000
58.065100 252179872.000000
62.060000 6952041.500000
64.030600 679287.500000
65.038500 2488123.200000
67.041600 1193473.500000
67.054200 11347731.000000
68.025700 1147553.400000
68.049500 3496536.500000
68.997100 257444.400000
69.033500 893263.300000
69.069900 4844978.000000
70.065100 7209406.500000
71.072900 5490310.500000
72.080700 3239010.800000
74.060000 2871578.200000
77.038500 21444746.000000
78.046300 1660423.900000
79.054200 18419136.000000
80.049500 1442502.600000
81.033500 1447576.600000
81.057300 3002873.200000
81.069900 5895911.500000
82.065100 11866032.000000
83.049200 706783.200000
83.085500 5283562.500000
84.080800 17245058.000000
91.054200 42659672.000000
92.025600 19018074.000000
93.069900 12114757.000000
94.041300 4379598.500000
94.065100 8755438.000000
95.049100 36067928.000000
95.072900 10029015.000000
96.080700 1316929.900000
98.096400 364823.400000
103.054100 1464880.400000
105.044700 20877754.000000
105.069900 5197585.000000
106.041400 1368531.400000
107.049100 28358244.000000
108.056900 404171.300000
108.080700 7440491.000000
109.064800 14354389.000000
110.096400 14985603.000000
111.080400 282457.200000
115.054200 3732771.200000
116.062100 1642364.100000
117.069800 3107257.800000
118.041400 392080.700000
119.049300 664654.600000
119.060400 2088385.200000
119.085500 1212443.100000
120.057000 313687.400000
121.064800 94274512.000000
122.096600 358411.500000
124.052000 260394.900000
125.059700 86885064.000000
126.127800 264740.800000
127.054200 345318.300000
128.062100 3865035.000000
129.069800 6951512.500000
130.041200 290028.000000
130.077700 748756.900000
131.049200 3123587.000000
131.085400 702821.200000
132.057000 1947464.500000
133.064800 2287513.800000
135.044000 121762976.000000
135.055100 38614440.000000
135.080400 9005309.000000
136.051900 399127.100000
137.059600 289745.400000
141.070000 2021116.500000
142.077600 305947.100000
143.049100 345328.300000
143.085500 633204.300000
144.057000 21053654.000000
145.064800 10832411.000000
146.072600 3563974.200000
147.080400 12907376.000000
155.060500 1887631.100000
157.064900 1713400.100000
157.076000 743326.600000
158.072600 12245887.000000
159.080400 44334756.000000
160.088300 9826209.000000
161.096000 791684.500000
171.080300 2400378.800000
172.088200 3669497.000000
173.096200 6238759.500000
184.088300 702876.300000
185.095900 263143.800000
186.104100 1418962.000000
199.112100 364504.700000
201.127400 2447632.800000

>ms2
50.015100 1827873.900000
51.022900 1370852.800000
53.038600 18709270.000000
54.046400 249090.800000
55.017800 4597852.000000
55.054200 12843224.000000
56.049500 7557283.500000
57.033500 1586515.200000
57.057300 1118195.000000
58.065100 197235088.000000
62.060000 3465542.800000
63.022800 1745498.100000
64.030800 1753781.000000
65.038600 7644966.500000
66.046300 273507.300000
67.041700 1756149.500000
67.054200 10456676.000000
67.989100 226083.500000
68.025600 953172.600000
68.049500 2031127.100000
69.033500 349345.900000
69.069800 3715626.800000
70.065100 5776604.000000
71.072900 4900329.500000
72.080700 1787342.000000
74.060000 1226992.100000
77.038500 36397704.000000
78.046300 4171241.500000
79.054200 23456076.000000
80.049400 2198505.000000
81.033500 2692397.200000
81.057300 2690071.000000
81.069900 3632199.000000
82.065100 6887316.500000
83.049200 664963.600000
83.085500 2871196.000000
84.080800 15600687.000000
91.054200 66485356.000000
92.025700 50489196.000000
93.069900 6169278.000000
94.041300 6569016.500000
94.065200 9090253.000000
95.049100 63555496.000000
95.073000 5641416.500000
96.020600 278498.500000
96.080700 780289.700000
97.088700 260271.300000
102.046500 647049.100000
103.054200 4572696.000000
104.062000 930117.800000
105.044700 35222156.000000
105.069900 5388975.500000
106.041400 3354461.000000
107.049100 18711144.000000
108.057000 303015.100000
108.080700 3340086.200000
109.064800 9270100.000000
110.096500 4215816.500000
111.044100 317092.200000
115.054200 10365957.000000
116.062000 6710091.000000
117.069800 4523739.000000
118.041300 589192.400000
119.049200 715749.100000
119.060300 1613569.600000
119.085500 1066265.100000
120.056900 853789.200000
121.064800 69133152.000000
124.052000 282816.100000
125.059700 58969636.000000
127.054200 976494.800000
128.062000 8601673.000000
129.069900 10570693.000000
130.041300 1192861.400000
130.077700 1374065.000000
131.049200 4907684.500000
132.056900 2831794.500000
133.064700 2168325.000000
135.044000 37073740.000000
135.055200 28185804.000000
135.080400 4755915.000000
136.052100 264259.900000
141.069800 2697697.500000
142.077800 923844.900000
143.049100 1102679.900000
143.085700 1067570.500000
144.057000 24623284.000000
145.064800 12553679.000000
146.072700 3127934.500000
147.080400 5387458.500000
153.070000 212806.800000
154.077700 389129.300000
155.060400 4799755.500000
157.064800 2293983.500000
158.072600 9839554.000000
159.080400 22220602.000000
160.088300 4932095.500000
161.095800 234068.000000
171.080500 2148197.500000
172.088300 2174329.000000
173.096100 2529345.200000
183.081100 242908.000000
184.088100 280098.700000
185.096300 318909.800000
186.103600 365396.200000

>ms2
50.015100 6280558.500000
51.022900 5059522.000000
52.030700 225239.300000
53.002200 1894057.100000
53.038600 22723946.000000
54.033800 284196.000000
54.046400 2171024.200000
55.017800 4260804.000000
55.054200 11884088.000000
56.049500 10398695.000000
57.033500 762191.800000
57.057300 1054363.000000
58.065100 123997560.000000
60.044400 148843.100000
62.015100 671911.200000
62.060000 1442820.400000
63.022900 11013509.000000
64.030700 13031652.000000
65.038600 30352412.000000
66.046400 1793053.600000
67.041700 1720529.600000
67.054200 5890040.000000
67.989200 269083.600000
68.049500 1415115.400000
68.997100 228890.800000
69.033500 186305.100000
69.057500 334930.600000
69.069900 1418710.900000
70.065100 4232159.500000
71.072900 1705883.100000
72.080800 651814.700000
77.038500 45893736.000000
78.046400 28530150.000000
79.054200 14848116.000000
80.025600 205458.500000
80.049500 1887922.500000
81.033500 3978104.000000
81.057200 1682181.000000
81.069800 1707149.000000
82.065100 3034033.200000
83.085500 265442.700000
84.080800 7424370.000000
89.038600 1057749.500000
90.046500 1499295.800000
91.054200 80986912.000000
92.025700 105107672.000000
93.069900 1200049.400000
94.041300 8498393.000000
94.065200 9238020.000000
95.049100 87921016.000000
96.080800 299063.700000
98.096600 189330.000000
102.046400 3755573.500000
103.054200 10655826.000000
104.062100 1416266.600000
105.044800 49348700.000000
105.069900 2942599.800000
106.041300 4262272.500000
107.049100 5229648.000000
108.057000 639182.100000
108.080900 727591.700000
109.064900 2076647.900000
110.096400 273001.100000
115.054200 40600876.000000
116.062100 17233214.000000
117.069900 7076179.000000
118.041300 731380.800000
119.049300 733947.800000
119.060500 213034.500000
119.085700 156339.000000
121.064800 22648218.000000
125.059700 11313952.000000
126.046500 633312.100000
127.054300 3161130.500000
128.062000 21150932.000000
129.069800 10509465.000000
130.041400 1696558.000000
130.077800 918338.400000
131.049100 5424322.000000
132.057000 1537470.000000
133.064800 395352.900000
135.044000 1393871.900000
135.055300 5203458.000000
135.080200 680180.900000
141.069900 3360928.500000
142.077700 656033.400000
143.049300 1263932.900000
143.085500 657005.100000
144.057000 11940874.000000
145.064800 7399996.500000
146.072800 240354.600000
147.080600 662054.300000
152.062200 740806.900000
153.069800 1284483.900000
154.077800 258124.800000
155.060300 6688146.500000
157.064700 1451593.900000
158.072800 2505497.000000
159.080400 3019350.200000
160.088400 195752.500000
165.070000 190974.700000
171.080400 855514.400000

>ms2
50.015100 12251304.000000
51.023000 18606098.000000
52.030800 1385107.500000
53.002200 2771299.200000
53.038600 15313262.000000
53.997400 930197.400000
54.046400 4913579.000000
55.017800 2478803.800000
55.054200 6671524.000000
56.049500 9321795.000000
57.033400 598598.000000
57.057300 793381.400000
58.065100 61419504.000000
60.044400 246858.400000
61.007200 325635.000000
62.015000 2253706.200000
63.022900 41625064.000000
64.030700 30662956.000000
65.038600 43997668.000000
66.046400 4581523.500000
67.041600 1432509.400000
67.054200 2714346.200000
68.049500 1475649.100000
69.057300 247985.600000
69.069800 623696.400000
70.065100 1853698.100000
71.073000 336238.500000
72.080900 172051.900000
75.022800 614476.600000
76.030700 1020034.300000
77.038500 33926532.000000
78.046400 44731264.000000
79.054200 5864885.500000
80.025600 593021.800000
80.049400 1414491.600000
81.033500 3739203.800000
81.057200 606973.900000
82.065200 877366.400000
84.080800 2097267.000000
89.038600 4553147.000000
90.046500 1139900.500000
91.054200 45513888.000000
92.025700 70855640.000000
92.036900 5997619.500000
93.070100 189579.000000
94.041300 6001016.000000
94.065200 4993565.500000
95.049100 52320324.000000
102.046400 6300477.000000
103.054200 9952876.000000
104.062000 1292273.400000
105.044700 31207808.000000
106.041400 1952026.000000
107.049100 1239268.600000
108.057000 206240.600000
108.080700 184994.900000
109.064900 344125.300000
114.046600 177909.100000
115.054200 55398220.000000
116.062000 7700557.000000
117.069800 2192136.500000
118.041100 267030.400000
119.048900 257104.000000
121.064800 3375162.500000
125.059800 722675.400000
126.046300 1071981.800000
127.054300 3016635.800000
128.062000 22384120.000000
129.044700 194724.200000
129.069800 3414080.000000
130.041400 265357.200000
131.049100 2701252.200000
132.056800 168340.100000
135.055000 263832.300000
139.054300 222414.700000
141.069800 2024786.100000
143.048800 196641.500000
144.057000 2608759.800000
145.064800 3444065.200000
152.062100 906965.700000
153.069700 1074632.500000
155.060300 4768026.000000
157.064800 689864.100000
165.069700 181050.600000

>ms2
50.015100 18213408.000000
51.023000 36134876.000000
52.030700 3875448.200000
53.002200 3355082.000000
53.038600 9263950.000000
53.997400 735565.400000
54.033800 664269.400000
54.046400 3612238.200000
55.017800 1706777.500000
55.054200 2234582.200000
56.049500 5408244.500000
57.033400 184073.600000
57.057300 627225.400000
58.065100 21921804.000000
60.044400 247289.500000
61.007300 1027501.700000
62.015100 4942882.500000
63.022900 72040440.000000
64.030700 27039400.000000
65.038600 33852172.000000
66.046400 4046556.800000
67.041600 326647.300000
67.054200 1057027.000000
67.989300 751243.400000
68.049500 1590780.100000
68.997200 169726.700000
70.065100 323477.000000
74.015100 901187.562500
75.022900 2013716.100000
76.030700 2395992.800000
77.038500 18191416.000000
78.046400 30884404.000000
79.054300 2283944.800000
80.025500 199113.000000
80.049400 361989.600000
81.033400 2281583.500000
82.065000 149927.500000
89.038600 9328359.000000
90.046500 276952.900000
91.054200 19147314.000000
92.025700 25676906.000000
92.036900 2699261.000000
94.041300 2207818.000000
94.065200 1803265.100000
95.049100 24604304.000000
102.046400 7449727.000000
103.054200 5038558.000000
104.061900 205126.100000
105.044700 14015098.000000
106.041400 355212.500000
107.049100 281328.300000
114.046600 175740.300000
115.054200 42454608.000000
116.062100 2040975.400000
117.069700 196765.500000
119.049100 270662.200000
121.064700 683104.700000
126.046500 1836529.800000
127.054200 2610853.500000
128.062000 12604177.000000
129.044600 322421.200000
129.069700 853637.300000
131.049200 1205572.800000
139.054200 591668.400000
141.069800 1139716.200000
145.064900 1393704.200000
152.062000 940134.800000
153.069800 164285.700000
155.060400 2231381.500000

