>compound EQ04632149
>parentmass 222.0316
>ionization [M+H]+
>formula C11H8ClNO2
>rt 312.000000
>profile orbitrap
#smiles_iso CC1=CC2=C(C(=C(C=C2)Cl)C(=O)O)N=C1
#smiles_can CC1=CC2=C(C(=C(C=C2)Cl)C(=O)O)N=C1
#inchikey ALZOLUNSQWINIR-UHFFFAOYSA-N
#pubchem_id 91749
#mb_accession EQ372001,EQ372002,EQ372003,EQ372004,EQ372005,EQ372006,EQ372007,EQ372008,EQ372009

>ms2peaks
140.049000 73973.900000
204.021000 60045648.000000
222.031600 30206478.000000

>ms2peaks
140.048900 93786.600000
204.021000 76766624.000000
222.031600 14129472.000000

>ms2peaks
140.049100 234381.600000
141.057200 242303.000000
149.015000 189815.400000
176.026200 1145014.000000
194.036800 794919.200000
204.021100 77395416.000000
222.031700 7532896.500000

>ms2peaks
140.049500 2705311.800000
141.057300 5435707.500000
149.015300 3452964.500000
158.060200 126995.800000
168.055600 61182.400000
176.026200 9180846.000000
194.036800 5342490.500000
204.021100 56557920.000000
222.031700 5508666.000000

>ms2peaks
63.022700 41081.100000
90.046400 103949.300000
113.038500 124805.900000
114.046400 194147.400000
118.041300 50780.400000
132.057000 87079.400000
140.049500 10459172.000000
141.057200 22581748.000000
149.015200 13638367.000000
150.010500 118802.300000
158.060000 264677.600000
168.055600 97306.900000
174.010500 57572.800000
175.018200 118243.200000
176.026100 12596712.000000
194.036700 5623326.500000
204.021100 22177996.000000
222.031700 2004166.200000

>ms2peaks
63.022800 48713.500000
87.022800 33205.800000
88.030600 41283.500000
89.038600 140502.100000
90.046400 723439.000000
92.025700 44196.300000
102.046400 163750.000000
113.038500 692558.200000
114.046400 1496385.200000
116.049500 41411.600000
117.033500 54792.100000
118.041300 236878.200000
122.999400 72250.700000
131.049100 41814.400000
132.057000 829511.400000
139.041400 37465.500000
140.049500 15903268.000000
141.057200 30504376.000000
149.015300 18969298.000000
150.010500 403436.800000
158.059900 181244.300000
161.002500 68071.300000
168.055600 61995.700000
174.010600 167926.000000
175.018300 274929.600000
176.026200 5383159.500000
194.036800 1970181.600000
204.021200 4284996.000000
222.031700 439353.200000

>ms2peaks
50.015000 31568.200000
62.014900 87605.500000
63.022900 543262.100000
64.030700 53822.700000
65.038600 310943.600000
66.046400 117544.400000
72.983800 105781.400000
74.015000 74951.800000
75.022800 33739.800000
76.030700 120023.800000
87.022900 269711.100000
88.018200 107039.500000
88.030700 910135.100000
89.038500 943433.400000
90.046400 3340565.800000
92.025600 242500.500000
96.984000 56882.700000
97.979200 45296.500000
98.999600 408856.100000
99.022900 38067.000000
102.046400 683156.200000
113.038600 6211839.000000
114.033900 909527.800000
114.046400 8726175.000000
115.041600 205786.300000
115.054200 201043.400000
116.049400 53225.700000
117.033400 205245.400000
118.041300 1499292.100000
120.020600 81355.200000
122.999600 788902.600000
123.994800 67610.700000
131.049100 160708.000000
132.057000 4302234.500000
133.052100 159427.300000
136.007300 73325.400000
139.041600 73484.400000
140.049500 20223996.000000
141.057200 13640278.000000
148.007200 70626.900000
149.015300 12182279.000000
150.010500 510854.400000
157.052100 105963.600000
161.002700 118863.300000
168.021200 40212.100000
174.010500 178821.500000
175.018300 248343.400000
176.026300 201882.600000
194.036500 52407.800000
204.021000 44573.400000

>ms2peaks
50.014900 66081.200000
51.022800 19830.700000
53.002200 49863.400000
53.997400 15989.600000
61.007300 143523.100000
61.979100 34584.500000
62.015100 621568.300000
63.022900 2861162.800000
64.018100 157185.300000
64.030700 183365.800000
65.038600 723225.200000
66.046400 123892.900000
72.983900 603734.400000
74.015000 520418.900000
75.022900 178073.900000
76.018100 34698.900000
76.030700 393481.400000
77.038500 46970.300000
78.046400 58826.900000
81.033600 35894.500000
85.007300 20926.900000
86.015100 310812.900000
87.022900 1461273.900000
88.018200 574511.200000
88.030700 4938318.000000
89.038500 1270548.800000
90.033900 395643.500000
90.046400 2223490.200000
92.025700 232804.500000
95.049100 17252.500000
96.984000 255512.600000
97.979200 69614.900000
98.015100 41393.300000
98.999600 695267.400000
99.010400 36203.100000
99.023000 120780.500000
100.018100 61854.700000
102.046400 636324.400000
105.044700 20154.600000
108.983900 35473.400000
112.007500 36028.800000
112.018000 61344.800000
112.030800 44182.000000
113.038500 11946006.000000
114.033800 1761865.900000
114.046400 8166924.000000
115.041600 411399.100000
115.054200 330222.200000
116.049300 16515.600000
117.033300 175228.500000
118.041300 1484924.400000
120.020600 403414.900000
122.999600 1216106.400000
123.994800 93941.900000
126.033700 36392.400000
131.049200 132199.700000
132.057000 3634847.200000
133.052200 101339.300000
136.007700 32735.100000
138.034000 49552.500000
139.041800 66187.900000
140.049400 14768098.000000
141.057200 1813773.000000
146.036000 39088.700000
146.999700 42734.000000
148.007500 56270.100000
149.015300 2640282.800000
150.010500 129979.600000
157.052300 85931.200000
161.002800 97386.500000
174.010800 86815.800000
175.018500 61944.300000

>ms2peaks
50.015100 164295.800000
51.023000 48704.200000
53.002200 108391.700000
53.997500 18983.400000
54.046400 18305.700000
61.007300 607558.800000
62.015100 2587574.200000
63.022900 5711733.500000
64.018200 383730.000000
64.030700 383382.400000
65.038600 845694.600000
66.046400 121169.100000
67.989300 12844.900000
72.983900 1410957.600000
74.015100 1414489.200000
75.022900 474778.700000
76.018100 59768.000000
76.030700 521705.800000
77.038500 54504.900000
78.046400 63304.300000
79.017900 71810.500000
81.033500 54856.100000
85.007200 109110.800000
86.015100 1034993.600000
87.023000 2956033.200000
88.018200 1117491.800000
88.030700 6495156.000000
89.038600 1210943.800000
90.033900 429200.300000
90.046400 648316.000000
91.041600 13479.000000
92.025600 72941.200000
94.041300 14709.300000
95.049200 60468.200000
96.984000 435860.900000
97.979300 88595.500000
98.015100 160016.300000
98.999600 469588.700000
99.010200 111486.900000
99.022900 189787.300000
100.018100 156930.400000
100.030800 17197.000000
102.046400 277150.900000
105.044800 47228.900000
107.976100 47493.800000
108.983900 13601.900000
111.010300 54661.000000
112.018200 103371.700000
112.030700 69611.200000
113.038600 12524215.000000
114.033900 1866442.400000
114.046400 3008785.800000
115.041600 225013.200000
115.054200 249214.800000
117.033500 76585.200000
118.041300 477121.500000
120.020600 541698.800000
120.983900 19035.100000
122.999600 689256.400000
123.994800 60974.500000
131.049100 56255.900000
132.057000 1194711.600000
138.033800 82992.400000
139.041600 50538.500000
140.049500 6156938.000000
141.057300 135621.200000
146.036000 15240.200000
146.999400 16912.000000
149.015400 376170.900000
157.052000 44257.800000
161.003000 14678.600000

