>compound EQ04083532
>parentmass 187.0965
>ionization [M+H]+
>formula C9H14O4
>rt 408.000000
>profile orbitrap
#smiles_iso C1CCC(CC1)(CC(=O)O)C(=O)O
#smiles_can C1CCC(CC1)(CC(=O)O)C(=O)O
#inchikey SDAXMMUAZRUWNL-UHFFFAOYSA-N
#pubchem_id 260003
#mb_accession EQ331201,EQ331202,EQ331203,EQ331204,EQ331205,EQ331206,EQ331207,EQ331208,EQ331209

>ms2
55.054200 26077.000000
67.054200 57618.800000
79.054200 278924.500000
81.069900 6251409.500000
95.085600 894267.500000
99.080500 110751.700000
101.059900 28432.700000
105.069900 181151.000000
109.101200 135658.500000
111.044100 40517.300000
123.080500 7373799.500000
129.054600 26182.000000
141.091000 22076736.000000
155.106800 77454.900000
169.086000 3028696.000000
187.096600 96968.800000

>ms2
53.038400 21376.500000
55.054200 36177.000000
67.054200 84997.700000
79.054200 462220.100000
81.069900 8488854.000000
95.085600 1504057.800000
99.080400 180727.800000
101.059800 40352.900000
105.069900 300089.600000
109.101200 182224.100000
111.044100 72558.100000
123.080500 9800007.000000
141.091000 20029348.000000
155.106700 80587.900000
159.101900 24793.100000
169.086000 1778717.800000
187.096600 84693.200000

>ms2
53.038600 27447.500000
55.054200 55534.100000
65.038500 25547.600000
67.054200 284418.700000
79.054200 1962710.400000
81.069900 14522045.000000
83.049200 28215.400000
83.085600 30739.000000
93.070100 49357.100000
95.085600 6331477.000000
99.080500 473774.400000
101.059600 58807.200000
105.070000 1126682.800000
109.101200 124361.600000
111.044100 53840.900000
123.080500 9725895.000000
141.091100 4568717.000000
169.086100 62806.600000

>ms2
53.038500 45127.500000
55.054300 170975.400000
65.038600 27907.800000
67.054200 1164508.600000
79.054200 3221062.200000
81.069900 17459548.000000
83.049100 43075.000000
83.085600 30176.800000
91.054300 29388.300000
93.070000 209306.000000
95.085500 11233867.000000
99.080500 599726.500000
101.059700 28431.600000
103.054200 22053.600000
105.069900 1659744.100000
109.101200 35033.200000
123.080500 3493348.800000
141.091000 571270.600000

>ms2
53.038600 112440.100000
55.054200 493530.000000
57.033500 43170.900000
65.038500 54782.700000
67.054200 2693864.500000
77.038500 46455.300000
79.054200 3545325.500000
80.062100 24967.500000
81.069900 16410406.000000
83.049200 23337.800000
83.085600 20045.300000
91.054300 59693.600000
93.070000 565781.000000
95.085500 9673989.000000
99.080500 441264.600000
103.054200 60378.900000
105.069900 1161670.500000
123.080500 686882.000000
141.091000 49891.800000

>ms2
53.002200 37000.900000
53.038600 269183.600000
55.054300 1136553.500000
57.033500 75579.400000
65.038600 206241.100000
66.046400 50586.000000
67.054200 4681389.000000
77.038500 103078.000000
79.054200 4914139.500000
80.062000 63770.300000
81.069900 16282472.000000
91.054200 126901.800000
93.069900 842578.900000
95.085500 6574543.000000
99.080400 301399.100000
103.054200 100709.100000
105.044800 150016.000000
105.069900 780780.000000
123.080400 95995.300000

>ms2
50.015100 13094.000000
51.023000 44840.600000
53.002200 114158.600000
53.038600 899516.400000
53.997500 10496.200000
55.054300 1782518.800000
57.033500 95781.400000
59.049200 9726.900000
65.038600 518647.100000
66.046400 186311.600000
67.054200 3511231.000000
67.989300 21567.900000
77.038500 229571.100000
79.054200 5889171.500000
80.062000 104852.100000
81.069900 8201490.500000
91.054300 204210.000000
93.070000 416667.600000
95.049200 779077.200000
95.085600 1173612.100000
99.080500 27894.300000
103.054300 100954.100000
105.044800 401154.700000
105.069900 155389.400000

>ms2
50.015100 70057.600000
51.023000 204150.200000
53.002200 212283.100000
53.038600 1420059.100000
53.997500 49223.400000
55.054300 1171427.500000
57.033500 55632.500000
65.038600 584939.200000
66.046400 275538.800000
67.054200 1471783.000000
67.989300 31746.700000
77.038600 300139.200000
78.046400 10181.000000
79.054200 3825759.800000
80.062000 73512.500000
81.069900 2586228.200000
91.054300 137853.500000
93.069900 106870.100000
94.041400 19729.200000
95.049200 966164.000000
95.085600 131094.700000
103.054200 31986.000000
105.044800 581687.600000

>ms2
50.015200 102517.500000
51.023000 424414.200000
53.002200 285686.100000
53.038600 1161128.100000
53.997500 66619.900000
55.017900 29593.600000
55.054300 507224.200000
57.033500 32544.800000
65.038600 434503.800000
66.046400 248089.900000
67.054300 444133.200000
67.989300 30652.100000
77.038600 251270.400000
78.046500 15783.300000
79.054300 1525252.600000
80.062100 22137.800000
81.069900 478899.600000
91.054300 61945.000000
93.070000 10500.800000
94.041600 4867.800000
95.049200 717343.400000
105.044800 379123.800000

