>compound EQ05066309
>parentmass 116.1434
>ionization [M+H]+
>formula C7H17N
>rt 84.000000
>profile orbitrap
#smiles_iso CCCCNC(C)C
#smiles_can CCCCNC(C)C
#inchikey OKRJGUKZYSEUOY-UHFFFAOYSA-N
#pubchem_id 123480
#mb_accession EQ359101,EQ359102,EQ359103,EQ359104,EQ359105,EQ359106,EQ359107,EQ359108,EQ359109

>ms2peaks
53.002200 677490.200000
57.069900 27178374.000000
60.080800 1787976.100000
72.080700 506660.400000
74.096400 106541792.000000
116.143400 149573568.000000

>ms2peaks
53.002200 581743.900000
57.069900 26103636.000000
60.080800 1608087.800000
72.080700 479993.200000
74.096400 106133864.000000
116.143300 153163536.000000

>ms2peaks
53.002200 504258.100000
57.069900 29401402.000000
60.080800 1973441.100000
72.080700 507434.200000
74.096400 110697536.000000
116.143300 140992224.000000

>ms2peaks
53.002200 1087022.800000
53.997500 344570.300000
57.069900 40720120.000000
60.080800 969940.600000
72.080800 547486.200000
74.096400 59136996.000000
116.143400 32705412.000000

>ms2peaks
53.002200 1676832.400000
53.997500 386168.800000
57.069900 30628322.000000
60.080800 314651.800000
72.080800 172596.300000
74.096400 18942684.000000
78.008600 89489.600000
116.143400 4978306.000000

>ms2peaks
53.002200 1649811.000000
53.997400 128373.700000
54.010000 131249.500000
57.069900 22971748.000000
74.096400 5400262.500000
116.143500 904582.800000

>ms2peaks
53.002200 2199244.500000
53.997400 158426.700000
54.010000 114447.210900
57.069900 6225782.000000
67.989300 1031241.188000
68.928500 151219.281300
74.096400 452319.500000
78.008500 92110.700000

>ms2peaks
53.002200 1631867.200000
53.997400 341096.700000
54.010000 135734.400000
57.069900 1048845.500000
67.989300 628350.500000
68.929000 181088.234400

>ms2peaks
53.002200 1530416.400000
53.997400 435459.900000
57.069900 109812.300000
69.310100 95706.687500
78.008600 93583.000000
87.815200 76835.156250
111.920600 69845.164060

