>compound EQ05028164
>parentmass 336.1028999999999
>ionization [M+H]+
>formula C13H22NO5PS
>rt 450.000000
>profile orbitrap
#smiles_iso CCOP(=O)(NC(C)C)OC1=CC(=C(C=C1)S(=O)(=O)C)C
#smiles_can CCOP(=O)(NC(C)C)OC1=CC(=C(C=C1)S(=O)(=O)C)C
#inchikey LVNYJXIBJFXIRZ-UHFFFAOYSA-N
#pubchem_id 36028
#mb_accession EQ370301,EQ370302,EQ370303,EQ370304,EQ370305,EQ370306,EQ370307,EQ370308,EQ370309

>ms2peaks
188.046000 49316.700000
257.116600 116180.200000
266.024800 2020389.600000
277.029800 73154.400000
294.056000 2248500.200000
308.071600 17234382.000000
336.102800 44875304.000000

>ms2peaks
58.065100 38614.300000
60.080800 88445.100000
98.000100 55507.800000
108.056500 229957.000000
118.077800 47358.800000
139.021200 155516.300000
140.047100 43817.400000
167.052800 45528.900000
187.042300 692213.250000
188.047200 5321263.500000
202.062800 164110.100000
214.063000 134915.700000
216.078600 288410.400000
218.987700 1189884.600000
229.085500 54644.000000
230.094100 391930.600000
242.094400 48577.000000
247.019200 83746.200000
248.998300 2285221.800000
266.024700 37735776.000000
267.008400 236775.100000
277.029600 212328.300000
284.035300 240999.600000
294.055900 1010847.100000
298.051000 134609.000000
308.071600 22153138.000000
336.102900 1688301.000000

>ms2peaks
58.065200 117502.500000
60.080800 49851.400000
65.038300 47467.300000
78.984800 364394.700000
79.989600 27310.700000
91.054000 261790.900000
98.000200 226162.200000
105.069900 49999.200000
107.049100 148787.600000
107.073000 172383.000000
108.057000 4982157.000000
109.064800 930243.800000
112.015800 222585.300000
117.069900 41847.100000
118.077800 133348.200000
119.060500 88681.500000
121.064800 67191.700000
123.044100 134089.600000
123.080400 60590.300000
135.080400 40627.400000
136.088500 77363.400000
139.021300 2305636.500000
140.047000 44955.400000
153.010000 35661.400000
167.052800 73655.400000
170.012800 107667.300000
170.036600 425187.800000
171.020700 136701.500000
175.015500 59707.300000
184.999900 57627.500000
185.026700 54787.600000
185.036300 74217.300000
186.007900 86218.800000
186.031600 42176.600000
187.039800 2540714.500000
188.047100 25774874.000000
188.977000 115722.700000
198.044200 45879.100000
201.030900 60194.000000
202.062800 856219.600000
212.083600 32913.900000
214.062900 717871.500000
216.078600 165283.000000
218.987700 4164278.200000
230.094200 184070.200000
230.987800 30930.900000
242.094100 32101.700000
247.019600 29605.600000
248.998300 2953316.800000
266.024800 14101227.000000
267.008800 1663200.000000
284.035100 110515.300000
285.019500 71106.500000
290.061100 32083.200000
294.055400 33386.100000
298.051400 51186.800000
308.071700 811952.900000

>ms2peaks
53.002100 23800.800000
55.017900 47126.000000
58.065200 115954.200000
65.038600 286640.300000
67.054200 100837.500000
77.038500 41751.900000
78.046300 32848.400000
78.984800 1269330.800000
79.054200 237809.900000
79.989500 26210.000000
80.062100 118448.900000
81.069900 32921.900000
90.046400 50628.000000
91.054200 1885738.800000
92.062000 31978.000000
93.033500 92032.100000
94.041300 63816.900000
95.049100 118919.900000
98.000200 688568.000000
103.054200 37049.900000
105.033500 35015.200000
105.044800 33732.700000
105.070000 173068.800000
106.041300 34195.600000
106.065200 145255.400000
107.049200 730496.200000
107.073000 425475.900000
108.057000 15444825.000000
109.064800 5642532.000000
111.026300 370225.900000
112.015800 574665.400000
117.069900 163783.400000
118.077800 81911.900000
119.060500 877666.600000
120.057100 33708.200000
121.010800 72460.000000
121.064800 287300.100000
122.036200 110568.800000
123.026400 63603.400000
123.044100 338938.700000
123.080500 112151.800000
124.052100 59312.600000
127.030700 38585.200000
134.096600 52729.300000
135.080500 136580.400000
136.088500 34033.300000
137.005600 34808.400000
139.021300 3455834.500000
151.021500 111258.300000
152.026100 38110.800000
153.010100 309172.900000
155.016200 34807.300000
155.025800 29570.800000
157.041200 29309.000000
169.028200 88114.200000
170.012800 256025.800000
170.036600 1529688.800000
171.020600 534512.000000
173.036500 66710.100000
175.015400 108227.800000
184.999900 117186.400000
185.026500 93089.000000
185.036300 82941.200000
186.007900 193376.500000
186.031800 57188.500000
187.015900 93565.900000
187.039800 1242497.400000
188.047200 19490344.000000
188.976900 188229.800000
189.030600 46978.400000
190.992500 36990.300000
196.052400 41253.000000
197.037100 448427.200000
200.976800 52183.000000
201.031100 82655.700000
202.062800 355917.600000
203.046800 35383.000000
214.062900 588353.400000
218.987700 1382847.000000
230.987700 33539.000000
248.014000 47439.200000
248.998200 489808.200000
266.024800 958183.600000
267.008800 1010326.900000
285.019200 41338.100000

>ms2peaks
51.022800 24894.500000
53.002200 27438.800000
53.038600 64806.600000
55.017800 58212.900000
58.065100 99855.500000
63.022800 28668.100000
65.038600 922805.400000
66.046400 111135.700000
67.054200 336784.000000
77.038400 129541.800000
78.046400 108400.800000
78.984800 1330958.500000
79.054200 763654.900000
80.062000 654639.900000
81.069900 212535.200000
85.010800 24487.900000
89.038600 74913.900000
90.046500 303589.800000
91.054300 5955546.000000
92.062000 38275.800000
93.033600 141811.900000
93.057300 27646.900000
93.069900 63318.800000
94.041400 239145.500000
95.049200 401727.200000
97.010800 53380.100000
98.000200 1076037.400000
103.054200 77014.400000
105.033600 88899.100000
105.044800 126338.200000
105.070000 148175.400000
106.041600 63414.000000
106.065200 279839.100000
107.049200 2451063.800000
107.073000 484414.200000
108.057000 17673422.000000
109.064800 7073440.000000
111.026300 838623.700000
112.015800 490413.500000
115.054300 53819.000000
117.069900 205464.100000
118.077800 23666.600000
119.060500 1613051.600000
121.010800 105914.800000
121.028400 89617.100000
121.064800 365434.800000
122.036200 113123.400000
123.026200 47948.900000
123.044000 386247.400000
123.080300 60817.400000
124.052100 88640.400000
126.046800 35935.700000
127.021400 36260.400000
127.030800 74874.100000
134.096400 55323.900000
135.080400 107264.800000
137.005700 75038.700000
139.021300 1522040.800000
141.010200 24222.200000
151.021900 44925.100000
152.002000 34224.100000
153.010000 398894.800000
154.008500 48135.000000
155.016200 40956.700000
159.020600 51246.300000
169.028400 48603.300000
170.012900 205565.500000
170.036600 1227268.900000
171.020600 355931.200000
173.036400 43700.700000
175.015500 60329.500000
185.000100 49059.000000
185.026700 62282.000000
185.036100 30119.100000
186.007700 142841.000000
187.015700 90440.200000
187.039400 204010.300000
188.047200 4992882.500000
188.977000 102555.400000
189.031000 23559.200000
190.992800 31875.900000
196.052200 31723.000000
197.036500 292017.100000
200.976900 30642.600000
214.062900 128180.900000
218.987700 130442.300000
248.998100 25278.000000
267.008600 146063.900000

>ms2peaks
50.015100 26907.700000
51.022900 38086.000000
53.002200 49566.100000
53.038600 156705.800000
55.017800 71544.200000
58.065200 78254.900000
63.022900 57152.200000
65.038600 1949548.000000
66.046400 258024.900000
67.054200 513178.300000
68.025700 13091.700000
77.038500 262095.200000
78.046400 259920.300000
78.984800 816899.200000
79.054200 1645182.500000
80.062000 1407868.200000
81.033600 36624.300000
81.069900 400318.600000
85.010600 26402.200000
89.038600 295025.700000
90.046500 884566.800000
91.054300 8209031.000000
92.062000 27792.700000
93.033600 124373.100000
93.057400 79192.600000
93.070000 66494.400000
94.041400 450120.500000
95.049200 770887.500000
97.010700 101204.300000
98.000200 1226311.500000
98.984300 12638.600000
99.026500 21319.600000
103.054300 90705.000000
105.033600 129145.600000
105.044800 325358.400000
105.069900 83604.700000
106.041500 108863.300000
106.065200 364147.700000
107.049200 5744528.000000
107.073000 382399.400000
108.057000 12261684.000000
109.064800 4026920.000000
111.026300 688231.900000
112.015800 356185.900000
113.015100 30419.700000
115.054300 98255.400000
117.069900 180011.100000
119.060500 1065919.600000
120.057100 14363.100000
121.010700 51901.300000
121.028500 108624.800000
121.039600 15063.300000
121.064800 245448.500000
122.036300 41038.300000
122.060000 23508.800000
123.026300 32807.200000
123.044100 280537.200000
124.052000 70538.600000
125.005700 31375.300000
126.013400 12399.100000
127.030600 31148.200000
133.020300 13467.000000
134.096500 32110.800000
135.080400 36276.800000
137.005700 100864.200000
139.021300 391658.900000
141.010100 35891.300000
143.025800 29767.900000
152.002200 28488.800000
152.026100 148068.600000
153.010000 345933.700000
154.008500 22507.700000
159.020500 45689.700000
170.012800 107851.200000
170.036600 330881.600000
171.020500 131822.300000
184.999800 58901.700000
185.026700 32965.500000
186.007700 33662.300000
187.015800 55337.700000
187.039500 36315.300000
188.047200 653175.100000
188.977000 29498.100000
197.036500 98482.100000

>ms2peaks
50.015100 149824.600000
51.022900 96848.900000
53.002200 99158.100000
53.038600 406402.300000
53.997500 12879.400000
55.017900 183746.800000
55.054300 11003.500000
57.987200 13584.500000
58.065200 44154.600000
58.995000 25669.000000
62.015100 32218.700000
63.022900 287896.600000
63.994700 11959.400000
64.030700 51621.500000
65.038600 4897466.000000
66.046400 420969.100000
67.054200 501510.200000
68.025700 27007.800000
68.979400 43833.500000
70.995100 31139.000000
77.038600 580811.200000
78.046400 563993.400000
79.054200 3947648.500000
80.062000 1131456.200000
81.033500 85474.900000
81.069900 281025.300000
84.002900 24833.300000
85.010700 26972.600000
89.038600 1317630.900000
90.046500 1479199.800000
91.054300 5457074.000000
93.033500 67509.000000
93.057400 108578.900000
93.070000 25996.200000
94.041400 775847.200000
95.049200 1526459.100000
97.010700 162955.700000
98.000200 1239719.200000
98.984200 31315.800000
103.054300 52681.900000
104.049500 39102.100000
105.033600 157319.100000
105.044800 842031.500000
106.041500 97405.000000
106.065200 363296.500000
107.049200 10848201.000000
108.057000 2566675.000000
109.010700 147976.800000
109.064800 526344.500000
110.989800 12676.200000
111.026400 113873.000000
112.015800 110442.900000
115.054300 143456.500000
117.069800 49520.000000
119.060500 122627.900000
121.010800 25451.400000
121.028300 59838.800000
121.039700 48723.900000
123.044000 85313.000000
125.005700 11148.900000
133.020300 28514.200000
137.005700 72061.600000
150.010300 32437.300000
152.026100 29341.500000
153.010000 87331.100000
184.999700 31399.400000

>ms2peaks
50.015200 350566.900000
51.023000 339473.900000
52.018200 7334.800000
52.030800 24266.200000
53.002200 163188.100000
53.038600 735920.600000
53.997500 43754.700000
54.046500 10013.100000
55.017900 289654.100000
57.987200 33305.600000
58.065200 12092.200000
58.995000 27289.300000
61.007200 21134.400000
62.015100 123557.500000
63.023000 744466.800000
64.030800 135012.000000
65.038600 4180958.800000
66.046400 362021.800000
67.017900 10202.900000
67.054200 195038.000000
67.989300 8834.900000
68.025700 27400.100000
68.979300 110403.700000
68.997100 9711.600000
70.995000 13772.600000
74.015100 12015.000000
75.022900 35841.300000
76.030800 8110.100000
77.038600 798126.700000
78.046400 396320.200000
79.054200 3484910.800000
80.062000 235244.700000
81.033500 197466.800000
81.069900 41857.000000
81.987100 20452.000000
82.995000 9716.100000
89.038600 2090530.600000
90.046500 570403.700000
91.054300 1652750.000000
93.033600 29372.200000
93.057300 74287.900000
94.041400 537200.900000
95.049200 2398925.000000
97.010700 114851.900000
98.000200 798297.800000
98.984200 87174.300000
103.054200 23682.200000
104.049500 45294.000000
105.033600 74327.500000
105.044800 1467392.200000
106.041700 38328.600000
106.065200 209461.800000
107.049200 6796533.000000
108.057000 199067.200000
109.010800 61072.400000
109.064800 42473.400000
115.054300 75389.700000
121.039600 11733.400000
123.044000 33596.500000
125.005600 8395.600000
185.000100 7794.900000

>ms2peaks
50.015200 675465.200000
51.023000 899382.800000
52.018200 5548.800000
52.030800 46281.700000
53.002200 209334.500000
53.038600 823139.000000
53.997500 48073.900000
54.046500 26490.900000
55.017900 346195.200000
57.987300 38681.400000
58.065200 8456.800000
58.995100 7567.100000
61.007300 73987.800000
62.015100 294943.700000
63.023000 1515518.900000
64.030800 146234.100000
65.038600 2358182.500000
66.046400 235825.000000
67.017900 7063.100000
67.054300 57690.800000
67.989300 21443.500000
68.025600 35349.200000
68.979400 123387.200000
68.988800 29725.700000
68.997200 10419.500000
70.995100 11452.000000
74.015100 42524.100000
75.022900 90859.800000
76.030700 7070.800000
77.038600 895989.600000
78.046400 237097.700000
79.054200 1845990.900000
80.062100 38007.000000
81.033500 225683.500000
82.994800 6248.900000
84.002900 5765.000000
89.038600 1767495.900000
90.046500 149594.600000
91.054300 461835.100000
93.033600 9555.200000
93.057400 19572.800000
93.070000 5886.300000
94.041400 235866.300000
95.049200 2636873.800000
97.010800 80701.700000
98.000200 432176.000000
98.984300 147984.100000
104.049600 10250.100000
105.044800 1646500.400000
106.041800 5538.500000
106.065100 75326.200000
107.049200 2293220.200000
108.057000 10049.700000
109.010700 25004.100000
109.064800 8333.800000
115.054300 28500.700000

