>compound EQ06186374
>parentmass 366.06739999999996
>ionization [M+H]+
>formula C16H16ClN3O3S
>rt 402.000000
>profile orbitrap
#smiles_iso CC1CC2=CC=CC=C2N1NC(=O)C3=CC(=C(C=C3)Cl)S(=O)(=O)N
#smiles_can CC1CC2=CC=CC=C2N1NC(=O)C3=CC(=C(C=C3)Cl)S(=O)(=O)N
#inchikey NDDAHWYSQHTHNT-UHFFFAOYSA-N
#pubchem_id 3702
#mb_accession EQ368601,EQ368602,EQ368603,EQ368604,EQ368605,EQ368606,EQ368607,EQ368608,EQ368609

>ms2
91.054000 794122.000000
117.057100 575048.300000
130.065200 225229.800000
132.080700 173471072.000000
133.088500 1205310.000000
217.967300 266893.300000
234.993900 2401280.000000
348.056400 245197.900000
366.067500 23861566.000000

>ms2
65.038400 247410.000000
91.054200 5195656.500000
105.070000 492365.400000
109.064900 919499.800000
115.054300 245047.300000
117.057300 6723065.500000
118.065300 400908.000000
119.060400 927458.700000
130.065300 825597.700000
131.072800 263183.100000
132.080800 179043968.000000
133.088600 2840083.500000
217.967500 1736144.500000
234.994000 1030499.100000
235.978300 283629.300000
348.056900 391523.600000
366.067600 330734.700000

>ms2
65.038600 1171786.100000
67.054100 159600.200000
91.054200 28962152.000000
105.069900 2322654.500000
106.041400 949260.200000
107.049100 759686.800000
109.064800 4019436.000000
115.054300 920731.300000
117.057300 27263870.000000
118.065100 2382333.200000
119.060400 4112278.800000
126.010600 202326.000000
130.065200 1127279.800000
131.073100 655329.700000
132.080800 121894512.000000
133.088600 2458628.200000
138.994500 170018.600000
148.099600 150558.400000
154.005300 766100.400000
172.016100 274106.100000
200.940700 368893.400000
217.967500 1338318.900000

>ms2
51.022800 127933.800000
63.022700 167175.300000
65.038600 4266946.500000
67.054200 146965.900000
77.038500 101206.600000
79.054200 206696.200000
89.038400 155507.100000
90.033900 87843.500000
90.046400 331876.300000
91.054200 70068640.000000
98.999500 387758.200000
103.054200 392773.300000
105.069900 4927523.000000
106.041300 961808.400000
106.065100 82222.200000
107.049100 728239.100000
109.064800 4608181.000000
115.054300 1264294.800000
116.049300 105010.800000
117.057300 48932996.000000
118.065100 5707136.500000
119.060400 5341116.000000
124.052000 104912.600000
126.010500 455347.600000
130.065200 1292966.100000
131.073000 1478429.900000
132.080800 58226948.000000
133.076200 144016.600000
133.088600 1132479.500000
136.979000 298271.800000
138.994500 117926.600000
142.989700 157138.100000
154.005300 401421.800000
155.000500 80166.500000
172.015900 135180.100000
181.990400 117980.000000
200.940900 174354.000000
217.967600 550052.100000

>ms2
50.015000 104868.200000
51.022800 122630.300000
63.022800 361069.600000
65.038600 11962551.000000
66.046400 122054.300000
77.038600 172134.500000
79.054200 660361.900000
89.038400 330082.900000
90.034000 147419.200000
90.046500 871549.300000
91.054200 85376456.000000
95.049200 221110.100000
98.999600 786270.500000
103.054200 670634.200000
105.069900 5963797.000000
106.041500 369091.500000
107.049300 327299.500000
109.064800 2058488.100000
115.054300 1286773.100000
116.049500 140334.300000
117.057300 55936264.000000
118.065100 7129442.000000
119.060400 2198393.800000
124.051900 114142.100000
126.010500 250811.200000
130.065200 1365800.400000
131.073000 1713156.600000
132.080800 20267246.000000
133.076200 211311.600000
133.088600 268919.200000
134.060000 106584.700000
136.978800 268215.300000
139.005600 128345.500000
142.989400 269152.600000
144.055600 113885.700000
147.091800 96396.300000
154.989300 120606.600000
155.000600 101083.800000
217.967300 171133.800000

>ms2
50.015100 129012.400000
51.022900 128515.800000
53.002200 140010.200000
53.038600 148959.300000
62.015100 112715.600000
63.022900 745019.900000
65.038600 26630860.000000
66.046400 356251.900000
77.038600 217399.300000
79.054200 1658591.500000
89.038600 1140080.500000
90.046500 3717266.500000
91.054200 82006984.000000
95.049200 497404.400000
98.999600 975510.100000
103.054200 1407086.100000
105.044600 353772.000000
105.069900 5257400.500000
106.041400 128591.600000
107.049200 130821.600000
108.983900 229560.700000
109.064900 732448.300000
114.994600 99196.300000
115.054200 1152813.100000
116.049600 230677.300000
117.057300 55128852.000000
118.065100 8612371.000000
119.060300 819448.900000
126.010300 110956.500000
130.065200 1856680.100000
131.073000 1720713.900000
132.080800 6284136.500000
133.076200 184390.400000
134.059900 113826.400000
136.978900 163762.300000
142.989600 143402.000000

>ms2
50.015100 386631.700000
51.022800 257640.800000
53.002200 547965.400000
53.038600 391505.800000
53.997400 101253.600000
62.015100 264700.200000
63.022900 2357585.800000
64.030700 288255.500000
65.038600 44357452.000000
66.046400 1211918.500000
67.989300 121347.700000
68.025600 93495.200000
72.983900 243360.600000
74.015000 197917.000000
75.022900 240791.300000
77.038500 564711.100000
79.054200 1630328.100000
81.033500 51269.500000
89.038600 7881305.500000
90.046500 11635397.000000
91.054200 35512860.000000
93.057400 110601.600000
94.041400 116733.500000
95.049200 1352366.600000
98.999700 858875.900000
103.054200 1505756.000000
105.044800 1092683.200000
105.069900 1517525.900000
106.065200 101132.400000
108.983900 253912.400000
109.064800 44660.500000
109.991800 47239.100000
115.054300 499760.100000
116.049600 367136.300000
117.057300 28036572.000000
118.065100 5371133.000000
121.028500 140063.300000
122.036200 111210.800000
130.065200 2241688.000000
131.073100 592046.200000
132.080700 323160.500000

>ms2
50.015100 890889.200000
51.023000 731558.900000
53.002200 1160499.400000
53.038600 486061.900000
53.997500 264983.300000
61.007300 270266.400000
62.015100 948814.400000
63.023000 5007320.000000
64.030800 966104.000000
65.038600 37173564.000000
66.046400 1290238.600000
67.989200 192329.400000
72.983900 342789.800000
74.015100 638406.500000
75.022900 517174.200000
77.038500 966447.400000
78.008600 49649.300000
78.046400 83539.200000
79.054200 895239.100000
81.033500 97317.000000
89.038600 19397850.000000
90.046500 12983146.000000
91.054200 16260342.000000
93.057400 37923.000000
94.041300 126383.300000
95.049200 1577377.200000
98.999600 395896.500000
102.046500 85327.600000
103.054200 1150928.100000
105.044800 1214328.800000
105.069900 278259.100000
108.984100 118749.400000
109.991800 116056.400000
115.054200 216848.400000
116.049500 383957.000000
117.057300 9674845.000000
118.065100 2160262.200000
121.028500 119841.900000
122.036200 86668.200000
130.065200 1902579.100000
131.072900 208081.100000

>ms2
50.015200 1737275.600000
51.023000 1718390.200000
52.018200 44904.000000
53.002200 1295735.600000
53.038600 468579.600000
53.997500 353747.400000
54.046400 116915.600000
55.017900 32844.600000
61.007300 543920.400000
62.015100 2161652.500000
63.023000 7570681.000000
64.030800 1463581.100000
65.038600 19985358.000000
66.046400 493452.000000
67.041700 46086.800000
67.989300 134503.900000
68.997000 37936.500000
72.983900 263990.100000
74.015100 1095216.200000
75.022900 707116.200000
77.038600 719698.600000
78.008700 82372.700000
78.033900 115391.100000
78.046400 39152.200000
79.054200 232299.800000
80.049500 23152.600000
81.033500 85197.300000
83.976100 111813.400000
89.038600 20304660.000000
90.046400 5579257.500000
91.054300 7407745.000000
93.057300 29079.600000
94.041400 77775.100000
95.049200 1317165.200000
98.999600 117355.800000
102.046400 98202.700000
103.054200 669947.800000
105.044800 929036.700000
108.984000 38902.100000
115.054200 43458.100000
116.049600 230893.400000
117.057300 2612417.800000
118.065100 578427.400000
121.027800 21296.700000
122.036200 85353.400000
128.049600 27327.900000
130.065200 844863.900000

