>compound EQ06446154
>parentmass 295.02219999999994
>ionization [M+H]+
>formula C10H15O4PS2
>rt 444.000000
>profile orbitrap
#smiles_iso CC1=C(C=CC(=C1)OP(=S)(OC)OC)S(=O)C
#smiles_can CC1=C(C=CC(=C1)OP(=S)(OC)OC)S(=O)C
#inchikey DLAPIMGBBDILHJ-UHFFFAOYSA-N
#pubchem_id 19577
#mb_accession EQ370701,EQ370702,EQ370703,EQ370704,EQ370705,EQ370706,EQ370707,EQ370708,EQ370709

>ms2peaks
105.069900 80374.500000
109.005000 118675.000000
124.982100 238255.700000
153.036300 84295.700000
201.040300 890125.500000
217.062800 121248.400000
232.031700 397349.500000
233.039400 155288.700000
262.995700 295523.200000
264.003900 1933924.500000
278.019500 563232.000000
279.998900 3032946.000000
295.022200 75523888.000000

>ms2peaks
79.054200 48040.900000
91.054200 67838.500000
93.009900 118666.400000
104.062000 665821.000000
105.069900 1381283.500000
107.049200 76124.200000
109.005100 223911.800000
111.026200 68781.200000
121.064800 134034.100000
122.072600 59828.100000
123.026300 98030.400000
124.981800 302222.900000
125.042100 34986.400000
127.015500 1404259.600000
134.018500 60840.500000
135.026400 102490.500000
136.034200 241563.400000
136.052000 49634.300000
137.042000 233578.300000
138.013500 230095.500000
138.049900 99111.400000
139.021300 384223.700000
141.985100 35320.000000
142.992800 371334.100000
152.982600 204581.600000
153.036900 234792.000000
153.990600 709956.400000
154.044700 654008.200000
165.990600 42357.700000
166.998500 184047.700000
168.060500 85517.700000
169.013900 233125.000000
169.985500 142069.200000
170.021900 1268325.100000
170.993300 45387.600000
185.009000 100436.700000
186.016500 131314.500000
199.051900 243798.700000
200.005800 266553.000000
201.040400 2500743.200000
216.054800 55146.900000
217.008800 89085.300000
217.062700 379319.400000
219.024400 90326.900000
229.008600 66343.400000
231.024100 81498.800000
231.977900 205303.300000
232.031900 3911060.000000
233.039700 771229.600000
245.039500 124225.300000
245.993300 37226.700000
246.964700 186246.600000
247.019300 146860.300000
247.973000 158329.500000
249.987600 106441.400000
261.988300 1648711.100000
262.996100 1283155.600000
264.004000 7432437.500000
264.975000 118169.700000
265.982400 64841.200000
277.011400 96867.300000
278.019700 6794062.000000
279.998800 33215788.000000
281.006600 294829.400000
295.022300 24493932.000000

>ms2peaks
53.038500 13837.600000
64.978600 16322.200000
77.038500 54225.500000
78.046400 256967.100000
78.994300 354897.500000
79.054200 100227.000000
80.062100 20351.800000
90.046400 61310.100000
91.054200 271066.700000
92.062100 82484.400000
93.010100 1403670.000000
95.049100 51206.300000
103.054200 30266.300000
104.062100 1492935.200000
105.069900 2771017.200000
107.049200 107467.000000
108.056800 20616.200000
109.004500 233665.500000
109.010600 222742.000000
110.012800 71758.400000
110.018400 213348.800000
111.026300 1365998.400000
112.999700 83192.500000
117.069700 13954.900000
119.085900 29421.700000
121.010500 190565.100000
121.064900 273934.800000
122.018500 290293.800000
122.072700 151579.800000
123.026300 372749.300000
124.034200 151970.200000
124.982200 1357521.800000
127.015500 12471902.000000
127.974900 38517.000000
134.018600 304602.400000
135.026300 660649.600000
136.034200 607277.400000
136.052000 99557.000000
137.005600 277497.600000
137.042000 954625.100000
138.013500 719744.100000
138.049800 310156.400000
139.021300 1862502.200000
140.029100 16441.000000
140.982700 21164.400000
141.031200 43139.800000
141.984800 166454.500000
141.990700 126536.500000
142.992800 2323005.200000
149.042000 47474.200000
150.049800 37488.300000
151.057700 504770.800000
151.975000 97755.000000
152.029100 34034.000000
152.982800 1579060.400000
153.036900 189727.000000
153.990600 3049241.200000
154.044700 947755.400000
154.998300 66275.000000
155.016100 119859.000000
156.006200 45840.500000
157.008200 40221.000000
165.990700 287632.400000
166.998500 520174.000000
168.006200 329776.200000
168.060400 94070.700000
168.977800 232202.900000
168.986600 99449.700000
169.014100 990421.800000
169.985500 1931215.900000
170.021900 1904984.100000
170.993300 621396.900000
184.001000 50892.000000
184.037500 265166.400000
185.009100 131579.000000
185.036100 35549.100000
186.016900 520682.400000
186.997800 15223.200000
199.052000 661054.100000
200.005600 1591244.600000
201.013500 94552.900000
201.040300 224542.700000
202.992500 14073.300000
204.954200 16212.400000
213.013500 16039.900000
214.993200 75046.400000
215.946700 74466.300000
216.000900 62075.000000
217.008500 212857.800000
217.062700 99680.700000
217.961900 20016.900000
218.016600 53052.100000
219.024000 84620.400000
229.008500 295039.000000
229.962200 201494.700000
230.016400 17188.400000
230.970200 78834.100000
231.024000 298196.900000
231.977900 484203.000000
232.031900 4369357.500000
232.949500 32918.800000
232.985600 44036.600000
233.039700 114007.300000
245.039800 649382.300000
245.993300 347015.600000
246.964800 887826.900000
247.019000 189961.100000
247.972700 725317.400000
248.980500 149126.900000
249.988500 266025.600000
261.988300 2947693.800000
262.996100 1978869.200000
264.004000 1030940.500000
264.020800 75738.900000
264.975300 462434.400000
265.982900 117871.100000
278.019700 5598859.000000
279.998900 13562970.000000
281.006700 91590.200000
295.022400 624486.100000

>ms2peaks
53.038600 93293.600000
62.018500 111215.600000
62.999500 118390.800000
63.943600 73359.800000
64.978700 78585.200000
65.038600 35901.700000
66.046400 51481.700000
77.038500 138296.900000
78.046400 1463791.400000
78.994300 2556845.500000
79.054200 137881.200000
80.002300 51947.900000
89.038600 96973.500000
90.046500 139277.400000
91.054300 700715.700000
92.062100 238677.700000
93.010100 1665826.800000
94.041300 70851.800000
94.989300 53175.200000
95.049200 400648.700000
96.002800 49721.400000
97.005000 86817.700000
97.010800 50834.800000
98.018500 57059.900000
103.054300 200927.000000
104.062100 1258397.200000
105.044900 222053.500000
105.070000 2852260.200000
107.049200 164391.400000
108.002800 55464.600000
108.056900 56194.400000
109.005100 172965.900000
109.010700 1029317.700000
110.013000 103771.600000
110.018500 893556.100000
111.026400 2024686.400000
112.999800 185438.600000
119.049300 41048.300000
121.010700 492794.900000
121.064900 292244.700000
122.018600 615011.600000
122.072600 179740.400000
123.026400 612636.600000
124.034300 308679.500000
124.982200 2638944.800000
126.013600 111644.300000
127.015500 23632536.000000
134.018600 247194.800000
135.026300 687302.600000
135.997900 94719.500000
136.034300 568399.500000
136.052000 62531.700000
137.005700 704221.900000
137.042100 824204.600000
138.013500 547635.000000
138.049800 344097.200000
139.021300 1031124.500000
140.982900 168586.500000
141.031400 94120.300000
141.985000 79440.400000
141.990500 481335.100000
142.992800 5137879.000000
142.998100 279418.625000
149.042100 50578.300000
151.057700 563367.900000
151.975100 101172.500000
152.029100 33565.400000
152.982800 2923241.800000
153.036900 256448.200000
153.990600 1792106.900000
154.044700 426355.700000
154.971600 46180.800000
154.998500 231623.100000
155.016200 150957.900000
156.006200 35813.400000
157.008600 100701.500000
165.990800 164161.200000
166.998500 277556.000000
167.979400 37162.500000
168.006300 226038.700000
168.060300 86664.100000
168.977800 464963.900000
168.987300 642287.800000
169.014100 1932967.800000
169.985600 1828204.900000
169.994800 238346.500000
170.022000 919765.600000
170.993400 584380.200000
184.037300 185953.200000
184.982100 54480.000000
185.009000 76610.300000
185.036500 36364.700000
186.016900 123897.000000
186.943900 64549.000000
186.997500 31374.300000
198.997900 36810.700000
199.052000 444138.100000
200.005700 2035686.200000
200.959300 77859.500000
202.992800 100037.100000
213.013500 79936.200000
214.992800 81167.000000
215.946400 137938.000000
217.008500 175163.300000
218.016500 69394.800000
229.008600 143986.700000
229.962200 128048.800000
230.970100 271223.900000
231.024000 216295.200000
231.977800 137987.100000
232.032000 1005753.700000
232.985600 103365.000000
245.039800 236759.000000
245.993500 269176.300000
246.964900 327767.200000
247.018900 63063.200000
247.972800 256002.200000
248.980500 123815.300000
261.988300 390561.200000
262.996200 1079902.600000
264.021300 39303.100000
264.975600 113193.100000
278.019600 663736.000000
279.998900 761548.800000

>ms2peaks
53.038600 174752.100000
58.995000 41783.700000
59.966500 37867.800000
62.018500 244050.000000
62.945300 47876.200000
62.999500 205050.400000
63.943600 93274.100000
64.978700 157926.300000
65.038600 95355.200000
66.046400 207408.800000
67.054300 49257.800000
68.979300 34217.700000
69.987100 48561.500000
77.038500 237997.500000
78.046400 2333256.500000
78.994300 6349400.000000
80.002100 89139.700000
81.010000 57854.900000
84.002900 73864.300000
89.038700 168484.100000
90.046500 202603.400000
91.054300 1065270.500000
92.062100 257791.600000
93.010100 1099792.200000
93.033600 88069.800000
93.069900 93780.400000
94.041400 208167.600000
94.989200 55920.200000
95.049200 790569.300000
96.002900 68570.900000
97.005000 267746.000000
97.010700 263459.900000
98.018600 184412.300000
98.984200 73307.800000
103.054300 278519.200000
104.025700 37168.200000
104.062100 577229.400000
105.033500 95707.000000
105.044800 431467.100000
105.070000 1792621.500000
107.049200 151629.600000
108.002800 181012.800000
108.056900 71679.200000
109.005300 120772.100000
109.010700 1624425.000000
110.018500 1495952.800000
111.020400 52888.700000
111.026400 974876.900000
111.044100 49197.300000
112.999900 271162.500000
121.010700 879426.800000
121.064900 229047.600000
122.018600 689815.200000
122.072600 98024.500000
123.026300 619651.000000
124.034300 320653.200000
124.982200 2161915.200000
125.042100 179287.700000
126.013500 161034.600000
127.015500 19308090.000000
128.976900 41058.600000
134.018600 159888.400000
135.026300 605685.000000
135.997900 99625.100000
136.034300 311617.800000
137.005600 739449.700000
137.042000 302163.500000
138.013500 263692.200000
138.049800 180280.400000
139.021300 433081.900000
139.975100 38342.300000
140.982800 337407.700000
141.031300 80967.100000
141.985200 20221.900000
141.990600 390788.100000
142.992800 4591694.000000
151.057700 220623.500000
151.975000 67736.000000
151.984600 28906.500000
152.982800 3140166.500000
153.036900 202747.200000
153.990600 681274.800000
154.044600 128912.100000
154.971700 85327.600000
154.998400 262266.400000
155.016200 83235.400000
157.008500 71129.200000
165.990800 43096.800000
166.998400 157227.800000
167.969900 53043.700000
167.979500 101601.300000
168.006200 89302.200000
168.060300 47765.200000
168.977800 400560.100000
168.987200 1537875.100000
169.014100 1477399.500000
169.985600 447580.400000
169.995000 261998.000000
170.021900 231024.200000
170.993400 155698.000000
184.037600 34159.500000
184.982000 45190.100000
185.036200 31422.200000
186.943800 40980.000000
186.998100 29318.200000
198.943900 126919.300000
198.997900 33750.100000
199.052100 123518.800000
200.005700 713105.400000
200.959400 101256.900000
202.992800 142240.900000
213.013500 51192.700000
214.939100 19383.500000
214.992700 44811.800000
215.946500 82892.200000
216.954300 43103.400000
217.008500 89709.300000
218.016000 30465.800000
230.970100 192067.100000
231.024000 78042.800000
232.031800 61054.400000
245.993200 53689.300000
246.964600 34916.500000
248.980300 47980.400000
262.996000 148680.800000

>ms2peaks
50.015100 45003.900000
51.022900 45770.300000
53.038600 258537.900000
57.987200 14504.300000
58.995000 38468.500000
59.966500 70798.200000
62.018500 315956.100000
62.945300 86014.600000
62.999500 283374.900000
63.023000 58702.700000
63.943600 87830.000000
64.030800 36469.300000
64.978700 188336.900000
65.038600 356255.700000
66.046400 378062.900000
67.054200 51829.600000
68.979300 115955.300000
69.987200 30285.200000
70.995000 15055.700000
76.030700 68210.200000
77.038600 361066.200000
78.046400 2476742.200000
78.994300 8186970.000000
80.002200 47805.400000
81.010000 61333.100000
81.033500 34617.700000
81.987200 12796.900000
84.002800 83046.300000
85.010700 14065.900000
89.038600 384132.000000
90.046500 176368.500000
91.054300 1316608.100000
92.062100 238987.300000
93.010100 769487.900000
93.033600 82950.200000
93.069900 68209.000000
94.041400 345478.100000
95.049200 1034013.000000
96.002800 73500.600000
97.005100 319078.300000
97.010700 638209.800000
98.018500 207902.900000
98.984100 80910.900000
102.046400 16203.200000
103.054300 434447.100000
104.025800 51093.000000
104.062100 187431.500000
105.033600 115843.000000
105.044800 522372.800000
105.070000 1026322.100000
107.049200 184360.300000
108.002900 398155.800000
108.057100 55757.100000
109.010700 2029759.200000
110.018500 1818521.600000
111.020500 50855.200000
111.026400 326825.900000
111.044100 58346.400000
112.999800 242660.700000
115.054300 14238.600000
119.049400 16507.400000
121.010700 1212434.500000
121.064900 165037.000000
122.018600 629683.800000
122.072700 59609.400000
123.026300 459950.500000
124.034300 180264.600000
124.982200 1114817.000000
125.042100 180387.400000
126.013600 139813.300000
127.015500 11142565.000000
128.976900 36101.100000
134.018600 106146.500000
135.026400 495063.700000
135.997800 69645.500000
136.034200 238220.900000
137.005700 562477.000000
137.042000 121550.300000
138.013500 145418.600000
138.049800 59356.200000
139.021300 209000.500000
139.975000 47334.300000
139.984500 29169.600000
140.982800 425520.900000
141.031300 43784.300000
141.990600 110501.800000
142.992800 2717365.800000
151.021200 12983.000000
151.057800 88121.500000
151.975100 46866.400000
151.984300 54692.100000
152.982800 2574626.000000
153.990600 513948.700000
154.971500 143552.200000
154.998400 132487.600000
155.016400 14449.500000
157.008300 41503.600000
166.998500 109944.900000
167.969900 33169.000000
167.979400 85048.800000
168.005800 14432.900000
168.977900 268255.500000
168.987200 1780053.000000
169.014100 590195.400000
169.985400 55448.900000
169.995100 92546.700000
170.021900 46825.600000
170.948800 14379.200000
170.993800 59416.700000
180.987600 12093.500000
184.982300 55848.400000
185.036600 27504.400000
186.943800 32521.100000
186.998000 31817.100000
198.943700 129846.900000
198.998200 16057.100000
200.005700 98774.400000
200.959000 35984.200000
202.992800 106057.400000
213.013300 11663.800000
214.938600 30813.600000
214.992600 18688.900000
215.946600 11938.800000
216.954300 12416.400000
217.008600 46027.100000
230.970300 33563.000000

>ms2peaks
50.015200 152500.700000
50.999500 15169.000000
51.023000 194349.000000
52.030800 16831.500000
53.002200 15401.700000
53.038600 300480.300000
55.017900 13134.100000
57.987300 48042.700000
58.995100 31115.700000
59.966500 109982.900000
61.010700 11453.900000
62.015100 14488.100000
62.018500 205570.600000
62.945300 255971.700000
62.999500 357126.100000
63.023000 165463.800000
63.943600 69128.700000
64.030800 49872.500000
64.978800 118650.800000
65.038600 1129888.500000
66.046400 779059.800000
67.054200 39212.900000
68.979400 439727.600000
69.987200 33233.300000
70.995000 118146.200000
75.023100 7332.800000
76.030700 100272.900000
77.038600 446802.600000
78.046400 1748255.100000
78.994400 4634489.000000
79.054200 458476.600000
79.948100 8321.200000
80.002200 10783.800000
81.010000 68427.100000
81.033500 41842.200000
81.069900 12778.300000
81.987200 117816.200000
82.995000 13317.800000
84.002900 167796.500000
85.010600 37853.000000
89.038600 572208.700000
90.046500 93245.500000
91.054300 1433775.600000
92.062100 67578.700000
93.010100 280355.300000
93.033600 23396.900000
94.041400 283383.000000
94.995100 77424.300000
95.049200 1095634.600000
96.002800 96293.800000
97.005300 238281.400000
97.010700 1103731.000000
98.018500 101939.700000
98.984300 108690.600000
100.951700 9169.700000
102.046700 10821.100000
103.054300 296610.000000
104.062100 15004.700000
105.033600 47878.600000
105.044800 590455.300000
105.070000 196896.400000
106.041500 10997.300000
107.049300 125681.900000
108.002900 463108.200000
109.010800 1865612.000000
110.018600 1111873.100000
111.020600 45591.700000
111.026400 43491.300000
111.044100 9783.900000
112.999800 135342.400000
119.060800 12806.400000
120.002900 12314.300000
121.010800 1716172.900000
122.018600 350334.300000
123.026300 121826.000000
124.034200 37876.400000
124.982200 139422.200000
125.005500 9840.000000
125.042000 53480.100000
126.013700 12891.900000
127.015600 1611385.600000
128.977100 16269.400000
134.018600 126470.200000
135.026400 311345.400000
136.034300 28534.300000
137.005700 192824.400000
137.042000 11810.300000
138.013400 36478.000000
138.967000 12920.900000
138.976500 13695.800000
139.021300 7903.000000
139.974900 38207.100000
139.984700 8415.800000
140.982800 187868.100000
142.992800 415736.300000
150.967100 9548.400000
151.975000 7621.000000
151.984500 10521.500000
152.982900 1241551.900000
153.990600 109254.200000
154.971600 118978.600000
166.998400 42671.800000
167.979400 9743.000000
168.978000 46861.100000
168.987300 792782.500000
170.948600 28391.700000
198.943600 33520.200000
202.993100 7371.800000

>ms2peaks
50.015200 373348.700000
50.999500 31344.500000
51.023000 562119.400000
52.030800 60939.600000
53.002300 58883.400000
53.038600 379554.600000
53.997500 13127.300000
55.017900 46084.700000
57.987200 111950.600000
58.995000 47328.900000
59.966500 160829.600000
61.007500 10446.900000
62.015100 64856.000000
62.018500 103441.300000
62.945300 315678.300000
62.963100 26525.500000
62.999500 324271.100000
63.023000 338178.800000
63.943600 41021.400000
64.030800 71124.600000
65.038600 1831440.000000
66.046400 935945.100000
67.054300 28557.500000
68.979400 790500.700000
69.987200 87575.400000
70.995100 140843.900000
75.022900 40105.500000
76.030700 83364.200000
77.038600 538931.900000
78.046400 1051823.600000
78.994400 1659161.500000
79.054300 246282.500000
79.948000 16472.000000
80.973600 6600.300000
81.010100 43053.000000
81.033500 44663.500000
81.069800 7812.000000
81.987200 162698.800000
82.995000 26408.900000
84.002900 161082.200000
85.010800 31938.600000
89.038600 487843.900000
90.046500 41421.500000
91.054300 989483.600000
92.062000 12232.500000
92.979400 35726.200000
93.010100 150827.400000
94.041400 141279.200000
94.995100 119051.000000
95.049200 1076430.400000
96.002800 66492.800000
97.005000 89639.500000
97.010800 965546.100000
98.018400 7052.700000
98.984100 65475.500000
100.951500 11488.800000
102.046500 16362.500000
103.054300 110567.000000
105.044800 607131.000000
105.070000 34967.500000
106.041600 10744.200000
107.004600 9573.300000
107.049300 51046.300000
108.002900 415050.300000
109.010800 883371.600000
110.018600 408752.900000
111.020500 16217.400000
111.026700 8529.100000
112.999900 30847.300000
120.003000 33326.000000
121.010800 1579825.500000
122.018600 141558.500000
123.026400 27962.400000
125.005500 9421.500000
127.015600 171377.500000
134.018600 106722.600000
135.026400 128226.500000
137.005700 89358.100000
138.976400 7572.000000
139.974700 13321.700000
140.982700 42865.300000
142.992800 34667.900000
150.967300 14566.200000
152.982900 524738.500000
154.971400 40179.400000
168.987200 128127.900000

>ms2peaks
50.015200 487069.500000
51.023000 948766.400000
52.030800 132709.400000
53.002300 74207.100000
53.038600 342723.600000
53.997500 10430.600000
55.017900 26859.400000
57.987200 141172.000000
58.995000 47159.700000
59.966500 198707.200000
61.007300 31769.600000
62.015100 115645.200000
62.018500 36292.100000
62.945300 328414.700000
62.963100 35614.800000
62.999500 209251.000000
63.023000 544750.600000
63.943600 37322.200000
64.030700 25858.800000
65.038600 1584147.600000
66.046500 732192.300000
67.054400 9628.900000
68.979400 1084392.800000
69.987200 60634.400000
70.995100 153616.500000
75.022900 36717.400000
76.030700 49179.200000
77.038600 373024.500000
78.046400 620680.900000
78.994400 497118.400000
79.054200 89861.500000
79.948100 9854.000000
81.010100 24104.000000
81.033600 39364.700000
81.987200 176629.800000
82.995100 26136.300000
84.002900 102238.300000
89.038700 310497.500000
90.046500 31109.800000
91.054300 460449.300000
92.979500 55237.900000
93.010200 39420.200000
94.041400 68410.000000
94.995100 112338.400000
95.049200 768628.500000
96.002900 26809.000000
97.010800 440991.700000
98.984300 76029.500000
100.951500 14556.300000
102.046600 7648.400000
103.054400 40838.200000
105.044800 487015.900000
107.004700 26226.300000
107.049300 29386.000000
108.002900 226645.200000
109.010800 383576.400000
110.018600 97310.800000
115.054700 7364.800000
120.003000 12945.200000
121.010800 824049.200000
122.018700 27553.300000
123.026600 7887.600000
127.015500 8908.400000
134.018500 47236.400000
135.026400 23680.700000
137.005900 38707.800000
138.976400 6603.000000
152.982900 149205.000000

