>compound EQ08562035
>parentmass 261.1345999999999
>ionization [M+H]+
>formula C13H16N4O2
>rt 204.000000
>profile orbitrap
#smiles_iso COC1=C(C=C(C=C1)CC2=CN=C(N=C2N)N)OC
#smiles_can COC1=C(C=C(C=C1)CC2=CN=C(N=C2N)N)OC
#inchikey LDBTVAXGKYIFHO-UHFFFAOYSA-N
#pubchem_id 21453
#mb_accession EQ364501,EQ364502,EQ364503,EQ364504,EQ364505,EQ364506,EQ364507,EQ364508,EQ364509

>ms2peaks
123.066300 2085696.500000
246.110300 1110885.500000
261.134500 576994112.000000

>ms2peaks
123.066500 42244948.000000
151.075100 781972.100000
217.108300 1712330.000000
245.103200 13813481.000000
246.111100 17207760.000000
261.134500 518268768.000000

>ms2peaks
54.033700 214124.800000
81.044700 7327958.500000
106.039900 269384.400000
123.066500 158828048.000000
124.074300 895898.400000
151.075400 2913663.200000
171.067900 613979.600000
200.081600 256465.500000
200.105400 610428.100000
202.086300 2795883.500000
215.092900 267142.400000
216.100600 7111965.500000
217.108500 25805730.000000
228.077100 720796.600000
228.100300 359612.500000
229.084500 540753.400000
229.108400 956409.500000
230.116700 489418.900000
231.087600 2704515.800000
245.103300 164920768.000000
246.111200 43553820.000000
261.134600 162738672.000000

>ms2peaks
54.033800 950522.800000
81.044700 29176524.000000
106.039800 1224733.500000
107.049100 1781710.800000
110.058600 2982735.500000
111.066600 1134630.600000
123.066500 142082512.000000
124.074400 1019572.600000
135.044000 1249023.900000
151.075400 2727700.800000
158.059700 266988.200000
161.082000 267376.900000
171.067800 1694072.200000
173.082200 695422.800000
175.075200 264792.300000
187.062700 292678.900000
187.097800 2285121.200000
188.105700 2565505.800000
199.098300 480998.200000
200.082100 845284.000000
200.105400 2503060.200000
202.086000 1441319.900000
203.082200 269591.800000
203.092500 2988994.200000
212.082000 267674.000000
215.092800 3480491.500000
216.100600 13244101.000000
217.108500 42033800.000000
227.092800 312289.500000
228.077200 1310332.900000
229.084400 284637.000000
229.108400 2144852.500000
230.116700 274117.400000
231.087700 4344642.500000
232.096000 613562.800000
243.087700 2417939.800000
245.103300 262597424.000000
246.111100 8426990.000000
261.134600 12308573.000000

>ms2peaks
52.018200 330626.200000
54.033800 3087886.200000
60.055600 720350.200000
68.036900 805863.000000
72.031800 530204.100000
79.029000 370499.300000
79.054200 320334.100000
81.044700 58830980.000000
83.047800 236326.900000
86.058700 242486.700000
91.054200 422482.000000
95.049200 509015.100000
96.055600 341457.300000
103.054200 337912.800000
106.039900 2550158.200000
107.049100 11335489.000000
108.056900 362091.200000
109.050900 521030.200000
110.058700 9789577.000000
111.066500 4742532.000000
123.066500 135343440.000000
124.051900 211753.600000
124.074400 1383848.100000
128.049400 244213.400000
130.065100 655905.600000
131.049300 1072990.900000
135.044000 7097835.000000
136.051900 271363.300000
144.044500 254274.600000
145.076100 249962.700000
146.060100 315298.700000
150.054800 219559.600000
151.075400 2637752.000000
155.060600 237877.300000
156.044400 610238.300000
158.060100 3911066.200000
159.067900 296878.700000
161.082300 822010.900000
170.060100 221225.000000
170.071400 440374.800000
171.067800 1649516.800000
171.079100 265163.900000
172.087000 1564808.900000
173.071100 1390825.500000
173.082200 1989912.200000
175.086500 507386.200000
175.097900 502454.100000
182.071300 1026347.600000
184.039400 221478.300000
185.082100 574584.200000
186.054700 552561.800000
186.065900 232763.000000
187.097800 9306704.000000
188.105700 2819304.200000
198.066200 479617.900000
199.073800 348970.900000
199.097900 1397439.800000
200.081900 3776725.500000
200.105700 2037781.500000
201.066000 786939.500000
201.113100 595102.300000
202.086000 310270.600000
203.082000 489769.300000
203.092700 6381561.000000
214.084800 360290.200000
215.092900 8653258.000000
216.100600 4918877.500000
217.108500 23373848.000000
226.060800 393963.300000
227.092800 481958.900000
228.076800 1684629.600000
229.108400 2265545.000000
230.079800 348119.300000
231.087800 1714095.400000
232.096100 661473.400000
243.087800 12474746.000000
245.103300 171669568.000000
246.111400 530009.900000
261.135000 458562.200000

>ms2peaks
52.018100 484871.000000
54.033800 7800410.500000
60.055600 1307862.200000
65.038600 238515.500000
68.036900 3154497.500000
69.044700 262675.200000
70.040000 286186.200000
72.031800 871773.000000
77.038400 333764.300000
79.029000 1064461.200000
79.054200 1509882.400000
80.062000 263865.700000
81.044700 92445968.000000
83.047800 1451446.800000
86.058800 392056.200000
90.046400 319678.400000
91.054300 882643.000000
94.039900 127972.000000
95.049200 1656022.000000
96.055600 758515.200000
97.063500 130012.200000
102.046400 127693.400000
103.054200 2205916.000000
105.033400 376745.500000
105.044800 540411.800000
106.040000 6256366.000000
107.049100 24046650.000000
108.056900 627868.600000
109.028400 122978.400000
109.050900 1483851.000000
110.058700 12398545.000000
111.066500 5514849.500000
115.054300 417059.100000
116.049400 637200.300000
118.065100 379570.100000
120.081000 136153.100000
123.066500 122793232.000000
124.051600 401284.400000
124.074400 2117329.000000
128.049400 1808815.500000
129.057200 267700.700000
130.065100 4105766.500000
131.049200 6084684.500000
131.060100 553864.300000
132.044300 328059.700000
132.056900 252863.200000
133.052400 125166.000000
133.064800 456988.700000
133.076100 583199.900000
134.059500 134050.700000
135.044000 8451164.000000
136.051800 323117.600000
140.049400 1315034.600000
141.057200 283885.500000
142.065100 274057.100000
143.060400 382594.400000
144.044300 726038.900000
144.068400 134221.600000
145.076000 2134242.800000
146.060000 1244365.100000
146.083800 219384.000000
147.066600 337727.600000
148.039300 452415.500000
148.075000 797160.900000
150.054800 544647.600000
151.038800 284411.900000
151.075400 2400593.200000
155.060300 1797836.000000
156.044300 2531747.000000
157.052200 317803.600000
157.076100 502988.300000
158.060100 7755419.000000
158.071100 731089.200000
159.044200 788754.200000
159.067600 679825.600000
160.074500 526372.600000
160.086900 126843.800000
161.082200 1988133.200000
162.089800 280415.500000
168.055600 494785.100000
170.059900 292261.100000
170.071200 2069771.000000
171.055500 714875.200000
171.067800 774522.100000
171.079000 661015.600000
172.075000 1124641.200000
172.086900 3635817.800000
173.071000 3377896.800000
173.082200 2334003.000000
174.054800 467916.800000
174.078600 360465.900000
174.090000 202167.900000
175.086700 982665.100000
175.097900 1366592.400000
176.069900 1036828.600000
182.071400 2349115.800000
183.055400 1117588.400000
183.079000 380037.500000
184.039400 760622.100000
184.074400 230119.100000
185.082200 1479909.100000
186.055100 763681.400000
186.066000 643697.500000
186.090300 476710.300000
187.097800 15767350.000000
188.081700 282456.800000
188.105700 976616.100000
197.082000 426016.700000
198.066300 1442257.500000
198.090000 307650.200000
199.050200 249260.300000
199.074200 1132040.500000
199.097800 1806035.400000
200.081800 4969529.500000
200.105700 833139.600000
201.065800 2061004.900000
201.113600 534868.100000
203.081900 404977.300000
203.092600 5047899.000000
213.077200 481903.400000
214.084900 1030207.200000
215.092900 9823201.000000
216.100500 979140.400000
217.108500 6825940.500000
226.061500 764091.700000
227.092400 261379.000000
228.076900 844271.700000
229.108700 797671.400000
230.079800 352228.700000
231.087700 356695.200000
232.095600 327567.300000
243.087800 12978753.000000
245.103400 52488984.000000

>ms2peaks
50.015100 237705.200000
51.022900 215433.500000
52.018200 2214412.800000
53.013400 221331.900000
53.038600 1183719.100000
54.033900 20696768.000000
55.017800 414264.700000
55.041700 375750.500000
56.036900 230953.500000
56.049500 236521.900000
60.055600 658461.100000
63.022900 247328.100000
65.038500 840421.200000
66.021200 125219.000000
67.029000 262988.100000
67.054200 97344.700000
68.024300 449472.600000
68.036900 6089870.500000
69.044700 1323002.100000
70.039900 656953.200000
72.031700 338290.900000
77.038500 2665815.200000
78.046400 642450.600000
79.029100 5120892.500000
79.054200 4044445.000000
80.036900 239156.100000
80.049400 217571.100000
80.061900 242089.400000
81.044700 81786456.000000
82.052500 568672.400000
83.047700 2998866.200000
84.055600 112070.200000
86.058700 222186.100000
89.038600 2335915.500000
90.046400 531974.700000
91.054200 2246679.000000
92.049400 293002.800000
93.033600 104432.400000
93.057300 199635.200000
94.040100 324479.500000
95.049200 4713351.500000
96.044300 94272.200000
96.055600 1222465.600000
97.063400 514381.900000
98.034900 106201.200000
101.038500 254075.200000
102.046400 836308.100000
103.054200 9362214.000000
104.049400 1429444.800000
105.033500 1586638.500000
105.044700 2803881.800000
105.069800 365268.000000
106.040000 7719271.500000
106.065100 955729.100000
107.049200 15174755.000000
108.056800 449861.400000
109.028500 202230.500000
109.050900 3522510.500000
110.058700 5355138.000000
111.066500 1270347.200000
113.038600 457257.800000
114.033800 308228.600000
114.046300 120062.400000
115.054300 1388105.600000
116.049500 3838904.200000
117.044700 95949.700000
117.057200 1071608.500000
118.041400 195766.500000
118.052600 476048.900000
118.065100 2244700.500000
119.049400 488215.800000
119.060500 454580.100000
120.044300 382443.400000
120.080800 292517.800000
122.060200 119709.000000
123.066500 25992522.000000
124.074400 2585525.200000
127.041700 310209.100000
128.049500 7702305.000000
129.033400 300584.200000
129.044700 1213037.500000
129.057300 396706.200000
130.065200 6534745.500000
131.049200 9056719.000000
131.060200 1839397.200000
132.044400 1129975.600000
132.056700 483333.000000
132.068200 298062.600000
133.028500 567052.600000
133.052400 604161.100000
133.063900 447612.700000
133.076000 967546.700000
134.060000 1101178.400000
134.071200 210325.900000
135.044000 3179629.500000
135.055300 224160.100000
135.066600 588489.600000
140.049500 4300122.500000
141.044700 473169.300000
141.057400 362978.600000
142.052700 463925.200000
142.065200 117074.900000
143.060400 2352610.000000
144.044400 732189.300000
144.055800 630369.500000
144.068100 242225.100000
145.052100 265508.700000
145.076100 3710702.000000
146.060000 2783636.800000
146.071400 322536.800000
146.084000 238404.600000
147.066500 870290.500000
148.039400 501567.400000
148.074700 1001914.600000
150.055000 369888.500000
151.038900 1295876.500000
151.075200 364549.600000
153.044700 753383.700000
155.060400 3310291.000000
156.044400 4597241.000000
156.055300 230689.400000
157.052200 333921.200000
157.063600 319724.300000
157.076100 378784.600000
158.047400 245140.000000
158.060100 2047186.500000
158.071000 910675.000000
159.044200 560747.800000
159.055300 509215.200000
159.067500 946288.900000
160.074300 536134.000000
160.086900 310743.400000
161.082200 1710630.200000
162.090100 94146.600000
168.055700 428487.500000
169.063400 107079.300000
170.071300 3515435.500000
171.055300 1815927.600000
171.066900 106709.500000
171.079100 969125.100000
172.074400 2592731.800000
172.086500 1066669.000000
173.071000 1613439.600000
173.082200 912544.900000
174.055100 207263.600000
174.078800 248488.900000
174.089900 274146.900000
175.039000 199731.800000
175.086300 98562.100000
175.097800 616334.900000
176.069700 408021.900000
180.055500 83458.900000
181.063400 404493.800000
182.071400 817552.500000
183.055700 578943.100000
183.079400 376158.800000
184.039400 203377.800000
184.063100 95659.800000
184.074500 255542.500000
185.082200 1689152.900000
186.066400 484065.700000
186.090100 837235.300000
187.097900 5269766.000000
188.081500 186315.100000
197.082400 498879.000000
198.066500 650391.800000
198.090200 128596.900000
199.073900 728898.400000
199.098000 641897.900000
200.081600 508071.500000
201.066000 765443.300000
203.092600 465241.300000
213.077300 514329.600000
214.085100 574462.200000
215.092800 1148219.800000
226.060900 105134.200000
243.088000 681815.100000
245.103800 625326.200000

>ms2peaks
50.015100 1201063.500000
51.022900 1430077.200000
52.018200 4712118.500000
53.013500 711585.600000
53.026100 181151.800000
53.038600 3518257.200000
54.033900 30197078.000000
55.017800 904110.800000
55.029100 350145.600000
55.041600 928292.900000
56.036900 523840.600000
56.049500 79270.800000
60.055600 223017.300000
61.007200 54029.400000
62.015100 62169.500000
63.022900 1481982.000000
64.018100 85140.200000
64.030700 54526.200000
65.038600 2573340.200000
66.021200 264869.300000
66.033900 107791.000000
66.046500 228523.200000
67.029100 894229.300000
67.041700 205110.800000
67.054200 281066.100000
68.024300 745265.900000
68.036900 5026705.000000
69.032200 104564.400000
69.044700 1506869.100000
70.040000 722146.600000
70.052600 180168.400000
75.022900 1545324.600000
76.030700 210742.400000
77.038500 7292820.000000
78.033700 467483.900000
78.046400 1555407.200000
79.029000 5621154.000000
79.054200 4119840.500000
80.036900 631027.100000
80.049300 477913.500000
80.062000 204384.000000
81.044700 36444192.000000
82.039900 396028.000000
82.052500 631154.600000
83.047800 1808230.100000
87.022900 199274.800000
88.018200 197969.600000
88.030800 113179.200000
89.038600 8459428.000000
90.033900 685936.300000
90.046400 1052800.100000
91.041600 344528.400000
91.054200 5076861.000000
92.049400 496869.900000
93.033500 88669.100000
93.044800 269265.200000
93.057300 340987.400000
94.040000 280633.900000
95.049200 10268533.000000
96.044400 417992.300000
96.055600 1617439.000000
97.063500 318731.900000
98.034900 319176.500000
101.038600 1040965.900000
102.034000 369295.800000
102.046400 1855606.900000
103.054200 9966321.000000
104.049400 2802694.500000
105.033500 3220259.500000
105.044700 7990189.500000
106.039900 2958413.000000
106.052600 466163.800000
106.065100 943109.600000
107.049200 6861615.500000
108.055500 185315.000000
109.050900 2863651.200000
110.058700 1089193.400000
111.066600 385288.300000
113.038600 1578046.400000
114.033900 1354964.000000
114.046300 214498.100000
115.041700 273976.700000
115.054200 1354065.200000
116.049500 4809084.000000
117.044800 529630.100000
117.057300 2135630.200000
118.040500 253121.300000
118.052600 826708.600000
118.065100 2363413.200000
119.049200 1119365.800000
119.060500 366624.700000
120.044600 465788.800000
120.055700 365214.300000
121.039600 221333.200000
123.066500 3922346.800000
124.074400 916826.800000
126.034200 90697.900000
127.041700 800265.400000
128.049500 6447515.500000
129.033600 227127.000000
129.044700 4054515.500000
129.057400 329075.500000
130.040000 772205.800000
130.052600 348198.900000
130.065100 3003330.000000
131.049200 3626297.200000
131.060300 1419305.000000
132.044500 444380.400000
132.068200 282700.200000
133.028500 628411.300000
133.052300 566729.200000
133.063300 224569.100000
133.075800 245330.400000
134.060000 803037.200000
134.071400 70824.400000
135.043900 830782.100000
135.055300 297695.900000
135.066200 346975.500000
136.050300 391414.300000
140.049400 2412058.800000
141.044900 355583.900000
141.057100 267498.300000
142.052600 1094736.600000
143.060400 1752922.200000
144.044600 300449.500000
144.055700 747091.800000
144.068100 229809.400000
145.052100 103246.800000
145.076000 920912.600000
146.060100 1693636.400000
147.055400 106998.400000
147.066500 873138.200000
148.039400 65864.100000
148.074600 220267.500000
151.039000 1741297.900000
153.044800 818744.100000
154.040000 479209.900000
154.052700 219433.600000
155.047800 87491.900000
155.060300 1204663.400000
156.044500 1390656.100000
156.055100 337956.900000
157.052100 204058.900000
157.063600 334457.100000
157.075800 62685.300000
158.047500 185827.700000
158.060200 113428.100000
158.071100 288692.700000
159.055300 260413.900000
159.066400 360449.000000
160.074400 193675.900000
160.086900 77794.800000
161.082200 639616.400000
166.052400 72619.800000
168.055600 196630.200000
169.063800 77851.000000
170.071300 996504.700000
171.055300 959902.900000
171.066600 305375.700000
171.078800 74578.500000
172.074300 977115.600000
173.071100 82591.800000
173.082100 456849.500000
175.039300 71829.600000
180.055600 60013.600000
181.063300 102037.800000
182.071500 106831.300000
184.074400 112726.500000
185.082200 1167759.600000
186.066100 90361.400000
186.089900 219656.300000
187.098000 439325.200000
188.082200 82266.900000
197.081900 94747.600000
198.066400 113589.100000
213.077000 354471.200000

>ms2peaks
50.015100 3851516.800000
51.023000 5736150.500000
52.018200 6149781.500000
53.013400 620801.900000
53.038600 4718108.500000
54.033900 24289456.000000
55.017900 1171002.800000
55.029100 737279.400000
55.041600 1331059.100000
56.036900 614587.000000
56.049500 72584.200000
61.007200 100046.600000
62.015100 710790.600000
63.022900 5565649.000000
64.018200 620026.800000
64.030700 305653.900000
65.002200 253466.328100
65.038600 4666242.500000
66.021200 470876.900000
66.033800 262205.400000
66.046400 417895.500000
67.029100 1216071.000000
67.041600 579524.800000
67.054200 301052.800000
68.024200 908952.100000
68.036900 2208465.500000
69.032200 61219.000000
69.044700 1205037.100000
70.040000 412155.500000
70.052500 57509.200000
74.015000 481135.625000
75.022900 4581141.500000
76.018100 618318.562500
76.030700 653763.800000
77.038500 9344026.000000
78.033800 1032734.100000
78.046400 1484433.600000
79.029000 3258613.200000
79.041600 321873.906300
79.054200 2463488.000000
80.036900 447076.500000
80.049400 757935.500000
81.033500 898494.062500
81.044700 11268139.000000
82.040000 438208.800000
82.052500 288184.200000
83.047700 1026591.600000
87.023000 559026.300000
88.018300 454568.200000
88.030700 281485.400000
89.038600 11900100.000000
90.033900 1474758.900000
90.046400 1002222.200000
91.041700 791448.900000
91.054200 4384264.500000
92.049500 576649.100000
93.044800 296454.600000
93.057400 349168.000000
95.049100 12543451.000000
96.044300 669702.900000
96.055600 1124989.600000
97.063600 106492.700000
98.034800 54270.100000
100.018100 381213.406300
101.038600 846786.900000
102.033800 854347.200000
102.046400 2212287.000000
103.041700 500984.812500
103.054200 4145337.200000
104.049400 2147945.000000
105.033500 2436453.000000
105.044700 10596708.000000
106.039800 652720.200000
106.052600 235956.800000
106.065100 438654.600000
107.049200 2400285.800000
108.055800 56506.300000
109.050900 1457812.500000
110.058700 192385.200000
111.066400 63012.600000
113.038600 1526893.100000
114.033800 1636422.800000
114.046300 180443.600000
115.041700 645512.400000
115.054200 738814.800000
116.049500 2798272.200000
117.044700 494398.000000
117.057300 1739853.500000
118.040000 87100.900000
118.052500 660854.400000
118.065100 648535.400000
119.049100 679400.500000
119.060400 311553.900000
120.044400 297764.200000
120.055600 303973.000000
121.039600 283799.800000
123.066500 817422.200000
124.074300 226258.000000
126.033900 246582.600000
127.041700 952514.400000
128.049400 2082911.600000
129.044700 3480112.800000
129.057300 207915.100000
130.040100 980536.200000
130.052600 95095.800000
130.065100 1044513.200000
131.049300 600567.500000
131.060400 844296.400000
132.044200 194524.900000
132.056300 102412.000000
132.067900 81292.400000
133.028500 219032.100000
133.052000 101184.200000
134.059900 376551.700000
135.044000 185046.400000
135.055200 182520.200000
135.066700 70680.300000
136.050600 283860.800000
140.049600 693115.900000
141.044500 322387.200000
142.052600 987952.300000
143.060400 589379.500000
144.044300 103550.700000
144.055600 433019.000000
145.075900 47768.000000
146.060100 661324.800000
147.066500 399636.300000
148.074400 52252.500000
151.039000 585608.500000
153.044700 383770.100000
154.039800 358251.800000
154.052500 62053.900000
155.047300 72008.100000
155.060600 349992.800000
156.044400 323622.800000
156.055600 102203.600000
157.063700 56121.300000
158.071000 55182.800000
159.055300 57044.800000
159.066300 47186.400000
161.082200 224795.800000
168.055800 70622.500000
170.071100 97393.800000
171.055500 115296.400000
171.066400 89759.300000
172.074100 81685.700000
173.082200 184240.700000
182.072100 45093.000000
184.074700 51771.700000
185.082300 283150.100000
186.066200 72416.700000

