>compound EQ08686967
>parentmass 250.18019999999999
>ionization [M+H]+
>formula C15H23NO2
>rt 312.000000
>profile orbitrap
#smiles_iso CNCC1CCCCC1(C2=CC(=CC=C2)OC)O
#smiles_can CNCC1CCCCC1(C2=CC(=CC=C2)OC)O
#inchikey VUMQHLSPUAFKKK-UHFFFAOYSA-N
#pubchem_id 198555
#mb_accession EQ356501,EQ356502,EQ356503,EQ356504,EQ356505,EQ356506,EQ356507,EQ356508,EQ356509

>ms2
189.127500 2126496.000000
232.169700 16693792.000000
250.180300 145036976.000000

>ms2
121.064800 134144.500000
189.127500 2158796.500000
201.127300 243519.200000
232.169800 2224989.200000
250.180300 11810896.000000

>ms2
74.096300 127830.500000
81.069900 104993.400000
121.064800 1764809.100000
159.080400 246514.700000
189.127600 1005984.300000
201.127200 480577.200000

>ms2
67.054300 108059.200000
81.069900 254957.300000
121.064800 2896254.000000
144.057200 213333.300000
158.073100 112403.773400
159.080500 501408.800000
160.088200 183060.800000
189.127400 114899.700000

>ms2
70.065100 164765.400000
91.054300 483635.100000
93.070000 182826.062500
119.060500 112627.242200
121.064900 2500124.500000
145.064700 140140.234400
159.080500 199701.700000
160.087800 97714.000000

>ms2
65.038600 181187.400000
67.054200 105578.700000
70.065000 157166.700000
77.038500 117420.600000
91.054200 1471565.000000
95.049200 202463.500000
121.064800 2050651.800000
144.057100 224383.000000
159.080600 139266.100000

>ms2
53.038500 145448.400000
65.038500 800785.700000
70.065100 160382.100000
77.038500 233310.300000
78.046300 836280.500000
79.054000 200576.875000
91.054300 1836849.100000
95.049100 659609.300000
103.054200 166182.400000
105.044500 195355.100000
115.054200 862256.900000
116.061900 248830.300000
121.064800 587723.300000
128.061900 477846.200000
129.069600 202323.343800
144.056700 117603.300000

>ms2
51.023000 721860.500000
53.038600 154832.900000
63.022900 587440.200000
65.038600 1679345.800000
68.049400 120595.484400
77.038400 484667.100000
78.046400 2262808.500000
89.038600 173611.600000
91.054300 1450043.900000
92.025600 248977.100000
95.049200 801003.300000
102.046500 208089.500000
103.054000 408026.600000
105.044600 503666.100000
115.054300 1411757.000000
116.062000 153432.300000
127.054300 119108.015600
128.062000 758566.100000

>ms2
50.015100 620658.750000
51.023000 1715832.000000
52.030800 384141.125000
53.038600 404457.100000
63.022900 1507288.500000
64.030700 450039.843800
65.038600 2062956.000000
66.046400 169137.656300
75.022900 108853.601600
77.038600 258436.300000
78.046400 1884859.500000
89.038600 669726.400000
91.054200 1155522.600000
92.025700 188646.500000
95.049100 1091896.600000
102.046400 437007.800000
103.054300 243721.900000
105.044800 601567.200000
115.054300 1840166.900000
128.062100 736114.400000

