>compound EQ09404299
>parentmass 188.14339999999999
>ionization [M+H]+
>formula C13H17N
>rt 246.000000
>profile orbitrap
#smiles_iso C[C@H](CC1=CC=CC=C1)N(C)CC#C
#smiles_can CC(CC1=CC=CC=C1)N(C)CC#C
#inchikey MEZLKOACVSPNER-GFCCVEGCSA-N
#pubchem_id 26757
#mb_accession EQ327501,EQ327502,EQ327503,EQ327504,EQ327505,EQ327506,EQ327507,EQ327508,EQ327509

>ms2
58.065100 667829.600000
70.065100 91453824.000000
77.038400 692048.900000
91.054300 290079904.000000
96.080800 2561767.800000
97.088600 708490.300000
104.061800 587944.400000
119.085600 463908512.000000
148.112200 1556927.800000
188.143400 427213824.000000

>ms2
65.038400 611815.800000
70.065100 97002440.000000
77.038400 649906.600000
91.054300 414336384.000000
96.080900 2284764.200000
97.088500 1125876.800000
119.085600 464074816.000000
148.112200 1997823.800000
188.143400 271909856.000000

>ms2
51.022900 848481.300000
65.038500 1276140.800000
70.065100 66453900.000000
91.054200 846824256.000000
96.080900 2002866.100000
97.088600 883453.700000
119.085600 170031216.000000
148.112100 963565.000000
188.143400 17785798.000000

>ms2
51.022700 1086855.900000
65.038600 3344513.800000
70.065100 37429504.000000
91.054200 1028194944.000000
96.080900 1837828.500000
119.085600 29783610.000000

>ms2
51.022700 1312509.400000
65.038600 8930932.000000
70.065100 17797148.000000
91.054200 1061721920.000000
96.080900 1314584.600000
119.085500 4204148.000000

>ms2
65.038600 33580120.000000
70.065100 9412971.000000
79.054200 1682400.000000
91.054200 1147085312.000000

>ms2
51.022800 1196903.100000
53.002200 1908092.800000
58.065200 1271440.500000
63.022900 4554700.500000
65.038600 165407392.000000
70.065000 1577278.100000
77.038700 1147384.200000
79.054300 1092736.200000
89.038400 818281.400000
91.054200 778696576.000000
95.049400 1514912.600000
103.054200 828894.600000

>ms2
50.015100 2420583.000000
51.023000 2786928.000000
53.002200 5746688.000000
53.038600 1021771.900000
53.997500 952543.900000
56.049500 678836.200000
58.065200 2281454.800000
62.015100 1733560.200000
63.023000 15201432.000000
65.038600 286651584.000000
77.038600 2069959.900000
78.046500 1852927.100000
79.054200 564713.900000
89.038500 834051.800000
91.054300 358112352.000000
95.049200 2441013.500000
103.054200 1239245.600000
105.044700 1264137.500000
115.054200 884416.900000

>ms2
50.015200 6452585.000000
51.023000 10175442.000000
53.002200 7917616.500000
53.038600 1134292.500000
53.997500 1866358.200000
56.049500 297634.600000
58.065200 2817084.000000
61.007300 805961.100000
62.015100 4859094.000000
63.023000 26708042.000000
64.030600 289603.400000
65.038600 243505088.000000
77.038500 2355921.000000
78.008800 298451.200000
78.046400 2301864.800000
89.038700 1618187.200000
90.046500 292182.200000
91.054300 120096008.000000
95.049200 3308028.500000
103.054300 1771599.800000
105.044800 1628379.900000
115.054200 274200.900000

