>compound EQ09094912
>parentmass 228.0422
>ionization [M+H]+
>formula C10H10ClNO3
>rt 372.000000
>profile orbitrap
#smiles_iso C1=CC(=CC=C1C(=O)NCCC(=O)O)Cl
#smiles_can C1=CC(=CC=C1C(=O)NCCC(=O)O)Cl
#inchikey ZCGLNFAUVVHTQO-UHFFFAOYSA-N
#pubchem_id 1235725
#mb_accession EQ338401,EQ338402,EQ338403,EQ338404,EQ338405,EQ338406,EQ338407,EQ338408,EQ338409

>ms2peaks
55.017900 361145.700000
72.044300 12977228.000000
75.022700 225724.900000
90.054900 133108.800000
110.999100 638426.700000
138.994500 95260680.000000
156.021100 221011.100000
168.021100 23859686.000000
182.036600 321303.500000
186.031700 244195.100000
210.031600 129389416.000000
228.042200 26342306.000000

>ms2peaks
55.017700 394955.400000
72.044300 10192914.000000
75.022800 339785.300000
110.999300 856754.800000
138.010600 194124.300000
138.994500 180828352.000000
156.020900 1089856.000000
168.021000 36162460.000000
182.036800 489129.900000
186.031400 354191.300000
210.031600 57430980.000000
228.042200 3408664.200000

>ms2peaks
55.017800 737108.800000
72.044400 4630500.500000
86.999500 300261.400000
110.999400 1075832.000000
129.010000 922692.400000
138.994500 246435120.000000
156.021000 1934997.600000
168.021100 7222248.500000
182.036600 492581.300000
210.031700 3061642.200000

>ms2peaks
50.014900 509904.300000
51.022900 336428.000000
55.017900 1525285.500000
72.044400 2521279.800000
73.028400 377944.100000
75.022600 637870.400000
79.017900 232106.000000
86.999600 2024983.200000
93.033500 838892.100000
110.999500 1491595.400000
111.044000 385882.100000
129.010200 7164140.000000
138.994500 224520336.000000
139.005400 23866578.000000
156.021000 1578745.400000
168.021000 420722.100000
182.037000 275504.600000

>ms2peaks
50.015100 960635.700000
51.022900 773389.800000
53.002100 297698.100000
55.017800 2115048.500000
72.044300 1752731.800000
73.028400 369313.300000
75.022800 2244604.800000
79.017800 921805.600000
80.025600 449829.600000
86.999600 6347111.000000
93.033500 2319142.000000
94.041300 872470.200000
110.999500 3465913.000000
111.044000 1086965.100000
113.015200 206178.500000
114.994500 735652.500000
121.039700 360640.700000
129.010100 23579670.000000
138.010800 226570.300000
138.994500 162990688.000000
139.005500 64875160.000000
140.002800 455624.500000
156.021000 786432.900000

>ms2peaks
50.015100 1440886.200000
51.022900 1517721.800000
53.002200 915534.500000
55.017900 2465919.200000
60.984000 156166.800000
62.963200 192858.300000
65.038500 369497.100000
72.044400 841821.600000
73.028400 398300.100000
74.015000 553989.800000
75.022900 10501612.000000
79.017800 1450056.900000
80.025600 795179.500000
84.983900 444638.800000
86.999600 9674558.000000
93.033500 3781276.500000
94.041300 1048631.200000
98.036200 138282.400000
110.999600 7854890.000000
111.044000 1791063.800000
113.015200 202934.600000
114.994500 1175476.500000
121.039600 624020.400000
128.002500 283151.400000
129.010200 37797620.000000
138.010600 197904.000000
138.994600 80114448.000000
139.005600 93498064.000000
140.002700 787369.000000
156.021000 187410.800000

>ms2peaks
50.015100 1770923.900000
51.022900 1321512.600000
53.002200 3931925.800000
55.017900 2529464.000000
60.983900 175166.200000
61.007200 73498.800000
62.963200 132184.800000
65.038600 1125183.100000
72.044300 338597.300000
73.028400 172223.200000
74.015100 4977864.000000
75.022900 61620612.000000
76.030600 691957.800000
77.038600 129260.600000
79.017800 1094385.000000
80.025600 620994.100000
84.983900 4361873.500000
86.999600 8771567.000000
88.978700 74868.400000
93.033500 2897563.200000
94.041300 1066100.800000
98.036300 120401.100000
110.999600 14872319.000000
111.044000 1658647.400000
114.994600 851420.400000
121.039600 578357.600000
128.002000 254456.400000
129.010200 34241148.000000
138.994700 10868933.000000
139.005700 73054768.000000
140.002800 573612.900000

>ms2peaks
50.015100 1827055.400000
51.022900 880517.100000
53.002200 4221709.000000
55.017900 1612612.200000
60.983900 630209.200000
65.002200 205509.300000
65.038600 1170514.000000
73.007100 158980.300000
74.015100 24657538.000000
75.022900 118636944.000000
76.030600 2615636.000000
79.017800 433908.300000
80.025700 306993.200000
84.983900 12430523.000000
86.999600 3796801.800000
89.002300 161683.600000
93.033600 1371227.100000
94.041400 405204.200000
110.999600 11633378.000000
111.044000 767231.700000
114.994600 464899.400000
121.039700 243749.100000
129.010200 14809015.000000
139.005800 31080968.000000
140.002600 205118.200000

>ms2peaks
50.015100 3708898.800000
51.023000 1032813.300000
53.002200 1795390.000000
55.017900 776857.800000
60.983900 904945.400000
61.007200 280303.700000
63.023000 271344.800000
65.002100 526122.400000
65.038600 704960.300000
66.010000 136054.300000
72.983900 156225.300000
73.007200 187252.100000
74.015100 50498260.000000
75.022900 93727520.000000
76.030700 3303295.500000
84.983900 13591163.000000
86.999600 662349.500000
89.002200 383575.400000
93.033400 213009.400000
110.999600 3048723.200000
111.044100 209853.400000
129.010200 2982126.500000
139.005700 5701059.000000

