>compound EQ09356345
>parentmass 294.2064
>ionization [M+H]+
>formula C17H27NO3
>rt 438.000000
>profile orbitrap
#smiles_iso CCCCOC1=CC=C(C=C1)OCCCN2CCOCC2
#smiles_can CCCCOC1=CC=C(C=C1)OCCCN2CCOCC2
#inchikey DQKXQSGTHWVTAD-UHFFFAOYSA-N
#pubchem_id 4886
#mb_accession EQ327301,EQ327302,EQ327303,EQ327304,EQ327305,EQ327306,EQ327307,EQ327308,EQ327309

>ms2peaks
100.075600 6980968.500000
128.106900 5644512.500000
294.206200 1901360000.000000

>ms2peaks
86.059900 3300697.000000
88.075600 14916033.000000
100.075600 121212328.000000
102.091300 3278351.800000
123.043900 7855747.000000
126.091400 1604603.000000
128.106900 191021712.000000
151.075300 76317560.000000
179.106500 15659727.000000
207.137900 13032758.000000
238.143400 3511747.000000
294.206200 1482954880.000000

>ms2peaks
56.049400 5725426.000000
57.069900 4743648.500000
58.065100 3520711.800000
67.054200 765862.700000
70.065100 15210197.000000
72.080700 5716026.500000
84.080700 3338525.200000
86.060000 34534020.000000
87.067900 1671448.200000
88.075700 38917312.000000
95.049100 3408174.800000
98.060000 998406.600000
98.096400 5606735.500000
100.075600 665437312.000000
102.091300 13241673.000000
105.069800 1850106.000000
107.049000 1298214.900000
109.028400 2896890.500000
110.036300 1519953.600000
111.044000 839567.100000
114.091300 1175570.800000
123.044000 100857376.000000
126.091300 3641496.800000
128.106900 325225920.000000
133.064900 2938169.200000
151.075300 163802400.000000
166.098800 1489665.000000
179.106600 49295060.000000
207.138000 7400506.500000
237.135300 899118.100000
238.143700 5608207.000000
294.206400 220371856.000000

>ms2peaks
56.049500 30521740.000000
57.057300 1351407.500000
57.069900 9941929.000000
58.065100 11655100.000000
65.038600 1442208.800000
67.054200 6470206.000000
68.997000 1302895.900000
70.065100 60314416.000000
72.044300 1490470.600000
72.080700 27826760.000000
79.054100 1352900.100000
82.065100 1672513.800000
84.080700 6639547.000000
85.052100 1111881.500000
86.060000 68223976.000000
87.067900 1613467.800000
88.075600 19615198.000000
95.049100 19592296.000000
98.060000 1349718.400000
98.096400 10408921.000000
100.075600 1070587520.000000
102.091200 12318072.000000
105.069800 3463057.000000
107.048800 2055927.600000
109.028300 6332262.500000
110.036200 4343701.500000
111.044000 2784340.200000
121.039600 3503056.500000
123.044000 194823312.000000
126.091200 2972722.000000
128.106900 152046912.000000
133.064600 2913190.200000
151.075300 65154496.000000
179.106600 12272959.000000
294.206200 5394939.000000

>ms2peaks
55.017800 3386991.500000
55.054200 1171712.400000
56.049500 66540460.000000
57.057300 2664554.200000
57.069900 7702568.000000
58.065100 14408647.000000
65.038600 7029928.500000
67.054200 16891646.000000
68.049500 1217098.900000
68.997100 2282662.800000
69.069900 942650.100000
70.065100 101372592.000000
72.080700 45877244.000000
77.038400 1371828.600000
79.054200 2592033.500000
81.033500 2870103.500000
82.065100 2369194.500000
84.080800 5849027.500000
85.052200 1767550.100000
86.060000 62885476.000000
87.067900 1052166.200000
88.075700 7236185.000000
93.033300 1395788.800000
95.049100 32213246.000000
98.060000 1798657.200000
98.096400 7801029.500000
100.075600 858704640.000000
102.091300 5089475.000000
105.044700 1183882.100000
105.069900 4169699.500000
107.049100 1663112.400000
109.028400 7442924.500000
110.036300 4202186.500000
111.044000 7307417.500000
114.091300 1136509.500000
121.039600 11571889.000000
123.044000 123375800.000000
126.091400 1093583.600000
128.107000 35309836.000000
151.075300 12160225.000000
179.106500 918271.600000

>ms2peaks
53.002300 1230178.100000
53.038600 1309270.000000
54.033800 706274.600000
55.017900 5355431.000000
55.054200 850435.600000
56.049500 85658480.000000
57.057300 2534325.000000
57.069900 3839360.000000
58.065100 13514310.000000
65.038600 16487570.000000
67.054200 23410544.000000
68.049400 1902290.900000
68.997100 1887664.200000
69.033500 885038.200000
69.069800 1124951.500000
70.065100 101508864.000000
71.072800 583049.200000
72.080700 45122624.000000
77.038500 2140507.800000
79.054200 2564156.200000
81.033500 4713848.000000
82.065100 2490926.000000
84.080700 4450382.000000
85.052300 1441395.600000
86.060000 40623968.000000
88.075700 2012389.000000
91.054300 867090.700000
93.033600 1215500.100000
95.049100 24714666.000000
98.060100 1088015.500000
98.096400 3224290.500000
100.075600 473368736.000000
102.091200 1709321.800000
103.054100 715334.300000
105.033300 583051.400000
105.044800 1283547.600000
105.069800 2412922.200000
107.049100 815522.100000
109.028400 3933541.200000
110.036200 3390716.200000
111.044000 8197823.500000
121.039600 11905321.000000
123.044000 48891920.000000
128.107000 7204514.000000
151.075200 1120369.900000

>ms2peaks
50.015100 356769.800000
51.022900 670980.600000
53.002200 2637051.800000
53.038600 3453023.200000
53.997400 607578.000000
54.033800 1834551.800000
55.017900 8697179.000000
55.041700 782915.800000
55.054300 1048062.200000
56.049500 121986872.000000
57.057300 3140072.000000
57.069800 1178211.600000
58.065100 14284461.000000
65.038600 44537572.000000
67.054200 18485500.000000
67.989300 256821.000000
68.049500 1989815.600000
68.997100 3105984.000000
69.033500 343298.900000
69.057300 239749.900000
69.069800 1465677.100000
70.065100 95734592.000000
71.072900 942324.300000
72.044300 2087766.400000
72.080700 34565712.000000
77.038500 3677568.200000
79.054200 3130936.200000
81.033500 7561663.500000
82.041300 791127.900000
82.065100 2321489.500000
84.080700 2177022.800000
85.052200 1432970.800000
86.060000 19415686.000000
88.075700 316492.900000
91.054300 600091.900000
93.033500 945390.000000
94.041300 306605.000000
95.049100 12910280.000000
96.080900 185090.500000
98.060100 824277.900000
98.096400 921714.300000
100.075600 168585728.000000
103.054200 925100.000000
105.044700 3559342.800000
105.069900 338663.100000
107.049100 658903.000000
109.028500 1130629.600000
110.036200 2561001.800000
111.044100 5105873.500000
121.039600 5815842.000000
123.044000 7192820.000000

>ms2peaks
50.015100 855527.100000
51.023000 3515224.800000
53.002200 3482829.500000
53.038600 3007880.500000
53.997500 1181236.000000
54.033900 2091155.900000
55.017900 5900132.000000
55.041600 845677.500000
55.054200 744154.500000
56.049500 74756832.000000
57.057300 2461057.500000
58.065100 6365032.500000
65.038600 34658764.000000
67.041700 624730.600000
67.054200 5186424.500000
67.989300 706907.100000
68.049400 2002485.400000
68.997100 2410495.200000
69.033500 193725.500000
69.057300 244117.900000
69.069900 549266.600000
70.065100 38957560.000000
71.072900 622516.600000
72.044400 863848.200000
72.080800 11787164.000000
77.038600 2523863.200000
79.054200 1069226.600000
81.033500 4855039.500000
82.041300 635343.600000
82.065100 1226449.500000
84.080800 900283.600000
85.052200 798967.700000
86.060000 5568664.000000
91.054400 208094.100000
94.041300 256913.700000
95.049200 5438762.000000
100.075700 30354376.000000
103.054200 559795.900000
105.044800 2243529.800000
107.049200 134440.000000
109.028400 207749.600000
110.036300 900033.600000
111.044100 917675.700000
115.054200 201417.200000
121.039700 919152.400000
123.044000 506122.700000

>ms2peaks
50.015200 1668111.000000
51.023000 7112100.500000
53.002200 5020955.000000
53.038600 2827599.500000
53.997400 1212247.500000
54.033800 2631720.500000
55.017900 3119015.800000
55.041700 1026699.600000
55.054300 218382.200000
56.049500 39174776.000000
57.057300 1528093.000000
58.065100 3095168.200000
65.038600 16316999.000000
66.046400 544441.125000
67.041700 513721.300000
67.054300 1396654.100000
67.989200 290727.400000
68.049500 1517301.200000
68.997100 1553177.900000
70.065100 15365168.000000
71.073000 146262.600000
72.044400 702382.500000
72.080700 2211841.500000
77.038500 1672498.200000
79.054200 561703.100000
81.033500 2115650.200000
82.041300 184302.200000
82.065100 307028.000000
84.080800 200092.100000
85.052200 145167.600000
86.060100 754136.300000
91.054200 121785.100000
95.049200 3112566.200000
100.075700 4456889.500000
103.054400 176046.500000
105.044700 1568407.200000

