>compound EQ10675776
>parentmass 158.02700000000002
>ionization [M+H]+
>formula C6H7NO2S
>rt 186.000000
>profile orbitrap
#smiles_iso C1=CC=C(C=C1)S(=O)(=O)N
#smiles_can C1=CC=C(C=C1)S(=O)(=O)N
#inchikey KHBQMWCZKVMBLN-UHFFFAOYSA-N
#pubchem_id 7370
#mb_accession EQ359501,EQ359502,EQ359503,EQ359504,EQ359505,EQ359506,EQ359507,EQ359508,EQ359509

>ms2
50.014900 64952.900000
51.022700 86742.500000
53.038600 2678613.000000
55.017800 172284.800000
68.997000 26937.400000
77.038400 4108288.200000
81.033400 338530.200000
94.041300 75502.000000
95.049000 9371357.000000
105.044600 6488113.000000
141.000300 15753418.000000
158.026900 201899.700000

>ms2
50.014900 51039.900000
51.022700 69157.500000
53.038600 2694130.000000
55.017800 164426.100000
68.997000 28324.100000
77.038400 3882101.500000
81.033400 333140.600000
94.041300 71679.800000
95.049000 9022220.000000
105.044600 6435820.000000
141.000300 15085347.000000
158.026900 200054.000000

>ms2
50.015000 74948.900000
51.022800 118869.300000
53.038600 3646352.500000
55.017800 242957.200000
68.997000 40166.600000
77.038400 4628500.500000
81.033400 465839.500000
94.041200 80913.500000
95.049000 12230746.000000
105.044600 8929488.000000
141.000400 3188400.200000

>ms2
50.015100 177120.800000
51.022900 169464.500000
53.038600 3357554.500000
55.017800 257397.800000
68.997000 42885.500000
77.038400 5044983.500000
79.054100 19957.900000
79.980000 23843.900000
81.033400 455505.400000
94.041300 80177.100000
95.049100 12348668.000000
98.036200 15894.600000
105.044700 8645305.000000
141.000400 311455.400000

>ms2
50.015100 303563.700000
51.022900 345083.200000
53.038600 3321839.000000
55.017800 201942.200000
67.054100 29090.600000
68.997100 29021.500000
77.038500 5400546.000000
79.054100 17408.000000
79.979900 16777.800000
81.033400 459948.900000
94.041300 76926.900000
95.049100 11746041.000000
105.044700 8505078.000000
141.000300 27069.600000

>ms2
50.015100 717955.100000
51.022900 723787.400000
53.038600 3053875.800000
55.017800 193911.300000
65.002200 35408.400000
67.054200 48282.700000
68.997000 33147.900000
75.022800 21258.400000
77.038400 5677599.500000
79.980000 29058.300000
81.033400 371140.800000
94.041300 86279.100000
95.049000 9990334.000000
105.044600 7049031.500000

>ms2
50.015100 2152611.500000
51.022900 3161345.200000
53.038600 1721200.400000
55.017800 103826.600000
65.002100 84376.000000
65.038500 8906.800000
66.009900 7624.300000
67.054200 39866.200000
68.997100 15869.000000
75.022900 17324.100000
77.038500 4545817.000000
79.980000 19591.900000
80.025500 5295.900000
81.033400 212193.200000
94.041200 27973.100000
95.049100 5091913.500000
105.044700 3627309.800000

>ms2
50.015100 3319077.500000
51.022900 5785319.000000
53.002200 41280.300000
53.038600 668296.000000
55.017800 43199.900000
65.002100 172042.600000
65.038600 9607.600000
66.010000 29586.600000
67.054200 26428.800000
74.015000 25321.000000
75.022800 79382.600000
77.038500 2348838.500000
79.979900 7531.600000
81.033500 70481.800000
94.041300 9408.300000
95.049100 1930000.600000
105.044700 1413239.100000

>ms2
50.015100 3437890.500000
51.022900 6193559.000000
53.002200 67492.300000
53.038600 188286.400000
55.017700 7332.900000
65.002100 271201.800000
65.038500 21465.100000
66.010000 39915.600000
74.015000 78564.600000
75.022800 72843.000000
77.038500 829222.200000
81.033400 26058.800000
95.049100 580065.300000
105.044700 404109.600000

