>compound EQ10165522
>parentmass 156.0575
>ionization [M+H]+
>formula C8H10ClN
>rt 426.000000
>profile orbitrap
#smiles_iso CN(C)C1=CC=C(C=C1)Cl
#smiles_can CN(C)C1=CC=C(C=C1)Cl
#inchikey IONGEXNDPXANJD-UHFFFAOYSA-N
#pubchem_id 136530
#mb_accession EQ347701,EQ347702,EQ347703,EQ347704,EQ347705,EQ347706,EQ347707,EQ347708,EQ347709

>ms2peaks
121.088500 6271550.000000
140.025800 1706347.600000
141.033800 121887408.000000
156.057200 389679616.000000

>ms2peaks
121.088500 6515192.000000
140.025800 1757965.600000
141.033800 133127000.000000
156.057300 434452800.000000

>ms2peaks
120.080700 485875.600000
121.088500 12682141.000000
140.026000 4695265.000000
141.033800 322988992.000000
156.057300 227242048.000000

>ms2peaks
106.065000 1375421.400000
120.080600 778138.800000
121.088500 10173640.000000
140.026000 32115248.000000
141.033800 453478240.000000
156.057300 67440432.000000

>ms2peaks
106.065100 4369042.000000
112.007200 689132.400000
120.080600 2264815.200000
121.088500 6344314.000000
126.010200 475824.400000
140.026000 140136128.000000
141.033800 406001472.000000
156.057300 13572138.000000

>ms2peaks
75.022600 402874.000000
77.038300 718999.000000
79.054100 441829.600000
95.049000 539613.800000
98.999400 332907.000000
104.049300 1663138.600000
105.044700 350237.700000
105.057200 2572202.200000
106.065000 6807376.500000
110.999400 455807.400000
112.007300 2042651.500000
113.015000 831547.600000
120.080600 2601661.200000
121.088400 2281109.200000
126.010400 1641714.900000
139.005700 395467.800000
140.026000 284054176.000000
141.033800 241424656.000000
156.057300 2185603.200000

>ms2peaks
50.015100 350856.200000
51.022900 426161.700000
53.038500 2241778.500000
75.022800 2843497.500000
77.038400 4893145.500000
78.046300 447633.600000
79.054100 1642063.000000
86.999500 1180325.600000
90.033700 413116.700000
91.054100 622255.400000
93.033400 546328.700000
94.041300 358561.000000
95.049100 8622120.000000
96.044200 625930.500000
98.999500 4916752.500000
104.049400 16098710.000000
105.044700 4856949.000000
105.057200 31644556.000000
106.065000 5473642.000000
110.999500 1577242.000000
112.007300 17200988.000000
113.015100 6905265.500000
120.080700 2203732.200000
126.010400 4063655.200000
129.010000 5176407.500000
138.010500 871822.800000
139.005700 10914414.000000
140.026000 342565568.000000
141.033800 40110292.000000

>ms2peaks
50.015000 1344031.200000
51.022800 1471063.500000
53.002200 1819223.200000
53.038600 4687888.000000
55.017800 405985.800000
61.979200 386205.700000
63.022800 520565.500000
65.038500 1205768.400000
72.983900 2525471.500000
74.015000 2480563.800000
75.022800 27307918.000000
76.030600 391267.800000
77.038400 10643668.000000
78.033800 327239.800000
78.046300 1414007.100000
79.017700 563288.700000
79.054100 1341107.000000
80.025500 381596.700000
81.033400 598326.200000
84.983900 1526395.900000
86.999500 4629266.000000
90.033900 487794.500000
91.041600 814011.200000
91.054200 819879.400000
93.033400 1645828.000000
94.041300 798368.400000
95.049100 20844516.000000
96.044300 1351525.900000
98.999500 16327535.000000
104.049400 37689620.000000
105.044700 11146322.000000
105.057200 44862084.000000
106.065100 1922467.200000
110.999500 8285195.000000
112.007300 36631988.000000
113.015100 7307005.000000
114.994500 333757.900000
120.080700 572087.200000
121.039700 481184.400000
125.002600 274885.900000
126.010400 3098016.500000
129.010100 18304222.000000
138.010500 1173525.400000
139.005700 38265180.000000
140.026000 145311792.000000
141.033800 3738854.800000

>ms2peaks
50.015100 3828579.200000
51.022900 2950552.200000
53.002200 3446765.800000
53.038600 5639149.000000
55.017800 564361.600000
61.979200 229341.400000
63.022800 2574634.200000
65.038500 2185923.200000
72.983900 11117556.000000
74.015000 13646189.000000
75.022800 82280904.000000
76.030600 1654216.800000
77.038400 12862594.000000
78.033700 554351.100000
78.046300 2213372.800000
79.017800 460999.600000
79.054100 594450.100000
80.025600 420643.800000
81.033500 873607.200000
84.983900 6891065.500000
86.999500 4617091.000000
90.033800 388330.800000
91.041600 2058180.400000
91.054100 577506.800000
93.033400 1595054.900000
94.041300 855441.600000
95.049100 22269670.000000
96.044300 1127979.500000
98.999500 19502824.000000
104.049400 32932604.000000
105.044700 12406094.000000
105.057200 21541926.000000
106.065000 396838.200000
110.999500 11293278.000000
112.007300 28223228.000000
113.015100 2858326.200000
114.994500 327279.200000
120.080900 140109.600000
121.039600 267653.600000
125.002700 275357.900000
126.010400 1017987.400000
129.010000 16991508.000000
138.010500 744802.800000
139.005700 36687552.000000
140.026000 34481096.000000
141.033900 136764.200000

