>compound EQ10368574
>parentmass 370.0832
>ionization [M+H]+
>formula C16H14F3N3O2S
>rt 444.000000
>profile orbitrap
#smiles_iso CC1=C(C=CN=C1CS(=O)C2=NC3=CC=CC=C3N2)OCC(F)(F)F
#smiles_can CC1=C(C=CN=C1CS(=O)C2=NC3=CC=CC=C3N2)OCC(F)(F)F
#inchikey MJIHNNLFOKEZEW-UHFFFAOYSA-N
#pubchem_id 3883
#mb_accession EQ313701,EQ313702,EQ313703,EQ313704,EQ313705,EQ313706,EQ313707,EQ313708,EQ313709

>ms2
119.060300 142370544.000000
151.032500 863153.900000
205.070900 26290670.000000
220.058000 23196872.000000
222.073800 2425816.500000
234.019100 2744409.000000
252.029900 522516096.000000
352.072700 3548214.200000

>ms2
107.072800 2812358.200000
119.060300 164425888.000000
122.059900 935851.600000
136.075700 31684426.000000
149.016800 5704739.500000
151.008600 402686.600000
151.032300 823426.900000
152.016200 406443.200000
185.064700 1131629.800000
190.047700 819495.900000
204.063100 9065719.000000
205.070900 116282904.000000
220.058000 30924920.000000
222.073600 10110910.000000
234.019500 51418940.000000
235.027200 5057595.000000
252.029900 355472864.000000
352.072800 3337669.500000

>ms2
65.038500 386387.700000
92.049500 587010.100000
93.057100 215307.900000
106.065200 2044964.000000
107.072900 28190366.000000
108.080700 474053.800000
109.052200 610451.400000
119.060400 146637360.000000
122.060000 13892374.000000
134.005900 201293.100000
135.068000 175033.800000
136.075700 139501568.000000
137.063500 1102286.800000
149.016800 9614017.000000
151.008600 5759026.000000
151.032600 694659.600000
152.016400 1418867.900000
153.024400 172350.800000
165.058400 682358.200000
166.019200 199066.500000
185.064700 6712972.000000
190.047400 5926666.500000
192.062800 381541.300000
204.063100 48051644.000000
205.071000 52719504.000000
208.058000 3549684.500000
210.019700 1316729.200000
211.086500 592809.100000
220.058000 23055224.000000
222.073700 10224673.000000
234.019500 164094752.000000
235.027300 36001092.000000
236.082000 435228.800000
252.030000 105537584.000000
268.053000 191126.200000
293.089000 354297.400000
352.072500 715383.900000

>ms2
65.038500 1247269.200000
66.046300 644055.100000
79.041600 508773.900000
79.054200 2035221.100000
80.049300 781925.800000
81.057300 759925.900000
92.049500 2745934.500000
93.057300 617706.200000
94.065200 673621.600000
105.044700 435416.300000
106.065100 13383179.000000
107.072900 83326264.000000
108.080700 7728657.500000
109.052300 2648038.500000
110.060000 325079.900000
118.065200 982871.800000
119.060400 137635856.000000
120.044300 433179.100000
121.052100 982414.000000
122.005800 3058249.500000
122.060000 37063968.000000
123.013700 1216931.200000
124.039300 1325867.100000
134.005900 1155600.800000
134.047200 187550.200000
135.067900 818976.400000
136.075700 172285856.000000
137.063400 1769161.500000
149.016800 9273983.000000
151.008600 35175388.000000
152.016400 13547485.000000
153.024500 207752.600000
165.058100 693980.300000
166.019400 186717.000000
170.040900 1020625.600000
183.091500 485151.200000
184.056800 590429.400000
185.064600 3131032.000000
190.047400 7655253.500000
192.063000 988007.800000
194.041800 312624.800000
204.063100 56620376.000000
205.070900 6992354.500000
208.058000 7015878.500000
210.019700 1545866.600000
211.086700 386412.200000
214.013000 376536.200000
220.058000 10321019.000000
222.073600 4620741.000000
234.019500 141044592.000000
235.027300 42539808.000000
236.081800 836971.200000
252.030000 9902278.000000
268.053500 501675.400000
293.088800 177087.100000

>ms2
53.038500 470877.900000
65.038500 4356504.000000
66.046400 3119888.500000
67.041600 416051.000000
67.054200 925615.400000
77.038300 170349.200000
78.033700 207821.500000
79.041500 1918063.000000
79.054200 6690889.500000
80.049400 3877382.000000
80.062000 383129.800000
81.057300 2349662.800000
90.033900 560934.600000
92.049400 10269580.000000
93.057300 3195733.500000
94.065100 4026330.500000
95.036500 374732.300000
95.049100 716874.800000
96.002700 1159240.600000
96.044300 630830.500000
99.013800 165942.900000
105.044600 1046869.600000
106.065100 38183464.000000
107.072900 116920032.000000
108.080700 33295926.000000
109.052200 3409250.500000
110.005800 430544.400000
110.040100 200481.200000
110.060000 1329506.600000
111.031400 206298.600000
118.052300 407618.400000
118.065100 1962641.800000
119.060300 117897664.000000
120.044400 1872040.600000
121.052100 4353143.000000
122.005800 8420145.000000
122.060000 42958620.000000
123.013600 6074004.000000
124.021500 610910.100000
124.039200 1442996.000000
124.075900 201197.900000
125.047200 616449.100000
134.005900 1962055.900000
134.047400 415424.400000
134.060100 331586.600000
135.067800 467965.600000
136.075700 139289696.000000
137.063500 1020838.800000
140.050600 144834.900000
142.046300 200735.000000
149.016800 5726390.000000
150.000300 150585.300000
151.008600 74842448.000000
152.016400 33455394.000000
165.058600 381919.100000
166.019300 213308.000000
170.041100 2572248.000000
183.091800 549515.800000
184.056800 510637.700000
185.064600 774823.400000
190.047300 6171302.000000
192.063100 600249.200000
194.007300 191392.200000
194.042200 734818.600000
204.063100 32941548.000000
205.070900 460108.200000
207.079500 145609.300000
208.058000 3648422.500000
210.019500 507835.000000
214.013300 502314.500000
220.057900 3501429.200000
222.073400 372683.200000
234.019500 74544528.000000
235.027300 14719560.000000
236.081600 585513.600000
252.029800 209114.800000
268.053700 204058.200000

>ms2
51.022700 277213.100000
52.030800 109711.600000
53.002200 195221.900000
53.038500 1299271.600000
54.033800 214882.800000
55.017800 215458.900000
55.041600 131914.900000
57.987200 119457.800000
63.022800 627952.200000
65.038500 13225275.000000
66.046400 7701749.000000
67.041600 1259752.600000
67.054200 3422534.800000
68.049400 188540.500000
68.979200 136329.400000
69.987100 564000.000000
72.002700 178477.000000
77.038400 1087012.900000
78.033800 513131.100000
78.046400 120846.900000
79.041600 5364584.000000
79.054200 13502302.000000
80.049400 9909804.000000
80.062000 607882.300000
81.057300 2616395.500000
81.069800 197415.100000
83.029100 149478.700000
90.033900 1035126.600000
91.041700 580531.900000
92.049400 26991710.000000
93.057300 7974600.500000
94.065100 10221219.000000
94.995000 520728.800000
95.036500 1029886.300000
95.049100 2503569.000000
96.002800 5371812.000000
96.044300 1780665.900000
97.010700 1440988.200000
99.013700 449173.500000
104.049300 583049.200000
105.044700 2155558.500000
106.065100 74526216.000000
107.072900 107903096.000000
108.080700 72261840.000000
109.052300 2568190.500000
110.005800 1459754.000000
110.040100 669196.800000
110.060000 4041413.000000
111.031400 435634.800000
117.057300 376633.500000
118.052200 861341.800000
118.065100 1739169.500000
119.060400 91833688.000000
120.044400 4305675.500000
121.052100 6484021.000000
122.005800 11562474.000000
122.060000 32685146.000000
123.013600 17914562.000000
124.021500 2625254.500000
124.039400 809677.000000
124.075800 173222.100000
125.047100 1007290.900000
126.071300 121130.000000
127.025900 121258.200000
127.992600 168464.200000
134.005900 1740967.000000
134.047400 572603.900000
134.059800 201455.100000
135.068000 185342.500000
136.075700 82284800.000000
137.063500 457113.700000
140.050500 133635.200000
142.046500 474055.400000
149.016900 2517197.800000
150.000800 603757.800000
151.008600 75423200.000000
152.016400 36467608.000000
162.052600 635274.800000
165.024600 196128.100000
168.068600 190917.000000
170.041100 3178732.200000
183.091600 508661.500000
184.056800 642007.800000
190.047400 2442579.200000
192.063100 356410.200000
194.042100 221775.000000
204.063100 10103335.000000
207.079100 422514.900000
208.057900 1561429.000000
214.013400 129691.700000
220.058100 1209674.900000
234.019500 30444696.000000
235.027300 2201918.500000
236.081700 398311.200000
268.053300 120666.300000

>ms2
50.015100 1302462.500000
51.022900 890181.800000
52.018000 103360.000000
52.030700 368477.000000
53.002200 1226901.500000
53.038600 5030316.000000
53.997500 125822.000000
54.033800 988679.100000
55.017800 464407.800000
55.041600 104014.900000
55.054300 128471.600000
56.049400 200081.100000
57.987100 540779.800000
62.015000 97486.400000
63.022900 1640172.500000
64.030700 163908.400000
65.038600 39714348.000000
66.046400 11415798.000000
67.041600 2771017.500000
67.054200 8392053.000000
67.989100 110199.500000
68.013100 139717.900000
68.049400 1152135.200000
68.979300 624273.900000
69.013500 122093.100000
69.987100 3878070.200000
70.065000 618872.500000
70.995000 425833.700000
72.002800 474883.800000
75.022900 183423.000000
77.038500 2547234.000000
78.033800 3390273.200000
79.041600 8326272.500000
79.054200 20518100.000000
80.049400 21237068.000000
81.033500 136598.800000
81.057300 1203418.400000
81.069900 534335.900000
81.987100 383525.200000
82.995000 646456.000000
83.029100 187072.400000
84.002900 96849.200000
85.982100 411434.300000
90.033900 1116906.100000
91.041600 2048610.900000
91.054200 444825.500000
92.049500 39999340.000000
93.057300 11546041.000000
94.028800 703288.000000
94.065100 9457731.000000
94.995000 3218769.000000
95.036600 1589720.100000
95.049100 6608112.000000
96.002800 13167226.000000
96.044400 7908973.500000
97.010600 4323772.500000
99.013700 589899.100000
100.021600 152002.900000
104.049500 485784.200000
105.044700 4144752.000000
106.065100 95483992.000000
107.072900 40298540.000000
108.080700 57508940.000000
109.052200 637099.100000
110.005900 4554511.000000
110.060000 8521861.000000
111.001100 380886.000000
111.031500 1094037.200000
112.039400 157411.100000
117.057300 168233.700000
118.052400 1392853.400000
118.065100 953603.300000
119.060400 30589624.000000
120.044400 4775619.000000
121.052100 1060537.800000
122.005900 8698044.000000
122.060000 7631679.500000
123.013700 19779534.000000
124.021600 2706281.200000
124.075800 471312.400000
125.047200 954487.900000
126.071400 152136.000000
127.026200 137900.600000
127.992600 819044.700000
134.005900 1726073.900000
134.047300 201628.800000
136.021300 725705.800000
136.055800 509627.800000
136.075700 9991912.000000
140.049900 102726.800000
142.046100 145169.500000
149.017000 193291.500000
150.000800 1272072.500000
151.008600 21939252.000000
152.016400 10907531.000000
162.052300 127149.900000
168.068300 155577.400000
170.041200 510939.300000
181.075900 384084.600000
190.047600 112452.800000
204.063300 133158.900000
207.079000 420243.300000
234.019600 1794719.000000

>ms2
50.015100 3290305.500000
51.022900 3683965.200000
52.018200 503464.700000
52.030700 1038499.700000
53.002200 2521669.800000
53.038600 9022375.000000
53.997400 179404.400000
54.033800 1250911.100000
54.046300 122735.300000
55.017900 732935.700000
55.041600 197664.700000
55.054300 147982.100000
56.049500 398626.200000
57.013500 316549.800000
57.987200 408268.200000
58.994900 83797.900000
62.015100 144375.000000
63.022900 3585243.800000
64.018200 297648.900000
64.030700 1006804.400000
65.038600 54939496.000000
66.033800 586550.100000
66.046400 9108361.000000
67.041600 5844024.500000
67.054200 5996526.500000
67.989200 306473.300000
68.013100 311869.100000
68.049400 1397947.400000
68.979300 2116417.000000
69.013500 150073.700000
69.987100 6668397.000000
70.028700 492970.200000
70.065100 704834.500000
70.994900 651032.200000
71.990100 396022.100000
72.002700 350062.800000
75.022900 541321.000000
76.018200 91899.100000
77.038500 4828619.000000
78.033800 7406945.500000
78.046300 520059.600000
79.041600 6591114.000000
79.054200 23565956.000000
80.049400 20942274.000000
81.033500 525052.600000
81.057300 324168.300000
81.069800 523593.200000
81.987200 503423.300000
82.995000 954765.400000
83.990300 98986.500000
84.002600 88447.600000
89.038500 636863.800000
90.033900 970551.900000
91.041600 4786718.500000
91.054300 790158.800000
92.049500 29067734.000000
93.057300 8960638.000000
94.028800 439960.000000
94.065200 3891992.000000
94.995000 5291722.500000
95.036600 1395725.200000
95.049100 14158990.000000
95.990200 777758.100000
96.002800 10976229.000000
96.044400 12850899.000000
97.010700 4564260.500000
98.006000 142170.600000
99.013700 462569.400000
100.021400 170219.400000
102.033700 92658.000000
104.049600 664295.400000
105.044700 6628181.500000
106.065100 65360992.000000
107.072900 12851689.000000
108.080700 18317144.000000
109.052300 97633.400000
110.005900 2319290.200000
110.060000 6304463.000000
111.001100 353724.600000
111.031500 849569.300000
112.039300 378671.500000
117.044700 77939.300000
117.057400 172092.100000
118.052400 1328317.100000
118.065100 122880.800000
119.060400 5928779.500000
120.044400 2013104.400000
122.005800 3885635.200000
122.060000 1266518.100000
123.013700 7856885.000000
124.021500 645675.900000
125.047100 348446.200000
127.026500 334002.300000
127.992600 849235.000000
134.006000 912915.400000
136.021400 468696.600000
136.055600 117839.000000
136.075600 524485.200000
150.000700 491195.100000
151.008600 3193785.200000
152.016400 1205635.600000
168.068500 91666.900000
179.060500 121296.400000
181.075600 173351.000000

>ms2
50.015100 6511718.500000
51.023000 8932240.000000
52.018200 1078548.400000
52.030800 1338350.500000
53.002200 4208468.500000
53.038600 10337483.000000
53.997500 757914.900000
54.033800 1625992.600000
54.046400 430733.100000
55.017900 799136.200000
55.041600 113153.100000
55.054200 122368.500000
56.049500 542024.200000
57.013500 161980.900000
57.987100 531155.900000
58.995100 87569.500000
62.015100 966982.600000
63.022900 5964283.000000
64.018200 698682.300000
64.030700 1584920.800000
65.038600 44361132.000000
66.033800 659498.400000
66.046400 5519210.500000
67.041600 6325874.000000
67.054200 2513431.000000
67.989200 309083.500000
68.013100 193728.200000
68.049400 1150036.100000
68.979300 4376817.000000
69.987100 5946558.500000
70.028800 322759.100000
70.065100 379006.600000
70.995000 563227.400000
71.990200 685855.500000
72.002800 114485.800000
75.022900 540169.700000
76.018100 337881.900000
77.038500 5742117.500000
78.033800 7918894.000000
78.046400 907540.100000
79.041600 3038887.200000
79.054200 14870056.000000
80.049400 15731830.000000
81.033500 682636.800000
81.057300 115505.400000
81.069900 116079.900000
81.987200 582501.600000
82.994900 665588.400000
83.029200 139375.600000
83.990300 93787.500000
84.002900 161480.500000
89.038500 680468.800000
90.033800 702017.000000
91.041700 4702495.500000
91.054300 348786.200000
92.049500 13283453.000000
93.057300 5079266.000000
94.028800 190419.800000
94.065200 1211619.200000
94.995000 5055776.000000
95.036600 819517.200000
95.049100 16370045.000000
95.990300 700511.400000
96.002800 3910924.000000
96.044400 11138051.000000
97.010600 1773149.000000
99.013800 307954.400000
102.033700 93400.900000
104.049400 984602.200000
105.044800 8143214.500000
106.065100 28420384.000000
107.072900 3511229.200000
108.080700 3775383.200000
110.006000 797459.400000
110.060100 2588817.200000
111.001100 291049.400000
111.031500 647502.300000
112.039200 163072.200000
117.044800 85797.300000
117.057100 103677.600000
118.052500 407567.700000
119.060400 1132145.900000
120.044600 701438.800000
122.005900 1843493.900000
123.013700 1691061.400000
127.026500 157025.200000
127.992600 487792.000000
134.005900 76670.600000
136.021400 104912.600000
140.049600 101317.400000
151.008800 338477.300000
179.060500 101373.500000

