>compound EQ11931509
>parentmass 330.15000000000003
>ionization [M+H]+
>formula C19H20FNO3
>rt 468.000000
>profile orbitrap
#smiles_iso C1CNCC(C1C2=CC=C(C=C2)F)COC3=CC4=C(C=C3)OCO4
#smiles_can C1CNCC(C1C2=CC=C(C=C2)F)COC3=CC4=C(C=C3)OCO4
#inchikey AHOUBRCZNHFOSL-UHFFFAOYSA-N
#pubchem_id 4691
#mb_accession EQ361101,EQ361102,EQ361103,EQ361104,EQ361105,EQ361106,EQ361107,EQ361108,EQ361109

>ms2
70.065300 3424912.500000
192.118200 7066540.500000
330.149900 1352670336.000000

>ms2
56.049500 3732355.800000
57.057300 1530822.400000
58.065100 650011.000000
68.049500 1561262.100000
70.065100 75282040.000000
71.072900 976312.900000
82.065000 1055112.100000
84.080800 2435707.000000
86.060000 3324300.500000
96.080800 893026.400000
97.088700 5808661.500000
109.044800 6256551.500000
123.044100 14328156.000000
123.060500 12537908.000000
135.044100 1034100.200000
135.060300 3389178.000000
137.076200 6014956.000000
138.071500 2429055.500000
139.039100 3023035.200000
147.060400 1228273.400000
149.076000 1309947.100000
150.071400 1740142.800000
151.039100 27636510.000000
161.059900 1202926.100000
161.076100 2323251.800000
163.091800 11608529.000000
164.087000 2008961.000000
175.039100 779697.900000
175.091900 4231649.500000
176.099700 4126075.800000
177.054700 760735.800000
178.102700 13844305.000000
190.102700 2650957.200000
192.118400 190117440.000000
193.126200 14235775.000000
208.113300 5677731.500000
313.123500 9206335.000000
330.150000 609615616.000000

>ms2
53.002200 617265.700000
56.049500 16690370.000000
57.057300 4279525.000000
58.065200 2981078.800000
65.038600 688043.600000
67.054200 755853.800000
68.049500 7848621.000000
69.057300 619290.900000
70.065100 238773696.000000
71.072900 3919240.000000
80.062100 242894.200000
82.065200 7431609.000000
83.072900 2220100.200000
84.080800 6052675.000000
86.060000 3046784.500000
93.033500 3048078.000000
96.080800 2735298.800000
97.088700 10927412.000000
103.054200 1089191.000000
109.028500 2537065.000000
109.044900 23357988.000000
111.043900 1030709.600000
123.044100 15992339.000000
123.060500 32833424.000000
133.045000 646288.800000
135.044000 1556642.400000
135.060500 16123377.000000
136.068400 6757075.000000
137.076200 3636795.800000
138.071500 4332068.000000
139.039100 3685352.000000
143.085600 415093.600000
147.044400 925642.800000
147.060600 6587312.500000
148.068300 3974738.200000
149.076300 3814395.200000
150.071500 6657239.000000
150.084100 1472713.800000
151.039100 40881328.000000
160.052100 454580.900000
160.068300 441558.300000
161.060300 878490.900000
161.076200 14371662.000000
163.091800 31830314.000000
164.087100 7441113.500000
175.038900 440375.800000
175.092000 2463891.500000
176.047100 521301.000000
176.099700 7130217.500000
177.054900 684830.100000
178.102800 27414268.000000
190.102700 2644714.000000
192.118400 132300920.000000
193.126300 6526969.000000
208.113200 830015.200000
313.123500 1087283.900000
330.150100 32111250.000000

>ms2
53.002200 1660155.600000
53.997400 418690.900000
56.049500 19716584.000000
57.057300 3684456.000000
58.065200 2891808.000000
65.038600 2389207.200000
67.054200 2081209.200000
68.049500 11969209.000000
68.997100 269563.600000
69.057300 437200.100000
70.065100 260879616.000000
71.072900 3017503.500000
79.054200 409787.800000
81.033500 510658.900000
82.065100 11039742.000000
83.072900 2321309.200000
84.080800 4418196.500000
86.060000 1769327.000000
93.033500 6486655.500000
95.049200 509330.100000
96.080800 2832982.200000
97.088600 3607391.200000
103.054200 6046789.000000
109.028500 5778564.500000
109.044900 33202368.000000
111.044100 1804697.600000
115.054200 1428638.800000
116.062000 505655.800000
119.049200 483722.300000
121.028400 1162848.900000
121.044800 1413304.100000
122.052600 733949.500000
123.044100 7122456.000000
123.060500 33799548.000000
128.062100 1229060.600000
133.044800 2256106.800000
134.052900 862904.400000
135.060500 40025844.000000
136.068400 10182515.000000
137.076100 629113.200000
138.031200 419164.700000
138.071400 1459248.000000
139.039000 1787576.400000
143.085600 1383806.000000
146.052700 2028103.500000
147.044100 643742.400000
147.060500 8842368.000000
148.055900 854789.500000
148.068300 7034779.500000
149.076200 4006948.200000
150.071500 5907426.500000
150.084000 579852.900000
151.039100 25443168.000000
160.068300 849373.600000
161.076200 17770146.000000
163.091800 21560576.000000
164.087100 5328584.000000
175.038900 515679.300000
175.092000 1224373.800000
176.046800 458001.200000
176.099400 833416.900000
178.102700 9725677.000000
190.102700 604425.800000
192.118300 31066452.000000
330.149200 554906.100000

>ms2
53.002200 2238295.000000
53.038600 496171.800000
53.997500 568959.200000
55.017900 696940.800000
56.049500 16109555.000000
57.057300 2494954.200000
58.065200 1587600.400000
65.038600 4345896.500000
67.054200 3092206.200000
67.989300 1073606.400000
68.049500 11312263.000000
68.997200 449442.200000
69.057300 476471.400000
70.065100 182894976.000000
71.072900 1499438.000000
77.038500 414143.100000
79.054200 506844.300000
80.049500 490578.000000
81.033500 1437732.100000
81.057300 209476.000000
82.065100 8567997.000000
83.029100 671433.000000
83.072900 1381098.800000
84.080800 2272780.200000
86.060000 424507.400000
91.054300 654108.900000
93.033600 6631664.000000
95.049200 599647.900000
96.080800 2247158.200000
97.088600 1148141.400000
103.054200 14047914.000000
109.028500 5760202.000000
109.044900 41544952.000000
111.044100 1899354.200000
115.054300 6788461.500000
116.062000 916616.900000
117.069900 643577.600000
119.049100 447694.700000
121.028500 1978087.400000
121.044900 2624449.200000
122.052700 407138.700000
123.044100 2336028.800000
123.060500 23369848.000000
128.062100 1920048.900000
129.070000 578143.600000
130.065100 542907.100000
133.044800 5343519.000000
134.052700 1670969.000000
135.060500 50107680.000000
136.068400 5473554.000000
138.031300 764475.100000
138.071600 189169.200000
139.039000 248828.200000
141.069900 604342.800000
143.085600 1069564.600000
145.064900 524811.400000
146.052700 5195954.500000
147.060500 8107632.500000
148.056000 1201760.900000
148.068300 6739663.000000
149.076200 2306256.200000
150.071400 3904713.800000
151.039100 11182447.000000
155.060500 868479.200000
159.060300 187139.000000
160.068300 678821.900000
161.076200 9902253.000000
162.071400 222726.000000
163.091800 6282081.500000
164.087100 2006299.600000
175.039100 230878.000000
175.091700 613193.500000
178.102700 1269302.200000
192.118300 5302229.500000

>ms2
51.023000 221654.400000
52.018200 117829.400000
53.002200 4431847.000000
53.038600 1388929.000000
53.997500 850034.100000
54.010100 113897.800000
54.034000 160794.700000
55.017900 608553.800000
55.041700 140966.600000
55.054300 143101.100000
56.049500 13863003.000000
57.013600 115779.300000
57.057300 1491760.400000
58.065200 850304.600000
65.038600 7517083.500000
67.041700 394397.200000
67.054300 2777111.500000
67.989300 1283205.100000
68.049500 10145732.000000
68.997200 806737.700000
69.057300 544849.800000
70.065200 111643424.000000
71.073000 573167.100000
77.038600 1165923.100000
78.008700 130092.100000
79.054300 700711.400000
80.049500 589070.800000
81.033500 2674088.500000
82.065200 6761019.000000
83.029100 1977111.800000
83.073000 477635.800000
84.080800 1026153.200000
86.060100 131648.400000
89.038600 156559.900000
91.054300 890654.300000
93.033600 4827118.000000
95.049200 1858082.400000
96.037100 174122.800000
96.080800 1619524.200000
97.045000 141800.000000
102.046600 439738.600000
103.054300 17102152.000000
105.044800 928620.200000
109.028500 3319527.200000
109.044900 48824912.000000
111.044200 1117168.500000
115.054300 15720051.000000
116.062100 1299671.000000
117.070000 453301.000000
119.049200 406265.100000
121.028500 1426765.900000
121.044900 2769768.800000
122.052700 200055.700000
123.044200 803588.500000
123.060500 13444761.000000
124.055700 120497.500000
127.054200 401530.600000
128.062100 3060809.800000
129.044800 1096337.600000
129.070200 181286.500000
130.065400 517038.600000
133.044900 10812765.000000
134.052700 2284461.200000
135.060500 42471304.000000
136.068400 1621340.100000
137.023400 721178.800000
138.031500 185969.000000
138.071400 231007.600000
141.070100 526671.900000
143.085700 523484.700000
145.064800 675398.800000
146.052700 9322519.000000
147.060500 7929357.000000
148.055800 1045025.400000
148.068300 3712006.000000
149.076200 1072150.200000
150.071400 1578268.400000
151.039000 3645277.500000
155.060600 1715746.400000
159.060600 819932.400000
160.068500 652896.600000
161.076100 3176426.200000
162.071500 544562.600000
163.091800 1085181.000000
164.086900 702874.800000
173.051200 190217.100000
175.039300 165190.800000
178.102700 233667.600000
192.118400 1333867.100000

>ms2
50.015000 329575.400000
51.022900 995233.600000
52.018200 134624.900000
53.002200 7032892.500000
53.038600 2902251.200000
53.997500 1325097.000000
54.010000 134240.200000
54.033900 1091548.800000
55.017900 573372.600000
55.041700 481494.000000
55.054200 172925.600000
56.049500 8964518.000000
57.013500 848371.200000
57.057300 523093.200000
58.065100 569078.700000
59.029200 626674.300000
63.022900 628503.800000
65.038600 9472658.000000
67.041700 1005768.800000
67.054300 1238317.600000
67.989300 1585734.500000
68.049500 7447395.500000
68.997100 631967.100000
69.057400 153035.000000
70.065200 30773168.000000
75.022900 1531339.800000
77.038500 2450371.000000
78.008600 210418.100000
79.054300 390371.200000
80.049500 758630.400000
81.033600 4474086.000000
82.065200 4427092.000000
83.029200 13731670.000000
84.080900 428684.600000
89.038600 2029088.400000
91.054300 1359145.000000
93.033600 1176426.900000
94.065200 129956.300000
95.049200 4194293.500000
96.037100 1023715.000000
96.080800 605593.000000
97.044900 666285.800000
101.038600 550938.000000
102.046400 919796.800000
103.054300 11052781.000000
105.044800 3726031.200000
107.029200 483520.900000
109.044900 60209032.000000
113.039900 164975.900000
115.054300 33137276.000000
116.062000 505168.600000
117.069900 440758.200000
119.049300 828111.600000
120.037000 369907.100000
121.028500 178570.500000
121.044900 1837273.600000
122.052600 107205.500000
123.035400 651995.900000
123.060600 3759342.200000
125.038900 197508.500000
126.046400 93595.900000
127.054300 610508.900000
128.062100 2913013.000000
129.044800 3144294.800000
130.065300 236061.400000
133.044900 23210058.000000
134.052700 2500824.500000
135.060500 18159366.000000
137.023600 704548.900000
138.071600 130938.300000
141.069700 350197.000000
145.044900 152232.600000
145.064800 862630.600000
146.052700 11427906.000000
147.060500 5751722.000000
148.056000 830580.800000
148.068400 755681.300000
149.076300 123569.100000
150.071700 112826.900000
151.039300 164884.900000
155.060500 2075352.500000
159.060800 847885.700000
160.068200 180546.800000
162.071400 207080.700000
173.051100 876427.000000

>ms2
50.015100 813054.200000
51.023000 2608194.200000
53.002200 7449726.500000
53.038600 3054351.200000
53.997500 989153.900000
54.010000 101498.900000
54.033900 1059566.400000
55.017900 421051.400000
55.041600 529598.200000
55.054300 132138.600000
56.049500 3559060.200000
57.013500 4096664.800000
59.029200 2089273.000000
61.007200 136303.400000
62.015200 412284.300000
63.023000 3508350.500000
65.038600 6312386.000000
67.041700 1141113.500000
67.054300 167238.100000
67.989300 1086914.900000
68.049500 3567908.500000
68.997100 491726.000000
69.057400 127840.300000
70.065200 6232534.500000
74.015100 546865.700000
75.022900 5323503.500000
77.038600 2517281.000000
78.008700 352851.100000
78.046400 166171.200000
80.049400 516516.100000
81.013600 153331.600000
81.033600 2255165.800000
81.057400 154320.600000
82.065200 1297866.600000
83.029200 27523502.000000
89.038600 5605771.500000
91.054300 1057406.000000
94.021300 99223.900000
95.049200 4132195.500000
96.037000 1084032.100000
96.080900 114380.500000
97.044800 397482.200000
99.022900 356299.800000
101.038600 648948.200000
102.046400 1181475.000000
103.054300 2537332.500000
105.044800 3339301.500000
107.029300 1702905.400000
108.037100 127530.500000
109.044900 42197896.000000
113.039600 383467.400000
115.054300 23285530.000000
116.062100 156401.800000
119.049200 413550.400000
120.037100 1336227.200000
121.044900 668255.700000
123.035300 969454.300000
123.060500 430080.900000
125.038800 350144.900000
126.046500 530195.400000
127.054200 689200.600000
128.062100 1760230.600000
129.044800 2150079.000000
130.065200 135606.400000
133.044900 20261656.000000
134.052700 642597.000000
135.060500 2970094.800000
137.023500 364050.800000
145.045200 120509.500000
145.065200 691166.800000
146.052700 7852317.500000
147.060600 1112736.800000
148.055700 156798.700000
155.060400 1529165.500000
159.060400 348893.200000
173.051200 214028.200000

>ms2
50.015200 1621606.200000
51.023000 4093337.200000
53.002200 6503844.000000
53.038600 1812072.100000
53.997500 1614103.000000
54.010000 114196.000000
54.033900 1534252.100000
55.017900 121319.300000
55.041700 395321.800000
55.054300 100364.800000
56.049500 1724402.000000
57.013600 11786630.000000
59.029200 3949079.000000
61.007300 393290.500000
62.015100 1382265.200000
63.023000 8124917.000000
65.038600 4632889.000000
67.041700 792607.600000
67.989300 852362.800000
68.049500 1716775.900000
68.997100 609270.900000
70.021400 375431.312500
70.065200 1123298.800000
74.015100 2420606.200000
75.022900 8360559.500000
77.038600 2248111.000000
78.008700 152223.200000
78.046400 473912.600000
80.049400 367353.300000
81.013600 1024214.000000
81.033500 954453.100000
82.065200 446362.600000
83.029200 34134516.000000
87.023000 626454.562500
89.038600 8051811.500000
91.054200 681220.400000
94.021600 118103.000000
95.029300 424000.187500
95.049200 2832354.200000
96.037000 1739846.400000
99.023000 650009.400000
101.038600 343517.000000
102.046400 1296678.600000
103.054300 140754.400000
105.044800 1949144.400000
107.029200 3728689.800000
108.037000 157525.600000
109.044900 21453324.000000
113.038800 717898.562500
115.054300 12716575.000000
119.049300 344711.500000
120.037100 2203847.200000
123.035300 982110.600000
125.038600 495110.800000
126.046500 1154244.100000
127.054300 652518.100000
128.062100 890541.200000
129.044700 790647.600000
133.044900 13997904.000000
134.052600 218902.700000
135.060500 425865.800000
145.045100 381892.500000
145.065100 173418.000000
146.052700 4858972.000000
147.060700 123770.100000
155.060400 1060986.100000
173.051000 131112.700000

