>compound EQ11684222
>parentmass 350.1169
>ionization [M+H]+
>formula C16H19N3O4S
>rt 282.000000
>profile orbitrap
#smiles_iso CC1(C(N2C(S1)C(C2=O)NC(=O)C(C3=CC=CC=C3)N)C(=O)O)C
#smiles_can CC1(C(N2C(S1)C(C2=O)NC(=O)C(C3=CC=CC=C3)N)C(=O)O)C
#inchikey AVKUERGKIZMTKX-UHFFFAOYSA-N
#pubchem_id 2174
#mb_accession EQ366101,EQ366102,EQ366103,EQ366104,EQ366105,EQ366106,EQ366107,EQ366108,EQ366109

>ms2
70.065100 485470.900000
79.054300 52865.700000
91.054300 61735.900000
96.044400 61967.000000
106.065200 31136036.000000
114.000600 96483.600000
114.037200 51408.100000
116.070400 95225.700000
142.050100 146500.100000
146.060000 58043.800000
160.042800 13792944.000000
163.086800 74494.400000
164.052900 397981.100000
174.055100 11176030.000000
187.053500 55689.600000
188.061400 118060.700000
191.081600 2411474.000000
192.047900 10755756.000000
193.060900 143926.200000
200.107700 97957.800000
211.071500 1371335.000000
215.048500 167055.400000
218.027200 531099.400000
259.090600 60836.200000
261.105600 264251.200000
277.100700 52741.200000
287.085000 157631.600000
289.100600 406318.100000
305.095700 1240038.400000
315.079500 147689.400000
333.090600 3122293.000000
350.117100 28994586.000000

>ms2
70.065200 3242713.500000
71.049100 66053.400000
72.080800 51919.900000
74.005800 186692.700000
79.054200 516014.800000
84.080800 62983.600000
91.054300 459514.900000
96.044400 564962.500000
98.060100 89763.600000
99.044100 144656.100000
106.065200 48592268.000000
110.060100 76424.800000
114.000900 4142488.200000
114.037300 1127940.500000
114.055000 373744.800000
116.070700 202636.200000
118.065200 875150.700000
119.049200 231424.400000
121.010700 300990.500000
122.060200 73033.800000
128.052900 73629.000000
128.070900 105846.800000
130.065200 73231.000000
131.049100 50528.900000
132.081000 186878.900000
137.071000 153416.900000
139.086500 89335.400000
141.048400 49381.300000
142.032400 101254.400000
142.050000 145017.500000
146.060100 886763.400000
147.026300 277592.200000
160.042800 11492879.000000
162.037100 200064.000000
164.052900 3780002.200000
165.066000 1257599.400000
167.081300 89157.300000
169.043400 50429.100000
174.055100 11542256.000000
178.032000 88477.600000
183.076600 143684.200000
185.071200 58201.800000
187.053600 433867.000000
188.061400 264589.800000
189.069200 72544.400000
190.032300 273699.800000
192.047900 14102564.000000
193.060900 824789.700000
197.038200 111150.700000
200.107200 204992.000000
205.043000 77135.100000
206.051200 150071.700000
211.071500 1959352.200000
215.048700 592972.900000
216.084100 74887.900000
218.027200 1244822.600000
227.118300 54143.900000
231.076500 58368.900000
231.095100 53599.300000
236.037600 168235.700000
244.079300 65640.700000
259.090200 848422.700000
261.105900 161794.400000
277.100600 71891.000000
287.085300 290034.000000
288.068700 52845.300000
289.100800 277860.800000
305.095600 749267.800000
315.079700 65312.900000
333.090700 401559.900000
350.116700 142880.100000

>ms2
53.038700 57634.800000
58.995000 56431.700000
62.005900 55085.600000
68.013100 110569.400000
68.049500 82967.700000
70.065200 3635139.200000
71.049200 132692.000000
72.080800 69678.000000
74.005900 1019991.100000
79.054300 2147446.500000
82.065200 94981.600000
84.080900 85764.900000
86.006000 343506.500000
87.026300 200876.600000
91.054300 1478655.600000
94.065200 143111.900000
96.008100 51911.500000
96.044400 785098.200000
98.060400 94352.400000
99.044200 219856.700000
103.054100 114688.300000
106.065200 43159192.000000
109.076200 64501.400000
110.060200 70215.100000
113.034600 62366.200000
114.000900 7942252.500000
114.037300 4880951.500000
115.054200 116702.100000
116.070700 87040.100000
117.057400 127126.500000
118.065200 4775034.000000
119.049300 624279.600000
120.080800 46344.800000
121.010800 1014472.800000
122.060100 362132.600000
123.026400 98638.400000
126.037300 82197.000000
128.053200 130114.400000
128.070900 145351.700000
130.065300 425783.900000
131.049200 55969.200000
131.073100 158795.000000
132.080900 237231.200000
134.060100 59374.700000
135.026500 134167.300000
137.042000 340193.800000
137.071100 832131.700000
141.048300 204488.900000
142.032300 191100.700000
143.063900 84210.800000
146.060200 1986550.800000
147.026400 1001064.800000
150.037400 102032.400000
158.060300 121442.500000
158.096700 60169.900000
159.068100 55569.100000
160.042800 6235805.500000
162.037300 679623.800000
164.053000 3652080.800000
165.066000 1957470.800000
167.081800 71701.800000
169.043300 157461.500000
174.055200 4377603.000000
175.021400 104406.000000
178.032200 104050.200000
185.071200 124689.500000
187.053800 310935.400000
188.061500 209761.100000
189.069500 47446.400000
190.032300 393806.600000
191.040000 55426.900000
192.047900 2443195.000000
193.061000 425766.800000
197.038200 76383.400000
200.107300 104200.800000
206.051000 117981.200000
211.071700 178713.800000
214.068600 47568.500000
216.084200 76057.300000
218.027200 383534.700000
231.095100 70964.000000
236.037700 67450.100000
242.063300 64004.200000
259.090300 273600.500000
289.100200 64288.700000

>ms2
53.038600 123284.800000
55.054300 114105.200000
58.995000 242961.700000
65.038600 50720.900000
67.054200 45428.600000
68.013100 544475.200000
68.049500 354158.100000
69.044700 72765.900000
70.065200 3599743.000000
71.049100 193552.500000
72.080800 50887.100000
72.998200 83312.600000
74.005900 1489136.600000
75.026300 77491.100000
77.038500 117835.500000
79.054200 6667341.000000
81.033600 62294.400000
82.065100 184052.700000
84.080800 117548.200000
86.005900 1554835.400000
87.026400 923976.200000
90.046400 55249.800000
91.054300 3313284.000000
94.065200 509059.400000
95.049300 56492.800000
96.008100 119096.500000
96.044400 810140.600000
98.060200 135460.400000
99.044100 150983.700000
103.054300 333472.300000
105.044900 52471.500000
105.069900 56158.200000
106.065200 38572596.000000
109.076100 230327.000000
110.060100 77691.000000
113.034600 68963.300000
114.000900 6716500.500000
114.037300 8187527.000000
115.054200 181471.500000
117.057400 659461.400000
118.041400 471364.800000
118.065200 8071509.000000
119.049200 653237.300000
120.080700 115018.400000
121.010700 1987391.400000
122.060100 574504.500000
123.026300 237651.800000
126.037200 103802.000000
128.049000 130771.800000
128.070800 61655.000000
130.065300 849742.200000
131.049200 74205.500000
131.073200 192985.500000
132.081000 185923.200000
135.026400 397173.400000
137.042100 828380.800000
137.071100 1288424.800000
139.086600 45620.100000
141.048300 250236.600000
142.032300 339288.200000
143.063800 74397.000000
145.076200 80241.500000
146.060100 2182132.800000
147.026400 1374181.200000
150.037400 111418.500000
156.044600 47436.000000
157.076100 108860.000000
158.060200 135992.200000
158.096600 52527.600000
159.068200 137508.300000
160.042800 2233803.200000
162.037300 676907.500000
164.052900 1362220.000000
165.066000 649475.900000
169.043200 77935.500000
173.029700 52500.500000
173.071100 46107.700000
174.037500 284315.000000
174.055100 820540.900000
175.021300 63952.700000
185.070900 74874.800000
187.053700 64276.600000
188.061500 75543.300000
190.032200 206626.200000
192.047700 195382.700000
193.061100 49776.400000
214.068600 60162.700000
218.027300 91386.800000

>ms2
53.038600 375486.300000
55.054300 184539.900000
58.995000 755604.800000
62.006000 75317.000000
65.038600 115549.700000
66.046400 25088.100000
67.054300 99599.700000
68.013100 982795.000000
68.049500 544444.900000
69.044700 139961.900000
70.065200 2690798.500000
71.049200 158514.200000
72.081000 45177.200000
72.998000 91729.900000
74.005900 1182458.200000
75.026300 48698.300000
77.038500 176988.500000
79.054200 11021788.000000
80.049400 25075.500000
81.033500 67578.900000
82.065200 204764.200000
84.080900 85527.200000
85.010700 79600.800000
86.005900 2593296.200000
87.026400 2042213.000000
89.038600 50020.200000
90.046400 173225.200000
91.054300 5522303.500000
94.065200 438653.800000
95.049200 257074.200000
96.008100 83723.400000
96.044400 485081.100000
98.060200 126136.100000
99.044200 93083.900000
103.054300 737251.400000
104.049300 108271.500000
104.062100 76390.900000
105.044700 159865.200000
105.070000 27141.300000
106.065200 24944464.000000
109.076100 197400.300000
110.060100 72982.800000
114.000900 3586904.800000
114.037300 6348156.000000
115.054200 237207.200000
116.049600 59774.200000
117.057400 1301297.500000
118.041400 599300.200000
118.065200 6279641.500000
119.049200 304778.200000
120.080900 179033.500000
121.010700 2291952.800000
122.018500 56466.900000
122.060100 264962.400000
123.026300 236828.000000
126.037300 82590.500000
127.032700 25274.600000
128.049200 180505.500000
128.053100 54570.700000
130.065200 957999.000000
131.049300 110186.300000
131.073100 147662.400000
132.080900 76069.700000
135.026400 461514.100000
137.042000 573352.500000
137.071100 434794.800000
141.048300 83313.700000
142.032400 150900.500000
145.076200 87688.900000
146.060100 1277441.100000
147.026400 1005234.400000
150.036900 34526.100000
156.044600 63567.900000
156.068300 52625.500000
157.076300 87385.200000
158.060000 56573.100000
159.068100 118183.900000
160.042900 372272.800000
162.037200 344844.000000
164.053000 203996.000000
165.066000 81037.900000
173.029700 128333.900000
174.037400 199991.100000
174.055100 70024.900000
190.032300 47078.600000

>ms2
50.015100 27629.800000
51.022900 64376.600000
53.038600 673414.100000
54.033800 18494.600000
55.054300 226234.900000
56.013100 49385.300000
56.049500 18590.500000
57.987100 56365.400000
58.995000 1157681.200000
59.990300 45128.700000
62.005900 81932.500000
63.022800 13964.400000
65.038600 325652.200000
66.046400 130992.000000
67.041700 17279.200000
67.054200 106709.700000
68.013100 1271409.600000
68.049500 577201.100000
68.979300 66085.700000
69.044800 182269.100000
70.065200 2274085.200000
71.049100 105235.900000
72.080700 43366.200000
72.998100 96573.100000
74.005900 741391.400000
75.023000 14092.900000
75.026300 80088.100000
77.038600 321778.800000
79.054200 13260388.000000
80.049400 70601.300000
81.033500 53929.500000
81.057300 54421.700000
82.065200 166035.100000
84.080800 48438.400000
85.010700 169166.900000
85.039700 14933.400000
86.005900 2968989.800000
87.026400 2290677.500000
89.038600 104480.800000
90.046500 524246.200000
91.054300 8125502.500000
93.057400 15643.300000
93.069900 19573.200000
94.065200 348512.700000
95.049200 672902.800000
96.007900 21641.600000
96.044400 232986.200000
97.010700 45413.300000
98.060200 62628.500000
99.044100 69161.100000
102.046500 18016.000000
103.054300 1182866.200000
104.049400 148418.000000
104.062200 102069.400000
105.033600 27118.400000
105.044800 455527.500000
106.065200 13924261.000000
107.049300 25568.800000
109.010900 89524.500000
109.076200 157718.600000
110.060000 81096.400000
113.029500 61893.000000
114.000900 1740705.800000
114.037300 3710678.500000
115.054300 270334.900000
116.049600 81208.500000
116.062300 24789.900000
117.057400 2222598.000000
118.041400 438085.000000
118.065200 3927846.200000
119.049300 135144.300000
119.060400 24585.500000
119.073100 23583.100000
120.080800 85792.900000
121.010800 2506122.500000
122.018300 45604.800000
122.060100 74628.600000
123.026300 131974.800000
126.037200 24639.400000
128.049500 438963.300000
129.044800 59978.700000
129.057400 40699.500000
130.065200 810018.900000
131.049400 87887.800000
131.073100 82700.800000
134.018500 25780.900000
135.026300 340876.000000
137.042000 210982.100000
137.071100 101129.800000
141.048200 24086.100000
142.032200 56619.900000
142.065700 16684.000000
145.076400 27234.800000
146.060100 650134.500000
147.026400 553725.100000
157.076300 48834.900000
158.060100 15219.800000
159.068000 50372.800000
160.042600 68220.800000
162.037600 107671.200000
169.076100 49036.700000
172.021500 17391.400000
173.029600 227197.500000
174.037400 98666.500000
183.091800 20262.000000

>ms2
50.015100 134948.400000
51.023000 240247.100000
53.002300 104611.000000
53.038600 1346243.900000
53.997500 19392.200000
54.033800 19963.100000
55.017900 55102.100000
55.054300 176168.700000
56.013100 42469.600000
56.049500 18513.700000
57.987200 105668.600000
58.995100 2008890.800000
59.966500 67858.500000
59.990300 47334.800000
62.005900 94474.900000
62.015100 13288.700000
63.023000 108907.500000
64.030800 13553.300000
65.038600 2063712.600000
66.046400 280459.800000
67.041700 77124.200000
67.054300 67498.700000
68.013100 887749.700000
68.049500 283734.200000
68.979400 143745.400000
69.044800 139909.500000
70.065200 1079170.200000
70.995000 17601.300000
71.049100 43695.700000
72.998100 44520.600000
74.005900 206497.200000
75.023000 84049.100000
75.026300 44945.000000
77.038600 780268.600000
78.046500 127191.400000
79.054300 8455085.000000
80.049500 153108.000000
81.033600 91676.000000
81.044700 11122.000000
81.057200 14668.500000
82.065200 101728.200000
85.010600 110705.100000
85.039900 16111.700000
86.006000 1987779.100000
87.026400 1033558.400000
89.038600 790161.200000
90.046500 1383855.100000
91.054300 8888939.000000
92.049600 41901.800000
93.069900 13026.800000
94.041500 23781.200000
94.065200 91085.400000
95.049200 1931530.800000
96.044500 51930.100000
97.010800 17234.900000
98.059900 14473.200000
101.038900 16607.100000
102.046500 95883.800000
103.054300 1034582.100000
104.049500 148440.700000
104.062100 107816.900000
105.044900 1417264.100000
106.065200 2702986.000000
109.010800 66487.700000
109.076100 53487.200000
110.060200 19417.700000
112.021700 16819.400000
113.029400 20291.100000
114.000800 208447.900000
114.037300 576685.300000
115.054300 257940.700000
116.049600 162292.500000
116.062200 14133.700000
117.057400 2275455.200000
118.041300 100126.400000
118.065200 855512.000000
119.049300 16815.300000
119.073200 10314.900000
120.081100 13515.500000
121.010800 1904322.200000
122.018700 19067.200000
122.060500 11266.300000
123.026300 17626.000000
126.037200 11142.600000
128.049600 229489.800000
128.062300 15250.000000
129.044800 157259.000000
129.057500 56913.500000
130.065300 578922.400000
131.049000 12051.500000
134.018500 46319.100000
135.026400 56475.200000
137.042000 19719.300000
140.049600 44998.000000
143.072900 16421.900000
145.076300 13579.200000
146.060100 119331.900000
147.026400 137856.500000
156.068400 20575.000000
169.076400 19955.100000
172.021200 15032.200000
173.029400 164025.500000

>ms2
50.015200 384535.600000
51.023000 792107.800000
52.018300 20742.900000
53.002300 147347.200000
53.038600 1426481.600000
53.997500 67537.400000
54.033900 57139.300000
55.017900 71245.500000
55.054300 92410.000000
56.013200 18363.400000
56.049500 24020.800000
56.979400 42634.200000
57.987200 310786.400000
58.995100 1994840.200000
59.966600 72860.800000
59.990400 22599.600000
61.007300 13694.100000
62.006000 58395.100000
62.015100 61167.200000
63.023000 401732.200000
64.030800 87695.600000
65.038600 3931093.800000
66.046500 196151.000000
67.041700 73776.700000
67.054200 23653.200000
67.989300 18107.400000
68.013100 308304.300000
68.049500 107821.300000
68.979400 166751.900000
69.044800 80232.300000
70.065100 331373.100000
70.995000 42572.500000
72.998100 40261.400000
73.010800 40299.400000
74.005900 22663.400000
74.015200 46812.100000
75.022900 173722.100000
76.030800 14579.100000
77.038600 1073796.900000
78.046500 168109.200000
79.054300 3089549.500000
80.049500 133126.700000
81.033500 138851.300000
81.057200 14757.400000
82.065300 16167.100000
85.010700 50442.700000
86.005900 792159.100000
87.026400 147428.800000
89.038700 2172913.200000
90.046500 1418588.200000
91.054300 5106048.500000
92.049500 15315.100000
93.057500 11692.500000
94.041400 68137.200000
94.065300 48439.200000
95.049200 2515080.200000
96.044300 11828.500000
100.021600 15640.200000
101.038700 15115.900000
102.046400 132326.700000
103.054300 479935.500000
104.049500 111687.200000
104.061900 17988.700000
105.044800 1790007.400000
106.065200 322601.400000
114.037400 46772.200000
115.054300 183409.400000
116.049600 61247.800000
117.057400 1190202.400000
118.041400 14192.100000
118.065300 98845.300000
119.049000 11654.300000
121.010800 893184.200000
128.049400 73433.000000
128.062300 23204.200000
129.044600 55628.400000
129.057400 18408.300000
130.065300 264931.700000
134.018400 21913.000000
140.049600 18801.400000
146.060200 44683.600000
147.026400 16928.200000
172.021600 18885.800000
173.029800 40426.300000

>ms2
50.015200 816900.200000
51.023000 1842877.600000
52.018200 56347.500000
53.002300 165917.300000
53.038600 901912.200000
53.997500 63128.700000
54.033900 69603.000000
55.017900 59765.800000
55.054300 36374.600000
56.013100 10247.700000
56.979400 22072.700000
57.987200 451362.300000
58.995100 1467642.100000
59.966500 117649.800000
59.990300 19832.000000
61.007400 22976.300000
62.006000 17073.600000
62.015200 197111.800000
63.023000 918520.800000
64.030800 168116.400000
65.038600 3443968.200000
66.046500 115513.000000
67.041700 86110.400000
67.054300 12975.600000
67.989400 18319.100000
68.013100 62065.200000
68.049500 37269.700000
68.979400 157671.000000
69.044800 62242.500000
70.065100 64873.100000
70.995100 47209.900000
73.010700 20723.700000
74.005800 9595.400000
74.015100 92199.800000
75.023000 221799.200000
76.030700 23198.600000
77.038600 967259.600000
78.046400 128908.400000
79.054300 746255.400000
80.049300 70619.500000
81.033500 66159.200000
86.005900 242724.300000
87.026300 20433.000000
89.038600 3003230.200000
90.046500 826836.400000
91.054300 1818560.600000
94.041400 15873.500000
95.049200 1745496.100000
96.044500 22522.600000
100.021700 11851.800000
102.046400 118992.700000
103.054300 189283.600000
104.049500 22138.500000
105.044800 1256553.200000
106.065200 20864.000000
112.021400 10630.100000
115.054400 61616.400000
116.049600 47795.000000
117.057400 432851.300000
121.010800 289318.200000
128.049600 37279.000000
128.062000 14068.600000
130.065100 47908.000000

