>compound EQ12725841
>parentmass 180.1747
>ionization [M+H]+
>formula C12H21N
>rt 402.000000
>profile orbitrap
#smiles_iso CC12CC3CC(C1)(CC(C3)(C2)N)C
#smiles_can CC12CC3CC(C1)(CC(C3)(C2)N)C
#inchikey BUGYDGFZZOZRHP-UHFFFAOYSA-N
#pubchem_id 4054
#mb_accession EQ335101,EQ335102,EQ335103,EQ335104,EQ335105,EQ335106,EQ335107,EQ335108,EQ335109

>ms2peaks
55.054200 2120543.500000
93.069500 2610582.500000
107.085300 21316974.000000
163.148100 1520543488.000000
180.174700 888981760.000000

>ms2peaks
55.054200 2890245.000000
91.054100 1904379.500000
93.069600 2988525.000000
107.085400 30065052.000000
121.101200 1957522.400000
163.148100 1728303744.000000
180.174700 753911488.000000

>ms2peaks
55.054200 2566617.200000
69.069800 3450348.200000
81.069900 9211043.000000
83.085400 2441729.500000
91.053900 3498846.000000
93.069900 15109967.000000
95.085500 7018434.500000
107.085500 233556928.000000
121.101300 16845806.000000
135.116900 9441089.000000
163.148100 1892317312.000000
180.174700 122263128.000000

>ms2peaks
55.054000 4032008.000000
67.054200 1667385.000000
69.069900 18085900.000000
71.085500 1927525.500000
79.054200 6880164.500000
81.069900 36441828.000000
83.085500 6951995.500000
91.054200 11278857.000000
93.069900 65466632.000000
95.085500 34258904.000000
105.069900 7837872.500000
107.085500 735314624.000000
109.064900 2662992.000000
119.060400 2611732.800000
121.101200 64947504.000000
135.116900 32891100.000000
163.148100 1261769600.000000
180.174800 12019086.000000

>ms2peaks
53.038600 1695792.200000
55.054200 11137006.000000
57.069900 1996500.800000
65.038600 3709447.200000
67.054200 5932989.500000
69.069900 39416912.000000
71.085500 1566185.400000
77.038500 3443256.800000
79.054200 31704902.000000
81.069900 61587504.000000
83.085500 13672542.000000
91.054300 54366880.000000
93.070000 119078864.000000
95.085600 63338916.000000
105.069900 38800076.000000
107.085500 1043272000.000000
109.064800 17707840.000000
109.101200 2317485.000000
119.060500 12483080.000000
119.085500 2235988.200000
121.101200 90389000.000000
123.080400 1201834.900000
135.116900 40160524.000000
161.132300 1361603.400000
163.148100 500316288.000000

>ms2peaks
53.038600 3440634.200000
55.054300 20568276.000000
57.069900 1841002.100000
65.038600 10566199.000000
67.054200 17138514.000000
69.069900 43915480.000000
77.038600 6528643.000000
79.054200 71801424.000000
81.069900 59050584.000000
83.085500 12058651.000000
91.054300 166555616.000000
92.062100 3845282.500000
93.070000 133586360.000000
95.049200 8236000.000000
95.085600 67455608.000000
105.070000 88624552.000000
106.041400 2157278.200000
107.085500 906663488.000000
108.093400 1251926.500000
109.064800 47260380.000000
109.101200 3555152.500000
119.060500 37135188.000000
119.085500 6451224.500000
121.101200 71719176.000000
123.080600 1416557.800000
135.116900 22688426.000000
161.132300 1159037.900000
163.148200 128436504.000000

>ms2peaks
50.015100 1128114.600000
51.022900 1856952.400000
53.002200 3040223.200000
53.038600 10000790.000000
53.997500 549299.400000
55.054300 33784572.000000
57.069900 517369.800000
63.022900 1626796.400000
65.038600 85777272.000000
66.046400 581928.900000
67.054200 33074622.000000
69.069900 20287492.000000
77.038600 18942358.000000
79.054200 111973128.000000
81.069900 35679864.000000
83.085500 3248625.000000
89.038400 1003695.500000
91.054300 500508224.000000
92.062100 14281446.000000
93.070000 70616528.000000
95.049200 31758728.000000
95.085600 30093448.000000
103.054300 7352746.000000
105.044800 17244500.000000
105.070000 141248960.000000
106.041400 2653701.200000
106.077700 1388059.400000
107.085600 295672768.000000
108.093200 622504.800000
109.064900 56820544.000000
117.070000 582741.200000
119.060500 48056364.000000
119.085600 7037210.000000
121.101200 14548019.000000
123.080400 1580043.000000
133.076200 597517.800000
135.116800 3330164.200000
163.148200 3672363.200000

>ms2peaks
50.015100 4203793.500000
51.023000 6606289.000000
53.002200 5881266.000000
53.038600 20063532.000000
53.997500 1005237.100000
55.054300 29272512.000000
62.015100 612811.000000
63.022900 6836344.000000
65.038600 230289744.000000
66.046400 1380123.900000
67.054200 34359616.000000
69.069900 4075566.500000
77.038600 30485642.000000
78.046400 2270701.200000
79.054200 87410280.000000
80.062100 1418924.400000
81.033500 1888229.400000
81.069900 13556777.000000
89.038500 1105783.500000
91.054300 491424384.000000
92.062100 15672899.000000
93.069900 23345426.000000
94.041400 522606.800000
95.049200 60266532.000000
95.085600 7588189.500000
103.054200 12664338.000000
105.044800 32935426.000000
105.070000 81199728.000000
106.077700 561460.200000
107.085600 40577040.000000
109.064900 20898476.000000
117.069900 1004265.500000
119.060500 17859718.000000
119.085500 2185010.800000
121.101200 1197313.200000

>ms2peaks
50.015100 13294672.000000
51.023000 23800150.000000
53.002200 8924091.000000
53.038600 22838734.000000
53.997500 2744890.800000
55.054300 17433630.000000
62.015100 2270540.800000
63.023000 17455162.000000
65.038600 295934912.000000
66.046400 2053277.400000
67.054200 19016290.000000
69.069700 308999.500000
77.038600 36228704.000000
78.008600 421353.000000
78.046400 5114898.000000
79.054200 42493008.000000
80.062100 392748.100000
81.033500 2080366.200000
81.069900 4278094.000000
91.054300 302616544.000000
92.062100 7024802.500000
93.070000 5376117.000000
94.041400 1070547.400000
95.049200 62316556.000000
103.054300 11601897.000000
104.062100 461577.200000
105.044800 33596480.000000
105.070000 27640758.000000
107.085600 3744620.000000
109.064900 3917064.500000
117.069700 397431.600000
119.060400 3621372.200000
119.085700 870909.900000

