>compound EQ13859932
>parentmass 159.14920000000004
>ionization [M+H]+
>formula C8H18N2O
>rt 570.000000
>profile orbitrap
#smiles_iso CCCCN(CCCC)N=O
#smiles_can CCCCN(CCCC)N=O
#inchikey YGJHZCLPZAZIHH-UHFFFAOYSA-N
#pubchem_id 13542
#mb_accession EQ346001,EQ346002,EQ346003,EQ346004,EQ346005,EQ346006

>ms2peaks
53.002200 1169454.200000
53.997500 156190.200000
55.054200 298619.500000
57.069900 68067768.000000
67.989200 217345.900000
73.064800 181322.200000
103.086600 50247356.000000
121.097100 110890.200000
159.149200 52630788.000000

>ms2peaks
53.002200 1129748.900000
53.997400 175727.600000
55.054200 192407.300000
57.069900 66090148.000000
67.989300 220105.600000
73.064800 159027.900000
103.086600 49919868.000000
121.097200 100813.500000
159.149200 52653672.000000

>ms2peaks
53.002200 1542003.100000
53.997500 263287.800000
55.054200 319126.100000
57.069900 64286132.000000
61.039600 70511.700000
67.989300 280054.000000
103.086600 18791304.000000
159.149300 5262542.500000

>ms2peaks
53.002200 2262960.200000
53.997500 261601.900000
54.010000 109738.200000
55.054200 376823.400000
57.069900 42550364.000000
67.989300 286951.600000
70.065200 45081.400000
72.080800 44809.900000
73.064800 88100.400000
103.086600 3327090.200000
159.149100 259982.700000

>ms2peaks
52.018200 43764.800000
53.002200 2264612.200000
53.997400 323419.300000
54.010100 135505.100000
55.054200 470058.400000
57.069900 23790812.000000
61.039600 26422.000000
67.989300 350626.200000
70.065100 42713.700000
72.080800 30067.400000
73.064800 31959.900000
78.008700 94716.600000
103.086600 447102.000000

>ms2peaks
52.018200 39889.900000
53.002200 2328057.200000
53.997400 337004.200000
54.010000 149341.400000
55.054200 374554.600000
57.069900 10909297.000000
67.989300 328910.700000
68.997100 43814.500000
70.065100 25948.600000
72.080800 24352.700000
78.008700 42150.500000
103.086600 45384.000000

