>compound EQ13509129
>parentmass 283.0689
>ionization [M+H]+
>formula C13H9F3N2O2
>rt 762.000000
>profile orbitrap
#smiles_iso C1=CC(=CC(=C1)NC2=C(C=CC=N2)C(=O)O)C(F)(F)F
#smiles_can C1=CC(=CC(=C1)NC2=C(C=CC=N2)C(=O)O)C(F)(F)F
#inchikey JZFPYUNJRRFVQU-UHFFFAOYSA-N
#pubchem_id 4488
#mb_accession EQ369101,EQ369102,EQ369103,EQ369104,EQ369105,EQ369106,EQ369107,EQ369108,EQ369109

>ms2
145.026100 2775492.800000
263.062900 2005526.400000
265.058100 42245020.000000
283.068800 1854850432.000000

>ms2
145.026100 2754651.200000
245.052300 10837704.000000
263.062900 25361502.000000
265.058400 739661120.000000
283.068900 1218976512.000000

>ms2
196.063200 5905229.500000
217.056800 3681398.800000
237.063000 1956656.100000
238.048100 1770619.200000
245.052300 96758096.000000
263.062900 24272890.000000
264.051000 1730312.900000
265.058300 1617399552.000000
266.060800 1842465.200000
283.068900 147282224.000000

>ms2
78.033800 13229085.000000
96.044400 22513886.000000
121.039600 3349462.000000
145.026000 47729004.000000
168.068200 38935828.000000
173.032200 3602905.000000
179.060400 2477320.800000
183.041000 1610466.900000
190.046300 4246860.500000
195.055100 2198434.800000
196.063200 80822992.000000
197.051000 19503390.000000
198.016200 1786248.200000
210.053000 2074151.200000
215.061600 4151242.000000
217.057300 83280504.000000
218.041400 14045783.000000
225.046000 2649712.500000
236.055500 2220321.800000
237.063500 26809736.000000
238.047500 15884651.000000
245.052200 391187648.000000
263.062800 13140000.000000
264.050500 9338978.000000
265.058300 1221424768.000000
266.061400 2749368.200000
283.068900 4993325.000000

>ms2
50.015100 1788717.400000
51.022900 2382908.800000
56.049500 1017852.100000
66.033800 762650.800000
71.029100 395445.000000
75.022900 914920.300000
78.033800 34567228.000000
79.041600 3580302.500000
93.044800 1613984.200000
94.028700 1061881.200000
95.029100 392245.800000
95.036400 1410764.000000
96.044400 47993284.000000
103.029100 1162843.900000
110.060100 453710.700000
112.039300 850480.900000
113.039600 2814586.200000
117.057300 451221.700000
121.039700 14717631.000000
123.035300 6382394.000000
125.019800 6238625.000000
140.049500 1695237.600000
141.014500 1296150.000000
141.057400 6911670.500000
145.026000 253830896.000000
152.049700 859779.800000
153.057300 415367.100000
161.044800 1913315.600000
167.060300 7740399.000000
168.068300 168340736.000000
169.052200 1125799.500000
170.021100 958326.500000
170.040200 5486407.500000
170.059800 949694.400000
172.036800 2391335.000000
173.032200 5673663.000000
177.044700 973031.800000
179.060600 3823638.200000
180.044200 695573.200000
182.040900 830913.600000
183.041700 9758150.000000
185.071300 434995.700000
187.066700 1329101.100000
188.050800 4181279.800000
190.046300 29268420.000000
191.041500 2640837.200000
195.055400 9700651.000000
196.063200 133199744.000000
197.051100 64529948.000000
198.016200 3696483.800000
198.035300 808773.800000
198.046200 2760875.000000
198.059000 4712995.500000
199.066500 788139.400000
202.046300 1893635.400000
208.037300 414608.500000
210.052600 6600902.500000
213.066200 2486851.000000
215.041200 972473.200000
215.061600 8278411.000000
216.049500 5628945.500000
217.057300 231861184.000000
218.041400 25271226.000000
223.049300 445212.400000
225.046200 11123321.000000
225.057100 1302466.400000
227.041800 852872.500000
228.052800 422109.300000
235.048000 984006.100000
235.067900 1915130.600000
236.055700 12215405.000000
237.063500 37805940.000000
238.047600 23187386.000000
244.044400 2366718.800000
245.052200 309725888.000000
247.048000 1222830.100000
263.062800 8549791.000000
264.050700 21893502.000000
265.058400 365956896.000000
266.061500 688887.300000

>ms2
50.015100 3878769.800000
51.022900 3619351.500000
56.049500 1177332.200000
57.013500 1210022.400000
66.033800 1562948.000000
67.017800 426869.900000
68.049500 1286991.400000
68.994600 1112905.200000
71.029200 3723869.200000
74.015000 973643.800000
75.004000 3440771.500000
75.022900 8075238.500000
76.018100 456488.000000
78.033800 42439760.000000
79.017800 1426235.900000
79.041600 7326310.500000
81.013400 421850.800000
90.046500 2255549.000000
93.044800 6145566.000000
94.028800 1691141.100000
95.010300 2401815.200000
95.029200 5277496.000000
95.036600 2741038.800000
96.044400 47753400.000000
99.004000 754734.800000
103.029000 2364699.200000
112.039100 1275228.200000
113.039700 16898174.000000
114.046400 3016569.200000
115.035400 838212.200000
115.054200 1112624.500000
117.057300 4578436.000000
118.041300 459946.900000
119.010500 2144207.200000
121.039700 16637258.000000
123.035300 43461072.000000
125.019800 30393454.000000
126.027600 848904.100000
128.049500 896161.400000
129.044700 813516.300000
132.057000 1413658.400000
133.044800 3820466.000000
139.035500 458650.200000
140.049500 18296206.000000
141.014600 1890455.800000
141.057300 31091252.000000
142.052500 3117169.500000
143.029600 2675607.500000
145.026000 405664384.000000
146.040200 670286.200000
150.033800 2443108.200000
152.049700 2060237.500000
153.057300 427371.900000
159.067900 1289200.500000
161.045000 3562867.000000
163.035500 3856444.800000
164.030600 2326408.200000
166.052500 1354519.600000
167.060400 25904684.000000
168.068200 232817056.000000
169.052200 2612409.500000
170.021200 2793037.500000
170.040100 16240041.000000
170.059900 2335284.800000
171.036000 1207293.000000
171.047900 848035.400000
172.037000 2288014.800000
172.056000 946329.400000
173.032100 4158327.800000
173.050900 1137432.600000
177.044800 2948663.500000
178.039900 1115352.800000
178.052700 430773.800000
179.060500 2123509.800000
180.044400 417397.300000
181.046200 2197938.500000
182.033700 1194050.400000
182.041200 3964205.800000
183.041700 13534257.000000
184.036900 1047656.000000
185.071100 3181487.200000
186.058800 2790090.800000
187.066800 1015741.200000
188.050700 13182493.000000
189.038500 2292733.800000
189.046100 738910.500000
190.046300 50131132.000000
191.041500 10028524.000000
195.055400 12268369.000000
196.063200 72136208.000000
197.051000 80118584.000000
198.016100 3184375.000000
198.035100 845609.000000
198.046200 5850910.000000
198.058900 6855558.000000
200.030800 758780.200000
200.058100 1616754.600000
201.045500 429760.100000
202.046600 2713507.800000
208.036700 787891.300000
209.045000 1509701.100000
210.036400 1149763.100000
210.052500 3443416.000000
213.065900 2542661.200000
215.041700 1989249.800000
215.061600 6831147.500000
216.049500 8120924.000000
217.057300 198519520.000000
218.041300 17961238.000000
220.036800 1236522.100000
225.046100 11922518.000000
227.041400 1263442.900000
228.053000 946110.100000
235.048000 1673456.900000
235.067900 1024620.100000
236.055700 21144402.000000
237.063500 16473024.000000
238.047500 10964685.000000
244.044400 1307147.900000
245.052200 87221304.000000
263.042400 1102272.800000
263.062800 2534292.200000
264.050600 13171582.000000
265.058400 50421164.000000

>ms2
50.015100 8968031.000000
51.004100 2707173.200000
51.022900 5218955.000000
52.018100 1418030.500000
52.030700 766426.200000
53.002200 4936869.000000
53.038600 1333396.100000
53.997500 314154.500000
54.033800 388605.700000
55.017800 423800.900000
55.041600 434720.600000
56.049400 731998.000000
57.013500 6957985.000000
61.007200 384178.600000
62.015000 337321.100000
63.022800 2119888.000000
64.018100 406708.300000
64.030700 222901.300000
65.002100 443078.700000
65.026000 311526.000000
65.038600 2047919.500000
66.033800 2788518.500000
66.046300 408556.300000
67.017800 877645.900000
67.041700 260751.300000
68.005500 184872.900000
68.049400 442064.200000
68.994600 6960128.500000
69.013400 756336.100000
71.029100 9867881.000000
74.015100 10771635.000000
75.004100 27849694.000000
75.022900 101149648.000000
76.018100 4656817.000000
76.030700 921419.800000
77.002100 731831.500000
77.019700 246118.600000
77.038500 2788778.800000
78.033800 35117632.000000
79.017800 3807017.800000
79.041600 9689336.000000
81.013500 5327380.000000
83.029200 319204.300000
87.022800 358764.400000
88.018200 304508.500000
88.030800 2878651.200000
89.038500 5370301.500000
90.046400 15179238.000000
91.041700 411213.400000
92.025700 1031723.100000
92.036900 1232963.200000
92.049500 337877.100000
93.033600 2113956.800000
93.044800 10595684.000000
94.028800 953936.200000
95.010300 10382360.000000
95.029200 32166770.000000
95.036400 2339681.200000
95.049100 4319040.000000
96.044400 19288244.000000
99.004100 9920059.000000
99.023200 2768208.200000
100.018200 2247148.200000
101.002300 1061465.500000
101.019700 1811742.800000
102.033800 1294746.400000
103.029000 4030617.000000
104.049400 883359.400000
105.013500 1193992.000000
105.044700 3178216.800000
107.029200 860344.800000
109.045000 375638.700000
111.044200 532162.100000
111.047800 1626814.200000
112.039200 220603.200000
113.039700 57024656.000000
114.027600 2100245.500000
114.033800 2365451.200000
114.046400 28004542.000000
115.035700 1333310.800000
115.041600 3445397.800000
115.054200 7064010.500000
116.049500 1798135.100000
116.062000 1013178.600000
117.013600 946012.200000
117.057300 16518921.000000
118.041300 5050096.000000
118.052600 774840.200000
119.010400 12227350.000000
120.024300 253482.700000
120.044500 807229.600000
121.039700 6067244.000000
122.014800 220936.300000
123.023100 10227266.000000
123.035300 131775920.000000
124.018200 5822661.000000
124.032400 957122.400000
125.019800 77049392.000000
126.027600 1715582.500000
126.033700 1354909.400000
126.046300 214255.900000
127.041700 424986.500000
128.049400 4376804.000000
129.044600 2462694.800000
130.040000 2400789.000000
131.049100 754167.400000
132.057000 11682205.000000
133.044800 11773582.000000
134.040000 1920196.600000
134.060100 394563.900000
137.019700 265631.100000
138.027400 270464.200000
138.034000 319626.200000
139.035800 440522.200000
139.041700 426082.500000
140.049500 132990280.000000
141.057300 49430920.000000
142.046500 2088239.500000
142.052500 15295900.000000
143.010300 1102294.600000
143.029300 18561240.000000
144.018800 296761.300000
144.024500 2091266.100000
144.037200 435051.000000
144.044500 797751.800000
145.026000 179363824.000000
146.040000 799035.800000
146.060000 769513.800000
147.035300 1346695.200000
148.030900 1061398.000000
149.019700 301012.800000
150.033800 14154990.000000
151.029300 313069.300000
151.035200 669970.400000
151.041700 425722.700000
152.049800 1575731.200000
153.044700 1024464.600000
153.057400 338260.400000
154.040200 1240321.400000
157.025700 337051.800000
157.046300 314836.800000
157.052300 1220005.100000
158.040100 2137844.200000
158.060200 1277165.200000
159.048000 885856.300000
159.055400 2256783.200000
159.067900 1070628.500000
160.037200 658315.000000
161.019700 333387.800000
161.039100 3082656.200000
161.045000 927757.900000
162.027600 1615784.000000
162.035000 860965.100000
163.035400 7104539.000000
164.030600 7684603.000000
164.043400 1593302.400000
165.026000 261502.400000
165.045200 1095846.800000
166.052600 13020937.000000
167.060400 48386680.000000
168.044500 12823839.000000
168.068200 81250352.000000
169.025600 878476.400000
169.032500 1282845.900000
169.039500 405847.600000
169.052400 1568564.100000
170.021300 4431285.000000
170.040100 15469927.000000
170.060000 2470843.000000
171.035800 4017363.800000
171.048000 3522138.200000
171.055200 342471.300000
172.030600 4198063.000000
172.037100 536323.400000
172.055600 266283.500000
173.051000 1072541.400000
176.030500 757787.300000
177.044600 3520061.000000
178.039900 4879480.000000
178.052500 983687.400000
179.060400 1000139.400000
181.046000 2046933.800000
182.033600 4403976.500000
182.041200 5903335.500000
183.041700 3049644.000000
184.036800 932445.200000
185.044300 328144.100000
185.071100 3986010.000000
186.059000 6937663.000000
187.066400 713445.100000
188.050600 12871944.000000
189.038500 11142409.000000
189.046000 1183019.600000
190.046300 20358602.000000
191.041500 12178978.000000
195.055400 5950429.000000
196.043600 2298212.800000
196.063300 3031591.200000
197.051000 28041068.000000
198.016400 383465.600000
198.046200 3767913.500000
198.059200 1637547.200000
200.030800 1058600.100000
200.057900 998262.200000
202.046900 996359.000000
206.041300 1093691.600000
208.036800 1074985.000000
209.045200 1483096.400000
210.036800 317056.400000
213.065800 389811.200000
215.041500 4407102.000000
215.061900 388218.800000
216.049400 4363242.000000
217.057300 32716802.000000
218.040600 1501727.800000
225.046000 2717381.000000
227.041300 350153.700000
235.047900 3776379.800000
236.055600 5957403.500000
237.064000 269830.800000
238.047200 277777.900000
245.052000 1753151.500000
263.042400 186737.400000
264.050500 216235.600000

>ms2
50.015100 12231490.000000
51.004100 6324027.500000
51.022900 5790255.000000
52.018200 1619803.800000
52.030800 1431577.200000
53.002200 7303144.000000
53.038600 1157947.800000
53.997500 1133914.500000
55.017700 289663.000000
56.049500 877627.400000
57.013500 13252736.000000
61.007200 1380274.400000
62.015100 3057335.800000
63.022900 12213094.000000
64.018100 1151176.600000
64.030700 1521073.500000
65.002200 1106318.600000
65.038600 5154567.500000
66.009900 298037.200000
66.033800 2932845.200000
66.046400 1548451.000000
67.041600 680936.500000
68.994600 24909642.000000
69.013500 4470339.000000
71.029100 5506635.000000
74.015100 48977472.000000
75.004000 59478912.000000
75.022900 231899824.000000
76.018100 9379126.000000
76.030600 2426851.800000
77.002100 975369.000000
77.013200 336531.400000
77.019600 948152.700000
77.038500 3577970.000000
78.033800 19409048.000000
78.997800 285434.400000
79.017800 2035711.500000
79.041600 5454322.500000
81.013500 8847493.000000
82.028700 232612.200000
83.029200 1854756.000000
84.036900 346096.900000
85.007000 293750.800000
86.015100 1106785.600000
87.022900 6064315.500000
88.018200 1504480.600000
88.030700 16440728.000000
89.038500 16834756.000000
90.033900 1563512.200000
90.046400 15514884.000000
91.041600 1805010.900000
92.025700 1065428.400000
92.036800 689706.800000
92.049500 866934.400000
92.994700 1816221.900000
93.013500 1838099.600000
93.033500 1481459.800000
93.044700 4012385.200000
94.021300 850445.200000
95.010300 7477212.000000
95.029100 28255362.000000
95.049200 3494097.500000
96.044400 9081443.000000
98.015100 2267013.500000
99.004100 16647273.000000
99.022900 7996716.500000
100.018100 7291242.000000
101.002200 1952504.600000
101.019800 2009536.500000
101.038500 401351.300000
102.033800 3339016.500000
103.029100 3117277.000000
104.049500 1054408.400000
105.013500 2160763.500000
105.044800 2491740.800000
107.029200 3854066.800000
108.037000 904819.100000
111.022800 244803.200000
111.044400 232850.500000
111.047800 1528356.200000
112.031000 429166.400000
113.038800 65249296.000000
114.027900 2915937.200000
114.033800 12294841.000000
114.046400 25236648.000000
115.035500 629586.600000
115.041600 8761424.000000
115.054300 8360944.000000
116.049500 2151084.200000
117.013500 3910862.500000
117.057300 10047867.000000
118.028700 251799.600000
118.041200 4511082.000000
118.052500 770335.200000
119.010400 9227436.000000
120.020500 1292530.900000
120.024400 587970.800000
120.037100 262908.000000
120.044300 1253002.000000
121.039700 1497234.400000
122.015100 4557067.000000
123.023000 23552270.000000
123.035300 63346100.000000
124.018200 17217356.000000
125.019700 38821016.000000
126.027500 381649.300000
126.033800 858810.900000
126.046500 654622.200000
127.041600 389003.200000
128.049400 2766942.000000
129.044600 3012945.500000
130.040000 4216718.500000
131.029200 976545.800000
131.049100 349791.600000
132.037200 1450918.000000
132.044100 1358258.400000
132.057000 9369507.000000
133.044800 10297569.000000
134.039900 1230936.400000
134.060200 964385.800000
137.019800 1016886.100000
138.027500 1186597.500000
138.033700 1625100.800000
139.041700 3397306.200000
140.049500 141230032.000000
141.025900 1047491.600000
141.044800 1965587.100000
141.057300 11259077.000000
142.021400 405183.300000
142.028800 1007128.700000
142.046300 1581271.600000
142.052500 7623402.500000
143.010500 1722242.800000
143.029200 12257697.000000
144.024400 1804685.000000
144.037100 2169263.500000
144.044300 830390.200000
145.026000 26965854.000000
146.060300 254516.800000
147.010500 301583.700000
147.035300 1057093.800000
148.018100 674354.600000
148.030500 1055646.100000
149.019900 284406.500000
150.015000 674385.200000
150.033900 6344550.500000
151.028900 742633.500000
151.035500 786810.500000
151.041700 1550850.600000
152.049500 413179.900000
153.044700 1068146.800000
154.039900 1039545.200000
156.044200 282619.500000
157.052200 2745627.000000
158.040200 4402825.500000
158.060000 1554971.100000
159.047800 1185762.500000
159.055200 2170325.000000
160.037000 392988.400000
161.019600 364551.900000
161.039400 2178161.200000
162.027500 5097615.000000
162.034600 962449.000000
163.022800 916918.700000
163.035100 1676649.600000
164.030700 2207548.800000
164.043000 1573864.800000
165.026100 254320.100000
165.044700 2393023.500000
166.052600 20662514.000000
167.060400 14102512.000000
168.024200 336889.700000
168.044500 4459375.500000
168.068200 6491148.000000
169.032400 3540555.200000
169.039300 353747.700000
170.021300 1680373.500000
170.040100 3097275.000000
171.035900 1593936.000000
171.047700 1568113.400000
172.030500 2223874.500000
173.050700 309134.800000
176.030800 351354.000000
177.044600 765842.400000
178.039800 1535668.800000
179.060300 408830.200000
182.033600 3110065.500000
182.041200 1376980.900000
185.070900 853861.600000
186.034500 238182.800000
186.058700 1938993.400000
188.050600 2229203.800000
189.038400 5253430.000000
189.046400 382302.500000
190.046100 2027352.200000
191.041500 1909511.500000
195.055200 1189592.900000
196.043000 941267.900000
197.050900 5540353.500000
198.046100 405416.000000
206.040800 415529.200000
208.036900 291380.900000
215.041700 2180188.500000
216.048900 273421.700000
217.057100 2651278.800000
235.047900 429133.900000

>ms2
50.015100 15098266.000000
51.004100 6264334.500000
51.023000 5777891.000000
52.018200 2115360.000000
52.030800 1264555.200000
53.002200 4687673.000000
53.038600 392806.300000
53.997500 1835838.100000
57.013500 14508043.000000
61.007300 4737531.000000
62.015100 10775212.000000
63.022900 33148142.000000
64.018200 2721079.200000
64.030700 2567925.000000
65.002200 2556052.000000
65.025900 954347.900000
65.038600 7511875.500000
66.010000 309768.800000
66.033900 1514313.400000
66.046400 821920.200000
67.017900 245930.400000
67.041700 697951.100000
68.005600 734648.400000
68.994700 32327728.000000
69.013500 9701546.000000
70.021300 393576.300000
71.029200 922668.000000
74.015100 120822544.000000
75.004100 60042452.000000
75.022900 225516848.000000
76.018100 11789300.000000
76.030600 2783063.500000
77.002200 332491.000000
77.013400 724167.800000
77.019700 779945.500000
77.038500 2011938.200000
78.033800 8214325.000000
78.997900 355522.300000
79.017800 373953.000000
79.041600 2078799.000000
81.013500 8523718.000000
83.029100 3660123.800000
84.037000 1083013.100000
85.007300 1152628.000000
86.015100 5664655.500000
87.022900 16018990.000000
88.018200 5463625.500000
88.030800 23222922.000000
89.038600 25484212.000000
90.033900 3566482.800000
90.046400 7203326.000000
91.041700 1248365.100000
92.025700 732922.400000
92.036900 385287.400000
92.049500 716221.600000
92.994700 2982595.800000
93.013500 3720646.500000
93.033600 254010.100000
93.044800 1267337.200000
94.021400 1100132.000000
95.010400 2639336.800000
95.029200 10629598.000000
95.049100 2382934.000000
96.044400 3661901.500000
98.015100 7621351.000000
99.004100 15826859.000000
99.010300 2285594.250000
99.022900 8153598.000000
100.018200 7983459.000000
101.002200 416785.600000
101.019700 785273.600000
102.033800 3026399.200000
103.029100 1406970.800000
104.049500 324173.400000
105.013600 2690043.200000
105.044700 1271016.500000
106.021400 799432.200000
107.029200 4449783.500000
108.037100 829583.600000
111.022900 1937982.900000
111.048000 1045366.200000
112.030700 1799116.500000
113.038600 70244992.000000
114.028100 1602636.200000
114.033900 19190100.000000
114.046400 8870299.000000
115.041700 4076970.200000
115.054200 5056060.500000
116.049500 1497786.100000
117.013500 3468718.200000
117.057200 2308288.800000
118.028700 840620.500000
118.041300 1170430.000000
119.010400 2849396.800000
120.020600 1524293.800000
120.024400 271906.800000
120.037100 370252.200000
120.044500 597635.600000
122.015100 14889033.000000
123.010400 4719095.000000
123.022900 13544396.000000
123.035300 16445161.000000
124.018200 13084473.000000
125.019800 12230828.000000
126.027300 241191.400000
126.034100 299177.200000
126.046700 255666.700000
127.041700 381731.200000
128.049500 323180.800000
129.044800 1381804.400000
130.040000 2436676.500000
131.029200 2679997.000000
132.037100 1517703.200000
132.044300 1494776.800000
132.056900 2777135.000000
133.044800 2953878.200000
134.060400 265894.100000
138.027700 936641.600000
138.033900 2695294.200000
139.041700 4085128.500000
140.049500 55868924.000000
141.025800 390850.600000
141.044600 629108.600000
141.057300 1793983.500000
142.021400 1063077.000000
142.028700 406589.800000
142.052600 1703050.900000
143.010400 1111093.900000
143.029400 2514802.800000
144.024500 658413.300000
144.036800 1194663.400000
145.026100 2866760.000000
147.010500 948327.200000
148.018200 1159220.500000
148.030700 409851.100000
150.015200 248092.600000
150.034000 1536246.900000
151.035700 313960.900000
151.041500 566452.600000
157.052200 2534108.800000
158.040200 4172367.000000
158.059900 227842.800000
159.055100 389295.900000
161.039300 376772.100000
162.027700 3862655.200000
163.023000 299968.900000
165.044800 2224990.000000
166.052600 8949357.000000
167.060400 1710799.400000
168.024400 704128.100000
168.044500 956133.400000
169.032400 1933826.900000
170.040100 332235.700000
172.030800 393393.500000
182.033700 311310.600000
186.035100 284794.700000
188.050600 237776.900000
189.038500 919382.200000
191.041400 330763.600000
196.043500 234824.800000
197.050600 366282.800000
206.041100 237533.400000
217.058100 234654.500000

