>compound EQ15081595
>parentmass 229.07380000000006
>ionization [M+H]+
>formula C10H13ClN2O2
>rt 366.000000
>profile orbitrap
#smiles_iso CN(C)C(=O)NC1=CC(=C(C=C1)OC)Cl
#smiles_can CN(C)C(=O)NC1=CC(=C(C=C1)OC)Cl
#inchikey DSRNRYQBBJQVCW-UHFFFAOYSA-N
#pubchem_id 29863
#mb_accession EQ320401,EQ320402,EQ320403,EQ320404,EQ320405,EQ320406,EQ320407,EQ320408,EQ320409

>ms2peaks
72.044300 223266656.000000
156.020800 1188457.900000
184.016100 2384710.200000
229.073700 690893248.000000

>ms2peaks
56.013000 548168.200000
72.044300 402229472.000000
122.060000 626221.600000
149.047200 480427.800000
156.021000 7057877.000000
184.016000 5515758.500000
194.104600 1016014.900000
229.073800 289582368.000000

>ms2peaks
56.013100 1389648.400000
72.044300 449237056.000000
122.060100 2034948.200000
149.047100 3960537.000000
156.021100 32299984.000000
184.016000 4004449.800000
194.104800 842057.800000
229.073900 17296618.000000

>ms2peaks
56.013100 2731233.500000
72.044300 449236576.000000
80.013000 681992.500000
106.028700 4570818.500000
122.060000 2548672.000000
149.047100 6113025.000000
156.021100 50721188.000000
184.016000 1615424.900000
229.073600 530303.200000

>ms2peaks
56.013100 6612188.000000
72.044300 457784736.000000
78.033800 2614048.000000
79.017800 1038008.400000
80.013000 6634646.500000
95.049100 875074.900000
106.028700 17187800.000000
122.060000 2361438.200000
129.010200 927884.500000
134.023600 1462187.400000
149.047100 4452515.000000
156.021100 46028592.000000

>ms2peaks
50.015100 452694.600000
51.022900 468495.100000
52.018100 905547.400000
56.013100 11049565.000000
65.038500 549388.900000
72.044300 372728256.000000
78.033800 7583793.500000
79.017800 2194057.800000
80.013000 16118618.000000
95.049100 1463014.900000
106.028700 21107476.000000
122.060100 1302255.000000
125.986600 462197.400000
129.010100 1909162.400000
134.023600 2286137.200000
149.047100 2090833.100000
156.021000 20157960.000000

>ms2peaks
50.015100 1165930.800000
51.022900 4245407.000000
52.018200 5903447.000000
56.013100 17896880.000000
65.038600 740850.000000
72.044300 202100720.000000
75.022900 626570.300000
77.038600 354684.500000
78.033800 9006828.000000
79.017800 4300782.000000
80.013000 22207778.000000
95.049200 1251849.900000
106.028700 9364901.000000
125.986600 578536.600000
129.010200 522272.200000
134.023800 1351641.100000
156.020900 975901.300000

>ms2peaks
50.015100 2150926.500000
51.023000 7537933.500000
52.018200 11983776.000000
53.002200 346021.900000
56.013100 18379132.000000
62.015100 114699.200000
63.022900 1296440.900000
65.002200 155578.500000
65.038500 571278.200000
72.044400 77747224.000000
72.984000 140936.500000
74.015100 156555.300000
75.022900 825515.200000
77.038400 109610.400000
78.033800 4867320.000000
79.017800 2037498.200000
80.013100 10776929.000000
84.983800 83409.200000
85.991700 417698.800000
91.041700 118422.400000
95.049100 358377.000000
105.044700 79925.300000
106.028700 1806771.100000
113.986700 176397.300000
114.010500 377981.900000
125.986500 360280.600000

>ms2peaks
50.015100 3934952.500000
51.023000 9427620.000000
52.018200 14906392.000000
53.002200 491711.500000
56.013100 13657342.000000
62.015100 476412.700000
63.022900 2995797.200000
65.002200 377207.700000
65.038600 472455.300000
72.044300 27863384.000000
72.983900 146558.200000
74.015000 641179.400000
75.022900 829561.100000
77.038600 81320.500000
78.033800 2645042.800000
79.017800 801494.000000
80.013000 3271427.500000
84.984000 102802.900000
85.991700 314607.800000
86.999600 385213.187500
106.028800 382130.400000
114.010600 196819.400000

