>compound EQ15607096
>parentmass 333.1809
>ionization [M+H]+
>formula C18H24N2O4
>rt 630.000000
>profile orbitrap
#smiles_iso CCC(C)(CC)C1=NOC(=C1)NC(=O)C2=C(C=CC=C2OC)OC
#smiles_can CCC(C)(CC)C1=NOC(=C1)NC(=O)C2=C(C=CC=C2OC)OC
#inchikey PMHURSZHKKJGBM-UHFFFAOYSA-N
#pubchem_id 73672
#mb_accession EQ360201,EQ360202,EQ360203,EQ360204,EQ360205,EQ360206,EQ360207,EQ360208,EQ360209

>ms2
85.101100 6038168.000000
165.054500 252880432.000000
170.117300 482621.100000
222.075700 1331566.900000
333.180500 440316512.000000

>ms2
85.101100 3833800.000000
150.030600 1897307.200000
165.054500 705945472.000000
170.116800 744665.700000
222.075600 1374803.000000
333.180700 9139889.000000

>ms2
79.054200 1242919.100000
85.101100 1336910.900000
107.049100 2337631.200000
109.064800 951296.200000
122.036000 1728972.800000
135.043900 1071418.100000
150.031100 15134190.000000
165.054500 662820928.000000
168.041700 2548107.500000

>ms2
53.038500 945880.900000
77.038400 2606733.000000
79.054200 9473417.000000
81.033400 747921.900000
81.069800 1007759.800000
91.054300 495387.200000
92.025500 1307253.200000
94.041300 1043092.200000
95.049100 2690213.500000
105.033400 2833031.500000
105.044700 1744021.800000
107.012600 6376310.000000
107.049100 10560609.000000
109.064700 4466759.000000
120.020400 638416.200000
122.036200 24689136.000000
125.059700 2258491.000000
135.043900 6700067.000000
135.055100 1420008.600000
137.059700 2343634.800000
150.031100 108145632.000000
165.054500 478573120.000000
168.041600 20280982.000000
182.057400 1005036.100000

>ms2
50.015100 418939.000000
51.022900 715864.100000
53.002100 387719.200000
53.038600 3419119.500000
55.017800 812943.100000
57.069800 285000.000000
65.038400 700860.400000
66.046300 735934.800000
67.054200 402300.100000
75.022900 2486958.000000
77.038500 9627357.000000
78.046300 291541.700000
79.054200 16476538.000000
81.033400 1582273.900000
81.069900 1830569.500000
82.041200 451050.900000
91.054200 1147145.800000
92.025600 5680888.000000
94.041300 2601916.000000
95.049100 10769471.000000
105.033400 5014360.500000
105.044700 6847113.500000
107.012700 51033320.000000
107.049100 10583250.000000
109.064700 7378282.000000
120.020600 2756038.200000
121.028400 1493653.500000
122.036200 116495072.000000
123.044000 365823.200000
125.023300 546465.600000
125.059700 3952529.200000
133.028500 356495.100000
135.044000 12957016.000000
135.055000 2620839.000000
137.059700 2209454.200000
150.031100 179704752.000000
165.054600 206152464.000000
168.041600 38542344.000000
182.057400 1625832.800000

>ms2
50.014900 909771.400000
51.022700 1382499.400000
53.002000 944667.500000
53.038600 4903880.000000
55.017800 2093813.200000
63.022800 747324.800000
64.030600 567936.800000
65.038500 1208403.400000
66.046400 2029955.800000
67.054200 371247.000000
68.997100 384489.500000
75.022800 7361760.000000
77.038500 15094387.000000
78.046300 351875.700000
79.017800 2935541.000000
79.054200 11631673.000000
81.033500 1465367.500000
81.069800 1060730.900000
82.041200 462396.700000
91.054200 580472.300000
92.025600 14967327.000000
93.033400 343838.300000
94.041300 3775176.200000
95.049100 16474249.000000
103.017800 374841.600000
105.033500 3343857.800000
105.044700 9828196.000000
107.012700 160395456.000000
109.064700 4262522.500000
119.012700 609479.800000
120.020600 5588473.000000
121.028400 2391609.500000
122.036200 167977568.000000
125.023300 2064415.200000
125.059700 2577402.000000
135.044000 8335285.000000
135.055000 1441201.600000
137.059500 626658.100000
138.031300 293950.800000
139.038900 396493.200000
150.031100 105774528.000000
165.054600 46693368.000000
168.041700 24505764.000000
182.057300 1052171.800000

>ms2
50.015100 4306340.000000
51.022800 2894502.500000
53.002100 3877342.000000
53.038600 4416882.000000
54.046400 1028452.700000
55.017800 17916794.000000
63.022900 5097296.500000
64.030700 5460730.000000
65.038600 2823268.200000
66.046400 3669625.200000
68.997100 1395029.400000
74.015000 437217.800000
75.022800 14608406.000000
77.038500 11691603.000000
78.046300 589842.400000
79.017800 23227022.000000
79.054200 2631415.500000
81.033400 1405428.900000
82.041300 325782.400000
90.010000 380834.600000
92.025600 23004964.000000
93.033500 478902.700000
94.041300 2226402.000000
95.049100 13172877.000000
103.017900 380239.800000
105.044700 8294085.500000
107.012700 292279008.000000
109.064700 357821.900000
119.012700 1832803.400000
120.020600 2808055.500000
121.028300 1451697.900000
122.036200 51612780.000000
125.023300 4258416.500000
135.043900 1022238.200000
139.038800 954665.200000
150.031100 7349468.500000
165.054700 976584.400000
168.041600 1609425.400000

>ms2
50.015100 12824913.000000
51.022900 8975830.000000
53.002200 11299709.000000
53.038600 2785162.500000
54.046400 1936642.000000
55.017800 55982164.000000
61.007200 380644.800000
62.015000 1369561.900000
63.022900 20627788.000000
64.030700 11782128.000000
65.002100 871604.600000
65.038500 4064379.200000
66.010000 515882.000000
66.046300 3505993.000000
68.997100 2576795.800000
74.015000 1915689.200000
75.022800 17111422.000000
77.038500 6061089.500000
78.046300 317886.900000
79.017800 42547572.000000
81.033500 1207347.500000
90.010000 479791.300000
91.017900 856867.800000
92.025600 15097004.000000
92.036800 1271044.500000
94.041300 704225.400000
95.049100 5951466.000000
105.044700 3871716.200000
107.012700 182207856.000000
119.012700 1882244.900000
120.020500 492940.100000
121.028200 506420.200000
122.036100 4950866.000000
125.023300 2459204.800000
139.038800 734039.600000
150.031000 397345.000000

>ms2
50.015100 26780688.000000
51.023000 23311156.000000
53.002200 16159977.000000
53.038600 1800971.500000
54.046400 1182102.500000
55.017800 59893956.000000
61.007300 994234.800000
62.015100 3945896.500000
63.022900 34538692.000000
64.030700 8820420.000000
65.002200 2240377.000000
65.038600 3197227.500000
66.010000 853808.400000
66.046400 1693255.000000
67.989200 107380.400000
68.997100 2862971.500000
74.015100 5238742.500000
75.022900 12398706.000000
77.038500 2312276.000000
78.010000 282591.900000
78.046300 111846.400000
79.017800 25376830.000000
81.033500 620712.600000
90.010000 267289.600000
91.017800 786139.700000
92.025600 4378208.500000
92.036900 523589.200000
95.049100 1965612.500000
105.044800 849697.300000
107.012700 51363496.000000
119.012700 715788.100000
122.036300 132485.200000
125.023300 1003136.600000
139.038900 97092.400000

