>compound EQ15897024
>parentmass 279.0933
>ionization [M+H]+
>formula C18H15OP
>rt 564.000000
>profile orbitrap
#smiles_iso C1=CC=C(C=C1)P(=O)(C2=CC=CC=C2)C3=CC=CC=C3
#smiles_can C1=CC=C(C=C1)P(=O)(C2=CC=CC=C2)C3=CC=CC=C3
#inchikey FIQMHBFVRAXMOP-UHFFFAOYSA-N
#pubchem_id 13097
#mb_accession EQ358701,EQ358702,EQ358703,EQ358704,EQ358705,EQ358706,EQ358707,EQ358708,EQ358709

>ms2peaks
51.022900 1634.600000
53.002100 450.400000
57.069900 119601.900000
59.049100 7348.100000
65.038600 4394.900000
71.085500 17185.100000
74.096400 1817.500000
76.030600 2112.700000
87.044100 11974.200000
89.070900 713.600000
101.059700 9552.800000
117.090800 4439.200000
119.085500 446.600000
161.096000 608.100000
279.093400 276075.300000

>ms2peaks
50.014900 769.600000
51.022800 921.600000
53.002100 800.000000
57.069900 158653.000000
59.049100 9818.100000
65.038500 5410.600000
69.069900 536.000000
71.085500 15558.600000
74.096400 591.500000
76.030500 1825.900000
79.054300 1737.100000
81.069700 576.000000
87.044100 10286.900000
89.070900 557.100000
95.085800 415.000000
97.064900 412.600000
101.059700 8948.500000
107.085700 488.400000
109.064800 513.600000
117.090900 579.700000
119.085700 457.500000
121.028200 530.700000
123.043800 573.900000
123.080300 592.400000
123.116800 667.400000
159.117100 652.200000
161.096200 700.000000
201.045800 530.300000
219.056900 10373.000000
279.093400 241449.500000

>ms2peaks
50.014900 566.500000
51.022800 1129.000000
53.002200 2550.800000
53.997400 491.200000
55.054200 592.600000
57.069900 182457.500000
59.049100 11387.000000
62.999600 998.300000
65.038300 6173.600000
67.054300 741.000000
69.069900 1858.500000
71.085500 10127.400000
74.096500 780.400000
76.030600 603.000000
77.038500 468.700000
79.054200 7340.300000
81.069900 702.500000
87.044100 8229.400000
91.054100 477.100000
93.033700 807.000000
95.085600 2014.200000
97.064900 683.000000
101.059800 4250.800000
105.033600 849.900000
107.085300 628.400000
109.101300 695.700000
119.085800 870.100000
121.028400 18357.900000
121.039600 2788.800000
123.043900 584.200000
123.080100 970.800000
123.116700 679.900000
141.009800 496.300000
159.116500 558.700000
173.051900 889.200000
201.046100 9497.700000
219.057000 131376.000000
233.072300 3038.300000
279.093400 108781.600000

>ms2peaks
50.014900 462.400000
51.022900 1672.000000
53.002200 2807.300000
53.038600 375.800000
53.997500 429.300000
55.017800 745.800000
55.054200 1568.300000
57.069900 120391.800000
59.049100 7911.800000
62.999600 731.500000
65.038500 24698.900000
67.054200 816.900000
69.069900 731.200000
71.085500 5140.200000
74.096300 429.300000
77.038400 708.200000
79.054200 4958.300000
81.069900 2363.800000
87.044100 5112.900000
91.054300 995.100000
93.033500 15093.600000
95.004400 520.100000
95.049200 3223.700000
95.085500 749.700000
98.036200 2102.500000
101.059800 2354.400000
105.033500 884.200000
105.044800 2235.700000
105.069900 662.200000
107.085500 642.300000
109.064900 433.300000
109.101400 532.600000
111.044100 8009.200000
119.085700 913.400000
121.028400 183349.800000
121.039600 33767.800000
128.062000 869.400000
129.069700 1853.400000
141.010000 2156.900000
154.077600 2496.500000
171.036000 4412.900000
173.051500 14520.600000
183.035800 2557.200000
201.046200 12468.100000
219.057000 147148.700000
233.072900 4264.400000
279.093200 10714.500000

>ms2peaks
50.015000 603.500000
51.022800 1148.500000
53.002200 4356.800000
53.038600 5993.200000
53.997500 494.200000
55.017800 2366.500000
55.054300 1607.300000
57.069900 73126.300000
59.049100 6314.700000
62.999600 2089.600000
65.038600 170649.700000
67.054200 1830.700000
69.033500 730.300000
69.069800 613.300000
71.012700 557.100000
71.085500 868.100000
74.096300 827.800000
76.030600 578.400000
77.038500 2695.700000
79.017800 595.100000
79.054200 4581.400000
80.025700 523.500000
81.069800 829.800000
87.044000 2870.300000
91.054200 2832.000000
93.033500 62325.000000
95.004500 8472.200000
95.049100 14899.700000
98.036200 6198.300000
105.033600 729.800000
105.044700 10935.200000
105.069900 1770.100000
108.020600 524.500000
109.064900 605.000000
111.044100 47247.100000
113.015300 605.600000
121.028400 460496.100000
121.039600 166534.500000
122.036700 624.900000
122.999300 765.100000
125.015100 673.900000
128.062000 4948.100000
129.069900 4980.200000
133.020200 2682.100000
141.010000 4280.300000
141.070100 704.400000
153.069600 590.400000
154.077600 5000.000000
171.035800 10597.100000
173.051500 27641.000000
183.035700 7695.800000
201.046100 7001.800000
219.057100 69045.000000
233.072200 1735.100000

>ms2peaks
50.015100 2555.100000
51.022900 2745.000000
53.002200 6165.500000
53.038600 8380.100000
53.997400 735.600000
55.017800 3980.500000
55.054200 2727.600000
57.069900 35360.600000
59.049100 3059.000000
62.999500 1645.700000
65.038600 446208.200000
67.054200 2507.700000
68.997000 1635.000000
69.033500 496.200000
69.069800 916.900000
71.012700 477.000000
71.085500 647.700000
74.096400 722.900000
77.038500 5381.800000
79.017700 819.600000
79.054200 4189.500000
80.025600 622.600000
81.033400 855.400000
83.049000 2383.700000
87.044300 695.400000
91.054300 2501.200000
93.033500 83962.100000
95.004500 11603.000000
95.049100 26594.500000
97.007600 449.400000
98.036200 11338.700000
105.033400 908.200000
105.044700 18044.400000
108.020400 714.400000
110.096500 511.600000
111.044000 76244.300000
113.015100 738.200000
115.054200 811.800000
119.085600 456.900000
121.028400 353678.500000
121.039600 221713.800000
122.036700 1414.100000
122.999200 664.500000
125.014900 892.100000
128.062000 7632.700000
129.069900 6003.100000
133.020100 3849.900000
141.010000 2918.400000
141.069800 2431.600000
152.062000 908.400000
153.069900 2247.900000
154.077600 4114.900000
170.027700 581.900000
171.035700 9637.500000
173.051500 11296.400000
183.035900 7912.000000
201.046400 589.100000
219.057100 12914.800000

>ms2peaks
50.015100 4074.200000
51.023000 9572.600000
53.002200 15875.000000
53.038600 7790.300000
53.997500 3470.300000
55.017900 3163.300000
55.054200 2245.100000
57.069900 7944.500000
59.049200 1312.600000
65.038600 748289.100000
67.054200 2798.200000
68.988900 2225.000000
77.038500 11479.200000
79.054200 2625.100000
81.033600 1575.900000
83.049100 3739.000000
91.054300 2897.600000
93.033500 26975.800000
95.004500 7835.900000
95.049100 24449.300000
97.007600 876.700000
98.036200 2596.900000
105.044700 17323.300000
107.004500 840.200000
111.044000 36765.700000
115.054300 1837.800000
121.028400 54641.100000
121.039600 82717.900000
128.062000 7357.900000
129.069900 1748.500000
133.020200 2659.900000
141.069900 1507.300000
152.062000 4079.600000
153.069900 4398.600000
154.077800 831.800000
157.020200 1421.500000
170.027900 3001.400000
171.036000 3209.600000
183.035900 2984.600000

>ms2peaks
50.015100 7577.000000
51.023000 23299.400000
53.002200 28777.400000
53.038600 5655.800000
53.997500 7382.500000
55.017900 650.100000
55.054200 1541.100000
57.069900 1112.400000
62.015200 423.600000
63.022900 1628.000000
65.038600 358666.100000
67.054200 1524.600000
68.988800 4156.300000
74.015100 1285.900000
75.022900 2408.000000
77.038600 7760.300000
79.054200 1312.400000
83.049200 1798.800000
89.038700 410.600000
91.054300 2480.200000
92.025700 435.600000
93.033500 2286.200000
95.004600 2465.700000
95.049200 11286.800000
103.054200 478.200000
105.044800 8879.500000
107.004700 2012.200000
111.044100 4947.900000
115.054200 4420.900000
121.028400 2713.900000
121.039700 8149.900000
128.062100 3943.700000
133.020400 405.200000
152.062000 4461.500000
153.070000 1292.100000
157.020500 1616.400000
169.065100 465.600000
170.028200 1930.300000
183.036000 413.900000

>ms2peaks
50.015100 13222.700000
51.023000 26578.600000
53.002200 35848.000000
53.038600 1910.300000
53.997500 5946.800000
55.054300 675.100000
62.015100 1322.900000
63.022900 5268.600000
65.038600 103951.000000
68.988800 3138.400000
68.997100 527.600000
74.015100 3714.100000
75.022900 3017.200000
77.038500 2840.200000
78.046400 1170.900000
89.038600 1164.900000
91.054300 2095.700000
92.025700 1197.900000
95.004600 306.500000
95.049100 3563.500000
97.007500 610.900000
102.046400 758.700000
103.054100 355.700000
105.044800 3378.300000
107.004600 1886.300000
115.054100 2757.600000
121.039700 321.600000
128.062200 1576.100000
139.054400 458.300000
152.061900 2677.400000
169.064800 543.700000

