>compound EQ15836325
>parentmass 116.0818
>ionization [M+H]+
>formula C4H9N3O
>rt 48.000000
>profile orbitrap
#smiles_iso C1CN(CCN1)N=O
#smiles_can C1CN(CCN1)N=O
#inchikey CVTIZMOISGMZRJ-UHFFFAOYSA-N
#pubchem_id 21845
#mb_accession EQ335601,EQ335602,EQ335603,EQ335604,EQ335605,EQ335606

>ms2peaks
56.049500 114838.700000
57.044700 15042.000000
57.057300 26577.200000
58.065100 29128.800000
60.044400 2449.500000
70.065200 19972.700000
72.044400 1720.400000
74.060000 2266.300000
84.044400 1851.200000
85.076000 744558.500000
86.083800 272778.500000
88.075700 15240.700000
116.081900 56440.700000

>ms2peaks
56.049500 112918.300000
57.044700 19383.800000
57.057300 27436.500000
58.065200 27436.500000
60.044400 2252.800000
68.049500 2194.400000
70.065200 20164.900000
74.060000 1829.500000
84.044400 1957.700000
85.076000 759361.800000
86.083800 282927.800000
88.075700 11868.100000
116.081900 54065.000000

>ms2peaks
56.049500 128898.700000
57.044700 16256.800000
57.057300 26448.300000
58.065100 36064.100000
60.044400 1502.200000
68.049400 1291.700000
70.065100 15437.800000
84.044400 1786.100000
85.076000 781002.800000
86.083800 255385.400000
88.075700 13494.700000
116.081900 49246.500000

>ms2peaks
56.049500 254257.200000
57.044700 12759.100000
57.057300 38297.900000
58.065100 48818.100000
68.049500 2041.000000
70.065200 22716.700000
72.044400 1468.000000
74.060000 1593.300000
85.076000 624123.500000
86.083800 80517.400000
88.075700 8856.600000
116.081800 11670.200000

>ms2peaks
56.049500 329915.800000
57.044700 10993.100000
57.057300 34810.500000
58.065200 53690.000000
68.049500 2372.500000
70.065100 19532.500000
72.044400 1686.500000
85.076100 392048.500000
86.083900 35760.000000
88.075800 5471.700000
116.081900 1454.000000

>ms2peaks
56.049500 331524.000000
57.044800 5678.100000
57.057300 23350.100000
58.065200 43054.400000
60.044400 1195.900000
70.065200 13374.100000
72.044400 1140.500000
85.076000 222899.000000
86.083900 9232.500000

