>compound EQ16453826
>parentmass 219.14920000000004
>ionization [M+H]+
>formula C13H18N2O
>rt 144.000000
>profile orbitrap
#smiles_iso CC12CCN(C1N(C3=C2C=C(C=C3)O)C)C
#smiles_can CC12CCN(C1N(C3=C2C=C(C=C3)O)C)C
#inchikey HKGWQUVGHPDEBZ-UHFFFAOYSA-N
#pubchem_id 1250
#mb_accession EQ358301,EQ358302,EQ358303,EQ358304,EQ358305,EQ358306,EQ358307,EQ358308,EQ358309

>ms2peaks
55.054200 691.800000
57.033500 300.100000
57.069900 1912.000000
58.065100 748.100000
59.049100 2016.000000
60.044400 1637.400000
69.069900 473.800000
71.049100 736.000000
71.085500 418.200000
81.069900 1100.500000
83.049100 444.000000
83.085600 393.400000
85.064600 413.400000
87.044100 2702.200000
89.059700 2772.300000
91.054300 360.900000
95.049200 336.100000
95.085500 795.300000
97.065100 390.800000
99.044100 477.800000
99.080500 792.100000
101.059700 4114.300000
105.069700 647.900000
107.085700 634.900000
109.064900 306.600000
109.101300 1286.300000
111.044000 2266.800000
113.059700 702.300000
119.085700 1406.300000
121.101200 803.800000
123.116700 420.300000
132.102000 2079.800000
133.101100 454.300000
135.080600 636.900000
135.116500 550.900000
139.018500 485.600000
145.101300 2427.400000
147.116800 399.500000
149.096100 500.900000
159.080500 388.200000
159.116800 1701.900000
161.026200 2498.200000
161.132600 5561.100000
162.055000 12171.100000
162.091400 208009.500000
163.075200 470.800000
163.112100 552.200000
163.147900 539.300000
175.005600 2357.300000
175.041700 1628.200000
175.148200 749.400000
176.107000 20309.200000
177.021000 514.100000
179.049800 496.800000
186.078600 477.400000
187.005300 5624.500000
188.071000 563.900000
188.107100 4684.900000
191.000400 4808.600000
191.036400 557.500000
191.143100 631.400000
201.091500 677.400000
201.101900 1840.500000
203.142700 537.100000

>ms2peaks
55.054200 1888.100000
57.069900 1874.600000
58.065200 2768.500000
59.049200 2385.700000
60.044400 2605.700000
69.069900 735.600000
71.049200 773.000000
71.085500 1548.300000
74.096600 386.700000
81.069800 1341.800000
83.049100 713.800000
83.085400 533.700000
85.064700 682.700000
87.044100 1787.600000
89.059800 2855.400000
93.070000 1475.700000
95.049100 1329.100000
95.085500 1564.400000
97.064900 472.500000
99.080400 561.700000
101.059700 2870.000000
105.044700 484.200000
105.070000 1438.400000
107.085600 1374.300000
109.065000 448.100000
109.101300 2140.100000
111.044000 3109.200000
111.080500 365.800000
113.059700 1377.100000
119.085700 2404.300000
121.064800 779.400000
121.101300 2759.700000
123.080900 486.600000
123.116800 688.100000
132.102000 2006.000000
134.060100 468.500000
135.080500 613.800000
135.116900 1357.700000
139.018200 637.900000
145.101300 2520.700000
149.096300 377.000000
151.005300 350.100000
159.010000 2253.200000
159.080200 468.200000
159.117100 2300.000000
160.124200 321.000000
161.025900 4123.200000
161.096100 483.000000
161.132600 5347.400000
162.055000 28480.400000
162.091400 199778.700000
163.075300 499.300000
163.112000 678.400000
173.096400 614.300000
175.005500 1260.400000
175.041800 403.400000
175.148000 400.500000
176.070700 3044.800000
176.107000 25977.300000
177.021200 1452.300000
179.049300 611.400000
186.078900 482.200000
187.005600 2218.500000
188.070700 1983.700000
188.107000 9612.600000
189.020900 584.400000
190.086500 637.800000
191.000500 2044.400000
191.036700 1663.500000
191.143100 1353.300000
201.091800 489.300000
201.101900 1969.100000

>ms2peaks
53.038700 1133.400000
55.054200 4887.200000
57.069900 4308.600000
58.065200 3219.800000
59.049200 3209.800000
60.044400 2198.500000
67.054200 2035.000000
69.033400 731.000000
69.069900 3239.700000
71.049100 1509.400000
71.085500 505.200000
74.096500 349.600000
79.054200 1281.300000
81.069900 3495.200000
83.049100 4086.500000
83.085500 423.700000
85.064800 624.000000
86.096400 628.900000
87.044200 1608.500000
89.059700 623.300000
91.054200 635.600000
93.070000 2478.200000
95.049200 3082.600000
95.085500 3322.600000
97.007600 328.300000
97.064700 421.100000
99.044000 619.000000
99.080400 312.100000
101.059800 4011.300000
105.044800 2262.400000
105.069900 4312.400000
107.085600 3229.800000
109.064800 482.700000
109.101100 2341.900000
111.023300 634.100000
111.044100 5287.900000
111.080400 351.900000
113.059700 1187.800000
117.069900 672.800000
119.085600 6039.400000
121.064900 1685.800000
121.101300 6637.300000
123.080500 1333.900000
123.116600 444.300000
127.075200 392.100000
131.085500 2099.200000
132.081100 366.600000
132.101900 1422.000000
133.101100 3950.100000
134.060100 3944.900000
134.096400 555.200000
135.080500 1444.600000
135.116900 1220.900000
139.018500 475.900000
143.085800 513.500000
145.101100 4025.400000
147.067800 6795.900000
147.116800 707.700000
148.075800 2164.200000
149.096200 1213.100000
151.005200 501.500000
159.010800 1766.800000
159.080300 743.100000
159.117000 2149.200000
160.075600 1686.900000
161.026200 3077.700000
161.083600 5270.000000
161.096200 2222.700000
161.132700 6078.500000
162.055000 59522.700000
162.091400 174570.300000
163.075500 733.200000
163.111700 1587.800000
163.148400 300.400000
173.083200 1294.500000
173.095800 645.400000
173.132900 677.100000
174.091400 476.200000
175.004700 415.300000
175.148300 2360.800000
176.070500 3793.200000
176.107100 30515.200000
177.021200 1560.700000
186.078700 449.900000
187.111900 478.500000
188.070500 1876.700000
188.107100 13346.900000
189.020700 646.000000
190.086400 1464.300000
191.000000 346.300000
201.101800 334.900000

>ms2peaks
53.038500 1323.900000
55.017800 1245.200000
55.054300 10053.900000
56.049400 514.200000
57.033500 491.400000
57.069900 4605.300000
58.065200 2470.000000
59.049100 1532.600000
60.044400 2384.000000
67.054200 4061.700000
69.033400 1457.100000
69.069900 5189.800000
71.049000 395.300000
77.038300 461.100000
79.054200 4648.400000
81.069900 6515.200000
83.049100 5951.200000
85.064800 538.100000
86.096400 1594.100000
87.044100 547.500000
91.054300 3330.800000
93.070000 6173.700000
95.049200 4813.200000
95.085600 3165.200000
97.007600 663.200000
97.065100 391.700000
101.059800 1699.300000
105.044800 2819.700000
105.070000 8864.800000
107.049100 407.800000
107.085400 5526.100000
109.064900 1367.200000
109.101300 1283.400000
111.023300 1306.900000
111.044000 2922.700000
113.059600 1225.000000
117.069900 2184.200000
119.085600 11841.700000
121.028600 610.000000
121.064900 2362.300000
121.101200 10820.000000
123.080300 1697.800000
127.075500 650.100000
129.070000 560.500000
131.085700 3716.000000
132.080800 579.500000
133.064900 744.700000
133.101200 10107.400000
134.060100 17847.700000
134.096500 4023.700000
135.080500 1979.400000
135.116900 2537.100000
141.070200 316.300000
142.077800 338.700000
143.085600 1488.500000
144.080600 489.400000
145.064600 593.200000
145.088800 406.800000
145.101300 3615.100000
146.060000 1229.600000
147.067900 43427.000000
147.116900 3518.200000
148.075600 3514.300000
149.096100 764.600000
155.059600 334.100000
155.085600 431.500000
157.101100 643.700000
158.072700 301.100000
159.080400 773.800000
159.117000 2427.800000
160.075800 4370.800000
160.112400 491.900000
160.124700 551.900000
161.083600 16698.800000
161.096000 3744.700000
161.132500 7351.300000
162.055100 44784.700000
162.091400 103513.100000
163.111900 1273.200000
170.109100 2112.200000
173.083700 5382.700000
173.096000 776.200000
173.132700 622.500000
174.091400 475.200000
175.111600 494.400000
175.148200 2623.200000
176.070700 2115.400000
176.107100 17245.200000
177.021100 584.100000
186.078200 381.800000
187.111900 2255.700000
188.070600 1394.900000
188.107100 7343.300000
188.119900 1929.900000

>ms2peaks
51.022900 573.700000
53.038600 1984.600000
55.017800 697.400000
55.054300 12690.500000
56.049400 478.500000
57.069900 2447.000000
58.065100 1871.300000
59.049100 1992.100000
60.044300 1630.600000
65.038600 1404.900000
67.054300 4909.800000
69.033500 671.300000
69.069900 4492.600000
77.038300 361.200000
78.046200 343.800000
79.054200 8090.700000
81.033400 420.100000
81.069900 6014.900000
83.049100 5272.400000
83.085500 367.100000
85.065000 407.200000
86.096300 640.600000
87.044000 350.300000
91.054300 8890.200000
93.070000 8791.900000
94.065100 311.300000
95.049200 4858.100000
95.085500 2116.000000
97.007600 2120.500000
99.044000 330.200000
103.054300 2197.700000
105.044800 3033.600000
105.069900 12795.600000
106.065100 2128.800000
107.049100 1488.800000
107.072900 1245.500000
107.085500 5803.900000
109.064900 2161.500000
111.023300 369.600000
111.044100 1443.200000
113.059600 397.000000
115.054300 2148.800000
116.062500 313.200000
117.057200 507.600000
117.069900 3079.200000
119.085600 12559.000000
120.080800 1228.800000
121.028400 1663.500000
121.064900 3936.400000
121.101200 7143.600000
123.080400 499.000000
128.062100 1149.100000
129.069900 2957.800000
130.065100 567.600000
130.077700 728.700000
131.049200 763.400000
131.085600 3625.200000
132.080800 1399.000000
133.064800 1338.600000
133.101200 9833.400000
134.060100 32233.100000
134.096500 5872.100000
135.067700 1349.200000
135.080500 1390.600000
135.116900 1276.300000
141.070200 393.400000
142.078000 594.100000
143.085700 1215.700000
144.081100 683.200000
145.064900 1613.300000
145.088600 1364.800000
145.101300 4053.100000
146.060200 10041.900000
147.067900 71551.800000
148.075800 3331.200000
155.060200 429.800000
155.085800 605.100000
157.101200 382.600000
159.080600 1288.900000
159.117000 630.400000
160.075800 7912.800000
160.112200 581.100000
160.124700 640.400000
161.083600 20371.500000
161.095900 2194.000000
161.132500 3293.300000
162.055100 17595.500000
162.091400 42294.600000
163.112100 341.000000
170.109300 1621.600000
172.075700 1848.700000
173.083600 8054.500000
173.096200 1591.100000
174.091200 450.400000
175.112100 447.700000
175.147900 689.300000
176.070500 1318.300000
176.107200 4584.600000
187.111900 1453.300000
188.107000 3065.400000
188.119800 568.000000

>ms2peaks
51.022800 604.300000
53.002100 1312.500000
53.038600 3645.300000
55.017800 1746.000000
55.054300 13843.600000
56.049400 537.900000
57.069900 1840.300000
58.065000 1748.200000
59.049100 2095.000000
60.044500 2223.900000
63.022900 339.700000
65.038600 5200.500000
67.054200 6176.800000
69.033400 1870.800000
69.069800 2063.800000
77.038500 2537.100000
79.054200 14392.300000
81.033700 357.400000
81.057300 360.600000
81.069900 4588.600000
83.049100 3746.200000
86.096300 615.600000
91.054300 20469.800000
93.070000 9221.100000
94.065100 368.600000
95.049200 7395.400000
95.085500 1995.400000
97.007700 3700.000000
103.054200 4621.300000
104.049500 467.600000
105.044800 5640.600000
105.069900 16728.200000
106.065200 7489.000000
107.049300 2917.900000
107.073000 2345.000000
107.085600 3384.700000
109.065000 550.500000
111.044000 404.000000
115.054200 3096.700000
116.062100 1153.200000
117.057200 776.300000
117.069900 5698.300000
118.065100 2075.600000
119.073100 1232.600000
119.085600 9941.500000
120.080700 671.000000
121.028600 454.700000
121.064900 4582.400000
121.101100 2537.200000
123.080600 341.000000
128.062000 2025.100000
129.070100 3444.100000
130.065300 626.100000
130.077800 1638.400000
131.049000 1381.900000
131.072700 590.800000
131.085500 3154.500000
132.080800 1229.000000
133.052300 1673.900000
133.064800 583.500000
133.101300 7574.600000
134.060100 28968.600000
134.096700 3634.300000
135.067900 312.100000
135.080400 1341.900000
135.116700 554.000000
141.069900 1331.000000
142.077800 1247.000000
143.085700 1390.500000
144.080800 1848.800000
145.064900 1644.000000
145.088600 1263.500000
145.101200 5561.500000
146.060100 27926.400000
147.067900 65294.700000
148.075600 2182.000000
155.060600 515.500000
155.085500 1217.200000
157.101200 378.600000
158.060200 503.300000
159.068300 460.800000
159.080700 573.400000
159.117300 329.400000
160.075800 15267.400000
161.083700 14862.000000
162.055100 5089.900000
162.091400 10892.300000
170.109000 313.200000
172.075800 5205.000000
173.083700 7024.100000
173.096000 1477.600000
176.106800 631.500000
187.112000 407.700000
188.106900 500.200000
203.142600 385.900000

>ms2peaks
50.015100 637.200000
51.023000 3382.400000
53.002200 2371.000000
53.038600 5733.100000
55.017900 2312.200000
55.054300 9288.700000
56.049500 710.700000
58.065100 601.700000
59.049200 726.400000
60.044300 346.300000
65.038600 7444.300000
67.054200 4250.600000
68.013100 481.100000
69.033400 626.200000
69.069900 549.100000
77.038500 4390.700000
78.046400 2492.100000
79.054200 16237.900000
80.049400 591.300000
81.033500 425.400000
81.057300 368.100000
81.069900 1545.700000
83.049300 428.000000
89.038700 1077.900000
90.046600 566.000000
91.054300 29282.100000
92.049500 425.400000
93.070000 3887.600000
94.065200 315.800000
95.049200 15162.800000
97.007700 2836.700000
102.046300 528.200000
103.054300 8526.300000
104.049400 1468.600000
105.044800 10004.800000
105.069900 10956.200000
106.065200 6142.400000
107.049100 1778.100000
107.072700 449.000000
107.085500 481.600000
111.023400 371.600000
115.054300 10148.800000
116.049500 391.300000
116.061900 1491.800000
117.057400 3547.700000
117.069900 4970.300000
118.065200 9498.500000
119.049100 333.400000
119.073000 2180.500000
119.085700 2566.300000
121.064800 1845.500000
121.101200 310.800000
127.054300 475.100000
128.049400 513.900000
128.062000 5164.600000
129.070000 3713.100000
130.065200 2598.500000
130.077800 1807.900000
131.049300 2225.900000
131.072900 520.800000
131.085500 1910.700000
132.044300 1209.900000
132.080900 3017.400000
133.052300 1927.400000
134.060000 8519.000000
141.070000 753.900000
142.077900 368.900000
143.072600 329.700000
143.085700 515.100000
144.044500 495.600000
144.080600 2831.500000
145.052000 465.600000
145.064700 1280.900000
145.101300 638.800000
146.060100 45232.700000
147.067900 16572.100000
153.070000 622.600000
154.065400 426.000000
155.060500 1854.200000
155.085600 494.100000
158.060000 612.800000
158.072700 402.500000
160.075700 20002.800000
161.083600 2100.500000
172.075600 4926.200000
173.083800 465.300000

>ms2peaks
50.015100 2114.200000
51.023000 8645.100000
52.030800 373.600000
53.002200 3771.900000
53.038600 9855.600000
55.017800 1232.800000
55.054300 3712.500000
63.022900 1648.000000
65.038600 14830.200000
66.046500 896.200000
67.041600 439.100000
67.054200 1967.200000
68.013100 518.500000
75.022900 614.700000
77.038500 5578.300000
78.033900 585.900000
78.046400 3626.400000
79.054200 10841.700000
80.049400 2088.300000
81.033400 641.300000
81.057300 458.700000
81.069700 346.000000
89.038700 3976.400000
90.046600 522.800000
91.054300 35727.600000
92.049500 347.600000
93.070100 643.500000
94.065400 422.200000
95.049200 18443.300000
96.044400 686.500000
97.007600 3131.300000
102.046600 603.500000
103.054200 7399.500000
104.049500 3257.600000
105.044800 12319.800000
105.069900 4392.700000
106.065200 2787.900000
107.049100 1233.400000
115.054300 14752.400000
116.049600 1368.400000
116.062200 1396.000000
117.057400 11952.600000
117.069900 2483.800000
118.065200 12928.200000
119.049100 372.600000
127.054200 479.200000
128.049500 1674.600000
128.062100 8000.800000
129.069900 2987.300000
130.065100 2304.700000
131.049200 1651.000000
131.073200 507.700000
131.085400 341.300000
132.044500 699.100000
132.080900 1983.500000
133.052100 1304.600000
134.059900 1861.200000
141.070000 733.000000
143.073100 513.000000
144.044200 492.000000
144.080900 1400.000000
145.052400 1582.200000
145.064900 740.400000
146.060100 23790.900000
147.067800 2255.100000
153.070300 430.900000
154.065500 484.100000
155.060300 1476.800000
159.068200 1209.000000
160.075800 7413.600000
172.075600 698.900000

>ms2peaks
50.015100 4180.400000
51.023000 14352.900000
52.030800 548.500000
53.002200 3926.800000
53.038600 6453.200000
55.017800 1293.400000
55.054200 1249.800000
63.022900 2743.200000
65.038600 18025.100000
66.046400 1203.000000
67.041600 525.700000
67.054200 430.700000
68.013100 1222.900000
75.022800 1611.800000
77.038600 5309.700000
78.033800 560.800000
78.046400 3719.800000
79.054200 4418.800000
80.049400 685.400000
81.033500 614.400000
81.057300 396.500000
89.038600 7638.700000
90.046500 2715.900000
91.054300 22856.200000
92.049400 331.500000
93.069600 307.600000
95.049200 13707.000000
96.044400 1337.900000
97.007700 3040.600000
102.046500 2520.500000
103.054200 3837.400000
104.049500 2275.000000
105.044800 8830.400000
105.069800 1838.200000
106.065000 342.800000
115.054300 11662.300000
116.049400 674.900000
116.062200 560.100000
117.057300 12671.000000
118.065100 5491.700000
127.054200 552.700000
128.049400 1200.200000
128.062100 5919.100000
129.069900 657.700000
130.065300 1433.500000
131.073100 358.500000
132.044300 401.900000
133.052200 411.200000
134.060200 372.600000
141.070100 346.600000
143.072800 381.800000
144.044500 396.500000
145.052200 413.800000
145.064900 498.900000
146.060100 5847.500000
155.060300 1244.200000
160.075600 548.600000

