>compound EQ16540160
>parentmass 445.1605
>ionization [M+H]+
>formula C22H24N2O8
>rt 384.000000
>profile orbitrap
#smiles_iso CC1C2C(C3C(C(=O)C(=C(C3(C(=O)C2=C(C4=C1C=CC=C4O)O)O)O)C(=O)N)N(C)C)O
#smiles_can CC1C2C(C3C(C(=O)C(=C(C3(C(=O)C2=C(C4=C1C=CC=C4O)O)O)O)C(=O)N)N(C)C)O
#inchikey SGKRLCUYIXIAHR-UHFFFAOYSA-N
#pubchem_id 54681536
#mb_accession EQ367801,EQ367802,EQ367803,EQ367804,EQ367805,EQ367806,EQ367807,EQ367808,EQ367809

>ms2peaks
359.027700 91614.000000
392.111000 47569.900000
428.133700 37641316.000000
445.160100 35500816.000000
460.159500 222940.300000

>ms2peaks
58.065100 166239.800000
72.044300 48130.000000
84.044300 139341.500000
98.060000 236582.600000
100.075600 77757.400000
126.055000 582302.100000
144.065500 56666.500000
154.049800 2428801.200000
175.075500 65757.400000
182.044600 121015.800000
192.065400 104155.100000
201.054300 175335.100000
210.076200 180061.300000
241.086000 95794.500000
253.085600 90025.200000
257.081000 93953.200000
267.065100 578966.300000
269.080800 533523.400000
279.065000 86745.500000
281.080600 50941.000000
283.060300 94291.900000
285.075800 100812.200000
287.091300 58632.100000
293.080800 523014.800000
295.096200 113897.900000
296.127800 143876.600000
297.075800 122063.800000
303.064900 68988.700000
309.075600 63228.000000
311.091800 86366.100000
314.137600 74413.500000
319.060300 104459.100000
321.075700 1699341.000000
336.123200 53555.700000
337.070400 371329.500000
339.086300 2209655.200000
347.055200 125517.200000
348.121900 63710.400000
349.070800 537399.600000
355.082200 82054.900000
359.027900 67700.500000
364.117700 229313.600000
365.065600 285668.500000
366.133800 113396.400000
367.081400 283039.200000
382.128500 354899.100000
383.076300 207738.100000
384.144500 86071.400000
392.112700 949236.600000
400.139500 168495.200000
410.123400 6530631.000000
428.133700 46960876.000000
445.160900 174650.300000
460.160000 260434.500000

>ms2peaks
55.017800 140043.100000
56.049500 83862.100000
58.065100 1171098.600000
68.049400 8372.100000
68.997000 25728.200000
70.065100 88095.700000
72.044400 257500.900000
72.080700 36701.300000
74.059900 30848.400000
81.033500 13144.800000
82.065100 27599.500000
83.012700 28649.600000
84.044400 531510.600000
84.080700 27787.600000
85.028300 13849.200000
85.052100 8154.700000
86.060000 80782.500000
94.065000 8303.300000
95.012800 75633.400000
97.028500 7240.700000
98.060100 2985678.200000
99.007700 30102.200000
100.075700 321546.100000
108.044300 26368.700000
109.028500 30651.000000
110.060200 32316.200000
111.007600 39973.800000
111.044000 9787.000000
112.075600 8700.300000
114.055000 102124.800000
115.054000 8903.600000
121.028500 40079.800000
121.064800 56956.300000
123.007600 33729.300000
123.044300 7022.200000
124.039400 159463.600000
124.075800 8079.500000
125.023300 7931.100000
126.055000 1790935.800000
127.002600 32470.700000
128.070700 46111.600000
131.049100 24081.100000
135.007400 6709.300000
136.075700 36439.300000
137.023300 152833.900000
139.026600 54560.500000
139.039100 39020.800000
140.070400 13653.600000
142.049900 40811.900000
144.065500 116769.000000
145.065000 90395.400000
147.044000 43786.400000
147.080500 100560.400000
149.023400 47417.900000
149.044500 8142.900000
149.060200 44593.500000
152.034300 118792.900000
152.070900 50955.200000
153.018200 75340.600000
154.049900 4267560.000000
155.034100 11669.800000
157.036900 11460.100000
157.065000 14814.200000
158.072900 33390.400000
159.044100 41570.600000
159.080700 49502.400000
160.052000 9791.600000
161.059700 64907.100000
163.002600 34294.700000
163.039100 7570.500000
163.062800 11492.600000
164.070600 100413.400000
165.018300 310433.200000
166.049800 10523.200000
166.086500 30725.200000
167.034000 79871.900000
167.055700 13710.400000
168.065500 25612.900000
170.044800 75650.400000
170.081000 14778.800000
171.080600 25420.300000
172.060300 89697.400000
173.059800 210969.900000
174.067500 155977.200000
175.075400 775488.300000
177.018500 8098.800000
178.050000 77754.500000
178.997400 13421.900000
179.033800 14706.600000
179.085200 9557.400000
180.065600 109097.700000
181.013200 41980.600000
181.036500 6618.900000
182.044800 103480.400000
182.081300 265744.800000
183.028800 29628.400000
183.080500 11872.100000
184.051100 6359.700000
185.059900 49190.100000
185.096200 11741.000000
187.039200 57303.800000
187.075400 459398.300000
190.049800 26047.400000
190.997600 23666.500000
191.034300 12731.200000
192.065600 269019.100000
193.013300 40985.300000
194.044800 13384.900000
195.080500 154776.000000
196.060600 77794.800000
197.059900 31494.900000
197.096000 70037.300000
198.067300 27988.300000
198.075600 16634.600000
199.075400 153505.100000
201.054700 2179866.800000
203.033700 7482.000000
203.070300 101792.100000
204.066200 10870.400000
205.049600 35894.700000
206.044900 10521.900000
207.080500 36735.400000
208.060600 111127.000000
209.008200 35018.200000
209.096500 25766.400000
210.067600 26506.000000
210.076200 335145.200000
211.075400 192117.000000
212.083300 12198.600000
213.054800 138791.900000
213.091100 443260.500000
214.061700 6684.400000
215.070400 72424.200000
217.012900 11409.600000
219.029300 28480.700000
219.065300 436724.900000
219.080900 27088.000000
221.060100 8549.600000
221.071000 8397.800000
221.095900 22389.600000
222.076700 11423.400000
223.075500 307162.900000
224.083400 7292.300000
225.091200 315337.000000
226.062200 180534.700000
227.070400 233266.100000
229.049700 51104.000000
229.085900 66663.200000
231.065200 94379.900000
231.080900 14416.000000
232.060800 47694.200000
233.080400 20819.300000
235.075500 174668.800000
236.055700 56650.400000
237.054300 74165.700000
237.091200 136909.300000
238.062300 13094.700000
239.070300 652108.400000
240.078300 103059.100000
241.086000 1117712.000000
242.057200 112484.000000
243.065200 53220.600000
243.101600 123805.700000
247.075300 98534.100000
249.054300 64432.300000
249.091000 109546.000000
251.070500 397913.800000
252.041800 359782.300000
253.086000 853575.600000
254.057100 23691.900000
255.065200 352911.300000
257.080900 412635.100000
259.075400 35609.000000
259.096600 33286.500000
261.054900 28544.400000
263.070400 150438.500000
264.078300 25922.400000
265.049700 26589.200000
265.086000 427667.100000
266.057700 30761.200000
267.065300 3988541.800000
268.036800 52623.500000
268.069600 9550.500000
268.133600 49992.000000
269.080900 1894898.600000
271.060500 37614.100000
273.054700 12101.900000
275.070300 222204.600000
277.086000 236103.200000
278.057500 339649.200000
279.065200 492010.100000
280.073100 63650.100000
281.081000 343864.600000
281.104000 87415.500000
282.052300 9403.700000
282.112600 6424.100000
283.060200 216021.400000
283.096000 57872.200000
285.075900 696219.100000
286.143900 30002.200000
287.091500 93527.900000
289.050100 9211.600000
290.057800 20664.100000
291.065200 317743.500000
292.073400 38844.400000
293.080900 1812264.900000
294.052000 31831.400000
294.112700 130703.500000
295.060800 65678.600000
295.096400 268354.200000
296.128200 420722.700000
297.075700 319206.300000
298.106400 10880.800000
299.091700 46080.200000
301.049300 10258.000000
303.065300 563863.600000
305.080600 55113.500000
305.104400 26030.500000
306.052300 405363.000000
307.060000 24392.000000
307.097400 28121.400000
308.068100 44267.400000
308.128300 65493.900000
309.075900 268037.800000
311.091400 245559.900000
314.138800 164109.900000
315.086800 31712.200000
318.112300 81674.100000
319.060200 503007.300000
320.128800 64416.900000
321.075800 5259584.500000
322.047600 64822.700000
323.092100 39618.700000
324.063400 10444.400000
324.122800 29570.900000
331.060400 56900.200000
332.149400 102460.100000
334.047100 572781.000000
336.123000 216104.200000
337.070700 616689.600000
338.138400 51726.200000
339.086400 2205119.500000
347.055100 223624.100000
348.123400 57534.900000
349.070900 1197993.500000
349.094200 100506.900000
350.042300 37943.200000
352.058400 36073.900000
354.133200 51684.600000
355.081600 59716.200000
364.117800 312535.500000
365.065800 185256.400000
366.133800 40667.400000
367.081400 875356.400000
374.101900 55625.200000
377.089400 48289.000000
382.128600 164282.800000
383.075800 65009.000000
384.143800 15176.200000
392.112900 409160.800000
400.139800 56645.900000
410.123500 1115014.000000
428.134000 1987223.200000

>ms2peaks
53.002200 13957.800000
53.038600 11165.400000
55.017900 273157.700000
56.049500 167584.400000
57.033500 6816.600000
57.057300 9210.500000
58.065100 1818115.000000
65.038500 14376.600000
67.017800 39187.900000
68.049400 86159.000000
68.997100 132889.300000
69.033600 50861.400000
70.065100 375122.200000
71.012700 5451.800000
71.036600 5439.300000
71.072900 9558.100000
72.044400 304787.700000
72.080700 57661.800000
74.060000 38993.300000
77.038300 8350.300000
79.017800 14002.100000
80.049500 13790.000000
81.033500 71084.600000
81.057300 6483.200000
82.065100 108048.200000
83.012700 173820.200000
83.036600 10468.400000
84.044400 511303.500000
84.080800 109967.000000
85.028400 38265.200000
85.052200 10668.500000
86.060100 125985.900000
91.054200 36274.300000
93.033500 25548.500000
93.070000 10250.200000
94.065200 59376.600000
95.012800 178972.600000
96.044400 29019.700000
96.080800 13590.100000
97.028500 44152.800000
97.052200 9004.900000
98.060100 5088780.000000
99.007600 99852.700000
100.075700 253156.600000
103.054300 13623.000000
105.069800 8577.900000
107.012700 39180.800000
107.049200 50985.600000
108.044400 42962.100000
108.080800 26044.700000
109.028400 88987.300000
110.060100 55284.600000
111.007700 112856.300000
111.044100 14485.200000
112.075600 42067.700000
114.055000 40167.500000
115.054000 44459.700000
117.069700 91447.400000
118.065200 7647.500000
119.012900 8134.900000
119.049400 25910.500000
119.085600 13061.700000
121.028400 137424.200000
121.064800 117630.200000
122.060100 35953.400000
123.007600 104591.700000
123.044100 10593.200000
124.039300 188796.500000
124.075700 32466.400000
125.023400 52445.000000
126.055000 829377.500000
127.002600 37711.800000
127.054400 26683.600000
128.062000 23253.000000
128.070500 34431.900000
129.069700 85674.600000
131.049100 115179.500000
131.085700 36636.200000
133.028300 22988.600000
133.065000 56386.900000
134.060000 12438.000000
135.007600 29429.100000
136.075800 92734.400000
137.023300 301859.500000
138.055300 30183.400000
139.026300 52650.600000
139.038800 64485.100000
139.054100 9248.000000
140.070600 25741.300000
141.069900 36285.300000
142.049900 23349.700000
143.085500 13639.100000
144.056900 24417.900000
144.065800 8122.400000
145.064800 824545.200000
147.007700 28515.100000
147.044100 77689.100000
147.080500 267649.100000
148.052100 8353.800000
149.023400 80761.000000
149.059700 95307.500000
150.055000 26220.600000
151.002900 10018.900000
151.039000 27802.400000
152.034200 93369.800000
152.061700 10725.600000
152.070500 46747.100000
153.018200 124793.300000
153.070000 15569.900000
154.049900 952614.600000
155.033800 12443.700000
155.049000 29668.500000
155.060400 90237.400000
155.085300 25350.900000
157.037000 36367.800000
157.064900 187272.900000
157.101400 12189.100000
158.072600 47587.200000
159.044000 71928.500000
159.080500 195140.400000
160.051900 98784.100000
161.023500 41129.400000
161.059800 79871.900000
162.055300 14671.800000
163.002500 73313.700000
163.039000 28331.900000
163.062700 14344.200000
164.070700 97767.400000
165.018300 344162.100000
165.070000 49151.700000
166.050000 15103.800000
166.077600 8492.500000
166.086100 8004.100000
167.034100 64352.600000
167.085800 90733.600000
168.056800 34370.000000
169.064800 58883.500000
169.101200 24708.900000
170.044800 28085.800000
170.072800 14992.500000
171.080500 220173.300000
172.060400 22731.200000
173.023300 26529.400000
173.059800 436464.700000
174.067600 273015.600000
175.075400 807030.800000
177.018200 6381.200000
177.069800 50889.300000
178.049900 32019.100000
178.077800 54300.200000
178.997400 13343.300000
179.034100 35825.300000
179.085500 155555.400000
180.057800 12510.900000
180.065500 73610.200000
181.013200 61620.000000
181.037000 12069.300000
181.065000 70151.700000
181.101300 29289.800000
182.044400 12337.600000
182.072700 52041.500000
182.081200 120804.700000
183.029100 49261.100000
183.080600 134263.000000
185.059700 150726.200000
185.096100 158843.200000
186.067700 25995.400000
187.075400 982245.200000
189.018300 27672.900000
189.054600 14260.600000
189.070100 14481.200000
190.050000 31658.100000
190.077600 14173.500000
190.998000 7051.900000
191.033900 36187.500000
191.085700 73257.600000
192.065300 59726.800000
193.013400 53240.000000
193.065100 52434.300000
193.101400 13081.000000
194.044700 9063.100000
194.072700 61504.800000
195.080500 622395.900000
196.052200 48357.400000
196.060200 12489.600000
197.059900 91996.900000
197.096100 187262.300000
198.067600 215847.000000
199.075400 478590.800000
200.046700 12631.300000
201.054700 3556062.200000
202.078000 6512.500000
203.034200 8824.800000
203.070300 42900.100000
203.085800 24092.600000
204.065500 30339.400000
205.049400 36024.900000
205.065400 48533.300000
206.044400 6328.100000
206.072600 31346.400000
207.080600 207655.800000
208.051600 26117.200000
208.060700 33991.200000
209.008400 12451.200000
209.059700 69959.000000
209.096300 108246.300000
210.067600 148413.900000
210.076500 32138.300000
211.075400 1006478.500000
212.047000 37246.900000
212.083100 31298.700000
213.054900 158869.200000
213.091000 660978.400000
214.062600 8183.200000
215.070000 84037.000000
217.013500 8191.000000
217.049600 10244.700000
217.065500 47112.600000
218.072400 8200.900000
219.028900 81403.900000
219.065300 197736.600000
219.080600 176164.600000
220.051600 9272.800000
221.059800 152084.300000
221.070400 10397.600000
221.096200 45582.200000
222.067400 76152.700000
222.076400 6931.900000
223.075400 670654.100000
224.046900 197722.800000
224.083200 36908.200000
225.054200 85201.400000
225.091100 509780.900000
226.062500 884344.900000
227.070400 404190.800000
229.050100 59904.300000
229.063700 7251.000000
229.085800 55991.400000
231.065400 27565.800000
231.080300 53206.400000
232.060700 34701.300000
233.059600 48805.100000
233.080900 7499.000000
234.067700 71730.200000
235.075400 391721.100000
236.047000 59238.100000
236.083300 27149.100000
237.054900 89868.000000
237.091100 328657.500000
238.062500 233531.900000
239.070300 1328977.800000
240.041600 28122.800000
240.078200 214201.600000
241.086000 1430456.800000
242.057400 351965.400000
243.065400 49273.900000
243.101800 59905.600000
245.059900 14277.100000
246.067700 7383.200000
247.075600 298105.300000
248.046800 23112.500000
248.082900 23250.200000
249.054700 207810.200000
249.090900 133285.800000
250.062400 410411.100000
251.070300 532643.400000
252.041800 2261612.500000
253.049600 51050.600000
253.085900 630540.200000
254.057500 202789.200000
255.065300 237363.500000
257.059700 11676.100000
257.080900 175212.500000
259.075300 45997.700000
259.096400 10329.500000
260.046500 27252.200000
261.054800 55928.000000
262.062600 80252.800000
263.070400 353140.300000
264.078000 42715.000000
265.049300 38349.100000
265.086000 538611.100000
266.057600 63191.300000
267.065200 3317289.800000
268.036800 110508.300000
268.072300 10136.100000
268.133200 54225.200000
269.080900 782924.500000
270.052500 107304.500000
271.060000 74651.600000
273.054400 48683.000000
275.070200 293681.100000
276.040900 51122.300000
277.049600 34671.400000
277.085800 149023.800000
278.057400 654600.800000
279.065200 329096.500000
279.089400 24330.300000
280.073100 91398.000000
280.096200 23646.200000
281.081100 171115.800000
281.104500 172494.600000
282.051900 48622.100000
282.112200 7841.900000
283.059800 64590.200000
283.096600 36013.600000
284.068400 11080.400000
285.075800 615819.800000
286.144000 7219.200000
287.092800 10159.600000
289.050200 9451.700000
290.057600 55724.700000
291.065200 282823.700000
292.072900 51254.800000
292.097400 8832.500000
293.080800 1052085.500000
294.052400 101666.600000
294.112500 53162.200000
295.060200 43935.700000
295.095700 12127.900000
296.128300 101484.400000
297.075400 45773.400000
298.107500 32837.500000
299.091900 44123.800000
301.049600 8997.200000
303.065300 325781.600000
304.036100 28225.200000
305.044300 24561.100000
305.080500 12058.800000
305.104700 33105.200000
306.052400 781693.500000
307.059900 31768.300000
308.067500 33120.100000
308.127700 25473.200000
309.075900 63984.000000
311.091000 46667.600000
314.138400 14081.400000
315.087300 8174.600000
318.112400 14926.200000
319.059900 161093.200000
321.075800 882446.600000
321.098400 70371.200000
322.046900 66856.500000
324.063100 7546.300000
331.059500 32561.300000
334.047200 739112.100000
336.122900 29104.600000
337.070900 102303.300000
339.086000 87324.100000
347.054900 32448.800000
349.070200 137589.500000
349.093700 30223.600000
350.041800 31211.400000
352.057000 35504.800000
364.117900 11819.100000
367.081600 94773.400000
377.088000 9052.600000

>ms2peaks
50.015100 7702.900000
51.022900 10727.700000
53.002200 33505.200000
53.038600 51430.600000
54.033900 6815.900000
55.017900 407978.300000
55.041700 21024.100000
56.049500 255701.900000
57.033600 7678.600000
57.057400 25444.400000
58.065100 1614360.400000
63.022800 8306.500000
65.038500 61122.900000
67.017800 78857.300000
67.054200 12473.600000
68.049500 153613.900000
68.997100 271109.500000
69.033500 70060.300000
70.065100 718164.000000
71.036500 30989.600000
71.072800 7371.400000
72.044400 276143.100000
72.080800 71189.200000
74.060000 55000.900000
75.022800 6236.800000
77.038400 10412.400000
79.017800 73113.200000
79.054200 12647.500000
80.049400 62891.200000
81.033500 105748.300000
81.057100 9657.000000
82.065100 153256.800000
83.012700 316711.400000
83.036600 38975.000000
84.044400 272204.700000
84.080800 119994.300000
85.028400 36710.200000
86.060000 100565.800000
89.038600 9170.100000
91.054300 173069.500000
93.033600 27599.400000
93.057600 6449.900000
93.069900 13991.200000
94.065200 73084.800000
95.012700 209021.000000
95.049100 14508.700000
96.044400 48867.800000
96.080800 32540.400000
97.028400 72419.300000
97.052400 30744.700000
98.060100 3847441.200000
99.007600 60212.700000
100.075700 130374.800000
103.054200 120825.200000
105.033600 28380.200000
105.044700 11146.200000
105.070000 60055.200000
106.065100 27572.100000
107.012700 102746.000000
107.049100 105082.400000
108.044400 32805.100000
108.080700 42148.900000
109.028500 158752.100000
110.060000 54287.700000
111.007600 116653.500000
111.044100 31563.200000
112.075700 40162.800000
114.055100 8953.500000
115.054200 325229.700000
116.062000 30727.400000
117.069900 424148.300000
118.065100 8802.900000
119.012800 28112.400000
119.049200 75852.200000
119.085500 62091.700000
121.028400 229375.400000
121.064800 128789.100000
122.060100 25548.400000
123.007700 101912.900000
123.044000 29250.800000
124.015600 12111.100000
124.039400 117299.600000
124.075800 29618.600000
125.023500 38549.400000
125.046900 6947.400000
126.054900 175658.000000
127.002700 24741.200000
127.054300 226346.400000
128.062000 125200.700000
128.070800 8812.200000
129.069900 257880.300000
131.049200 196109.400000
131.085500 121729.900000
132.057000 42875.800000
133.028500 12076.400000
133.064800 52701.200000
134.059900 32268.200000
135.007600 37476.400000
135.044200 9974.700000
136.075800 51649.300000
137.023300 262928.900000
138.055000 13447.600000
139.026500 56957.200000
139.039000 52574.100000
139.053900 25390.500000
140.061900 10334.600000
140.070900 23583.400000
141.069900 194966.200000
142.049800 7301.900000
142.077600 52052.300000
143.049300 13794.800000
143.085500 81555.100000
144.057100 165983.500000
145.064800 1862100.500000
147.044100 92331.900000
147.080500 308712.200000
148.052100 5420.400000
149.023400 56758.200000
149.059800 47283.200000
150.054900 14416.200000
151.002600 6791.700000
151.039000 29276.900000
151.054100 7035.600000
152.034200 35018.800000
152.062000 219152.900000
152.070900 12831.600000
153.018100 66984.800000
153.069800 139204.000000
154.049800 104059.700000
154.077700 29818.400000
155.060400 483926.600000
155.085500 166975.200000
156.056900 62222.000000
157.037000 28050.100000
157.064800 356962.800000
157.101400 37282.500000
158.072700 37033.100000
159.044000 51891.600000
159.080500 291209.200000
160.051900 224780.500000
161.023100 54100.300000
161.059900 68643.000000
162.054800 10332.800000
163.002500 25803.300000
163.038900 39945.500000
163.055000 6510.400000
163.062400 13842.500000
164.061700 11057.800000
164.070600 38626.500000
165.018300 240646.900000
165.069900 546733.900000
166.049900 57881.500000
166.077800 106156.700000
167.085500 399424.500000
168.057000 496254.000000
169.064900 178856.800000
169.076300 41496.100000
169.101300 27929.400000
170.072800 81416.200000
171.043900 29846.900000
171.080400 451072.800000
172.052100 38454.200000
173.023600 38120.200000
173.059800 323019.800000
174.067600 259103.300000
175.075400 373099.900000
176.062200 62471.200000
177.069900 196781.800000
178.077800 241651.600000
179.085500 319256.000000
180.057200 92089.600000
180.064900 14105.500000
181.013100 31761.100000
181.064800 254481.200000
181.101400 30185.600000
182.072800 180635.600000
182.080700 21450.800000
183.028900 30853.600000
183.055400 39706.900000
183.080500 385106.000000
184.051700 101857.600000
185.059800 122092.900000
185.071100 32958.400000
185.096200 242051.900000
186.031100 43346.900000
186.067600 31796.400000
187.038900 62858.600000
187.075400 728154.700000
189.018200 23442.100000
189.054900 12236.000000
189.069900 135917.400000
190.077600 102571.000000
191.034100 36578.600000
191.085500 203607.900000
192.056900 33376.500000
193.013600 24374.900000
193.065000 179682.000000
193.075900 26481.200000
193.101300 23484.700000
194.072700 252337.600000
195.080500 976760.500000
196.052000 587598.100000
197.059800 238453.000000
197.096100 124216.300000
198.067500 469974.000000
199.038500 25217.500000
199.075400 363377.600000
200.046400 47334.200000
201.054700 2389452.800000
202.077600 61911.300000
203.070800 20569.600000
203.085700 38997.100000
204.057100 32543.700000
205.049800 24511.800000
205.064900 130758.900000
206.072900 68162.900000
207.080600 277107.600000
208.052200 94207.100000
208.088300 12184.400000
209.059700 77491.500000
209.096300 142266.700000
210.067600 343562.200000
211.039100 202254.000000
211.075400 1589285.500000
212.046800 80082.400000
212.083400 61094.800000
213.054600 152845.700000
213.091000 299962.100000
214.062600 12517.200000
215.070100 32152.100000
217.049600 9232.300000
217.065000 53843.600000
218.072700 70432.400000
219.028900 44435.900000
219.065100 35138.700000
219.080500 305781.200000
220.052200 68953.300000
221.059900 382238.100000
221.095600 44839.100000
222.067500 259419.000000
223.075500 561882.400000
224.046900 933485.900000
224.082900 60204.300000
225.054600 107172.300000
225.091100 245117.100000
226.062500 1353622.600000
227.070400 230594.300000
229.050100 24798.900000
229.065400 9176.900000
229.075900 12626.900000
229.085800 11637.500000
231.065400 8100.100000
231.080600 36342.800000
232.051900 38165.500000
233.060000 78857.400000
234.067700 146032.400000
234.090900 12588.700000
235.075300 376248.300000
236.046800 75322.700000
236.082900 33055.400000
237.054600 122297.900000
237.091000 202217.100000
238.062500 429675.400000
239.070300 816547.500000
240.041800 53827.600000
240.078100 129617.900000
241.086000 580232.400000
242.057300 294763.600000
243.065400 10232.500000
243.101600 33149.700000
245.060100 37432.200000
246.068000 13998.900000
247.075300 258553.100000
248.046800 46284.200000
248.082500 24681.900000
249.054600 148985.600000
249.090700 46789.500000
250.062500 726566.300000
251.070400 313347.200000
252.041800 2378504.200000
253.049000 15131.100000
253.085800 165906.200000
254.057300 169730.100000
255.065000 48182.000000
257.059500 7100.100000
257.080700 33563.400000
259.075200 47435.000000
260.046700 24458.800000
261.054200 26757.500000
262.062200 86368.100000
262.086100 22845.200000
263.070500 209307.400000
263.093300 13901.400000
264.042000 28733.200000
264.077900 49320.900000
265.049300 34149.100000
265.086000 160489.300000
266.057700 83675.100000
267.065200 743697.500000
268.036500 39519.700000
268.073200 11535.300000
269.081100 94355.800000
270.052400 158357.400000
271.060200 13930.200000
273.053700 13071.700000
275.070400 153389.000000
276.041700 67970.000000
277.049600 34230.200000
277.085800 42414.200000
278.057500 442979.400000
279.065200 85869.500000
279.088600 14497.800000
280.072500 12953.900000
280.097000 27085.500000
281.080700 14076.100000
281.104400 48968.700000
282.051900 8214.700000
283.061200 7985.800000
284.067900 9435.500000
285.075700 140225.700000
288.065100 6916.600000
289.050900 7027.800000
290.056500 13836.100000
291.065200 94445.800000
292.072500 14693.700000
292.096500 12231.900000
293.080800 182857.800000
294.052000 47020.700000
294.112000 8946.300000
295.059700 10633.100000
298.107800 8211.900000
303.065000 65814.500000
304.036600 23832.600000
305.043600 13212.300000
306.052300 300799.000000
308.068200 7355.400000
319.060400 26084.000000
321.075400 34102.400000
321.099900 13511.500000
322.047000 23545.700000
334.047100 202032.300000

>ms2peaks
50.015100 10705.700000
51.022900 30142.500000
53.002200 57190.900000
53.038600 114536.300000
54.033800 24414.200000
55.017800 488917.400000
55.041700 49275.200000
56.049500 225818.600000
57.033500 13538.200000
57.057300 30485.700000
58.065100 1478945.000000
63.022800 21363.900000
65.038600 159816.200000
67.017800 92191.100000
67.041700 25068.900000
67.054200 24267.600000
68.049500 170092.200000
68.997100 461693.500000
69.033500 87915.500000
70.065100 831041.200000
71.012700 14699.900000
71.036500 46499.900000
71.072900 13480.600000
72.044400 230545.100000
72.080700 77869.300000
74.060000 14230.400000
77.038500 47595.800000
79.017800 142217.000000
79.054200 55057.700000
80.049400 85915.000000
81.033500 188806.500000
81.057300 36818.300000
82.065100 172415.900000
83.012700 271925.000000
83.036500 53103.700000
84.044400 152321.100000
84.080800 117697.800000
85.028500 13289.400000
86.060000 58668.000000
89.038500 34454.600000
91.054200 565827.900000
92.049600 5945.000000
93.033600 39259.000000
93.057300 9993.200000
93.070000 34446.200000
94.041300 8640.000000
94.065100 93224.400000
95.012700 202217.000000
95.049200 110728.000000
96.044400 35969.400000
96.080800 25410.400000
97.028400 61696.000000
97.052200 11282.700000
98.060000 2139517.000000
99.007600 12708.900000
100.075600 52206.300000
102.046300 13787.400000
103.054200 261912.600000
105.033500 63438.100000
105.044700 65265.100000
105.069800 75534.000000
106.065100 34525.400000
107.012700 102472.000000
107.049100 144198.400000
108.044200 48830.400000
108.080700 28835.400000
109.028400 130931.900000
110.060000 33474.500000
111.007700 106301.200000
111.044000 24008.600000
112.075500 11698.800000
114.046400 10939.400000
115.054200 1021262.000000
116.062000 108018.300000
117.069800 664471.800000
118.065100 26918.000000
119.012800 55000.600000
119.049000 108519.400000
119.085600 85073.700000
121.028400 179364.900000
121.039800 26206.200000
121.064800 74851.600000
122.060100 33526.600000
123.007700 57302.300000
123.043900 25891.900000
124.015600 13968.000000
124.039400 74784.600000
124.075900 14652.200000
125.023300 44186.400000
125.047200 7781.400000
126.046400 29034.800000
126.054900 46198.300000
127.054200 882519.900000
128.062000 510894.500000
129.069800 495784.600000
131.049100 264270.500000
131.085500 137040.500000
132.057000 80909.500000
133.028400 34093.900000
133.064600 45398.600000
134.060000 26820.100000
135.007600 40164.300000
135.044000 11534.500000
136.075800 11893.700000
137.023300 138572.000000
138.055100 8310.400000
139.026500 12361.000000
139.039000 14594.900000
139.054200 92086.000000
140.062000 178595.000000
141.069900 415309.700000
142.077700 80867.800000
143.049200 35064.400000
143.085600 158496.900000
144.057000 425901.100000
145.064800 2140446.500000
147.007400 23517.600000
147.043900 70369.100000
147.080400 194807.100000
148.051700 7128.700000
149.023300 40982.400000
149.059900 9772.000000
150.055000 10855.200000
151.039100 13393.400000
151.054000 44539.800000
152.062000 851547.400000
153.018300 39538.000000
153.069900 484601.300000
154.049400 7499.800000
154.077700 93810.700000
155.049800 158519.000000
155.060300 947141.000000
155.085500 302205.000000
156.057000 121882.000000
157.064800 445051.300000
157.101300 34733.200000
158.072700 57543.600000
159.043900 34077.600000
159.080500 282759.800000
160.051900 387484.100000
161.023300 35933.900000
161.059800 31336.600000
162.055200 6720.200000
163.039000 31306.500000
163.054100 30170.200000
164.062000 78826.900000
165.018300 135488.600000
165.069900 1669365.600000
166.049800 37737.400000
166.077700 266014.100000
167.085500 438071.700000
168.057000 2227750.500000
169.064900 316287.800000
169.075700 84461.900000
170.072600 196103.500000
171.043900 35973.900000
171.080400 385515.500000
172.051800 105012.500000
173.023400 28111.000000
173.059700 249967.500000
174.067600 171203.300000
175.075500 119043.400000
176.062100 291702.800000
177.069900 339713.600000
178.077700 544989.300000
179.060200 38956.300000
179.085500 320990.800000
180.057000 326549.200000
181.064800 555221.300000
182.072600 338079.000000
183.055400 57407.700000
183.080400 339436.100000
184.051800 223008.200000
185.059600 94380.800000
185.071000 24237.600000
185.096100 90400.900000
186.031100 33948.800000
186.067600 54664.900000
187.039100 70518.800000
187.075400 343636.000000
188.062500 9476.800000
189.069800 355465.800000
190.077600 162576.800000
191.033900 12508.900000
191.085400 180091.100000
192.057000 135832.800000
193.064900 242598.800000
193.075900 33814.800000
194.072700 376441.900000
195.080500 699886.900000
196.051900 1165424.500000
197.059800 482412.600000
197.095900 31608.600000
198.067500 526975.600000
199.038800 13261.300000
199.075200 108166.300000
200.046800 81857.900000
200.061800 13751.600000
201.054600 852451.300000
202.077500 119776.400000
203.070600 6485.400000
203.085500 27314.500000
204.057100 113909.400000
205.049600 26600.500000
205.064900 228391.400000
206.072800 113536.400000
207.044100 25540.300000
207.080400 211637.800000
208.051900 148143.600000
208.088300 14222.400000
209.059700 150862.900000
209.096100 44891.200000
210.067500 384350.600000
211.039000 281824.200000
211.075400 956821.600000
212.046800 96213.500000
212.083100 31795.400000
213.054600 107222.800000
213.091000 81034.800000
214.062100 30188.900000
217.064700 44096.800000
218.072700 87032.400000
219.080400 208626.000000
220.051900 116510.000000
221.059800 498936.500000
222.067600 273548.100000
223.038900 28305.100000
223.075400 243552.800000
224.046800 835250.800000
225.054800 115255.800000
225.090800 61321.300000
226.062500 916256.400000
227.070300 59128.300000
229.064800 23843.700000
229.075900 6699.900000
231.080800 25292.800000
232.051900 42370.000000
233.059600 70997.100000
234.067600 142329.300000
234.091200 28925.300000
235.075300 142161.800000
236.046500 88779.800000
236.083100 9454.100000
237.054500 100424.400000
237.090800 51520.000000
238.062400 217609.900000
239.070300 226802.600000
240.041700 27660.600000
240.078200 13612.500000
241.050200 24010.700000
241.085900 123830.200000
242.057300 129997.800000
245.059800 25842.000000
246.068100 10726.700000
247.075500 121501.000000
248.046400 35916.600000
248.082900 7372.900000
249.054800 122340.500000
250.062500 369585.600000
251.069900 96983.000000
252.041700 765639.400000
253.049900 12429.900000
253.085600 26048.700000
254.057200 37731.200000
255.064100 23407.800000
260.047200 11200.300000
261.054500 26201.400000
262.062600 36841.000000
262.086400 11103.300000
263.070600 45811.300000
263.093900 8539.500000
264.040800 9230.600000
264.079000 9003.700000
265.049600 14219.400000
265.085500 30268.800000
266.056900 24759.800000
267.065200 72214.300000
270.052100 55479.000000
271.059600 7814.100000
275.070200 40580.900000
276.041600 11847.300000
277.049700 25100.500000
278.057500 110141.500000
279.064400 12346.800000
280.096000 8364.600000
285.076500 10490.400000
288.065600 6660.400000
291.065300 11351.800000
292.097800 7549.100000
306.051800 14539.700000
334.046800 13154.800000

>ms2peaks
50.015100 88775.200000
51.022900 63054.800000
53.002200 99642.200000
53.038600 231770.800000
54.033800 47967.700000
55.017900 411633.800000
55.041700 140660.500000
56.049500 129155.000000
57.033500 9130.900000
57.057300 10870.800000
58.065100 886765.200000
62.015000 13351.700000
63.022800 114611.000000
65.038600 346905.200000
66.033800 7069.300000
66.046400 11562.400000
67.017800 97898.800000
67.041700 44284.500000
67.054200 23761.000000
68.025700 22656.300000
68.049500 165095.800000
68.997100 492354.300000
69.033400 40635.600000
70.065100 441138.200000
71.036500 30833.500000
71.072900 25130.100000
72.044400 86053.000000
72.080800 13666.400000
75.022800 56887.200000
76.030700 5943.600000
77.002100 8329.400000
77.038500 125142.900000
78.046400 44764.400000
79.017800 152624.500000
79.054200 104901.400000
80.049400 75297.300000
81.033500 166527.700000
81.057300 27569.600000
82.065100 89178.900000
83.012700 90496.800000
83.036600 58795.000000
84.044400 11047.400000
84.080700 53377.300000
85.028500 5451.600000
86.014800 7659.700000
86.060000 8479.000000
87.022700 7929.500000
88.030600 5883.800000
89.038500 132315.300000
90.046400 30602.100000
91.054200 1233133.600000
92.025600 7073.800000
92.049400 8058.000000
93.033500 11247.700000
93.057300 25484.200000
93.069800 8321.800000
94.041400 11465.900000
94.065200 52650.000000
95.012700 81516.000000
95.049200 386131.400000
96.044300 34111.800000
96.080700 7075.900000
97.028500 39664.200000
97.052300 8084.600000
98.060100 378477.400000
101.038700 29683.400000
102.046400 182720.200000
103.054200 370054.600000
104.062000 40695.400000
105.033600 76935.200000
105.044800 292463.600000
105.069900 59035.500000
106.065200 10430.200000
107.012900 41488.400000
107.049100 174728.400000
108.044300 12106.700000
109.028500 22200.400000
110.060000 10847.700000
111.007700 23530.600000
111.044000 9089.400000
113.038600 50755.900000
114.046400 65363.000000
115.054300 3000936.500000
116.062100 388763.300000
117.069900 394947.600000
118.041300 47882.800000
118.065300 6526.900000
119.012800 33179.700000
119.049300 42110.000000
119.085500 32177.800000
121.028300 48418.400000
121.039700 11618.100000
121.064300 6614.700000
123.007800 9937.000000
124.015500 6242.600000
125.023100 7026.200000
125.038700 24084.300000
126.046400 280831.700000
127.054200 1627985.400000
128.062100 1616458.100000
129.044700 70825.900000
129.069900 387936.800000
130.041600 7733.900000
131.049200 403516.300000
131.085600 36844.500000
132.057100 164558.000000
134.060100 7831.000000
135.007700 6691.400000
137.023300 23000.300000
137.038500 6115.000000
138.046200 13342.900000
139.054300 1658095.800000
140.062100 1380183.400000
141.069900 694056.100000
142.041400 30438.000000
142.077800 81461.100000
143.049100 24274.700000
143.085300 45392.200000
144.057000 469161.500000
145.064900 748250.100000
147.043900 6798.800000
147.080400 13469.000000
150.046300 95086.700000
151.054300 119743.600000
152.062100 2631343.800000
153.069900 718712.600000
154.077700 109373.400000
155.049300 159886.900000
155.060400 1228891.400000
155.085500 90463.200000
156.057100 73630.300000
157.064900 207611.000000
158.072600 26363.500000
159.044200 10069.200000
159.080700 41937.900000
160.051900 235100.600000
163.054200 346550.300000
164.062100 357237.500000
165.070000 2773931.200000
166.077800 198937.200000
167.049100 40875.500000
167.085600 99499.800000
168.057000 2634022.500000
169.064800 665028.200000
170.072600 80027.400000
171.044100 20010.700000
171.080400 40126.500000
172.051700 51367.300000
173.059800 113549.200000
174.067500 12922.600000
175.054600 24638.100000
176.062100 818366.700000
177.070000 209715.800000
178.077800 685334.200000
179.049100 84933.700000
179.060300 143862.600000
179.085400 68325.500000
180.057000 220795.900000
181.064800 651462.500000
182.072600 120471.400000
183.054900 10552.500000
183.080400 48054.200000
184.051900 123839.800000
185.059700 32900.300000
185.071200 6056.300000
186.067500 6013.700000
187.039000 34756.400000
187.054600 47413.400000
187.075400 24296.400000
188.062300 52761.400000
189.069900 628356.600000
190.065300 6704.400000
190.077900 65711.500000
191.073500 8452.400000
191.085300 51755.500000
192.057000 140062.500000
193.064900 144975.300000
194.072700 202214.900000
195.044200 41371.900000
195.080500 69928.100000
196.052000 311866.800000
197.059800 560789.400000
198.067400 114824.200000
200.046700 27880.900000
200.062100 75592.500000
201.054800 22089.100000
201.069800 23627.100000
202.077800 82663.600000
203.059700 8564.000000
203.072800 8948.200000
204.057000 67151.900000
205.065000 190729.500000
206.073000 13580.400000
207.044100 12332.500000
207.080500 39270.000000
208.051800 59694.800000
208.087600 6255.300000
209.059500 48280.200000
210.067500 64414.500000
211.039200 24852.100000
211.075300 88112.500000
212.047100 23770.600000
213.055000 13135.800000
217.064600 11618.500000
218.072700 48383.500000
219.080700 25875.300000
220.052000 24272.100000
221.059900 197820.800000
222.068500 19709.400000
223.039100 11406.400000
223.075400 12323.300000
224.046500 29938.800000
225.054600 44180.300000
226.062800 48989.300000
229.064500 8108.700000
233.059800 12135.900000
234.067300 20937.300000
234.090800 6502.200000
236.047200 13330.300000
237.054500 8192.500000
238.062900 8690.200000
241.049500 7238.900000
249.055300 12554.100000
250.062600 10981.600000

>ms2peaks
50.015100 229761.900000
51.022900 185072.000000
52.030700 7574.100000
53.002200 146567.500000
53.038600 405564.800000
53.997400 7025.800000
54.033800 100989.900000
55.017900 386578.100000
55.041700 183789.900000
56.049500 121511.800000
57.033400 5993.500000
57.057300 13946.800000
58.065100 592849.800000
61.007200 10830.500000
62.015000 65039.800000
63.022900 356867.600000
65.038600 662788.100000
66.010000 6460.900000
66.046300 14092.800000
67.017800 65172.700000
67.041600 70038.800000
67.054200 25601.600000
68.025500 20704.700000
68.049400 107334.300000
68.997100 577569.500000
69.033400 29273.700000
70.065100 143888.700000
71.012700 8777.300000
71.073100 6645.000000
72.044400 46189.700000
72.080800 9989.500000
74.014900 45525.500000
74.059900 8832.100000
75.022900 235037.100000
76.030700 75781.800000
77.002100 34142.200000
77.038500 365862.600000
78.046400 207513.100000
79.017700 88879.400000
79.054200 100065.900000
80.049400 64238.900000
81.033500 101257.000000
81.057300 23862.200000
82.065100 64521.600000
83.012600 10283.300000
83.036500 74494.600000
84.080700 10216.700000
86.014800 8012.200000
87.022900 45743.400000
88.030800 46060.100000
89.038600 514978.000000
90.046400 81411.400000
91.054200 1404626.200000
92.049500 9339.400000
93.057300 10851.700000
94.041300 13579.400000
94.065300 41598.400000
95.049100 902390.100000
96.044300 10335.800000
98.015100 13166.200000
98.060100 75641.000000
99.022800 31556.200000
101.038500 68622.200000
102.046400 522887.300000
103.054200 434318.300000
104.062000 27758.800000
105.033400 51396.300000
105.044700 705928.400000
107.012900 10350.300000
107.049100 83829.800000
113.038600 199990.100000
114.046400 156061.300000
115.054200 4286261.000000
116.062000 338487.800000
117.069900 102977.700000
118.041200 55985.700000
119.049200 76459.900000
121.028500 6760.600000
125.038600 70313.900000
126.046400 764101.900000
127.054200 879963.400000
128.062000 1849034.000000
129.044700 213823.800000
129.069900 126536.800000
130.041100 10174.300000
131.049200 353466.500000
132.057000 155416.700000
134.060000 7220.000000
137.038600 25462.000000
138.046400 57196.000000
139.054200 4543955.000000
140.062100 635402.500000
141.069900 557225.600000
142.041100 31785.400000
142.077800 11006.000000
143.049200 23963.900000
144.057000 211426.700000
145.064800 345769.500000
149.038400 27100.400000
150.046500 506379.600000
151.054200 243480.200000
152.062100 2953802.200000
153.069900 438938.400000
154.077800 23396.500000
155.060400 800808.200000
156.057100 29214.400000
157.064800 58556.700000
160.052000 37833.800000
162.046600 25394.800000
163.054200 1038472.900000
164.062000 461140.100000
165.070000 2033209.800000
166.077700 45921.000000
167.049100 39626.300000
168.057000 810136.000000
169.064800 950092.800000
173.059900 23301.400000
174.046500 62940.900000
175.053900 14126.800000
176.062100 816473.300000
177.069900 155392.100000
178.077700 241624.600000
179.049000 39727.100000
179.060400 317991.200000
180.056900 27144.900000
181.064800 263113.000000
182.072700 7071.700000
184.051900 12785.100000
185.059600 13386.100000
187.054200 151616.200000
188.061800 48543.200000
189.069900 444014.400000
190.065100 10593.700000
190.077900 9843.600000
191.072600 9466.100000
191.085400 9254.900000
192.057000 59397.400000
193.064800 64766.500000
194.036400 6785.100000
194.072600 24765.200000
195.044000 8336.900000
195.080100 7651.400000
196.051900 113214.300000
197.059800 96234.800000
200.062200 76278.700000
201.069800 9265.400000
202.078100 43549.900000
203.060200 18921.300000
205.065000 83083.000000
208.051200 7198.900000
218.072200 10972.700000
220.051400 6022.600000
221.059500 11832.700000

>ms2peaks
50.015100 466775.400000
51.023000 356071.000000
52.030800 8174.100000
53.002200 215263.200000
53.038600 354567.600000
53.997500 11722.100000
54.033900 120094.800000
55.017900 218907.100000
55.041700 137586.200000
56.049500 82779.900000
57.057300 10743.500000
58.065100 209314.300000
61.007200 38694.300000
62.015100 204368.700000
63.022900 778672.700000
65.038600 1111137.200000
66.010000 13062.600000
66.033900 7079.000000
66.046400 39171.900000
67.017900 27121.800000
67.041700 49693.600000
67.054200 23573.800000
68.025600 12006.600000
68.049500 58823.200000
68.997100 450709.700000
70.065100 32182.900000
72.044400 20112.800000
74.015000 203529.000000
75.022900 628555.000000
76.030700 237181.700000
77.002100 52897.900000
77.038500 459420.900000
78.046400 363178.600000
79.017800 37617.300000
79.054200 41580.100000
80.049400 38467.600000
81.033500 68351.000000
82.065100 26697.400000
83.036600 40440.100000
84.044400 10019.600000
86.015000 68566.600000
87.022900 230706.100000
88.030800 164561.600000
89.038600 1229805.400000
90.046400 72698.700000
91.054200 907687.400000
92.025700 7238.400000
92.049500 9380.300000
94.041300 24247.300000
94.065300 9491.800000
95.049200 973781.500000
98.015100 77907.600000
99.023000 78966.800000
101.038600 96242.400000
102.046400 794600.500000
103.054200 320484.800000
104.061900 7633.900000
105.044800 717826.900000
107.049300 26135.900000
113.038600 526012.200000
114.046400 162447.000000
115.054300 3725813.500000
116.062000 89816.500000
117.070200 5832.200000
118.041300 74350.700000
119.049200 60801.300000
125.038600 94351.100000
126.046400 929152.500000
127.054200 392648.200000
128.062100 1040333.400000
129.044700 177446.400000
129.069800 28178.400000
131.049200 153643.400000
132.057000 83390.000000
137.038700 108791.500000
138.046400 96292.200000
139.054300 3884082.000000
140.062100 130416.200000
141.069900 190175.300000
142.041300 8578.800000
143.049200 10953.900000
144.057000 29418.300000
145.064800 149763.300000
149.038500 40016.100000
150.046500 982308.600000
151.054300 204732.400000
152.062100 1671023.600000
153.069900 106292.000000
155.049300 38534.200000
155.060400 365509.700000
156.057300 12634.500000
157.064900 8090.000000
161.059900 5045.700000
162.046400 78762.900000
163.054200 1161592.000000
164.062000 262360.900000
165.070000 783835.300000
167.049100 25761.100000
168.057000 200395.900000
169.064800 747609.200000
174.046400 96584.300000
175.054400 21310.900000
176.062100 422097.200000
177.069600 45729.600000
178.077900 46936.800000
179.060400 287672.500000
181.064500 44240.900000
183.080900 8018.000000
185.059700 26392.400000
187.054300 183011.300000
188.061900 45595.200000
189.070000 138957.600000
192.056900 24651.700000
193.064800 56830.500000
194.036500 28149.700000
196.051900 61011.900000
200.062000 50162.800000
203.060100 19780.600000
203.072500 5975.700000
220.051900 9332.300000

