>compound EQ16238750
>parentmass 212.15059999999997
>ionization [M+H]+
>formula C9H17N5O
>rt 306.000000
>profile orbitrap
#smiles_iso CC(C)NC1=NC(=NC(=O)N1)NC(C)C
#smiles_can CC(C)NC1=NC(=NC(=O)N1)NC(C)C
#inchikey RUOTUMSRCIMLJK-UHFFFAOYSA-N
#pubchem_id 135461611
#mb_accession EQ014201,EQ014202,EQ014203,EQ014204,EQ014205,EQ014206,EQ014207,EQ014208,EQ014209

>ms2peaks
128.056600 5941527.000000
128.081900 3157262.000000
170.103700 41750232.000000
212.150600 1474992768.000000

>ms2peaks
86.034700 3872303.000000
128.056700 33236776.000000
128.081900 12029995.000000
170.103700 140661904.000000
212.150600 1153541504.000000

>ms2peaks
58.065100 809219.500000
69.008300 3239571.200000
85.050900 3425346.200000
85.076100 3035971.800000
86.034900 68191144.000000
111.055400 2764372.800000
127.097900 2338509.500000
128.056700 430161984.000000
128.081800 56676248.000000
170.103700 474794592.000000
212.150700 504323200.000000

>ms2peaks
53.002200 697990.900000
58.065100 1132196.400000
60.055600 831104.100000
68.024300 2176175.200000
69.008300 17660416.000000
85.050900 17655378.000000
85.076000 4003232.200000
86.034900 293975136.000000
110.046100 1732591.000000
111.030100 1649176.200000
111.055300 4290534.000000
127.097900 2353055.200000
128.056700 676930560.000000
128.081800 43237284.000000
153.077000 750042.400000
170.103700 203962672.000000
212.150700 58643684.000000

>ms2peaks
53.002200 929584.900000
60.055700 2730749.800000
68.024300 8204813.000000
69.008300 39409136.000000
85.050900 39240816.000000
86.034900 551711360.000000
110.046200 5169098.500000
111.030100 2753719.500000
111.055400 2041863.400000
127.097900 906939.900000
128.056700 443077536.000000
170.103700 34963388.000000
212.150700 3003537.000000

>ms2peaks
53.002200 1670644.800000
60.055700 3915936.500000
68.024300 18205434.000000
69.008300 81230064.000000
85.050900 43847804.000000
86.034900 584510016.000000
110.046200 6618739.000000
111.030100 2686662.800000
111.055200 628091.900000
128.056700 170844160.000000
170.103800 3431495.800000

>ms2peaks
53.002200 1954706.000000
53.997500 624178.600000
60.055600 2784946.000000
68.024300 39235284.000000
69.008300 197984576.000000
85.050900 18654184.000000
86.034900 278049216.000000
110.046200 2749318.200000
111.030200 1003289.500000
128.056700 12739998.000000

>ms2peaks
53.002200 2209621.500000
53.997400 576653.800000
60.055600 1200938.000000
68.024400 40005876.000000
69.008300 241424304.000000
85.050900 3328026.000000
86.034900 65261968.000000
128.056700 789069.400000

>ms2peaks
53.002200 2226494.200000
53.997500 469712.300000
68.024400 35596360.000000
69.008300 216132992.000000
85.050800 252944.900000
86.034900 12726019.000000

