>compound EQ18256645
>parentmass 220.14439999999996
>ionization [M+H]+
>formula C12H17N3O
>rt 90.000000
>profile orbitrap
#smiles_iso CC(C)NCC(C1=CC(=C(C=C1)N)C#N)O
#smiles_can CC(C)NCC(C1=CC(=C(C=C1)N)C#N)O
#inchikey BUXRLJCGHZZYNE-UHFFFAOYSA-N
#pubchem_id 2755
#mb_accession EQ365701,EQ365702,EQ365703,EQ365704,EQ365705,EQ365706,EQ365707,EQ365708,EQ365709

>ms2peaks
143.060200 1022306.800000
145.075900 2214752.800000
160.086900 70367048.000000
161.071100 615541.300000
202.133700 387816544.000000
220.144300 7344518.000000

>ms2peaks
58.065100 288811.900000
116.049300 267899.000000
131.060200 676786.200000
143.060300 7373094.000000
145.076000 3947177.000000
159.079100 339981.100000
160.086900 181225440.000000
161.070900 5202638.000000
202.133800 250693808.000000
220.144100 736807.000000

>ms2peaks
116.049400 4031221.000000
118.052400 315787.400000
131.060200 1979467.100000
133.076000 3270819.800000
134.059900 371549.100000
143.060400 81212984.000000
145.076000 3983665.500000
159.079100 1085244.600000
160.086900 239137184.000000
161.070900 46899828.000000
202.133900 35359204.000000

>ms2peaks
53.002200 316905.400000
67.989300 301046.100000
89.038500 321165.100000
92.049500 235487.200000
106.065100 1672063.000000
116.049400 29672416.000000
118.052500 1254860.000000
118.065100 364733.200000
119.060400 805663.600000
120.068200 260131.200000
128.049600 566772.600000
131.060400 7326270.000000
132.068100 278074.200000
133.076000 9021856.000000
134.060000 3922241.500000
142.052600 1476431.200000
143.060400 181128464.000000
144.055600 1024752.200000
144.068400 452622.100000
145.076000 1917844.100000
146.060000 220220.000000
159.079100 1723352.000000
160.086900 84545616.000000
161.070900 53471136.000000
202.133800 1924363.500000

>ms2peaks
53.002200 553688.600000
65.038500 286310.900000
67.989300 294751.200000
79.054200 333687.100000
89.038500 3193790.200000
91.054200 286118.800000
92.049400 797952.500000
93.057400 436452.900000
106.065100 4176582.500000
116.049400 81386432.000000
117.057200 846717.700000
118.052500 3818669.000000
118.064900 799005.600000
119.060400 1124333.200000
128.049500 640899.000000
131.060400 17712702.000000
132.068100 788737.200000
133.076000 8082073.500000
134.060000 14219719.000000
142.052600 6228386.000000
143.060400 160335712.000000
144.055600 3799639.200000
144.068200 713483.400000
145.075900 564970.100000
146.060200 227459.700000
158.071200 241308.500000
159.079100 1858146.400000
160.086900 14133838.000000
161.070900 21621414.000000

>ms2peaks
53.002200 400181.200000
63.022900 347254.300000
65.038500 590709.800000
67.989300 243822.300000
77.038500 126121.100000
79.054200 877422.000000
80.049500 131020.000000
89.038600 14705486.000000
90.033900 228038.000000
91.041700 329959.400000
91.054200 870220.500000
92.049400 1285048.600000
93.057300 692353.200000
95.049100 122508.200000
104.049400 1343304.500000
105.044800 287954.800000
105.057300 225738.900000
106.065100 6060666.000000
114.033700 212860.000000
116.049400 115326416.000000
117.044700 127397.800000
117.057200 1578185.900000
118.052500 7737726.500000
118.064900 504027.500000
119.060300 890188.800000
120.044300 132041.200000
128.049600 499668.500000
130.039900 408448.800000
131.060400 25903708.000000
132.068200 2211441.800000
133.076000 3860286.000000
134.060000 20614178.000000
142.052600 13719786.000000
143.060400 77289480.000000
144.055600 5613868.000000
144.068000 1230033.900000
158.071300 324982.300000
159.079100 1766113.000000
160.086900 1804281.000000
161.071000 5484962.000000

>ms2peaks
50.015000 120225.000000
51.022900 378620.500000
52.018100 220144.200000
53.002200 551905.400000
53.038600 639459.600000
53.997400 84051.200000
62.015100 262736.800000
63.022900 4011126.500000
64.030600 110693.700000
65.038600 2584630.200000
66.033700 100515.700000
66.046300 97169.500000
67.041500 358691.300000
67.989200 296113.300000
75.022900 539046.800000
77.038500 2174532.000000
78.033800 507681.900000
78.046600 154454.700000
79.054200 2056684.400000
80.049400 627892.400000
81.033500 226299.700000
88.030600 197782.800000
89.038500 69411784.000000
90.033800 2585319.500000
90.046400 604029.900000
91.041600 3504406.200000
91.054200 1272841.500000
92.049400 1159292.600000
93.057300 590724.700000
95.049100 2250495.200000
96.044400 705429.500000
99.022900 102886.500000
100.018100 223868.900000
102.033800 289598.400000
103.041700 396947.700000
104.049400 9745312.000000
105.044700 2528013.800000
105.057300 817490.600000
106.065100 3258656.000000
108.044500 82579.100000
114.033800 820507.000000
115.041700 2520805.000000
116.049400 74233592.000000
117.044700 534803.500000
117.057200 2350579.800000
118.052500 9353896.000000
119.060400 620320.500000
120.044500 267681.400000
126.033700 224692.400000
128.049400 83232.500000
129.044800 340415.000000
130.039800 394789.200000
131.060400 22267624.000000
132.068200 1672471.800000
133.052200 300450.400000
133.076000 525310.500000
134.060000 7913011.000000
141.044600 125847.500000
142.052600 14624072.000000
143.060400 8133895.000000
144.055700 2772307.200000
144.068100 445744.500000
154.039900 287086.200000
158.071400 750821.100000
159.079200 408782.100000
161.070900 112786.500000

>ms2peaks
50.015100 674337.400000
51.022900 1771847.200000
52.018200 379766.200000
53.002200 788530.000000
53.038600 1978191.500000
54.033800 201116.600000
61.007200 199013.200000
62.015100 1241537.100000
63.022900 18614920.000000
64.018200 901677.800000
64.030700 1003663.800000
65.026000 466689.100000
65.038600 4155550.200000
66.033700 227065.600000
66.046400 370691.400000
67.041700 589657.300000
67.989300 213703.800000
74.015100 79466.800000
75.022900 1119354.900000
76.018100 300976.400000
76.030700 197998.200000
77.038500 4245080.000000
78.033800 1147942.000000
78.046400 450665.700000
79.041600 177663.200000
79.054200 1264330.600000
80.049400 675105.000000
81.033400 462682.400000
87.022800 85207.900000
88.018100 375783.200000
88.030700 1523634.200000
89.038500 73960248.000000
90.033800 4865757.500000
90.046400 1191556.900000
91.041600 7250530.000000
91.054200 640127.400000
92.036900 115588.600000
92.049400 575029.600000
93.057300 425350.700000
95.049100 4969502.500000
96.044300 1170826.900000
99.022900 300154.800000
100.018100 598907.100000
102.033800 227368.900000
103.041700 283318.200000
104.049400 9231044.000000
105.044700 4618023.500000
105.057400 585168.700000
106.065100 1239746.900000
108.044400 212037.000000
114.033800 2828102.000000
115.041600 5830014.500000
116.049500 17498702.000000
117.044700 678258.400000
117.057200 1132455.600000
118.052500 4649184.000000
119.060400 237800.300000
126.033700 242456.700000
129.044700 259249.900000
130.039900 452327.300000
131.060400 7672501.500000
132.068300 707203.900000
133.052100 417501.100000
134.060000 1563927.400000
141.044500 105065.300000
142.052600 5737905.000000
143.060300 777086.800000
144.055800 599165.000000
157.063400 108991.700000
158.071200 114537.700000

>ms2peaks
50.015100 2140270.000000
51.023000 5067391.500000
52.018200 954280.700000
53.002200 1124384.500000
53.038600 1605504.000000
53.997500 334538.900000
54.033800 275076.500000
55.017900 89140.900000
61.007300 809287.800000
62.015100 4530531.000000
63.022900 35428012.000000
64.018200 2373442.000000
64.030700 1866020.200000
65.026000 1035994.000000
65.038600 3031335.000000
66.033800 429474.700000
66.046400 308599.600000
67.041600 545630.500000
67.989200 281432.100000
74.015000 646011.400000
75.022900 1610717.900000
76.018100 883856.600000
76.030700 319515.100000
77.038500 4781728.000000
78.033800 1743750.100000
78.046400 494752.000000
79.041700 96695.400000
79.054200 467793.200000
80.049400 842187.000000
81.033500 398917.300000
87.023000 365137.300000
88.018100 1129019.200000
88.030700 2524260.800000
89.038600 37644496.000000
90.033800 3645021.200000
90.046400 978237.300000
91.041700 5597659.000000
92.036900 180960.300000
92.049500 324824.400000
93.057400 115270.100000
94.041400 77741.200000
95.049100 4926693.500000
96.044400 1178470.200000
98.015000 387735.906300
99.022900 304348.700000
100.018200 716121.100000
102.033700 374280.400000
103.041700 112575.500000
104.049400 5456047.500000
105.044700 3691289.000000
106.065200 207863.000000
108.044400 46156.600000
114.033800 3695075.000000
115.041700 3213199.500000
116.049400 2937722.500000
117.044800 399960.200000
117.057400 506693.200000
118.052500 966952.300000
129.044700 116503.500000
130.040000 322877.100000
131.060400 1836978.900000
133.052200 273318.700000
134.059900 211445.900000
141.044700 88769.300000
142.052600 1417764.200000
143.060500 74623.600000
144.055800 43428.100000

