>compound EQ18593477
>parentmass 312.0189
>ionization [M+H]+
>formula C14H11Cl2NO3
>rt 600.000000
>profile orbitrap
#smiles_iso C1=CC=C(C(=C1)CC(=O)O)NC2=C(C=C(C=C2Cl)O)Cl
#smiles_can C1=CC=C(C(=C1)CC(=O)O)NC2=C(C=C(C=C2Cl)O)Cl
#inchikey KGVXVPRLBMWZLG-UHFFFAOYSA-N
#pubchem_id 116545
#mb_accession EQ339701,EQ339702,EQ339703,EQ339704,EQ339705,EQ339706,EQ339707,EQ339708,EQ339709

>ms2
230.036300 3341005.200000
231.044500 10765362.000000
266.013300 76476848.000000
294.008200 58260912.000000
312.018800 61223904.000000

>ms2
196.075500 151501.800000
230.036800 22063934.000000
231.044500 123585712.000000
266.013300 50777684.000000
277.050500 168310.900000
294.008200 2902158.200000
312.018800 708343.200000

>ms2
166.065100 113829.800000
167.072300 129258.500000
195.067700 333513.600000
196.075800 1563291.000000
201.034100 198500.000000
214.042200 259802.900000
224.071000 301006.200000
228.021400 165972.100000
230.036800 92127392.000000
231.044500 95216736.000000
266.013300 2547843.500000
277.050200 127289.700000

>ms2
166.065000 690597.900000
167.072900 719930.500000
175.966400 201142.700000
195.067800 1463532.200000
196.075700 3290451.500000
201.034100 382836.800000
202.041900 270551.000000
214.042000 732813.600000
224.071000 607523.600000
229.028500 251238.100000
230.036700 163844352.000000
231.044500 16774574.000000

>ms2
139.054000 335332.200000
140.049000 208949.700000
166.065100 2973092.200000
167.072900 3541700.000000
168.080800 277290.300000
175.966500 178758.900000
176.974400 177472.100000
194.060200 388396.700000
195.067900 4976599.500000
196.075700 3380913.800000
201.034100 620527.400000
202.041800 776655.600000
212.026400 222969.100000
214.041900 862134.800000
224.071100 342058.800000
229.028400 258065.800000
230.036700 155765456.000000
231.044800 942913.200000

>ms2
115.054100 293307.400000
139.054200 1556788.900000
140.049400 1606359.100000
142.065100 203971.400000
148.955600 204187.200000
165.057400 155330.700000
166.065100 11176018.000000
167.072900 15538775.000000
168.080800 854576.300000
175.966500 129291.500000
176.974100 202433.500000
177.057100 231968.900000
178.065400 144306.500000
183.068200 230931.300000
184.075600 412255.700000
194.060100 1197982.000000
195.067900 16501251.000000
196.075700 2927687.500000
201.034000 943193.400000
202.041700 2575435.500000
212.026300 754516.800000
214.041900 813391.400000
224.070900 166696.100000
229.028600 300219.100000
230.036600 124420832.000000

>ms2
65.038500 92632.600000
77.038500 115978.000000
84.983900 278343.300000
88.978800 122198.000000
89.038500 364173.800000
91.054100 125209.900000
95.049100 172786.600000
113.038500 405421.400000
114.010500 312930.800000
115.054200 2531741.800000
116.049400 916933.800000
126.046300 168494.300000
128.049300 210847.900000
137.038900 73762.600000
138.046300 114652.900000
139.054200 15168044.000000
140.049400 15999464.000000
141.057300 88694.800000
141.069900 94487.600000
142.065000 384470.300000
146.059900 84784.200000
148.955300 182248.900000
149.038400 72370.400000
154.065200 325899.200000
164.049400 410592.500000
165.057400 661336.600000
166.065100 28291528.000000
167.072900 48795828.000000
168.080800 690153.700000
169.064800 247772.100000
170.059900 154341.700000
175.041400 74336.600000
175.966600 77747.600000
176.049400 216291.400000
177.057200 1374431.200000
178.065000 311929.700000
179.060500 102128.400000
179.072300 156811.600000
181.052000 97063.000000
182.059900 87261.200000
183.068100 189440.500000
184.075500 594061.200000
193.052000 189501.900000
194.060000 1812455.800000
195.067800 22149838.000000
196.075700 538670.200000
201.033900 1107357.500000
202.041700 2142158.000000
204.055500 89399.400000
212.026100 1142629.500000
214.042000 218833.300000
229.028700 380814.400000
230.036700 16575858.000000

>ms2
50.015100 263855.300000
51.022800 204008.500000
52.018100 75361.500000
53.002200 109042.800000
53.038600 111965.300000
60.984000 160783.500000
61.007300 95143.900000
62.014900 175400.800000
63.022900 1106853.900000
65.038600 595977.800000
72.983900 100405.700000
74.015000 101057.100000
75.022800 263777.600000
76.018100 109129.200000
76.030700 35307.000000
77.025800 36028.100000
77.038500 191675.200000
78.033800 186600.900000
78.046300 30963.500000
79.054200 34752.600000
84.983900 473815.800000
86.014800 31615.700000
86.999600 127464.800000
87.022800 320203.300000
88.018200 174574.900000
88.030600 144589.400000
89.038500 3255212.200000
90.033900 157988.400000
90.046400 203134.200000
91.054200 370710.600000
95.049100 395124.700000
98.015100 30927.400000
99.023100 160500.400000
101.038700 72829.400000
102.046400 242908.700000
104.049400 75208.700000
105.044500 183185.000000
113.038500 4802969.500000
114.010700 128765.400000
114.033900 472039.100000
114.046400 426560.400000
115.054200 5836187.500000
116.049400 2315319.500000
117.057200 260776.000000
118.041100 40127.900000
120.960300 34385.200000
123.022900 47511.400000
125.038500 109200.100000
126.046400 635448.000000
127.041400 111923.500000
127.054100 113731.100000
128.049400 735961.600000
129.044700 265098.500000
129.057400 86831.600000
132.044400 72350.200000
132.056900 164473.300000
134.060100 166236.200000
137.038700 261096.200000
138.046300 583315.200000
139.054200 28748044.000000
140.049400 28556196.000000
141.057300 307537.600000
141.069700 123824.300000
142.065000 149351.900000
145.064700 87530.700000
146.059700 159315.400000
148.955400 36762.800000
149.038500 317570.300000
150.046400 663433.200000
151.041700 98572.500000
151.054300 43201.900000
152.049500 79448.700000
152.061900 35765.800000
153.057100 75097.600000
154.065200 360544.900000
155.060500 179997.400000
156.056800 74651.100000
158.059900 97123.900000
164.049400 1444741.400000
165.057400 1250577.600000
166.065100 27496348.000000
167.072900 27148990.000000
168.080500 120911.100000
169.052100 68991.100000
169.064700 296759.800000
170.036100 83814.000000
170.060300 156682.600000
175.041400 233245.100000
176.049700 198040.100000
177.057200 1528928.000000
178.065200 255854.900000
179.060400 93789.700000
179.072600 34343.300000
180.044200 39557.700000
181.051900 44221.900000
182.059600 95681.000000
183.068200 141029.800000
184.075500 231713.000000
185.059800 78117.300000
193.052000 106318.200000
194.060100 828368.400000
195.067800 2953497.800000
196.075500 40149.800000
198.091600 29849.900000
200.026200 43508.000000
201.033900 300857.700000
202.041400 117272.300000
204.055700 123020.800000
212.025700 136969.700000
230.036500 397775.000000

>ms2
50.015100 712080.100000
51.022900 395239.500000
52.018200 185409.100000
53.002200 206725.900000
53.038600 221059.300000
60.984000 245187.600000
61.007200 279283.200000
61.979100 40002.800000
62.015100 712527.600000
63.022900 4802673.500000
65.038600 2108209.500000
66.046400 75655.000000
72.983900 227042.000000
74.015000 512004.000000
75.022900 970316.900000
76.018100 257642.000000
76.030600 243273.300000
77.038500 390532.900000
78.033900 145327.500000
78.046300 118316.200000
81.033500 95672.500000
84.983900 498684.800000
86.015000 338568.200000
86.999600 93359.100000
87.022900 1857788.400000
88.018200 539051.500000
88.030700 534500.700000
89.038600 8253077.500000
90.033800 459161.100000
90.046400 455410.200000
91.054200 511013.700000
95.049100 756619.300000
98.015100 332058.800000
99.022900 511404.900000
101.038600 118479.100000
102.046400 468820.300000
103.054200 40809.600000
104.049600 91338.400000
105.044700 407953.700000
113.038600 11055842.000000
114.033800 1541272.900000
114.046400 688245.400000
115.054200 6082700.000000
116.049400 1859748.000000
117.057200 334320.600000
118.041200 132067.700000
119.049100 153254.200000
123.022800 370949.800000
125.038500 193993.700000
126.046400 1024530.900000
127.041700 206731.100000
127.054000 164960.000000
128.049400 827287.200000
129.044700 415501.200000
132.044300 239890.300000
132.057100 302217.300000
134.060100 105843.800000
137.038600 906912.500000
138.046400 1055215.200000
139.054200 25622338.000000
140.049400 21014586.000000
141.057200 186902.500000
141.069800 108046.900000
142.041200 97054.900000
143.049200 42725.500000
145.064700 125625.000000
146.059800 143864.200000
149.038500 239668.800000
150.046400 1008879.200000
151.041700 216624.000000
151.054100 33688.100000
152.049400 97090.100000
152.061900 25756.800000
153.057200 38408.500000
154.065100 109138.200000
155.060300 178842.900000
156.057100 119850.200000
158.060000 92425.800000
164.049400 2323449.800000
165.057300 1080512.000000
166.065100 12787795.000000
167.072900 4567405.500000
169.052600 29754.500000
169.064700 191042.800000
170.036000 117438.200000
170.060100 73876.900000
175.041400 301794.400000
176.049500 77774.700000
177.057300 526344.100000
178.065200 155301.300000
179.060500 41728.800000
183.068200 36209.900000
184.075300 125150.700000
185.059700 40072.000000
194.060400 178803.000000
195.067800 97526.600000
204.055500 81976.200000

