>compound EQ19741554
>parentmass 294.2064
>ionization [M+H]+
>formula C17H27NO3
>rt 396.000000
>profile orbitrap
#smiles_iso C[N+](C)(CC(C1=CC=C(C=C1)OC)C2(CCCCC2)O)[O-]
#smiles_can C[N+](C)(CC(C1=CC=C(C=C1)OC)C2(CCCCC2)O)[O-]
#inchikey LASJEFFANGIOGZ-UHFFFAOYSA-N
#pubchem_id 76559643
#mb_accession EQ339601,EQ339602,EQ339603,EQ339604,EQ339605,EQ339606,EQ339607,EQ339608,EQ339609

>ms2peaks
62.060000 6642316.000000
121.064700 323178272.000000
135.080200 4334021.500000
178.122500 35419968.000000
215.143000 30808006.000000
233.153500 76659168.000000
276.195900 11663594.000000
294.206300 1782811648.000000

>ms2peaks
58.065100 3176248.200000
62.060000 29454282.000000
81.069700 2158912.500000
99.080400 16374273.000000
121.064700 1636123904.000000
122.068200 2214464.000000
135.080400 31114626.000000
147.080400 11382454.000000
151.075500 1918470.500000
159.080500 2749570.800000
163.099000 2273297.200000
173.095900 3516139.200000
178.122600 126208048.000000
215.143000 105456400.000000
233.153600 46645900.000000
276.195900 10472453.000000
294.206300 341099424.000000

>ms2peaks
58.065100 5615090.000000
62.060000 20510924.000000
78.046100 3463938.200000
79.054200 2217582.000000
81.069900 15259435.000000
91.054300 4646450.500000
99.080400 38344196.000000
105.069600 2146910.000000
107.085600 3749408.500000
121.064700 1797168128.000000
122.068300 2028127.900000
135.080400 46467944.000000
147.080400 28849654.000000
147.104100 5929616.000000
151.075300 2775585.200000
159.080400 9563826.000000
163.099100 19493128.000000
173.096100 12506038.000000
178.122600 63642300.000000
215.143000 23588182.000000
294.206400 4754175.000000

>ms2peaks
53.038600 2161461.500000
55.054200 1991123.600000
58.065100 5862190.500000
62.060000 15219233.000000
69.069800 2248650.200000
77.038400 5801639.500000
78.046200 5819181.000000
79.054200 7786115.500000
81.069800 42817872.000000
91.054200 23080844.000000
93.069900 4243331.500000
95.049100 6012402.500000
99.080400 34988588.000000
103.054000 1759352.800000
105.044700 4111615.500000
105.069800 9914255.000000
106.041100 3100227.000000
107.085700 2440382.800000
109.064600 2517004.500000
120.057100 2613062.200000
121.064700 1673501312.000000
132.056600 2039000.200000
133.064400 2299042.800000
135.080300 36327700.000000
146.096400 3837030.200000
147.080300 24798400.000000
147.104200 7719640.500000
148.075600 8217673.000000
158.072600 1957649.100000
159.080400 8175629.000000
163.099000 22367978.000000
173.096000 9547726.000000
178.122500 17199262.000000

>ms2peaks
51.022900 1719670.200000
53.038600 9117361.000000
55.017800 2121825.200000
55.054200 4639451.000000
57.033400 1740395.600000
58.065100 7829792.500000
62.060000 10995072.000000
65.038500 4551457.500000
67.054200 2105863.200000
77.038500 20125442.000000
78.046300 24252448.000000
79.054200 20761500.000000
81.069800 67867760.000000
91.054200 84287144.000000
93.069900 8969302.000000
95.049100 31412244.000000
99.080400 23233152.000000
103.054100 6555519.500000
105.044700 18445138.000000
105.069800 19307652.000000
106.041200 11970153.000000
107.049200 2835872.000000
109.064700 3640733.800000
115.054000 1686456.500000
120.057100 3421642.000000
120.080600 2088435.100000
121.064700 1570221696.000000
132.056700 2174613.500000
133.064800 3098139.000000
135.080300 21351390.000000
144.056700 2457779.800000
146.096500 4753986.500000
147.080400 11598046.000000
147.104100 4115235.000000
148.075600 14298860.000000
158.072600 4047206.200000
159.080400 4049577.200000
162.091400 2025710.500000
163.099000 10062289.000000
173.096000 4212652.500000
178.122300 2273054.800000

>ms2peaks
50.015000 3072592.500000
51.022700 2112857.500000
52.030700 1172119.500000
53.038600 20529228.000000
55.017800 5442998.500000
55.054200 8211135.500000
57.033500 2059148.800000
58.065100 6250323.000000
62.060000 4998463.000000
65.038500 13678508.000000
67.054200 3008261.000000
69.069900 1394739.200000
77.038500 44062940.000000
78.046400 73718640.000000
79.017800 2712647.800000
79.054200 32316672.000000
81.033500 3499684.000000
81.069900 62575716.000000
91.054200 166352320.000000
93.069900 12833516.000000
94.041300 2356834.000000
95.049100 77375192.000000
99.080400 7533280.000000
103.054200 13208342.000000
104.061900 1283886.000000
105.044700 39889276.000000
105.069800 15103025.000000
106.041300 27801324.000000
107.049100 5181799.000000
109.064700 3019199.000000
115.054200 3904567.200000
117.070100 1616438.900000
119.049000 1748366.100000
119.060500 1178371.100000
120.057000 3320402.000000
120.080700 2294437.800000
121.064700 1067343104.000000
128.061900 1385460.900000
131.049000 1340921.400000
132.056800 2492187.200000
132.080800 1145114.500000
133.064800 1637755.000000
134.096400 1692599.000000
135.080400 6519095.000000
144.056900 1820920.000000
145.064700 1339847.400000
146.096500 3732713.200000
147.080400 3642320.500000
147.104000 1459942.100000
148.075600 12042859.000000
158.072700 2678718.200000
159.080600 1651713.800000
162.091500 1461246.100000
163.098800 2273656.000000

>ms2peaks
50.015100 8843725.000000
51.022900 6524102.000000
52.030600 2309278.000000
53.002200 2009918.800000
53.038600 39921960.000000
55.017800 7928324.500000
55.054200 12791623.000000
57.033500 2149536.800000
58.065100 8116823.500000
62.060000 1652960.100000
63.022800 1799660.800000
65.038500 56970184.000000
66.046400 2164815.000000
67.054200 4183114.200000
69.069800 438500.100000
76.030700 1318142.500000
77.038500 74022216.000000
78.046300 369375904.000000
79.017700 4918786.000000
79.054100 43425572.000000
81.033400 5628124.000000
81.069800 37258776.000000
89.038600 1840085.600000
90.046400 2074984.600000
91.054200 233171024.000000
92.062000 1294422.800000
93.069900 8665297.000000
94.041300 4023050.000000
94.065300 372930.200000
95.049100 132607544.000000
99.080400 1024127.100000
102.046200 1354742.900000
103.054200 11682097.000000
104.062000 2498996.200000
105.044700 73176848.000000
106.041300 46601996.000000
107.049100 10460750.000000
108.057000 454355.700000
109.064800 1400986.600000
115.054200 9378894.000000
116.061800 1576488.500000
118.041300 1342799.100000
119.049000 1923693.000000
120.056900 1539248.200000
120.080600 1521442.500000
121.064700 299995264.000000
128.062000 2328433.200000
129.069800 1670481.400000
131.049100 2055597.900000
132.056900 1102307.100000
134.096400 1174550.500000
141.069800 834136.900000
144.056600 798335.900000
148.075600 2969611.200000
155.060000 389401.200000
158.072700 463355.900000

>ms2peaks
50.015100 29622474.000000
51.022900 16996462.000000
52.030700 9155788.000000
53.002200 3627376.000000
53.038600 32840618.000000
53.997500 840601.700000
55.017800 4206556.000000
55.054200 8470596.000000
57.033500 2681018.800000
58.065100 4813386.000000
62.015100 1163702.200000
63.022900 8645972.000000
65.038600 76868344.000000
66.046300 4194804.000000
67.054200 2634468.200000
67.989200 1105768.400000
76.030700 6388294.500000
77.038500 60104044.000000
78.046300 534320256.000000
79.017800 2105638.800000
79.054100 28697650.000000
81.033500 3626833.000000
81.069800 11018108.000000
89.038600 3604127.200000
90.046400 1590370.100000
91.054200 121729984.000000
92.025700 865374.100000
93.069800 2095734.400000
94.041300 2533179.800000
95.049100 96105264.000000
102.046300 1811000.100000
103.054100 6133256.500000
104.062100 1073781.500000
105.044700 55714696.000000
106.041300 16163981.000000
107.049100 10767105.000000
115.054200 9267106.000000
116.061900 1133822.400000
118.065100 920768.500000
119.049100 848242.200000
121.064700 42342680.000000
128.062100 1872689.500000
129.069800 950647.400000
131.049100 1682907.200000

>ms2peaks
50.015100 58454676.000000
51.022900 42951484.000000
52.030800 25231456.000000
53.002200 6697010.000000
53.038600 26465580.000000
53.997400 1887977.900000
55.017800 3224837.800000
55.054200 4617898.000000
57.033400 1270787.500000
58.065100 3746323.200000
60.044400 419178.800000
61.007200 437864.100000
62.015100 4027221.800000
63.022900 22571960.000000
65.002200 3745526.500000
65.038600 58298536.000000
66.010000 733949.400000
66.046400 4078374.000000
67.054200 1355998.400000
67.989200 1250003.000000
75.022900 1026883.900000
76.030700 9514679.000000
77.038500 36973776.000000
78.046300 374286880.000000
79.017800 1077706.200000
79.054200 13686388.000000
81.033400 2884522.800000
81.069800 3183108.500000
89.038500 6034528.000000
90.046500 1025828.700000
91.054200 43729360.000000
94.041300 1435099.200000
95.049100 61630504.000000
102.046300 1410093.200000
103.054200 3406002.200000
105.044700 34882292.000000
106.041300 2823935.500000
107.049100 6459258.500000
115.054200 8462388.000000
118.064900 897826.500000
121.064700 4548383.500000
128.062000 2213560.800000
155.060200 421018.800000

