>compound EQ19287217
>parentmass 407.221
>ionization [M+H]+
>formula C18H34N2O6S
>rt 216.000000
>profile orbitrap
#smiles_iso CCCC1CC(N(C1)C)C(=O)NC(C2C(C(C(C(O2)SC)O)O)O)C(C)O
#smiles_can CCCC1CC(N(C1)C)C(=O)NC(C2C(C(C(C(O2)SC)O)O)O)C(C)O
#inchikey OJMMVQQUTAEWLP-UHFFFAOYSA-N
#pubchem_id 3928
#mb_accession EQ368701,EQ368702,EQ368703,EQ368704,EQ368705,EQ368706,EQ368707,EQ368708,EQ368709

>ms2
126.127500 26175602.000000
317.207900 1594676.100000
359.217700 14375827.000000
389.210700 7645007.500000
407.220900 690010368.000000

>ms2
82.064700 954858.600000
97.028300 579601.100000
126.127700 525279264.000000
171.148500 543182.100000
172.133200 4135764.800000
198.076500 628071.000000
216.086800 1415134.200000
228.069200 704387.500000
234.097400 1435105.900000
257.185900 657002.100000
287.196600 1183382.200000
299.196400 3041980.200000
317.207100 5151213.500000
359.217600 53209568.000000
389.210400 9159850.000000
407.221000 75852672.000000

>ms2
69.069900 1424947.200000
70.065100 1940312.800000
82.065000 1992735.900000
83.072900 1363800.900000
84.080900 960681.100000
97.028400 785242.900000
124.112500 883127.800000
126.127700 656198848.000000
172.133400 1511918.200000
359.217600 1094999.600000

>ms2
55.054200 2773512.000000
58.065100 3729235.500000
67.054200 1555221.200000
68.049400 804221.100000
69.069900 6772979.000000
70.065100 8560364.000000
82.065100 5003313.000000
83.072900 6900879.000000
83.085500 1294482.900000
84.080800 3778404.500000
95.085600 3212057.000000
96.080800 713787.500000
97.088600 805089.100000
98.096400 796530.800000
124.112300 3493433.000000
126.127700 578627392.000000

>ms2
53.002200 429715.100000
55.054300 7801303.000000
56.049500 1214523.900000
58.065100 7279862.000000
61.010700 789805.500000
67.054200 4409941.000000
68.049500 3319180.000000
69.069900 17637464.000000
70.065100 24418276.000000
82.065100 14657215.000000
83.072900 20633050.000000
83.085500 2479475.800000
84.080800 9752284.000000
85.101100 570085.200000
91.021200 429813.400000
93.070000 1136280.400000
95.085600 6447953.500000
96.080800 1759455.100000
97.088600 2728770.800000
97.101200 429798.100000
98.096500 1655259.600000
111.104300 612150.800000
124.112200 8119737.000000
126.127700 424772256.000000

>ms2
53.002200 630786.900000
53.038600 309057.500000
54.033800 245543.300000
55.054300 12285853.000000
56.049500 1793783.100000
57.057300 564929.000000
57.069900 450919.700000
58.065100 11593180.000000
61.010700 1057341.800000
65.038600 404455.800000
67.041700 818782.000000
67.054200 7474283.000000
68.049500 9650696.000000
69.069900 25226154.000000
70.065100 41683724.000000
71.072900 294217.600000
72.080800 498090.000000
80.049400 295795.200000
82.065100 30559208.000000
83.072900 34229284.000000
83.085500 2561227.800000
84.080800 11688319.000000
85.101200 502812.900000
91.021200 336623.300000
91.054300 360175.100000
93.069900 1558430.000000
94.065000 271272.200000
95.085500 7398612.000000
96.080800 3618415.800000
97.088600 4224339.000000
97.101200 381327.700000
98.096400 2207397.200000
111.104400 740941.200000
124.112200 8971821.000000
126.127800 236770416.000000

>ms2
51.022900 61490.500000
53.002200 1355883.800000
53.038600 606406.100000
53.997500 465712.600000
54.033800 768958.100000
55.041700 841430.000000
55.054300 10168712.000000
56.049500 2121899.200000
57.057300 765286.500000
57.069900 323567.600000
58.065200 5944614.000000
61.010700 727916.900000
65.038600 1052779.000000
67.041700 3046429.200000
67.054200 7637656.000000
68.049500 24146202.000000
69.057300 824188.900000
69.069900 14079639.000000
70.065100 39487932.000000
71.012800 98590.300000
71.073000 292315.000000
72.080800 259613.500000
77.038500 84374.700000
79.054200 509350.300000
80.049400 955283.700000
81.057400 1015828.800000
82.065200 53747296.000000
83.072900 25824624.000000
84.080800 6628909.000000
85.101100 140868.600000
91.054300 393584.500000
93.070000 1016142.600000
94.065200 1011526.900000
95.049200 226541.000000
95.085600 2144049.000000
96.080800 8093744.500000
97.088700 2813211.200000
98.096400 1183153.500000
108.080800 70003.200000
111.104200 517908.900000
124.112200 2968322.800000
126.127800 34499796.000000

>ms2
53.002200 1518604.800000
53.038600 695402.800000
53.997500 491846.500000
54.033900 1370290.500000
55.041700 1296394.500000
55.054300 6060832.500000
56.049500 1612470.800000
57.057300 1003303.900000
57.069800 75135.500000
57.987200 270967.200000
58.065200 2470470.500000
61.010700 425504.100000
65.038600 1555193.600000
67.041700 7189694.500000
67.054200 3415374.200000
68.049500 29500238.000000
69.057300 790966.800000
69.069900 2975667.800000
70.065100 18048562.000000
71.073100 82851.600000
72.080600 66589.700000
77.038600 58025.500000
78.008700 79325.600000
79.054200 913165.600000
80.049500 2167597.800000
81.057400 1628691.500000
82.065100 53166816.000000
83.072900 8338680.000000
84.080800 1554510.400000
91.054300 325985.700000
93.069900 217200.500000
94.065200 1158184.200000
95.049100 114321.800000
95.073100 95444.000000
95.085500 297011.800000
96.080800 6575979.500000
97.088800 558791.100000
98.096400 224876.400000
105.044700 299727.700000
108.080800 84740.000000
124.112000 483901.700000
126.127800 3051101.800000

>ms2
51.022900 55509.000000
53.002200 1837467.500000
53.038600 774304.900000
53.997500 413205.600000
54.033900 2804276.200000
55.041700 1377691.100000
55.054300 3952394.200000
56.049500 1668394.400000
57.057300 938722.900000
57.987200 386094.700000
58.065100 964111.400000
61.010700 184350.100000
65.038600 1988030.400000
67.041700 13145172.000000
67.054200 1761399.600000
68.049500 23264842.000000
69.057300 424224.600000
69.069900 470662.900000
70.065100 7644687.000000
78.008600 99113.200000
79.054200 806626.300000
80.049500 3665913.500000
81.057300 2151131.200000
82.065100 39307008.000000
83.072900 1993976.100000
84.080800 391247.000000
94.065200 1351838.100000
95.049200 382579.200000
95.073200 74182.100000
96.080800 3801145.200000
105.044700 94853.000000
126.127800 100844.100000

