>compound EQ19518741
>parentmass 301.1466
>ionization [M+H]+
>formula C18H21ClN2
>rt 492.000000
>profile orbitrap
#smiles_iso CN1CCN(CC1)C(C2=CC=CC=C2)C3=CC=C(C=C3)Cl
#smiles_can CN1CCN(CC1)C(C2=CC=CC=C2)C3=CC=C(C=C3)Cl
#inchikey WFNAKBGANONZEQ-UHFFFAOYSA-N
#pubchem_id 2710
#mb_accession EQ347601,EQ347602,EQ347603,EQ347604,EQ347605,EQ347606,EQ347607,EQ347608,EQ347609

>ms2
99.091600 5053550.000000
165.069600 2298065.800000
201.046400 558354176.000000

>ms2
99.091700 3108467.000000
165.069600 5405193.000000
166.077800 8049268.000000
193.076300 828385.100000
201.046500 596848320.000000

>ms2
99.091600 2019296.900000
165.069900 44919392.000000
166.077700 147287920.000000
183.080400 9173744.000000
193.076100 13203430.000000
199.031100 1306382.500000
201.046500 436410624.000000

>ms2
70.065100 813102.600000
99.091700 1076664.900000
141.070000 645899.600000
163.053700 401629.200000
165.069900 135120880.000000
166.077700 376935776.000000
183.080400 11601975.000000
193.076000 18544640.000000
199.030900 4244453.500000
201.046500 140190576.000000

>ms2
70.065100 696982.800000
99.091600 422054.300000
115.054000 431532.800000
139.054100 437268.200000
163.053900 432823.200000
164.061800 991647.000000
165.069900 243665488.000000
166.077700 328226464.000000
183.080400 3594126.500000
193.076100 6218323.500000
199.030900 6606749.500000
201.046500 19207128.000000

>ms2
70.065100 572571.900000
98.999600 1259532.800000
115.054200 2521413.800000
139.054300 1927219.800000
149.015600 581640.500000
152.061800 564344.400000
163.053500 1046181.600000
164.062100 5873014.500000
165.069900 452917120.000000
166.077700 196894144.000000
168.056700 1856986.900000
183.080700 700091.900000
193.075900 1122421.900000
199.030900 8835899.000000
201.046500 1956843.200000

>ms2
63.022800 1462830.500000
65.038600 2838688.000000
72.983900 2118922.500000
89.038600 1007094.200000
91.054200 726399.500000
98.999600 4498127.000000
115.054200 14596422.000000
125.015200 496486.900000
126.046400 533846.400000
136.007300 825093.500000
139.054200 13001892.000000
140.062000 630877.600000
149.015400 2897755.500000
152.061900 1010722.600000
163.054300 9776197.000000
164.062100 24104268.000000
165.069900 463222496.000000
166.077700 14453112.000000
168.056900 8571934.000000
186.022900 511089.500000
196.051900 3435254.200000
199.030900 3389213.000000

>ms2
53.002200 423809.800000
61.007200 437012.200000
62.015100 1357150.800000
63.022900 7234668.500000
65.038600 5282496.500000
72.983900 6487624.500000
74.015000 485940.100000
75.022800 791778.700000
76.030600 328362.200000
86.015100 792225.100000
87.022900 1965395.100000
88.030700 816156.900000
89.038500 7652900.000000
90.046500 606174.200000
91.054200 2646829.200000
98.999600 5622221.000000
99.022900 333296.200000
102.046400 712171.000000
113.038500 3212588.000000
114.046400 1939618.200000
115.054200 49617084.000000
122.999600 770544.500000
125.015400 584593.900000
126.046400 2666718.000000
127.054200 332860.800000
128.062000 341308.200000
129.044800 481865.800000
132.057000 1014510.600000
136.007500 919811.900000
137.038600 825029.300000
138.046400 1505839.600000
139.054200 41934720.000000
140.062000 1430636.000000
149.015300 2774587.500000
150.046300 1102395.900000
151.054100 401593.800000
152.061800 625390.500000
155.060400 511433.700000
162.046600 1032587.400000
163.054200 45566704.000000
164.062000 51772952.000000
165.069800 293924096.000000
166.077600 483897.800000
168.056900 19384724.000000
169.064500 767512.400000
179.060400 328872.900000
196.051800 6147398.500000
199.030900 745896.600000

>ms2
50.015100 364040.700000
51.022900 449134.900000
53.002200 684295.100000
61.007300 1468364.400000
62.015100 5842941.500000
63.022900 20286966.000000
64.030700 119216.800000
65.038600 10189676.000000
72.983900 9960021.000000
74.015100 2142129.000000
75.022900 2725049.000000
76.030700 1398233.200000
77.038500 402389.800000
86.015100 3260522.800000
87.022900 6329157.500000
88.030800 2494500.800000
89.038600 22807612.000000
90.046500 686824.800000
91.054200 5045247.500000
98.015200 1648518.100000
98.999600 3442158.800000
99.022900 1035424.700000
100.030700 529593.100000
101.038700 174212.000000
102.046400 1274903.800000
105.044900 288092.200000
111.022800 690509.800000
113.038600 9805685.000000
114.046400 2201680.000000
115.054200 71452928.000000
122.999400 564803.200000
125.015400 328486.400000
125.038700 434618.500000
126.046400 4468982.500000
127.054300 381786.900000
128.062000 118140.100000
129.044800 304935.100000
132.057000 985386.400000
136.007500 299848.800000
137.038600 2838478.500000
138.046400 2669846.200000
139.054200 60322660.000000
140.062000 996769.800000
145.065000 174742.600000
149.015400 1006433.900000
150.046400 1970314.500000
151.054000 162987.700000
152.062400 133800.100000
155.060400 470392.500000
161.038600 718895.500000
162.046400 3605834.500000
163.054200 88707608.000000
164.062000 43950620.000000
165.069900 87603176.000000
168.057000 18125446.000000
169.064800 362392.300000
179.060600 137528.300000
194.036200 805404.600000
196.051900 7321960.000000

