>compound EQ19491212
>parentmass 358.9574
>ionization [M+H]+
>formula C14H9Cl3N2OS
>rt 852.000000
>profile orbitrap
#smiles_iso CSC1=NC2=CC(=C(C=C2N1)Cl)OC3=C(C(=CC=C3)Cl)Cl
#smiles_can CSC1=NC2=CC(=C(C=C2N1)Cl)OC3=C(C(=CC=C3)Cl)Cl
#inchikey NQPDXQQQCQDHHW-UHFFFAOYSA-N
#pubchem_id 50248
#mb_accession EQ321101,EQ321102,EQ321103,EQ321104,EQ321105,EQ321106,EQ321107,EQ321108,EQ321109

>ms2
343.933000 2241945.500000
358.957200 590736768.000000

>ms2
165.021300 1130488.100000
198.001200 7626072.000000
273.993700 1298681.400000
276.993200 1587386.000000
311.961700 3572884.800000
343.934100 57218748.000000
358.957300 509958912.000000

>ms2
163.032300 689489.600000
165.021400 19187750.000000
167.000800 283506.300000
196.993400 4060424.000000
198.001300 29981236.000000
198.972500 4223880.000000
213.996100 875921.800000
229.991100 2670099.800000
242.023800 3677245.500000
250.989900 5160735.500000
272.988100 3383396.500000
273.996100 76596096.000000
275.984800 1144477.900000
276.992900 18580804.000000
280.970000 1065607.800000
289.018800 639924.400000
291.008500 1708125.000000
307.957000 3381291.200000
308.964900 17747480.000000
311.961700 7685584.500000
323.987500 581827.700000
343.933800 275790112.000000
358.957300 116777328.000000

>ms2
139.005500 465004.700000
152.013700 443521.100000
153.021500 467248.400000
155.966800 329046.000000
163.032400 9598465.000000
165.021400 30233702.000000
166.029100 275751.000000
167.000900 762919.200000
170.977700 7227132.000000
182.977800 2894869.500000
186.972500 276598.500000
196.993400 6517594.500000
198.001300 18615982.000000
198.972700 49833520.000000
213.995700 1005634.300000
222.994700 314086.200000
229.991200 4223194.000000
239.027000 685576.600000
242.024000 16397350.000000
244.993300 696449.200000
245.977200 335587.300000
246.001900 922390.200000
248.997400 546888.300000
249.982100 1382226.400000
250.989900 31263394.000000
255.031700 319807.200000
256.039600 357333.600000
257.964500 515638.400000
272.988300 10321723.000000
273.996100 264905120.000000
275.985100 9549634.000000
276.992900 17716542.000000
280.970000 6941729.500000
291.008600 2771136.200000
307.957200 8256801.000000
308.965000 32954898.000000
311.961200 730919.500000
343.933900 86904200.000000
358.957300 4144395.000000

>ms2
92.036900 249207.100000
118.052400 244830.600000
123.994800 366045.500000
127.005700 1977251.200000
128.956000 248584.600000
130.052600 389441.300000
135.001200 484887.200000
138.010400 1878749.100000
139.005700 3733040.500000
143.000600 467740.700000
143.966900 626927.600000
147.000900 244081.800000
148.008900 2356085.200000
152.013600 938655.200000
153.021400 1609459.500000
155.966800 2568247.500000
157.050800 233203.700000
163.032400 22138924.000000
165.021400 23779076.000000
166.029100 331455.200000
167.000800 1256732.400000
170.977700 66690776.000000
182.977900 5932974.000000
186.972700 344960.900000
188.025900 1113336.900000
189.010000 313184.800000
196.993500 5847459.000000
198.001300 7312294.000000
198.972700 75262360.000000
211.032400 4236154.500000
213.021500 888270.800000
214.029200 224510.800000
216.021100 1631114.800000
218.991000 483078.200000
221.071200 487398.000000
221.986900 800226.200000
222.994400 760843.700000
229.016500 382361.900000
229.991200 2384662.000000
238.019600 738344.400000
239.027300 12273597.000000
241.016200 1430551.600000
242.024100 36448432.000000
244.993500 1962097.800000
245.977300 2373807.200000
246.001200 2634995.800000
248.997300 558450.800000
249.982000 1969660.000000
250.989900 34703016.000000
255.031800 489335.400000
256.039600 363607.000000
257.964300 496746.400000
272.988400 6895348.500000
273.996000 222870208.000000
274.977500 271579.300000
275.985100 17172848.000000
276.992800 5017985.500000
280.970000 6157686.000000
291.009100 869564.200000
307.957100 3969656.000000
308.965000 6697680.500000
343.933800 4651968.500000

>ms2
61.979100 251732.800000
64.018100 344107.900000
72.983800 218946.600000
76.018000 437998.400000
78.033700 515346.700000
78.940300 222448.900000
82.028600 124727.100000
90.010500 235875.800000
90.033700 269073.900000
91.029000 563749.800000
92.036900 466579.600000
96.983800 372862.900000
99.994900 632553.000000
103.029100 734608.000000
107.990200 794696.100000
108.998100 466584.300000
111.994900 654733.000000
113.002500 220176.800000
117.044600 472922.600000
118.052500 292340.600000
119.990300 335762.500000
120.998000 229730.800000
121.039500 253202.400000
123.994800 880446.600000
125.002700 612817.100000
127.005700 13824633.000000
128.956000 1276737.800000
129.009900 187235.400000
129.044700 325493.800000
130.005500 429083.200000
130.040000 424400.100000
130.052600 640884.200000
135.001100 2143628.800000
136.009000 531250.100000
136.021700 122543.000000
138.010500 3726939.500000
139.005700 8629227.000000
139.989600 291171.900000
142.005400 265682.500000
143.000700 407717.800000
143.966900 3398583.000000
147.001100 347618.400000
147.055100 225493.700000
148.008900 8503100.000000
151.041600 211737.600000
152.013600 1105473.600000
153.011700 189301.000000
153.021400 3020756.200000
153.057400 427585.200000
155.000700 286182.900000
155.966800 5858012.000000
157.050800 324398.000000
160.007300 774544.900000
163.032400 21993848.000000
164.003700 336354.200000
165.021400 11623085.000000
166.029100 259855.800000
167.000900 892369.300000
170.059800 313667.900000
170.977700 119485952.000000
174.010400 409415.800000
178.052400 244085.500000
179.060500 599188.400000
180.044200 1362414.000000
181.051700 126513.200000
182.977800 4103739.500000
183.013600 357303.700000
184.021700 203621.100000
186.010200 290693.900000
186.973000 133435.500000
187.018200 1907978.400000
188.026100 3872656.000000
189.010100 3308107.800000
195.055100 566834.200000
195.983800 438909.400000
196.993500 2597635.000000
198.001300 1775900.000000
198.972700 35045148.000000
202.029400 567475.200000
203.012900 409554.400000
204.020900 505832.900000
207.055100 882934.900000
210.024500 588396.600000
211.032400 16376101.000000
212.016400 2312682.200000
213.021300 1819452.800000
214.005500 2988230.800000
214.029200 274832.100000
215.013300 2407440.200000
216.021100 6153440.000000
218.990600 1783523.100000
219.974300 1029174.900000
220.981400 386408.300000
220.991600 393403.200000
221.071000 259959.500000
221.987100 815853.800000
222.971300 1749117.800000
222.993800 523505.100000
223.979000 467462.300000
228.044500 216327.100000
229.016800 725268.300000
229.990800 522871.500000
238.019400 1372611.900000
239.027300 23975954.000000
241.016300 4333003.000000
242.024100 56803984.000000
244.993500 1974325.000000
245.977500 4076898.500000
246.001100 2021488.900000
247.965800 257198.600000
248.973900 469688.400000
248.997700 659835.800000
249.982000 1209712.100000
250.989900 22143882.000000
255.031800 215402.000000
256.039600 122191.800000
272.988400 3594709.800000
273.996100 86456160.000000
274.977500 212897.600000
275.985100 12645863.000000
276.993100 786456.100000
278.955100 226758.000000
280.970000 1920432.200000
307.957200 892220.100000
308.964300 206999.300000

>ms2
50.015100 264998.800000
51.022900 229961.700000
52.018100 703564.600000
53.002200 273590.400000
54.033800 329980.300000
55.017800 67506.000000
57.987100 85791.800000
58.995100 74444.400000
59.966400 324057.700000
59.990200 115746.100000
60.983900 121573.700000
61.979200 2250620.000000
62.015100 232979.100000
63.022900 1219741.900000
64.018200 5482171.500000
65.026000 292242.100000
65.038600 120588.600000
66.033800 424793.500000
68.013100 341691.900000
68.979300 1136957.500000
69.974600 272286.500000
69.987200 280783.500000
71.990100 112953.600000
72.983900 2843453.000000
73.979200 260869.200000
74.015000 660277.400000
75.010300 316251.400000
75.022900 1072599.900000
76.018100 6572256.500000
77.025900 537625.900000
78.033800 4283510.000000
78.940300 1341435.500000
79.017900 71345.400000
80.013100 202230.200000
80.979300 75427.000000
81.987100 513766.800000
82.028700 1155380.200000
82.994900 555004.000000
83.036500 252053.700000
83.990300 595750.700000
84.983900 714652.600000
85.969500 810106.400000
85.979200 1399173.900000
86.999600 213129.800000
87.994800 210892.800000
88.018100 284199.600000
89.026000 259616.500000
90.010500 3856568.800000
90.033900 1846334.100000
91.029100 7230523.500000
92.036900 3982681.000000
92.049400 301973.300000
92.979300 416117.500000
93.974600 66947.200000
93.987200 763643.800000
94.982400 63503.500000
94.995100 81684.300000
95.049300 111866.300000
95.990100 519742.300000
96.002800 250959.000000
96.044400 87370.900000
96.983900 1651831.600000
97.979300 95496.900000
99.022800 69821.100000
99.994800 8767911.000000
101.013500 92629.500000
102.033800 605370.200000
102.046500 253728.700000
102.940300 209745.300000
103.029100 3209045.800000
103.041600 478765.000000
104.036800 702537.900000
104.049500 197452.200000
105.044700 108403.200000
105.951200 78179.200000
107.990200 5775299.500000
108.983900 673065.200000
108.998100 2143778.800000
109.979000 74222.300000
110.005900 317585.700000
111.000100 109550.900000
111.994800 4771397.500000
113.002600 1259284.800000
113.038600 71974.100000
113.974200 921459.300000
115.054200 228162.400000
116.036800 516639.700000
116.956100 1364461.900000
117.044800 867002.400000
118.005300 430901.300000
118.052500 1127632.100000
119.990300 1519563.800000
120.044400 345884.000000
120.998100 1870027.600000
121.039700 338388.600000
123.022900 116467.600000
123.994900 1222594.600000
124.030800 113871.100000
125.002700 1218450.600000
125.038600 1446306.000000
126.046400 6026150.500000
127.005800 42859804.000000
127.989700 462809.000000
128.049500 202822.200000
128.956000 4731854.500000
129.010100 802709.900000
129.044700 576161.200000
130.005500 1428103.600000
130.040100 942671.900000
130.052500 696198.000000
131.060400 249669.300000
131.984600 315320.300000
135.001100 4798977.500000
136.007900 2156651.200000
136.021700 115335.800000
136.026700 111672.800000
136.990200 103679.800000
138.010500 1900139.000000
138.034200 209102.000000
139.005800 11261554.000000
139.989900 808760.600000
140.049500 4558998.500000
142.005500 341457.700000
143.001100 69258.500000
143.049100 405903.000000
143.967000 8233247.000000
145.016400 505830.200000
145.050900 285062.900000
146.966700 326127.200000
147.001200 580263.100000
147.055000 76094.100000
148.009000 21551796.000000
149.015400 385838.100000
149.998000 372265.200000
150.034000 274958.500000
151.041700 5021177.500000
152.013700 385337.800000
152.049500 2902376.800000
153.012000 384321.100000
153.021400 1946272.600000
153.044800 300798.700000
153.057300 4534890.000000
154.040200 102444.200000
155.000500 703864.900000
155.966900 4471904.500000
157.010700 247646.200000
157.052200 301393.100000
158.999600 316996.000000
160.007500 7882052.500000
161.002700 344806.100000
161.015200 1441522.800000
162.010500 255126.500000
162.042400 113322.700000
163.032400 7638488.500000
164.003600 497991.600000
164.049700 93586.400000
165.021500 1566749.400000
165.044700 339183.000000
166.052500 285943.900000
167.036400 86276.400000
167.060400 367560.200000
168.044500 530513.400000
169.010200 74858.300000
169.968600 662876.800000
170.060100 3490488.500000
170.977800 57072640.000000
173.015400 327986.700000
174.010500 1977339.100000
176.002300 849635.200000
176.037100 119191.600000
177.010400 73273.000000
177.044600 323458.300000
178.052600 1509471.100000
179.025800 733531.800000
179.049300 391596.300000
179.060400 4874214.500000
180.044400 7128934.500000
180.055600 1271158.200000
181.052100 901814.100000
182.977800 703130.800000
183.013800 1706343.800000
184.021600 1738029.600000
185.002700 918709.100000
185.016100 88088.000000
185.047400 86357.600000
186.010500 1789412.600000
187.018300 3704812.200000
188.026200 5542659.000000
189.010200 10979158.000000
189.021300 2997932.000000
190.005300 230426.500000
191.979400 271707.000000
193.968500 972066.600000
194.006000 317022.400000
194.047700 662556.300000
194.976500 106539.000000
195.055400 1971877.000000
195.984100 801204.600000
196.993500 288894.700000
198.055100 288154.900000
198.972500 1815095.500000
200.002400 446255.700000
202.005300 115964.500000
202.029200 681746.900000
203.013100 878656.800000
204.021300 1667622.000000
206.047300 557816.100000
207.055400 2452287.800000
209.016700 123382.100000
210.024500 684972.500000
211.032500 11715438.000000
212.016500 4726662.000000
213.021300 2081526.000000
214.005500 7718618.000000
215.013200 4539403.000000
216.021200 3032412.200000
216.974500 103234.300000
218.990300 444159.900000
219.974700 567530.000000
220.016000 204211.200000
220.992300 68087.900000
221.987300 348254.500000
222.971200 961823.900000
223.978900 496844.300000
229.016400 798286.100000
233.963500 448235.700000
237.011800 284489.900000
238.020000 436352.400000
239.027400 3776201.000000
241.016400 2491632.500000
242.024100 27897474.000000
244.993800 583216.100000
245.977600 3405677.000000
248.997600 66213.200000
249.982100 524329.500000
250.989900 2229410.800000
272.988400 1178732.500000
273.996200 1791000.800000
275.985000 1148942.600000

>ms2
50.015100 1185120.100000
51.010400 59778.100000
51.022900 586838.500000
52.018200 2290981.800000
53.002200 865733.400000
53.038600 220373.300000
53.997500 55232.300000
54.033800 351227.500000
55.017900 368101.000000
56.979300 162424.700000
57.987100 301264.700000
58.995000 87522.000000
59.966500 971384.600000
59.990300 596630.900000
60.984000 375858.100000
61.007300 351164.200000
61.979200 6022569.000000
62.015100 1396900.000000
63.022900 5460184.000000
64.018200 14848707.000000
65.002200 269147.300000
65.026000 1943827.500000
65.038600 253809.900000
66.010000 100104.900000
66.021300 78561.900000
66.033800 915228.900000
66.046400 198542.300000
67.029100 270439.700000
67.041600 52343.900000
68.013100 895162.900000
68.979300 4174128.000000
69.974600 793204.300000
69.987200 967124.700000
71.990300 348017.800000
72.983900 6673671.500000
73.979200 795896.700000
74.015000 2570559.800000
75.010300 2045475.200000
75.022900 5224447.000000
76.018100 19899368.000000
77.002200 237856.800000
77.025900 1780451.800000
77.038500 479945.200000
78.033800 11123270.000000
78.940300 3167010.000000
80.013100 201860.000000
80.036800 61116.200000
80.979300 405295.800000
81.033500 349205.900000
81.987200 1477144.000000
82.028700 1556264.000000
82.982400 227987.400000
82.994900 514069.500000
83.036500 210271.000000
83.976100 95195.200000
83.990300 1085496.500000
84.983900 2872823.000000
85.969500 1559421.600000
85.979200 4453512.500000
85.991500 347005.500000
86.999700 106234.900000
87.022900 222696.600000
87.994800 407405.200000
88.018200 1060477.200000
88.030700 262061.400000
89.026000 463657.400000
89.038500 442720.100000
90.010500 4380481.000000
90.033900 3384929.000000
91.029100 7988591.000000
91.041700 467081.800000
92.036900 5780936.000000
92.979400 1890181.800000
93.974700 378229.800000
93.987200 2581725.800000
94.028800 251533.250000
94.982500 70097.300000
94.995000 302222.000000
95.049200 896543.900000
95.990200 758056.600000
96.002800 106250.000000
96.044400 209725.100000
96.984000 2465594.000000
97.979200 395874.800000
97.993700 389808.900000
98.015200 698174.100000
98.999500 214853.800000
99.022900 2929324.000000
99.994800 12298470.000000
101.002300 120344.000000
101.013500 207865.400000
101.038600 237790.200000
102.033900 619831.100000
102.046500 688020.600000
102.940300 508272.200000
103.029100 3087822.200000
103.041600 379933.700000
104.036900 851027.200000
104.049500 339424.500000
105.044800 603855.000000
105.951200 282402.700000
106.982500 90624.200000
107.990200 4696044.500000
108.983900 495539.600000
108.998100 2247789.000000
109.979300 219929.200000
110.006000 102671.600000
110.999800 248110.700000
111.994800 4136132.200000
113.002600 692004.100000
113.038600 1856812.900000
113.974100 725640.200000
114.033900 372937.200000
114.046400 67188.300000
115.041800 98838.400000
115.054200 1102450.000000
116.037100 444819.200000
116.956000 972795.400000
117.044800 484759.200000
118.005200 507767.800000
118.041100 53451.900000
118.052500 952037.400000
119.049400 208520.600000
119.990300 1538122.000000
120.044600 195594.000000
120.998100 2823987.200000
121.039600 354401.300000
122.015200 239699.700000
122.999700 77318.400000
123.010200 72743.000000
123.023000 1419945.000000
123.995100 593547.400000
124.018200 725949.500000
124.030800 1236906.200000
125.002800 679518.200000
125.038600 6881087.000000
126.046400 20330064.000000
127.005800 15852724.000000
127.041600 1044859.200000
127.989700 373513.800000
128.049600 275409.500000
128.956000 3928188.000000
129.010100 412636.400000
129.044700 1158742.500000
129.951400 225881.500000
130.005400 681035.300000
130.039900 590082.900000
130.052500 236039.700000
131.984600 116994.000000
132.983800 56607.100000
135.001100 1775528.200000
136.007500 2490786.800000
136.026800 212784.000000
136.990400 61964.000000
137.038600 592861.500000
138.010500 538842.200000
138.033900 993999.200000
139.005800 4714391.000000
139.041700 388160.700000
140.049500 7189921.000000
142.005600 70331.500000
143.049200 1791893.800000
143.966900 2638484.000000
145.016300 291582.200000
145.050800 224764.000000
146.966600 249246.500000
147.000500 828219.600000
148.009000 13791380.000000
149.015400 361454.100000
149.998100 79780.400000
150.033800 669508.200000
150.046400 119881.200000
151.041700 11760150.000000
152.049500 4668591.000000
153.021400 295328.800000
153.033700 249286.300000
153.044700 1283868.800000
153.057300 3911293.800000
154.040000 360792.600000
155.000700 83962.800000
155.966800 1226002.900000
156.003000 205783.600000
156.044600 212332.796900
157.010800 314278.700000
157.052200 803947.000000
158.999600 534046.600000
160.007500 9703331.000000
161.002700 450910.000000
161.015100 1015300.800000
162.010500 293911.100000
162.033800 197362.900000
163.005800 247811.400000
163.032500 961542.100000
164.049200 207130.300000
165.021500 88634.800000
165.044600 454196.000000
166.052400 361674.700000
167.036700 313096.200000
167.060600 116520.800000
168.044300 992173.100000
169.010500 55617.100000
169.052300 81980.500000
169.968500 493706.400000
170.060000 4793483.500000
170.977800 6825974.000000
170.999100 365412.700000
173.015800 237274.500000
174.010500 2825362.800000
176.002300 609103.100000
176.037300 107665.400000
177.010100 74042.500000
177.044800 284553.800000
178.039900 246953.200000
178.052500 962196.000000
179.025800 418981.200000
179.049000 281860.400000
179.060400 3658181.000000
180.044400 3745980.800000
180.055600 1312510.000000
181.052100 316815.200000
183.013700 1796116.800000
184.021700 312028.400000
185.002700 892964.200000
185.016200 105694.500000
185.047300 57970.700000
186.010500 928701.800000
187.018300 1679042.600000
188.026100 1012726.600000
189.010200 1943037.100000
189.021300 1423576.600000
190.005500 262575.900000
191.979100 110560.500000
193.968500 514827.600000
194.005700 198914.800000
194.047500 121437.600000
195.055300 476660.400000
195.984200 81736.100000
198.055000 68485.800000
200.002600 411533.600000
202.005300 106747.000000
203.013100 221266.900000
204.021000 823783.000000
206.047400 195734.500000
207.055100 548934.200000
209.017100 63703.500000
210.024600 219765.800000
211.032600 945449.200000
212.016300 462410.700000
213.021300 507208.300000
214.005700 1941724.500000
214.016700 282071.281300
215.013300 941903.400000
216.021000 235751.600000
216.974600 107488.400000
220.016000 80909.800000
220.982000 70238.400000
222.971200 116063.800000
229.016000 94146.600000
241.016300 293410.300000
242.024100 1625348.900000
245.977300 762678.000000
247.966500 66982.300000

>ms2
50.015100 2683460.200000
51.010300 290972.600000
51.023000 1112980.600000
52.018200 4140151.000000
53.002200 1111784.200000
53.038600 268293.900000
53.997500 76019.000000
54.033800 78739.000000
55.017900 864488.400000
56.979400 303205.700000
57.987200 419359.000000
58.994900 45214.600000
59.966400 1103490.400000
59.990300 706327.400000
60.984000 748097.100000
61.007300 1010088.200000
61.979200 8836232.000000
62.015100 3826875.800000
63.022900 8725655.000000
64.018200 15851117.000000
65.002200 780449.600000
65.026000 2753486.200000
65.038600 352436.000000
66.010000 96662.400000
66.021200 200750.700000
66.033900 427368.800000
66.046400 220117.500000
67.029000 333721.500000
67.041500 185190.800000
68.013100 752910.100000
68.979300 4975159.000000
69.974600 1534403.500000
69.987200 955349.600000
71.990200 251989.300000
72.983900 7595195.000000
73.979200 890769.400000
74.015100 6248738.000000
75.010300 5999085.500000
75.022900 8899108.000000
76.018100 25765764.000000
76.030700 2200317.000000
77.002100 366960.500000
77.025900 1758838.000000
77.038500 551171.400000
78.033800 9383601.000000
78.940300 3466760.200000
79.017800 266241.600000
80.013100 116830.700000
80.037000 69730.700000
80.979300 648993.300000
81.033500 272964.800000
81.987200 1543314.900000
82.028700 721454.100000
82.982400 282406.600000
82.994900 97512.300000
83.036600 42867.300000
83.976200 191681.700000
83.990200 880017.800000
84.983900 2897989.500000
85.969500 1014710.900000
85.979200 5560907.000000
85.991700 369213.600000
86.015100 598178.000000
87.022900 1152070.800000
87.994800 471957.500000
88.018200 1620915.400000
88.030700 539789.900000
89.026000 519723.200000
89.038600 636226.900000
90.010500 1388253.400000
90.033800 2330816.200000
91.029100 3151254.500000
91.041700 491323.500000
92.036900 2734919.000000
92.979400 3935729.500000
93.974600 470435.000000
93.987200 2777340.200000
94.982400 229306.900000
94.995100 382628.100000
95.049100 1142920.200000
95.990200 551357.200000
96.002900 93084.500000
96.044300 204673.500000
96.984000 1825359.600000
97.979100 222803.000000
97.993400 789015.400000
98.015100 3397092.000000
99.022900 8985974.000000
99.994800 5082470.500000
100.018200 1173172.000000
100.030800 925442.312500
101.002200 228819.800000
101.013500 164859.800000
101.038600 428314.400000
102.033800 472946.800000
102.046400 714203.900000
102.940400 730464.600000
103.029100 1466448.000000
103.041700 205334.600000
104.036800 268967.900000
104.049400 264356.000000
105.044700 605094.200000
105.951300 376835.600000
106.982400 192994.500000
107.990200 1588761.900000
108.984000 491511.400000
108.998100 828750.300000
109.979200 213128.000000
110.999700 56292.200000
111.022900 314188.406300
111.994800 1540017.100000
112.018300 324440.437500
112.030800 260249.484400
113.002600 201725.400000
113.038500 2948500.800000
113.974200 206116.300000
114.033900 610624.300000
114.046500 73815.800000
115.041500 80617.100000
115.054300 944637.400000
116.037000 88759.400000
116.956000 255532.200000
117.044600 114198.800000
118.005400 218195.100000
118.041400 57742.000000
118.052500 451635.000000
119.049200 279732.600000
119.990300 1264491.600000
120.998100 1136933.600000
121.039600 195686.700000
122.015100 936465.800000
122.999600 231257.300000
123.010400 489008.300000
123.022900 1831398.100000
123.994900 108721.100000
124.018200 1483768.400000
124.030800 2173222.500000
125.038600 6198164.500000
126.046400 16788918.000000
127.005700 2151601.000000
127.041700 853013.200000
127.990000 50700.500000
128.049500 73502.800000
128.956000 1425511.800000
129.010100 102925.200000
129.044600 924784.400000
129.951200 78053.200000
130.005300 251131.300000
130.040000 351556.700000
131.984800 69452.900000
132.984100 112972.300000
135.000700 275489.100000
136.007500 869709.200000
136.026600 63619.300000
137.038500 543701.400000
138.010500 75605.000000
138.033800 1154499.500000
139.005700 1230576.800000
139.041600 506508.900000
140.049500 2532761.200000
143.049200 1352609.000000
143.966800 314526.000000
145.016000 46911.400000
147.000300 632418.812500
148.009000 4186527.800000
149.015200 64028.600000
150.033700 340226.300000
150.046400 200971.300000
151.041700 7421775.500000
152.049500 1722489.500000
153.033300 58870.100000
153.044700 1075160.400000
153.057200 866579.300000
154.039900 290184.800000
155.966700 94300.600000
156.002400 67297.100000
157.052300 647080.300000
158.999700 195549.600000
160.007400 3759803.000000
161.002500 260985.600000
161.015400 104441.100000
162.033900 226024.000000
163.005600 71770.900000
163.032600 58511.200000
164.049600 71523.500000
165.044600 116195.200000
166.052400 82393.000000
167.036500 103404.200000
168.044600 425972.200000
169.052000 54242.300000
169.968300 90974.200000
170.060000 1557970.000000
170.977800 545596.600000
170.999600 196007.600000
174.010600 894111.400000
176.002100 61576.100000
176.036400 52874.900000
177.044600 56026.300000
178.040100 58128.400000
178.052400 371428.500000
179.060300 500016.900000
180.044500 342266.100000
180.055400 220222.100000
183.013500 595222.200000
186.011100 58385.700000
187.018400 68123.300000
189.021400 193903.800000
195.054800 88759.500000
204.020300 68376.900000
214.005400 287614.900000

