>compound EQ20753202
>parentmass 314.0935
>ionization [M+H]+
>formula C16H12FN3O3
>rt 486.000000
>profile orbitrap
#smiles_iso COC(=O)NC1=NC2=C(N1)C=C(C=C2)C(=O)C3=CC=C(C=C3)F
#smiles_can COC(=O)NC1=NC2=C(N1)C=C(C=C2)C(=O)C3=CC=C(C=C3)F
#inchikey CPEUVMUXAHMANV-UHFFFAOYSA-N
#pubchem_id 35802
#mb_accession EQ365901,EQ365902,EQ365903,EQ365904,EQ365905,EQ365906,EQ365907,EQ365908,EQ365909

>ms2peaks
282.067100 36095732.000000
314.093500 932636672.000000

>ms2peaks
282.067400 610427392.000000
314.093500 333480288.000000

>ms2peaks
95.029200 930542.600000
123.024100 57455628.000000
159.042900 891891.000000
186.030000 1656366.900000
254.072100 1075529.800000
270.104600 906138.800000
282.067400 807017216.000000
314.093500 10836966.000000

>ms2peaks
50.015000 722377.800000
51.023000 677935.200000
71.029200 1931219.800000
75.022900 1262252.600000
79.017800 612544.500000
93.033500 604840.800000
95.028900 2917523.000000
99.024100 603292.200000
113.039700 9735905.000000
123.024100 395541440.000000
123.035100 37175624.000000
158.035100 465114.100000
159.042600 3068216.200000
160.050700 3403707.200000
184.055800 1349452.500000
185.063800 514580.800000
186.030000 10398494.000000
186.041200 2892939.000000
191.032700 1051388.900000
226.077700 6239463.500000
254.072500 4519686.000000
257.072000 488968.100000
264.057000 1455981.400000
282.067400 445331168.000000

>ms2peaks
50.015100 2988602.800000
51.022900 1486921.900000
53.002200 606169.200000
71.029200 9988938.000000
73.008400 676025.200000
74.015000 923174.500000
75.022900 8160714.500000
79.017800 3128236.800000
93.033500 2500626.200000
95.029100 9530044.000000
99.024100 2499233.500000
104.037100 636087.000000
105.044900 753370.600000
111.044100 811829.200000
113.039800 48823556.000000
123.024200 480929376.000000
123.035100 167163936.000000
124.032400 1409657.800000
130.040100 4248578.500000
131.023900 1019059.100000
131.048000 2631804.800000
132.055800 1135941.200000
150.066400 1121268.100000
158.034900 861439.600000
159.042800 14295316.000000
160.050600 6419299.000000
166.065400 1160013.500000
174.071300 887078.600000
176.045500 847483.300000
184.055900 9294015.000000
185.063600 1334436.400000
186.030000 10133506.000000
186.041200 9395986.000000
191.032600 5237788.500000
199.066800 3083300.000000
206.071500 627292.400000
209.051200 527209.600000
226.077600 8929683.000000
227.061800 546548.900000
236.062400 584830.600000
253.064900 637726.200000
254.072600 2775651.000000
264.056900 1642337.900000
282.067500 77827512.000000

>ms2peaks
50.015100 3614445.000000
51.023000 2857683.800000
53.002200 2036711.500000
55.017900 505011.100000
65.038600 540109.400000
69.013500 376730.900000
71.029200 16766183.000000
73.008400 785081.800000
74.015100 3165801.000000
75.022900 25398664.000000
77.026000 1421924.600000
78.033800 379408.200000
79.017800 5396588.500000
79.041700 899828.300000
93.033600 3759377.200000
95.029200 19152534.000000
99.024100 4080938.200000
103.029000 580915.500000
103.041800 936291.600000
104.037000 5901806.500000
105.044800 4455242.500000
111.044200 1133961.400000
112.032000 735016.000000
113.039800 86721456.000000
115.029000 297888.100000
116.037000 503675.500000
121.039800 360709.600000
123.024200 239320672.000000
123.035200 261230768.000000
124.032400 1896458.800000
130.040100 12358695.000000
131.024000 2662826.000000
131.047900 13396009.000000
132.055800 2803411.200000
133.044800 423839.200000
145.039600 369640.400000
147.079000 365795.900000
150.066300 2599915.800000
157.045000 1788097.400000
158.035000 1098546.400000
158.040200 910105.500000
159.042800 23518022.000000
160.050600 4708238.000000
160.061700 439549.000000
166.065100 1110883.900000
172.055600 858023.400000
174.030000 829912.600000
174.071600 1298390.100000
176.045500 964905.900000
182.040000 408711.100000
184.055800 12707165.000000
185.063600 2255277.000000
186.030000 2631014.000000
186.041100 8506253.000000
191.032600 8720138.000000
195.048200 392127.800000
199.066800 4520843.500000
200.050600 500721.100000
206.071300 327831.900000
209.051100 1298631.800000
210.058900 533452.000000
225.069600 438983.700000
226.077700 2363949.800000
254.072300 845971.300000
264.057300 720685.700000
282.067500 5103977.000000

>ms2peaks
50.015100 3440776.200000
51.022900 1851975.500000
52.018200 328741.000000
53.002200 5008235.500000
53.026000 315821.600000
55.017900 664115.800000
63.023000 879255.800000
64.018100 673426.100000
64.030700 428278.900000
65.038600 1783671.500000
66.046400 384515.300000
67.041700 667256.800000
69.013500 1411914.000000
71.029200 15341642.000000
73.008500 1025076.900000
74.015100 18384466.000000
75.022900 132671912.000000
76.018100 4085542.200000
77.026000 20049114.000000
78.033800 4134438.000000
79.017800 5415068.500000
79.041700 2656458.200000
80.036900 448469.100000
89.026000 334328.200000
90.034000 914432.100000
91.041700 893281.900000
93.033600 3638566.000000
95.029200 42750880.000000
96.044400 473778.800000
97.052300 345229.800000
98.016300 326246.800000
99.024100 2649317.500000
102.034000 317212.600000
103.029100 4822914.500000
103.041700 1495988.400000
104.036900 30496734.000000
105.044800 22257066.000000
109.045000 349320.900000
111.044100 857895.700000
112.032000 822011.500000
113.039800 84787952.000000
116.037000 1651307.900000
117.044700 313599.600000
118.052500 449968.800000
120.031900 426682.500000
121.039900 1728093.800000
122.047500 330369.500000
123.024300 28683250.000000
123.035300 225553424.000000
124.032500 1762670.900000
125.038700 528675.700000
130.040100 14901678.000000
131.024100 2453865.000000
131.047900 20317446.000000
132.055700 2360597.200000
133.044800 2849026.500000
136.027000 1669412.200000
139.054100 675384.100000
140.049600 467261.400000
145.045000 446537.000000
145.051100 322277.200000
146.040400 296862.300000
146.052500 617416.200000
150.066300 1581225.400000
155.060500 485902.300000
157.045000 5285742.000000
158.035000 276653.100000
158.040200 4982495.000000
159.042800 9081819.000000
160.050500 795654.200000
160.061800 308875.800000
163.055600 423760.700000
164.049600 1153797.200000
170.052700 353201.400000
170.060100 432735.800000
171.048000 377437.900000
172.055700 1052115.900000
173.051200 1987417.200000
174.029900 612093.100000
174.071400 582928.100000
179.060700 397902.200000
182.040400 1201455.800000
184.055900 4670638.000000
185.063500 1152840.000000
186.040900 686681.400000
191.032600 3656102.500000
195.048100 553936.400000
197.051100 440028.800000
199.066900 1319667.400000
209.051100 588058.800000
210.059100 511214.000000

>ms2peaks
50.015100 3282317.500000
51.022900 1242013.400000
52.018200 1230370.400000
52.030800 321786.900000
53.002200 6031775.000000
53.026000 460520.000000
54.033900 415838.200000
55.017900 349119.600000
57.013600 361638.600000
61.007300 661242.900000
62.015100 1559449.900000
63.023000 4634777.000000
64.018200 2583481.200000
64.030800 1275945.200000
65.002200 550528.100000
65.026000 964549.600000
65.038600 2056326.800000
66.010000 292526.000000
66.046400 442476.800000
67.041700 1971057.800000
68.049500 287718.900000
69.008400 1638644.400000
69.013500 5038227.000000
71.029200 6330265.000000
74.015100 58638980.000000
75.022900 238665584.000000
76.018200 15072714.000000
77.026000 44338700.000000
78.033800 14572046.000000
79.017900 2308690.200000
79.041700 1788207.800000
80.036900 483419.000000
83.029200 847483.000000
89.002200 444790.500000
89.026000 668301.500000
90.033900 2044723.200000
91.041800 924306.900000
92.049500 337603.000000
93.033700 1256069.600000
94.028800 398949.800000
95.029200 32830664.000000
95.036300 1720483.000000
96.044400 1691036.000000
99.023700 1342157.900000
103.029100 5859816.500000
103.041700 383415.200000
104.037000 21369358.000000
105.044800 23107616.000000
107.029300 1051884.600000
109.044900 341722.000000
111.044100 431663.100000
112.031900 422302.300000
113.039800 37846612.000000
116.037000 983816.600000
117.044700 350102.900000
121.039800 1120575.400000
123.035400 91322632.000000
124.032500 637408.400000
125.038700 1500854.800000
130.040100 5715128.000000
131.024000 536365.800000
131.029300 1304440.500000
131.047900 5766954.000000
132.055900 405473.700000
133.044900 3543643.200000
136.026900 1519431.200000
137.038700 611418.200000
139.054200 662304.100000
140.049500 336244.000000
144.037000 527861.100000
145.044900 461278.600000
146.052700 1087120.200000
150.066200 295562.800000
153.044700 359888.700000
157.045000 4944342.500000
158.040200 3791788.500000
159.042900 975945.400000
164.049700 780392.500000
168.037200 532444.800000
171.047900 709483.200000
173.051200 856163.800000
182.040200 1215651.800000
184.055800 1019515.400000
185.063700 312877.200000
191.033100 598928.300000
195.047700 403384.700000

>ms2peaks
50.015200 6005396.000000
51.023000 1822073.900000
52.018200 3177163.200000
52.030800 296741.800000
53.002200 3452133.000000
53.026000 392970.700000
54.033900 504156.400000
55.017900 464382.100000
57.013600 1285881.100000
61.007200 1349951.600000
62.015100 2888706.800000
63.023000 8241395.000000
64.018200 4584189.500000
64.030800 1091217.400000
65.002300 980114.300000
65.026000 1285554.900000
65.038600 1688289.400000
66.010000 286787.600000
67.041700 1901396.100000
68.049500 377255.500000
69.008400 3694256.200000
69.013500 9232803.000000
71.029200 2102152.500000
73.007100 451202.800000
74.015100 106848632.000000
75.022900 201448656.000000
76.018100 23292314.000000
77.026000 31394520.000000
78.033800 15705867.000000
79.017900 731385.800000
79.041600 682507.900000
81.013500 609900.100000
83.029200 1620109.800000
87.023000 479750.400000
88.018300 702505.000000
89.002300 1210364.600000
89.026100 517307.500000
89.038500 309478.500000
90.033900 1379802.000000
91.041600 699655.800000
94.021400 360029.700000
94.028800 374106.800000
95.029200 11818827.000000
95.036600 745562.700000
96.044500 1319282.500000
103.029100 3131005.800000
104.036900 6069890.000000
105.044800 8874692.000000
107.029200 1692037.900000
113.039800 9970304.000000
120.036900 277027.900000
121.040000 603491.200000
123.035400 21091332.000000
125.038700 1145194.200000
130.040200 1364712.900000
131.029200 1952535.100000
131.047900 769576.800000
133.044800 1754985.800000
136.026900 484728.600000
137.038700 574299.200000
139.054100 297092.000000
144.037000 980885.800000
146.052700 497982.500000
155.029100 397121.300000
157.045000 2497982.800000
158.040400 1203780.100000
164.049700 419452.900000
168.037100 310613.800000
182.040300 584618.300000

