>compound EQ21110724
>parentmass 287.1309999999999
>ionization [M+H]+
>formula C17H19ClN2
>rt 540.000000
>profile orbitrap
#smiles_iso C1CN(CCN1)C(C2=CC=CC=C2)C3=CC=C(C=C3)Cl
#smiles_can C1CN(CCN1)C(C2=CC=CC=C2)C3=CC=C(C=C3)Cl
#inchikey UZKBSZSTDQSMDR-UHFFFAOYSA-N
#pubchem_id 9340
#mb_accession EQ338301,EQ338302,EQ338303,EQ338304,EQ338305,EQ338306,EQ338307,EQ338308,EQ338309

>ms2
85.076000 1290907.600000
165.069100 1526910.500000
201.046600 332221696.000000
287.131100 24064198.000000

>ms2
85.076000 762495.800000
165.069700 2846604.800000
166.077800 4469924.500000
193.076500 504625.300000
201.046500 344626784.000000

>ms2
85.076000 525051.900000
165.070000 24382978.000000
166.077800 77337912.000000
183.080500 4863279.000000
193.076200 7303409.000000
199.030800 627339.800000
201.046600 249252464.000000

>ms2
85.076000 272590.300000
141.070200 221372.700000
163.053900 255867.700000
165.070000 69870704.000000
166.077700 202479040.000000
183.080500 6525949.000000
193.076200 10071633.000000
199.031000 2466042.200000
201.046600 83730520.000000

>ms2
56.049500 207367.400000
63.022800 185105.000000
115.054000 280301.600000
139.054100 211167.500000
164.062100 636739.600000
165.070000 130346464.000000
166.077700 182948416.000000
183.080500 2118778.000000
193.076100 3360891.000000
199.031000 3493972.200000
201.046600 11906138.000000

>ms2
63.022800 233692.500000
98.999600 556077.100000
115.054200 1118339.800000
139.054300 790783.200000
152.062200 237796.200000
163.053700 472341.700000
164.062100 2708838.000000
165.070000 219878912.000000
166.077700 98483000.000000
168.056900 775117.200000
183.081000 372372.100000
186.023000 225046.200000
193.076100 655935.600000
196.051700 298457.500000
199.031000 4386501.500000
201.046600 1188437.200000

>ms2
63.022800 691574.800000
65.038600 1584229.900000
72.983900 1010037.800000
89.038600 666982.100000
91.054200 383492.600000
98.999600 2237571.000000
114.046500 320723.300000
115.054300 7391138.500000
125.015300 269432.100000
126.046500 297303.000000
136.007300 377873.100000
139.054300 6660561.000000
140.061900 470857.400000
149.015500 1610149.400000
152.061800 452705.200000
162.022900 286817.700000
163.054400 5327391.500000
164.062200 12682348.000000
165.069900 250025584.000000
166.077800 7761451.000000
168.057000 4524970.500000
196.051900 1495363.400000
199.031100 2472911.200000

>ms2
53.002200 196844.900000
62.015100 626862.000000
63.022900 3327515.000000
65.038600 2578732.500000
72.984000 3408727.000000
74.015000 183818.200000
75.022900 544460.700000
76.030700 162583.100000
86.015100 266737.400000
87.022900 944800.200000
88.030800 406899.200000
89.038600 3810334.000000
90.046500 348777.300000
91.054300 1565180.500000
98.999600 2786760.500000
102.046400 497949.800000
113.038600 1717332.400000
114.046500 918519.700000
115.054300 25286918.000000
118.041400 171292.800000
122.999600 337900.000000
125.015400 292944.800000
126.046500 1546264.200000
127.054300 251280.200000
128.062100 209804.600000
132.057100 518410.700000
136.007500 498422.000000
137.038600 358531.500000
138.046400 555312.900000
139.054300 22020860.000000
140.062100 683760.400000
149.015400 1558570.400000
150.046400 665865.400000
152.061800 327684.900000
155.060600 202121.000000
162.046400 432291.800000
163.054400 22980206.000000
164.062200 28106022.000000
165.070000 156928592.000000
166.077800 247134.100000
168.057000 10676297.000000
169.064600 508275.300000
196.052000 3644817.500000
199.031100 511621.900000

>ms2
50.015100 314506.400000
51.023000 218810.300000
53.002200 329597.500000
61.007300 694023.800000
62.015100 2690894.000000
63.023000 9900294.000000
65.038600 4804881.500000
72.984000 4762474.000000
74.015100 1074723.800000
75.022900 1575811.900000
76.030700 576943.300000
77.038600 199405.600000
78.046500 81962.500000
85.007300 88630.700000
86.015100 1643826.500000
87.023000 3073303.500000
88.030800 1037459.000000
89.038600 11789879.000000
90.046500 332749.800000
91.054300 2432666.200000
95.049300 368854.800000
96.983900 169972.900000
98.015200 635124.600000
98.999700 1833864.100000
101.038600 185227.100000
102.046400 627994.900000
105.044900 220122.500000
113.038700 4566956.500000
114.046500 1051470.200000
115.054300 36300372.000000
118.041300 89702.700000
119.049300 49637.300000
122.999600 316854.600000
125.015500 76171.200000
125.038400 91578.000000
126.046500 2174804.500000
127.054300 181437.600000
128.062400 65272.000000
129.044600 290526.500000
132.057200 527951.400000
136.007600 83720.700000
137.038700 1243629.000000
138.046500 1369843.500000
139.054300 30116286.000000
140.062100 536056.300000
145.065300 70992.400000
149.015500 516288.000000
150.046600 1072180.900000
151.054500 45156.400000
152.062300 47587.900000
155.060500 178454.300000
162.046500 2043922.200000
163.054400 45043968.000000
164.062200 22635250.000000
165.070000 45053344.000000
168.057100 8800634.000000
169.064900 322076.700000
196.052100 3415998.000000

