>compound EQ22951451
>parentmass 200.12809999999996
>ionization [M+H]+
>formula C10H17NO3
>rt 48.000000
>profile orbitrap
#smiles_iso CN1C2CCC1C(C(C2)O)C(=O)OC
#smiles_can CN1C2CCC1C(C(C2)O)C(=O)OC
#inchikey QIQNNBXHAYSQRY-UHFFFAOYSA-N
#pubchem_id 251884
#mb_accession EQ361901,EQ361902,EQ361903,EQ361904,EQ361905,EQ361906,EQ361907,EQ361908,EQ361909

>ms2
82.064800 1224858.400000
156.101900 558388.100000
168.101600 1452154.400000
182.117400 42556136.000000
200.127800 363646528.000000

>ms2
82.064900 4104491.500000
100.075600 303577.200000
108.080600 392448.900000
124.112000 573122.900000
150.091300 965068.900000
156.101800 1144417.900000
168.101700 2811037.000000
182.117400 80124824.000000
200.127900 301092416.000000

>ms2
59.012600 186857.000000
65.038500 178667.200000
67.054100 239576.800000
68.049400 228342.700000
70.065000 306101.900000
76.039200 428761.400000
79.054100 233641.000000
82.065000 37964068.000000
83.072700 1257830.800000
84.080700 1370699.200000
91.054100 1685664.600000
93.033400 1168300.900000
93.069800 1731455.600000
94.065000 712774.800000
96.080700 2329851.500000
97.064600 180489.500000
100.075500 2611685.200000
105.069800 213605.800000
107.049000 282245.800000
108.080600 4302876.500000
114.091400 207711.500000
118.041000 337950.200000
119.049100 3671181.500000
122.096300 2045920.000000
124.075600 573069.900000
124.112000 2585702.000000
125.059400 523017.800000
132.080600 400872.700000
133.064600 227206.700000
138.091100 541440.900000
140.106800 605836.400000
150.091200 8614621.000000
151.075300 1156665.600000
154.086200 2148078.000000
156.101800 2927253.000000
168.101700 6157563.000000
182.117400 174452304.000000
200.127900 129835080.000000

>ms2
53.038500 181425.000000
56.049400 271260.900000
57.057200 581434.600000
58.028600 144748.600000
58.065100 245683.300000
59.012700 193728.200000
59.049000 204982.700000
65.038500 1629846.600000
67.041500 571716.800000
67.054100 963337.600000
68.049400 1536356.800000
69.033400 452810.100000
70.065000 1358899.400000
76.039200 515630.800000
79.054100 2047732.800000
80.049200 400259.400000
81.069800 1142139.900000
82.065000 91725264.000000
83.072800 7240843.000000
84.044200 351276.400000
84.080700 3170179.200000
86.059900 169951.500000
91.054100 7352617.500000
93.033400 6485334.500000
93.069800 4191041.500000
94.065000 2640493.000000
95.072800 298509.800000
96.080600 6514640.500000
97.064700 1605740.400000
100.075600 6848625.000000
105.069700 517658.300000
107.049000 453206.800000
107.072900 423933.600000
108.080600 9210807.000000
109.064600 643792.800000
114.091300 520147.800000
117.057300 201672.800000
118.041100 1379098.800000
119.049000 10202540.000000
121.064700 324102.400000
122.059900 543937.800000
122.096300 6943665.500000
123.080300 249123.700000
124.075500 912040.100000
124.112000 3278045.800000
125.059600 1579969.000000
126.091100 370514.800000
128.070300 156917.500000
132.080600 1026119.800000
133.064600 298056.600000
135.067700 577957.700000
138.091200 856739.400000
140.106800 753191.100000
150.091200 13072218.000000
151.075300 1283113.800000
154.086100 4835078.500000
156.101800 2122631.800000
164.107100 314011.800000
168.101700 3494865.200000
182.117400 113916544.000000
200.127900 25711786.000000

>ms2
53.038500 363386.800000
55.017800 224445.400000
55.054100 386819.700000
56.049400 504029.400000
57.057200 1395756.500000
58.028700 405644.600000
58.065000 333890.300000
59.012700 207104.900000
59.049000 286972.400000
65.038500 6288808.500000
67.041600 1949121.200000
67.054100 2122896.000000
68.049400 5691851.000000
69.033400 1392980.500000
70.065000 2132511.500000
71.012600 493522.600000
71.048900 339769.400000
76.039200 319729.000000
77.038400 348662.200000
79.054100 5283018.000000
80.049300 738978.400000
81.057300 580545.800000
81.069800 1839041.500000
82.065000 102595968.000000
83.072800 15241773.000000
84.044300 547868.400000
84.080700 3989505.200000
85.064600 164540.300000
91.054200 14546391.000000
93.033400 11379895.000000
93.069800 3985409.500000
94.065000 6153186.000000
95.049000 529712.200000
95.072800 866289.800000
95.085400 184688.700000
96.080600 8188211.000000
97.064700 3691157.500000
99.044000 154075.300000
100.075600 7482096.000000
105.044700 310462.700000
105.069800 754141.200000
106.065000 190450.400000
107.049000 357632.200000
107.072800 1021833.200000
108.080600 8663190.000000
109.064700 832437.900000
109.088500 159498.800000
114.091200 461481.600000
117.057100 423791.300000
118.041200 2078621.200000
119.049100 10557191.000000
120.080700 215120.900000
121.064600 351229.700000
122.059900 1030831.600000
122.096300 8187053.500000
123.080300 416598.400000
124.075600 985470.100000
124.112000 2081078.000000
125.059600 1502468.000000
126.091200 247112.100000
132.080700 1077924.200000
133.064500 247008.600000
135.067700 1015767.200000
138.091100 514427.700000
140.106800 579900.600000
150.091200 7783849.500000
151.075300 588422.200000
152.070500 217340.700000
154.086100 4220476.000000
156.101700 876719.200000
164.107000 188957.300000
168.101700 945382.400000
182.117400 35740560.000000
200.127900 3311305.000000

>ms2
53.002100 147710.100000
53.038500 896262.000000
55.017800 345926.500000
55.054200 854354.800000
56.049400 1058869.000000
57.057300 2317983.200000
58.028700 454730.200000
58.065100 185282.200000
59.012700 139935.400000
59.049100 305809.300000
65.038500 13242206.000000
66.046300 288703.400000
67.041600 4201405.000000
67.054200 3758192.000000
68.049400 12441518.000000
69.033400 2969124.000000
69.069700 193444.500000
70.065000 2681100.000000
71.012600 1432735.000000
71.049000 679002.100000
76.039200 173261.600000
77.038400 739991.500000
79.054100 7666552.500000
80.049400 1861719.400000
81.033500 281836.400000
81.057300 1207757.400000
81.069800 2622939.200000
82.065000 91957672.000000
83.072800 17435678.000000
84.044300 644250.300000
84.080700 4354392.500000
85.064600 146496.400000
90.046300 189787.000000
91.054200 19128884.000000
93.033400 10608303.000000
93.069800 2607071.200000
94.065000 11461609.000000
95.049000 1172656.900000
95.072900 1139409.800000
95.085400 223865.300000
96.080700 7911435.500000
97.064700 3920331.500000
99.044000 179194.200000
100.075600 6027818.000000
103.054000 171362.400000
105.044600 681869.000000
105.069800 589959.200000
106.065100 384948.100000
107.049000 227863.200000
107.072900 1460618.100000
108.056900 332717.900000
108.080700 5608822.000000
109.064700 519921.300000
109.088400 224622.800000
114.091200 231484.000000
117.057100 830684.200000
118.041200 1867038.000000
118.065000 162366.700000
119.049100 7176399.000000
120.080600 430884.700000
121.064700 240311.500000
122.059900 1392753.400000
122.096300 5003803.000000
123.080200 230285.300000
124.075500 362795.200000
124.111900 867575.300000
125.059600 745029.900000
126.091200 211260.200000
132.080600 671522.400000
135.067700 1034606.800000
138.091300 168794.200000
140.107000 287004.900000
150.091200 2563257.800000
151.075000 224545.900000
152.070300 444899.300000
154.086100 2331641.500000
156.101800 139843.300000
168.101800 196918.600000
182.117400 7730993.500000
200.127900 247975.500000

>ms2
50.015100 173122.000000
51.022900 200487.500000
53.002200 420472.100000
53.038500 1950318.900000
53.997500 89010.900000
54.033800 150775.300000
54.046300 203339.000000
55.017800 396733.300000
55.041600 140820.200000
55.054200 1727179.800000
56.049400 2199768.500000
57.057200 2730833.200000
58.028600 295390.100000
58.065100 68799.800000
59.012600 66528.200000
59.049100 88815.200000
65.038500 19051250.000000
66.046300 780021.200000
67.041600 10151530.000000
67.054200 4210091.000000
68.049400 19277580.000000
69.033400 3347266.200000
69.069800 190941.800000
70.065000 1884419.600000
71.012700 2187922.500000
71.049100 395873.200000
72.080600 71885.600000
77.038400 1366593.900000
78.033700 60337.900000
78.046300 135563.300000
79.054100 5812108.500000
80.049400 3252844.000000
81.033400 421786.800000
81.057200 1881596.800000
81.069800 1147047.100000
82.065000 56958156.000000
83.072800 7711684.500000
84.044300 324422.300000
84.080700 2726595.500000
89.038400 169679.800000
90.046400 633763.200000
91.054200 14729351.000000
92.049400 145600.900000
93.033400 2503637.500000
93.057200 680533.200000
93.069800 702942.700000
94.065000 15605939.000000
95.049000 2646705.500000
95.072900 460994.400000
96.044300 405110.500000
96.080600 2894000.200000
97.064700 1269763.200000
100.075600 1288320.100000
103.054100 60022.300000
105.044600 1418868.400000
105.069700 192794.700000
106.065000 1103375.600000
107.049000 448404.200000
107.072800 1159214.900000
108.056800 240698.800000
108.080600 1473658.000000
109.064800 87614.800000
110.059900 179080.100000
117.057100 639317.600000
118.041200 517902.000000
118.064900 148699.700000
119.049100 976661.700000
120.080700 221874.900000
122.060000 474807.700000
122.096300 765443.200000
124.112000 137402.500000
125.059400 69316.000000
132.080500 84308.600000
134.059900 141238.000000
135.067700 295303.500000
138.054700 347868.500000
150.090900 85718.500000
152.070500 253980.500000
154.085900 217696.800000
182.117200 151279.500000

>ms2
50.015100 405602.000000
51.022900 528325.100000
52.030800 39699.200000
53.002200 689724.900000
53.038600 2412122.500000
53.997500 269433.400000
54.009900 39277.900000
54.033800 457115.600000
54.046400 322573.700000
55.017800 253506.400000
55.041600 201070.700000
55.054200 1921153.200000
56.049400 2493445.000000
57.057300 1863567.800000
58.028700 219517.700000
58.065100 195914.800000
59.049000 38750.500000
63.022800 174290.100000
64.030600 32092.100000
65.038500 16476957.000000
66.046400 950942.100000
67.041600 13673479.000000
67.054200 2652982.000000
68.049400 16649489.000000
69.033400 1567795.000000
70.065000 815827.900000
71.012700 1880233.900000
71.049000 145124.400000
72.080600 67322.700000
77.038500 1403335.400000
78.033800 334784.200000
78.046400 144911.900000
79.041500 435784.200000
79.054200 2647035.200000
80.049400 3944192.800000
81.033400 494897.000000
81.057300 1604200.800000
81.069900 370164.800000
82.065000 31758724.000000
83.072800 1793748.200000
84.044400 152107.600000
84.080700 1220888.000000
89.038500 759037.300000
90.046400 749946.300000
91.054200 6940076.500000
92.049400 251442.200000
93.033400 289908.200000
93.057200 844244.900000
93.069900 137977.700000
94.065100 13841932.000000
95.049100 2495225.500000
96.044300 656620.400000
96.080700 607513.800000
97.064700 222221.300000
100.075500 206267.600000
105.044700 1600974.500000
106.065000 1092219.600000
107.049000 276638.800000
107.072900 474166.000000
108.056800 37214.900000
108.080700 497970.100000
110.059900 152808.100000
117.057200 278855.500000
118.041100 138117.700000
119.048900 44103.500000
120.044300 42684.200000
120.080800 150990.600000
122.059800 58067.900000
122.096400 76086.200000
130.065300 34037.000000
134.060000 128117.100000
138.054700 169006.900000
152.070500 35969.900000

>ms2
50.015100 565560.300000
51.022900 1546021.600000
52.030700 70301.100000
53.002200 1123508.900000
53.038600 2214516.800000
53.997400 317616.300000
54.009900 64895.300000
54.033800 533734.200000
54.046400 229638.400000
55.017800 151039.000000
55.041600 300528.500000
55.054200 1384173.500000
56.049400 2521585.000000
57.057300 856302.400000
58.028700 64628.400000
58.065000 31630.500000
63.022900 341497.400000
64.030700 38132.100000
65.038500 10243357.000000
66.046300 773190.000000
67.041600 14461351.000000
67.054200 1340942.500000
68.049400 9920252.000000
69.033400 499648.900000
70.065100 479637.400000
71.012700 931234.000000
71.049100 48929.400000
77.038400 1137733.500000
78.033800 490332.800000
78.046400 110800.200000
79.041600 1235360.000000
79.054200 1027212.400000
80.049400 4136961.500000
81.033500 265758.400000
81.057200 954434.800000
81.069700 140838.900000
82.065000 15506243.000000
83.072900 321454.400000
84.080700 361446.700000
89.038500 760056.800000
90.046400 396286.600000
91.054200 2282556.200000
92.049400 255686.800000
93.057200 973714.600000
94.065100 9705004.000000
95.049000 1652513.600000
96.044300 1008137.800000
96.080600 134024.400000
105.044700 940425.800000
106.065100 652591.300000
107.049100 73513.200000
107.072900 65527.000000
108.080800 38214.200000
110.059900 49831.100000
117.057200 71166.500000
120.080800 54038.800000
134.060000 37405.100000

