>compound EQ24782318
>parentmass 203.07030000000003
>ionization [M+H]+
>formula C12H10O3
>rt 510.000000
>profile orbitrap
#smiles_iso C1=CC=C2C=C(C=CC2=C1)OCC(=O)O
#smiles_can C1=CC=C2C=C(C=CC2=C1)OCC(=O)O
#inchikey RZCJYMOBWVJQGV-UHFFFAOYSA-N
#pubchem_id 8422
#mb_accession EQ371601,EQ371602,EQ371603,EQ371604,EQ371605,EQ371606,EQ371607,EQ371608,EQ371609

>ms2
55.054200 2916.100000
83.085500 15461.200000
87.044200 3528.300000
101.059800 3406.400000
107.085500 8192.700000
111.080500 17674.000000
115.054300 6378.200000
127.053900 23278.300000
128.061500 4859.900000
129.069900 244768.600000
135.080500 7206.500000
139.075400 14279.900000
143.070700 3261.500000
144.056800 3045.300000
145.064900 11976.000000
155.060500 19311.600000
157.064800 2824647.200000
175.075400 27229.400000
185.059800 40597.700000
203.070400 102912.600000

>ms2
55.054200 5525.100000
67.054200 2998.900000
69.069800 4550.300000
77.038200 2953.900000
81.069800 3284.500000
83.085500 34132.500000
87.044100 3008.800000
93.069900 3406.900000
103.054200 6431.300000
107.085500 8922.500000
111.043900 2863.800000
111.080400 27227.000000
115.054200 11987.800000
127.054000 28354.800000
128.061900 6173.500000
129.069900 535264.600000
135.080500 7412.200000
139.075400 14471.900000
143.085400 3532.800000
144.057100 3292.600000
145.064900 33104.200000
155.060500 69935.100000
157.064800 2761117.000000
175.075300 20776.300000
185.059800 18866.000000
203.070600 28394.200000

>ms2
51.022900 2838.400000
55.017900 3146.500000
55.054200 24846.900000
57.069900 1708.700000
59.049100 2498.400000
67.054200 4774.200000
69.033500 2981.100000
69.069900 14869.600000
77.038400 2719.800000
79.054200 4736.200000
81.069900 5260.800000
83.085500 72124.600000
87.044100 1722.500000
91.054300 3346.200000
93.070000 5666.000000
95.085500 3453.200000
97.064800 3606.200000
101.059900 3035.700000
103.054200 46295.400000
105.033500 1602.000000
105.069900 4225.900000
107.085500 9203.800000
111.044100 3012.400000
111.080500 21713.000000
115.054300 31507.200000
115.075400 1709.900000
117.070000 5959.200000
119.085600 3209.200000
121.064800 2892.500000
127.054200 42567.600000
128.062100 48457.300000
129.069900 1193825.600000
131.049100 2014.700000
135.080500 2388.300000
139.075400 4999.100000
143.085600 3607.900000
144.057100 15714.800000
145.064900 204670.200000
146.072600 1907.400000
155.060500 487086.900000
156.057400 4186.500000
157.064800 1345891.400000
159.080600 1899.600000
175.075300 3823.900000

>ms2
51.022900 2824.000000
53.038600 1832.500000
55.017900 6959.600000
55.054300 56813.200000
57.069900 2414.300000
59.049200 3570.900000
67.054200 6731.900000
69.033500 2058.400000
69.069900 21136.700000
73.064800 2739.000000
77.038500 2790.400000
79.054200 7917.000000
81.069900 6555.500000
83.049100 3366.300000
83.085500 57271.300000
91.054300 7874.700000
93.069900 6218.700000
95.049200 3875.700000
95.085500 2582.600000
97.064800 2335.000000
101.059900 1550.700000
103.054200 97483.100000
105.069900 9667.200000
107.085600 5382.200000
111.080400 6455.700000
115.054200 43519.000000
116.057600 2873.500000
117.069900 18180.000000
119.085600 4563.600000
121.064800 4089.200000
127.054200 96385.900000
128.062100 226163.200000
129.069900 1191418.000000
131.049200 5694.100000
131.085600 2294.000000
133.064700 1780.200000
142.077700 3570.200000
143.085300 2249.500000
144.057000 33361.800000
145.064900 475461.100000
146.072800 4472.400000
155.060400 1074709.200000
156.057400 11819.500000
157.064800 395502.900000
159.080400 2736.100000

>ms2
51.022900 3366.600000
53.038600 3040.700000
55.017900 7693.900000
55.054300 67988.100000
57.033500 1662.600000
57.069900 1689.100000
59.049200 2936.300000
67.054200 5015.600000
69.069900 21162.800000
73.064800 1983.300000
77.038500 2425.800000
79.054200 10554.500000
81.069900 6291.000000
83.049100 3782.800000
83.085500 25442.500000
91.054200 10197.000000
93.069900 6297.400000
95.049200 9305.200000
95.085600 2195.900000
97.064900 1485.600000
102.046100 1539.900000
103.054300 118684.900000
105.044700 3327.900000
105.069900 11683.700000
107.085500 1729.000000
111.080500 2520.700000
115.054300 46494.200000
116.057600 2085.000000
116.062100 8139.800000
117.069900 27027.200000
119.085600 4202.700000
121.064800 4340.300000
126.046400 6970.300000
127.054300 247962.200000
128.062100 430229.300000
129.069900 619492.800000
131.049200 10947.700000
131.085500 2337.200000
142.077900 3199.400000
143.085800 2162.300000
144.057100 43197.700000
145.064900 598146.200000
146.072700 5668.400000
155.060400 1254919.100000
156.057400 10538.200000
157.064800 67113.600000
159.080600 3875.000000

>ms2
51.022900 2930.300000
53.038600 10827.200000
55.017900 6341.500000
55.054300 71070.200000
59.049100 4160.900000
65.038500 1547.200000
67.054200 4972.100000
69.069900 17776.900000
75.022800 2745.300000
77.038300 6710.200000
79.054200 8582.500000
81.069900 3894.800000
83.049100 3423.000000
83.085500 6873.000000
91.054200 16642.000000
93.069800 3624.300000
95.049200 37434.200000
101.038500 1867.000000
102.046300 1738.100000
103.054200 107406.600000
105.033500 2003.700000
105.044800 21455.800000
105.070000 9976.200000
115.054300 69898.600000
116.057700 2568.300000
116.062000 19900.100000
117.069900 28621.900000
119.049100 3970.200000
119.085600 2441.800000
121.065000 3757.300000
125.038500 1411.800000
126.046500 44338.900000
127.054300 446753.500000
128.062100 531892.300000
129.069900 228494.500000
131.049200 10379.500000
141.070000 4032.000000
142.077700 2740.300000
143.049000 1561.300000
144.057000 40869.400000
145.064900 532557.600000
146.072600 2078.100000
155.060400 1170953.400000
156.057400 9388.000000
157.064900 8708.400000
159.080800 3671.700000

>ms2
50.015100 11623.100000
51.022900 9721.000000
53.038600 65229.400000
55.017900 8452.600000
55.054300 43694.700000
59.049100 3157.800000
63.022800 2881.700000
65.038600 7202.700000
67.054200 5763.200000
68.997100 764.900000
69.069900 5307.600000
73.064800 850.800000
74.015000 2044.400000
75.022900 30087.700000
77.038500 58478.900000
78.046400 8475.800000
79.054200 7083.900000
81.033500 9321.700000
81.069900 1653.800000
83.049100 681.200000
87.023000 1671.100000
89.038600 7936.500000
91.054300 33794.200000
93.069900 877.600000
94.041300 4316.900000
95.049200 289142.500000
97.007700 2314.600000
99.023000 1011.800000
101.038600 19572.500000
102.046400 13399.200000
103.054300 60289.100000
105.044800 185560.500000
106.041800 1740.200000
109.064800 661.700000
113.038300 611.200000
115.054300 183508.400000
116.057600 3903.700000
116.062000 24991.000000
117.069900 18062.300000
119.049200 29565.600000
121.064700 1707.900000
125.038500 4538.000000
126.046500 236884.400000
127.054300 497273.300000
128.062100 483218.000000
129.044700 77339.000000
129.069800 21720.700000
131.049200 7914.700000
132.057000 603.300000
141.070100 5464.700000
142.077600 576.400000
143.049300 948.300000
144.057000 17386.700000
145.064900 269260.100000
153.045000 1340.700000
155.060400 570323.700000
156.057400 4230.000000
159.080400 2646.100000
161.059900 1005.200000

>ms2
50.015100 36145.500000
51.023000 43265.800000
52.030700 820.900000
53.038600 83004.000000
53.997500 454.300000
55.017900 7563.900000
55.054300 15839.300000
59.049100 1403.500000
62.015100 1717.800000
63.022900 9006.200000
65.002200 2260.100000
65.038600 25420.200000
66.046500 500.300000
67.054200 6219.500000
68.997100 1512.200000
74.015000 10274.400000
75.022900 131574.200000
76.030700 6005.700000
77.038500 116571.100000
78.046400 27541.200000
79.017900 623.000000
79.054200 4070.300000
81.033500 12010.500000
86.015100 1832.600000
87.022900 6522.000000
87.044200 389.200000
89.038600 28036.900000
91.054300 35461.600000
94.041400 5198.000000
95.049200 346439.400000
97.007600 3845.500000
98.015100 2618.100000
99.022900 7436.300000
100.030700 2237.700000
101.038600 31110.200000
102.046400 52697.000000
103.054200 15962.700000
105.044800 210815.700000
106.041700 1428.800000
109.064800 806.700000
111.023300 915.800000
115.054300 208636.700000
116.057600 2329.900000
116.062000 7375.800000
117.069900 4186.200000
119.049200 24480.200000
125.038700 5349.500000
126.046500 224737.600000
127.054300 148400.800000
128.062100 222775.600000
129.044700 78338.900000
131.049300 2069.500000
132.056900 535.600000
141.070100 2790.600000
143.049200 1488.900000
144.057300 2740.400000
145.064900 58264.000000
155.060400 121584.200000
156.057300 649.200000
161.060000 543.900000

>ms2
50.015200 80870.600000
51.023000 97229.400000
52.030800 3467.300000
53.002200 8356.700000
53.038600 53426.000000
53.997500 576.900000
55.017900 6403.100000
55.054300 5433.300000
57.069900 343.800000
59.049100 843.500000
61.007300 1987.500000
62.015100 6129.800000
63.023000 36355.200000
65.002200 4037.600000
65.038600 45451.900000
66.046400 855.200000
67.054200 4889.500000
68.997100 785.400000
71.049400 433.400000
74.015100 47290.900000
75.022900 219532.100000
76.030700 19529.700000
77.038500 111452.100000
78.046400 37509.400000
79.017900 2068.600000
79.054300 2194.900000
81.033500 10853.700000
86.015100 10347.600000
87.023000 16002.300000
88.030800 712.900000
89.038600 62871.400000
91.054300 22826.700000
94.041300 3088.000000
95.049200 209389.800000
97.007700 4677.900000
98.015200 11410.100000
99.023000 9544.300000
100.030800 6650.500000
101.038600 17770.000000
102.046400 66771.800000
103.054300 4444.800000
105.044800 133963.500000
106.041700 625.500000
109.064900 516.700000
111.023200 1951.300000
113.038600 1807.900000
115.054300 176046.800000
116.058200 588.800000
116.062100 2430.500000
117.070000 499.700000
119.049300 12379.700000
125.038800 2797.900000
126.046500 144092.700000
127.054300 35281.500000
128.062100 74173.400000
129.044700 32359.300000
141.069900 658.900000
145.064800 14005.600000
153.044700 703.800000
155.060400 26525.200000

