>compound EQ24528634
>parentmass 295.95609999999994
>ionization [M+H]+
>formula C7H6ClN3O4S2
>rt 114.000000
>profile orbitrap
#smiles_iso C1=C2C(=CC(=C1Cl)S(=O)(=O)N)S(=O)(=O)N=CN2
#smiles_can C1=C2C(=CC(=C1Cl)S(=O)(=O)N)S(=O)(=O)N=CN2
#inchikey JBMKAUGHUNFTOL-UHFFFAOYSA-N
#pubchem_id 2720
#mb_accession EQ325601,EQ325602,EQ325603,EQ325604,EQ325605,EQ325606,EQ325607,EQ325608,EQ325609

>ms2
215.974800 83299.800000
278.929500 2071250.400000
286.955500 176153.600000
295.955900 38172004.000000

>ms2
96.984000 24957.500000
123.995000 31744.900000
131.966800 79672.600000
134.047400 50074.000000
139.989700 21069.500000
141.021400 31621.300000
141.950600 55288.300000
142.005500 53303.200000
152.013600 18846.100000
155.984500 22853.100000
157.016200 33607.900000
158.000200 46830.100000
159.961800 58020.600000
169.016200 53268.300000
169.946000 57402.700000
187.956700 270483.900000
203.951600 310164.200000
204.983400 2690315.500000
214.967700 396990.900000
215.974700 44824.800000
220.978200 1069120.400000
230.962600 2186440.200000
232.978300 119318.900000
242.973800 1256234.200000
268.945100 70245.400000
278.929500 13920062.000000
286.955800 1466174.100000
295.956000 17302878.000000
310.955500 137303.700000

>ms2
52.018200 24710.700000
63.985100 19821.300000
72.983700 26658.700000
78.033700 13424.400000
78.940300 24453.300000
79.980000 7430.100000
86.999500 8299.300000
87.994700 8989.000000
89.025800 8990.400000
93.044800 19622.800000
95.990200 38492.800000
96.983900 22638.500000
97.979200 23260.600000
99.994700 30810.300000
102.940400 19647.800000
104.956000 227694.400000
105.044700 77869.600000
106.028500 7149.500000
106.052500 62132.000000
106.982400 17180.700000
107.990200 116036.400000
108.998100 28350.700000
111.994800 16248.100000
113.974200 16930.200000
114.010500 232335.000000
114.994500 8750.300000
115.989900 41230.200000
116.955900 15053.500000
119.966900 23500.000000
121.039600 65796.300000
122.047400 27945.300000
123.001100 227710.700000
123.994700 100306.500000
124.009000 185251.400000
124.039300 28557.500000
124.992900 22931.400000
125.002600 41063.500000
126.010600 23625.800000
127.989700 33125.900000
128.997400 41829.900000
129.021400 134173.000000
130.005400 80789.800000
131.966900 1239712.800000
132.950900 201860.200000
133.039600 44950.500000
134.047500 105322.100000
139.005800 23440.400000
139.989700 587409.700000
140.997700 23411.000000
141.011900 89707.800000
141.021300 218865.800000
141.951300 1024908.600000
142.005500 303668.500000
143.966900 118077.200000
143.984600 7324.200000
144.950900 35948.300000
150.996200 42585.600000
151.005700 57083.700000
152.013600 94027.500000
153.021500 32307.700000
153.969000 33731.800000
155.000700 46800.200000
155.984600 504644.700000
157.016300 1098475.000000
158.000300 1002496.200000
158.978000 29163.300000
159.961800 569175.400000
160.945900 57501.300000
167.000800 20909.100000
168.992500 20116.600000
169.006800 24028.800000
169.016300 147713.700000
169.946200 1020141.800000
171.979500 53037.100000
173.011300 169133.700000
173.995200 141504.700000
177.972400 161861.500000
179.011700 33306.800000
184.003200 22741.100000
185.001500 60852.200000
186.972700 8811.200000
187.956700 1370423.500000
192.983000 7185.900000
203.951800 3300118.500000
204.983400 6922723.500000
205.967100 68448.500000
207.983200 20839.000000
214.967700 2799721.500000
215.975200 59207.400000
216.983300 22592.700000
220.978300 3561231.200000
223.977900 51561.100000
230.962600 3784433.500000
232.978200 454801.100000
242.973800 2110832.500000
243.971200 14673.500000
247.965200 52679.800000
268.945500 17022.500000
278.929600 4383315.000000
286.955800 436070.000000
295.956200 1369289.000000

>ms2
52.018200 41580.600000
54.033800 7388.700000
58.995000 4448.000000
59.990200 18234.700000
61.979100 16974.300000
62.014900 5186.000000
62.963200 8165.100000
63.022800 4074.800000
63.985100 102938.500000
64.018100 35536.200000
65.025900 6808.700000
66.033800 26270.900000
67.041600 14532.700000
68.013100 15198.600000
68.049400 5295.100000
68.979300 40335.200000
69.044700 15649.800000
69.974500 17008.100000
70.052500 29257.900000
70.995000 16466.800000
71.990100 38280.700000
72.983900 84080.900000
76.018100 20876.900000
78.033800 118901.400000
78.940300 119060.100000
79.041700 15624.500000
79.980000 30234.000000
80.013000 38596.400000
80.049300 3180.700000
80.979200 4317.400000
82.028700 16085.800000
82.052500 8358.200000
83.990100 5305.900000
84.983800 6171.500000
85.979300 7937.400000
86.005900 29290.700000
86.963100 42838.700000
86.999600 92981.300000
87.994800 69129.400000
88.018200 4420.300000
89.025900 73104.900000
90.010500 16166.800000
90.033800 8150.400000
92.013000 9202.900000
93.044700 224832.100000
94.028600 29482.300000
94.052600 52685.000000
94.994800 6229.100000
95.990200 265292.200000
96.044400 38088.400000
96.974300 23182.600000
96.983900 114250.800000
96.998000 26623.600000
97.979200 581082.200000
98.999500 3915.200000
99.994800 59001.800000
100.978900 8047.500000
101.002700 86985.100000
102.010500 68696.400000
102.940300 148613.400000
104.956000 799464.800000
105.044700 194516.200000
106.028700 66970.000000
106.052500 162536.700000
106.982300 139589.100000
107.990200 182871.100000
108.974400 6240.500000
108.998000 73193.800000
109.015800 15118.900000
109.039500 15807.300000
110.047500 36293.200000
111.055200 19283.100000
111.994800 186455.100000
112.978900 7505.400000
113.002600 18667.700000
113.974100 112933.400000
114.010500 654671.200000
114.994500 58525.600000
115.005400 4851.500000
115.029100 9020.000000
115.989800 164096.900000
116.037000 20530.000000
116.956000 56168.900000
117.044700 183685.600000
118.052800 5184.800000
119.966900 35131.500000
121.039600 246697.900000
122.047400 166584.300000
123.001100 344150.300000
123.994800 548592.200000
124.009000 303109.000000
124.039300 195438.500000
124.993000 39223.300000
125.002700 340399.500000
125.997800 4619.800000
126.010500 67195.500000
126.982000 37615.900000
127.005700 7235.100000
127.989700 54183.000000
128.997600 104990.500000
129.021400 834476.900000
130.005400 601371.200000
130.971900 8959.500000
131.966900 1637757.800000
132.950900 254552.400000
133.039500 17620.900000
133.063200 14771.700000
134.047400 25078.400000
139.005700 105033.300000
139.989700 2821816.000000
140.997500 82181.200000
141.012000 91070.000000
141.021300 205296.000000
141.951300 2924032.200000
142.005400 1159656.600000
142.959100 8124.000000
143.966900 86691.100000
143.984500 29362.200000
144.950900 22161.100000
144.992600 29770.900000
145.016300 31389.500000
145.050600 4194.400000
150.996500 40788.600000
151.005700 218382.000000
152.013600 288740.900000
152.997600 20444.000000
153.021500 44024.500000
153.968900 40623.100000
153.993000 9234.400000
155.000600 177203.500000
155.984600 1960109.800000
157.016300 2069611.800000
158.000300 1397805.600000
158.977900 35941.500000
159.961800 395368.300000
160.015900 90257.100000
160.945400 28421.900000
167.000800 7368.900000
168.008600 18033.700000
168.992700 28859.500000
169.006500 8352.300000
169.016400 36891.200000
169.946200 1239189.100000
170.977700 8033.100000
171.961600 5512.500000
171.979400 44901.900000
173.011200 906452.100000
173.995200 534305.400000
177.972400 79306.700000
179.011600 48091.500000
184.003300 97997.400000
184.987500 7788.900000
185.001600 101479.400000
186.972900 25328.300000
187.956700 1165057.800000
188.964300 30784.400000
192.983100 37150.600000
203.951800 2038235.100000
204.983400 2061797.400000
205.967300 26702.800000
206.975300 5840.900000
214.967600 1204980.400000
215.975500 142159.400000
220.978200 1698482.800000
223.977900 18680.400000
230.962500 470370.000000
232.978300 135880.300000
242.973800 237532.600000
247.965300 136246.100000
278.929500 169585.000000
286.955500 21521.100000
295.956100 18498.900000

>ms2
50.015000 8862.200000
51.010200 3668.900000
51.022800 8468.500000
52.018100 57735.700000
53.002200 19065.000000
54.033800 44532.400000
55.017800 13185.800000
56.049400 20955.400000
58.982300 4300.300000
58.995000 7361.200000
59.966400 3974.800000
59.990200 7292.000000
60.983900 5049.300000
61.979100 37238.200000
62.015100 19990.000000
62.963200 29641.700000
63.022900 17765.300000
63.985100 215541.100000
64.018100 93166.400000
65.002100 3493.400000
65.026000 18296.900000
66.033800 129507.900000
67.017800 7177.400000
67.028900 4837.300000
67.041600 61865.600000
68.013000 40917.000000
68.049400 4324.300000
68.979300 103630.100000
69.044600 17178.600000
69.974500 17209.000000
69.987000 7901.700000
70.052500 16709.100000
70.994900 32239.500000
71.990200 55355.200000
72.983900 278682.200000
74.999500 20374.200000
76.018100 130352.000000
77.002100 19283.100000
78.033800 270705.300000
78.940300 205117.400000
79.017700 15204.700000
79.029000 15764.800000
79.041700 33342.500000
79.980000 32668.800000
80.013000 134067.600000
80.049400 16017.000000
80.979200 5089.400000
81.033600 4985.300000
81.987100 5466.700000
82.028800 30570.700000
82.052600 21484.500000
83.990200 8118.000000
84.974200 16137.900000
84.983900 42630.500000
85.979200 81212.600000
86.005900 22619.900000
86.963200 61666.600000
86.999600 230232.700000
87.994800 118611.800000
88.018200 28350.500000
89.026000 503232.300000
90.010600 39378.900000
90.033900 85605.100000
91.017800 18457.200000
91.029100 8790.700000
91.948300 6161.500000
92.013100 58751.500000
92.036900 13894.100000
93.044700 429675.000000
94.028800 106935.400000
94.052500 129928.000000
94.994900 5625.200000
95.012700 4106.800000
95.990200 363969.900000
96.044400 61230.000000
96.974400 32843.400000
96.984000 641509.800000
96.998100 93410.000000
97.979200 1767194.100000
98.999600 31815.400000
99.994800 205701.300000
101.002700 233840.800000
102.010500 290129.400000
102.940300 227408.200000
103.029000 15001.100000
104.956000 1096734.500000
105.044700 225344.700000
106.028800 108470.900000
106.052500 201659.800000
106.982400 697440.400000
107.990200 132540.200000
108.044400 8578.300000
108.998000 56114.200000
109.015700 5210.500000
109.039600 46555.300000
110.047500 30829.300000
110.963100 4336.600000
111.055300 40076.700000
111.994800 654234.100000
112.978900 49775.300000
112.990000 42607.900000
113.002800 40125.700000
113.974100 336736.100000
114.010500 776084.700000
114.994500 108718.300000
115.005500 8366.800000
115.028900 15810.900000
115.989800 144410.800000
116.036900 53584.000000
117.044700 979122.400000
118.005500 5923.300000
118.028400 13318.600000
118.039700 3710.800000
118.052600 28290.300000
119.024100 3406.800000
119.966900 16054.800000
120.008100 7338.500000
121.039600 189552.300000
122.047500 131153.600000
122.966500 27326.300000
123.001100 208163.700000
123.994900 1250204.800000
124.009000 281232.500000
124.039300 270706.100000
125.002700 858253.700000
125.997900 16870.900000
126.010500 58366.600000
126.981900 58838.700000
127.005700 67935.000000
127.989700 134703.600000
128.013300 8517.400000
128.997600 104537.500000
129.021400 1225786.800000
130.005400 969356.100000
130.958900 8427.000000
130.972100 3983.400000
131.966900 791402.100000
131.984600 232857.900000
132.950900 135064.700000
133.039500 18332.700000
133.063500 14435.400000
134.047700 28180.800000
139.005700 171313.700000
139.989700 2472333.800000
140.973600 8466.200000
140.997400 107319.600000
141.011700 24126.700000
141.021400 87156.800000
141.951300 2093451.200000
142.005400 1796737.600000
142.958900 28403.400000
143.966800 25849.200000
143.984600 21197.100000
144.951100 6636.600000
144.992400 22759.600000
145.016200 62861.100000
145.050700 8601.900000
146.000000 15326.700000
150.996000 13421.200000
151.005800 229344.500000
152.000700 148306.600000
152.013600 366377.100000
152.997400 26391.400000
153.021600 36384.900000
153.968800 4387.100000
153.992800 5947.400000
155.000600 405395.800000
155.984600 2314184.800000
157.016300 940268.300000
158.000300 449587.300000
158.978000 26135.600000
159.961800 122004.500000
160.015900 127119.000000
160.945400 5003.600000
167.000600 7785.100000
168.008400 5594.500000
168.992400 18833.300000
169.016900 5509.200000
169.946200 465758.900000
170.977400 5063.000000
171.962100 5732.800000
171.979600 8272.100000
173.011200 1398131.200000
173.995200 634936.100000
177.972200 22036.400000
179.011300 26908.500000
181.006900 5702.700000
184.003300 101744.700000
184.987200 19653.300000
185.001400 48994.600000
186.972800 7376.800000
187.956700 288243.000000
188.964600 29827.100000
192.983100 7494.900000
203.951700 263623.200000
204.983300 205109.500000
206.974800 4840.600000
207.983100 4206.300000
214.967600 145609.600000
215.975400 75700.800000
220.978200 299113.400000
230.963500 26893.500000
232.978100 7452.000000
247.965200 80148.000000

>ms2
50.015100 34627.800000
51.010300 4425.500000
51.022900 19841.000000
52.018200 129259.000000
53.002200 37442.600000
54.033800 63912.200000
55.017800 24959.100000
55.029000 3862.500000
56.049500 31283.800000
58.982400 7434.400000
59.990200 6334.500000
60.983900 16831.500000
61.007200 16280.200000
61.979200 111558.200000
62.015100 88082.400000
62.963200 49071.700000
63.022900 133265.400000
63.985100 274613.000000
64.018200 133896.300000
65.025900 51287.000000
66.033800 264679.400000
67.029100 6811.500000
67.041600 104061.800000
68.013100 103493.600000
68.049400 5519.600000
68.979300 195912.900000
69.044700 14622.600000
69.974500 36475.600000
69.987200 17680.300000
70.995000 21268.700000
71.990200 70585.400000
72.983900 515444.200000
73.979100 18176.900000
74.015100 4366.800000
74.999500 49539.100000
75.010200 15143.400000
76.018100 351709.000000
77.002100 95046.900000
77.025800 5394.600000
78.033800 447161.600000
78.940300 179471.400000
79.017800 33538.600000
79.029000 24454.000000
79.041700 59579.400000
79.979900 25836.100000
80.013000 143155.900000
80.049400 17625.000000
80.979300 15061.200000
81.033500 40231.800000
81.987100 21290.300000
82.028800 52969.900000
82.052500 23998.100000
83.990300 13745.900000
84.974200 17790.100000
84.983900 114476.400000
85.979200 273581.800000
86.963200 34299.700000
86.999600 251439.500000
87.994800 174528.900000
88.018200 85372.900000
89.026000 1397805.200000
90.010500 70200.500000
90.033900 363406.500000
91.018000 26453.600000
91.029100 48575.100000
91.948300 7143.900000
92.013100 94008.800000
92.036900 36163.400000
93.044700 441877.400000
94.028800 153634.200000
94.052500 97159.200000
95.012900 5019.200000
95.036600 5037.500000
95.990200 264443.400000
96.044500 36796.300000
96.984000 1393150.000000
96.998100 124594.600000
97.979200 2039562.500000
98.987100 4156.400000
98.999600 48867.600000
99.994800 465341.200000
101.002700 231099.400000
102.010500 417160.400000
102.940300 216931.100000
103.029100 37474.400000
104.956000 815624.200000
105.044700 171850.000000
106.028800 79480.300000
106.052500 145374.300000
106.982400 1268621.200000
107.990200 95256.300000
108.044300 28798.600000
108.998100 39738.300000
109.015900 6851.700000
109.039600 32889.100000
109.978800 5446.700000
110.047400 22453.500000
110.963200 42052.400000
111.031500 7062.300000
111.055400 37344.500000
111.994800 714237.800000
112.978800 88661.600000
112.990100 95870.200000
113.002600 64120.900000
113.974100 418840.400000
114.010500 510764.000000
114.994500 81015.400000
115.029100 20483.400000
115.989800 65311.800000
116.036900 72888.900000
117.044700 1853416.900000
118.005100 7851.000000
118.028700 40378.300000
118.052500 30024.300000
119.024000 7570.200000
119.966900 7923.400000
120.008100 37776.500000
121.039700 67744.700000
122.047300 27872.600000
122.966500 7944.800000
123.001100 64245.800000
123.994900 1234012.400000
124.009000 149683.400000
124.039300 150846.300000
125.002700 862790.600000
125.997900 18520.800000
126.010500 23034.800000
126.981900 37811.400000
127.005700 143756.400000
127.989800 175273.700000
129.021400 785964.400000
130.005400 709769.500000
130.959000 5257.700000
131.000700 3754.800000
131.966900 248428.600000
131.984700 277236.600000
132.950900 43594.400000
133.039600 18752.200000
134.047500 27842.900000
139.005800 95866.600000
139.989800 930030.100000
140.973800 5758.800000
140.997500 46875.100000
141.012000 5612.900000
141.021400 30929.700000
141.951300 683931.900000
142.005500 1045166.300000
142.959000 35600.900000
143.966600 16428.900000
143.984700 4590.000000
144.992300 14963.300000
145.016300 77902.500000
145.051200 6041.100000
146.000300 3978.200000
151.005800 117403.100000
152.000800 77854.000000
152.013600 190639.200000
152.997500 8419.200000
153.021700 5352.900000
155.000600 339264.300000
155.984600 1463340.900000
157.016300 189502.500000
158.000300 85968.500000
158.977700 4789.900000
159.961700 21881.200000
160.015900 79955.200000
167.000600 4478.900000
168.008500 5527.400000
168.992400 5995.000000
169.946100 65826.500000
170.977900 4756.900000
171.961500 7989.800000
173.011300 893534.800000
173.995300 399627.700000
179.012100 6169.800000
181.006300 17039.800000
184.003500 49652.200000
184.987400 5737.700000
185.001500 3796.000000
187.956700 29054.500000
188.964700 5822.900000
203.951900 17448.800000
204.983400 4506.600000
214.967300 4565.700000
215.975800 14008.400000
220.978100 7481.400000
247.964800 7629.000000

>ms2
50.015100 109179.400000
51.010300 15131.500000
51.023000 53961.300000
52.018200 374370.300000
53.002200 67714.900000
53.997500 5732.400000
54.033800 42990.500000
55.017900 52571.900000
55.029000 7656.300000
56.049500 38061.000000
57.987200 7647.700000
58.982500 4357.800000
59.966500 4632.600000
59.990300 7154.000000
60.984000 50020.400000
61.007200 86785.000000
61.979200 269141.000000
62.015100 600466.400000
62.963200 51083.800000
63.022900 1021585.200000
63.985200 274199.400000
63.994800 36765.200000
64.018200 310738.600000
65.002200 15435.700000
65.026000 227810.000000
66.033800 347131.500000
67.017800 7458.200000
67.029100 16029.200000
67.041600 135864.400000
68.013100 146727.200000
68.979300 268587.300000
69.974600 30365.400000
69.987100 47972.300000
70.995000 17976.200000
71.990200 46109.600000
72.983900 1127600.600000
73.979200 73986.800000
74.015000 47069.600000
74.987000 15197.300000
74.999500 103900.200000
75.010300 39104.800000
75.022900 6711.100000
76.018100 783043.100000
77.002100 283969.300000
77.026000 21837.800000
78.033800 604838.000000
78.940300 146188.100000
79.017800 44465.600000
79.029000 34838.900000
79.041600 75171.700000
79.980000 40566.400000
80.013100 55430.600000
80.049400 26588.200000
80.979300 32998.300000
81.033500 86015.400000
81.987200 25854.000000
82.028800 39309.800000
82.052600 16137.500000
82.982400 4480.100000
83.990300 17144.900000
84.974200 14129.800000
84.983900 231017.000000
85.979200 516675.600000
86.963300 33425.600000
86.999600 192383.300000
87.994900 128462.500000
88.018200 159562.000000
89.026000 2066056.100000
90.010500 80276.100000
90.033900 1445781.900000
91.017800 33230.800000
91.029100 64040.800000
91.041800 14510.300000
91.948100 8332.200000
92.013100 81294.500000
92.036900 41188.300000
92.979300 28521.200000
93.044700 235203.500000
94.028800 76902.600000
94.052600 14256.100000
95.036600 4628.800000
95.966400 38578.200000
95.975900 4215.600000
95.990200 70872.100000
96.044400 22487.900000
96.984000 1946745.900000
97.979200 1163594.600000
97.991700 81377.600000
98.987100 8029.700000
98.999500 45227.100000
99.994800 535110.000000
101.002700 83293.100000
102.010500 244671.400000
102.940400 119182.200000
103.029100 21256.900000
104.956100 420107.200000
105.044700 98182.900000
105.974600 36436.100000
106.028800 41689.100000
106.052400 34456.200000
106.982400 1456476.100000
107.977500 5696.200000
107.990200 92287.000000
108.044300 77045.800000
108.974500 5089.500000
108.984000 13058.700000
108.998100 16011.300000
109.979400 4056.000000
110.963200 107036.800000
111.031400 5937.500000
111.994800 337411.900000
112.978900 48181.400000
112.990100 133405.700000
113.002900 16536.500000
113.974100 115407.300000
114.010500 149691.800000
114.994600 21556.300000
115.005700 4754.200000
115.989900 6525.000000
116.036800 58986.600000
117.044700 2135650.200000
117.974700 5767.100000
118.005400 16605.200000
118.028700 76383.400000
118.052500 16731.000000
119.024100 5644.600000
120.008100 14851.900000
121.039300 5375.400000
123.994900 373706.100000
124.008900 38891.500000
124.039200 18946.300000
125.002700 334945.200000
125.997900 7122.700000
126.982300 3627.600000
127.005700 57775.500000
127.989700 84792.700000
129.021400 222611.700000
130.005400 145150.500000
131.000900 3449.600000
131.966800 21550.000000
131.984700 72552.000000
133.039400 3620.900000
134.047400 6311.000000
139.005600 40496.900000
139.989800 64753.400000
141.951200 23475.100000
142.005500 126876.500000
142.959100 4804.300000
143.967100 7359.900000
144.992200 3400.300000
145.016300 37703.300000
151.005800 20792.400000
152.001000 5796.100000
152.013700 26802.900000
155.000700 76013.200000
155.984700 203050.000000
157.016700 4001.800000
173.011300 96460.100000
173.995300 56685.200000
184.004000 4202.500000

>ms2
50.015100 183147.400000
51.010400 27289.400000
51.023000 91329.000000
52.018200 548081.500000
53.002200 115747.600000
53.997400 20649.500000
54.033900 30141.400000
55.017900 57526.500000
55.029100 5979.600000
56.049500 16729.400000
56.979400 5262.100000
57.987200 7566.400000
59.966500 16284.400000
59.976200 4171.400000
59.990200 5341.800000
60.984000 73305.000000
61.007300 311617.700000
61.979200 297552.400000
62.015100 1821040.000000
63.022900 2675710.500000
63.985200 212537.600000
63.994900 34314.100000
64.018200 534508.000000
65.002200 33575.700000
65.026000 317726.900000
66.033800 180319.300000
67.017900 6245.500000
67.029000 16164.100000
67.041600 79707.000000
68.013100 136394.300000
68.979300 390603.900000
69.974600 18214.700000
69.987100 60561.300000
70.968300 13530.700000
70.995000 6746.300000
71.976100 3190.600000
71.990200 19017.300000
72.983900 1075793.400000
73.979200 108774.400000
74.015100 126468.900000
74.987000 34366.900000
74.999500 45259.100000
75.010300 103086.500000
75.022900 26625.100000
76.018100 744707.200000
77.002200 274793.200000
77.025900 16105.000000
78.010100 22097.700000
78.033800 414307.100000
78.940400 122614.400000
79.017800 55283.600000
79.029100 23821.700000
79.041700 41282.300000
79.979900 29810.500000
80.013100 19176.300000
80.049500 20100.300000
80.979400 78948.200000
81.020900 5758.100000
81.033500 93025.900000
81.987200 22903.500000
82.028800 5020.100000
82.052500 3800.200000
82.982500 8067.300000
83.966700 4119.500000
83.976100 16054.100000
83.990300 4685.000000
84.983900 214356.800000
85.979200 481857.300000
86.963300 43136.600000
86.999600 95912.300000
87.994800 66599.400000
88.018200 279336.500000
89.026000 1253450.800000
90.033900 1468163.600000
91.017800 6843.200000
91.029100 23355.800000
91.041700 19178.800000
91.948300 15132.200000
92.013100 20364.100000
92.036900 26767.400000
92.979400 50749.400000
93.044800 116370.600000
94.028800 13397.600000
95.966500 99696.100000
95.976100 21105.700000
95.990300 22956.500000
96.044600 9371.700000
96.984000 1424833.200000
97.979200 555298.600000
97.991700 29846.700000
98.987100 7271.000000
98.999600 14988.200000
99.994800 166192.800000
101.002700 23013.100000
102.010600 61720.300000
102.940400 72741.800000
103.029200 6646.000000
104.956100 139136.000000
105.044700 49641.900000
105.974600 86524.200000
106.028900 22870.500000
106.052400 5300.800000
106.982400 826845.200000
107.977400 20080.800000
107.990200 44330.400000
108.044300 63038.600000
108.983900 4837.900000
108.998000 4674.800000
109.979100 6080.700000
110.963200 96039.500000
111.031700 4987.200000
111.994800 74449.400000
112.978900 17050.700000
112.990100 41551.400000
113.002400 3767.900000
113.974200 5495.400000
114.010700 42219.600000
116.036900 28921.900000
117.044700 875755.400000
117.974600 5844.700000
118.028700 33774.500000
118.039800 5020.000000
118.052600 5515.300000
123.995000 68464.000000
125.002800 62785.400000
127.005600 5287.100000
127.989900 5809.800000
129.021400 28480.100000
130.005500 22037.000000
142.005300 4822.000000
145.016500 4691.400000
155.984500 13244.200000
173.011000 5301.400000

>ms2
50.015100 203127.600000
51.010400 15257.400000
51.023000 132356.300000
52.018200 684988.100000
53.002200 140685.900000
53.997500 37310.800000
54.033900 27421.200000
55.017900 42753.500000
55.029200 5082.500000
56.979300 18674.600000
57.987100 5201.100000
59.966500 13518.400000
59.990300 5966.600000
60.984000 69020.000000
61.007300 745669.000000
61.979200 303802.900000
62.015100 2768752.500000
63.022900 3548473.000000
63.985100 130210.700000
64.018200 697963.700000
65.002200 51241.300000
65.026000 260259.800000
66.033800 88043.500000
67.029000 12655.000000
67.041700 41940.000000
68.013100 90405.600000
68.979300 334801.700000
69.974600 21129.300000
69.987300 28030.500000
70.968300 20044.800000
71.976100 7318.700000
71.990300 5046.800000
72.983900 760950.700000
73.979200 74300.000000
74.015100 165012.500000
74.987000 46997.600000
74.999600 24307.700000
75.010300 179454.700000
75.022900 45200.900000
76.018100 505214.100000
77.002200 150306.100000
77.026000 7749.400000
78.010100 31878.700000
78.033800 198832.400000
78.940300 76001.800000
79.017800 60099.500000
79.029100 4738.100000
79.041600 23663.900000
79.980000 18141.200000
80.013000 4153.800000
80.049400 11590.000000
80.979300 86246.300000
81.020900 17440.600000
81.033500 38073.700000
81.987100 12330.100000
82.982500 4308.500000
83.966400 14336.500000
83.976200 19000.700000
84.983900 142233.100000
85.979200 331150.400000
86.963300 35952.800000
86.999600 19145.800000
87.994800 35635.100000
88.018200 263069.100000
89.026000 508549.900000
90.033900 738506.400000
91.017700 3785.400000
91.029200 5431.600000
91.041700 7796.600000
92.013300 4306.400000
92.979400 50812.700000
93.044700 29418.700000
95.966400 107737.300000
95.976200 33222.900000
95.990300 5721.900000
96.984000 633012.400000
97.979200 215618.600000
97.991800 12937.600000
99.994900 26860.800000
102.010500 12931.500000
102.940400 36823.200000
104.956100 47563.400000
105.044700 17013.000000
105.974600 115882.400000
106.028800 13563.200000
106.982400 324251.300000
107.977300 21284.500000
107.990200 16389.200000
108.044300 28171.800000
110.963200 63557.700000
111.994800 13206.900000
114.010500 4241.100000
116.037100 12285.700000
117.044700 228426.600000
118.028700 7287.500000
123.994700 15000.900000
125.002600 6604.500000
129.021200 4537.300000

