>compound EQ24563726
>parentmass 296.02399999999994
>ionization [M+H]+
>formula C14H11Cl2NO2
>rt 840.000000
>profile orbitrap
#smiles_iso CC1=C(C(=C(C=C1)Cl)NC2=CC=CC=C2C(=O)O)Cl
#smiles_can CC1=C(C(=C(C=C1)Cl)NC2=CC=CC=C2C(=O)O)Cl
#inchikey SBDNJUWAMKYJOX-UHFFFAOYSA-N
#pubchem_id 4037
#mb_accession EQ369001,EQ369002,EQ369003,EQ369004,EQ369005,EQ369006,EQ369007,EQ369008,EQ369009

>ms2
242.036700 10009967.000000
243.044500 49325040.000000
278.013300 222309872.000000
296.023900 48399364.000000

>ms2
242.036800 25280540.000000
243.044500 126579064.000000
278.013300 172714112.000000
296.024300 718569.800000

>ms2
179.073100 276946.100000
206.060000 358572.400000
207.068100 660759.800000
208.075700 476302.000000
214.041800 1195893.600000
215.049600 317703.800000
241.029200 296872.200000
242.036800 28241358.000000
243.044500 192355952.000000
262.990000 596753.200000
278.013400 84211272.000000

>ms2
178.065100 1743314.400000
179.072900 3558540.200000
180.080700 6503532.000000
182.060200 250988.300000
206.060100 1600046.200000
207.067900 5040555.000000
208.075700 11909280.000000
213.034000 1618493.100000
214.041800 9037704.000000
215.049600 5235150.000000
216.021500 294804.200000
217.028900 275021.900000
241.029100 902180.300000
242.036700 33729936.000000
243.044400 199476160.000000
262.989900 1857783.500000
277.005800 217846.000000
278.013300 14214038.000000

>ms2
77.038400 139051.100000
151.054100 613721.900000
152.062000 2098611.800000
153.057300 365185.300000
153.069900 185530.500000
155.072900 348775.600000
169.064800 905284.500000
177.057200 823049.900000
178.065200 11411689.000000
179.073000 14149794.000000
180.080800 40499932.000000
182.060000 571619.800000
183.067900 535559.400000
194.060300 148130.500000
196.076000 570770.900000
200.026300 358384.600000
206.060200 2442877.500000
207.068000 10770669.000000
208.075800 39999844.000000
211.062900 630901.000000
213.034100 4201102.000000
214.041900 22600136.000000
215.049700 11677868.000000
216.021300 879386.400000
217.028900 883660.100000
224.026400 124601.100000
228.021300 386513.100000
234.995100 605986.400000
241.029000 1088007.800000
242.036800 44229788.000000
243.044600 104850568.000000
245.024000 368200.600000
262.990000 1464653.200000
277.005700 183561.100000
278.013500 1072944.100000

>ms2
53.038500 207487.400000
75.022800 150189.400000
76.030600 209995.100000
77.038400 625358.900000
89.038500 155352.700000
92.025500 164979.000000
95.049100 505559.800000
104.049400 72268.300000
105.033400 321893.200000
105.044800 383251.400000
128.049300 214446.800000
128.062000 142436.900000
129.057300 162135.400000
130.028800 159492.300000
140.049500 134480.400000
146.060000 138625.400000
150.046600 249313.600000
151.054200 1774650.000000
152.062000 8167184.500000
153.057300 1965826.800000
153.069900 2113731.800000
154.065100 476342.100000
155.060400 264611.800000
155.072900 882382.100000
164.049500 555927.500000
166.065300 120315.000000
167.072900 167897.500000
169.064800 2757250.000000
170.060100 172085.900000
177.057400 2292039.000000
178.065200 32114410.000000
179.061600 1801136.200000
179.073000 24149984.000000
180.080700 69432896.000000
182.060000 1586670.200000
183.067900 1034625.600000
185.047300 360756.800000
188.026200 159923.400000
190.065200 201114.800000
194.060400 355488.200000
195.067800 155732.100000
196.075700 1462447.600000
200.026200 1305912.000000
206.060100 3467092.000000
207.068000 10655895.000000
208.075800 32736576.000000
211.062900 1362510.200000
212.026100 161375.300000
213.034000 5257971.500000
214.041900 30275098.000000
215.049700 6352536.500000
216.021100 1111350.800000
217.028900 946723.200000
224.026600 230353.200000
227.013100 125696.100000
228.021000 372353.800000
229.029000 73728.600000
234.995000 779108.600000
241.029000 1565648.800000
242.036800 33326600.000000
243.044600 22038478.000000
245.023800 554403.000000
262.990100 586563.200000

>ms2
50.015100 546187.000000
51.022900 494097.800000
53.038600 490620.900000
63.022800 295466.100000
64.030700 66183.200000
65.038600 54204.200000
66.046400 333670.500000
75.022900 626406.200000
76.030600 707414.800000
77.038500 2193961.200000
78.046300 272039.900000
81.033500 149479.300000
89.038500 900150.800000
90.046400 156088.700000
91.054100 126717.600000
92.025700 259757.100000
94.041300 125163.600000
95.049100 1840437.100000
98.999400 66568.800000
99.022800 71532.000000
101.038500 70455.000000
102.033700 279019.200000
102.046300 407280.100000
103.041400 234124.700000
103.054300 213774.800000
104.049200 54083.600000
105.033500 362310.100000
105.044700 1464485.200000
112.007500 68666.700000
113.038500 159396.400000
115.054300 368509.000000
116.049600 48807.200000
117.020900 52104.800000
117.057400 221217.300000
125.015300 67758.300000
125.038500 556266.200000
126.046400 1283489.100000
127.041800 287821.200000
127.054200 763681.500000
128.049500 2828751.200000
128.062000 746077.500000
129.044700 518577.500000
129.057300 517477.800000
130.028900 292317.100000
130.040000 346411.300000
130.065200 135651.400000
137.038700 121250.400000
139.005800 125826.400000
139.054300 440949.300000
140.049400 1467928.400000
141.057400 311665.800000
145.064800 535451.700000
146.060000 919701.200000
149.038800 114796.000000
150.046400 2819949.000000
151.054200 8055842.500000
152.049400 1636821.100000
152.062100 25739768.000000
153.057300 4636462.000000
153.069900 3964206.500000
154.065100 2171664.800000
155.060300 1454663.600000
155.072900 893033.000000
163.054100 191728.100000
164.049400 2192570.200000
165.057500 427874.100000
166.065300 165465.500000
167.073200 246879.900000
168.056900 73460.900000
169.064800 15313467.000000
170.060100 1275085.000000
173.015200 279590.900000
174.010600 308039.500000
176.049700 289269.500000
177.057400 9917971.000000
178.065100 48555424.000000
179.061000 7414132.500000
179.072900 32904536.000000
180.080700 28601176.000000
182.060000 1316149.900000
183.067900 920361.900000
183.080100 222863.800000
185.047100 708928.400000
186.023100 188840.800000
186.054900 204051.600000
187.031000 148255.500000
188.026100 219423.200000
188.049600 233519.600000
189.033900 57952.100000
189.057000 58974.600000
190.064800 244698.500000
194.060000 701143.500000
195.067800 66010.600000
196.075800 1463158.600000
200.026100 956753.600000
204.055700 543330.700000
206.060200 1810101.600000
207.067900 2552207.800000
208.075700 2391840.200000
211.062800 1655790.600000
212.026300 194502.500000
213.034000 6189469.500000
214.041900 11361957.000000
216.021200 1048034.800000
217.029000 342592.800000
241.029000 526002.800000
242.036700 3089959.200000
243.044300 210398.000000
245.023800 648688.500000

>ms2
50.015100 2050338.900000
51.022900 1281366.000000
52.018200 52929.900000
52.030800 68415.400000
53.038600 1326545.200000
55.017900 62593.800000
61.007200 44105.000000
62.015100 348684.400000
63.022900 1707544.600000
64.030700 195135.500000
65.002200 193876.300000
65.038600 246526.000000
66.046400 400423.300000
72.983900 182014.700000
74.015000 852032.400000
75.022900 3356619.000000
76.018100 361187.500000
76.030700 1511691.600000
77.038500 3814038.200000
78.033800 155781.900000
78.046400 938012.800000
79.018000 43773.900000
81.033500 173110.200000
86.014900 58334.700000
87.022800 292529.700000
88.018000 68307.600000
88.030700 143521.800000
89.038500 2248369.800000
90.046500 419701.700000
91.054200 341251.300000
92.025600 240652.800000
94.041300 198887.100000
95.049100 4151124.800000
98.015100 262180.500000
98.999600 244949.600000
99.022900 1082008.100000
100.018100 175856.200000
100.030600 295803.100000
101.038500 669963.800000
102.033800 616853.800000
102.046400 2031562.600000
103.041600 418094.000000
103.054300 370315.600000
104.049500 178096.400000
105.044700 2836511.200000
111.023000 59745.000000
113.038600 1428632.200000
114.033900 397244.200000
114.046500 209536.600000
115.054200 1025494.100000
116.049400 196983.200000
117.020900 43213.800000
117.057200 328185.900000
117.069900 45473.400000
119.049200 713642.000000
120.044400 198584.600000
122.999700 59931.700000
123.022900 139721.900000
124.030700 41850.200000
125.038600 3438459.200000
126.046400 6248144.500000
127.041700 1071845.200000
127.054200 2229560.800000
128.049500 4933055.500000
128.062100 1256798.000000
129.044700 2385000.800000
129.057300 683418.200000
130.028800 196070.700000
130.040000 830074.000000
130.065200 194137.500000
137.038600 891729.900000
138.033900 162240.600000
138.046600 302324.600000
139.005800 56617.200000
139.054300 889853.100000
140.049500 2795071.800000
141.057400 543452.100000
143.049300 492620.800000
144.044300 61085.000000
145.064900 1161581.800000
146.060100 1415843.400000
146.999500 44693.400000
149.038700 847016.400000
150.046500 17767874.000000
151.041900 877444.200000
151.054200 10644665.000000
152.049500 4908845.000000
152.062000 31162936.000000
153.044700 442026.000000
153.057300 4789174.000000
153.069800 1321622.400000
154.065100 1462736.500000
155.049300 324721.000000
155.060300 3190328.200000
156.044400 44640.500000
157.052500 160250.900000
161.038600 124777.200000
161.046900 64781.100000
163.054200 328696.200000
164.049500 2422920.500000
165.057200 488548.400000
166.065300 75199.600000
167.049100 158535.700000
168.056700 228219.100000
169.064800 22555758.000000
170.060100 2805243.200000
173.015200 300111.900000
174.010600 356203.600000
175.041800 395947.800000
176.049500 657598.200000
177.057400 18936550.000000
178.065100 41191672.000000
179.060400 10279535.000000
179.072900 13462905.000000
180.055700 665765.200000
180.080700 3277204.800000
181.052100 139861.700000
182.060400 214652.300000
183.068000 135198.900000
183.080500 327877.900000
184.075800 44932.400000
185.047100 571194.600000
185.059800 179699.300000
186.023300 150764.700000
188.026200 145947.100000
188.049700 293663.500000
190.065100 125945.300000
194.060100 1040893.200000
196.075800 635340.200000
200.026200 154883.800000
204.055800 960693.400000
206.060100 333593.100000
207.067700 208741.000000
209.047200 273785.800000
211.062900 512051.900000
212.026100 244143.400000
213.034100 1206973.600000
214.041900 1030910.200000
216.021200 202408.800000
241.029200 45388.600000
245.023900 178529.300000

>ms2
50.015100 3970383.000000
51.022900 2247609.000000
52.018200 151876.200000
52.030800 60115.800000
53.038600 1839279.000000
55.017900 141387.000000
61.007300 269631.100000
62.015100 886923.800000
63.022900 3800488.800000
64.030800 286660.300000
65.002200 433030.400000
65.038600 613342.200000
66.046400 429689.500000
72.983900 333641.700000
74.015100 3165912.500000
75.022900 8653143.000000
76.018100 664219.900000
76.030700 2903862.500000
77.038500 4230596.000000
78.033800 171762.900000
78.046400 1647084.100000
79.017900 68093.600000
81.033500 318141.200000
84.983900 70611.200000
86.015000 514293.400000
87.022900 1544630.100000
88.018200 453764.400000
88.030700 527900.600000
89.038600 2803527.200000
90.046400 488762.900000
91.054300 264039.600000
92.025600 130338.900000
94.041300 228189.900000
95.049100 5011237.500000
98.015100 1478240.900000
99.022900 3778954.500000
100.018200 335498.600000
100.030700 1057476.100000
101.038600 1110957.000000
102.033800 895891.200000
102.046400 3497053.500000
103.041600 354469.600000
103.054300 376800.700000
104.049500 158032.700000
105.044700 4183411.000000
111.022900 407499.900000
113.038500 2339930.200000
114.033900 595121.900000
114.046500 279363.300000
115.054200 1429424.600000
116.049500 141509.900000
117.057200 207796.000000
117.070400 31671.200000
118.041200 119516.600000
119.049200 877462.900000
120.044400 203349.400000
122.999400 111493.100000
123.022900 495464.600000
124.030700 477459.700000
125.038600 5266599.000000
126.046400 8881555.000000
127.041700 1757880.800000
127.054200 1682424.100000
128.049500 2880956.000000
128.062000 793993.100000
129.044700 3287242.500000
129.057300 442949.300000
130.028900 69562.900000
130.040000 811797.100000
130.065100 145015.600000
132.044100 38093.700000
137.038600 1291657.800000
138.033900 266726.800000
138.046300 341707.000000
139.054300 908586.600000
140.049500 1773962.800000
141.057300 238161.700000
143.049200 918771.900000
145.064800 737363.300000
146.060000 665768.800000
147.000000 52223.700000
149.038600 1445020.000000
150.046400 28062432.000000
151.041700 1448984.500000
151.054200 5546095.500000
152.049500 3702859.000000
152.062000 14051013.000000
153.044700 655870.600000
153.057300 2444128.000000
153.070000 132984.800000
154.065200 365787.600000
155.049400 189208.600000
155.060300 2128103.200000
157.052300 138029.000000
161.038500 68005.100000
163.054200 225495.700000
164.049500 1447369.500000
165.057300 68747.700000
167.049200 400148.800000
168.043700 40201.400000
168.056900 201041.500000
169.064800 15231336.000000
170.060000 1958443.100000
174.011000 85044.400000
175.041700 843818.100000
176.049500 1190684.000000
177.057300 12425702.000000
178.065100 13436087.000000
179.060400 6047023.000000
179.072400 1573639.000000
180.055800 475551.600000
180.080700 181157.700000
181.052000 57495.300000
183.080600 149329.000000
185.047300 246334.100000
185.059500 300750.500000
186.022700 35782.800000
188.049500 150273.000000
194.060100 953539.700000
196.075600 145440.900000
204.055700 1064254.600000
209.047100 242072.500000
211.062900 36046.700000
212.026200 50976.700000
213.034100 62247.200000

