>compound EQ25382332
>parentmass 204.13830000000002
>ionization [M+H]+
>formula C13H17NO
>rt 294.000000
>profile orbitrap
#smiles_iso CC(CC1=CC=CC=C1)[N+](C)(CC#C)[O-]
#smiles_can CC(CC1=CC=CC=C1)[N+](C)(CC#C)[O-]
#inchikey IVFPCTFUZXEDKP-UHFFFAOYSA-N
#pubchem_id 11447032
#mb_accession EQ346101,EQ346102,EQ346103,EQ346104,EQ346105,EQ346106,EQ346107,EQ346108,EQ346109

>ms2
68.049500 1861674.900000
77.038400 638732.200000
86.060000 119358648.000000
91.054200 275048448.000000
104.061900 818136.100000
119.085500 621295552.000000
204.138400 146862784.000000

>ms2
51.022800 607184.200000
65.038500 669513.100000
68.049500 2404175.000000
69.057200 509218.900000
77.038300 540526.800000
86.060000 102575512.000000
91.054200 451783008.000000
119.085600 503919008.000000
204.138500 46941976.000000

>ms2
65.038400 1293498.800000
68.049500 6170623.500000
69.057200 1857503.800000
86.060100 68265464.000000
91.054200 819858944.000000
119.085600 142483424.000000
204.138800 1121978.900000

>ms2
65.038500 3015952.500000
68.049500 13694196.000000
69.057300 3421777.800000
86.060100 34346572.000000
91.054200 910604864.000000
119.085600 22308188.000000

>ms2
65.038600 7918123.500000
68.049500 19206346.000000
69.057300 3248332.200000
86.060100 15635185.000000
91.054200 919671360.000000
119.085500 2798140.000000

>ms2
63.022800 1129623.000000
65.038600 31082156.000000
68.049500 21489588.000000
69.057300 2162684.200000
79.054300 1283603.400000
86.060100 5785473.500000
91.054200 941485120.000000

>ms2
50.015100 640766.200000
51.022800 938047.100000
53.002200 1676093.400000
56.049500 757871.100000
63.023000 5339697.000000
65.038600 147407040.000000
68.049500 15154739.000000
74.060000 1008461.800000
77.038600 808314.000000
78.046500 1108994.000000
79.054300 764144.100000
91.054200 625300352.000000
95.049200 1510696.400000
103.054300 1003597.900000
115.054200 667214.400000

>ms2
50.015100 2871420.000000
51.023000 2585735.800000
53.002200 5113820.500000
53.038600 976019.100000
53.997500 1059125.200000
56.049500 1385342.600000
62.015100 1870156.600000
63.023000 15612492.000000
65.038600 258673968.000000
67.989300 1156164.800000
68.049500 8769092.000000
74.060000 526788.100000
77.038600 2202073.500000
78.046400 2042249.200000
79.054200 763632.500000
89.038500 1473177.100000
90.046300 446797.300000
91.054300 306735552.000000
95.049200 2953981.200000
103.054200 1714007.200000
105.044800 1559746.800000
115.054200 1032889.700000

>ms2
50.015200 7641216.000000
51.023000 10552259.000000
53.002200 8298456.500000
53.038600 1238488.100000
53.997500 1855495.500000
56.049500 1430473.500000
58.065200 219798.300000
61.007300 1038146.500000
62.015100 4865123.000000
63.023000 25741206.000000
65.038600 218470784.000000
67.989300 1641487.800000
68.049500 4612847.000000
75.022900 521900.300000
77.038600 2714989.000000
78.008600 598368.800000
78.046400 3267946.800000
79.054200 248348.600000
89.038600 1846850.100000
90.046500 244725.400000
91.054300 105612608.000000
95.049200 3918743.200000
102.046600 231388.900000
103.054300 2150712.200000
105.044800 1998665.800000
115.054300 663008.200000

