>compound EQ25107192
>parentmass 261.12089999999995
>ionization [M+H]+
>formula C12H15F3N2O
>rt 600.000000
>profile orbitrap
#smiles_iso CCN(C(C)CC1=CC(=CC=C1)C(F)(F)F)N=O
#smiles_can CCN(C(C)CC1=CC(=CC=C1)C(F)(F)F)N=O
#inchikey JVGWNJLSTCQSCZ-UHFFFAOYSA-N
#pubchem_id 101196224
#mb_accession EQ347201,EQ347202,EQ347203,EQ347204,EQ347205,EQ347206,EQ347207,EQ347208,EQ347209

>ms2peaks
59.049100 1841528.200000
75.055200 111202704.000000
109.044500 668083.700000
147.060300 660708.900000
159.041500 330551392.000000
167.066600 5108860.500000
185.077300 2395807.000000
187.072800 638412544.000000
210.108800 41589172.000000
211.116600 46208764.000000
219.112700 7001672.000000
237.123200 21386392.000000
261.120800 188167952.000000

>ms2peaks
59.049100 900616.600000
75.055200 101725640.000000
109.044300 1125090.900000
147.060000 1373662.500000
159.041500 895702272.000000
161.119900 3493298.800000
167.066600 6440198.500000
185.077700 1360172.200000
187.072800 291437216.000000
210.108800 27784822.000000
211.116600 26726734.000000
261.120800 7262911.500000

>ms2peaks
75.055200 63617072.000000
109.044700 4489133.500000
146.096400 1365289.600000
147.060200 3276575.800000
159.041500 1133058176.000000
161.119800 4353315.500000
167.066600 4262639.500000
187.072800 19734644.000000
196.093300 1672201.500000
210.108800 21890878.000000
211.116600 2477360.200000

>ms2peaks
75.055200 29596060.000000
109.044800 33113192.000000
127.035200 1022643.100000
139.035400 5891491.000000
146.096400 3154022.800000
147.035400 1856134.900000
147.060400 3303108.000000
159.041500 993324544.000000
167.066600 1955262.200000
187.072700 1185525.000000
210.108800 14161036.000000

>ms2peaks
75.055200 12930533.000000
83.029000 1151673.800000
89.038400 1442521.000000
90.046200 1302261.000000
109.044800 188827552.000000
116.061900 974055.000000
119.029200 2448573.500000
127.035300 1920153.600000
137.039900 1298966.100000
139.035400 23408838.000000
146.052600 2096989.900000
146.096300 2963991.800000
147.035300 13093695.000000
147.060100 2936131.500000
155.060400 1552519.600000
159.041500 906952128.000000
195.085300 2105067.000000
210.108800 8162884.500000

>ms2peaks
53.002200 594202.700000
57.013400 755374.200000
63.022800 691352.900000
75.022800 3345890.500000
75.055200 4799807.500000
77.002100 1242469.900000
83.029000 6395364.500000
89.038500 4579294.000000
90.046400 4598747.500000
95.029100 1388604.100000
99.022900 3529359.800000
108.036900 622655.600000
109.044800 433271552.000000
113.039700 630536.200000
115.054300 853667.300000
116.062000 850452.600000
118.065100 700431.800000
119.029100 9003406.000000
123.035200 782013.900000
127.035300 2023651.200000
133.025900 2616688.200000
137.039700 3295151.200000
139.035300 45566552.000000
141.025900 939208.600000
145.064600 616387.400000
145.088500 624217.700000
146.052600 2675906.800000
146.096300 1863524.600000
147.035300 39264536.000000
151.035400 728347.200000
155.060500 1748768.400000
158.033700 1003264.900000
159.041600 519739552.000000
180.061800 869977.200000
194.077900 1373989.600000
195.085500 2263395.000000
210.108700 2278188.800000

>ms2peaks
51.022800 708922.300000
53.002200 1332052.000000
57.013400 3885975.500000
59.029100 4150147.500000
62.015000 673643.000000
63.022900 7418081.500000
64.030700 797978.800000
65.038500 1224157.100000
66.046400 1733735.600000
75.004000 998149.300000
75.022900 9383401.000000
77.002100 11575954.000000
77.038500 857933.800000
83.029100 80667040.000000
89.038600 41164556.000000
90.046400 21224956.000000
91.054200 725667.000000
93.013500 3546906.800000
95.029200 2850469.200000
98.015100 4229079.500000
99.022900 44760068.000000
107.029300 1302114.100000
108.036800 1198924.400000
109.044800 572159552.000000
113.019500 1654722.900000
113.039700 1243758.800000
115.054300 2188719.000000
117.057300 724260.500000
119.029200 27543260.000000
123.035200 2737257.800000
127.035400 2286186.200000
130.065000 822964.100000
131.030300 1094821.400000
132.018200 718558.100000
133.025900 6356509.000000
133.044700 674380.100000
137.039700 4804677.500000
138.027500 2544931.200000
139.035400 21388426.000000
141.025800 7711777.500000
146.052500 4022121.200000
147.035300 55701988.000000
151.035300 1047587.800000
155.060300 815382.800000
158.033800 2775781.200000
159.041600 69984080.000000
166.046400 1388892.000000
180.061900 667224.200000
194.077700 1522024.600000

>ms2peaks
50.015100 1294932.000000
51.022900 930210.800000
53.002200 1250006.400000
53.038500 581039.800000
53.997400 323720.200000
57.013500 24461824.000000
59.029100 14027414.000000
61.007200 351264.900000
62.015100 3566126.500000
63.022900 35069840.000000
64.030700 3396497.500000
65.038600 1699856.400000
66.046400 1015379.900000
68.994600 1650874.200000
69.013500 994245.800000
74.015100 3338888.800000
75.004000 2751654.200000
75.022900 11213738.000000
77.002100 11438759.000000
77.038500 1204818.800000
81.013500 2814808.000000
83.029100 190963280.000000
87.022900 784236.200000
89.038600 79175416.000000
90.046400 16041124.000000
91.054200 1626858.100000
93.013500 12802373.000000
95.029200 1344012.500000
95.049100 1702958.800000
96.037000 290608.200000
98.015100 28235898.000000
99.022900 82858336.000000
101.019600 574582.300000
102.046300 291913.300000
103.054300 577156.300000
105.044800 790182.400000
107.029200 4018277.000000
108.037000 1836552.400000
109.044800 257735088.000000
111.023900 820229.200000
112.011800 261792.000000
113.019700 3224857.000000
113.039700 877907.600000
114.027400 665328.000000
115.054200 3662891.500000
119.029200 12431222.000000
120.036900 1200890.600000
123.035300 1487230.500000
125.019800 869817.400000
125.038700 307466.200000
126.046300 276488.800000
127.035300 1219893.500000
130.064900 734163.000000
131.030300 1348017.200000
132.018100 2051773.200000
133.026000 2048919.400000
137.039700 2003441.200000
138.027500 3976232.800000
139.035300 2810761.000000
141.025800 8292776.500000
146.052600 2648726.200000
147.035300 16047854.000000
151.035300 1003695.000000
158.033800 1524480.800000
159.041500 3204964.000000
164.043300 272049.700000
166.046500 1087149.000000
179.054100 551633.700000

>ms2peaks
50.015100 3423236.200000
51.004100 606590.800000
51.022900 1720229.200000
53.002200 2566859.800000
53.038600 580206.600000
53.997400 323838.200000
57.013500 75132960.000000
59.029100 20705918.000000
61.007200 3519120.500000
62.015100 14547371.000000
63.022900 84256992.000000
64.030700 6274343.000000
65.002200 815192.200000
65.038500 3466253.000000
66.046300 292866.600000
67.989200 239010.400000
68.994600 3522690.500000
69.013500 1843780.800000
71.029000 255586.700000
74.015000 16179395.000000
75.004000 5305881.000000
75.022900 15389078.000000
77.002100 4792695.500000
77.038500 962123.900000
78.046300 227492.200000
81.013500 7031566.500000
83.029100 187727072.000000
87.022900 2605763.800000
88.011800 1231367.800000
89.038500 88594344.000000
90.046400 8189241.500000
91.054200 1741320.900000
93.013500 17901160.000000
95.029200 622433.200000
95.049100 1793933.500000
96.036900 717030.100000
98.015100 67548568.000000
99.022900 59438748.000000
101.019700 843232.400000
102.046300 527513.700000
105.044800 1020151.500000
107.029100 8316830.500000
108.036900 1982496.500000
109.044800 74879520.000000
111.023900 687777.800000
112.011800 680482.600000
113.019500 1932641.900000
114.027500 967207.200000
115.054200 3603176.200000
117.057000 194976.200000
118.021200 622130.700000
119.029100 2702765.200000
120.036900 1967099.000000
123.035100 301562.800000
125.019700 1152682.100000
125.039100 204005.100000
126.046400 287031.600000
127.035400 788184.500000
129.044700 263035.700000
131.029800 342315.300000
132.018100 1915688.600000
133.025800 288759.900000
138.027500 3032491.000000
139.035100 304632.800000
141.025800 3500869.200000
146.052600 1055528.200000
147.035200 2890749.200000
151.035300 623395.200000
157.025700 207181.500000
158.033500 327513.300000

