>compound EQ26876597
>parentmass 176.107
>ionization [M+H]+
>formula C11H13NO
>rt 342.000000
>profile orbitrap
#smiles_iso C[N+](CC#C)(CC1=CC=CC=C1)[O-]
#smiles_can C[N+](CC#C)(CC1=CC=CC=C1)[O-]
#inchikey NZCJCBZLNHDNCR-UHFFFAOYSA-N
#pubchem_id 173313
#mb_accession EQ327101,EQ327102,EQ327103,EQ327104,EQ327105,EQ327106,EQ327107,EQ327108,EQ327109

>ms2
60.044400 5402.300000
68.049500 2402.400000
70.065100 11414.800000
79.054200 1597.100000
84.044400 180472.700000
91.054200 882911.100000
107.049200 2486.500000
111.044100 2362.200000
115.075400 2125.200000
117.069900 6467.400000
141.090700 2775.600000
146.096500 2003.900000
148.112000 24895.700000
158.096800 911.300000
159.104800 3146.300000
176.107000 689668.100000

>ms2
51.022800 1671.600000
60.044400 4628.600000
65.038500 2124.000000
68.049500 2849.300000
70.065100 20451.700000
84.044400 292036.400000
91.054200 1469426.600000
94.065200 2034.400000
107.049200 2199.900000
111.044000 2396.200000
115.075400 2223.400000
117.069900 7831.900000
141.091000 2344.500000
146.096400 2506.800000
148.112100 39496.800000
158.096600 2316.800000
159.104600 3325.900000
176.107000 905685.500000

>ms2
65.038500 9500.800000
70.065100 23972.300000
84.044400 247591.200000
91.054200 3275609.200000
117.069800 6775.100000
133.088600 4409.800000
136.112000 3408.700000
146.096400 3921.400000
148.112000 24206.800000
176.107000 159866.400000

>ms2
65.038500 41359.700000
70.065100 18685.100000
84.044400 148282.000000
91.054200 5134516.000000
117.069700 5943.700000
133.088500 6946.300000
136.112100 7614.200000
148.112100 6352.600000
176.107000 16835.600000

>ms2
65.038500 194574.700000
70.065000 15478.400000
84.044400 92115.900000
91.054100 7469847.500000
136.112100 8400.900000

>ms2
63.022800 18403.500000
65.038500 737356.300000
70.065000 11239.600000
84.044400 56682.000000
91.054100 9467072.000000
132.080700 10411.000000
136.112100 10741.400000

>ms2
53.002200 24487.800000
62.015000 11319.600000
63.022900 124253.800000
65.038500 3433341.000000
84.044400 11441.700000
89.038300 13973.900000
91.054100 8344690.500000
115.054000 10003.800000

>ms2
51.022700 8016.800000
53.002200 96197.700000
53.997400 21807.400000
62.015100 49334.400000
63.022900 421129.200000
64.030500 6324.600000
65.038500 6058383.500000
67.054300 7427.000000
78.008600 6893.500000
83.049100 14441.300000
89.038500 28780.100000
90.046400 7391.100000
91.054100 4879967.500000
115.054100 8109.800000

>ms2
50.015000 6779.100000
51.022800 7194.300000
53.002200 235279.700000
53.997400 47715.500000
61.007200 26401.700000
62.015100 167798.300000
63.022900 783757.800000
65.038500 5971829.500000
67.054200 7516.200000
75.022800 10371.400000
78.008500 13561.000000
79.017800 16901.300000
83.049100 16044.600000
89.038500 50282.700000
90.046400 7912.000000
91.054200 2047406.600000

