>compound EQ26146236
>parentmass 340.2271
>ionization [M+H]+
>formula C22H29NO2
>rt 468.000000
>profile orbitrap
#smiles_iso CCC(=O)OC(CC1=CC=CC=C1)(C2=CC=CC=C2)C(C)CN(C)C
#smiles_can CCC(=O)OC(CC1=CC=CC=C1)(C2=CC=CC=C2)C(C)CN(C)C
#inchikey XLMALTXPSGQGBX-UHFFFAOYSA-N
#pubchem_id 15330
#mb_accession EQ334401,EQ334402,EQ334403,EQ334404,EQ334405,EQ334406,EQ334407,EQ334408,EQ334409

>ms2
56.049500 789784.800000
58.065100 541200448.000000
91.054400 841768.900000
143.085500 2023172.900000
221.132400 1326933.400000
266.190400 180007184.000000

>ms2
56.049400 1248070.100000
58.065100 534006400.000000
91.054200 4120548.200000
105.070000 1149058.200000
143.085600 10401423.000000
181.101700 575230.500000
221.133200 709396.700000
266.190400 8566577.000000

>ms2
56.049500 1642502.100000
58.065100 515280128.000000
91.054300 12425993.000000
105.070000 2233336.000000
128.062000 1544650.500000
143.085600 14183820.000000
181.101400 939727.800000

>ms2
56.049500 2410259.500000
58.065100 479817856.000000
91.054300 18342214.000000
103.054200 841251.300000
105.069900 3742443.500000
115.054400 676073.500000
128.062100 7533275.000000
143.085600 9720590.000000
155.060800 620701.100000
166.078200 676402.100000

>ms2
56.049500 2647101.000000
57.057300 468987.900000
58.065100 366271136.000000
65.038600 739404.700000
91.054300 18692802.000000
103.054200 1312960.800000
105.069900 3306794.200000
115.054200 980329.500000
128.062100 10761692.000000
141.070100 550584.800000
143.085600 2848164.800000
155.060300 1194973.500000
165.070500 544258.800000

>ms2
56.049500 4399768.000000
57.057200 615878.800000
58.065100 359247328.000000
65.038600 2047023.100000
79.054100 748238.200000
91.054300 21488710.000000
103.054200 2157663.800000
105.069900 2310960.200000
115.054300 1521066.900000
117.069800 516062.900000
127.054200 520287.900000
128.062100 14341523.000000
141.070100 873487.900000
143.085700 784371.700000
145.064900 691708.800000
155.060400 1308169.100000
165.070100 991032.300000
166.077700 728399.600000
178.077700 548154.200000

>ms2
51.023000 256179.000000
53.038600 550863.100000
56.049500 5912948.500000
57.057300 1021801.400000
58.065200 223152208.000000
65.038600 7915199.500000
77.038600 965724.600000
79.054200 957335.800000
91.054300 17836468.000000
95.049200 1957068.100000
102.046700 771356.400000
103.054300 1729904.800000
105.044800 1150646.600000
105.070100 522952.000000
115.054300 2672183.800000
126.046700 245897.500000
127.054300 762934.100000
128.062100 13074104.000000
129.070200 248473.700000
141.070300 432300.000000
145.065100 505294.700000
155.060400 884975.600000
165.070100 1782474.000000
178.077700 844185.600000
191.085900 405938.900000

>ms2
50.015100 346036.100000
51.023000 1468478.500000
53.002200 399463.100000
53.038600 638596.100000
56.049500 4880395.000000
57.057300 747215.600000
58.065200 97040912.000000
62.015100 129046.100000
63.022900 703222.200000
65.038600 8742556.000000
72.080900 113740.500000
75.023000 102976.200000
77.038600 936967.200000
78.046500 1449373.200000
79.054200 206880.300000
89.038700 165205.400000
91.054300 7312712.500000
95.049200 2293312.500000
102.046400 2113799.800000
103.054300 544609.800000
105.044800 1248768.800000
115.054300 2001655.400000
126.046600 506470.500000
127.054400 741965.400000
128.062100 6731195.000000
141.070400 154514.800000
145.065100 150379.600000
152.062300 505367.900000
155.060400 913109.400000
165.070100 1046152.900000
169.065000 130929.500000
176.062200 399986.300000
178.078300 396788.200000
189.070400 478134.100000

>ms2
50.015100 1309583.200000
51.023000 3561856.800000
53.002200 573665.200000
53.038600 756997.400000
56.049500 3811528.200000
57.057300 771237.200000
58.065200 43521308.000000
62.015100 442597.800000
63.022900 1685351.200000
65.038600 8108123.500000
75.022900 499114.000000
76.030700 642101.000000
77.038500 1300250.800000
78.046400 1714668.800000
89.038600 941070.100000
91.054300 3543531.800000
95.049200 2211093.500000
102.046500 3289834.200000
103.054200 123285.100000
105.044800 1413781.500000
115.054200 2215132.200000
126.046600 753284.200000
127.054200 967789.100000
128.062100 2847429.000000
145.065000 167886.100000
152.062000 543172.100000
155.060500 564431.900000
165.070100 806572.800000
169.065100 217883.700000
176.062200 543767.400000
189.069900 536402.100000

