>compound EQ27756162
>parentmass 139.039
>ionization [M+H]+
>formula C7H6O3
>rt 384.000000
>profile orbitrap
#smiles_iso C1=CC=C(C(=C1)C(=O)O)O
#smiles_can C1=CC=C(C(=C1)C(=O)O)O
#inchikey YGSDEFSMJLZEOE-UHFFFAOYSA-N
#pubchem_id 338
#mb_accession EQ369601,EQ369602,EQ369603,EQ369604,EQ369605,EQ369606,EQ369607,EQ369608,EQ369609

>ms2
55.017800 1269.500000
55.054200 1409.700000
57.033400 1377.000000
65.038400 2815.000000
69.033500 11706.800000
79.054300 2542.800000
83.049200 8206.400000
93.033600 1495.700000
95.049200 3510.000000
111.044100 2851.500000
121.028500 872244.700000
122.047400 2076.900000
139.039100 132626.400000

>ms2
55.017900 2039.800000
55.054300 2350.200000
57.033500 1565.600000
65.038500 3686.900000
69.033500 9767.300000
79.054200 2446.200000
83.049200 8770.300000
93.033600 1871.500000
95.049200 4070.300000
111.044200 3198.000000
121.028500 895946.600000
122.047500 2447.600000
139.039100 134043.200000

>ms2
55.054200 2111.500000
65.038600 9473.000000
67.054300 1817.600000
69.033500 12708.200000
79.054300 3740.000000
83.049200 8915.200000
91.054300 1865.400000
93.033600 6474.100000
95.049200 4123.600000
111.044100 7002.500000
121.028500 922984.600000
122.047600 2626.900000
139.039100 48831.700000

>ms2
53.038600 1865.100000
55.017900 3145.400000
55.054300 4526.100000
65.038600 65888.500000
67.054300 3914.500000
69.033500 14356.000000
79.054200 4738.800000
83.049200 8101.000000
91.054200 3247.900000
93.033600 27396.600000
93.044800 3001.500000
95.049200 4837.100000
98.036200 3377.900000
105.044900 1588.300000
111.044200 23870.100000
121.028500 823786.400000
121.039700 75185.000000
122.047500 2339.700000
139.039100 9301.500000

>ms2
51.022900 587.000000
53.002200 1318.000000
53.038600 2189.700000
55.017900 4175.700000
55.054300 7183.300000
57.033500 691.500000
59.049100 529.400000
65.038600 191245.000000
67.054300 3468.300000
68.997200 746.100000
69.033500 8710.000000
71.049200 629.400000
79.054200 5135.000000
83.049200 6889.200000
91.054300 3994.600000
92.049500 704.600000
93.033600 37767.900000
93.044800 5441.200000
95.049200 4510.500000
95.060500 774.600000
97.028600 704.500000
98.036300 5221.700000
105.044800 2445.700000
111.044100 40274.500000
121.028500 503758.100000
121.039700 119351.400000
122.047500 1395.900000
139.039200 1593.900000

>ms2
51.022900 687.000000
53.002200 2387.900000
53.038600 2274.700000
55.017900 4134.300000
55.054300 6320.900000
65.038600 345231.200000
66.033900 514.200000
67.054300 5461.600000
68.997200 1283.700000
69.033500 6870.500000
71.012700 492.600000
77.038600 729.300000
79.017900 617.000000
79.054300 4773.300000
83.049100 4418.300000
91.054400 5586.900000
92.049600 652.700000
93.033600 33496.600000
93.044900 5673.900000
95.049200 7347.900000
97.028500 1218.000000
98.036300 4375.200000
105.044900 3005.400000
111.044200 42242.000000
121.028500 222503.200000
121.039700 104931.800000

>ms2
50.015100 467.600000
51.023000 1838.800000
53.002200 11078.800000
53.038600 3825.300000
53.997500 1961.200000
55.017900 2195.100000
55.054300 2783.200000
65.038600 358645.900000
66.033900 1213.400000
67.054300 3202.900000
68.997100 665.500000
69.033500 1985.300000
77.038600 1945.200000
79.054300 3331.100000
83.049200 2273.700000
91.054300 3297.900000
92.049600 441.400000
93.033600 8493.800000
93.044700 3308.500000
95.049200 6681.000000
98.036400 1419.900000
105.044900 2882.700000
111.044100 12277.800000
121.028500 26411.800000
121.039700 26815.300000

>ms2
50.015100 1444.600000
51.023000 4318.500000
53.002200 17791.400000
53.038600 2391.900000
53.997500 3476.100000
55.017900 1244.000000
55.054200 1842.900000
63.023000 1448.900000
64.030800 303.000000
65.038600 168455.000000
66.033900 1658.300000
67.054300 1376.300000
68.997100 368.500000
69.033600 415.300000
74.015200 383.000000
75.022900 528.100000
77.038600 1611.800000
79.054300 1874.600000
83.049200 1144.700000
91.054300 1792.800000
92.025700 1109.300000
93.033800 1460.500000
93.044900 1178.000000
95.049100 4089.300000
105.044900 1583.100000
111.044100 2111.300000
121.028500 2124.600000
121.039600 4233.900000

>ms2
50.015100 1742.800000
51.023000 5929.100000
53.002200 19243.200000
53.038600 1582.000000
53.997500 3050.100000
55.017900 660.400000
63.023000 2521.200000
64.030700 614.800000
65.038600 56301.700000
67.054200 1200.700000
74.015200 1382.900000
75.023000 1206.200000
77.038600 1183.500000
79.054300 396.600000
91.054300 1360.000000
92.025600 521.500000
95.049200 2079.000000
105.044900 1251.100000

