>compound EQ27336248
>parentmass 181.072
>ionization [M+H]+
>formula C7H8N4O2
>rt 192.000000
>profile orbitrap
#smiles_iso CN1C2=C(C(=O)N(C1=O)C)NC=N2
#smiles_can CN1C2=C(C(=O)N(C1=O)C)NC=N2
#inchikey ZFXYFBGIUFBOJW-UHFFFAOYSA-N
#pubchem_id 2153
#mb_accession EQ363201,EQ363202,EQ363203,EQ363204,EQ363205,EQ363206,EQ363207,EQ363208,EQ363209

>ms2peaks
96.055600 630167.700000
124.050700 21792466.000000
137.082400 628571.100000
181.072100 400053280.000000

>ms2peaks
69.044400 417795.200000
96.055700 847990.400000
124.050700 33044200.000000
137.082300 899775.000000
142.061300 402124.500000
181.072100 371498560.000000

>ms2peaks
69.044700 3564697.800000
83.024000 234781.300000
96.055700 12843382.000000
97.039700 548996.800000
108.055600 548799.600000
109.027100 234267.100000
110.071400 767378.600000
120.055700 612430.200000
124.050600 170798576.000000
137.082300 2817528.500000
142.061300 3617535.500000
149.046100 298072.200000
181.072100 212002224.000000

>ms2peaks
68.036900 238480.900000
69.044800 18299846.000000
81.044800 299622.500000
83.024000 2016835.800000
93.044900 451467.400000
94.040100 440496.200000
95.024100 441962.500000
96.055700 44315164.000000
97.039700 2033613.400000
108.055600 1056041.600000
109.027100 768002.400000
110.071400 754788.400000
120.055900 771511.300000
122.034900 265193.700000
122.058900 307997.300000
124.050700 197913152.000000
137.082300 2018534.200000
140.045400 274115.200000
142.061300 5366616.500000
149.045900 578752.900000
166.048600 211734.600000
167.056500 226353.600000
181.072100 55286060.000000

>ms2peaks
55.029100 388566.900000
67.029100 476988.800000
68.036900 579177.900000
69.044700 42872932.000000
79.029000 129023.200000
80.013100 174182.400000
81.044800 978400.400000
83.024000 4223684.500000
93.044800 631114.400000
94.040100 1196216.400000
95.024100 823881.800000
96.055700 58849128.000000
97.039700 3146075.500000
106.040200 166722.300000
108.055700 843448.200000
109.027200 2657694.000000
110.071400 583452.900000
113.034700 189919.400000
120.055700 472674.400000
121.051100 194541.000000
122.035000 497935.400000
122.058900 481248.000000
124.050700 121645080.000000
137.082300 655069.200000
140.045400 511777.000000
142.061300 4079548.500000
149.046100 305115.700000
167.056700 140932.900000
181.072100 9678927.000000

>ms2peaks
52.018300 82011.200000
54.021300 325668.800000
54.033900 342139.200000
55.029100 557619.300000
56.049600 70181.400000
57.044800 134557.400000
67.029100 815597.800000
68.037000 893922.400000
69.044800 48928352.000000
70.028700 228978.800000
79.029100 179287.500000
80.013100 339789.100000
81.044800 1039893.600000
82.016400 50660.700000
83.024000 3875987.500000
93.044900 368531.300000
94.040100 1799109.600000
95.024100 1128571.000000
95.047800 138600.300000
96.055700 37904972.000000
97.039800 1880349.900000
106.040000 215723.800000
108.055600 422447.200000
109.027200 5051252.000000
110.071200 206603.400000
113.034700 182537.800000
120.055700 201702.800000
121.050900 282891.400000
122.035000 733502.700000
122.058800 290349.000000
124.050700 43202192.000000
137.082300 141549.600000
140.045600 542252.100000
142.061300 1435345.800000
149.045800 193094.900000
181.072100 996321.400000

>ms2peaks
52.018200 124440.600000
53.013500 157710.700000
54.021300 2315396.000000
54.033900 544926.800000
55.029100 1138697.000000
56.036900 39568.300000
56.049500 156886.400000
57.044800 316522.600000
58.028800 123053.600000
66.021300 165547.100000
67.029100 2190335.500000
68.013100 216860.900000
68.037000 1484380.800000
69.044800 33326664.000000
70.028800 122055.800000
79.029100 266808.700000
80.013100 202328.900000
81.032200 55480.600000
81.044800 1060525.900000
82.016200 698968.200000
83.024100 1108814.200000
93.044800 183724.800000
94.040100 1563668.400000
95.024100 709781.800000
96.055700 6516268.000000
97.039700 455218.700000
106.040100 140425.200000
108.055600 75895.300000
109.027200 6306620.500000
113.034700 70992.300000
121.051100 332173.800000
122.035100 213774.300000
122.059100 41066.500000
124.050700 2807862.500000
140.045500 160429.200000
142.061300 71506.600000

>ms2peaks
52.018300 269827.900000
53.013500 65254.600000
54.021300 3550004.500000
54.033900 463516.200000
55.029100 1049934.200000
57.044800 613185.900000
58.028800 66870.700000
65.013500 29542.300000
66.021300 419742.100000
67.029100 2170212.200000
68.013100 202041.800000
68.037000 1076635.900000
69.044800 11605405.000000
70.028900 42845.700000
79.029100 118249.600000
80.013200 112944.500000
81.008400 71299.800000
81.032200 40801.300000
81.044800 365220.100000
82.016300 665671.900000
83.024200 56589.200000
93.044900 31394.300000
94.040100 821649.900000
95.024100 203048.300000
96.055700 573258.600000
97.039800 36390.700000
109.027200 2380391.500000
121.050900 212073.100000
124.050900 187364.000000

>ms2peaks
52.018300 401154.000000
53.013400 109337.900000
54.021300 3250302.000000
54.033900 201641.000000
55.029100 892593.400000
56.036900 47721.100000
57.044800 458695.800000
65.013500 57137.700000
66.021300 407412.300000
67.029100 1303307.800000
68.013200 227520.200000
68.036900 576456.900000
69.044800 3364257.500000
80.013200 38341.000000
81.008400 251934.700000
81.044800 64635.700000
82.016200 231827.400000
94.040100 296205.200000
95.024200 62673.900000
109.027200 400153.000000
121.050900 39603.100000

