>compound EQ28458740
>parentmass 494.2663000000001
>ionization [M+H]+
>formula C29H31N7O
>rt 348.000000
>profile orbitrap
#smiles_iso CC1=C(C=C(C=C1)NC(=O)C2=CC=C(C=C2)CN3CCN(CC3)C)NC4=NC=CC(=N4)C5=CN=CC=C5
#smiles_can CC1=C(C=C(C=C1)NC(=O)C2=CC=C(C=C2)CN3CCN(CC3)C)NC4=NC=CC(=N4)C5=CN=CC=C5
#inchikey KTUFNOKKBVMGRW-UHFFFAOYSA-N
#pubchem_id 5291
#mb_accession EQ363301,EQ363302,EQ363303,EQ363304,EQ363305,EQ363306,EQ363307,EQ363308,EQ363309

>ms2
217.133500 164118.200000
394.166000 1490187.100000
494.266100 36689908.000000

>ms2
56.049400 76959.000000
58.065100 124374.800000
70.065000 295468.200000
72.080600 33943.800000
84.068200 39168.000000
97.076000 253146.200000
98.083800 427707.700000
99.091600 1808937.800000
100.099400 166067.500000
101.107200 22076.000000
105.033200 39738.400000
109.076000 76349.600000
111.091600 305139.600000
112.099400 59875.800000
119.049100 252264.500000
131.060300 21744.500000
135.091500 33604.100000
158.060000 20862.400000
174.091400 130185.300000
189.138500 518368.900000
217.133500 5766339.500000
221.107600 24777.700000
222.091300 241615.500000
223.099100 23340.000000
264.112700 78293.700000
265.097100 92223.900000
290.128600 71504.500000
351.159600 73323.500000
377.139500 126109.600000
378.135000 21121.200000
379.142400 112192.300000
393.158000 22374.800000
394.166200 20396774.000000
396.181400 157847.900000
437.207700 28969.100000
476.255900 605850.000000
494.266500 5699915.000000

>ms2
56.049500 400696.100000
58.065100 722966.700000
70.065100 953615.400000
72.080700 135753.100000
80.049400 17744.100000
82.065100 19057.700000
83.060300 45219.600000
84.068200 148885.000000
85.076100 16837.300000
91.054200 70421.200000
97.076000 417876.400000
98.083800 623147.800000
99.091600 1857517.600000
100.099400 214664.100000
101.107300 35511.200000
104.049400 59646.200000
105.033500 149301.200000
105.044700 96809.300000
105.069900 15363.600000
109.076000 121585.900000
111.091600 465386.200000
112.099400 127559.600000
118.041300 82584.300000
118.065000 14459.500000
119.049100 713283.000000
121.064800 14118.000000
121.076000 233981.100000
131.049600 53326.500000
131.060300 719169.900000
132.044300 41515.900000
132.068200 212364.700000
132.080600 32628.800000
135.091600 74161.200000
146.060000 30383.600000
146.071100 23911.000000
146.096500 44094.600000
149.107300 14782.700000
158.060000 160646.200000
158.071200 24402.100000
158.096500 20926.300000
160.075600 94622.000000
162.091400 25033.100000
173.082100 119480.700000
174.066200 21711.600000
174.091300 170801.900000
174.115200 22645.100000
179.085500 17549.300000
185.082100 96093.100000
188.130900 17252.000000
189.138600 381070.000000
194.096400 293019.400000
202.110000 18566.500000
204.081100 29172.600000
206.083800 180519.900000
207.067900 35968.600000
210.091400 27094.700000
212.107100 27297.500000
217.133600 642161.400000
219.091600 28063.100000
220.099400 16264.700000
221.107300 701483.200000
222.091300 3587181.500000
223.099200 599812.200000
224.094800 30127.000000
237.102400 59143.700000
237.125900 57275.400000
238.110000 351589.900000
239.117800 58621.800000
247.086600 1185008.600000
248.093600 18502.500000
249.089900 11301.900000
249.102300 56837.200000
259.098000 29395.500000
260.105100 32696.600000
261.113200 44128.800000
262.097200 19070.700000
263.118000 130460.800000
264.113100 1775984.000000
265.097100 1426650.200000
272.118000 14793.800000
273.102100 32745.000000
274.097400 165784.300000
275.104400 34475.100000
276.124600 53930.200000
277.108600 29673.000000
288.113000 9305.200000
290.128800 1146495.400000
315.124100 19420.500000
349.145100 44083.900000
351.125700 277515.100000
351.160800 655300.700000
352.144100 24513.900000
359.129200 30000.800000
361.131900 66437.400000
363.124900 35800.200000
364.120900 33567.000000
364.155600 171977.500000
365.164000 14141.300000
366.171500 506744.200000
367.155300 110047.800000
375.147700 22455.100000
376.155900 750404.400000
377.139900 850768.700000
378.135000 1062032.900000
379.142900 2421724.800000
392.150500 23122.200000
393.158300 26155.800000
394.166400 9200205.000000
396.181200 15594.300000
476.255900 133123.700000
494.267000 37601.400000

>ms2
50.015000 4770.700000
52.018200 20226.100000
53.038600 6616.600000
55.041600 5224.100000
56.049500 413564.200000
57.057300 17109.200000
58.065100 950053.200000
63.022600 3987.900000
65.038500 15880.700000
66.046400 54920.200000
68.025500 3471.300000
68.049500 25545.500000
69.044800 4808.800000
69.057200 13449.200000
70.065100 910735.500000
71.060300 18840.000000
71.073100 3465.700000
72.080700 118747.100000
77.038500 8234.600000
78.033700 35263.600000
79.054300 6197.600000
80.049400 58799.500000
82.052500 6659.100000
82.065000 27637.600000
83.060300 63805.400000
84.068200 149050.200000
85.076000 13532.800000
89.038600 22279.200000
90.046400 121567.600000
91.054200 216796.000000
93.057200 3802.600000
94.065000 27467.900000
95.049100 18398.900000
96.044300 26439.600000
96.067900 6909.100000
97.076000 254633.000000
98.083800 428569.200000
99.091600 645206.200000
100.099400 57506.600000
101.107400 19035.300000
103.054200 24129.400000
104.049400 228277.400000
105.033500 237689.700000
105.044700 220458.900000
105.069800 22916.600000
106.065300 5065.900000
107.049200 7119.000000
109.064800 25957.100000
109.076000 37660.100000
111.091600 180941.600000
112.099500 70365.200000
115.054200 8202.300000
116.049400 5555.200000
117.057200 18591.100000
118.041300 270890.400000
118.065100 30007.800000
119.049100 628013.700000
119.060300 72783.600000
121.064900 16981.500000
121.076000 213577.200000
122.036300 38944.000000
129.044700 5597.300000
129.057200 5317.200000
129.069700 5259.100000
130.065100 48469.600000
131.049500 116500.400000
131.060300 1082441.400000
132.044400 68841.700000
132.068200 196462.600000
132.080700 33079.400000
133.076000 4897.700000
135.091600 33718.400000
143.073100 4195.200000
144.080800 5458.400000
146.059900 29234.900000
146.071100 45229.800000
146.096200 24631.600000
147.055500 15730.800000
148.099300 5499.800000
152.062000 19112.000000
154.064800 4542.200000
156.055600 32045.000000
158.060000 126575.100000
158.070900 49681.900000
158.096600 8276.400000
160.075600 38913.000000
162.091300 7716.800000
163.063500 5096.600000
165.069700 43652.100000
166.065100 4925.200000
167.073400 4359.500000
167.085500 82859.500000
168.080400 4201.100000
169.088500 4019.300000
171.066600 23998.300000
171.079100 8081.100000
172.075100 5590.500000
173.082200 143940.800000
174.066200 84871.800000
174.091500 46808.500000
174.115300 17279.200000
177.069700 19912.700000
178.064900 14034.900000
178.077500 57661.100000
179.073100 48481.600000
179.085400 81301.900000
180.080700 23745.100000
180.093400 3812.700000
181.064700 3548.100000
181.088300 7086.700000
185.082200 30874.800000
187.123200 4112.800000
188.130000 4173.600000
189.138800 54576.500000
190.065300 4840.600000
192.080600 36238.400000
193.088600 51470.300000
194.096400 801793.900000
195.080400 43849.800000
195.104200 59224.500000
196.076000 24861.600000
196.099400 26215.200000
197.083000 44844.700000
203.073000 21729.900000
204.080800 163407.300000
205.076000 36806.900000
205.088600 54621.200000
206.083900 467577.000000
207.067900 98598.600000
207.091800 7265.100000
208.075800 73614.500000
209.107200 46090.500000
210.091400 36012.200000
210.115300 35572.300000
212.106500 27284.600000
217.133400 24733.300000
218.083200 8539.500000
219.091700 265175.600000
220.075700 70992.200000
220.099600 94855.500000
221.084200 30476.300000
221.107300 326539.100000
222.091400 2766948.000000
223.099100 782269.700000
224.094400 40719.900000
224.105100 9642.900000
229.076200 14555.300000
231.079200 4624.600000
231.091700 7266.700000
232.063200 65564.500000
232.087300 3685.200000
232.099400 8238.600000
234.079300 26516.700000
234.090000 8105.200000
234.101900 8272.200000
235.087100 12104.600000
235.098400 7841.200000
235.110700 5980.200000
235.122800 8435.700000
236.118300 17138.300000
237.102200 148986.200000
237.126200 7840.700000
238.110000 696960.500000
239.118000 20011.300000
245.095100 4128.500000
245.107000 16924.100000
246.078300 23208.800000
246.090300 25345.700000
246.102800 35273.000000
247.086600 2838744.000000
248.082400 6247.900000
248.094400 76511.100000
248.106200 8195.400000
249.089600 75662.400000
249.102300 104106.400000
249.113800 21273.900000
256.086900 7534.600000
257.095200 8064.900000
258.078600 12730.400000
259.075900 32537.600000
259.097700 177642.200000
260.081700 8384.400000
260.105500 80614.200000
261.100900 88868.000000
261.113600 111910.700000
262.097100 35562.200000
262.108900 24810.600000
262.133800 19278.000000
263.105800 11131.000000
263.117800 196621.700000
264.113100 1131538.500000
265.097100 896196.400000
270.101900 4727.100000
271.109900 12440.500000
272.081100 5734.400000
272.117800 33723.200000
273.088900 7813.000000
273.102000 68404.600000
274.097300 206730.000000
274.108700 11102.100000
275.117400 16139.800000
276.124500 105710.500000
277.108400 13380.500000
288.087300 4554.800000
288.113400 19954.600000
290.128800 348747.600000
297.113300 4509.700000
301.108500 26351.100000
308.119200 3857.800000
309.127300 4312.800000
315.125300 7638.900000
323.129300 14919.500000
324.151300 7980.100000
326.129200 6553.800000
332.117800 15780.000000
333.113600 19189.800000
335.129100 31012.700000
336.137300 15189.500000
337.145200 20274.300000
338.128300 6324.700000
339.124900 5293.800000
339.160500 17984.300000
346.107600 4963.300000
347.128600 8345.300000
349.144900 107968.700000
350.141800 88447.000000
351.123800 210886.300000
351.146500 128717.400000
351.161700 120277.400000
352.144900 17916.800000
359.129000 45528.500000
361.108600 21054.300000
361.131700 133830.500000
362.116600 36255.600000
363.124200 72584.500000
364.119000 64029.000000
364.155300 61640.000000
365.163400 94803.900000
366.171500 307424.000000
367.155500 7107.100000
374.139800 29304.300000
375.123700 20533.100000
375.147800 33676.900000
376.155600 301759.500000
377.140200 263840.800000
378.135100 3416761.800000
379.142800 801464.600000
392.150400 24304.100000
393.158400 18617.100000
394.166400 318491.500000

>ms2
50.015000 7089.600000
51.022900 7809.000000
52.018200 51472.400000
53.038600 28544.200000
54.033800 3806.500000
55.041600 6215.700000
56.049500 459079.500000
57.057300 16311.900000
58.065100 1006912.800000
63.022900 4993.600000
65.038500 71935.600000
66.046400 189231.500000
67.041700 5789.200000
67.054200 6068.400000
68.025600 5347.600000
68.049500 36525.900000
69.044700 14428.900000
69.057300 5810.100000
70.065100 1002587.900000
71.060400 3945.600000
71.073000 4345.800000
72.080700 91491.500000
77.038400 24848.700000
78.033800 95942.500000
79.041500 15468.200000
79.054200 14972.400000
80.049400 151452.700000
82.052500 20778.300000
82.065100 55598.800000
83.060300 122536.200000
84.068200 151851.100000
89.038600 127422.200000
90.046400 379508.500000
91.054200 473022.200000
92.049500 14171.600000
93.033700 3661.900000
93.070000 5327.200000
94.041200 6502.900000
94.065100 27794.700000
95.049100 81106.800000
96.044400 91482.500000
96.068100 12357.300000
97.076000 168459.500000
98.083800 279877.100000
99.091700 234441.800000
101.107400 18565.300000
103.054200 81040.500000
104.049400 517686.000000
105.033500 294163.400000
105.044700 315998.500000
105.069900 23973.700000
106.065100 23267.600000
107.049100 16887.700000
109.064800 55734.200000
109.076100 17233.300000
110.059900 4457.100000
111.091600 104344.200000
112.099500 26033.800000
115.054200 22666.700000
116.049600 14705.300000
117.057200 65807.900000
117.069900 8691.000000
118.041300 308377.900000
118.065000 58140.200000
119.049100 389781.400000
119.060400 166964.700000
121.076000 114771.600000
122.036200 126219.200000
128.062000 18918.400000
129.044700 33981.300000
129.057300 37064.300000
129.069900 4086.200000
130.040100 4637.700000
130.052600 15731.600000
130.065100 74854.700000
131.049300 233827.500000
131.060400 992064.500000
132.044300 75361.200000
132.068200 129185.500000
132.080600 35255.300000
133.076300 14844.800000
134.060000 5965.900000
135.091600 14768.400000
139.054000 4668.900000
141.070000 7494.700000
142.065400 5997.700000
144.055800 8279.500000
144.081000 8173.400000
145.064700 6663.700000
145.075900 15199.300000
146.060000 25270.400000
146.071200 61669.100000
146.096500 13849.000000
147.055300 13697.000000
149.107500 4749.700000
152.061900 164591.000000
153.057200 4820.000000
153.069800 27971.900000
154.065100 21348.300000
154.077900 8066.800000
155.060300 4093.100000
156.055600 157314.700000
157.063500 7284.500000
158.060100 68311.400000
158.071100 60160.600000
160.075800 21529.500000
161.047300 30083.600000
163.062800 5464.000000
165.069900 262342.700000
166.065200 40247.000000
166.077700 43052.400000
167.073500 46866.100000
167.085500 184955.200000
168.080800 28583.600000
169.064700 27358.300000
169.088600 14211.200000
170.071600 8612.700000
171.066400 34922.200000
171.079100 22834.800000
172.074500 8392.500000
173.082200 105397.300000
174.066200 150709.700000
174.091600 16812.800000
174.115300 8404.900000
176.062200 48715.000000
177.057700 39970.500000
177.069800 101302.900000
178.065600 76493.900000
178.077600 259989.700000
179.060400 12775.900000
179.072900 246670.700000
179.085200 124899.000000
180.080700 105244.500000
180.093100 12473.000000
181.064800 6674.400000
181.076300 5935.900000
181.088800 12754.200000
182.060200 21431.400000
182.072400 6750.700000
182.096500 24759.400000
183.067700 13378.000000
183.104500 7765.400000
185.082500 12832.100000
189.139000 5044.300000
190.065000 66479.000000
191.072900 67592.200000
192.080800 173149.600000
193.088600 234242.700000
194.096500 1049518.800000
195.080600 67525.900000
195.091700 73169.200000
195.104300 66359.400000
196.075700 49706.300000
196.099500 19224.100000
197.083300 60407.500000
202.065200 21672.600000
203.072900 106366.900000
204.068500 55232.500000
204.080900 241906.500000
205.076300 159873.800000
205.088700 151770.500000
206.060200 61633.000000
206.083900 439113.400000
207.067800 155181.700000
207.092000 8574.000000
208.075700 190048.400000
209.082400 18266.800000
209.107300 137829.900000
210.091400 79495.200000
210.115200 78139.000000
211.098800 13962.400000
212.107200 5837.500000
216.068200 40242.800000
217.075600 24254.100000
218.084000 131101.000000
219.091700 857486.700000
220.075900 295122.600000
220.086500 18537.700000
220.099100 108659.200000
221.071200 33121.600000
221.083400 83490.200000
221.095000 38979.400000
221.106900 83718.100000
222.091400 1649774.900000
223.086900 104679.100000
223.099200 348456.400000
224.094300 29933.900000
224.104800 5246.500000
228.068500 8521.000000
229.075800 77704.700000
230.083800 20797.600000
231.055700 12808.000000
231.079400 46656.300000
231.092000 25723.300000
232.063200 299868.200000
233.071000 48781.600000
233.082000 9096.400000
233.094800 6926.700000
233.107600 8145.100000
234.078800 51991.700000
234.090200 65195.000000
234.102800 36212.100000
235.086500 19762.800000
235.098200 20263.300000
235.110500 6304.500000
235.123000 7157.300000
236.118400 22677.800000
237.102300 286292.600000
238.110100 401613.900000
241.063800 4099.900000
243.092400 11093.600000
244.087100 19222.900000
245.070900 27196.700000
245.082600 22834.700000
245.095400 13974.400000
245.107800 18969.400000
246.078800 74940.300000
246.090300 39117.800000
246.102800 59523.100000
247.086600 2342543.000000
248.082100 14984.100000
248.094300 103315.500000
248.106200 6653.400000
249.089700 165763.500000
249.102200 65395.800000
249.113900 31302.700000
251.081500 6919.800000
255.079300 5543.700000
255.091500 5846.100000
256.087300 20770.700000
257.094500 24895.200000
258.078400 13217.200000
258.090400 6311.000000
258.102500 7383.600000
259.075900 51208.200000
259.097800 253290.800000
260.082100 23510.600000
260.093500 11696.800000
260.105700 42819.800000
261.101000 215419.100000
261.113700 85810.600000
262.098000 32693.000000
262.108800 33386.400000
262.134300 13596.600000
263.093600 4889.900000
263.105500 10491.400000
263.117800 97257.000000
264.113100 370830.900000
265.097200 462968.900000
270.102500 7880.300000
271.110300 17951.600000
272.081800 21417.300000
272.094500 5216.200000
272.118700 14665.800000
273.089700 16363.100000
273.102600 20520.900000
274.096800 189375.300000
274.109300 40441.200000
275.104200 27036.000000
275.117100 21177.200000
276.124400 108626.100000
283.097300 7318.300000
288.088300 15010.900000
288.113000 18417.000000
290.129200 27405.700000
297.112900 4793.700000
301.108400 14691.700000
304.119300 6175.600000
305.094200 4456.200000
307.111100 15954.400000
308.118800 20399.800000
309.113000 13503.000000
309.128700 3721.800000
321.113100 15920.300000
323.129700 40414.500000
324.151800 5216.700000
332.119300 14131.700000
333.112400 80911.400000
335.130100 86843.300000
336.139200 17563.300000
337.106300 10943.200000
337.144600 41769.400000
338.129900 6469.600000
339.123500 6880.600000
339.160400 4478.100000
346.109100 29172.100000
347.129600 41372.700000
349.107800 11993.200000
350.139700 302735.200000
351.124000 127888.500000
351.147800 124975.800000
352.145400 5574.700000
359.116400 21286.000000
360.124400 317020.000000
361.108300 42690.300000
361.132500 68789.700000
362.116200 26673.500000
364.119400 58797.100000
364.155800 47115.900000
365.163600 50385.700000
366.171100 27100.600000
374.139900 41499.900000
375.124200 20237.900000
375.146900 9147.000000
376.119400 18220.100000
376.154900 34854.200000
377.125600 28882.100000
378.135200 3157533.800000
379.142400 78283.600000
392.150700 19143.300000
394.166400 4488.700000

>ms2
50.015100 20090.200000
51.022800 26328.500000
52.018200 71357.200000
53.038600 58878.600000
54.033900 15245.500000
55.017900 13114.600000
55.041600 7583.000000
56.049500 378242.000000
57.057300 23367.900000
58.065100 925459.700000
62.015000 4258.300000
63.022900 21017.600000
65.038500 121311.500000
66.046400 256640.200000
67.041700 4624.800000
67.054300 3694.900000
68.025600 14363.400000
68.049400 40957.600000
69.044700 5208.000000
69.057300 4546.100000
70.065100 772720.300000
71.060300 7104.000000
71.072900 3473.400000
72.080700 59611.400000
77.038500 51290.700000
78.033800 145093.700000
79.041600 20288.500000
79.054100 29821.900000
80.049400 168446.100000
81.033400 3919.100000
82.052500 17741.400000
82.065100 54040.000000
83.060300 126705.000000
84.068200 125428.900000
89.038500 312310.500000
90.046400 628152.900000
91.054200 599068.800000
92.049500 24487.000000
93.033500 5940.900000
93.044800 4332.500000
93.057300 4060.700000
94.041600 23355.000000
94.065000 27757.900000
95.049100 160932.100000
96.044300 159267.800000
96.068200 16345.300000
97.076000 126617.700000
98.083800 187399.400000
99.091600 79176.000000
101.107300 6699.700000
102.033900 7461.300000
102.046500 4596.700000
103.041700 8041.900000
103.054200 117905.100000
104.049400 507938.500000
105.033500 212893.600000
105.044700 312196.700000
105.070000 23869.000000
106.065200 25882.100000
107.049100 13598.100000
109.064800 53940.500000
109.075900 5623.500000
110.060100 5999.700000
111.031500 4856.000000
111.091500 37118.000000
112.099500 6909.300000
115.054200 44838.600000
116.049400 37729.800000
117.044700 5422.400000
117.057300 91888.300000
117.069800 5479.600000
118.041300 113821.800000
118.052600 19099.300000
118.065100 53249.800000
119.049100 130023.000000
119.060400 112114.000000
120.044300 5216.500000
121.076000 50963.400000
122.036200 131828.600000
128.062000 28827.100000
129.044700 69498.600000
129.057300 61963.600000
129.069900 8114.800000
130.040200 19134.700000
130.052600 21381.300000
130.065100 82548.800000
131.049400 131397.600000
131.060300 634878.300000
132.044300 30152.800000
132.068200 70227.000000
132.080700 24199.600000
133.076200 6611.700000
134.060000 12841.500000
135.055400 6722.500000
135.091700 14748.400000
139.054200 6202.100000
140.049300 25466.600000
141.069900 32310.600000
142.052500 4788.600000
142.065400 6917.900000
143.060400 21496.200000
143.073000 6123.800000
144.055700 7361.200000
144.080900 6236.300000
145.064300 14036.200000
145.076200 6269.300000
146.060100 6575.000000
146.071300 42161.600000
146.096400 4067.600000
147.055300 24956.100000
151.054200 14623.800000
152.062000 373920.000000
153.057100 24847.100000
153.069900 46750.400000
154.065200 47243.200000
154.077700 13515.000000
155.060000 27489.000000
156.055600 205731.500000
157.063700 17591.200000
158.060100 20323.400000
158.071200 30067.600000
160.075500 5004.000000
161.047100 63485.400000
163.054500 3671.500000
164.062000 15726.600000
165.069900 519255.500000
166.065100 55772.000000
166.077600 76835.500000
167.073100 100836.800000
167.085400 129586.400000
168.056800 6322.000000
168.080700 66536.200000
169.064800 75107.100000
169.088700 14152.800000
170.071400 13789.300000
171.066300 29578.600000
171.078900 14472.400000
173.082100 35072.300000
174.066100 83502.200000
176.061900 116589.300000
177.057400 141841.600000
177.069700 138118.200000
178.065300 204023.500000
178.077600 393960.300000
179.072900 357372.200000
179.084900 82520.700000
180.080700 174840.500000
181.064600 22500.400000
181.076200 5358.800000
181.088500 17634.700000
182.060100 29629.100000
182.072300 19790.300000
182.096600 37933.500000
183.067500 21183.200000
183.104400 12614.400000
185.081300 3701.600000
189.057500 12715.800000
190.065100 189866.300000
191.059600 14669.900000
191.072800 182318.800000
192.068300 28332.900000
192.080700 315579.300000
193.052200 18517.500000
193.076200 38026.300000
193.088600 324400.600000
194.096400 602870.800000
195.067600 7738.100000
195.080500 41374.600000
195.091700 122870.500000
195.104500 28664.700000
196.075700 86711.400000
197.083200 31278.200000
201.057300 23965.800000
202.065200 61502.700000
203.060500 62093.200000
203.073000 242015.600000
204.068300 176041.000000
204.080900 168282.700000
205.052500 17664.400000
205.076200 309765.700000
205.088600 88537.700000
206.060300 105707.000000
206.071800 17024.800000
206.083800 201153.500000
207.068000 90767.500000
207.078500 5401.700000
207.091600 7529.300000
208.075700 158574.700000
208.099400 16195.600000
209.046900 15149.400000
209.107400 170684.900000
210.091300 94919.900000
210.114600 32771.900000
211.062700 22193.300000
211.099100 5093.600000
215.060300 25416.100000
216.068300 38669.100000
217.076200 112779.300000
218.083900 320528.200000
219.091700 750378.200000
220.075800 294381.000000
220.086900 59218.000000
220.099400 41547.700000
221.047500 5924.900000
221.070900 96430.400000
221.083100 44789.700000
221.094600 29089.300000
221.107200 18328.200000
222.079500 49065.500000
222.091300 647085.800000
223.086600 83979.500000
223.098700 89125.700000
224.094900 5982.000000
228.068000 20452.300000
229.076100 126774.400000
230.071400 48761.800000
230.083900 24193.300000
231.055600 35982.400000
231.079200 67444.800000
231.091900 25941.300000
232.063200 273877.400000
232.087300 24917.100000
232.099700 18707.600000
233.071100 81306.600000
233.082400 26267.400000
233.094600 7583.300000
233.107300 18340.900000
234.078800 35480.300000
234.090100 163094.400000
234.102700 35395.000000
235.086500 28578.100000
235.097900 21370.600000
235.109700 6889.300000
236.069900 3348.000000
236.117700 7648.500000
237.102300 229580.200000
238.110100 67090.600000
241.063600 8146.200000
242.083700 5079.100000
243.079400 5415.100000
243.092100 14504.500000
244.075500 5470.500000
244.086900 26371.100000
244.099200 6137.200000
245.072000 34281.900000
245.082300 37617.400000
245.094900 21515.800000
245.107400 15188.100000
246.078800 130872.700000
246.090300 33872.400000
246.102700 43133.100000
247.086600 718968.600000
248.081700 50216.800000
248.094300 45100.000000
248.106100 7692.400000
249.089900 97971.100000
249.101900 12105.100000
249.113500 14139.400000
251.081700 27158.800000
255.079200 18824.900000
255.091100 4410.200000
256.086800 54163.100000
256.098900 5042.700000
257.070400 5981.300000
257.082500 5909.600000
257.094700 12408.300000
258.066600 12303.800000
258.078700 5683.100000
258.090500 8210.200000
258.102600 11826.000000
259.075000 75948.800000
259.097800 188705.300000
260.081300 13216.900000
260.093200 28200.600000
260.105700 18441.200000
261.101000 120132.100000
261.113700 35569.900000
262.097500 14959.600000
262.109000 18570.000000
263.117800 12703.400000
264.113400 41799.700000
265.097100 109027.453100
270.102100 4911.100000
271.110700 13453.900000
272.081900 22152.800000
272.094200 4773.600000
273.089400 20960.900000
274.097100 81650.100000
274.109100 42259.900000
276.124500 22171.800000
280.085600 10892.900000
283.097800 13101.100000
288.087900 13587.800000
288.113000 5196.600000
293.093800 5828.900000
294.102100 5046.200000
297.114200 4377.600000
301.108900 6250.200000
306.102300 19526.500000
307.110900 7102.300000
308.105100 17245.800000
308.119200 13446.700000
309.113700 16302.800000
317.095300 7684.900000
318.088800 7891.300000
319.098000 12389.700000
320.104900 16470.700000
321.112000 25630.900000
322.119900 5769.200000
323.129700 42101.500000
331.097800 4304.300000
332.105400 21339.300000
333.113300 115978.400000
335.092800 7195.600000
335.131200 37520.700000
337.108400 8133.300000
337.143900 23671.900000
346.107500 7294.800000
347.130500 32839.200000
349.110000 7278.300000
350.116900 14753.700000
350.139900 183270.000000
351.124900 95102.600000
351.147600 19575.800000
359.116300 68786.600000
360.124500 266400.200000
361.109700 26224.300000
362.102400 54515.700000
364.118800 14760.100000
364.155400 17387.400000
374.140100 22924.900000
376.119000 46761.100000
377.126400 75754.700000
378.135100 714550.200000

>ms2
50.015100 95480.900000
51.022900 76965.100000
52.018200 93536.100000
53.038600 104284.600000
54.033800 17765.500000
55.017800 7229.200000
55.041700 18691.300000
56.049500 233172.800000
57.057300 12640.300000
58.065100 830993.700000
61.007200 3799.300000
62.015100 18314.700000
63.022900 104035.600000
64.030700 45273.600000
65.038600 300844.600000
66.046400 170700.300000
67.029000 13134.200000
67.041600 19205.200000
67.054200 4213.500000
68.025700 5179.800000
68.049400 32721.600000
69.044700 28780.000000
70.065100 359761.100000
71.060300 3232.000000
72.080700 26975.500000
74.015100 4041.600000
75.022800 28983.500000
76.018100 16478.600000
76.030600 5240.700000
77.038500 106633.900000
78.033800 237838.400000
78.046400 19078.400000
79.041500 59343.700000
79.054100 36570.300000
80.049400 116984.000000
81.033500 14947.500000
81.044800 5459.900000
82.052500 15317.900000
82.065100 29590.200000
83.060300 147887.900000
84.068200 50409.300000
85.075800 3860.100000
88.018100 3427.400000
89.038600 1099013.600000
90.046400 720235.400000
91.054200 565922.000000
92.049300 31110.700000
93.033500 4922.000000
93.044700 3956.900000
93.057300 13730.900000
94.041300 22357.800000
94.065100 18625.700000
95.049100 333752.800000
96.044400 293466.700000
97.076000 69273.500000
98.083900 55587.900000
102.033700 38628.800000
102.046400 44259.200000
103.028900 7739.200000
103.041700 42909.300000
103.054200 122327.700000
104.049400 494244.600000
105.033500 76982.600000
105.044700 337970.500000
106.065200 4895.900000
107.049100 6584.900000
109.064800 15691.200000
110.060000 7818.000000
111.031400 19410.200000
111.091700 6469.100000
114.033800 14157.800000
115.054200 175637.300000
116.049400 76787.400000
116.062200 6317.000000
117.044600 12583.800000
117.057300 112789.800000
118.041300 13902.500000
118.052400 13659.300000
118.065000 29134.900000
119.049300 8022.900000
119.060400 43262.200000
120.044300 29383.200000
121.039500 19939.400000
121.075800 5171.600000
122.036100 88213.800000
126.046400 19189.800000
127.054100 24633.400000
128.049400 35037.200000
128.062000 92674.400000
129.044700 141876.400000
129.057200 72305.800000
129.069700 13758.200000
130.040000 51725.800000
130.052500 29256.500000
130.065100 56509.800000
131.049600 24381.800000
131.060400 335445.300000
132.044300 7173.600000
132.068200 12967.600000
132.080800 4738.300000
134.059900 14112.500000
139.054200 86079.000000
140.049500 95880.300000
140.061900 15422.200000
141.057400 7972.100000
141.069700 71194.000000
142.052600 26745.900000
142.064900 24277.900000
143.060400 8034.400000
143.072900 8118.300000
144.056000 11489.600000
144.080800 7387.900000
145.064300 19013.000000
145.076100 6757.000000
146.060000 7827.600000
146.071100 6513.200000
147.055200 28490.800000
150.046400 71348.600000
151.054100 70967.000000
152.062000 803945.800000
153.057300 99888.900000
153.069900 105270.300000
154.065100 74775.700000
155.049000 13421.500000
155.060400 64323.300000
156.055600 148615.900000
157.063600 4354.800000
160.075700 5000.900000
161.047000 53658.300000
163.054100 79288.100000
164.049500 79086.800000
164.061800 76531.400000
165.069900 845561.800000
166.065100 146937.000000
166.077300 36144.500000
167.072900 287807.200000
167.085200 24848.600000
168.056900 60543.600000
168.080700 82992.600000
169.064700 356747.100000
170.060000 37123.400000
170.071300 15398.400000
171.054800 4217.100000
171.066500 22786.100000
174.046500 6919.600000
174.065800 16542.300000
175.041900 5128.600000
175.054400 15602.900000
176.049300 18720.700000
176.062000 230121.400000
177.057300 561333.900000
177.069100 113026.200000
178.052400 28121.000000
178.065200 530873.200000
178.077400 310190.100000
179.060200 210005.800000
179.072900 210277.600000
179.084700 23184.600000
180.055700 19807.400000
180.068000 15732.000000
180.080700 166676.600000
181.064200 8065.600000
181.076000 16481.900000
181.088300 21178.800000
182.060000 23414.700000
182.071900 5266.600000
182.096400 36246.600000
183.067700 6336.400000
183.080300 7772.000000
184.075500 15155.300000
185.047100 18600.800000
188.049300 71252.700000
189.045000 4924.300000
189.057000 25432.100000
189.069400 5394.600000
190.065100 458099.000000
191.060400 49823.100000
191.072900 396011.800000
192.068000 100764.300000
192.080600 322732.200000
193.052500 23678.100000
193.064700 28253.300000
193.075900 98806.300000
193.088500 173576.600000
194.059900 90895.900000
194.083800 47885.800000
194.096300 169453.100000
195.055300 17772.600000
195.067700 23000.000000
195.081200 4275.000000
195.091600 48538.700000
196.051700 17833.900000
196.075800 67651.100000
197.082900 4469.500000
201.057200 93365.200000
202.052400 20670.600000
202.065100 64883.700000
203.060200 217139.800000
203.072800 180374.500000
204.055700 61916.200000
204.068200 168832.500000
204.080500 61050.900000
205.076100 302516.100000
206.060000 72926.000000
206.071100 36002.200000
206.083800 28821.700000
207.067500 43625.700000
207.079100 14473.600000
207.091400 16652.300000
208.062900 17309.000000
208.075400 43852.500000
208.085900 6766.800000
208.099300 18685.300000
209.047500 6969.600000
209.070600 7261.200000
209.082100 4423.200000
209.107300 55852.700000
210.091300 33340.800000
211.063100 7028.000000
214.065200 7728.800000
215.060500 49922.800000
216.068200 95192.100000
217.076100 275301.600000
218.071400 20925.500000
218.083900 258715.600000
219.067600 37145.100000
219.079600 7384.000000
219.091600 144715.200000
220.075500 114452.200000
220.086800 69883.400000
221.047200 14991.000000
221.070800 119750.800000
221.082400 30567.000000
222.078900 21887.100000
222.091000 90224.600000
223.087000 9999.600000
227.060400 3833.400000
228.068200 35162.000000
229.076000 79692.100000
230.071400 111237.000000
230.082700 10852.700000
231.055700 43239.500000
231.067100 7594.400000
231.079000 42035.200000
231.091700 16701.300000
232.063600 32116.500000
232.074300 13638.600000
232.086900 19874.500000
233.070800 38085.300000
233.082000 64922.700000
234.090000 61914.000000
234.101600 5387.100000
235.086700 7101.100000
235.098000 8008.800000
236.057800 15512.000000
236.068300 3352.100000
237.102200 18569.900000
240.056300 4763.200000
241.063300 19361.500000
242.072300 3946.100000
242.083700 20212.100000
243.067500 6578.900000
243.079000 25789.400000
244.074100 49333.900000
244.086700 38759.100000
244.098500 5577.400000
245.070700 45559.800000
245.082200 34031.000000
245.095200 11394.500000
246.067000 7764.500000
246.078800 34285.400000
246.090100 5015.200000
247.086500 38076.000000
248.082300 25926.000000
251.082400 5475.800000
253.075600 4849.900000
254.070900 29661.700000
255.066600 4786.300000
255.079200 13566.900000
255.091500 6377.700000
256.074200 7585.400000
256.086600 19173.800000
256.098600 3722.700000
257.070400 4911.700000
257.082000 26478.200000
258.066200 6445.200000
258.078600 3686.700000
258.089900 21875.900000
258.102000 4235.900000
259.074700 24794.500000
259.097500 66716.700000
260.093000 18088.800000
261.101200 5413.500000
262.097300 3469.200000
263.092400 3985.700000
266.083600 7463.200000
267.078700 5786.800000
267.091400 5569.800000
268.086800 14243.800000
272.081300 14870.900000
274.108700 12381.300000
279.091300 14311.700000
280.087200 23325.900000
281.094500 4894.300000
291.078600 13001.600000
292.087400 10032.700000
293.094200 12024.700000
294.102100 13638.500000
304.087100 17659.500000
305.094300 14390.300000
306.104100 34001.400000
307.096900 36835.600000
307.110300 3480.000000
308.104900 21151.200000
308.119800 7023.900000
309.113000 6140.100000
318.088800 14946.300000
319.097300 15492.300000
320.105400 14302.000000
321.113000 35000.500000
322.120500 3755.800000
331.097500 37118.900000
332.104300 19915.700000
335.094100 5482.000000
346.109100 5547.400000
349.108400 12926.000000
350.117900 4109.700000
359.115500 7174.800000
360.125000 4077.400000
362.102600 13325.000000
376.119700 16522.100000
378.134300 4438.700000

>ms2
50.015100 181805.800000
51.022900 173865.100000
52.018200 81460.600000
52.030800 6222.600000
53.002200 21484.400000
53.038600 153941.000000
54.033900 24085.900000
54.046400 5195.000000
55.017800 4605.000000
55.041600 12918.100000
56.049500 172707.800000
57.057300 7500.000000
58.065100 605088.600000
61.007300 15963.600000
62.015100 60262.600000
63.022900 353000.800000
64.018100 12105.300000
64.030700 107999.800000
65.038600 462732.000000
66.046400 83352.200000
67.041700 18015.500000
67.054300 4337.400000
68.049500 43911.200000
69.044700 23725.600000
70.065100 145259.500000
72.080700 7368.900000
74.015100 30513.600000
75.022900 127963.100000
76.018100 64072.500000
76.030700 38148.100000
77.038500 206445.800000
78.033800 273318.800000
78.046300 57493.600000
79.041600 76249.200000
79.054100 14214.700000
80.049400 70332.000000
81.033500 30266.500000
81.044700 18106.100000
82.052500 3253.800000
82.065200 14915.500000
83.060300 144659.300000
84.068200 23696.300000
86.014800 3199.200000
87.023000 7024.600000
88.018000 3069.500000
88.030700 14722.800000
89.038600 1984926.100000
90.033900 35544.500000
90.046400 460507.200000
91.041700 20191.400000
91.054200 344994.900000
92.049500 23300.500000
93.057300 7569.500000
94.041300 16036.200000
94.065200 13449.500000
95.049100 418688.100000
96.044300 266145.400000
97.076100 26060.300000
98.015200 3502.900000
98.083900 8092.500000
99.022900 8015.000000
100.018000 7827.100000
100.030600 5549.200000
101.038600 6175.100000
102.033800 68268.600000
102.046400 132396.700000
103.029100 25599.900000
103.041600 53708.300000
103.054200 74758.300000
104.049400 275025.100000
105.033500 19250.600000
105.044700 323129.200000
106.065200 7357.800000
110.060000 5670.800000
111.031300 27426.000000
113.038500 46886.800000
114.033800 40175.700000
114.046300 12134.600000
115.054200 365064.700000
116.049400 63522.000000
116.062000 5960.200000
117.044600 21181.100000
117.057200 89258.700000
118.052400 18324.800000
118.065200 7870.500000
119.049200 12802.200000
119.060400 19123.700000
120.044400 36103.300000
121.039600 21713.500000
122.036200 27420.300000
124.030700 7096.700000
125.038500 36432.900000
126.046400 132677.800000
127.041600 21464.000000
127.054200 66143.800000
128.049400 73088.700000
128.062000 113706.300000
129.044700 166749.900000
129.057300 57463.400000
130.040000 66514.800000
130.052400 6145.300000
130.065100 41921.100000
131.060400 163746.200000
132.044500 5060.300000
132.056600 3746.200000
132.068100 3046.300000
134.060000 13961.100000
135.055300 3826.400000
137.038700 18342.700000
138.033900 16614.000000
138.046500 12610.000000
139.054200 273552.900000
140.049400 232902.200000
140.061700 37267.400000
141.057200 13572.700000
141.069800 57509.000000
142.052600 28315.200000
142.065100 28510.000000
143.049000 18726.400000
143.060500 15153.000000
144.055900 5715.100000
144.080500 4418.800000
145.064900 40499.900000
146.060100 20746.900000
147.055300 18414.100000
149.038600 39617.700000
150.046400 377984.700000
151.041500 38983.100000
151.054200 105942.100000
152.049600 41100.900000
152.062000 813993.100000
153.044700 20000.800000
153.057200 115240.200000
153.069800 59837.800000
154.040200 5349.500000
154.065100 41643.200000
155.049000 14559.500000
155.060300 99356.200000
156.055600 76550.900000
157.052300 4628.300000
159.055900 4221.200000
161.039300 5434.000000
161.047100 38047.900000
162.046500 5936.800000
163.054200 299312.800000
164.049500 197748.200000
164.061900 138448.800000
165.057500 31074.100000
165.069900 563026.000000
166.065100 195098.000000
167.049100 15012.500000
167.072900 228497.700000
168.056900 123668.400000
168.080900 29525.400000
169.064700 570942.000000
170.060000 80527.000000
170.071300 6259.900000
171.055800 3939.400000
171.066400 4465.600000
174.046500 37450.800000
175.041700 57464.600000
175.054000 22045.700000
176.062000 271036.300000
177.057300 572637.500000
178.065100 328129.100000
178.077100 86787.100000
179.060300 295165.300000
179.072300 79605.800000
180.055900 29670.300000
180.068300 5270.500000
180.080700 68293.500000
181.076200 6920.800000
181.088500 6765.300000
182.059700 3801.000000
183.067900 7326.900000
183.080300 3726.600000
185.047200 18152.400000
185.059700 16113.800000
187.041900 3771.400000
188.049500 155869.500000
189.044700 21508.100000
189.057200 44706.800000
189.069700 6751.100000
190.065100 555036.300000
191.060200 68224.200000
191.072900 289594.400000
192.068100 100611.000000
192.080600 152387.400000
193.052400 37979.800000
193.065000 37610.700000
193.075900 57521.300000
193.088400 48966.100000
194.060100 140068.500000
194.084000 16746.600000
194.096500 16856.800000
195.055500 30602.600000
195.067500 6151.400000
196.051800 45953.400000
196.075700 12524.500000
199.041800 4241.700000
200.049500 3851.100000
201.057200 99976.000000
202.052500 50986.000000
202.064700 32702.100000
203.060300 188643.400000
203.072800 49963.400000
204.055700 140050.800000
204.068100 55128.400000
204.080800 17660.200000
205.076000 95652.900000
206.060100 17028.900000
206.071300 39979.400000
207.067300 25118.500000
207.090900 3782.200000
208.063300 5086.700000
208.075400 6922.900000
208.086100 3618.600000
209.071000 5361.600000
209.107300 4791.500000
213.044600 16442.900000
214.053400 4915.700000
214.064700 7959.600000
215.060200 59308.000000
216.068300 163323.300000
217.064000 17713.200000
217.076200 128658.800000
218.060000 21895.400000
218.071300 20000.300000
218.083600 46377.700000
219.067600 15252.800000
219.079100 4916.600000
219.091600 12344.100000
220.075700 41514.300000
220.086200 7793.400000
221.047200 14123.200000
221.070900 46756.400000
221.082200 17133.100000
225.056200 4469.500000
226.052800 6684.300000
226.064400 3794.100000
227.060700 7751.100000
228.055500 16631.300000
228.068000 17420.400000
229.076000 25113.200000
230.071600 50402.800000
231.055200 7462.200000
231.066200 14651.000000
231.078400 14990.700000
232.063300 5961.400000
232.074300 17028.800000
232.086500 4440.600000
233.071100 4330.100000
233.082300 20249.200000
236.057600 4119.700000
238.065100 6476.100000
239.060600 5863.500000
240.054900 3614.800000
241.063500 6951.500000
242.071400 5817.000000
242.083800 4394.100000
243.067500 4141.100000
243.079500 19202.800000
244.074400 25395.000000
244.087000 16983.300000
245.070600 12522.900000
245.081800 7303.200000
246.066400 4330.000000
253.076200 11992.200000
254.070900 17523.500000
255.067100 5321.200000
255.091100 3995.300000
256.074600 5937.900000
256.087000 4430.400000
257.082700 35847.400000
265.077300 5372.000000
266.083700 11994.600000
267.078700 3415.400000
267.091700 6869.900000
268.087300 5079.000000
277.076500 12552.500000
279.091400 7367.300000
280.086900 20307.000000
281.094900 4038.400000
291.079100 6673.400000
292.087100 4476.700000
293.094200 15237.100000
294.101900 4829.800000
304.086600 21190.100000
306.104000 6386.600000
307.098400 6355.100000
308.105900 3283.500000
317.095000 3778.700000
319.097700 5244.800000
320.104800 5516.000000
321.114200 3434.700000
331.098400 7033.900000
346.108500 7035.500000

>ms2
50.015100 370065.600000
51.022900 296117.200000
52.018200 69261.100000
52.030700 13101.900000
53.002200 45871.800000
53.038600 138073.500000
54.033800 30288.800000
54.046400 21052.700000
55.017800 13987.500000
55.041700 19997.500000
56.049500 110217.800000
57.057400 3690.600000
58.065100 384738.600000
61.007300 51438.200000
62.015100 172112.600000
63.022900 914605.600000
64.018100 27230.900000
64.030700 179601.700000
65.038600 449675.700000
66.046400 46534.600000
67.029000 3138.400000
67.041600 27942.600000
67.054200 4748.300000
68.049500 29358.400000
69.044700 22783.400000
70.065100 45153.400000
72.080800 2949.200000
74.015000 123524.000000
75.022900 306713.500000
76.018100 92685.900000
76.030700 117867.400000
77.038500 203280.500000
78.033800 245851.800000
78.046400 80735.100000
79.041600 61547.600000
79.054200 12172.100000
80.049400 43503.500000
81.033500 19127.100000
81.044700 6218.700000
82.052600 3778.200000
82.065200 13993.100000
83.060300 88036.500000
86.015000 28088.600000
87.022900 70589.800000
88.018200 35000.000000
88.030700 35896.900000
89.038600 2224045.200000
90.033800 49686.200000
90.046400 204188.500000
91.041600 22901.000000
91.054200 165203.700000
92.049400 20068.300000
93.057200 5806.800000
94.041200 6747.900000
94.065200 3974.900000
95.049100 370730.700000
96.044400 221547.300000
97.076100 5537.600000
98.015100 42530.500000
99.022900 83287.300000
100.018000 24538.800000
100.030800 30509.000000
101.038500 23602.800000
102.033900 72549.000000
102.046400 210950.900000
103.029100 30382.500000
103.041600 44956.600000
103.054200 43376.600000
104.049400 149572.000000
105.044700 273933.200000
110.060100 5478.000000
111.031400 25395.000000
113.038500 138557.900000
114.033900 78180.100000
114.046400 11995.200000
115.054200 421518.800000
116.049500 47528.800000
117.044700 12054.200000
117.057200 40070.100000
118.041200 4677.000000
118.052500 7097.300000
119.049000 13857.000000
119.060400 4192.000000
120.044500 31744.500000
121.039600 22226.600000
122.035800 3732.000000
124.030900 29607.300000
125.038600 105870.300000
126.046400 286702.300000
127.041700 57700.200000
127.054200 65155.900000
128.049400 57146.100000
128.062000 94046.400000
129.044700 125117.700000
129.057200 20544.400000
130.039800 54925.300000
130.065100 17724.600000
131.060300 52248.300000
132.044500 5018.000000
132.057000 6034.200000
134.060200 5922.400000
137.038600 86591.200000
138.033900 44426.300000
138.046600 23677.800000
139.054200 396147.500000
140.049400 273110.100000
140.061800 21854.200000
141.057100 20056.600000
141.069700 19402.600000
142.052400 23638.500000
142.065300 6899.200000
143.049200 32152.900000
145.064700 29243.100000
146.060100 14750.000000
149.038600 83374.800000
150.046400 770117.800000
151.041600 82788.900000
151.054300 73407.100000
152.049400 60302.500000
152.062000 460731.900000
153.044700 41455.300000
153.057200 72559.100000
153.069600 16531.400000
154.040100 17420.600000
154.065000 17745.500000
155.060300 86637.000000
156.055600 26916.700000
157.052100 14680.900000
159.054800 3494.300000
161.038600 32655.200000
162.046500 38508.500000
163.054200 577353.700000
164.049500 280867.300000
164.061700 85654.300000
165.057400 27966.200000
165.069900 265498.700000
166.065100 146646.000000
167.049000 34928.400000
167.073000 88980.400000
168.056800 85477.600000
169.064800 489099.600000
170.060000 71173.200000
171.054900 3950.700000
174.046400 58753.400000
175.041700 130984.900000
175.054300 15856.400000
176.049900 41867.000000
176.062000 174653.700000
177.057300 293588.000000
177.069900 18197.700000
178.052400 16928.800000
178.065000 138935.600000
178.077700 16194.800000
179.060300 228354.800000
180.055700 21787.500000
180.080700 28287.700000
183.068100 6027.000000
184.075200 4044.100000
185.047200 5716.600000
185.059700 44355.200000
187.041200 5778.500000
188.049500 211140.600000
189.044700 35197.100000
189.057300 52642.700000
189.069900 7194.200000
190.065100 317939.300000
191.060500 48781.200000
191.072900 144949.400000
192.068400 52513.000000
192.080800 37799.900000
193.052300 30775.400000
193.064600 36389.000000
193.088600 11844.700000
194.060000 93367.900000
195.055200 31053.400000
196.051800 43986.600000
199.042000 23085.800000
200.050000 3098.700000
201.057300 65480.300000
202.052500 43357.700000
202.065100 7347.800000
203.060300 88620.900000
204.055800 101466.200000
204.067800 13277.100000
205.051300 3278.900000
205.076100 18015.700000
206.071900 11069.600000
207.067000 16867.900000
208.075400 3248.300000
213.044600 23786.600000
214.052400 3565.600000
214.065200 17447.500000
215.060400 56898.300000
216.068300 72148.100000
217.063700 13866.200000
217.075800 18884.400000
218.060000 6907.300000
218.083900 5447.300000
220.075500 12471.200000
221.046900 19620.400000
221.071100 13002.500000
225.057500 7334.500000
226.053100 3753.600000
226.064600 6492.200000
227.059700 3756.400000
228.055200 12423.600000
228.067100 3901.600000
229.076400 7407.400000
230.071300 15562.500000
231.067200 5317.200000
238.065400 12438.000000
239.059900 6846.600000
242.070900 4022.500000
243.079000 4966.700000
244.075100 4766.700000
245.070900 3922.800000
253.076100 4252.600000
254.071700 6436.300000
255.067100 5667.500000
256.074700 5076.700000
257.082100 7236.200000
265.076600 4676.400000
277.076100 7665.800000
304.087100 4818.600000

