>compound EQ28031290
>parentmass 297.0845
>ionization [M+H]+
>formula C14H11F3N2O2
>rt 654.000000
>profile orbitrap
#smiles_iso CC1=C(C=CC=C1NC2=C(C=CC=N2)C(=O)O)C(F)(F)F
#smiles_can CC1=C(C=CC=C1NC2=C(C=CC=N2)C(=O)O)C(F)(F)F
#inchikey NOOCSNJCXJYGPE-UHFFFAOYSA-N
#pubchem_id 38081
#mb_accession EQ368501,EQ368502,EQ368503,EQ368504,EQ368505,EQ368506,EQ368507,EQ368508,EQ368509

>ms2peaks
279.073400 17952662.000000
297.084300 2107736320.000000
298.087800 4122133.200000

>ms2peaks
239.061600 4475230.500000
257.072000 11300164.000000
259.069700 1788093.500000
264.050200 2689772.500000
277.078200 41641696.000000
279.073800 649374784.000000
297.084300 1558944896.000000
298.088200 2133031.800000

>ms2peaks
159.041500 2163566.500000
210.078600 15281866.000000
211.066700 9152972.000000
239.061500 34233900.000000
251.079600 2191625.000000
257.072100 30727478.000000
259.067800 62201900.000000
262.054900 2275752.800000
264.050500 86437072.000000
277.078300 23214194.000000
278.066800 2161629.000000
279.073800 1572941184.000000
280.075900 1717087.500000
297.084400 215235120.000000

>ms2peaks
78.033600 2575981.200000
96.044300 5004259.000000
109.044800 19694194.000000
121.039600 1445142.000000
139.035200 3600415.200000
147.035300 2325589.500000
159.041600 38391552.000000
167.072800 1333044.600000
175.060100 1661573.500000
180.068200 1232937.900000
181.075800 9072159.000000
182.083800 12128058.000000
184.055700 22087842.000000
191.060200 5339019.500000
192.068200 4597647.000000
195.055300 1265092.100000
204.061900 1725951.900000
208.062800 1213616.000000
209.070900 11158750.000000
210.058900 6281123.000000
210.078800 97579864.000000
211.066600 39324640.000000
212.050700 2505190.800000
212.074300 1908130.800000
213.082300 1571707.000000
215.061500 1352535.500000
216.049800 1581999.800000
216.062100 1030378.400000
219.055400 9261914.000000
221.051000 1291390.800000
224.068300 1241108.900000
229.077000 1883790.400000
230.065200 1424373.800000
231.072800 20184142.000000
232.056900 4202065.500000
234.052500 8817415.000000
236.055700 15749621.000000
236.067800 2104941.800000
237.065600 3293666.000000
239.061500 90625224.000000
241.057100 12438968.000000
244.044500 1913604.900000
249.063100 3151411.800000
250.071000 2793190.000000
251.079000 9803494.000000
252.063200 4594992.000000
257.051800 2012373.000000
257.072000 9694696.000000
258.060000 3802538.500000
259.067800 197462336.000000
261.063400 7067052.000000
262.055000 1833401.200000
263.041800 1519199.800000
264.050400 487005216.000000
277.058300 15561874.000000
277.078200 7969742.500000
278.066400 5628366.000000
279.073800 903732864.000000
280.076800 1724148.400000
297.084400 8005541.000000

>ms2peaks
50.015100 1021350.600000
68.049400 731536.200000
75.022800 1080813.200000
78.033700 8215088.000000
79.041600 999827.800000
83.029100 1474518.200000
89.038500 1116485.500000
96.044300 14694273.000000
106.065100 2708189.800000
109.044800 144348720.000000
110.059900 899417.300000
119.029100 3647290.200000
121.039600 4298308.500000
137.039700 829271.900000
139.035300 18447890.000000
140.049200 3121477.500000
142.052600 846061.600000
147.035200 18052754.000000
154.065100 2575960.800000
155.073000 2347157.000000
157.044500 1421950.600000
159.041600 85647304.000000
164.049300 3213729.000000
166.065200 1278125.100000
167.060400 3490713.200000
167.072800 4054783.000000
175.060300 3334572.200000
177.050900 1697712.600000
179.059900 760580.800000
180.068100 5095767.000000
181.076000 48351368.000000
182.083800 28944770.000000
183.067700 1224851.100000
184.055700 61502040.000000
185.044700 1083075.100000
185.063500 837355.600000
185.071000 2018302.200000
186.058700 4936341.000000
188.050600 2789283.800000
189.038400 1985741.600000
190.046100 1095625.100000
191.060200 16146200.000000
192.068100 11309257.000000
193.076200 1870302.900000
195.055400 6033653.000000
197.050700 1096671.900000
202.047000 1083579.800000
202.066800 779632.100000
203.054100 1450497.400000
204.061900 4638735.000000
207.041700 794317.300000
208.063000 1739806.800000
209.044500 3239578.000000
209.071000 44508440.000000
210.058800 22565306.000000
210.078800 93867496.000000
211.066600 65283272.000000
212.031900 1212058.800000
212.050500 6057472.500000
212.074400 3056668.000000
213.065800 1856545.200000
213.082200 1041891.200000
214.045100 2631923.200000
214.054000 1233556.800000
215.041200 1331925.800000
216.049200 8589681.000000
216.061700 2343227.500000
217.057100 4097262.800000
219.055400 10841030.000000
219.066300 1073494.400000
220.051000 895614.600000
221.050800 3472906.500000
224.067800 1660620.600000
227.081200 742882.800000
229.057600 2550019.200000
229.076800 2394532.000000
230.065000 5681981.500000
231.072800 31030096.000000
232.056800 5624736.000000
234.052400 15240055.000000
235.047800 3823375.800000
235.060200 1854072.800000
236.055600 133421440.000000
237.039200 7258844.500000
237.065100 2485682.200000
238.054000 2000500.500000
239.061400 69106704.000000
241.057100 24764308.000000
244.044000 2943254.800000
245.051600 881598.700000
248.055600 768696.800000
249.063300 9849298.000000
250.071100 5133480.500000
251.042800 4029185.500000
251.078900 8295370.500000
252.063000 5437598.500000
257.052200 6267153.500000
257.071800 952252.900000
258.059900 11161333.000000
259.067800 107622712.000000
260.056200 1422904.600000
261.063300 5584825.000000
262.055000 2125005.800000
263.042600 9541603.000000
264.050400 578003136.000000
265.053800 1115816.000000
268.045200 991853.100000
277.058200 17003646.000000
277.078100 3838593.800000
278.065900 7078094.500000
279.073800 169998416.000000
281.053100 3101437.500000

>ms2peaks
50.015000 1191375.400000
51.022800 1379379.400000
52.018100 286755.200000
53.002200 454674.500000
57.013400 378028.200000
63.022800 412461.300000
65.038500 891984.800000
66.033700 298180.000000
67.041600 455787.100000
75.022800 3847311.800000
77.002100 3386401.200000
78.033800 12592265.000000
79.041600 2253796.500000
80.049300 736512.300000
83.029100 10352209.000000
89.038500 5316619.500000
90.046400 1136670.900000
92.049400 387208.200000
93.044700 3018822.500000
95.029200 1338150.900000
95.036500 960566.900000
96.044300 19021010.000000
98.015000 402853.800000
99.022900 7827575.000000
106.065100 6484526.500000
107.029000 383188.500000
109.044800 279441888.000000
110.048200 287049.600000
110.060100 422050.000000
112.039300 424609.100000
115.054200 890610.300000
117.057100 404539.600000
119.029100 13496174.000000
121.039600 4768032.000000
123.035200 1207179.600000
127.035300 979284.300000
128.061900 945344.600000
129.056900 287982.100000
133.025900 1784539.200000
133.044800 482647.200000
134.040100 1374473.600000
137.039600 2652075.500000
139.035300 19913514.000000
140.049400 27769600.000000
141.025900 348562.100000
142.052500 2990561.200000
145.025800 2072183.100000
147.035200 42907080.000000
151.035600 287892.500000
153.057100 1164592.200000
154.065100 9494224.000000
155.060300 1827148.000000
155.072900 2945605.500000
156.068200 478594.800000
157.044800 5999481.000000
158.033800 1780773.800000
158.040100 4509325.000000
159.041600 50062672.000000
164.049400 11514606.000000
165.038300 2324223.000000
165.044700 2436536.500000
165.056900 1390945.500000
166.046300 453673.700000
166.052800 712989.100000
166.065100 2834401.500000
167.060300 17079946.000000
168.044300 328533.000000
168.068300 1074695.100000
171.047700 453335.300000
172.036600 345423.400000
174.052500 1588268.200000
175.060400 2070017.100000
176.030700 911174.100000
177.051100 2292552.200000
179.060200 2835837.500000
180.068100 7821267.000000
181.076000 106291384.000000
182.033200 1517852.100000
182.060600 1687555.800000
182.083800 18413262.000000
183.047600 939075.100000
183.055500 1579808.500000
183.068100 1259606.800000
184.055700 72338880.000000
185.044700 3598741.000000
185.051300 874554.100000
185.063400 1257984.600000
185.070700 4700328.000000
186.058700 33738588.000000
187.035100 357794.300000
187.042900 1287005.400000
188.043100 383693.400000
188.050600 2455164.800000
189.038400 11271088.000000
190.045700 2648264.800000
190.053600 392253.400000
191.060300 16746696.000000
192.044300 1199548.800000
192.068100 10816496.000000
193.033000 380590.000000
193.076300 1145958.900000
195.055300 9028240.000000
196.043000 876273.500000
197.050700 6124266.000000
198.058900 1014498.800000
199.066400 423533.000000
200.044300 749957.600000
202.046200 1843784.900000
202.066300 777201.900000
203.053900 3194578.000000
204.049500 293380.300000
204.061800 4533444.000000
205.046100 961704.000000
206.033400 339550.400000
206.041900 355053.600000
207.041600 728243.100000
208.036700 2232743.200000
208.063100 2018178.400000
209.044400 13531232.000000
209.071000 57215156.000000
210.039500 1981308.800000
210.058900 35031816.000000
210.078800 29692888.000000
211.066600 39531124.000000
212.032000 963654.900000
212.050300 4409847.500000
212.074200 2593850.200000
213.038400 1300375.900000
213.066100 1939095.100000
214.044800 4061751.250000
214.055500 3323664.200000
215.041500 6513767.500000
216.049500 18461680.000000
216.061400 2090121.900000
217.057200 23045848.000000
219.055400 4806597.500000
219.065700 390974.000000
220.050600 1066946.100000
221.051000 4209275.000000
224.067800 923611.100000
227.062000 848128.900000
228.049500 474031.200000
229.057500 5097075.500000
229.077000 1128217.500000
230.065000 9920793.000000
231.072800 13653723.000000
232.056800 2926466.800000
233.053000 2073585.500000
234.052000 6537183.000000
235.047800 20432744.000000
235.059500 1380738.100000
236.055600 222096368.000000
237.039400 14947774.000000
237.063900 1620815.800000
238.053800 2345999.800000
239.061400 24439756.000000
241.057100 15672661.000000
244.043900 2103964.500000
245.052100 1733439.100000
248.038700 298766.000000
248.055700 1252575.100000
249.063400 15736698.000000
250.071200 3024044.500000
251.042500 4985767.000000
251.078800 2021082.800000
252.062300 1380034.400000
253.058100 2708393.000000
257.052000 6796334.000000
258.059900 8994554.000000
259.067700 20138632.000000
260.055500 1347080.800000
261.063100 1193372.400000
262.055200 792592.100000
263.042600 18285776.000000
264.050500 240063104.000000
265.054200 348957.500000
268.045000 2222653.200000
277.058300 5722875.000000
277.077700 804529.800000
278.065600 2225862.500000
279.073900 14922514.000000
281.053100 4877528.500000

>ms2peaks
50.015100 3185019.800000
51.022900 1647470.600000
53.002200 1124790.000000
53.038600 353164.000000
57.013500 5934071.500000
59.029100 4380151.500000
62.015100 792554.200000
63.022900 7628872.000000
64.018100 279646.800000
65.026000 1574093.100000
65.038600 2059081.400000
66.033800 802090.800000
67.017800 407554.100000
67.041700 1184859.500000
68.049500 363244.300000
74.015000 887267.200000
75.004000 1155240.600000
75.022900 6584827.000000
76.018100 1269503.900000
77.002100 12921774.000000
77.038500 1046956.500000
78.033800 17417154.000000
79.041600 3973149.000000
79.054200 1246706.100000
80.049400 389857.800000
81.013500 927991.200000
83.029100 91322592.000000
87.023000 1009769.100000
89.038500 26219120.000000
90.046400 4727990.000000
91.041700 287012.800000
91.054200 434747.300000
92.036800 2777134.500000
93.013500 5800262.000000
93.044800 3226143.200000
95.029200 2158804.200000
95.036600 1182248.600000
95.049100 1215864.900000
96.044400 15262522.000000
98.015100 9871327.000000
99.022900 68304056.000000
102.046500 454857.000000
103.029100 1093187.000000
103.054100 1149055.400000
104.049600 289501.800000
105.044600 1375606.000000
106.065200 9133532.000000
107.029200 3857959.800000
108.036900 2580953.000000
109.044800 276981856.000000
110.048200 307367.200000
113.038500 5878057.000000
114.027500 749334.100000
114.033800 2144383.800000
115.041600 1311842.600000
115.054300 3656379.800000
116.049400 1118647.000000
117.057300 1813477.500000
119.029200 19514798.000000
120.037100 718600.400000
121.039600 1845117.800000
123.023100 317616.200000
123.035300 2414678.200000
124.018100 333205.500000
125.019900 2370069.500000
126.046400 926928.400000
127.035400 2592487.000000
127.054100 3573224.000000
128.049500 3796370.500000
128.062000 2212478.200000
129.044700 1074153.400000
129.057200 1642970.600000
130.065200 1130841.200000
131.029600 1108661.200000
132.018100 2489634.500000
132.037000 3685745.500000
132.044400 372164.000000
133.026000 1422696.500000
133.044800 3689246.800000
134.040000 2859852.000000
135.047800 2777373.500000
136.031800 925169.200000
136.043300 1091335.200000
137.039100 5588932.500000
138.027600 4648713.000000
138.033800 1376171.100000
138.046400 1453862.000000
139.035400 4687284.000000
139.041600 1626526.600000
139.054100 2048163.800000
140.049500 113095808.000000
141.025900 3919541.500000
141.044800 1230437.500000
141.057300 1617334.100000
142.052600 4417707.500000
143.029200 844693.600000
144.018200 741889.900000
144.024100 415835.400000
144.037200 277783.500000
145.026000 11283480.000000
145.064800 4931433.000000
146.040200 378289.900000
146.060100 2287845.800000
147.035300 28932798.000000
148.018300 288588.200000
150.034100 395445.300000
151.035500 2768628.200000
151.041300 292707.300000
152.049700 1137189.600000
153.057300 7991132.500000
154.065100 33905932.000000
155.060300 16458580.000000
156.018200 379736.200000
156.037000 810485.900000
156.068100 1311018.600000
157.044900 24579904.000000
157.052000 2231372.500000
158.033800 4095791.000000
158.040000 27968690.000000
159.041700 3497533.200000
159.048000 8847146.000000
159.055100 1280391.900000
160.036600 834504.400000
160.043300 2185298.200000
162.027700 4658503.500000
163.023000 370743.100000
163.035500 661420.300000
163.041800 1289929.000000
164.049500 30567654.000000
165.038500 4360603.000000
165.044900 5279114.000000
165.057100 2497896.500000
166.046200 1061089.900000
166.052600 10642456.000000
166.064700 1942291.500000
167.060400 28681440.000000
168.024500 362011.200000
168.044400 739764.700000
168.068300 1825568.000000
169.026000 911170.100000
169.032400 1403492.400000
170.021200 2518042.500000
170.040300 1486899.800000
170.060100 1512450.400000
171.047900 1703551.900000
171.055100 326932.900000
172.030600 387866.700000
172.037300 708286.100000
172.055800 758204.400000
174.034000 1296670.900000
174.052300 1998962.100000
175.035300 822151.900000
176.030600 3192833.800000
177.051200 1280786.000000
179.060400 17348528.000000
180.068200 17877886.000000
181.076000 92969512.000000
182.033700 11530945.000000
182.040500 5479663.500000
182.059800 1581467.900000
182.084400 1476096.900000
183.028900 1514047.500000
183.047900 5372439.000000
183.055500 3480176.000000
183.067900 333784.000000
184.055800 26344612.000000
184.063000 1609763.000000
185.044200 3842642.000000
185.051200 1842216.600000
185.063400 1288743.900000
185.071000 2317649.000000
186.058800 56732024.000000
187.035500 687079.300000
187.042900 1603413.600000
188.030500 1932377.100000
188.043200 385936.000000
188.050700 2218628.800000
189.038400 24155184.000000
190.033300 932031.400000
190.045800 8936960.000000
190.053000 2069993.500000
191.041400 2245587.000000
191.060400 7176460.500000
192.044500 1082826.800000
192.068300 4285364.500000
193.032300 833522.800000
194.040700 1280587.800000
195.035000 440459.300000
195.048100 385870.900000
195.055300 1926019.800000
196.036300 933222.400000
197.051000 11490425.000000
199.066400 1996413.900000
200.044200 1635139.100000
202.046200 4509410.000000
203.053800 2886092.500000
204.049200 433325.800000
205.046000 1589599.800000
206.033400 599362.800000
206.041500 2878440.500000
208.036800 10054497.000000
208.063300 3845014.500000
209.044700 7555726.000000
209.051900 4241945.500000
209.071000 20350858.000000
210.040400 5272501.500000
210.058900 21700914.000000
211.066700 6237591.500000
212.050400 1148199.900000
213.037700 3124493.200000
214.045200 1774362.200000
214.054300 1076163.000000
215.041600 20632306.000000
216.049400 6081513.000000
217.057300 42890012.000000
221.051000 892287.900000
222.052900 1495192.100000
227.061700 1098455.400000
228.049300 2642722.800000
229.057400 3922983.800000
230.064400 2036963.400000
231.073000 1042894.100000
233.052700 1980159.800000
235.047800 34587300.000000
236.055600 39445052.000000
237.039400 2163554.200000
237.063400 794725.700000
238.053500 878020.400000
239.061500 1761468.600000
241.056800 1116321.200000
245.052300 1487923.400000
248.055300 1027734.200000
249.063500 7852739.500000
251.042600 817184.100000
253.058200 966263.000000
257.052300 1845615.900000
258.059900 416910.000000
263.042600 4673574.500000
264.050500 5241590.000000
277.058700 448375.100000

>ms2peaks
50.015100 5837501.000000
51.022900 3415969.800000
52.018100 1296659.200000
52.030700 413674.100000
53.002200 1393024.200000
53.038600 1976617.900000
53.997500 897868.400000
57.013500 29041948.000000
59.029100 12376186.000000
61.007200 1285430.400000
62.015100 4508949.000000
63.022900 33326208.000000
64.018100 1329991.600000
64.030700 961961.900000
65.002200 368155.100000
65.026000 968352.300000
65.038600 2953025.200000
66.033800 1537300.400000
66.046400 283973.200000
67.041600 1350093.900000
67.989200 322641.700000
68.049500 273496.200000
68.994700 1356500.500000
69.013500 958031.800000
71.029100 223871.400000
74.015000 6466605.000000
75.004000 3839599.200000
75.022900 12593564.000000
76.018100 3360279.200000
76.030600 1011939.800000
77.002100 8313128.000000
77.038500 4078864.000000
78.033800 16132240.000000
78.046300 959765.300000
79.017700 216740.300000
79.041600 2723252.500000
79.054100 1805970.500000
80.049400 795318.600000
81.013500 4284919.000000
81.033400 264372.900000
82.021300 187723.600000
82.028700 168433.000000
83.029100 150355216.000000
84.037000 435348.300000
86.015100 1380107.000000
87.022900 7742964.500000
88.011900 990921.100000
88.018100 2368176.000000
88.030700 3369796.500000
89.038500 40773440.000000
90.033900 1661822.500000
90.046400 3522132.500000
91.041600 982338.900000
91.054100 734470.400000
92.005700 398992.500000
92.025800 249687.300000
92.036900 3532789.200000
92.049500 316740.200000
93.013500 16339428.000000
93.044700 2022306.800000
94.021300 1337063.600000
95.029100 1188856.100000
95.049100 6544678.500000
96.044300 12070639.000000
98.015100 47038264.000000
99.022900 84717280.000000
100.018200 1794045.500000
100.030600 371165.400000
101.019700 1009090.900000
101.038600 929920.900000
102.033700 806346.600000
102.046300 1992454.500000
103.029100 1013389.600000
103.041400 239761.400000
103.054200 2767129.000000
104.049400 1599530.000000
105.013400 681463.400000
105.044700 4892184.500000
106.021300 1420806.200000
106.065100 4715321.000000
107.029100 12107774.000000
108.037000 7294456.500000
109.044800 111073384.000000
111.022900 1860285.500000
112.011900 1007485.400000
112.018100 1160292.200000
112.030900 965431.500000
113.038500 35552016.000000
114.027900 1437347.900000
114.033800 10323012.000000
114.046400 1330092.500000
115.041600 2619786.800000
115.054200 3681628.800000
116.049600 1834848.600000
117.013500 696954.500000
117.044600 323663.900000
117.057200 1653315.200000
118.021300 793338.800000
118.052500 417284.700000
119.010300 771932.900000
119.029100 6691563.500000
119.049200 890837.900000
120.020600 296340.300000
120.037000 655058.700000
120.044300 253006.900000
121.039600 363204.300000
122.015000 267108.200000
123.010300 415044.500000
123.022800 2289017.000000
123.035300 3892540.800000
124.018200 2792736.000000
124.055400 275470.100000
125.019700 4106644.500000
125.038600 2602366.000000
126.027400 657225.400000
126.046400 7314522.500000
127.035400 4392493.000000
127.041300 2006803.400000
127.054200 13249925.000000
128.049400 9525575.000000
128.062000 2071990.900000
129.044600 4778252.000000
129.057200 1491677.400000
130.040200 1159600.000000
130.065200 749393.800000
131.029100 9684607.000000
132.018100 2969690.200000
132.024200 1132285.600000
132.037000 9520198.000000
132.044500 1224194.600000
133.025900 1004816.500000
133.032200 1012636.400000
133.044800 5897392.000000
134.040000 1970315.200000
135.023600 265797.000000
135.047800 3024611.200000
136.017600 174654.500000
136.031700 2035913.900000
136.043000 1339947.000000
137.038600 9145893.000000
138.027500 6850878.000000
138.033900 6169051.000000
138.046300 1947501.900000
139.022900 1086589.100000
139.035600 1114364.400000
139.041700 4907702.000000
139.054000 1959448.500000
140.049400 83225424.000000
141.013700 788755.800000
141.025800 3195740.800000
141.044600 1320430.600000
141.057200 1944519.800000
142.021500 826147.300000
142.052700 1913531.900000
143.010300 2063941.900000
143.029200 2618544.200000
143.036600 374024.100000
144.018400 272459.900000
144.024400 682249.200000
144.036600 1376264.100000
144.044300 291108.200000
145.026000 7276278.000000
145.032000 888563.200000
145.064800 9813913.000000
146.015100 238143.600000
146.040100 974886.900000
146.060100 2923715.000000
147.023000 1210191.500000
147.035300 6681222.000000
148.018200 3655001.200000
148.030700 1124499.800000
149.019800 1175001.600000
150.015100 726600.100000
150.034100 1420142.600000
150.047600 1379885.800000
151.035300 4089109.800000
151.041900 1056013.200000
152.049500 3923852.200000
153.044600 1211818.100000
153.057300 11586586.000000
154.065100 19610740.000000
155.029200 1654118.100000
155.060300 26461704.000000
156.018100 1132147.200000
156.023800 410362.200000
156.036900 2839878.000000
156.043500 273792.500000
157.026100 950531.600000
157.044800 18541500.000000
157.052100 4778161.000000
158.034100 2035503.900000
158.040000 33163570.000000
159.041600 435154.000000
159.047900 5700797.000000
159.055400 1430704.600000
160.037200 535777.100000
160.043100 1886617.900000
161.019700 2304686.000000
161.039700 907162.200000
162.027600 9416426.000000
162.034000 1453435.900000
163.023100 1360897.400000
163.035100 1142244.900000
163.041600 1977854.600000
164.031000 1465082.500000
164.049500 17455674.000000
165.038400 1361207.900000
165.044800 5786482.500000
165.057200 967146.100000
166.046300 1060796.000000
166.052500 15613984.000000
166.065100 1156830.900000
167.029100 899985.900000
167.041900 1276762.900000
167.060300 6373503.000000
168.024800 1873809.600000
168.037000 771815.100000
168.044500 1258641.600000
168.068100 885042.800000
169.025800 615351.100000
169.032200 2567135.000000
170.021200 4444760.500000
170.040000 1638781.100000
170.060000 3437388.800000
171.035300 326442.800000
171.047700 804851.800000
171.054700 321849.800000
172.030300 765892.800000
172.055400 627385.800000
173.051200 744059.200000
174.034500 384780.300000
174.052600 645804.200000
175.035500 2484905.200000
176.030700 3112252.800000
177.044700 668581.400000
178.039500 223158.600000
179.060300 26623222.000000
180.056000 1754015.900000
180.068200 8440603.000000
181.026100 1392974.500000
181.076000 20263184.000000
182.033500 5267482.000000
182.040200 10752691.000000
182.059900 674251.000000
183.028600 373741.100000
183.035300 731988.300000
183.047800 2332440.500000
183.055400 1959851.600000
184.055700 3688046.800000
184.063300 709479.600000
185.051600 2198811.800000
186.027400 2115389.800000
186.035000 1910090.500000
186.058700 9153609.000000
187.022700 396815.900000
187.042800 270771.400000
188.030700 2354898.800000
188.050500 2383942.800000
189.038100 8023591.000000
189.045100 1257813.800000
190.033600 348051.400000
190.045700 4564124.000000
190.052900 1039594.400000
191.041300 3394348.500000
191.060400 1136680.000000
192.068200 854317.600000
193.032400 1464176.400000
194.041200 298422.900000
195.034800 414148.700000
195.055500 863911.100000
196.043700 276551.800000
197.050900 5675660.500000
198.046200 351315.000000
199.066600 890271.100000
200.031000 938247.700000
202.046100 2814343.500000
206.041300 3080455.500000
207.028900 1027434.600000
208.036600 3837095.500000
208.063000 871925.200000
209.051300 4452996.000000
209.070700 1259422.400000
210.040300 425370.600000
210.058900 4006281.200000
211.066700 259878.400000
213.038200 962336.400000
215.041400 7353369.000000
216.049200 370369.400000
217.057200 8739614.000000
222.053400 276055.300000
227.041600 277977.400000
228.049400 1639017.100000
229.057400 806681.400000
235.047800 5578270.500000
236.056200 773369.900000

>ms2peaks
50.015100 10250281.000000
51.022900 5651680.500000
52.018200 2571754.200000
52.030800 834160.100000
53.002200 3035659.500000
53.038600 4922672.000000
53.997400 1172527.900000
56.049500 169043.600000
57.013500 66498088.000000
59.029200 12776052.000000
61.007200 4975863.500000
62.015100 15528155.000000
63.022900 72937928.000000
64.018200 3064660.800000
64.030700 2298480.200000
65.002200 1521920.200000
65.026000 1560074.600000
65.038600 5405036.500000
66.033800 1398189.600000
66.046300 357901.200000
67.041700 1494237.600000
67.989300 348039.300000
68.994700 3915265.500000
69.013500 2442910.000000
74.015100 20789000.000000
75.004000 7599876.000000
75.022900 27957788.000000
76.018100 4935796.500000
76.030700 2685070.500000
77.002100 3081147.200000
77.038500 7860978.500000
78.033800 10281412.000000
78.046400 1957608.100000
79.017800 687323.900000
79.041700 1707844.900000
79.054200 1595127.100000
80.049500 733613.500000
81.013500 11016672.000000
81.033500 986063.400000
82.021300 830722.400000
83.029100 114082064.000000
84.037000 952074.500000
85.007100 1536573.375000
86.015100 8293318.500000
87.022900 19338160.000000
88.011900 2701312.800000
88.018200 7011476.000000
88.030700 7099497.000000
89.038600 34317260.000000
90.033800 2766977.000000
90.046400 2008729.000000
91.041700 824817.400000
91.054200 703159.300000
92.005700 3026324.000000
92.025600 230959.900000
92.037000 2072475.900000
92.049300 332613.900000
93.013500 17708668.000000
93.044700 1133074.100000
94.021400 2482066.000000
95.029100 1458337.200000
95.049100 11935284.000000
96.044300 6559945.500000
98.015100 86438104.000000
99.004100 3112472.500000
99.022900 49876332.000000
100.018100 4716745.000000
100.030800 1312473.600000
101.019700 1190405.400000
101.038600 2066411.600000
102.033900 2057036.500000
102.046400 2889617.500000
103.029100 765588.000000
103.041600 366547.400000
103.054200 1561742.500000
104.049400 1937414.400000
105.013500 2889572.800000
105.044700 9844004.000000
106.021300 5252779.500000
106.065100 1731612.900000
107.029200 18779126.000000
108.036900 3917211.200000
109.044800 24818942.000000
110.015000 1618513.500000
111.022900 4872310.000000
112.012000 2098924.800000
112.018200 2997629.800000
112.030800 1717050.600000
113.038600 41022852.000000
114.028000 1680222.200000
114.033800 13377483.000000
114.046400 1033945.200000
115.041600 3032904.800000
115.054200 2405790.000000
116.049500 794043.100000
117.013400 1715148.900000
117.057200 396985.100000
118.021300 1617862.800000
118.052500 398323.700000
119.010100 367085.000000
119.029200 1089686.800000
119.049200 1777387.400000
120.020600 285796.800000
120.036900 953773.900000
120.044400 880956.700000
122.015000 2569731.200000
123.010300 1790703.100000
123.022900 5168165.000000
123.035200 2823975.000000
124.018200 5846869.500000
124.055600 350780.800000
125.019800 4780620.500000
125.038600 5612668.000000
126.046400 15876795.000000
127.035400 2484123.200000
127.041600 2885699.800000
127.054200 8911532.000000
128.049500 6326307.000000
128.062000 1018595.400000
129.044700 8120045.000000
130.040100 1723521.200000
131.029200 17952202.000000
132.018900 2087734.375000
132.024300 3284555.000000
132.037000 5059314.500000
132.044400 986618.600000
133.026400 280864.100000
133.032300 747109.700000
133.044800 3857912.500000
134.040100 892405.700000
135.022900 247654.800000
135.047800 1437015.800000
136.018800 196162.800000
136.031500 1488254.400000
136.043100 200290.400000
137.038700 5110621.500000
138.027600 4091764.200000
138.033800 8278820.000000
139.023000 405221.000000
139.041700 4403742.500000
139.054000 2765686.000000
140.049500 29835264.000000
141.013500 1945537.100000
141.025900 1738638.000000
141.044700 819534.900000
141.057100 360469.100000
142.021300 1389281.800000
142.052600 853552.600000
143.010500 2208379.800000
143.029200 3289924.200000
143.036300 391171.800000
143.048900 1380962.250000
144.024600 432999.300000
144.036900 1391391.800000
144.044600 310648.700000
145.026000 2486355.000000
145.032300 379414.400000
145.064800 4171667.500000
146.015100 1702770.400000
146.040200 700592.600000
146.060000 1405843.600000
147.010300 2400038.250000
147.023100 1006086.800000
147.035300 1114944.800000
148.018100 4000265.500000
148.030500 1192542.500000
149.019700 1358340.100000
150.015100 676818.800000
150.034000 1190628.600000
150.047500 334886.800000
151.035400 2827837.800000
151.041700 1383703.600000
152.049400 4453283.000000
153.044600 1663018.800000
153.057300 8400634.000000
154.065200 5013100.500000
155.029100 4545667.500000
155.060400 12531930.000000
156.018100 923725.700000
156.024400 1476214.900000
156.037000 1164273.400000
156.043400 265101.200000
157.026200 349416.200000
157.044800 5558146.500000
157.052200 3259244.000000
158.040100 18890592.000000
159.047900 778889.700000
159.055200 414238.000000
160.043000 411253.000000
161.019700 1447621.000000
161.039600 321919.400000
162.027500 4183230.800000
162.034000 2163993.800000
163.022700 877972.600000
163.035600 336996.100000
163.041700 1129735.000000
164.030700 358303.400000
164.049400 5892035.500000
165.038300 359277.800000
165.044500 2643175.500000
165.056800 267076.500000
166.046200 748869.900000
166.052600 7075399.000000
167.029500 244893.100000
167.041500 789075.300000
167.060300 1056074.200000
168.024400 1451029.600000
168.036900 724275.400000
168.044300 874604.900000
169.025700 653192.600000
169.032500 1090708.900000
170.021100 1213887.600000
170.040100 714863.900000
170.060100 4799630.000000
171.035200 293296.100000
171.048200 313798.200000
172.030600 280608.100000
175.035400 1735419.600000
176.030500 1159444.800000
177.044500 282661.100000
178.040200 328782.500000
179.060400 15480215.000000
180.055600 1295752.900000
180.068200 1023305.300000
181.025700 340284.200000
181.076100 1784219.200000
182.033800 622512.400000
182.040200 8213288.000000
183.035800 242806.900000
183.048000 900259.800000
183.055500 344490.200000
184.055300 239525.300000
186.027600 810015.800000
186.035000 747544.400000
186.059200 244094.600000
187.022800 707317.400000
188.030700 780435.700000
188.050600 754267.600000
189.038300 1057656.000000
189.045200 849013.900000
190.045400 386646.900000
190.052800 197057.600000
191.041200 1277476.200000
193.032500 839317.100000
195.055400 285796.700000
197.050900 1066489.500000
200.030700 811517.800000
202.046400 337460.600000
206.040800 375345.000000
207.029000 865026.300000
209.051200 1066781.200000
210.058800 386791.800000
215.041300 884064.400000
217.056900 298797.700000
228.049200 375330.200000
235.047600 228396.100000

