>compound EQ28669134
>parentmass 177.1386
>ionization [M+H]+
>formula C11H16N2
>rt 72.000000
>profile orbitrap
#smiles_iso C1CN(CCN1)CC2=CC=CC=C2
#smiles_can C1CN(CCN1)CC2=CC=CC=C2
#inchikey IQXXEPZFOOTTBA-UHFFFAOYSA-N
#pubchem_id 75994
#mb_accession EQ282001,EQ282002,EQ282003,EQ282004,EQ282005,EQ282006,EQ282007,EQ282008,EQ282009

>ms2peaks
56.049400 1559222.200000
85.076000 35695544.000000
91.054100 115522392.000000
177.138500 616452608.000000

>ms2peaks
56.049400 2326761.800000
85.076000 41160028.000000
91.054100 135806752.000000
177.138500 549035904.000000

>ms2peaks
56.049500 8244594.000000
65.038400 1025257.400000
68.049400 463161.300000
85.076000 69374800.000000
86.083700 814614.800000
91.054200 414453312.000000
134.096400 781086.700000
175.123100 601688.600000
177.138500 192515472.000000

>ms2peaks
56.049500 14144718.000000
65.038500 3097051.000000
68.049400 640790.600000
85.076000 42929716.000000
86.083700 744403.300000
91.054200 536336704.000000
177.138600 29918722.000000

>ms2peaks
56.049500 15470245.000000
65.038500 10759408.000000
68.049400 775980.300000
85.076000 18292184.000000
91.054200 522016832.000000
177.138600 2795886.800000

>ms2peaks
56.049500 14772047.000000
63.022800 1036664.600000
65.038500 28928098.000000
68.049400 517128.400000
85.076000 9372568.000000
91.054200 513898496.000000

>ms2peaks
50.015000 445552.900000
51.022800 458591.300000
53.002200 595671.400000
56.049500 7999048.500000
62.015000 481689.100000
63.022900 3963379.000000
65.038500 112756048.000000
68.049500 547258.700000
85.075900 2326264.800000
91.054200 368317952.000000

>ms2peaks
50.015100 1675629.200000
51.022900 1123794.400000
53.002200 2272395.200000
53.997500 663232.200000
56.049500 3782993.000000
61.007200 260972.200000
62.015000 1367879.800000
63.022900 10404980.000000
64.030600 274991.900000
65.038500 172025904.000000
85.075900 1126514.500000
89.038500 471176.600000
90.046300 241953.800000
91.054200 179389408.000000

>ms2peaks
50.015100 3367430.500000
51.022900 4420441.000000
53.002200 4633166.500000
53.997400 1379333.100000
56.049400 1749601.800000
61.007300 660129.800000
62.015100 3759337.000000
63.022900 16733342.000000
65.038500 155754128.000000
67.989200 1654844.625000
78.008600 323209.600000
85.076000 688183.400000
89.038600 1046551.300000
91.054200 64251084.000000

