>compound EQ28382985
>parentmass 281.1648
>ionization [M+H]+
>formula C18H20N2O
>rt 420.000000
>profile orbitrap
#smiles_iso C[N+]1(CCN2C(C1)C3=CC=CC=C3CC4=CC=CC=C42)[O-]
#smiles_can C[N+]1(CCN2C(C1)C3=CC=CC=C3CC4=CC=CC=C42)[O-]
#inchikey VVDXWJOYXVNLLQ-UHFFFAOYSA-N
#pubchem_id 3085244
#mb_accession EQ327801,EQ327802,EQ327803,EQ327804,EQ327805,EQ327806,EQ327807,EQ327808,EQ327809

>ms2
70.065000 24737680.000000
71.073000 1613885.200000
191.085200 2675730.500000
195.080500 1120614.400000
208.111600 1359387.500000
220.111600 9103151.000000
221.119900 4399031.000000
224.107400 1460866.000000
263.154200 264254176.000000
264.162000 250222560.000000
281.164600 1081999872.000000

>ms2
57.057300 1014614.000000
58.052500 704013.700000
58.065000 3828067.200000
69.057200 782996.900000
70.065100 79998560.000000
71.060300 7037815.000000
71.072800 8755849.000000
72.080700 59472152.000000
73.076000 6197929.000000
74.060000 3685450.500000
85.076000 7576139.500000
86.083800 13851661.000000
88.075700 1699232.100000
144.080800 1284904.900000
158.096400 9879949.000000
160.112100 1196144.500000
172.112100 723409.600000
178.077100 3089107.800000
179.085400 4527427.500000
191.085400 67865944.000000
192.080900 1714780.500000
192.092900 1716544.500000
193.088300 13167299.000000
194.096700 1913287.100000
195.080700 1307290.100000
206.096400 4803721.500000
207.104300 2197523.000000
208.112000 26631644.000000
218.096700 1128346.400000
219.104100 3137834.000000
220.112100 110912240.000000
221.119900 45515824.000000
224.106600 2975684.800000
232.111900 962048.400000
234.127400 2800177.500000
235.122700 1161263.400000
236.131000 1119285.800000
238.122700 1153379.500000
248.130600 8693614.000000
249.138600 7229559.500000
263.154200 496150944.000000
264.161900 436797376.000000
266.141500 1865093.400000
281.164700 202221056.000000

>ms2
56.049500 2653610.000000
57.057300 2265249.200000
58.052600 2431651.000000
58.065100 7794201.500000
68.049400 229479.800000
69.057300 1151836.600000
70.065100 87571720.000000
71.060300 14931641.000000
71.072900 38103932.000000
72.080700 210150848.000000
73.075900 3973967.800000
74.060000 8914565.000000
85.076000 14520957.000000
86.083800 13943560.000000
88.075600 2840246.800000
91.054200 812681.500000
106.065200 403548.000000
115.054100 2552170.000000
117.069700 2206364.000000
118.065000 2308318.200000
120.080600 348316.700000
129.069800 851417.200000
130.065000 745737.300000
132.080700 1506630.000000
136.075800 257373.300000
144.080700 8766206.000000
145.088500 1224701.800000
146.096600 817575.900000
158.096400 54464012.000000
159.091800 295680.800000
160.111900 383342.400000
165.069200 737731.300000
167.085500 766294.400000
170.096400 1629724.200000
172.111900 699967.200000
178.077500 6477257.500000
179.085400 21262350.000000
180.093300 2118489.500000
186.115300 308672.800000
191.085500 101247000.000000
192.080600 9253413.000000
192.093200 2840020.000000
193.088600 91644176.000000
194.096400 4110736.500000
195.080300 923095.500000
203.085400 970751.200000
204.080800 858401.200000
205.088400 3508900.200000
206.096500 6181921.500000
207.104300 6232108.000000
208.112100 39855936.000000
217.088500 1391292.100000
218.096400 6132710.500000
219.104300 4123047.500000
220.112100 217457744.000000
221.119800 33161222.000000
222.127700 1166218.400000
224.106900 2670070.200000
232.112000 4637719.500000
233.106900 1013911.800000
233.119700 1226397.900000
234.127800 3216750.200000
235.123000 6923230.000000
236.130700 1275753.800000
238.122200 345266.500000
247.122700 2057679.600000
248.130800 41684752.000000
249.138500 21368048.000000
261.138500 3949641.500000
262.146300 2924383.500000
263.154200 225914976.000000
264.162000 67830208.000000
266.140700 876461.500000
281.164700 5747721.500000

>ms2
56.049400 8591730.000000
57.057300 3772530.800000
58.052500 3006248.000000
58.065100 10762954.000000
69.057200 661234.800000
70.065100 79638112.000000
71.060300 14302201.000000
71.072900 45906976.000000
72.080700 261349792.000000
73.076000 767469.000000
74.060000 10827883.000000
83.060200 329714.900000
85.076000 12402595.000000
86.083700 3215388.000000
88.075700 2559320.800000
91.054200 3836980.000000
103.054200 915191.400000
104.049500 751793.800000
105.069900 848129.100000
106.065100 953984.800000
115.054200 17946994.000000
116.049400 856169.600000
117.069800 12994177.000000
118.065000 9003520.000000
120.080700 381698.000000
129.069800 1682216.900000
130.065000 1757528.000000
131.073100 639225.200000
132.080800 1320320.600000
142.065200 411987.400000
143.072800 1768118.800000
144.080700 17727110.000000
145.076100 282726.000000
145.088500 2080573.100000
146.096500 1006639.600000
157.088500 320872.400000
158.096400 64645780.000000
165.069700 2287004.500000
166.077900 1824266.200000
167.072700 305699.500000
167.085700 1858788.900000
170.096400 1140219.200000
171.091500 725385.000000
178.077600 19522714.000000
179.085400 37820572.000000
180.093400 1380512.900000
186.115300 346180.800000
189.069600 264755.900000
190.064900 713403.900000
191.085400 75966720.000000
192.080600 38121444.000000
192.093200 3267306.200000
193.088500 217921360.000000
194.096500 5296718.500000
202.077500 767467.400000
203.085400 6444814.000000
204.080500 6189588.500000
204.093100 731847.200000
205.088600 8161270.500000
206.096400 9440264.000000
207.104100 5987667.000000
208.112000 22955802.000000
209.083700 378281.700000
210.091400 277647.200000
217.088500 4661755.000000
218.096300 11662001.000000
219.092000 1880667.100000
219.104200 3362876.500000
220.112000 227394896.000000
221.119900 5014393.000000
222.127900 1297328.100000
224.106800 680968.400000
230.096200 353276.700000
231.104300 655091.500000
232.111900 6892610.000000
233.107300 6996744.000000
233.119100 651318.000000
234.127400 2176290.800000
235.122900 8684090.000000
246.115900 363621.200000
247.122800 10032421.000000
248.130700 45768216.000000
249.138500 23754546.000000
261.138400 4558830.500000
262.146400 3331758.500000
263.154100 46041548.000000
264.162300 2569319.200000

>ms2
56.049500 8411955.000000
57.057300 2879522.800000
58.052500 1936119.000000
58.065100 7717265.500000
65.038500 221147.700000
66.046300 230185.400000
70.065100 49234224.000000
71.060300 8273194.500000
71.072900 22091268.000000
72.080700 178239456.000000
74.060000 6010657.000000
79.054200 235771.400000
83.060400 299468.300000
85.076000 6041526.500000
88.075700 873020.600000
89.038600 694636.800000
90.046400 4085596.500000
91.054200 7009813.000000
92.049400 628504.000000
95.049000 269839.500000
103.054100 1712852.600000
104.049500 1886032.400000
104.062100 672817.400000
105.069900 1021755.100000
106.065200 1090491.100000
115.054200 29117454.000000
116.049400 2303692.200000
117.057200 1360286.400000
117.069800 17709980.000000
118.065100 8996876.000000
120.080900 677018.900000
128.049400 841314.200000
128.061800 274496.200000
129.069800 1598710.900000
130.065100 3847939.500000
131.072900 635703.900000
132.080700 2153641.500000
142.065200 966837.000000
143.073000 3984380.000000
144.080700 12501492.000000
145.075900 225102.900000
145.088600 1510152.500000
146.059800 300860.500000
146.096500 736165.300000
152.061900 1197459.200000
153.070100 220465.100000
154.065000 241563.600000
155.060300 233605.500000
157.088400 565486.400000
158.096400 21801536.000000
165.069800 13419326.000000
166.077700 6977541.500000
167.072900 2278682.800000
167.085400 1095136.600000
170.096300 379951.800000
171.091600 913381.900000
177.057300 238020.400000
177.070000 322052.100000
178.077600 41983252.000000
179.085500 30672002.000000
180.080700 376833.100000
180.093400 335740.700000
185.107200 318356.600000
190.065000 2821212.500000
190.077800 655703.600000
191.085500 48189536.000000
192.080700 57439392.000000
193.088600 219445824.000000
194.096500 3868813.800000
202.077700 2232974.000000
203.085400 9013713.000000
204.080800 11766620.000000
204.093200 1327013.900000
205.088600 9203244.000000
206.096500 9649804.000000
207.104000 2687712.200000
208.112000 7560479.000000
209.083300 378196.700000
215.085600 220495.300000
216.080700 393778.400000
217.088600 7011352.000000
218.096400 12438232.000000
219.091700 4412131.000000
219.104200 5129037.500000
220.112100 148405072.000000
221.119700 292724.900000
222.127700 372297.100000
230.096200 1506862.600000
231.104200 1612151.400000
232.100400 424905.500000
232.111800 3786824.000000
233.107300 12598260.000000
234.127700 253679.300000
235.122800 3423806.000000
246.115000 365251.000000
247.122900 12981451.000000
248.130700 14865165.000000
249.138500 13273816.000000
261.138200 1937927.600000
262.146500 969175.700000
263.154300 4733380.000000

>ms2
53.038500 187376.800000
56.049500 12381483.000000
57.057300 4335492.000000
58.065100 8746177.000000
65.038500 1342003.200000
66.046400 2026854.500000
68.025500 205708.500000
70.065100 34581148.000000
71.060300 5743153.000000
71.072900 10121046.000000
72.080700 123820496.000000
74.060000 3215421.200000
77.038500 613252.500000
79.054100 264879.100000
83.060100 232302.800000
85.076000 3630138.500000
88.075700 289903.500000
89.038500 5742926.500000
90.046400 18226636.000000
91.054200 12931407.000000
92.049500 244793.800000
95.049100 902856.100000
103.054200 2355877.000000
104.049500 987083.600000
105.044600 562835.000000
105.070000 301486.600000
106.065200 1251975.600000
115.054200 41604388.000000
116.049400 3616778.000000
116.061900 812352.200000
117.057200 2562297.500000
117.069800 12851787.000000
118.065100 6090908.000000
128.049600 1384571.600000
128.062000 1131052.100000
129.069800 1238155.400000
130.065100 4223243.000000
131.073000 952497.400000
132.080700 1496685.400000
134.060000 243896.000000
142.065300 1407631.800000
143.072900 4594286.500000
144.080800 8545527.000000
145.064900 243867.900000
146.059900 740588.900000
146.096400 204982.100000
152.062000 3296720.200000
153.069800 664371.200000
155.060100 335505.500000
156.080700 186332.100000
157.088500 601675.600000
158.096300 4505657.500000
164.061700 746451.600000
165.069900 46114576.000000
166.065300 803988.100000
166.077700 10093456.000000
167.072900 7157680.500000
167.085400 1029220.600000
171.091700 1337850.900000
176.061800 656052.000000
177.057200 850419.500000
177.069800 1908569.600000
178.077700 65528172.000000
179.085500 20689426.000000
180.080800 1000989.700000
185.107600 601604.000000
189.070000 1240293.200000
190.065100 5636101.000000
190.077600 2163683.800000
191.072900 5723713.500000
191.085500 36031332.000000
192.080700 89319800.000000
193.088600 167536608.000000
194.096400 2078398.800000
196.075600 301487.500000
202.077500 5891098.000000
203.085500 7207488.000000
204.080800 24249606.000000
204.093000 2394594.500000
205.088600 9561829.000000
206.096400 8420794.000000
207.104100 1567595.500000
208.112400 1963832.400000
210.091900 234358.600000
215.085500 282119.200000
216.080500 1495672.000000
217.088600 9760891.000000
218.096400 12437598.000000
219.091700 6342345.000000
219.104200 8967363.000000
220.112100 106099920.000000
230.096300 1881408.400000
231.092300 354778.400000
231.104300 1394073.900000
232.099300 1150503.800000
232.111900 1598898.200000
233.107300 11284339.000000
235.122600 899578.800000
245.106700 609431.700000
246.115700 332164.300000
247.123000 8394737.000000
248.130500 2147403.800000
249.138500 6793914.500000
261.138600 935771.100000
263.154000 1120118.400000

>ms2
50.015000 588766.600000
51.022900 312714.900000
53.038600 1155972.200000
54.033800 365077.400000
56.049500 15069154.000000
57.057300 5066930.500000
58.065100 7040056.000000
62.015100 319769.200000
63.022800 2144659.500000
64.030700 1260223.800000
65.038600 5232299.500000
66.046400 2964095.200000
68.025800 190465.100000
70.065100 18570438.000000
71.060300 3344187.000000
71.072900 2262808.500000
72.080700 52145464.000000
74.060000 880595.200000
75.022700 259304.100000
77.038400 1559925.800000
78.046300 248245.300000
79.054200 784192.400000
83.060300 263042.700000
85.076000 1775666.200000
89.038500 50366196.000000
90.046400 42604848.000000
91.054200 18805914.000000
95.049100 3450169.200000
102.046400 621749.800000
103.054200 4433075.500000
104.049400 671292.800000
105.044800 1597702.900000
105.069900 792217.800000
106.065200 348931.600000
115.054200 43643864.000000
116.049400 7435917.000000
116.062000 1277152.800000
117.057200 3741212.800000
117.069800 3312331.800000
118.065000 2155955.800000
126.046000 185142.200000
127.054100 223646.800000
128.049500 2102160.200000
128.061900 2448134.000000
129.044600 741767.200000
129.057300 340379.200000
129.070000 284292.300000
130.065100 3998088.500000
131.072900 622968.400000
132.080700 200075.600000
134.060000 217507.800000
139.054200 1472606.200000
140.049200 1165795.600000
140.061800 331242.500000
141.057000 200686.100000
141.069800 751875.100000
142.065000 2264013.500000
143.073000 3136814.200000
144.080800 3611636.800000
146.060000 1568029.100000
151.054200 857352.500000
152.062000 14847559.000000
153.057300 310033.000000
153.069800 1072738.200000
154.065000 697866.400000
155.060300 753880.900000
156.080300 199601.200000
157.088600 172100.700000
163.054100 1821759.900000
164.062100 3769139.800000
165.069900 137746416.000000
166.065200 4455190.500000
166.077500 3964332.000000
167.072900 10490123.000000
168.057000 759807.400000
169.064800 2063552.100000
176.061900 5761349.000000
177.057500 5331051.000000
177.069700 8701547.000000
178.077600 86373944.000000
179.060400 844661.900000
179.072900 936835.400000
179.085500 5980967.500000
180.080400 1879110.400000
181.064800 343723.600000
181.088600 253884.300000
189.069800 11266884.000000
190.065000 20577064.000000
190.077500 4139020.200000
191.072800 29542260.000000
191.085500 12061283.000000
192.080700 72409736.000000
193.088600 34551940.000000
194.096300 918353.400000
196.052400 270074.600000
196.075600 304872.600000
200.062300 310463.100000
201.070000 177055.100000
202.077600 10631500.000000
203.072900 2638865.000000
203.085400 7256028.500000
204.080800 46340300.000000
204.092700 2545088.500000
205.088500 7555142.500000
206.096500 3595903.200000
210.091500 274891.000000
214.064700 183505.100000
215.085500 258131.800000
216.080800 6549331.500000
217.088600 13131972.000000
218.084100 3147485.000000
218.096400 16562193.000000
219.091800 4390199.000000
219.104200 12504675.000000
220.112000 19799970.000000
228.081000 351553.200000
230.096300 1526147.600000
231.091500 1631885.000000
231.103400 339784.600000
232.099700 1354379.200000
233.107300 5143192.500000
245.107000 356259.100000
247.122800 1021299.700000

>ms2
50.015100 1754863.800000
51.022900 1923745.100000
53.002200 242972.800000
53.038600 1669080.000000
54.033800 239665.800000
56.049500 11954763.000000
57.057300 3419250.000000
58.065100 4791818.000000
61.007300 178412.600000
62.015000 1295827.900000
63.022900 8850109.000000
64.030700 3675624.800000
65.038500 9404854.000000
66.046400 1646071.500000
70.065100 7367473.000000
71.060300 1298532.600000
71.072900 269913.700000
72.080700 12792283.000000
74.014900 214447.400000
75.022800 1416768.900000
76.030500 233908.000000
77.038500 2553325.800000
78.046400 815303.500000
79.054200 368203.300000
85.075900 257512.400000
87.022800 163839.300000
88.030600 267031.800000
89.038500 82393072.000000
90.046400 16624905.000000
91.054200 15454796.000000
95.049100 5429669.500000
102.046300 1815870.000000
103.054100 3218875.800000
105.044700 2426607.200000
113.038500 635267.800000
114.033700 313344.100000
114.046300 172460.100000
115.054200 40012664.000000
116.049400 3995583.000000
116.062000 707485.400000
117.057200 3052885.000000
117.069800 633511.700000
118.065000 323064.900000
119.049100 209304.500000
126.046500 1390834.000000
127.054100 805058.600000
128.049600 1835293.100000
128.061900 4502471.000000
129.044400 1239631.800000
129.057300 818003.600000
130.065200 2061243.000000
139.054200 12419011.000000
140.049400 5694729.000000
140.061800 1485843.400000
141.057300 261114.600000
141.069900 990049.900000
142.065000 728149.900000
143.072900 938363.800000
144.080800 942468.200000
145.064700 289416.600000
146.059900 891314.300000
150.046200 2170552.000000
151.054200 2762583.500000
152.062000 29865906.000000
153.057200 1856185.500000
153.070100 1188405.200000
154.065200 270916.600000
155.060200 1038121.200000
162.046300 172818.900000
163.054100 10963266.000000
164.049600 1429442.500000
164.061900 19888652.000000
165.069800 124355624.000000
166.065100 7990321.500000
167.072900 4053721.800000
168.056900 7179136.000000
169.064700 8321592.500000
170.060000 266126.500000
175.054300 263905.000000
176.062000 24537214.000000
177.057600 7353207.000000
177.069700 16295092.000000
178.077600 42745420.000000
179.060200 2463074.000000
179.072900 750331.700000
179.085500 786996.500000
180.080500 1040899.200000
181.064900 750081.900000
181.088200 157725.700000
187.054100 290741.000000
188.049300 260450.000000
188.061800 581263.000000
189.057700 1092478.000000
189.069800 13889604.000000
190.065000 29933634.000000
190.077300 2068550.200000
191.072800 32009238.000000
191.085200 2990000.800000
192.080700 13121454.000000
193.088500 4740146.500000
194.060000 326705.600000
195.080500 269318.400000
196.052000 2126233.200000
200.062100 1472144.500000
201.069800 907900.200000
202.077600 10127916.000000
203.072900 4359619.500000
203.085300 2724321.500000
204.080800 26632500.000000
205.064800 341125.300000
205.076000 685513.900000
205.088600 1036958.100000
206.096400 269876.200000
214.065300 346530.000000
215.073000 747067.800000
216.080700 9461037.000000
217.088500 12792160.000000
218.084000 2797574.000000
218.096400 9473364.000000
219.080300 578474.400000
219.091900 832868.600000
219.104100 2135161.800000
220.112100 610202.800000
228.080700 193156.100000
230.096000 231137.600000
231.091500 1042862.100000

>ms2
50.015100 3268839.500000
51.022900 4193457.500000
53.002200 785731.400000
53.038600 1643013.500000
54.033900 199812.900000
56.049500 9039831.000000
57.057300 1726550.800000
58.065100 1926858.900000
61.007200 1063438.800000
62.015100 4501924.500000
63.022900 25232792.000000
64.030700 4895514.500000
65.038600 13526854.000000
66.046400 628076.100000
70.065000 2232855.000000
71.060300 318787.100000
71.072900 231405.700000
72.080700 2965800.200000
74.015000 1101567.600000
75.022800 3773487.500000
76.030700 825941.900000
77.038500 3603539.200000
78.046300 2003675.100000
87.023000 1729781.800000
88.030700 883499.400000
89.038500 76333944.000000
90.046400 6252953.000000
91.054200 10003847.000000
95.049100 5700227.500000
102.046400 4523629.500000
103.054100 1592053.400000
105.044700 3343160.500000
113.038500 4366848.500000
114.033700 996195.000000
114.046400 937317.100000
115.054200 43988812.000000
116.049400 2424699.500000
116.062300 146450.900000
117.057300 1126970.900000
119.049100 345079.500000
126.046400 6530321.000000
127.054200 1334032.100000
128.049500 1297990.100000
128.062000 6992105.500000
129.044600 1331165.100000
129.057200 268598.600000
130.065000 1012081.300000
137.038500 1002675.625000
138.046300 1122433.625000
139.054200 31514936.000000
140.049400 10240806.000000
140.061500 1012099.600000
141.057400 353881.200000
141.069900 191323.700000
142.065300 319958.000000
143.072800 198319.000000
145.064600 1043673.400000
146.060100 286324.300000
150.046400 11617057.000000
151.054100 4244482.000000
152.062000 27300894.000000
153.057100 1479576.100000
153.069800 599034.400000
155.060200 1605393.400000
162.046200 1358383.100000
163.054200 42103368.000000
164.050300 3778147.200000
164.062000 26167188.000000
165.069900 58302888.000000
166.065200 3936033.200000
167.072800 1076924.000000
168.056900 10188406.000000
169.064700 16780544.000000
170.060200 147244.100000
174.046300 862628.875000
175.054200 677258.100000
176.062000 36313700.000000
177.057500 5773937.000000
177.069700 10655652.000000
178.066000 1331232.125000
178.077600 12627198.000000
179.060300 5289549.000000
179.073000 860412.800000
180.080900 353968.300000
181.064400 344064.400000
187.054100 1645725.100000
188.049600 1397103.800000
188.062100 1420383.600000
189.057400 1950465.500000
189.069800 13310999.000000
190.065000 29456858.000000
191.072900 12166186.000000
191.086200 669359.700000
192.080600 2118247.500000
193.065100 1106654.500000
193.089000 552247.900000
194.059900 840867.200000
195.080500 217735.900000
196.051900 4464024.500000
200.062100 3273298.800000
201.069900 1421980.100000
202.065300 988852.187500
202.077700 5508559.000000
203.072900 4439823.500000
204.080900 7862294.500000
205.064800 241171.600000
205.075500 154175.400000
214.064700 1255447.600000
215.072700 1335979.400000
216.080700 10089001.000000
217.088600 5582384.500000
218.084300 346711.900000
218.096300 1497932.200000
219.080100 669715.500000
219.104100 168491.800000

