>compound EQ28405276
>parentmass 150.09130000000002
>ionization [M+H]+
>formula C9H11NO
>rt 396.000000
>profile orbitrap
#smiles_iso CC1=CC(=C(C=C1)NC=O)C
#smiles_can CC1=CC(=C(C=C1)NC=O)C
#inchikey JOFDPSBOUCXJCC-UHFFFAOYSA-N
#pubchem_id 92363
#mb_accession EQ033001,EQ033002,EQ033003,EQ033004,EQ033005,EQ033006,EQ033007,EQ033008,EQ033009

>ms2
77.038400 1002760.200000
79.054200 844170.800000
95.085600 786953.600000
105.069900 67341760.000000
106.064800 1501614.800000
107.073000 36594368.000000
117.057300 13135489.000000
122.096500 62038652.000000
123.080500 90385120.000000
132.080800 155901168.000000
133.076100 3638163.000000
135.067700 769045.200000
150.091400 757721344.000000

>ms2
77.038400 1063920.900000
79.054200 866950.800000
105.069900 78621096.000000
106.064800 1397674.000000
107.073000 41460084.000000
117.057300 15826892.000000
122.096500 69694984.000000
123.080400 99796104.000000
132.080800 172514864.000000
133.076000 4197837.500000
150.091400 846087616.000000

>ms2
77.038500 979077.000000
79.054200 3729125.500000
81.070000 698353.400000
91.054200 829225.500000
95.085500 4842056.500000
103.054200 1999948.800000
105.069900 147587008.000000
106.065000 2839416.500000
107.073000 176793424.000000
108.056900 855452.500000
115.054300 1617133.200000
117.057300 45862492.000000
120.057000 624479.400000
120.080700 1025932.100000
121.064900 706103.200000
121.088800 908544.400000
122.096500 133757344.000000
123.080400 157611632.000000
130.065200 777659.600000
131.073100 871851.300000
132.080800 215691408.000000
133.076000 12927746.000000
135.067800 1930126.500000
148.075700 749287.100000
150.091400 392443040.000000

>ms2
53.038600 903453.900000
67.054200 2333059.000000
77.038400 2990110.200000
79.054200 25780540.000000
81.069900 1597858.800000
91.054200 2457567.800000
93.069900 804452.800000
94.065200 925031.900000
95.049200 2619078.000000
95.085500 14491981.000000
103.054200 12929287.000000
105.069900 220726736.000000
106.065100 16393970.000000
107.072900 452206080.000000
108.056900 5023332.500000
115.054200 1946325.800000
117.057300 82147776.000000
120.080800 2404136.200000
121.064800 2417998.200000
121.088600 1987035.200000
122.096500 111794080.000000
123.080400 132404408.000000
130.065300 1170540.600000
131.073000 1524799.900000
132.080800 137585952.000000
133.076000 19864746.000000
135.067900 3059028.200000
148.075800 807880.800000
150.091400 94126272.000000

>ms2
53.038600 2603846.200000
55.054300 780444.300000
65.038600 607022.100000
67.054200 5284023.000000
77.038500 7707994.500000
79.054200 55937976.000000
80.049400 624684.800000
81.069900 980395.700000
90.046400 933692.600000
91.054300 3154361.800000
93.069900 1762726.000000
94.065100 1235632.100000
95.049200 10468783.000000
95.085500 13611690.000000
103.054300 31071318.000000
105.070000 177920656.000000
106.065200 64012568.000000
107.072900 503823392.000000
108.056900 11220606.000000
115.054200 1337582.200000
117.057300 68665072.000000
120.080800 2767666.000000
121.064700 2369134.000000
121.088700 2406785.800000
122.096500 39353252.000000
123.080400 53769612.000000
130.065100 1073466.400000
131.073000 1623260.200000
132.080800 36511940.000000
133.076100 11041537.000000
135.068000 1848841.900000
150.091400 11465811.000000

>ms2
50.015100 832498.200000
51.022900 842516.100000
53.038600 6137834.000000
55.054300 1789259.800000
65.038500 1724800.500000
66.046400 544227.900000
67.054200 7666230.500000
77.038500 18834300.000000
79.054200 90204736.000000
80.049400 770409.800000
80.062100 1576281.400000
81.033500 681647.700000
81.069900 887717.600000
89.038500 1004558.600000
90.046400 3139660.800000
91.054300 5011874.500000
93.057400 617094.000000
93.070000 1994873.200000
94.065200 948347.200000
95.049200 29924876.000000
95.085500 9515616.000000
103.054300 48938836.000000
104.062000 692018.100000
105.044800 14485119.000000
105.070000 117246808.000000
106.065200 190763872.000000
107.072900 455956960.000000
108.056900 14160450.000000
115.054200 827396.800000
117.057300 49977820.000000
120.080800 3502066.800000
121.064800 2836809.200000
121.088700 1757770.400000
122.096500 11594967.000000
123.080500 17430376.000000
130.065500 1120217.800000
131.073100 989815.900000
132.080900 7740994.500000
133.076100 4067003.000000
135.068000 580841.900000
150.091400 2184561.000000

>ms2
50.015100 3942809.500000
51.022900 2849651.500000
53.038600 15431441.000000
55.017800 955499.600000
55.054300 2018460.800000
63.022900 707328.600000
65.038600 6312533.500000
66.046400 2321547.800000
67.041600 587855.900000
67.054200 4562515.500000
77.038600 44150852.000000
78.033700 512204.000000
78.046500 1149237.100000
79.054200 87676352.000000
80.049400 4166615.800000
80.062000 3281460.000000
81.033500 2094542.000000
81.057300 826237.100000
89.038600 8645694.000000
90.046500 13786628.000000
91.054300 7595725.000000
92.049500 1306585.100000
93.070000 1213262.400000
94.041500 750285.800000
94.065200 562480.200000
95.049200 65219776.000000
96.044400 846648.800000
102.046600 1134867.800000
103.054300 38264964.000000
104.062100 1562657.900000
105.044800 30757596.000000
105.070000 23155638.000000
106.065200 438891904.000000
107.072900 164091664.000000
108.057000 8781818.000000
117.057300 22492516.000000
120.080800 2789819.200000
121.064700 1273968.500000
123.080400 1129092.200000
130.065400 1144029.000000

>ms2
50.015100 11141493.000000
51.023000 11802717.000000
53.038600 22065620.000000
54.033800 861312.900000
55.017900 1781042.600000
55.054300 1369943.900000
63.022900 2533042.800000
64.030800 1448643.800000
65.038600 10760916.000000
66.046400 3395784.200000
67.041600 2326641.200000
67.054300 2491516.200000
77.038600 53421976.000000
78.033800 1938751.500000
78.046400 3215923.800000
79.054200 80280880.000000
80.049400 9435196.000000
80.062000 1789181.200000
81.033500 1953639.500000
89.038600 26126832.000000
90.046500 14433427.000000
91.054300 7835570.000000
92.049500 2095612.900000
94.041400 1277771.000000
95.049200 82230816.000000
96.044400 2903170.500000
102.046500 1519222.500000
103.054200 12535838.000000
104.049400 820059.100000
104.062100 812169.800000
105.044800 41635008.000000
105.069900 2860089.200000
106.065200 386059904.000000
107.049100 7175855.000000
107.073000 31521050.000000
108.057000 1693936.900000
117.057400 6624646.500000
120.080800 1878269.000000
130.065200 658253.900000

>ms2
50.015100 22682272.000000
51.023000 31095172.000000
52.030800 495731.900000
53.038600 22832854.000000
54.033800 2498407.500000
55.017900 797590.900000
55.054200 758055.600000
56.049600 193477.200000
63.022900 10055292.000000
64.030800 2553841.200000
65.038600 11739726.000000
66.033800 915865.400000
66.046400 3944929.800000
67.041700 7130517.500000
67.054200 1141014.200000
67.989300 252385.600000
68.049500 631282.400000
75.022900 1198698.100000
77.038600 47718304.000000
78.033800 2826140.800000
78.046500 3708596.800000
79.054200 65207892.000000
80.049400 12703676.000000
80.062000 671743.100000
81.033500 2904843.500000
81.057300 294263.100000
89.038600 37101436.000000
90.046500 6562806.500000
91.054300 5401309.500000
92.049500 1420560.600000
93.057300 275684.600000
94.041400 1314181.400000
95.049200 76662568.000000
96.044400 3257121.000000
102.046400 768080.400000
103.054300 4280328.500000
104.049400 895841.300000
105.044800 42230884.000000
106.065200 181149856.000000
107.049100 4230129.000000
107.073000 3795772.500000
108.056900 201598.700000
109.065000 194698.500000
117.057200 656896.800000
118.065200 187510.500000
120.080800 635416.100000

