>compound EQ29717134
>parentmass 243.0637
>ionization [M+H]+
>formula C8H19O2PS2
>rt 690.000000
>profile orbitrap
#smiles_iso CCCSP(=O)(OCC)SCCC
#smiles_can CCCSP(=O)(OCC)SCCC
#inchikey VJYFKVYYMZPMAB-UHFFFAOYSA-N
#pubchem_id 3289
#mb_accession EQ365101,EQ365102,EQ365103,EQ365104,EQ365105,EQ365106,EQ365107,EQ365108,EQ365109

>ms2
63.026300 56029.400000
64.978700 89857.900000
77.041900 2658638.000000
96.950800 763722.900000
105.073400 387374.700000
114.961500 9773971.000000
119.089000 233658.500000
120.987300 78360.600000
124.982200 1143591.400000
128.977100 76460.600000
129.930500 68659.100000
130.938600 3812807.800000
138.997900 3967361.500000
142.992600 103622.600000
154.975000 528666.800000
157.008500 553131.600000
158.970000 1188979.600000
167.029200 5111259.500000
172.985600 25131914.000000
183.006400 107724.700000
185.039800 4753890.000000
197.022200 259671.300000
199.055400 95349.100000
201.017000 15659712.000000
215.032600 29307088.000000
243.064000 28307842.000000

>ms2
53.002200 67839.300000
63.026400 151747.900000
64.978700 152308.700000
67.989200 50002.400000
77.041900 7134859.500000
96.950800 2447768.800000
105.073400 391672.700000
112.927900 197845.700000
114.961400 15686777.000000
119.089100 162132.900000
120.987300 284525.800000
123.020500 98673.900000
124.982200 1611235.800000
128.977100 161618.500000
129.930400 108012.300000
130.938600 22011442.000000
138.997800 6700934.000000
148.949100 86294.400000
154.975000 1182421.100000
157.008500 212205.500000
158.969900 2397449.800000
167.029200 1594359.900000
172.985600 41187036.000000
183.006600 108659.200000
185.039700 1457823.600000
190.996200 58643.800000
197.022300 94498.700000
201.016900 8468067.000000
215.032600 12893310.000000
243.064000 3014778.000000

>ms2
53.002300 230803.600000
63.026400 250587.800000
64.978400 170868.200000
67.989300 82745.700000
77.042000 5835895.500000
96.950900 6456296.000000
97.958600 47493.900000
102.976700 65287.600000
105.073300 102753.000000
110.966600 135310.400000
112.928100 822598.900000
114.961400 15600124.000000
119.089100 56671.800000
120.987300 326284.800000
123.020600 190219.400000
124.982200 687266.600000
128.977200 150626.500000
130.938600 44340544.000000
138.997800 2847395.500000
148.949300 144426.200000
154.975100 461875.600000
158.970000 1181254.200000
172.985700 11949162.000000
201.017000 541305.200000
215.032600 505513.800000

>ms2
53.002200 324306.600000
53.997500 90796.200000
63.026400 236131.100000
64.978600 231512.500000
67.989300 130125.600000
77.041900 2242370.000000
78.940200 79392.000000
94.917400 53349.500000
96.950900 10858265.000000
102.976800 148998.100000
110.966600 230207.500000
112.928000 1304819.500000
114.961400 25330020.000000
120.987200 173416.300000
123.020400 117746.900000
124.982300 120210.000000
128.977000 263261.200000
130.938600 31638296.000000
132.971800 88634.600000
138.997800 557021.400000
148.949300 90568.100000
154.975000 102708.400000
158.969800 183765.400000
172.985600 1187973.100000

>ms2
53.002200 395442.900000
53.997500 87219.700000
63.026400 162278.200000
64.978700 602333.900000
67.989300 155509.600000
77.041900 709680.200000
78.940200 325046.000000
94.917400 444253.500000
96.950900 14639052.000000
102.976700 110763.200000
110.966500 342558.300000
112.928000 1951243.800000
114.961400 35928792.000000
120.987300 67284.800000
123.020400 67716.300000
128.977000 438997.500000
130.938600 12920597.000000
138.997900 66453.500000
148.949100 47992.100000
172.985400 49661.800000

>ms2
53.002200 411335.600000
53.997500 75215.100000
63.026300 67981.900000
64.978700 1605815.200000
67.989300 121233.000000
77.041900 98882.800000
78.940200 859505.300000
94.917400 1088244.400000
96.950900 13580672.000000
102.976700 78094.500000
110.966500 343034.300000
112.928000 2045644.600000
114.961400 33858228.000000
128.977000 392474.300000
130.938600 3312402.800000
132.971800 172663.100000

>ms2
53.002200 374801.300000
53.997600 83060.000000
62.945200 26891.400000
64.978700 7506056.000000
67.989300 89603.000000
78.940200 3278196.800000
80.973600 24072.100000
94.917400 3356089.200000
96.950900 7842963.000000
110.966600 160941.600000
112.928000 970633.600000
114.961400 22595316.000000
128.977000 260838.600000
130.938600 150652.300000

>ms2
53.002300 358284.200000
53.997500 95055.800000
62.945300 162394.700000
64.978800 12032610.000000
67.989300 42467.900000
78.940300 4127814.500000
79.948100 78987.500000
80.955800 12629.000000
80.973600 17057.800000
94.917500 4267378.000000
96.950900 3471912.500000
110.966500 91824.100000
112.928000 272190.200000
114.961400 9728030.000000
128.977100 132947.400000

>ms2
53.002300 195070.700000
53.997500 75462.100000
54.010100 16134.200000
62.945300 499477.400000
64.978800 10361404.000000
67.989300 53402.100000
78.940200 2767367.800000
79.948000 153060.100000
80.955900 12979.300000
94.917400 3300331.800000
96.950900 1247504.100000
112.927900 66499.700000
114.961400 3266501.000000
128.977100 24549.900000

