>compound EQ29573910
>parentmass 262.08739999999995
>ionization [M+H]+
>formula C14H12FNO3
>rt 438.000000
>profile orbitrap
#smiles_iso CC1CCC2=C3N1C=C(C(=O)C3=CC(=C2)F)C(=O)O
#smiles_can CC1CCC2=C3N1C=C(C(=O)C3=CC(=C2)F)C(=O)O
#inchikey DPSPPJIUMHPXMA-UHFFFAOYSA-N
#pubchem_id 3374
#mb_accession EQ364201,EQ364202,EQ364203,EQ364204,EQ364205,EQ364206,EQ364207,EQ364208,EQ364209

>ms2
244.076900 80732808.000000
262.087400 268550848.000000

>ms2
244.076800 184007520.000000
262.087300 193760912.000000
276.102900 3508812.500000

>ms2
174.034500 205052.100000
176.086400 309167.700000
202.029800 7112237.000000
220.040500 5742287.000000
238.050900 911837.700000
244.076800 190045152.000000
262.087300 146962656.000000
264.091600 347457.000000
276.102900 3355819.750000

>ms2
53.002200 240909.400000
146.039900 283219.800000
148.055600 693606.300000
161.063500 159712.800000
174.035000 3549553.500000
176.087000 2302430.000000
200.087000 874507.600000
201.058300 211866.200000
202.029800 63908140.000000
203.037500 280299.700000
216.045900 503650.100000
216.082000 1054357.600000
220.040500 59307372.000000
221.048400 390894.200000
229.053100 142854.600000
234.056200 1779569.600000
238.051100 10436531.000000
244.076800 116086592.000000
252.066500 1134896.600000
262.087400 84151096.000000
264.091800 184423.900000
276.102900 1824847.375000

>ms2
53.002000 782663.600000
55.054200 193206.000000
99.022700 141794.100000
102.033800 121014.400000
116.049500 171771.100000
126.033800 784055.100000
133.044600 122736.500000
135.047700 267210.300000
144.044600 330904.000000
146.040100 6501436.000000
147.035200 176669.600000
147.047800 518175.800000
148.055700 1630775.600000
149.076100 145183.200000
154.040000 3030001.000000
158.039700 145227.400000
159.048000 182237.300000
160.055700 159599.200000
161.063500 480245.100000
164.050600 642027.400000
172.055500 366318.900000
173.063900 302150.400000
174.035000 26222770.000000
175.042700 286440.600000
176.050700 262480.500000
176.087100 1804825.500000
187.042700 348929.700000
188.050500 512478.600000
192.045500 655008.200000
200.050700 331987.700000
200.087100 1844514.600000
201.058500 638682.200000
202.029800 100629184.000000
203.037800 552335.200000
206.061300 308142.600000
214.030200 200236.300000
216.045600 692149.200000
216.082100 710524.100000
220.040500 94128416.000000
221.048200 929062.700000
229.053000 119107.200000
232.040500 241982.700000
234.056200 2784147.000000
238.051100 19419708.000000
244.076900 27285534.000000
252.066700 1574582.800000
262.087400 19333854.000000

>ms2
51.022900 183637.000000
52.018100 63998.500000
53.002200 2709286.000000
55.054200 143596.400000
75.022800 1349676.600000
76.018000 159889.300000
77.002100 158055.200000
89.038600 587920.600000
95.028900 244679.100000
96.036900 262800.800000
99.022700 596940.500000
100.018000 510291.900000
102.033800 1077536.800000
107.029000 264292.300000
109.044800 608920.800000
113.039500 284331.900000
116.049400 1149477.800000
119.029200 785566.400000
120.024300 70061.100000
120.037100 427414.100000
122.040100 682018.100000
123.024100 151618.600000
123.035300 477216.200000
126.033800 8069843.500000
129.069900 78343.200000
130.040000 242726.300000
133.044700 637590.200000
134.052700 129213.200000
135.047700 238923.000000
137.039700 196053.000000
138.034800 240256.700000
140.049700 80073.200000
144.044400 2676987.500000
145.032100 190065.100000
146.040100 29492766.000000
147.035300 2489414.800000
147.047800 2784133.500000
148.055700 1558799.100000
148.068300 132855.100000
149.076300 134755.200000
150.034700 240905.700000
154.040000 23756910.000000
155.037000 177244.300000
158.039900 658531.200000
159.047900 708043.200000
160.055500 371489.200000
161.063500 863071.700000
162.035100 169940.200000
164.050600 2776721.200000
171.047600 68494.400000
172.055700 1248416.500000
173.063600 496373.200000
174.035000 56160524.000000
175.042800 253307.200000
176.050700 674916.900000
176.087000 674316.500000
177.082100 79284.100000
178.029900 543862.900000
186.035000 169686.100000
187.042800 279514.800000
188.050600 514591.000000
192.045500 1909144.600000
200.050600 952888.400000
200.087000 798688.700000
201.058400 529220.400000
202.029800 59409892.000000
203.037700 441866.700000
206.061300 519383.800000
214.029900 265421.800000
216.045200 335003.100000
216.082200 164432.600000
220.040500 61534412.000000
221.048400 811501.800000
222.044500 82811.600000
232.040600 298741.100000
234.056100 1540824.600000
238.051000 13831002.000000
244.076800 2951967.800000
252.066700 1159346.200000
262.087300 2151459.000000

>ms2
50.015100 824334.400000
51.022900 561513.100000
52.018200 334986.600000
53.002200 7887194.500000
55.017900 59999.700000
55.054200 140253.200000
57.013400 49054.300000
63.022900 216297.800000
65.038600 239055.000000
71.029200 335795.400000
74.015000 491327.900000
75.022900 13542763.000000
76.018100 1826024.100000
77.002100 4627880.500000
77.038500 387357.200000
79.017900 48882.900000
83.029100 243942.200000
86.015200 49425.900000
89.038600 8161070.000000
93.013500 412753.800000
94.021200 49498.000000
95.029200 1143191.900000
95.049200 137451.000000
96.037000 964908.600000
97.032200 49429.600000
98.015000 1026963.100000
99.022900 16199240.000000
100.018100 15011165.000000
101.038600 55586.000000
102.033800 2964630.800000
105.044900 49649.200000
107.029100 680800.100000
108.036900 148351.000000
109.044800 1871869.600000
113.039700 1471189.000000
114.034900 222231.400000
115.054300 151314.900000
116.049500 2010537.500000
117.033600 226270.500000
118.028700 1513947.500000
119.029200 6110454.000000
120.024500 2386404.000000
120.037000 3858171.500000
121.032200 345308.500000
121.044800 77770.200000
122.040100 455331.700000
123.024000 292995.600000
123.035300 2923516.800000
125.038600 65863.700000
126.033800 34638752.000000
127.041700 68788.200000
128.049300 70672.700000
128.062000 209201.100000
129.044700 249543.500000
129.069900 139320.700000
130.029000 372731.300000
130.040000 500944.000000
131.029100 779189.700000
132.037000 255283.700000
133.044800 2201572.500000
134.040100 200155.500000
134.052600 270417.100000
135.047800 259872.900000
137.039800 877745.900000
138.035000 2099676.500000
140.049400 396329.000000
143.036600 68180.200000
144.044500 7807478.500000
145.032300 1314515.100000
146.040100 25932082.000000
147.035300 10687270.000000
147.047800 2820944.200000
148.031000 235815.300000
148.055600 703027.900000
150.034800 76598.900000
152.049700 156481.800000
154.040000 48709032.000000
155.037000 380645.900000
155.060600 52327.200000
158.040100 1620167.600000
158.060300 258654.000000
159.047800 1278752.900000
160.055400 248326.700000
161.063600 617479.500000
162.035100 78507.600000
164.050600 2039234.100000
170.040100 199964.600000
171.047800 189962.600000
172.055700 3036854.800000
173.050900 75698.300000
173.063600 129587.900000
174.035000 16700281.000000
176.050700 519658.500000
178.030100 426290.600000
186.035300 349455.600000
188.050600 121643.000000
192.045700 549029.200000
200.050600 1024948.900000
200.087300 62004.800000
202.029900 3386596.200000
206.061300 211818.000000
220.040500 3694493.200000
232.040400 163087.200000
234.056800 69320.400000
238.051000 913898.200000

>ms2
50.015100 1803215.000000
51.022900 1126305.500000
52.018200 348494.600000
53.002200 9858548.000000
57.013400 364844.400000
61.007100 139470.800000
62.015000 59070.800000
63.022900 627259.200000
65.002200 183383.400000
65.038500 274509.300000
69.013500 187984.300000
70.021300 269014.500000
71.029200 345910.600000
74.015100 2942203.000000
75.022900 24033336.000000
76.018100 3432283.800000
77.002100 7411879.000000
77.038500 417127.900000
81.013500 481666.400000
83.029100 840501.400000
84.037000 78985.100000
85.007100 63018.100000
86.015100 72840.800000
87.022800 160680.700000
89.038600 7708704.500000
90.033800 70372.000000
92.025600 124883.000000
93.013500 3005632.800000
94.021300 563003.500000
95.029100 1224855.400000
95.049200 193953.000000
96.024400 62256.600000
96.037000 1027341.500000
97.032300 52348.000000
98.015100 9508041.000000
99.022900 43215408.000000
100.018100 35560536.000000
101.038600 64242.200000
102.033800 716527.600000
105.013500 130625.000000
105.044800 45241.800000
106.008700 51548.600000
106.021200 310704.100000
107.029100 1457353.600000
108.024400 76602.000000
108.037000 354018.900000
109.044800 1084573.500000
112.032000 54309.100000
113.039600 1462749.400000
114.035100 362850.100000
115.054200 151125.000000
116.049500 388242.100000
117.033400 136690.600000
118.021400 273425.300000
118.028700 3776404.200000
119.029200 3865578.800000
120.024500 3125058.800000
120.037000 4447139.000000
121.032200 421202.100000
121.044600 52758.200000
122.040000 177976.000000
123.035300 3035770.500000
124.018200 146703.800000
125.038600 705572.300000
126.033800 12034847.000000
127.041700 251161.100000
128.049400 147512.200000
128.062000 171784.300000
129.044700 258810.600000
130.040100 144290.900000
131.029200 1576783.600000
132.024200 219089.000000
132.036900 507130.500000
133.044800 1950637.900000
134.040100 136700.800000
135.023900 50565.200000
135.047800 198845.400000
137.039700 483529.700000
138.034900 993175.000000
140.049200 127056.200000
143.049100 61549.600000
144.037300 150748.500000
144.044400 1878336.100000
145.032300 1864992.000000
145.044700 178749.100000
146.040100 5059671.000000
146.052300 383718.800000
147.035300 4297466.000000
147.047600 376052.200000
148.030400 183217.000000
148.055600 155011.300000
152.049600 483914.800000
153.044600 129480.800000
154.040000 10301913.000000
155.060400 73571.600000
158.040000 1184941.800000
158.060100 60795.200000
159.047900 437764.200000
160.055600 58218.800000
161.063400 72349.500000
164.050600 545629.500000
170.040000 125410.400000
171.047800 182330.800000
172.055700 2030897.200000
173.051000 286449.600000
174.035100 847887.900000
184.055600 44596.200000
192.045400 73736.500000
200.050500 177987.800000

>ms2
50.015100 1793800.400000
51.022900 926587.300000
52.018200 546349.900000
53.002200 10082022.000000
55.017800 60992.400000
57.013500 1387324.200000
61.007200 484867.000000
62.015000 466557.000000
63.022900 1606763.800000
65.002200 380060.200000
65.038600 212377.500000
69.013500 635265.900000
70.021300 909006.400000
71.029200 70361.800000
73.007100 193619.700000
74.015100 10742443.000000
75.022900 25961098.000000
76.018100 4526826.500000
77.002100 3652671.800000
77.038500 222344.000000
81.013500 1332202.400000
83.029100 1261496.900000
84.037000 179061.600000
85.007200 154620.800000
86.015000 534587.100000
87.022900 732548.200000
88.018200 121939.000000
89.002200 915922.937500
89.038600 2512442.500000
90.033800 60268.300000
90.046500 62588.500000
92.025700 141471.400000
93.013500 5701978.000000
94.021300 1910668.000000
95.029200 699026.800000
95.049200 179389.800000
96.024300 63095.900000
96.037000 948342.400000
98.015100 34204336.000000
99.010400 7911895.000000
99.022900 41557552.000000
100.018100 34985788.000000
101.038600 71821.400000
102.033800 173235.700000
105.013500 611319.000000
105.044700 167720.300000
106.008700 66435.300000
106.021300 464426.000000
107.029100 1859068.800000
108.024400 129762.400000
108.037000 402183.100000
109.044800 305767.100000
112.031900 177051.400000
113.039400 706317.400000
114.034500 136365.900000
115.054200 199341.100000
116.049700 45046.200000
117.033400 63461.800000
118.021600 697766.100000
118.028700 2600211.500000
119.029200 1126272.900000
120.024400 1193357.500000
120.037000 2616234.000000
121.032300 256036.500000
122.039900 49109.000000
123.035300 1287323.100000
124.018300 251680.300000
125.038600 1108892.800000
126.033900 2128179.200000
127.041700 70022.200000
128.062000 190733.800000
129.044700 152028.500000
131.029200 1878689.100000
132.024500 271026.900000
132.036800 194691.300000
133.044800 1098853.100000
137.039600 52690.200000
138.034800 139627.900000
140.049600 47149.600000
143.049200 78262.100000
144.037300 395688.000000
144.044400 435323.700000
145.032200 1275723.000000
145.044500 217483.800000
146.040100 1539279.200000
146.052400 145723.000000
147.035300 1408280.800000
148.030700 47824.700000
152.049600 651666.700000
153.044900 249917.700000
154.040000 1656684.100000
155.060500 49704.100000
158.040100 478117.800000
163.055100 41937.600000
164.050500 255027.900000
171.048100 343239.400000
172.055800 546485.800000
173.050900 65791.500000

