>compound EQ30625483
>parentmass 301.07380000000006
>ionization [M+H]+
>formula C16H13ClN2O2
>rt 504.000000
>profile orbitrap
#smiles_iso CN1C(=O)CC(=O)N(C2=C1C=CC(=C2)Cl)C3=CC=CC=C3
#smiles_can CN1C(=O)CC(=O)N(C2=C1C=CC(=C2)Cl)C3=CC=CC=C3
#inchikey CXOXHMZGEKVPMT-UHFFFAOYSA-N
#pubchem_id 2789
#mb_accession EQ359301,EQ359302,EQ359303,EQ359304,EQ359305,EQ359306,EQ359307,EQ359308,EQ359309

>ms2peaks
259.063100 72520688.000000
301.073500 580209984.000000

>ms2peaks
77.038300 496193.900000
224.093900 1124817.200000
233.083900 3276245.500000
244.039200 836778.300000
259.063000 491533408.000000
301.073600 157088512.000000

>ms2peaks
68.997100 720063.900000
77.038400 631142.600000
105.033400 5732282.000000
153.021200 2086755.200000
181.016200 4816146.000000
182.084100 673398.100000
216.044900 2262540.000000
217.052500 1929812.600000
218.060500 2442957.200000
223.086800 1306064.600000
224.094300 44799704.000000
228.021600 757715.300000
233.083900 3008306.800000
244.039600 4749742.000000
259.063000 540314368.000000
301.073700 5048969.000000

>ms2peaks
53.038500 572057.300000
68.997100 1486886.000000
77.038200 1609884.200000
91.054200 889136.100000
92.049400 280819.800000
95.049100 1442729.500000
105.033400 39219784.000000
118.052400 595332.800000
140.026100 1142812.400000
141.033900 857217.400000
145.050600 427134.500000
146.047400 344327.200000
147.055200 497343.000000
153.021300 25185074.000000
166.064800 312841.300000
167.072800 1352530.800000
179.037100 288296.800000
180.080300 541109.100000
181.016200 18597712.000000
182.024000 3737608.800000
182.083800 4174248.200000
183.031800 1154821.200000
195.091600 2731232.200000
196.075600 1182894.100000
196.099400 986924.100000
200.026300 358276.900000
202.041900 770649.100000
203.037000 871197.200000
207.091900 887127.100000
209.070800 1347229.600000
214.041700 1182397.900000
215.036900 1150894.500000
216.044900 19633594.000000
217.052800 4770183.500000
218.060600 3849863.500000
223.086600 10583359.000000
224.094300 165755840.000000
228.021200 988237.000000
230.060500 776586.300000
231.068500 1171306.500000
241.052300 297311.500000
244.039800 15851143.000000
257.047700 377512.300000
258.054700 673629.100000
259.063100 239581152.000000

>ms2peaks
50.015100 323297.900000
51.022800 677084.900000
53.038600 2490278.500000
65.038500 221043.900000
68.997000 2351807.200000
77.038400 6050097.000000
78.046300 262817.300000
81.033400 350113.000000
90.033700 431971.100000
91.054200 4854969.000000
92.049200 499043.800000
93.057200 335358.800000
95.049100 7510910.000000
98.999500 230150.800000
104.049300 521843.900000
105.033400 55164912.000000
105.044700 5303493.500000
112.007500 205286.800000
117.044600 1642635.800000
117.057200 234826.200000
118.052400 6009670.000000
119.060300 798560.900000
126.010400 936449.400000
128.026100 420936.500000
135.055000 612546.900000
140.026100 1437029.000000
141.034000 490378.700000
145.050800 4136532.800000
146.047400 1614753.400000
147.055200 2482076.500000
148.062900 231813.500000
153.021300 57871652.000000
154.064600 403178.300000
165.021300 363366.400000
166.065100 2561958.000000
167.072900 6377787.000000
168.080600 539451.900000
179.073100 689551.200000
180.080600 2235467.000000
181.016200 12710966.000000
181.075900 4917724.500000
182.024000 7417986.000000
182.083800 8120719.500000
183.031900 2320044.800000
194.083700 262742.200000
195.091600 16434597.000000
196.075500 1515529.900000
196.099700 851432.900000
200.025900 904819.700000
202.041600 2676951.500000
203.036900 2777300.000000
207.091700 4490490.500000
208.062800 682684.800000
209.070900 5348674.500000
214.041700 2047075.200000
215.037000 11980746.000000
216.044900 35669148.000000
217.052800 4166752.800000
218.060300 1864867.000000
223.086500 40072640.000000
224.094300 144730944.000000
228.021100 451274.200000
229.052000 669659.600000
231.068700 717498.800000
241.052500 263609.900000
243.031700 725301.600000
244.039700 17159498.000000
257.047100 560966.900000
258.055300 1086240.600000
259.063200 43515228.000000

>ms2peaks
50.015100 826425.400000
51.022900 1158735.000000
53.038600 6181900.000000
55.017800 292188.300000
63.022900 338998.200000
65.038500 1199770.600000
66.033700 113913.200000
66.046300 877908.600000
68.997100 3295181.200000
75.022700 127017.800000
77.038400 11089365.000000
78.033700 121403.900000
78.046300 586063.300000
79.054000 92076.700000
80.049400 86148.100000
81.033400 676114.900000
90.033800 3654428.200000
91.041700 465217.700000
91.054200 8409129.000000
92.049400 2849413.800000
93.044700 107849.700000
93.057300 634719.800000
94.041300 293624.900000
95.049100 17882292.000000
98.999500 804064.600000
102.033700 76684.600000
104.049400 1202702.600000
105.033500 37054696.000000
105.044700 12803654.000000
106.041600 95385.000000
107.060400 247874.900000
108.044200 92641.600000
109.064700 81653.700000
112.007400 275095.300000
113.002700 91062.600000
114.010500 109277.900000
115.053800 65164.500000
117.044600 7380696.500000
118.052500 16212398.000000
119.060300 2524726.000000
126.010400 2518811.800000
127.018300 243030.400000
128.026100 325512.800000
129.044600 983588.500000
130.040200 92167.400000
130.065000 69857.600000
131.060400 103283.000000
135.055200 1565666.900000
138.010500 345898.800000
139.005700 379622.200000
139.053900 199379.800000
140.026100 1214558.000000
140.049400 195272.300000
141.021400 695263.000000
141.034000 271678.600000
141.069900 88806.400000
145.050800 10109591.000000
146.047500 1699135.800000
147.055200 4444045.000000
148.063100 666759.000000
150.042600 94395.100000
152.013500 264594.300000
152.062000 78867.900000
153.021300 60709320.000000
154.065000 2849877.800000
155.037200 214256.200000
155.060300 82765.400000
155.072700 288992.700000
163.005600 100543.000000
164.049100 132845.700000
165.021400 1120946.400000
166.065100 9140219.000000
167.072900 14439420.000000
168.008400 238192.700000
168.068200 306516.700000
168.080600 1259423.400000
169.075900 292490.000000
169.088600 304106.300000
170.084100 115130.200000
178.064900 370995.500000
179.060300 656317.900000
179.072800 1127004.100000
180.068800 860836.000000
180.080600 4396760.000000
181.016200 6197684.500000
181.075900 13421945.000000
182.024000 6356731.000000
182.083800 6599598.500000
183.031900 1678893.100000
183.091600 220262.400000
184.075700 89588.300000
190.029400 276179.800000
190.041500 64815.100000
191.059800 236295.600000
193.076200 214179.200000
194.083900 653362.600000
195.091600 38451864.000000
196.075600 1576296.600000
196.099600 477550.100000
197.107200 67335.500000
200.025800 924568.800000
201.033700 270389.600000
202.029400 271948.800000
202.041700 1579970.500000
203.036900 3104786.500000
205.076300 738341.000000
206.083800 216422.100000
207.091700 6053270.000000
208.063000 1740012.400000
209.070900 6280822.000000
214.041700 1746531.100000
215.037000 35443596.000000
216.044900 31211932.000000
217.052600 3039922.200000
218.060600 352826.200000
221.070700 205317.000000
222.078500 74332.100000
223.086500 50240700.000000
224.094300 48170624.000000
229.028700 118238.300000
229.052400 1221295.400000
230.060700 682301.600000
231.068300 312327.700000
241.052800 72967.200000
243.031800 1249948.600000
244.039700 7289627.500000
255.068000 82489.500000
257.047500 727824.400000
258.055200 763772.300000
259.063100 4074333.200000

>ms2peaks
50.015100 4369301.500000
51.022900 3401386.800000
53.038600 8047005.000000
55.017800 598417.600000
62.014900 91276.300000
63.022900 3666233.000000
64.018100 286357.800000
64.030700 267044.200000
65.038500 8093980.500000
66.033800 126183.900000
66.046400 2456908.200000
67.041600 62035.300000
67.054200 120033.100000
68.997100 3922504.000000
72.983900 882122.000000
74.015000 119114.000000
75.022800 1174509.200000
76.018000 216155.400000
76.030400 57654.500000
77.038500 18699550.000000
78.033800 1289713.200000
78.046300 857694.600000
79.054100 232891.800000
80.049400 207956.400000
81.033500 1367534.900000
86.999600 445795.800000
89.038500 219866.700000
90.033800 19360850.000000
91.041600 5205538.000000
91.054200 4819402.000000
92.049400 12115337.000000
93.033500 68354.800000
93.044600 61369.600000
93.057300 1159007.800000
94.041300 551973.900000
95.049100 24399248.000000
96.044300 319806.500000
98.999500 5187970.500000
100.007200 69892.500000
100.018100 91728.500000
102.033700 408581.700000
102.046100 53676.900000
103.029100 78585.300000
103.041700 71309.000000
103.054200 82520.700000
104.049400 1680719.500000
105.033500 5717210.500000
105.044700 18060480.000000
106.028600 281523.100000
107.060200 264638.200000
108.044400 597252.200000
109.064800 73685.100000
110.999400 200905.400000
111.994800 275262.800000
112.007500 449495.800000
113.002600 350499.100000
114.010500 918855.100000
115.054200 525566.100000
116.049400 124864.300000
117.044700 12702078.000000
118.052500 27451178.000000
119.060300 6004201.000000
120.044300 237057.700000
123.995000 547435.600000
125.002800 335011.900000
126.010500 3035406.800000
127.018200 387138.800000
127.054000 553838.600000
128.026000 228530.400000
128.049400 846552.600000
128.062000 254003.400000
129.010200 352045.800000
129.044600 2682925.500000
130.040000 1225586.800000
130.065000 105567.700000
131.060300 215197.800000
133.039400 90481.100000
135.055200 1447316.100000
137.002700 216302.800000
138.010600 588501.400000
139.005700 1665466.500000
139.054200 2527960.800000
139.989800 943401.700000
140.026000 743998.600000
140.049400 2241578.500000
140.062000 342615.700000
141.021300 716135.200000
141.057300 72407.300000
141.069700 304728.000000
143.060500 118065.800000
145.050800 8582359.000000
145.064500 567722.400000
146.047700 92722.200000
146.060100 789473.400000
147.055300 2720428.200000
148.063000 590244.600000
150.042200 611307.300000
150.047100 53143.600000
151.054300 303270.100000
152.013900 589902.200000
152.049400 712993.900000
152.061900 640561.800000
153.021400 22417380.000000
154.065100 9764219.000000
155.060300 2049623.000000
156.068200 310839.100000
162.010700 74390.300000
163.005700 624693.400000
164.000800 435975.300000
164.049000 457009.800000
165.021400 1183290.000000
165.057200 101478.300000
166.065100 11379649.000000
167.072900 18833004.000000
168.008400 306130.500000
168.068200 2315576.800000
168.080500 1398858.100000
169.064800 535710.500000
169.075800 495059.000000
170.059700 635390.200000
170.083900 73517.900000
171.055300 478460.900000
174.010400 111662.500000
177.057200 251584.000000
178.065000 1225337.500000
179.060300 10150126.000000
179.072200 1615447.500000
180.068200 12138168.000000
180.080400 4591869.000000
181.016300 2775155.200000
181.075900 15317741.000000
182.024100 626196.200000
182.060200 748800.400000
182.083900 1884930.600000
183.031900 296012.500000
183.091100 63275.400000
188.026300 264490.000000
189.020900 70387.500000
190.029200 340737.000000
191.036800 241365.300000
191.060000 280648.100000
192.068100 81275.800000
193.076100 1097785.900000
194.083900 1589161.600000
195.091700 23942276.000000
196.075600 788965.400000
197.071100 573678.200000
200.026200 266736.400000
201.033600 182781.600000
202.029400 422421.700000
202.041500 71067.100000
203.036900 1079236.800000
205.076100 1167117.500000
206.083700 485522.800000
207.091600 1107334.000000
208.063100 2529599.200000
209.071000 1382483.000000
212.058300 85242.300000
214.029600 234009.900000
214.041800 603562.500000
215.037000 45961424.000000
216.044800 4439138.000000
217.052700 917732.800000
221.070500 97079.200000
222.078600 216674.100000
223.086500 6380805.500000
224.094400 549580.300000
229.052500 640883.062500
243.031700 110935.500000
244.039400 66343.900000
257.047100 116699.400000

>ms2peaks
50.015100 9379580.000000
51.022900 5967281.000000
52.018100 451128.200000
52.030800 70937.300000
53.002100 800223.500000
53.038600 6938006.000000
54.046400 271304.800000
55.017800 509014.600000
61.007300 121116.600000
61.979100 201950.900000
62.015000 850618.300000
63.022900 11249015.000000
64.018100 1691201.600000
64.030700 1241247.900000
65.002100 821825.400000
65.038500 15303511.000000
66.033800 213797.800000
66.046400 3164225.000000
67.041600 206881.000000
67.054200 82591.300000
68.997000 3610659.800000
72.983900 2893919.200000
74.015000 892087.900000
75.022800 5029099.500000
76.018100 1734164.400000
76.030600 333084.200000
77.038500 16912346.000000
78.033800 2299003.200000
78.046300 743097.200000
79.041600 113079.200000
79.054200 64342.200000
80.049400 300407.500000
81.033400 1732840.600000
84.983900 688882.400000
86.999600 970609.500000
88.030600 61558.000000
89.038500 979104.200000
90.033800 21865994.000000
91.041600 12434235.000000
91.054200 2264381.200000
92.049400 6781338.000000
93.033400 68124.000000
93.057300 887054.800000
94.041300 271119.600000
95.049100 20462740.000000
96.044300 315405.600000
96.983900 89351.400000
98.999500 7574253.000000
100.007500 105086.900000
100.018100 843963.100000
101.038400 192714.700000
102.033700 1182772.900000
102.046400 208647.300000
103.029000 408858.200000
103.041700 224184.300000
103.054200 406891.500000
104.049400 959552.900000
105.044700 15142488.000000
106.028800 127303.100000
106.041700 115094.100000
108.044300 630619.100000
110.059900 85431.300000
110.999500 544868.800000
111.994800 838422.300000
112.007400 214269.900000
113.002700 107659.100000
113.038400 695360.900000
114.010500 1696590.400000
114.033700 123581.800000
114.046400 224721.800000
115.054100 2084755.600000
116.036800 68799.100000
116.049400 432633.800000
117.044700 6300757.000000
117.057100 544501.600000
118.052500 20919956.000000
119.060300 4129648.500000
120.044200 419537.300000
123.994900 600577.200000
125.002700 720610.900000
125.038500 1063347.500000
126.010500 1458197.100000
126.046400 1005995.700000
127.018400 98279.500000
127.041600 462320.500000
127.054200 1878582.600000
128.049400 3429833.000000
128.061900 241423.500000
129.010200 653454.300000
129.044600 2244498.500000
129.057200 650906.300000
130.005500 207593.200000
130.039900 2256537.500000
130.064900 392929.200000
131.060300 246266.100000
132.057000 52873.500000
133.039500 87271.300000
135.055200 485278.600000
135.994800 116694.400000
137.002700 126223.300000
137.038500 117835.000000
138.010500 491742.800000
138.046100 113992.300000
139.005700 2153251.200000
139.054200 6325266.000000
139.989700 1197729.600000
140.049400 6092690.500000
140.061600 819289.100000
141.021400 242186.700000
141.057200 335313.700000
141.069800 420515.900000
142.052600 241212.400000
143.048900 200645.900000
143.060600 100468.500000
144.044400 67353.600000
145.050800 3209381.800000
145.064800 1191779.600000
146.060000 1370292.600000
147.055300 755260.600000
148.063200 61391.500000
150.041800 605723.600000
151.041900 94165.300000
151.054200 589068.600000
152.013500 290198.300000
152.049400 2311584.200000
152.062000 1398366.600000
153.021300 7497972.500000
153.044700 1327014.400000
153.057300 3451650.800000
154.065100 5527311.500000
155.060300 3819414.200000
156.068100 235450.900000
157.052000 74208.700000
162.010500 87164.400000
163.005400 738921.100000
164.000700 439001.100000
164.049400 864343.300000
165.021300 496487.600000
165.045100 94479.900000
165.057200 289167.600000
166.065100 8621106.000000
167.072900 10294633.000000
168.068200 1706469.100000
168.080300 588650.000000
169.064800 875120.100000
169.075900 225915.300000
170.060000 2688601.500000
171.055300 955330.600000
174.010400 69242.600000
177.057300 619407.800000
178.053000 78721.900000
178.065100 1376293.900000
179.060300 21983948.000000
180.056700 1050244.875000
180.068100 15958272.000000
180.079700 1588064.750000
181.016100 727045.100000
181.075900 5371014.500000
182.060000 207290.500000
182.083800 283827.300000
184.075300 59722.800000
188.026100 253139.800000
189.021100 75243.000000
191.037200 77170.400000
191.059600 48957.500000
192.068400 389428.200000
193.076000 1680999.900000
194.083800 1171131.000000
195.091600 2304063.500000
196.075600 52393.100000
197.070700 417504.600000
202.029000 196753.400000
205.076100 366934.100000
206.083600 196246.700000
208.063100 362739.300000
212.058100 312866.800000
214.028800 289461.281300
215.037000 11590588.000000
216.045000 279831.800000
223.086800 97339.200000

>ms2peaks
50.015100 12843644.000000
51.022900 10509767.000000
52.018200 807483.500000
52.030700 247914.400000
53.002200 1053044.800000
53.038600 4017781.800000
54.046400 418121.800000
55.017800 384915.000000
61.007200 346950.200000
61.979200 542220.600000
62.015100 1915051.400000
63.022900 16398743.000000
64.018100 3168174.000000
64.030700 2541887.800000
65.002200 1306817.600000
65.025900 836042.750000
65.038500 12146588.000000
66.010000 246535.953100
66.033800 257491.300000
66.046400 2056456.200000
67.041600 183919.000000
67.054300 71700.700000
68.997100 2501907.500000
72.983900 5750584.000000
74.015000 3027591.500000
75.022800 9284454.000000
76.018100 4492591.000000
76.030600 869740.500000
77.038500 9591105.000000
78.033800 2087800.600000
78.046300 694382.200000
79.041500 54455.500000
80.049500 100647.700000
81.033400 730051.600000
84.983900 916039.300000
86.999500 779921.600000
87.022800 371551.968800
88.018100 214352.218800
88.030700 323544.400000
89.038500 2301163.800000
90.033800 12099952.000000
91.041600 11731247.000000
91.054200 950016.200000
92.049400 2050967.100000
93.057200 442814.200000
94.041300 257609.500000
95.049100 10443100.000000
96.044300 345148.300000
96.983900 191081.700000
98.999500 4610762.000000
99.010200 306952.218800
99.022900 876575.250000
100.018100 1950468.000000
101.038400 429635.800000
102.033800 1803142.000000
102.046400 988584.600000
103.028900 338925.600000
103.041500 596771.800000
103.054200 297953.900000
104.049300 399104.500000
105.044700 8505901.000000
106.028600 97901.600000
106.041800 49960.700000
108.044300 366661.000000
109.064600 49216.600000
110.059900 63846.100000
110.999500 374294.300000
111.994700 605429.200000
112.007400 68020.700000
113.038500 2117294.500000
114.010400 766259.600000
114.033800 628258.900000
114.046300 311289.600000
115.054200 2503549.800000
116.036800 71221.100000
116.049300 466635.300000
117.044700 2503802.000000
117.057100 360246.000000
118.052500 10015938.000000
119.049100 274177.875000
119.060300 1149423.400000
120.044200 418684.700000
123.995000 343711.600000
125.002700 277614.300000
125.038500 2116795.500000
126.010500 499518.700000
126.033600 237514.921900
126.046400 2937710.500000
127.041600 1011243.400000
127.054100 1612705.000000
128.049400 2689867.500000
128.062000 226788.800000
129.010000 401261.200000
129.044600 2331620.200000
129.057300 484712.100000
130.005500 200748.200000
130.039900 2352857.200000
132.056700 103382.900000
133.039500 60500.200000
135.995000 182765.600000
137.002600 64837.600000
137.038500 311770.900000
138.010400 237810.800000
138.046300 249624.200000
139.005700 1332843.900000
139.054100 6829893.500000
139.989600 453384.400000
140.049400 5619613.000000
140.061500 492476.600000
141.057200 194584.000000
141.069900 96876.900000
142.052500 268986.600000
143.049100 319127.000000
144.044100 89870.300000
145.050800 687833.600000
145.064800 847836.200000
146.060000 855101.500000
147.055300 181572.600000
150.046900 604153.600000
151.041600 353704.400000
151.054100 213482.300000
152.049400 2349048.000000
152.062000 915732.200000
153.021400 1242173.900000
153.044600 1467161.100000
153.057200 2913740.200000
154.040000 466472.812500
154.052300 211615.093800
154.065100 1626714.000000
155.060300 2260750.800000
157.052300 57420.500000
163.005400 253515.100000
164.000800 366607.500000
164.049400 691314.900000
165.021800 75270.300000
165.044500 68877.000000
165.057000 232439.100000
166.065100 4303468.500000
167.060400 244402.937500
167.072900 2473953.800000
168.068000 384684.200000
169.064700 693005.700000
170.060000 2612975.000000
171.055300 458698.800000
177.057100 472887.400000
178.052300 206419.000000
178.065000 559622.600000
179.060300 13023793.000000
180.056000 864998.937500
180.068100 3505922.500000
180.080600 240984.800000
181.016200 61165.300000
181.075800 1066830.600000
192.068200 413481.400000
193.076200 602205.600000
194.083700 89729.200000
195.091200 50453.200000
197.070300 56201.600000
212.057700 55262.800000
214.029100 81626.500000
215.036900 805461.300000

