>compound EQ30312207
>parentmass 327.0781
>ionization [M+H]+
>formula C18H15O4P
>rt 786.000000
>profile orbitrap
#smiles_iso C1=CC=C(C=C1)OP(=O)(OC2=CC=CC=C2)OC3=CC=CC=C3
#smiles_can C1=CC=C(C=C1)OP(=O)(OC2=CC=CC=C2)OC3=CC=CC=C3
#inchikey XZZNDPSIHUTMOC-UHFFFAOYSA-N
#pubchem_id 8289
#mb_accession EQ363801,EQ363802,EQ363803,EQ363804,EQ363805,EQ363806,EQ363807,EQ363808,EQ363809

>ms2
77.038800 3368197.200000
152.062400 1386073.100000
326.070100 1171612.900000
327.078100 1079105920.000000

>ms2
77.038700 5061166.000000
95.049200 4205886.500000
98.984200 2116795.800000
105.044800 1344085.900000
152.061900 6968701.500000
153.070000 36762576.000000
171.080500 10527817.000000
175.015600 2940988.500000
215.025800 10514362.000000
227.085200 1127294.600000
228.093500 10933366.000000
229.101400 20011046.000000
233.036400 71079320.000000
251.046900 29156738.000000
291.057200 1309910.200000
309.067800 6867250.500000
326.070800 1052285.400000
327.078100 882664832.000000

>ms2
50.015100 1547869.200000
51.022800 1354927.500000
53.038600 15486783.000000
55.017800 1093445.600000
65.038600 1054755.000000
77.038500 39965744.000000
81.033500 1525411.800000
93.033600 3885444.800000
94.041300 1299765.000000
95.049200 51995868.000000
98.984200 2730825.200000
105.044800 29577100.000000
111.044200 938964.300000
121.028400 1739788.200000
128.062000 416989.600000
129.010100 352525.600000
138.994500 1405329.500000
140.002200 790754.600000
141.070100 753362.900000
143.085500 1082730.800000
151.054400 4665274.000000
152.062200 106560304.000000
153.069900 157402864.000000
154.077600 493926.800000
155.060500 367437.800000
157.005100 2368051.200000
168.057100 14371382.000000
169.064900 8906687.000000
170.072700 1527272.400000
171.080500 18795380.000000
175.015600 10621929.000000
179.060500 4537754.000000
181.076000 2225424.800000
187.030900 3484017.800000
189.046400 726770.800000
202.077700 5129014.500000
203.085500 1361923.900000
205.041300 1262663.900000
214.078200 318885.200000
215.025800 72553696.000000
216.033600 1949531.500000
226.077500 956663.200000
227.085700 9764501.000000
228.093500 54277360.000000
229.101400 26960812.000000
233.036400 205173920.000000
244.088400 1123366.000000
247.052100 2565115.000000
250.039400 489314.900000
251.046900 133525720.000000
291.057100 4163852.500000
309.067700 6148149.000000
327.078200 123088560.000000

>ms2
50.015100 5057215.000000
51.022900 3362897.800000
53.038600 27474854.000000
55.017900 1795615.000000
65.002200 331854.600000
65.038600 3871018.800000
68.997100 370585.500000
77.038500 76349960.000000
81.033500 3390496.000000
92.025600 330476.200000
93.033600 4126172.800000
94.041300 2471256.800000
95.049200 95114928.000000
98.984200 2316550.800000
103.054300 359440.200000
105.044800 60094940.000000
106.041800 408686.700000
109.064900 545728.200000
111.044100 1186419.800000
115.054200 465843.200000
121.028500 1699595.500000
127.054400 347025.600000
128.062200 1028189.100000
129.010200 511656.100000
138.994400 3990900.200000
140.002400 1198275.100000
141.070000 2800753.800000
142.077800 525343.800000
143.085700 530511.200000
145.064800 721976.700000
151.054300 8269954.000000
152.062100 200360880.000000
153.069900 86555840.000000
154.077700 442533.200000
155.049700 289088.500000
155.060500 1528937.800000
157.005000 3381395.200000
159.035700 426445.100000
168.057100 68336128.000000
169.064900 15523547.000000
170.072700 2593202.800000
171.080500 3467320.800000
175.015600 11444984.000000
179.060500 8281275.000000
181.075700 734621.800000
187.030800 11334062.000000
202.077800 5660397.500000
203.085500 983065.300000
205.041800 624839.000000
214.078200 320445.600000
215.025800 51414276.000000
216.033500 1201663.800000
226.077800 2288649.200000
227.085700 10709397.000000
228.093500 39530632.000000
229.101300 2774046.800000
233.036400 84588936.000000
244.088600 2252634.200000
247.052100 1917835.400000
250.039100 386781.800000
251.047000 57396680.000000
273.046300 525900.100000
291.056900 1329396.200000
309.067900 560189.000000
327.078400 2235466.000000

>ms2
50.015100 10267492.000000
51.023000 5828849.000000
53.038600 33474584.000000
55.017900 2173794.800000
65.002200 468650.200000
65.038600 8068473.000000
67.054200 630809.600000
68.997100 344693.600000
77.038600 88182088.000000
81.033500 3587353.500000
92.025600 884083.400000
93.033600 1920767.000000
94.041400 2879631.800000
95.049200 108250832.000000
98.984200 2182403.200000
101.015200 407437.400000
103.054300 416517.100000
105.044800 69293384.000000
106.041800 379975.600000
109.065000 624431.700000
111.044000 594220.200000
115.054200 1662179.800000
121.028500 869417.500000
126.046400 357543.000000
127.054400 1233926.100000
128.062200 824662.800000
129.010000 669836.900000
133.020000 854925.400000
138.994400 4462955.500000
139.054000 436588.700000
140.002300 857549.800000
141.069900 3944801.500000
142.077800 822407.400000
145.064800 1575376.400000
150.046700 873327.600000
151.054300 9535400.000000
152.062100 215049792.000000
153.069900 27891620.000000
154.077800 394051.300000
155.060400 3532727.800000
157.005000 2260164.800000
159.036000 1447390.200000
168.057100 83195360.000000
169.064900 18203486.000000
170.072700 1589439.800000
171.080600 357905.500000
175.015600 8890082.000000
179.060500 8553556.000000
186.022900 376702.800000
187.030800 10791065.000000
202.077800 6422218.500000
215.025800 21788896.000000
226.077900 5742010.000000
227.085600 11455921.000000
228.093500 16693468.000000
229.101300 342617.500000
233.036400 19744838.000000
244.088200 1810131.800000
247.051900 509827.300000
251.046900 6085082.500000
273.046600 311894.000000

>ms2
50.015100 16775880.000000
51.023000 9826577.000000
53.038600 33415112.000000
55.017900 1923782.400000
56.988900 404924.000000
65.002200 1685380.000000
65.038600 9021966.000000
67.054300 900920.600000
74.015000 506157.600000
75.022700 698738.800000
77.038500 99834008.000000
81.033500 4000216.000000
91.054300 441814.700000
92.025700 2305836.500000
93.033500 959847.100000
94.041300 3080286.200000
95.049200 106229192.000000
98.984200 2075824.100000
101.015100 496139.000000
103.054300 724848.600000
105.044800 73106400.000000
106.041900 377950.400000
109.064900 521113.200000
111.044300 330639.900000
115.054200 4490935.000000
121.028500 689013.200000
125.038500 334592.900000
126.046500 969265.700000
127.054300 3881540.200000
128.062100 1107132.400000
133.020200 4079312.500000
138.994400 3660196.200000
139.054300 2915878.000000
140.002300 506700.800000
140.062200 1482006.600000
141.069900 4408475.500000
142.077900 655099.900000
145.064800 2666206.500000
150.046500 4229454.000000
151.054300 11819014.000000
152.062100 244006480.000000
153.069900 7518800.000000
155.060400 6574003.500000
157.005000 1417416.100000
157.020200 366399.200000
159.035800 2006253.900000
168.057000 86604832.000000
169.064800 18724102.000000
170.072500 723471.000000
175.015500 5426094.500000
179.060400 8818495.000000
186.023200 1293523.400000
187.030800 7120405.000000
200.062200 318183.600000
202.077800 7851133.500000
213.069700 657164.100000
215.025700 6788775.000000
215.085700 578372.000000
226.077800 15742941.000000
227.085600 9189565.000000
228.093400 6864281.000000
233.036400 3417821.800000
244.088500 876504.600000
251.046300 326454.900000

>ms2
50.015200 39101560.000000
51.023000 26898214.000000
53.038600 18514112.000000
55.017900 1160010.400000
56.988800 631431.500000
63.023000 403312.100000
65.002200 3530546.800000
65.038600 7191285.500000
66.010000 683344.200000
66.046400 529751.000000
67.054300 541938.500000
68.997100 170163.900000
74.015100 693417.400000
75.022900 1940910.800000
76.030700 491095.200000
77.038600 68331896.000000
78.046400 2113405.000000
81.033500 2170343.800000
89.038500 154713.300000
90.046600 154559.000000
91.054300 526021.900000
92.025700 3163328.800000
94.041400 2186640.000000
95.049200 57235268.000000
98.984200 2227444.500000
99.023000 390493.600000
101.015300 382214.500000
101.038700 528327.000000
102.046400 4055468.500000
103.054200 643732.300000
105.044800 39515704.000000
106.041900 377840.800000
107.004600 305005.200000
109.065000 166822.800000
114.046500 516159.000000
115.054300 7480035.000000
118.041300 320427.600000
119.049300 351408.200000
125.038600 2232834.000000
126.046500 11150435.000000
127.054300 5358168.500000
128.062100 1053118.000000
129.044800 1248601.000000
133.020200 3503166.800000
138.994600 1291240.800000
139.054300 24333254.000000
140.062100 3813930.500000
141.069900 2092461.200000
143.049400 296713.500000
145.064800 1984418.000000
149.038700 370770.800000
150.046500 16248925.000000
151.054300 14150254.000000
152.062100 143039808.000000
153.070100 308183.800000
155.060400 5278161.500000
157.005400 153640.200000
157.020300 822714.100000
159.035900 364392.100000
168.057100 29260996.000000
169.064900 27248052.000000
175.015500 314120.400000
179.060500 11799121.000000
183.080500 387685.400000
186.023200 892773.100000
187.030900 425219.700000
189.069900 463215.100000
200.062300 1209138.000000
201.069800 1431337.600000
202.077800 3717502.000000
205.064900 328342.000000
213.070100 762196.900000
215.085800 577545.100000
219.080400 361543.900000
224.062200 394372.200000
225.070100 665354.100000
226.077900 17908766.000000
227.086000 677282.800000
228.093300 150954.200000
243.080900 386700.000000

>ms2
50.015200 61836184.000000
51.023000 52702900.000000
52.018200 129787.600000
52.030800 344373.700000
53.002200 1391078.200000
53.038600 8085459.500000
55.017900 574126.700000
56.988800 523494.700000
62.015200 309766.000000
63.022900 1084494.500000
64.030800 397684.700000
65.002200 5218105.000000
65.038600 4086065.500000
66.010100 787992.700000
66.046500 757055.200000
67.054200 183789.900000
68.988900 176563.100000
74.015100 3102738.800000
75.022900 5100326.500000
76.030800 3187894.200000
77.038600 29165502.000000
78.046400 4735951.000000
81.033500 1091969.000000
86.015100 361274.500000
87.023000 808835.300000
88.030800 549078.100000
89.038600 1771832.100000
90.046600 529907.900000
91.018000 95245.900000
91.054200 634929.400000
92.025800 1957550.400000
94.041400 1081711.500000
95.049200 23611160.000000
98.015100 1282696.600000
98.984200 1648396.800000
99.023100 1645367.200000
100.030800 939421.400000
101.015200 111963.300000
101.038700 641773.600000
102.046500 10961015.000000
103.054400 179974.200000
105.044800 16944972.000000
106.041800 97706.000000
107.004600 985446.300000
109.065100 116518.100000
110.015200 136795.900000
113.038600 1079327.500000
114.046500 1038704.100000
115.054300 5828765.500000
118.041300 398593.400000
119.049200 331145.800000
123.022700 116337.800000
124.030900 123939.900000
125.038700 2918185.500000
126.046500 24724174.000000
127.054300 1780073.200000
128.062300 619015.200000
129.044700 1478718.100000
132.057200 348325.600000
133.020300 1292883.400000
139.054400 27856458.000000
140.062200 846050.100000
141.070100 481025.800000
142.041400 110346.800000
143.049400 94231.400000
145.065000 676485.200000
149.038700 728047.600000
150.046600 25318652.000000
151.054400 11458567.000000
152.062200 42264196.000000
153.044800 172786.500000
155.049600 157637.400000
155.060500 1715085.400000
157.020300 932484.900000
167.049100 146674.100000
168.057100 3073536.800000
169.065000 26081166.000000
174.046300 95603.500000
176.062200 407543.300000
179.060600 9342347.000000
183.080800 374907.400000
185.060100 145299.900000
187.054400 358554.000000
189.070000 173963.800000
199.054200 85043.800000
200.062300 2564375.800000
201.069700 353240.500000
202.078000 505931.200000
205.065200 121613.400000
213.069600 297266.000000
219.080000 84507.200000
224.062300 3220704.500000
225.070200 1588238.800000
226.077900 4966726.500000
229.065400 578206.000000
243.081000 928304.400000
257.059300 128615.800000

>ms2
50.015200 65290180.000000
51.023000 62406312.000000
52.018200 309719.700000
52.030800 1285038.100000
53.002200 2111235.500000
53.038600 3965065.000000
55.017900 535657.300000
56.988900 465617.000000
62.015100 1027090.600000
63.023000 3834967.800000
64.030800 523890.400000
65.002200 8036352.000000
65.038600 3583560.800000
66.010100 1685805.100000
66.046400 645711.600000
67.054300 77501.900000
68.988900 331385.800000
74.015100 9903031.000000
75.022900 8615110.000000
76.030700 8627070.000000
77.013400 1152396.000000
77.038600 13085648.000000
78.046400 5221297.500000
81.033600 1187271.000000
86.015100 1516600.400000
87.023000 2703141.000000
88.030700 869923.600000
89.038600 4474229.500000
90.046500 366068.300000
91.018000 175508.800000
91.054400 463631.600000
92.025700 555040.800000
94.041400 353771.100000
95.049200 10479639.000000
98.015200 4959140.500000
98.984200 1242507.900000
99.023000 3797186.500000
100.030800 1967375.800000
101.038700 468077.600000
102.046500 10655624.000000
105.044800 7768801.000000
107.004700 613982.800000
110.015200 457532.000000
111.023000 680948.125000
113.038600 2771633.200000
114.046400 683368.900000
115.054300 3283787.200000
118.041500 131850.300000
119.049300 153182.500000
123.023000 294404.800000
124.031000 601423.300000
125.038700 3457903.500000
126.046500 19214908.000000
127.054300 452911.300000
128.062200 268540.800000
129.044800 932418.400000
132.057200 288780.800000
133.020400 135644.800000
139.054300 14647380.000000
143.049400 444043.300000
145.065300 120734.100000
149.038800 982681.200000
150.046600 26690886.000000
151.054300 5137599.000000
152.062200 6831455.000000
153.044700 354653.700000
155.060400 357665.200000
157.020300 678258.800000
167.049300 142209.300000
168.057300 151997.600000
169.065000 11482722.000000
174.046900 442033.400000
176.062100 173636.200000
179.060600 4130270.800000
185.060100 128217.500000
187.054700 326167.700000
199.054700 274265.700000
200.062200 2461942.800000
201.070100 106136.400000
213.070100 138544.700000
219.080200 84037.100000
224.062200 5355770.000000
225.070000 610450.700000
226.078300 441507.900000
243.080500 460856.300000
257.060400 139040.500000

