>compound EQ30976118
>parentmass 345.0767
>ionization [M+H]+
>formula C15H18Cl2N2O3
>rt 924.000000
>profile orbitrap
#smiles_iso CC(C)OC1=C(C=C(C(=C1)N2C(=O)OC(=N2)C(C)(C)C)Cl)Cl
#smiles_can CC(C)OC1=C(C=C(C(=C1)N2C(=O)OC(=N2)C(C)(C)C)Cl)Cl
#inchikey CHNUNORXWHYHNE-UHFFFAOYSA-N
#pubchem_id 29732
#mb_accession EQ370401,EQ370402,EQ370403,EQ370404,EQ370405,EQ370406,EQ370407,EQ370408,EQ370409

>ms2
57.069700 40355.600000
219.956300 483702.100000
267.053000 31904.900000
285.063900 30435.300000
303.029700 8910759.000000
321.040000 18287.400000
335.055700 35221.800000
345.076700 3705838.500000

>ms2
57.069900 213768.100000
84.080800 20208.100000
147.971500 26331.600000
148.955500 12132.800000
155.000600 18261.400000
173.951000 8498.700000
175.966500 84963.000000
176.950500 1234924.900000
182.995600 38517.500000
183.979700 264398.500000
184.987500 867482.900000
195.068400 42717.200000
201.945800 133779.900000
202.952300 9082.200000
202.977400 33581.000000
217.039500 10387.400000
218.972600 44916.500000
219.956300 7541836.000000
223.063600 17250.400000
224.071400 15546.400000
239.058000 24673.700000
246.967400 19568.900000
259.040000 117707.100000
267.052500 8747.300000
303.029800 3450837.800000
335.055700 8032.800000
345.076700 190801.200000

>ms2
53.002200 17186.200000
57.069900 247687.200000
69.069900 5527.600000
71.085500 5214.500000
72.983700 5094.100000
84.080800 18043.600000
84.983900 9035.200000
91.054300 5210.700000
94.028700 5188.600000
111.994800 10954.900000
112.039400 5646.600000
112.978900 19426.300000
120.960500 6101.300000
127.989900 15842.300000
128.997500 19130.600000
130.005500 24587.600000
139.006000 16252.000000
139.989900 31751.700000
140.973800 61861.300000
140.997700 8099.300000
147.971600 135808.400000
148.003100 28730.400000
148.955600 285493.400000
155.000600 14098.500000
155.984800 115724.400000
163.966500 22365.400000
173.951000 197862.200000
174.970900 9289.400000
175.966700 199843.600000
176.950500 4468246.000000
182.995700 34727.000000
183.979700 924606.100000
184.987500 3779967.500000
190.976900 10742.700000
191.961500 33163.700000
195.068400 27280.200000
201.945800 453186.900000
202.953300 28675.600000
202.977600 37373.800000
208.977000 12516.300000
217.038400 6769.500000
218.972400 21678.900000
219.956400 3020223.000000
223.063200 5222.200000
224.071200 8283.800000
246.967600 11639.500000
259.040500 16249.200000
303.029900 92811.300000

>ms2
53.002100 50519.600000
57.069900 209646.800000
62.963200 11004.400000
69.992300 9152.400000
72.983900 33275.600000
76.018100 14767.400000
81.069800 5754.500000
82.028700 5517.900000
84.080800 8221.400000
84.983800 25910.800000
90.010500 14853.600000
91.054200 5662.100000
94.028600 28865.600000
98.999500 6737.500000
99.994800 17126.900000
101.002700 7435.400000
101.986700 6026.800000
104.013100 13268.000000
109.979100 11334.000000
111.994800 43133.500000
112.039300 14337.500000
112.978900 198443.100000
120.008000 22990.000000
120.960700 48917.400000
122.023700 52101.200000
127.989800 96597.800000
128.997600 340948.400000
129.981700 50499.300000
130.005500 56339.200000
139.005700 11038.500000
139.989800 52019.200000
140.973800 434172.300000
145.955900 20010.800000
147.971600 168199.700000
148.003000 95166.100000
148.955600 1145733.000000
155.000500 9967.000000
155.984700 310360.700000
156.992500 48081.200000
158.000400 5853.900000
163.966500 73955.000000
166.966300 9027.900000
173.950900 483490.100000
174.971000 6720.400000
175.966600 91206.500000
176.950500 3740328.000000
180.981900 5496.000000
182.995500 16839.200000
183.979700 519002.800000
184.987400 3927105.800000
190.976900 9338.700000
191.961400 45338.400000
201.945800 208476.900000
202.953300 35007.900000
202.977300 8033.200000
208.976900 13827.700000
219.956400 298132.800000

>ms2
50.015100 8510.400000
52.018200 5855.300000
53.002200 137405.500000
55.054200 4879.600000
57.069900 181060.100000
61.979200 6660.000000
62.963200 77933.900000
64.018200 13008.900000
65.026000 5661.900000
66.033900 10456.800000
67.017800 5674.900000
67.054200 2967.200000
68.013100 8852.500000
69.992400 49475.600000
72.983900 106710.000000
74.096400 2601.500000
76.018100 62619.900000
77.002100 3055.500000
78.033800 24345.600000
80.013100 5447.600000
81.069900 3195.900000
82.028800 25296.800000
84.080700 5741.600000
84.983900 219834.600000
85.991800 7168.300000
86.963200 11165.800000
87.994700 2697.700000
88.978900 24531.100000
90.010600 45373.900000
91.054300 5965.000000
92.013100 11048.500000
93.021000 29251.500000
94.028800 245403.500000
95.012800 5672.000000
98.999600 9033.900000
99.994900 57976.200000
101.002700 74613.600000
101.986700 54169.300000
104.013100 19506.500000
109.979200 78767.700000
111.994900 81189.200000
112.039400 16691.200000
112.978900 972991.200000
113.974100 5559.400000
118.005300 6694.200000
120.008000 51218.000000
120.960700 176566.500000
122.023700 231516.400000
127.989800 161168.800000
128.997600 1270443.600000
129.981700 268671.800000
130.005500 58060.200000
131.013400 5332.500000
135.971700 5257.400000
138.982000 2989.400000
139.005800 7127.500000
139.989900 41085.300000
140.973800 908175.000000
141.981700 6318.200000
144.992300 2695.000000
145.956000 74681.100000
146.000400 7818.900000
147.971600 124370.700000
148.003000 84562.400000
148.955600 1928676.000000
155.000600 8555.500000
155.984700 248070.200000
156.992600 113975.000000
158.000600 3011.800000
160.987500 5927.500000
162.982700 2653.500000
163.966500 115804.100000
166.966500 15784.000000
172.999800 2617.700000
173.950900 506364.400000
175.966600 23474.700000
176.950500 1946289.200000
180.981800 7461.500000
182.995500 7077.500000
183.979700 138632.400000
184.003400 20912.500000
184.987500 2437274.200000
190.977000 3104.600000
191.961400 16247.200000
201.945800 47089.400000
202.953500 41391.400000
208.976600 5066.500000
219.956400 25028.700000

>ms2
50.014900 19045.600000
51.022800 2576.600000
52.018100 12784.700000
53.002200 271010.400000
54.033800 2177.300000
55.017900 13368.600000
55.054300 7016.400000
56.049500 1996.700000
57.069900 105122.400000
59.976000 5025.600000
60.983900 7404.600000
61.979300 19220.100000
62.963200 290961.200000
64.018200 38315.000000
65.026000 32232.400000
66.010000 2648.000000
66.033800 32638.200000
67.017800 17323.700000
67.054200 6018.600000
68.013100 17184.800000
68.997100 2824.500000
69.992400 71165.100000
72.983900 163094.800000
74.096500 1937.000000
75.010300 6590.800000
76.018100 125713.100000
77.002100 14051.400000
77.025900 5998.200000
78.033800 63056.300000
79.017800 6778.800000
79.054200 2556.400000
80.013100 5555.500000
82.028700 18511.400000
83.036500 1985.300000
84.080500 1763.400000
84.984000 681149.300000
85.979200 4908.800000
85.991800 18698.100000
86.963200 43808.600000
87.994800 2070.100000
88.978900 77734.100000
90.010600 34818.700000
91.054400 7898.800000
92.013100 10893.300000
93.021000 64099.100000
94.028800 749485.800000
95.012800 27482.800000
96.044400 1907.700000
98.999600 3064.700000
99.994900 77040.000000
101.002700 183662.500000
101.986700 154731.000000
104.013000 13186.200000
104.997100 5780.300000
105.070100 1675.600000
106.005100 2691.000000
106.028800 2032.500000
108.960700 2665.600000
109.979200 205365.200000
110.987000 7142.200000
111.994900 93023.500000
112.039400 16745.300000
112.978900 1592158.800000
113.974200 8599.800000
113.986700 5470.900000
118.005300 7506.600000
118.945000 2939.600000
120.008100 46270.300000
120.960700 298584.800000
122.023700 311284.100000
127.989800 130678.000000
128.997600 1342542.400000
129.981700 340152.700000
130.005500 40095.900000
131.013100 5477.100000
131.984500 3070.400000
135.971700 4801.600000
138.982000 6874.400000
139.006200 6695.200000
139.989900 21797.600000
140.973800 641179.600000
140.997600 37698.700000
141.981700 6875.700000
144.992600 5624.700000
145.956000 83274.100000
146.000400 7948.800000
146.963900 1608.000000
147.971600 74373.800000
148.002900 25251.300000
148.955600 1487856.800000
155.000700 5144.800000
155.984700 96838.500000
156.992600 64664.600000
158.000900 1668.900000
158.984600 2620.500000
160.987700 9354.500000
161.023900 5723.500000
162.982600 6255.700000
163.966500 69496.100000
166.966300 14498.600000
172.999800 2178.500000
173.950900 223621.000000
175.966500 2635.000000
176.950500 526351.400000
180.981900 4938.800000
183.979800 26189.600000
184.003700 13096.700000
184.987500 690350.700000
191.961700 2148.100000
201.946100 7716.300000
202.953500 21238.500000
219.956700 1859.400000

>ms2
50.015100 54002.600000
51.023000 5452.700000
52.018200 18900.000000
53.002200 695246.200000
53.997500 5819.100000
54.033800 1779.500000
55.017900 17065.900000
55.054200 2986.900000
56.049500 14912.500000
57.069900 40945.400000
59.049200 1813.400000
59.976000 1792.500000
60.984000 32305.900000
61.979200 53838.900000
62.963200 760109.900000
64.018200 59230.500000
65.002200 7712.800000
65.026000 103389.000000
66.010000 16624.900000
66.033800 174341.200000
67.017900 60332.300000
68.013100 54127.300000
68.997100 5137.900000
69.992400 61374.000000
72.983900 226673.000000
73.991800 12498.600000
74.096400 2296.100000
75.010300 72279.300000
76.018200 303777.400000
77.002100 57811.500000
77.026000 14552.200000
78.010100 8355.500000
78.033800 88313.100000
79.017800 22324.500000
80.013100 1709.500000
82.028800 4620.000000
82.945200 1787.000000
83.976200 6660.600000
84.984000 1685796.500000
85.979200 17475.400000
85.991700 44883.600000
86.963300 174590.500000
87.994800 4701.000000
88.978900 219981.000000
90.010600 9222.700000
91.054200 5599.300000
92.013100 8465.500000
93.021000 49229.500000
94.028800 1164940.800000
95.012800 68429.700000
96.044400 2708.200000
96.983700 2191.700000
99.994800 44222.400000
101.002700 206694.400000
101.986700 207719.800000
104.013000 10019.700000
106.004800 1843.000000
106.028700 6172.700000
106.945100 9114.500000
108.960700 2946.300000
109.979200 286782.800000
110.987000 27585.600000
111.994900 74573.700000
112.039300 16647.600000
112.978900 872967.500000
113.974000 2734.700000
118.945100 8171.400000
119.953000 2069.500000
120.008100 7157.100000
120.960700 191096.100000
122.023700 106657.200000
127.989800 48441.400000
128.997600 301041.900000
129.981700 121077.600000
130.005400 14621.800000
130.945000 2407.900000
139.989800 11215.700000
140.973800 70043.900000
140.997700 8466.800000
144.992700 2825.300000
145.955900 18809.200000
147.971500 16698.500000
148.955600 304436.200000
160.987500 5663.400000
163.966400 9224.200000
166.966400 4536.300000
173.951100 19636.300000
176.950500 14486.200000
184.987500 16640.400000

>ms2
50.015100 149583.400000
51.023000 21855.900000
52.018200 36503.700000
53.002200 884392.300000
53.997400 8563.700000
55.017900 14781.900000
56.049500 12308.000000
57.069900 11559.400000
59.976200 6044.200000
60.984000 103938.300000
61.979200 57533.900000
62.963200 788341.700000
64.018200 55530.400000
65.002200 28246.000000
65.026000 95849.400000
66.010000 25884.200000
66.033800 225401.500000
67.017800 58185.900000
68.013100 87421.400000
68.997000 7787.600000
69.992400 44023.200000
72.983900 200687.000000
73.991700 11884.800000
74.096400 1637.700000
75.010300 194669.100000
76.018100 506618.500000
77.002100 71391.800000
77.025900 13140.400000
78.010200 10862.200000
78.033800 60752.400000
79.017800 18995.500000
82.945000 5347.400000
83.976200 20992.700000
84.983900 1392352.400000
85.979200 19966.100000
85.991800 28212.500000
86.963200 280323.400000
88.978900 191282.800000
90.010500 2348.700000
91.054100 4975.100000
92.013200 1752.600000
93.021000 10237.000000
94.028800 468867.700000
95.012800 52077.300000
96.984000 5286.000000
99.994900 7853.000000
101.002700 68048.600000
101.986700 96874.700000
104.013000 2419.200000
106.028800 1529.000000
106.945000 15430.100000
109.979200 152089.300000
110.987100 20129.600000
111.994900 34020.700000
112.039300 11531.700000
112.978900 180272.700000
114.010400 2347.300000
118.944900 5340.200000
119.953000 1518.600000
120.960700 43007.600000
122.023700 15031.600000
127.989800 11390.600000
128.997600 20976.000000
129.981700 12559.400000
130.005600 6040.900000
140.973700 4257.200000
148.955700 25988.200000
160.987200 1651.800000

>ms2
50.015200 313778.300000
51.023000 44752.600000
52.018200 54260.900000
53.002200 945739.500000
53.997500 19686.900000
55.017900 8787.100000
56.049500 4925.000000
57.069900 4017.500000
59.976100 7675.200000
60.984000 164254.200000
61.979200 66459.000000
62.015100 5250.000000
62.963200 644084.000000
64.018200 51841.200000
65.002200 81438.200000
65.026000 79492.900000
66.010000 38858.000000
66.033800 129527.600000
67.017800 33312.100000
68.013100 96337.200000
68.997100 12236.700000
69.992400 35819.800000
71.976100 1689.700000
72.984000 177522.500000
73.991700 4881.200000
74.096300 1068.700000
75.010300 295042.700000
76.018200 581858.900000
77.002200 83052.400000
77.026000 10172.400000
78.010000 6376.500000
78.033900 26708.100000
79.017800 11807.500000
82.945000 10470.100000
83.976200 39944.600000
84.984000 776263.800000
85.979200 17970.000000
85.991800 12300.300000
86.963300 297525.500000
87.995000 2038.900000
88.018200 1560.200000
88.978900 94793.700000
91.054300 1914.600000
94.028800 95034.600000
95.012800 15549.900000
96.984000 4761.000000
101.002700 16913.400000
101.986700 25000.700000
106.945000 15238.600000
109.979200 49259.200000
110.987100 5149.400000
111.994900 9369.800000
112.039400 5047.800000
112.978900 30429.800000
115.054300 1489.800000
118.944900 2023.000000
120.960700 4961.200000
127.989700 1804.800000
130.944800 999.900000

