>compound EQ31600843
>parentmass 217.0415
>ionization [M+H]+
>formula C13H9ClO
>rt 732.000000
>profile orbitrap
#smiles_iso C1=CC=C(C=C1)C(=O)C2=CC=C(C=C2)Cl
#smiles_can C1=CC=C(C=C1)C(=O)C2=CC=C(C=C2)Cl
#inchikey UGVRJVHOJNYEHR-UHFFFAOYSA-N
#pubchem_id 8653
#mb_accession EQ338001,EQ338002,EQ338003,EQ338004,EQ338005,EQ338006,EQ338007,EQ338008,EQ338009

>ms2
75.022800 185853.800000
77.038400 527614.100000
89.059700 176491.500000
105.033500 28822888.000000
110.999100 677505.400000
111.044200 208195.000000
138.994500 86928048.000000
217.041500 161636688.000000

>ms2
50.015000 157001.200000
51.022900 135906.400000
77.038200 397978.100000
95.049100 270599.800000
105.033500 43709356.000000
110.999400 597177.900000
111.044100 453381.200000
138.994500 125221200.000000
217.041500 71742088.000000

>ms2
53.038600 556706.300000
75.022600 291871.500000
77.038400 1090651.800000
83.049100 228063.300000
86.999500 382870.700000
93.033500 135825.600000
95.049100 1691764.100000
101.059600 182760.100000
105.033500 48863152.000000
110.999500 552435.900000
111.044100 655754.400000
129.010100 1137522.900000
138.994500 133210072.000000
217.041500 5353128.000000

>ms2
50.015000 502095.400000
51.022800 399816.400000
53.038600 1841381.500000
55.017800 161620.500000
55.054200 344960.600000
75.022600 414637.800000
77.038500 3405289.800000
79.017800 336789.300000
80.025600 162975.100000
81.033500 155419.900000
83.049000 468526.000000
86.999600 2016292.900000
93.033500 886755.100000
94.041300 335746.800000
95.049200 7075044.000000
101.059700 164101.100000
105.033500 40922716.000000
105.044700 3860188.200000
110.999500 1069159.900000
111.044000 767854.100000
114.994500 191818.700000
128.002200 112606.100000
129.010200 7702895.500000
138.994500 110888792.000000
139.005500 24687678.000000
140.002700 168210.200000
217.041200 220607.300000

>ms2
50.015100 993284.300000
51.022900 726010.100000
53.002200 357169.900000
53.038600 3312951.500000
55.017900 466977.400000
55.054200 503417.300000
60.983900 127874.500000
65.038500 209039.700000
74.015000 120768.400000
75.022900 2381262.000000
77.038500 6598152.000000
79.017800 810623.200000
80.025700 391348.800000
81.033500 377700.800000
83.049100 413426.400000
84.983800 86264.600000
86.999600 4692933.000000
93.033500 1951699.800000
94.041300 786227.200000
95.049100 14246959.000000
101.059700 109211.200000
105.033500 25117422.000000
105.044700 7373179.500000
110.999500 3053673.200000
111.044000 1073291.000000
114.994500 451438.800000
121.039600 201478.200000
128.002200 280806.100000
129.010200 19668960.000000
138.994600 62047856.000000
139.005600 51201144.000000
140.002700 371517.900000

>ms2
50.015100 1155896.500000
51.022900 986086.100000
53.002200 965080.800000
53.038600 4446606.000000
55.017900 576750.400000
55.054200 419341.000000
60.984000 108951.500000
62.963200 107546.500000
65.038500 365916.400000
74.015000 505881.900000
75.022900 10827679.000000
76.030700 106429.300000
77.038500 9204171.000000
79.017800 962815.400000
80.025600 535380.200000
81.033500 525212.100000
83.049000 241991.800000
84.983900 546773.300000
86.999600 7124858.500000
93.033600 2777819.000000
94.041400 1020405.200000
95.049200 19830992.000000
98.036200 152195.700000
105.033600 12908126.000000
105.044800 9818659.000000
108.020500 107518.700000
110.999600 7060469.500000
111.044100 1278519.100000
114.994500 736965.400000
121.039700 437553.100000
128.002300 251541.600000
129.010200 27049930.000000
138.994700 27536702.000000
139.005700 65280448.000000
140.002800 447481.000000

>ms2
50.015100 2417970.800000
51.022900 1321200.200000
53.002200 2341016.800000
53.038600 3467401.200000
55.017900 520285.200000
55.054200 267909.100000
60.983900 125479.800000
65.002200 118114.800000
65.038600 699594.300000
74.015100 3818190.800000
75.022900 41633664.000000
76.030700 552454.400000
77.038500 9242240.000000
79.017800 518016.700000
80.025700 334047.100000
81.033500 341029.400000
84.984000 3082479.000000
86.999600 3711474.800000
93.033600 1401464.400000
94.041300 668454.200000
95.049200 15635188.000000
98.036200 90860.300000
105.033600 1705681.600000
105.044800 8008063.500000
108.020600 92157.900000
109.064800 79973.000000
110.999600 8687441.000000
111.044100 754638.700000
114.994600 384396.000000
121.039500 223035.200000
128.002300 146273.100000
129.010200 15339252.000000
138.994800 2413741.500000
139.005800 33061322.000000
140.002900 221141.800000

>ms2
50.015100 4945167.000000
51.023000 2770351.500000
53.002200 2051640.400000
53.038600 2360156.000000
55.017800 264398.300000
55.054200 151986.700000
60.984000 315111.700000
61.007200 97650.600000
65.002200 338416.200000
65.038600 730264.400000
73.007100 79860.500000
74.015100 16437449.000000
75.022900 67214728.000000
76.030700 1609020.200000
77.038500 7360318.000000
79.017800 170157.500000
80.025600 139749.800000
81.033500 261676.200000
84.983900 7416764.500000
86.999600 1523760.600000
89.002100 136998.100000
93.033500 527542.400000
94.041400 365911.000000
95.049200 10187807.000000
105.044800 5516955.500000
110.999600 4791813.500000
111.044100 318665.800000
114.994600 111458.500000
121.039600 108511.800000
129.010200 5505491.000000
139.005800 11412351.000000
140.002800 123021.900000

>ms2
50.015100 8565662.000000
51.023000 4497381.000000
53.002200 1158459.800000
53.038600 1085660.100000
55.017900 96237.700000
60.984000 675063.000000
61.007200 169502.500000
63.022900 164308.200000
65.002200 760770.700000
65.038600 282302.800000
66.010000 175693.400000
73.007200 100512.700000
74.015100 34101328.000000
75.022900 55049732.000000
76.030700 1984220.100000
77.038500 3836933.800000
81.033600 151195.000000
84.984000 8021394.500000
86.999700 254867.400000
89.002200 290832.500000
94.041300 107108.100000
95.049200 4247464.500000
105.044800 2385590.000000
110.999600 1456011.800000
111.044100 117332.300000
129.010200 1293460.800000
139.005800 2484321.800000

