>compound EQ31394225
>parentmass 207.14920000000004
>ionization [M+H]+
>formula C12H18N2O
>rt 228.000000
>profile orbitrap
#smiles_iso CCNCC(=O)NC1=C(C=CC=C1C)C
#smiles_can CCNCC(=O)NC1=C(C=CC=C1C)C
#inchikey WRMRXPASUROZGT-UHFFFAOYSA-N
#pubchem_id 24415
#mb_accession EQ347101,EQ347102,EQ347103,EQ347104,EQ347105,EQ347106,EQ347107,EQ347108,EQ347109

>ms2peaks
58.065100 817664960.000000
122.096400 25864184.000000
207.149300 344670400.000000

>ms2peaks
58.065100 904553088.000000
122.096400 26546900.000000
150.091500 1281159.400000
207.149300 110686576.000000

>ms2peaks
58.065100 800116160.000000
122.096500 21588394.000000
150.091500 3498403.200000
207.149400 3095485.000000

>ms2peaks
58.065100 776898688.000000
105.069900 2937453.000000
107.073000 2895735.800000
122.096500 20815120.000000
123.080500 2313884.200000
132.080800 2847269.800000
150.091400 4164460.500000

>ms2peaks
58.065100 589102016.000000
79.054300 873827.100000
105.069900 7911107.500000
107.073000 8099261.500000
117.057300 1491945.500000
122.096400 12392958.000000
123.080500 2651979.800000
132.080700 1811965.500000
133.076200 776181.300000
150.091400 1358411.000000

>ms2peaks
58.065100 407327168.000000
79.054200 2545860.000000
103.054300 1419641.500000
105.069900 9262597.000000
106.065200 1784418.200000
107.073000 13939092.000000
117.057300 2322152.500000
122.096500 6032569.000000
123.080400 1691148.100000
132.081000 1025405.800000

>ms2peaks
51.022900 313921.500000
53.038600 1097652.000000
58.065200 144801744.000000
65.038500 170566.500000
67.054200 384684.200000
77.038500 970313.500000
79.054200 5374675.500000
89.038600 150938.500000
91.054200 623360.900000
95.049300 1979208.100000
103.054200 2859744.000000
105.044800 1630675.500000
105.070000 4076131.200000
106.065200 9405869.000000
107.073000 9214034.000000
108.056900 323889.600000
117.057400 1662648.600000
118.065100 239359.800000
120.081000 210581.400000
122.096500 380314.200000

>ms2peaks
51.022900 1755142.900000
53.038600 1923338.800000
58.065200 47824756.000000
65.038700 803253.900000
67.054400 265240.800000
77.038500 2700232.800000
79.054200 5120919.000000
80.049500 273431.500000
89.038500 1100805.600000
90.046500 898745.000000
91.054200 1660908.000000
95.049200 4722966.500000
103.054400 1607373.800000
105.044800 2171652.200000
105.070000 1296465.000000
106.065200 16790484.000000
107.049400 287141.500000
107.073000 3341329.200000
108.057000 155950.200000
117.057500 831467.600000
118.065200 358739.400000

>ms2peaks
50.015100 984469.687500
51.023000 5159153.500000
53.038600 2702471.200000
58.065100 14015650.000000
63.022900 225581.609400
64.030700 147856.828100
65.038600 1759337.800000
77.038600 3141519.200000
79.054200 3946757.200000
80.049400 574750.700000
81.033700 149518.437500
89.038600 2546413.200000
90.046500 1240916.600000
91.054300 2345808.000000
95.049200 6250749.000000
96.044300 213942.515600
103.054100 716274.400000
105.044800 3897870.200000
106.065100 13778777.000000
107.049100 168269.800000
107.073000 713576.000000
117.057200 298457.900000
118.065300 190880.400000

