>compound EQ32804747
>parentmass 197.08400000000003
>ionization [M+H]+
>formula C10H13ClN2
>rt 294.000000
>profile orbitrap
#smiles_iso C1CN(CCN1)C2=CC=CC=C2Cl
#smiles_can C1CN(CCN1)C2=CC=CC=C2Cl
#inchikey PWZDJIUQHUGFRJ-UHFFFAOYSA-N
#pubchem_id 415628
#mb_accession EQ347001,EQ347002,EQ347003,EQ347004,EQ347005,EQ347006,EQ347007,EQ347008,EQ347009

>ms2peaks
70.065100 4018720.800000
118.064700 2070858.400000
119.073000 3636241.800000
154.041800 75975072.000000
195.068500 5303038.500000
197.083900 1861378560.000000

>ms2peaks
70.065100 9571461.000000
118.064800 3995927.200000
119.073000 9219463.000000
140.025700 2344378.500000
154.041800 185182048.000000
162.115300 3810440.000000
195.068500 13332041.000000
197.083900 1689415040.000000

>ms2peaks
56.049400 2887839.500000
58.065100 3630092.500000
70.065100 42401664.000000
71.072900 1340954.800000
77.038400 1283528.200000
91.054000 1511080.900000
117.057300 2117628.200000
118.065100 27116096.000000
119.073000 102301880.000000
120.080700 4907678.000000
126.010400 917716.600000
127.018200 1073076.800000
138.010300 1754077.600000
140.026000 9563263.000000
152.026300 6039343.000000
154.041700 767539072.000000
161.107100 3465599.800000
162.115100 9362207.000000
166.041900 2435400.000000
167.036800 859060.600000
168.044800 910251.700000
168.057200 919805.300000
180.057800 1884732.500000
195.068400 41574968.000000
197.083900 823371904.000000

>ms2peaks
56.049500 7864907.000000
58.065100 6495996.500000
68.049400 2253673.200000
70.065100 54719404.000000
71.072900 2165406.800000
77.038400 1329186.200000
91.054200 12607257.000000
92.062000 3856371.800000
104.049300 1228894.500000
106.065100 1026656.200000
117.057300 7334260.000000
118.065100 127506856.000000
119.072900 318146368.000000
120.080700 14258459.000000
126.010300 3643708.000000
127.018400 3552047.500000
128.026200 1486871.000000
132.080800 1145588.600000
138.010400 5151968.500000
140.026100 31258918.000000
152.026300 4525264.000000
154.041700 909638976.000000
161.107200 2454296.500000
162.115000 6127491.000000
166.041800 8287599.500000
167.036900 2287412.200000
168.044800 1298878.900000
168.057100 1632097.600000
180.057700 1924326.500000
195.068300 32053534.000000
197.084000 170678512.000000

>ms2peaks
53.038600 1565907.500000
56.049500 9911447.000000
58.065100 5598879.500000
65.038400 1607331.800000
68.049500 1608390.900000
70.065100 34431480.000000
71.072900 827574.500000
77.038400 4274991.500000
90.033900 784971.700000
91.054200 41495716.000000
92.049500 1022495.800000
92.062000 13530682.000000
93.057300 2705886.200000
95.049100 4780363.000000
98.999500 2032055.400000
104.049400 5485408.000000
105.044700 3232355.000000
105.057300 796590.000000
106.065000 1104040.500000
112.007500 1239763.900000
117.057300 18445818.000000
118.065100 325504416.000000
119.072900 398550816.000000
120.080700 16820414.000000
126.010500 7741674.000000
127.018300 10366866.000000
128.026200 2932462.800000
132.068100 1123221.400000
132.081000 1460189.500000
137.015400 1448149.400000
138.010500 8200496.500000
139.005600 1270153.000000
140.026100 43587196.000000
152.026300 3022459.000000
154.041700 488627808.000000
162.115100 1501844.500000
166.041800 9752677.000000
167.036900 1981543.200000
168.057300 1445568.400000
195.068300 8860758.000000
197.084000 16928844.000000

>ms2peaks
50.015000 1705232.200000
51.022800 1569761.000000
53.038600 4615838.500000
56.049500 10888438.000000
58.065100 4171610.200000
65.038600 6178992.000000
68.049400 2183678.000000
70.065100 19805642.000000
77.038500 10814095.000000
86.999500 839876.700000
90.033900 1470491.000000
90.046400 979318.600000
91.054200 88805968.000000
92.049400 2216163.200000
92.062000 28182944.000000
93.057300 4065992.200000
95.049100 17207800.000000
98.999600 6952848.500000
102.046400 1790127.900000
104.049400 14735008.000000
105.044700 9250625.000000
105.057300 2132052.200000
106.065100 913373.400000
112.007400 4377924.000000
113.015200 895011.900000
116.049600 838307.600000
117.057300 32113730.000000
118.065100 525495008.000000
119.072900 283507840.000000
120.080700 14550641.000000
125.015200 793690.500000
126.010500 11524284.000000
127.018300 18645880.000000
128.026100 3401965.200000
129.010200 1329603.000000
130.065000 1081066.400000
132.068300 1031433.900000
132.080900 1004412.200000
138.010500 12298377.000000
139.005700 3862000.500000
140.026100 45080332.000000
152.026100 1087857.200000
154.041800 176429456.000000
166.041800 4015705.200000
167.037300 1165365.800000
195.068100 1376308.800000
197.084000 1338710.200000

>ms2peaks
50.015100 6905554.500000
51.022900 7764573.500000
53.002200 1073534.100000
53.038600 9638141.000000
56.049500 6748362.000000
58.065100 3036224.200000
63.022800 2907021.800000
65.038600 42728704.000000
66.046400 1455401.600000
68.049400 1103648.600000
70.065100 4395944.000000
72.983900 2269394.000000
74.015000 835046.800000
75.022900 9673902.000000
77.038500 34019244.000000
78.046400 2180163.800000
81.033500 1836728.100000
85.076000 994659.000000
86.999600 1278363.800000
89.038600 6509179.500000
90.033800 3538987.500000
90.046400 9999128.000000
91.054200 195859760.000000
92.049400 5783279.000000
92.062000 29589882.000000
93.057300 9157185.000000
95.049100 41758344.000000
98.999600 22057456.000000
100.007400 1358503.400000
102.046400 2139857.000000
104.049400 23353252.000000
105.044700 21554794.000000
105.057200 4083487.500000
106.065400 712443.400000
110.999700 2233851.200000
112.007400 7414139.000000
113.015300 960637.100000
116.049300 1518807.800000
117.057300 55417512.000000
118.065000 567871296.000000
119.072900 55549736.000000
120.080700 8355363.000000
125.015400 1204639.500000
126.010500 4525250.000000
127.018300 29192872.000000
128.026000 1683459.600000
129.010200 4025779.200000
130.065000 1870408.200000
132.068400 776483.200000
138.010400 7530341.500000
139.005700 12275307.000000
140.026100 17038990.000000
152.026200 1427102.600000
154.041700 10240982.000000

>ms2peaks
50.015100 17466366.000000
51.022900 24154956.000000
52.018200 276549.000000
53.002200 2787276.500000
53.038600 10988114.000000
55.017800 846134.400000
55.041600 764265.900000
56.049500 4172497.800000
58.065100 1262702.400000
62.015100 384074.700000
63.022900 8217166.500000
64.018200 1393483.200000
64.030700 2942826.000000
65.038600 80030728.000000
66.046400 4002089.000000
68.049400 430459.700000
70.065100 1217480.400000
72.983900 9540270.000000
74.015100 5438806.000000
75.022900 28650830.000000
76.030600 259335.000000
77.038500 35875844.000000
78.033700 1283681.900000
78.046400 3298007.500000
79.054200 787908.800000
80.049400 961544.200000
81.033400 1639027.600000
84.983900 2036306.200000
85.076000 417679.300000
86.999600 926017.200000
89.038600 20263390.000000
90.033900 2472307.800000
90.046400 20561894.000000
91.054200 256978816.000000
92.049400 5932120.500000
92.062000 7057556.000000
93.057300 9391280.000000
94.041300 403966.100000
95.049100 39004748.000000
96.044300 1205786.900000
98.999600 21048912.000000
100.007400 2681201.000000
102.046200 1606289.000000
103.054100 763933.900000
104.049400 15013989.000000
105.044700 22066442.000000
105.057300 2270528.200000
106.041800 288224.300000
106.065200 264698.100000
109.064900 387623.100000
110.999600 2715973.800000
112.007400 3931728.500000
116.049400 1828312.200000
117.057300 47951852.000000
118.065100 248203840.000000
119.073000 4692699.000000
120.080900 1584118.600000
125.014900 373868.500000
126.010700 899735.100000
127.018300 12326704.000000
129.010200 2955157.500000
130.065000 803035.400000
131.060500 271031.800000
138.010500 1368006.500000
139.005700 7906178.000000
140.026200 2156594.800000

>ms2peaks
50.015100 31655920.000000
51.023000 41731432.000000
52.018200 994163.100000
53.002200 3577273.800000
53.038600 7108995.500000
54.033800 442423.800000
54.046400 914491.400000
55.017800 711178.000000
55.041700 329201.800000
56.049500 2714028.200000
58.065100 373802.800000
62.015100 2766508.500000
63.022900 19494508.000000
64.018200 3256447.800000
64.030700 4920918.500000
65.038600 101414088.000000
66.046400 4921805.000000
67.041700 703181.800000
68.049600 311643.300000
72.983900 16023601.000000
74.015100 20412154.000000
75.022900 41029800.000000
76.030600 1883979.600000
77.038500 24876154.000000
78.033700 1454830.000000
78.046400 2478757.500000
80.049400 748092.000000
81.033400 1329197.900000
84.983900 4460363.500000
85.076000 338551.800000
89.038600 35677220.000000
90.033900 1620062.500000
90.046400 18579956.000000
91.054200 231777648.000000
92.049500 3904634.000000
92.062000 960508.000000
93.057300 5090772.000000
94.041300 351471.800000
95.049100 28372964.000000
96.044300 1614079.600000
98.999600 10983611.000000
100.007400 1646289.800000
102.046400 383200.200000
103.054200 424312.900000
104.049500 5891121.000000
105.044700 13718327.000000
110.999600 1286606.800000
112.007500 1435310.100000
116.049400 1628021.100000
117.057300 36917512.000000
118.065100 68051240.000000
127.018300 3314946.800000
129.010200 1152341.800000
130.065000 413555.300000
139.005700 3495329.000000

