>compound EQ32474231
>parentmass 227.15429999999998
>ionization [M+H]+
>formula C15H18N2
>rt 216.000000
>profile orbitrap
#smiles_iso CNCCC(C1=CC=CC=C1)C2=CC=CC=N2
#smiles_can CNCCC(C1=CC=CC=C1)C2=CC=CC=N2
#inchikey GDCVFNAQLOMGMS-UHFFFAOYSA-N
#pubchem_id 161283
#mb_accession EQ342001,EQ342002,EQ342003,EQ342004,EQ342005,EQ342006,EQ342007,EQ342008,EQ342009

>ms2
196.112000 1058406336.000000
227.154200 99329024.000000

>ms2
195.104400 1214748.400000
196.112000 1208954880.000000
227.154300 12636401.000000

>ms2
91.054100 2893580.200000
118.064700 4625951.000000
167.072800 16594432.000000
168.080700 39511360.000000
195.104500 1216146.400000
196.112000 1165437952.000000

>ms2
91.054200 26852476.000000
110.060100 1720125.100000
117.057200 3131560.500000
118.065000 22961300.000000
119.072900 5359592.500000
167.072900 115879752.000000
168.080700 245661904.000000
180.080600 2687465.800000
181.088500 3567643.200000
194.096500 6704569.000000
195.104300 4411370.500000
196.112000 779840704.000000

>ms2
65.038500 1604305.200000
80.049400 1193493.400000
91.054200 70362656.000000
92.049400 2448732.500000
93.057300 993656.500000
94.065100 1138390.200000
103.054100 1323864.500000
110.060000 6139721.000000
115.054200 1079709.600000
117.057200 14891644.000000
117.069500 1092723.900000
118.065100 49941408.000000
119.072900 12735854.000000
129.069700 1242939.900000
141.070100 1036745.000000
166.064900 753035.500000
167.072900 258047664.000000
168.080700 377966432.000000
180.080700 7394801.500000
181.088500 5350114.000000
193.088700 711132.200000
194.096500 17815588.000000
195.104200 6364676.500000
196.112000 291727648.000000

>ms2
65.038500 7893744.500000
78.033700 1381875.100000
79.054200 671951.100000
80.049300 1818841.900000
91.054200 109658376.000000
92.049400 4961554.000000
93.057300 4226420.500000
94.065200 1134717.900000
96.044200 1902741.200000
103.054100 2747245.200000
104.049500 1011445.400000
105.057300 666455.000000
110.060000 8567218.000000
115.054200 3696562.500000
116.049500 607746.800000
117.057200 35685788.000000
117.069700 2253820.500000
118.065000 87696920.000000
119.072900 18371178.000000
128.049400 988507.100000
128.062100 891592.600000
129.069800 975428.600000
139.054000 809983.700000
140.061900 557595.400000
141.069900 3199169.200000
152.062000 671729.200000
166.065000 4119003.500000
167.072900 486315904.000000
168.080700 324987360.000000
178.077600 721400.800000
180.080600 13920993.000000
181.088500 4751520.000000
193.088400 3646846.800000
194.096400 27061698.000000
195.104100 3766866.200000
196.112100 75635248.000000

>ms2
50.015100 735404.900000
51.022900 841799.600000
63.022900 829179.200000
65.038500 29932716.000000
66.046300 902166.700000
77.038400 1516923.900000
78.033800 4041926.000000
79.041500 905132.300000
80.049300 1193449.800000
89.038400 2096783.000000
90.046400 4403554.500000
91.054200 94256712.000000
92.049400 3961810.500000
93.057300 8571775.000000
94.065100 1417268.900000
95.049100 1880294.100000
96.044300 5272310.500000
103.054100 3480229.000000
104.049400 3849893.800000
105.044600 1614933.800000
110.060000 4863621.000000
115.054200 15412185.000000
116.049500 1375267.100000
116.062100 680512.700000
117.057300 54900692.000000
118.065000 131661152.000000
119.072900 6032532.000000
128.049400 4589667.500000
128.062100 1749426.500000
129.044700 883572.200000
130.065100 773072.000000
134.060100 727562.900000
139.054200 13070427.000000
140.049600 2500501.800000
140.062000 12105654.000000
141.069900 4654199.500000
146.059800 1170858.100000
152.061900 2178691.800000
153.070000 687566.200000
154.065200 630954.400000
165.057900 557745.700000
165.070000 666437.900000
166.065100 57922480.000000
167.072900 547678144.000000
168.080700 50847764.000000
179.072400 1031400.100000
180.080700 13758786.000000
181.088500 719344.300000
184.075500 787765.100000
192.080800 2701873.800000
193.088500 6105790.000000
194.096400 16046603.000000
196.111700 1648471.100000

>ms2
50.015100 2335880.000000
51.022900 2709546.500000
52.018200 247198.300000
53.002200 763961.800000
53.038600 1910204.900000
62.015000 600178.500000
63.022900 3791912.200000
64.030800 311022.800000
65.038600 45323268.000000
66.046400 2916129.200000
67.041600 654012.600000
74.014900 251950.200000
75.022900 1447441.100000
77.038500 2511680.500000
78.033800 10372413.000000
79.041600 1760095.400000
80.049400 1188378.800000
88.030700 724981.500000
89.038500 11995001.000000
90.046400 13801995.000000
91.054200 67918128.000000
92.049400 2757737.500000
93.057300 8920151.000000
94.065100 635079.800000
95.036500 753674.400000
95.049100 4008237.500000
96.044400 10698309.000000
102.046300 1264284.600000
103.054200 1308624.600000
104.049400 3313433.800000
105.044700 1843635.000000
110.060000 2170753.800000
113.038500 1392426.900000
114.046400 2809835.200000
115.054200 28733364.000000
116.049500 2725624.200000
116.062000 844219.700000
117.057300 58882296.000000
118.065100 110779344.000000
119.049100 729560.200000
119.073000 859616.800000
126.046400 1022577.200000
127.041400 614947.600000
127.054200 827032.600000
128.049400 6501672.500000
128.062100 1918697.100000
129.044600 2178285.000000
130.065200 864360.800000
132.057000 1303447.000000
134.060100 805851.500000
139.054200 95188024.000000
140.049500 27054570.000000
140.061900 23137712.000000
141.057400 2072707.500000
141.069900 2804436.000000
145.064500 588171.200000
146.059800 1067713.200000
152.062000 5672822.500000
153.069700 703512.600000
154.065100 787901.900000
155.060400 637458.300000
164.049500 1352047.800000
165.057400 1961397.600000
165.070000 1519943.900000
166.065100 145270752.000000
167.072900 239999216.000000
168.080700 4206891.000000
169.064600 569061.100000
178.065100 1174613.000000
179.072700 1341291.100000
180.080700 5692066.500000
184.075600 2335652.800000
191.072800 1505148.600000
192.080700 4000936.800000
193.088600 4776421.000000
194.096500 3857508.000000

>ms2
50.015100 6261456.000000
51.022900 6905707.500000
52.018200 606588.600000
52.030700 869716.200000
53.002200 1896500.500000
53.038600 1989782.500000
53.997400 286531.700000
54.033800 188390.800000
62.015000 2192115.800000
63.022900 10823187.000000
64.030800 1028959.400000
65.038600 49813252.000000
66.046400 4232729.000000
67.041600 1188100.200000
74.015000 1315247.500000
75.022800 4537228.000000
77.038500 3675188.000000
78.033800 16895702.000000
79.041600 1632917.500000
80.049400 991904.400000
87.022900 900298.000000
88.030700 3064850.000000
89.038500 38717308.000000
90.046400 18521904.000000
91.054200 54848684.000000
92.049400 3098635.800000
93.057300 6465286.000000
95.036500 266034.600000
95.049100 5137086.500000
96.044400 17891550.000000
101.038600 899195.000000
102.046400 2590345.000000
103.054200 521622.700000
104.049400 2859780.200000
105.044700 2926075.000000
110.060000 1099320.500000
113.038500 11747653.000000
114.046400 5726393.000000
115.054200 37631428.000000
116.049400 6367192.500000
117.057300 62997992.000000
118.065100 57836536.000000
119.049100 1066607.100000
126.046400 2122230.000000
127.041600 911428.400000
127.054100 900856.800000
128.049400 5175606.500000
128.062100 1163384.100000
129.044600 2960884.000000
130.065200 600425.800000
132.057000 2285897.000000
134.060100 707547.400000
138.046300 1677205.750000
139.054200 163123584.000000
140.049400 65542012.000000
140.061700 11341245.000000
141.057200 2367057.500000
141.069600 1006318.400000
145.064700 207107.200000
146.060000 854561.200000
151.054200 586354.800000
152.062000 6304074.000000
154.065300 293785.600000
155.060500 1008014.800000
164.049300 3860477.000000
165.057400 4701774.000000
165.069900 1528189.800000
166.065100 101349704.000000
167.072900 54340600.000000
168.080800 264934.100000
169.064500 914968.800000
178.065100 1724450.100000
179.060400 291760.600000
179.072800 629485.900000
180.080700 833240.800000
184.075300 1256594.600000
191.073000 2142640.800000
192.080800 1939358.000000
193.088600 1524945.100000

