>compound EQ32256912
>parentmass 317.1642
>ionization [M+H]+
>formula C13H24N4O3S
>rt 294.000000
>profile orbitrap
#smiles_iso CC(C)(C)NCC(COC1=NSN=C1N2CCOCC2)O
#smiles_can CC(C)(C)NCC(COC1=NSN=C1N2CCOCC2)O
#inchikey BLJRIMJGRPQVNF-UHFFFAOYSA-N
#pubchem_id 5478
#mb_accession EQ321001,EQ321002,EQ321003,EQ321004,EQ321005,EQ321006,EQ321007,EQ321008,EQ321009

>ms2peaks
57.070000 5422393.500000
74.059800 8559514.000000
130.122600 2861703.000000
244.074400 6061104.000000
261.101700 152840528.000000
317.164200 1503531520.000000

>ms2peaks
56.049400 14836181.000000
57.069900 32430672.000000
74.060000 378392256.000000
113.070900 947546.100000
130.122600 18929774.000000
144.022400 1352859.500000
158.092400 3379514.000000
188.048800 89254784.000000
200.048800 986982.900000
232.075200 1200545.000000
243.091100 22655804.000000
244.075100 225327104.000000
261.101500 770912768.000000
317.164300 285564512.000000

>ms2peaks
56.049500 73875328.000000
57.069900 72361568.000000
74.060000 583302784.000000
86.060000 7739780.000000
100.075600 716027.300000
104.016500 1012425.400000
113.070800 19655224.000000
118.032100 1260686.900000
130.122700 5488780.000000
132.011400 1064943.200000
144.022600 24617350.000000
145.043000 12971930.000000
158.092400 3277245.500000
159.022300 5182282.000000
170.038500 1217570.200000
172.053900 7923115.000000
175.053400 971945.200000
188.048800 223914800.000000
200.048800 11377368.000000
214.064400 1758076.400000
232.074900 685131.200000
243.091100 14946967.000000
244.075100 252811648.000000
261.101600 71245744.000000
317.164200 2644717.200000

>ms2peaks
53.002200 931361.600000
56.049500 122917160.000000
57.069900 90919176.000000
58.065200 1533080.600000
59.990200 2777673.800000
62.005900 2157887.800000
69.044700 2207848.200000
71.990200 964886.900000
74.060000 427083520.000000
76.021600 687691.900000
85.052300 885818.700000
86.005900 949507.600000
86.060000 18555596.000000
88.075700 1215759.900000
99.001200 1070187.800000
100.075700 785423.000000
101.016800 2151504.000000
104.016400 3494775.500000
111.055400 768404.800000
113.070900 79478648.000000
114.996200 847736.600000
118.032100 3130649.800000
126.995900 1740859.400000
127.032600 613334.600000
127.050200 786100.800000
127.991400 1385211.600000
128.027800 763618.200000
130.007000 657528.700000
130.122700 1671747.600000
132.011400 2301991.500000
144.022700 97135152.000000
145.006700 3060875.500000
145.043100 30148124.000000
154.061300 784028.000000
158.038300 1238270.000000
158.092300 1942302.500000
159.022300 10758355.000000
167.068900 2442401.500000
170.038400 5878199.000000
172.053900 12516254.000000
180.076700 607251.900000
185.025700 759977.900000
186.033200 1118681.800000
188.048900 174499760.000000
200.048900 8492224.000000
243.091500 974331.400000
244.075200 65627936.000000
261.101700 1813039.600000

>ms2peaks
53.002200 820807.400000
56.049500 137622080.000000
57.069900 75101488.000000
58.065100 2618636.000000
58.995000 820182.700000
59.990300 6232891.500000
62.005900 3464082.000000
67.989400 359850.900000
68.049400 1241248.000000
69.044700 10808178.000000
70.052500 1681829.600000
70.065100 689434.900000
71.060400 866801.400000
71.990200 2496155.200000
74.005900 43421540.000000
74.060000 252439360.000000
76.021500 1166931.400000
85.039600 937389.200000
85.052200 753294.500000
85.969400 1433087.800000
86.005900 1528997.000000
86.060000 15479473.000000
87.985100 1099490.400000
88.021700 312235.300000
88.075700 1432349.400000
95.060500 692444.200000
99.001100 2722194.000000
101.016800 5756969.500000
102.000900 727269.100000
102.996100 932850.400000
104.016500 1999276.600000
111.055300 832959.600000
112.063000 587129.800000
113.070900 91746624.000000
114.996100 1275251.200000
116.027500 266617.100000
118.032100 2137147.500000
126.012100 278549.400000
126.996100 3699245.000000
127.032400 740156.700000
127.050100 632332.900000
127.991400 3752688.200000
128.027700 692143.800000
128.999400 336993.100000
130.007100 1802463.000000
132.011300 1106865.200000
138.066000 256450.400000
142.007100 743088.100000
143.027400 360690.400000
144.022600 105401944.000000
145.006600 5383824.500000
145.043000 18591994.000000
154.061300 779578.700000
158.038400 992285.400000
158.092700 302028.100000
159.022300 5980825.000000
160.017600 721019.300000
167.068900 1570074.200000
168.022700 264084.600000
170.038300 6324701.000000
172.054000 3707712.200000
186.033400 358126.000000
188.048800 54831896.000000
200.048900 791498.200000
244.075100 4879926.500000

>ms2peaks
53.002200 1431918.400000
53.997300 175124.200000
54.033900 355259.400000
55.029100 277227.200000
56.049500 134184664.000000
57.033500 3129967.000000
57.069900 53503848.000000
58.065100 3957644.500000
58.995000 2353108.500000
59.990300 11352965.000000
62.005900 3434864.000000
67.028800 161779.700000
67.041600 311860.200000
67.989400 192115.200000
68.036900 261030.400000
68.049500 2108942.000000
69.044700 26889200.000000
70.028700 299273.900000
70.052600 2711192.800000
70.065100 254746.200000
71.060400 600718.700000
71.990200 3670773.200000
72.044400 512350.200000
74.005900 65534624.000000
74.060000 140438048.000000
75.001100 571041.200000
75.985200 295720.200000
76.021500 1431008.600000
81.044700 203701.300000
83.060500 160268.900000
84.031900 294370.300000
84.044500 718106.100000
84.985600 936742.800000
85.039600 920026.800000
85.052300 803920.200000
85.969500 4335650.500000
86.005900 1088212.500000
86.060000 10119550.000000
87.985200 685620.900000
88.021600 286179.800000
88.075700 885644.200000
90.037200 219162.000000
95.060300 249154.200000
99.001200 3623105.200000
100.021500 686127.200000
101.016800 7135798.000000
102.000900 640946.700000
102.996000 239230.100000
104.016500 1168028.400000
110.047600 286734.400000
111.055300 710334.900000
112.063100 749386.200000
113.070900 71663040.000000
114.996200 658689.200000
116.027900 212474.900000
117.011900 558351.100000
118.006900 603455.400000
118.032200 704062.400000
126.012100 845345.900000
126.996100 3647432.800000
127.032500 887983.200000
127.050300 293544.300000
127.991300 4408767.000000
128.027900 237467.300000
128.999300 226951.100000
130.006900 1889761.200000
132.011500 197221.800000
138.066400 302406.200000
142.007200 640671.900000
144.022700 65752988.000000
145.006600 5456468.500000
145.043100 7578549.000000
146.001800 196657.300000
154.061100 355260.400000
158.038400 330152.100000
159.022200 1379259.800000
168.022500 254682.200000
170.038400 1929973.400000
172.053600 182954.400000
188.048800 10066639.000000

>ms2peaks
53.002200 1889928.100000
53.013500 308401.300000
53.997500 128856.000000
54.033900 1107649.500000
55.029100 953336.000000
55.054300 245157.600000
56.049500 71818736.000000
57.033500 2293251.200000
57.069900 19124188.000000
57.974600 305185.300000
57.987200 192671.300000
58.065200 2928811.800000
58.982300 149494.400000
58.995000 2543365.000000
59.990300 10721392.000000
61.010700 151336.000000
62.005900 1976308.400000
67.029100 264953.200000
67.041700 534921.800000
67.989300 529680.600000
68.036900 929546.900000
68.049500 1067615.100000
69.044700 38361588.000000
70.028800 287356.700000
70.052500 2055286.900000
70.065200 435742.500000
71.060300 224110.900000
71.990300 2791602.800000
72.044300 301105.800000
73.969500 1819266.000000
74.005900 35997436.000000
74.060000 32091244.000000
74.977400 239687.900000
75.001200 549853.400000
75.985200 323001.600000
76.021500 235945.300000
81.044700 191615.500000
83.060400 181033.600000
84.031900 225148.500000
84.044400 214606.900000
84.985600 1761916.600000
85.039700 741097.800000
85.969500 5061189.000000
86.005900 671488.000000
86.060100 2719931.800000
87.985200 621768.900000
88.075800 210965.400000
95.024000 141398.600000
95.060500 305771.800000
99.001200 1952689.000000
101.016900 2892303.500000
102.000900 290063.600000
110.047500 134756.400000
111.055500 165682.000000
112.063300 269366.300000
113.034600 1335889.000000
113.071000 15682084.000000
117.011600 133870.900000
118.007000 533493.200000
126.011900 229315.700000
126.996100 261411.200000
127.991400 1909534.600000
130.007000 970593.800000
144.022700 6600936.000000
145.006800 898860.200000
145.043100 685920.800000
146.002000 163922.200000

>ms2peaks
53.002200 2681917.800000
53.013400 446723.400000
53.997400 615649.200000
54.033800 1024955.400000
55.029000 1164017.600000
55.054200 190043.000000
56.049500 27443182.000000
57.033500 900569.000000
57.069900 5574086.000000
57.974600 1466001.400000
57.987100 549664.100000
58.065200 1287773.100000
58.995000 2195074.200000
59.990300 7339164.500000
62.005800 651832.100000
67.029100 262562.500000
67.041600 197648.400000
67.989200 573852.500000
68.013100 202738.500000
68.036900 240079.300000
68.049500 593604.200000
69.044700 19597458.000000
70.028700 197592.900000
70.052500 702846.200000
71.990200 1548600.000000
73.969500 1589102.000000
74.005900 10610479.000000
74.060000 6915911.000000
75.001200 177801.900000
75.985200 222504.200000
78.008800 165543.800000
81.044700 148184.800000
83.060400 123141.600000
84.985500 890318.000000
85.039600 172508.900000
85.969500 3308282.000000
86.005800 501711.000000
86.060100 293127.300000
87.001100 146451.300000
87.985100 123678.700000
99.001100 271000.300000
101.016700 460759.300000
113.034600 498815.300000
113.070900 1507246.000000
127.991300 522427.400000
130.007100 165478.000000
144.022600 202699.700000

>ms2peaks
52.018200 146038.843800
53.002300 2847719.800000
53.013400 529489.800000
53.997400 1049620.000000
54.033900 942201.200000
55.029100 1056534.100000
56.049500 8780521.000000
57.033500 166921.100000
57.069900 943999.200000
57.974600 1602764.400000
57.987100 240800.100000
58.065000 504245.400000
58.982300 197919.800000
58.995000 1231082.200000
59.990300 4046711.200000
62.005900 193190.600000
67.029000 258714.200000
67.041600 173266.000000
67.989100 549558.200000
68.012900 148963.600000
68.036800 166023.500000
68.049500 176909.300000
69.044700 6371011.000000
70.028800 170574.600000
71.990300 713719.500000
73.969600 923819.900000
74.005900 2571815.500000
74.060000 888198.800000
74.977300 143815.400000
75.985100 126824.400000
78.008600 219131.900000
80.049200 174566.200000
84.985400 459639.200000
85.969500 1561843.600000

