>compound EQ32296505
>parentmass 280.1696
>ionization [M+H]+
>formula C19H21NO
>rt 408.000000
>profile orbitrap
#smiles_iso CN(C)CCC=C1C2=CC=CC=C2COC3=CC=CC=C31
#smiles_can CN(C)CCC=C1C2=CC=CC=C2COC3=CC=CC=C31
#inchikey ODQWQRRAPPTVAG-UHFFFAOYSA-N
#pubchem_id 3158
#mb_accession EQ367601,EQ367602,EQ367603,EQ367604,EQ367605,EQ367606,EQ367607,EQ367608,EQ367609

>ms2
58.065000 5352097.000000
84.080500 1733899.400000
91.054000 1332206.000000
107.049000 9797269.000000
117.069500 1405624.900000
235.111800 33025366.000000
280.169500 1168948864.000000

>ms2
58.065100 67311504.000000
70.065100 1068301.500000
72.080700 1266356.900000
84.080700 31619990.000000
85.088500 1608582.500000
86.096400 743449.300000
91.054200 21043650.000000
105.069900 937618.200000
107.049100 160683232.000000
115.054200 6112119.500000
117.069800 27116458.000000
119.049200 2437336.200000
129.069800 9930391.000000
131.049100 2617309.500000
141.069800 16235627.000000
142.077700 6667095.500000
143.085500 1565301.600000
150.091300 1069126.100000
157.064900 1292163.900000
167.085700 919501.100000
173.120000 1632455.000000
178.077500 1185274.800000
179.085500 3157666.000000
181.100700 1082424.600000
186.127600 2638779.200000
191.085200 1412705.800000
192.093600 979712.100000
193.101400 1599567.800000
194.072600 4753699.000000
195.080400 8552254.000000
202.077800 1272225.900000
207.080500 9055940.000000
207.116900 14268416.000000
209.096100 7738131.000000
217.101300 11382498.000000
219.117000 905330.200000
220.088300 7184910.000000
233.096200 914148.900000
235.111800 137259104.000000
237.127600 2215519.200000
280.169500 655217664.000000

>ms2
53.038600 542351.000000
57.033400 563454.200000
58.065100 78802632.000000
65.038500 445299.400000
69.033400 460469.500000
70.065100 8454619.000000
71.073000 1208529.600000
72.080700 2865086.200000
77.038400 1237420.000000
79.054200 6902961.500000
81.033500 557192.900000
82.065100 1065326.000000
84.080800 77590072.000000
85.088600 8392178.000000
91.054200 47401704.000000
95.049100 1731918.800000
103.054300 536150.800000
105.033500 1034675.400000
105.044800 499717.900000
105.070000 2550450.800000
107.049100 295927776.000000
114.091300 582203.400000
115.054200 28488606.000000
117.069800 61435964.000000
119.049100 7384147.000000
121.064700 1304370.000000
128.062000 2180724.000000
129.069800 29124044.000000
131.049100 11368648.000000
141.069900 40382176.000000
142.077700 21912576.000000
143.085500 4726921.500000
145.064700 815516.900000
150.091400 1184457.800000
153.069800 711411.500000
157.064800 3095145.200000
158.096600 468802.600000
165.069800 6303244.500000
166.077700 3775176.000000
167.085500 9246898.000000
171.104400 704293.600000
172.112100 752952.100000
173.119900 4893325.000000
174.127900 718878.400000
176.106900 459174.300000
177.069800 480802.100000
178.077700 8046508.500000
179.085500 17883510.000000
181.064900 754896.600000
181.101100 8089977.000000
186.127700 2707560.000000
189.114600 896331.000000
191.085500 5280707.500000
192.093300 9644596.000000
193.064700 1200927.100000
193.101200 3955121.000000
194.072700 20573076.000000
195.080500 23480552.000000
202.077700 18325932.000000
203.085500 586262.200000
204.093400 525206.000000
205.101500 1450416.600000
206.072900 455273.300000
207.080500 23397234.000000
207.116900 25697508.000000
209.096100 12212937.000000
215.085600 2175042.500000
216.093200 1663549.800000
217.101300 29403520.000000
218.109100 963250.800000
219.080600 1940303.400000
219.116900 848594.600000
220.088300 38777520.000000
233.096100 2361744.200000
234.103900 1507840.500000
235.111800 59128876.000000
237.127600 700201.100000
250.122500 522570.200000
280.169600 64807036.000000

>ms2
51.022800 434821.600000
53.038600 1996208.200000
55.054200 587370.600000
56.049500 751555.100000
58.065100 53457484.000000
65.038600 1037084.300000
69.033500 726509.300000
70.065100 14936248.000000
71.073000 1734507.600000
72.080800 3152532.800000
77.038500 4812696.500000
79.054200 30203196.000000
81.033500 762743.800000
82.065100 2734120.000000
84.080800 70371704.000000
85.088600 8307503.000000
91.054200 56576644.000000
95.049100 5358503.500000
103.054300 1688645.800000
104.062100 881770.000000
105.033600 1031405.800000
105.044800 4225657.000000
105.069900 3396171.200000
107.049100 249614128.000000
115.054200 44221852.000000
116.062000 442713.100000
117.069900 57515340.000000
119.049200 5953394.500000
121.064700 758758.600000
128.062000 5542153.500000
129.069900 31246310.000000
131.049200 14358336.000000
133.064800 632653.300000
141.069900 44536392.000000
142.077800 18430154.000000
143.085500 2931599.000000
144.057000 614856.800000
145.064900 958582.800000
150.091400 602479.300000
152.061900 1202568.400000
153.069800 1384039.800000
155.060300 949755.200000
157.064800 3324950.800000
158.096500 1137639.000000
165.069900 13812283.000000
166.077700 13228456.000000
167.085600 25058740.000000
170.096300 607943.400000
171.104300 820878.800000
172.112200 1015142.300000
173.120000 2834140.200000
177.069800 2592034.200000
178.077700 17132110.000000
179.085500 26777894.000000
181.064900 1588233.600000
181.101200 5813062.500000
186.127800 762263.000000
189.069500 775338.500000
190.077600 1699919.000000
191.085500 9114927.000000
192.093300 20807358.000000
193.065100 610461.200000
193.101400 1937127.200000
194.072700 33404186.000000
195.080500 11434925.000000
201.069700 601766.100000
202.077700 44951040.000000
203.085500 3754147.800000
204.093700 516190.200000
205.064800 2538977.800000
205.101100 1435753.800000
206.072700 945719.100000
207.080500 18337020.000000
207.116900 6646719.000000
209.096200 2736917.800000
215.085700 7176752.500000
216.093400 3840000.000000
217.101300 12373653.000000
218.072400 628679.500000
218.109300 1134586.200000
219.080500 12012078.000000
220.088400 46265080.000000
229.075900 513417.100000
233.096300 1836660.400000
234.103800 1357934.900000
235.111700 5904051.500000
250.122400 504145.100000
280.169600 1587727.800000

>ms2
50.015000 417964.200000
51.022800 763166.700000
53.038600 5055403.500000
55.017900 2660643.500000
55.054200 470971.200000
56.049500 1313601.900000
57.057300 218926.300000
58.065100 40539184.000000
63.022800 522202.900000
65.038600 2227343.200000
68.049400 545729.100000
69.033500 527300.800000
69.057300 166810.500000
70.065100 18173882.000000
71.073000 1260309.500000
72.080700 1974419.000000
77.038500 12012487.000000
79.054200 55720180.000000
81.033500 1509216.000000
82.065100 3439045.000000
84.080800 48400748.000000
85.088600 3388389.500000
91.054200 60486744.000000
94.041200 233143.000000
95.049100 16025534.000000
103.054200 3758296.000000
104.062100 896691.200000
105.033500 938820.800000
105.044700 9463538.000000
105.069900 3480483.200000
107.049100 160605840.000000
109.064700 189610.700000
115.054200 58288840.000000
116.062100 1065692.000000
117.069900 41424292.000000
119.049200 3307002.000000
127.054100 519888.100000
128.062000 12675699.000000
129.069900 24994238.000000
131.049200 13475492.000000
133.064900 444159.300000
139.054200 189519.600000
141.069900 39728656.000000
142.077700 12617522.000000
143.085500 709358.500000
144.057000 759829.800000
144.081200 168525.200000
145.064800 1268740.900000
152.062000 6027717.500000
153.069800 1715669.900000
155.060300 2275616.800000
155.085900 196944.600000
157.064900 1806855.000000
158.096500 886947.100000
165.069900 31024854.000000
166.077700 18620154.000000
167.085500 21663904.000000
168.057000 614245.600000
169.064900 191569.500000
170.096200 770359.300000
172.112000 680253.700000
173.119900 217229.000000
176.061700 1046081.800000
177.069900 3032777.500000
178.077700 31463856.000000
179.085500 19837564.000000
181.064600 1703499.000000
181.101100 1639643.000000
189.069700 2516865.800000
190.077700 3560503.200000
191.085500 17410298.000000
192.093300 18078026.000000
193.065000 1110210.900000
193.101400 489379.200000
194.072700 27810470.000000
195.080500 2399572.500000
200.061600 205541.100000
201.069700 725993.900000
202.077700 51505296.000000
203.085500 6568445.000000
204.093400 516671.600000
205.064900 4679568.000000
205.101700 973299.400000
206.072800 715493.400000
207.080500 10845828.000000
207.117000 894474.800000
208.088100 200892.800000
215.085600 11606913.000000
216.093400 4129940.000000
217.101300 3163871.000000
218.072900 1529006.800000
219.080500 22594752.000000
220.088300 27524214.000000
229.076100 1001646.100000
233.096000 579441.800000
234.104000 471115.500000
235.111500 267728.800000

>ms2
50.015000 838732.800000
51.022800 780011.700000
53.038600 12249428.000000
55.017900 3251246.200000
55.054200 465232.300000
56.049500 1644908.000000
58.065100 34856588.000000
62.014800 147075.600000
63.022800 749490.700000
65.038600 6426741.500000
67.054100 128076.400000
68.049500 668003.900000
69.033400 253592.000000
69.057200 533158.400000
70.065100 18170504.000000
71.072900 720320.900000
72.080700 1947578.100000
77.038500 22868302.000000
78.046300 217455.900000
79.054200 64983808.000000
81.033500 1706425.600000
82.065100 2060432.200000
84.080800 32685438.000000
85.088600 1212313.900000
89.038700 797962.700000
91.054200 73880784.000000
94.041400 271432.600000
95.049100 32942066.000000
102.046500 199001.700000
103.054200 6588886.000000
104.062000 852996.600000
105.044800 24649832.000000
105.069900 3253196.000000
106.041600 149705.900000
107.049100 98176264.000000
109.064800 139991.200000
115.054200 86551584.000000
116.062000 1616813.200000
117.069900 25966822.000000
119.049200 1255741.200000
127.054200 1390533.100000
128.062000 23751642.000000
129.069900 15156690.000000
131.049200 11354948.000000
133.064700 574192.900000
139.054100 598497.700000
141.069900 39987536.000000
142.077700 6307844.500000
143.072800 206009.300000
143.085600 126895.800000
144.056800 485658.600000
145.064900 2225531.500000
150.045700 121701.000000
151.054200 479676.900000
152.062100 14736752.000000
153.069900 2190036.500000
155.060400 4741321.000000
157.064800 723336.100000
157.088600 424736.500000
158.096700 247092.200000
163.054000 142955.800000
164.061900 263416.000000
165.070000 62258772.000000
166.077700 17834184.000000
167.085500 11514607.000000
168.057000 2503836.800000
169.064800 584138.400000
170.096600 648167.900000
172.112000 141675.000000
176.062000 2916652.200000
177.069900 4701538.000000
178.077700 51731208.000000
179.085500 11093447.000000
181.064700 1977011.800000
181.100800 129562.200000
189.069800 7040184.000000
190.077800 5854737.000000
191.085500 37179696.000000
192.093400 9774913.000000
193.064900 2618045.200000
194.072700 19160740.000000
195.080300 629973.900000
200.061800 811050.200000
201.069900 2942825.200000
202.077700 60825704.000000
203.085500 7573627.000000
204.093400 568009.100000
205.064900 5232513.000000
205.101500 893349.100000
206.072700 217561.300000
206.108700 150226.000000
207.080600 4788728.000000
208.088700 267126.600000
213.069600 440178.400000
214.077400 420433.200000
215.085600 18842696.000000
216.093300 2282908.500000
217.101500 929588.700000
218.072700 4072990.000000
219.080500 22748008.000000
220.088300 12725218.000000
229.076100 2171273.800000
231.080300 185028.200000
233.096100 635783.900000
234.104400 153663.300000

>ms2
50.015100 4203988.000000
51.022900 3340053.200000
53.038600 18689242.000000
55.017900 4378366.500000
55.054200 427568.200000
56.049500 1609888.800000
57.057300 355985.700000
58.065100 25823966.000000
62.014900 219496.900000
63.022900 2806642.200000
65.038600 23386546.000000
67.041600 544023.800000
68.049500 1576525.100000
69.057300 834450.300000
70.065100 9064462.000000
71.073000 234198.200000
72.080800 615677.200000
75.022800 235973.900000
76.030600 130380.400000
77.038500 36525184.000000
78.046400 1213929.000000
79.054200 30419498.000000
81.033500 2755845.000000
82.065200 1131411.600000
84.080800 10740895.000000
89.038600 5178614.500000
91.054200 64857856.000000
94.041400 751719.600000
94.065200 115113.700000
95.049100 54155824.000000
102.046400 1501996.800000
103.054200 6816636.500000
105.044700 39439912.000000
106.041800 229056.000000
107.049100 18452528.000000
114.046400 436157.800000
115.054200 104358528.000000
116.062000 2429992.200000
117.069900 5376458.500000
126.046400 646588.400000
127.054300 2529491.800000
128.062000 32792046.000000
129.044900 151262.000000
129.069900 2937592.500000
131.049200 3867084.200000
139.054200 3187731.800000
140.062000 614357.600000
141.069900 21130090.000000
142.077800 543061.200000
143.073000 193873.600000
144.056900 227469.100000
144.080900 131347.300000
145.064900 2397726.200000
150.046500 431728.900000
151.054200 2206400.800000
152.062100 33933052.000000
153.069700 1288487.200000
155.060300 5397984.500000
157.064900 130514.300000
163.053900 1445478.200000
164.062000 3576898.200000
165.069900 111022096.000000
166.077700 4548440.500000
167.085500 736945.400000
168.057000 4682177.500000
169.064800 3641688.000000
175.054100 618309.200000
176.062100 12043422.000000
177.069900 8785175.000000
178.077700 44126124.000000
179.060500 1386927.200000
179.085400 1194857.400000
181.064800 908846.100000
187.054300 469351.900000
188.061500 246836.400000
189.069900 31112944.000000
190.077700 19510976.000000
191.085500 25964746.000000
192.057000 185036.400000
192.093200 778200.700000
193.064800 1807660.800000
194.072600 2204222.000000
195.080600 170515.100000
196.052100 482448.000000
200.062100 9831352.000000
201.069900 11976739.000000
202.077700 36930444.000000
203.085500 2161980.800000
204.093800 119736.300000
205.064900 5859522.500000
207.080400 529184.700000
213.069900 3568330.500000
214.077200 1122978.400000
215.085600 18631178.000000
216.093300 141974.400000
218.072700 7288933.000000
219.080500 7855059.500000
220.088000 578392.700000
229.076100 1771756.400000
231.080800 155584.100000
233.095700 133563.200000

>ms2
50.015100 10228672.000000
51.023000 9499650.000000
52.030800 112189.600000
53.002200 1262062.100000
53.038600 14187820.000000
53.997400 111073.600000
54.033900 209636.400000
55.017900 2894962.000000
56.049500 1723000.100000
57.057300 106119.200000
58.065100 10929982.000000
61.007200 166505.200000
62.015100 1126963.900000
63.022900 8002101.000000
65.038600 34278416.000000
67.041600 229776.900000
67.054200 180072.400000
67.989400 165581.000000
68.049500 1927155.000000
69.057300 486615.600000
70.065100 3280387.500000
72.080700 155888.300000
74.015100 226611.700000
75.022800 1500523.900000
76.030700 446766.100000
77.038500 28131826.000000
78.046400 3034326.200000
79.054200 7085766.500000
81.033500 1843483.100000
82.065100 185613.400000
84.080800 2509597.000000
86.015200 219828.400000
87.022900 566706.100000
88.030700 379676.000000
89.038600 16049310.000000
90.046400 438971.400000
91.054200 36575364.000000
94.041300 719983.100000
95.049200 38214932.000000
101.038600 103753.000000
102.046400 5894581.000000
103.054200 2575604.200000
105.044800 29025412.000000
107.049100 1936975.400000
113.038500 1090973.600000
114.046400 515396.300000
115.054300 79172224.000000
116.062200 831191.900000
117.069900 622067.800000
125.038700 392696.400000
126.046400 3547137.200000
127.054200 3016870.200000
128.062100 24200192.000000
129.044800 697450.200000
129.070100 488585.200000
131.049200 533304.700000
132.057100 219537.500000
138.046500 224059.800000
139.054200 14466718.000000
140.061900 756275.200000
141.069900 6468862.500000
145.064900 1150911.800000
150.046500 4866977.500000
151.054300 4882564.500000
152.062100 36744544.000000
153.069900 503478.700000
155.060400 3298562.500000
162.046600 180729.800000
163.054200 9076207.000000
164.062100 15276107.000000
165.070000 81307832.000000
166.077700 197834.800000
168.057000 5954009.000000
169.064800 9946788.000000
174.046400 805809.400000
175.054200 860294.200000
176.062100 21193756.000000
177.070000 7699293.500000
178.077800 14092567.000000
179.060300 3922062.800000
181.064400 102960.400000
187.054200 1841262.600000
188.062000 1967728.400000
189.069900 56537092.000000
190.077700 7240420.000000
191.085500 3469589.800000
192.057100 979540.400000
193.064900 1322212.000000
196.052000 1499953.000000
198.047000 129622.900000
199.054300 619109.400000
200.062100 26163268.000000
201.069900 6096450.000000
202.077700 11931162.000000
203.060300 754063.800000
203.085600 455151.100000
205.064900 2245057.800000
211.054800 113021.900000
213.069900 8608085.000000
214.077800 1293939.600000
215.085700 5561214.500000
217.065300 327448.000000
218.072600 3008879.000000
219.080800 1836656.900000
229.076000 363074.800000
231.080200 140965.100000

>ms2
50.015100 16812922.000000
51.023000 17264562.000000
52.030700 156029.900000
53.002200 2372611.800000
53.038600 9885859.000000
53.997400 429308.600000
54.033900 207709.700000
55.017900 2120437.200000
56.049500 1212130.200000
58.065100 4693518.000000
61.007200 880353.600000
62.015100 3728191.200000
63.022900 19007242.000000
65.038600 35707000.000000
67.041600 160604.600000
67.054200 141511.400000
67.989300 423215.400000
68.049500 2088358.900000
69.057400 104537.400000
70.065100 637651.200000
74.015000 2134292.800000
75.022900 3796045.500000
76.030700 2730741.200000
77.038500 17944092.000000
78.046400 6083802.500000
79.054200 1293405.600000
81.033400 1295510.000000
84.080800 722184.000000
86.015100 933696.700000
87.022900 2796888.000000
88.030800 700523.200000
89.038600 21865276.000000
90.046400 199907.300000
91.054200 17935696.000000
94.041300 403665.900000
95.049100 20747686.000000
98.015100 1162102.750000
99.022800 762226.625000
101.038500 196832.100000
102.046400 11562594.000000
103.054200 1106268.600000
105.044700 13756334.000000
107.049200 240798.100000
113.038500 2619779.800000
114.046400 1007011.900000
115.054200 60589152.000000
116.062000 178083.900000
119.049100 142123.900000
125.038500 1288901.100000
126.046400 9156563.000000
127.054200 3052931.800000
128.062000 13105296.000000
129.044700 839102.900000
132.057000 180001.700000
137.038500 634947.312500
138.046400 737898.900000
139.054200 23965136.000000
140.062000 660196.800000
141.069800 1240612.800000
143.049000 166710.000000
145.065000 946628.200000
149.038500 856531.937500
150.046400 15746872.000000
151.054200 6703068.000000
152.062100 22030364.000000
155.060300 2980952.200000
162.046200 1154342.100000
163.054200 29046252.000000
164.062000 15964503.000000
165.069900 34035588.000000
167.049200 634377.062500
168.057000 6152071.000000
169.064800 14094044.000000
174.046500 3515928.500000
175.054300 1282781.400000
176.062100 20017916.000000
177.069900 2429365.200000
178.077600 2160503.800000
179.060300 5190902.000000
187.054200 8663363.000000
188.062000 5507690.000000
189.069900 43952952.000000
190.077700 467262.200000
191.086000 117491.800000
192.057000 2021641.000000
193.064900 1399679.500000
196.051900 1959405.200000
198.046400 1111698.200000
199.054300 2223776.500000
200.062000 21320764.000000
201.069900 2441870.000000
202.077700 3801271.200000
203.060400 689894.100000
205.064600 864669.200000
211.054100 930319.800000
213.069900 9023514.000000
214.077800 175552.700000
215.085400 893413.800000
217.064800 766286.700000
218.072600 214035.300000
219.080400 563715.700000

