>compound EQ32105474
>parentmass 152.107
>ionization [M+H]+
>formula C9H13NO
>rt 144.000000
>profile orbitrap
#smiles_iso CC(C(C1=CC=CC=C1)O)N
#smiles_can CC(C(C1=CC=CC=C1)O)N
#inchikey DLNKOYKMWOXYQA-UHFFFAOYSA-N
#pubchem_id 4786
#mb_accession EQ368401,EQ368402,EQ368403,EQ368404,EQ368405,EQ368406,EQ368407,EQ368408,EQ368409

>ms2peaks
56.049500 2390411.800000
57.033500 678513.000000
91.054000 795861.000000
93.069900 400113.400000
115.054100 1184468.500000
117.069900 30025434.000000
119.072900 338297.300000
134.096400 256258608.000000
135.080400 2317527.800000
152.107100 5406446.000000

>ms2peaks
56.049500 2677885.200000
57.033500 800326.500000
91.054100 803240.400000
115.054400 1121378.000000
117.069900 33969840.000000
119.072800 373347.800000
134.096500 297533408.000000
135.080400 2592375.200000
152.107100 6408550.500000

>ms2peaks
56.049500 9086228.000000
57.033500 1619552.600000
79.054300 288895.900000
91.054200 2276976.500000
93.070000 1597749.800000
106.065200 735500.600000
115.054300 9478341.000000
117.069900 100362160.000000
119.072900 2040250.000000
134.096400 208950640.000000
135.080400 1473045.200000
152.107200 494148.800000

>ms2peaks
56.049500 14259730.000000
57.033500 1364860.500000
77.038500 172508.700000
79.054200 562997.200000
91.054300 11298556.000000
93.070000 2188432.800000
105.069800 245346.200000
106.065200 1008880.300000
107.085700 153154.000000
115.054300 43675524.000000
116.062200 756293.500000
117.069900 131268880.000000
118.064900 334148.400000
119.073000 5530636.500000
134.096500 82956344.000000
135.080400 324528.100000

>ms2peaks
56.049500 11862681.000000
57.033500 1199296.800000
63.022900 223598.900000
65.038600 293112.800000
77.038500 359136.400000
79.054200 666820.100000
91.054300 31590238.000000
93.057400 233305.200000
93.070000 1496199.400000
94.065200 215361.700000
95.049300 222566.800000
104.049400 516959.900000
105.044700 99983.200000
105.069900 439836.900000
106.065200 1014646.100000
115.054300 78662416.000000
116.062100 2109204.000000
117.069900 87869152.000000
118.065100 2024365.400000
119.073000 8652339.000000
133.065000 92786.600000
134.096500 21721764.000000
143.060500 203202.100000

>ms2peaks
53.038600 207500.900000
56.049500 7380676.500000
57.033500 689839.400000
57.057300 196246.000000
65.038600 804986.600000
77.038500 565435.400000
79.054200 754331.400000
89.038500 101321.200000
91.054200 57281140.000000
92.062100 198391.000000
93.057300 196738.800000
93.069900 874736.100000
95.049100 636376.700000
102.046500 97879.600000
104.049400 1475422.200000
105.044900 451455.800000
105.069800 463412.700000
106.065200 902316.800000
115.054300 89559768.000000
116.062000 3483285.500000
117.069900 40676460.000000
118.065100 5747578.000000
119.073000 8114773.000000
133.064900 187275.500000
134.096400 4653480.500000
143.060500 187537.000000

>ms2peaks
50.015100 95483.600000
51.022800 343376.900000
53.002200 192358.600000
53.038600 594130.200000
56.049500 2282657.800000
57.033500 203842.800000
57.057300 418249.300000
63.022800 417452.200000
65.038600 7624213.500000
77.038600 1335525.200000
78.046400 346999.800000
79.054200 583396.600000
89.038600 1667016.200000
91.054300 70309696.000000
92.062000 483500.200000
93.057400 281400.300000
93.070000 87986.900000
95.049200 1574217.000000
102.046500 366104.200000
103.054200 167726.500000
104.049500 3396512.500000
105.044800 905999.400000
105.069800 342811.700000
106.065300 301520.700000
115.054300 60424928.000000
116.062100 3462378.800000
117.057400 412744.100000
117.069900 4526675.500000
118.065200 10002693.000000
119.073000 2777796.500000
134.096400 177539.500000

>ms2peaks
50.015200 684290.800000
51.023000 1610116.200000
53.002200 608015.800000
53.038600 798057.400000
53.997500 91046.000000
56.049500 890055.500000
57.033500 66347.500000
57.057300 455862.900000
62.015200 200618.200000
63.023000 2350697.200000
65.038600 24882238.000000
67.989300 96364.400000
74.015200 61208.300000
75.022900 304439.500000
76.030700 90109.000000
77.038600 2143496.200000
78.046400 697294.100000
79.054200 467623.700000
80.049600 85102.600000
81.033500 74773.700000
89.038600 6486173.500000
90.046500 211112.800000
91.054300 57001920.000000
92.062000 296514.800000
93.057400 332388.100000
95.049200 2291612.000000
102.046500 597881.100000
103.054100 97939.200000
104.049500 3349588.200000
105.044800 1760157.800000
105.069900 90747.500000
114.046400 147962.500000
115.054300 34692920.000000
116.062100 1595814.200000
117.057300 1272266.000000
117.069900 323035.700000
118.065200 6719710.500000
119.073000 436076.600000

>ms2peaks
50.015200 1454206.600000
51.023000 4182872.500000
52.030800 216388.100000
53.002200 752127.600000
53.038600 679335.400000
53.997500 152964.000000
56.049500 311706.600000
57.057300 210756.800000
62.015100 475760.500000
63.023000 4772527.500000
65.038600 27010038.000000
66.046400 65425.900000
67.989300 189550.500000
74.015100 230292.100000
75.023000 411736.700000
76.030700 349576.500000
77.038600 1743659.000000
78.046500 561657.800000
79.054200 189415.300000
80.049500 63383.900000
81.033500 175923.700000
87.023000 260205.700000
89.038600 6426007.500000
90.046500 311716.800000
91.054300 26114132.000000
92.049500 56507.700000
92.062100 36533.200000
93.057300 174584.200000
95.049200 1746852.100000
102.046400 627260.200000
104.049500 1419653.000000
105.044800 1557524.100000
114.046600 168772.200000
115.054300 12759430.000000
116.062100 304090.400000
117.057400 1403129.800000
118.065100 1810364.100000

