>compound EQ33484982
>parentmass 294.1368
>ionization [M+H]+
>formula C15H20ClN3O
>rt 636.000000
>profile orbitrap
#smiles_iso CC(C)(C)C(C(CC1=CC=C(C=C1)Cl)N2C=NC=N2)O
#smiles_can CC(C)(C)C(C(CC1=CC=C(C=C1)Cl)N2C=NC=N2)O
#inchikey RMOGWMIKYWRTKW-UHFFFAOYSA-N
#pubchem_id 616765
#mb_accession EQ370501,EQ370502,EQ370503,EQ370504,EQ370505,EQ370506,EQ370507,EQ370508,EQ370509

>ms2
57.069700 190170.500000
70.039900 14295316.000000
87.080300 102996.500000
125.015500 276516.200000
139.030800 147071.200000
165.046600 82979.800000
207.093700 404631.700000
294.136700 79386744.000000

>ms2
57.069900 1550814.500000
59.049200 171204.000000
69.069900 140260.200000
70.040000 56006524.000000
71.085500 278980.200000
83.085500 115190.700000
87.080500 1266359.900000
113.096100 184847.300000
125.015300 874259.200000
139.031000 898694.900000
141.010200 121478.600000
151.031000 184524.900000
155.025800 237090.500000
165.046600 1117811.800000
207.093700 1170926.500000
294.136800 12465645.000000

>ms2
57.069900 1675439.500000
59.049200 462362.700000
69.069900 716320.400000
70.039900 56469128.000000
71.085500 249664.000000
83.085500 151568.500000
87.080500 1740133.400000
103.054200 60498.400000
113.015200 80967.600000
113.096100 211815.700000
119.049100 126232.500000
125.015300 3892056.000000
130.077700 83672.800000
139.030900 1333988.100000
141.010200 256264.700000
151.031000 333548.100000
155.025800 274939.600000
165.046700 1995713.400000
207.093600 130143.700000
294.136800 179448.300000

>ms2
55.054200 72189.500000
57.069900 1262577.400000
59.049200 467662.800000
69.069900 1363107.900000
70.040000 51979816.000000
71.085500 127408.900000
83.085500 113008.800000
87.080500 1070065.200000
91.054200 170107.500000
103.054200 440070.300000
113.015200 224001.200000
113.096100 103955.100000
115.054200 52400.100000
116.062100 62128.500000
119.049100 88359.100000
125.015300 6218389.500000
129.069900 189944.500000
130.077800 518519.400000
137.015300 301062.300000
139.030900 1071779.500000
141.010200 182897.700000
151.031000 268338.800000
155.025900 97687.300000
165.046600 1136326.000000

>ms2
53.002200 52697.900000
55.054300 115827.500000
57.069900 823039.400000
59.049200 465388.600000
69.069900 1256167.100000
70.040000 48276776.000000
71.085500 50896.200000
77.038500 58511.400000
87.080500 383009.700000
89.038600 359655.800000
90.046500 49771.700000
91.054300 215246.200000
95.049100 173364.100000
98.999700 113906.400000
102.046400 150926.000000
103.054200 949052.000000
105.044900 86589.900000
113.015300 185890.800000
115.054300 115169.700000
116.062100 174785.700000
125.015300 7837961.000000
128.062100 68904.300000
129.069900 317410.200000
130.077800 686499.100000
137.015400 302165.400000
139.031000 493326.200000
141.010300 82245.700000
151.031000 105843.200000
164.070700 49319.400000
165.046700 351345.700000

>ms2
53.002200 74238.000000
53.038600 79252.100000
55.054300 65444.000000
57.069900 493924.900000
59.049200 446744.400000
63.022900 55601.300000
67.054200 55092.300000
69.069900 729176.700000
70.040000 41024728.000000
77.038500 118356.600000
87.080500 122846.300000
89.038600 958054.500000
90.046500 212751.700000
91.054200 213199.900000
95.049200 273120.900000
98.999700 469941.000000
102.046400 279777.600000
103.054200 886176.900000
104.062100 81580.400000
105.044800 159400.800000
113.015300 113315.200000
115.054300 252675.600000
116.062100 187407.300000
125.015300 7168954.500000
128.062000 146588.200000
129.044800 125781.200000
129.069900 348911.200000
130.077800 529592.400000
137.015300 195198.200000
139.031000 164608.300000
143.085600 41655.600000
151.031100 50928.300000

>ms2
50.015100 31518.300000
51.022900 57235.900000
53.002300 68806.900000
53.038600 130472.400000
55.054200 34119.400000
57.069900 120881.700000
59.049200 203927.900000
63.023000 394645.800000
65.038600 205652.600000
66.046500 45101.800000
69.069900 178968.400000
70.040000 27862956.000000
72.983900 211053.900000
74.999500 75332.500000
75.022900 153133.600000
77.038500 170044.900000
78.046400 54393.400000
89.038600 2546181.800000
90.046500 903074.100000
91.054300 217112.100000
95.049200 427670.100000
98.999600 1429913.100000
101.038500 45076.600000
102.046500 315953.900000
103.054200 311420.900000
104.062000 85168.700000
105.044800 284903.300000
115.054300 419802.000000
116.062200 89041.300000
119.049200 42162.500000
125.015400 3614926.200000
128.062100 233283.100000
129.044700 130233.600000
129.069900 344161.300000
130.077900 75114.500000
141.070000 48640.500000
142.077800 41120.400000
155.060500 38145.600000

>ms2
50.015100 124300.900000
51.023000 145683.200000
53.002200 99226.700000
53.038600 114369.800000
59.049200 103256.200000
62.015200 120801.300000
63.023000 1234977.000000
64.030800 66806.100000
65.038600 389816.500000
66.046400 74057.000000
69.070000 19245.300000
70.040000 19127800.000000
72.984000 909224.200000
74.015100 40275.800000
74.999600 184208.700000
75.022900 347382.900000
76.030800 39063.400000
77.038500 209563.900000
78.046400 140379.800000
89.038600 3290393.000000
90.046500 1022880.100000
91.054300 171724.800000
95.049200 410109.100000
96.984000 47691.700000
98.999700 1768782.800000
102.046500 285978.300000
103.054300 151527.900000
104.062100 36908.400000
105.044800 249462.900000
115.054300 558241.200000
116.062100 28212.600000
125.015400 1211769.100000
128.062200 293654.800000
129.044900 51697.400000
129.069900 152139.900000
141.070000 64078.000000
155.060500 64628.300000

>ms2
50.015200 173410.000000
51.023000 435777.700000
53.002200 133691.800000
53.038600 87923.900000
53.997400 31111.100000
57.033500 30857.300000
59.049200 46216.600000
61.007300 71418.400000
62.015100 327851.100000
63.023000 1928044.400000
64.030800 148333.400000
65.038600 319150.300000
66.046400 33822.600000
70.040000 9150681.000000
72.984000 1317040.200000
74.015100 125745.600000
74.999600 167790.100000
75.022900 409219.700000
76.030800 87235.400000
77.038600 121127.000000
78.046400 109471.400000
81.033300 9983.200000
89.038600 2615983.800000
90.046500 495013.900000
91.054300 124383.100000
95.049200 284225.600000
96.984000 49038.800000
98.999700 951465.900000
102.046400 162894.000000
103.054200 88992.900000
105.044800 145994.700000
115.054300 348283.200000
125.015300 209574.900000
127.054100 29319.800000
128.062100 141089.900000
129.070100 15157.800000
141.069900 43545.800000
155.060300 35106.200000

