>compound EQ33680591
>parentmass 115.08659999999999
>ionization [M+H]+
>formula C5H10N2O
>rt 246.000000
>profile orbitrap
#smiles_iso C1CCN(CC1)N=O
#smiles_can C1CCN(CC1)N=O
#inchikey UWSDONTXWQOZFN-UHFFFAOYSA-N
#pubchem_id 7526
#mb_accession EQ345301,EQ345302,EQ345303,EQ345304,EQ345305,EQ345306

>ms2
53.002200 3525754.200000
55.054200 1164939.800000
59.024000 1506559.200000
67.054200 5242029.500000
69.069900 292606112.000000
70.065100 8260129.000000
84.080700 1761926.000000
115.086500 914619520.000000

>ms2
53.002200 3295315.500000
59.024000 1232818.500000
67.054200 4416352.000000
69.069900 297812448.000000
70.065100 9902448.000000
84.080700 1545995.000000
115.086500 954187072.000000

>ms2
53.002200 3484629.000000
55.054200 887534.500000
59.023900 1547281.200000
67.054200 5318711.000000
69.069900 306041280.000000
70.065100 7715714.500000
84.080800 1745377.000000
115.086500 880273024.000000

>ms2
53.002200 8229128.500000
53.997400 1283125.000000
54.010000 472745.500000
55.054200 1949066.600000
59.024000 1765526.800000
59.049100 555903.200000
67.054200 7840206.500000
67.989300 1503691.800000
69.069900 350820736.000000
70.065100 9289010.000000
70.077700 731420.000000
84.080800 1297172.600000
115.086600 444155424.000000

>ms2
52.018200 449326.900000
53.002200 15281448.000000
53.997400 2864666.200000
54.010000 718671.900000
55.054200 4463911.000000
59.024000 3364126.800000
67.054200 9590587.000000
67.989300 2810492.500000
69.069900 303333600.000000
70.065100 8511140.000000
70.077700 839227.100000
78.008700 404753.200000
84.080800 1434716.500000
115.086600 197906000.000000

>ms2
52.018200 375771.800000
53.002200 21228414.000000
53.997400 2425385.800000
54.010000 723834.600000
55.017800 506304.900000
55.054200 7343298.000000
56.049500 493402.800000
59.024000 2666801.800000
59.049100 345264.200000
67.054200 8594404.000000
67.989300 3205899.000000
69.069900 167504784.000000
70.065100 5390032.000000
70.077700 722319.400000
78.008600 797093.300000
84.080700 922670.100000
115.086600 64921108.000000

