>compound EQ34197157
>parentmass 101.0709
>ionization [M+H]+
>formula C4H8N2O
>rt 132.000000
>profile orbitrap
#smiles_iso C1CCN(C1)N=O
#smiles_can C1CCN(C1)N=O
#inchikey WNYADZVDBIBLJJ-UHFFFAOYSA-N
#pubchem_id 13591
#mb_accession EQ345001,EQ345002,EQ345003,EQ345004,EQ345005,EQ345006

>ms2
53.038600 526810.200000
55.054200 28119732.000000
56.062000 393265.100000
59.024000 1722105.500000
70.065100 173823.600000
101.070900 145776352.000000

>ms2
53.038600 479933.100000
55.054200 27817966.000000
56.062000 511723.600000
59.024000 1847848.600000
70.065100 190138.600000
101.070900 144173088.000000

>ms2
53.038600 499537.700000
55.054200 27942590.000000
56.062000 549592.900000
59.024000 1691422.000000
70.065100 224221.300000
101.070900 146539024.000000

>ms2
53.002200 136462.200000
53.038600 788076.400000
55.054200 37380620.000000
56.062000 788395.000000
59.024000 2721468.500000
70.065100 141006.400000
101.070900 110937304.000000

>ms2
53.002200 361299.600000
53.038600 1250079.200000
55.054200 44467644.000000
56.062000 1151467.000000
58.041300 98278.000000
59.024000 3099865.200000
67.989300 65550.600000
70.065100 229059.000000
71.072900 68420.600000
73.064700 92711.700000
101.070900 62084476.000000

>ms2
53.002200 369575.000000
53.038600 1415997.500000
53.997500 55135.200000
55.054200 40402612.000000
56.062000 1131708.900000
58.041300 91064.200000
59.024000 3045208.800000
67.989300 65111.600000
70.065100 176206.800000
101.070900 29801658.000000

