>compound EQ34816120
>parentmass 240.9956
>ionization [M+H]+
>formula C6H12N2S4
>rt 390.000000
>profile orbitrap
#smiles_iso CN(C)C(=S)SSC(=S)N(C)C
#smiles_can CN(C)C(=S)SSC(=S)N(C)C
#inchikey KUAZQDVKQLNFPE-UHFFFAOYSA-N
#pubchem_id 5455
#mb_accession EQ372401,EQ372402,EQ372403,EQ372404,EQ372405,EQ372406,EQ372407,EQ372408,EQ372409

>ms2
56.049500 7996.400000
58.065100 8376.100000
63.943500 9052.200000
72.998000 27412.600000
88.021500 7704841.000000
119.993600 3990302.500000
151.965500 17105.600000
195.937800 435702.700000

>ms2
56.049500 15873.800000
58.065100 18365.500000
63.943500 12622.700000
71.990200 8240.700000
72.998000 41299.700000
76.021300 14964.000000
76.951300 8644.500000
88.021500 7244223.000000
119.993600 4514175.500000
151.965600 21318.100000
195.937800 137930.000000

>ms2
56.049500 43477.200000
58.065100 31920.600000
61.010600 11468.600000
63.943500 8195.900000
69.069800 6532.900000
71.990100 7787.900000
72.998000 81896.500000
76.021500 121746.800000
76.951300 25653.700000
81.069900 8687.300000
88.021500 6486706.500000
119.993600 4023600.000000
151.965600 13491.600000
195.937700 10489.500000

>ms2
56.049500 98387.600000
57.069800 7855.400000
58.065100 20925.900000
61.010600 28174.900000
71.990300 21116.100000
72.998000 230833.200000
76.021500 390422.700000
76.951400 64099.100000
81.069800 14025.200000
88.021500 5617474.000000
119.993600 2364339.500000
151.965700 9059.700000

>ms2
55.054300 8746.800000
56.049500 214679.200000
58.065200 20324.100000
60.998000 8053.800000
61.010600 53842.000000
63.943400 6146.700000
69.069800 7354.600000
71.990200 49884.500000
72.998000 571832.600000
76.021500 705239.400000
76.951300 68989.400000
79.054100 9700.500000
81.069800 11950.400000
88.021500 4961824.000000
95.049200 8088.000000
119.993600 1060839.800000

>ms2
55.054200 6179.100000
56.049500 289397.000000
58.065100 23961.600000
60.998000 33424.200000
61.010600 68678.200000
63.943600 9092.600000
67.054200 3769.300000
71.990200 114962.700000
72.998000 1008979.600000
76.021500 726300.000000
76.951400 79341.600000
79.054200 6708.600000
81.069700 5935.700000
88.021500 3699628.000000
95.049100 8284.500000
119.993600 369325.300000

>ms2
55.054200 7541.600000
56.049500 319015.400000
58.065200 13292.100000
58.995000 3465.500000
59.966500 12958.800000
59.990300 3220.100000
60.998100 104872.000000
61.010600 75206.800000
63.943600 49858.600000
65.038500 2429.000000
67.054100 2811.200000
71.990200 384614.500000
72.998000 2059279.900000
76.021500 518938.000000
76.951400 63366.200000
79.054100 8234.600000
88.021500 2169791.200000
95.049100 7585.800000
105.044800 5964.000000
119.993600 38571.800000

>ms2
51.022900 2027.600000
53.038600 2312.400000
55.054200 2421.400000
56.049500 200299.500000
58.065100 6785.100000
59.966400 20782.800000
59.990200 5711.100000
60.998100 138123.200000
61.010600 34947.700000
63.943600 118800.400000
65.038500 2482.400000
71.990200 626010.800000
72.998000 1978205.500000
74.005900 5354.900000
76.021500 181468.200000
76.951400 37946.100000
88.021500 812166.000000
95.049200 3421.800000

>ms2
51.022900 8269.500000
56.049500 138581.300000
58.065100 5725.700000
59.966500 48763.000000
59.990200 14668.200000
60.998100 119166.100000
61.010600 29669.100000
63.943600 213905.800000
71.990200 929333.200000
72.998000 1670018.400000
74.005900 13594.800000
76.021500 58798.300000
76.951300 23270.500000
88.021500 292395.800000
95.049100 3269.400000
105.044700 1836.200000

