>compound EQ34241613
>parentmass 223.154
>ionization [M+H]+
>formula C10H22O5
>rt 270.000000
>profile orbitrap
#smiles_iso COCCOCCOCCOCCOC
#smiles_can COCCOCCOCCOCCOC
#inchikey ZUHZGEOKBKGPSW-UHFFFAOYSA-N
#pubchem_id 8925
#mb_accession EQ316401,EQ316402,EQ316403,EQ316404,EQ316405,EQ316406,EQ316407,EQ316408,EQ316409

>ms2peaks
59.049100 258534320.000000
73.064700 953861.500000
89.059700 14038586.000000
103.075400 365632512.000000
133.085900 7237679.500000
147.101600 39958764.000000
165.112000 654471.600000

>ms2peaks
59.049100 315254848.000000
73.064700 861582.300000
89.059700 10308780.000000
103.075300 260739072.000000
133.085900 2690593.200000
147.101600 8973215.000000

>ms2peaks
59.049100 342195936.000000
73.064800 554572.100000
89.059700 3784065.500000
103.075300 101228984.000000

>ms2peaks
59.049100 281771712.000000
89.059700 1094094.400000
103.075400 29275010.000000

>ms2peaks
59.049100 172469040.000000
103.075400 6331902.000000

>ms2peaks
53.002300 99379.900000
59.049100 98850264.000000
103.075300 1210500.000000

>ms2peaks
53.002200 115250.300000
59.049200 31780262.000000

>ms2peaks
53.002100 86139.700000
59.049200 6423871.500000

>ms2peaks
53.002300 68107.900000
59.049200 1447610.100000

