>compound EQ35408986
>parentmass 292.1211
>ionization [M+H]+
>formula C15H18ClN3O
>rt 708.000000
>profile orbitrap
#smiles_iso CC(C)(C)C(C(=CC1=CC=C(C=C1)Cl)N2C=NC=N2)O
#smiles_can CC(C)(C)C(C(=CC1=CC=C(C=C1)Cl)N2C=NC=N2)O
#inchikey YNWVFADWVLCOPU-UHFFFAOYSA-N
#pubchem_id 91737
#mb_accession EQ358201,EQ358202,EQ358203,EQ358204,EQ358205,EQ358206,EQ358207,EQ358208,EQ358209

>ms2
70.039900 17114702.000000
274.111100 1257496.500000
292.121000 1233608448.000000

>ms2
57.069800 3044139.200000
59.049100 756102.100000
70.039900 298853952.000000
85.064800 715661.800000
87.080400 1784690.100000
97.064900 710750.200000
125.015300 15569038.000000
137.015200 1704077.800000
138.994500 7952593.500000
139.030800 1372681.500000
163.030800 1582351.900000
165.046800 868854.500000
167.025800 1004564.300000
169.101300 718941.900000
170.109000 7102390.000000
177.046600 3821626.500000
179.062300 1337454.400000
181.041600 871217.200000
191.037100 1930481.000000
191.062200 1186691.500000
192.032500 1336905.500000
205.077900 12224060.000000
218.048000 14716803.000000
223.088500 1988908.800000
231.055700 793740.800000
232.063500 2520155.000000
235.050700 6954248.500000
236.058000 1456664.900000
274.110700 12400395.000000
292.121100 678773696.000000

>ms2
55.054200 564029.200000
57.069900 8197389.000000
59.049200 1264612.500000
69.069900 3802063.000000
70.040000 549219136.000000
85.064800 590294.000000
87.080500 6164900.000000
93.070000 2199584.000000
96.055500 574275.400000
97.064900 1423640.500000
110.071300 564729.200000
125.015300 40214108.000000
128.061900 1198247.900000
131.048800 778294.700000
137.015300 6586111.500000
138.994600 17058866.000000
139.030900 3498413.000000
141.070000 1011893.600000
142.077800 4885885.500000
145.064800 880706.500000
149.015400 714006.900000
151.031100 1364498.600000
153.010400 891290.400000
153.046600 747982.200000
155.060200 606752.000000
155.085500 1435931.600000
156.068200 687537.400000
156.093300 591603.900000
159.080200 870641.000000
163.030900 4764381.000000
165.046600 1323116.400000
167.025900 1676818.500000
169.076100 1034845.900000
169.101300 1562022.500000
170.109000 16248599.000000
173.096100 603472.600000
176.038400 1068655.900000
177.046600 7496816.500000
179.062200 1283433.100000
181.041500 1389877.900000
182.071300 3027168.500000
183.079100 2081610.400000
188.119700 1182987.500000
190.054300 2799020.000000
191.037000 1610782.000000
191.062100 1845880.200000
192.032300 2096091.200000
196.087000 1139968.800000
205.077900 6528735.500000
206.048400 619452.200000
218.048100 12114727.000000
231.055800 1996646.800000
232.063800 3537246.200000
234.042700 711017.600000
235.050800 4310176.000000
236.058400 1830505.600000
244.063700 1507012.600000
274.110700 3211069.000000
292.121200 46646576.000000

>ms2
55.054300 1026488.400000
57.069900 9641929.000000
59.049200 1512625.200000
69.069900 7585327.500000
70.040000 534479104.000000
87.080500 5455112.500000
91.054200 1303765.900000
93.069900 1561240.500000
97.064800 837326.400000
102.046400 1305540.000000
103.054200 2144939.500000
115.054200 680502.000000
125.015300 52163664.000000
128.062000 3915989.500000
129.010000 756845.200000
129.069800 1391655.500000
130.077700 1111305.100000
131.049100 1313844.400000
132.056800 976716.600000
137.015300 7105204.000000
138.994600 15534440.000000
139.005700 3134536.000000
139.030900 3752799.500000
141.069800 2815193.000000
142.077800 9009652.000000
144.093600 763949.800000
145.064800 1989105.000000
146.072700 819399.600000
149.015300 2118152.000000
151.030800 1387914.800000
155.060500 2327713.000000
155.085500 8816300.000000
156.068200 1532047.100000
156.093400 551347.600000
157.063300 1270368.100000
159.080600 1148982.200000
163.030900 3996424.500000
169.076100 1750855.500000
169.101200 1107748.500000
170.109000 11430901.000000
173.096200 789627.200000
176.038900 2029616.800000
177.046700 1945342.000000
182.071300 3488345.000000
183.079200 4788167.500000
190.054400 3266629.800000
191.037100 672803.700000
192.032400 789235.600000
196.087200 1147906.900000
197.094800 599301.400000
205.077800 865279.800000
218.048100 2228047.500000
230.048300 951178.800000
231.055800 1029183.700000
232.063600 567583.700000
244.063700 1435561.800000
258.079300 688806.600000

>ms2
53.002200 527892.400000
55.054200 1076042.800000
57.069900 7213502.000000
59.049100 614529.200000
69.069900 8209940.000000
70.040000 462041120.000000
77.038400 782616.100000
86.999600 640956.200000
87.080500 2304384.500000
89.038600 2023153.900000
91.054300 2156988.000000
93.070000 829870.400000
95.049100 625558.200000
98.999700 882811.100000
102.046400 2545176.200000
103.054200 4357746.500000
105.044800 511088.500000
115.054200 1964289.000000
116.062100 1213734.900000
117.069900 588774.100000
125.015300 46573644.000000
128.062000 5812339.500000
129.010100 1721130.400000
129.044900 1119156.000000
129.069900 2079882.100000
130.077700 698663.100000
131.049100 1905530.600000
132.057100 973852.400000
137.015300 3870731.800000
138.994600 8343847.500000
139.005800 6226176.000000
139.030900 1632636.000000
141.069900 4624178.500000
142.077800 7734399.000000
145.064900 1702661.800000
146.072700 591830.600000
149.015300 2075953.500000
151.030900 517491.700000
153.069800 992554.500000
154.077700 892958.900000
155.060300 3370899.500000
155.085500 14733660.000000
156.068100 1213554.400000
157.063500 1394502.800000
159.080400 745234.700000
163.031000 1114092.000000
169.076200 1075901.200000
169.101000 903321.700000
170.109000 2984086.500000
173.096200 581907.200000
175.030900 931397.400000
176.039000 982757.400000
182.071400 882693.000000
183.079100 2852478.800000
190.054400 1094824.900000
196.087100 859069.900000
230.047900 627326.400000
244.063500 880728.200000

>ms2
53.002300 794552.200000
53.038600 663568.500000
55.054300 939342.600000
57.069900 5538972.500000
59.049200 1020676.800000
63.023000 538321.700000
69.069900 5924223.000000
70.040000 453140096.000000
75.022900 1704775.600000
77.038500 1475395.800000
86.999600 761522.600000
87.080500 802904.800000
89.038600 7980274.500000
90.046400 1662173.500000
91.054300 2112680.500000
95.049200 1355050.100000
98.999600 2922585.000000
102.046400 4183393.500000
103.054200 5634013.500000
104.062100 509589.900000
105.044800 1123643.600000
110.999500 962611.500000
115.054300 5359741.000000
116.062100 2002942.900000
117.069900 846710.200000
125.015300 46417524.000000
127.054000 923949.700000
128.049500 711542.800000
128.062000 6305682.500000
129.010100 3513046.200000
129.044800 1772405.000000
129.057300 678749.600000
129.069900 3614210.500000
130.077800 1221980.000000
131.049100 2040050.500000
132.056900 1448574.000000
137.015300 1770910.900000
138.994600 3914683.800000
139.005800 9243399.000000
139.031000 697150.400000
141.069900 7680743.500000
142.077800 5340457.500000
145.064800 1721893.500000
149.015300 2865404.000000
153.069900 2516037.200000
154.077800 1799267.800000
155.060400 3726277.200000
155.085500 15966695.000000
156.068000 1036382.200000
157.063500 1190322.200000
158.072500 609774.400000
162.022900 919505.100000
164.026200 649714.400000
169.076000 725793.600000
169.101000 603890.300000
175.030900 1800161.200000
183.079000 1227852.500000
230.047900 472180.800000

>ms2
51.022900 574320.600000
53.002200 1146266.400000
53.038600 1360057.400000
57.069900 1529300.900000
59.049100 644341.100000
63.022900 2424095.800000
65.038500 1377243.100000
69.069900 1315786.100000
70.040000 321380512.000000
72.983900 1404034.800000
74.015100 624427.400000
74.999600 630198.000000
75.022900 8596937.000000
77.038500 2250223.000000
78.046300 689159.200000
86.999600 741813.400000
89.038600 16129925.000000
90.046500 5122319.500000
91.054300 2733995.500000
95.049200 3573571.500000
98.999600 7983059.500000
101.038600 788331.700000
102.046400 4511518.000000
103.054200 4671570.000000
104.062100 626815.200000
105.044800 2520272.800000
110.999700 1396775.200000
114.046400 781749.000000
115.054300 11564436.000000
116.062100 1612098.600000
119.049200 432024.300000
125.015300 18782494.000000
126.046600 562421.200000
127.054200 1537370.400000
128.049600 495204.100000
128.062100 9335600.000000
129.010100 2512570.000000
129.044700 1786114.200000
129.057400 442945.100000
129.069900 3214021.800000
130.077800 529538.600000
131.049100 1820402.600000
132.057100 557260.800000
136.007600 445987.200000
137.015500 598535.300000
139.005700 6001336.500000
139.054400 742123.400000
140.049800 426476.500000
140.062200 534605.800000
141.069900 7570394.500000
142.077900 612584.300000
145.064800 1406789.500000
149.015300 2241169.800000
152.062000 1579897.100000
153.069900 4594043.500000
154.077700 1726098.200000
155.060400 3003289.800000
155.085500 3518066.500000
175.031100 945759.400000

>ms2
50.015100 1108003.900000
51.023000 2429402.800000
53.002200 1409083.400000
53.038600 1968636.900000
59.049200 516463.400000
62.015100 643587.200000
63.022900 6453153.000000
65.038600 2907640.000000
66.046400 484136.100000
70.040000 218477824.000000
72.983900 4362025.000000
74.015000 2861493.200000
74.999500 1061802.900000
75.022900 14312768.000000
76.030700 1207189.100000
77.038500 3213035.000000
78.046400 1577789.200000
81.033500 237100.800000
84.984000 1128255.900000
88.030700 558304.600000
89.038600 18782998.000000
90.046400 5215219.500000
91.054200 2891892.800000
95.049100 4946360.500000
98.999600 8485239.000000
101.038700 473363.000000
102.046400 5342434.500000
103.054200 3057493.800000
105.044700 3447619.500000
110.999600 810425.900000
113.038700 865140.400000
114.046500 1080191.000000
115.054300 16127990.000000
116.062000 538982.200000
125.015300 5885602.500000
126.046400 1031972.700000
127.054200 1663508.600000
128.062000 9354601.000000
129.010100 1018087.000000
129.044800 1678377.900000
129.069800 1853833.200000
131.048900 664238.600000
132.057100 418709.800000
139.005800 1836155.500000
139.054100 1721178.600000
140.049400 435089.300000
140.062000 482253.800000
141.069800 3531159.500000
145.064800 1146959.500000
149.015300 1537953.600000
152.062100 2712647.500000
153.069900 3233525.200000
154.077700 514561.600000
155.060300 2930196.000000

>ms2
50.015100 2513007.000000
51.023000 5038928.500000
53.002200 1541833.600000
53.038600 1687327.200000
53.997500 196585.300000
61.007200 208828.400000
62.015100 1873933.000000
63.022900 10108099.000000
64.030800 620243.600000
65.038600 2812639.800000
67.989200 110358.900000
70.040000 104386392.000000
72.983900 5960816.500000
74.015100 5716553.500000
75.022900 13424654.000000
76.030700 1895306.100000
77.038500 3154851.500000
78.046400 1466860.100000
81.033600 212937.100000
84.984000 981761.200000
87.022900 329196.900000
88.030700 661074.800000
89.038600 15354775.000000
90.046500 2401608.000000
91.054300 1572693.500000
95.049200 4166042.500000
96.984000 216541.300000
98.999600 4144126.200000
101.038700 404066.600000
102.046400 4279777.000000
103.054200 1146769.100000
105.044700 2892406.500000
113.038500 972112.600000
114.046500 595768.800000
115.054200 11797652.000000
117.057400 108588.000000
119.049200 177831.300000
125.015400 1230073.100000
126.046400 1441763.100000
127.054200 1559016.800000
128.062100 5777464.000000
129.010400 115639.600000
129.044600 793458.800000
129.069900 377183.500000
131.049200 326182.300000
132.057100 219055.600000
139.005800 200146.300000
139.054300 1965273.500000
141.069900 516637.700000
145.065000 487003.400000
149.015700 459013.800000
152.062100 2777103.200000
153.070000 912629.500000
155.060400 1595992.400000

