>compound EQ35069899
>parentmass 266.0958
>ionization [M+H]+
>formula C12H15N3O2S
>rt 468.000000
>profile orbitrap
#smiles_iso CCCSC1=CC2=C(C=C1)N=C(N2)NC(=O)OC
#smiles_can CCCSC1=CC2=C(C=C1)N=C(N2)NC(=O)OC
#inchikey HXHWSAZORRCQMX-UHFFFAOYSA-N
#pubchem_id 2082
#mb_accession EQ358001,EQ358002,EQ358003,EQ358004,EQ358005,EQ358006,EQ358007,EQ358008,EQ358009

>ms2
234.069700 98543384.000000
266.095800 990909760.000000

>ms2
191.013900 5790716.000000
192.022400 1721065.000000
223.040800 2589439.200000
234.069600 655003968.000000
266.095800 463432992.000000

>ms2
159.042700 9324927.000000
179.050900 1120672.100000
190.006800 1377382.400000
191.014800 66545616.000000
192.022600 76169680.000000
206.074500 945542.100000
223.041100 4666784.500000
234.069600 925942336.000000
266.095800 34023748.000000

>ms2
147.079100 455343.100000
158.034900 627255.100000
159.042800 82311200.000000
160.050600 4036464.200000
163.019900 2414356.200000
164.027800 4858961.000000
165.035700 1348675.900000
177.035800 506533.500000
179.051400 2347938.800000
190.007100 4193219.500000
191.014900 335764448.000000
192.022600 249039040.000000
204.022600 888213.900000
205.030600 2295348.500000
206.074700 1420184.000000
223.041200 3099311.500000
234.069700 430873920.000000
266.097100 777640.900000

>ms2
69.008300 530948.300000
104.036700 983620.900000
105.044800 571037.700000
119.047900 3178525.500000
119.060400 638230.100000
120.998100 1215107.000000
122.005900 1794465.200000
123.013700 564764.700000
130.040100 737251.700000
131.047900 4948990.500000
132.055600 644606.800000
133.063400 703437.600000
136.009100 5970245.000000
137.017100 687273.900000
146.071400 867867.700000
147.042800 4025806.800000
147.079100 546911.800000
149.017000 590795.200000
150.024900 1166521.100000
158.035000 1525564.900000
159.042800 202139520.000000
160.050600 5804435.000000
162.012000 609588.600000
163.019900 31134832.000000
164.004100 711446.100000
164.027800 13939176.000000
165.035700 1968120.500000
166.019300 740249.100000
177.035900 781191.500000
178.043300 722911.900000
179.051300 2198783.000000
186.066100 737928.500000
190.007000 4581938.500000
191.014800 474050912.000000
192.022600 176478096.000000
204.022800 2546228.800000
205.030600 2473375.000000
223.041200 483581.800000
234.069700 67698176.000000

>ms2
69.008300 838076.200000
77.025800 1038468.900000
79.041700 1384792.000000
90.033900 601651.000000
92.036900 1784156.000000
95.036600 568395.900000
96.002800 2687023.000000
96.044500 468347.800000
97.010700 408037.400000
103.041700 1880591.200000
104.036900 6830823.500000
105.044800 3753368.000000
106.052700 690112.800000
108.998100 1989254.100000
111.013700 1305956.000000
112.021600 677659.800000
118.052400 880514.300000
119.047900 22379430.000000
120.031900 450500.700000
120.055600 1498322.400000
120.998100 8390345.000000
122.005900 7643387.000000
123.013800 4320007.000000
124.021600 523592.500000
130.040100 4898189.000000
131.047900 32883886.000000
132.055800 2283108.000000
133.063600 2775322.000000
134.047400 890527.900000
134.071400 891967.100000
135.001200 587558.600000
136.009100 37291696.000000
136.993000 420127.800000
137.016900 3538410.800000
138.024600 501359.500000
146.071200 1508572.400000
147.042800 16649219.000000
148.009100 1790446.900000
149.016900 1991994.900000
150.024700 2413421.800000
158.035100 4384529.000000
159.042800 294614464.000000
160.050600 5730394.000000
162.012200 2961228.200000
163.019900 98729192.000000
164.004100 2260003.500000
164.027700 19788660.000000
165.035700 2526717.000000
166.019400 1827268.100000
172.050600 596121.300000
176.027600 508813.000000
177.035600 684778.800000
178.043400 608873.600000
179.051200 1004600.100000
186.040900 720379.200000
186.066000 451145.000000
190.007000 6717063.000000
191.014800 386457664.000000
192.022600 64283412.000000
204.022800 3693087.000000
205.030600 661105.400000
234.069800 5849934.500000

>ms2
50.015100 796061.800000
51.023000 469250.300000
52.018100 748300.000000
52.030700 694233.700000
53.002200 452250.300000
53.026000 586561.100000
54.033900 808819.100000
57.987200 1245339.600000
58.982400 404532.900000
59.990300 650046.900000
63.022800 814382.300000
64.018000 1023708.600000
64.030700 229605.400000
65.026000 993564.100000
65.038600 787512.900000
66.046400 1069838.100000
67.041700 1349847.000000
68.979300 1938370.200000
69.008300 2503659.200000
69.987200 5148370.500000
70.982500 197452.700000
70.995000 394376.300000
71.966500 184937.000000
71.990300 401251.300000
76.018200 2091129.900000
77.026000 19849590.000000
78.033900 3853066.800000
79.029000 1158516.500000
79.041700 12307535.000000
80.036900 1034079.400000
80.049500 1156352.500000
81.987200 2700242.800000
82.028800 552833.300000
82.982400 1574770.100000
83.990300 1667203.400000
84.002800 445414.200000
84.985400 179075.100000
84.998100 956014.000000
85.982100 661391.600000
90.033900 4030470.500000
91.041700 1565616.500000
92.037000 26307460.000000
92.979400 911199.900000
93.044900 2144543.200000
93.987300 7360160.000000
94.052700 1061411.600000
94.982400 425089.200000
94.995100 3245993.500000
95.036600 2847522.800000
95.990400 689858.500000
96.002900 13383406.000000
96.044400 2892139.800000
96.998200 1573499.100000
97.010800 1257065.400000
97.052300 1236513.900000
103.029100 3917324.000000
103.041700 7314254.500000
104.036900 54579088.000000
105.044800 11670448.000000
106.028900 242652.700000
106.040000 204253.300000
106.052600 2605967.500000
108.002800 473842.900000
108.998200 28253348.000000
109.993400 2261534.000000
110.005900 3082553.200000
110.047400 230577.300000
111.013800 2924576.500000
112.021500 881435.400000
114.000900 443792.600000
116.036900 1363824.500000
117.044700 193951.700000
118.040000 491864.700000
118.052600 1967628.000000
119.047900 75951936.000000
119.990400 1756831.600000
120.032000 1384045.200000
120.055700 5103901.000000
120.998200 29621530.000000
122.006000 26895868.000000
123.013800 9047278.000000
123.985300 1074473.600000
124.021600 205394.700000
127.992700 557016.900000
130.040100 20558512.000000
131.047900 104038256.000000
132.031900 824370.900000
132.055700 4170230.000000
133.063500 5290115.500000
134.035000 205376.600000
134.047400 1274944.500000
134.071100 1116546.900000
135.001100 4069745.200000
136.009100 80203936.000000
136.026600 4807130.000000
136.993100 1436449.400000
137.016900 6847156.500000
138.024900 492426.500000
146.034900 1080085.800000
146.071200 1041229.600000
147.042800 17734840.000000
148.009000 2118053.800000
148.050900 221629.300000
149.017000 3400896.500000
150.024600 1340482.800000
152.988200 1291810.600000
158.035100 11578306.000000
159.042800 160327152.000000
160.050700 4491916.000000
162.012100 8651999.000000
163.020000 50749852.000000
164.003900 1304654.400000
164.027700 7572618.000000
164.999300 410148.500000
165.011800 656622.100000
165.035800 951723.800000
166.019700 994570.400000
176.027600 226276.300000
186.041300 220074.300000
190.007000 8621280.000000
191.014900 49242564.000000
192.022600 1909869.200000
204.022700 1018539.800000

>ms2
50.015100 2711611.000000
51.022900 1133640.900000
52.018200 2504144.500000
52.030800 1085953.500000
53.002200 408747.200000
53.013400 123963.800000
53.026000 1014351.300000
53.038600 587983.700000
53.997500 200956.000000
54.033900 1379236.400000
54.046500 85242.400000
55.017900 172601.700000
55.029000 93125.100000
55.041700 145994.700000
56.049500 510088.100000
56.979400 192439.100000
57.987200 2637040.000000
58.982400 221056.700000
58.995000 83069.300000
59.966500 108774.300000
59.990200 987782.400000
62.015100 758030.000000
63.023000 4303913.500000
64.018200 3287748.800000
64.030800 1367387.000000
65.026000 5813390.500000
65.038600 2217522.500000
66.021300 1311323.000000
66.033800 1592670.500000
66.046400 1134503.500000
67.041700 5105354.500000
68.013100 131381.400000
68.025700 183355.100000
68.049500 436432.500000
68.979400 6942357.000000
69.008400 2651470.500000
69.987200 10942580.000000
70.995000 865021.100000
71.966500 122311.600000
71.990300 202701.500000
75.010300 383727.100000
75.022900 530294.900000
76.018200 13749839.000000
77.026000 57283784.000000
78.033900 10501495.000000
79.029100 2119059.200000
79.041700 14039447.000000
80.036900 1374898.200000
80.049500 1539339.200000
80.979400 380720.200000
81.033600 168532.900000
81.987200 11785861.000000
82.028800 1064578.400000
82.982400 6000451.500000
82.995000 447295.400000
83.990300 3253280.500000
84.002900 643699.100000
84.985500 457918.100000
84.998100 965964.100000
85.969600 192143.500000
85.982000 135869.600000
88.018100 321166.200000
89.026000 590232.500000
90.033900 6422347.000000
91.029200 351885.900000
91.041700 3293117.200000
92.037000 53583180.000000
92.979400 6035386.000000
93.044800 4927971.000000
93.987300 15395184.000000
94.028800 896161.900000
94.052600 1142027.600000
94.982400 1128525.200000
94.995100 9916943.000000
95.036600 3878278.500000
95.990400 1626349.600000
96.002900 12824808.000000
96.044400 3818065.500000
96.998100 794952.600000
97.010800 997835.900000
97.052200 1136417.200000
102.033800 461599.700000
103.029200 10983605.000000
103.041700 3735706.500000
104.037000 61849204.000000
105.044800 14339126.000000
105.987000 226154.800000
106.028800 186496.200000
106.040100 165839.200000
106.052600 3117773.000000
107.990200 549045.400000
108.002900 126481.800000
108.044300 87382.100000
108.998200 32752752.000000
109.993300 1491216.900000
110.006000 4751825.000000
110.047500 503159.900000
111.013900 1220102.100000
111.031500 483884.500000
111.055300 335035.600000
112.021700 456677.100000
114.001100 166735.700000
116.037000 1657261.100000
117.044700 209754.000000
118.040000 1595191.500000
118.052500 1790996.100000
119.047900 34753328.000000
119.990400 6753854.500000
120.032000 1330827.900000
120.055800 2524962.000000
120.998200 13699859.000000
121.039700 2961137.000000
122.006000 21214226.000000
123.013800 4574968.500000
123.985200 414327.300000
127.992800 696472.700000
130.040100 19787956.000000
131.047900 45426240.000000
132.031800 119455.900000
132.055700 1968707.400000
133.063500 2856190.500000
134.034900 366936.100000
134.047500 219883.900000
134.071400 382717.400000
135.001200 5669130.000000
136.009100 18776390.000000
136.026800 3770456.200000
137.016900 3759197.000000
146.035000 1110483.100000
146.071400 206245.400000
147.001300 796381.300000
147.042900 2595104.800000
148.009300 176598.200000
148.050600 220723.900000
149.017000 1250151.900000
150.024600 227776.300000
152.987800 735136.000000
158.035000 5428470.500000
159.042900 25663428.000000
160.050800 1188638.800000
162.012200 4137294.000000
163.020000 3926234.800000
164.027700 1061985.400000
164.999400 191351.100000
165.012000 375042.100000
167.999000 96911.200000
176.027600 127498.900000
190.007200 1769409.500000
191.014900 1699901.400000

>ms2
50.015200 8343906.000000
51.023000 2939834.200000
52.018200 5820077.500000
52.030800 1955704.500000
53.002300 882993.100000
53.013500 170895.100000
53.026000 1170021.400000
53.038600 1020565.100000
53.997500 1060506.800000
54.033900 1608488.200000
54.046500 194379.200000
55.017900 535480.100000
55.029100 203830.000000
55.041700 163731.200000
56.049600 673685.600000
56.979400 697613.800000
57.987200 3908352.800000
58.982500 507008.900000
58.995100 154932.100000
59.966500 634773.200000
59.990300 1173647.400000
62.015100 2593892.800000
63.023000 10196099.000000
64.018200 8662381.000000
64.030800 2311973.000000
65.002200 793258.250000
65.026000 13299211.000000
65.038600 2697728.500000
66.021300 3194544.000000
66.033900 2340547.200000
66.046500 538866.200000
67.041700 6500243.000000
68.013200 113822.800000
68.025700 522138.900000
68.049400 211881.400000
68.979400 17754944.000000
69.008400 3482023.200000
69.987200 12084793.000000
70.982400 116912.400000
70.995000 1079363.600000
71.966500 109880.200000
71.990200 163794.400000
75.010400 2009856.500000
75.023000 517643.900000
76.018200 37113048.000000
77.026000 65403132.000000
78.033900 15599141.000000
79.029100 2338529.200000
79.041700 8728396.000000
80.036900 777462.200000
80.049500 1495391.600000
80.979500 894072.100000
81.033500 370246.900000
81.987200 21867442.000000
82.982400 8618382.000000
82.995000 526554.000000
83.990300 4018855.800000
84.002900 847582.100000
84.985600 595763.700000
84.998200 329179.700000
85.969600 99716.200000
88.018200 535974.900000
89.026100 746596.800000
90.033900 5424601.500000
91.029100 179657.500000
91.041700 2577311.200000
92.037000 44120416.000000
92.979400 12607744.000000
93.044800 3500064.800000
93.974700 1756077.375000
93.987300 11256730.000000
94.028800 637596.400000
94.982600 1203038.900000
94.995100 13594000.000000
95.036600 2646324.200000
95.990300 1816615.500000
96.002900 6544781.000000
96.044400 3046428.200000
96.998200 154965.700000
97.010700 550246.900000
97.052300 534239.200000
102.021500 101945.100000
102.033700 132868.300000
103.029200 12838657.000000
103.041700 1116279.100000
104.037000 28626628.000000
105.044800 11182617.000000
105.987200 204110.400000
106.052600 1630589.100000
107.990300 1176251.200000
108.044600 191227.900000
108.985800 1001356.313000
108.998200 16297995.000000
109.993500 649311.200000
110.006000 3033402.500000
110.047700 619660.900000
111.013700 181034.300000
111.031700 216749.000000
111.055400 126249.100000
113.005500 150990.000000
116.037000 912779.000000
117.044800 97160.800000
118.040000 1429980.000000
118.052500 906760.700000
119.047900 6726429.000000
119.060600 494919.300000
119.990400 8064707.500000
120.031800 585825.500000
120.055800 576908.600000
120.998200 2440652.500000
121.039700 2518133.500000
122.006000 8606445.000000
123.013700 1572019.100000
127.992700 349394.900000
130.040100 10140067.000000
131.024100 740102.937500
131.047900 9926246.000000
132.055700 429484.600000
133.063800 739550.400000
135.001300 2702214.200000
136.009200 2143155.200000
136.026800 1840462.100000
137.017000 1198902.200000
146.034900 465815.400000
147.001400 341138.300000
147.042900 152585.800000
148.009100 108040.600000
148.050400 117379.800000
149.017100 133295.700000
152.987800 114358.500000
158.035100 1181632.200000
159.042800 2326842.200000
162.012200 1049726.600000
163.019800 124844.900000
190.007000 114123.300000

