>compound EQ35545468
>parentmass 435.21770000000004
>ionization [M+H]+
>formula C24H31FO6
>rt 612.000000
>profile orbitrap
#smiles_iso CC1CC2C3CCC4=CC(=O)C=CC4(C3(C(CC2(C1(C(=O)COC(=O)C)O)C)O)F)C
#smiles_can CC1CC2C3CCC4=CC(=O)C=CC4(C3(C(CC2(C1(C(=O)COC(=O)C)O)C)O)F)C
#inchikey AKUJBENLRBOFTD-UHFFFAOYSA-N
#pubchem_id 3680
#mb_accession EQ326401,EQ326402,EQ326403,EQ326404,EQ326405,EQ326406,EQ326407,EQ326408,EQ326409

>ms2peaks
61.028400 236282.200000
69.069600 26571.900000
85.064500 31514.500000
93.069900 29063.600000
95.049100 52775.100000
95.085600 186868.600000
97.064800 198595.300000
99.080500 33481.900000
101.023400 943148.800000
103.038700 25209.600000
107.085500 601649.900000
109.064800 183644.200000
109.101300 209629.500000
111.080400 104151.700000
113.059600 64157.300000
115.075400 264280.900000
117.054300 40152.200000
119.085400 141964.500000
121.064500 186969.700000
121.101200 284676.600000
123.080400 190961.100000
123.116900 315001.000000
125.059700 41677.000000
125.096000 94774.500000
131.085500 46939.600000
133.101300 392597.200000
135.080400 741644.100000
137.059900 28644.400000
137.096200 340847.000000
139.075400 40588.400000
141.054100 29611.300000
145.101300 41894.900000
147.080500 3993179.500000
149.096200 1541504.600000
151.075300 158701.900000
151.111800 888469.200000
153.091100 488066.500000
155.070300 37359.200000
157.085600 39255.300000
157.101600 27097.200000
159.080400 564388.100000
161.059600 301005.500000
161.096100 1723614.000000
163.075400 258123.200000
163.111800 488902.300000
165.091000 29684.500000
167.070500 197329.700000
167.106800 313257.500000
169.064500 188729.400000
169.085800 56102.100000
171.080400 961229.900000
173.096200 1107458.000000
175.111900 107805.300000
177.091100 1337556.000000
179.106500 132445.000000
183.080500 324229.500000
183.116900 43032.500000
185.096100 1573366.400000
187.075400 1075987.800000
187.111800 286513.500000
189.090800 231118.000000
191.106800 156695.600000
195.101700 1089600.100000
197.096300 238894.600000
199.075400 35774.300000
199.111800 418713.200000
201.090800 131568.100000
201.127300 219494.600000
203.106700 362086.200000
209.096300 166821.000000
209.117300 214713.900000
211.111900 1103040.200000
213.091000 148620.500000
213.127500 794970.400000
215.107200 228375.300000
215.142900 118142.000000
219.101500 60357.500000
221.096100 349932.600000
221.132900 26127.200000
222.103600 32122.400000
223.111900 696742.800000
224.119400 46257.400000
225.091000 113303.400000
225.127600 950581.400000
227.106400 220434.700000
227.143200 3395920.200000
229.122600 38439.000000
235.111800 849890.100000
237.127500 5795245.500000
239.106900 364445.800000
239.143100 673307.600000
241.122500 663219.900000
241.158200 45996.700000
247.111600 28263.500000
249.127900 442905.700000
251.106900 173676.500000
251.143200 1055285.600000
253.122400 1146357.100000
253.158800 686816.100000
255.138100 730226.500000
257.133700 113981.900000
261.127400 576108.900000
263.143000 672996.100000
263.179900 41915.800000
265.122600 56542.600000
265.158700 572973.600000
267.138100 1037697.000000
267.174600 835698.800000
273.128000 46570.500000
273.163900 56372.300000
275.143200 1296910.500000
276.151300 50852.700000
277.123700 242517.100000
277.158800 2230611.500000
278.165800 33880.100000
279.138500 473718.300000
279.174500 2548327.200000
281.155900 206651.200000
281.190100 2814142.800000
289.159000 317087.400000
291.174400 6950376.500000
293.154100 615991.800000
295.133500 701278.900000
295.169500 1480156.100000
297.148500 32197.400000
297.184800 601255.600000
301.158800 3690455.200000
307.169400 892019.400000
309.185100 20168572.000000
311.164700 100680.700000
311.181100 127417.000000
315.175400 33319.900000
319.169500 15259745.000000
321.164700 102411.800000
325.180000 1134502.600000
327.195600 6591443.000000
337.180000 19192180.000000
339.176000 537422.700000
351.195800 1010344.200000
353.175200 114456.200000
355.190700 13461250.000000
357.186200 406276.300000
361.180000 1027271.750000
369.206100 437476.000000
373.201200 1645964.800000
379.190700 4713763.000000
397.201400 25005250.000000
399.197200 294048.500000
415.211900 10856985.000000
435.218100 3532945.800000

>ms2peaks
55.054200 65350.200000
57.033400 127715.500000
57.070000 40077.000000
59.049100 56187.500000
61.028400 747352.100000
67.054200 115950.300000
69.033500 390425.900000
69.069800 320390.200000
71.049100 57978.800000
75.044100 35154.900000
79.054100 38665.200000
81.069900 345431.300000
83.049100 248484.600000
83.085600 66681.000000
85.064800 201396.400000
91.054200 182579.700000
93.069900 598898.800000
95.049100 477230.500000
95.085500 846819.000000
97.064900 693610.900000
99.044000 107020.500000
99.080400 55526.500000
101.023400 2697848.200000
101.059700 312808.300000
103.038900 63739.300000
105.069900 474194.600000
107.085500 2645568.800000
109.064900 573930.600000
109.101200 734226.900000
111.044000 32517.900000
111.080500 362605.300000
113.059700 323418.800000
115.053900 39700.300000
115.075500 578266.800000
117.054700 241942.100000
117.069900 35961.900000
119.049200 53338.100000
119.085600 1036460.400000
121.064800 2302303.500000
121.101200 1329905.500000
123.044000 63791.800000
123.080400 907117.600000
123.116800 522066.000000
125.039800 29091.000000
125.059800 419788.300000
125.096200 577356.000000
127.075300 182137.100000
129.070100 44996.000000
131.085600 810748.700000
133.064900 606895.700000
133.101200 1222689.000000
135.080500 3036376.000000
137.059700 159085.500000
137.096100 934449.600000
139.075400 299775.100000
139.111800 145687.600000
143.085700 350724.800000
145.064900 484816.800000
145.101200 500605.200000
147.080500 11728349.000000
149.096200 3169296.500000
151.075400 416737.300000
151.111800 686398.200000
153.091000 1555017.200000
155.070400 170272.600000
155.085700 142801.700000
157.086300 35539.200000
157.101000 223897.600000
159.080500 2765880.800000
161.059900 514293.200000
161.096200 3223394.500000
163.075400 393592.800000
163.111700 660244.600000
165.091000 202283.700000
167.070200 274197.200000
167.085900 65523.600000
167.106800 799077.100000
169.064900 537068.900000
169.086000 153276.100000
169.101200 120471.700000
171.080500 4780976.000000
173.096200 3922038.500000
175.075600 352109.300000
175.111900 482715.000000
177.091100 1990759.600000
179.086300 91977.800000
179.106600 189381.700000
181.064700 32776.200000
181.085700 34162.600000
181.101700 44824.300000
183.080400 628212.900000
183.117000 211720.000000
185.060000 216615.406300
185.096200 3821564.500000
187.075400 2943620.800000
187.111800 1331932.000000
189.091000 435674.500000
191.106800 119627.300000
193.086100 400127.900000
193.101100 111161.800000
194.109500 36007.200000
195.080300 277702.500000
195.101700 664496.600000
195.117100 114208.500000
196.088300 137391.600000
197.096200 1643470.100000
197.132600 116136.600000
198.103500 52987.700000
199.075600 231051.600000
199.111800 1137995.500000
201.091000 256439.000000
201.127600 398924.900000
203.106700 338219.700000
204.093500 47139.100000
205.101500 31507.600000
207.079900 32184.900000
207.116600 92862.000000
208.089000 67904.200000
209.096300 1030596.400000
209.117100 95472.400000
209.132500 343926.800000
210.103900 214203.900000
211.111900 3947466.800000
212.119500 413141.500000
213.091300 443240.000000
213.127600 2197695.500000
215.106700 599476.000000
215.143200 163544.300000
219.101900 54674.400000
219.117100 390157.500000
221.096200 1564232.100000
221.132100 269014.300000
222.104100 788910.500000
223.111900 2849943.500000
224.119500 336429.300000
225.091100 300298.800000
225.127500 3506681.000000
226.135300 51459.600000
227.107000 479362.700000
227.143100 8613164.000000
229.122600 146096.900000
233.096300 185696.000000
233.132600 131720.400000
234.103500 49322.000000
235.111900 4104374.500000
235.148000 212750.700000
236.119700 291813.500000
237.127500 13531030.000000
238.135300 113739.200000
239.106800 831280.100000
239.143100 3213194.000000
241.122300 1429758.200000
241.158800 129484.600000
243.102600 59866.900000
243.117000 38956.700000
244.125200 64162.000000
245.095900 114786.000000
245.133000 60219.200000
246.104100 112932.200000
247.111500 252191.900000
247.148500 37077.200000
248.119700 323122.300000
249.127600 1867902.600000
249.163200 279024.700000
250.135300 117301.600000
251.107300 282102.500000
251.143200 2736971.800000
252.151000 37660.100000
253.122500 2337701.500000
253.158800 4410954.500000
255.138100 1764978.600000
257.133600 311481.100000
258.140200 112159.800000
259.111800 539237.100000
259.147700 281732.000000
260.119800 347361.000000
261.127400 1444298.200000
261.164200 113197.900000
262.135200 672402.200000
263.106800 331758.300000
263.143200 2523602.200000
263.179600 172432.800000
264.115000 40045.900000
264.151200 96608.800000
265.122600 181881.200000
265.158800 1228693.800000
267.138100 1358507.100000
267.174500 1350821.900000
271.110700 54166.200000
272.119500 402840.500000
273.127500 257279.800000
273.163800 510878.500000
274.135100 34938.600000
275.143100 1973016.000000
276.151000 1188089.000000
277.123100 706512.900000
277.158800 5157288.000000
278.166700 751987.300000
279.138700 605788.100000
279.174400 3161760.200000
281.153800 409504.000000
281.190000 1536571.500000
283.134700 28957.800000
286.135500 843357.100000
289.158900 710927.900000
290.130600 240823.300000
291.174400 10285370.000000
293.153700 479381.500000
294.161700 152011.300000
295.133500 349522.000000
295.169400 1597384.900000
296.176700 156643.800000
297.149000 63819.300000
297.184800 346407.000000
301.158900 5083714.500000
304.146100 411371.900000
306.161500 148473.562500
307.169400 1292665.800000
309.185000 5579769.000000
311.164000 193313.200000
311.180700 54935.700000
315.173800 33131.900000
319.169500 7502683.000000
321.165600 60185.100000
325.179900 758248.200000
327.195600 1167808.600000
337.180000 4924698.000000
339.176300 168653.500000
351.195800 685714.900000
353.174100 31645.600000
355.190500 1507315.100000
357.187000 129700.700000
361.180500 342252.218800
373.201300 66056.000000
379.190500 1055971.500000
397.201000 1431057.500000
435.217800 482099.800000

>ms2peaks
51.022700 36968.200000
53.038500 45269.500000
55.017800 109497.700000
55.054200 365240.900000
57.033500 170551.000000
57.069900 57246.100000
59.049200 36164.400000
61.028400 516256.800000
65.038500 57841.200000
67.054200 618093.800000
69.033500 594721.300000
69.069900 746625.500000
71.049100 151189.600000
75.044000 177817.700000
77.038400 120436.300000
79.054200 509625.000000
81.069900 784986.900000
83.049100 266114.300000
83.085500 175574.400000
85.064800 211003.400000
91.054300 583507.700000
93.070000 1454963.800000
95.049200 558157.700000
95.085600 1233147.500000
97.064800 660008.900000
99.044200 61359.400000
99.080500 102789.400000
101.023400 780148.300000
101.059700 283171.200000
105.069900 1436248.600000
107.049100 194908.000000
107.085600 3450230.200000
109.064900 823816.000000
109.101200 720890.400000
111.044100 107652.700000
111.080500 446578.500000
113.059800 160515.000000
115.054000 225363.800000
115.075200 193566.100000
117.054700 350503.900000
117.070000 342204.900000
119.085600 2119859.000000
121.064900 4821821.000000
121.101200 1449527.000000
123.044200 59048.500000
123.080400 1046957.500000
123.116800 225867.000000
125.040100 26309.200000
125.059800 310580.200000
125.096100 417860.300000
127.075200 31237.700000
128.062000 222124.800000
129.069900 352893.300000
131.085600 1582084.100000
132.057000 112206.100000
133.064900 1013287.400000
133.101200 1050770.600000
135.080500 3230514.200000
137.059600 182206.900000
137.096200 667867.800000
139.075400 167586.500000
139.111800 34545.200000
141.054400 25028.300000
141.070200 276610.800000
143.085700 1132264.600000
144.057200 40741.100000
145.064900 1356035.500000
145.101200 863770.400000
146.072700 55509.800000
147.080500 12656053.000000
149.096200 1849182.200000
151.075500 340484.700000
151.112100 255857.500000
153.091000 865514.900000
154.077800 30216.800000
155.070300 42536.000000
155.085500 355817.700000
157.064900 147791.000000
157.101300 500385.600000
158.072800 498414.500000
159.080500 4197231.000000
160.088300 53764.900000
161.059800 397750.700000
161.096200 2595529.500000
163.075400 362635.300000
163.111800 246429.600000
165.070100 140061.800000
165.091100 181491.400000
166.078300 30649.700000
167.070300 285273.000000
167.085700 401747.000000
167.106700 556518.600000
168.056600 38331.300000
169.064900 564081.600000
169.101100 352087.900000
170.072700 120380.200000
170.109600 29514.500000
171.080500 6108931.500000
172.088200 232247.800000
173.096200 3731859.000000
175.075400 186447.000000
175.111900 343140.700000
177.091100 604940.400000
178.077700 62708.900000
179.085600 471694.500000
179.106600 38886.100000
180.093700 142572.700000
181.065000 120584.500000
181.086300 40135.100000
181.101300 346353.900000
182.072800 122280.200000
183.080600 881713.100000
183.116900 330068.600000
184.088200 106189.600000
185.096200 3905053.500000
186.103900 106195.900000
187.075400 1545722.000000
187.111800 923128.800000
189.069900 54168.700000
189.090900 272573.100000
190.077500 109650.500000
191.086100 138518.900000
191.106500 52411.400000
192.093400 206867.300000
193.086200 168081.300000
193.101300 668564.900000
194.072300 40682.300000
194.108900 383568.600000
195.080600 664533.100000
195.102300 183230.200000
195.116900 494624.300000
196.088500 695170.800000
197.096100 2358870.000000
197.132300 154400.700000
198.104100 229530.700000
199.075600 142740.200000
199.111900 960474.900000
201.091000 147466.500000
201.127600 215017.500000
202.077900 46077.900000
203.085600 127376.400000
203.106600 131306.200000
204.093500 678022.400000
205.101300 334056.600000
206.109400 236106.400000
207.080500 190081.500000
207.117000 720622.700000
208.088300 737788.800000
209.096200 1658239.800000
209.132600 1018715.100000
210.104000 702715.000000
211.111900 3374141.200000
212.119800 916892.200000
213.091200 315978.100000
213.127500 1678054.400000
215.106900 274055.700000
216.093300 144598.600000
217.101600 167557.200000
218.108800 210551.100000
219.080600 117273.000000
219.117000 1367087.600000
220.088700 232934.500000
220.125100 98344.900000
221.096200 1823405.500000
221.132400 359489.200000
222.104000 3273932.800000
223.111900 2718990.200000
224.083000 44027.400000
224.119700 646125.000000
225.091100 286683.900000
225.127500 2622801.000000
226.098900 186081.600000
226.135100 126388.400000
227.106900 312839.200000
227.143100 4394682.000000
228.092300 32441.000000
229.101600 60114.900000
229.122500 56218.500000
230.109300 228726.400000
231.116900 269399.200000
232.088800 61348.200000
232.125000 197222.700000
233.096600 348675.500000
233.132500 142939.200000
234.104300 517945.200000
234.140000 44378.900000
235.111800 4056154.000000
235.147700 238370.800000
236.119700 609036.900000
237.127500 6501613.500000
238.098900 142776.200000
238.135600 338099.700000
239.106900 479896.800000
239.143100 1739086.100000
241.122300 490618.800000
242.108800 91563.300000
243.102700 53143.400000
243.116700 226032.800000
244.124300 203009.500000
245.096100 301518.800000
245.132600 287366.100000
246.104000 483386.400000
246.139900 34507.800000
247.111600 677175.700000
247.148000 223062.100000
248.119700 978621.100000
249.127500 1822483.000000
249.163400 245601.500000
250.135600 149055.000000
251.106900 212534.700000
251.143100 1203784.600000
252.150500 179402.900000
253.122400 953075.100000
253.158800 1672568.900000
255.117600 46531.100000
255.137800 548957.700000
256.124500 38494.800000
257.096500 115663.200000
257.132700 235197.200000
258.104000 120462.400000
258.140400 288954.400000
259.112000 451896.400000
259.148300 263978.100000
260.119700 576491.800000
261.127500 1451973.000000
261.164000 102779.600000
262.098600 139567.750000
262.135300 1441617.400000
263.106600 197804.500000
263.143100 2063964.200000
264.114400 139405.900000
264.150500 212651.200000
265.122200 145327.700000
265.158800 361478.100000
266.166800 156132.656300
267.138000 378297.900000
267.174300 242408.900000
268.124800 46683.300000
271.111900 493422.100000
272.119900 423925.900000
273.127400 303425.900000
273.163700 263830.400000
274.135300 231438.100000
275.106700 63555.800000
275.143100 793045.800000
276.151000 1580175.600000
277.122400 318316.200000
277.158900 1466282.800000
278.166600 644127.500000
279.138600 182891.800000
279.174600 935616.400000
281.154400 215990.300000
281.189900 146112.300000
283.133900 51670.500000
283.148700 157658.700000
285.127800 153286.600000
286.135400 1249101.400000
287.143200 45775.700000
289.122300 148010.500000
289.158900 314781.400000
290.130800 214182.000000
291.138600 128138.148400
291.174400 1806418.200000
293.154000 179874.800000
294.161600 43028.000000
295.168900 328575.000000
296.177300 58735.200000
297.185300 103717.800000
301.158800 1179086.100000
304.145900 296070.900000
307.169500 307945.500000
309.185500 344917.875000
311.164400 58250.000000
319.169600 823091.800000
325.180200 104020.100000
337.179600 292586.400000
351.195700 134551.100000

>ms2peaks
50.015000 24316.300000
53.002200 45258.600000
53.038600 219378.900000
55.017900 316352.700000
55.054300 581601.700000
57.033500 246155.200000
57.069900 129125.000000
59.049100 55185.700000
61.028400 552778.100000
65.038600 197542.000000
67.054200 1225201.600000
69.033500 1049233.100000
69.069900 848139.100000
71.012800 91504.500000
71.049100 283989.700000
75.044000 44603.700000
77.038400 229641.200000
79.054200 1382741.800000
81.069900 1142079.000000
83.049100 252768.800000
83.085600 112683.700000
85.064800 143919.200000
91.054300 3170431.200000
93.070000 2582876.500000
95.049200 1006955.300000
95.085600 1263800.800000
97.064800 528697.400000
99.044000 96731.100000
101.023500 279517.300000
101.059800 116103.900000
103.054300 235446.000000
104.062300 29768.600000
105.044900 192121.600000
105.070000 3826756.500000
107.049100 433888.800000
107.085600 3498509.800000
108.057000 61255.100000
109.064900 746363.900000
109.101200 632905.900000
111.044100 35495.700000
111.080500 265414.700000
113.059800 56514.000000
115.054200 702806.100000
115.075400 62642.100000
116.062000 210681.100000
117.054700 238476.200000
117.069900 1138436.200000
119.060500 223459.100000
119.085600 4223720.500000
121.064900 6940845.500000
121.101200 1017110.200000
123.080500 912657.900000
123.116800 99109.000000
125.039900 31266.600000
125.059900 339859.400000
125.096100 194454.500000
128.062100 1501028.400000
129.069900 1033315.200000
130.077800 217448.400000
131.049000 150477.500000
131.085600 2264646.800000
132.057000 582487.200000
133.064900 808599.600000
133.101300 1028396.700000
134.072600 39443.800000
135.080500 2599739.500000
137.060000 136190.200000
137.096300 191809.800000
139.075300 59419.400000
141.070000 927870.100000
142.077900 545620.700000
143.085600 2533793.200000
144.057200 441164.800000
144.093600 30282.400000
145.064900 2545547.200000
145.101200 1112019.400000
146.072600 397862.500000
147.080500 11286085.000000
149.096200 990604.500000
151.075400 290805.500000
152.062100 139064.700000
153.070000 250097.800000
153.091200 212718.300000
154.077700 230877.500000
155.060500 154067.400000
155.085500 1097996.400000
156.057100 125992.000000
156.093400 225312.000000
157.064800 303626.600000
157.101300 695408.200000
158.072700 1635672.400000
159.080500 4450483.000000
160.088400 154186.400000
161.059900 329727.800000
161.096200 1671771.900000
163.075200 273297.600000
163.111800 45117.100000
165.070000 626398.000000
165.091300 114851.800000
166.077700 278990.800000
167.070500 105521.700000
167.085600 871806.100000
167.106600 151267.800000
168.057000 265279.200000
168.093600 244591.800000
169.064900 581990.400000
169.076400 165131.200000
169.101100 615193.900000
170.072600 364339.100000
170.109000 56065.600000
171.080500 6013678.500000
172.088400 563515.300000
173.096200 2754075.500000
175.075500 63992.900000
175.111800 135104.400000
177.070400 27646.500000
177.091300 110267.500000
178.077700 698562.600000
179.085600 1816302.600000
180.093400 487257.600000
181.064800 495197.600000
181.101200 733246.600000
182.072700 704679.600000
182.109300 161888.000000
183.080500 1152405.400000
183.117000 429129.400000
184.088400 343967.700000
185.096200 2896829.500000
186.104000 107035.200000
187.075300 835808.900000
187.111700 521396.100000
189.070100 537491.100000
189.091200 110011.900000
190.077700 433093.800000
191.085600 630449.800000
192.093400 1023168.900000
193.101300 1421193.600000
194.072700 313490.100000
194.109100 1062597.100000
195.080600 1313587.200000
195.116900 604989.100000
196.088400 1517010.100000
197.096200 2286963.800000
197.132500 193289.000000
198.067700 43635.700000
198.104100 471849.900000
199.075400 115793.500000
199.111800 648321.600000
201.091100 132379.300000
202.077900 329505.000000
203.085500 689017.800000
204.093500 1820126.600000
205.064900 178353.800000
205.101100 693773.900000
206.072700 146406.300000
206.109300 556645.600000
207.080700 654683.900000
207.117000 866323.500000
208.088400 1828783.200000
209.096300 2457027.000000
209.132600 524159.300000
210.104000 1340463.000000
211.075300 168118.200000
211.111900 1839515.400000
212.119700 928751.800000
213.091000 140331.000000
213.127500 654856.700000
215.085600 306331.600000
215.106900 133484.500000
216.093300 342574.400000
217.101300 388388.200000
218.073000 50716.800000
218.109200 186342.100000
219.080900 448655.300000
219.116900 960861.700000
220.088500 718186.800000
220.124900 178184.900000
221.096200 2078166.600000
221.132500 311675.000000
222.104100 5195401.000000
223.111900 1841283.100000
224.083300 104131.300000
224.119800 608826.200000
225.090900 168425.400000
225.127600 984104.500000
226.076900 29338.500000
226.098800 213440.300000
226.135400 132192.600000
227.085800 110994.800000
227.106700 116751.500000
227.143100 902827.200000
228.093200 107049.300000
229.101300 556660.400000
230.109100 398290.800000
231.080500 221028.800000
231.116900 404407.700000
232.088400 274767.700000
233.096100 918678.100000
233.133000 243205.700000
234.104000 875748.200000
234.140700 135190.200000
235.111900 3269020.500000
235.147700 214352.700000
236.119700 628016.400000
237.127500 2134768.500000
238.099000 305528.100000
238.135400 278017.300000
239.107300 181511.734400
239.143200 422110.700000
240.114400 58706.000000
241.101500 57617.600000
241.122400 99803.600000
242.109200 201610.500000
243.116800 583600.600000
244.088800 130242.600000
244.124700 251173.300000
245.096200 679593.300000
245.132900 222105.800000
246.104000 696416.600000
246.140100 121065.200000
247.111800 1499712.600000
247.147900 102760.700000
248.119700 1367122.400000
249.091000 63242.900000
249.127500 1019731.100000
250.135400 136230.800000
251.106600 57142.600000
251.143500 333481.600000
252.151200 128915.400000
253.101500 188796.300000
253.122200 161740.900000
253.159100 250830.800000
256.124100 48666.600000
257.096000 103664.900000
257.132000 199672.000000
258.104400 177241.300000
258.140700 238973.900000
259.111800 681262.200000
259.148200 144676.200000
260.119600 527685.700000
261.127500 1689873.800000
262.135300 1045171.800000
263.106300 116886.100000
263.143200 1099523.100000
264.150900 51841.100000
265.122400 47465.400000
265.159000 110591.300000
267.138000 101013.400000
267.174300 45181.600000
268.124900 55935.800000
270.104200 118602.500000
271.111600 730335.500000
272.119100 259656.300000
273.127500 251081.300000
274.099100 48442.000000
274.134900 180307.500000
275.107100 170336.500000
275.143200 351446.600000
276.151000 559253.600000
277.122200 112905.600000
277.158800 280521.000000
278.166500 110002.100000
279.138100 61788.800000
279.174400 124689.200000
283.148700 51608.300000
285.127100 312694.300000
286.135400 550965.800000
287.143000 37047.400000
289.122300 284626.900000
289.158700 53871.800000
290.129500 103231.300000
291.137700 154871.593800
291.174800 213452.500000
301.158700 126656.800000
304.145900 31728.300000
319.169100 51686.300000

>ms2peaks
50.015100 43541.500000
51.022900 57832.100000
53.002200 26115.500000
53.038600 467594.500000
55.017900 442365.200000
55.054300 842223.500000
57.033500 238818.800000
57.069900 26547.500000
59.049100 47064.700000
61.028400 281641.700000
63.022700 24876.300000
65.038500 357905.200000
67.054200 1459342.600000
69.033500 708296.100000
69.069900 469754.600000
71.012800 148573.500000
71.049100 316471.100000
77.038500 339906.100000
79.054200 2178844.500000
81.033500 95815.500000
81.069900 869807.100000
83.049200 279149.100000
85.064800 45531.200000
91.054300 6787461.500000
92.062000 33786.900000
93.070000 2044503.100000
95.049200 1371593.800000
95.085500 956484.300000
97.064900 258878.600000
99.044000 33891.800000
101.023500 35720.100000
102.046400 45661.300000
103.054300 638535.600000
104.062200 177414.500000
105.044800 515897.200000
105.070000 4645849.000000
107.049200 814207.800000
107.085600 1680846.000000
108.056800 175974.200000
109.044700 45518.800000
109.064900 733637.100000
109.101100 259575.100000
111.080500 131923.000000
115.054300 1860056.900000
116.062100 620315.900000
117.069900 1771037.200000
119.060600 224491.000000
119.085600 4297533.000000
121.064900 5381182.500000
121.101300 425569.700000
123.060500 106866.200000
123.080500 396221.600000
125.059900 190654.100000
125.096200 38979.700000
127.054500 46851.300000
128.062100 3654155.200000
129.069900 1862151.400000
130.077700 527960.100000
131.049200 329033.400000
131.085600 1656918.900000
132.057000 1545489.400000
133.064800 411457.800000
133.076000 30791.000000
133.101200 611750.600000
134.072500 33426.500000
135.080500 1091473.500000
137.059700 57102.000000
137.096300 56832.000000
139.054800 36611.500000
141.069900 1654213.500000
142.077800 979796.600000
143.085700 2012798.500000
144.057100 936299.900000
144.093500 60658.800000
145.064900 2320807.500000
145.101300 701030.000000
146.072700 550538.000000
147.080500 5012464.500000
149.096200 245580.800000
151.075300 41389.400000
152.062200 456746.700000
153.069900 679126.800000
154.077800 518480.200000
155.049100 99274.600000
155.060400 412826.400000
155.085600 1156708.400000
156.057200 231795.900000
156.093500 256430.200000
157.064900 414088.700000
157.101100 409904.600000
158.072700 1960441.800000
159.080500 2471240.800000
160.088300 51419.800000
161.059600 132258.400000
161.096200 685327.100000
163.075300 126639.900000
164.061300 30632.000000
165.070000 1758163.200000
166.077800 649845.300000
167.085700 958080.200000
168.057000 286301.900000
168.093500 200303.900000
169.064900 770143.800000
169.076200 163932.800000
169.101300 422925.500000
170.072700 567053.600000
170.108800 29192.100000
171.080500 3300220.200000
172.088400 409882.800000
173.096200 769684.600000
177.070100 137371.700000
178.077800 1557078.400000
179.085600 3042404.000000
180.093500 706695.700000
181.064900 1208915.400000
181.101200 544829.300000
182.072800 791377.600000
182.109100 60039.500000
183.080500 992682.700000
183.117000 150241.100000
184.088400 268716.800000
185.096200 1162166.900000
187.075100 130519.600000
187.111900 110170.400000
189.070000 1199164.500000
190.077600 712305.500000
191.085600 914723.000000
192.093400 1080808.500000
193.101400 1247378.500000
194.072800 539320.600000
194.109100 887104.900000
195.080600 1751853.400000
195.117000 293270.000000
196.088400 1284986.800000
197.096200 1324183.400000
198.067900 27104.900000
198.104000 331331.200000
199.111800 188258.300000
202.077900 544547.200000
203.085600 1478925.100000
204.093500 980686.400000
205.064900 465569.800000
205.101400 807796.900000
206.072900 201499.400000
206.109500 413021.800000
207.080600 1409623.900000
207.116900 384906.500000
208.088500 1592829.900000
209.096300 1736598.100000
209.132500 113129.800000
210.104000 766675.300000
211.075500 124397.800000
211.112000 475202.500000
212.119700 278793.800000
213.127400 42768.300000
215.085700 792985.100000
216.093500 514667.800000
217.101400 557664.100000
218.072800 229537.800000
218.109200 214574.700000
219.080600 932680.100000
219.116900 469757.200000
220.088200 560085.900000
220.124700 130588.400000
221.096200 1706872.600000
221.132800 130404.100000
222.104100 2597058.500000
223.111900 884831.200000
224.083500 53764.500000
224.119800 227974.100000
225.090900 132663.000000
225.127400 221960.800000
226.098500 103637.100000
227.086200 202296.140600
227.143200 41729.400000
228.093500 434285.700000
229.101300 776763.400000
230.109200 381031.600000
231.080600 406102.700000
231.117100 252607.900000
232.088500 619494.600000
232.124700 36024.700000
233.096200 1124823.900000
233.132800 124487.500000
234.104200 493597.400000
235.111900 1403298.100000
236.119600 142900.900000
237.127600 437036.700000
238.098500 116785.000000
238.135300 36983.700000
239.085300 50233.300000
239.143600 41859.900000
240.115300 30217.300000
241.101700 144775.700000
242.071800 30376.000000
242.109200 188885.800000
243.080400 50914.600000
243.117000 670689.900000
244.088400 128564.500000
244.124600 100972.600000
245.096200 794827.800000
245.132400 160352.900000
246.104200 600939.600000
246.140600 38900.300000
247.111900 1194852.200000
248.119800 635527.800000
249.090800 115817.500000
249.127300 340094.400000
251.106300 31954.100000
252.093800 27203.500000
253.101700 97139.800000
254.109600 45337.300000
255.080700 46159.400000
255.116800 47136.800000
256.088500 174115.600000
257.096200 106139.800000
257.132400 132237.700000
258.104500 186170.000000
259.111800 375640.400000
260.119700 254462.800000
261.127700 852822.200000
262.135200 270003.500000
263.106800 38810.500000
263.143700 267157.100000
267.116500 113156.320300
270.103500 134426.700000
271.111800 511764.300000
272.119300 51554.700000
273.127300 60844.200000
274.099200 44813.100000
275.106600 58410.200000
275.143400 130040.900000
276.150500 33953.000000
277.158000 33003.200000
285.127000 200202.700000
286.135500 108306.400000
289.122000 42081.300000

>ms2peaks
50.015100 150686.100000
51.022900 195967.400000
53.002200 117388.100000
53.038600 902198.100000
55.017900 528030.500000
55.054300 1015465.500000
57.033500 297171.000000
59.049100 52963.000000
61.028400 218631.800000
63.022800 60945.900000
65.038600 1021841.400000
66.046600 26368.200000
67.054200 1688004.800000
67.989400 24458.900000
69.033500 534847.900000
69.069900 340434.400000
71.012800 252377.400000
71.049200 225419.100000
77.038500 888615.200000
78.046400 155929.300000
79.054200 3381457.500000
80.061900 33795.300000
81.033500 195785.100000
81.069900 956656.400000
83.049200 189981.400000
91.054300 12003581.000000
92.062200 56264.800000
93.070000 2010175.000000
94.041400 54817.000000
95.049200 3011555.200000
95.085600 531903.500000
97.064900 224550.900000
102.046400 49643.500000
103.054200 1563272.500000
104.062000 320436.700000
105.044800 1354142.900000
105.069900 4942394.000000
107.049200 1418528.900000
107.085500 982220.600000
108.056900 145344.000000
109.044800 105416.800000
109.064800 560446.400000
109.101100 138379.100000
111.080500 48291.900000
115.054300 4339622.500000
116.062100 1357625.800000
117.069900 2434316.800000
119.060500 227066.700000
119.085600 3316245.500000
120.057100 53371.000000
121.064800 4831317.500000
123.060600 36757.300000
123.080400 240375.300000
125.040000 25712.400000
125.059800 121183.400000
127.054100 308176.500000
128.062100 5984482.000000
129.069900 2590993.000000
130.077800 728155.600000
131.049200 1016080.900000
131.085600 1085722.000000
132.057000 2361623.500000
133.064800 364679.000000
133.076200 38326.200000
133.101300 288759.400000
134.072900 24390.200000
135.080400 452255.400000
137.059800 46329.800000
139.054700 59607.300000
140.062000 52594.100000
141.069900 2374939.000000
142.077800 1172725.600000
143.085600 1176673.600000
144.057000 1361433.400000
145.064900 2397415.500000
145.101200 280034.400000
146.052600 115444.200000
146.072800 661430.400000
147.080500 2112224.000000
151.054400 57041.800000
152.062100 972121.400000
153.069900 1494487.500000
154.077800 559738.200000
155.049600 187016.500000
155.060400 762025.300000
155.085500 1130163.600000
156.057100 283868.800000
156.093300 209640.500000
157.065000 696950.600000
157.101000 196188.600000
158.072700 1668559.500000
159.080500 1220247.100000
160.088300 58148.200000
161.060000 27517.800000
161.096200 165626.200000
163.054700 38462.500000
163.075200 32731.100000
164.062200 41138.500000
165.070000 3106968.800000
166.077800 923294.600000
167.085600 1128396.000000
168.057100 495058.400000
168.093300 196095.400000
169.064900 944545.500000
169.075700 60422.000000
169.101100 233402.700000
170.072700 616129.900000
171.080500 1828073.200000
172.088300 285503.800000
173.096100 261009.100000
176.062300 59952.700000
177.069800 372235.300000
178.077700 3048357.800000
179.085600 4716788.500000
180.093500 532349.700000
181.064800 2048860.600000
181.101200 439644.800000
182.072700 949765.400000
183.080500 798753.600000
184.088300 219069.400000
185.096200 416661.600000
187.076000 26981.200000
189.069900 2217064.500000
190.077700 1036563.300000
191.085600 1963357.500000
192.093400 1226261.900000
193.101300 1213961.200000
194.072700 810303.200000
194.109200 360654.700000
195.080500 1943752.200000
195.116800 163675.100000
196.088400 670824.600000
197.096200 714453.600000
198.104100 44959.200000
199.111600 28897.000000
201.069600 39922.300000
202.077700 1458648.900000
203.085500 2042796.800000
204.093500 725768.800000
205.065000 767333.000000
205.101400 983042.800000
206.072700 466064.500000
206.109000 341318.100000
207.080600 2059383.500000
207.116800 244650.600000
208.088400 1102831.900000
209.096300 1189285.900000
210.103900 241250.300000
211.075300 128539.600000
211.112000 231502.100000
212.118800 31624.300000
214.077800 41304.900000
215.085700 1522061.900000
216.093500 490391.700000
217.101300 564806.200000
218.072700 631616.800000
218.109100 164384.100000
219.080600 1117893.000000
219.116900 282597.300000
220.088600 477366.600000
220.124700 102752.600000
221.096200 1750266.800000
222.104100 1012532.900000
223.111900 324995.500000
225.090800 27671.900000
225.128000 36689.500000
226.077500 158192.800000
227.085600 480070.700000
228.093400 795382.800000
229.101400 1125131.500000
230.109100 254490.400000
231.080500 989140.400000
231.116900 236950.800000
232.088400 854684.600000
233.096200 886284.800000
233.132500 103251.200000
234.104100 406662.700000
235.111900 515954.300000
236.119800 39618.000000
237.127400 107373.600000
238.098100 40585.200000
239.085400 112183.400000
240.093300 50428.000000
241.101400 226735.300000
242.072600 48224.800000
242.109100 199333.200000
243.080500 44049.000000
243.117100 424403.000000
244.089000 197064.109400
245.096200 817606.700000
245.131900 49549.700000
246.104200 664395.600000
247.111800 630079.600000
248.119800 229794.600000
249.127700 50353.700000
252.093500 115762.400000
253.101300 203847.500000
254.108500 39836.300000
255.080700 203510.100000
255.115800 29487.800000
256.088500 240715.600000
257.095500 60860.400000
257.131500 26870.900000
258.103600 138591.700000
259.111900 195968.400000
260.119400 96403.700000
261.127200 318512.100000
263.142400 34611.600000
269.096000 39482.400000
270.103800 166010.700000
271.111400 232221.800000
273.126800 35167.100000
274.097900 33546.300000
275.143100 59973.100000
285.127900 44697.700000

>ms2peaks
50.015100 354030.600000
51.023000 634880.100000
53.002200 198080.900000
53.038600 1782631.200000
55.017900 598949.100000
55.054300 627725.200000
57.033500 122251.900000
61.028400 110834.200000
62.014900 27649.400000
63.022900 120091.900000
65.038600 2720899.500000
66.046400 37833.000000
67.054200 927763.200000
69.033500 252329.300000
69.069900 54731.700000
71.012800 133721.500000
71.049000 30488.000000
75.022900 57567.700000
77.038600 1620096.000000
78.046400 705527.700000
79.054200 2671098.000000
80.062000 96333.200000
81.033500 207969.400000
81.069900 358762.300000
83.029200 45034.600000
83.049300 29353.100000
89.038600 217997.200000
90.046400 29972.300000
91.054300 12637576.000000
92.062200 155881.200000
93.069900 632222.100000
94.041500 151680.800000
95.049200 5138059.000000
102.046400 367538.000000
103.054300 2101874.000000
104.062100 637984.200000
105.044800 2443240.000000
105.070000 1921417.900000
107.049200 1008399.300000
107.085600 114879.600000
108.056900 45991.300000
109.045000 162979.700000
109.065000 178533.500000
115.054300 7995436.500000
116.062100 1452326.200000
117.069900 1255777.100000
119.049100 48204.100000
119.060700 95530.300000
119.085700 498516.900000
120.057100 39485.400000
121.064900 992734.400000
125.039500 33118.400000
126.046500 195487.600000
127.054300 560393.800000
128.062100 7414156.500000
129.069900 2017783.800000
130.077900 275833.900000
131.049200 2283534.500000
131.085700 131445.100000
132.057000 1221143.100000
133.045000 112837.500000
133.064800 50656.300000
134.072900 23013.100000
135.080500 24326.200000
139.054200 359319.400000
140.062200 225617.400000
141.069900 2739111.500000
142.077900 558826.100000
143.085700 210070.300000
144.057100 704251.100000
145.064900 1212123.100000
146.052600 123840.600000
146.072700 181024.900000
147.080400 112439.900000
151.054500 94869.800000
152.062200 3027554.800000
153.069900 1927674.000000
154.077800 335073.100000
155.049400 354192.000000
155.060400 1217493.500000
155.085500 412062.100000
157.064900 744064.000000
158.072600 238566.500000
159.060900 48121.700000
159.080500 111129.600000
163.054100 47885.000000
164.062100 150222.900000
165.070000 5344324.000000
166.077800 757065.400000
167.085600 542380.900000
168.057100 468877.700000
169.064800 801685.800000
170.072800 144372.600000
171.080700 179032.000000
176.062100 604407.900000
177.069900 750386.400000
178.077800 5768424.500000
179.060800 137406.900000
179.085600 2366083.000000
180.093300 57336.100000
181.064800 1781143.100000
182.072800 473883.300000
183.060700 49349.000000
183.080500 105506.800000
185.096300 30266.100000
188.062200 27168.900000
189.070000 3853093.200000
190.077700 1293572.400000
191.085600 1390657.100000
192.057100 38688.800000
192.093400 358581.100000
193.064400 59427.700000
193.101100 274015.900000
194.072700 644872.400000
195.080600 673814.100000
196.088400 101314.500000
197.096100 95905.200000
200.061800 49527.400000
201.069900 134723.200000
202.077800 3149419.800000
203.085700 1529958.500000
204.093600 251789.100000
205.065000 692306.900000
205.101400 341406.800000
206.072600 245007.600000
207.080700 669549.500000
208.088500 236820.100000
209.096100 146748.200000
213.069900 234427.300000
214.077800 120417.300000
215.085700 1817451.500000
216.093600 287828.800000
217.101500 274067.500000
218.072900 613578.900000
218.108600 54749.900000
219.080600 643027.500000
220.088600 93203.500000
221.096400 386906.900000
223.111700 40723.200000
226.077800 593079.300000
227.085700 557198.600000
228.093400 909102.100000
229.101500 455112.900000
231.080600 959510.500000
232.088200 272450.700000
233.096500 242500.000000
235.111700 33395.100000
239.085300 253068.900000
240.093500 25221.400000
241.101500 198637.700000
242.073100 50006.300000
242.108800 104623.700000
243.080300 55278.200000
243.117100 32130.000000
244.088400 104085.900000
245.096000 289901.200000
246.104200 40009.600000
247.111900 110885.400000
250.077700 37765.400000
252.093000 169861.100000
255.080400 156287.900000
256.088200 36103.400000
258.104900 35629.700000
259.112100 32934.500000
269.096200 32388.500000

>ms2peaks
50.015100 1039179.300000
51.023000 1625564.800000
53.002200 318796.600000
53.038600 1905282.500000
53.997500 27612.700000
55.017900 456846.500000
55.054200 394760.200000
57.033500 45143.500000
59.029200 29501.600000
61.028500 30849.000000
62.015100 119581.500000
63.022900 563482.100000
65.038600 5079344.000000
66.046400 179176.400000
67.054300 481321.900000
69.033500 88215.000000
71.012700 58257.900000
74.015000 52935.300000
75.022900 268773.500000
76.030800 118859.900000
77.038600 2289690.000000
78.046400 1557186.100000
79.054200 1596239.500000
81.033600 299479.600000
81.069800 40730.400000
83.029200 59733.000000
87.022900 45571.500000
88.030600 28353.100000
89.038600 972385.700000
91.054300 9282545.000000
93.069900 193339.500000
94.041400 191741.800000
95.049200 5732237.500000
101.038500 44655.700000
102.046500 1276827.500000
103.054300 2575701.000000
104.062100 397097.800000
105.044800 3093391.800000
105.070000 509362.500000
107.049200 492904.700000
109.044900 155180.900000
109.064700 45404.000000
113.038700 23092.000000
114.046700 50013.400000
115.054300 10747464.000000
116.062100 744125.300000
117.069900 509297.100000
118.041400 28099.500000
119.049300 51299.500000
119.085800 25254.900000
121.064900 176409.100000
125.039300 103448.700000
126.046500 572872.100000
127.054300 893769.000000
128.062100 7564819.000000
129.044600 126323.700000
129.069900 857434.800000
130.077800 106570.700000
131.049200 1764030.400000
132.057100 245612.400000
133.044900 199473.900000
139.054300 1111220.200000
140.062100 174543.200000
141.069900 2000097.600000
142.077800 133800.700000
144.057000 231164.400000
145.064900 902141.700000
146.052600 116181.200000
150.046100 244681.400000
151.054100 211466.100000
152.062200 5851436.500000
153.070000 1455559.200000
154.077900 140554.000000
155.049300 114215.400000
155.060400 1265026.200000
157.065100 285734.200000
158.072300 32580.100000
159.060600 39810.900000
163.054300 607642.500000
164.062000 531859.300000
165.070000 5680848.000000
166.077900 294049.300000
167.085600 158032.100000
168.057100 494543.800000
169.064900 1192148.600000
176.062200 1837889.200000
177.070000 1302741.400000
178.077800 4872160.500000
179.060500 345911.100000
179.085600 577108.100000
180.093200 29559.800000
181.064800 855484.100000
182.072800 99152.000000
183.060600 52086.700000
183.080600 39654.100000
187.054500 236887.600000
188.061900 222209.600000
189.070000 5041895.500000
190.077700 765550.500000
191.085600 662057.100000
192.057100 149156.300000
192.093400 30431.200000
193.065600 37817.800000
194.073000 210063.500000
195.080500 94781.500000
196.051800 103506.900000
200.062100 346554.800000
201.069800 353482.200000
202.077800 4023206.000000
203.085600 700632.600000
204.093800 47651.300000
205.065000 547139.900000
206.073100 86032.300000
207.080500 153506.200000
213.070200 558651.400000
214.077600 131209.800000
215.085700 1484705.600000
216.093900 36124.000000
217.101200 32277.400000
218.073000 283946.100000
219.080500 356702.700000
220.088200 23246.700000
221.096700 35863.000000
225.069500 30317.500000
226.077800 1319639.500000
227.086000 330430.100000
228.093500 378283.500000
229.064800 48583.400000
229.101500 102780.000000
231.080700 357565.600000
232.088400 25246.800000
239.085500 424437.500000
240.093200 29032.800000
242.072100 48332.900000
243.081100 43451.500000
250.077500 103389.400000
252.093200 44432.400000
269.095500 22793.900000

>ms2peaks
50.015100 1523552.500000
51.023000 3480635.500000
53.002200 381592.600000
53.038600 1372658.600000
53.997500 54452.600000
55.017900 255702.500000
55.054300 110593.000000
59.029200 37830.500000
62.015100 236416.100000
63.022900 1171734.100000
65.038600 5111636.000000
66.046400 164564.200000
67.054300 138480.100000
67.989300 22912.700000
74.015000 268652.700000
75.022900 549559.300000
76.030700 248042.500000
77.038600 1884267.000000
78.046400 1591260.400000
79.054200 623639.600000
81.033500 196750.300000
83.029200 153591.800000
87.023000 152901.400000
88.030800 29975.300000
89.038600 1844641.200000
90.046500 30715.000000
91.054300 4193192.500000
94.041400 121610.100000
95.049200 4099274.000000
101.038700 51593.800000
102.046400 1577362.600000
103.054200 1533732.200000
104.062000 54207.100000
105.044800 2086392.000000
105.070000 118892.700000
107.049100 218595.900000
109.045000 54835.200000
113.038700 167355.300000
114.046500 41780.200000
115.054300 7984834.000000
116.062000 215113.200000
117.069900 131381.800000
118.041100 20723.200000
119.049200 114309.000000
126.046400 849891.400000
127.054200 819851.100000
128.062100 3820853.500000
129.044800 169071.100000
129.070100 193274.500000
131.049200 558131.600000
132.056900 52168.800000
133.044900 115480.000000
139.054300 1431682.200000
140.062400 24583.400000
141.069900 598547.900000
144.057100 38879.000000
145.064800 437644.100000
146.052800 33458.700000
150.046500 883964.400000
151.054300 266797.500000
152.062100 4489194.000000
153.069900 481616.800000
155.060400 1030434.600000
157.065100 39537.500000
163.054300 1178341.200000
164.062200 574483.800000
165.070000 3260649.000000
168.057100 401795.200000
169.064900 1565157.800000
176.062100 1931222.200000
177.070100 639624.600000
178.077800 1390012.100000
179.060500 417575.100000
179.085800 45500.200000
181.064900 172575.800000
187.054400 603988.000000
188.062300 324774.500000
189.070000 3044178.500000
190.077800 149904.300000
191.085500 92048.800000
192.057100 194233.500000
193.065100 92800.800000
196.052100 99519.100000
200.062100 837838.500000
201.069900 357318.600000
202.077800 1853820.900000
203.085300 95892.000000
205.064900 282066.500000
213.070000 694316.800000
214.078000 54488.800000
215.085700 514798.900000
219.080400 178393.700000
225.070000 89656.800000
226.077700 737050.100000
227.085600 38555.600000
228.093000 101434.000000
229.064200 35672.400000
239.085500 151177.700000
243.080700 40971.400000
250.077800 41073.100000

