>compound EQ36137616
>parentmass 247.0415
>ionization [M+H]+
>formula C8H11ClN4OS
>rt 138.000000
>profile orbitrap
#smiles_iso CN1COCN(C1=N)CC2=CN=C(S2)Cl
#smiles_can CN1COCN(C1=N)CC2=CN=C(S2)Cl
#inchikey JDTUGRDKAOPKRI-UHFFFAOYSA-N
#pubchem_id 89351742
#mb_accession EQ323401,EQ323402,EQ323403,EQ323404,EQ323405,EQ323406,EQ323407,EQ323408,EQ323409

>ms2peaks
57.044500 1464799.900000
114.066200 913226.400000
131.966600 10311527.000000
160.993500 83028368.000000
173.988800 16941394.000000
175.009200 408314.500000
217.031000 30789190.000000
247.041400 354968288.000000

>ms2peaks
57.044700 4564888.500000
98.071300 676856.400000
114.066200 1514771.000000
125.016700 295248.100000
131.966900 44848228.000000
132.974300 371070.600000
146.977700 203802.500000
160.993400 141954672.000000
173.988800 27984822.000000
175.009000 552968.400000
181.054000 305878.200000
211.064800 324204.800000
217.031000 21864132.000000
247.041500 105773520.000000

>ms2peaks
57.044700 10688438.000000
70.994900 683613.900000
71.060400 526847.500000
98.071300 297933.200000
114.066200 1407663.600000
125.016900 434746.600000
131.966900 145931264.000000
132.974700 1593087.100000
138.011700 188285.400000
146.978000 342704.700000
149.977700 679581.000000
160.993500 95968344.000000
173.988800 23472354.000000
175.009500 268192.200000
217.031000 3508278.800000
247.041600 5008570.500000

>ms2peaks
57.044700 13474176.000000
69.044800 266058.600000
70.995000 5857710.000000
71.060400 523053.700000
78.940100 686647.400000
87.994800 593721.100000
113.016700 413455.500000
114.066100 520600.300000
119.967100 593712.300000
125.016900 597636.700000
131.966900 196035568.000000
132.974700 9384140.000000
133.982600 456049.800000
138.012100 229000.500000
146.977700 395095.100000
149.977600 2193724.000000
160.993500 39747440.000000
173.988800 12188196.000000
217.030800 245137.000000

>ms2peaks
57.044700 16076259.000000
61.979100 416597.200000
69.044800 472346.000000
70.995000 22189648.000000
78.940300 1802192.900000
87.994800 1745659.000000
95.990200 375748.400000
98.005900 441014.700000
100.021500 260306.600000
113.016600 310386.800000
119.967000 2451359.800000
125.017100 572817.300000
131.966900 194022640.000000
132.974700 21560608.000000
133.982400 730245.200000
138.011900 302901.500000
146.977900 215927.300000
149.977500 2377078.000000
160.993500 12444547.000000
173.988800 4356060.000000

>ms2peaks
55.029100 243918.900000
57.044700 16172746.000000
59.966500 292177.100000
61.979200 774991.400000
68.979200 396412.600000
69.044700 390461.100000
70.995000 46237600.000000
72.002800 313925.000000
78.940300 2913160.800000
87.994900 4374601.500000
95.990200 474588.000000
98.005900 2492307.000000
100.021500 216114.900000
113.016700 238397.000000
119.967000 3613564.200000
125.017100 391477.100000
131.966900 159492656.000000
132.974700 27416648.000000
133.982600 433355.100000
138.012000 238661.300000
139.019800 201362.400000
149.977500 1621404.800000
160.993500 2706091.500000
173.988800 890767.400000

>ms2peaks
54.033900 536058.500000
55.029100 274752.700000
57.044800 13362526.000000
58.995000 669251.500000
59.966500 1530486.100000
60.984000 102494.300000
61.979200 3092735.200000
67.041700 78799.000000
68.979300 579343.600000
69.044700 200694.100000
69.987200 371962.100000
70.995000 61021372.000000
71.990300 101426.100000
72.002800 1374066.800000
78.940400 4994080.000000
86.005900 112687.500000
87.994900 6689953.500000
95.990300 412465.200000
96.998100 202146.600000
98.006000 9018524.000000
104.956100 193894.200000
119.967000 3258027.200000
131.967000 55147800.000000
132.974800 14167911.000000
133.982600 104974.600000
149.977600 212084.100000

>ms2peaks
54.033900 1448106.500000
55.029100 247945.500000
57.044800 9799895.000000
57.987200 223235.700000
58.995000 1285752.600000
59.966500 2921298.800000
60.983900 165976.700000
61.979200 5744431.000000
68.979400 989745.900000
69.044700 83385.200000
69.974600 193117.500000
69.987200 805742.800000
70.995000 37014748.000000
71.990300 342642.900000
72.002800 953852.300000
75.994800 82965.500000
78.940400 7943716.000000
87.994900 4337438.000000
95.990200 273972.100000
96.998000 60032.400000
98.005900 6597074.000000
104.956100 219979.500000
119.967000 1305135.800000
131.967000 9835438.000000
132.974800 2647322.500000

>ms2peaks
54.033900 1489318.500000
55.029100 180573.700000
57.044800 6305387.500000
57.987200 262137.400000
58.995000 1226396.000000
59.966500 4192439.500000
60.984000 87043.900000
61.979200 6272927.500000
68.979300 1586775.200000
69.974700 445010.000000
69.987100 559820.800000
70.995000 16046784.000000
71.990200 493959.300000
72.002800 315696.600000
75.994800 58994.400000
78.940400 11106807.000000
87.994900 1857033.900000
95.990400 159019.300000
98.006000 2099369.000000
119.967100 336426.700000
131.967100 1491627.600000
132.975000 392491.500000

