>compound EQ36078083
>parentmass 251.17540000000002
>ionization [M+H]+
>formula C14H22N2O2
>rt 288.000000
>profile orbitrap
#smiles_iso CC[N+](CC)(CC(=O)NC1=C(C=CC=C1C)C)[O-]
#smiles_can CC[N+](CC)(CC(=O)NC1=C(C=CC=C1C)C)[O-]
#inchikey YDVXPJXUHRROBA-UHFFFAOYSA-N
#pubchem_id 3036923
#mb_accession EQ327901,EQ327902,EQ327903,EQ327904,EQ327905,EQ327906,EQ327907,EQ327908,EQ327909

>ms2peaks
58.065100 2940040.800000
72.080700 4486201.000000
74.060000 2814261.800000
74.096400 2588591.500000
86.096400 146714000.000000
88.075600 12105140.000000
120.080200 2025512.600000
130.086300 146013664.000000
148.075700 5514627.000000
164.107000 5841908.000000
223.144000 3033946.800000
233.165400 1897219.100000
251.175300 933205760.000000

>ms2peaks
58.065100 18107146.000000
60.044300 2286450.500000
72.080700 17366758.000000
73.088500 3499983.200000
74.059900 11349092.000000
74.096400 8727598.000000
84.080600 1499640.000000
86.096300 543646080.000000
88.075600 70828632.000000
90.091300 872162.100000
105.069700 1078482.000000
112.075600 973578.300000
120.080700 10180321.000000
121.088500 873706.500000
122.096300 3565223.500000
123.080400 771568.400000
130.086200 172366864.000000
132.080600 563057.000000
133.075700 642613.400000
134.096300 545843.600000
148.075600 29469680.000000
162.091300 966053.100000
163.099000 4957883.500000
164.107000 28412168.000000
178.086100 3792239.000000
179.094100 751146.200000
180.101700 658542.500000
223.144000 6912048.000000
233.164900 6295815.500000
251.175200 351102432.000000

>ms2peaks
56.049400 1186203.500000
58.065100 34528256.000000
60.044400 16095830.000000
72.080700 17619644.000000
73.088500 1731824.900000
74.060000 24374146.000000
74.096400 7827337.500000
84.080700 4625908.500000
86.096400 574596928.000000
88.075600 149489312.000000
90.091500 1310722.100000
105.069900 9922646.000000
112.075500 2123225.500000
120.080800 52331676.000000
121.064800 1259895.200000
121.088500 2963495.500000
122.096400 18642874.000000
123.080400 5003396.500000
130.086300 24148280.000000
132.080800 1131575.400000
133.075900 2636448.800000
134.096400 3904879.500000
146.096400 1140374.500000
147.067800 631465.400000
148.075600 35318452.000000
150.091400 669767.600000
162.091300 2029372.000000
163.062900 1768681.200000
163.099100 5013595.500000
164.107000 30768384.000000
178.086200 1894348.900000
205.133000 855985.400000
223.144000 1498092.400000
233.164900 3514912.500000
251.175300 16757892.000000

>ms2peaks
56.049400 2547944.000000
58.065100 48379428.000000
60.044400 46958544.000000
72.080700 9616575.000000
73.088500 494278.100000
74.060000 30496054.000000
74.096400 4451854.500000
79.054200 1985482.500000
84.080800 6727870.500000
86.096400 459820128.000000
88.075600 133567264.000000
90.091400 1763272.900000
91.054200 516007.700000
93.069800 526933.500000
103.054200 1344414.000000
105.069900 24986384.000000
106.065100 612897.900000
107.072900 3475539.500000
107.085600 1132719.500000
112.075500 1376546.400000
119.073100 655340.400000
119.085600 602539.200000
120.080800 99393128.000000
121.064800 959038.200000
121.088500 4212454.500000
122.096400 34526252.000000
123.080400 5512493.500000
130.086200 1240151.200000
132.080600 1829330.200000
133.075900 2535519.200000
134.096400 6873241.500000
146.096500 1378759.600000
147.067800 1236397.100000
148.075600 19661780.000000
150.091300 958153.600000
162.091300 869243.800000
163.062700 1784421.400000
163.099200 1032439.600000
164.107000 9937111.000000
233.164900 610288.400000

>ms2peaks
53.038600 546957.600000
56.049500 3525265.000000
58.065100 62984936.000000
60.044400 64981732.000000
72.080700 5104593.500000
74.060000 25827758.000000
74.096400 1976710.200000
77.038300 934584.600000
79.054200 5684540.500000
84.080800 4552101.500000
86.096400 333009120.000000
88.075700 69471464.000000
90.091600 877877.100000
91.054200 1958608.000000
93.069900 2133990.000000
95.049100 1658736.800000
103.054200 4787638.000000
105.069900 29175680.000000
106.065100 2092410.200000
107.072900 13144839.000000
107.085500 1901878.000000
112.075600 485197.200000
117.057200 1095007.900000
117.069900 707472.800000
118.065100 674248.200000
119.073000 1333808.900000
119.085400 867792.600000
120.080800 119765456.000000
121.064700 912077.800000
121.088500 3696933.800000
122.096400 27516900.000000
123.080400 2868523.200000
132.080700 897223.400000
133.052000 580074.900000
133.075900 1042657.200000
134.060000 541464.200000
134.096400 6037754.500000
146.096500 1407869.900000
147.067800 1832250.200000
148.075600 9922352.000000
150.091400 494609.800000
163.062800 786925.000000
164.107000 1515324.100000

>ms2peaks
53.038600 953487.600000
56.049500 4517451.000000
58.065100 66474952.000000
60.044400 57117164.000000
65.038500 588801.900000
67.054200 261229.500000
72.080700 3052035.000000
74.060000 17438338.000000
77.038500 2234051.200000
79.054200 10596694.000000
80.049400 485546.800000
84.080800 2492200.800000
86.096400 208883408.000000
88.075700 26857012.000000
90.091300 480345.000000
91.054200 5441025.500000
92.049300 895426.600000
93.057300 261093.100000
93.069900 4060486.800000
94.065100 509116.500000
95.049100 4487612.000000
103.054200 8019279.000000
105.044700 2902110.200000
105.069900 20914704.000000
106.065100 4834432.000000
107.072900 20517710.000000
107.085400 1580839.100000
109.064800 415708.000000
110.060100 778204.200000
115.054200 643994.400000
117.057200 907304.600000
117.069800 712586.200000
118.065000 1300287.000000
119.049100 487531.400000
119.073000 2239946.800000
119.085500 689717.000000
120.080800 105610152.000000
121.064900 398754.200000
121.088500 2803408.800000
122.096400 13448645.000000
123.080400 1062125.100000
130.065200 434888.800000
131.072900 727198.800000
132.080700 541438.700000
133.052200 1419571.000000
133.076000 553770.500000
134.059800 845355.500000
134.096400 4473193.000000
144.080700 581129.600000
146.096500 841617.100000
147.067800 857504.100000
148.075600 5300071.500000

>ms2peaks
50.015100 616082.100000
51.023000 1638026.900000
53.038600 3503072.200000
54.033900 144866.200000
55.017900 155476.300000
56.049500 3615442.000000
58.065100 44239432.000000
60.044400 19740832.000000
65.038600 3845189.000000
66.046400 126684.400000
67.054200 551049.000000
68.049500 135050.900000
72.080800 944832.200000
74.060000 7062034.500000
77.038500 5798744.000000
78.046400 790322.800000
79.054200 12988852.000000
80.049400 1668779.000000
81.033600 490494.500000
81.057300 118646.300000
84.080800 219718.100000
86.096400 56693012.000000
88.075700 2477455.800000
89.038500 105365.000000
90.046400 173356.500000
91.054200 14803819.000000
92.049500 2339176.000000
92.062100 672689.300000
93.057200 1133353.200000
93.069900 6282379.500000
94.065200 981257.700000
95.049100 12727374.000000
102.046500 509971.200000
103.054200 11055416.000000
104.049400 1359243.600000
104.061900 135727.600000
105.044700 7024685.500000
105.057300 1229786.200000
105.069900 8289114.500000
106.065100 12506237.000000
107.072900 16240445.000000
109.064800 176097.400000
110.060100 1721912.200000
115.054200 836410.300000
117.057400 862720.700000
117.069900 192591.400000
118.065100 4518635.000000
119.049100 1091104.800000
119.060500 195241.300000
119.073000 1887534.100000
119.085800 170051.500000
120.080800 45283016.000000
121.064900 106567.400000
121.088700 420585.800000
122.096300 1074005.100000
130.065200 1147867.100000
131.073000 1170640.800000
132.080900 102712.700000
133.052100 3255436.000000
134.060100 473350.600000
134.096500 1121274.000000
144.080800 502044.200000
146.060100 213527.300000
146.096300 105214.500000
148.075600 751787.800000

>ms2peaks
50.015100 1461777.600000
51.022900 5797697.500000
53.038600 5409842.000000
54.033800 145389.200000
55.017800 102238.600000
56.049500 2973187.000000
58.065100 16351998.000000
60.044400 4704263.000000
63.023000 187633.100000
65.038600 8347020.500000
66.046400 339903.600000
67.041700 85217.200000
67.054200 435385.500000
72.080700 124188.200000
74.060000 2121699.500000
77.038500 8950525.000000
78.046400 1849802.200000
79.054200 9670024.000000
80.049400 2441665.500000
81.033400 691843.400000
81.057300 389136.000000
86.096400 8948462.000000
88.075500 135775.900000
89.038600 815375.300000
90.046500 816162.400000
91.054200 16818244.000000
92.049500 1678814.600000
92.062000 188859.400000
93.057300 1233575.900000
93.069900 2410454.500000
94.041500 101896.500000
94.065100 435334.100000
95.049200 17272864.000000
96.044300 149285.700000
102.046400 588402.200000
103.054200 7132333.000000
104.049400 4030509.800000
105.044700 9162546.000000
105.057300 1075261.800000
105.069900 2044293.500000
106.065100 16582813.000000
107.049200 388557.800000
107.072900 5137907.000000
110.060000 762025.100000
115.054300 1071748.900000
116.049200 141549.800000
117.057200 1232402.900000
118.065100 3712282.200000
119.049000 132059.400000
119.060400 403490.900000
119.073000 814244.600000
120.080800 9384628.000000
130.065100 1625649.200000
131.073100 226998.900000
132.080800 122623.000000
133.052100 1703934.500000
144.080700 137246.000000
146.060000 392873.300000

>ms2peaks
50.015100 3400483.800000
51.023000 13175682.000000
52.030700 183667.281300
53.038600 6617019.000000
54.033800 178315.500000
55.017900 88452.800000
56.049500 1898297.100000
58.065100 4614502.500000
60.044400 921313.500000
63.022900 953649.800000
65.038600 10047067.000000
66.046400 648775.100000
67.041600 414571.000000
67.054200 144333.700000
68.049400 101392.600000
74.059900 449984.100000
75.022900 160414.828100
77.038500 8677614.000000
78.046400 2204397.800000
79.054200 4794920.500000
80.049400 2720235.500000
81.033500 491084.700000
81.057300 101796.600000
86.096400 1317765.000000
89.038600 2096935.600000
90.046400 662771.200000
91.054200 13930318.000000
92.049400 904030.100000
93.057300 1113744.900000
93.069900 373055.200000
94.041300 212233.100000
94.065100 158272.300000
95.049100 15869571.000000
96.044200 406565.600000
102.046400 585978.600000
103.054200 2502885.000000
104.049500 4816533.000000
105.044800 8758050.000000
105.057400 500742.200000
106.065100 11531766.000000
107.049000 114162.200000
107.073000 1047741.600000
109.064900 156920.500000
110.059900 116661.700000
115.054200 952223.400000
116.049400 100678.200000
117.057300 995075.600000
118.065100 2387560.000000
119.073000 177969.600000
120.080800 1253235.600000
130.065200 1666819.900000
133.052200 433840.500000

