>compound EQ36112236
>parentmass 292.2060000000001
>ionization [M+H]+
>formula C21H25N
>rt 528.000000
>profile orbitrap
#smiles_iso CC(C)(C)C#CC=CCN(C)CC1=CC=CC2=CC=CC=C21
#smiles_can CC(C)(C)C#CC=CCN(C)CC1=CC=CC2=CC=CC=C21
#inchikey DOMXUEMWDBAQBQ-UHFFFAOYSA-N
#pubchem_id 5402
#mb_accession EQ358601,EQ358602,EQ358603,EQ358604,EQ358605,EQ358606,EQ358607,EQ358608,EQ358609

>ms2
57.069900 4754149.000000
58.065100 646676.200000
70.065100 1428335.400000
79.054100 2856459.200000
91.053800 1026502.600000
93.069900 28035132.000000
105.069900 1874273.000000
106.077800 821327.100000
119.085600 896867.000000
121.101200 9638382.000000
123.080400 781983.400000
141.069800 283739264.000000
150.127700 10617912.000000
165.069900 2028390.000000
170.096400 19274700.000000
179.085400 3484666.800000
191.085400 2023070.900000
193.101200 1456609.000000
205.101200 13747148.000000
207.116700 674055.900000
219.117000 2107894.000000
235.148000 1265303.000000
236.143400 3761675.000000
249.163700 3248470.500000
261.163800 7880204.000000
292.205900 643631936.000000

>ms2
55.054300 1063801.200000
57.069900 5077147.000000
63.022800 851620.100000
70.065100 1035024.100000
77.038500 1192321.600000
79.054200 10242543.000000
83.085500 868968.900000
91.054200 8062006.500000
93.069900 90811064.000000
95.049200 837765.900000
105.044800 713709.600000
105.069900 12590299.000000
106.077800 736261.800000
115.053900 1099875.800000
119.085600 3426196.200000
121.101200 11654246.000000
123.080300 2232955.800000
133.076100 2387756.500000
139.054100 821854.400000
140.061800 780151.900000
141.069800 711524608.000000
150.127700 10727278.000000
165.069800 1511418.900000
170.096400 17966430.000000
179.085400 3221936.200000
191.085400 1826458.900000
193.100800 1795186.800000
203.085600 983147.300000
205.101200 9774183.000000
207.117000 746206.900000
219.116800 1428887.600000
236.143300 2165316.800000
249.164100 814371.700000
261.164000 4941761.500000
292.206000 36552652.000000

>ms2
53.038600 1799089.900000
55.054200 2557005.500000
57.069900 2274562.200000
67.054200 840137.800000
77.038500 4649250.000000
79.054200 16752846.000000
81.069900 838507.300000
91.054200 25779466.000000
93.069900 76065656.000000
95.049100 4705421.000000
103.054200 2398125.200000
105.044700 3597064.200000
105.069900 19969664.000000
106.077800 1714487.100000
115.054100 2241679.500000
119.085600 4793465.000000
121.101100 2171630.500000
133.076100 1241137.000000
141.069800 790001280.000000
150.127600 2877818.000000
165.069800 1006237.200000
170.096400 8726261.000000
179.085200 1541716.500000
191.085500 791575.800000
193.101200 843363.700000
203.085700 1353816.800000
205.101200 3555855.200000
261.163800 890144.700000

>ms2
53.038600 4231921.000000
55.054200 3449994.200000
57.069900 1531559.000000
67.054300 1349234.500000
77.038500 10129315.000000
79.054200 22409446.000000
81.069800 1082882.400000
91.054200 42323040.000000
93.069900 44455036.000000
95.049100 12974543.000000
103.054200 4913107.500000
105.044700 9563412.000000
105.069900 14061332.000000
106.077700 1847227.900000
115.054200 15656695.000000
119.085600 3367554.800000
139.053900 1010089.300000
141.069800 808471232.000000
165.069900 1085724.900000
170.096400 2882442.200000
179.085200 1048833.400000
190.077600 1639309.600000
203.085600 812845.000000
205.101100 815027.600000

>ms2
50.015100 1399179.800000
51.022900 855526.800000
53.038600 8111201.000000
55.054300 4002038.200000
65.038600 1450542.100000
67.054200 1514407.500000
77.038500 15989620.000000
79.054200 21576166.000000
81.069900 1857844.100000
91.054200 51888232.000000
93.069900 20552752.000000
95.049100 25445352.000000
103.054200 6765052.000000
105.044700 16968094.000000
105.069900 6712759.500000
106.077800 1074324.200000
115.054200 100456280.000000
119.085600 2377048.500000
139.054200 1107480.400000
141.069800 775167360.000000
165.069900 1260241.500000
178.077900 1271076.900000
190.077600 1339479.900000
202.077900 940578.600000
203.085500 1274364.600000

>ms2
50.015000 1458903.000000
51.022900 1376697.000000
53.038600 7855799.000000
55.054200 2648696.500000
63.022800 2571233.200000
65.038500 3123766.500000
67.054200 1137406.500000
77.038500 19509090.000000
78.046300 1000897.900000
79.054200 16365413.000000
81.033400 868722.200000
81.069900 1765033.600000
89.038500 800682.400000
91.054200 53446276.000000
93.069900 7437762.000000
95.049100 27310974.000000
103.054200 4680641.500000
105.044700 19339212.000000
105.069900 3089563.500000
106.077800 548786.900000
115.054200 277215680.000000
119.085800 1008461.500000
120.080800 537793.500000
139.054100 1936360.400000
140.061800 1199249.100000
141.069800 531774688.000000
165.069800 1256194.800000
178.077800 1386452.200000
189.069900 1353468.500000
202.077600 833191.400000
203.085400 745168.800000

>ms2
50.015100 4073221.200000
51.022900 4047978.000000
53.002200 805752.100000
53.038600 7540639.500000
55.054200 1515761.100000
62.015100 1788605.100000
63.022900 12497735.000000
65.038600 13956108.000000
67.054200 630435.700000
77.038500 19189940.000000
78.046400 2216563.200000
79.054200 6434178.500000
81.033600 745275.500000
89.038600 12359188.000000
91.054300 58545468.000000
93.069900 584666.600000
95.049200 23059066.000000
102.046400 2900772.200000
103.054200 1690894.000000
105.044800 15408214.000000
105.069800 852122.100000
114.046500 1058268.400000
115.054200 512410656.000000
126.046300 583417.100000
139.054300 9882803.000000
140.062100 3039407.000000
141.069900 115470416.000000
165.069700 952902.200000
178.077700 676628.000000
189.070000 937687.100000
202.077600 758712.600000

>ms2
50.015100 7745910.000000
51.023000 8758796.000000
53.002200 1439427.900000
53.038600 5107387.500000
55.054300 608498.400000
61.007200 1007762.400000
62.015100 6530591.000000
63.022900 31935200.000000
65.038600 44247504.000000
74.014900 1186552.400000
75.022900 2526195.000000
76.030700 1337950.600000
77.038500 11623005.000000
78.046400 2608440.200000
79.054200 2877462.500000
81.033500 762735.100000
87.022900 2159217.000000
89.038600 59449328.000000
91.054200 52281660.000000
95.049100 13190174.000000
102.046400 6652898.000000
103.054200 880817.400000
105.044700 8922921.000000
105.069800 594518.700000
113.038600 1247323.800000
114.046600 1623016.400000
115.054200 387864544.000000
126.046300 1636080.500000
132.056800 713725.200000
139.054200 16186563.000000
140.062000 1857398.400000
141.069800 12524191.000000
189.069700 718494.500000

>ms2
50.015100 12668057.000000
51.023000 12943464.000000
53.002200 3018400.000000
53.038600 2750348.500000
53.997400 744421.800000
55.054300 230140.700000
61.007300 3163625.800000
62.015100 15495555.000000
63.022900 59465936.000000
65.038600 67743032.000000
66.046400 424879.600000
74.015100 3998447.000000
75.022900 5644678.000000
76.030700 3950349.500000
77.038500 5526387.500000
78.046400 1913987.200000
79.017800 469861.600000
79.054200 1234542.000000
86.015100 1447776.400000
87.023000 4962825.500000
88.030800 1116948.400000
89.038600 95296440.000000
90.046500 564977.400000
91.054300 27101292.000000
94.041400 264822.900000
95.049100 6073014.000000
102.046400 5390280.500000
103.054100 223354.700000
105.044700 5320951.000000
113.038600 3657440.800000
114.046400 2491409.800000
115.054200 181370544.000000
118.041400 244249.500000
126.046500 1433344.500000
132.057000 790577.300000
139.054300 15926981.000000
140.062100 246958.000000
141.069700 1190125.800000
176.061800 225392.600000

