>compound EQ37036801
>parentmass 172.0427
>ionization [M+H]+
>formula C7H9NO2S
>rt 276.000000
>profile orbitrap
#smiles_iso CC1=CC=C(C=C1)S(=O)(=O)N
#smiles_can CC1=CC=C(C=C1)S(=O)(=O)N
#inchikey LMYRWZFENFIFIT-UHFFFAOYSA-N
#pubchem_id 6269
#mb_accession EQ361801,EQ361802,EQ361803,EQ361804,EQ361805,EQ361806,EQ361807,EQ361808,EQ361809

>ms2
50.015000 38856.100000
53.038600 31890.000000
55.017900 257071.900000
55.054100 37593.400000
65.038600 1130069.600000
67.054200 699678.800000
68.997000 26279.700000
77.038600 61724.700000
91.054200 4531136.000000
95.049200 268713.400000
108.057100 65885.700000
109.064800 7728808.000000
119.060400 21550430.000000
155.016200 21727918.000000
172.042700 122398.600000

>ms2
50.015000 37654.400000
51.022800 30526.500000
55.017900 287793.300000
55.054200 53406.900000
65.038600 1172450.600000
67.054200 714452.200000
77.038600 81950.400000
91.054200 5437890.000000
95.049100 321921.900000
105.044700 45753.900000
108.057000 65630.300000
109.064800 8125715.500000
119.060400 23548938.000000
155.016100 20585320.000000
172.042500 93873.300000

>ms2
51.022800 36470.300000
55.017900 282238.700000
65.038600 1709957.600000
67.054200 818760.400000
77.038500 80553.600000
91.054200 16407196.000000
94.041400 33142.100000
95.049200 317532.900000
108.057000 68969.300000
109.064900 9050892.000000
119.060400 23797152.000000
155.016200 2377596.200000

>ms2
51.022800 32589.400000
55.017900 159807.500000
55.054200 44900.700000
63.022900 38666.900000
65.038600 3020282.000000
67.054200 445482.100000
77.038600 61381.800000
91.054200 30853588.000000
95.049200 178588.700000
108.057000 36082.700000
109.064900 5089110.000000
119.060400 11987016.000000
155.016200 192245.700000

>ms2
55.017800 51201.800000
63.022900 138911.500000
65.038600 6922428.500000
67.054200 163371.100000
77.038500 33841.300000
89.038400 39712.800000
91.054200 33007136.000000
95.049300 58786.200000
109.064800 1937502.800000
119.060400 4171388.500000

>ms2
50.015100 40677.100000
51.022800 27875.500000
53.002300 64852.900000
62.015100 31669.400000
63.022900 303210.600000
65.038600 13155498.000000
67.054200 55582.400000
89.038500 31735.300000
91.054200 26807648.000000
109.064900 580251.300000
119.060500 1081015.500000

>ms2
50.015200 96293.800000
51.023000 124279.500000
53.002200 186410.100000
53.997500 50351.300000
62.015100 79047.600000
63.023000 898517.700000
64.030600 31417.600000
65.038600 18523092.000000
67.989300 76548.800000
89.038600 75360.000000
91.054300 9367380.000000
93.057400 26815.600000
109.064900 43920.900000
119.060500 66138.100000

>ms2
50.015100 235213.700000
51.023000 399763.800000
53.002200 407991.200000
53.997500 101326.100000
61.007200 35062.300000
62.015100 266059.800000
63.023000 1360563.800000
65.038600 13415707.000000
67.989300 95526.500000
78.008800 33287.800000
89.038600 76905.500000
90.046400 14104.200000
91.054300 2310778.000000
93.057400 14255.600000

>ms2
50.015200 405723.500000
51.023000 672975.900000
53.002200 489622.800000
53.997500 134521.800000
54.010100 25951.300000
61.007300 91611.600000
62.015100 530351.400000
63.023000 1357311.000000
64.030700 9999.900000
65.038600 5991474.500000
66.046400 10933.500000
67.989300 96076.800000
75.022800 14903.500000
78.008700 38249.500000
89.038700 91856.000000
91.054300 411329.300000

