>compound EQ38517838
>parentmass 164.04549999999998
>ionization [M+H]+
>formula C7H5N3O2
>rt 222.000000
>profile orbitrap
#smiles_iso C1=CC2=NNN=C2C=C1C(=O)O
#smiles_can C1=CC2=NNN=C2C=C1C(=O)O
#inchikey GUOVBFFLXKJFEE-UHFFFAOYSA-N
#pubchem_id 72917
#mb_accession EQ318401,EQ318402,EQ318403,EQ318404,EQ318405,EQ318406,EQ318407,EQ318408,EQ318409

>ms2peaks
65.038300 455885.800000
80.049400 615729.800000
108.044300 1699597.500000
136.039600 421956.100000
164.045300 351741344.000000

>ms2peaks
65.038400 500542.600000
80.049300 736676.600000
108.044300 1682400.000000
119.047200 471601.500000
136.039500 528269.100000
164.045300 345683936.000000

>ms2peaks
53.038500 512712.200000
65.038600 5660005.500000
80.049400 12464214.000000
81.033500 447746.900000
90.033900 2478143.500000
92.049500 1976716.200000
106.028800 1185536.500000
108.044400 20240134.000000
118.028800 1557803.500000
118.040000 1787844.400000
120.055600 1440427.000000
124.039300 894298.100000
136.039400 3665690.000000
146.035100 358177.300000
164.045400 348042656.000000

>ms2peaks
52.018100 240936.800000
53.038600 3330560.500000
63.022900 2074613.500000
65.038600 23262288.000000
66.033800 234449.200000
67.017800 291516.500000
68.013100 1631177.800000
68.049400 551854.800000
78.033700 482899.800000
80.049400 46547836.000000
81.033500 3020899.000000
90.033800 10707320.000000
92.049500 5755560.000000
96.044300 460061.600000
106.028700 4259626.500000
107.036700 497470.500000
108.044300 47576052.000000
109.028500 380658.900000
118.028700 4354116.000000
118.039900 6806599.000000
119.012700 238312.200000
119.047500 227458.600000
120.055600 3143291.500000
124.039300 3124379.800000
136.039300 5840019.500000
146.034900 1140483.400000
164.045400 199967792.000000

>ms2peaks
50.015100 253861.400000
51.022900 233915.000000
52.018100 471065.400000
53.038600 9253133.000000
54.033800 871676.600000
55.017800 300925.400000
57.033500 74685.400000
62.015000 98421.200000
63.022900 8400000.000000
64.018200 198224.900000
65.038600 38450888.000000
66.033800 343195.200000
67.017800 558395.200000
68.013100 3638313.000000
68.049500 525087.400000
78.033800 1387112.900000
79.041700 239434.100000
80.049400 67875696.000000
81.033500 7463377.000000
90.033900 20673260.000000
91.041500 325459.000000
92.049500 5575797.000000
93.033400 160270.800000
94.028800 90078.300000
96.044300 1100196.500000
106.028800 5448445.000000
107.036600 1076567.100000
108.044400 48199168.000000
109.028400 503393.500000
118.028700 5390700.500000
118.039900 10579204.000000
119.012800 341816.300000
119.047700 598417.000000
120.055600 2901261.500000
124.039300 3851887.800000
134.023800 165025.700000
136.039300 4156478.200000
136.050300 480533.100000
146.034900 1061815.600000
146.045800 283253.500000
151.037800 183046.100000
164.045400 73502536.000000

>ms2peaks
50.015100 429400.400000
51.022900 381242.900000
52.018200 700587.400000
53.038600 15745304.000000
53.997400 61485.500000
54.033800 1026608.600000
55.017800 516014.500000
62.015000 333211.200000
63.022900 16107672.000000
64.018100 603871.700000
65.038600 38923616.000000
66.033800 442521.800000
67.017800 541076.800000
68.013100 4590339.000000
68.049400 379117.300000
68.997100 69124.900000
78.033800 2212349.500000
79.017900 64217.600000
79.041700 484402.800000
80.049400 58896348.000000
81.033500 11687315.000000
82.028700 66498.700000
90.033900 19646826.000000
91.017900 165287.100000
91.041600 967718.800000
92.049500 3384388.000000
93.033500 65657.400000
94.028900 72430.800000
96.044300 1360314.200000
106.028700 3855732.500000
107.036500 747277.900000
108.044400 30094358.000000
109.028400 295894.800000
118.028700 4010483.200000
118.039900 11972863.000000
119.012800 340870.300000
119.047800 1850561.900000
120.055600 1815233.200000
124.039300 2384202.000000
136.039300 1421252.600000
136.050500 387387.200000
146.034800 678221.500000
146.046000 297096.900000
151.037700 418589.300000
164.045400 18735274.000000

>ms2peaks
50.015100 731049.100000
51.022900 1126079.800000
52.018200 1321425.200000
52.030700 88327.900000
53.002200 1137015.200000
53.038600 20553244.000000
53.997500 197159.900000
54.033800 1171253.800000
54.046400 183060.300000
55.017900 793991.400000
57.033400 35625.000000
61.007200 240739.900000
62.015100 1356807.600000
63.022900 26978712.000000
64.018200 3278133.000000
64.030700 1047194.600000
65.038600 24245984.000000
66.033800 496462.300000
67.017800 257992.000000
67.029000 48824.300000
67.989300 338156.600000
68.013100 5020791.000000
68.997100 172219.800000
76.018100 385591.200000
78.033800 1792860.400000
79.017800 197785.300000
79.041600 779483.200000
80.049400 21700474.000000
81.033500 10471277.000000
82.028700 403386.700000
89.026000 193770.900000
90.033800 9465319.000000
91.029100 210165.300000
91.041600 1604491.000000
92.049400 790602.600000
94.028700 60386.400000
96.044300 808262.900000
106.028700 865987.200000
107.036600 327333.600000
108.044300 7952591.500000
118.028700 1207226.200000
118.039900 8334363.500000
119.047800 3950153.500000
120.055500 440260.500000
124.039300 461195.200000
134.034900 76157.400000
136.039300 52893.600000
136.050500 231070.300000
146.034700 65999.300000
146.046300 148841.800000
151.037600 1035157.900000
164.045400 712307.800000

>ms2peaks
50.015100 1259863.200000
51.023000 2412344.000000
52.018200 2929072.800000
52.030700 323492.600000
53.002200 1840743.500000
53.038600 14113387.000000
53.997500 412553.600000
54.033800 1219376.200000
54.046400 276389.400000
55.017800 986171.800000
61.007300 555956.200000
62.015100 3339868.000000
63.022900 26600670.000000
64.018200 5562149.000000
64.030700 1797722.000000
65.026000 1376606.400000
65.038600 11117480.000000
66.033800 323137.500000
67.017900 63167.500000
67.029000 77896.900000
67.989300 322260.000000
68.013100 3292913.200000
68.997100 340781.400000
74.015000 63773.700000
75.010300 83375.500000
76.018100 912823.200000
78.033800 1115326.800000
79.017800 178481.600000
79.041700 442292.500000
80.049400 6625327.500000
81.033500 4934201.500000
82.028700 359101.100000
89.025900 516844.700000
90.033900 3161806.800000
91.029100 262165.300000
91.041700 1503926.000000
92.036900 153216.100000
92.049500 49000.800000
96.044400 242346.200000
103.029100 43618.800000
106.028700 158403.200000
107.036600 62220.700000
108.044400 2074696.800000
118.028700 639392.900000
118.040000 3043930.800000
119.047800 2239908.000000
124.039300 79789.100000
134.035000 69824.400000
136.050500 40560.200000
151.037700 822374.600000

>ms2peaks
50.015100 1913509.200000
51.023000 2700521.500000
52.018200 5281445.500000
52.030800 472100.400000
53.002200 2276637.800000
53.038600 7503719.000000
53.997400 465751.000000
54.033800 1030588.100000
54.046400 300975.500000
55.017800 922953.600000
61.007300 995123.100000
62.015100 7244660.000000
63.022900 23890450.000000
64.018200 5316116.500000
64.030700 1618413.500000
65.026000 1863022.200000
65.038600 4131623.800000
66.033800 359120.500000
67.017800 29304.400000
67.029100 36579.000000
67.989200 532818.300000
68.013100 2130623.800000
68.997200 261394.300000
74.015000 73259.600000
75.010400 419370.900000
76.018100 1348930.400000
78.033800 556767.400000
79.017700 68757.000000
79.041600 158500.600000
80.049400 1489459.500000
81.033500 1609839.000000
82.028800 76120.100000
89.026000 745089.300000
90.033900 1545849.200000
91.029000 74270.900000
91.041700 582250.200000
92.036800 50458.000000
96.044500 36912.800000
103.028900 139572.700000
108.044400 370503.400000
118.028500 226220.200000
118.040000 723657.800000
119.047800 629947.500000
151.037600 286161.200000

