>compound EQ38614451
>parentmass 253.16590000000002
>ionization [M+H]+
>formula C12H20N4O2
>rt 420.000000
>profile orbitrap
#smiles_iso CN1C(=NC(=O)N(C1=O)C2CCCCC2)N(C)C
#smiles_can CN1C(=NC(=O)N(C1=O)C2CCCCC2)N(C)C
#inchikey CAWXEEYDBZRFPE-UHFFFAOYSA-N
#pubchem_id 39965
#mb_accession EQ025601,EQ025602,EQ025603,EQ025604,EQ025605,EQ025606,EQ025607,EQ025608,EQ025609

>ms2peaks
55.054200 1307517.100000
71.060300 3915013.500000
83.085600 1609383.500000
85.075700 2849816.800000
171.087600 773330176.000000
253.165900 812918272.000000

>ms2peaks
55.054200 1521178.600000
71.060300 21394322.000000
83.085500 5135379.000000
85.076000 21100576.000000
114.066300 1461939.900000
171.087600 1397506048.000000
253.166000 174863280.000000

>ms2peaks
55.054300 8317841.000000
57.044800 1155661.200000
71.060400 216005280.000000
72.044400 5785367.000000
83.024000 8597329.000000
83.085500 16214871.000000
85.076000 149809376.000000
101.034600 15358592.000000
114.066300 16834192.000000
128.081900 5633694.000000
171.087600 1150366080.000000
253.165900 4813828.000000

>ms2peaks
55.029100 1155205.600000
55.054300 20391352.000000
56.036900 1690355.400000
57.044700 1666996.600000
58.028700 3661103.000000
58.065200 3385315.000000
69.008300 1921424.000000
69.044700 867528.600000
69.992400 1499983.600000
70.052600 1089120.800000
71.060400 530556992.000000
72.044400 18789260.000000
83.024000 32324296.000000
83.085500 15941506.000000
85.076000 315737920.000000
96.055800 1003666.200000
101.034600 41970152.000000
114.066300 36546488.000000
115.050400 738140.600000
126.029900 1030838.400000
128.081900 9310935.000000
140.045600 827072.900000
171.087700 476538496.000000

>ms2peaks
55.029100 4226916.500000
55.054300 31119144.000000
56.036900 3831234.800000
56.049500 1072935.200000
57.044600 1272434.000000
58.028800 9652701.000000
58.065200 10513491.000000
69.008300 5976743.500000
69.044800 2774874.500000
69.992400 5607473.500000
70.052600 3162869.000000
71.060400 617305344.000000
72.044300 20944410.000000
83.024000 48235012.000000
83.085500 9364569.000000
85.076000 344654592.000000
96.055700 3337567.200000
101.034600 39604980.000000
114.066300 26683754.000000
128.081900 5239862.500000
139.061400 829979.900000
171.087700 107478760.000000

>ms2peaks
53.038600 736852.500000
55.029100 8172782.500000
55.054300 32951664.000000
56.013100 1303367.800000
56.036900 7731109.500000
56.049500 2450407.200000
57.044800 854570.800000
58.028800 14614627.000000
58.065200 26534672.000000
69.008400 10298877.000000
69.044800 8005894.000000
69.992400 9087819.000000
70.052600 8662659.000000
71.060400 587173440.000000
72.044400 20578252.000000
83.024000 53803116.000000
83.085500 5054341.500000
85.076000 301225984.000000
96.055600 5397705.000000
101.034600 20158948.000000
114.066300 13383042.000000
128.082000 1873684.100000
139.061500 871764.400000
171.087700 16276785.000000

>ms2peaks
53.002200 925369.100000
53.038700 1333932.200000
55.029100 23224768.000000
55.054300 27740552.000000
56.013100 4009795.800000
56.036900 21184892.000000
56.049500 6021408.500000
57.044800 887418.000000
58.028800 14887702.000000
58.065200 49145940.000000
69.008400 14283603.000000
69.044800 34939516.000000
69.992400 11558173.000000
70.052600 32996350.000000
71.060400 399371872.000000
72.044400 11712662.000000
83.024000 44999984.000000
85.076000 147208144.000000
96.055700 4974653.000000
101.034600 2614853.500000
114.066200 1903574.100000

>ms2peaks
53.002300 818780.700000
53.038600 1612180.800000
53.997400 267018.000000
55.029100 45414640.000000
55.054300 16149511.000000
56.013100 4829702.000000
56.036900 38187448.000000
56.049500 6105123.000000
57.044800 1772656.800000
58.028800 8074596.500000
58.065200 36508116.000000
67.989300 272230.300000
69.008400 11427731.000000
69.044800 80833584.000000
69.992400 10831100.000000
70.052600 39950236.000000
71.060400 200098000.000000
72.044400 4114383.800000
80.024300 252370.800000
81.032200 924146.800000
83.024000 22457922.000000
85.076100 48591436.000000
96.055700 1338264.600000

>ms2peaks
53.002200 1633458.500000
53.038600 1417440.200000
53.997500 337405.800000
55.029100 65758384.000000
55.054300 7723787.000000
56.013100 3850360.000000
56.036900 40487176.000000
56.049500 2747377.800000
57.044700 2188030.000000
58.028800 4384735.500000
58.065200 15854227.000000
69.008400 9472000.000000
69.044800 106324992.000000
69.992400 10791451.000000
70.052600 24750738.000000
71.060400 72613592.000000
72.044400 1265579.900000
80.024400 963527.700000
81.032200 786817.700000
83.024000 8363183.500000
85.076100 10716273.000000
96.055700 233284.800000

