>compound EQ39623948
>parentmass 266.1387
>ionization [M+H]+
>formula C14H19NO4
>rt 468.000000
>profile orbitrap
#smiles_iso CC1=C(C(=CC=C1)C)N([C@@H](C)C(=O)O)C(=O)COC
#smiles_can CC1=C(C(=CC=C1)C)N(C(C)C(=O)O)C(=O)COC
#inchikey ZRIKZVLHMGYCIR-NSHDSACASA-N
#pubchem_id 159151
#mb_accession EQ323301,EQ323302,EQ323303,EQ323304,EQ323305,EQ323306,EQ323307,EQ323308,EQ323309

>ms2peaks
134.096400 720655.400000
148.112000 18705942.000000
160.112100 6271434.500000
165.114800 8787879.000000
178.122500 1385500.200000
188.107000 4920849.000000
192.138300 70887424.000000
194.117500 3907653.200000
206.117700 88848872.000000
220.133200 459172640.000000
234.112200 2311828.000000
238.143800 7127689.000000
248.128200 94326608.000000
266.138700 401041568.000000

>ms2peaks
77.038300 424887.800000
105.069900 491376.700000
121.088600 1921855.600000
132.080300 1103706.600000
133.088600 6616246.500000
134.096400 6609573.000000
146.096400 3447442.200000
148.112100 66959744.000000
150.091300 672036.900000
160.112100 89182568.000000
161.083700 1329933.000000
162.127700 8538327.000000
165.114900 42908528.000000
176.107100 1208264.600000
178.122700 21075300.000000
188.107100 4196208.000000
192.138200 293854464.000000
194.117500 5810476.000000
206.117600 181609424.000000
208.133300 539406.300000
220.133200 253303376.000000
234.112600 2352426.200000
238.144000 2037544.800000
248.128200 13346692.000000
266.138700 28506192.000000

>ms2peaks
56.049500 748968.100000
91.054100 515279.700000
105.069800 1428080.100000
107.085600 1496358.400000
118.065100 739314.600000
119.085600 1321102.100000
120.080700 728099.700000
121.088600 9016771.000000
122.096500 538864.100000
130.064900 464892.000000
131.072900 893815.800000
132.080800 6799714.000000
133.088600 44334940.000000
134.096400 46169160.000000
135.104200 2022857.900000
144.080500 246081.600000
145.088600 8649754.000000
146.096500 16183593.000000
147.104200 243917.600000
148.112100 140009888.000000
150.091400 5419412.000000
158.096600 257499.300000
160.112100 235246736.000000
161.083500 2406277.800000
161.120000 457678.500000
162.127700 35465148.000000
164.107000 2782793.500000
165.114800 31836066.000000
176.107100 2183792.000000
178.122700 51186720.000000
188.106900 2695862.000000
192.138300 115070672.000000
194.117500 2144891.800000
206.117600 99573952.000000
220.133300 11897976.000000
266.138500 246585.500000

>ms2peaks
51.022800 138346.400000
56.049500 1256162.100000
77.038300 205044.600000
79.054300 885069.800000
91.054300 1950748.200000
93.069900 166247.200000
103.054200 427403.500000
105.069900 8495956.000000
106.065100 222065.700000
106.077700 1410318.400000
107.072900 228563.000000
107.085500 4218463.000000
115.054100 152407.600000
116.062200 212402.700000
117.057300 663180.800000
117.069800 647620.200000
118.065200 5394340.500000
119.073000 502240.000000
119.085600 5234835.500000
120.080800 2699234.200000
121.088600 10938323.000000
121.100900 722177.200000
122.096400 544637.100000
123.080300 619312.700000
128.062100 423199.200000
129.069900 392176.000000
130.065200 3343387.800000
131.073000 3526997.000000
131.085600 1157867.100000
132.080800 29526618.000000
133.088600 57021968.000000
134.096400 57874300.000000
135.104200 2292918.500000
143.085500 571515.400000
144.080800 2855087.200000
145.088700 32070226.000000
146.096500 13045477.000000
147.104300 1476556.500000
148.112100 126684184.000000
150.091400 6476268.000000
158.096600 850089.000000
159.104500 136512.000000
160.112100 128827800.000000
161.083600 1998175.000000
161.120100 772060.600000
162.127700 23940474.000000
164.107000 3900216.200000
165.114900 3673873.000000
173.083400 166212.800000
176.107200 933785.200000
178.122700 12762116.000000
188.106900 204142.400000
192.138300 7898350.500000
206.117700 15349474.000000

>ms2peaks
51.022700 117938.800000
53.038500 201342.500000
56.049500 1720052.000000
63.022900 91958.200000
65.038400 180678.400000
68.049500 120007.500000
77.038500 434200.200000
79.054200 4925225.500000
91.054200 7843004.500000
93.057300 227344.900000
93.070100 671440.600000
95.049000 674888.900000
103.054200 2782738.000000
104.061900 226689.000000
105.069900 25215924.000000
106.065200 2641595.000000
106.077700 4718224.000000
107.072900 1130614.800000
107.085500 5803665.500000
109.064900 372686.300000
115.054300 1091047.100000
116.062200 996672.000000
117.057300 4000842.200000
117.069900 2028455.600000
118.065100 13631297.000000
119.073000 1905845.400000
119.085600 7321579.500000
120.080800 6237243.000000
121.088600 10536481.000000
121.101100 727857.700000
122.096500 1083361.900000
123.080500 1056727.100000
128.062100 1436157.900000
129.069900 642257.900000
130.065200 15556707.000000
131.073000 6285565.000000
131.085600 2249596.800000
132.080800 65546168.000000
133.088600 46818172.000000
134.096400 63011848.000000
135.067700 1223343.000000
135.104200 1711537.100000
136.112400 100175.200000
143.073000 162179.800000
143.085400 845818.000000
144.080800 12263478.000000
145.088700 46989216.000000
146.096500 9073419.000000
147.067900 100081.900000
147.104300 1570248.900000
148.112100 83516960.000000
149.083500 661187.900000
150.091400 7027970.000000
155.060400 105853.600000
158.096600 1319043.800000
159.104300 413456.200000
160.112100 55461052.000000
161.083700 910432.000000
161.119900 759407.800000
162.127700 9364716.000000
164.107100 4341329.000000
165.114800 141128.700000
178.122600 1758545.100000
192.137400 657203.800000
206.117700 1475178.500000

>ms2peaks
50.015100 91290.600000
51.022900 313773.400000
53.038600 628243.600000
56.049500 1028055.100000
65.038500 207330.700000
67.054300 121883.100000
77.038500 1300605.200000
78.046300 196395.300000
79.054200 11507548.000000
89.038200 99195.100000
91.054300 15369812.000000
92.061900 98777.000000
93.057200 162799.800000
93.069900 1118610.800000
94.065100 125539.000000
95.049200 2153231.200000
102.046400 122178.900000
103.054200 6458489.000000
104.049500 82544.300000
104.062100 869475.600000
105.069900 31046588.000000
106.065100 6335932.000000
106.077700 5224862.000000
107.073000 1334130.200000
107.085500 3557563.800000
108.080900 91525.600000
109.064800 528239.200000
115.054300 2534150.000000
116.062000 1230188.400000
117.057300 9346517.000000
117.069800 2741112.500000
118.065100 17203468.000000
118.077500 996010.750000
119.060400 521495.700000
119.073000 1577462.100000
119.085600 3705790.000000
120.080800 8669126.000000
121.088600 5952597.500000
121.101100 528801.200000
122.096400 423090.900000
123.080500 611179.200000
128.062100 1298932.600000
129.069800 737496.100000
130.065200 25253486.000000
131.073000 4615496.000000
131.085500 1983047.000000
132.080800 69295536.000000
133.088600 22121428.000000
134.096400 47622604.000000
135.067800 2239745.800000
135.104200 515475.700000
143.073000 444814.800000
143.085300 337363.600000
144.080800 19977278.000000
145.088700 27677406.000000
146.060000 384670.400000
146.096400 4803095.000000
147.104000 790809.800000
148.112100 27527112.000000
149.083400 1945548.800000
150.091400 3051848.500000
158.096500 863885.900000
159.104300 379186.900000
160.112100 15274617.000000
161.084000 135555.100000
161.120000 126216.300000
162.127800 2000921.600000
164.107000 2281134.500000

>ms2peaks
50.015100 369164.800000
51.022900 993327.800000
53.038600 3556867.200000
54.033900 164003.900000
55.017900 349509.400000
56.049500 438331.100000
65.038600 3760036.800000
66.046400 163893.500000
67.054200 217349.900000
68.049500 101145.900000
77.038500 5666660.000000
78.046400 1542185.200000
79.054200 25105052.000000
80.049500 664830.200000
81.033500 164848.900000
89.038500 518162.900000
90.046600 744025.800000
91.054300 33625096.000000
92.049500 387116.200000
92.062100 409302.600000
93.057300 748764.200000
93.070000 1398694.800000
94.065200 750396.100000
95.049200 12348123.000000
96.044600 132211.200000
102.046400 568906.300000
103.054200 15653076.000000
104.049400 1109896.100000
104.062100 1231225.800000
105.044800 7471542.000000
105.069900 25676176.000000
106.065100 9064943.000000
106.077600 1490095.800000
107.072900 1463783.900000
107.085500 1016218.200000
108.080500 120450.400000
109.064900 552094.000000
110.060000 146152.700000
115.054200 8630200.000000
116.049600 131942.300000
116.062100 1374410.200000
117.057300 38092216.000000
117.069800 4235194.000000
118.065100 15316553.000000
119.060400 639690.800000
119.073000 3342172.800000
119.085600 907489.500000
120.080800 9495418.000000
121.088700 1337917.000000
128.049600 196424.900000
128.062100 1584080.800000
129.057500 141183.400000
129.069900 192464.200000
130.065200 30933342.000000
131.073000 3533189.500000
131.085500 190109.500000
132.080800 34141288.000000
133.052100 513947.100000
133.088600 3540472.800000
134.060000 3982396.500000
134.096400 19246260.000000
135.067800 1265661.600000
142.065200 205882.700000
143.073000 1229404.000000
144.080800 31926520.000000
145.088600 4338166.000000
146.060200 477249.300000
146.096300 1215696.600000
148.075700 3428607.800000
148.112100 1870430.900000
149.083400 845497.300000
150.091600 365272.500000
155.060600 365668.600000
158.096600 466387.700000
160.112100 422303.500000
164.107000 175056.500000

>ms2peaks
50.015100 1612686.400000
51.022900 4327499.500000
53.002200 345532.200000
53.038600 5575517.500000
55.017900 408835.600000
56.049500 179258.900000
62.015100 137226.500000
63.022800 740529.700000
65.038600 10014404.000000
66.046400 1041478.100000
67.054200 164626.500000
75.022800 189246.000000
77.038500 9572747.000000
78.046400 2965313.200000
79.054200 17966606.000000
80.049400 1345738.500000
81.033500 805198.900000
89.038600 3436023.800000
90.046400 5568658.500000
91.054200 35340964.000000
92.049500 464174.500000
92.062200 497798.900000
93.057300 819707.200000
93.070000 1051155.800000
94.041400 403905.500000
94.065300 644168.600000
95.049200 21316056.000000
96.044300 418050.400000
102.046400 1214326.500000
103.054200 15869516.000000
104.049400 2331806.200000
104.062000 825153.100000
105.044700 10864826.000000
105.069900 11495011.000000
106.065100 6814326.000000
107.073000 648096.100000
107.085400 147977.700000
109.064900 556865.000000
115.054300 10873854.000000
116.049500 821808.500000
116.062100 826973.400000
117.057300 34635764.000000
117.069800 2579675.200000
118.065100 8055419.500000
119.060400 361863.800000
119.073000 1816015.200000
120.080800 3862322.200000
127.054300 201519.800000
128.049500 942620.600000
128.062000 835938.900000
129.044600 117605.800000
129.057400 699270.100000
130.065200 17792728.000000
131.072900 1787298.400000
132.080800 6792273.000000
133.052100 437804.400000
133.088700 531374.700000
134.059900 2089711.600000
134.096400 3246504.000000
142.065100 709730.400000
143.073000 4137211.000000
144.080800 14046625.000000
145.065000 371145.300000
145.088600 166033.800000
146.060100 537083.900000
146.096500 127173.500000
148.075900 1396915.900000
155.060400 488137.700000

>ms2peaks
50.015100 4385741.000000
51.023000 13543335.000000
53.002200 641260.600000
53.038600 7639881.000000
54.033800 476718.900000
55.017800 377419.300000
62.015100 352029.600000
63.022900 3098802.000000
64.030600 344486.593800
65.038600 16612738.000000
66.046400 1990560.600000
67.054200 201297.700000
75.022800 709962.500000
76.030700 377107.781300
77.038500 11716315.000000
78.046400 4109157.500000
79.054200 9530608.000000
80.049400 1552478.000000
81.033500 882071.900000
89.038600 10841558.000000
90.046400 9625039.000000
91.054200 25592808.000000
92.049500 202510.300000
92.062100 150212.000000
93.057400 1045317.400000
93.069900 500014.500000
94.041400 541142.300000
94.065200 380869.300000
95.049200 25403580.000000
96.044400 786624.600000
102.046400 2408824.200000
103.054200 9472261.000000
104.049500 2347889.800000
104.062100 361927.600000
105.044700 12726715.000000
105.069900 3114367.500000
106.065100 3709249.200000
107.073000 196179.100000
109.064700 89605.100000
110.059900 122501.000000
115.054200 9008965.000000
116.049500 1016583.900000
116.062100 504420.600000
117.057300 19763284.000000
117.069600 1015568.700000
118.065100 3174767.500000
119.072900 364994.700000
120.080800 1151850.900000
127.054500 126007.500000
128.049600 816674.900000
128.062200 319483.300000
129.044800 388533.000000
129.057400 619567.800000
130.065200 7726795.000000
131.072900 706775.800000
132.080800 1098291.100000
134.060200 574350.600000
134.096200 149922.700000
142.065100 1760302.600000
143.073000 3357357.000000
144.080800 3856324.800000
145.064600 143657.000000
146.060200 460364.600000
148.075700 199417.400000
155.060200 169620.000000

