>compound EQ39540200
>parentmass 75.0553
>ionization [M+H]+
>formula C2H6N2O
>rt 78.000000
>profile orbitrap
#smiles_iso CN(C)N=O
#smiles_can CN(C)N=O
#inchikey UMFJAHHVKNCGLG-UHFFFAOYSA-N
#pubchem_id 6124
#mb_accession EQ344701,EQ344702,EQ344703,EQ344704,EQ344705,EQ344706

>ms2peaks
57.044700 207820.800000
58.052600 1935363.200000
75.055300 183770480.000000

>ms2peaks
58.052600 2204082.000000
75.055300 176929152.000000

>ms2peaks
57.044700 351738.800000
58.052500 2169414.000000
75.055200 196723408.000000

>ms2peaks
57.044700 278005.900000
58.052500 2180958.000000
75.055200 182957168.000000

>ms2peaks
57.044700 283190.200000
58.052600 2618246.500000
75.055300 151708960.000000

>ms2peaks
57.044700 279342.300000
58.052600 2078988.100000
75.055300 93816760.000000

