>compound EQ39268043
>parentmass 390.2136
>ionization [M+H]+
>formula C19H27N5O4
>rt 318.000000
>profile orbitrap
#smiles_iso CN(CCCNC(=O)C1CCCO1)C2=NC3=CC(=C(C=C3C(=N2)N)OC)OC
#smiles_can CN(CCCNC(=O)C1CCCO1)C2=NC3=CC(=C(C=C3C(=N2)N)OC)OC
#inchikey WNMJYKCGWZFFKR-UHFFFAOYSA-N
#pubchem_id 2092
#mb_accession EQ335001,EQ335002,EQ335003,EQ335004,EQ335005,EQ335006,EQ335007,EQ335008,EQ335009

>ms2
390.213400 1089901056.000000

>ms2
71.049000 12175264.000000
86.059900 892670.500000
100.075600 2058512.800000
128.070500 3063772.500000
156.101900 135361904.000000
235.118900 134347760.000000
247.118400 1380493.100000
275.150100 12011895.000000
292.176800 4746932.500000
375.189900 1211004.000000
390.213400 836038080.000000

>ms2
58.065100 4181440.000000
59.049100 2933069.800000
71.049100 226509696.000000
86.060000 10278462.000000
100.075600 22797822.000000
112.075600 378984.200000
128.070500 17886532.000000
156.101900 282839264.000000
191.092700 761789.300000
216.100400 2795423.000000
219.087500 8942642.000000
220.095400 10836541.000000
231.088200 395861.300000
231.123900 580343.800000
233.103000 367052.100000
234.111000 5077507.500000
235.118900 265666000.000000
247.118900 19866654.000000
259.118800 3854754.500000
260.126700 3796716.200000
261.134600 2957056.200000
273.134900 687364.500000
275.150100 39195060.000000
292.176700 5609320.000000
302.161000 3486319.200000
374.182600 2591458.000000
375.190300 362558.900000
390.213600 66685104.000000

>ms2
53.002200 885103.100000
57.044600 428261.400000
58.028700 586216.100000
58.065100 5115007.000000
59.049100 5286708.000000
69.033500 491955.400000
71.049100 362910592.000000
81.033400 425332.200000
82.065200 602741.300000
86.060000 9884365.000000
99.044000 725780.600000
100.075600 13456987.000000
128.070500 7861372.500000
156.101900 75652032.000000
174.089900 684257.100000
179.081500 629463.500000
187.073900 735835.000000
189.076800 411664.000000
190.084700 1795194.600000
191.081500 4979939.500000
191.092600 8163983.000000
202.061000 614680.700000
202.084600 1129165.200000
203.068600 379030.700000
203.092700 1591765.000000
204.076800 1592458.800000
205.072100 1052670.900000
205.084000 915458.500000
206.092400 1452791.500000
216.100600 2228248.000000
217.108500 424806.600000
218.092400 2074511.500000
219.087600 64020996.000000
220.095400 31078272.000000
222.087400 408454.200000
229.108300 833616.900000
230.116300 649755.200000
231.087700 5768895.000000
231.123900 2224819.200000
232.095400 3872594.200000
233.103500 1654319.000000
234.111100 4146716.000000
235.118900 93815296.000000
245.103300 938849.800000
246.110900 413452.300000
247.118900 25593680.000000
259.118800 14788244.000000
260.126600 3247275.200000
261.134500 1670180.400000
273.134300 619981.600000
275.150100 10336329.000000
286.129700 1946562.000000
287.137500 411555.400000
302.161100 1816923.500000
374.183100 968159.500000
390.213000 675091.800000

>ms2
53.002200 1644501.600000
55.017800 440620.400000
56.049400 466252.800000
57.044700 1840443.500000
58.028700 1222465.100000
58.065100 4194332.500000
59.049100 4579356.500000
67.989200 560402.200000
69.033500 417244.800000
71.049100 330490240.000000
81.033500 618660.000000
82.065200 770861.600000
86.060000 7416673.000000
99.044100 586785.900000
100.075600 4015434.000000
112.075700 339328.900000
128.070600 2235567.800000
133.039700 862951.600000
135.055200 553710.200000
146.071100 349781.200000
147.055300 3014231.500000
147.066600 402306.000000
149.070900 2874990.500000
156.101900 12707972.000000
161.082300 524829.600000
162.066200 409641.500000
162.090000 2234436.200000
163.050000 661192.600000
163.097800 490441.100000
173.082300 551185.700000
174.066100 1302279.000000
174.090100 2687379.800000
175.050100 1622175.400000
175.073800 389385.100000
176.058000 1457102.600000
176.069500 377105.200000
177.065800 2689771.500000
179.081500 829467.200000
186.090100 482355.300000
187.074000 674410.600000
187.097500 366075.300000
188.105300 350306.300000
189.077000 3434420.200000
190.061000 1869080.800000
190.084700 3867885.500000
191.081600 8074619.000000
191.092700 18311416.000000
201.077300 348636.400000
201.113300 591201.100000
202.061100 2955904.500000
202.084700 1342969.600000
202.121000 1034510.800000
203.069200 645979.500000
203.092700 5418134.000000
204.076800 4122379.000000
205.072200 3110009.500000
205.084500 1441653.900000
206.080000 681901.000000
206.092500 1734333.500000
215.093000 389605.700000
216.100400 685742.400000
217.072100 1308628.200000
217.108600 380674.200000
218.080200 785373.000000
218.092600 1496407.200000
219.087700 105745840.000000
220.095500 12470825.000000
222.087100 515653.900000
229.108500 968549.100000
230.116400 471441.000000
231.087600 19960312.000000
231.123900 2014620.000000
232.095500 3246791.500000
233.103300 1766610.100000
234.111000 1270267.200000
235.118900 13491762.000000
245.103400 1630373.100000
247.118900 8356941.000000
257.102900 764189.600000
258.135300 357555.800000
259.119000 14609934.000000
260.126700 383317.100000
261.134700 578071.400000
275.150300 596110.600000
286.129600 1834476.000000

>ms2
53.002200 2784622.500000
53.038600 433172.800000
53.997500 495680.800000
55.017900 623193.700000
55.054200 414324.300000
56.049500 314997.000000
57.044700 4973137.000000
58.028800 1562448.600000
58.065100 4405697.500000
59.049100 3336320.200000
67.989200 658663.900000
69.033400 623990.500000
70.065100 337594.200000
71.049100 242547584.000000
80.049400 460021.300000
81.033400 689628.800000
82.065000 586386.600000
86.060000 5165813.000000
100.075700 895823.600000
105.044700 1004375.000000
106.052500 852217.200000
107.060300 378074.900000
118.052500 942843.800000
119.060600 729968.400000
120.044500 759485.600000
128.070500 413743.900000
130.052500 552216.500000
131.060500 319011.000000
133.039600 3911972.000000
133.063500 350304.800000
134.047500 790531.800000
135.055300 2726777.200000
144.055900 320080.400000
145.039600 706522.100000
145.063400 579286.900000
145.076100 364376.200000
146.071200 555639.700000
147.031800 636916.700000
147.055300 11104337.000000
147.066400 1727147.800000
148.039300 361952.800000
148.063000 616450.100000
149.071000 4342592.500000
150.055000 1931040.500000
156.102000 1880762.600000
159.055100 305407.800000
160.050400 1079389.900000
161.034500 577820.200000
161.058500 839675.200000
161.071300 657344.600000
161.082200 1264949.200000
162.042400 798683.300000
162.066200 1652130.500000
162.090000 5085748.500000
163.050200 2024605.400000
163.097700 942688.600000
172.050400 431881.400000
173.034400 370007.500000
173.058400 464991.900000
173.082400 1131559.000000
174.066200 3000074.200000
174.090000 4413269.000000
175.050200 7223580.500000
175.074200 623447.000000
175.097900 641830.400000
176.058000 1839437.600000
176.069100 1040885.200000
177.065900 6568944.500000
177.077600 358905.200000
179.081400 420598.900000
186.090100 712576.100000
187.097500 386010.300000
188.045400 1402031.200000
189.053100 454827.400000
189.066000 1036703.800000
189.077000 6130512.000000
190.061000 3869251.000000
190.084800 2962340.500000
191.081600 3658677.200000
191.092700 13361229.000000
201.077100 495230.300000
201.113000 291471.000000
202.061100 7102575.500000
202.084900 556747.900000
202.121600 791436.600000
203.092700 5397907.500000
204.064300 885638.900000
204.076800 4132197.000000
205.072000 2012926.200000
205.084400 708843.500000
206.056000 567049.800000
206.079900 804082.900000
206.092500 1330713.600000
214.061200 410625.800000
217.072100 4311935.500000
217.108300 360514.700000
218.080000 1509873.200000
218.092300 440596.000000
219.087700 77388352.000000
220.095500 1618916.200000
229.072000 1026035.200000
229.108400 419687.800000
231.087700 22926764.000000
232.095400 1042347.400000
233.103300 1072380.600000
235.082400 459196.200000
235.118900 1182397.000000
245.103100 991854.800000
247.118800 1337793.800000
257.103200 534296.900000
259.119000 5162742.500000
286.129500 802548.400000

>ms2
50.015100 162676.500000
51.022900 425841.800000
52.018200 121697.300000
53.002200 3142572.800000
53.038600 788324.000000
53.997500 778674.400000
54.033900 197515.000000
55.017900 808822.800000
55.054200 443704.300000
56.049500 293053.600000
57.044700 10041822.000000
58.028700 1323690.900000
58.065100 2246610.200000
59.049100 850600.400000
63.022900 1141324.600000
64.018100 426307.800000
64.030700 151921.900000
65.038600 1754462.900000
67.041600 388161.100000
67.989300 694765.900000
68.049400 400840.800000
69.033500 173627.400000
69.044600 123931.200000
70.065200 123946.900000
71.049100 101686784.000000
72.080700 133982.200000
77.025900 190430.600000
78.033800 1784240.400000
79.017800 121989.200000
79.041600 1064708.600000
80.049400 2899131.800000
81.033500 728251.500000
82.065100 106463.900000
86.060000 1889919.900000
90.033800 3110662.000000
91.041700 1713486.900000
92.025700 124151.300000
92.036900 1089889.200000
92.049500 2190329.000000
93.044700 376268.000000
93.057200 117177.100000
94.028800 116609.900000
95.036400 105252.600000
95.049100 458760.800000
96.044400 439811.500000
101.026100 300254.800000
102.033900 317067.000000
103.041700 745039.800000
104.036800 457723.100000
104.049500 769278.800000
105.044700 12822539.000000
106.028800 1447053.200000
106.052500 4031713.800000
107.036600 1434282.900000
107.060400 1620678.100000
108.044400 982877.500000
109.052200 368167.900000
110.060000 503338.300000
111.044000 481730.500000
115.029200 143065.500000
116.036800 185418.700000
117.044700 2823155.800000
118.028700 452495.500000
118.052500 3116727.000000
119.036500 984354.200000
119.060400 3217374.800000
120.008100 1296253.000000
120.031900 1446345.900000
120.044400 4482345.500000
121.028500 141196.700000
121.039600 655231.200000
129.044700 1341627.000000
130.039800 572704.800000
130.052500 1183084.200000
131.024300 317161.500000
131.047900 550674.600000
131.060300 939004.100000
132.031900 356026.200000
132.044400 152749.400000
132.055700 738829.000000
132.068700 269916.900000
133.039600 12282231.000000
133.063300 626973.100000
134.023700 546210.600000
134.047400 4437779.000000
134.059800 346049.400000
134.071200 493050.100000
135.031500 2199961.200000
135.055300 7424234.000000
136.039200 483132.100000
142.040000 179162.000000
143.047600 151606.800000
144.031900 139824.300000
144.055600 1171596.600000
145.039600 2386923.200000
145.063500 936535.800000
146.023700 1430569.900000
146.047400 550889.900000
146.058800 124116.600000
146.071400 662741.600000
147.055300 20467500.000000
147.066400 4489059.500000
148.039400 1045524.900000
148.063100 346270.200000
148.074400 359197.400000
149.071000 1651144.800000
150.055000 2975041.200000
151.050400 192467.800000
156.055600 743828.100000
157.039600 159008.500000
158.071400 701024.300000
159.042700 504332.400000
159.055400 811335.900000
160.050500 3226121.800000
161.034500 5551471.500000
161.058200 1088726.000000
161.070800 680746.600000
161.081900 864011.600000
162.042400 1094311.000000
162.066200 1877463.900000
162.089900 1915511.200000
163.050100 2229044.000000
163.098100 427810.600000
168.055500 112484.900000
172.050500 977216.300000
173.034600 2404364.500000
173.058400 514971.400000
173.082200 2049706.000000
174.054400 274081.900000
174.066300 1658183.400000
174.090000 1243456.000000
175.050200 12324880.000000
176.069300 1319622.900000
176.082000 113082.700000
177.029600 137578.300000
177.065900 2376282.200000
177.077300 125334.800000
178.061400 580083.700000
185.082100 592965.200000
186.066000 369782.400000
186.090300 132195.100000
187.037800 460278.700000
187.049900 751391.800000
187.097800 109300.800000
188.045500 4537354.000000
189.053400 801786.800000
189.066500 982147.700000
189.077000 2361183.800000
190.061100 2484525.200000
190.084000 229919.100000
191.045100 1538856.900000
191.092600 1965384.100000
200.045100 146027.100000
201.077000 474833.700000
202.061100 3970362.200000
203.092700 1007413.000000
204.064300 1912488.200000
204.075800 726530.700000
206.056000 900379.200000
206.079800 169389.900000
214.061100 158337.100000
217.072100 2609059.200000
219.087700 7484615.500000
229.072100 626031.700000
231.087700 3190584.800000
235.082400 145655.200000
245.103300 144186.300000
247.082100 106079.600000

>ms2
50.015100 1181850.100000
51.022900 1973092.600000
52.018200 1052404.100000
52.030800 499410.700000
53.002200 3960395.800000
53.038600 1804960.100000
53.997400 837838.200000
54.033800 672872.000000
54.046400 168641.700000
55.017800 755753.000000
55.029100 304571.100000
55.054200 123947.600000
56.013000 73931.600000
56.049500 441510.500000
57.044700 8806782.000000
58.028600 538492.000000
58.065100 1026228.600000
59.049200 165505.700000
62.015100 668535.100000
63.022900 6936700.500000
64.018200 2705203.000000
64.030700 976006.100000
65.026000 1016784.900000
65.038600 5245325.000000
66.010100 81395.200000
66.021200 124893.000000
66.033800 382594.300000
66.046400 456764.400000
67.041600 570817.800000
67.989200 673217.900000
68.013000 1009879.200000
68.049400 302201.600000
69.044600 152588.800000
71.049100 32366618.000000
75.010300 478332.400000
75.022900 428240.600000
76.018100 944908.500000
76.030700 550668.700000
77.013400 119048.900000
77.026000 1992507.200000
77.038600 171448.700000
78.033800 9764573.000000
79.017700 178273.200000
79.029000 966643.600000
79.041600 2731411.000000
80.013100 806745.400000
80.049400 4597657.500000
81.033500 697583.500000
81.044600 107804.600000
82.065000 108454.500000
86.060000 383835.200000
88.018200 835308.100000
89.026100 336531.300000
89.038600 157137.800000
90.033900 7951589.000000
91.041700 3517139.200000
92.025700 307914.000000
92.036900 5371190.000000
92.049500 3421034.200000
93.033400 129041.000000
93.044800 862160.400000
93.057300 181638.600000
94.028700 190600.900000
95.036600 455694.100000
95.049100 1197582.800000
96.044300 1351790.600000
97.052200 159160.200000
101.026100 906415.600000
102.033800 614086.400000
103.029000 1001046.000000
103.041700 699533.600000
104.013100 326898.500000
104.036800 639894.100000
104.049400 909191.900000
105.044700 22506476.000000
106.028700 4732485.500000
106.052500 3663216.000000
107.036600 1679390.400000
107.060400 920535.400000
108.044300 1154252.000000
109.052300 107719.100000
110.060200 329359.700000
111.044000 791647.000000
115.029000 515818.200000
116.036900 950329.900000
116.049500 164210.100000
117.044700 3053467.200000
118.028700 1082921.000000
118.052500 2510522.800000
119.036700 1248842.100000
119.047800 173593.600000
119.060400 2047254.800000
120.008000 2384234.500000
120.031900 2660272.800000
120.044400 5254705.500000
120.055700 338967.900000
121.028300 107439.400000
121.039600 944162.300000
129.044600 2328066.500000
130.040000 1662233.900000
130.052500 395302.600000
131.024100 716281.600000
131.047800 458162.000000
131.060400 926086.900000
132.031800 305628.700000
132.044600 87186.400000
132.055700 574336.200000
133.039600 9318626.000000
133.063500 668513.200000
134.023700 722369.600000
134.047400 3782251.500000
135.031400 1332858.200000
135.055300 4346955.500000
136.026800 635587.700000
136.039500 164418.800000
141.032200 160713.900000
142.040000 169190.000000
143.047800 385733.100000
144.032000 95831.700000
144.055900 813853.600000
145.039600 2665521.500000
145.063400 172485.500000
146.023600 1994865.900000
146.034500 114133.300000
146.047400 109316.300000
146.059100 153000.100000
146.071400 181033.000000
147.055300 7206512.500000
147.066400 1512111.200000
148.039600 653000.800000
148.074500 178597.500000
149.071200 168246.700000
150.054900 663196.400000
151.050200 361137.300000
156.055500 412282.900000
157.039300 80649.900000
158.071100 132228.700000
159.042700 984073.400000
159.055300 185344.100000
160.050500 1195479.900000
161.034500 3801768.500000
162.042300 389761.800000
162.066300 502498.400000
163.050100 778347.500000
168.056200 111347.500000
172.050600 350033.300000
173.034500 1621140.800000
173.058400 183056.600000
173.082100 479496.500000
174.053600 90313.100000
174.066200 112711.700000
175.050200 2487831.800000
176.069500 173258.900000
177.029600 641021.000000
177.065900 446201.800000
179.045100 110140.900000
185.082400 92725.700000
186.029600 582932.900000
187.037900 272334.400000
187.050100 93501.400000
188.045400 1202190.900000
189.052800 83599.700000
189.065800 79917.400000
189.077300 108102.200000
190.061200 681735.200000
191.045200 725546.300000
204.064200 134232.700000
206.056600 81649.800000
217.072400 325950.400000
219.087600 97416.300000
229.073000 119957.200000

>ms2
50.015100 2921556.800000
51.023000 5732245.500000
52.018200 3193306.200000
52.030800 1109463.000000
53.002200 3613151.500000
53.038600 1805740.900000
53.997500 696717.600000
54.033800 700665.400000
54.046400 333399.000000
55.017900 1169434.100000
55.029000 414463.900000
56.013000 84538.900000
56.049400 339767.700000
57.044700 5576545.000000
58.028800 81871.300000
58.065000 383455.400000
61.007200 432124.312500
62.015100 1959521.900000
63.022900 13392790.000000
64.018200 5360502.500000
64.030800 1159348.100000
65.026000 2426189.200000
65.038600 5720750.500000
66.009900 86302.000000
66.021100 373721.100000
66.033800 698235.500000
66.046400 307764.600000
67.041600 663803.300000
67.989200 360234.700000
68.013100 1472894.800000
68.049400 417237.400000
69.044700 110756.900000
71.049100 8271227.000000
74.015000 406752.687500
75.010300 1629385.100000
75.022900 1006812.600000
76.018100 3875900.200000
76.030600 427695.100000
77.013300 468606.900000
77.026000 3211477.000000
77.038400 266151.900000
78.033800 12574818.000000
79.017800 474568.300000
79.029000 1661374.000000
79.041600 2082194.000000
80.013100 1059201.400000
80.049400 3337030.200000
81.033500 826150.900000
82.028700 303686.375000
88.018200 1560757.400000
89.025900 616852.200000
89.038500 177774.100000
90.033900 6086445.500000
91.029100 346984.031300
91.041700 2592600.800000
92.036900 6492323.500000
92.049500 1639605.000000
93.033600 80570.500000
93.044800 600286.100000
94.028900 120395.700000
95.036600 412309.200000
95.049200 702602.600000
96.044400 1667925.800000
97.052400 139060.700000
101.025900 698276.900000
102.033800 1060933.900000
103.029100 1571774.000000
103.041500 325572.300000
104.013100 480420.800000
104.036800 499021.200000
104.049400 594090.700000
105.044800 13763206.000000
106.028700 3885149.800000
106.052600 1282588.900000
107.036600 788559.600000
107.060200 122843.200000
108.044300 636951.700000
110.060000 134014.600000
111.044000 412825.500000
115.029100 445082.000000
116.037000 816752.200000
117.020900 141408.890600
117.044700 1333431.900000
118.028800 564777.800000
118.040000 372826.468800
118.052500 1158729.200000
119.036500 512549.300000
119.047900 121723.700000
119.060500 800685.800000
120.008000 1246313.800000
120.031800 1271553.900000
120.044400 1602442.800000
120.055600 127175.000000
121.039700 905883.800000
129.044800 1013093.800000
130.040000 1332706.000000
131.024100 561971.900000
131.060300 101838.200000
132.031800 132368.800000
132.055500 182615.700000
132.067800 92512.400000
133.039600 2413112.200000
133.063300 125372.100000
134.023700 119406.800000
134.047500 1007655.100000
135.055400 877652.600000
136.026800 292865.000000
136.039500 117533.300000
141.032000 166515.800000
144.055600 279358.800000
145.039800 824570.900000
146.023600 493073.500000
146.034900 89522.900000
147.055300 692289.800000
147.066500 275095.600000
158.047200 96573.600000
159.042800 152889.600000
160.050700 93690.800000
161.034600 442816.800000
163.050500 131436.900000
173.034700 339155.100000
177.029300 173294.100000
186.029300 100760.400000
191.045200 141775.500000

