>compound EQ40188539
>parentmass 248.05850000000004
>ionization [M+H]+
>formula C12H10ClN3O
>rt 528.000000
>profile orbitrap
#smiles_iso C1=CC=C(C=C1)NC(=O)NC2=CC(=NC=C2)Cl
#smiles_can C1=CC=C(C=C1)NC(=O)NC2=CC(=NC=C2)Cl
#inchikey GPXLRLUVLMHHIK-UHFFFAOYSA-N
#pubchem_id 93379
#mb_accession EQ360101,EQ360102,EQ360103,EQ360104,EQ360105,EQ360106,EQ360107,EQ360108,EQ360109

>ms2
77.038600 595074.000000
93.044600 691425.400000
94.065100 7981828.000000
129.021300 332639520.000000
130.005400 3551828.800000
155.000600 81022608.000000
248.058400 441715296.000000

>ms2
93.044400 916482.100000
94.065100 11884505.000000
111.055300 3562150.800000
129.021300 595874304.000000
130.005400 5478921.500000
155.000600 111726144.000000
248.058500 91219168.000000

>ms2
66.033600 1113301.000000
93.044700 6080435.000000
94.065200 9405140.000000
111.055300 45061484.000000
120.044300 1089389.900000
129.021300 623612224.000000
130.005400 4324478.000000
137.034600 2751563.800000
155.000700 88939472.000000
248.058600 1552073.100000

>ms2
56.049500 1511424.000000
66.033800 4458310.000000
92.049500 1660501.900000
93.044700 22592572.000000
94.065100 6730117.500000
95.049100 495379.800000
111.055300 172865088.000000
119.024200 1046332.100000
120.044200 1416192.900000
125.071200 1018405.700000
129.021300 484271168.000000
130.005400 3873543.800000
137.034600 15094725.000000
155.000700 60714380.000000

>ms2
53.002200 424696.700000
53.038600 481876.400000
56.049500 5034682.000000
66.033800 17950430.000000
67.029000 436635.200000
77.038600 1198918.600000
82.028700 1789016.100000
84.044400 456800.800000
92.049500 3060975.000000
93.044800 51165436.000000
94.052600 352259.900000
94.065100 5240866.500000
95.049100 1891439.000000
105.044900 1272924.800000
111.055300 296488192.000000
112.039300 802719.100000
113.059500 590521.600000
119.024000 4105021.200000
120.044300 1421204.200000
125.071100 1538799.100000
129.021400 282821824.000000
130.005400 2509195.500000
137.034600 30961498.000000
155.000700 33099392.000000

>ms2
52.018100 674455.600000
53.002200 895360.400000
53.038500 603389.800000
56.049500 13835111.000000
64.018200 626904.900000
65.038400 669119.000000
66.033800 44125692.000000
67.029100 545060.400000
67.989300 507130.700000
76.018200 1500957.900000
77.038500 2118988.200000
82.028700 5224722.000000
84.044400 647754.100000
91.029000 898947.400000
92.049500 3377965.000000
93.044700 70237488.000000
94.052700 1145000.800000
94.065100 2429744.200000
95.049100 2913688.000000
98.060000 694617.400000
105.044700 1973244.100000
110.047300 388716.700000
111.055300 292289600.000000
112.039200 1350358.000000
113.059600 415715.900000
119.024000 7515802.500000
120.044500 562630.400000
125.071000 1912620.100000
126.042500 344709.400000
129.021400 126659136.000000
130.005400 1617835.500000
137.034600 31302042.000000
155.000700 12033613.000000

>ms2
50.015100 869222.900000
51.023000 961294.200000
52.018200 3888906.500000
53.002200 3289513.000000
53.038600 1342021.400000
53.997500 1016104.800000
55.017900 535642.600000
56.049500 28370530.000000
64.018200 4184540.000000
65.038600 2218362.800000
66.033800 90986152.000000
67.029000 3866363.000000
67.041600 2274444.000000
67.989300 1252214.000000
68.049400 757062.600000
69.008300 499395.800000
75.010300 187798.500000
76.018100 7128879.000000
77.038500 3484994.800000
81.044700 753107.600000
82.028700 11362476.000000
84.044400 2492828.200000
91.029100 2324479.500000
92.013200 176705.000000
92.036800 137414.300000
92.049500 2249851.200000
93.044700 54614044.000000
94.028800 403479.900000
94.052600 2860556.800000
94.065100 650554.800000
95.049100 4850431.500000
97.039600 149814.700000
98.060100 1419268.600000
105.044700 2699683.200000
110.047500 441690.800000
111.055300 130160768.000000
111.994800 197187.300000
112.039200 1460083.600000
113.059500 181593.100000
119.024000 6437130.000000
125.071100 1006646.800000
126.042300 635684.200000
129.021400 17712140.000000
130.005500 184394.000000
137.034600 10591623.000000
155.000600 1039013.200000

>ms2
50.015100 1986779.100000
51.023000 4130200.000000
52.018200 6799603.000000
53.002200 5226927.000000
53.038600 941490.100000
53.997500 1959438.600000
54.010000 311041.100000
54.033900 444811.000000
55.017900 618472.300000
56.049500 21074134.000000
60.983900 97068.100000
61.979300 279842.800000
64.018200 7023637.500000
65.026000 303623.500000
65.038600 4212061.000000
66.033800 67964496.000000
67.029100 8467315.000000
67.041700 5534324.000000
67.989200 1572920.900000
68.013100 123296.200000
68.049500 644908.600000
68.997000 80270.600000
69.008400 677210.800000
75.010400 1063288.800000
76.018100 11258150.000000
77.038500 3150726.000000
78.008700 264123.100000
81.044600 575249.500000
82.028700 5931220.500000
84.044400 2228375.000000
84.984000 444077.100000
91.029100 1780692.000000
92.013100 138181.500000
92.037100 274811.200000
92.049400 839421.600000
93.044800 17679844.000000
94.028500 137000.700000
94.052600 2703199.800000
95.049200 4021218.500000
98.060100 808924.600000
105.044800 2247023.800000
110.047500 449085.900000
111.055300 30616054.000000
111.995000 178581.500000
112.039300 352599.200000
119.024000 1357532.900000
125.071000 173548.800000
126.042300 653159.600000
129.021400 1814928.200000
137.034700 1342916.100000

>ms2
50.015100 4599978.500000
51.023000 10109768.000000
52.018200 12446569.000000
53.002200 5957450.000000
53.038600 760561.100000
53.997500 2290185.200000
54.010000 279104.900000
54.033800 550342.600000
55.017900 923413.600000
56.049500 9639239.000000
60.984000 336092.800000
61.979200 850587.000000
64.018200 7051876.500000
65.002200 630857.375000
65.013500 438336.312500
65.026000 753793.100000
65.038600 3473965.200000
66.033800 30979372.000000
67.029100 10218003.000000
67.041600 6397133.000000
67.989300 1646480.500000
68.013100 113568.700000
68.036800 122371.200000
68.049500 290559.700000
68.997000 118728.600000
69.008400 329770.600000
75.010300 2525015.800000
76.018100 9254503.000000
77.038500 1805059.200000
78.008700 302570.300000
82.028700 1616541.100000
84.044400 1113691.200000
84.984000 651825.400000
91.029100 824195.500000
92.037000 302566.000000
92.049400 92849.900000
93.044800 4809507.500000
94.052500 1219110.200000
95.049100 1819306.200000
97.039800 67420.700000
98.060100 341083.900000
105.044800 1144551.800000
110.047600 124438.300000
111.055300 4589352.500000
119.024100 122528.800000
126.042600 281317.300000
129.021600 138250.000000
137.034900 128447.400000

