>compound EQ40077751
>parentmass 461.15549999999996
>ionization [M+H]+
>formula C22H24N2O9
>rt 258.000000
>profile orbitrap
#smiles_iso CC1(C2C(C3C(C(=O)C(=C(C3(C(=O)C2=C(C4=C1C=CC=C4O)O)O)O)C(=O)N)N(C)C)O)O
#smiles_can CC1(C2C(C3C(C(=O)C(=C(C3(C(=O)C2=C(C4=C1C=CC=C4O)O)O)O)C(=O)N)N(C)C)O)O
#inchikey OWFJMIVZYSDULZ-UHFFFAOYSA-N
#pubchem_id 54686003
#mb_accession EQ361001,EQ361002,EQ361003,EQ361004,EQ361005,EQ361006,EQ361007,EQ361008,EQ361009

>ms2peaks
154.049400 32588.700000
226.070800 41401.100000
243.097500 142149.700000
335.053900 38630.500000
381.060000 167407.900000
398.087200 916253.700000
408.107800 757016.000000
426.118400 26090844.000000
443.144900 29513326.000000
444.128900 11344894.000000
458.144900 46357.600000
461.155300 25373534.000000

>ms2peaks
58.065100 237478.500000
86.060000 359299.800000
98.060100 534047.200000
126.055000 474602.700000
144.065500 49858.800000
153.018100 46912.600000
154.049900 3682604.000000
170.044800 254983.800000
172.060300 211276.400000
174.067500 74387.900000
178.997600 115518.100000
180.065300 104989.800000
181.013400 82029.500000
187.075200 74262.500000
196.060500 191341.500000
198.076100 379582.800000
201.054700 3827616.800000
203.070300 47078.500000
208.060600 719027.500000
213.054400 280316.600000
224.055300 72004.300000
226.071200 5113391.500000
239.070300 163826.900000
243.097100 71259.300000
255.065200 55564.600000
257.044600 181946.900000
257.080900 55265.100000
259.060200 42588.700000
263.069800 85195.700000
267.065300 539729.100000
273.075600 308959.300000
279.065100 97636.000000
281.080800 53790.700000
283.060000 780492.400000
285.075400 177809.300000
291.065200 129419.700000
293.081100 60065.400000
295.060500 163280.400000
297.075400 88730.000000
307.060100 445403.600000
309.075900 218030.200000
312.123200 262581.500000
319.060000 216553.300000
322.047200 46613.000000
325.070700 251561.300000
335.055100 1059401.400000
337.070800 5456919.000000
348.087800 72463.100000
350.042000 106195.000000
352.081000 62223.000000
353.065900 557742.200000
362.102500 181904.900000
363.050100 944214.600000
364.118200 177656.200000
365.065800 3440729.800000
375.073900 45737.300000
380.113000 638899.400000
381.060700 8650895.000000
390.097000 316189.700000
391.105400 136078.600000
393.083500 89513.300000
398.087100 169080.500000
408.107900 4549625.000000
426.118300 42455872.000000
443.145100 309679.800000
444.128800 1593925.100000
458.144700 92577.500000

>ms2peaks
53.002100 11958.900000
55.017800 76809.500000
56.049500 42541.400000
58.065100 1393955.800000
68.049400 13643.600000
68.997100 39147.600000
69.033400 46907.500000
70.065100 168987.900000
71.012700 44435.100000
71.036600 40267.100000
72.044400 109101.500000
72.080700 17843.800000
74.060000 66277.700000
80.049500 11245.900000
81.033500 20194.000000
82.065100 38092.100000
83.012700 354250.200000
84.044400 179675.200000
86.060000 1103028.100000
97.028500 85543.800000
98.060100 4075982.000000
99.007600 48299.500000
100.075500 66580.900000
107.012700 57041.900000
109.028400 127692.900000
110.060000 12206.500000
111.007800 12896.900000
114.055100 35921.400000
123.007700 172605.600000
124.039400 48914.700000
124.075700 32529.900000
125.023400 190316.600000
126.055000 1240216.900000
127.054200 37581.900000
128.070500 128894.600000
135.007700 129932.000000
137.023400 116158.300000
139.026300 48991.100000
140.070600 49296.200000
141.018200 89842.000000
142.049900 37004.600000
144.065600 43967.300000
145.065100 79219.600000
150.055100 12808.300000
151.002600 124769.100000
152.034300 111673.500000
152.070700 299017.900000
153.018300 349491.100000
154.049900 3625879.800000
155.033900 50302.400000
156.065600 72238.800000
157.037100 41769.300000
159.080300 13240.800000
162.054600 13114.700000
163.002400 18946.500000
166.049900 15028.000000
166.997600 106000.700000
168.065800 34369.700000
169.013200 104776.200000
169.060900 11884.000000
170.044700 125018.100000
170.081000 33280.700000
172.060400 542879.800000
173.059800 257014.900000
174.067600 210653.500000
175.075500 142562.800000
178.050000 54131.900000
178.997500 215386.000000
180.065500 844463.600000
181.013200 160364.700000
181.037200 17588.100000
182.081200 40895.800000
183.029100 18744.900000
185.059700 57385.400000
186.067600 43599.300000
187.075500 318335.300000
194.044900 38645.900000
195.080200 94091.600000
196.060600 229506.200000
197.059800 52730.300000
198.076200 857502.500000
199.075000 39011.500000
200.046800 49614.300000
201.054700 11075557.000000
203.070500 88291.600000
206.045000 51087.500000
208.060600 1454727.000000
211.075400 383012.700000
213.054700 2198871.800000
214.062400 164008.200000
215.070500 59143.900000
217.013100 31787.900000
219.065700 29444.700000
221.059400 38932.500000
223.075500 200832.200000
224.055700 66803.400000
225.054600 55223.300000
225.091600 27828.900000
226.071100 1212828.800000
227.070400 143814.800000
229.049700 165390.700000
229.085900 39496.700000
231.065100 94385.400000
235.075400 136690.300000
237.054500 106084.800000
237.090800 14454.400000
239.034200 121774.500000
239.070400 1385540.100000
240.041400 45227.200000
241.049700 293144.200000
241.086100 43352.200000
242.057100 113552.700000
243.065300 47478.200000
247.075800 62113.400000
249.054500 77834.200000
251.070500 254194.500000
252.041300 71181.700000
253.049600 149846.500000
253.085900 103117.300000
254.057400 50417.300000
255.065300 249941.500000
256.073200 91478.600000
257.044500 737469.900000
257.080800 382666.300000
258.052500 285261.900000
259.060300 152126.800000
261.054800 42461.100000
263.070400 531729.100000
265.049900 93968.200000
265.086400 89434.200000
266.057800 82398.200000
266.117700 11362.100000
267.065300 1833366.400000
268.036700 686412.100000
269.043300 13627.300000
269.080900 219377.600000
270.052400 105344.300000
271.060100 78953.100000
273.075900 664415.100000
275.070000 18369.200000
277.049000 57946.000000
278.057500 17910.400000
279.065300 1235541.200000
281.044800 195603.100000
281.080800 178096.400000
283.060200 7245274.500000
285.075900 770812.900000
289.049500 100653.400000
291.065200 651721.400000
292.036300 47681.700000
293.044400 54599.200000
293.080500 114031.800000
294.052300 175977.600000
295.060200 315992.100000
297.075700 237836.500000
297.099500 232993.200000
299.055100 16510.900000
301.070700 365664.600000
306.051500 33844.800000
306.113600 17403.800000
307.060200 1793715.900000
308.067900 94940.700000
309.075800 463950.100000
310.046900 14530.800000
311.055100 49707.300000
311.092000 13282.000000
312.123100 978834.900000
313.070700 44154.000000
315.086300 54259.100000
317.044600 263438.900000
319.060400 508243.600000
320.031500 112559.800000
321.039200 68158.100000
321.075000 52641.100000
322.047300 911265.800000
323.055000 49315.200000
325.070800 255928.900000
330.132400 11376.900000
334.047800 34495.100000
334.107600 56360.900000
335.055100 1675789.900000
336.123300 46236.700000
337.070700 5901639.500000
338.042100 18534.300000
345.040100 59051.700000
347.054500 79032.200000
347.078200 46536.300000
348.025900 57314.500000
348.086000 31940.800000
350.042200 3782666.200000
352.081600 44585.600000
352.118800 78022.800000
353.065600 501223.000000
362.102600 174416.500000
363.050000 969871.500000
364.118700 17479.200000
365.065800 5142097.000000
375.073800 149986.300000
376.081600 255710.100000
378.061500 14139.900000
379.105300 20599.400000
380.113200 232803.600000
381.060600 1005904.400000
390.097400 121923.300000
391.104700 113908.600000
393.084200 153340.000000
408.107900 374482.700000
426.118300 983256.400000
444.129300 18837.400000

>ms2peaks
53.002200 33571.100000
53.038600 16225.800000
55.017900 359575.300000
55.054200 36209.700000
56.049500 106159.300000
58.065200 2318432.200000
67.017900 18821.100000
68.049500 150260.300000
68.997000 125949.300000
69.033500 85589.200000
70.065100 578910.700000
71.012700 137177.900000
71.036600 98072.600000
72.044400 140554.900000
72.080700 35967.000000
73.028400 12826.400000
74.060000 45156.200000
79.017800 79506.500000
80.049500 42025.200000
81.033500 87015.600000
82.065100 130702.900000
83.012700 782809.100000
84.044400 269130.500000
86.060000 1019904.800000
94.065200 12328.600000
95.012700 107558.200000
97.028500 155970.700000
97.052300 15054.000000
98.060100 5994417.000000
99.007700 105123.200000
100.075700 97238.800000
101.023400 18137.600000
102.055200 14446.700000
107.012800 203462.900000
107.048900 12245.900000
108.044600 20316.300000
109.028500 386569.700000
110.060000 70069.800000
111.007700 21141.900000
112.075600 13779.700000
114.055000 33701.600000
115.054200 173332.400000
117.069800 112052.200000
121.028600 33899.900000
121.065200 20125.000000
122.060200 58887.400000
123.007700 326585.200000
124.039400 52560.600000
124.075700 126958.000000
125.023400 203077.400000
126.055000 660153.900000
127.039000 69024.800000
127.054100 185972.300000
128.061800 38032.300000
128.070700 194434.200000
129.069900 281457.200000
134.060100 38228.200000
135.007700 147509.400000
137.023400 423541.500000
138.055200 18835.200000
139.026400 80672.000000
140.070800 36336.700000
141.018300 120030.000000
141.069900 35188.100000
145.064900 1533526.900000
147.044000 20082.900000
147.080400 19397.500000
150.055100 65791.700000
151.002700 188398.500000
151.063100 12659.700000
152.034100 60988.100000
152.070700 374374.500000
153.018300 522807.600000
154.049900 925897.500000
155.033900 51587.800000
155.049200 185189.200000
155.060200 124570.500000
155.085500 33702.700000
156.065600 71986.800000
157.037000 50033.900000
157.065000 211895.500000
159.044500 15336.200000
159.080500 162485.500000
162.055100 15586.100000
163.002700 40217.000000
163.039000 69921.000000
165.018500 55725.100000
165.070000 116512.000000
166.997600 20391.800000
167.085700 52505.300000
168.057300 16533.000000
169.013200 163798.700000
169.064900 77551.500000
170.081200 15608.000000
171.080600 88380.900000
172.060500 302977.000000
173.059900 418871.000000
174.067600 255365.800000
175.075400 241639.300000
177.069900 45192.500000
178.050200 67071.500000
178.078000 20348.600000
178.997700 86785.800000
179.085500 72747.100000
180.065500 432604.700000
181.013300 107352.900000
181.036700 15908.600000
181.064400 89859.900000
183.055300 71810.900000
183.080800 142127.300000
184.051900 83520.600000
185.059900 551575.800000
186.031200 15123.600000
186.067800 85878.100000
187.039100 46723.200000
187.075400 639517.800000
189.070300 31018.200000
190.077800 15085.000000
191.085500 16832.600000
193.064700 63903.300000
194.045000 12750.400000
195.080500 338640.000000
196.052000 18094.100000
196.060900 39650.200000
197.059800 177716.100000
198.067700 27753.700000
198.076000 147432.300000
199.039400 15903.700000
199.075300 188850.200000
200.047100 97428.900000
201.054700 12155393.000000
203.070500 46454.800000
205.064800 42949.100000
206.044700 33885.800000
207.080800 185844.400000
208.060600 267132.900000
209.059500 69399.700000
210.067800 68718.900000
211.039200 106686.000000
211.075500 1488387.900000
212.046900 496388.200000
213.054800 3159752.200000
214.062500 106505.200000
215.070300 38543.300000
217.013400 79112.500000
217.049600 18701.800000
217.064900 35801.100000
218.057700 16572.800000
219.065600 43455.300000
219.080300 54932.700000
220.052000 31665.200000
221.059700 153817.400000
222.067300 25673.400000
223.075500 522531.500000
224.046400 116062.100000
225.054700 176310.700000
225.091400 59261.500000
226.062100 85759.900000
226.071800 65740.400000
227.033700 88797.900000
227.070400 395617.600000
229.049800 194679.800000
229.086100 53299.300000
231.065100 71109.900000
233.059900 64585.300000
234.067500 37683.800000
235.075400 560364.400000
236.046800 51787.800000
237.054800 341580.300000
237.091100 48109.600000
238.062900 94590.500000
239.070400 1699080.400000
240.041800 674508.900000
241.049600 252612.400000
241.086000 50740.400000
242.057400 636030.500000
243.065600 53859.400000
245.060300 42777.800000
247.075600 55982.800000
249.054700 166590.800000
250.062600 119795.200000
251.070400 718822.800000
252.041900 435519.900000
253.049700 257456.800000
253.085400 73182.700000
254.057500 968083.800000
255.028900 246259.800000
255.065400 440704.400000
256.036200 13359.000000
256.072900 35376.300000
257.044400 205118.100000
257.080900 345198.300000
258.052500 1006267.900000
259.060500 125987.500000
261.054500 198508.500000
262.061900 35395.500000
263.070400 613047.600000
264.041800 102949.600000
264.078700 30452.700000
265.049700 257585.400000
265.086000 39630.200000
266.057600 263279.900000
266.117600 14899.000000
267.065300 863792.100000
268.036800 6242341.000000
269.044900 19850.400000
269.081100 96849.200000
270.052400 450382.500000
271.060200 89133.800000
273.075600 165673.300000
275.070100 39074.700000
276.041400 15183.100000
277.050200 63072.200000
278.057600 55620.700000
279.065300 1251085.400000
280.036400 35987.800000
281.044900 133230.000000
281.081000 80284.400000
282.052200 19529.100000
282.076100 12606.300000
283.060200 6395799.500000
285.075900 378414.600000
286.047600 98774.100000
289.049700 202699.100000
290.057600 16299.500000
291.065300 363475.500000
292.036800 258253.700000
293.045000 48049.400000
293.081200 63970.800000
294.052300 563708.400000
295.060300 104124.300000
296.092100 13887.600000
297.075700 39073.200000
297.099700 491959.400000
301.070700 415268.600000
303.029100 20144.000000
304.036000 17220.500000
305.044300 50165.600000
306.052300 46384.900000
306.113300 37280.400000
307.060300 599509.000000
308.067000 69106.500000
309.075700 125745.800000
310.045800 33794.300000
311.054700 13347.200000
312.122800 164662.000000
315.086700 70101.900000
317.044600 101790.700000
319.060200 190180.700000
320.031900 194093.700000
321.039400 116700.400000
322.047300 1494016.000000
323.054600 19718.100000
325.071100 18251.800000
334.046800 20325.700000
334.107400 18155.100000
335.055100 332847.600000
337.070900 346545.000000
338.041600 14537.800000
345.039200 31261.700000
347.055100 33117.300000
347.078300 54782.900000
348.026800 55937.900000
348.086200 18500.400000
350.042200 4950936.000000
352.082200 12874.800000
353.064800 18077.200000
361.057100 15248.400000
362.102600 14071.800000
363.049800 91856.300000
365.065700 419964.700000
375.072400 16906.600000
376.081900 206428.100000

>ms2peaks
50.015100 10311.400000
51.022900 14292.200000
53.002200 102524.300000
53.038600 81874.100000
55.017900 587975.400000
55.054300 34943.300000
56.049500 161186.700000
57.033500 15036.000000
57.057200 10560.500000
58.065200 2718366.200000
63.022700 9073.300000
65.038600 41295.500000
67.017800 72325.900000
68.049500 192089.200000
68.997100 354613.000000
69.033500 112043.700000
70.065200 1039523.700000
71.012800 187454.700000
71.036600 159111.000000
72.044400 141726.700000
72.080800 19181.800000
73.028300 8215.200000
74.060000 32726.800000
77.038300 13775.200000
79.017800 207371.300000
79.054200 11853.300000
80.049400 66080.900000
81.033600 114574.000000
81.057500 9373.300000
82.065100 185836.000000
83.012800 708713.600000
83.036500 40133.400000
84.044400 192644.400000
84.080800 38245.600000
85.028400 8571.400000
86.060100 652448.900000
91.054300 65044.100000
94.065200 58036.300000
95.012800 221468.600000
96.044500 36253.900000
96.080700 43264.800000
97.028500 155918.400000
97.052200 39122.900000
98.060100 4222159.500000
99.007700 64050.500000
100.075700 70058.200000
101.023500 9857.300000
102.046000 13310.300000
103.054300 96491.800000
105.033600 8984.900000
106.065200 37120.700000
107.012800 233196.000000
107.049300 36313.800000
108.044300 34092.300000
109.028500 342545.100000
110.060100 53065.700000
111.007700 47044.900000
112.075700 10043.500000
114.055100 10693.000000
115.054300 860400.300000
116.061900 17966.000000
117.069900 606286.900000
119.049200 38096.300000
121.028400 66642.600000
121.064800 16720.600000
122.060000 38197.600000
123.007700 363213.200000
124.039400 33039.000000
124.075800 90919.900000
125.023400 143601.900000
126.046300 11367.500000
126.055000 193013.900000
127.054300 1517840.600000
128.062100 279627.200000
128.070600 97389.800000
129.069900 1112469.500000
131.049400 64441.200000
131.085600 86351.900000
134.060100 18678.000000
135.007700 89241.900000
137.023500 374047.900000
138.055300 14077.600000
139.026300 48467.400000
139.054100 42258.300000
140.070800 10192.900000
141.018200 61016.300000
141.069900 189029.800000
143.049200 14052.300000
143.085600 45246.900000
144.057000 106542.500000
145.064900 4283846.500000
147.044200 36678.600000
147.080500 84587.800000
150.054800 40208.700000
151.002700 74864.700000
151.062400 7876.900000
152.034400 15099.000000
152.062100 171564.500000
152.070700 95546.000000
153.018400 318536.100000
153.069900 213004.400000
154.049800 170414.000000
154.077600 31318.600000
155.049400 534497.900000
155.060400 786989.800000
155.085600 133323.700000
156.057200 84449.800000
156.065700 15752.600000
157.065000 739975.800000
158.072600 18820.700000
159.080500 286216.500000
160.052000 135751.300000
161.059700 10896.800000
162.054800 20222.300000
163.002600 13603.100000
163.039100 69836.000000
165.018200 68327.800000
165.070000 523590.300000
166.049900 10075.500000
166.077800 45287.200000
167.049100 33578.700000
167.085500 176353.800000
168.057200 180369.400000
169.013100 74969.000000
169.064900 269436.000000
169.076400 41518.700000
170.035600 8715.200000
170.072500 10743.600000
171.044000 81324.600000
171.080500 255088.400000
172.052600 8844.700000
172.060500 69645.400000
173.059800 370291.600000
174.067600 257249.900000
175.075500 133483.800000
176.062300 67574.800000
177.070000 148849.800000
178.049900 19124.500000
178.077700 204128.600000
179.085700 245752.200000
180.057000 38282.800000
180.065500 61616.900000
181.013200 89236.400000
181.064900 349178.500000
182.072800 108903.500000
183.043600 17921.600000
183.055500 315427.800000
183.080600 318712.100000
184.052000 1393311.400000
185.059900 785654.500000
186.031200 124630.300000
186.067800 69677.800000
187.039100 252445.200000
187.075500 445037.800000
188.046800 13440.800000
189.054700 18861.400000
189.070000 150749.200000
190.077900 54557.800000
191.085600 18341.200000
192.057100 101674.900000
193.064900 201299.100000
194.072700 91761.100000
195.080600 560992.200000
196.052000 332099.600000
197.059900 393842.200000
198.067700 171628.800000
199.038800 41044.000000
199.075500 227209.900000
200.047000 112678.200000
201.054800 6316365.500000
203.071000 9166.800000
204.041400 20775.400000
205.065100 218752.100000
206.072600 44281.900000
207.080600 249811.600000
208.052300 114208.100000
208.060800 17168.900000
209.059800 191440.600000
210.067600 201154.600000
211.039100 109882.500000
211.075500 1527004.600000
212.047000 4256404.000000
213.054800 1657945.400000
214.062500 114950.800000
217.013400 12639.100000
217.050200 13455.600000
217.065100 70779.300000
218.057500 37169.300000
218.072600 35567.000000
219.064800 16144.000000
219.080500 55998.600000
220.052400 71864.600000
221.059900 316761.800000
222.068000 70242.700000
223.075400 496513.100000
224.047000 277112.700000
225.054600 155495.800000
226.062600 430596.000000
227.034100 327607.000000
227.070400 347457.800000
228.041800 58493.600000
229.049900 126484.500000
231.065200 13293.500000
233.060000 150650.100000
234.067400 86312.800000
235.075400 447282.900000
236.047000 281216.600000
237.054800 432844.100000
238.062500 244196.300000
239.034000 74652.000000
239.070400 643083.300000
240.041900 1960342.600000
241.049800 150400.000000
241.085400 8933.100000
242.057500 1129669.000000
243.065200 14644.400000
245.059500 42642.900000
247.075200 49500.000000
248.046300 37729.400000
249.054800 141193.200000
250.062600 130056.500000
251.070400 518872.800000
252.041800 465367.400000
253.049500 89094.200000
254.057500 1492615.800000
255.028900 443028.100000
255.065300 184867.500000
256.036600 78586.700000
256.073400 12393.700000
257.044200 52422.000000
257.081000 66123.200000
258.052400 865087.600000
259.060100 35043.700000
261.054800 140103.900000
262.062000 42722.300000
263.070400 233255.700000
264.041700 182296.900000
264.078100 9456.800000
265.049700 288493.500000
266.057500 433504.200000
267.029200 43949.700000
267.065100 118556.400000
268.036800 4814718.000000
269.044600 11985.800000
269.080700 11500.400000
270.052400 303060.500000
271.059500 37177.700000
275.070100 11059.800000
276.041400 49258.400000
277.050000 66075.600000
278.057800 86953.300000
279.065200 319227.300000
280.037200 15078.300000
281.044200 15437.600000
282.051800 30886.900000
282.076800 10834.300000
283.060200 942692.400000
285.075700 17975.200000
286.046900 74080.600000
289.049600 71456.900000
290.058000 16336.900000
291.065500 68067.000000
292.036600 136487.600000
293.044400 45453.000000
294.052300 457081.000000
295.060000 13140.000000
296.092000 11265.700000
297.099600 98035.200000
300.062800 15494.400000
301.070400 55416.300000
303.029300 12830.800000
305.044600 15983.500000
307.059900 49705.100000
308.068400 10853.800000
309.075300 12339.300000
317.044400 14960.900000
319.060500 15630.400000
320.030500 40092.400000
321.039400 105029.700000
322.047400 495303.900000
335.055300 19419.000000
348.085300 13438.700000
350.042300 776711.900000
361.058500 49047.700000
376.080600 8974.900000

>ms2peaks
50.015100 42418.400000
51.023000 34464.600000
53.002200 146893.000000
53.038600 140436.800000
54.033900 11865.600000
55.017900 752326.400000
55.041600 65056.000000
55.054300 43047.500000
56.049500 230465.300000
57.033500 13082.500000
57.057300 15006.600000
58.065200 2414263.500000
62.015000 8377.100000
63.022800 11847.700000
65.038600 83291.200000
67.017800 80556.300000
67.041700 29373.300000
67.054300 12941.700000
68.049500 245796.600000
68.997100 574334.100000
69.033500 108277.200000
70.065100 1155087.100000
71.012700 185149.800000
71.036600 198396.600000
72.044400 142335.600000
72.080800 40936.400000
74.060100 36786.600000
77.002100 18656.000000
77.038300 80282.700000
79.017900 293031.500000
79.054200 49190.700000
80.049500 106216.800000
81.033500 143480.300000
81.057400 18800.900000
82.065200 240368.100000
83.012800 559441.000000
83.036600 95128.600000
84.044400 128526.600000
84.080900 10194.800000
85.028500 12153.400000
86.060100 407660.800000
89.038500 15194.800000
91.054300 334160.100000
92.025700 12874.200000
93.057500 11063.000000
94.065300 63524.800000
95.012800 270332.800000
95.049200 77027.400000
96.044400 17270.600000
96.080900 31459.400000
97.028500 111070.200000
97.052400 33720.700000
98.060100 2253004.500000
99.007700 31712.400000
100.075800 32629.700000
102.046500 15489.200000
103.054200 222693.000000
105.033700 52959.000000
105.044800 40365.400000
106.065500 12791.400000
107.012800 151738.800000
107.049300 65382.100000
108.044500 34934.000000
109.028500 136319.300000
110.060100 61590.800000
111.007800 12295.400000
113.038300 10991.900000
114.046400 9380.600000
115.054300 1491993.600000
116.062100 87527.700000
117.069900 1014392.500000
119.012700 31449.100000
119.049300 40679.600000
121.028600 74994.600000
121.064900 11855.600000
122.060300 15657.300000
123.007700 196830.300000
124.039500 11541.500000
124.075800 19623.500000
125.023500 93620.500000
125.038700 9595.600000
126.046400 121393.000000
126.055100 57702.900000
127.054300 4588496.500000
128.062100 1608919.600000
129.069900 1884693.900000
130.041700 16160.300000
130.077900 10100.900000
131.049200 186463.400000
131.085500 116322.800000
132.056900 17637.100000
133.065000 9595.900000
134.059900 9707.700000
135.007600 56795.400000
137.023400 193744.800000
138.055200 14548.200000
139.026300 18635.200000
139.054200 222375.700000
140.062100 83942.600000
140.070500 11229.500000
141.069900 432876.800000
142.041300 17532.500000
142.078000 17662.900000
143.049300 38494.300000
143.085700 91942.400000
144.057100 212809.700000
145.064900 4203064.000000
147.044400 13231.400000
147.080500 69584.900000
151.002600 44962.900000
151.054200 16802.800000
152.062100 739990.400000
153.018300 155668.900000
153.070000 595472.900000
154.050000 19539.000000
154.077700 100409.700000
155.049600 599042.400000
155.060400 1657584.500000
155.085500 239378.900000
156.057000 362592.100000
157.064900 899088.900000
158.036500 65131.100000
158.072700 53055.900000
159.044400 18531.400000
159.080500 322014.900000
160.052100 151698.800000
161.059700 54775.600000
163.039200 58412.700000
163.054000 43232.200000
164.062300 62088.900000
165.070000 1262823.600000
166.078000 109188.400000
167.048900 64478.800000
167.085700 148985.300000
168.057100 908255.800000
169.013300 43218.800000
169.064900 475568.900000
169.076400 52202.700000
170.036300 33979.700000
170.072800 65704.100000
171.044200 162594.800000
171.055400 14907.000000
171.080500 257872.900000
172.052300 66033.600000
173.059800 308773.500000
174.067600 123738.900000
175.075300 31837.600000
176.062100 290305.200000
177.070000 242847.600000
178.077800 469662.800000
179.049400 12391.700000
179.060600 32873.400000
179.085600 156463.100000
180.056900 130852.400000
181.064900 660225.900000
182.072800 295944.200000
183.044400 64348.100000
183.055400 226180.000000
183.080600 208808.800000
184.052000 5993979.500000
185.059800 461343.600000
186.031200 229401.000000
186.067500 102377.500000
187.039100 605197.100000
187.075500 217675.200000
188.047200 10971.200000
189.054600 38166.400000
189.069900 265364.800000
190.078000 53482.800000
191.085600 16577.700000
192.057100 158070.100000
193.065000 231571.000000
194.072800 192484.300000
195.080500 286699.300000
196.052100 661744.200000
197.059900 411376.200000
198.067600 320652.500000
199.039100 36527.700000
199.075200 101816.300000
200.046700 64746.300000
201.054700 1729725.400000
202.077800 15753.900000
204.042300 53218.100000
204.056900 15066.200000
205.065000 290794.500000
206.073000 65188.500000
207.044300 14209.300000
207.080700 120924.300000
208.052000 263020.100000
209.059900 210427.600000
210.067800 222789.200000
211.038900 74483.200000
211.075500 832874.400000
212.047000 5213328.500000
213.054800 628676.300000
214.062800 142666.900000
217.065100 44543.100000
218.057500 9850.600000
218.072700 65308.400000
219.080800 18866.700000
220.052100 146718.000000
221.059900 278507.700000
222.067600 72469.300000
223.075600 207490.400000
224.047000 187172.700000
225.054800 114142.800000
226.062600 459775.200000
227.033800 192741.600000
227.070500 188919.000000
228.041900 54586.800000
229.049600 41084.200000
233.059900 110128.400000
234.067800 52204.400000
235.075300 144297.700000
236.046900 285266.400000
237.054800 438363.800000
238.062700 153711.200000
239.034200 71123.000000
239.070400 129582.900000
240.041900 925845.800000
241.050000 78422.000000
242.057500 825065.700000
247.074700 12842.600000
248.046600 58343.000000
249.054500 107978.200000
250.063200 74458.200000
251.070500 136814.000000
252.041700 129029.400000
253.049500 39006.900000
254.057500 556166.700000
255.028900 136303.000000
255.065200 49265.700000
256.037200 33420.700000
257.044700 66897.400000
258.052400 296392.100000
261.054100 63662.300000
262.062100 17824.600000
263.070100 38440.100000
264.041500 71193.000000
265.049600 227883.600000
266.057300 176206.500000
267.028800 9265.200000
268.036700 828056.600000
270.052000 71036.500000
275.070700 10727.200000
277.050000 31725.300000
278.058000 16418.300000
279.065300 61352.900000
280.037200 10147.600000
281.044300 9477.600000
283.059600 48720.800000
289.049000 11274.600000
292.036000 28516.300000
294.052500 97620.400000
305.045100 12275.800000
321.039300 40535.900000
322.046900 43475.700000
350.043000 32767.300000

>ms2peaks
50.015100 108632.200000
51.022900 96645.000000
53.002200 169453.300000
53.038600 377453.700000
54.033900 50732.300000
55.017900 605806.800000
55.041700 190951.500000
56.049500 128963.600000
57.057300 13356.700000
58.065200 1529401.000000
62.014900 14643.700000
63.022800 130125.800000
65.038600 149716.000000
66.033800 9049.100000
67.017800 100716.900000
67.041600 44392.000000
68.049500 127831.400000
68.997100 775150.900000
69.033600 92068.400000
70.065100 626695.800000
71.012700 97821.200000
71.036600 100697.000000
72.044300 93057.300000
72.080700 13801.600000
74.060100 16649.800000
75.022800 120497.100000
76.030600 13268.200000
77.002100 35751.200000
77.038500 339700.600000
78.046400 139831.200000
79.017800 301992.600000
79.054200 58242.800000
80.049500 82286.700000
81.033500 134089.800000
81.057300 31494.200000
82.065200 122029.500000
83.012700 110651.200000
83.036600 145236.400000
84.044500 40004.500000
86.060000 59522.600000
87.022800 15546.200000
89.038600 153787.200000
90.046400 17880.700000
91.054300 1210233.100000
92.025700 81831.000000
93.057500 10660.900000
94.065200 52337.400000
95.012700 167555.700000
95.049200 841892.500000
96.044500 17914.800000
97.028400 19373.300000
98.060100 492004.600000
101.038700 78500.300000
102.046400 629307.900000
103.054300 397950.500000
105.033600 89507.000000
105.044800 575956.100000
107.012800 39253.100000
107.049100 86201.800000
108.044600 10899.500000
110.060000 16399.900000
113.038600 183020.600000
114.046400 90129.900000
115.054300 3203037.000000
116.062100 333526.000000
117.033500 32950.400000
117.069900 533819.900000
118.041200 17485.200000
119.012700 12874.000000
119.049200 117996.400000
121.028400 34916.000000
123.007600 66029.500000
125.023600 10171.700000
125.038700 51259.100000
126.046500 988751.000000
127.054300 5655268.500000
128.062100 8520951.000000
129.044700 343237.200000
129.069900 773765.500000
130.041600 76903.800000
131.049200 600374.800000
131.085500 31773.300000
132.057100 93278.600000
133.064900 8903.700000
134.060200 10588.500000
137.023700 11034.700000
138.046300 68012.400000
139.054300 1401658.800000
140.062100 593007.100000
141.069900 553904.000000
142.041400 90581.100000
142.077700 13970.500000
143.049200 90651.800000
143.085600 52836.000000
144.057000 352540.000000
145.064900 1457729.500000
150.046300 92620.300000
151.054400 146226.200000
152.062100 2190689.200000
153.069900 757386.400000
154.077800 105078.600000
155.049500 1000948.800000
155.060400 2419989.000000
156.057000 843349.000000
157.064900 348977.200000
158.036400 91559.500000
158.072700 13724.200000
159.044300 45755.800000
159.080600 74700.700000
160.051900 114154.400000
161.059900 157377.100000
162.046400 10132.700000
163.039000 49328.500000
163.054300 419690.300000
164.062000 318221.200000
165.070000 1608539.800000
166.041300 17836.500000
166.078000 68726.400000
167.049100 54031.500000
167.085500 18679.600000
168.057000 1734275.400000
169.064800 638058.800000
170.035800 14441.300000
170.072500 37907.700000
171.044100 167672.300000
171.055000 23465.100000
171.080500 45707.600000
172.052100 11140.700000
173.059700 107940.800000
174.067800 10162.100000
175.053800 15222.700000
176.062100 573760.200000
177.070100 153813.800000
178.077800 384207.400000
179.049200 96056.500000
179.060400 157881.500000
180.057000 72822.700000
181.064900 627035.600000
182.072600 130307.700000
183.044200 409370.700000
184.052000 3996836.500000
185.059700 62578.400000
186.031200 105211.900000
186.067600 76508.000000
187.039000 338652.200000
187.053700 60598.300000
188.062000 14194.600000
189.069800 269349.100000
190.077300 8830.800000
192.057100 128967.900000
193.065000 97054.200000
194.036300 13288.500000
194.072600 82322.500000
195.080700 32467.100000
196.052000 295224.600000
197.059800 260736.400000
198.067700 85789.600000
200.047200 10508.000000
201.054600 58432.200000
202.077900 31430.000000
204.042100 15377.200000
204.056900 13346.700000
205.065000 137409.100000
207.044200 17566.100000
208.051900 97902.700000
209.059800 93608.700000
210.067300 33927.000000
211.039500 29894.900000
211.075400 53160.000000
212.046900 352036.800000
213.054600 126924.700000
214.062600 30280.100000
218.073200 12210.900000
220.052300 31792.200000
221.059700 120013.300000
224.046300 11606.400000
225.054700 17078.900000
233.060000 9065.200000
236.047100 29668.400000
237.054600 137784.400000
239.033600 16585.400000
241.049300 13022.800000
242.057100 30451.700000
249.054800 10159.300000
265.048900 15909.100000

>ms2peaks
50.015100 335465.500000
51.022900 244886.500000
52.030700 14698.500000
53.002200 257723.200000
53.038600 826164.700000
54.033900 121602.800000
55.017900 510010.900000
55.041700 218059.000000
56.049500 126636.800000
57.057300 10473.100000
58.065200 844010.500000
61.007200 18790.400000
62.015100 73222.600000
63.022900 484607.500000
64.030800 28362.100000
65.038600 624427.800000
66.010000 37930.200000
66.046400 9543.000000
67.017900 78097.100000
67.041600 71003.900000
68.025800 8563.200000
68.049500 82150.600000
68.997100 938852.200000
70.065100 227217.500000
71.012700 58698.800000
71.036600 18383.200000
72.044300 56058.100000
74.015100 116615.900000
75.022900 724999.800000
76.030700 156971.400000
77.038500 856673.900000
78.046400 910050.200000
79.017900 120170.400000
79.054300 45353.900000
80.049500 56633.500000
81.033500 144798.200000
82.028800 10319.900000
82.065100 42999.200000
83.012900 16222.500000
83.036600 112753.000000
86.015100 31930.700000
87.022900 121350.600000
88.030800 74998.500000
89.038600 606641.100000
90.046500 76472.700000
91.054300 1613038.800000
92.025700 98827.700000
94.041300 13332.200000
94.065100 15656.500000
95.049200 2047672.400000
96.044600 14606.200000
97.028700 8722.900000
98.015300 29399.900000
98.060100 118094.700000
99.023000 57359.000000
100.030800 10591.100000
101.038600 239121.600000
102.046400 2581433.800000
103.054300 624866.400000
105.044800 1501023.500000
107.049200 59527.400000
113.038600 694849.200000
114.046400 186583.200000
115.054300 4416396.000000
116.062000 273600.900000
117.033700 14884.500000
117.070000 103339.000000
118.041300 77833.200000
119.049300 201190.900000
120.020700 12073.600000
125.038700 106119.000000
126.046500 2278777.200000
127.054300 2835952.800000
128.062100 7826377.000000
129.033800 33493.200000
129.044700 623292.100000
129.069800 159014.700000
130.041500 36556.500000
131.049200 411092.000000
132.057000 127872.200000
137.038600 77801.700000
138.046400 163821.000000
139.054300 3326423.500000
140.062100 362264.600000
141.033600 29334.800000
141.069900 287041.000000
142.041400 87398.500000
143.049000 55764.800000
144.057200 141391.600000
145.064900 804622.900000
149.038800 12077.000000
150.046500 443062.200000
151.054400 186091.800000
152.062100 2405260.800000
153.069900 371704.300000
154.078000 11909.600000
155.049400 994598.600000
155.060400 2040184.400000
156.057000 201884.000000
157.065000 99354.200000
158.036500 15067.900000
160.052200 34443.600000
161.038700 34698.600000
161.059800 67838.000000
162.046300 63997.800000
163.054200 936763.800000
164.062000 352432.000000
165.070000 974094.500000
166.041700 16114.500000
167.049000 62331.700000
167.086000 9317.900000
168.057000 698735.400000
169.064800 744844.000000
170.036100 14622.800000
171.044100 29976.600000
171.055500 9096.400000
173.060100 36014.200000
174.046700 33789.800000
175.054300 13032.500000
176.062100 470078.200000
177.069800 71611.100000
178.077800 122433.700000
179.049000 47829.900000
179.060500 239346.700000
180.056800 18850.900000
181.064800 170631.400000
182.072600 12179.500000
183.044200 244595.400000
184.052000 284092.200000
185.059900 17392.700000
187.039200 36885.100000
187.054200 150805.100000
188.062200 15316.500000
189.070000 125636.900000
192.056900 34936.200000
193.065300 54869.000000
194.036000 15928.700000
196.051800 73701.400000
197.059800 42016.300000
205.065000 35906.800000
213.054900 9566.900000
221.060300 14461.400000

>ms2peaks
50.015100 758703.800000
51.023000 504382.600000
52.030800 29410.900000
53.002200 308443.800000
53.038600 720683.900000
54.033900 168095.600000
55.017900 341291.200000
55.041700 219491.400000
56.049500 84822.500000
58.065200 429345.400000
61.007300 71133.100000
62.015100 310261.100000
63.023000 1325676.900000
64.030800 53977.200000
65.038600 1207768.500000
66.010000 42949.000000
66.033900 39666.100000
66.046400 38693.600000
67.017900 32511.700000
67.041600 49809.300000
67.054100 12239.200000
68.025700 10945.800000
68.049500 46537.400000
68.997100 852435.300000
70.065200 58620.500000
71.012700 32551.700000
74.015100 501148.400000
75.022900 1673776.800000
76.030700 694215.700000
77.002100 54279.100000
77.038600 1030162.900000
78.046400 1370552.900000
79.017800 34869.200000
79.054300 18121.300000
80.049500 55215.600000
81.033500 152284.600000
82.028700 9947.500000
82.065100 17492.600000
83.036600 67942.500000
86.015100 154863.700000
87.023000 408502.800000
88.030800 234965.100000
89.038600 1357402.200000
90.046500 95007.600000
91.054300 1058286.400000
92.025900 51089.000000
94.041500 30838.600000
94.065200 13486.800000
95.049200 2313290.800000
96.044500 10191.500000
98.015200 138754.000000
98.060200 30287.800000
99.023000 168800.300000
100.030700 83846.000000
101.038700 283190.200000
102.046500 3572136.500000
103.054300 370238.000000
105.044800 1610898.600000
107.049200 9890.600000
113.038600 933863.600000
114.046500 164907.000000
115.054300 3771813.200000
116.062100 103130.500000
117.033400 7093.100000
117.069900 35926.900000
118.041100 75818.800000
119.049300 151397.500000
120.020600 38928.600000
125.038600 135076.300000
126.046500 2302013.000000
127.054300 1455658.400000
128.062100 2927535.800000
129.033800 27893.500000
129.044700 540626.600000
129.069900 30966.000000
131.049300 140025.000000
132.057000 100465.400000
137.038700 234833.500000
138.046500 116050.000000
139.054300 3410405.200000
140.062000 79807.800000
141.033400 14462.500000
141.070000 76906.000000
142.041600 12122.800000
143.049300 38641.400000
144.057000 27831.600000
145.064900 496026.400000
149.038900 41048.000000
150.046500 841391.400000
151.054400 152163.300000
152.062100 1388628.500000
153.069900 79250.300000
155.049700 357199.800000
155.060400 1162821.800000
156.057100 42949.300000
158.036800 10438.100000
161.038800 69185.100000
162.046400 100518.700000
163.054300 994006.100000
164.062200 149416.600000
165.070000 359655.100000
167.049300 10809.000000
168.057000 178784.300000
169.064900 609509.800000
170.036500 26479.400000
174.046600 52745.100000
175.054300 12910.200000
176.062200 251450.900000
177.069800 12564.800000
178.077800 32465.100000
179.060500 219050.300000
181.065200 13532.200000
183.044200 28985.100000
185.059700 30810.700000
187.054300 145475.500000
188.061700 10912.800000
189.070300 56853.300000
193.065100 11127.000000
194.036400 38157.900000
196.051900 43756.000000

