>compound EQ41529223
>parentmass 136.05050000000003
>ionization [M+H]+
>formula C6H5N3O
>rt 186.000000
>profile orbitrap
#smiles_iso C1=CC2=NNN=C2C(=C1)O
#smiles_can C1=CC2=NNN=C2C(=C1)O
#inchikey JMTMSDXUXJISAY-UHFFFAOYSA-N
#pubchem_id 135399369
#mb_accession EQ290001,EQ290002,EQ290003,EQ290004,EQ290005,EQ290006,EQ290007,EQ290008,EQ290009

>ms2peaks
53.038500 996363.000000
54.033800 681559.900000
80.049400 16884192.000000
81.033500 1663857.900000
90.033900 611896.000000
108.044400 2021773.800000
136.050500 487999296.000000

>ms2peaks
53.038500 1033294.300000
54.033800 904630.500000
80.049400 17983390.000000
81.033500 1533475.100000
108.044300 2090287.200000
136.050500 502045824.000000

>ms2peaks
53.038600 2851352.000000
54.033800 1969746.000000
63.022800 618270.100000
68.013100 599766.200000
80.049400 43838884.000000
81.033500 3893144.000000
90.033800 1599086.500000
108.044400 4458152.000000
136.050500 453375840.000000

>ms2peaks
51.022900 369649.400000
53.038600 15699272.000000
54.033800 6330377.500000
63.022900 4031127.500000
68.013100 1867900.000000
78.033900 463581.800000
80.049400 121920816.000000
81.033500 13597877.000000
90.033900 6106825.000000
96.044400 496002.300000
106.028700 886741.600000
107.036700 500128.600000
108.044400 8735373.000000
136.050600 321297920.000000

>ms2peaks
50.015100 425566.100000
51.022900 794067.400000
53.038600 32542374.000000
54.033900 12214204.000000
56.049500 499048.700000
63.023000 13373298.000000
64.018200 283732.200000
68.013100 2717658.800000
78.033900 925349.300000
79.041600 323226.100000
80.049400 162151696.000000
81.033500 22752418.000000
82.028700 318358.000000
90.033900 9177716.000000
96.044400 1032564.200000
106.028800 1143108.200000
107.036700 1189524.900000
108.044400 7392743.000000
124.039500 331407.200000
136.050600 153731200.000000

>ms2peaks
50.015100 793712.900000
51.022900 1221635.600000
53.038600 51630340.000000
54.033900 13043041.000000
55.017900 267335.700000
56.049500 852798.600000
62.015100 543857.000000
63.022900 25068908.000000
64.018200 1109277.000000
68.013100 3347610.200000
78.033900 1353869.500000
79.041600 905696.100000
80.049400 139114048.000000
81.033500 23987440.000000
82.028700 407223.800000
90.033900 8389980.000000
96.044400 1227172.400000
106.028800 756348.800000
107.036600 1489626.900000
108.044400 4389801.500000
124.039300 297914.300000
136.050600 56885120.000000

>ms2peaks
50.015100 1278945.500000
51.023000 2951490.000000
52.018200 607038.200000
52.030800 874120.100000
53.038600 56799356.000000
54.033900 11474197.000000
55.017900 769341.600000
56.049500 605677.000000
61.007300 392011.300000
62.015100 2388656.000000
63.022900 36653336.000000
64.018200 3633246.800000
65.002200 69328.000000
65.026100 101467.300000
65.038600 225624.000000
66.033800 409884.200000
67.017800 107661.400000
67.989300 132072.600000
68.013100 1733351.000000
78.033900 1669525.200000
79.041600 1151018.100000
80.049400 56005020.000000
81.033500 13745961.000000
82.028700 225058.000000
90.033900 2784653.800000
91.029200 98294.200000
93.021000 285023.500000
94.028800 67562.500000
96.044500 658073.200000
106.028800 250374.100000
107.036700 572635.600000
108.044400 915409.100000
136.050600 4631662.500000

>ms2peaks
50.015100 2373730.500000
51.023000 4500499.000000
52.018200 1068833.100000
52.030800 1701039.500000
53.038600 39796044.000000
54.033900 9777365.000000
55.017900 828060.100000
56.049500 262545.500000
61.007300 999831.100000
62.015100 6355908.500000
63.022900 37597532.000000
64.018200 5383204.500000
65.002100 68124.300000
65.026000 466959.500000
65.038600 280771.800000
66.033900 266071.500000
67.989200 394507.900000
68.013100 1138734.200000
78.033800 2608261.500000
79.017900 75960.700000
79.041600 705012.900000
80.049500 17647426.000000
81.033500 5703523.000000
90.033900 676763.200000
93.021000 217731.400000
94.029100 58788.200000
96.044500 135336.700000
106.028500 75907.200000
107.036600 85495.600000
136.050600 359556.200000

>ms2peaks
50.015100 2105685.800000
51.023000 4116154.200000
52.018200 1606311.500000
52.030800 1639937.000000
53.038600 18479688.000000
54.033900 5907810.000000
55.017900 656033.200000
56.049500 80011.000000
61.007300 2101514.000000
62.015100 12872296.000000
63.022900 30261124.000000
64.018200 5141758.000000
65.002200 73014.900000
65.026000 705949.500000
65.038600 132522.000000
66.033900 106446.200000
67.989200 430088.400000
68.013100 557135.000000
78.033800 3251909.800000
79.017900 114695.900000
79.041700 222774.400000
80.049500 4580449.000000
81.033500 1542796.800000
90.034000 60185.100000
93.021000 118465.200000

