>compound EQ41800787
>parentmass 362.04010000000005
>ionization [M+H]+
>formula C15H11ClF3NO4
>rt 816.000000
>profile orbitrap
#smiles_iso CC(C(=O)O)OC1=CC=C(C=C1)OC2=C(C=C(C=N2)C(F)(F)F)Cl
#smiles_can CC(C(=O)O)OC1=CC=C(C=C1)OC2=C(C=C(C=N2)C(F)(F)F)Cl
#inchikey GOCUAJYOYBLQRH-UHFFFAOYSA-N
#pubchem_id 50895
#mb_accession EQ356201,EQ356202,EQ356203,EQ356204,EQ356205,EQ356206,EQ356207,EQ356208,EQ356209

>ms2peaks
272.007000 4241.000000
290.018900 2779.200000
316.035100 418872.200000
362.040500 2387292.800000

>ms2peaks
65.038600 2999.800000
91.054300 218061.200000
98.984400 2056.100000
111.044000 6139.300000
119.049300 56691.200000
121.028500 82523.800000
166.062600 2020.300000
197.993000 7397.400000
247.040100 8279.200000
252.063700 3492.400000
260.045200 9649.800000
272.008200 28631.600000
288.040000 264547.600000
289.011400 183188.000000
290.019200 47551.700000
298.024100 6221.400000
316.034900 1929184.400000
362.040500 220000.400000

>ms2peaks
51.022900 1993.400000
55.017900 5015.800000
60.080700 1652.900000
65.038600 42354.500000
67.054300 2937.300000
73.028400 4457.800000
91.054300 838287.400000
92.025800 2682.400000
92.062000 2105.600000
93.033600 9259.700000
93.070000 870.000000
94.041500 4789.100000
95.049300 2517.000000
98.984300 4880.100000
101.059800 2435.900000
109.028300 3100.800000
109.064900 13420.500000
111.044200 25152.400000
119.049300 119222.500000
119.060500 14636.000000
120.057100 13607.300000
121.028500 104186.900000
121.064800 6023.100000
125.059900 848.000000
135.044100 2042.900000
137.059900 2322.700000
177.986900 1005.200000
181.998200 3193.900000
192.021300 1688.300000
196.013700 843.600000
197.993000 23523.800000
209.993400 3181.900000
212.009000 1788.500000
219.005600 3277.500000
219.044900 6138.500000
220.013700 7751.100000
224.068000 1746.700000
225.076200 2072.400000
226.047800 10553.300000
232.014200 13817.500000
235.060500 5105.900000
238.047100 919.700000
245.021700 3811.700000
247.039700 40372.400000
248.008600 3776.000000
248.027700 7143.200000
252.002900 1694.500000
252.063400 13494.000000
253.071000 3726.200000
254.042600 6025.400000
260.008700 2221.400000
260.045100 39876.600000
261.016600 22667.800000
268.033400 3198.800000
270.029400 14089.300000
272.008700 287184.700000
273.016300 4010.500000
274.024200 4125.000000
280.058000 5286.000000
286.996000 1010.100000
288.003800 217092.000000
288.039900 335257.000000
289.011400 150866.600000
290.019200 39722.200000
298.024300 14750.900000
301.012000 3939.700000
302.019700 949.500000
316.035100 268983.500000

>ms2peaks
53.038600 1862.500000
55.017900 8332.700000
55.054300 2875.600000
63.023000 3901.200000
64.030900 1886.200000
65.038600 153407.800000
67.054300 4744.100000
69.033500 1962.000000
69.070000 1002.000000
73.028500 6108.600000
75.022900 9616.700000
77.038600 1712.600000
79.054300 3032.400000
81.033600 4877.500000
81.070000 2861.700000
83.049200 1063.600000
91.054300 819067.600000
92.025700 16933.500000
92.062100 7308.400000
93.033600 8606.800000
93.070000 3465.900000
94.041400 9560.100000
95.049200 3476.100000
98.984300 4008.600000
101.059900 1509.300000
105.033800 969.300000
105.044800 1679.300000
107.049400 990.200000
109.028600 14635.400000
109.064900 12063.200000
111.044200 24641.300000
119.036800 4017.500000
119.049300 45535.200000
119.060500 10411.300000
120.057100 14628.500000
121.028500 46834.000000
121.039800 3506.900000
121.064900 10227.500000
137.059900 992.000000
169.974200 1957.100000
175.018500 5088.200000
177.986900 2373.200000
178.046600 1060.700000
179.982400 1983.100000
181.998100 4569.700000
184.075900 889.400000
189.038900 2815.300000
192.021300 9411.800000
195.006000 1832.700000
196.985400 1608.900000
197.993000 47324.700000
198.053200 3593.200000
199.036800 6727.800000
203.013500 5651.400000
205.998500 3387.800000
206.041400 7651.200000
208.037100 3253.400000
209.045000 39733.800000
212.008600 4111.700000
212.070600 3524.700000
216.025700 24729.000000
219.006100 8563.000000
219.045000 4127.600000
220.014000 10424.800000
220.032500 1793.200000
221.024200 912.400000
222.011900 3178.400000
224.007400 3707.200000
224.068100 3011.700000
225.076300 3546.800000
226.047600 50882.600000
232.014000 25698.900000
234.052700 998.400000
235.002900 3978.700000
235.060600 10932.900000
237.040000 20095.400000
238.048200 2407.900000
243.005800 1760.800000
244.013800 8139.200000
245.021700 12003.700000
246.031000 11637.000000
247.039800 10963.000000
248.027800 4485.800000
252.002700 19930.200000
252.063400 10587.900000
253.034800 865.700000
253.071300 2377.600000
254.042600 19261.100000
260.008600 4997.800000
260.045100 15406.500000
261.016600 46780.700000
268.033800 1044.900000
269.020100 2466.600000
270.029400 9909.100000
272.008800 474308.900000
274.024700 1750.700000
280.058300 2596.600000
288.003700 355477.500000
288.038800 38842.000000
289.011500 19916.900000
290.019200 11769.200000
298.024800 5154.000000
301.011400 1025.700000
316.034900 9819.000000

>ms2peaks
50.015000 1519.100000
51.023000 1929.600000
53.002300 2303.200000
53.038600 5037.900000
54.046500 2204.600000
55.017900 10357.100000
55.054300 2880.100000
57.069900 653.900000
60.080900 533.800000
62.015100 1015.800000
63.023000 21118.400000
64.030800 5168.200000
65.038600 273571.100000
66.046500 2090.800000
67.054400 3327.900000
69.033600 736.600000
69.070000 611.000000
72.984000 2419.800000
73.028400 3388.000000
74.015100 3679.500000
75.023000 41601.300000
77.038600 2480.600000
79.017800 1593.400000
79.054300 6082.500000
80.062100 1853.700000
81.033600 17710.600000
81.070000 3025.200000
83.049100 1611.700000
90.034000 4489.600000
90.046500 715.400000
91.054300 517860.200000
92.025800 40499.000000
92.037000 2461.300000
92.062100 5969.400000
93.033600 3118.300000
93.070000 3454.600000
94.041400 17335.400000
95.049300 8590.200000
98.984300 4178.000000
102.046400 2076.600000
103.054200 907.500000
105.033600 917.100000
105.044800 5969.700000
107.010300 618.200000
107.049200 937.300000
108.044400 757.900000
109.028500 27583.400000
109.064900 2552.500000
110.036400 2338.700000
111.044100 9666.000000
119.036800 4423.600000
119.049300 11725.800000
119.060600 2072.600000
120.044600 3819.400000
120.057000 5681.400000
121.028500 25251.300000
121.039600 5225.400000
121.064800 6133.800000
131.049200 569.400000
137.974500 543.200000
140.049500 7106.000000
141.979300 3773.100000
142.010100 616.100000
146.021600 661.300000
149.008600 857.000000
149.991900 566.800000
150.016600 1485.600000
151.035600 2523.100000
154.065500 770.900000
156.044500 3960.100000
157.052400 5404.900000
157.980600 2198.400000
158.040200 4732.000000
159.047900 1773.200000
159.976300 1646.800000
164.025800 860.400000
164.031900 566.000000
165.010400 908.300000
166.065600 2462.400000
168.044600 9831.700000
168.990400 1631.500000
169.974300 784.600000
171.041500 3124.500000
175.018500 14389.000000
176.051100 608.800000
177.986800 2311.100000
178.046500 9668.700000
179.030600 869.700000
179.982400 8307.100000
180.990200 872.800000
181.998100 3107.300000
182.033900 4237.500000
183.068200 779.100000
184.056100 724.800000
184.076100 677.400000
185.045100 3690.200000
186.035300 1618.800000
187.043000 3812.500000
188.030900 3227.200000
189.038600 13040.200000
190.046800 6700.000000
192.021200 14726.100000
195.006300 1934.100000
196.985500 658.800000
197.993000 56744.700000
198.052600 10691.300000
199.036700 20945.300000
201.040100 2174.000000
203.013500 12296.200000
204.021000 880.600000
205.998500 2946.100000
206.041400 23705.200000
208.037100 13879.800000
209.045000 98021.000000
210.052900 2414.200000
212.008200 2180.400000
212.070800 812.400000
213.999500 2027.200000
215.054500 800.000000
216.025900 61120.000000
217.033500 6541.800000
218.041900 7866.100000
219.006000 9965.900000
220.014700 3290.500000
220.032600 962.700000
221.024300 890.100000
222.011800 6916.500000
224.007600 9448.000000
224.068700 1914.800000
225.039900 815.000000
226.047700 44998.000000
232.013800 15437.100000
233.992900 821.000000
234.036800 856.400000
234.052600 1734.800000
235.003100 6716.100000
235.060500 8056.500000
236.008200 1873.100000
236.032100 2884.800000
237.039900 25578.100000
238.047600 1927.300000
243.005900 5141.500000
244.013900 7903.600000
245.021800 5917.800000
246.031600 5627.800000
247.039600 973.400000
248.028000 522.300000
252.063200 3487.500000
254.042600 11566.300000
260.009000 8037.200000
260.045400 814.600000
261.016600 12053.800000
269.992700 838.200000
270.029700 2317.000000
272.008700 181996.100000
280.058100 703.300000
288.003600 252252.000000
289.011500 563.500000
290.019500 797.700000

>ms2peaks
50.015200 1992.300000
51.023000 2440.800000
53.002200 4063.600000
53.038600 8012.900000
53.997400 560.500000
54.046500 4828.500000
55.017900 10231.600000
55.054300 3161.800000
57.013600 507.300000
61.007300 547.100000
62.015200 3200.300000
63.023000 61880.300000
64.030800 16189.200000
65.038700 312288.400000
66.046500 3760.300000
66.974600 2313.300000
67.054300 2323.700000
68.994700 874.300000
68.997200 1028.700000
69.033700 454.400000
72.984000 7539.700000
73.028500 1682.100000
74.015100 11384.600000
75.023000 63697.300000
76.030800 594.100000
77.038600 3552.400000
79.017900 2219.200000
79.054300 4309.300000
81.033600 33690.800000
83.049300 734.600000
84.965200 2733.500000
89.038600 1942.700000
90.034000 5565.000000
91.054300 284888.200000
92.025800 42395.400000
92.037000 3925.200000
92.062200 2941.300000
93.033700 753.700000
93.069900 4705.400000
94.041500 19198.200000
95.049300 12701.100000
98.984200 4304.200000
102.046500 2655.600000
103.054400 2570.500000
105.033800 1845.100000
105.044800 7337.400000
107.010500 2286.200000
107.049300 1034.500000
108.021000 512.700000
108.044400 1844.600000
108.965400 2523.900000
109.028500 24556.600000
109.979200 732.000000
111.044100 4851.300000
111.994900 546.500000
113.991200 533.800000
114.015300 412.800000
114.999300 432.200000
115.041900 391.200000
119.010700 1383.000000
119.036600 4409.200000
119.049400 3489.700000
120.044500 8112.300000
120.057100 912.500000
121.028600 9839.400000
121.039800 5683.300000
126.015200 901.500000
128.049600 3023.500000
129.057700 1764.300000
130.040300 2863.100000
132.025800 2190.500000
133.045100 528.700000
137.974600 3078.100000
139.042000 573.500000
139.054500 657.900000
140.049600 19687.200000
140.971700 1710.800000
141.057500 1002.000000
141.979400 3977.500000
142.010100 1765.200000
144.044700 903.500000
145.013300 524.300000
146.021500 2994.600000
146.060400 609.600000
147.996300 1846.800000
148.018100 587.600000
148.055900 879.100000
149.008600 493.600000
149.015100 401.900000
149.040100 912.000000
149.992000 2533.900000
150.016300 954.300000
151.035600 15211.400000
152.971700 757.400000
154.065400 2449.400000
155.073500 534.400000
156.018300 442.600000
156.044500 8693.700000
157.045900 823.000000
157.052400 12065.100000
157.980600 7377.900000
158.040300 15705.400000
158.060400 2149.300000
159.048200 8356.900000
159.976100 5066.700000
161.019900 847.700000
162.016700 576.800000
162.027700 2873.200000
163.024200 843.900000
164.025900 874.000000
164.032000 2739.200000
164.043400 400.500000
165.010400 3227.400000
166.065200 3034.000000
167.006400 651.400000
167.036900 1592.500000
168.044600 19126.000000
168.990100 987.500000
169.026000 601.300000
169.032500 1917.700000
174.010700 1858.700000
175.018600 18681.400000
176.031500 729.500000
176.051000 1026.900000
177.038700 1732.100000
177.986800 3023.400000
178.046600 15569.700000
179.030800 3079.400000
179.982400 18440.900000
180.990400 1978.100000
181.025600 639.500000
181.998300 1880.600000
182.034000 10455.700000
182.041300 987.500000
183.029500 2340.400000
183.068500 695.700000
184.056100 964.500000
184.075800 473.700000
185.045600 5602.200000
186.035400 4095.500000
187.043100 5328.200000
188.030900 12580.100000
189.038700 24141.100000
190.046600 18808.200000
191.042100 791.900000
192.021300 8820.700000
195.006300 871.600000
196.037300 1607.800000
197.044700 793.900000
197.993100 65080.800000
198.052700 11330.600000
199.036700 26254.000000
201.040500 811.200000
202.005800 1592.200000
203.013500 5883.100000
204.046000 991.100000
204.062700 479.100000
205.998400 2615.400000
206.041600 32607.300000
208.037200 19972.600000
209.045000 75684.000000
210.052700 1714.400000
212.008300 4153.000000
213.999500 2033.800000
214.046700 876.900000
215.054400 942.700000
216.025900 49995.900000
217.033800 5647.300000
218.041600 11397.000000
219.006300 6739.600000
220.015200 840.200000
222.011900 5531.900000
224.068600 1739.200000
225.040200 1818.800000
226.047700 16157.500000
232.014400 9530.900000
234.036600 1564.200000
234.053300 673.700000
235.003000 3658.100000
235.060700 3209.600000
236.032000 3339.100000
237.039800 13318.500000
238.047900 789.200000
243.006200 5417.000000
244.013900 4404.000000
245.022200 2003.300000
246.032400 2216.800000
252.002600 7569.600000
252.063100 791.200000
253.034600 4894.700000
254.042700 3343.100000
256.014300 513.100000
259.000900 919.300000
260.008900 19170.700000
261.016800 1635.700000
269.993000 9597.100000
272.008800 40919.000000
288.003700 136727.100000
302.020200 594.800000

>ms2peaks
50.015200 6299.100000
51.023000 8070.800000
52.030800 967.700000
53.002300 8821.600000
53.038600 13964.400000
53.997500 868.200000
54.046500 5874.500000
55.017900 9725.500000
55.054300 2887.400000
57.013600 5694.800000
61.007300 2237.300000
62.015200 9819.200000
63.023000 124006.300000
64.018300 3630.400000
64.030800 25716.000000
65.038700 247680.800000
66.046400 9386.400000
66.974600 3789.100000
67.054300 2091.300000
68.994700 9004.400000
68.997000 1331.900000
72.984000 12889.500000
74.015200 34182.500000
75.004100 10625.400000
75.023000 60941.400000
76.018200 2517.100000
76.030800 2436.300000
77.002200 445.800000
77.038600 6791.100000
78.033900 362.700000
78.046500 812.900000
79.017900 5208.800000
79.054200 4396.100000
81.033600 45780.300000
83.029200 793.000000
84.965200 11583.300000
84.983900 1704.500000
87.023000 890.300000
88.018300 722.200000
89.038700 2997.100000
90.034000 2274.600000
90.046500 595.900000
90.974700 6347.100000
91.054300 72602.300000
92.025800 14960.400000
92.036900 1889.800000
93.033800 728.200000
93.070000 417.100000
94.041500 10866.600000
95.049200 14022.100000
96.024700 493.100000
96.044500 565.200000
98.984300 2039.000000
99.004100 3659.300000
99.999500 4570.900000
101.019700 633.600000
101.038600 469.400000
102.046500 14804.700000
103.041600 468.500000
103.054300 897.200000
104.013300 2716.900000
105.033600 2251.400000
105.044800 10773.400000
107.010300 2246.900000
107.029300 1738.900000
108.037100 1693.800000
108.044400 520.400000
108.965300 16486.600000
109.028600 8052.000000
109.979300 11372.900000
110.036400 843.500000
111.023000 4245.800000
111.044200 5261.600000
111.994900 1724.000000
112.018600 575.600000
112.031000 619.200000
113.038700 13386.700000
113.991300 617.200000
114.015300 452.900000
114.034100 3281.400000
115.054300 556.000000
116.049800 538.200000
119.010500 6414.700000
119.036800 1633.100000
119.049000 667.200000
120.037400 575.700000
120.044600 4128.000000
121.028500 2131.000000
121.039700 4447.900000
122.999500 415.600000
125.007000 522.800000
125.019700 943.100000
126.015200 4834.700000
127.041800 628.200000
127.989900 2207.500000
128.049600 12234.700000
129.044700 3970.900000
129.057500 4399.300000
129.985400 1829.800000
130.040200 2763.800000
131.029300 7601.200000
131.049300 2324.300000
132.018200 1950.600000
132.025700 5279.900000
132.037000 861.200000
132.965100 1992.700000
133.045000 3010.800000
134.040000 558.500000
135.004300 389.900000
135.031300 392.500000
137.019900 481.600000
137.974500 4042.400000
138.027400 875.800000
138.034100 2830.500000
139.042000 5592.000000
139.054200 1709.200000
140.049600 28654.000000
140.971400 491.200000
141.013400 2345.800000
141.057300 3335.000000
142.010000 3562.400000
143.029300 920.000000
144.025500 861.800000
144.044600 3346.000000
145.013400 1903.800000
145.026100 1757.400000
146.021500 4589.800000
146.060400 1295.700000
147.010400 468.700000
147.995900 1940.900000
148.018400 6239.700000
148.055800 1899.500000
149.019800 754.100000
149.991600 2530.700000
150.034900 524.100000
151.035600 41962.200000
152.030600 1776.200000
152.971500 3516.400000
154.065000 2053.100000
156.018300 3244.900000
156.044600 12245.500000
157.045800 803.900000
157.052300 8318.100000
157.980400 7988.800000
158.040300 23410.500000
158.059900 1998.500000
159.048100 9823.800000
159.976200 12074.200000
161.019700 2394.900000
162.016100 1810.600000
162.027800 9281.000000
162.034500 880.200000
163.023600 2834.500000
164.025800 334.300000
164.031800 4474.900000
164.042800 543.900000
164.049300 441.900000
165.010100 2461.700000
166.065100 1809.900000
167.005900 782.800000
167.036800 702.200000
168.025100 3395.600000
168.044600 9548.800000
169.026100 1001.000000
169.032200 4596.800000
170.040400 1617.900000
171.041500 2224.200000
174.010700 1726.400000
176.030900 6516.600000
176.050600 1566.600000
177.038700 5266.200000
177.986500 2676.800000
178.046600 5481.700000
179.982400 10070.400000
180.038000 518.700000
182.033900 8404.300000
182.041200 1189.000000
183.029200 2244.800000
184.039700 4523.300000
184.056000 632.700000
186.035400 4352.800000
187.022700 2076.500000
187.042900 1721.200000
188.031100 5911.700000
188.050800 1503.800000
189.038700 12052.000000
190.046500 15964.100000
191.041400 1897.100000
196.036900 1755.700000
197.044200 2235.000000
197.993100 16913.700000
198.052800 2914.300000
199.036800 5407.800000
204.045400 439.900000
206.041700 6249.300000
207.029200 2923.200000
208.037100 12498.500000
209.045000 8106.500000
214.046600 578.600000
218.041200 3429.100000
219.006200 477.900000
224.007100 2203.700000
225.040000 459.000000
234.036100 781.600000
236.031600 650.000000
237.039900 450.600000
243.006200 713.500000
253.034700 1500.100000
269.993000 5222.200000
272.008600 613.300000
288.003600 6671.500000

>ms2peaks
50.015200 12584.500000
51.004200 2536.000000
51.023000 16478.600000
52.018200 1485.500000
52.030800 3041.100000
53.002300 13862.500000
53.038700 15397.900000
53.997500 2151.000000
54.046500 3440.600000
55.017900 7429.800000
55.054300 898.400000
57.013600 9624.400000
61.007300 4609.800000
62.015200 18580.700000
63.023000 151568.500000
64.018200 4473.000000
64.030800 15571.600000
65.038700 127249.600000
66.046500 8503.300000
66.974600 4970.800000
67.054300 712.100000
68.005700 578.300000
68.994700 22075.600000
68.997000 1306.300000
72.984000 12519.300000
74.015200 55108.400000
75.004100 22090.400000
75.010400 7745.200000
75.023000 46154.800000
76.018200 8237.800000
76.030800 3556.100000
77.002200 1485.300000
77.038600 6803.500000
78.034000 723.700000
78.046500 2510.000000
79.017900 5520.900000
79.054400 1450.000000
81.013500 3442.000000
81.033600 25556.200000
82.008900 721.700000
83.029200 1447.300000
84.965200 14947.300000
84.984000 3454.500000
86.015100 3694.700000
87.023000 6076.000000
88.012100 1748.800000
88.018300 2918.200000
88.030900 1537.800000
89.038700 5324.700000
90.034100 656.600000
90.046800 445.100000
90.974600 7702.200000
91.054400 18027.900000
92.025800 4515.800000
92.036900 442.200000
92.994900 1651.000000
93.013700 648.400000
93.033600 492.600000
94.009000 446.300000
94.021500 594.800000
94.041400 4340.200000
95.049300 13287.300000
96.024700 879.200000
96.044600 606.500000
96.984300 737.900000
98.015100 2722.600000
98.984200 2695.200000
99.004200 9402.800000
99.023200 1790.200000
99.999400 5960.800000
100.018400 1962.800000
101.002700 727.100000
101.019800 4622.700000
101.038900 2024.400000
102.046500 18981.000000
103.042000 797.400000
103.054400 522.900000
104.013200 2086.100000
105.013700 3094.700000
105.033800 2039.600000
105.044800 9476.200000
106.021600 478.200000
107.010500 1829.100000
107.029300 3354.100000
108.037200 1695.500000
108.965200 21945.300000
109.979300 25323.700000
111.004100 454.200000
111.023000 8832.600000
111.994800 586.400000
112.012200 1446.300000
112.018500 2286.300000
112.030900 1323.000000
113.038700 23301.800000
114.034000 4703.100000
114.999300 573.100000
115.041800 735.800000
115.054400 510.600000
116.049600 393.600000
117.013700 1417.900000
119.010500 7483.700000
120.037400 2206.500000
120.044800 1585.800000
121.039800 1608.200000
122.015400 931.500000
122.999800 596.700000
123.004300 885.300000
123.010500 680.600000
123.023400 1554.500000
123.999800 2170.800000
124.018500 688.400000
125.007700 1675.400000
125.019900 4252.100000
126.015200 4797.300000
127.042100 1823.300000
127.989900 3683.400000
128.049600 10844.900000
129.044800 8547.200000
129.985900 919.100000
131.029300 17624.700000
132.018600 2230.200000
132.024900 2976.800000
132.037300 1471.800000
132.965400 3451.200000
133.045100 1700.200000
134.040600 553.700000
135.004500 522.600000
135.032000 535.800000
136.012400 579.400000
137.020200 464.200000
137.974400 1762.800000
138.011100 904.600000
138.028000 1688.400000
138.034300 5487.400000
139.042100 3830.700000
139.054600 539.100000
140.049700 11803.800000
141.013800 632.600000
141.057600 770.700000
142.010100 782.800000
143.029500 498.900000
144.026000 1411.800000
144.044900 2168.500000
145.026400 1470.600000
146.021400 537.500000
146.060400 1492.900000
147.010400 3318.200000
147.996300 745.800000
148.018500 3808.500000
149.020000 2362.000000
149.040000 2798.000000
149.992000 792.700000
150.035100 717.900000
151.035600 23241.700000
152.031100 408.600000
152.971800 2401.600000
154.065500 733.400000
156.018400 2121.000000
156.024300 528.200000
156.044400 4549.200000
157.052700 2085.400000
157.980600 1352.700000
158.040300 11313.600000
159.048000 3721.900000
159.976100 5107.200000
161.020200 1609.700000
162.016300 416.900000
162.028000 6439.500000
162.034700 1060.000000
163.023500 800.800000
164.031400 886.900000
164.049800 721.200000
168.024700 581.000000
168.045100 1620.500000
169.026300 3505.800000
169.033000 1912.400000
170.040600 1469.900000
175.018500 482.800000
176.031100 3872.900000
177.039200 2189.500000
177.987100 557.500000
178.046500 605.000000
179.982500 1411.700000
180.038400 352.600000
182.034300 1685.500000
184.039600 1809.600000
187.023200 1296.900000
188.031500 2107.400000
188.050400 412.300000
189.039100 2332.500000
190.046400 3522.500000
191.041800 695.200000
196.037900 440.600000
197.993300 1552.800000
207.030000 571.700000
208.037900 1500.500000

>ms2peaks
50.015200 17574.000000
51.004200 3639.600000
51.023000 24412.500000
52.018300 3736.100000
52.030800 2887.600000
53.002300 19109.900000
53.038700 8983.700000
53.997500 2450.400000
54.046500 859.200000
55.017900 3832.700000
57.013600 12488.100000
61.007300 10048.000000
62.015200 33609.700000
63.023000 151859.400000
64.018300 3762.300000
64.030800 7472.200000
65.038700 51709.400000
66.046500 4266.000000
66.974600 4568.700000
68.005700 736.400000
68.994700 31449.400000
72.984000 10877.800000
74.015200 70119.500000
75.004100 25634.000000
75.010400 17803.600000
75.023000 38865.000000
76.018200 15762.500000
76.030800 3478.600000
77.002200 1661.800000
77.038600 4765.200000
78.034000 788.600000
78.046500 1996.000000
79.017900 8063.200000
79.054300 462.800000
81.013500 7720.800000
81.033600 10433.500000
82.008800 626.600000
83.029200 1530.800000
84.965200 11758.500000
84.984000 3165.000000
86.015200 8222.900000
87.023000 12619.600000
88.012100 840.600000
88.018300 4579.600000
88.030800 1526.800000
89.038700 4367.500000
90.034000 846.600000
90.974600 6027.900000
91.054300 7855.800000
92.025700 1644.200000
92.994800 3324.800000
93.013600 441.600000
94.008800 749.900000
94.021500 505.600000
94.041300 534.800000
95.049300 7757.700000
96.024400 728.900000
96.044400 1586.000000
96.984100 1484.800000
98.015200 3954.700000
98.984100 2580.800000
99.004200 8717.100000
99.023000 2820.500000
99.999400 3960.500000
100.018200 2081.500000
101.002500 479.400000
101.019800 3737.600000
101.038600 2087.200000
102.046500 8758.300000
103.041700 437.200000
104.013100 628.900000
105.013700 4714.200000
105.044900 4215.100000
106.021600 1248.100000
107.029400 3071.600000
108.036900 603.700000
108.965300 15459.000000
109.979300 16923.700000
111.004000 460.100000
111.023000 6597.200000
112.012100 786.900000
112.018400 2846.100000
113.038700 9844.500000
114.034000 3190.900000
117.013600 473.600000
119.010500 4081.900000
119.049300 685.600000
120.037200 1636.100000
120.044400 396.300000
122.015300 3692.400000
122.999500 608.000000
123.004000 1400.600000
123.010400 2316.700000
123.022900 1885.900000
123.999400 1622.600000
124.018400 857.700000
125.019900 3625.100000
126.015000 1825.100000
127.041900 426.000000
127.989800 1479.400000
128.049600 3465.700000
129.044800 4787.200000
130.040000 468.900000
131.029300 11482.300000
132.036800 519.000000
132.965200 2218.800000
133.044900 428.000000
135.004300 468.000000
135.031800 523.400000
136.012300 494.200000
138.011200 1533.100000
138.034000 1637.300000
139.041700 787.700000
140.049700 2560.600000
144.025700 673.300000
144.044500 530.400000
147.010600 3285.500000
148.018000 1284.900000
149.019800 2206.500000
149.040100 685.700000
151.035600 7374.500000
156.018300 710.900000
156.024100 438.200000
158.040400 3049.000000
159.976200 536.200000
162.027700 1658.000000
164.031400 559.100000
168.024200 340.500000
169.026100 2492.500000
176.030600 1523.500000

