>compound EQ41656667
>parentmass 301.1104
>ionization [M+H]+
>formula C14H20O5S
>rt 474.000000
>profile orbitrap
#smiles_iso C1=CC(=CC=C1CCCCCCCC(=O)O)S(=O)(=O)O
#smiles_can C1=CC(=CC=C1CCCCCCCC(=O)O)S(=O)(=O)O
#inchikey KCKCVKAROJRVBA-UHFFFAOYSA-N
#pubchem_id 53987276
#mb_accession EQ357101,EQ357102,EQ357103,EQ357104,EQ357105,EQ357106,EQ357107,EQ357108,EQ357109

>ms2
57.069900 44339.800000
59.049100 17514.500000
69.069800 16590.800000
71.085500 244154.200000
107.049300 37451.700000
117.069800 79686.500000
131.085500 54591.700000
151.021100 12781.000000
153.000400 16721.300000
165.036900 18920.000000
171.010300 55763.200000
172.124900 24281.900000
173.132600 265851.600000
179.052600 12884.600000
181.031800 20889.600000
185.026700 920563.600000
195.047200 42652.300000
199.042400 849020.600000
201.073200 24892.500000
213.058000 308907.000000
217.053000 13977.900000
219.083900 73583.100000
231.068700 28032.400000
237.094400 212766.500000
247.078900 15826.100000
255.105000 318069.700000
265.089300 50520.100000
269.121200 12508.600000
273.115500 28168.300000
283.099800 1936546.100000
301.110500 11586534.000000

>ms2
55.054200 17663.300000
57.033400 12354.300000
57.069900 151691.200000
58.995000 17869.800000
59.049200 28127.800000
67.054200 13136.100000
69.069900 79359.000000
71.085500 647379.600000
77.038400 15441.500000
79.054200 6005.300000
81.069900 55786.700000
83.085500 25912.700000
91.054200 53591.500000
95.085600 7606.500000
97.064800 37954.600000
97.101200 6843.000000
99.080500 7580.100000
103.054200 20528.700000
104.061800 50295.800000
105.069800 32639.100000
107.049100 107872.900000
115.054200 7103.200000
116.062000 24512.800000
117.069900 423632.000000
118.077600 25439.400000
119.085700 5813.600000
121.064800 7721.300000
123.026200 42635.400000
129.069600 5729.300000
130.077800 36255.800000
131.085600 429512.900000
132.056900 27008.900000
132.093400 6532.800000
133.064900 16073.500000
135.026300 92963.800000
137.005600 36201.000000
139.021300 100582.900000
141.070000 7394.200000
143.085800 17505.500000
145.101100 5860.400000
147.026100 27571.500000
149.042000 92882.200000
151.021200 193063.200000
153.000500 91490.900000
155.016300 21188.500000
157.101200 5998.700000
159.080500 12026.200000
159.091600 7724.700000
161.042000 24947.500000
163.021200 51117.900000
163.057600 20318.900000
165.036900 74124.000000
167.016100 104589.100000
167.085200 6319.100000
168.093500 71378.900000
169.031900 8094.800000
169.101500 6989.700000
170.108900 27369.100000
171.011100 1330017.600000
172.034500 11055.100000
172.124700 106097.200000
173.132500 436812.700000
174.140500 15707.500000
175.057900 8115.100000
177.037200 22737.800000
177.073300 48690.800000
179.052500 52014.400000
181.031700 179715.200000
183.116800 21612.300000
184.124700 41385.600000
185.026700 5054653.000000
186.049800 27312.900000
187.057600 24328.400000
191.144000 9515.600000
193.067700 23062.200000
195.047500 463370.500000
197.026700 49079.300000
199.042400 2707817.200000
201.073200 149458.400000
201.138700 36409.800000
203.037300 91249.800000
211.057600 13355.800000
213.058000 948275.400000
217.052900 69629.500000
219.083900 195483.500000
229.068300 7144.200000
231.068600 96506.000000
237.094400 200753.600000
247.078800 64657.400000
255.105000 292693.700000
265.089000 67785.400000
273.115300 35124.300000
283.099900 359955.400000
301.110500 979622.100000

>ms2
50.014900 4882.100000
51.022800 5516.600000
53.002100 14269.800000
55.017800 13667.000000
55.054300 41888.600000
57.069900 161595.400000
58.995000 17165.200000
59.049100 29357.600000
63.022600 5135.200000
67.054300 28894.600000
69.069900 61660.400000
71.085500 388095.800000
77.038400 20732.000000
79.054200 60559.800000
81.069900 60489.400000
83.049100 5424.600000
83.085500 20267.900000
89.038400 6930.900000
90.046300 13353.300000
91.054200 152940.800000
93.070000 35006.600000
95.049100 6872.900000
95.085500 7578.200000
97.064700 27868.000000
103.054200 199135.200000
104.062000 704608.800000
105.069900 113642.500000
107.049100 575713.700000
109.010700 39320.500000
109.065000 4869.600000
111.026300 118287.600000
115.054100 21981.600000
116.062100 106516.100000
117.069900 531533.600000
118.077700 194736.700000
119.085500 17221.000000
121.064800 135786.900000
123.026400 39649.400000
125.005700 16234.200000
128.062100 5353.000000
129.069900 27663.500000
130.077800 131361.400000
131.060400 71207.200000
131.085600 631153.800000
132.057000 76244.900000
132.093400 60959.800000
133.064900 59435.100000
133.101100 4760.800000
134.018400 26911.000000
135.026300 156401.600000
135.080600 13027.900000
137.005600 61904.600000
139.021200 174704.200000
141.069800 19867.400000
142.077900 22589.300000
143.085500 79859.700000
144.057000 4987.100000
144.093200 12589.200000
145.064900 16419.900000
145.076100 25704.500000
145.101100 29594.900000
146.072800 21193.400000
147.026400 30682.300000
149.042000 172922.100000
149.096100 30692.800000
151.021300 230189.900000
153.000400 50259.400000
153.070300 7580.000000
154.077700 14850.200000
155.016100 7387.100000
155.085600 27917.800000
157.101100 25984.600000
159.080500 21817.100000
159.091700 69756.500000
159.117100 11404.700000
161.041900 14833.800000
163.021300 58500.700000
163.057600 4393.300000
165.037000 49635.000000
167.016200 474741.000000
168.093400 85375.200000
169.101100 4860.900000
170.109000 36383.300000
171.011100 4236364.000000
172.034100 21091.700000
172.125100 23373.700000
173.042000 19248.000000
173.132600 54909.500000
175.057400 6944.800000
177.036900 29090.100000
179.052300 18768.700000
181.031800 110698.400000
182.108900 4975.900000
183.117100 14190.900000
184.124700 18327.800000
185.026800 3931979.500000
186.049800 57665.800000
191.143100 13852.000000
195.047500 152914.600000
197.026600 23085.800000
199.042400 500309.200000
201.073300 39874.000000
201.138500 58187.000000
203.037200 70124.700000
213.058000 161849.200000
217.052900 37541.300000
219.084100 24562.500000
231.068400 22320.700000
247.078800 4920.400000
255.104900 7428.200000
283.099700 8003.600000
301.109800 5069.400000

>ms2
51.022800 17452.200000
53.002200 21611.300000
53.038600 30494.700000
55.017900 23937.000000
55.054300 85971.000000
57.033500 7243.600000
57.069900 116303.000000
58.995000 5478.300000
59.049200 29457.100000
67.054200 30150.200000
69.069900 40457.400000
71.085500 161170.400000
77.038400 42481.000000
78.046400 28578.000000
79.054200 208290.500000
81.033400 5092.100000
81.069900 53541.500000
83.085500 7835.600000
90.046500 19172.700000
91.054300 309933.700000
93.069900 76161.500000
95.049200 125668.000000
95.085500 15602.300000
97.010700 12807.500000
97.064900 6283.100000
103.054300 724174.100000
104.062100 2203990.500000
105.044800 61284.800000
105.069900 204952.400000
107.049200 2034398.500000
109.010700 58746.200000
111.026300 192381.900000
115.054200 83346.300000
116.062100 151954.100000
117.069900 619953.000000
118.077700 257640.100000
119.049100 21055.600000
119.085700 15245.000000
120.057100 7550.400000
121.010700 18455.800000
121.064900 225912.400000
123.026400 30054.800000
125.005600 44135.000000
128.062000 17793.900000
129.069900 87358.300000
130.077800 111565.800000
131.060500 254417.800000
131.085600 460509.800000
132.057000 51209.800000
132.093400 35324.500000
133.064900 59450.700000
134.018600 72463.400000
135.026300 121188.600000
135.080500 20157.000000
137.005700 63364.600000
139.021300 84774.700000
141.070000 36617.100000
142.077800 35267.900000
143.060600 6104.500000
143.085600 77540.600000
144.057000 13225.900000
144.093300 7508.200000
145.064700 15735.700000
145.076000 51910.200000
145.101300 35106.400000
146.072700 19108.600000
147.026300 40816.300000
147.080500 6059.500000
148.034100 21079.600000
149.042100 84763.500000
149.096300 28971.100000
150.013600 13400.700000
151.021300 99985.500000
153.000400 35979.400000
153.070000 7699.200000
154.077700 5202.600000
155.085600 38872.500000
157.101300 14352.800000
159.080700 7302.300000
159.091700 73852.200000
159.117000 4546.000000
161.042000 12030.300000
162.049900 4388.500000
163.021300 30842.300000
165.036900 19512.900000
167.016200 395456.300000
168.093400 41527.600000
169.101300 6252.700000
170.109100 6416.500000
171.011100 3638593.800000
173.041800 6574.900000
177.036800 12948.500000
181.031900 28975.600000
184.034300 7336.200000
185.026800 1034762.500000
186.049600 21302.600000
195.047600 15344.200000
197.026700 4123.600000
199.042300 22239.000000
201.138600 17109.900000
203.036900 14576.600000
213.058100 4468.000000
217.052900 15504.500000

>ms2
50.015000 5575.300000
51.022900 22310.700000
53.002200 23212.700000
53.038600 164423.000000
53.997500 4317.500000
55.017800 38165.700000
55.054200 107496.000000
57.069900 84938.600000
58.995100 3908.800000
59.049200 21698.600000
63.022800 4478.500000
65.038500 20025.800000
67.054200 36346.000000
69.069800 24114.000000
71.085500 47350.500000
77.038500 111840.200000
78.046400 170655.000000
79.054200 604191.900000
81.033500 19004.300000
81.069900 42699.900000
89.038700 4513.900000
90.046400 18803.100000
91.054300 607360.800000
93.069900 57558.000000
94.041300 14671.300000
95.049200 589007.700000
97.010700 24532.700000
97.065000 6673.100000
102.046400 17405.400000
103.054300 987709.300000
104.062100 2459426.000000
105.044800 301021.300000
105.069900 178567.500000
107.049100 2942851.800000
109.010700 84817.800000
111.026300 119456.000000
115.054300 243406.400000
116.062100 238469.800000
117.069900 711580.200000
118.041300 15838.300000
118.077700 163386.700000
119.049200 17629.700000
120.057000 14890.200000
121.064800 143441.900000
123.026300 24451.500000
125.005700 35881.400000
128.062000 37879.500000
129.069900 143148.800000
130.077800 86105.100000
131.049200 16739.600000
131.060400 184175.100000
131.085600 315769.700000
132.057100 39554.000000
132.093700 3751.100000
133.064900 32259.500000
134.018500 112467.600000
135.026300 62324.600000
135.080300 4739.600000
137.005600 43246.400000
139.021100 32323.600000
141.069800 38930.200000
142.077700 27243.900000
143.085500 60110.200000
144.057100 12931.400000
144.093500 5206.300000
145.064800 19584.000000
145.076000 20863.600000
145.101200 21368.700000
146.072500 5917.000000
147.026300 36063.500000
147.080400 3685.000000
148.034100 19965.300000
148.051700 3532.100000
149.042000 17462.000000
149.095700 5433.200000
150.013700 11414.900000
151.021300 49407.100000
151.992800 5818.100000
153.000600 13238.700000
153.070100 20628.400000
154.077800 4629.700000
155.085500 22691.300000
157.101200 5872.600000
159.091600 33194.800000
161.042000 5460.700000
165.036900 5340.800000
165.070100 4826.600000
167.016200 75088.300000
167.085400 20534.100000
168.093100 3904.300000
171.011100 1777581.100000
181.031500 4403.900000
185.026800 91537.300000
185.041900 14673.900000
186.050200 3666.700000

>ms2
50.015100 23822.900000
51.022900 45785.600000
53.002200 24151.800000
53.038600 332018.600000
53.997600 3696.300000
55.017900 73288.800000
55.054300 95400.800000
57.069900 38536.200000
58.995000 4509.500000
59.049200 7035.600000
63.022900 3701.400000
65.038600 48283.300000
66.046400 12753.400000
67.054300 35906.700000
68.979300 3729.300000
69.069800 16184.700000
71.085500 5503.200000
77.038500 237057.100000
78.046400 510127.300000
79.054200 779894.400000
81.033500 62775.700000
81.069900 25620.000000
83.049100 3163.800000
89.038600 40240.800000
90.046400 56302.100000
91.054300 829924.000000
93.069900 32090.900000
94.041300 20601.200000
95.049200 1356128.900000
97.010800 27243.000000
102.046400 37363.600000
103.054200 954855.100000
104.062100 1999580.200000
105.044800 757877.200000
105.069900 123620.800000
107.049100 2498186.200000
109.010700 74077.600000
109.064800 4074.600000
111.026300 41045.200000
115.054300 432425.900000
116.062100 241395.400000
117.069900 698026.200000
118.041300 5595.400000
118.077700 71787.200000
119.049100 5050.200000
119.085100 3338.300000
120.057000 16248.000000
121.010600 7362.400000
121.064900 54958.400000
123.026500 3537.200000
125.005600 15483.400000
128.062100 76104.600000
129.069900 173911.700000
130.077800 36878.500000
131.049400 29646.600000
131.060400 51629.900000
131.085600 150768.400000
132.057000 13470.800000
133.064700 17001.100000
134.018500 104444.800000
135.026300 21855.000000
137.005500 13013.700000
139.021200 4304.300000
141.069900 40266.500000
142.078000 17293.100000
143.060600 3577.800000
143.085700 27929.500000
144.093900 2976.000000
145.064700 5458.600000
145.101000 4934.700000
147.026200 37222.900000
148.034200 4674.100000
151.021300 6013.500000
151.992700 4080.700000
152.061700 4686.800000
153.069900 21408.000000
154.077900 5013.100000
155.060400 3475.200000
155.085500 17134.800000
159.091400 11411.900000
165.069500 5120.700000
167.015900 6892.100000
167.085500 14221.200000
171.011100 481481.000000
171.026000 30005.800000
184.034500 5772.800000
185.042000 14634.900000

>ms2
50.015100 106817.400000
51.023000 266265.800000
53.038600 513691.600000
53.997400 4244.600000
55.017800 147588.800000
55.054200 60291.900000
57.069900 3058.700000
63.022900 36199.800000
64.030700 3555.300000
65.038600 170705.000000
66.046400 20616.300000
67.017800 3857.900000
67.054200 19221.100000
68.979300 5225.800000
75.022900 4628.900000
77.038500 550549.100000
78.046400 937714.100000
79.054200 373828.200000
81.033500 93005.900000
81.069900 6494.900000
89.038600 209111.400000
90.046500 120585.200000
91.054300 906295.800000
94.041300 27696.700000
95.049200 1918952.600000
97.010700 16766.300000
102.046400 60508.700000
103.054200 755013.600000
104.062000 495458.400000
105.044800 1065840.900000
107.049100 653953.600000
109.010600 25268.400000
115.054300 672532.300000
116.062100 107720.400000
117.069900 363814.500000
119.049200 11875.000000
121.010500 6088.000000
128.062100 113358.300000
129.069900 73323.600000
130.077600 3535.100000
131.049200 21835.700000
131.085500 19721.200000
133.064800 3903.400000
134.018500 59005.900000
141.069900 29988.500000
145.065000 4697.700000
147.026200 31526.000000
152.062300 4824.500000
153.069800 6264.500000
155.060500 15145.300000
165.069900 5559.500000
171.011000 11771.300000
171.026100 6348.800000
185.042000 4391.800000

>ms2
50.015100 256099.900000
51.023000 779816.900000
52.030800 19360.000000
53.002200 35004.300000
53.038600 424399.200000
55.017900 139547.900000
55.054300 17488.000000
62.015100 12246.000000
63.022900 143725.700000
64.030700 24331.400000
65.002200 21227.400000
65.038600 324418.500000
66.046500 14830.500000
67.017900 3787.600000
67.054300 12224.000000
68.979400 11142.500000
74.015000 5612.600000
75.022900 15543.400000
76.030700 23389.400000
77.038500 574971.500000
78.046400 750236.100000
79.017800 5384.400000
79.054200 102547.300000
81.033500 88613.000000
89.038600 437441.900000
90.046400 72259.500000
91.054200 737440.800000
94.041300 22221.800000
95.049200 1362632.900000
102.046400 63260.200000
103.054200 500020.200000
104.062000 62084.800000
105.044800 697124.800000
107.049100 118741.500000
109.010700 6274.900000
115.054200 632525.400000
116.061900 33753.500000
117.069900 88900.000000
121.010600 6897.200000
127.054100 12129.100000
128.062000 99902.800000
129.070000 16302.900000
131.049000 6203.700000
134.018500 20558.600000
141.069900 12113.300000
145.064800 5465.900000
147.026300 12991.600000
152.062100 5543.700000
155.060600 21702.200000
165.069900 4491.600000
184.033900 4910.000000

>ms2
50.015100 441333.300000
51.023000 1206292.200000
52.030800 44610.500000
53.002200 52424.500000
53.038600 248255.600000
53.997500 14521.900000
55.017900 83479.300000
62.015100 51644.900000
63.022900 324978.200000
64.030700 37008.500000
65.002200 21274.600000
65.038600 362705.100000
66.046400 4457.200000
67.017900 3341.700000
67.054300 6409.300000
68.979300 7063.800000
74.015100 16294.900000
75.022900 36876.900000
76.030800 19649.200000
77.038500 358661.900000
78.046400 338607.300000
79.017800 3322.600000
79.054200 20657.700000
81.033500 48816.400000
89.038600 465261.500000
90.046400 27107.300000
91.054300 383960.200000
94.041400 12719.500000
95.049200 666493.200000
102.046400 48005.900000
103.054200 159897.100000
105.044800 355363.900000
107.049200 12703.100000
115.054300 391773.200000
116.062000 6311.400000
117.070000 10724.500000
121.010700 4463.400000
127.054300 13952.200000
128.062100 55753.100000
131.049100 2727.000000
134.018200 3279.500000
145.064800 3180.700000
152.062100 4214.700000
155.060200 11440.200000

