>compound EQ43127680
>parentmass 264.1747
>ionization [M+H]+
>formula C19H21N
>rt 510.000000
>profile orbitrap
#smiles_iso CNCCC=C1C2=CC=CC=C2CCC3=CC=CC=C31
#smiles_can CNCCC=C1C2=CC=CC=C2CCC3=CC=CC=C31
#inchikey PHVGLTMQBUFIQQ-UHFFFAOYSA-N
#pubchem_id 4543
#mb_accession EQ369201,EQ369202,EQ369203,EQ369204,EQ369205,EQ369206,EQ369207,EQ369208,EQ369209

>ms2peaks
70.065000 8247352.000000
91.054200 46900644.000000
105.069900 45654332.000000
117.069800 45329000.000000
129.069500 2317725.500000
141.069600 1831870.200000
155.085500 13193730.000000
178.077100 2488529.800000
179.085500 3647407.000000
191.085500 17735444.000000
193.101100 1321221.500000
205.100800 2253736.200000
207.116700 1834088.100000
218.108600 1794266.000000
233.132500 308760288.000000
264.174600 1134125184.000000

>ms2peaks
55.054200 632443.400000
70.065100 32309412.000000
91.054200 207317856.000000
105.069900 184635392.000000
115.053900 1666872.200000
117.069800 168081408.000000
129.069800 13801962.000000
141.069800 6337366.500000
155.085500 55957480.000000
167.085500 640932.900000
178.077700 12440219.000000
179.085500 16966992.000000
191.085500 85040848.000000
192.093300 2298506.000000
193.101200 5278970.500000
202.077500 906359.000000
203.085100 773082.400000
204.093500 6472519.000000
205.101300 30283088.000000
207.116900 9783850.000000
217.101300 636372.400000
218.109000 27466052.000000
231.117000 3812368.500000
233.132500 476044256.000000
264.174700 300717984.000000

>ms2peaks
55.054200 2181803.000000
56.049500 348258.200000
58.065100 394257.200000
65.038500 1593360.100000
67.054200 773119.400000
70.065100 58396000.000000
71.072800 629466.200000
77.038400 1003950.400000
79.054200 3517606.200000
91.054200 322458880.000000
103.054200 5641912.500000
105.069900 258023328.000000
115.054200 7897279.500000
117.069800 229757840.000000
128.061900 712505.500000
129.069800 34755596.000000
131.085400 1205155.500000
141.069900 13790760.000000
142.077800 1070978.600000
153.069800 2947432.500000
154.077500 899706.700000
155.085500 83813792.000000
158.096300 369250.100000
159.104100 945590.300000
165.069800 1625744.500000
167.085500 1868762.100000
172.112100 717122.800000
173.119900 1121858.000000
178.077700 34570736.000000
179.085500 41008664.000000
189.068900 377568.800000
190.077400 2126387.500000
191.085500 160992016.000000
192.093300 13365268.000000
193.101200 16428128.000000
202.077100 1190342.900000
203.085500 17828134.000000
204.093400 31738708.000000
205.101200 90795056.000000
207.116800 8412574.000000
216.093700 1894935.400000
217.100900 2485843.500000
218.109100 109602496.000000
231.116800 10038273.000000
232.124900 780758.800000
233.132500 160210048.000000
264.174700 16714540.000000

>ms2peaks
53.038600 1058471.200000
55.054200 2226802.800000
56.049500 767263.000000
65.038500 4149189.200000
67.054200 673430.200000
70.065100 51277364.000000
71.073000 881602.400000
77.038400 1982855.000000
79.054200 12387229.000000
91.054200 291474560.000000
95.049200 1330726.500000
103.054200 14663497.000000
105.069900 207423136.000000
115.054200 28572364.000000
117.069800 182618336.000000
127.054000 389995.800000
128.062000 4301940.000000
129.069800 45319728.000000
131.085500 1606445.600000
141.069800 14586545.000000
142.077800 2441558.800000
144.080700 738170.200000
145.064600 362396.500000
153.069900 10854705.000000
154.077800 3983607.200000
155.085500 57617752.000000
158.096200 1130543.000000
159.104500 675895.700000
165.069900 3527619.500000
167.085400 1425305.100000
172.112100 844636.100000
173.120100 371667.900000
178.077700 44250484.000000
179.085500 40440172.000000
189.069700 2132042.200000
190.077600 13365413.000000
191.085500 141447456.000000
192.093300 19004426.000000
193.101200 13468175.000000
202.077600 4209417.500000
203.085500 65932388.000000
204.093400 47834568.000000
205.101200 69262088.000000
207.116800 1692309.400000
215.085600 2211134.000000
216.093400 5276275.000000
217.101200 21963090.000000
218.109000 90009208.000000
231.116900 4979267.500000
232.124600 1050794.100000
233.132500 17013738.000000
264.174400 329777.700000

>ms2peaks
50.014900 432847.200000
53.038600 1691242.000000
54.033800 627266.600000
55.054200 1604417.200000
56.049500 1289885.400000
58.065100 350237.600000
63.022700 377092.100000
65.038500 9487707.000000
67.054200 373432.300000
70.065100 40796936.000000
71.072900 774714.800000
77.038500 5324271.500000
79.054200 26708050.000000
82.065200 296369.900000
91.054200 275914624.000000
95.049100 6290419.500000
103.054200 27129242.000000
105.069900 148898048.000000
115.054200 66231616.000000
116.062200 1652515.600000
117.069900 135504288.000000
127.054200 1599091.500000
128.062000 14316428.000000
129.069900 45409284.000000
131.085500 1054714.000000
141.069900 18444182.000000
142.077700 2582869.500000
144.080600 1068503.500000
145.064800 2997607.800000
152.061900 1491916.200000
153.069900 17604514.000000
154.077700 7953132.000000
155.060400 8826298.000000
155.085500 29128104.000000
158.096400 1316490.600000
165.069900 10764628.000000
167.085600 1466202.900000
172.112200 744349.400000
176.061600 352255.200000
177.070100 959978.100000
178.077700 68154136.000000
179.085500 30882272.000000
189.069800 10420119.000000
190.077700 34379212.000000
191.085500 116825216.000000
192.093300 16733674.000000
193.101200 4996251.000000
202.077600 17323756.000000
203.085500 108065072.000000
204.093400 46357084.000000
205.101300 28151854.000000
215.085600 5867077.500000
216.093400 5734924.000000
217.101300 49777252.000000
218.109100 37025316.000000
231.116800 1929894.100000
233.132200 900910.400000

>ms2peaks
50.015000 1321588.500000
53.038600 4760958.500000
54.033800 278253.900000
55.054200 1380876.400000
56.049500 1380791.500000
63.022700 1260423.400000
65.038600 23634868.000000
67.054200 356073.000000
70.065100 32781092.000000
77.038500 11570997.000000
79.054200 41141300.000000
81.033500 304637.400000
91.054200 270790944.000000
95.049100 13324384.000000
103.054200 37555648.000000
104.062000 294506.600000
105.044700 9782863.000000
105.069900 88213368.000000
115.054200 105819656.000000
116.062000 3313487.500000
117.069800 85937064.000000
127.054200 4522976.000000
128.062000 35802032.000000
129.069800 33486384.000000
131.085500 1058566.200000
139.054000 672262.300000
140.062000 301033.800000
141.069800 18580498.000000
142.077600 1803969.000000
143.073000 773157.700000
144.080900 1109792.200000
145.064700 5937295.500000
152.062000 6239680.000000
153.069900 18259896.000000
154.077700 8495438.000000
155.060300 17362484.000000
155.085500 8181730.000000
158.096200 926562.400000
165.069900 24426192.000000
166.077400 663492.900000
167.085600 774434.000000
176.061700 1207255.000000
177.070000 2064682.000000
178.077700 95483776.000000
179.085500 15490392.000000
189.069800 39388576.000000
190.077700 43800876.000000
191.085500 86604600.000000
192.093200 9384118.000000
193.101200 2053950.400000
201.069400 274437.800000
202.077700 60657584.000000
203.085500 122345448.000000
204.093400 29039594.000000
205.101200 8449077.000000
215.085600 16302742.000000
216.093400 7662686.000000
217.101200 50380212.000000
218.109000 9257085.000000
229.101500 282803.500000
231.116800 852727.800000

>ms2peaks
50.015100 2911482.200000
51.022900 2630756.000000
53.038600 9814930.000000
54.033900 1583732.000000
55.017800 687773.900000
55.041700 1134309.100000
55.054200 690901.700000
56.049500 1494131.100000
63.022900 2908033.000000
65.038600 60445828.000000
67.054200 291811.800000
68.049400 214703.500000
70.065100 13699791.000000
75.022800 255943.400000
77.038500 19949230.000000
78.046400 784168.400000
79.054200 29761882.000000
81.033500 1016257.800000
89.038600 3960483.200000
91.054200 197207008.000000
94.041300 323283.200000
95.049100 26395454.000000
101.038600 237615.800000
102.046400 2887336.500000
103.054200 25945832.000000
104.062000 268036.100000
105.044700 20040728.000000
105.069900 15854942.000000
114.046400 686190.800000
115.054200 117418560.000000
116.062000 4596606.000000
117.069900 18168658.000000
126.046400 3644146.000000
127.054200 10341935.000000
128.062000 60625076.000000
129.044600 1079986.800000
129.069800 7833319.000000
139.054100 2406500.200000
140.062100 260504.500000
141.069900 13069290.000000
143.073400 349430.500000
144.080800 359541.000000
145.064800 5777088.000000
150.046100 666802.600000
151.054200 974925.200000
152.062100 23812326.000000
153.069900 9871021.000000
154.077700 1764563.600000
155.060300 17777746.000000
158.096600 230068.900000
163.054600 1159565.100000
164.062000 2433133.000000
165.069900 44321488.000000
166.077400 212913.600000
168.057000 374242.900000
169.064700 1594407.900000
176.062100 8252060.500000
177.069900 8846299.000000
178.077700 79494472.000000
179.060200 351874.700000
179.085500 1811013.200000
187.053800 724806.200000
188.062000 1026599.800000
189.069900 86742776.000000
190.077700 22786208.000000
191.085500 30933626.000000
192.093200 868615.700000
200.061600 1391554.400000
201.069700 3281171.000000
202.077700 163219840.000000
203.085500 40924100.000000
204.093500 4109637.200000
205.064800 225263.600000
213.070100 225957.200000
215.085600 39346620.000000
216.093300 7016613.000000
217.101300 7763007.000000
219.080600 1395334.200000
228.093100 583180.000000
229.076100 847279.200000

>ms2peaks
50.015100 7604393.000000
51.022900 7341238.500000
53.002200 1450869.200000
53.038600 10096840.000000
54.033800 1335797.500000
55.017800 638785.700000
55.041600 1371228.100000
56.049500 710059.400000
61.007200 164504.900000
62.015000 1286900.100000
63.022900 8719396.000000
65.038600 83126776.000000
67.054200 287361.000000
68.049300 140477.000000
70.065100 4755823.000000
74.015100 322509.100000
75.022800 2683856.500000
76.030700 1214272.500000
77.038500 23657830.000000
78.046400 5140344.500000
79.054200 11784037.000000
81.033400 1234275.500000
81.069800 159305.400000
87.022900 845088.400000
88.030800 222790.900000
89.038500 14271955.000000
91.054200 108806912.000000
94.041300 576159.800000
95.049100 29026498.000000
101.038600 620358.900000
102.046400 8974951.000000
103.054200 9349093.000000
105.044700 20880794.000000
105.069800 2355860.000000
113.038500 952638.500000
114.046300 824855.100000
115.054200 97005472.000000
116.061900 2118804.800000
117.069700 1903100.100000
119.049400 599199.200000
125.038600 342221.200000
126.046400 7618508.000000
127.054200 8510506.000000
128.062000 59876548.000000
129.044600 1495189.000000
129.069800 1240227.200000
139.054200 8622725.000000
140.062200 596563.400000
141.069800 5068658.500000
143.073100 180551.000000
145.064800 3779949.000000
150.046500 2486083.200000
151.054100 3554669.200000
152.062000 42831408.000000
153.069900 4063332.000000
154.077700 167464.700000
155.060300 9243110.000000
162.046500 195025.300000
163.054100 6834938.500000
164.062000 7376088.000000
165.069900 41001796.000000
168.057000 2945644.000000
169.064700 8816351.000000
174.046300 591574.100000
175.053700 256293.200000
176.062000 24671912.000000
177.069800 15330997.000000
178.077600 28528738.000000
179.060300 3314282.500000
187.054100 2959045.200000
188.062000 4679621.000000
189.069800 92847088.000000
190.077600 7834665.500000
191.085400 5765994.000000
192.057000 834096.600000
193.064600 289281.500000
200.061900 13038165.000000
201.069800 16217743.000000
202.077600 137407872.000000
203.085600 4361227.000000
205.064800 3820212.800000
213.069800 5569424.500000
214.077400 2309783.200000
215.085500 41779760.000000
216.093200 974919.600000
217.101800 233699.500000
219.080400 6308012.500000
226.077500 339862.500000
229.076000 1573854.000000

>ms2peaks
50.015100 12196950.000000
51.022900 14032390.000000
53.002200 3598020.200000
53.038600 7108788.000000
53.997500 694338.100000
54.033900 2558777.200000
55.017900 247482.700000
55.041600 1179844.200000
56.049500 632568.600000
61.007300 1279666.800000
62.015100 4206475.500000
63.022900 21399468.000000
65.038600 83829992.000000
70.065100 1933502.100000
74.015000 2846096.200000
75.022900 6679038.000000
76.030700 3086766.800000
77.038500 17413118.000000
78.046400 9664790.000000
79.054200 3865520.200000
81.033500 1132166.800000
86.015100 856033.000000
87.022900 2773353.200000
88.030700 805678.200000
89.038600 25001516.000000
91.054200 47817304.000000
94.041300 178336.900000
95.049100 24152192.000000
98.015100 965551.125000
101.038600 668568.500000
102.046400 17723906.000000
103.054200 2754672.800000
105.044700 15469382.000000
113.038600 2448440.500000
114.046400 915948.400000
115.054200 67958880.000000
116.062200 859452.600000
119.049100 577632.900000
125.038600 991875.800000
126.046400 11413201.000000
127.054200 7212955.500000
128.062000 31906512.000000
129.044700 1673771.000000
139.054200 15367324.000000
140.062000 200394.400000
141.069600 1269632.500000
145.064800 3059144.500000
149.038500 952994.312500
150.046400 13430229.000000
151.054200 7990078.000000
152.062100 43085752.000000
153.070000 985419.200000
155.060400 6459479.500000
162.046500 1356864.600000
163.054200 24856372.000000
164.062000 9784123.000000
165.069900 19755686.000000
168.057100 3120676.500000
169.064800 16488779.000000
174.046300 2148102.000000
175.054100 1747423.500000
176.062100 33954148.000000
177.069900 6507884.500000
178.077700 6281185.000000
179.060300 6537792.500000
187.054200 15186151.000000
188.062000 9735412.000000
189.069900 64354424.000000
190.077800 1107644.500000
191.086000 239783.400000
192.057100 3255467.500000
193.065000 2673896.500000
196.051800 1123136.375000
199.054000 1321128.125000
200.062100 53137828.000000
201.069900 22137732.000000
202.077700 51033084.000000
205.064900 6174130.000000
213.069900 18490556.000000
214.077800 2907158.200000
215.085600 20012562.000000
219.080500 8862875.000000
220.051800 998038.000000
226.077700 288169.500000
229.075800 1368987.100000

