>compound EQ44744960
>parentmass 296.103
>ionization [M+H]+
>formula C16H13N3O3
>rt 456.000000
>profile orbitrap
#smiles_iso COC(=O)NC1=NC2=C(N1)C=C(C=C2)C(=O)C3=CC=CC=C3
#smiles_can COC(=O)NC1=NC2=C(N1)C=C(C=C2)C(=O)C3=CC=CC=C3
#inchikey OPXLLQIJSORQAM-UHFFFAOYSA-N
#pubchem_id 4030
#mb_accession EQ366801,EQ366802,EQ366803,EQ366804,EQ366805,EQ366806,EQ366807,EQ366808,EQ366809

>ms2
264.076700 51024876.000000
296.103100 962208448.000000

>ms2
77.038600 942548.200000
105.033100 1900185.600000
264.076900 707210816.000000
296.103100 426076800.000000

>ms2
77.038600 3029317.200000
95.049200 1712120.000000
105.033600 52808644.000000
159.041900 1336337.600000
186.030000 3447998.500000
236.081400 1033619.400000
264.076900 1032216832.000000
296.103300 18738538.000000

>ms2
50.015000 744819.900000
51.022800 881607.800000
53.038600 11248351.000000
55.017900 857245.100000
77.038500 23460904.000000
81.033500 998956.800000
94.041300 553593.400000
95.049200 32716672.000000
105.033600 324904384.000000
105.044700 20484018.000000
130.040000 617994.800000
159.042500 2992356.500000
160.050600 4185211.200000
166.065100 1387528.800000
167.073000 674092.800000
186.029900 20865644.000000
186.041100 5273005.500000
191.032700 602820.200000
208.087000 3858721.500000
236.082000 4138728.500000
246.066900 1026212.600000
264.076900 552687936.000000

>ms2
50.015100 2502896.800000
51.022800 2388529.500000
53.038600 39254488.000000
55.017900 2370717.500000
77.038600 72670136.000000
81.033500 4177369.800000
94.041300 1733310.900000
95.049200 110797800.000000
104.036900 449549.900000
105.033600 392634112.000000
105.044700 75099896.000000
106.041700 643084.500000
109.064800 425240.800000
130.040100 7374500.500000
131.024100 1671029.000000
131.047900 2373988.000000
132.055800 1266352.500000
139.054400 431300.500000
150.066300 871355.100000
156.080900 466400.700000
158.035100 1162635.800000
159.042800 15047185.000000
160.050700 7851233.000000
166.065300 8068583.000000
167.073200 1952532.800000
176.045500 1772416.400000
181.076100 2128995.200000
186.030000 21563190.000000
186.041200 19533208.000000
191.032700 5448084.500000
191.060200 1109356.000000
193.076200 642570.100000
194.060400 433783.200000
195.067900 562549.100000
208.087100 6527075.500000
209.071500 747684.200000
218.071600 640616.100000
219.079000 426291.800000
235.074400 435832.600000
236.082000 3692724.000000
246.066700 2343986.500000
264.077000 119124288.000000

>ms2
50.015100 4550340.500000
51.023000 3202702.200000
53.038600 55640492.000000
55.017900 3568094.800000
65.002300 222049.500000
68.997200 524293.400000
77.038600 109102592.000000
79.041700 523226.300000
81.033600 6824463.500000
94.041400 2676790.800000
95.049200 167025536.000000
103.029200 1076436.000000
103.041700 714439.700000
104.037000 5044445.500000
105.033600 204040448.000000
105.044800 117982256.000000
106.041600 696204.100000
108.020700 447038.300000
109.065000 802787.400000
115.029300 528465.400000
115.054400 637562.400000
121.039700 538251.100000
130.040200 22946774.000000
131.024100 5133094.500000
131.047900 13593946.000000
132.055700 3939564.200000
139.054400 2531137.800000
140.049600 1469318.600000
141.070100 731211.100000
145.039800 438146.400000
146.071300 236048.900000
147.079200 485503.200000
148.050700 460502.500000
150.066300 3105804.000000
154.065300 975816.400000
156.080800 964139.000000
158.035200 1767240.900000
159.042900 26746562.000000
160.050700 6278337.000000
160.061800 476383.200000
164.049500 503102.800000
166.065300 12530976.000000
167.073100 3195697.200000
174.030000 533227.100000
176.045500 1770249.100000
177.057400 220204.800000
181.076200 4634243.500000
182.060400 228676.900000
186.030000 7674708.500000
186.041100 18464068.000000
191.032700 9510584.000000
191.060500 1995616.800000
192.068400 845511.200000
195.068100 495937.400000
207.079400 722363.400000
208.087200 3393553.000000
209.071000 431386.800000
218.071300 405008.600000
219.079900 372397.300000
235.074300 558277.200000
236.081800 977787.700000
246.066900 1106656.800000
264.077100 10838345.000000

>ms2
50.015200 14790320.000000
51.023000 11495511.000000
52.018200 461797.900000
52.030800 153247.100000
53.038600 44392388.000000
55.017900 3400679.500000
63.022900 1068820.400000
64.018200 919068.400000
64.030800 217078.200000
65.002300 1026307.700000
65.026100 234191.300000
65.038600 226412.700000
66.010100 145785.400000
66.046400 197717.600000
67.041700 727596.400000
67.054300 444760.800000
68.049500 135244.500000
68.997200 440958.300000
69.008400 205727.800000
75.022900 411859.500000
76.018200 4616487.500000
77.026000 19169928.000000
77.038600 95932224.000000
78.033900 4452394.500000
79.041700 2571617.200000
80.036900 763023.900000
81.033500 5463212.500000
89.026200 373129.700000
90.033900 866226.800000
91.041700 752199.800000
91.054300 399161.500000
92.049400 171064.300000
94.028900 212906.500000
94.041400 2315775.200000
95.049200 132844720.000000
96.044500 529138.100000
102.033900 181409.300000
103.029200 7385885.500000
103.041700 1444014.600000
104.037000 30989188.000000
105.033600 23210476.000000
105.044800 116989464.000000
106.028900 188499.400000
109.064900 582016.800000
113.038600 405922.200000
115.029300 421379.600000
115.054400 2699421.000000
116.037100 1360640.400000
116.049500 203642.700000
118.052700 480366.100000
119.060400 402199.800000
120.031900 545335.900000
121.039700 1895017.100000
122.047500 152220.600000
127.054500 684049.500000
128.049500 233940.200000
128.062200 627734.900000
130.040100 27309032.000000
131.024200 5141717.500000
131.047900 23337948.000000
132.055800 2992214.500000
136.026900 1654490.200000
139.054300 6061767.000000
140.049600 5923117.500000
141.070100 487601.800000
145.051100 190758.000000
145.064700 743004.300000
146.071400 201847.200000
148.050600 519375.900000
150.066400 2194655.800000
152.062300 206470.900000
153.057400 632045.200000
154.065300 1477935.200000
155.060500 1513954.400000
156.080800 686225.800000
158.035300 499761.900000
159.042900 12935987.000000
160.050900 871063.900000
160.061900 191442.100000
164.049700 1857154.600000
165.044800 165016.900000
165.057400 162015.100000
166.065300 5442697.000000
167.073100 2156887.200000
169.065000 430886.800000
174.029900 602980.900000
177.057300 499280.900000
179.060600 679478.900000
181.076100 1807286.000000
182.060200 170558.100000
186.029600 167117.800000
186.041400 1904652.100000
191.032700 4299466.500000
191.060300 859495.700000
192.068300 746888.100000
193.075900 141337.300000

>ms2
50.015200 34929944.000000
51.023000 29372696.000000
52.018200 2072194.100000
52.030800 483279.000000
53.038600 26027664.000000
53.997500 372617.300000
54.033900 220291.000000
55.017900 1856211.800000
55.029100 196105.400000
62.015100 1556412.900000
63.023000 4841532.000000
64.018200 2739856.500000
64.030800 1402288.600000
65.002200 2313973.000000
65.026000 960238.400000
65.038700 1036167.900000
66.010100 450386.500000
66.046400 370197.900000
67.041700 2527533.800000
67.054300 368474.200000
68.025700 112192.200000
68.049500 349647.700000
68.997200 134725.200000
69.008400 1697696.500000
74.015100 114896.600000
75.010400 655817.400000
75.023000 984571.100000
76.018200 18181784.000000
77.026000 47783996.000000
77.038600 64314064.000000
78.033900 14605291.000000
79.041700 2236935.000000
80.037000 458126.400000
81.033600 2865597.500000
87.023000 121275.800000
88.018200 575048.800000
89.026100 1000012.200000
89.038700 1687484.800000
90.034000 2188360.000000
91.041800 1322160.800000
91.054200 588432.600000
92.049600 170611.100000
93.069600 135328.100000
94.028900 552911.600000
94.041500 1344094.900000
95.049200 73410848.000000
96.044500 1735707.800000
102.033800 490278.400000
102.046800 98953.900000
103.029200 8781582.000000
103.041700 560077.600000
104.037000 24647944.000000
105.044800 77656320.000000
109.065000 342116.500000
113.038600 1673749.500000
114.033900 123663.900000
115.054300 3860658.200000
116.037000 1281439.100000
116.049500 144795.900000
117.045000 169273.600000
118.052800 171128.500000
119.060400 177039.400000
120.032100 203393.700000
121.039800 2154213.000000
122.047600 198879.500000
125.038700 381556.300000
126.046500 513784.000000
127.054300 1257318.600000
128.049300 377251.000000
128.062200 1181535.400000
129.044700 396576.400000
130.040200 9941144.000000
131.024100 1205788.100000
131.048000 7624621.500000
132.055700 601236.100000
135.055300 164500.900000
136.026900 1990498.500000
137.038500 115248.400000
138.046400 169640.600000
139.054400 6060777.000000
140.049600 5603292.500000
145.051100 199777.500000
145.064900 597409.700000
146.060200 174791.000000
150.046500 621244.000000
150.066200 197064.800000
151.054400 106209.100000
153.057300 1017044.800000
154.065100 574449.100000
155.060600 2126523.800000
158.035000 371142.500000
159.042900 1729510.900000
164.049600 1561664.900000
165.044700 210778.800000
165.057300 134138.800000
166.065300 1409730.600000
167.073200 821573.900000
169.064900 153272.900000
174.029800 83250.400000
177.057400 210912.800000
179.060500 162225.700000
181.075900 113204.200000
191.032700 880603.400000
191.060300 351633.700000
192.068200 176881.800000

>ms2
50.015200 48041676.000000
51.023000 56450240.000000
52.018300 4405172.000000
52.030800 958536.100000
53.002300 833796.000000
53.026100 687632.812500
53.038600 11228890.000000
53.997500 564349.400000
54.033900 951397.200000
55.017900 1282323.100000
55.029000 142378.300000
61.007400 652992.875000
62.015200 3088513.000000
63.023000 9807419.000000
64.018200 5072913.000000
64.030800 1189048.400000
65.002200 4211418.500000
65.026000 1360576.900000
65.038600 1712696.500000
66.010100 878203.600000
67.041700 2095369.800000
67.054300 181111.000000
68.025700 195376.900000
68.049500 128997.200000
69.008400 3983349.000000
74.015100 655561.400000
75.010400 1969135.400000
75.023000 1576086.400000
76.018200 30148212.000000
77.026000 37430776.000000
77.038600 30168728.000000
78.033900 18100308.000000
79.041700 976309.800000
81.033600 1583056.400000
87.022900 761494.200000
88.018300 681191.600000
89.026100 674414.700000
89.038600 2661335.200000
90.034000 2219630.500000
91.041800 723264.600000
91.054300 504235.000000
94.028800 334105.900000
94.041400 502561.800000
95.049200 29215150.000000
96.044500 1733192.800000
102.033800 166225.300000
102.046500 398862.500000
103.029200 3947934.800000
104.037000 7448142.500000
105.044800 32491936.000000
113.038600 2764699.800000
114.034000 549878.300000
115.054300 2324351.000000
116.037000 391709.800000
120.031800 100122.600000
121.039900 867390.800000
125.038800 167946.300000
126.046500 1432721.800000
127.054300 534744.100000
128.062100 879419.600000
129.044800 455356.500000
130.040200 2379693.500000
131.048000 1021519.100000
136.026900 919136.400000
137.038700 453211.000000
138.046700 179878.300000
139.054400 4159183.500000
140.049600 2763859.000000
145.064900 165956.100000
150.046500 437369.100000
153.057400 456792.000000
155.060600 715291.600000
158.034800 103826.100000
164.049700 990394.300000
166.065500 199847.800000

