>compound EQ44388629
>parentmass 251.1543
>ionization [M+H]+
>formula C17H18N2
>rt 402.000000
>profile orbitrap
#smiles_iso C1CN2C(CN1)C3=CC=CC=C3CC4=CC=CC=C42
#smiles_can C1CN2C(CN1)C3=CC=CC=C3CC4=CC=CC=C42
#inchikey ZBILSSSEXRZGKS-UHFFFAOYSA-N
#pubchem_id 115194
#mb_accession EQ327701,EQ327702,EQ327703,EQ327704,EQ327705,EQ327706,EQ327707,EQ327708,EQ327709

>ms2peaks
118.064900 7999224.500000
120.080700 3685402.800000
132.080600 5671001.000000
134.096300 3790584.800000
144.080600 2521193.800000
147.091500 2880640.200000
208.112100 37308188.000000
234.127800 5969755.000000
249.138300 4405778.500000
251.154000 1886593152.000000

>ms2peaks
71.060300 5332591.000000
105.069800 1362896.000000
106.064900 2224708.200000
117.069700 2009112.400000
118.065000 50890264.000000
120.080700 34140228.000000
130.064700 1697721.600000
132.080700 48989008.000000
134.096300 19228376.000000
144.080700 16208662.000000
146.096500 1386937.900000
147.091600 25078724.000000
158.096300 13161974.000000
160.099400 1788541.500000
179.085600 5496987.000000
194.095900 1854275.800000
196.111900 6805085.500000
205.088200 2531711.500000
206.096200 2372132.500000
208.112000 259298528.000000
220.112300 1908897.200000
222.127500 3445083.800000
223.123100 2408811.500000
234.127600 38411976.000000
249.138600 18360454.000000
251.154100 1297092224.000000

>ms2peaks
56.049400 8289827.500000
58.065100 1411970.100000
71.060300 10459585.000000
77.038300 1139353.200000
83.060300 865379.500000
84.068000 747437.400000
91.054100 20408076.000000
92.049300 702038.900000
93.057200 938663.800000
93.069800 824829.100000
103.054200 2223276.800000
105.069800 18050386.000000
106.065000 8486065.000000
115.054100 5414711.000000
116.061900 792630.600000
117.057200 2390905.200000
117.069800 13796100.000000
118.065000 143271120.000000
119.073000 2913023.800000
119.085400 2564222.800000
120.080700 150990608.000000
122.096300 1138066.100000
129.069800 10634400.000000
130.065100 14986629.000000
131.072800 1613052.400000
131.085500 729406.100000
132.080700 142455472.000000
134.096300 19763326.000000
143.072800 2461352.000000
144.080700 29343474.000000
145.076000 2461590.800000
145.088500 4568643.500000
146.096300 8636672.000000
147.091600 67586128.000000
156.080700 2353333.200000
158.096300 33715248.000000
159.091900 1888508.500000
160.099400 7702244.500000
178.077300 3074092.800000
179.085400 11004656.000000
181.101200 1400610.100000
191.085100 1865646.200000
193.088300 8501955.000000
193.101300 1197712.200000
194.096300 8720127.000000
196.112000 21033696.000000
204.081000 2639158.500000
205.088500 6952554.500000
206.096400 9007625.000000
207.104100 2375703.500000
208.112000 537488512.000000
217.101100 997261.400000
218.096000 2817158.800000
219.104200 7089405.000000
220.112000 6968724.500000
222.127600 17950760.000000
223.122800 7491710.500000
232.111900 3708948.500000
234.127600 49285588.000000
249.138500 33973188.000000
251.154100 324919456.000000

>ms2peaks
51.022800 770090.200000
56.049400 11314852.000000
58.065100 1802795.100000
65.038400 1217316.500000
68.013100 987030.200000
71.060300 9133176.000000
77.038300 2224168.800000
78.046300 768814.100000
79.054200 3552995.000000
80.049400 367282.700000
83.060200 800583.200000
84.068100 1056634.900000
91.054200 63890724.000000
92.049400 5221958.500000
93.057300 3623395.800000
93.069800 3955253.800000
94.065100 1523449.500000
95.049100 2119598.200000
103.054100 12880843.000000
104.049400 1629074.600000
105.069800 33042212.000000
106.065100 15445689.000000
107.072800 1026856.200000
109.064800 876865.300000
115.054200 23305268.000000
116.049300 2518322.200000
116.062000 3807725.200000
117.057200 8653835.000000
117.069800 24196606.000000
118.065000 159469056.000000
119.060300 832133.100000
119.072900 5330697.000000
119.085500 1787506.200000
120.080700 159299296.000000
128.061700 1621105.500000
129.069800 16584289.000000
130.065100 34867028.000000
131.060200 365660.000000
131.072900 4276037.500000
131.085500 2195994.200000
132.080700 117307616.000000
133.088400 727113.500000
134.096300 6915021.000000
141.069700 1442861.400000
142.065000 901654.800000
143.072900 8061971.000000
144.080700 22819292.000000
145.076100 2802683.000000
145.088500 3527478.500000
146.096300 12391153.000000
147.091600 57294628.000000
156.080600 1820821.900000
157.088600 319179.500000
158.096300 19364514.000000
159.091600 2941487.800000
160.099400 6028708.000000
165.069900 925584.900000
166.077700 1812451.400000
167.085600 746559.900000
178.077600 5618937.000000
179.085400 14591032.000000
180.080600 1136087.800000
181.101000 7014471.500000
191.085300 1855045.100000
192.080400 815391.000000
192.093300 639987.600000
193.088500 50505900.000000
194.096300 12035461.000000
196.111900 11068696.000000
202.077700 834299.100000
203.085400 803313.600000
204.080700 6431220.000000
205.088500 5420627.500000
206.096400 12060992.000000
207.104300 6003149.000000
208.112000 302497984.000000
217.088500 1115098.100000
217.100900 785529.400000
218.096300 7766494.500000
219.104200 8444483.000000
220.112000 6541171.000000
221.107200 1153921.200000
222.127600 9495570.000000
223.122900 2518130.200000
232.111900 4577206.500000
233.119700 360595.900000
234.127500 12187918.000000
235.123000 383684.800000
249.138500 17099590.000000
251.154100 25972810.000000

>ms2peaks
50.014900 750762.400000
51.022800 1019501.900000
53.038600 3154725.800000
54.033800 363250.900000
56.049400 10571107.000000
58.065100 1926173.600000
63.022600 255471.600000
65.038500 5597880.000000
67.054200 254281.700000
68.049400 328790.200000
71.060300 8846284.000000
77.038400 6233469.500000
78.046300 2027312.400000
79.054100 11725902.000000
80.049400 1987946.600000
83.060200 1129456.100000
84.068100 1016051.700000
89.038500 389668.400000
90.046300 394167.700000
91.054200 121609504.000000
92.049400 13345295.000000
93.057300 10100284.000000
93.069900 8889717.000000
94.041000 236945.300000
94.065100 3186864.500000
95.049100 9945499.000000
102.046300 277672.400000
103.054200 32844078.000000
104.049400 3143242.000000
104.061900 270123.300000
105.044700 4031921.800000
105.069800 38936072.000000
106.065100 22967966.000000
107.072800 1448200.600000
109.064600 1245033.200000
110.060100 656019.900000
115.054200 49969748.000000
116.049400 6050001.500000
116.062000 10509596.000000
117.057200 23431250.000000
117.069800 25948862.000000
118.065000 163694176.000000
119.060400 1865089.200000
119.072900 7895437.500000
119.085500 2198031.500000
120.080700 117195024.000000
127.054100 187235.000000
128.049300 1126434.400000
128.062000 5468066.500000
129.069800 17759328.000000
130.065100 54738260.000000
131.060400 1188322.200000
131.072900 6922962.500000
131.085500 2601419.200000
132.080700 84655152.000000
133.075900 326346.200000
133.088600 302242.800000
134.060000 892898.000000
134.096400 2375352.000000
141.069700 2453989.200000
142.065000 1255585.200000
143.072800 11305929.000000
144.080700 18482238.000000
145.064700 962337.800000
145.075900 2975848.000000
145.088600 2189130.800000
146.059900 637070.700000
146.096300 9562415.000000
147.091600 40990276.000000
152.061500 265771.400000
153.069600 383587.100000
155.060200 1290348.000000
156.080700 1819124.600000
157.088400 1162800.800000
158.096400 9134742.000000
159.091500 2489638.800000
160.099400 2736491.800000
165.069600 3677019.000000
166.077600 8277579.000000
167.072800 1177699.600000
167.085300 2192419.000000
168.080600 250921.700000
177.069400 416783.300000
178.077600 14865987.000000
179.085400 13604088.000000
180.080700 2853171.000000
180.093300 259705.900000
181.088400 1179974.100000
181.101000 9967713.000000
190.077500 746641.800000
191.072300 311226.300000
191.085500 3198922.200000
192.080400 2137890.800000
192.093100 1168628.000000
193.088500 100336032.000000
194.096400 8928988.000000
196.111900 3300866.000000
202.077900 1401678.800000
203.085300 843302.100000
204.080800 11384933.000000
205.088400 3982358.800000
206.096400 15017515.000000
207.104200 11466075.000000
208.112000 109291448.000000
210.127300 175035.400000
217.088800 3165240.800000
218.096400 13624682.000000
219.104100 5053134.500000
220.112000 4410684.000000
221.107400 2519209.500000
222.127500 2977371.800000
223.122600 303026.800000
230.097100 284137.600000
232.111700 2697512.800000
233.107400 344605.900000
233.118800 271231.300000
234.115600 398177.100000
234.127300 2977788.000000
235.122900 727468.800000
249.138600 4571026.000000
251.153900 1331851.900000

>ms2peaks
50.015000 1234810.400000
51.022700 1840464.400000
53.038600 5991221.500000
54.033700 667819.000000
56.049400 7695818.500000
58.065100 892268.500000
63.022700 707576.500000
65.038500 15590849.000000
66.046300 283671.300000
67.054200 702158.800000
68.013300 818347.600000
68.049400 340363.700000
71.060300 5676220.500000
77.038400 14162317.000000
78.046300 4029559.200000
79.054100 18961548.000000
80.049300 2116728.500000
81.033500 327057.000000
83.060300 708489.400000
84.068100 895894.800000
89.038400 3026894.500000
90.046400 1627403.000000
91.054200 176648800.000000
92.049400 16197452.000000
92.062000 1197170.100000
93.057200 11885410.000000
93.069800 8174858.500000
94.065100 4845576.500000
95.049000 25669210.000000
96.044400 236839.200000
102.046300 860643.400000
103.054100 46634944.000000
104.049400 3901591.800000
104.061900 684986.600000
105.044700 12648951.000000
105.069800 36112624.000000
106.065000 26868110.000000
107.072800 1001312.400000
109.064700 1782258.800000
110.059900 376760.400000
115.054100 72120680.000000
116.049400 10336812.000000
116.061900 14498443.000000
117.057200 38958284.000000
117.069700 20466526.000000
118.065000 127717576.000000
119.060200 1915064.100000
119.072800 6943904.000000
119.085200 1360907.000000
120.080700 57460748.000000
127.054300 221266.700000
128.049400 1846875.500000
128.061900 10967891.000000
129.069700 10656823.000000
130.065100 55959628.000000
131.060400 1609227.200000
131.072800 7994489.500000
131.085400 1006602.200000
132.068100 4098140.500000
132.080600 47053856.000000
133.076100 193181.200000
134.060100 1423106.900000
134.096300 386013.400000
141.069700 3164373.000000
142.065000 1198074.800000
143.072800 12793136.000000
144.080600 14240790.000000
145.064900 1184339.500000
145.075900 2524935.800000
145.088300 388735.200000
146.059600 1246394.500000
146.096200 4136381.000000
147.091500 18634780.000000
152.061800 1902163.500000
153.069600 1555701.900000
154.064900 342310.100000
155.060200 2165174.500000
156.080700 1497618.200000
157.088500 1455660.200000
158.096300 3724929.500000
159.091500 2485818.200000
160.099400 864807.800000
165.069700 11681823.000000
166.077600 12155496.000000
167.073200 1587843.100000
167.085300 1650774.600000
168.080700 321420.000000
169.064300 178606.000000
176.061800 269549.100000
177.069700 1151619.500000
178.077500 23482560.000000
179.085300 9573550.000000
180.080600 3877859.500000
180.092900 295168.900000
181.088400 409313.100000
181.100900 4234041.500000
189.069900 1451592.500000
190.077700 1327091.500000
191.072400 1034441.000000
191.085200 3723337.500000
192.080500 8410371.000000
192.093400 876019.700000
193.088500 112558224.000000
194.096300 5750330.500000
196.112100 378140.900000
202.077700 2044107.600000
203.085000 952555.200000
204.080700 14598860.000000
205.088700 2705393.200000
206.096300 16577482.000000
207.104200 9726865.000000
208.111900 22079260.000000
216.080800 266215.000000
217.088400 6120700.000000
218.096300 14092359.000000
219.091100 865551.500000
219.103900 2527862.800000
220.111900 2290034.800000
221.107300 1213566.800000
222.127500 696357.300000
230.095900 269422.500000
232.111500 1286715.800000
233.107200 893306.300000
234.114500 371046.600000
235.122500 341876.800000
249.138300 789119.000000

>ms2peaks
50.015100 4738612.500000
51.022900 4898665.000000
53.038600 13320187.000000
54.033800 665860.500000
55.017800 736040.100000
56.049500 3309563.500000
58.065100 379379.900000
62.015000 265541.600000
63.022800 2417389.500000
65.038500 60815672.000000
66.046400 2960682.800000
67.054200 389379.800000
68.049400 314740.800000
71.060300 3675549.200000
75.022900 314424.000000
77.038500 29514168.000000
78.033700 669645.700000
78.046300 8250304.500000
79.054200 21083562.000000
80.049400 2203217.200000
81.033400 1979170.900000
83.060300 904000.800000
84.068000 235798.400000
89.038500 19230938.000000
90.046400 16512193.000000
91.054200 200300704.000000
92.049400 7466588.500000
92.062000 922084.500000
93.057300 14763553.000000
93.069800 2283041.800000
94.041300 1010791.500000
94.065000 2687994.500000
95.049100 49739888.000000
96.044300 1162504.800000
102.046400 2788150.000000
103.054200 42016760.000000
104.049400 5108556.000000
104.062100 889568.100000
105.044700 27694756.000000
105.069800 19096064.000000
106.065100 15211123.000000
109.064800 366211.600000
114.046600 203859.200000
115.054200 84706256.000000
116.049400 7720649.500000
116.062000 11567536.000000
117.057200 55115724.000000
117.069700 5711361.000000
118.065000 49722592.000000
119.060300 778074.600000
119.072900 3522714.800000
119.085400 253700.600000
120.080700 7477788.500000
126.046300 339799.700000
127.054200 1234311.100000
128.049400 3735659.200000
128.062000 16724037.000000
129.044700 915852.600000
129.057300 871927.200000
129.069800 2439139.800000
130.065100 43416608.000000
131.060300 2680159.000000
131.072900 4063577.500000
132.068200 2488250.500000
132.080700 8618649.000000
134.059900 694483.700000
139.054300 245773.800000
140.049600 378319.300000
140.061800 201957.400000
141.069700 2482415.500000
142.065100 2252178.800000
143.072900 5467908.500000
144.080700 4949891.000000
145.064800 1647868.800000
145.076000 881478.700000
146.060100 1732759.600000
146.096200 348232.200000
147.091600 2129279.500000
151.054200 299757.900000
152.062000 7492069.500000
153.069700 2091099.600000
154.064700 338798.200000
155.060200 3057561.800000
156.080700 859504.900000
159.091500 702845.600000
164.062000 858751.100000
165.069800 48950376.000000
166.065300 796726.400000
166.077600 6814787.500000
167.072900 3788119.200000
167.085100 270908.000000
168.081100 256060.600000
169.064500 1356514.200000
176.062000 5415632.000000
177.057800 287236.400000
177.069700 5273713.000000
178.077600 33014430.000000
179.073300 1321689.800000
179.085400 5290404.000000
180.080600 4027015.200000
189.069700 4392259.000000
190.064900 1001517.300000
190.077500 1311526.400000
191.072900 4768514.000000
191.085300 2933486.800000
192.080600 17802554.000000
193.088500 38533116.000000
194.096300 1329373.500000
202.077400 2116797.000000
203.072400 916362.000000
203.086000 253743.700000
204.080700 13447949.000000
205.075900 308987.300000
205.088300 1198103.200000
206.096400 10375536.000000
207.104200 2230684.500000
208.112300 213696.800000
216.080700 2833354.200000
217.088500 12251461.000000
218.084800 565398.400000
218.096200 3764574.500000
219.091600 1002610.900000
219.104000 208271.300000
220.112100 366703.300000
230.096200 270682.500000
233.107100 323723.300000

>ms2peaks
50.015100 12612994.000000
51.022900 14550516.000000
53.002200 1028499.800000
53.038600 14078812.000000
54.033800 718199.600000
56.049400 1508308.900000
61.007200 184803.200000
62.015100 1011301.700000
63.022900 10225328.000000
64.030700 1089208.100000
65.038500 95149936.000000
66.046400 6126196.000000
67.041600 377068.200000
67.054100 394843.800000
68.049400 173067.300000
71.060300 2435999.500000
74.014900 236845.600000
75.022800 2001336.000000
76.030600 386755.600000
77.038500 34721596.000000
78.033800 741372.200000
78.046300 8397401.000000
79.054200 12450758.000000
80.049400 1638338.200000
81.033500 1840300.900000
83.060300 872947.900000
87.022700 251424.400000
89.038500 50222216.000000
90.046400 24901674.000000
91.054200 135786704.000000
92.049400 3366754.500000
93.057300 8873862.000000
94.041200 644988.900000
94.065000 334314.300000
95.049100 57769408.000000
96.044300 736525.700000
101.038600 658900.200000
102.046400 4645191.000000
103.054200 25307672.000000
104.049400 4606402.000000
104.062100 625457.800000
105.044700 30023458.000000
105.069800 5859770.000000
106.065100 5167145.000000
109.064800 208385.100000
113.038400 305536.000000
115.054200 72183688.000000
116.049400 4627584.000000
116.061900 3218005.800000
117.057200 37248948.000000
118.065000 15951233.000000
119.049300 157413.400000
119.060500 156315.000000
119.073000 733426.800000
120.080600 868446.300000
126.046400 1560385.100000
127.054200 1583762.000000
128.049500 3496014.000000
128.062000 12075858.000000
129.044600 1804395.500000
129.057200 704924.900000
129.069700 661659.900000
130.065100 23036950.000000
131.060400 2447408.800000
131.072900 996113.800000
132.068300 603487.200000
132.080500 1213299.600000
134.060100 244377.700000
139.054100 3129472.000000
140.049600 1578202.200000
140.061900 326674.200000
141.057100 349510.700000
141.069600 1008014.900000
142.065100 1415657.800000
143.073100 1253123.900000
144.080700 1047384.100000
145.064700 1430373.100000
145.075900 227970.700000
146.060000 1383603.000000
150.046100 1327619.100000
151.054100 2102501.000000
152.062000 17226458.000000
153.057300 361829.900000
153.069800 1389425.600000
154.065000 642733.200000
155.060400 2194525.800000
156.080500 366685.800000
163.054100 2276421.200000
164.062000 4643390.000000
165.069900 58557144.000000
166.065100 1725154.400000
166.077600 940417.800000
167.072800 2579156.000000
168.056900 1496026.100000
169.064700 5504292.000000
175.054200 184518.500000
176.062000 14133392.000000
177.057200 1095415.400000
177.069800 7910673.500000
178.066300 1621969.500000
178.077600 23030922.000000
179.060500 1648430.400000
179.072800 1322889.800000
179.085600 1024610.400000
180.080600 2185523.200000
189.069800 8167971.500000
190.065000 3634316.500000
190.077900 619517.800000
191.072800 7076363.000000
191.085600 900914.100000
192.080700 5926381.000000
193.088500 4752077.000000
200.061800 593461.600000
201.057000 266946.800000
201.069700 231402.800000
202.077500 1722434.800000
203.072700 1431481.900000
203.086200 190722.600000
204.080800 8734018.000000
205.075500 206852.400000
205.088700 600226.200000
206.096600 2302572.200000
214.064700 164830.100000
215.072500 233778.400000
216.080800 6986736.000000
217.088500 5030125.000000
218.084100 383252.200000
218.096200 355096.600000
219.091600 755111.800000

>ms2peaks
50.015100 20842314.000000
51.022900 29884796.000000
53.002200 2925206.000000
53.038600 10103404.000000
54.033800 612371.200000
55.017800 897156.300000
56.049500 843514.800000
61.007200 899478.400000
62.015100 3658862.200000
63.022900 23751648.000000
64.030700 2191525.200000
65.038600 93788560.000000
66.046400 5183211.000000
67.041600 879719.900000
67.054200 334002.500000
71.060300 692307.500000
74.015000 1550189.800000
75.022800 4938886.500000
76.030600 1519829.100000
77.038500 27532540.000000
78.033700 1110052.600000
78.046400 8254927.000000
79.054200 5272125.000000
80.049400 966664.100000
81.033500 1265656.200000
83.060300 296393.300000
87.022900 954120.500000
89.038600 63587144.000000
90.046400 17960172.000000
91.054200 64137124.000000
92.049400 1987065.500000
93.057300 3787959.500000
94.041200 838636.900000
95.049100 42583932.000000
96.044300 875449.500000
101.038500 664245.000000
102.046400 6841401.000000
103.054200 12507734.000000
104.049400 2892519.800000
105.044700 21358762.000000
105.069900 1136932.400000
106.065100 1531225.000000
109.065000 169093.500000
113.038600 878591.000000
114.046300 259187.000000
115.054200 52648432.000000
116.049400 1789292.400000
116.061900 702658.100000
117.057200 13710554.000000
118.065100 4955151.000000
119.049000 343191.900000
126.046400 3856941.000000
127.054100 1757451.800000
128.049400 1706788.600000
128.062000 8609166.000000
129.044600 1390652.900000
129.057100 227154.200000
130.065100 8838832.000000
131.060500 1799206.800000
139.054200 9232976.000000
140.049500 2038064.400000
140.062000 318918.300000
141.057100 658461.200000
141.069800 384901.000000
142.065000 387547.700000
143.072800 311316.500000
144.080400 161877.100000
145.064600 967036.400000
146.060000 573063.600000
150.046400 6674703.500000
151.054300 2946988.500000
152.062000 16622897.000000
153.056900 208388.200000
153.069800 308183.700000
154.065100 356179.600000
155.060300 1976244.100000
163.054200 9468612.000000
164.062000 7935265.500000
165.069900 32565782.000000
166.065100 1581281.800000
167.072800 675200.200000
168.056800 3010080.200000
169.064800 9920501.000000
175.054500 330981.100000
176.062000 17435874.000000
177.057900 1346245.100000
177.069900 4751045.000000
178.064900 1018326.688000
178.077700 8827326.000000
179.060400 2638123.000000
179.072800 259017.100000
180.080700 684823.000000
187.054000 1330362.125000
188.062000 1024193.000000
189.069900 7427911.500000
190.065100 5668744.000000
191.072900 3811256.000000
192.080500 939684.800000
196.052100 1151534.750000
200.062000 1017871.800000
201.057300 301393.900000
201.069100 179908.300000
202.077600 1057704.100000
203.072600 1612742.500000
204.080800 4587427.000000
205.075800 217416.600000
214.065000 1386808.100000
215.072800 864035.600000
216.080700 3816608.200000
217.088300 771380.200000
218.084400 193180.400000

