>compound EQ46123091
>parentmass 284.0716
>ionization [M+H]+
>formula C13H15Cl2N3
>rt 762.000000
>profile orbitrap
#smiles_iso CCCC(CN1C=NC=N1)C2=C(C=C(C=C2)Cl)Cl
#smiles_can CCCC(CN1C=NC=N1)C2=C(C=C(C=C2)Cl)Cl
#inchikey WKBPZYKAUNRMKP-UHFFFAOYSA-N
#pubchem_id 91693
#mb_accession EQ310701,EQ310702,EQ310703,EQ310704,EQ310705,EQ310706,EQ310707,EQ310708,EQ310709

>ms2
70.039900 459197664.000000
158.976000 47942076.000000
172.991900 32616836.000000
215.038800 15054956.000000
284.071400 966341184.000000

>ms2
70.039900 900533888.000000
158.976200 294397824.000000
172.991900 102556760.000000
215.038900 7725399.500000
284.071600 96054312.000000

>ms2
69.069800 1161269.600000
70.039900 804074752.000000
137.015300 5513492.500000
158.976200 534041440.000000
172.991900 94247720.000000

>ms2
70.039900 634249664.000000
89.038400 991856.400000
98.999600 735495.500000
102.046300 5205771.000000
122.999600 5673594.000000
124.007200 1075398.100000
129.044700 976780.900000
137.015300 23711080.000000
138.023000 1717847.900000
158.976200 590403456.000000
172.991900 49742644.000000

>ms2
69.069800 649334.100000
70.039900 605472512.000000
72.983700 1281450.800000
89.038400 3600605.000000
91.054200 799036.800000
98.999500 5572092.500000
101.038600 698867.400000
102.046400 20694456.000000
119.049100 1112375.100000
122.999500 43154300.000000
124.007400 11414335.000000
129.044600 5165831.000000
132.960500 4185601.800000
137.015200 35961948.000000
138.023100 3942191.800000
158.976200 637308224.000000
172.991900 17149860.000000

>ms2
63.022900 965341.900000
65.038500 691981.600000
70.039900 526061856.000000
72.983800 4077533.200000
74.999500 685931.200000
75.022800 2114453.000000
77.038500 933645.700000
89.038500 24509648.000000
91.054100 1612741.900000
96.983900 2203262.500000
98.999500 29312130.000000
101.038500 2600136.200000
102.046400 34141428.000000
103.054100 1311504.600000
119.049100 3970917.200000
122.999500 129052656.000000
124.007400 45019596.000000
129.044600 14195747.000000
132.960600 17722956.000000
137.015200 18094590.000000
138.023000 4789901.000000
158.976200 534218880.000000
172.991800 3846104.000000

>ms2
50.015000 676750.600000
62.015000 2580525.800000
63.022900 12355039.000000
65.038500 1102818.900000
70.039900 335224480.000000
72.983900 44110748.000000
74.015000 799172.600000
74.999500 2932160.000000
75.022900 16548144.000000
76.030700 1126742.900000
77.038400 1814251.800000
82.944900 2326426.500000
87.022800 1672965.900000
88.030700 6933573.500000
89.038500 175797008.000000
91.054100 1152652.200000
95.049200 564369.200000
96.983900 18134852.000000
98.999600 80809544.000000
100.007400 700459.200000
101.038500 5059991.000000
102.046400 36192788.000000
103.054200 4089323.000000
105.044700 368483.700000
106.944900 1231140.900000
108.960700 1198191.800000
119.049200 4373224.500000
120.020700 837076.900000
122.999500 195386688.000000
124.007400 72182648.000000
129.044600 13013517.000000
132.960600 39555092.000000
137.015200 1932470.800000
138.022900 1473535.900000
139.005600 1011233.600000
158.976200 137249632.000000

>ms2
50.015100 1669848.100000
51.022900 699403.800000
53.002200 760998.000000
61.007200 2056175.500000
62.015100 15303796.000000
63.022900 45795980.000000
64.030800 656600.900000
65.038600 636672.300000
70.039900 176614864.000000
72.983900 117642928.000000
74.015000 3784443.500000
74.999500 2956719.800000
75.022900 34440948.000000
76.030700 5572804.500000
77.038500 1151146.500000
79.017800 829030.300000
82.944900 9824324.000000
84.984000 541405.600000
86.015000 1005921.100000
87.022900 4546747.000000
88.030700 16301696.000000
89.038500 270879616.000000
91.054200 319411.100000
95.049200 1552533.900000
96.984000 38620860.000000
98.999600 62505392.000000
101.038500 2210044.500000
102.046400 26364118.000000
103.054100 4214759.500000
105.044800 881716.700000
106.944900 2874616.800000
108.960600 1228895.800000
115.054300 285738.300000
119.049100 1771715.800000
120.020500 2039768.200000
122.999600 86036056.000000
124.007400 22139162.000000
129.044600 3788347.200000
132.960600 22859526.000000
158.976300 12832362.000000

>ms2
50.015100 3522763.500000
51.022900 2073811.500000
53.002200 1937807.100000
61.007300 6457651.000000
62.015100 37226116.000000
63.022900 86874568.000000
64.030700 990699.100000
65.038600 317918.800000
66.046400 246558.600000
70.040000 71314456.000000
71.976100 584034.100000
72.983900 128805760.000000
74.015000 12675217.000000
75.022900 32049764.000000
76.030700 8792461.000000
77.038500 1169456.600000
79.017800 1219665.100000
81.033500 303504.300000
82.944900 13661424.000000
83.976200 308809.000000
84.983900 851956.800000
86.015000 2639974.500000
87.022900 6044447.500000
88.030700 14218851.000000
89.038500 199044336.000000
96.984000 28884134.000000
98.999600 22060368.000000
101.038600 833445.800000
102.046400 13141048.000000
103.054300 1180561.800000
105.044700 1568457.400000
106.944900 3560489.800000
108.960500 517498.100000
115.054100 287991.100000
119.049100 299987.700000
120.020600 1648541.500000
122.999600 18418974.000000
124.007400 2397588.200000
128.061900 201901.200000
129.044600 718370.200000
132.960600 6823363.500000
158.976100 806303.400000

