>compound EQ46894132
>parentmass 182.00929999999997
>ionization [M+H]+
>formula C8H7NS2
>rt 600.000000
>profile orbitrap
#smiles_iso CSC1=NC2=CC=CC=C2S1
#smiles_can CSC1=NC2=CC=CC=C2S1
#inchikey UTBVIMLZIRIFFR-UHFFFAOYSA-N
#pubchem_id 11989
#mb_accession EQ364601,EQ364602,EQ364603,EQ364604,EQ364605,EQ364606,EQ364607,EQ364608,EQ364609

>ms2peaks
166.985400 4275956.000000
182.008900 287008032.000000

>ms2peaks
135.013200 285893.600000
166.985400 6778491.500000
182.008900 273928192.000000

>ms2peaks
109.010400 796107.800000
124.034000 267063.400000
135.013500 2677444.200000
136.021400 1142963.800000
150.037100 220112.000000
166.985600 63925996.000000
182.008900 217558688.000000

>ms2peaks
63.943300 245232.100000
91.041400 187809.800000
109.010500 2793048.000000
123.013500 552408.400000
124.034000 561508.900000
135.013500 7079776.500000
136.021400 2098022.200000
149.029300 461885.600000
150.036800 382209.800000
165.977900 582447.400000
166.985500 166161744.000000
182.009000 108466568.000000

>ms2peaks
63.943500 1939707.500000
65.038300 341483.600000
78.967000 277503.100000
91.041600 2575781.000000
96.002500 282296.200000
103.041400 630537.900000
108.002500 397437.000000
109.010500 7336802.500000
109.052100 1192142.900000
123.013500 6191139.000000
124.033900 430741.000000
135.013500 10751921.000000
136.021400 1970001.600000
139.974700 1389503.400000
149.029400 385735.400000
150.036900 306196.000000
165.977900 693639.600000
166.985500 217770272.000000
182.009000 34278644.000000

>ms2peaks
63.022700 304478.800000
63.943500 5913886.000000
64.030600 490998.700000
65.038500 1336371.000000
78.966800 255123.900000
84.002700 604973.600000
91.041500 10948008.000000
96.002700 1763475.100000
101.946400 179263.500000
103.041500 2658223.000000
108.002600 1450704.100000
109.010500 18093342.000000
109.052100 2841382.800000
111.026100 182903.200000
122.005800 369104.100000
123.013500 20593702.000000
124.034000 284183.600000
134.005600 293457.200000
135.013500 12257668.000000
136.021400 1006611.300000
139.974700 4443483.000000
140.969800 204438.500000
149.029300 345584.800000
150.036700 220964.000000
165.978000 770779.900000
166.985500 172416112.000000
182.009000 7126969.500000

>ms2peaks
50.014900 214862.800000
51.022800 68633.000000
52.018100 74460.300000
52.030700 52417.900000
53.038500 304014.000000
54.046300 418634.800000
57.987100 575757.600000
63.022800 1999311.800000
63.943500 11365864.000000
64.030700 3360357.000000
65.038500 16907742.000000
66.046300 871323.800000
68.979200 2619240.000000
69.987100 729477.900000
70.994900 428340.700000
72.002700 173038.800000
76.030600 579826.600000
77.038400 561987.900000
78.966900 177955.500000
79.041500 610277.100000
81.033300 136429.100000
81.987000 1431275.100000
82.994800 250383.800000
84.002700 1925216.600000
90.033700 407244.800000
91.041500 20414382.000000
92.036900 136287.200000
92.979200 155345.500000
94.041200 207823.200000
94.994900 583668.800000
95.049000 930249.200000
96.002700 14407323.000000
97.010500 195149.300000
98.005800 72237.900000
101.946500 463140.200000
103.041500 5440526.500000
105.044600 720502.100000
106.994900 197603.600000
108.002700 7389433.500000
109.010500 43917728.000000
109.052100 2964003.800000
110.005800 64597.100000
111.026100 157543.500000
121.010800 105847.800000
122.005700 2151503.800000
123.013500 37530016.000000
127.021100 197234.200000
127.992500 887879.562500
134.005700 1022609.500000
135.013500 17957536.000000
136.021500 287318.400000
137.016600 246779.500000
138.966800 262985.600000
139.974700 8235506.000000
140.969900 806759.600000
152.016300 68442.600000
165.977800 1563100.600000
166.985600 50057776.000000
182.009100 227832.600000

>ms2peaks
50.015000 684645.900000
51.022800 285905.300000
52.018100 340132.600000
52.030700 135913.600000
53.002200 296900.300000
53.038500 864767.400000
53.997400 45569.400000
54.046300 671679.900000
57.987100 1825826.500000
58.995000 46581.300000
59.966400 44948.200000
61.007000 55992.500000
62.015000 182373.600000
63.022800 4733392.500000
63.943500 6939118.000000
64.030700 4629748.500000
65.038500 38685140.000000
66.046300 1396360.400000
68.979200 11644085.000000
69.987000 3503776.500000
70.994900 971496.000000
71.990100 63825.100000
72.002700 140985.200000
75.022700 125885.200000
76.018000 145317.100000
76.030600 1768644.900000
77.038400 1887534.900000
78.033600 158856.500000
78.046400 41816.300000
78.967000 41058.300000
79.041500 793056.300000
81.033300 282016.400000
81.987000 4668891.000000
82.994800 565877.900000
84.002700 1530377.400000
90.033700 930144.500000
91.041600 8563137.000000
92.036800 142461.000000
92.979200 798579.900000
94.041200 387125.300000
94.994900 3114130.000000
95.049000 2784116.500000
96.002700 17229574.000000
97.010500 343370.300000
98.005800 118329.900000
99.943500 69678.200000
101.946500 535174.900000
103.041500 3026894.000000
105.044600 1731707.600000
106.994800 497985.300000
108.002700 8866969.000000
109.010500 26955980.000000
121.010300 38994.600000
122.005700 2999074.500000
123.013500 17074654.000000
127.021100 46745.000000
127.992500 1233833.500000
132.997800 65151.400000
134.005700 776550.200000
135.013500 9413148.000000
137.016600 118921.700000
138.966900 329025.500000
139.974700 2718378.800000
140.969900 659987.900000
165.977800 912541.000000
166.985600 5244152.500000

>ms2peaks
50.015100 1439024.100000
51.022900 707516.700000
52.018100 477546.500000
52.030700 158734.600000
53.002200 824087.900000
53.038500 844554.900000
53.997400 217644.000000
54.046400 413497.800000
57.987100 2473489.500000
58.995000 57603.500000
59.966300 129650.300000
61.007200 110420.000000
62.015000 559663.600000
63.022900 8120033.500000
63.943500 4552336.500000
64.018100 390079.968800
64.030700 3198706.000000
65.038500 36134072.000000
66.046300 767888.900000
68.979200 22807064.000000
69.987100 5937588.500000
70.994900 1483384.900000
71.990100 342773.800000
75.022800 184671.100000
76.018000 215760.100000
76.030600 1724743.600000
77.038400 1943772.200000
78.033700 358267.100000
79.041500 661206.600000
80.979300 378781.937500
81.033300 128818.800000
81.987100 7148273.500000
82.994800 633374.300000
84.002700 872699.300000
90.033800 930262.100000
91.041600 2235562.800000
92.979300 1720501.800000
94.041200 215830.300000
94.994900 5906539.000000
95.049000 2728269.500000
96.002700 10169772.000000
97.010500 299454.100000
99.943500 197258.500000
101.946600 614608.800000
103.041500 703879.200000
105.044600 1765546.800000
106.994900 801269.600000
108.002700 6297635.000000
109.010500 8871363.000000
122.005700 2074502.500000
123.013500 4380191.500000
127.992500 677999.250000
132.998000 122135.400000
134.005700 382148.800000
135.013500 2519063.000000
138.967000 197186.400000
139.974700 470646.500000
140.970000 292803.500000
165.977900 235265.800000
166.985500 298084.500000

