>compound EQ46407041
>parentmass 265.1698999999999
>ionization [M+H]+
>formula C18H20N2
>rt 390.000000
>profile orbitrap
#smiles_iso CN1CCN2C(C1)C3=CC=CC=C3CC4=CC=CC=C42
#smiles_can CN1CCN2C(C1)C3=CC=CC=C3CC4=CC=CC=C42
#inchikey UEQUQVLFIPOEMF-UHFFFAOYSA-N
#pubchem_id 4184
#mb_accession EQ327401,EQ327402,EQ327403,EQ327404,EQ327405,EQ327406,EQ327407,EQ327408,EQ327409

>ms2peaks
58.064900 9725870.000000
208.112100 16777396.000000
263.154300 9643192.000000
265.169700 1838460672.000000

>ms2peaks
58.065100 118765376.000000
70.065000 29445708.000000
85.075900 5241966.000000
91.053800 2306850.500000
106.065000 1652619.800000
118.065000 14880595.000000
120.080600 3368241.500000
132.080900 1963607.800000
146.096300 10050874.000000
148.112000 7858633.500000
158.096300 3693295.500000
161.107200 8640717.000000
172.112100 3503062.500000
174.115000 4689969.000000
179.085400 1768055.500000
208.112100 184886832.000000
222.127600 21014592.000000
234.127700 17641438.000000
250.146200 14400315.000000
263.154300 74046512.000000
265.169700 1443790208.000000

>ms2peaks
56.049500 6267588.500000
58.065100 347921664.000000
70.065100 88328032.000000
72.080700 5427787.500000
82.065100 1020011.400000
85.076000 13426450.000000
91.054200 20128010.000000
97.076100 1001725.100000
98.083800 1133573.600000
103.054100 1029613.800000
105.069800 6296261.500000
106.065100 10018698.000000
107.072700 446374.800000
115.054100 2777062.000000
117.057100 2299147.000000
117.069800 11452865.000000
118.065000 51609624.000000
119.072900 1042217.400000
119.085400 1644373.100000
120.080700 27562162.000000
129.069800 5032993.000000
130.065100 6967386.500000
131.073000 2484368.800000
131.085400 1996952.200000
132.080700 12053411.000000
134.096200 1676067.200000
141.070000 359582.100000
144.080700 11735572.000000
145.088600 1363258.100000
146.096400 36379520.000000
147.104200 1637084.000000
148.112000 10022538.000000
156.080900 1019287.200000
157.088600 1447978.200000
158.096400 18493642.000000
159.104200 4456361.500000
160.112000 4519131.000000
161.107200 28178618.000000
172.112000 11721975.000000
173.107300 1417835.400000
174.115000 12995228.000000
178.077200 1301041.600000
179.085500 6453146.500000
181.101100 1064579.400000
191.085600 1085384.500000
192.080700 1013999.500000
193.088500 6818558.000000
194.096400 7030605.000000
204.081000 1536567.900000
205.088400 3525198.000000
206.096300 5940446.500000
207.104300 4736011.500000
208.112000 331967264.000000
218.095800 1803858.100000
219.104300 3600258.000000
220.112000 11611583.000000
222.127700 58951720.000000
232.111900 2742731.500000
233.119300 387844.100000
234.127700 28030316.000000
235.122700 943460.400000
236.143400 2814063.800000
237.138500 2312009.500000
248.130800 6158792.000000
248.143100 417412.400000
249.138200 655349.800000
250.146400 40200620.000000
261.138300 427674.000000
263.154200 117177392.000000
264.162100 380412.800000
265.169800 293845312.000000

>ms2peaks
56.049500 12938681.000000
57.057200 749242.000000
58.065100 341237120.000000
65.038600 1065571.400000
70.065100 67414128.000000
72.080700 6524484.000000
77.038400 1022547.900000
79.054100 1620761.600000
82.065100 1979484.100000
85.076000 16354787.000000
89.038300 360113.900000
91.054200 56693968.000000
92.049400 2791215.000000
93.057300 393352.400000
93.069900 1341056.100000
94.065100 883859.900000
95.049200 443933.100000
97.076000 399068.700000
98.083700 1613051.800000
103.054200 4919683.500000
104.049400 822352.200000
105.069900 16765084.000000
106.065100 20704546.000000
107.072900 1061263.800000
109.064800 991076.100000
115.054200 17693448.000000
116.049500 2280293.500000
116.062100 1777259.600000
117.057200 9940164.000000
117.069800 26941886.000000
118.065100 74898536.000000
119.060400 1114716.800000
119.073000 2842491.500000
119.085600 2610819.500000
120.080700 42575204.000000
128.062000 1289729.900000
129.069800 10140535.000000
130.065100 18665800.000000
131.072900 8126790.000000
131.085400 3317154.500000
132.080700 18132318.000000
133.088700 1041728.800000
134.096400 1936965.500000
141.069800 382110.000000
142.065600 396175.000000
143.072900 1547530.400000
144.080800 23543110.000000
145.076100 371868.300000
145.088600 4790644.000000
146.096400 35913872.000000
147.104200 2806465.200000
148.112100 3093062.000000
156.080800 1341916.200000
157.088600 5323775.000000
158.096400 28412760.000000
159.091600 1510238.400000
159.104200 3513514.800000
160.112100 5402094.500000
161.107300 29477130.000000
165.069400 342472.200000
166.077400 1864049.400000
167.085700 1114044.200000
170.096400 1034984.700000
172.112000 7212354.500000
173.107200 2913239.800000
174.115100 7118123.000000
178.077600 5086216.000000
179.085500 11818884.000000
180.081100 767169.900000
181.101200 4694830.500000
191.085600 2103975.500000
192.080700 5765193.500000
192.093000 872794.500000
193.088600 39552256.000000
194.096400 13518042.000000
202.077600 443940.600000
203.085600 835180.600000
204.081000 4700062.000000
205.088700 4433785.000000
206.096400 11293373.000000
207.104200 14493428.000000
208.112100 196869568.000000
217.088700 1158660.600000
218.096300 5373965.000000
219.104200 6001180.000000
220.112100 21425442.000000
221.119600 757276.900000
222.127700 34798872.000000
232.112000 4536895.500000
233.107100 890963.700000
233.119500 346024.900000
234.127600 9699845.000000
235.122600 2860655.000000
236.143100 900567.600000
237.138500 386742.500000
247.123400 1761070.800000
248.130800 15500934.000000
249.138900 1181464.100000
250.146400 17036102.000000
261.138800 1239928.200000
262.146500 421134.300000
263.154200 41048880.000000
264.162000 356287.300000
265.169800 21413920.000000

>ms2peaks
51.022900 300010.500000
53.038600 704124.800000
56.049500 15389200.000000
57.057300 1188696.400000
58.065100 258918784.000000
65.038500 4340226.000000
70.065100 41089880.000000
72.080700 4321353.500000
77.038400 2303998.200000
79.054200 4898180.500000
80.049400 710860.900000
82.065100 1327512.100000
85.076000 11664962.000000
89.038400 333464.500000
90.046400 296147.200000
91.054200 97983272.000000
92.049500 5696610.500000
93.057300 1471698.000000
93.069900 2345067.200000
94.065100 1113115.800000
95.049100 3070718.200000
97.075900 335290.400000
98.083700 1422913.100000
103.054200 10244394.000000
104.049400 2000253.200000
104.061900 388794.400000
105.044800 1658998.800000
105.069900 22513052.000000
106.065100 25773638.000000
107.072800 1602863.800000
109.064900 1516361.400000
115.054200 39145204.000000
116.049400 5658570.500000
116.062000 6085292.000000
117.057300 20591476.000000
117.069800 29435292.000000
118.065100 76049664.000000
119.060600 1349234.000000
119.072900 3261448.000000
119.085600 2215978.000000
120.080800 34491436.000000
128.062000 4862027.500000
129.069800 12456327.000000
130.065100 30041736.000000
131.060200 757573.800000
131.072900 11303653.000000
131.085500 3319042.800000
132.080700 11959660.000000
133.076100 426726.300000
133.088600 1126459.600000
134.060000 470321.600000
134.096400 473245.800000
141.069900 972310.900000
142.065200 1196109.600000
143.072900 3430271.000000
144.080800 27961816.000000
145.064700 462531.100000
145.076300 693937.800000
145.088600 4793582.500000
146.096400 24573324.000000
147.104100 2035742.600000
148.112000 951723.200000
153.069800 408749.000000
154.065100 308814.500000
155.060300 1288713.800000
156.080700 2042882.000000
157.088600 6769071.500000
158.096400 19142800.000000
159.091500 2361382.200000
159.104100 1848175.500000
160.112000 1933375.200000
161.107300 20106424.000000
165.069800 4548321.500000
166.077600 6031050.000000
167.073000 406602.000000
167.085300 1538530.400000
170.096200 729793.200000
171.091500 368796.900000
172.112000 2503618.500000
173.107400 3053553.800000
174.115200 2619559.800000
178.077700 15201890.000000
179.085500 13921804.000000
180.080800 1839356.900000
181.101100 5253585.000000
189.069700 362271.800000
190.077600 1020601.800000
191.085300 2634042.000000
192.080700 11404812.000000
192.093500 1307166.200000
193.088600 75511000.000000
194.096400 14028131.000000
202.077600 1458831.900000
203.085400 1846196.000000
204.080800 8316058.000000
205.088700 4664807.000000
205.101200 315992.300000
206.096500 20241940.000000
207.104300 18934814.000000
208.112100 68206368.000000
217.088700 2987312.000000
218.096400 10264282.000000
219.091600 906666.900000
219.104200 4247325.000000
220.112000 14526223.000000
221.119800 1548336.900000
222.127700 10436388.000000
231.104600 349758.800000
232.112000 3246015.800000
233.107500 3043509.000000
234.127800 2626116.000000
235.122800 2341509.000000
247.122800 3421684.000000
248.130700 10561379.000000
249.138400 1608426.900000
250.146400 2944622.200000
261.138500 831895.800000
262.146300 1082334.800000
263.154100 5897592.500000
265.169600 1426734.900000

>ms2peaks
50.014900 343740.900000
51.022900 817917.700000
53.002200 270467.700000
53.038600 2905779.200000
54.033800 287736.200000
56.049500 18793988.000000
57.057300 1491305.200000
58.065100 196681568.000000
63.022800 850343.600000
65.038500 13149919.000000
67.041700 241444.500000
67.054200 220494.900000
70.065100 23842234.000000
72.080700 3123497.800000
77.038400 5387493.000000
78.046400 1514484.600000
79.054200 10019720.000000
80.049400 827935.900000
81.033400 205311.200000
82.065000 1354414.900000
83.060200 250274.200000
85.076000 9739439.000000
89.038500 2385585.500000
90.046500 2126530.000000
91.054200 137134320.000000
92.049400 6072644.000000
93.057400 2978681.500000
93.069900 2571313.200000
94.065000 1069462.900000
95.049100 9609088.000000
97.076000 298852.200000
98.083800 1145381.100000
102.046400 246311.900000
103.054200 17487342.000000
104.049300 2430601.500000
104.062100 1480396.200000
105.044700 4885323.000000
105.069900 20439336.000000
106.065100 26491014.000000
107.072800 766156.000000
109.064800 1087516.500000
115.054200 54447884.000000
116.049400 7487797.000000
116.062000 7635853.500000
117.057200 25597878.000000
117.069800 23615102.000000
118.065100 58143508.000000
119.060300 1369438.900000
119.073000 3370573.200000
119.085600 1799504.800000
120.080700 18489426.000000
127.054100 244708.800000
128.049400 1453653.200000
128.062000 8558640.000000
129.069800 9503144.000000
130.065100 35572396.000000
131.060200 1139094.000000
131.072900 13696167.000000
131.085300 1335081.000000
132.080700 5501660.000000
133.075800 276182.500000
133.088400 740825.000000
134.059800 794365.900000
141.069800 1887597.600000
142.064900 1345761.800000
143.072900 4871338.500000
144.080800 27034682.000000
145.064700 1021078.400000
145.076100 1502439.400000
145.088600 3640313.000000
146.060000 784057.800000
146.096400 12376465.000000
152.061800 1647847.200000
153.069700 1180289.900000
155.060400 2053036.100000
156.080800 3310002.000000
157.088600 5081880.500000
158.096400 8009586.500000
159.091600 2034161.100000
160.112200 802868.300000
161.107300 8987163.000000
165.069900 13522828.000000
166.077700 8897346.000000
167.072700 931149.100000
167.085400 1816316.000000
170.096400 279798.800000
171.092100 308683.800000
172.111800 288505.000000
173.107300 2690213.500000
174.114900 355790.000000
176.061600 304190.500000
177.070000 1285146.000000
178.077600 25105316.000000
179.085500 10447244.000000
180.080600 2753775.000000
181.101000 2183308.000000
189.069700 1272246.900000
190.065100 738344.900000
190.077400 968403.200000
191.073000 1831793.900000
191.085400 3944353.500000
192.080700 15951140.000000
192.093800 904598.800000
193.088600 78321048.000000
194.096400 9332492.000000
202.077700 2032411.100000
203.085500 1748939.200000
204.080800 13763299.000000
205.088800 3164012.500000
206.096400 26643998.000000
207.104300 13355943.000000
208.112100 16364690.000000
216.080000 296069.100000
217.088500 5694234.500000
218.096400 10511387.000000
219.091600 1867180.600000
219.104000 2747385.800000
220.112100 6663971.500000
221.119600 389229.300000
222.127400 1976111.400000
230.095700 393189.600000
231.103900 482430.600000
232.112500 1749775.500000
233.107300 2739395.000000
234.126900 319676.600000
235.122900 305259.900000
247.122900 3776472.500000
248.130900 2505117.500000
249.138700 435652.900000
261.138200 247170.200000
262.145900 327532.600000
263.153700 800653.300000

>ms2peaks
50.015100 2893484.200000
51.022900 3015776.800000
53.038600 7256511.000000
53.997500 253960.400000
54.033800 180270.200000
55.017900 329421.600000
55.041700 204518.500000
56.049500 18760510.000000
57.057300 1760661.100000
58.065100 93674064.000000
62.014900 336120.600000
63.022800 2498232.500000
64.030600 207723.800000
65.038600 56626580.000000
66.046400 1217885.400000
67.041700 231772.200000
67.054200 251160.500000
70.065100 8252938.000000
72.080700 862766.600000
77.038500 13363823.000000
78.033800 722722.700000
78.046400 5336720.000000
79.054200 13807508.000000
80.049400 1318992.200000
81.033400 1035980.300000
82.065000 829698.800000
83.060400 254839.700000
85.076000 4546675.500000
89.038500 18839130.000000
90.046400 13051861.000000
91.054200 165091072.000000
92.049500 4119757.200000
93.057300 3737114.800000
93.069800 839090.100000
94.041400 234178.100000
94.065100 1050109.900000
95.049100 25780470.000000
96.044400 954604.200000
102.046300 1713851.600000
103.054200 24993336.000000
104.049400 2202826.000000
104.062000 2320414.500000
105.044700 13155759.000000
105.069900 8599385.000000
106.065100 14903473.000000
107.073000 245335.700000
109.064800 417035.600000
115.054200 76549800.000000
116.049500 8483055.000000
116.062000 6515026.500000
117.057300 30113012.000000
117.069800 8917487.000000
118.065100 25418904.000000
119.060400 419879.700000
119.072900 1702513.600000
119.085500 788606.100000
120.080800 2903404.800000
127.054300 1072212.400000
128.049400 4498450.000000
128.062000 13498208.000000
129.044700 1120519.900000
129.057200 1214311.500000
129.069800 2773056.800000
130.065100 37229184.000000
131.060300 1474238.600000
131.072900 8128268.000000
132.080700 2330027.800000
134.060100 356922.000000
139.054200 340872.700000
141.069800 1789427.600000
142.065200 2066011.000000
143.072900 5629975.500000
144.080800 17405026.000000
145.064800 1204184.600000
145.076000 761677.800000
145.088500 1261959.200000
146.060000 2505465.500000
146.096400 2292761.500000
151.054400 777617.700000
152.062000 7767986.500000
153.057100 259504.400000
153.069600 1722886.800000
154.065100 919918.500000
155.060400 2816504.500000
156.080700 3252888.500000
157.088600 1362228.800000
158.096600 1323737.500000
159.091800 243497.000000
161.107300 956316.900000
163.053900 346995.800000
164.061800 710652.600000
165.069900 44848136.000000
166.065100 1136690.400000
166.077700 5091892.000000
167.072900 3213153.200000
167.085500 789853.600000
169.064800 1258066.500000
173.107400 190506.500000
176.062000 5258529.500000
177.057300 889630.200000
177.069800 4602890.500000
178.077700 43105568.000000
179.060300 397982.600000
179.073300 1677810.500000
179.085400 5811443.500000
180.080800 2631555.200000
189.069700 4067598.200000
190.065000 4220739.000000
190.077100 1590140.200000
191.072800 5454702.500000
191.085600 2454554.800000
192.080700 17354962.000000
193.088600 29532174.000000
194.096600 1368775.900000
201.070000 206573.700000
202.077600 2702583.000000
203.073000 424869.000000
203.085400 901243.800000
204.080800 16344196.000000
205.088400 3118566.200000
206.096400 16829494.000000
207.104400 2224336.200000
216.081000 2973473.000000
217.088600 11053722.000000
218.084800 714385.700000
218.096200 4359869.500000
219.091700 2239420.200000
219.104400 858734.300000
220.111900 1262490.200000
230.096200 841938.500000
231.103200 317207.300000
232.099500 373519.900000
233.107100 974059.600000
247.122800 720156.600000

>ms2peaks
50.015100 4639259.000000
51.022900 9686109.000000
53.002200 990542.600000
53.038600 8112647.500000
55.017800 159236.000000
55.041600 172719.200000
56.049500 10298871.000000
57.057300 981031.900000
58.065100 30816288.000000
62.015100 1088715.500000
63.022900 8585926.000000
64.030800 930116.400000
65.038600 76641240.000000
66.046300 1460864.500000
67.041500 731112.200000
70.065000 1694086.100000
72.080700 219063.500000
74.015000 262318.200000
75.022800 1303871.400000
76.030600 269886.600000
77.038500 16188808.000000
78.033700 344214.100000
78.046400 4768711.000000
79.054200 7617990.500000
80.049400 851641.800000
81.033500 849733.900000
83.060300 235176.400000
85.075900 1520136.600000
89.038500 37435764.000000
90.046400 14149340.000000
91.054200 97933744.000000
92.049400 964109.700000
93.057400 1821043.500000
95.049100 27191670.000000
96.044300 772281.900000
102.046400 4234656.500000
103.054200 18655228.000000
104.049400 1862120.000000
104.061900 1263479.100000
105.044700 16069051.000000
105.069900 2279389.500000
106.065100 4085495.000000
109.064700 178020.200000
113.038500 277243.800000
115.054200 55728900.000000
116.049400 4697201.000000
116.062000 3049312.500000
117.057200 17526130.000000
117.069800 1935263.800000
118.065100 7077997.000000
119.049100 355968.400000
119.072900 232221.600000
120.080700 336935.100000
126.046400 959897.800000
127.054200 1584681.400000
128.049500 3366472.000000
128.062000 10142960.000000
129.044700 1829599.000000
129.057300 1799769.800000
129.069900 689972.700000
130.065100 22137596.000000
131.060300 292830.600000
131.073000 1990725.400000
132.080900 696697.400000
139.054200 3414279.800000
140.049500 1326793.100000
140.062100 434492.800000
141.057200 246098.100000
141.069900 794039.100000
142.065100 1812521.200000
143.072900 2452099.200000
144.080700 6266129.000000
145.064800 926923.200000
146.059800 1376596.500000
150.046300 1325579.600000
151.054400 1203367.400000
152.062000 16406299.000000
153.057400 235649.000000
153.069900 913809.800000
154.065200 811853.800000
155.060400 1554755.200000
156.080800 1137098.100000
158.096300 225912.300000
163.054100 2919700.200000
164.062000 4341427.500000
165.069900 50010048.000000
166.065200 1924268.200000
166.077400 870244.100000
167.073100 1950892.000000
168.057100 1202642.800000
169.064800 5241073.000000
176.062000 13943669.000000
177.058000 1471751.100000
177.069800 6949288.500000
178.066300 1934269.375000
178.077600 25741176.000000
179.060200 1394313.600000
179.073100 1250326.100000
179.085700 1436350.600000
180.080800 1584455.900000
188.062500 230068.200000
189.069800 6140778.000000
190.065100 5212598.500000
190.077900 786079.900000
191.072800 6631957.500000
191.085500 668245.200000
192.080800 5569097.000000
193.088600 3957131.800000
200.061700 790125.100000
201.070100 250261.600000
202.064900 187395.600000
202.077600 2380619.500000
203.072900 2173968.800000
203.086500 193532.200000
204.080800 12658081.000000
205.088500 1538205.600000
206.096500 2361716.200000
214.064800 264259.500000
215.073000 392751.400000
216.080700 5876666.000000
217.088600 4981752.000000
218.083900 952319.300000
218.096500 949933.700000
219.092000 304321.400000
230.096200 210404.900000

>ms2peaks
50.015100 9841838.000000
51.022900 22339196.000000
53.002200 2451997.500000
53.038600 8931443.000000
53.997400 897927.300000
54.033800 620916.100000
55.017800 307377.500000
56.049500 7513724.000000
57.057200 1216027.200000
58.065100 10591892.000000
62.015100 2766157.500000
63.022900 19480574.000000
64.030700 1822300.200000
65.038600 73295000.000000
66.046300 2015791.900000
67.041500 1272247.100000
67.054200 192277.700000
70.065100 196047.900000
74.015000 1566521.500000
75.022800 3518269.500000
76.030700 1487365.100000
77.038500 15030057.000000
78.033800 721036.000000
78.046400 6786112.000000
79.054100 2871486.200000
80.049400 310848.000000
81.033500 1219425.100000
87.022900 1015855.500000
88.030700 743369.812500
89.038500 49785656.000000
90.046400 8465879.000000
91.054200 45728516.000000
92.049400 362750.900000
93.057300 981596.200000
94.041200 234617.800000
94.065400 171437.700000
95.049100 27325396.000000
96.044300 708346.400000
102.046400 7644185.500000
103.054200 11701658.000000
104.049400 759872.600000
105.044700 15252571.000000
106.065100 919327.400000
113.038400 1081619.000000
115.054200 42567268.000000
116.049400 1959820.400000
116.062000 1001661.400000
117.057200 7461526.500000
117.069900 400222.100000
118.065100 2068431.200000
119.049100 675849.700000
126.046400 3381422.500000
127.054200 2067476.500000
128.049300 1487176.000000
128.062000 7298072.000000
129.044600 909708.900000
129.057300 1630903.400000
130.065100 9496080.000000
131.072900 353288.100000
139.054200 7831835.000000
140.049200 2108923.000000
140.062000 195844.200000
141.057300 378009.700000
141.070000 216372.500000
142.064800 1010451.400000
143.072800 846566.100000
144.080700 1619970.100000
145.064700 990435.200000
146.059900 288840.800000
150.046300 6068591.500000
151.054000 3219896.200000
152.062000 16360458.000000
153.057400 355477.800000
154.065000 340731.100000
155.060200 1266778.900000
163.054100 10599279.000000
164.049400 734685.187500
164.061900 8447618.000000
165.069900 26630546.000000
166.065000 1119687.100000
167.072900 1013046.400000
168.057000 2747792.200000
169.064800 9913618.000000
176.062000 17388034.000000
177.057600 2031687.600000
177.069700 6160816.500000
178.064600 922523.125000
178.077600 9219143.000000
179.060200 3121851.000000
179.072800 276480.800000
180.080400 354178.500000
187.054100 1216188.000000
188.061900 826500.200000
189.069800 7043769.500000
190.065000 6124352.500000
191.072800 3190228.800000
192.080500 860054.300000
196.051600 1077943.250000
200.061800 1079489.100000
202.065000 655559.900000
202.077600 683588.200000
203.072800 2327955.500000
204.080700 5528159.500000
206.096700 243784.400000
214.064800 716820.900000
215.072700 910697.700000
216.080800 3181108.800000
217.088300 708410.700000
218.084300 279515.000000

