>compound EQ46243077
>parentmass 386.9891
>ionization [M+H]+
>formula C11H10Cl2F2N4O3S
>rt 444.000000
>profile orbitrap
#smiles_iso CC1=NN(C(=O)N1C(F)F)C2=C(C=C(C(=C2)NS(=O)(=O)C)Cl)Cl
#smiles_can CC1=NN(C(=O)N1C(F)F)C2=C(C=C(C(=C2)NS(=O)(=O)C)Cl)Cl
#inchikey OORLZFUTLGXMEF-UHFFFAOYSA-N
#pubchem_id 86369
#mb_accession EQ320901,EQ320902,EQ320903,EQ320904,EQ320905,EQ320906,EQ320907,EQ320908,EQ320909

>ms2peaks
289.030600 289773.800000
306.995800 3263750.800000
308.003200 1621984.800000
322.990600 545557.000000
324.000300 198832.500000
336.992100 233884.700000
340.983300 296914.900000
366.983300 1208016.100000
386.989000 181178960.000000
404.999600 3603479.000000

>ms2peaks
74.003400 123050.400000
89.050900 112342.500000
92.030600 804837.100000
136.990100 97326.300000
139.005700 85841.900000
145.955900 223720.200000
149.039500 145592.600000
155.000700 110053.500000
157.955500 332249.700000
172.966600 342989.200000
178.016600 3190263.000000
186.982200 516615.800000
198.946000 1769887.900000
213.993300 2483559.500000
216.938900 119782.000000
239.972500 83836.300000
240.980400 87768.700000
241.988100 139458.500000
245.963200 2479131.000000
246.971000 767435.700000
256.998900 340178.900000
258.007100 247913.600000
267.991400 432746.300000
271.019300 5167989.000000
272.026900 348282.100000
273.034900 9542367.000000
277.954900 82764.800000
279.985100 5507211.500000
286.989700 4075161.800000
287.997400 768642.700000
289.029900 5522354.000000
294.995500 143622.000000
302.984300 125186.100000
303.045700 1130884.000000
303.992300 377817.400000
305.007800 103169.200000
306.995900 72945256.000000
308.003700 29935250.000000
309.011100 263411.000000
321.011800 163180.000000
322.990800 3652295.500000
323.998700 799016.100000
325.006500 1989673.900000
333.001300 166046.100000
336.992300 4367609.500000
339.022200 249984.500000
340.983700 3058664.800000
352.020200 442198.600000
353.954700 154359.500000
366.983100 9417825.000000
368.978800 488586.500000
386.989200 41679876.000000

>ms2peaks
61.979100 73376.500000
73.019500 141321.100000
74.003600 2052582.500000
83.023900 57465.500000
89.050900 430206.000000
92.030600 2711075.200000
99.042700 117836.900000
101.013200 99715.900000
102.010600 135144.000000
108.000900 91186.200000
111.994800 103789.600000
119.023900 59642.800000
127.005700 220551.100000
127.989800 308504.300000
133.955700 65273.000000
136.990000 799881.100000
139.005700 639074.600000
145.016400 60960.400000
145.955800 1358985.875000
146.000300 492266.200000
149.039500 1745188.500000
155.000600 6721074.500000
157.955900 3869742.800000
160.966900 296958.800000
163.966400 4288018.000000
170.995400 69970.000000
172.966800 6153815.000000
173.950800 491886.300000
173.974600 3560242.500000
175.966500 595805.400000
178.016600 21178988.000000
179.024400 72357.000000
180.032400 148971.400000
182.011100 379119.281300
186.982400 16491884.000000
188.961900 108686.100000
190.977200 567958.200000
198.946100 10233791.000000
200.961600 428536.200000
201.969700 87144.700000
202.957000 99880.500000
204.956600 72259.800000
209.986400 186624.800000
212.002100 343114.200000
213.993300 8135519.000000
215.001100 377504.500000
215.972900 139863.700000
216.939100 202536.800000
216.956600 57264.300000
217.968300 50995.700000
218.952400 229592.500000
221.022500 202901.400000
222.029700 153877.900000
223.038100 1202387.200000
226.964700 198400.600000
230.995800 97658.500000
232.008400 2152041.500000
239.972800 225424.900000
240.980500 217980.400000
241.988400 238115.700000
242.959500 81997.800000
245.963200 5127624.000000
246.971000 1211186.200000
252.020400 87278.100000
253.028700 85062.000000
256.999200 1254261.200000
258.007000 3490802.200000
259.019400 269875.700000
267.991600 262949.000000
271.019300 6487423.500000
272.027100 2449032.500000
273.034900 36020004.000000
274.042500 235819.700000
274.989200 113189.800000
279.985000 16456629.000000
286.989600 5493275.500000
287.997300 956869.800000
289.029900 1187338.500000
294.996100 123088.200000
302.984500 73579.800000
303.045800 250213.300000
303.992600 62573.100000
305.006800 92526.900000
306.995900 14492029.000000
308.003700 7201447.500000
309.011700 117790.000000
318.986000 201848.900000
321.011500 141932.600000
322.990700 325504.800000
325.006100 394745.300000
336.992400 1914872.500000
340.984100 253761.600000
352.020500 151694.800000
366.983000 497580.200000
386.989400 328527.100000

>ms2peaks
52.018100 64008.800000
61.979100 411070.900000
62.963200 28164.500000
66.974500 75404.800000
67.029000 29770.400000
68.013000 77114.300000
72.983800 135637.900000
73.019700 168863.000000
73.032200 31516.400000
74.003600 2373340.800000
75.010200 75371.500000
76.017900 194079.100000
78.984700 84174.000000
82.944800 52696.300000
84.983900 187747.900000
85.039600 57979.100000
85.979100 75574.500000
87.994700 84284.500000
88.978900 116467.200000
89.050900 149672.600000
92.030600 2156666.000000
97.979000 114956.300000
99.042700 787920.900000
99.994800 235757.600000
101.013400 653430.600000
102.010500 488798.300000
103.029000 102115.800000
109.979200 2415623.800000
111.994800 840716.000000
112.990000 34192.300000
115.005700 108727.400000
115.989900 35104.700000
118.944900 29168.400000
119.024000 286410.900000
121.039500 34715.700000
125.997900 80264.200000
127.005800 607303.600000
127.989700 1363691.100000
128.997400 61553.500000
130.005400 137199.800000
133.955800 301845.700000
135.971500 122245.600000
136.990100 4796801.500000
137.997900 497806.200000
139.005800 7322203.000000
140.013500 188309.300000
143.000800 80819.900000
143.047700 141211.400000
144.055600 76687.600000
145.016400 145658.700000
145.955900 8977238.000000
146.000300 3399801.000000
146.963800 527991.800000
147.971500 343574.800000
149.039500 1570409.400000
149.950600 33033.900000
151.005600 112281.200000
151.018200 140133.100000
152.013400 111029.800000
152.026300 143214.300000
153.021400 110572.600000
153.992900 34443.500000
154.016400 61880.400000
155.000600 18293724.000000
156.008000 26408.300000
157.955900 6910951.000000
158.951100 81897.200000
159.971500 73024.300000
160.966800 271809.400000
163.966400 25347826.000000
164.985000 231294.400000
166.016700 30568.400000
169.016200 194955.300000
170.951000 521047.000000
170.995700 142442.800000
171.958700 176704.800000
172.966800 8842556.000000
173.950800 1024996.100000
173.974600 5861372.000000
174.982400 164059.100000
175.966400 812198.800000
178.016600 7502914.500000
178.953600 60438.800000
179.024600 104526.400000
179.995900 249403.600000
180.032300 659262.800000
180.962300 54051.500000
181.003700 332288.800000
181.040100 421750.200000
182.011500 6808293.000000
184.007400 31358.900000
184.991400 63642.100000
185.987400 74315.200000
186.982400 15259352.000000
187.977700 118538.500000
188.069200 246320.100000
188.961600 451170.000000
190.977300 665093.100000
191.961300 93062.300000
194.011300 34303.700000
197.962200 88469.700000
198.946100 8486471.000000
199.953900 91879.000000
200.961700 691312.100000
201.969500 176338.000000
202.956900 105510.400000
204.956800 32751.200000
204.993200 55254.100000
206.000800 79011.900000
209.022500 31486.700000
209.986400 153569.300000
212.002100 938842.800000
212.985500 28821.500000
213.993300 1274236.600000
215.001000 184767.700000
215.972800 97549.700000
216.009000 282973.968800
216.939000 86453.800000
216.956700 92158.400000
216.980500 53939.500000
217.968100 81708.500000
218.952300 976788.500000
221.022500 371742.500000
222.030300 517705.000000
223.038200 4443056.500000
225.957200 112934.500000
226.964700 341014.900000
231.000500 370295.343800
232.008400 11138503.000000
237.058100 163751.600000
239.972600 28886.500000
240.980000 64865.600000
241.988000 133762.300000
245.963200 1893428.100000
246.024000 251155.700000
246.971000 597780.200000
252.020500 33375.100000
253.028500 89366.900000
256.999100 811880.900000
258.007000 1830545.100000
259.019500 275375.400000
267.991300 52812.200000
271.019000 439714.562500
272.027100 1844824.800000
273.034900 15610105.000000
274.042600 181715.600000
279.985100 2232944.000000
286.989600 351021.300000
287.997800 170738.100000
306.996100 321425.700000
308.003700 258519.600000
318.986200 163646.200000
321.012500 25628.000000
336.991300 57863.900000

>ms2peaks
51.004000 30125.400000
52.018100 91621.800000
61.979200 1854338.000000
62.963200 108343.500000
64.018100 160794.500000
66.974600 68299.500000
67.029000 151452.300000
68.013100 313728.500000
72.983900 739630.100000
73.019600 121149.100000
73.032200 53865.800000
74.003600 1691580.000000
75.010200 218672.800000
76.018100 817005.300000
78.984800 82791.800000
82.028700 68735.500000
82.945000 359634.000000
83.023900 30866.100000
83.976000 64146.600000
84.983900 1464632.100000
85.979200 320268.700000
86.963200 106504.200000
86.987100 119465.000000
87.994800 129473.100000
88.978900 80576.000000
89.050900 57167.900000
90.010500 90307.500000
91.029100 96302.400000
92.013100 406295.400000
92.030600 1798203.000000
97.979200 509455.700000
99.042700 999797.100000
99.994800 619695.900000
101.013400 2798761.800000
101.974100 31895.000000
102.010500 277803.300000
103.029100 729807.400000
105.044700 91206.800000
106.945000 198505.000000
109.979200 14844676.000000
110.987000 113842.300000
111.994800 2266205.000000
112.990200 118718.600000
113.974100 94169.500000
114.981800 49256.000000
115.005800 60036.400000
115.989700 103612.200000
117.008200 34611.400000
117.057300 152193.600000
118.005300 67404.500000
118.016600 61804.500000
118.039900 27349.200000
118.944900 235263.900000
119.024000 483610.800000
120.960600 55662.500000
121.039600 342989.600000
122.999600 27570.600000
123.994900 138870.800000
124.990200 53137.400000
125.002800 57080.700000
125.015000 31818.500000
125.997900 65291.400000
126.010300 24479.500000
127.005700 383361.400000
127.989800 3271700.500000
128.997500 67067.200000
130.005400 764783.600000
130.944900 68536.300000
132.948200 77293.100000
132.960700 51997.700000
133.955800 354827.400000
135.971700 112902.500000
136.990100 8783311.000000
137.997900 778453.100000
139.005700 15550399.000000
139.989500 60222.800000
140.013400 278118.600000
142.005500 64159.500000
143.000900 50853.100000
143.047900 113305.400000
143.940500 33025.500000
144.021400 64759.200000
144.055600 132200.600000
145.016500 83332.000000
145.955900 16148201.000000
146.000300 3284530.500000
146.963700 961025.900000
147.971500 1301402.600000
149.039500 434237.000000
149.950900 85739.700000
151.005900 138603.800000
151.018200 192625.500000
152.013600 143356.400000
152.026200 267814.200000
152.984800 132435.900000
153.008800 177108.900000
153.021300 173131.800000
153.993000 174621.500000
154.016600 812061.100000
155.000600 12343246.000000
156.962200 29881.800000
156.996200 51437.100000
157.955900 6507916.500000
158.951100 72418.500000
158.963400 136811.800000
159.066400 26808.300000
160.050800 26759.200000
160.063200 30019.500000
160.966900 110896.000000
160.979400 79554.800000
161.950800 83727.100000
162.958800 73713.700000
163.966400 24162698.000000
164.974300 31708.600000
164.984900 421748.200000
167.000800 55040.600000
170.951100 1270333.400000
170.995600 63988.000000
171.958900 283557.100000
172.966800 4610289.500000
173.950800 1311169.200000
173.974600 2423395.800000
174.982500 164308.300000
175.966400 400818.400000
176.025400 88381.700000
177.008800 61384.100000
178.016600 912695.600000
178.953500 160523.500000
179.024700 66957.700000
179.995700 193720.200000
180.032300 649150.800000
180.962100 55534.300000
181.003700 990270.600000
181.040100 675461.600000
182.011500 18203962.000000
182.999600 84460.800000
184.991200 262567.800000
186.982400 2382968.200000
187.061400 170845.800000
187.977900 115701.300000
188.069300 313153.700000
188.961600 737244.500000
190.957200 69665.700000
190.977300 238654.900000
191.961300 51140.100000
194.011700 24826.100000
197.962000 74795.100000
198.946100 3463427.000000
200.961600 329258.900000
206.011700 57203.900000
207.019700 65520.100000
209.022500 191216.900000
212.002300 727567.500000
213.010000 99063.600000
213.993200 122753.000000
215.001100 53876.000000
215.972800 27490.600000
216.956600 68324.900000
217.968400 106209.000000
218.952400 844885.800000
221.022600 244268.000000
222.030400 381615.700000
223.038200 2671571.200000
232.008400 5753870.500000
237.058500 34617.800000
241.988000 32170.100000
245.963100 297940.300000
246.023700 85048.800000
246.971300 136856.500000
256.998600 205437.800000
259.019000 56414.700000
272.027100 339203.000000
273.034900 1547869.600000
274.042700 74323.900000
279.984900 32218.700000

>ms2peaks
52.018000 183093.500000
53.002200 61941.000000
56.036900 67753.800000
58.008700 97516.700000
58.016200 61544.400000
60.983900 58496.800000
61.979200 4430379.000000
62.963200 139811.400000
64.018200 238925.800000
66.033800 61399.900000
66.974500 89098.500000
67.017800 59791.000000
67.029000 282146.000000
68.013100 516598.300000
72.983900 1601360.600000
73.019500 97332.700000
74.003600 1335258.000000
75.010200 1277537.400000
76.018100 2392184.200000
77.013300 82826.300000
77.025900 59582.200000
78.033800 123697.000000
78.984800 80015.100000
80.013100 55052.400000
82.028700 139700.100000
82.944900 995422.900000
83.976100 120465.700000
84.983900 3059348.200000
85.979200 577930.200000
86.963200 285932.900000
86.987000 89898.600000
87.994900 205698.300000
89.038500 55458.200000
90.010500 175130.000000
90.033800 56485.700000
91.029100 138724.500000
92.013100 835524.000000
92.030600 1396416.200000
92.036800 76761.200000
96.984100 52191.700000
97.979200 1446828.500000
99.042700 683518.900000
99.994800 1253788.200000
100.005400 241682.600000
101.013400 5364554.000000
101.974200 95449.600000
102.010500 109477.900000
103.029000 1820367.100000
105.044700 230036.400000
106.945000 509529.100000
108.971200 73785.000000
109.979200 32929630.000000
110.987000 271047.900000
111.994800 5470943.500000
112.990100 269513.900000
113.974100 164028.300000
114.982000 84679.100000
115.989800 122358.900000
117.008100 104294.800000
117.044700 66852.500000
117.057300 270442.100000
118.039800 107055.900000
118.945000 647042.600000
119.023900 592133.100000
120.960600 69401.700000
121.039600 545540.900000
123.994800 290382.600000
124.990100 118423.900000
125.015100 65363.100000
125.998000 139048.800000
126.010400 67434.300000
126.981900 54498.800000
127.005700 283008.800000
127.989700 5438980.500000
128.997600 95216.800000
130.005400 1497376.000000
130.945100 180042.400000
132.948100 76164.300000
132.960600 156920.500000
133.955800 251561.000000
135.971500 55744.800000
136.990100 6743382.000000
137.997800 527081.100000
139.005700 16715018.000000
140.013400 210854.700000
142.005400 83911.400000
143.047600 59044.000000
143.940100 127354.500000
144.021100 81762.700000
144.055500 131001.200000
145.063700 33362.800000
145.955800 12322594.000000
146.000300 1407575.900000
146.963700 860568.000000
147.971500 1619715.500000
149.950800 74836.800000
151.018300 224087.200000
152.013500 98000.100000
152.026200 212988.000000
152.984900 250207.800000
153.008800 415797.100000
153.021300 141797.700000
153.992800 421000.000000
154.016600 4135475.800000
155.000600 4716316.500000
156.962300 32990.500000
156.996200 83817.900000
157.955800 4591298.000000
158.951000 74601.900000
158.963600 146779.500000
159.066500 89070.900000
160.979300 79857.900000
161.950500 132982.700000
162.958600 79633.900000
163.966400 10605992.000000
164.984900 351004.500000
169.016400 96001.800000
170.951000 864838.800000
171.958800 209309.900000
172.966800 2556385.500000
173.950800 1162804.100000
173.974500 431047.800000
174.982200 65386.100000
175.966400 187761.800000
176.025400 98329.600000
178.016600 188979.100000
178.953500 189736.300000
179.995800 76473.900000
180.032200 402762.400000
181.003700 659281.100000
181.040100 545336.000000
182.011500 16267973.000000
184.007300 140928.200000
184.991300 270397.200000
186.982400 219002.400000
187.061700 165034.800000
188.069200 145425.100000
188.961600 393193.700000
190.957200 58622.800000
198.946000 894059.100000
200.961400 33155.000000
201.969400 111818.200000
209.022400 130999.000000
212.002200 204636.100000
213.009800 79427.600000
213.993200 77355.100000
218.952100 293790.300000
221.022300 105317.200000
222.030500 163272.500000
223.038100 501296.700000
232.008400 761941.100000
273.035000 53286.000000

>ms2peaks
50.015000 88646.300000
51.004100 64960.100000
51.010300 53241.100000
52.018100 324415.400000
53.002200 159994.400000
55.017900 61933.900000
56.036900 115608.400000
58.008700 128290.500000
58.016100 70513.700000
59.976100 58928.300000
60.984000 211394.200000
61.979200 8846606.000000
62.963200 219521.200000
63.022900 128388.200000
64.018100 442361.100000
65.002200 76382.600000
66.033800 363087.200000
66.974500 66771.200000
67.017800 53039.200000
67.029000 318771.200000
68.013100 250678.000000
68.024300 50333.800000
72.983900 2011698.600000
73.979200 150314.000000
74.003700 643179.100000
75.010300 10892137.000000
76.018100 8848250.000000
77.013300 171449.700000
77.026000 239688.600000
78.033800 382042.200000
79.029000 69051.600000
82.028700 188180.400000
82.944900 1815181.900000
83.976100 754095.900000
84.983900 4185731.800000
85.979100 907918.300000
86.963200 150531.400000
86.999600 65460.100000
87.994900 200109.800000
88.018200 156143.900000
89.038500 178492.800000
89.997400 78627.800000
90.010500 220845.100000
90.033900 209596.800000
90.046300 47201.100000
91.029100 281665.200000
92.013100 481233.700000
92.030600 204838.100000
92.036800 174238.700000
94.028800 241161.100000
96.984000 157606.600000
97.979200 3167794.800000
98.987000 54611.800000
98.999500 93815.900000
99.042700 181733.700000
99.994800 1253101.500000
100.005500 1112352.800000
101.013400 6132942.000000
101.974200 50805.700000
102.010500 136182.400000
103.029000 2467317.000000
105.044700 362386.400000
105.937100 82139.900000
106.945000 828986.800000
107.940200 74816.000000
108.971400 392400.600000
109.979200 37915340.000000
110.987000 406935.200000
111.994800 10632463.000000
112.990000 403223.700000
113.974400 132034.100000
115.989800 55598.600000
116.036700 52034.700000
117.044700 97510.000000
117.057200 343613.900000
118.039900 329602.300000
118.052500 65908.400000
118.945000 1077265.400000
119.023900 552812.200000
119.060400 56158.600000
119.952900 102653.300000
120.960700 203832.400000
121.039600 281245.800000
121.979100 53430.400000
123.994900 248751.600000
124.990200 60819.000000
125.002600 75356.700000
125.997900 209241.200000
126.981900 85389.200000
127.005700 383762.300000
127.989700 4065014.200000
128.997600 86080.600000
130.005400 1637503.100000
130.945000 215712.300000
131.940500 44458.500000
132.960700 120732.800000
133.955900 99678.800000
136.990100 1439949.000000
137.997900 81738.500000
139.005700 6219542.500000
139.989600 64632.600000
142.005200 112294.700000
143.940200 72869.300000
144.055700 66327.000000
145.016400 66496.500000
145.955800 1785647.800000
146.071200 162584.300000
146.963800 200536.600000
147.971500 1097570.200000
151.018200 121789.600000
152.984900 67817.500000
153.008900 133991.300000
153.021300 85537.200000
154.016600 5090198.000000
155.000600 576232.200000
157.955900 933429.700000
159.066700 57342.900000
161.950600 114373.400000
163.966400 691931.100000
164.985000 76873.500000
170.951000 53037.600000
172.966800 602182.500000
173.950800 293974.100000
180.032200 59514.900000
181.040000 91411.700000
182.011500 1939102.900000

>ms2peaks
50.015100 174631.400000
51.004100 98185.000000
51.010300 56490.300000
52.018200 727278.300000
53.002200 287461.500000
53.997500 30741.700000
55.017800 56077.600000
56.036900 83995.800000
58.008700 71192.800000
59.976100 127058.100000
60.983900 478135.200000
61.007300 89152.800000
61.979200 11308091.000000
62.963200 394389.400000
63.010300 131183.700000
63.022900 287917.600000
64.018200 1050549.800000
65.002200 196806.200000
65.026000 97878.600000
66.010000 52656.900000
66.021200 63859.900000
66.033800 495356.200000
66.974600 81204.500000
67.029100 357664.100000
67.041700 52506.800000
68.013100 130738.000000
68.024300 144687.800000
70.968200 88599.800000
71.976100 103969.100000
72.983900 2145002.000000
73.979200 216016.700000
74.003700 447499.900000
75.010300 29520260.000000
76.018100 18679326.000000
77.013400 384579.300000
77.025900 627695.800000
77.997500 30113.800000
78.033800 546988.200000
79.029100 58616.200000
81.937100 29654.300000
82.028700 191804.000000
82.944900 1815647.400000
83.976100 2635847.800000
84.983900 4968975.500000
85.979200 1544013.800000
86.963200 90195.100000
87.010400 110481.800000
87.994900 206460.500000
88.018200 323525.200000
89.038500 284233.200000
89.997400 298647.800000
90.010500 200081.000000
90.033900 199757.000000
90.046400 79163.200000
91.005300 127757.200000
91.029100 393459.400000
91.041700 53221.300000
92.013100 230083.600000
92.036900 334337.900000
92.049500 70521.500000
94.028700 223382.600000
95.976100 135281.900000
96.044400 56090.300000
96.984000 210842.100000
97.979200 3506218.200000
98.987000 86219.000000
98.999600 103161.900000
99.994800 889635.800000
100.005600 2015110.600000
101.013400 4643011.500000
102.021300 55060.700000
103.029000 1192960.400000
105.044700 188598.900000
105.937100 142357.600000
106.945000 961544.800000
107.940200 89305.400000
108.044400 54389.000000
108.971400 673970.900000
109.979200 23760496.000000
110.987000 216178.800000
111.994800 6680674.000000
112.990000 263046.100000
113.974100 81437.200000
116.049400 50127.500000
117.044900 53129.400000
117.057200 167123.500000
118.039900 157228.600000
118.052600 47784.100000
118.945000 916714.800000
119.024000 262466.500000
119.060500 52273.600000
119.952600 90269.900000
120.960600 264399.900000
121.039700 128799.900000
121.979300 51842.800000
123.994900 145544.900000
125.002800 57926.500000
125.998000 97024.100000
127.005800 166528.600000
127.989700 1342775.200000
130.005400 743902.900000
130.944900 72423.000000
136.990100 266526.000000
139.005700 1159668.600000
142.005100 49848.400000
145.955800 237485.700000
147.971500 358981.300000
151.018500 47181.200000
154.016600 1037204.000000
155.000700 72838.700000
157.955900 67468.200000
163.966500 56504.900000
172.966900 77054.500000
182.011600 73651.500000

>ms2peaks
50.015100 280570.700000
51.004100 143304.800000
51.010300 108490.600000
52.018200 1165517.200000
53.002200 297820.100000
53.997500 108649.300000
55.017900 76717.200000
56.036900 60344.500000
58.008800 43813.100000
59.976100 316781.300000
60.984000 672626.100000
61.007300 284113.000000
61.979200 10123458.000000
62.963200 494225.700000
63.010300 398629.700000
63.022900 400825.900000
64.018200 1275028.000000
65.002200 586561.200000
65.026000 186349.500000
65.038600 55495.800000
66.010000 160172.000000
66.021200 96888.600000
66.033800 273596.100000
66.974500 70880.300000
67.029100 269362.300000
68.013000 83685.100000
68.024300 173120.800000
70.968300 266970.100000
71.976100 200022.300000
72.983900 1925906.000000
73.979200 229553.200000
74.003800 174444.000000
74.015000 87945.700000
75.010300 36335636.000000
76.018100 18093036.000000
77.013300 407751.000000
77.025900 658586.600000
77.997300 114381.700000
78.033800 434608.600000
81.937100 105508.400000
82.028700 99498.900000
82.944900 1266141.900000
83.976100 3758559.200000
84.983900 3988643.200000
85.979200 1655152.800000
86.963200 79027.300000
87.010300 161378.100000
87.994900 116612.400000
88.018200 371276.300000
89.038500 324974.700000
89.997500 608093.900000
90.010500 58742.700000
90.033800 78873.100000
90.046400 46530.000000
91.005300 302436.900000
91.029100 168111.300000
91.041700 51666.900000
92.036900 250779.100000
94.028800 115621.400000
95.976100 122418.700000
96.984000 182649.100000
97.979200 2228084.200000
98.987000 49973.900000
98.999600 61600.600000
99.994900 381529.000000
100.005600 2219818.200000
101.013400 2160483.000000
103.029100 284552.300000
105.044700 77286.700000
105.937200 151989.200000
106.945000 616666.100000
107.940200 87494.400000
108.971400 735316.400000
109.979200 8383104.000000
110.987100 60178.200000
111.994800 1820106.200000
112.990000 46505.500000
118.945000 333411.100000
119.024000 91031.100000
127.989700 304020.800000
130.005400 205846.200000
139.005700 130066.100000
147.971600 46714.900000
154.016500 56990.900000

