>compound EQ47604623
>parentmass 233.0921
>ionization [M+H]+
>formula C12H12N2O3
>rt 360.000000
>profile orbitrap
#smiles_iso CCC1(C(=O)NC(=O)NC1=O)C2=CC=CC=C2
#smiles_can CCC1(C(=O)NC(=O)NC1=O)C2=CC=CC=C2
#inchikey DDBREPKUVSBGFI-UHFFFAOYSA-N
#pubchem_id 4763
#mb_accession EQ362401,EQ362402,EQ362403,EQ362404,EQ362405,EQ362406,EQ362407,EQ362408,EQ362409

>ms2
55.054100 480.600000
57.033400 4175.500000
57.069700 2015.600000
59.049100 15082.400000
61.039600 367.300000
69.069700 1440.300000
71.048900 429.300000
71.085400 320.700000
73.064600 349.600000
81.069800 695.100000
83.085400 1222.900000
84.080700 2161.100000
87.055300 2010.400000
91.054100 2922.900000
93.069900 349.900000
95.085400 679.600000
99.043900 2606.000000
99.080300 2905.900000
101.059700 3549.500000
105.033400 22540.700000
109.101200 562.500000
111.044200 481.700000
111.080200 620.000000
115.013700 441.000000
115.075200 1892.900000
117.069600 2676.900000
117.090800 3427.000000
119.085400 12062.800000
121.101300 334.500000
126.091100 1379.000000
131.085600 481.300000
133.052200 291.200000
134.096200 1925.300000
135.080000 328.600000
137.095900 426.000000
139.017900 460.800000
144.080500 556.700000
145.064700 10793.300000
147.080200 2123.900000
159.080500 377.500000
162.091200 101651.700000
169.096600 2443.000000
172.075400 6846.400000
173.095900 520.600000
177.065700 59177.700000
187.075100 431.400000
188.070000 403.600000
189.066000 707.700000
190.086000 6283.800000
205.060700 14798.000000
205.097000 7947.900000
215.081400 9840.800000
233.091900 239526.900000

>ms2
51.022700 319.100000
55.017800 285.400000
55.054100 645.800000
56.049400 329.700000
57.033400 4956.100000
57.069800 2084.000000
59.049100 14694.000000
61.039700 335.300000
69.033500 362.700000
69.069700 1705.500000
71.049000 580.900000
71.085300 376.100000
73.028300 548.800000
73.064700 431.000000
77.038400 372.500000
79.054200 351.500000
81.069700 1623.200000
83.049000 351.200000
83.085400 1655.300000
84.080700 4332.500000
87.043900 653.700000
87.055200 546.500000
88.039100 546.900000
91.054100 9271.200000
93.069800 349.600000
95.048900 476.000000
95.085500 1346.400000
97.064600 351.000000
98.096200 673.900000
99.044000 2672.700000
99.080300 4461.200000
101.059600 2469.400000
105.033400 33591.000000
106.065000 3177.000000
107.085300 489.000000
109.101300 1312.800000
111.044000 383.200000
115.013800 1340.000000
115.075200 731.000000
117.069700 9274.200000
117.091100 661.500000
119.085400 19886.400000
126.091200 8032.800000
127.075500 376.600000
129.069800 574.800000
131.085400 613.400000
133.051600 760.400000
134.059900 1893.800000
134.096300 6022.000000
137.095900 361.800000
139.018100 496.200000
144.080600 6861.400000
145.064700 12908.900000
145.101000 754.400000
147.080200 4192.900000
157.101100 299.200000
159.080600 466.700000
162.091200 156786.800000
169.096800 2550.500000
172.075400 13832.800000
173.095900 1569.700000
177.065700 71193.500000
188.070300 505.300000
189.065400 1177.500000
190.086000 5016.100000
205.060600 23903.200000
205.097000 4447.000000
215.081300 7243.400000
233.091800 60557.000000

>ms2
50.015000 288.000000
55.017700 1796.300000
55.054200 4903.700000
56.049400 4365.300000
57.033400 5462.900000
57.069800 3328.200000
59.049100 15835.300000
67.054100 755.100000
69.033300 1556.200000
69.069700 4610.700000
69.992300 306.200000
71.049000 2247.000000
73.028200 725.600000
73.064500 621.600000
76.039100 630.100000
79.054100 1554.200000
81.069800 4412.200000
83.048800 579.400000
83.085400 5740.600000
84.080700 4346.200000
87.044200 312.500000
88.039200 3122.100000
91.054100 26654.200000
93.069700 1227.600000
95.049100 1805.300000
95.085400 1501.800000
97.007500 689.800000
97.064600 507.300000
98.096400 3639.500000
99.018600 1836.000000
99.043900 2724.200000
99.080400 2950.300000
101.059600 1572.500000
104.049100 359.300000
105.033400 39323.300000
105.069900 2608.100000
106.065000 21106.400000
107.049100 491.600000
107.085400 476.200000
109.064800 402.000000
109.100900 1142.600000
111.023000 372.700000
111.044000 392.300000
111.080300 716.000000
115.013600 1925.600000
115.053900 518.700000
117.069700 27162.000000
118.064900 1647.400000
119.085400 17138.500000
121.064600 416.500000
121.101100 548.100000
123.023400 397.300000
123.080300 348.600000
126.091200 11068.100000
127.075000 612.700000
129.069700 4036.400000
131.085400 1683.400000
132.044100 429.000000
133.052100 18505.200000
134.059900 13123.700000
134.096300 16308.200000
135.080100 1204.800000
139.017900 473.200000
144.080600 31249.000000
145.028200 5338.500000
145.064500 5182.300000
145.100700 575.700000
147.080200 3406.200000
154.064900 464.300000
157.101100 360.800000
159.080100 751.800000
162.091200 116607.300000
172.075400 7227.600000
173.096400 1217.600000
177.065700 45870.000000
189.065400 509.600000
190.085800 1656.400000
205.060600 12036.400000
215.081700 1440.500000
233.092100 2174.700000

>ms2
51.022800 337.200000
53.038500 1941.500000
55.017800 3828.800000
55.054200 9606.500000
56.049400 8721.500000
57.033500 4066.500000
57.069800 3498.300000
59.049100 12301.900000
65.038400 320.500000
67.054100 2587.400000
69.033300 2669.600000
69.069900 4014.600000
71.049000 1855.200000
71.085300 497.500000
73.028200 1389.300000
73.064500 305.600000
76.039100 352.700000
77.038300 660.400000
79.054100 6553.800000
81.033300 373.700000
81.069700 4782.800000
83.049000 1171.400000
83.085300 2937.900000
84.080600 3830.700000
87.044000 615.400000
88.039200 2021.200000
89.038400 4294.300000
91.054200 35582.400000
93.069700 726.700000
95.049000 4156.700000
95.085400 1650.800000
97.007400 639.000000
98.096400 2682.900000
99.018800 3153.800000
99.043900 1442.200000
99.080500 1118.900000
101.059700 362.300000
104.049200 1652.900000
105.033400 32726.600000
105.069700 3244.900000
106.065000 32789.900000
107.049100 1255.000000
107.085500 684.900000
109.064400 429.000000
109.101000 612.800000
111.023200 338.500000
115.013600 347.000000
115.054100 4172.400000
117.033300 3982.700000
117.069700 33755.900000
118.064800 1647.400000
119.048900 615.200000
119.085400 6779.200000
121.064800 330.800000
123.023000 528.200000
123.080100 353.600000
126.091100 1757.100000
128.061800 1263.900000
129.069800 4411.300000
131.085500 1551.200000
132.044100 653.800000
133.052100 53346.600000
134.059900 21597.900000
134.096200 14937.500000
143.072800 1180.800000
144.080700 36506.000000
145.028200 10074.500000
145.064600 2988.400000
145.101000 1238.100000
147.080800 397.200000
154.065000 1299.700000
155.060100 1210.100000
162.091100 30846.200000
172.075400 2373.100000
175.001500 386.300000
177.065700 21479.100000
187.074900 362.400000
205.060700 1353.500000

>ms2
51.022800 625.800000
53.038500 3415.500000
55.017800 4283.000000
55.054200 10336.800000
56.049400 8616.300000
57.033400 3438.300000
57.069900 2261.500000
59.049100 6105.400000
65.038500 581.900000
67.054200 2899.500000
69.033400 2222.200000
69.069800 3527.000000
69.992200 571.100000
71.049000 1957.200000
73.028200 1457.600000
73.064900 278.700000
76.039300 367.300000
77.038400 1385.700000
79.054100 12914.400000
81.033400 371.300000
81.069800 4348.100000
83.049000 1274.900000
83.085400 588.200000
84.080600 1633.800000
87.043900 417.300000
88.039200 744.000000
89.038500 13156.600000
91.054200 44492.400000
93.057100 716.900000
93.069800 1466.500000
94.041200 349.700000
95.049100 8799.600000
95.085400 1356.500000
97.007400 1610.500000
98.096300 675.700000
99.018800 2184.600000
99.044000 581.100000
103.054000 1707.100000
104.049400 4539.800000
105.033400 27312.700000
105.044700 6749.400000
105.057200 2005.700000
105.069800 4176.400000
106.065000 33041.500000
107.048900 1419.400000
107.085400 687.900000
115.054100 12298.600000
116.049400 1472.000000
116.061800 509.400000
117.033300 6829.300000
117.069800 31972.900000
118.064900 2130.200000
119.049100 403.800000
119.072700 550.500000
119.085400 3985.300000
128.061900 3009.200000
129.069800 3376.400000
131.085400 742.400000
132.044200 1985.700000
133.052100 77369.600000
134.059900 13768.700000
134.096200 8933.000000
135.080200 413.400000
141.069900 391.500000
143.072800 3021.800000
144.080700 21554.400000
145.028300 4964.100000
145.064600 2479.200000
146.059900 512.900000
154.064900 1511.100000
155.060100 2781.000000
162.091300 5326.900000
177.065400 4219.700000

>ms2
51.022800 528.700000
53.038500 5686.500000
55.017800 3286.100000
55.054200 8849.600000
56.049400 4909.100000
57.033300 1760.100000
57.069700 1407.500000
59.049100 3852.500000
65.038400 1631.100000
66.046100 291.600000
67.054200 2298.100000
69.033400 1701.000000
69.069800 2129.700000
69.992300 689.600000
71.049000 1292.600000
73.028100 597.300000
77.038300 2581.600000
78.046200 490.700000
79.054100 14710.000000
81.033400 622.000000
81.069700 2554.300000
83.048900 323.700000
84.080800 587.500000
89.038500 22256.000000
91.054100 44823.400000
93.057200 1576.600000
93.069800 651.800000
95.049000 11293.400000
95.085400 695.500000
97.007500 2381.700000
98.096300 741.000000
99.018800 328.300000
103.054100 2697.200000
104.049400 14872.100000
105.033400 13993.200000
105.044700 7975.800000
105.057200 5089.200000
105.069700 2562.800000
106.065000 22409.500000
107.048900 695.400000
115.054100 19586.200000
116.049300 1717.500000
116.061900 1297.600000
117.033400 3620.900000
117.069700 19777.000000
118.064700 1125.700000
119.073000 2157.300000
119.085400 1544.600000
127.054200 707.400000
128.061900 4541.200000
129.069700 1997.700000
131.085700 551.700000
132.044300 651.500000
133.052100 61419.700000
134.060000 5253.400000
134.096200 2140.100000
141.069600 357.800000
143.072800 3895.600000
144.080700 9742.100000
145.028300 1516.900000
145.064800 1632.400000
155.060100 3008.600000
162.091500 328.400000
175.001200 359.400000

>ms2
50.015000 1171.200000
51.022800 3802.700000
53.002100 1250.500000
53.038500 6262.800000
55.017700 3244.000000
55.054100 5951.500000
56.049400 3148.800000
57.033400 529.200000
59.049000 656.200000
63.022800 1594.100000
65.038500 8344.100000
66.046300 557.300000
67.054100 1742.800000
69.033300 346.300000
69.992200 1341.400000
77.038400 4100.700000
78.046300 6252.200000
79.054100 13432.900000
81.033300 599.000000
81.069700 416.600000
89.038400 31335.500000
91.054100 48455.600000
93.057100 599.000000
94.041100 396.500000
95.049000 17965.200000
97.007600 2613.300000
102.046200 1831.700000
103.054000 2637.400000
104.049300 53534.600000
105.033300 6169.100000
105.044600 13049.700000
105.057200 5768.800000
105.069500 722.000000
106.065000 7149.700000
111.023000 520.800000
115.054100 22349.200000
116.049300 1385.100000
116.061900 1392.100000
117.057200 2123.200000
117.069700 4629.100000
118.064900 1368.700000
119.072900 1941.100000
126.046400 558.400000
127.054000 1591.200000
128.062000 4202.400000
129.069800 456.100000
132.044300 2086.400000
133.052000 21743.800000
134.060000 1101.800000
143.073000 2933.100000
144.080700 1127.500000
145.064600 1486.800000
146.059600 391.200000
155.060300 1993.700000

>ms2
50.015100 2347.000000
51.022900 8576.500000
52.030700 262.100000
53.002100 1678.700000
53.038500 8169.600000
53.997300 302.400000
55.017700 1707.100000
55.054100 2113.400000
56.049400 677.200000
62.015000 573.400000
63.022800 7314.600000
65.038500 17252.300000
66.046300 426.800000
67.054200 710.200000
69.992200 599.100000
75.022800 710.200000
77.038400 5476.700000
78.046300 9392.000000
79.054100 5714.500000
81.033500 486.000000
88.030600 451.100000
89.038500 25517.100000
90.046300 1508.100000
91.054100 29134.100000
93.057200 382.300000
95.049000 19423.800000
97.007600 2826.800000
102.046300 1665.400000
103.054100 650.600000
104.049400 46766.800000
105.033300 2100.800000
105.044600 11436.600000
105.057200 1358.300000
106.064900 577.700000
114.033800 538.100000
115.054100 12070.000000
116.049300 438.600000
116.061800 430.600000
117.057200 1417.700000
117.069500 302.700000
118.064900 701.500000
126.046200 508.100000
128.061900 3328.300000
129.070100 330.900000
132.044300 655.800000
133.052000 2069.500000
145.064800 345.500000
155.060100 429.500000

>ms2
50.015100 4598.000000
51.022900 14722.000000
52.030700 1365.800000
53.002200 2461.500000
53.038600 7202.300000
53.997300 490.200000
55.017700 1319.300000
55.054100 741.400000
56.049400 590.800000
62.015000 2727.800000
63.022800 12354.700000
65.038500 17400.900000
66.046300 507.400000
67.054100 420.000000
69.992200 682.300000
75.022700 1189.400000
77.038400 6918.500000
78.046300 8506.900000
79.054100 1809.300000
81.033500 543.900000
88.030500 559.000000
89.038500 16961.600000
90.046200 408.800000
91.054200 13877.900000
94.041000 282.500000
95.049100 19242.300000
97.007500 1761.100000
102.046200 1385.300000
103.054200 508.800000
104.049400 23003.300000
105.044600 14039.800000
114.033800 1520.100000
115.054100 9351.000000
117.057200 376.900000
127.054000 312.700000
128.061900 1303.800000
132.044700 283.300000

