>compound EQ47659836
>parentmass 380.1769
>ionization [M+H]+
>formula C22H22FN3O2
>rt 354.000000
>profile orbitrap
#smiles_iso C1CN(CC=C1N2C3=CC=CC=C3NC2=O)CCCC(=O)C4=CC=C(C=C4)F
#smiles_can C1CN(CC=C1N2C3=CC=CC=C3NC2=O)CCCC(=O)C4=CC=C(C=C4)F
#inchikey RMEDXOLNCUSCGS-UHFFFAOYSA-N
#pubchem_id 3168
#mb_accession EQ367901,EQ367902,EQ367903,EQ367904,EQ367905,EQ367906,EQ367907,EQ367908,EQ367909

>ms2peaks
95.028900 179050.100000
165.070800 7836040.000000
187.086300 506959.500000
194.097500 116540104.000000
246.129000 265708.700000
380.176700 163726624.000000

>ms2peaks
123.023700 2608559.000000
165.071000 120830224.000000
187.086600 1913243.800000
194.097600 136852656.000000
201.102400 184433.600000
246.129400 291404.300000
380.176800 1347325.400000

>ms2peaks
95.028700 694754.600000
123.024000 36645136.000000
165.071000 232954080.000000
187.086600 2442640.200000
194.097700 19377322.000000

>ms2peaks
50.015000 155935.000000
75.022500 244886.100000
95.028900 704314.000000
109.044700 313723.300000
113.039600 403405.300000
123.024000 131702208.000000
144.081000 209219.700000
145.088600 170402.700000
159.091600 153137.700000
165.071000 122403144.000000
172.063100 317059.200000
173.071100 140548.300000
187.086600 1290752.200000
194.097600 814597.000000

>ms2peaks
50.014900 222755.500000
71.029100 467767.300000
75.022700 636465.900000
95.029000 1052364.600000
109.044700 717166.800000
113.039700 2616950.500000
123.024000 205704304.000000
144.080900 384771.800000
165.071100 37356136.000000
172.063000 457396.800000
187.086600 308415.500000

>ms2peaks
50.015100 569502.100000
51.022900 370841.800000
71.029100 1746702.200000
74.015000 191615.100000
75.022800 1801055.900000
79.017800 648730.900000
93.033500 448958.300000
95.029100 2138908.500000
99.024100 355308.500000
109.044800 747597.800000
113.039700 9565182.000000
123.024100 178056144.000000
123.035000 31121888.000000
124.032200 268655.000000
130.065100 218287.800000
135.054800 190714.900000
144.080900 367471.400000
165.071100 6245848.500000
171.055300 309470.800000
172.062900 230032.200000

>ms2peaks
50.015100 1355611.500000
51.023000 1149179.900000
53.002200 662772.800000
55.017800 206641.000000
65.038600 417140.300000
69.013400 210631.700000
69.033600 127333.200000
71.029200 5465022.500000
73.008400 334515.800000
74.015100 1816897.600000
75.022900 16722498.000000
79.017800 1833626.000000
83.029100 297286.800000
91.054300 95750.300000
92.049700 211535.700000
93.033500 1218152.900000
95.029200 8555420.000000
99.024100 1047294.100000
103.054200 106675.800000
105.044700 110484.000000
109.044800 1218350.500000
111.044200 351136.200000
112.031900 173129.500000
113.039700 28665762.000000
115.054400 149819.900000
117.057200 129434.700000
119.060700 111902.200000
123.024200 58949508.000000
123.035200 81095336.000000
124.032400 704286.600000
127.054300 116643.700000
129.044600 118691.800000
130.052700 95000.700000
130.065000 230442.700000
143.060500 151693.200000
144.080800 203533.000000
146.052600 417323.900000
155.060500 136031.200000
171.055300 374251.800000

>ms2peaks
50.015100 1248486.800000
51.022900 802877.700000
53.002200 2327375.500000
53.038600 136354.000000
55.017800 116243.800000
57.013500 151297.200000
59.029100 112630.700000
63.022900 135399.900000
65.038600 878742.700000
69.013500 951990.200000
69.033400 88733.500000
71.029100 4472698.500000
73.008400 233231.800000
74.015100 10022951.000000
75.022900 62475248.000000
77.038600 106306.400000
79.017800 1455260.500000
80.049400 220428.400000
83.029100 630226.600000
89.038600 124639.600000
91.054200 122395.100000
92.049500 130179.900000
93.033500 797472.200000
95.029100 13954434.000000
99.024100 739384.100000
103.054300 110874.400000
105.044900 155277.500000
109.044900 752600.900000
111.044200 387983.000000
112.031900 185196.400000
113.039700 24245896.000000
115.054300 119738.800000
123.024200 8917977.000000
123.035300 63550364.000000
124.032400 421451.100000
129.044600 162426.200000
130.065200 170528.100000
146.052600 464124.200000

>ms2peaks
50.015100 628603.600000
51.023000 480161.500000
53.002200 2129487.000000
53.038600 130472.400000
57.013500 317931.100000
59.029200 168330.900000
63.022900 315185.100000
65.038600 783806.900000
68.005700 138348.800000
69.013500 3048958.500000
71.029200 1910146.800000
73.008400 133539.400000
74.015100 30760248.000000
75.022900 90101544.000000
77.038600 134712.000000
79.017800 580640.300000
80.049400 154891.100000
83.029100 533151.100000
89.002300 266511.600000
89.038500 234509.200000
93.033500 260182.400000
95.029200 8854742.000000
96.037000 150197.100000
99.024200 278831.000000
105.044800 133813.000000
109.045000 210015.600000
111.044200 134422.300000
113.039700 10178294.000000
115.054300 101062.900000
116.049500 93533.300000
120.036900 242953.500000
123.035300 24467092.000000
124.032300 199550.100000
129.044700 105060.300000
146.052600 240852.300000

