>compound EQ47496702
>parentmass 423.1695
>ionization [M+H]+
>formula C22H23ClN6O
>rt 534.000000
>profile orbitrap
#smiles_iso CCCCC1=NC(=C(N1CC2=CC=C(C=C2)C3=CC=CC=C3C4=NNN=N4)CO)Cl
#smiles_can CCCCC1=NC(=C(N1CC2=CC=C(C=C2)C3=CC=CC=C3C4=NNN=N4)CO)Cl
#inchikey PSIFNNKUMBGKDQ-UHFFFAOYSA-N
#pubchem_id 3961
#mb_accession EQ279401,EQ279402,EQ279403,EQ279404,EQ279405,EQ279406,EQ279407,EQ279408,EQ279409

>ms2
171.068300 8606152.000000
178.077400 575424.100000
183.068200 504572.200000
189.078700 1345682.600000
192.080500 6051725.500000
195.091600 414578.600000
206.096500 394976.600000
207.091600 94658560.000000
235.097700 15000311.000000
253.108100 474565.200000
258.102500 1889040.500000
294.079200 1310642.500000
324.149400 743066.800000
341.176000 11986172.000000
362.141700 8226366.000000
376.145200 467052.500000
377.152800 134536992.000000
380.152900 720627.600000
405.158800 336355808.000000

>ms2
79.054200 1021450.900000
80.049400 866197.200000
115.005800 741570.200000
129.021300 514093.200000
135.091700 474205.800000
140.049300 434770.200000
142.029500 848568.400000
153.070000 555903.600000
165.069200 615687.600000
167.073100 534445.600000
171.068300 51539124.000000
178.077600 2287422.200000
179.085900 561642.900000
180.080700 12944028.000000
183.068100 744826.800000
187.063300 464616.300000
189.078900 5688365.000000
190.065000 4791968.500000
191.072900 575839.800000
192.080700 28631372.000000
195.091700 3027177.000000
196.075400 1468666.900000
205.075900 1858218.100000
206.083900 9636043.000000
206.095900 670163.300000
207.091600 424217536.000000
208.075400 804599.100000
218.083700 1373702.400000
219.091900 1663683.200000
229.076000 526626.200000
231.091700 1440531.900000
232.099000 906738.200000
233.107400 828038.200000
235.097800 61697000.000000
241.076100 1927563.500000
242.083300 702214.200000
243.091700 716765.200000
254.060700 851070.800000
257.094400 523084.300000
258.102600 29776280.000000
259.086600 6469982.500000
259.109400 2338134.000000
281.094700 1737308.000000
282.102500 9548616.000000
294.079200 6707193.500000
295.063100 1528693.900000
295.110000 1556155.800000
298.121300 5029490.000000
299.129400 1133673.400000
311.129600 568864.200000
314.164500 776355.900000
324.149500 14535260.000000
334.097900 559078.100000
341.176100 28505714.000000
350.141600 778250.400000
362.141900 15698074.000000
376.144600 1172592.100000
377.152800 33085766.000000
380.152500 2843842.500000
405.158800 3031526.500000

>ms2
79.054200 4248237.000000
80.049400 4024046.500000
83.085500 324935.900000
95.049000 732149.300000
102.010400 715209.000000
105.044700 477155.900000
108.080800 1139331.900000
115.005600 893338.900000
115.054200 361636.200000
129.021400 2364469.500000
129.044600 1600149.000000
135.091700 2329841.800000
140.049400 2108317.500000
142.029200 8475257.000000
144.057400 1279482.100000
151.053900 354322.200000
151.086500 496705.900000
152.062000 1273663.900000
153.069800 7211154.500000
163.054500 790098.900000
165.069700 2101376.800000
166.065700 664745.200000
166.077900 961733.000000
167.073000 2734925.500000
168.068200 313970.200000
169.064800 458726.700000
171.068300 44159628.000000
177.057300 311014.000000
178.065100 4232382.000000
178.077500 4603889.000000
179.060200 388454.700000
179.072900 5117274.000000
179.084700 720557.900000
180.080700 81194072.000000
181.076000 935512.500000
189.079000 830534.900000
190.065000 20819652.000000
191.072800 2540536.000000
192.068200 15884831.000000
192.080800 27276438.000000
194.059900 2615901.500000
195.091700 1975541.000000
196.075700 12585914.000000
205.076100 16650832.000000
206.083900 72006496.000000
207.091600 305715712.000000
208.075600 5862127.000000
214.064900 2659227.500000
216.080800 1504975.500000
218.083900 1325088.800000
219.092000 1052668.600000
229.076300 346120.700000
231.091700 2500512.500000
232.099000 1069749.600000
233.107400 647902.600000
235.097800 3212216.200000
241.076000 7928982.500000
242.083700 2166442.800000
243.091600 4284707.500000
252.057000 477060.500000
254.060600 1235187.800000
257.094500 1391132.400000
258.102600 13000173.000000
259.086600 11177603.000000
259.110100 1010287.800000
268.086500 482761.900000
277.052600 491164.200000
279.068100 554013.100000
281.094700 4925825.500000
282.102400 4410973.000000
294.079800 749088.900000
294.102000 394434.800000
295.063200 1434352.100000
295.110100 941685.600000
297.113400 475086.600000
298.121200 3784463.500000
299.128800 473842.200000
311.129200 848550.600000
324.149400 3200900.200000
341.176000 2662105.200000
350.141800 464766.200000
362.141900 2697114.200000

>ms2
53.038500 1219154.800000
54.033700 338333.000000
55.054200 1413997.000000
57.069800 491342.200000
60.983900 150606.200000
67.041600 433286.100000
67.054200 689097.400000
77.038400 1704170.000000
79.054200 5390596.000000
80.049400 7895100.000000
81.069700 852648.400000
83.085500 849101.300000
84.080700 453580.700000
87.994700 637531.800000
91.054200 329518.000000
93.057300 164175.400000
95.049100 3382435.000000
96.044300 363622.400000
102.010500 1816492.000000
104.049400 874666.100000
105.044700 1926610.200000
107.060500 129936.000000
108.080700 3034355.800000
115.005700 626599.100000
115.054200 618748.600000
116.049400 336561.200000
117.057400 603699.400000
122.060100 566736.900000
128.049400 350845.400000
129.021300 3597998.500000
129.044600 3903255.800000
130.039900 277470.400000
135.091600 3834158.000000
139.054100 739922.200000
140.049400 4094737.800000
141.069800 333100.800000
142.029200 17423610.000000
144.057500 1678514.200000
145.064500 184348.400000
151.054100 2188325.800000
151.086800 420764.200000
152.062000 13758106.000000
153.069800 22587742.000000
154.065100 1324571.800000
155.060400 704626.100000
155.085100 629855.100000
163.054100 4115096.000000
164.049500 455038.200000
164.062100 147525.800000
165.069900 13808451.000000
166.065200 2373325.000000
166.077600 2654227.000000
167.072900 7346564.000000
168.057000 294479.000000
168.068200 1066799.000000
169.064700 5926444.000000
170.059900 185188.400000
171.068300 18629276.000000
177.057300 2321708.000000
178.065100 12589649.000000
178.077300 5330975.000000
179.061000 3783514.000000
179.072900 24158672.000000
180.080700 126678248.000000
181.075900 2041670.000000
181.088500 475979.200000
182.059900 1069717.200000
183.067500 696429.200000
189.057300 570375.700000
190.065100 40060120.000000
191.060800 550485.900000
191.072800 4721357.500000
192.068100 35734736.000000
192.080700 21176034.000000
194.059900 7495088.000000
195.091900 572855.400000
196.075600 16568833.000000
204.055700 274059.500000
204.067300 129774.000000
204.080800 626121.800000
205.076100 71950352.000000
206.083800 90043752.000000
207.091600 89444704.000000
208.075600 8101765.500000
211.062600 1006312.500000
214.065000 7460144.000000
215.060400 856878.500000
215.072900 484232.700000
216.080700 3399494.000000
217.077000 277791.000000
217.088400 525910.900000
218.083800 783856.800000
218.095000 168278.300000
219.091700 963706.400000
229.075600 471309.800000
231.091600 1794057.200000
232.099100 518253.400000
233.107100 292720.300000
239.060100 147430.600000
240.067800 621241.000000
241.076000 6944236.000000
242.083800 2580119.500000
243.080000 212910.500000
243.091600 2506656.200000
244.099400 384379.700000
252.057200 351332.100000
254.060600 1011360.600000
256.086800 320545.200000
257.094800 723395.900000
258.102500 3600252.000000
259.086500 3888678.800000
267.079500 163333.800000
280.086600 816197.200000
281.094800 3568112.500000
282.102500 806918.200000
294.102500 503131.100000
295.063000 181417.100000
295.110400 174943.300000
297.113400 582440.400000
298.121600 929058.600000
299.128200 142285.900000
311.129500 357846.800000
324.150100 139092.900000

>ms2
50.015100 458683.300000
51.022900 423769.800000
52.018100 127552.400000
53.038600 2320274.000000
54.033700 507491.200000
55.054200 2516656.500000
57.069900 691516.300000
60.983900 316791.900000
63.022800 143372.400000
65.038500 301375.200000
67.041600 349877.800000
67.054200 1011739.300000
74.999500 104785.800000
75.994700 143024.700000
77.038500 2803540.200000
78.033800 351265.000000
79.029100 324357.300000
79.054200 3492199.200000
80.049400 8427363.000000
81.033500 153223.100000
81.069800 917313.900000
82.065100 280141.000000
83.085400 722866.500000
84.080700 496965.800000
87.994800 699485.900000
89.002700 758344.900000
89.038400 116750.200000
91.054100 701833.400000
93.044700 350806.200000
93.057300 267041.500000
94.064900 102736.200000
95.049100 6663094.000000
96.044400 1018493.400000
102.010500 2224961.000000
103.054200 325372.300000
104.049500 871159.000000
105.044700 3837253.500000
107.060300 556804.100000
108.080700 2224880.000000
115.005800 561222.900000
115.054100 1564926.900000
116.049500 638152.900000
117.057200 827899.600000
120.044400 144691.800000
122.060000 384657.300000
127.054300 558648.800000
128.013400 107698.200000
128.049600 636902.800000
128.062000 445434.600000
129.021300 2052349.500000
129.044600 3811024.500000
129.069900 402853.700000
130.039800 956425.900000
130.065100 126616.700000
131.060200 177091.700000
135.091700 1391940.900000
139.054100 1668115.500000
140.049400 6929757.500000
141.021300 402175.600000
141.057300 528986.700000
141.069800 375639.700000
142.029200 15317184.000000
144.057500 840093.400000
145.064700 975838.500000
146.060100 157203.400000
147.055100 105503.500000
150.045900 177637.000000
151.054100 4826893.500000
152.062000 39589740.000000
153.069800 25743222.000000
154.065100 2837794.500000
155.060300 2201247.500000
155.085300 619429.600000
163.054200 10046721.000000
164.049400 2899826.800000
164.061900 2051509.800000
165.057500 2391469.500000
165.069900 27459808.000000
166.065200 4080980.000000
166.077500 1867178.600000
167.072900 8117462.500000
168.057200 758781.300000
168.068200 1856806.900000
169.064800 14980751.000000
170.059600 744117.000000
171.068300 4147953.000000
177.057300 5955068.000000
178.065100 14438721.000000
178.077300 5847766.000000
179.060900 7332231.500000
179.072900 33901700.000000
180.080700 73972184.000000
181.075900 2269042.200000
181.088700 404339.700000
182.060000 1170872.500000
183.067700 1081653.200000
183.080100 122566.700000
188.049400 326803.300000
189.057100 1981675.500000
189.070000 464775.200000
190.065100 41431396.000000
191.060200 1675585.400000
191.072900 5646693.000000
192.068100 35211160.000000
192.080600 9009357.000000
193.052100 421837.200000
194.060000 5318510.000000
196.075600 7454528.500000
201.057700 102910.600000
202.065800 118748.800000
203.072700 103112.400000
204.055400 317494.300000
204.067800 127043.500000
204.081400 620764.900000
205.076100 100146720.000000
206.083900 34380404.000000
207.091600 11985041.000000
208.075700 3161497.000000
211.062900 1347401.600000
213.056900 101024.600000
214.065000 7739606.000000
215.060300 1001748.400000
215.072500 523949.700000
216.080600 2271713.800000
217.088700 632410.600000
218.083400 925244.100000
218.094300 116484.400000
219.092000 545620.200000
220.075700 445938.700000
221.046900 135827.000000
229.075900 372316.500000
230.084200 103080.800000
231.091600 596433.800000
239.060400 838721.200000
240.068300 1014988.000000
241.076000 2446134.800000
242.083600 1512343.600000
243.079400 122830.700000
243.091100 624462.000000
253.076100 151764.200000
254.060600 132012.900000
256.086400 273910.500000
257.094700 394962.200000
258.102800 612658.500000
259.086300 1050965.800000
267.078600 147804.600000
270.102500 136241.900000
280.087000 940174.300000
281.094800 1029267.800000
294.102500 307879.800000
297.113100 415323.000000
298.121200 126844.500000

>ms2
50.015100 792902.100000
51.022900 772317.800000
52.018200 326262.800000
53.038600 3235428.800000
54.033800 1121588.400000
55.054200 2981140.200000
57.069900 964844.400000
60.983900 659424.800000
61.979200 113051.800000
63.022800 713970.400000
65.038400 504020.200000
67.041600 538596.900000
67.054200 1178186.600000
74.999400 150802.300000
75.022800 465652.100000
75.994800 168889.100000
77.038500 4557898.500000
78.033800 730593.900000
79.028900 350802.900000
79.054200 2206900.200000
80.049400 8893726.000000
81.033400 182262.400000
81.069800 629163.400000
82.065100 173075.000000
83.085400 486479.700000
84.080800 572802.800000
87.994800 1160227.200000
89.002600 1648622.800000
89.038400 702497.000000
90.046400 174450.400000
91.054200 768373.400000
93.044700 458486.200000
93.057200 679469.800000
95.049100 9545174.000000
96.044400 1510756.000000
102.010500 1811965.800000
102.033700 790537.400000
103.054300 703092.200000
104.049400 799063.100000
105.044700 4877349.000000
107.060300 835020.100000
108.080700 1592010.600000
113.038500 970973.800000
114.033700 135978.300000
114.046400 590921.800000
115.005700 477189.400000
115.054200 4391027.500000
116.049500 823714.400000
117.057300 1260335.900000
120.044300 560596.300000
122.060000 128208.000000
125.038500 374522.100000
126.046200 299559.600000
127.054200 1808373.400000
128.049400 2571771.000000
128.062000 1257923.100000
129.021400 1076444.800000
129.044600 3242812.000000
129.057400 295324.200000
129.069700 581821.300000
130.040000 2464099.800000
130.065200 304435.300000
131.060300 180734.400000
135.091600 590649.100000
138.046200 1114389.000000
139.054200 5317146.500000
140.049400 13598666.000000
141.021300 846632.400000
141.057100 1319337.900000
141.069600 384803.600000
142.029200 11434312.000000
144.057400 339160.300000
145.064700 2481553.500000
146.060000 684812.800000
149.038300 114601.900000
150.046400 1843010.500000
151.054200 8590542.000000
152.062000 75904776.000000
153.057300 2686204.200000
153.069800 19399756.000000
154.065100 4296984.500000
155.049200 521114.800000
155.060300 5057465.000000
155.085400 354423.700000
156.056900 396773.200000
162.046400 561414.100000
163.054200 19952832.000000
164.049500 9808192.000000
164.061800 5098306.500000
165.069800 40963908.000000
166.065100 7095467.500000
166.077600 685783.100000
167.072900 6979038.500000
168.057000 1957171.900000
168.068200 2074309.500000
169.064700 25375982.000000
170.059900 1829292.100000
171.068400 668291.200000
176.049200 143117.700000
176.061900 369974.000000
177.057300 12677663.000000
178.065100 23190124.000000
178.076900 4399257.000000
179.060700 11551667.000000
179.072800 37291576.000000
180.080700 35075168.000000
181.075900 1819450.900000
182.060000 987196.800000
183.067800 2308768.000000
183.080300 313876.700000
185.047200 541624.200000
187.053900 550927.100000
188.049400 1826165.100000
189.057300 4410782.500000
189.069500 665091.900000
190.065000 37331432.000000
191.060200 5136758.000000
191.072800 4488446.500000
192.068100 25033726.000000
192.080500 3054881.500000
193.052100 1208912.200000
194.060000 2640608.000000
196.052100 568795.900000
196.075600 7104637.500000
201.057400 319499.300000
202.064600 127850.500000
203.072700 351341.000000
204.055600 647494.100000
204.067900 280250.100000
204.080700 373176.800000
205.076000 112703256.000000
206.083800 9720783.000000
207.067900 1638424.200000
207.091600 1403111.600000
211.062800 1246954.900000
212.050100 116110.100000
213.057200 176099.700000
214.065100 7398848.000000
215.060200 1141320.100000
215.072600 605944.500000
216.080500 1407044.900000
217.076800 243756.200000
217.088400 475171.800000
218.083900 364222.900000
219.091200 150630.300000
220.075500 299270.800000
221.046900 725186.200000
221.071200 127375.400000
229.075600 572267.800000
231.091400 125339.100000
239.059900 964728.200000
240.068100 554512.200000
241.076100 1120057.900000
242.083500 762632.700000
243.091400 134271.200000
253.075700 170421.900000
256.086600 148679.300000
257.094900 178161.700000
259.086400 346685.500000
280.087800 511599.200000
281.095400 153331.700000

>ms2
50.015100 2567863.000000
51.022900 2390553.500000
52.018100 411366.100000
53.038600 3813358.500000
54.033800 2060466.400000
55.017900 109141.300000
55.029000 78113.700000
55.054200 1495961.600000
57.069800 545759.800000
60.983900 1478067.200000
61.007200 150302.900000
61.979200 552062.200000
62.015100 499151.800000
63.022800 2265336.500000
65.002100 133635.100000
65.038500 1187516.000000
66.033700 72537.300000
66.046400 119924.600000
67.041600 302726.500000
67.054200 633031.900000
74.015000 465011.300000
74.999500 279795.700000
75.022800 2702437.800000
75.994700 131206.600000
76.018100 148285.300000
76.030600 149930.600000
77.038500 4876190.500000
78.033800 1535306.200000
78.046400 435055.800000
79.054100 530261.900000
80.049400 4565028.000000
81.033500 415448.100000
81.069800 140806.600000
82.065200 87396.000000
84.080800 267044.300000
86.014700 106380.100000
87.022900 671691.200000
87.994800 717788.900000
88.017900 92705.900000
88.030700 312122.900000
89.002700 1253516.500000
89.038500 4185294.500000
90.033800 87490.800000
90.046300 1310411.900000
91.054200 1080664.000000
93.044700 101431.700000
93.057200 476887.000000
95.049100 9296476.000000
96.044300 1483720.200000
99.022900 877235.900000
101.038600 680592.900000
102.010500 401874.200000
102.033800 1360054.900000
102.046400 878432.200000
103.054100 1178611.900000
104.049400 453368.100000
105.044700 4701802.000000
107.060300 920303.300000
108.080700 337961.900000
111.022800 136936.300000
113.038500 5683957.000000
114.010800 86646.000000
114.033800 1132230.100000
114.046400 1264132.400000
115.054200 10236753.000000
116.049400 1199676.100000
117.057200 992055.900000
118.041200 143819.900000
119.049200 587677.400000
120.044300 511463.000000
124.030200 72731.500000
125.038500 2518603.000000
126.046400 4098924.800000
127.041600 310138.800000
127.054200 5018188.500000
128.049400 4058007.500000
128.062000 2614850.200000
129.044700 2547439.800000
129.057200 552990.100000
130.040000 2360583.000000
130.065000 253779.600000
131.060800 112724.000000
132.044500 139246.800000
132.057000 421680.000000
137.038500 3089021.800000
138.033900 491898.200000
138.046400 3418269.200000
139.054200 12444827.000000
140.049400 17909804.000000
141.021200 941871.700000
141.057200 1482927.100000
141.069800 287604.800000
142.029200 1753380.600000
142.041200 290759.800000
143.049100 568513.400000
145.064700 3469626.800000
146.060000 1057334.000000
149.038400 599121.900000
150.046400 15500481.000000
151.054200 11730890.000000
152.062000 71386920.000000
153.044600 413427.100000
153.057200 5437892.500000
153.069800 3051772.800000
154.065100 2024102.100000
155.050100 998297.400000
155.060300 6429376.500000
156.056800 734851.400000
157.052100 465500.300000
161.038500 507809.400000
162.046400 2796240.200000
163.054200 21367634.000000
164.049400 19731086.000000
164.061700 7844921.000000
165.057500 2927851.200000
165.069800 31512572.000000
166.052800 323749.600000
166.065100 5677447.500000
167.049100 407357.400000
167.072800 1078621.000000
168.056900 2926478.500000
168.068500 276445.000000
169.064700 33938720.000000
170.036200 234033.400000
170.060000 3153161.000000
175.041700 299992.600000
176.049500 417354.600000
176.061900 2145667.500000
177.057200 19347802.000000
178.065100 30388648.000000
179.060400 14772184.000000
179.072600 8676022.000000
180.055700 650385.400000
180.080600 3106230.500000
181.076200 300342.600000
182.060000 98942.800000
183.055100 159903.800000
183.068200 497279.800000
183.080500 259709.000000
185.046900 944115.800000
187.054200 904931.900000
188.049400 6937011.000000
189.057200 2239244.500000
189.070000 454627.200000
190.065000 12483769.000000
191.060300 4956755.000000
191.072600 974433.800000
192.068100 2759020.500000
193.052100 970701.100000
194.036300 382299.800000
194.060100 1350074.200000
196.052000 824222.600000
196.075600 9379127.000000
201.056800 299510.700000
202.065300 245564.200000
203.060100 644860.600000
203.072800 326200.300000
204.055600 1200697.400000
204.067900 639558.200000
205.076000 35141564.000000
206.083500 153408.100000
207.067800 368835.900000
211.062700 259463.800000
212.049300 976447.800000
213.057000 141095.000000
214.065200 2581088.200000
215.060200 296372.600000
216.080500 83895.000000
221.047500 569744.900000
221.070800 375366.300000
229.076100 327067.700000
239.060400 847194.500000
241.076200 289502.300000

>ms2
50.015100 4241030.500000
51.022900 3382751.800000
52.018200 461172.200000
53.002200 702353.700000
53.038600 4950052.500000
53.997400 108579.500000
54.033800 2134550.800000
55.017700 157035.400000
55.054200 996119.800000
57.069900 123544.700000
60.983900 1843464.600000
61.007200 534666.200000
61.979200 911468.600000
62.015100 2080296.000000
63.022900 10043854.000000
64.018100 399161.800000
64.030700 151299.300000
65.002200 290694.700000
65.038500 3601715.000000
66.046400 399433.900000
67.041600 138147.300000
67.054200 293480.100000
74.015000 2266991.000000
75.022900 10115586.000000
76.018100 1299347.800000
76.030600 1565879.800000
77.038500 6471388.000000
78.033800 1042469.200000
78.046400 2151267.500000
79.054100 111932.500000
80.049400 1800965.000000
81.033500 459393.100000
86.015000 1214392.200000
87.022900 4766902.500000
87.994900 140178.400000
88.018200 1157918.100000
88.030700 1820128.600000
89.038500 12051425.000000
90.033900 818947.700000
90.046400 1280541.600000
91.054200 1754856.000000
92.049600 91304.900000
93.057300 111212.100000
94.041300 277055.800000
95.049100 11774133.000000
96.044300 952468.900000
98.015000 1575543.800000
99.022900 3522976.000000
100.018100 318607.500000
100.030700 657993.300000
101.026100 87541.000000
101.038600 1433585.900000
102.033800 1157743.200000
102.046400 4526759.000000
103.041600 105147.300000
103.054100 655746.300000
104.049300 163713.200000
105.044700 6448249.500000
107.060200 161972.900000
108.080300 76339.900000
110.015100 387543.400000
111.023000 1402257.900000
112.018200 501576.200000
112.030700 286920.000000
113.038500 12481345.000000
114.033800 2892886.800000
114.046400 1521564.200000
115.054200 16743679.000000
116.049500 951924.100000
117.057200 654352.500000
118.041300 301362.600000
119.049200 1215773.900000
120.020800 88231.100000
120.044300 355165.000000
122.015000 119913.300000
123.023000 590953.900000
124.018200 103518.700000
124.030700 413534.000000
125.038600 6055972.500000
126.046400 14240452.000000
127.041600 1374729.400000
127.054200 5091141.000000
128.049400 2653564.200000
128.062000 2621927.200000
129.044600 4329873.500000
129.057400 408709.600000
130.039900 1405157.100000
130.064900 97715.000000
132.044300 360105.900000
132.056900 631870.800000
136.030800 72191.200000
137.038500 7738140.000000
138.033900 1796133.600000
138.046300 2708813.800000
139.054200 19160250.000000
140.049400 15319105.000000
141.021300 447802.600000
141.057400 292266.900000
142.028900 100079.000000
142.041300 68548.400000
143.049000 1110799.800000
145.064800 2768916.200000
146.059900 586552.700000
149.038600 1709643.100000
150.046400 40526596.000000
151.041700 1772825.200000
151.054200 11496984.000000
152.049500 2434517.800000
152.062000 43498040.000000
153.044500 939608.800000
153.057200 3868879.500000
153.069700 400009.600000
154.040000 371395.000000
154.065200 732887.800000
155.049900 890958.100000
155.060300 4777084.000000
156.044100 83623.400000
156.057000 419567.300000
157.052200 432995.000000
161.038500 2977524.000000
162.033900 451526.100000
162.046300 3775510.800000
163.054200 24692962.000000
164.049400 17497674.000000
164.061800 7645786.000000
165.044600 1186474.100000
165.069800 15476055.000000
166.041100 158502.300000
166.052900 118953.200000
166.065100 1343564.500000
167.049000 679182.900000
167.073000 126199.500000
168.056900 3438725.500000
169.064700 42681436.000000
170.060000 4595784.500000
174.046400 165012.500000
175.041700 1334078.200000
176.049400 463656.900000
176.061900 2318080.200000
177.057300 21489380.000000
178.065100 13902500.000000
179.060300 15315397.000000
180.055800 774499.100000
180.080500 355714.200000
183.055300 306733.900000
183.068300 96810.800000
183.080400 327488.500000
185.047400 581447.100000
185.059500 677974.000000
186.033100 76789.700000
186.046500 111118.300000
187.041500 372547.700000
187.054300 507803.100000
188.049400 8325658.500000
189.057400 976237.500000
189.069900 152336.400000
190.065000 4358916.000000
191.060300 897782.300000
192.068000 139932.100000
193.052200 414190.100000
194.036100 787581.100000
194.060100 2158131.800000
196.051900 1737784.400000
196.075600 2348059.200000
201.057500 99697.500000
203.060400 1042450.800000
204.055700 1643802.000000
204.067300 669360.800000
205.076000 4377487.000000
212.049500 1133083.900000
214.065100 870961.400000
221.047200 83492.500000
239.060300 120527.200000

>ms2
50.015100 6010163.000000
51.022900 6063366.500000
52.018200 691952.500000
53.002200 691704.900000
53.038600 3711369.000000
53.997500 95995.700000
54.033800 1543730.200000
55.017800 341012.500000
55.054200 125633.600000
60.983900 1400356.500000
61.007300 1778063.200000
61.979200 725442.400000
62.015100 5555104.000000
63.022900 19417516.000000
64.018100 1056285.000000
64.030700 430329.300000
65.002200 671831.800000
65.038600 4870122.500000
66.033900 97773.900000
66.046300 504280.700000
74.015000 8294004.500000
75.022900 16716142.000000
76.018100 1467221.500000
76.030700 4166341.800000
77.038500 5755308.500000
78.033800 702872.400000
78.046400 3088101.000000
80.049400 599145.800000
81.033500 719408.900000
85.007200 622300.750000
86.015100 4024528.000000
87.022900 10892503.000000
88.018200 2192910.000000
88.030700 2488197.000000
89.038600 15553575.000000
90.033800 672767.200000
90.046400 1013602.700000
91.054200 1274773.100000
94.041300 255283.000000
95.049100 10896693.000000
96.044300 327907.300000
98.015100 5033858.000000
99.022900 7190673.000000
100.018100 601623.100000
100.030700 2030935.500000
101.025800 107289.900000
101.038600 1150393.800000
102.033800 912278.200000
102.046400 6578225.500000
103.041600 155403.900000
103.054200 457770.200000
104.049400 97919.600000
105.044700 6220232.000000
110.015100 1472059.000000
111.022900 2543181.000000
112.018200 1067032.900000
112.030700 424440.000000
113.038500 12343048.000000
114.033800 2767552.800000
114.046300 805511.100000
115.054200 12580218.000000
116.049400 431278.000000
117.057200 107882.900000
118.041100 122486.600000
119.049100 996572.400000
120.020700 142982.200000
120.044400 96720.300000
122.015000 1010169.100000
123.022900 1250857.400000
124.018100 225206.000000
124.030800 1519937.900000
125.038600 5930198.000000
126.046400 15021276.000000
127.041700 1437807.500000
127.054200 1755289.400000
128.049400 753683.400000
128.062000 895359.400000
129.044700 2388652.200000
130.039800 661042.600000
132.044600 105872.300000
132.057000 375579.400000
136.030500 98714.300000
137.038600 6893231.000000
138.033800 2251913.200000
138.046300 1502619.600000
139.054200 12090236.000000
140.049400 4662072.000000
141.057600 103402.500000
143.049100 1110900.400000
145.064800 919660.400000
146.060000 298160.000000
149.038600 2159675.000000
150.046400 41856788.000000
151.041600 1824253.000000
151.054200 3964301.800000
152.049500 1335750.200000
152.062000 11360154.000000
153.044700 728858.200000
153.057300 1275958.400000
154.040300 98096.900000
155.049100 403473.800000
155.060400 1704570.200000
156.057100 101130.400000
161.038500 3500359.200000
162.033700 376039.000000
162.046400 2912702.200000
163.054200 20577764.000000
164.049500 5386512.500000
164.061800 3108582.200000
165.044800 411630.200000
165.069900 2912805.800000
166.041100 158586.500000
166.065100 137934.400000
167.049000 842898.600000
168.056900 1747293.900000
169.064800 18629868.000000
170.036100 299897.800000
170.060000 1809834.500000
174.046700 282288.100000
175.041600 1296801.200000
176.049700 479189.700000
176.061900 725373.100000
177.057300 8938892.000000
178.065100 2431234.800000
179.060300 6085515.000000
180.055800 270386.300000
185.047100 117956.100000
185.059500 836895.200000
186.034000 93265.500000
186.046000 95490.900000
187.041500 344497.200000
187.054400 116934.200000
188.049500 3431017.500000
189.057200 298627.400000
190.065200 835904.800000
193.052000 103887.600000
194.036300 777443.100000
194.060000 1560511.800000
196.052000 628990.900000
196.075500 115717.700000
203.060500 540313.900000
204.055800 1028015.400000
205.076300 73562.800000
212.049600 558572.800000
221.047200 89551.000000

