>compound EQ48855044
>parentmass 377.0908
>ionization [M+H]+
>formula C19H12F4N2O2
>rt 924.000000
>profile orbitrap
#smiles_iso C1=CC(=CC(=C1)OC2=CC=CC(=N2)C(=O)NC3=CC=C(C=C3)F)C(F)(F)F
#smiles_can C1=CC(=CC(=C1)OC2=CC=CC(=N2)C(=O)NC3=CC=C(C=C3)F)C(F)(F)F
#inchikey CWKFPEBMTGKLKX-UHFFFAOYSA-N
#pubchem_id 3294375
#mb_accession EQ360301,EQ360302,EQ360303,EQ360304,EQ360305,EQ360306,EQ360307,EQ360308,EQ360309

>ms2peaks
149.023300 72214.200000
238.045500 404318.100000
256.057900 330438.900000
284.052800 2000784.100000
337.077800 228624.200000
357.084400 889483.800000
359.079900 2403858.000000
377.090400 39335236.000000

>ms2peaks
57.069600 26982.400000
145.025900 52287.800000
236.051600 737019.600000
238.047100 629894.600000
256.057700 22317852.000000
258.061600 45361.200000
266.041900 74622.100000
270.073100 145598.900000
284.052700 6330209.000000
289.076800 43809.200000
298.068300 42116.400000
309.082900 220574.400000
329.089200 129133.500000
337.078000 1295396.400000
357.084300 623480.500000
359.079900 12127974.000000
377.090500 2661662.500000

>ms2peaks
53.002000 26777.000000
57.069700 26806.200000
73.008300 68240.600000
94.028600 23394.200000
123.035200 43941.900000
149.023200 78397.800000
163.036600 32553.800000
173.032000 219243.800000
183.041600 81199.300000
188.050000 33477.800000
190.046100 206891.600000
210.052400 295811.600000
218.041200 165944.200000
236.051700 730930.200000
238.047300 14000184.000000
256.057700 21290772.000000
258.061600 47326.100000
270.073100 143215.200000
284.053000 130934.700000
289.077100 244108.800000
291.072700 29391.300000
309.083000 205068.400000
317.071400 27854.400000
329.089400 115732.100000
337.077800 226287.400000
339.074000 29248.200000
359.079900 8300198.000000

>ms2peaks
53.002200 221018.500000
53.997400 48193.100000
57.069800 23201.400000
67.989200 25368.800000
71.029000 19377.700000
73.008300 151625.300000
75.022800 54671.300000
94.028700 51155.700000
95.028900 38226.200000
101.019700 41843.600000
113.039600 126853.600000
123.035200 290391.900000
141.057200 106653.100000
143.030300 46842.500000
145.025900 1897157.100000
149.023400 57843.100000
163.036400 183551.900000
166.046500 28581.900000
169.051800 30577.500000
171.048000 17990.900000
173.032100 1428149.500000
183.041600 742502.800000
188.050500 238990.700000
190.046200 1367336.400000
191.041000 29679.300000
196.037300 50718.400000
197.050900 38689.200000
210.052500 1836934.000000
212.030900 31610.700000
215.061500 40309.600000
218.041200 359042.000000
219.041800 17892.100000
223.050000 18324.200000
236.051900 137072.500000
238.047300 17482512.000000
243.057100 29316.800000
256.057900 3246675.800000
261.082000 36584.400000
262.066300 18725.400000
265.057600 40450.000000
269.071200 18974.300000
270.073100 18274.400000
289.077100 152689.300000
291.072700 55735.700000
309.082700 21616.000000
339.073200 18123.900000
359.080000 1205838.900000

>ms2peaks
51.022800 23239.200000
52.018200 8764.300000
53.002200 372418.000000
53.997400 84760.100000
57.069700 8517.000000
66.033700 24587.600000
67.989300 37225.400000
71.029100 37800.000000
73.008300 87582.300000
74.015000 24133.200000
75.022800 195776.000000
78.008700 26443.500000
79.017700 14225.800000
93.020900 24646.000000
94.028700 117662.100000
95.029000 90994.300000
101.019600 61978.600000
113.039600 190962.300000
114.034900 16809.100000
121.028500 14403.000000
121.039600 15573.300000
123.035200 422196.200000
125.019600 66042.000000
126.027400 15348.500000
133.044700 102544.300000
140.049300 61322.000000
141.057200 346754.700000
143.030000 55965.900000
145.025900 8387773.500000
149.023200 39337.200000
160.055600 18253.600000
163.036300 228489.300000
164.043300 15063.800000
166.046600 15315.600000
168.044200 15469.400000
169.052000 35439.900000
170.039900 41841.000000
170.052500 15302.100000
171.047900 23091.600000
172.055600 18154.900000
173.032100 1574190.400000
181.045900 34193.500000
182.034000 37617.000000
183.041600 1058605.800000
184.036800 17274.600000
188.050500 327933.600000
189.038300 15462.900000
190.046200 1705263.600000
191.041400 156740.900000
196.036900 58708.600000
197.050900 60077.200000
198.034800 18132.000000
198.046000 27938.000000
208.057200 26561.100000
209.044800 14141.100000
210.052500 1520728.500000
212.031400 47094.000000
215.061400 15409.400000
218.041200 237476.700000
219.041100 13798.700000
238.047300 4445815.000000
243.056000 17359.600000
256.058000 141544.300000
260.074400 29689.800000
261.082100 18641.800000
289.076900 66875.000000
291.073000 8784.900000
359.079500 36786.800000

>ms2peaks
50.015100 24372.400000
51.022900 39525.500000
53.002200 314573.000000
53.997400 71760.400000
56.049400 18519.900000
65.026000 19373.700000
65.038600 26400.100000
66.033800 43247.500000
67.989200 35049.700000
71.029100 71619.900000
73.008300 44662.800000
74.015000 59050.600000
75.003900 32818.700000
75.022900 467947.500000
78.008700 20580.900000
79.017800 22118.700000
90.046400 17025.400000
93.021000 27457.600000
94.028700 105731.400000
95.010400 29461.300000
95.029100 182556.400000
99.004000 14127.600000
101.019700 27734.800000
113.039700 438057.400000
119.010200 30751.800000
123.035300 858640.500000
125.019700 379599.600000
126.027400 16491.700000
132.057000 13996.600000
133.044800 240732.000000
139.035400 18656.600000
140.049400 137368.000000
141.057300 296987.600000
143.029600 73019.800000
145.025900 12450421.000000
150.033900 16831.400000
163.035700 147313.800000
164.043300 21650.800000
168.044700 28150.500000
169.051800 27157.200000
170.040100 75506.600000
170.052400 15668.300000
171.036100 25399.200000
171.048000 17432.800000
173.032100 518566.500000
178.039500 16184.300000
181.045700 53359.600000
182.033800 119741.400000
183.041600 499343.400000
184.036800 32721.900000
188.050600 215201.800000
189.038500 71132.900000
190.046200 785756.800000
191.041400 273768.900000
196.037100 17131.400000
197.050900 43047.700000
198.046100 41529.800000
210.052500 292005.100000
212.031800 23673.200000
218.041300 90925.700000
219.041600 16160.500000
238.047400 366670.700000
289.076800 18107.900000

>ms2peaks
50.015100 76695.200000
51.004100 79996.600000
51.022900 107444.600000
53.002200 300527.700000
53.997400 59584.200000
56.049400 19791.100000
57.013500 178789.200000
63.022800 14159.400000
64.018100 7609.300000
65.026000 45154.100000
65.038500 53028.900000
66.033800 45462.200000
67.989200 22111.800000
68.994600 141821.200000
69.013400 24069.700000
71.029100 252190.900000
73.008400 20622.900000
74.015000 409054.600000
75.004000 535945.900000
75.022800 2290833.200000
76.018100 16633.300000
76.030600 8984.100000
77.019600 8311.800000
78.008600 14726.400000
79.017800 83768.300000
81.013500 107236.600000
83.029000 21446.600000
88.030700 15920.600000
89.038600 8567.300000
90.046400 23553.800000
93.020900 21880.700000
93.033500 31503.200000
94.028800 24660.600000
95.010300 201589.300000
95.029100 734346.200000
99.004000 188967.700000
99.024200 30580.400000
101.002300 7779.700000
101.019700 43758.300000
105.013400 21312.500000
107.029200 28770.000000
109.044900 8453.400000
111.044100 37443.300000
112.031900 7579.200000
113.039600 1517410.200000
114.027400 7876.900000
114.033900 7528.600000
114.046300 55204.200000
115.035400 52288.400000
115.054300 18798.000000
117.013400 8090.800000
118.041200 19064.800000
119.010300 268349.300000
121.039700 7527.100000
123.035200 3240270.000000
124.018000 33260.500000
124.032400 26080.400000
125.019700 1820995.600000
126.027400 29808.100000
132.057000 40883.700000
133.044700 327612.000000
134.039900 40187.700000
140.049400 293398.000000
141.057200 88564.900000
143.029300 233873.300000
145.025900 7417246.500000
150.033500 36860.500000
158.040100 21938.300000
161.039900 36262.400000
162.027200 30769.600000
164.030500 14573.900000
164.043000 18445.300000
168.044200 29748.500000
170.039900 26927.900000
170.052500 15779.800000
171.036200 67275.700000
173.032200 24538.800000
178.039700 22679.700000
181.045900 17309.900000
182.033700 156497.400000
183.041600 36102.100000
188.050400 44301.300000
189.038300 93528.100000
190.046300 98693.800000
191.041400 119929.900000
197.050500 8605.400000

>ms2peaks
50.015100 94037.500000
51.004100 192886.400000
51.022900 59554.500000
53.002200 355378.300000
53.997400 52362.700000
55.017900 7622.900000
57.013500 352306.500000
61.007300 29602.200000
62.015100 21822.100000
63.022900 82735.600000
64.018200 22220.600000
65.026000 48045.900000
65.038500 81368.800000
66.033800 20447.500000
67.989200 15025.400000
68.994600 547514.100000
69.013400 113288.300000
71.029100 173090.900000
74.015100 1454540.800000
75.004000 1397150.600000
75.022800 6122878.500000
76.030600 32407.500000
77.019700 23169.400000
78.008700 6912.100000
79.017800 56796.300000
81.013500 225817.400000
83.029000 64915.900000
85.007200 7079.200000
87.022800 33911.400000
88.030700 46254.700000
89.002200 14933.900000
89.038500 33837.200000
90.046500 14362.700000
92.994700 32972.000000
93.013600 19456.700000
93.033500 27865.700000
94.021500 6779.900000
95.010300 270490.200000
95.029100 959032.200000
98.015100 14809.200000
99.004000 416346.100000
99.023000 50355.200000
101.002200 24070.000000
101.019700 52948.000000
105.013400 56859.200000
107.029100 76213.300000
111.044000 22976.800000
113.039600 1168737.000000
114.027700 35047.600000
114.033700 25623.500000
114.046500 36083.800000
115.035300 21697.000000
115.054500 9911.900000
117.013500 43236.100000
118.041400 8309.200000
119.010300 310904.200000
122.015000 71595.200000
123.023000 209511.100000
123.035200 2286955.000000
124.018200 59192.800000
124.032400 19444.400000
125.019700 1262212.400000
131.029300 8878.100000
132.037000 15920.400000
132.057000 18322.100000
133.044700 219115.100000
134.040000 13129.200000
140.049400 189211.900000
143.029300 122406.400000
144.037000 19619.500000
145.025900 1339776.000000
151.035500 15990.600000
158.040000 16808.900000
161.039700 27731.100000
162.027500 75116.800000
164.043000 6616.400000
171.036500 24818.400000
182.033600 63615.800000
188.050800 6241.300000
189.038400 33970.000000
190.046700 6425.900000
191.041100 19765.000000

>ms2peaks
50.015100 87106.200000
51.004100 255674.700000
51.022900 42145.800000
53.002200 321834.800000
53.997400 49434.500000
57.013500 505485.400000
59.029100 8023.300000
61.007300 62620.400000
62.015100 93421.400000
63.022900 180364.000000
64.018100 42842.300000
65.002200 24074.000000
65.026000 19169.300000
65.038500 65408.100000
68.994600 1020697.000000
69.013400 305508.500000
71.029100 56371.900000
74.015000 3745431.000000
75.004000 1863372.900000
75.022800 7491637.000000
76.018100 8758.100000
76.030600 32778.100000
77.019600 13529.000000
79.017700 15896.300000
81.013500 256615.500000
83.029100 82299.400000
85.007200 25805.700000
86.015000 36548.500000
87.022900 85461.000000
88.018000 16219.000000
88.030700 49687.300000
89.002200 32862.900000
89.038400 34890.300000
92.994600 80153.600000
93.013600 28732.900000
94.021300 18376.600000
95.010200 152329.200000
95.029100 437471.200000
98.015100 52338.900000
99.004000 506035.200000
99.022800 42381.700000
100.018100 17238.400000
101.002100 7514.500000
101.019700 27881.200000
105.013500 70723.500000
107.029000 72659.800000
113.039500 397474.800000
114.027400 22333.700000
114.033800 30321.700000
117.013400 37360.000000
119.010300 135683.300000
122.015000 166985.700000
123.022900 142033.100000
123.035200 704604.200000
124.018000 34277.300000
125.019700 391645.200000
131.028900 24916.600000
133.044700 57955.900000
138.027400 7933.700000
140.049400 62564.700000
143.029200 21007.100000
145.025900 126288.500000
151.035100 8038.500000
162.027300 40322.900000

