>compound EQ48299785
>parentmass 314.0935
>ionization [M+H]+
>formula C16H12FN3O3
>rt 474.000000
>profile orbitrap
#smiles_iso CN1C(=O)CN=C(C2=C1C=CC(=C2)[N+](=O)[O-])C3=CC=CC=C3F
#smiles_can CN1C(=O)CN=C(C2=C1C=CC(=C2)[N+](=O)[O-])C3=CC=CC=C3F
#inchikey PPTYJKAXVCCBDU-UHFFFAOYSA-N
#pubchem_id 3380
#mb_accession EQ368101,EQ368102,EQ368103,EQ368104,EQ368105,EQ368106,EQ368107,EQ368108,EQ368109

>ms2peaks
314.093300 893688256.000000

>ms2peaks
123.024000 1779760.500000
165.065900 3144333.500000
191.045300 951849.900000
193.060800 3170688.000000
211.079400 1316840.100000
227.073500 936564.500000
228.081900 1082989.100000
240.069200 2853820.500000
240.105300 1724049.500000
256.100300 1832258.800000
257.072400 3022046.500000
267.092500 1765411.800000
268.100500 46091348.000000
283.088000 1250334.600000
286.098600 15547593.000000
300.090600 14063861.000000
314.093300 822724992.000000

>ms2peaks
58.028700 1331500.800000
80.049400 1048936.600000
92.049300 656284.300000
94.065200 1561074.500000
107.072900 1593107.000000
109.044800 2330664.800000
117.057200 800555.600000
118.065000 494090.200000
119.060500 925852.500000
119.072900 3067337.000000
120.068200 371021.100000
121.075900 456185.600000
123.024000 4093762.200000
133.052000 357927.000000
134.040000 424895.200000
143.060400 544626.900000
144.068300 872804.500000
147.067800 4191793.800000
148.039200 393049.800000
151.062600 347166.900000
165.065900 10024716.000000
172.062900 2773245.200000
179.057900 899516.800000
183.060000 1328913.900000
190.061100 2344015.000000
191.045100 3901534.200000
193.060800 6024816.000000
193.088400 398689.300000
197.063500 2831780.200000
198.071300 954160.300000
199.055000 812334.100000
199.079200 2724184.800000
201.052900 732755.600000
205.076000 1673575.800000
210.071400 7022352.000000
211.079200 17243356.000000
212.087000 2994611.000000
213.082200 1763451.000000
213.094800 813225.200000
214.066200 1916845.500000
219.091600 1014166.600000
220.099400 1008609.400000
221.107300 2167688.800000
225.082400 2268505.800000
226.066200 456892.900000
227.074400 2357890.800000
227.097900 5859588.000000
228.081900 5778033.500000
228.105600 3993522.500000
235.086900 565607.000000
238.089800 799599.600000
239.097900 23625714.000000
240.069500 9978340.000000
240.105700 27185292.000000
241.077000 721801.000000
241.089800 346328.800000
243.068800 1113215.100000
243.092700 968941.600000
245.072400 545613.400000
246.056500 782902.600000
249.102300 319746.200000
255.092900 2070964.500000
256.100600 6415481.500000
257.072100 11305332.000000
259.088100 1084794.100000
267.092800 10271382.000000
268.100600 314292896.000000
269.095700 407214.100000
270.067200 3136982.200000
271.087700 1624708.000000
272.095400 5549971.000000
283.087600 4883910.000000
284.082700 1447201.900000
284.096200 442306.800000
285.090600 1447713.200000
286.098600 30794408.000000
300.090500 113044216.000000
302.094500 405703.100000
314.093400 223915200.000000

>ms2peaks
53.038500 353068.400000
58.028700 2792785.000000
65.038600 658922.600000
80.049300 1245393.900000
89.038600 197075.300000
90.046500 1478301.500000
91.054200 492732.300000
92.049600 847091.600000
93.057300 438372.500000
94.065100 1843415.500000
104.049400 1492832.100000
105.057200 342283.400000
106.065100 554345.700000
107.072900 3802069.200000
109.044800 4104045.000000
117.057200 2766784.800000
118.065100 6984889.500000
119.073000 23419868.000000
120.044400 441039.200000
120.068200 814993.900000
122.039900 868780.700000
123.024000 4874717.000000
131.060400 1157789.100000
132.044400 820019.600000
133.051900 675997.200000
134.040000 1083790.900000
134.059900 276280.200000
135.067900 320048.300000
143.060400 3257895.000000
144.068300 2161949.800000
145.052200 1506548.500000
145.076000 1934090.100000
146.060100 492020.000000
147.067800 9282966.000000
148.039500 684888.800000
150.018500 401211.100000
151.062800 2023816.400000
162.035100 405256.300000
164.061900 750866.100000
165.065200 3509387.000000
166.077700 360916.500000
170.052600 4448673.500000
172.062900 800674.900000
173.071200 399485.000000
174.059100 468144.500000
176.058000 308428.200000
179.057600 3257102.200000
179.072700 682523.800000
180.080900 636600.200000
182.052500 1035865.100000
182.096400 471248.000000
183.060500 14038976.000000
184.068200 2585152.800000
185.063600 974596.500000
185.076000 717101.100000
186.071100 709140.400000
190.062000 972420.200000
191.045200 1014772.400000
191.072700 1213564.500000
192.080800 2108069.500000
193.060700 1188123.800000
193.075400 246036.000000
193.088700 2017168.600000
194.096500 410034.000000
196.055900 337356.600000
197.063600 22774342.000000
198.071400 13332562.000000
199.055300 1434523.200000
199.079200 3685567.500000
200.063200 366414.700000
200.087000 1222256.600000
201.053500 419422.100000
204.081100 720136.500000
205.076200 13089082.000000
206.083700 632318.800000
208.055600 894711.900000
208.099500 196423.000000
209.063900 1083201.500000
209.107300 838498.200000
210.071400 18165078.000000
211.079300 46192864.000000
212.087100 23887306.000000
213.058800 284077.800000
213.082300 4937226.500000
213.094700 2924998.000000
214.066300 2250989.000000
218.084200 202801.300000
219.091700 12190314.000000
220.099500 4578312.000000
221.107400 18068918.000000
222.071400 8770740.000000
223.066600 1671277.500000
223.079300 1218917.000000
224.074500 4731208.000000
224.086900 1494703.800000
225.082300 16306684.000000
226.066300 777444.800000
226.089800 912923.400000
227.074400 1277806.100000
227.097900 12374092.000000
228.082000 4722045.000000
228.105600 1636959.400000
235.087100 623783.100000
237.082400 1502684.600000
237.102400 339221.800000
238.066600 1177719.900000
238.090200 4093489.500000
239.097900 161992048.000000
240.069300 2397084.200000
240.105700 35525944.000000
241.077100 1009658.300000
241.089800 388817.200000
243.069200 2541622.500000
243.092300 1603178.800000
245.072700 226069.000000
245.084800 719179.700000
246.056400 193716.800000
247.086500 402515.200000
249.102600 889193.800000
253.077100 752734.200000
255.092800 2408389.500000
256.063800 764386.200000
256.100800 1105372.800000
257.072100 3145773.000000
267.092900 11593652.000000
268.100600 185117328.000000
270.067300 3382835.000000
270.080200 1236727.500000
271.087300 1572590.000000
272.095500 7972026.000000
283.087600 2594028.200000
284.095800 193305.000000
286.098700 4207901.000000
300.090500 71131760.000000
314.093600 11103459.000000

>ms2peaks
53.038600 384313.900000
58.028700 2526201.500000
63.022900 155213.200000
65.038600 992204.900000
66.046400 657265.600000
67.041700 155143.100000
68.049500 174809.600000
77.038600 406560.200000
78.033700 323277.000000
78.046400 1151601.900000
80.049400 1220332.500000
89.038500 2659344.200000
90.046400 7316471.500000
91.041700 400432.200000
91.054200 2921091.800000
92.049500 810743.400000
92.062100 396194.100000
93.057300 646804.400000
94.065200 605720.900000
95.049200 467969.000000
103.041700 468591.700000
104.049400 5935422.500000
105.044700 490027.500000
105.057400 570328.500000
106.065100 1477276.200000
107.072900 3032544.200000
109.044800 4058066.200000
115.041700 429636.500000
116.049500 1783395.200000
117.057300 4124986.000000
118.065100 22985178.000000
119.073000 27090800.000000
120.044400 516491.900000
120.068100 589287.500000
122.040100 1563072.000000
123.024000 3550532.200000
129.044600 754316.300000
130.040100 157595.000000
131.060300 1356687.400000
132.044400 1788599.600000
133.052400 357037.500000
134.040100 1884397.400000
134.060100 854124.700000
136.055600 621373.900000
143.060500 6207642.000000
144.068200 2235924.200000
145.052300 1108402.500000
145.076200 2014995.400000
146.060000 1026543.000000
147.055400 298458.100000
147.067900 4834114.000000
148.039200 466418.200000
148.055700 196142.700000
150.018800 199668.000000
150.055100 540237.100000
151.054100 168274.200000
151.062900 2314845.000000
152.062100 333894.700000
154.065400 191647.500000
159.060500 356445.800000
161.063600 182472.500000
162.035300 192573.500000
163.053900 155233.700000
164.062000 1891831.500000
165.070000 9026484.000000
166.065400 1053292.400000
166.077600 1368239.800000
167.073000 499771.800000
168.057100 774165.200000
169.064800 165940.200000
170.052700 21698946.000000
171.060700 1883260.900000
172.056000 645368.800000
173.063700 179974.700000
173.070500 238549.100000
174.058800 2632183.800000
174.071500 480879.500000
176.058100 361199.100000
177.057200 453934.300000
177.069900 173073.100000
178.065200 1628844.200000
179.057600 1777705.200000
179.072900 1112090.600000
180.080800 2030067.500000
182.052600 2126278.800000
183.060500 44577416.000000
184.056400 738633.100000
184.068300 5600215.500000
185.063600 2710444.000000
185.076100 2409641.500000
186.047500 686673.600000
186.059000 287552.900000
186.071300 1708658.000000
190.065200 6083015.500000
191.072900 3586124.500000
192.080800 8535220.000000
193.076200 569590.200000
193.088800 2440202.500000
194.096700 1543800.800000
195.060700 1109722.900000
196.055800 2038669.400000
196.068200 892779.000000
196.076200 372931.700000
197.063600 24136716.000000
198.071400 42381308.000000
199.055500 1888013.900000
199.066600 568565.800000
199.079300 1877734.000000
200.063200 412516.200000
200.074400 177040.700000
200.087200 1658217.900000
201.071100 427782.500000
201.082400 675698.700000
202.065100 1522525.100000
203.072300 385564.900000
204.080900 3996051.800000
205.076200 22999564.000000
206.084000 2618096.200000
207.092300 884889.800000
208.055800 3774175.500000
208.075700 526516.600000
209.063500 2315372.200000
209.107300 404436.700000
210.071500 29648074.000000
211.079300 44894268.000000
212.075100 3324342.200000
212.087000 38866200.000000
213.082400 4183570.500000
213.094800 2065347.600000
214.043000 299286.700000
214.066300 1505190.100000
217.076300 188475.600000
218.084000 1263726.000000
219.091800 23231260.000000
220.076100 1285132.900000
220.099500 3730209.000000
221.107400 18513674.000000
222.071400 35548680.000000
223.066700 8760282.000000
223.079200 3152771.500000
224.074500 18883842.000000
224.086400 1507834.000000
225.082300 20160178.000000
226.066400 712612.900000
226.090400 666726.300000
227.074400 552344.200000
227.097900 10185717.000000
228.082100 1763090.500000
235.086800 379732.000000
237.082300 6960832.000000
238.066200 1707923.200000
238.090100 5917199.000000
239.097900 152175152.000000
240.082400 950151.900000
240.105700 9629814.000000
241.077100 674314.600000
243.069000 1732830.900000
243.093000 194982.200000
245.084700 409401.300000
247.086800 370111.800000
249.102800 623315.900000
252.069100 774136.200000
253.077300 751898.900000
255.093100 1071840.400000
256.064300 1715419.000000
267.092800 4369366.500000
268.100600 23713532.000000
270.067000 1150705.000000
270.080300 918596.800000
271.087800 492219.600000
272.095500 3184968.000000
283.087500 162776.300000
300.090500 9381154.000000

>ms2peaks
50.015100 158639.800000
51.022800 340713.500000
52.018200 131256.400000
53.038500 638732.800000
54.033800 162422.200000
58.028700 2873155.200000
63.022900 531188.400000
64.030700 92840.900000
65.038500 1605250.400000
66.046400 1136832.200000
67.041600 176116.000000
68.049400 149361.700000
77.038500 751699.100000
78.033700 457670.600000
78.046400 2002024.400000
79.041600 88625.000000
80.049400 1494407.100000
83.029100 463847.200000
88.030700 86881.600000
89.038500 10244552.000000
90.046400 13312559.000000
91.041600 936879.100000
91.054200 8832201.000000
92.049400 821859.900000
92.062000 326033.700000
93.057400 698325.200000
94.041300 99581.800000
94.065100 198501.900000
95.049100 916636.400000
96.044300 882887.800000
102.033800 412776.100000
103.041600 542908.800000
103.054100 84952.500000
104.049400 10103490.000000
105.033400 191113.900000
105.044700 971284.800000
105.057300 507844.800000
106.065100 1994625.900000
107.029100 569480.700000
107.072800 1315044.400000
108.036900 191242.800000
109.044800 4583475.500000
110.060000 151708.400000
113.039700 101088.000000
114.034000 87828.900000
115.041600 696157.800000
116.049500 7168542.000000
117.057200 5773597.500000
118.065100 31211364.000000
119.072900 13077727.000000
120.044200 165526.800000
120.068100 193033.400000
121.044700 93385.700000
122.040000 3349396.000000
123.024000 1954342.100000
123.035200 409184.200000
128.049300 187919.200000
129.044600 2340932.800000
130.040000 930563.400000
130.064900 117844.300000
131.060500 673103.300000
132.044300 1129047.000000
133.044700 940385.700000
133.052300 394126.700000
134.040000 2986234.200000
134.060000 2079411.500000
135.047800 325479.100000
136.055800 672471.600000
139.054200 498696.100000
140.049600 133999.100000
140.062000 178442.700000
142.052600 602580.400000
143.060400 7383848.500000
144.055600 444896.000000
144.068100 1288476.800000
145.052200 428677.700000
145.076000 1325393.200000
146.052700 577510.500000
146.059800 783380.400000
147.055100 145936.900000
147.067900 1214748.400000
148.039400 112165.300000
148.055500 383280.000000
150.046400 321208.400000
150.054300 244744.800000
151.054200 1959937.000000
151.062700 945513.900000
152.062100 1163522.600000
153.069800 469981.200000
154.065100 395908.800000
155.060300 141474.000000
157.039200 110097.400000
157.044800 424007.800000
158.040100 410541.100000
158.052700 460878.600000
159.060300 802022.400000
161.063600 518442.200000
161.070700 342309.100000
163.054100 1771524.000000
164.049700 462436.700000
164.062000 3053694.200000
165.069900 24500272.000000
166.065200 1823573.500000
166.077400 1051776.400000
167.072700 849609.200000
168.056900 973725.100000
169.044500 176691.000000
169.064700 2400532.750000
170.052600 38144432.000000
171.048000 414818.300000
171.060400 5019278.500000
172.055800 1123111.000000
173.051200 455685.600000
173.063800 306127.400000
173.070700 137925.300000
174.058800 4138757.500000
174.071300 556354.600000
175.054100 630505.100000
176.049400 105961.800000
176.062600 141603.700000
177.057200 2428368.500000
177.069300 834527.062500
178.065100 5611468.500000
179.060200 2454407.800000
179.072700 1622288.200000
180.080700 3124215.000000
181.044300 762380.100000
181.088700 195196.400000
182.052600 2604995.800000
183.060500 80694800.000000
184.056000 1640248.000000
184.068300 5038728.500000
185.063500 5784112.500000
185.076100 2813181.000000
186.047300 929656.800000
186.058900 492722.900000
186.071200 1778463.200000
187.055400 473275.200000
190.065100 12741400.000000
191.072900 7545212.000000
192.080700 13690871.000000
193.064900 581771.600000
193.076000 1285153.200000
193.088600 2335650.200000
194.052500 868838.800000
194.060300 645101.600000
194.096500 1486192.900000
195.047700 364370.700000
195.060600 3775266.500000
196.055600 5383829.000000
196.068200 2661610.000000
196.075900 1098377.400000
197.063500 17023110.000000
198.071300 51622920.000000
199.055300 1345261.100000
199.066500 811905.100000
199.079200 1036976.700000
200.050800 90592.600000
200.063400 131259.800000
200.074600 391826.300000
200.087100 970324.400000
201.057400 1121827.800000
201.071400 175123.000000
201.082100 160265.600000
202.065100 6031528.500000
203.060500 1225846.800000
203.072900 848534.800000
204.055700 488849.700000
204.068300 2023432.900000
204.080800 5338319.500000
205.076100 25274480.000000
206.083900 4483822.000000
208.055700 6779245.500000
208.075800 599536.200000
209.063500 5009601.000000
210.071400 24299748.000000
211.067300 1847250.600000
211.079200 29858864.000000
212.074600 5880958.000000
212.087000 26995324.000000
213.058300 179244.700000
213.082200 2014565.100000
213.094400 403462.300000
214.042500 346874.500000
214.066100 787735.600000
216.068400 109008.100000
217.076100 618458.200000
218.083900 4195264.500000
219.091700 20103342.000000
220.055400 353530.300000
220.075800 3067278.200000
220.099400 1614428.800000
221.063200 1307786.000000
221.107300 7268535.000000
222.071300 45241908.000000
223.066700 27061922.000000
223.078700 2317755.800000
224.074400 22044322.000000
225.082200 8824632.000000
226.066500 420996.900000
226.090000 164140.400000
227.097800 3690932.000000
228.081900 556970.500000
229.053200 468115.000000
233.071400 159965.500000
234.078900 183453.300000
235.086600 143767.500000
236.074600 156141.300000
237.082200 8858848.000000
238.066100 2201958.000000
238.090000 5107816.000000
239.097900 48968328.000000
240.082200 382554.600000
240.105600 850583.100000
243.068800 356908.900000
247.086800 119372.700000
252.069600 647009.800000
253.077800 119108.800000
256.064300 1818291.800000
267.092600 710894.900000
268.100600 1134619.100000
272.095700 186108.200000
300.090100 507378.000000

>ms2peaks
50.015100 986367.800000
51.022900 677168.900000
52.018100 172764.200000
53.002200 136267.700000
53.038600 1105792.600000
54.033900 183924.200000
55.017800 96751.700000
57.013400 307043.600000
58.028700 1534028.100000
62.015000 627512.900000
63.022900 2432490.800000
64.030800 920931.300000
65.038600 4133517.200000
66.033800 162522.000000
66.046400 933604.900000
67.041600 586941.600000
75.022900 1583725.900000
76.018200 345982.600000
76.030700 803610.600000
77.038500 1879221.800000
78.033800 2090398.200000
78.046400 1680969.600000
79.041600 375400.400000
79.054200 691400.600000
80.049400 1429842.800000
81.033500 171855.900000
83.029100 1831312.000000
88.030800 172278.200000
89.038600 29811594.000000
90.033800 1304677.900000
90.046400 7013642.500000
91.041700 2696656.000000
91.054200 18653130.000000
92.049400 1491988.600000
93.057300 414964.700000
94.041300 94194.500000
95.049100 2938394.500000
96.037000 124975.400000
96.044300 1931650.800000
102.033800 1373293.900000
103.041600 562290.900000
103.054200 95788.700000
104.049400 7145272.000000
105.044700 2747485.500000
105.057200 147200.000000
106.065200 1504542.900000
107.029100 2286094.000000
108.037000 391392.300000
109.044800 4371020.500000
110.059900 136055.600000
113.039400 392241.400000
114.034000 734219.800000
114.046600 121245.600000
115.041700 708497.600000
115.054200 1379580.900000
116.037000 865377.500000
116.049500 9104098.000000
117.057300 7969467.500000
118.065100 14725073.000000
119.060400 392068.000000
119.073000 1147129.500000
120.037000 527674.100000
120.044300 771822.100000
121.032300 125862.000000
121.045000 151314.500000
122.040100 2485225.000000
123.024000 456614.800000
123.035400 950329.100000
125.038700 982244.600000
126.046600 315062.500000
127.054300 548443.500000
128.049500 517347.400000
128.062100 341231.400000
129.044600 1743115.600000
130.040000 3005651.000000
131.029400 159228.100000
131.060600 129876.000000
132.044700 155512.600000
133.044800 6070146.000000
134.040100 1850679.100000
134.060100 1872002.900000
135.048000 396759.600000
136.055600 110015.100000
138.046600 808494.600000
139.054200 2445434.200000
140.049400 1558258.200000
140.062000 477428.200000
142.052600 1959065.800000
143.060400 2099342.200000
144.037000 1705432.800000
144.055600 400677.800000
144.068300 181842.200000
145.045000 320862.700000
145.064800 473472.700000
146.052600 3355472.200000
147.048000 106556.400000
148.055600 375468.300000
149.038300 962830.562500
150.046400 4866894.000000
151.054200 8821802.000000
152.049700 939400.300000
152.062100 4322181.500000
153.044600 115475.800000
153.057300 937449.900000
153.069800 660550.400000
154.040400 114375.000000
154.065300 643529.900000
155.049400 389555.900000
155.060300 1056217.100000
157.044900 4473125.500000
158.040100 1983569.200000
158.052600 1045068.800000
159.060600 1509255.000000
161.038500 187403.400000
161.063600 377497.600000
163.054200 14031181.000000
164.049900 2373355.800000
164.062000 5079442.500000
165.069900 34948960.000000
166.065100 2192240.800000
167.073000 1043328.800000
168.036800 467120.800000
168.057000 1710799.400000
169.044900 2016214.800000
169.064800 15266824.000000
170.052700 47231544.000000
171.048400 1908036.900000
171.060400 4781116.000000
172.055700 1680667.400000
173.039500 140742.200000
173.051000 1624535.500000
174.046700 819600.200000
174.058700 1406682.000000
174.071200 179876.100000
175.041800 420649.400000
175.054200 3249804.000000
176.049600 1958644.000000
176.062100 1753157.600000
177.057300 13488606.000000
177.070000 681536.900000
178.065100 9223208.000000
179.060400 8142072.500000
179.072300 1594048.200000
180.044500 490679.700000
180.055800 340375.300000
180.080800 1403728.100000
181.044800 5513260.000000
182.039900 354216.900000
182.052700 7028620.500000
183.060500 92735136.000000
184.055800 3786357.000000
184.068100 1992415.600000
185.063600 5677866.500000
185.075500 574976.800000
186.047600 2260815.000000
186.058600 400888.500000
186.071200 568774.900000
187.055400 5023594.500000
188.049600 1051996.200000
189.057800 655776.100000
190.065100 18134212.000000
191.060900 645842.300000
191.072900 10449158.000000
192.068100 1297669.500000
192.080800 4753992.000000
193.052200 158798.800000
193.065000 2878327.000000
193.076000 638342.200000
193.088500 1289090.400000
194.052500 4437766.500000
194.060300 3883618.200000
195.047900 2703140.000000
195.060600 2934367.200000
196.055800 8383314.000000
196.068200 2581638.200000
196.076000 1174283.600000
197.051100 3566315.500000
197.063600 11319285.000000
198.071400 13168027.000000
199.055700 417019.000000
199.066600 353423.400000
199.079300 159415.800000
200.049800 318965.500000
201.057300 5328562.000000
202.052800 455700.200000
202.065100 4674465.000000
203.060400 7419287.500000
203.072800 1299611.800000
204.055800 3514198.800000
204.068200 2321709.200000
204.080900 2075413.900000
205.076100 12270320.000000
206.083900 1247026.800000
207.048600 144372.900000
208.055700 5966076.500000
209.063600 6853871.500000
210.059300 836749.600000
210.071300 7222581.000000
211.067100 1048067.400000
211.079200 10034598.000000
212.050800 438345.300000
212.074500 2900112.200000
212.086900 1648420.500000
213.082600 435752.400000
214.042500 991553.400000
214.066800 584835.200000
216.068300 545397.400000
217.076000 2161504.200000
218.060400 402995.800000
218.083900 3721394.200000
219.048000 373841.300000
219.091700 3633908.200000
220.055500 527528.200000
220.075700 1854003.600000
220.099500 161454.100000
221.063000 2463727.200000
222.071400 11878833.000000
223.066700 33124868.000000
224.074500 3315400.000000
225.082200 495518.500000
228.055900 408127.800000
229.053300 439534.400000
236.074600 649462.200000
237.082300 4282958.000000
238.065900 737333.600000
238.090000 773067.200000
239.097900 737452.500000
256.064000 124101.000000

>ms2peaks
50.015100 2552388.200000
51.022900 1538798.900000
52.018100 413089.300000
52.030800 118536.300000
53.002200 437266.900000
53.038600 2030985.400000
54.033800 186024.300000
54.046400 183911.300000
55.017800 106018.100000
57.013500 1326736.200000
58.028700 1210198.500000
59.029100 305615.600000
61.007200 332713.300000
62.015100 2154644.200000
63.022900 9963977.000000
64.018100 494845.000000
64.030700 2122127.000000
65.038600 9003947.000000
66.033800 101126.300000
66.046400 1122255.000000
67.041600 355513.400000
70.021200 103213.000000
74.015000 1931679.200000
75.022900 7862205.500000
76.018100 1116737.600000
76.030700 1435477.000000
77.038500 3556688.500000
78.033800 2015009.500000
78.046400 1436731.400000
79.041600 345204.300000
79.054200 535784.700000
80.049400 875706.000000
81.013400 576491.700000
81.033400 385687.600000
83.029100 4923199.500000
86.015000 679040.625000
87.022900 1195551.600000
88.018200 309355.500000
88.030700 1090548.600000
89.038500 33595772.000000
90.033900 1282912.200000
90.046400 4332394.000000
91.041600 1386121.900000
91.054200 17330112.000000
92.025700 135486.900000
92.049400 945848.700000
93.057300 170076.800000
94.021300 570266.800000
94.041300 165870.300000
95.029100 377204.800000
95.049100 4940690.000000
96.036900 929440.200000
96.044300 1326372.400000
98.015000 842726.100000
99.022900 2260171.200000
100.018100 340118.800000
100.030800 358178.900000
101.026000 162897.700000
101.038600 342388.300000
102.033800 2252605.500000
102.046300 657883.800000
103.041600 380620.300000
103.054300 95959.100000
104.049400 2680460.200000
105.044700 3250567.500000
106.021600 77527.800000
106.065100 474610.000000
107.029100 4559631.000000
108.024400 89491.500000
108.036800 340708.700000
109.044800 3036258.800000
110.059900 158134.400000
111.022900 191463.500000
112.017600 80022.100000
113.038500 1321818.900000
114.033800 1365240.200000
114.046200 577877.750000
115.041600 888349.400000
115.054200 5978482.500000
116.036900 694453.000000
116.049400 3827791.000000
117.057300 7130019.500000
118.065100 3606474.000000
119.049200 166371.600000
120.037000 3088773.800000
120.043900 738883.000000
121.032300 419918.200000
122.040000 677870.700000
123.022800 2008762.000000
123.035400 639864.300000
124.018100 101578.200000
124.030700 514838.300000
125.038600 5051996.000000
126.034000 153293.900000
126.046400 2049792.800000
127.041600 306295.300000
127.054100 909989.375000
128.049500 708169.800000
128.062100 691159.000000
129.044700 1633291.400000
130.040000 2757201.500000
131.029100 1526846.800000
132.024500 164455.500000
132.036900 302467.100000
132.044500 87886.200000
133.044800 18491434.000000
134.039900 918963.600000
134.060000 485782.900000
135.047900 381092.900000
137.038600 1785303.900000
138.033700 396805.000000
138.046400 1768041.900000
139.054200 7732748.500000
140.049500 3692122.500000
140.062000 449071.700000
142.041600 127781.200000
142.052700 902247.900000
143.029300 154243.000000
143.049000 682858.062500
143.060600 344996.400000
144.037000 6740277.000000
145.032500 128078.200000
145.044700 863857.900000
145.064800 530793.500000
146.040200 397686.800000
146.052600 4888180.500000
147.035200 130107.900000
147.047900 121829.700000
149.038600 7078529.500000
150.046400 23687662.000000
151.041800 1271124.100000
151.054200 6726394.000000
152.049500 1516405.500000
152.062000 6114051.000000
153.033600 604140.600000
153.044600 1004073.600000
153.057300 1398246.900000
153.069800 297225.500000
154.040200 374476.900000
154.065100 490286.700000
155.029200 423075.700000
155.049100 340883.400000
155.060300 1212099.800000
156.037000 392459.600000
156.057300 108518.100000
157.044800 16243032.000000
158.040100 4107321.500000
158.052500 1193370.000000
159.060600 750707.900000
161.038700 1058778.500000
162.046400 2589962.500000
163.054200 34826388.000000
164.049600 5839884.000000
164.061900 7990428.000000
165.069900 19962354.000000
166.065100 1475813.900000
166.077400 108197.100000
167.049100 2026922.000000
167.072900 520824.900000
168.037000 5483279.500000
168.044000 276387.700000
168.056900 3022017.200000
169.044800 3435224.800000
169.064800 14464462.000000
170.052700 33639652.000000
170.059600 1880543.800000
171.047900 1797127.500000
171.060200 1160171.100000
172.055700 960724.200000
173.039500 411807.900000
173.050900 1843619.100000
174.046400 4185314.800000
175.041700 3612623.500000
175.053900 2023160.375000
176.049500 4608493.500000
176.061800 2496458.800000
177.044600 955504.200000
177.057300 15790246.000000
178.052500 473969.300000
178.065100 4457021.500000
179.060300 7324127.500000
180.037000 610866.100000
180.044400 1134353.900000
180.055800 505305.600000
180.080600 181053.100000
181.044800 17727360.000000
182.040600 1626383.900000
182.052600 10807061.000000
183.060500 49135848.000000
184.055800 3211296.800000
185.064200 1976573.600000
186.047500 3970959.000000
187.055300 11201482.000000
188.049600 2994415.000000
189.044400 129456.400000
189.057200 1586130.600000
190.065100 15305634.000000
191.060300 527244.100000
191.072800 4714021.000000
192.036900 181518.000000
192.044800 129027.400000
192.067800 597722.400000
192.080700 544117.800000
193.044900 252144.300000
193.052300 418467.600000
193.064800 2375402.000000
194.052400 5088243.000000
194.060100 10057658.000000
195.047900 7109978.000000
195.061800 763320.375000
196.055500 6458313.000000
196.067600 869808.300000
197.050900 8161446.500000
197.063400 2614821.800000
198.071500 653430.400000
199.041600 155106.000000
199.055800 119368.400000
201.057300 4894122.500000
202.052600 1664550.200000
202.065100 1516531.800000
203.060300 7592279.000000
203.072400 724427.600000
204.055700 7912558.500000
204.067600 634058.800000
204.080800 435264.700000
205.076000 3949316.000000
206.040100 570312.500000
207.047900 155721.600000
207.067600 100597.800000
208.055700 4324138.500000
209.063500 3907694.500000
210.059200 450272.600000
210.071300 2432229.000000
211.079000 1030057.400000
212.050500 103891.100000
212.074600 107730.000000
214.042600 2070026.500000
214.066500 276728.200000
216.068200 990956.900000
217.076100 1611097.600000
218.060300 175360.000000
218.083700 871769.400000
219.047700 517309.200000
219.091600 461155.300000
220.055800 393948.500000
220.075700 496536.100000
221.049100 188012.200000
221.063400 1068090.600000
222.046200 310689.700000
222.071200 1450862.100000
223.066600 9133834.000000
224.074000 92810.800000
228.055500 319923.900000
229.051600 89504.400000
236.074300 537256.400000
237.082200 554886.500000
238.066400 394999.000000

>ms2peaks
50.015100 4176978.200000
51.022900 2369526.200000
52.018100 535995.800000
52.030700 165424.600000
53.002200 960871.800000
53.038600 1924917.400000
54.033800 112834.900000
54.046400 107572.900000
55.017800 143436.000000
57.013500 4472023.000000
58.028700 403535.900000
59.029200 667154.800000
61.007200 1234719.000000
62.015100 5035078.500000
63.022900 20446286.000000
64.018200 884010.300000
64.030700 1722236.900000
65.002200 607098.500000
65.038600 9495335.000000
66.033900 154952.400000
66.046400 402732.600000
67.041600 302689.600000
69.013400 78845.800000
70.021300 831684.400000
74.015100 7359257.500000
75.022900 15612110.000000
76.018100 2381824.800000
76.030700 2460352.200000
77.002200 349998.156300
77.038500 4092052.000000
78.033800 1416307.500000
78.046400 1229279.400000
79.054200 90480.700000
80.049500 457256.500000
81.013500 2686808.500000
81.033500 175577.100000
83.029100 8454386.000000
85.007100 554378.625000
86.015100 1999041.500000
87.022900 3947198.200000
88.018200 1041533.400000
88.030800 1097236.200000
89.038600 25637818.000000
90.033900 739589.300000
90.046400 2912310.200000
91.041600 482406.000000
91.054200 7794448.500000
92.025700 118119.100000
92.049500 413638.900000
94.021300 2067411.500000
94.041200 129557.200000
95.029100 273529.000000
95.049100 4168964.000000
96.037000 2257964.200000
96.044300 640360.600000
98.015100 4729921.500000
99.022900 10696010.000000
100.018000 965982.100000
100.030700 1421073.000000
101.025900 106417.900000
101.038700 807762.500000
102.033800 1464019.100000
102.046400 1516434.600000
103.041600 329109.300000
104.049400 625604.800000
105.013400 815632.812500
105.044700 3134362.200000
106.021300 323897.000000
106.065200 117769.300000
107.029100 9171813.000000
108.024500 97271.600000
108.036900 358560.100000
109.044800 1523444.600000
110.015000 762351.750000
111.023000 1419600.000000
112.018000 361681.400000
112.031200 428886.281300
113.038500 4870501.000000
114.033900 1631587.800000
114.046400 505762.400000
115.041500 670920.200000
115.054200 6456370.500000
116.036400 92839.000000
116.049500 1120928.000000
117.057300 3209255.800000
118.021400 663441.437500
118.065300 564793.700000
119.049100 427358.800000
120.037000 5228582.500000
121.032200 183368.800000
122.015100 1994289.500000
122.040100 154058.100000
123.022900 8186320.500000
123.035300 493128.100000
124.018100 845416.600000
124.030700 1350296.800000
125.038600 6669097.500000
126.046400 4241801.500000
127.041600 794354.100000
127.054300 720964.200000
128.049400 476245.300000
128.062000 539942.900000
129.044700 1275903.600000
130.040000 1065546.100000
131.029200 4259444.500000
132.024600 155325.400000
132.036800 551477.100000
133.044800 18650090.000000
134.040100 456963.900000
137.038600 5119580.500000
138.033700 704570.200000
138.046400 1758153.900000
139.054200 7782245.500000
140.049500 2931420.200000
142.041800 87247.800000
142.052300 273075.200000
143.029000 531796.100000
143.049300 1133207.000000
144.037000 9342862.000000
145.032300 443433.600000
145.045000 689354.100000
145.064700 183913.400000
146.040400 283327.800000
146.052700 3050333.200000
147.035200 143964.800000
148.030800 656243.562500
149.038600 11306023.000000
150.046400 28673064.000000
151.041600 2208963.500000
151.054200 2943970.500000
152.049400 841353.900000
152.062000 3741043.800000
153.033700 534118.500000
153.044700 1025308.300000
153.057200 701617.400000
154.040100 368983.000000
154.065300 95427.700000
155.029100 1423549.400000
155.060300 763945.400000
156.037000 1088854.600000
156.057000 121723.500000
157.044900 16157039.000000
158.040100 2770942.800000
158.052600 330429.000000
161.038600 3637897.000000
162.034200 388703.700000
162.046400 5488302.500000
163.054200 32409038.000000
164.049600 6103348.500000
164.061900 4226688.500000
165.057800 325140.375000
165.069900 5252194.500000
166.041400 503014.000000
166.065100 856249.200000
167.049100 3093931.800000
168.037000 9921373.000000
168.044100 618297.400000
168.056800 1703910.900000
169.044800 2626102.500000
169.064800 6746390.500000
170.052700 14282303.000000
170.059800 958949.200000
171.047900 1022474.200000
172.055600 165240.300000
173.038900 469536.600000
173.050800 941492.000000
174.046400 4448063.000000
175.041700 9072150.000000
175.054200 667259.900000
176.049600 2642620.200000
176.061800 1195804.600000
177.045500 1456240.100000
177.057300 7129428.500000
178.052800 134479.500000
178.065100 1112148.600000
179.029400 647810.625000
179.060300 2718195.000000
179.072600 137892.100000
180.037000 1765888.900000
180.044600 404546.700000
180.055500 125895.100000
181.044800 25798684.000000
182.040400 1544499.600000
182.052600 5099898.500000
183.060500 12703677.000000
184.055700 918014.700000
185.058900 1430143.500000
186.047500 2139936.200000
187.055400 7480467.500000
188.049600 3551673.500000
189.044700 140789.200000
189.057200 1482311.600000
190.065100 6322299.000000
191.060300 274400.400000
191.072900 1088269.500000
192.036900 170494.400000
192.044700 293468.300000
192.067500 119749.800000
192.080400 88840.600000
193.044500 126220.600000
193.052200 491541.200000
193.064700 797166.200000
194.036400 1106827.250000
194.052400 2529359.000000
194.060200 5256038.000000
195.047800 5283473.500000
195.055400 505491.531300
196.055100 1343572.400000
196.067900 69133.800000
197.051000 5274063.500000
198.071700 86130.200000
199.041600 377067.100000
201.057200 1830949.800000
202.052500 1592566.200000
202.065400 132080.800000
203.060200 1368291.800000
203.072100 98701.800000
204.055700 4663775.000000
205.075700 134983.400000
206.040000 837283.700000
207.047700 299159.900000
208.055700 2192545.000000
209.063500 1286909.100000
214.042400 1024115.400000
216.068500 654620.800000
217.075500 126751.500000
218.059900 150962.200000
219.047600 348729.600000
221.047700 163087.800000
221.063000 122161.800000
222.046300 170370.600000
223.066500 672600.700000
228.055800 93020.500000
229.051200 96183.200000

