>compound EQ49890960
>parentmass 319.2631999999999
>ionization [M+H]+
>formula C21H34O2
>rt 1032.000000
>profile orbitrap
#smiles_iso CCCCCCC(C)(C)C1=CC(=C(C=C1)C2CCCC(C2)O)O
#smiles_can CCCCCCC(C)(C)C1=CC(=C(C=C1)C2CCCC(C2)O)O
#inchikey ZWWRREXSUJTKNN-UHFFFAOYSA-N
#pubchem_id 9996032
#mb_accession EQ369901,EQ369902,EQ369903,EQ369904,EQ369905,EQ369906,EQ369907,EQ369908,EQ369909

>ms2
57.069800 583147.100000
69.069800 13388.300000
71.085500 1753597.400000
81.069800 77053.200000
85.101100 1235539.000000
89.059700 5331.400000
107.049000 543370.500000
121.064800 12128.800000
127.148100 556578.100000
133.064400 15853.900000
148.088100 11639.500000
175.111700 4976347.000000
191.143000 5514.600000
233.189900 4098616.200000
266.255900 36584.400000
301.252500 4326409.000000

>ms2
57.069900 1102047.000000
67.054300 9226.400000
69.069800 35298.600000
71.085500 2320228.800000
81.069800 166307.600000
85.101100 1317364.600000
89.059700 15712.300000
107.049100 2310255.000000
119.049100 12245.000000
121.064700 170923.900000
127.148000 60292.100000
133.064500 14067.500000
135.080100 18627.200000
148.088100 14484.700000
149.096100 57873.000000
163.111800 15163.800000
175.111700 1314965.200000
233.190000 6534383.500000
301.252600 204082.400000

>ms2
53.002200 28341.700000
53.038500 4698.600000
53.997500 4185.500000
55.054200 26492.100000
57.069900 1308903.100000
67.054200 14218.900000
69.069800 133588.200000
71.085500 1846980.400000
77.038200 11439.800000
79.054200 40693.400000
81.069800 270335.900000
83.085500 41853.000000
85.101100 898583.100000
89.059800 8045.900000
91.054100 11664.200000
93.069800 15333.900000
95.049100 4021.800000
95.085500 12097.800000
97.101200 4866.800000
105.069800 11349.200000
107.049100 2957004.000000
109.064800 12050.200000
109.101000 3654.000000
119.049300 20191.800000
119.085600 11481.600000
120.057100 11701.900000
121.064800 1793125.400000
121.101200 92909.500000
123.080300 14987.300000
131.085600 15876.100000
133.064800 39352.700000
134.072600 10442.000000
135.080400 147942.000000
135.116800 10271.500000
145.101300 13072.800000
147.080200 40166.100000
148.088200 351169.200000
149.096100 531777.000000
159.116700 24036.400000
163.111600 46434.100000
173.132200 5478.100000
175.111700 139434.100000
177.127800 18455.200000
191.143000 41255.400000
218.166200 21132.900000
233.190000 3257861.000000
247.205300 4271.400000

>ms2
51.022800 4545.000000
53.002200 38935.700000
53.038600 14478.000000
53.997500 10203.500000
55.017800 3193.700000
55.054200 38599.700000
57.069900 1051732.100000
65.038500 3084.500000
67.054200 16166.600000
67.989200 11102.200000
69.033400 5896.600000
69.069800 84015.500000
71.085500 940615.100000
79.054200 112979.200000
81.069800 198370.000000
83.085400 23644.800000
85.101100 297621.500000
91.054200 67993.300000
93.069900 87814.600000
95.049100 31865.900000
95.085500 16557.800000
97.101200 2813.300000
105.044600 19056.900000
105.069900 48104.400000
107.049100 2252882.800000
109.064800 44751.900000
109.101200 6199.200000
117.069700 11137.500000
119.049300 25815.800000
119.085600 17700.300000
120.057000 43354.100000
120.093300 11046.400000
121.064800 2208619.200000
121.101200 161897.700000
123.080400 19109.800000
131.085600 29663.600000
133.064700 293712.900000
134.072500 41024.100000
135.080400 121967.000000
135.116700 6122.400000
145.101100 20498.700000
147.080400 87399.500000
148.088200 942967.700000
149.096100 439016.200000
159.116900 17075.700000
161.096100 11475.800000
163.111700 17781.400000
173.132600 4890.800000
175.111500 14273.000000
177.127200 3119.400000
191.142900 27927.400000
218.166600 14881.200000
233.190000 377661.700000

>ms2
51.022800 2791.700000
53.002200 59335.500000
53.038600 52940.100000
53.997400 14883.400000
55.017800 4590.500000
55.054200 64236.700000
57.069900 762990.700000
65.038500 2753.300000
67.054300 20009.400000
67.989300 5664.400000
69.033400 9339.800000
69.069900 39929.100000
71.085500 371441.700000
77.038400 33795.900000
79.054200 363151.200000
81.069900 205018.200000
83.085400 5310.800000
85.101100 89773.100000
91.054200 248952.200000
92.062000 5337.300000
93.069900 200487.100000
95.049100 116988.800000
95.085400 10297.700000
103.054200 16220.000000
104.061900 2808.200000
105.044700 94618.300000
105.069900 162991.300000
106.077500 5285.000000
107.049100 1939694.600000
109.064700 49055.100000
115.054100 12339.300000
116.062000 5497.600000
117.069900 18499.700000
119.049100 11220.400000
119.085500 32079.100000
120.057000 71255.800000
120.093400 52002.600000
121.064800 1704361.500000
121.101100 93417.800000
123.080300 17436.600000
129.069800 11109.400000
130.077800 10527.800000
131.085600 35029.100000
133.064800 1147573.100000
134.072600 75269.600000
135.080400 66376.200000
145.101200 9990.200000
147.080400 159447.000000
148.088200 760618.900000
149.096100 137438.300000
159.116700 10597.700000
161.096000 9989.300000
163.111900 2493.900000
175.111600 4408.800000
191.143000 13332.900000
233.189900 14662.600000

>ms2
50.015100 4601.600000
51.022800 19225.800000
53.002200 65429.300000
53.038600 118059.100000
53.997400 15446.900000
55.017800 16891.000000
55.054200 65415.700000
57.069800 453200.300000
65.038500 13954.200000
66.046400 2375.000000
67.054200 15301.000000
67.989300 4995.900000
69.033500 2291.300000
69.069800 15807.100000
71.085500 111340.000000
77.038400 75063.400000
78.046400 9484.000000
79.054200 535747.300000
81.033500 10392.300000
81.069800 146577.700000
85.101100 11372.300000
91.054200 427841.500000
92.062000 23964.800000
93.069900 215883.200000
94.041300 10776.800000
95.049100 268260.000000
103.054200 60892.000000
105.044700 212724.100000
105.069800 279491.400000
106.077600 10516.100000
107.049100 1044751.900000
108.056800 5095.800000
109.064800 38660.400000
115.054300 25644.500000
116.062000 10007.700000
117.069900 10598.600000
119.049100 13770.300000
119.060500 3267.300000
119.085500 30459.900000
120.056900 54407.500000
120.093400 46332.800000
121.064800 814201.700000
123.080400 12351.500000
129.069900 12816.100000
131.085500 27928.700000
132.056900 3241.400000
133.064700 1498950.800000
134.072500 49430.000000
135.080400 21338.300000
147.080400 115934.400000
148.088200 239886.200000
149.096000 24618.800000
161.096400 4040.700000

>ms2
50.015100 25675.900000
51.022900 102763.400000
53.002200 53251.700000
53.038600 282840.700000
53.997400 23301.700000
55.017800 27916.500000
55.054200 54224.800000
57.069900 117220.200000
65.038500 65749.400000
66.046300 10304.800000
67.054200 14391.700000
67.989200 4087.900000
71.085400 5647.700000
77.038500 172196.400000
78.046400 32150.200000
79.054200 665733.400000
81.033500 26495.300000
81.069800 58568.500000
91.054200 619006.600000
92.062000 35122.500000
93.069900 72974.800000
94.041200 19943.500000
95.049100 620737.600000
103.054200 224156.800000
104.062000 13829.400000
105.044700 477543.700000
105.069900 570712.900000
106.077600 8787.100000
107.049100 284646.100000
108.057000 3757.000000
109.064700 15268.000000
115.054200 57613.900000
116.062000 12673.400000
117.069800 28496.400000
119.049200 4885.400000
119.060300 3605.900000
119.085500 30157.000000
120.057000 11115.100000
120.093400 5671.500000
121.064800 123153.000000
128.062000 16026.300000
129.069700 10775.000000
130.077600 3669.700000
131.049100 10199.000000
131.085300 5379.900000
132.056900 16358.700000
133.064800 820887.800000
134.072500 5558.300000
147.080400 48055.200000
148.088400 4168.400000

>ms2
50.015100 68088.300000
51.022900 248333.000000
52.030700 1917.300000
53.002200 67102.600000
53.038600 260104.600000
53.997500 15657.600000
55.017800 24415.700000
55.054200 23368.100000
57.069900 12416.100000
63.022800 3770.700000
65.038500 131838.700000
66.046400 19562.900000
67.054100 11009.000000
77.038500 212166.400000
78.046300 49011.200000
79.054200 452711.600000
81.033400 19862.500000
81.069800 16467.500000
89.038500 4889.800000
90.046400 3146.000000
91.054200 392736.400000
92.062100 5587.900000
93.069800 11435.200000
94.041300 23023.700000
95.049100 559282.100000
102.046400 3256.700000
103.054200 222315.200000
104.062100 10883.100000
105.044700 441392.000000
105.069800 229615.400000
107.049100 55025.300000
109.064700 4602.400000
115.054200 81790.300000
116.061900 5593.100000
117.069800 13705.800000
119.085700 3729.600000
121.064800 15971.700000
128.061800 21114.900000
131.049200 10319.800000
132.056800 9579.500000
133.064800 134141.900000
147.080300 5390.300000

>ms2
50.015100 112000.900000
51.023000 409601.800000
52.030800 9079.400000
53.002200 49240.400000
53.038600 223904.500000
55.017800 12265.800000
55.054200 8255.100000
63.022900 16594.700000
65.038600 169816.100000
66.046300 21257.400000
67.054100 4956.700000
67.989300 2761.300000
77.038500 173289.700000
78.046400 41027.000000
79.054200 217129.200000
81.033500 15827.600000
81.069700 3572.000000
89.038500 26476.700000
90.046400 2660.500000
91.054200 240349.400000
94.041300 19537.000000
95.049100 400609.600000
102.046300 10809.500000
103.054200 105823.800000
104.061900 9673.500000
105.044700 285231.100000
105.069900 53218.400000
107.049200 17445.700000
115.054200 56059.000000
121.064500 2191.700000
128.062000 22181.000000
131.049100 8760.200000
133.064700 11428.200000

