>compound EQ50871104
>parentmass 286.1087
>ionization [M+H]+
>formula C17H11N5
>rt 396.000000
>profile orbitrap
#smiles_iso C1=CC(=CC=C1C#N)C(C2=CC=C(C=C2)C#N)N3C=NC=N3
#smiles_can C1=CC(=CC=C1C#N)C(C2=CC=C(C=C2)C#N)N3C=NC=N3
#inchikey HPJKCIUCZWXJDR-UHFFFAOYSA-N
#pubchem_id 3902
#mb_accession EQ358501,EQ358502,EQ358503,EQ358504,EQ358505,EQ358506,EQ358507,EQ358508,EQ358509

>ms2
215.059900 927931.300000
217.076000 441326784.000000

>ms2
190.064900 8990471.000000
208.076300 608279.400000
215.060000 1759789.600000
216.067400 559920.800000
217.076000 453692608.000000
235.087200 505584.100000

>ms2
177.057200 3227348.800000
189.057300 369000.800000
190.065000 124418944.000000
208.075800 12992886.000000
215.060400 21254636.000000
216.068300 6765452.500000
217.076000 279788512.000000
218.071200 1832775.100000
235.086600 3040325.200000

>ms2
163.053900 727880.400000
166.065200 346099.000000
177.057300 11901596.000000
189.057100 1233100.800000
190.065100 280192736.000000
191.060200 494989.000000
193.052300 284611.300000
202.052500 1325867.500000
208.075800 19951130.000000
215.060400 57521944.000000
216.068300 20393494.000000
217.076100 74197576.000000
218.071200 3080084.000000
235.086500 1812165.500000

>ms2
140.049400 1925883.100000
153.057200 1183887.200000
163.054200 5473112.500000
164.049300 1755516.900000
166.065200 1105402.500000
177.057300 19134094.000000
188.048900 1018503.100000
189.057300 5827320.000000
190.065000 297068576.000000
191.060000 1167765.900000
191.072900 436405.400000
193.052200 1852321.200000
202.052500 3061816.500000
207.068200 837313.900000
208.075700 7939316.000000
215.060400 77167456.000000
216.068200 19745974.000000
217.076100 8750884.000000
218.071000 900728.200000
221.046700 703901.600000

>ms2
63.022800 694989.100000
90.033800 1266373.900000
113.038400 254809.800000
115.054300 816073.100000
127.041700 432462.800000
139.054100 886710.900000
140.049400 10045398.000000
150.046400 1354885.200000
153.057200 2785642.500000
162.046600 259491.700000
163.054200 26625880.000000
164.049400 9740681.000000
164.061900 757529.800000
165.044600 1038936.200000
165.056700 513102.700000
166.065100 1371839.500000
168.057100 314215.400000
175.041400 227606.100000
177.057300 20931664.000000
188.049500 7857732.000000
189.057300 15506830.000000
190.065000 224535536.000000
191.060200 939499.400000
191.073000 354674.900000
193.052200 5000398.500000
202.052500 3976992.200000
207.068000 2285892.500000
208.075600 1822504.900000
214.052700 350789.200000
215.060300 74278760.000000
216.068200 9919199.000000
217.076500 652153.900000
221.047100 2503899.000000
232.063100 246180.200000

>ms2
61.007200 317899.500000
62.015100 724947.800000
63.022900 5010354.500000
64.018200 2120280.800000
65.038600 432366.400000
66.033800 82873.800000
74.014900 477705.800000
76.030600 250684.400000
78.046400 122252.100000
81.033400 211114.100000
86.014800 201214.800000
87.022900 1056102.000000
88.018100 991316.400000
89.038600 2243625.500000
90.033900 3859742.500000
91.054200 334324.100000
98.015000 85586.300000
100.030700 595482.100000
102.046400 416068.200000
103.041600 86851.000000
111.022800 204863.900000
112.018200 187905.600000
113.038500 7257014.000000
114.033800 1921666.800000
115.054200 5248561.500000
116.049500 1132714.800000
124.030700 284547.000000
125.038500 129245.100000
126.046400 2567556.000000
127.041600 2212249.200000
137.038600 4294955.000000
138.033900 1310882.400000
138.046400 899118.200000
139.054200 4188718.500000
140.049500 36082504.000000
148.030600 104091.200000
149.038700 250034.300000
150.046400 11412823.000000
151.041600 1790367.200000
152.049000 86307.700000
153.057300 3580880.800000
156.056900 118204.400000
161.038500 2444436.800000
162.046400 7038366.000000
163.054200 68173904.000000
164.049400 38629500.000000
165.044700 2833590.200000
165.056700 717147.400000
166.041200 353779.400000
166.065100 569831.000000
168.057000 674631.000000
170.060000 224463.500000
175.041600 3552147.800000
176.049500 563173.800000
177.057300 11602775.000000
182.060000 104412.300000
183.055400 320910.900000
186.033700 75190.300000
187.041700 1499382.800000
188.049500 58776840.000000
189.044800 4303965.000000
189.057200 21999824.000000
190.065100 52637300.000000
191.060600 214813.700000
193.052200 7537244.500000
194.036300 1014192.938000
194.060000 691970.100000
202.052500 1958213.100000
204.055600 1124034.900000
207.056300 194483.800000
207.067900 2442472.200000
213.044700 1543297.200000
214.052500 1545696.000000
215.060400 37740472.000000
216.068300 790830.900000
218.047900 399661.900000
221.047100 4303352.000000
232.063400 745448.200000

>ms2
50.015100 438607.400000
51.023000 83574.800000
53.002200 438343.100000
55.017800 90698.200000
61.007200 1479247.600000
62.015100 2434270.500000
63.022900 15633515.000000
64.018200 4583670.500000
65.038600 2486836.800000
66.033900 121891.500000
66.046400 180899.500000
74.015000 3159743.000000
75.010300 229172.700000
75.022900 714638.100000
76.018200 86846.900000
76.030700 1654116.600000
77.038500 106138.300000
78.046400 401341.900000
81.033400 199512.900000
85.007100 475228.000000
86.015000 1130284.100000
87.022900 8122899.000000
88.018100 3798754.000000
88.030600 362814.200000
89.038600 8606300.000000
90.033800 3166820.200000
90.046400 409724.800000
91.054100 393144.900000
95.049000 194461.300000
98.015100 1775153.000000
99.010300 351022.000000
99.023000 530389.300000
100.018200 203592.300000
100.030700 1699147.000000
101.025900 189633.500000
102.046400 959358.100000
103.041700 224396.900000
105.044700 85620.300000
110.015000 550393.600000
111.010400 429012.500000
111.022900 2418221.200000
112.018100 1655482.900000
112.030800 90374.000000
113.038500 19644424.000000
114.033800 6792068.500000
115.054200 4314141.500000
116.049500 759182.900000
118.041200 70948.600000
122.015200 376347.900000
123.010200 313745.500000
123.022800 406141.200000
124.018200 256658.200000
124.030800 1141231.900000
125.038600 346696.400000
126.046400 4120674.500000
127.041600 2269991.500000
132.044300 453829.600000
135.010400 75406.100000
135.022900 335189.300000
136.018400 435889.600000
136.030700 285428.400000
137.038600 14234861.000000
138.033800 5313835.500000
138.046300 1657930.900000
139.041800 231314.000000
139.054200 3713165.800000
140.049400 22603442.000000
148.030600 477970.800000
149.038600 1032931.900000
150.046400 9588106.000000
151.041600 2359421.000000
152.049500 225408.100000
153.057300 859474.200000
156.057000 200320.800000
157.052200 99977.700000
160.030600 253182.700000
161.038500 11480535.000000
162.034000 3531767.800000
162.046300 11295671.000000
163.054200 30660896.000000
164.049400 22664002.000000
165.044700 1725736.200000
166.041200 548039.200000
167.049000 235255.500000
168.057000 225800.300000
170.060100 117848.600000
175.041600 3277153.000000
176.049300 301249.400000
177.057300 1440464.000000
181.052200 339497.100000
182.059700 83655.700000
183.055200 96295.800000
186.033800 1589617.100000
187.041600 3744131.500000
188.049400 60540084.000000
189.044600 3415789.500000
189.057300 3992553.500000
190.065000 3867368.200000
191.036400 292767.200000
193.052200 1676998.400000
194.036200 2291616.000000
194.060300 575485.700000
202.052400 91980.000000
204.055600 575518.400000
207.055100 202382.000000
207.068000 314600.100000
213.044600 3037974.200000
214.052600 641486.900000
215.060300 7159442.000000
218.047500 104383.700000
219.031500 1296557.750000
221.047200 661453.812500
232.063200 424436.100000
246.041900 220773.000000

>ms2
50.015100 1522003.600000
51.022900 275509.200000
53.002200 1039404.900000
55.017900 338086.400000
61.007300 4438530.000000
62.015100 7303181.500000
63.022900 32618520.000000
64.018200 8117207.500000
65.038600 3401767.800000
66.046400 248340.000000
74.015100 8269553.500000
75.010300 789478.000000
75.022800 1484357.600000
76.018100 380087.200000
76.030700 2792540.500000
77.038600 229354.000000
78.046400 569542.400000
81.033400 210356.500000
85.007200 2067808.800000
86.015100 5316190.500000
87.022900 18711786.000000
88.018200 7993438.500000
88.030700 1255595.500000
89.038500 10062276.000000
90.033800 2455578.200000
90.046400 398684.800000
91.054200 339915.200000
95.049100 205510.300000
98.015100 5066767.500000
99.010300 899248.600000
99.022900 1255893.600000
100.018200 270618.900000
100.030700 1622466.100000
101.025900 497898.400000
102.033900 50324.500000
102.046400 771138.800000
103.041600 260411.700000
105.044700 218387.900000
110.015100 3440430.200000
111.010300 1421389.500000
111.022900 6601417.000000
112.018100 4694094.500000
112.030700 322839.800000
113.038500 16496412.000000
114.033800 7504596.500000
115.054200 1912262.000000
116.049500 205184.000000
118.041300 79248.600000
122.015100 1612683.100000
123.010400 817178.000000
123.022900 949051.600000
124.018200 296452.600000
124.030800 1131204.200000
125.026000 190156.500000
125.038700 215770.200000
126.046400 2237090.200000
127.041600 1142294.400000
132.044200 467005.000000
134.015000 751693.800000
135.010400 655150.600000
135.022900 1145811.900000
136.018200 1173898.100000
136.030700 602193.400000
137.038600 9628896.000000
138.033800 5136996.500000
138.046100 872200.900000
139.041700 238327.300000
139.054100 958686.400000
140.049400 6579731.500000
148.030800 298486.400000
149.038600 840973.900000
150.046400 3238287.800000
151.041700 956794.700000
152.049800 46516.700000
153.057200 96510.600000
156.057000 79782.500000
157.052300 76671.100000
160.018300 202586.800000
160.030800 499975.900000
161.038500 15940142.000000
162.033900 3963685.500000
162.046300 6350789.000000
163.042400 1031662.938000
163.054100 7685374.500000
164.049400 4984337.500000
165.045000 409189.000000
166.041100 376843.500000
167.049200 93371.700000
170.060500 64342.000000
174.034100 72602.100000
175.041600 1680298.600000
176.049500 95989.300000
181.052100 206525.400000
186.033800 3561790.500000
187.041600 3995803.200000
188.049400 26653402.000000
189.044700 1047302.000000
189.057300 326138.600000
190.064800 350959.800000
191.036500 318649.300000
193.052500 106683.100000
194.036200 1097474.250000
204.055400 119991.600000
213.044700 1940080.800000
214.053100 102200.600000
215.060600 587030.900000
219.031500 1433887.375000
232.063000 85157.500000
246.041700 56277.500000

