>compound EQ51223737
>parentmass 199.0866
>ionization [M+H]+
>formula C12H10N2O
>rt 606.000000
>profile orbitrap
#smiles_iso C1=CC=C(C=C1)N(C2=CC=CC=C2)N=O
#smiles_can C1=CC=C(C=C1)N(C2=CC=CC=C2)N=O
#inchikey UBUCNCOMADRQHX-UHFFFAOYSA-N
#pubchem_id 6838
#mb_accession EQ335501,EQ335502,EQ335503,EQ335504,EQ335505,EQ335506

>ms2peaks
66.046400 5344715.500000
104.049400 4644217.000000
168.080900 8353820.000000
169.088600 366128512.000000
199.086700 13097685.000000

>ms2peaks
66.046400 16190060.000000
77.038200 1142290.400000
104.049400 10783034.000000
167.072600 547555.100000
168.080800 19333348.000000
169.088500 337219968.000000
199.086600 3796167.800000

>ms2peaks
65.038600 1048684.100000
66.046400 107673248.000000
77.038300 630928.100000
91.041600 380090.200000
95.049000 445775.700000
104.049400 44700028.000000
142.077600 440828.800000
143.073000 761103.800000
154.065200 458298.000000
167.072300 402178.600000
168.080800 63846956.000000
169.088500 159721904.000000

>ms2peaks
53.038500 294451.500000
65.038600 3945717.200000
66.046400 182757232.000000
77.038400 563914.900000
91.041600 547669.100000
95.049100 2555797.200000
104.049400 42445340.000000
105.044700 879898.200000
142.077700 638886.800000
143.073000 989860.900000
154.065100 878199.900000
167.072900 1089364.600000
168.080800 61644900.000000
169.088600 33534966.000000

>ms2peaks
51.022800 224822.100000
53.002200 237244.100000
53.038600 1169786.800000
65.038600 8626729.000000
66.046400 214212304.000000
77.038500 1381363.200000
91.041600 891131.500000
95.049100 9894783.000000
104.049400 24329064.000000
105.044700 2482832.800000
141.069800 614547.600000
142.077700 604028.300000
143.072900 1136192.900000
154.065100 943985.200000
167.072900 6309258.500000
168.080700 44376848.000000
169.088600 4838415.000000

>ms2peaks
50.015100 425421.700000
51.022900 693095.800000
53.002200 454037.000000
53.038600 1992006.400000
65.038600 15185790.000000
66.046400 181639040.000000
77.038500 2601823.200000
81.033400 279976.500000
91.041600 661713.900000
95.049100 16059102.000000
104.049400 9014043.000000
105.044700 4619565.000000
117.057300 223368.200000
141.069800 1144314.000000
142.077800 184255.000000
143.072900 618495.600000
154.065100 423994.900000
167.073000 14409989.000000
168.080800 21584102.000000
169.088600 443192.800000

