>compound EQ51956245
>parentmass 195.0652
>ionization [M+H]+
>formula C10H10O4
>rt 390.000000
>profile orbitrap
#smiles_iso COC(=O)C1=CC=CC=C1C(=O)OC
#smiles_can COC(=O)C1=CC=CC=C1C(=O)OC
#inchikey NIQCNGHVCWTJSM-UHFFFAOYSA-N
#pubchem_id 8554
#mb_accession EQ367301,EQ367302,EQ367303,EQ367304,EQ367305,EQ367306,EQ367307,EQ367308,EQ367309

>ms2
163.038900 484554944.000000
195.065400 692985.400000

>ms2
77.038400 892623.600000
133.028400 1019017.100000
135.044400 540203.900000
163.038900 507713504.000000

>ms2
77.038300 1452371.000000
79.054200 1500726.100000
95.049100 1057942.600000
105.044800 700938.600000
107.049100 499382.600000
133.028500 22145396.000000
135.044100 15574590.000000
163.039000 429494880.000000

>ms2
51.022700 564665.800000
53.038600 4529307.500000
76.030600 298667.900000
77.038500 11701955.000000
79.054200 12257356.000000
81.033500 353941.900000
91.054200 479691.700000
92.025600 3134853.000000
95.049100 12772630.000000
105.033500 6133062.000000
105.044700 9339421.000000
107.049100 2239500.500000
120.020500 1907253.000000
133.028400 68415560.000000
135.044000 73448584.000000
138.031300 703599.900000
163.038900 271177888.000000

>ms2
50.015100 814606.800000
51.022900 1163035.600000
53.038600 13038029.000000
55.017900 981579.400000
63.022900 124438.400000
64.030700 110179.200000
65.038600 105946.700000
77.038500 34919824.000000
79.054200 21049836.000000
81.033500 1399861.100000
91.054200 1040927.900000
92.025700 14557955.000000
94.041400 762863.400000
95.049200 41754992.000000
105.033600 17247496.000000
105.044800 28976812.000000
106.041800 155535.000000
107.049200 3380566.000000
109.064900 284803.100000
120.020600 5722474.000000
133.028500 64041408.000000
135.044100 75479968.000000
138.031200 1836612.400000
163.039000 92134296.000000

>ms2
50.015100 2179417.200000
51.023000 2881796.200000
53.038600 21590080.000000
54.046400 98190.800000
55.017900 1411954.500000
63.023000 790241.200000
64.030700 642117.600000
65.038600 439583.800000
67.054200 294744.400000
68.997100 92421.400000
77.038600 59274704.000000
79.054200 17284556.000000
80.025700 87355.100000
81.033500 3072857.000000
91.054300 1333749.800000
92.025700 47419900.000000
94.041300 1668532.900000
95.049200 72942768.000000
105.033600 24249552.000000
105.044800 52555148.000000
106.041800 500316.500000
107.049200 2113826.500000
109.064900 350689.300000
119.049200 78887.800000
120.020700 7205643.000000
133.028500 33229196.000000
135.044100 38892128.000000
138.031200 2437153.500000
163.039100 21885980.000000

>ms2
50.015100 7409067.000000
51.023000 12195339.000000
53.038600 16915338.000000
54.046400 1352258.900000
55.017900 1044727.600000
62.015000 457295.000000
63.022900 7745876.000000
64.030800 9616228.000000
65.002200 313414.500000
65.038600 830346.300000
66.010100 100210.700000
66.046400 94981.300000
67.054200 338802.800000
77.038500 57042392.000000
79.054200 3073242.500000
80.025600 255906.900000
81.033500 3009827.800000
91.054300 916123.700000
92.025700 84640120.000000
94.041300 1093939.800000
95.049200 54746536.000000
98.036300 138597.200000
105.033600 7104147.500000
105.044800 39387800.000000
106.041700 125548.500000
107.049200 155087.100000
109.064800 265102.300000
119.012700 104586.500000
120.020700 2156012.500000
133.028400 2473605.800000
135.044000 2378761.800000
138.031200 807626.800000
163.039100 426780.000000

>ms2
50.015100 15979224.000000
51.023000 28491112.000000
52.030800 84587.400000
53.002200 452045.300000
53.038600 7493218.500000
54.046400 2927192.000000
55.017900 495967.100000
61.007300 267499.600000
62.015100 1401890.800000
63.023000 35867276.000000
64.030800 26887716.000000
65.002200 772607.700000
65.038600 1162374.200000
66.010100 98551.100000
66.046400 124217.300000
67.054300 297083.400000
67.989200 81622.200000
68.997100 135765.700000
74.015200 59635.100000
75.022900 367290.300000
76.030800 97294.600000
77.038500 32410962.000000
79.054200 324909.900000
80.025700 344422.300000
81.033500 2184574.200000
91.054200 368377.400000
92.025700 57166604.000000
92.036900 4335546.500000
94.041300 492809.000000
95.049200 24394224.000000
105.033600 985387.900000
105.044800 16723638.000000
106.041800 121482.100000
119.012600 142956.200000
120.020600 293338.700000
133.028600 68427.200000

>ms2
50.015200 19459192.000000
51.023000 36422256.000000
52.030800 108423.400000
53.002200 860127.200000
53.038600 2698479.800000
54.046400 2756981.200000
55.017900 109316.200000
61.007300 757695.200000
62.015100 4065018.200000
63.022900 70658264.000000
64.030800 27259044.000000
65.002200 1300612.200000
65.038600 630831.600000
66.010000 450220.400000
66.046400 107603.100000
74.015100 225974.700000
75.022900 566834.300000
76.030800 247610.800000
77.038600 12070074.000000
80.025700 249516.700000
81.033500 1000300.900000
91.054300 111867.700000
92.025700 21861996.000000
92.036900 2571129.000000
95.049200 7597221.500000
98.036500 91690.600000
105.044800 4879341.500000
119.012900 137352.500000

