>compound EQ51283589
>parentmass 363.14629999999994
>ionization [M+H]+
>formula C17H19FN4O4
>rt 222.000000
>profile orbitrap
#smiles_iso CN1CCN(CC1)C2=C(C=C3C4=C2OCN(N4C=C(C3=O)C(=O)O)C)F
#smiles_can CN1CCN(CC1)C2=C(C=C3C4=C2OCN(N4C=C(C3=O)C(=O)O)C)F
#inchikey BPFYOAJNDMUVBL-UHFFFAOYSA-N
#pubchem_id 60651
#mb_accession EQ368901,EQ368902,EQ368903,EQ368904,EQ368905,EQ368906,EQ368907,EQ368908,EQ368909

>ms2peaks
70.065200 274137.100000
72.080700 6476896.500000
276.114200 3854760.000000
277.062000 191319.400000
320.104100 21994230.000000
345.135500 1003131.200000
363.146000 168911296.000000
364.148600 219923.800000

>ms2peaks
56.049500 303455.300000
57.057300 298542.200000
58.065100 135614.700000
70.065100 7008966.000000
72.080700 100442912.000000
82.065100 198421.900000
85.076000 593254.400000
192.045500 223247.800000
204.045700 195485.800000
205.040900 415647.400000
213.065900 107041.800000
219.056500 434627.800000
233.072000 2073394.200000
249.030200 157198.000000
261.090900 240557.000000
276.114300 2956564.000000
277.061800 5074153.000000
302.093700 263440.400000
320.104000 22249646.000000
345.135600 8396538.000000
363.146100 17732014.000000

>ms2peaks
56.049500 935134.900000
57.057300 1073152.800000
58.065100 289688.500000
70.065100 13427832.000000
71.073000 299356.800000
72.080700 96064088.000000
82.065100 307384.200000
84.080700 104256.200000
85.076000 638293.500000
164.050500 909300.800000
171.055300 182922.500000
178.029800 236586.000000
185.034400 170794.000000
185.070900 324811.500000
191.037700 98662.700000
191.061700 242368.500000
192.045500 2191501.500000
204.045600 1761458.600000
205.040900 4395222.500000
206.061300 1326714.400000
213.065900 880437.500000
215.061700 196724.300000
216.045700 302594.000000
218.048700 120565.900000
219.056500 507552.000000
230.024800 130791.300000
231.056400 341105.200000
233.072100 2263482.800000
248.035600 136843.500000
249.030700 1028328.300000
254.055800 116616.200000
259.051300 331765.300000
259.075300 98186.400000
261.090900 439685.300000
274.062200 394534.600000
274.098700 363837.600000
276.114700 142076.600000
277.061900 2398494.000000
287.070000 800472.600000
302.093700 452965.700000
320.104200 386876.700000
345.135700 3594157.200000
363.146200 3115173.000000

>ms2peaks
56.049500 1580402.100000
57.057300 1671894.200000
58.065100 470986.500000
68.049400 92623.100000
69.057300 136146.300000
70.065100 15463308.000000
71.073000 350240.300000
72.080700 73981368.000000
82.065100 389574.300000
84.080800 79084.300000
85.076000 660649.400000
98.083800 100721.100000
116.049400 75510.800000
122.040000 541175.200000
130.065200 147166.000000
134.040100 97985.100000
136.055700 542216.400000
138.034900 195232.600000
144.044400 119885.400000
148.055800 249884.400000
149.051100 180121.500000
150.034900 232720.500000
157.039600 1109261.000000
157.076000 107010.100000
158.023600 145846.500000
158.060100 555371.400000
162.035000 317063.900000
163.030200 103070.500000
163.042700 91726.100000
164.050600 2860899.800000
169.075800 83660.000000
171.055200 471333.400000
176.050700 443813.100000
177.046000 122959.300000
177.058600 106316.800000
178.029900 1023836.400000
178.066300 82570.200000
179.025000 91404.400000
180.045100 210723.600000
183.055200 78918.900000
185.034600 799420.300000
185.071000 434009.100000
188.050700 217978.300000
190.053500 100606.200000
191.037700 458674.900000
191.061500 278468.400000
192.045500 2583585.200000
193.017000 364641.400000
199.050200 78377.100000
204.045600 2588564.800000
205.040900 6207241.000000
205.053000 619499.400000
206.061300 1235625.900000
213.065900 671302.300000
215.061500 309571.900000
216.045600 231511.100000
218.048600 327537.300000
219.056300 385559.700000
230.024600 126866.100000
231.020000 269289.500000
231.056300 318222.500000
231.080100 268667.500000
233.072000 330812.500000
236.035200 178614.100000
247.051100 78846.200000
248.035600 208894.800000
249.030600 602658.300000
250.051500 76305.900000
254.056100 132590.100000
259.051500 314425.700000
259.075000 126444.500000
261.090800 143315.400000
272.046300 285277.200000
274.061800 117970.600000
274.098400 119875.200000
277.061800 284668.200000
287.070000 626830.600000
302.093300 74549.300000
345.136000 152249.100000
363.145600 139927.800000

>ms2peaks
56.049500 2271845.800000
57.057300 2340599.200000
58.065100 415647.200000
68.049500 137073.400000
69.057300 89382.900000
70.065100 13968082.000000
71.072900 417630.000000
72.080700 47080132.000000
82.065100 312679.100000
84.080700 80118.200000
85.076000 565030.600000
89.038500 90578.800000
102.033800 81922.500000
103.054200 186925.500000
107.029200 202813.900000
109.044900 425977.300000
116.049400 318705.400000
122.040100 3366425.800000
123.035200 97226.900000
128.049400 245013.500000
129.044700 784157.900000
130.040000 64841.800000
130.065100 639658.600000
132.024300 77593.000000
133.044700 125097.200000
134.040100 450498.400000
134.060000 189694.900000
135.023900 76416.400000
135.048000 316994.900000
136.055700 1567955.500000
138.035000 282187.800000
140.049200 84907.200000
143.060200 74210.800000
144.044400 380015.400000
146.039800 85505.700000
147.035300 98553.800000
147.047600 97949.700000
148.055700 1119943.200000
149.051000 362844.300000
150.035100 961254.100000
151.042800 67588.300000
153.045600 78842.700000
155.060200 95338.400000
156.044400 150674.100000
156.068000 107377.100000
157.039700 2644417.200000
158.023700 584804.500000
158.060100 706672.900000
159.035500 175417.900000
160.055700 179886.700000
162.035100 647340.000000
163.030300 373319.800000
163.042600 540145.600000
164.050600 2839202.500000
165.045600 85275.100000
167.060100 75255.700000
169.075700 105494.200000
171.055400 511098.500000
173.050700 137826.900000
174.035100 207804.600000
175.029900 79844.500000
175.042600 69411.800000
175.049900 60614.900000
176.050600 798206.900000
177.046200 137671.700000
177.058400 250822.900000
178.029900 1259581.600000
178.066000 123262.200000
179.025400 187771.700000
179.037300 102595.900000
180.045600 205961.700000
183.055500 136540.300000
184.063300 128979.000000
185.034700 851873.400000
185.071100 402589.900000
186.034800 67692.100000
186.054700 175455.400000
187.029800 124640.300000
187.066400 74335.600000
188.050600 255959.600000
189.045800 182981.800000
190.029500 106346.200000
190.053700 324571.800000
191.037700 719826.500000
191.061200 127138.600000
192.045500 1602057.900000
193.017100 383480.300000
198.065700 106957.300000
203.025000 264903.600000
204.033200 87680.900000
204.045700 1632793.800000
205.040400 2751410.200000
205.052800 535072.700000
206.024200 71440.200000
206.061300 439128.800000
211.073900 140554.000000
212.057800 116533.000000
213.066100 273151.900000
215.061500 184565.500000
216.045200 131549.100000
218.024100 81227.300000
218.048500 164557.500000
219.056100 121710.700000
231.020000 270314.000000
231.056300 223877.900000
231.080300 211314.800000
236.035200 201920.200000
244.050900 96809.900000
248.035000 83707.900000
249.030700 400272.000000
254.055400 75559.000000
259.050400 82222.800000
272.046600 421475.800000

>ms2peaks
51.022900 28126.000000
52.018100 27877.400000
53.002200 121513.000000
54.033900 65212.400000
55.017900 31118.700000
55.041600 70682.200000
56.049500 2814534.000000
57.057300 2497298.000000
58.065100 526724.200000
65.038600 41262.400000
67.041600 76374.300000
68.049400 111876.700000
69.057300 71219.700000
70.065100 10358122.000000
71.072900 350919.900000
72.080700 26610560.000000
75.022900 212757.200000
78.033800 140178.800000
82.065100 243363.200000
83.029000 149604.500000
83.060300 33275.900000
85.076000 439378.800000
88.018200 117996.500000
89.038500 478298.400000
90.033800 38393.100000
92.049400 154195.800000
95.029100 87982.000000
95.049200 79912.400000
96.024500 34262.100000
96.036800 33185.300000
96.044400 88887.000000
97.076000 66602.900000
98.083900 43707.700000
101.038500 28092.700000
102.033800 471882.200000
103.054300 401703.200000
104.013100 38858.700000
104.049400 154385.800000
105.044700 41890.800000
107.029100 743728.200000
108.024300 130736.300000
108.037000 91118.200000
109.044800 1275744.400000
110.040200 78406.000000
113.039800 170314.400000
114.034200 141147.200000
115.041700 163118.300000
116.049400 716921.200000
117.057300 110080.300000
118.028900 29026.200000
119.049100 38148.800000
120.044400 227042.000000
121.032300 126351.800000
121.039400 29036.200000
121.044800 38738.400000
122.040100 6062682.000000
123.023900 100979.600000
123.035300 398208.500000
124.019200 76305.500000
124.055700 43233.500000
126.034700 32313.700000
128.049500 620673.200000
129.044700 1496445.000000
129.057200 172543.500000
130.028800 511484.000000
130.040000 237456.500000
130.065200 743351.000000
132.024400 222680.300000
132.044500 112212.100000
133.044800 223955.200000
134.040000 917800.400000
134.060000 283069.500000
135.024100 142354.000000
135.047800 984201.100000
136.055700 1891775.000000
137.051100 29504.600000
138.035000 316917.100000
140.049500 278544.100000
142.028900 41896.300000
142.052600 113280.200000
143.024100 32339.800000
143.036600 267608.200000
143.060300 96290.400000
144.044400 496965.400000
144.055700 98628.300000
146.040100 215638.100000
147.035300 422140.700000
147.047900 204381.900000
148.019200 137990.000000
148.055700 1392715.200000
149.027300 63552.400000
149.040100 37235.000000
149.051000 406446.900000
150.035000 1139219.900000
151.030200 96044.900000
151.042900 114044.500000
152.050600 97564.400000
155.060700 159521.400000
156.044300 158718.500000
156.068100 148636.900000
157.039700 1798416.100000
157.052000 168148.200000
158.023700 838071.200000
158.040100 83002.100000
158.060000 540291.100000
159.035400 253970.900000
159.054900 39912.800000
160.055600 142181.200000
161.051500 32241.800000
162.035000 548584.100000
163.030400 457430.300000
163.042800 959494.700000
163.066400 78301.200000
164.050600 1528326.100000
165.045900 29142.100000
167.060500 77723.100000
171.055200 366153.900000
173.050700 123449.000000
174.035100 324578.500000
175.030200 116726.000000
175.042900 64968.100000
176.038700 149797.500000
176.050600 665015.800000
177.046600 126987.200000
177.058400 225906.400000
178.029900 696483.200000
178.066200 40759.800000
179.025200 99955.400000
179.037600 28085.200000
180.045500 202445.800000
182.071300 28288.900000
183.055600 121856.500000
184.063100 161446.100000
185.034600 326077.000000
185.070700 163591.200000
186.034700 91267.700000
187.030700 131368.400000
187.066600 37071.300000
188.050700 215895.600000
189.046200 189861.100000
190.030100 131355.900000
190.053600 302366.800000
191.037600 470791.400000
192.045400 697485.500000
193.017200 151210.500000
198.066500 38243.000000
201.045600 30955.300000
203.025200 213153.500000
204.033300 78016.200000
204.045600 679490.800000
205.040900 752294.300000
205.053300 150739.100000
206.061500 70590.100000
208.040100 27338.000000
211.073900 68548.100000
215.061600 108581.100000
216.046300 37907.100000
218.024700 34074.800000
218.049000 36650.700000
231.019900 97502.500000
231.057000 41093.200000
231.080300 32086.600000
236.035400 74408.400000
248.034800 27890.500000
249.031000 160729.200000
262.038700 69979.300000

>ms2peaks
50.015100 157055.300000
51.022900 301136.100000
52.018200 99830.000000
53.002200 397945.800000
53.038600 117340.100000
54.033800 75940.200000
55.017900 18187.800000
55.041600 41553.700000
56.049500 3334224.500000
57.013500 335859.200000
57.057300 1781736.400000
58.065100 357109.400000
59.029200 23307.500000
61.007300 27724.100000
62.015100 89691.500000
63.022900 555805.700000
64.018200 29207.500000
65.038600 169831.100000
67.041600 117835.200000
68.049500 127959.200000
70.065100 4776605.500000
71.029100 110341.300000
71.072900 217659.800000
72.080700 7037683.000000
74.015100 192796.400000
75.022900 2574997.500000
76.018100 459394.900000
76.030700 31422.900000
77.002100 122854.101600
77.038500 211584.700000
77.997400 27456.400000
78.033800 412830.000000
79.017900 39356.700000
79.041500 25463.800000
80.013000 66296.200000
80.049400 31070.300000
81.013500 372768.800000
82.008700 22960.300000
82.021300 36120.500000
82.065100 119620.100000
83.029100 894933.100000
83.060300 74537.300000
84.036900 91068.400000
85.076000 166688.400000
87.022900 188498.400000
88.018200 452602.900000
88.030800 213421.300000
89.038600 1618359.800000
90.033800 198055.500000
90.046400 76316.500000
91.054300 78211.300000
92.025700 25229.700000
92.049500 164341.300000
93.013500 30166.000000
93.033600 25207.600000
94.021300 221898.400000
95.029200 605471.100000
95.049100 379642.300000
96.024400 331269.400000
96.036900 177641.700000
96.044400 403865.600000
97.032300 29691.100000
97.044800 26417.600000
98.040100 134987.200000
99.010500 20186.800000
99.022900 32532.200000
100.018100 387512.400000
101.038600 181891.800000
102.033800 1267550.200000
102.046300 188085.250000
103.017900 94837.400000
103.028900 29525.000000
103.041700 27565.300000
103.054200 331450.400000
104.013100 250436.600000
104.049400 237581.100000
105.013600 26541.400000
105.044800 277598.100000
106.028700 66944.500000
107.029200 2979720.200000
108.024400 409105.900000
108.036900 544009.400000
109.044800 2205453.200000
110.040200 168564.200000
111.024100 21402.700000
112.018200 36385.000000
112.031800 18092.800000
113.039600 771303.300000
114.034400 613670.750000
115.041700 733650.100000
116.049400 669518.600000
117.044800 83095.300000
117.057300 161645.900000
118.028700 68924.100000
119.016400 24177.900000
119.049100 119771.200000
120.024500 143518.100000
120.037000 97883.800000
120.044400 344892.600000
121.032300 288904.100000
121.039600 93167.700000
121.044400 124227.500000
122.040000 5015097.000000
123.024100 196703.200000
123.035300 1828948.100000
124.019200 125185.300000
124.055600 17514.900000
126.034700 164816.000000
127.029100 74299.900000
128.049500 548805.300000
129.044700 1333208.600000
129.057200 225396.100000
130.028800 271230.200000
130.040000 570941.100000
130.065200 282098.200000
131.029000 74458.700000
131.060300 21121.500000
132.024400 724115.800000
132.044300 147405.300000
133.032200 33711.000000
133.044800 310673.100000
134.040100 848948.900000
134.060000 145306.600000
135.024000 165223.100000
135.047800 1635714.200000
136.055700 713693.500000
137.027200 33544.500000
138.034900 136582.800000
140.027000 25170.000000
140.049400 274961.300000
141.044600 84307.700000
142.028900 124831.200000
142.052800 138784.100000
143.024000 23260.200000
143.036600 225153.800000
144.044500 250109.400000
144.055700 36192.100000
145.039700 35476.500000
146.039900 182439.600000
147.024000 33104.100000
147.035300 552074.800000
147.047600 130156.000000
148.019500 149621.600000
148.030800 219593.400000
148.055700 1009339.900000
149.026900 33461.800000
149.039700 22586.600000
149.051000 138870.800000
150.035000 438355.100000
151.030200 26573.800000
151.042800 85340.400000
152.050600 91861.200000
153.045200 32403.300000
154.039900 100971.000000
155.060400 253055.000000
156.044300 40355.300000
156.068200 126847.500000
157.039700 207197.800000
157.052100 68617.900000
158.023700 188596.100000
158.040100 99093.000000
158.060000 103545.000000
159.035300 81049.700000
159.048200 63405.600000
159.054900 25905.500000
160.055700 74939.700000
161.051500 28067.400000
162.034900 193069.100000
163.030100 108662.200000
163.042800 417927.200000
164.050600 251574.500000
165.046200 19681.600000
166.029600 24713.800000
167.060500 27042.700000
171.055300 39784.900000
173.050900 15983.800000
174.034800 64617.800000
175.030000 41226.900000
175.042900 20484.600000
176.038000 74217.900000
176.050700 119416.000000
179.037500 33078.400000
182.071300 64814.800000
183.054800 19072.200000
184.062500 23047.800000
187.030300 73879.400000
187.066300 18967.600000
189.045800 166450.000000
190.029500 38509.400000
190.053500 23413.800000
191.038000 37388.300000
192.045500 66795.200000
204.046000 63724.700000
205.040500 24455.700000

>ms2peaks
50.015100 399998.700000
51.023000 682747.200000
52.018200 193991.900000
53.002200 863814.600000
53.038600 138387.600000
54.033900 107887.500000
55.017800 31342.900000
55.041700 115307.000000
56.049500 2820443.000000
57.013500 1289131.600000
57.057300 781338.900000
58.065100 264193.200000
59.029100 82598.500000
61.007300 236741.300000
62.015100 501688.500000
63.022900 1455014.100000
64.018100 119320.200000
64.030700 29860.900000
65.002100 31865.700000
65.026000 22380.100000
65.038600 141586.700000
67.041600 105810.400000
68.005700 81522.800000
68.049500 109761.000000
69.013500 115865.000000
70.021300 130849.200000
70.065100 1390578.800000
71.029100 203918.600000
71.072900 113947.600000
72.080700 1449945.100000
73.008300 17997.200000
74.015100 1064585.600000
75.022900 6184205.000000
76.018100 1347422.600000
76.030700 149969.000000
77.002100 129613.500000
77.038500 225096.000000
77.997400 77661.700000
78.033800 426137.500000
79.017900 72092.000000
80.013000 85339.000000
81.013500 1121336.900000
82.008800 199500.600000
82.021300 98513.900000
82.065100 38906.100000
83.029100 1552334.100000
84.037000 162926.100000
85.076100 32208.600000
86.015100 76352.400000
87.010500 19697.200000
87.022900 388339.800000
88.018200 558563.400000
88.030800 402769.400000
89.038600 1685068.600000
90.033900 204009.500000
90.046400 121763.400000
91.054200 31403.100000
92.025600 26536.900000
92.049300 29691.800000
93.013500 203944.300000
93.033600 18646.100000
94.021300 545009.400000
95.029200 730928.600000
95.049100 330473.600000
96.024400 465221.100000
96.037100 200425.300000
96.044400 342075.900000
97.032200 28099.900000
97.045000 19320.100000
98.015200 91310.800000
98.040000 112095.100000
99.010400 125069.200000
99.023000 225827.800000
100.018200 941141.600000
101.026000 85862.600000
101.038600 220694.800000
102.033800 917407.900000
102.046500 281899.400000
103.017800 30127.400000
103.029100 34193.100000
103.041600 69991.600000
103.054300 99196.300000
104.013100 156250.600000
104.049500 133738.100000
105.013600 164423.400000
105.044800 255851.100000
106.008700 30288.700000
106.021400 25085.800000
106.029000 18927.700000
107.029200 3715416.000000
108.024400 288756.600000
108.036900 680025.100000
109.032300 78298.400000
109.044800 1146684.500000
110.040000 40149.200000
112.031800 63452.600000
113.039600 689470.400000
114.034300 649305.900000
115.041600 564936.900000
116.049600 210061.900000
117.057300 73529.900000
118.028600 113331.648400
119.016600 97582.700000
119.049300 119860.200000
120.024400 102794.700000
120.037100 163580.300000
120.044200 203390.900000
121.032200 187986.900000
121.040200 15326.900000
121.044600 38666.500000
122.040000 1337045.900000
123.035300 1445409.100000
124.019200 29054.500000
126.034500 95576.000000
127.028900 39732.900000
127.041600 23102.200000
128.049500 299658.600000
129.044600 669898.100000
129.057300 87200.300000
130.028800 34426.000000
130.040000 320043.900000
130.065200 72044.000000
131.029200 78553.900000
132.024500 295610.700000
132.044500 34863.500000
133.032200 39094.700000
133.044800 151054.700000
134.040100 281267.300000
134.059900 28830.300000
135.047800 927147.200000
136.055800 70454.200000
137.027200 25714.700000
138.034600 88274.800000
140.026800 57925.700000
140.049500 144841.700000
141.044900 17479.200000
142.028800 32805.100000
143.036600 75686.400000
146.040100 75026.200000
147.035300 221851.300000
147.047800 22762.200000
148.019500 25941.800000
148.030700 118590.200000
148.055800 261499.800000
150.035000 87462.000000
152.050600 39350.400000
154.039800 64901.500000
155.060400 138280.200000
157.039600 26255.500000
158.040100 35338.300000
159.048000 19561.700000
162.034600 20618.100000
164.050400 23573.600000

>ms2peaks
50.015100 688587.100000
51.023000 1011160.600000
52.018200 291681.100000
53.002200 858722.400000
53.038600 142533.000000
54.033900 140180.900000
55.041700 38124.200000
56.049500 2248143.500000
57.013500 2428280.200000
57.057300 301052.600000
58.065100 198604.200000
59.029100 133655.200000
61.007300 560715.400000
62.015100 1131434.500000
63.022900 2201037.200000
64.018200 214566.400000
64.030700 24961.900000
65.002200 98579.900000
65.025900 29971.300000
65.038600 102115.600000
67.041600 39651.900000
68.005600 201686.700000
68.049500 84626.700000
69.013500 406299.000000
70.021300 249527.100000
70.065100 423387.100000
71.029100 130608.100000
71.072900 37479.300000
72.080700 305927.800000
73.008500 23106.000000
74.015100 3188157.000000
75.010300 377158.187500
75.022900 7435220.000000
76.018100 1943090.600000
76.030600 129998.312500
77.002100 125508.900000
77.038500 179861.800000
77.997400 73165.300000
78.033800 274768.400000
79.017800 67976.200000
79.041500 22962.100000
80.049400 21974.300000
81.013500 1801480.200000
82.008700 267639.800000
82.021300 149763.600000
83.029100 1488742.500000
84.037100 150814.500000
85.007200 104815.203100
85.075900 18545.600000
86.015000 202270.500000
87.010400 89098.600000
87.022900 465256.400000
88.018200 595448.200000
88.030700 401456.000000
89.038600 1128022.200000
90.033800 71767.100000
90.046400 36118.400000
91.054400 28687.800000
93.013600 296010.000000
94.021300 582035.600000
95.029200 415072.200000
95.049100 236785.300000
96.024400 252118.900000
96.037000 153631.900000
96.044400 118000.300000
97.032300 23040.900000
98.015100 184563.000000
98.040000 39417.200000
99.010400 447975.000000
99.022900 233316.200000
100.018200 920455.100000
101.025900 83187.200000
101.038600 102479.900000
102.033800 298396.600000
102.046400 152771.000000
103.028900 18574.900000
103.041600 17921.400000
104.049400 104210.400000
105.013500 191545.400000
105.044700 171906.500000
106.008700 174925.000000
106.021400 66591.800000
106.028900 15390.600000
107.029200 3138451.800000
108.024400 144426.300000
108.037000 364735.500000
109.032200 29154.900000
109.044800 388074.900000
112.018200 21242.600000
112.031500 20053.900000
113.039600 306911.900000
114.034200 499194.500000
115.041700 182281.800000
116.049500 29228.000000
117.057000 22235.300000
118.028700 89144.800000
119.016700 32198.200000
119.049300 31330.400000
120.024300 26991.500000
120.037000 107034.200000
120.044300 67658.200000
121.032300 90669.600000
122.040000 381623.100000
123.035300 747072.000000
126.034500 32086.000000
127.029000 18408.500000
127.041600 18962.000000
128.049400 170683.800000
129.044700 228442.000000
130.039800 129723.500000
131.029100 30937.400000
132.024500 148148.600000
133.044700 26911.100000
134.040000 107329.100000
135.047900 299166.900000
138.034400 18375.700000
140.026600 24452.600000
140.049500 21227.300000
146.040100 33108.600000
147.035300 30412.900000
148.055500 74107.700000
154.039900 22375.700000
155.060200 32344.300000

