>compound EQ52258835
>parentmass 251.13900000000007
>ionization [M+H]+
>formula C13H18N2O3
>rt 306.000000
>profile orbitrap
#smiles_iso CC(=O)NC(COC)C(=O)NCC1=CC=CC=C1
#smiles_can CC(=O)NC(COC)C(=O)NCC1=CC=CC=C1
#inchikey VPPJLAIAVCUEMN-UHFFFAOYSA-N
#pubchem_id 21634109
#mb_accession EQ362701,EQ362702,EQ362703,EQ362704,EQ362705,EQ362706,EQ362707,EQ362708,EQ362709

>ms2
74.059900 7413550.500000
91.054100 65250188.000000
108.080600 216726496.000000
112.039100 3425613.200000
116.070400 68995440.000000
144.065300 59806496.000000
160.075500 449558.700000
164.106800 544263.900000
174.091300 278724.300000
177.102000 14250612.000000
202.086300 498196.800000
209.128200 13258008.000000
219.112600 16538468.000000
233.128000 910466.300000
251.138700 7676905.500000

>ms2
59.049100 493622.600000
74.059900 39837140.000000
91.054100 151796112.000000
108.080600 118449712.000000
112.039100 6875995.000000
116.070400 132926784.000000
117.069600 408979.900000
120.080800 153952.800000
132.080700 872646.100000
144.065300 24527116.000000
148.075500 405356.400000
160.075300 1595088.100000
164.106800 3763269.000000
177.102000 17122596.000000
206.117300 283505.400000
209.128200 13859850.000000
219.112500 4406792.500000
233.128200 613822.900000
251.138800 163425.200000

>ms2
59.036500 280519.700000
59.049100 488733.600000
65.038400 515071.200000
74.059900 120752192.000000
84.044300 1326042.400000
91.054100 199271664.000000
108.080600 25486326.000000
112.039200 4893509.500000
115.054100 268406.300000
116.070400 74117312.000000
117.069600 977779.600000
120.080600 674687.500000
132.080600 1992859.400000
144.065400 2173090.000000
148.075400 1278674.800000
160.075500 945654.400000
164.106800 3925670.800000
177.102000 3742732.800000
209.128200 2048444.200000

>ms2
56.049300 292835.900000
59.036500 929775.700000
59.049000 442872.100000
65.038500 909354.600000
74.059900 150180576.000000
84.044300 1311611.800000
91.054100 193469152.000000
108.080600 4284871.000000
112.039200 1926714.500000
115.054000 436318.800000
116.070400 18640026.000000
117.069700 1162541.200000
120.080700 250971.900000
132.080500 1646129.900000
148.075400 601262.600000
164.106800 855489.100000

>ms2
56.049400 805659.200000
59.036500 2102321.500000
59.049000 396190.500000
65.038500 2741368.200000
74.059900 135028224.000000
84.044400 910054.300000
91.054100 192812352.000000
108.080500 765769.700000
112.039100 676837.600000
115.053900 474926.800000
116.070400 3698302.500000
117.069600 822732.600000
120.080600 250069.000000
132.080600 1068825.800000

>ms2
56.049400 1340332.900000
59.036500 3565272.200000
59.049100 250433.300000
63.022800 267002.900000
65.038500 9111031.000000
74.059900 97745608.000000
84.044300 388984.900000
91.054100 184271552.000000
103.054100 294027.000000
112.039000 258877.300000
115.054100 763362.800000
116.070300 460138.500000
117.069700 434411.400000
120.080700 292680.600000
132.080600 349648.000000

>ms2
51.022800 310006.200000
56.049400 1154651.200000
59.036500 4934326.500000
63.022800 1126485.400000
65.038500 32718328.000000
74.059900 24349184.000000
91.054100 119496088.000000
103.054000 292339.200000
115.054000 444759.300000
117.057200 146661.100000

>ms2
50.015100 514047.400000
51.022900 1003893.100000
53.002200 680944.200000
53.997300 104162.700000
56.049300 588429.100000
58.028700 60633.600000
59.036500 4044248.800000
61.007200 99880.600000
62.015100 399521.500000
63.022800 3259080.200000
65.038500 50005140.000000
67.989100 133320.200000
74.059900 4909504.000000
89.038300 136458.300000
91.054100 58444232.000000
95.049000 76508.000000
103.054200 110285.500000
115.054100 112190.800000
117.057100 95402.900000
130.064600 66855.400000

>ms2
50.015100 1050476.600000
51.022900 1980832.800000
53.002100 1296615.200000
53.997400 311467.800000
56.049400 86440.800000
58.028700 56257.800000
59.036500 2358622.000000
61.007200 234098.200000
62.015000 1242283.900000
63.022800 4927948.500000
65.038500 40704816.000000
67.989000 378564.400000
74.059900 687040.800000
77.038400 57046.500000
89.038400 490217.200000
91.054100 19242400.000000
95.049100 101326.900000
115.054100 81298.100000

