>compound EQ52055924
>parentmass 219.18720000000002
>ionization [M+H]+
>formula C12H27OP
>rt 660.000000
>profile orbitrap
#smiles_iso CCCCP(=O)(CCCC)CCCC
#smiles_can CCCCP(=O)(CCCC)CCCC
#inchikey MNZAKDODWSQONA-UHFFFAOYSA-N
#pubchem_id 13138
#mb_accession EQ358901,EQ358902,EQ358903,EQ358904,EQ358905,EQ358906,EQ358907,EQ358908,EQ358909

>ms2
78.022800 6250467.500000
92.038500 3251093.800000
219.187300 2562028544.000000

>ms2
78.022800 7306579.000000
92.038400 3818602.200000
219.187200 2776061184.000000

>ms2
78.022600 15673557.000000
92.038400 13727098.000000
106.054100 2928433.200000
120.070000 2935280.500000
161.108900 6229477.000000
163.124600 22929700.000000
175.124700 2610748.500000
191.155700 8780910.000000
219.187200 2598127872.000000

>ms2
55.054200 5925434.000000
57.069900 20654706.000000
61.020200 10225362.000000
62.999400 21211540.000000
64.007200 9618484.000000
75.035800 1787106.000000
77.015000 2122306.800000
78.022900 148088720.000000
78.994400 1846634.400000
87.035800 5905749.000000
89.051400 18669282.000000
91.030700 5374792.000000
92.038500 149522656.000000
93.010000 7537402.000000
95.025700 2293767.200000
103.067100 15098916.000000
105.046400 12292319.000000
106.054200 15219916.000000
107.062000 22511532.000000
119.062100 2487892.500000
120.069800 18053506.000000
121.041100 2195985.200000
133.077600 16422122.000000
134.085400 4133816.200000
135.056900 15371340.000000
135.093300 3987392.000000
145.114100 6796758.000000
147.093300 22218542.000000
149.072700 1851987.500000
161.109000 31854376.000000
162.116600 2799167.000000
163.124600 163127040.000000
175.124700 13905734.000000
177.140100 7058619.500000
191.155800 35672520.000000
219.187200 1706729472.000000

>ms2
50.999500 655767.600000
53.002200 2400779.500000
55.054200 14938547.000000
56.988900 2591373.000000
57.069900 43058532.000000
59.004500 4738287.000000
61.020200 29035852.000000
62.999400 65494200.000000
64.007200 33016858.000000
64.978700 1615711.100000
65.015100 642948.200000
67.989300 1561512.800000
69.069900 1185854.200000
73.020100 442492.900000
75.035800 3574449.200000
77.015100 10230612.000000
78.022900 382211680.000000
78.994300 5900871.000000
79.030800 2314171.800000
83.085600 572041.800000
87.035800 7417851.000000
89.051500 27136310.000000
91.030800 12348656.000000
92.038600 290257056.000000
93.010000 20274242.000000
95.025600 16456897.000000
103.067100 15596323.000000
105.046400 22214162.000000
106.054200 14962318.000000
107.062000 51316016.000000
119.062100 6613739.500000
120.069900 13187658.000000
121.041300 1679918.100000
121.077600 2037717.000000
133.077700 35032308.000000
134.085700 1832905.000000
135.057000 8961339.000000
135.093300 9732635.000000
145.114100 4255821.000000
147.093300 42492660.000000
149.072800 1422327.500000
161.109000 30955318.000000
162.116700 569371.200000
163.124600 166989584.000000
175.124700 27022770.000000
177.140300 9227424.000000
189.140200 1128115.600000
191.155900 32003458.000000
219.187300 426504512.000000

>ms2
50.999400 1290057.100000
53.002200 5547744.500000
53.997400 1108637.900000
55.054300 18148258.000000
56.988900 5564416.500000
57.069900 42301800.000000
59.004500 10705904.000000
61.020200 38100052.000000
62.999400 154943616.000000
64.007300 59927188.000000
64.978600 2000633.000000
65.015000 1965940.000000
67.989300 1708967.600000
69.069800 1052848.600000
73.020000 2120529.000000
75.035800 3066893.000000
77.015100 33069690.000000
78.022900 477267136.000000
78.994300 7612136.500000
79.030700 2485213.800000
81.009800 885922.200000
87.035800 4582502.000000
89.051500 15543766.000000
91.030800 17932650.000000
92.038600 303833248.000000
93.010000 35779392.000000
95.025700 53075680.000000
103.067100 6282817.500000
105.046400 28417054.000000
106.054200 5197936.500000
107.062000 38355020.000000
109.041200 947255.300000
119.062100 8295022.000000
120.069900 2553801.200000
121.041300 585997.200000
121.077700 2187073.800000
133.077700 39054560.000000
135.057000 3164844.200000
135.093300 7386762.000000
147.093300 43560844.000000
161.109000 20043736.000000
163.124700 66049212.000000
175.124700 22841014.000000
177.140300 3631637.800000
189.140200 1373321.000000
191.155900 10139569.000000
219.187400 51349904.000000

>ms2
50.999500 1125040.600000
53.002200 5560723.500000
53.038600 500115.000000
53.997400 1429780.200000
55.054300 11160228.000000
56.988900 11856145.000000
57.069900 14205192.000000
59.004500 12993725.000000
61.020200 19388060.000000
62.999500 372337280.000000
64.007300 56309768.000000
64.978700 1721133.900000
65.015100 1897929.200000
67.989200 1759194.900000
73.020200 4480239.500000
74.999400 1327135.900000
75.035900 1095929.900000
77.015100 87922984.000000
78.022900 220638416.000000
78.994300 7001821.500000
79.030700 1884809.000000
81.010000 2691156.200000
85.020200 1003348.400000
87.035900 2425465.200000
89.051400 1234943.800000
90.022900 400719.000000
91.030800 16258659.000000
92.038600 99705928.000000
93.010100 27881526.000000
95.025700 119075704.000000
105.046400 16224544.000000
107.062000 3143733.500000
109.041300 2003409.000000
117.046100 874710.600000
119.062000 3213495.000000
133.077700 13452920.000000
147.093300 9540376.000000
161.109000 2719800.000000
163.124500 1393111.800000
175.124700 2401381.200000

>ms2
50.999400 1076526.200000
53.002200 4960880.500000
53.997500 1950152.500000
55.054300 5459308.000000
56.988900 16792830.000000
57.069900 2526786.500000
59.004500 12038034.000000
61.020200 6934880.000000
61.991600 988153.400000
62.999400 457834432.000000
64.007300 31858504.000000
64.978600 1711253.400000
65.015100 1514857.900000
67.989300 1689250.200000
71.004500 1054019.500000
72.012300 1155407.600000
73.020100 1829743.000000
74.999400 4492746.000000
77.015000 79741520.000000
78.022900 53485608.000000
78.994400 3716997.800000
79.030700 1033399.600000
81.010000 3088394.000000
91.030800 8188274.000000
92.038600 14688441.000000
93.010000 10973899.000000
95.025700 88954328.000000
105.046400 4134776.200000
109.041400 1324305.000000
133.077800 1335612.100000
147.093400 501293.800000

>ms2
53.002200 4358989.000000
53.997400 1133575.800000
55.054300 1823804.500000
56.988900 15465390.000000
59.004500 5987366.500000
61.020200 1301388.600000
61.991600 375095.600000
62.963100 27606006.000000
62.999400 313892000.000000
64.007300 11812057.000000
64.978600 1631601.600000
65.015100 1426563.500000
67.989200 515335.500000
71.004500 775060.100000
72.012400 889748.600000
73.020200 466937.800000
74.999400 4144760.500000
77.015000 31027566.000000
78.022900 8672114.000000
78.994200 1964058.900000
81.010000 2701533.000000
91.030800 2358741.800000
92.038700 1144120.100000
93.010100 2179799.000000
95.025700 35637792.000000
105.046500 524895.600000

