>compound EQ52064590
>parentmass 136.05050000000003
>ionization [M+H]+
>formula C6H5N3O
>rt 180.000000
>profile orbitrap
#smiles_iso C1=CC=C2C(=C1)N=NN2O
#smiles_can C1=CC=C2C(=C1)N=NN2O
#inchikey ASOKPJOREAFHNY-UHFFFAOYSA-N
#pubchem_id 75771
#mb_accession EQ289901,EQ289902,EQ289903,EQ289904,EQ289905,EQ289906,EQ289907,EQ289908,EQ289909

>ms2
52.018100 385595.700000
53.038600 3426788.500000
78.046400 2070901.500000
80.049500 7151590.500000
91.041700 21471250.000000
108.044500 383333.500000
119.047900 11084610.000000
136.050600 380079968.000000

>ms2
53.038600 3726867.500000
78.046400 2078785.500000
80.049500 7577588.500000
81.033600 506829.500000
91.041700 23426118.000000
119.047900 11915332.000000
136.050600 400072864.000000

>ms2
53.038600 7048410.500000
63.022700 576026.600000
64.030600 733726.900000
65.038700 453859.100000
77.038300 477928.100000
78.046400 4538438.000000
80.049500 11932017.000000
81.033600 743925.000000
90.033900 626700.000000
91.041700 53520628.000000
105.044800 587978.100000
106.052600 732522.600000
108.044300 459198.400000
109.052300 3254400.500000
119.047900 22023302.000000
136.050600 322979840.000000

>ms2
50.015100 282076.700000
51.022900 291296.600000
52.018000 473639.000000
53.038600 13423743.000000
54.033900 505610.600000
54.046500 534221.400000
63.022800 1387200.100000
64.030800 3055535.000000
65.026000 604677.600000
65.038600 888023.900000
77.038600 937499.800000
78.046400 8771908.000000
79.041700 261171.200000
80.049500 14650178.000000
81.033500 1338474.200000
90.034000 1224451.200000
91.041700 139546960.000000
92.037000 262681.900000
105.044800 1682753.600000
106.052600 1175553.000000
108.044400 651684.100000
109.052300 4793002.000000
119.047900 34769868.000000
136.050700 168143712.000000

>ms2
50.015100 341472.700000
51.022900 344284.100000
52.018200 1316229.200000
53.038600 13781875.000000
54.033900 704617.400000
54.046500 1888252.000000
63.023000 5772497.000000
64.030800 14898399.000000
65.026000 3377697.800000
65.038600 616698.300000
77.038600 2112627.800000
78.046400 11095049.000000
79.041600 482780.400000
80.049500 10769076.000000
81.033600 1765260.600000
90.034000 1517273.000000
91.041700 208951872.000000
92.037000 1147085.900000
95.049200 3175530.250000
105.044800 2597370.800000
106.052600 868894.200000
108.044500 502648.000000
109.052300 3371977.500000
119.047900 38552144.000000
136.050700 68791920.000000

>ms2
50.015100 604497.800000
51.023000 495580.300000
52.018200 3109584.200000
53.038600 9765500.000000
54.033900 680396.700000
54.046500 5488498.500000
62.015100 501509.700000
63.023000 14546210.000000
64.030800 31772142.000000
65.026000 9183141.000000
65.038600 554268.000000
76.018200 502067.900000
77.038600 2598810.000000
78.046400 9573472.000000
79.041700 590966.400000
80.049500 4999890.000000
81.033600 2235653.500000
90.034000 1677509.900000
91.041700 195291760.000000
92.036900 1829375.800000
95.049200 4388286.000000
105.044800 3075802.000000
106.052600 422285.200000
108.044500 335528.300000
119.047900 25394338.000000
136.050700 20231300.000000

>ms2
50.015100 1270288.600000
51.010400 237393.400000
51.023000 1304105.800000
52.018200 11416625.000000
53.002200 344428.600000
53.038600 3909267.800000
54.046500 7654674.500000
55.017900 121016.000000
61.007400 268729.300000
62.015100 1574979.100000
63.023000 52610828.000000
64.030800 57215048.000000
65.026000 22064368.000000
67.989300 140453.600000
76.018200 2568385.800000
77.038600 2475113.800000
78.046400 5973351.500000
79.041600 392186.900000
80.025800 120702.000000
80.049500 845564.000000
81.033600 1854380.000000
82.041400 340043.800000
90.033900 1291197.600000
91.041700 82281304.000000
92.036900 2332728.800000
95.049200 3669065.000000
105.044800 2624069.200000
119.047900 6712933.500000
136.050700 1077967.500000

>ms2
50.015200 1981029.100000
51.010500 331896.700000
51.023000 2373742.000000
52.018300 23648806.000000
53.002300 914065.600000
53.038600 2151478.000000
53.997500 301948.900000
54.046500 5390395.000000
55.017900 118892.400000
61.007300 886158.400000
62.015200 4929934.000000
63.023000 96822792.000000
64.030800 43827744.000000
65.026000 23222520.000000
67.989400 287603.300000
75.010400 206454.300000
76.018200 4950471.000000
77.038600 2027951.400000
78.046500 2566610.500000
79.041600 139608.300000
80.049500 99396.900000
81.033500 1119869.900000
82.041200 195649.000000
90.033900 1634861.900000
91.041800 22016436.000000
92.037000 824314.600000
95.049200 2470530.750000
105.044800 1354690.900000
119.048000 1002440.600000

>ms2
50.015200 2150058.800000
51.010400 336552.000000
51.023000 2869984.500000
52.018300 22723356.000000
53.002300 1348347.600000
53.038600 806559.100000
53.997500 427729.600000
54.033900 174665.200000
54.046500 1937556.100000
61.007300 1898473.800000
62.015200 10142310.000000
63.023000 106189768.000000
64.018200 1590268.375000
64.030800 18578660.000000
65.026100 15634348.000000
67.989300 244411.800000
75.010400 611000.600000
76.018200 4523186.500000
77.038600 1177873.600000
78.033900 278681.100000
78.046400 1074019.400000
81.033600 442612.800000
90.033900 1068243.800000
91.041800 3984125.800000
92.037000 137963.400000
105.044800 608208.900000

