>compound EQ53302538
>parentmass 271.0633
>ionization [M+H]+
>formula C15H11ClN2O
>rt 558.000000
>profile orbitrap
#smiles_iso C1C(=O)NC2=C(C=C(C=C2)Cl)C(=N1)C3=CC=CC=C3
#smiles_can C1C(=O)NC2=C(C=C(C=C2)Cl)C(=N1)C3=CC=CC=C3
#inchikey AKPLHCDWDRPJGD-UHFFFAOYSA-N
#pubchem_id 2997
#mb_accession EQ360801,EQ360802,EQ360803,EQ360804,EQ360805,EQ360806,EQ360807,EQ360808,EQ360809

>ms2
271.062900 950356544.000000

>ms2
91.053800 1611179.900000
105.033400 1205362.400000
140.025900 11101178.000000
165.021200 4637140.500000
168.020800 1589025.200000
193.016000 2162730.800000
208.099400 3845574.500000
226.041200 1605028.800000
243.068200 14897378.000000
271.062800 887358784.000000

>ms2
91.054100 26916402.000000
104.049100 2474419.800000
105.033400 6121967.000000
106.065000 2773421.500000
116.049300 4181346.200000
117.057200 1086513.200000
118.064900 2890342.500000
133.052000 2142979.800000
140.026000 127188616.000000
144.044200 3071692.500000
150.010300 2187596.000000
158.047300 8451255.000000
165.021300 72209128.000000
166.005200 8203510.000000
168.020900 9663815.000000
180.080200 697434.400000
181.088600 956827.800000
190.064500 590294.400000
191.072600 1870791.100000
193.016100 12103009.000000
193.088400 5949935.000000
199.031000 509545.300000
206.083400 1465819.000000
207.067700 1432603.100000
207.091500 6368375.000000
208.099400 64678868.000000
209.082700 710526.900000
214.041600 6454084.500000
216.057300 3452785.200000
217.075800 1004990.500000
218.083600 3340396.500000
219.067500 2064179.500000
226.041600 27862168.000000
227.049100 2382216.500000
228.057100 1435403.200000
235.086500 1833568.600000
236.094300 2252567.500000
241.052600 2478231.000000
242.036400 886800.000000
242.060200 10412128.000000
243.068200 74814816.000000
253.052400 4533166.000000
271.062900 471738624.000000

>ms2
65.038500 1216647.900000
77.038300 1158797.000000
79.054000 838454.800000
91.054100 66174940.000000
95.049100 985420.200000
104.049300 7477357.000000
105.033400 5038207.000000
105.044700 679526.300000
105.057200 2438089.200000
106.065000 2538408.200000
113.015100 4479679.000000
116.049400 16636771.000000
117.057200 3167309.800000
118.065000 3192205.500000
126.010400 882847.300000
127.018200 9398218.000000
129.044500 1063157.500000
130.052500 3688527.500000
131.060300 403865.200000
132.044400 535939.600000
133.052100 4131456.500000
134.059900 483502.600000
138.010400 7711475.500000
139.005600 364418.400000
140.026000 231480336.000000
144.044200 3491152.800000
148.062900 234601.500000
150.010400 7106602.000000
157.039300 470553.700000
158.047400 24334318.000000
162.054700 915699.600000
163.005600 1290772.600000
164.013400 1972831.900000
165.021300 145145728.000000
166.005300 14277370.000000
168.020900 5486581.000000
178.064900 573864.400000
179.073000 371589.900000
180.080500 5174184.000000
181.088400 5326769.000000
190.064900 4581575.000000
191.072700 17008872.000000
192.080600 1034912.600000
193.016200 8109564.500000
193.088500 11361836.000000
199.030700 3047181.000000
201.033700 436478.100000
206.083800 5037969.000000
207.067900 4943262.500000
207.091500 15581005.000000
208.099400 135746832.000000
209.083400 1875383.900000
214.041600 16695553.000000
216.057300 4848177.000000
217.075800 1442366.800000
218.083700 9188027.000000
219.067700 4809491.500000
226.041600 44073752.000000
227.049400 8405639.000000
228.057100 884002.200000
235.086300 5094286.000000
236.094300 1513350.500000
241.052500 13334546.000000
242.036500 1347812.900000
242.060300 10437397.000000
243.068200 32935534.000000
252.044600 493524.100000
253.052300 2954682.500000
254.036800 368622.800000
271.063000 80242320.000000

>ms2
51.022800 205282.900000
53.038500 1792929.800000
63.022800 219972.600000
65.038500 3662404.200000
77.038400 4306101.000000
78.033600 215952.300000
78.046200 952894.200000
79.041600 481857.200000
79.054100 750528.900000
80.049300 209568.200000
86.999500 434157.200000
89.038400 2415725.200000
90.046200 723552.900000
91.054100 76187408.000000
95.049000 6404584.500000
96.044300 597271.100000
102.033700 208525.800000
103.041500 2758693.500000
104.049300 23089916.000000
105.033400 2407265.200000
105.044600 3543557.500000
105.057200 14781284.000000
106.065000 1215846.400000
113.015100 13485872.000000
114.010300 964049.900000
116.049300 23677694.000000
117.057100 4577422.000000
118.064900 1575043.100000
120.044300 497545.200000
122.999400 1530607.900000
123.994700 1404521.100000
124.007300 359357.800000
126.010400 960034.900000
127.018200 12516247.000000
129.010000 835926.000000
129.044600 3846102.800000
130.005200 938476.600000
130.039800 2566866.800000
130.052400 12671456.000000
131.060200 1475368.900000
132.044400 615154.200000
133.052100 3479781.000000
134.059900 594420.800000
138.010400 26915700.000000
139.005600 2267104.200000
140.026000 194007056.000000
144.043900 880899.000000
147.055100 503193.700000
148.063100 577033.600000
150.010400 8117992.000000
151.005600 231038.600000
152.061900 1369652.800000
153.069800 985340.100000
157.039500 572109.800000
157.050600 503027.200000
158.047300 20272760.000000
162.054800 460605.700000
163.005400 1919878.800000
164.013300 2022264.600000
164.061800 1368746.400000
165.021300 110719800.000000
166.005200 11426493.000000
166.029000 757778.000000
167.072800 511598.700000
168.020800 993485.900000
168.057100 667748.100000
177.057300 395081.900000
177.992500 500528.200000
178.065000 1639731.100000
179.072800 3425191.200000
180.080500 18302854.000000
181.088400 6763713.000000
182.083800 543910.900000
190.064900 16544870.000000
191.072700 26040680.000000
192.067800 209937.500000
192.080500 3965617.500000
193.016100 1801181.100000
193.075800 2144345.000000
193.088500 10117398.000000
196.075700 225425.800000
199.030700 5350588.500000
200.026000 428580.300000
201.033700 750873.900000
205.076100 807220.700000
206.060000 589308.300000
206.083700 8156190.500000
207.068000 4846027.500000
207.091500 30102178.000000
208.099300 99922952.000000
209.083300 1431360.100000
214.041600 16186115.000000
216.057300 2603332.200000
217.075900 2473647.500000
218.083700 7735942.000000
219.067700 4007468.000000
224.025500 702992.600000
225.033800 391755.300000
226.041600 19174126.000000
227.049400 6170118.000000
235.086400 3633633.800000
241.052500 14612632.000000
242.036600 907122.000000
242.060300 3616087.500000
243.068200 3407850.000000
252.044600 741836.600000
253.052600 554341.100000
271.062900 4179248.800000

>ms2
50.014900 640137.600000
51.022700 839523.100000
53.038500 4428293.000000
55.017700 192836.900000
61.979100 374137.000000
63.022700 772796.700000
64.030600 642919.100000
65.038500 10156751.000000
66.046300 150003.800000
72.983700 348505.700000
75.022700 1217547.500000
76.030500 361656.300000
77.038400 10171185.000000
78.033600 983949.500000
78.046300 4108201.200000
79.041500 2448495.000000
79.054200 1289396.000000
80.049300 899343.600000
81.033400 695162.200000
86.999500 936192.200000
89.038400 9309856.000000
90.033700 371378.800000
90.046300 2847773.500000
91.054100 73716608.000000
92.025500 126399.800000
92.049400 878281.800000
93.033300 444520.100000
94.041100 652242.200000
95.049000 15027786.000000
96.044200 1098348.600000
98.999400 873918.800000
100.007300 663644.100000
101.002600 168403.300000
102.033700 1617790.400000
103.041500 8798067.000000
104.049300 53096760.000000
105.044600 9524488.000000
105.057200 30071838.000000
106.064900 816657.200000
110.999600 745293.500000
111.994800 541043.200000
112.007300 665105.400000
113.015100 19182840.000000
114.010400 1674775.800000
114.033600 650302.900000
115.041600 181966.800000
116.049300 19272210.000000
117.057100 4877713.000000
118.064800 619751.500000
120.044200 1963522.900000
122.999400 4403168.000000
123.994800 2808594.000000
124.007200 400510.900000
125.002600 180096.600000
125.015000 142131.600000
126.010200 438814.500000
127.018200 12272676.000000
129.009900 2708655.800000
129.044500 9705815.000000
130.005300 2091375.800000
130.039800 8373805.000000
130.052400 15370927.000000
131.060200 3436733.500000
132.044300 184320.000000
132.067900 131749.000000
133.052000 2033408.100000
134.059800 368949.700000
137.002700 728022.600000
138.010400 38439856.000000
139.005600 7724214.000000
140.025900 119437584.000000
144.044000 157323.200000
147.054800 393047.600000
148.062800 391666.500000
150.010300 5554391.000000
151.018200 668798.400000
151.054000 1073261.500000
152.061900 4382497.000000
153.069600 1633384.500000
154.064500 184652.000000
155.072900 170910.500000
156.080600 853897.600000
157.039500 218645.900000
157.050800 622433.600000
158.047300 7982321.500000
162.042200 186382.400000
163.005600 3586465.200000
163.054000 1274661.400000
164.001100 796690.800000
164.061800 4803147.000000
165.021200 54634564.000000
165.069700 7068806.500000
166.005200 5507178.500000
166.029000 523781.900000
166.064800 613931.400000
166.077500 585876.200000
167.072700 1084103.100000
168.056800 1790442.200000
168.080600 138653.200000
169.064500 1275718.500000
177.057100 870101.800000
177.992700 1010240.600000
178.064900 2696218.200000
179.060900 984772.400000
179.072700 7719518.000000
180.080500 35083988.000000
181.076200 293208.000000
181.088300 3824524.800000
182.083800 879395.800000
189.056900 152327.200000
190.064900 30796620.000000
191.072700 20660558.000000
192.068400 700402.000000
192.080500 5141785.000000
193.016100 508787.200000
193.075800 3373100.800000
193.088300 4741164.000000
194.083800 129049.400000
196.075600 343280.100000
199.030600 6799755.000000
205.075900 1879000.600000
206.060200 986834.800000
206.083700 12042707.000000
207.068500 2243435.750000
207.091500 37631348.000000
208.099300 37491632.000000
209.083000 429119.800000
213.034100 175944.100000
214.041600 9647968.000000
216.057300 635421.800000
216.067200 179708.500000
217.075800 3129238.800000
218.083600 3467333.000000
219.067600 1724668.600000
224.025600 639528.100000
225.033100 671966.400000
226.041400 4266143.000000
227.049300 3081656.000000
228.044200 191905.200000
235.086200 1813759.000000
240.044500 214502.800000
241.052400 12110682.000000
242.036500 138255.100000
242.060200 1102822.600000
243.067700 155511.700000
252.044600 544874.500000
271.062500 123257.700000

>ms2
50.015100 2997573.000000
51.022900 2390996.800000
52.018000 206128.000000
52.030700 380698.800000
53.002100 991773.100000
53.038500 8137231.000000
54.033800 197332.400000
55.017700 732594.100000
61.979100 577104.900000
62.015000 498783.700000
63.022800 3977677.200000
63.994700 100767.600000
64.018100 204355.100000
64.030700 1020278.200000
65.038500 28537784.000000
66.046300 1153718.600000
67.041600 144474.900000
67.054200 127925.100000
72.983800 2225468.500000
74.014900 892136.600000
75.022800 11570732.000000
76.018000 1514649.400000
76.030600 2804788.000000
77.038400 17690044.000000
78.033700 2461911.500000
78.046300 15203913.000000
79.041500 4025579.000000
79.054100 722376.800000
80.049300 1162189.100000
81.033400 1052721.200000
84.983800 522821.100000
86.999500 2166230.800000
87.022800 181772.100000
87.994700 124377.100000
88.018100 177074.800000
88.030600 193858.200000
89.038500 25342826.000000
90.033800 670209.500000
90.046300 4580014.000000
91.054100 44032608.000000
92.025500 408817.500000
92.049400 2442052.800000
93.033400 451517.600000
94.041200 568383.900000
95.049000 26583624.000000
96.044200 2406944.800000
96.983900 598210.100000
97.979100 109295.600000
98.999500 1980420.200000
100.007300 2521418.000000
100.018100 1368026.200000
101.002600 500989.800000
102.033700 7984573.500000
103.041500 16941616.000000
104.049300 81466872.000000
105.044600 17826554.000000
105.057200 22643202.000000
106.065000 513261.300000
109.064600 92930.000000
110.059600 101131.200000
110.999400 2430724.800000
111.044000 335843.700000
111.994700 954412.600000
112.007100 619921.800000
113.015100 7713346.500000
114.010400 2214407.800000
114.033700 969181.000000
115.028900 111990.900000
115.041400 673152.700000
115.054200 1269929.100000
116.036600 323978.800000
116.049300 6423195.000000
117.057100 2710057.800000
118.028600 562193.200000
120.044300 3027543.000000
121.039700 125585.600000
122.999400 6044777.000000
123.994800 3593158.500000
125.002500 514376.900000
126.010200 180452.200000
126.046200 339186.800000
127.018200 6615947.500000
128.049500 170664.800000
128.062100 769968.900000
129.010000 5856534.000000
129.044500 13826528.000000
130.005300 1527311.900000
130.039900 12937365.000000
130.052400 3786900.200000
131.060300 3075555.000000
132.044100 157743.900000
132.068100 101846.500000
133.052000 486159.600000
134.059900 203735.700000
135.031300 948728.900000
135.994800 657066.100000
137.002400 1088883.000000
137.038500 110091.600000
138.010400 16598308.000000
139.005600 15359047.000000
139.054200 1183434.000000
140.026000 18189348.000000
140.049300 2153217.800000
145.064400 342964.700000
146.059700 116999.500000
147.055100 510915.700000
150.010400 1233772.900000
150.046300 1103088.800000
151.054100 2372078.200000
152.061900 14606196.000000
153.057200 845731.400000
153.069800 4990355.000000
154.005300 139232.600000
154.065100 881136.900000
155.060100 818138.600000
155.072700 180004.800000
156.080600 633404.400000
158.047200 367276.600000
162.041600 186659.500000
163.005600 3244382.000000
163.054000 11642433.000000
164.000800 2043537.400000
164.049700 1820458.900000
164.061800 6397983.500000
165.021300 5962241.000000
165.069700 13271468.000000
166.005300 602654.600000
166.064900 2367344.200000
166.077400 130129.600000
167.072600 821255.800000
168.056700 1891025.800000
168.080500 141441.900000
169.064600 3570256.800000
170.059700 366239.600000
173.015400 117793.000000
174.010400 160576.500000
177.057000 2527546.200000
178.064900 7302766.500000
179.060900 2053032.500000
179.072700 13046727.000000
180.080600 32456192.000000
181.075800 629153.000000
181.088600 323024.700000
182.059700 428768.500000
183.067800 196690.200000
188.049200 771155.200000
189.057200 1334635.100000
190.064900 32692834.000000
191.072700 4588151.000000
192.067800 2026030.400000
192.080600 1238532.900000
193.052000 396186.400000
193.076100 1075923.100000
193.088700 155820.300000
196.051700 533511.800000
196.075600 190668.500000
199.030600 2372308.500000
200.026000 199274.600000
201.033600 450774.900000
205.075900 6503463.000000
206.060500 1002127.125000
206.083700 16096642.000000
207.067400 375479.900000
207.091500 6911859.500000
208.099500 1180441.500000
211.062400 858986.800000
213.033900 173640.500000
214.041700 2096497.100000
216.067800 423244.900000
217.075900 898193.100000
218.083800 329439.800000
219.068000 131834.100000
221.047300 115188.900000
224.026100 502395.800000
225.032900 101268.100000
226.041400 185013.900000
227.049500 146059.900000
239.036600 143115.100000
240.044800 634551.100000
241.052500 1742845.500000

>ms2
50.015100 8479941.000000
51.022900 5959681.000000
52.018100 849900.200000
52.030700 645916.100000
53.002100 1916031.400000
53.038500 8597258.000000
53.997300 198352.100000
54.033800 655363.300000
55.017700 608493.600000
61.007100 401145.700000
61.979200 935568.600000
62.015000 2305404.500000
63.022900 11853119.000000
63.994800 129528.100000
64.018100 916920.700000
64.030700 1069934.900000
65.038500 36388692.000000
66.033800 195921.000000
66.046300 1631450.600000
67.041700 193718.100000
67.054100 163654.800000
67.989200 99505.100000
72.983900 5307152.500000
74.015000 4593651.500000
75.022800 30862846.000000
76.018100 4921300.500000
76.030600 9331457.000000
77.038400 21692502.000000
78.033700 2942527.200000
78.046300 19299032.000000
79.017800 386508.500000
79.041500 3165474.800000
79.054100 334064.200000
80.049400 930862.100000
81.033400 1286091.900000
84.983800 2177653.000000
86.014900 187161.100000
86.999500 1685066.100000
87.010300 120406.500000
87.022900 447911.800000
87.994800 201556.300000
88.018100 1162364.200000
88.030600 840290.200000
89.038500 26920474.000000
90.033800 1368169.600000
90.046400 3347553.200000
91.054200 17087152.000000
92.025600 351970.900000
92.049400 1642128.500000
93.033500 540363.200000
94.041200 1123081.600000
95.049100 26022188.000000
96.044300 2698209.000000
96.983900 1443928.600000
97.979100 187383.800000
98.014900 109985.800000
98.999500 1799946.900000
99.010200 595901.000000
99.022800 188230.900000
100.007300 1319381.400000
100.018100 3509385.200000
101.002600 416638.200000
101.038500 99827.400000
102.033700 7808823.000000
102.046300 900710.200000
103.041600 11054196.000000
104.049400 60905608.000000
105.044600 16572504.000000
105.057200 6299386.000000
108.983900 187960.100000
109.064800 109093.100000
110.059900 138824.100000
110.999500 2626793.200000
111.031200 148561.700000
111.043900 161279.300000
111.994700 675385.200000
112.007300 423683.600000
113.015000 1163505.900000
113.038400 1234297.400000
114.010400 898937.600000
114.033600 952158.900000
114.046400 349950.900000
115.029000 335461.900000
115.041500 510456.200000
115.054100 3192905.500000
116.036700 381100.300000
116.049400 1185233.900000
117.057100 987448.500000
118.028600 884563.800000
119.049100 87513.800000
120.044300 1868064.000000
121.039600 172365.800000
122.999500 2733683.200000
123.994800 1641274.900000
125.002600 459274.000000
125.015100 124153.800000
125.038400 758184.200000
126.010600 94202.900000
126.046300 1778266.100000
127.018200 1708121.500000
127.041700 313940.200000
127.054200 1056732.200000
128.049400 1209538.800000
128.061900 1010851.400000
129.010000 3288443.200000
129.044600 7754345.500000
130.005300 632261.900000
130.039900 9083637.000000
130.052500 482844.600000
131.060400 930075.500000
132.056900 92763.000000
135.031400 725208.100000
135.994800 519474.600000
137.002500 385663.500000
137.038500 915590.500000
138.010400 4080067.200000
138.046300 807462.900000
139.005600 8789109.000000
139.054100 4550047.000000
140.026000 1728180.900000
140.049300 4619092.500000
141.057300 118129.200000
145.064700 730041.200000
146.059900 209015.200000
147.055200 193632.400000
150.046300 5064921.000000
151.054100 3443380.000000
152.061900 24676324.000000
153.057200 1375490.400000
153.069700 3937534.200000
154.005500 133446.100000
154.064900 1228994.900000
155.060200 2031913.000000
155.072900 149338.800000
156.081000 124579.800000
161.038600 155963.400000
162.046600 1107752.800000
163.054100 23098986.000000
164.000900 1286706.200000
164.049400 4416144.500000
164.061800 4193609.000000
165.021300 531782.100000
165.057300 620266.100000
165.069700 9354495.000000
166.065000 1518067.400000
167.072800 511300.500000
168.056800 1435326.000000
169.064700 8328422.500000
170.060100 613893.400000
173.015100 177353.500000
174.010700 135060.200000
175.041300 89874.400000
177.057100 4595217.500000
178.065000 10298100.000000
179.060600 3477913.000000
179.072800 10551246.000000
180.080600 9479635.000000
181.075200 303625.600000
182.059900 187012.600000
183.068000 343602.100000
188.049300 2645321.200000
189.057200 2056755.200000
190.064900 15123837.000000
191.060200 186798.800000
191.073000 834980.800000
192.068100 1005833.900000
193.052300 441981.800000
194.059900 392248.300000
196.051700 528719.100000
196.075600 491133.000000
199.030700 517600.300000
204.055400 188713.400000
204.068500 133211.200000
205.075900 7452703.500000
206.083700 3069137.500000
207.067600 356160.300000
207.091300 352954.700000
211.062900 641334.200000
213.034000 372157.200000
214.041700 120291.400000
217.075000 122637.200000
224.025900 97666.200000
239.037000 107693.700000

>ms2
50.015100 17147786.000000
51.022900 11901204.000000
52.018100 1562289.900000
52.030700 1290988.200000
53.002200 2336552.200000
53.038500 6172700.000000
53.997400 322569.100000
54.033700 695347.100000
55.017800 428290.200000
60.983900 399380.312500
61.007200 1325687.500000
61.979100 1102036.800000
62.015000 4931814.000000
63.022900 19226228.000000
64.018100 1365970.800000
64.030600 1049259.900000
65.002100 1615039.125000
65.038500 27542688.000000
66.033800 164805.900000
66.046300 1410419.800000
67.041600 168850.800000
67.054200 86309.700000
67.989200 146931.300000
72.983900 7035186.000000
74.015000 14328773.000000
75.022800 36913480.000000
76.018000 7090505.500000
76.030600 10291138.000000
77.038400 17265208.000000
78.033700 3055182.800000
78.046300 11939567.000000
79.017700 368644.800000
79.041500 1617648.400000
80.049400 461603.300000
81.033400 1034936.200000
84.983800 2917765.200000
86.014900 798619.800000
86.999600 964717.900000
87.010200 304030.800000
87.022900 1888767.600000
88.018100 1835183.500000
88.030600 1255083.600000
89.038500 19684970.000000
90.033800 814172.800000
90.046300 1670733.400000
91.054100 4557615.000000
92.049400 905987.800000
93.033300 104897.000000
94.041200 762804.700000
95.049000 20700418.000000
96.044300 2676819.200000
96.983800 1396229.500000
97.979100 199716.400000
98.015000 744892.200000
98.999400 894229.900000
99.010200 2252645.500000
99.022900 1003959.600000
100.007300 624371.900000
100.018100 4261493.500000
101.002600 455149.800000
101.038500 495230.800000
102.033700 4601837.500000
102.046300 2417867.200000
103.041500 3685532.800000
104.049400 26244970.000000
105.044600 14563232.000000
105.057100 1028105.500000
108.983600 125992.600000
110.999500 1331237.200000
111.022800 391551.312500
111.031300 96247.900000
111.994700 394515.100000
113.038400 3908555.500000
114.010300 327350.100000
114.033700 1092863.000000
114.046200 466332.500000
115.054100 5423340.500000
116.036800 119466.000000
116.049300 435715.500000
117.057100 495192.600000
118.028700 372454.600000
119.049000 375629.000000
120.044300 901517.200000
122.999400 875751.800000
123.022800 420928.812500
123.994900 690861.500000
125.038600 1354408.600000
126.046300 4782591.000000
127.018200 406468.500000
127.041400 640092.600000
127.054000 2019136.600000
128.049400 1076419.800000
128.061900 1157446.000000
129.010000 1058000.800000
129.044500 3814975.000000
130.039900 4386980.500000
131.060100 81717.500000
132.056800 87639.600000
135.031400 305804.700000
137.038500 2404128.000000
138.010000 702315.562500
138.046300 864550.300000
139.005600 2739101.800000
139.054100 5094279.500000
140.049300 4845876.000000
141.057200 164231.400000
145.064600 1194223.800000
146.059800 327569.000000
149.038500 392493.531300
150.046300 9438761.000000
151.041300 428562.625000
151.054100 3482009.500000
152.061900 18830072.000000
153.057200 1158975.900000
153.069800 869217.900000
154.064900 422789.800000
155.060300 1880709.800000
161.038600 1090742.000000
162.046200 2753870.500000
163.054000 18903746.000000
164.001000 388952.200000
164.049300 4658680.000000
164.061700 2101844.000000
165.057300 443935.800000
165.069800 2421041.800000
166.065000 363262.600000
168.056800 770278.400000
169.064600 9183295.000000
170.059900 782092.900000
175.041300 274684.800000
177.057100 4200331.000000
178.065000 7642675.500000
179.060300 3922297.000000
179.072700 3675398.000000
180.080600 1142891.800000
188.049300 3350618.500000
189.057300 825857.400000
190.064900 2792961.500000
191.060100 127173.300000
192.067800 158060.800000
193.051800 352245.400000
194.035800 649724.500000
194.059800 374594.100000
196.051900 186159.300000
196.075300 388297.300000
204.055400 424826.900000
204.068400 190730.800000
205.075900 3060450.500000
206.083500 351080.400000
211.063300 95030.800000
213.033600 99471.300000
221.046600 117957.300000

