>compound EQ54531408
>parentmass 347.2217
>ionization [M+H]+
>formula C21H30O4
>rt 534.000000
>profile orbitrap
#smiles_iso C[C@]12CCC(=O)C=C1CC[C@@H]3[C@@H]2[C@H](C[C@]4([C@H]3CC[C@@H]4C(=O)CO)C)O
#smiles_can CC12CCC(=O)C=C1CCC3C2C(CC4(C3CCC4C(=O)CO)C)O
#inchikey OMFXVFTZEKFJBZ-HJTSIMOOSA-N
#pubchem_id 5753
#mb_accession EQ319801,EQ319802,EQ319803,EQ319804,EQ319805,EQ319806,EQ319807,EQ319808,EQ319809

>ms2peaks
97.064600 1892961.000000
101.059700 1163982.000000
121.064700 4362872.000000
123.080100 1186764.100000
135.080000 610495.800000
147.080200 526316.700000
163.111500 584548.400000
171.116500 454673.500000
173.096300 475870.100000
175.111900 630509.600000
187.111600 554639.000000
193.122500 881994.700000
195.137700 718116.800000
197.132400 484709.200000
211.148000 595913.900000
215.143100 510083.400000
229.158500 1018933.800000
233.153200 822661.600000
241.158600 1134697.000000
251.179400 874711.400000
253.158800 1271310.800000
265.195300 1311891.800000
267.174200 585931.800000
269.190200 2271818.800000
271.205100 807881.000000
275.179300 1525095.800000
281.190100 1125009.800000
283.168900 729558.400000
283.205000 834514.900000
293.189900 8143166.000000
299.200700 877516.200000
311.200400 11937470.000000
329.211200 42150332.000000
347.221600 452091040.000000

>ms2peaks
53.038500 77264.300000
55.017700 99823.400000
55.054100 531181.200000
57.033600 94809.600000
61.028400 194051.600000
67.054200 725931.900000
69.033500 313645.800000
69.069800 434830.700000
71.049100 315940.600000
73.064700 66503.900000
77.038400 231441.900000
79.054100 1046854.100000
81.069900 3381105.000000
83.049100 4668353.500000
83.085400 388653.600000
85.064700 778061.400000
87.044000 2098000.200000
91.054200 850183.600000
93.069900 3540268.500000
95.049100 483631.400000
95.085500 3723789.000000
97.064800 17729102.000000
99.044100 1061325.200000
99.080400 340646.000000
101.059700 7751474.000000
105.069900 2849021.200000
107.049100 681953.200000
107.085500 6139894.000000
109.064800 7225933.500000
109.101200 1539279.900000
111.044000 488601.000000
111.080400 730804.800000
113.059600 69032.700000
115.054000 60447.100000
115.075100 70764.300000
117.069900 855511.600000
119.085500 4024420.000000
121.064800 39257100.000000
121.101200 2361825.000000
123.080400 14153901.000000
125.059800 217499.300000
125.096300 219762.300000
127.075100 399569.500000
129.069800 582980.100000
131.085500 3760454.000000
133.064800 636175.800000
133.101100 6099805.000000
135.080400 10255563.000000
135.116800 3010154.500000
137.096100 2545744.200000
139.075300 380569.300000
139.111900 246919.800000
141.069900 252383.700000
142.077600 61641.800000
143.085500 2808817.200000
145.064800 361370.100000
145.101100 5604571.500000
147.080400 4758638.000000
147.116800 4591744.000000
149.096100 3393027.800000
149.132500 1530619.100000
151.075300 252520.000000
151.112000 573640.200000
153.091000 1985091.100000
155.085500 1429308.600000
156.093400 244049.400000
157.101200 6340059.000000
159.080400 1871379.400000
159.116800 5546423.000000
161.096100 4982410.500000
161.132500 1825922.200000
163.111700 7740844.500000
165.091400 380861.000000
165.127400 360270.200000
167.085500 317278.800000
167.106700 442408.800000
169.101100 4275082.000000
171.080400 1278441.500000
171.116800 8499221.000000
173.096100 3949804.500000
173.132500 2898884.800000
175.111700 9496404.000000
175.148100 861774.900000
176.119200 83107.300000
177.091100 221408.400000
177.127300 3996739.800000
179.085300 109289.800000
179.106600 916691.900000
181.101000 1352729.000000
183.116800 3237914.800000
185.096100 1450743.000000
185.132400 4443363.500000
187.111700 6224957.000000
187.148100 2213689.200000
189.127400 5779653.000000
191.106300 383685.800000
191.143000 544927.700000
193.101700 545865.600000
193.122300 5674818.000000
195.116900 2293683.000000
195.138000 915052.900000
197.096100 898664.200000
197.132500 4570959.000000
199.111700 2113046.800000
199.148100 1118852.900000
201.127300 3338836.000000
201.163800 682774.300000
203.106400 1106776.900000
203.143000 1497954.100000
205.101500 125612.200000
205.122300 1119526.600000
207.116900 930451.800000
207.137900 1411741.400000
209.096800 180767.800000
209.132600 3346261.200000
211.111800 1767277.600000
211.148200 5690019.500000
213.127300 2410977.800000
213.163800 1137649.100000
215.143100 3449657.000000
217.122400 510075.800000
217.159100 205800.800000
219.116900 734177.900000
219.138000 1349557.200000
220.124500 94195.800000
221.132400 905328.300000
221.153700 615727.600000
223.111700 726498.900000
223.148100 4431168.500000
225.127400 1511566.100000
225.163700 2040515.800000
227.143000 3106373.000000
227.179200 400104.100000
229.122400 1402986.100000
229.158700 8207749.500000
231.137900 566538.700000
233.132600 1142043.900000
233.153600 2258175.800000
234.139900 70154.300000
235.148200 3449702.500000
237.127400 1849742.000000
237.163800 1292564.400000
239.143000 2941156.200000
239.179500 334363.500000
241.158700 6219601.500000
241.194500 390380.000000
243.138200 545092.500000
243.174500 2458595.200000
245.153600 2430808.200000
246.140500 249109.900000
247.148500 940557.400000
247.169000 1749651.600000
249.163600 1946876.100000
250.171300 243813.500000
251.143100 1986942.900000
251.179500 5198762.000000
252.186900 71670.300000
253.158700 7835548.500000
253.194900 2387503.500000
255.137900 964031.300000
255.174400 2192253.800000
257.153400 372711.800000
259.169400 888661.200000
260.156000 463032.400000
263.179300 1741168.500000
265.158700 3404824.500000
265.195100 5244488.000000
267.174300 4681771.500000
268.181600 100956.900000
269.154000 753090.200000
269.190000 12305613.000000
271.169200 3380671.200000
271.205500 3468161.500000
275.179300 6498625.000000
278.166100 238384.500000
281.190000 5769165.000000
283.169500 2035443.000000
283.205500 3461571.800000
285.185000 1082843.000000
287.200400 839232.800000
293.190000 24985386.000000
299.200600 1992785.400000
301.179500 845952.900000
301.216200 315777.600000
303.194900 579914.400000
311.200500 28954730.000000
314.187000 210858.500000
329.211200 57577676.000000
347.221800 46453024.000000

>ms2peaks
51.022800 70606.000000
53.002200 55423.500000
53.038400 361184.000000
55.017800 974930.200000
55.054200 1940032.800000
57.033500 306433.200000
57.069900 96584.500000
59.049100 111547.400000
61.028400 498606.600000
65.038500 115221.300000
67.054200 3038843.000000
69.033400 1464302.600000
69.069900 1586197.900000
71.049100 653268.900000
73.064800 89228.200000
77.038500 338500.900000
79.054200 5517845.500000
81.069900 7374439.500000
83.049100 7819167.000000
83.085400 520449.900000
85.064800 797404.200000
87.044100 3056512.500000
91.054200 4582121.500000
93.069900 10061000.000000
95.049200 1254621.900000
95.085500 9142558.000000
97.064800 25171920.000000
99.044100 961539.100000
99.080400 236023.000000
101.059700 3597862.500000
103.054100 215888.000000
105.069900 10204449.000000
107.049100 1895111.800000
107.085500 12747799.000000
109.064800 12457928.000000
109.101200 2552202.800000
111.044100 1201904.200000
111.080400 1020546.100000
113.059700 121340.100000
115.054100 424632.600000
115.075100 65000.400000
117.069900 3572938.000000
119.085600 11044500.000000
121.064800 41640872.000000
121.101200 4400911.500000
123.080400 21487024.000000
125.059600 230437.200000
125.096200 125156.000000
127.054000 61861.600000
127.075300 284008.100000
128.061800 480174.400000
129.069900 2530543.200000
130.077600 114363.000000
131.085500 9572121.000000
132.093800 59719.800000
133.064800 1551867.100000
133.101200 11491426.000000
135.080400 10544526.000000
135.116800 3538477.800000
137.059700 221689.500000
137.096100 2067042.900000
139.075200 366445.400000
139.111900 76892.000000
141.069700 908803.500000
142.077700 792724.800000
143.085600 7916109.000000
144.093400 275049.200000
145.101200 12587027.000000
146.072600 207985.400000
146.109600 75200.400000
147.080400 6297826.500000
147.116800 7957981.500000
148.088400 98249.000000
149.096100 4035689.200000
149.132500 1472891.600000
151.075300 272218.900000
151.111500 386928.900000
153.091000 1404410.800000
154.077600 239147.800000
155.085500 3444476.000000
156.093400 1957698.800000
157.101200 11302247.000000
158.072700 86754.400000
158.109000 258704.400000
159.080400 2691440.500000
159.116800 9711019.000000
160.088200 60886.000000
160.124600 95033.600000
161.096100 5976624.500000
161.132500 2739553.000000
162.103500 56380.100000
163.111700 10776167.000000
165.069300 109039.000000
165.091000 328263.200000
165.127600 185634.700000
166.077700 70608.400000
167.085500 781583.800000
167.106700 209826.900000
168.093400 568764.600000
169.101200 6970695.000000
170.109100 291467.700000
171.080400 1052739.100000
171.116800 11850414.000000
172.124500 89326.300000
173.096100 3645464.800000
173.132500 3789869.200000
174.103800 117693.700000
175.111800 8286934.500000
175.148100 698206.800000
176.119500 317582.000000
177.091100 116722.300000
177.127400 2072505.000000
179.085500 389412.800000
179.106700 436857.700000
180.093300 271046.500000
181.101200 2341754.200000
182.109100 827424.400000
183.116900 5810891.000000
184.124400 229351.700000
185.096100 1492472.900000
185.132500 4814570.500000
186.104100 61238.100000
186.140200 187445.800000
187.111700 4213163.500000
187.148100 2136394.000000
188.119500 75015.900000
189.127400 5149551.000000
191.106700 95953.400000
191.142700 306483.300000
192.094000 62180.700000
193.101300 1080055.900000
193.122400 1215341.600000
194.108900 426729.400000
195.116900 3644505.200000
196.124900 450130.900000
197.096000 838725.800000
197.132500 4610518.000000
198.104000 82584.200000
198.140500 75948.600000
199.111700 1709107.500000
199.148100 1808655.800000
201.127400 3376250.200000
201.163700 774826.800000
202.135800 59437.000000
203.106300 474362.700000
203.143200 698526.100000
205.101000 433897.500000
205.122300 394917.600000
206.109200 97239.800000
207.116800 1544304.000000
207.138000 328231.900000
208.124200 398959.800000
209.096000 324679.500000
209.132500 4372549.500000
210.103700 67661.500000
210.140200 465080.100000
211.111700 1595101.000000
211.148200 4384514.500000
212.119800 103832.500000
212.155800 79575.200000
213.127400 1863192.900000
213.163800 1058143.800000
214.135200 205637.100000
215.143100 1982658.500000
217.122300 277810.600000
217.158700 112189.900000
218.109200 184086.500000
219.116700 830781.600000
219.138000 434137.900000
220.124700 594868.800000
221.132500 1218704.400000
222.103900 89293.800000
222.140200 260309.400000
223.112100 580744.600000
223.148200 3809697.500000
224.119700 98598.400000
224.156200 72432.700000
225.127500 1309728.100000
225.163800 2097308.800000
226.135200 87921.800000
227.143100 2224395.800000
227.179200 549418.200000
228.151000 304866.900000
229.122800 358812.400000
229.158800 3353584.200000
231.116600 124846.000000
231.137700 228193.900000
232.124500 219266.100000
233.132600 930423.800000
233.153100 382802.900000
234.140300 295183.300000
235.148100 2453453.200000
236.119900 68296.300000
236.156100 390764.700000
237.127400 1163507.900000
237.163700 1491876.100000
238.135300 125151.300000
239.143100 2107494.000000
239.179600 435086.400000
241.158700 2523252.800000
241.194900 354345.700000
242.166500 124223.000000
243.137800 232245.300000
243.174400 1290719.900000
245.132400 274114.500000
245.153600 615703.100000
246.140200 338775.200000
247.148500 801617.500000
247.169100 257248.800000
249.163800 1163012.800000
250.134700 98292.700000
250.171700 197832.200000
251.143100 1077327.600000
251.179500 2868807.500000
252.150300 215741.700000
252.187000 343793.900000
253.158600 3027652.800000
253.194800 1123597.900000
254.166400 348566.900000
255.137800 434539.000000
255.174400 1501183.900000
257.153400 257261.800000
259.169300 470588.900000
260.156200 424310.700000
263.142200 61433.600000
263.179300 765209.600000
265.158700 1456019.400000
265.195200 1585403.800000
267.174500 1982634.200000
268.181500 261402.000000
269.153700 343808.600000
269.190000 3175318.800000
271.169100 1545638.200000
271.205900 603449.600000
275.179400 1443140.200000
278.166000 363095.000000
281.190000 1484423.200000
283.170300 484516.400000
283.205600 577398.100000
285.184700 548824.300000
287.199900 263097.600000
293.190000 3419849.500000
296.177200 446123.600000
298.192800 121709.100000
299.163700 321631.800000
299.200300 122739.600000
301.179200 316037.500000
303.196200 87441.300000
311.200500 3287314.200000
314.187800 671950.600000
329.211200 3925676.000000
347.221500 419891.600000

>ms2peaks
51.022800 81629.900000
53.002200 243753.900000
53.038500 693951.300000
55.017800 2197087.500000
55.054200 4091376.200000
57.033500 478191.200000
57.069900 178888.000000
59.049100 75933.200000
61.028400 597681.800000
63.022700 97490.000000
65.038500 593638.400000
67.054200 6137772.500000
67.989200 64866.000000
69.033500 2050723.000000
69.069900 2715467.200000
71.049100 908676.100000
77.038500 723309.400000
79.054200 12873121.000000
81.069900 10359280.000000
83.049100 8295532.500000
85.064800 352942.800000
87.044100 2125111.000000
91.054200 13136983.000000
93.069900 15635660.000000
95.049100 2887651.000000
95.085500 11712654.000000
97.064800 22925648.000000
99.044100 868164.600000
99.080100 55674.300000
101.059700 1119645.200000
103.054200 728281.000000
104.061800 65757.700000
105.069900 20437382.000000
106.077500 75009.300000
107.049100 2597816.200000
107.085500 14044729.000000
108.056900 121715.900000
109.064800 13178737.000000
109.101200 1625925.100000
111.044000 1251707.200000
111.080400 634072.800000
113.059800 104230.700000
115.054200 1312195.500000
116.062100 381216.700000
117.069900 6548300.500000
118.077400 45179.600000
119.085500 14736949.000000
121.064800 36093500.000000
121.101200 3071230.800000
123.080400 17470930.000000
125.059700 98961.600000
125.095800 45546.300000
126.045900 46992.600000
127.075300 209374.500000
128.061900 2026459.200000
129.069900 5046113.500000
130.077700 1052101.600000
131.085500 12176101.000000
132.057000 183222.800000
132.093200 176830.500000
133.064800 1843723.900000
133.101200 10144157.000000
134.072400 93092.600000
135.080400 5750200.500000
135.116800 1982174.100000
137.059500 87865.400000
137.096100 1024333.200000
139.075100 227980.800000
141.069800 1952115.500000
142.077700 3535225.800000
143.085600 9561349.000000
144.056900 54034.500000
144.093500 917416.000000
145.064800 1175843.600000
145.101200 13455841.000000
146.072800 420875.000000
146.108900 193234.800000
147.080400 4936030.500000
147.116800 5578304.000000
148.088000 667267.200000
149.096100 2261679.200000
149.132300 695121.600000
151.075500 60587.500000
151.111700 109600.600000
153.069600 490000.500000
153.090900 303833.800000
154.077800 1014951.100000
155.085500 4594806.500000
156.093400 4482174.000000
157.101200 9130037.000000
158.072700 309457.000000
158.109200 572332.400000
159.080500 2400525.000000
159.116800 7251422.000000
160.088100 394674.500000
160.124400 103024.400000
161.096100 3807953.200000
161.132500 1346408.100000
162.103900 210587.500000
163.111700 8128141.500000
165.069700 788151.600000
165.090900 101628.300000
166.077900 347317.200000
167.085500 1685323.000000
168.093400 1524302.900000
169.101200 5671652.500000
170.072200 85680.800000
170.109100 523496.500000
171.080600 686656.500000
171.116800 6246195.500000
172.088300 115439.100000
172.124700 259604.000000
173.096100 2379620.500000
173.132500 2218855.000000
174.104000 294870.700000
175.111800 3140062.500000
175.148200 202626.400000
176.119600 299032.500000
177.127500 736956.300000
178.077700 274208.300000
179.085500 1135799.400000
180.093300 773717.100000
181.101200 2984276.200000
182.072800 85509.400000
182.109000 1427804.800000
183.116800 3717044.200000
184.088900 62836.800000
184.124700 378488.200000
185.096200 772124.900000
185.132500 2769245.200000
186.103900 96267.100000
186.140300 346947.100000
187.111600 1402219.800000
187.148100 1027415.800000
188.119500 209289.800000
189.127300 1707606.200000
191.085600 122128.900000
191.107000 69809.600000
192.092900 391591.800000
193.101200 1289216.100000
193.122500 72213.900000
194.109000 929957.100000
195.116800 2931947.500000
196.088400 112336.800000
196.124600 668366.000000
197.096400 448050.900000
197.132500 2865023.000000
198.104000 189880.100000
198.140200 84522.900000
199.111700 780129.000000
199.148300 925251.800000
200.119500 210349.200000
201.127400 1174143.800000
201.163800 247712.300000
203.085100 58526.300000
203.143000 340188.700000
204.093300 122808.600000
205.101300 629592.700000
206.109300 397365.200000
207.116900 1174894.500000
208.124700 785634.800000
209.132600 2250212.200000
210.103900 91492.000000
210.140400 383258.800000
211.111800 907391.700000
211.148200 1475108.800000
212.119400 263162.700000
212.155600 62744.000000
213.127400 847316.800000
213.164000 570330.300000
214.135100 334321.200000
215.142600 490069.100000
217.101200 88237.300000
217.122400 58324.900000
217.158900 47517.700000
218.108800 273502.500000
219.116800 464637.600000
220.124600 488833.100000
221.095700 69822.300000
221.132500 858613.100000
222.103000 156373.700000
222.140300 288649.600000
223.112100 402303.800000
223.148100 1404269.100000
224.119300 180381.400000
224.155500 97303.200000
225.127500 602705.400000
225.163900 876920.000000
226.135500 244913.000000
226.171800 97336.500000
227.143100 923195.100000
227.179400 109124.300000
228.150900 401233.700000
229.158600 615030.000000
231.116500 289922.600000
232.124500 201776.300000
233.132400 453394.000000
234.140200 208152.000000
235.111400 61011.000000
235.148300 827487.500000
236.119800 198164.500000
236.156000 253815.400000
237.127400 328956.100000
237.163900 713276.500000
238.135200 96501.200000
239.142900 682544.100000
240.150600 215183.000000
241.158700 483597.900000
242.165800 77580.400000
243.174600 98463.300000
245.132900 364575.800000
245.153300 59532.100000
246.139900 195224.800000
247.148200 244200.800000
249.163200 348045.200000
250.134300 115370.900000
251.142900 313006.600000
251.179100 319970.500000
252.150800 60063.300000
252.187500 65245.700000
253.158700 609727.700000
253.194900 245626.200000
254.166400 283971.300000
255.137500 78845.700000
255.174400 363389.200000
263.143200 100396.800000
263.179000 71439.300000
265.158400 297737.600000
265.195300 88146.200000
267.174200 387109.800000
269.189200 274491.300000
271.169500 66321.900000
275.179400 179256.900000
278.166400 110385.100000
283.169100 240163.300000
293.190200 81989.900000
296.176600 66111.400000
299.164400 538967.900000
314.187400 77036.000000

>ms2peaks
50.014900 142724.100000
51.022900 300134.400000
53.002200 476706.500000
53.038600 1606599.800000
53.997500 57578.600000
55.017800 2865612.200000
55.054200 5943499.000000
57.033500 529434.200000
57.069900 89152.700000
59.049100 63478.700000
61.028400 413138.700000
63.022800 63571.800000
65.038500 1401501.200000
66.046300 106091.600000
67.054200 10912181.000000
67.989200 59121.400000
69.033500 2529994.800000
69.069900 2645070.000000
71.049100 609132.200000
77.038400 2149465.800000
78.046300 215526.500000
79.054200 19541082.000000
80.062000 104177.400000
81.033500 898453.200000
81.069900 11342805.000000
83.049100 7520238.500000
85.065000 91802.500000
87.044100 901514.700000
91.054200 26313416.000000
92.062100 118236.100000
93.069900 15567701.000000
94.041300 247174.500000
95.049100 5444062.000000
95.085500 10912668.000000
97.064800 19496052.000000
99.044100 687402.300000
101.059700 280363.000000
103.054200 2074961.200000
104.062100 205610.600000
105.044800 2075817.000000
105.069900 27323304.000000
106.041200 116585.800000
106.077700 234262.000000
107.049100 2924304.000000
107.085500 9736734.000000
108.056900 311272.800000
109.064800 11731305.000000
109.101200 793978.400000
111.044000 883912.400000
111.080400 297406.200000
115.054200 3189431.200000
116.062000 1295738.600000
117.069900 8907018.000000
118.077600 215054.300000
119.060500 978866.700000
119.085500 14436932.000000
121.064800 27547994.000000
121.101100 1613327.000000
122.072600 61453.300000
123.080400 11495654.000000
125.059900 71805.800000
128.062000 5561210.500000
129.069800 7139623.000000
130.077700 2935624.000000
131.085500 11310560.000000
132.057000 488528.000000
132.093500 352439.300000
133.064800 1745141.500000
133.101100 5324311.500000
134.072700 202476.800000
135.080400 2343486.000000
135.116700 706535.700000
137.096100 478110.500000
141.069800 4156688.500000
142.077700 6254140.000000
143.085600 8178065.500000
144.057000 273706.300000
144.093400 1693291.800000
145.064800 1178915.100000
145.101200 8448026.000000
146.072700 880759.900000
146.109000 84385.200000
147.080400 2896415.800000
147.116800 2241859.800000
148.088200 1600419.500000
149.096100 1103422.200000
149.132600 201001.000000
152.061900 281626.200000
153.069900 1470159.600000
154.077700 1814096.600000
155.060200 634858.400000
155.085500 4477026.500000
156.093400 4555573.000000
157.064700 314779.100000
157.101200 4754935.500000
158.072700 687624.900000
158.109000 368358.900000
159.080400 1479198.500000
159.116800 3311186.000000
160.088300 557810.300000
160.124600 59040.900000
161.096100 1821415.400000
161.132400 354433.900000
162.104000 103814.700000
163.111700 4115816.000000
165.069800 1550588.000000
166.077800 941633.600000
167.085500 2445235.200000
168.093300 1802690.500000
169.101200 3816464.000000
170.108900 752662.300000
171.080300 610854.800000
171.116800 2328551.500000
172.088400 240267.600000
172.124700 108047.400000
173.096000 1015860.800000
173.132500 770287.400000
174.103900 695484.700000
175.111700 926097.100000
177.127700 90866.600000
178.077600 440361.700000
179.085500 1635861.500000
180.093400 917288.600000
181.101100 2384596.800000
182.109000 1215611.600000
183.080200 243846.200000
183.116800 1827199.400000
184.088200 199840.300000
184.124400 250905.100000
185.096200 547115.200000
185.132500 1084100.500000
186.103700 244156.100000
186.140300 231750.100000
187.111700 513485.200000
187.148000 213362.300000
188.119500 222755.700000
189.127600 434512.500000
191.085700 449488.200000
192.093500 487876.300000
193.101300 1361103.100000
194.109000 922409.500000
195.116800 1684212.000000
196.088300 177636.700000
196.124600 484810.700000
197.096200 308812.900000
197.132200 974925.400000
198.103600 117811.100000
199.112000 499290.200000
199.148400 376234.200000
200.119800 89795.300000
201.127400 448322.500000
202.077400 88643.900000
202.134800 64627.300000
203.085600 254354.700000
204.093200 211853.800000
205.101300 984107.900000
206.109200 366372.700000
207.117100 722900.900000
208.088000 65391.700000
208.124500 410322.700000
209.095900 119219.000000
209.132400 880950.600000
210.104000 74919.800000
210.140500 87106.600000
211.111700 376457.300000
211.148000 374281.300000
212.119300 206352.300000
213.127200 553566.500000
214.135100 238911.400000
215.142800 84462.400000
216.093200 64411.000000
217.101000 322404.400000
218.108900 86042.900000
219.116900 344156.700000
220.124400 111068.400000
221.132100 407152.900000
222.104200 49420.300000
222.140400 108946.300000
223.148000 389464.800000
224.119400 93887.800000
225.127400 204478.300000
226.135500 84614.700000
226.172300 78226.100000
227.143000 445460.800000
228.150800 380266.800000
231.116500 255500.500000
233.132300 230918.900000
234.139700 49182.900000
235.111600 115700.400000
235.148300 207424.300000
237.127200 86523.900000
237.163900 195344.800000
239.142800 255294.700000
240.151400 80090.800000
241.158600 95035.500000
245.132100 114336.600000
250.135600 75423.400000
251.179200 56439.800000
253.158400 116073.500000
254.166600 54093.200000
255.173900 68019.800000
263.142800 80900.200000
265.158400 68013.200000
268.145400 264018.400000
283.169100 220190.400000
299.163400 201820.600000

>ms2peaks
50.015100 366148.800000
51.022800 367913.000000
53.002200 610263.800000
53.038600 3612555.200000
53.997400 50702.700000
55.017800 3741389.800000
55.054200 7293149.500000
57.033500 600406.400000
57.069900 186612.200000
59.049100 47611.800000
61.028300 375532.600000
63.022700 73001.200000
65.038500 3239490.200000
66.046400 210549.100000
67.054200 13989201.000000
67.989200 99263.600000
69.033500 2216801.800000
69.069800 1988790.900000
71.049100 447123.700000
77.038500 3708873.500000
78.046400 416973.000000
79.054200 23738838.000000
80.062000 273347.800000
81.033500 1151514.200000
81.069900 11373706.000000
82.041300 90079.100000
83.049100 5831625.500000
87.044100 261167.700000
91.054200 39813564.000000
92.062000 354231.000000
93.069900 13086456.000000
94.041300 529081.700000
95.049100 9964282.000000
95.085500 7779588.000000
97.064800 13653209.000000
99.043900 515318.900000
101.059800 43584.500000
103.054200 4476471.000000
104.062000 729294.400000
105.044700 4403699.500000
105.069900 28177796.000000
106.041300 61650.100000
106.077600 215974.600000
107.049100 3369930.500000
107.085500 4646360.500000
108.057000 596442.400000
109.064800 7587131.000000
111.044100 414256.100000
111.080500 98104.300000
115.054200 6701001.500000
116.062000 2338196.800000
117.069800 9085919.000000
118.077700 473822.100000
119.060400 861654.100000
119.085500 10299864.000000
120.057000 97072.100000
121.064800 17970304.000000
123.080400 5916739.000000
127.054200 369839.200000
128.062000 9061502.000000
129.069800 9012014.000000
130.077700 3741565.000000
131.049000 492800.900000
131.085500 7225335.500000
132.056900 675142.100000
132.093300 251380.500000
133.064700 1543384.200000
133.101100 2338090.000000
134.072600 271847.800000
135.080300 943977.600000
135.116700 224443.800000
137.096000 90555.900000
140.062500 45288.300000
141.069800 8052536.500000
142.077700 6283867.000000
143.085500 4876063.000000
144.057000 383525.700000
144.093300 1311299.400000
145.064700 1745853.800000
145.101100 3907631.500000
146.072500 863879.200000
146.108700 156402.600000
147.080400 1728027.600000
147.116900 554875.200000
148.088200 2138435.200000
149.096000 335122.200000
152.062100 734446.400000
153.069800 2893908.800000
154.077700 2019138.200000
155.060400 1278436.600000
155.085500 4067684.500000
156.093300 3154983.800000
157.064800 438021.600000
157.101200 2213871.500000
158.072600 736412.500000
158.109100 205537.300000
159.080400 1062720.000000
159.116700 1006872.100000
160.088100 224032.100000
161.095900 866204.000000
162.104200 54337.900000
163.111600 1192264.600000
165.069900 2954654.200000
166.077800 1140560.200000
167.085500 2828819.800000
168.093300 1258548.100000
169.101100 1940574.800000
170.072500 78334.800000
170.108800 302602.100000
171.080500 356840.200000
171.116800 874942.600000
172.088300 113990.200000
173.096000 400229.000000
173.132600 185663.600000
174.104000 685827.400000
175.111300 153610.700000
176.120000 70743.200000
178.077600 972161.200000
179.085400 2150285.800000
180.093200 711253.800000
181.064600 205530.100000
181.101100 1695453.900000
182.072800 69697.700000
182.108900 600302.900000
183.080200 110301.200000
183.116800 598706.500000
185.095800 335434.800000
185.132200 263969.900000
186.103800 62282.500000
187.111500 225052.500000
188.119900 60259.600000
189.069900 185259.600000
190.077400 210450.100000
191.085400 719284.900000
192.093200 548454.600000
193.101100 1129407.500000
194.108900 469953.200000
195.080600 98401.900000
195.116700 763411.600000
196.124700 167695.300000
197.095600 175097.900000
197.132400 240390.900000
198.103900 83481.400000
199.111500 221438.300000
199.147900 93624.700000
200.119800 110024.200000
202.077400 184894.500000
202.134900 52357.500000
203.085600 401206.600000
204.093400 96431.500000
205.101400 650035.900000
206.108900 310662.000000
207.117000 383942.700000
208.088300 86311.100000
208.124900 78129.700000
209.132400 307190.800000
210.140100 68216.400000
211.111300 102015.400000
211.148400 178990.500000
212.119400 89436.200000
213.127100 373879.400000
214.134800 76223.900000
215.085200 57533.700000
217.101000 273817.100000
218.108800 51234.500000
219.116900 287363.300000
220.124300 70519.200000
221.095500 82447.500000
221.132200 99665.800000
223.112200 65932.000000
225.127300 111160.900000
227.142700 197546.000000
232.124400 50708.500000
235.111400 78702.800000
239.143200 191815.200000
268.145200 181339.800000

>ms2peaks
50.015100 920956.200000
51.022900 903752.000000
52.030700 58116.000000
53.002200 1035059.900000
53.038600 6779720.000000
53.997400 205219.400000
55.017900 3609723.500000
55.054300 7816432.500000
57.033500 493920.300000
63.022900 348789.900000
65.038600 9313217.000000
66.046400 462426.800000
67.054200 11208397.000000
67.989300 201376.800000
69.033500 1182930.500000
69.069900 833844.800000
71.049200 60961.100000
77.038500 6497453.000000
78.046400 1535162.800000
79.054200 21404126.000000
80.062000 369172.000000
81.033500 1249824.500000
81.069900 4952269.000000
82.041300 232271.800000
83.049100 2478783.200000
89.038600 188583.000000
91.054200 42174308.000000
92.062000 405538.800000
93.069900 3923993.500000
94.041300 915631.300000
95.049200 17148576.000000
95.085500 1739806.600000
97.064800 3869808.800000
99.044000 110049.300000
102.046400 492765.700000
103.054200 5937198.500000
104.062100 1504152.600000
105.044800 9562251.000000
105.069900 13754163.000000
106.041800 67000.100000
106.077600 88759.400000
107.049100 2488372.800000
107.085500 632020.100000
108.057000 343131.600000
109.064800 1774612.200000
111.044400 51943.700000
115.054300 13051096.000000
116.062100 3163552.500000
117.069900 5372491.500000
118.077700 340655.900000
119.049200 325342.200000
119.060300 282172.700000
119.085600 2774722.000000
120.057000 175464.800000
121.064800 3603820.000000
122.072200 51684.600000
123.080400 704612.200000
126.046300 219066.600000
127.054300 691916.600000
128.062100 13492688.000000
129.069900 7496522.500000
130.077800 1785440.500000
131.049200 1052443.000000
131.085600 1774916.200000
132.056900 541588.800000
133.064800 1164628.800000
133.101200 253363.700000
135.080200 81424.800000
139.054300 88559.800000
140.062000 70260.500000
141.069900 9205716.000000
142.077800 2465849.000000
143.085500 1346050.000000
144.057100 346896.100000
144.093200 208115.300000
145.064900 1549981.000000
145.101300 295349.000000
146.072600 255988.200000
147.080400 1290757.900000
148.088300 842291.800000
152.062100 2181636.200000
153.069900 3991674.000000
154.077700 1217035.500000
155.060400 1926811.000000
155.085500 2082733.000000
156.093200 386336.000000
157.064800 467835.500000
157.101300 215171.100000
158.072700 77387.600000
159.080400 334396.400000
160.088300 74484.300000
161.096300 80031.500000
165.069900 3840549.000000
166.077700 847522.700000
167.085600 1519355.000000
168.093600 373645.700000
169.065000 433145.200000
169.101200 294708.200000
171.080400 78499.600000
171.116800 46004.600000
172.088100 53588.300000
173.096000 78293.900000
174.103800 94533.900000
176.061900 50003.900000
177.070400 55229.700000
178.077700 1984395.800000
179.085600 1360844.400000
180.093300 279313.900000
181.101000 430915.800000
183.080400 87946.800000
183.117200 61419.800000
185.095900 49958.800000
189.069500 376365.800000
190.077800 323469.300000
191.085500 751588.500000
192.093500 336648.600000
193.101300 269426.300000
194.108500 45143.400000
195.080000 56151.700000
195.116800 83170.500000
202.077900 413791.400000
203.085400 351406.100000
205.101000 198730.800000
215.085700 98495.200000
216.092800 54736.700000
217.100900 74950.000000

>ms2peaks
50.015100 2591667.200000
51.023000 3358138.200000
52.030900 38773.400000
53.002200 1392403.800000
53.038600 8335265.500000
53.997500 276152.200000
55.017900 3249487.200000
55.054200 5246888.500000
57.033500 574409.600000
62.015100 78911.000000
63.022900 1110238.800000
65.038600 16849684.000000
66.010000 80242.100000
66.046400 878721.200000
67.054200 6197650.500000
67.989200 257414.900000
68.997000 47292.200000
69.033500 551852.900000
69.069900 422638.400000
74.014800 49335.500000
75.022900 170572.700000
76.030800 53394.600000
77.038500 7650990.500000
78.046400 2931437.800000
79.054200 13499055.000000
80.062000 283906.700000
81.033500 1306761.600000
81.069900 1699084.600000
82.041300 344019.200000
83.049100 1087431.100000
89.038600 1274838.100000
90.046400 201212.600000
91.054200 32201284.000000
92.062000 247442.900000
93.069900 930380.700000
94.041300 1057397.000000
95.049200 19988780.000000
97.064800 1036653.500000
102.046400 1290375.400000
103.054200 5655374.000000
104.062000 896271.100000
105.044800 11498275.000000
105.069900 4940171.500000
106.041600 44214.300000
107.049100 1403304.000000
108.057000 193049.600000
109.064900 489640.300000
113.038500 50423.300000
115.054200 19846880.000000
116.062100 1680416.100000
117.069900 2745338.500000
119.049100 232347.000000
119.060900 56149.900000
119.085600 444951.900000
120.057200 67658.800000
121.064900 445484.900000
123.080100 49141.700000
126.046400 448104.700000
127.054200 1143984.200000
128.062100 14309304.000000
129.069900 3938445.800000
130.077800 363340.200000
131.049200 953920.100000
131.085600 425439.500000
132.057100 275821.800000
133.064800 415502.400000
139.054100 398960.600000
140.061800 75781.800000
141.069900 6256800.500000
142.077800 581946.600000
143.085600 295033.900000
144.057000 225766.600000
145.064800 1263217.600000
147.080500 785892.500000
148.088300 183063.900000
150.046300 61378.700000
151.054400 79389.100000
152.062100 4027349.000000
153.069900 2925523.800000
154.077500 352561.200000
155.060400 2263244.200000
155.085500 602933.500000
156.093200 45400.400000
157.064800 212944.600000
159.080300 47748.500000
163.054200 75493.300000
164.061900 197389.600000
165.069900 4045401.800000
166.077800 470712.500000
167.085600 433873.600000
168.056800 61437.200000
169.064700 413367.400000
176.062100 284890.500000
177.069800 271892.800000
178.077700 1762266.500000
179.060300 95611.700000
179.085600 307315.900000
181.065000 76031.100000
189.069900 623730.100000
190.077700 296581.200000
191.085600 425802.800000
192.093200 102258.600000
202.077600 375873.900000
203.085600 75418.300000
215.085600 84183.100000

>ms2peaks
50.015100 4706571.500000
51.023000 7388686.000000
52.030800 261079.100000
53.002200 1780588.400000
53.038600 6771607.000000
53.997500 468019.800000
55.017900 2027320.400000
55.054200 2350468.500000
57.033500 249994.700000
62.015000 385901.000000
63.022900 2058326.800000
65.038600 18396034.000000
66.010100 47880.200000
66.046400 790380.200000
67.054200 2580202.000000
67.989200 204380.700000
68.997100 71760.000000
69.033500 234186.900000
69.069800 89964.200000
71.049100 40442.800000
74.015000 245276.200000
75.022900 581976.700000
76.030600 323514.200000
77.038500 6805575.500000
78.046400 3711482.000000
79.054200 6589761.500000
80.062200 150869.600000
81.033500 961729.700000
81.069800 342774.600000
82.041300 260689.400000
83.049000 359068.700000
89.038600 2991960.800000
90.046500 80127.500000
91.054200 18935430.000000
92.062100 61590.400000
93.069900 190960.600000
94.041400 682011.600000
95.049200 16082933.000000
97.064700 165106.500000
102.046400 2933173.800000
103.054200 3222978.500000
104.062000 442029.400000
105.044800 8653363.000000
105.069900 1313378.500000
107.049100 819899.400000
109.064900 167209.000000
113.038600 159057.800000
115.054300 18840820.000000
116.062000 774721.000000
117.069900 947592.400000
119.049400 189593.800000
119.085600 80186.900000
126.046400 827654.100000
127.054200 1372222.500000
128.062100 10333973.000000
129.044800 196648.140600
129.069900 1181989.100000
131.049200 544857.800000
131.085600 41674.100000
132.056800 82883.700000
133.064600 58460.400000
139.054300 846274.400000
140.061700 60836.100000
141.069800 2418381.200000
142.077700 58593.600000
144.056800 72207.900000
145.064900 841770.100000
147.080300 286663.900000
150.046500 179577.700000
151.054100 67468.600000
152.062100 4249914.000000
153.069900 1068882.800000
154.077700 100521.800000
155.060400 1852355.600000
163.054100 377664.900000
164.062000 415526.700000
165.069900 2602320.200000
166.077900 88485.600000
168.057200 84345.000000
169.064800 696423.200000
176.062200 348766.900000
177.070000 225752.200000
178.077700 747326.800000
179.060400 228088.700000
181.064300 46270.300000
189.070100 557306.400000
190.078100 76545.800000
191.085500 72049.800000
202.077700 261142.100000

