>compound EQ55620537
>parentmass 249.06919999999997
>ionization [M+H]+
>formula C12H12N2O2S
>rt 228.000000
>profile orbitrap
#smiles_iso C1=CC(=CC=C1N)S(=O)(=O)C2=CC=C(C=C2)N
#smiles_can C1=CC(=CC=C1N)S(=O)(=O)C2=CC=C(C=C2)N
#inchikey MQJKPEGWNLWLTK-UHFFFAOYSA-N
#pubchem_id 2955
#mb_accession EQ364401,EQ364402,EQ364403,EQ364404,EQ364405,EQ364406,EQ364407,EQ364408,EQ364409

>ms2peaks
65.038500 469719.200000
92.049300 5189440.500000
93.057100 1933243.200000
108.044300 9023180.000000
156.011200 151402192.000000
249.069000 242469200.000000

>ms2peaks
65.038300 979705.100000
68.049400 2272853.800000
78.033700 333887.600000
79.017700 615491.900000
92.049400 36208612.000000
93.057200 8553791.000000
96.044200 349607.800000
108.044300 60673116.000000
110.059900 803699.400000
120.055400 652990.700000
140.016300 278156.400000
156.011200 239117184.000000
249.069100 67349424.000000

>ms2peaks
52.018100 180556.700000
53.038500 355778.800000
54.033800 412109.200000
55.017800 501610.700000
65.038500 5071031.000000
68.049400 6949038.500000
69.033400 669465.100000
78.033700 792487.700000
79.017700 1312904.800000
80.049300 971207.100000
82.028700 221509.100000
92.049400 110959720.000000
93.057200 20896398.000000
95.036500 327434.000000
96.044300 962465.800000
108.044300 140788784.000000
110.059900 6231580.500000
120.055500 1945761.500000
140.016100 196653.500000
156.011200 81117024.000000
249.069000 1840312.100000

>ms2peaks
53.038500 370697.100000
54.033700 391746.900000
55.017900 346785.600000
65.038500 26866904.000000
66.046400 504202.400000
68.049400 5978671.000000
69.033400 359712.000000
78.033800 720334.600000
79.017800 912332.100000
80.049400 5781233.000000
82.028700 188008.100000
92.049400 133487840.000000
93.057200 28375754.000000
95.036500 195042.600000
96.044300 803108.900000
108.044300 130875200.000000
109.052100 239257.200000
110.060000 12951614.000000
120.055600 1781446.100000
140.016200 227479.800000
156.011300 10193529.000000

>ms2peaks
53.002100 221793.000000
53.038500 323505.600000
54.033800 215564.200000
55.017800 201999.000000
65.038500 71670440.000000
66.033800 546894.700000
66.046300 2198775.000000
68.049400 2694893.800000
69.033500 164251.900000
78.033700 427302.000000
79.017800 495385.000000
80.049400 19958738.000000
83.049000 166030.500000
90.033900 185510.900000
92.049400 111951632.000000
93.057200 34426804.000000
96.044300 360447.900000
108.044300 100704320.000000
109.052200 394702.600000
110.060000 12949547.000000
120.055600 774002.900000
124.021500 288630.100000
140.016100 286115.600000
156.011300 859733.900000

>ms2peaks
53.002200 373564.300000
53.038500 1057158.600000
54.033800 172750.200000
56.049400 254109.700000
65.038500 103037632.000000
66.033800 985490.900000
66.046300 4843174.000000
68.049400 858869.700000
78.033700 292222.800000
79.017900 166441.100000
80.049400 36345312.000000
90.033800 267908.400000
92.049400 63406612.000000
93.057300 31121640.000000
96.044500 129531.200000
108.044300 57733028.000000
109.052100 253997.900000
110.060000 6781378.000000
120.055500 295999.600000
124.021500 651463.900000
140.016400 345824.700000

>ms2peaks
50.015100 167461.400000
53.002200 1309038.000000
53.038600 3987241.200000
53.997400 355361.500000
54.033800 444727.200000
56.049500 401674.400000
63.022800 363410.400000
64.018100 162723.600000
64.030600 139433.400000
65.038600 100839592.000000
66.033800 1830097.200000
66.046400 10849167.000000
67.041700 457786.400000
67.989200 369688.600000
78.033800 491667.200000
80.049400 44702356.000000
90.033800 369997.500000
92.049500 14768251.000000
93.057300 17208876.000000
96.044300 147779.200000
108.044300 12791667.000000
110.060000 1011924.600000
123.013600 151073.300000
124.021600 771555.000000
167.072500 144501.200000

>ms2peaks
50.015100 377657.300000
51.022900 661338.900000
52.018200 380606.600000
53.002200 2524857.000000
53.038600 8544870.000000
53.997400 773698.300000
54.033800 1375742.900000
55.017800 67203.300000
56.049500 405335.000000
62.015100 149724.400000
63.022900 560516.900000
64.018200 476622.400000
64.030700 80898.900000
65.038600 64161864.000000
66.033800 1814666.900000
66.046400 10968028.000000
67.041600 670156.100000
67.989200 684920.600000
75.022800 137014.900000
76.030700 147058.800000
77.038500 77335.400000
78.008700 126958.000000
78.033800 719232.600000
80.049400 29997218.000000
90.033900 166298.600000
91.041600 203121.300000
92.049500 5365587.000000
93.057300 6470108.500000
95.049100 130060.300000
96.044300 173827.600000
97.010600 76794.100000
105.044700 140021.500000
108.044300 2078881.200000
110.060000 166455.300000
115.054200 150378.100000
123.013700 381044.500000
124.021500 230418.200000
139.054300 160432.500000
140.049500 66888.300000
166.064900 67663.600000

>ms2peaks
50.015100 821150.900000
51.023000 1486888.100000
52.018200 836683.500000
52.030700 59982.300000
53.002200 3182620.200000
53.038600 8283285.000000
53.997500 920396.800000
54.033800 1598011.200000
55.017900 120411.600000
56.049500 165776.200000
62.015100 385600.200000
63.022900 1033524.500000
64.018200 508368.800000
64.030700 185436.200000
65.038600 27270692.000000
66.033800 1236665.000000
66.046400 5488893.500000
67.041700 464957.300000
67.989200 646096.200000
74.015100 258438.000000
75.022900 158855.800000
76.030700 66784.400000
77.038500 74715.700000
78.008700 155543.400000
78.033800 759299.700000
80.049400 11754895.000000
89.038500 186014.500000
90.033700 27894.300000
91.041700 206300.500000
92.049500 2450670.000000
93.057300 1720353.200000
95.049100 180122.600000
96.044300 167003.600000
97.010500 62509.500000
105.044600 62739.100000
108.044300 355228.900000
115.054200 163535.100000
123.013600 269927.600000
124.021500 77315.500000
130.065100 44257.200000
139.054200 247183.500000
140.049300 129442.500000

