>compound EQ58546135
>parentmass 312.1343
>ionization [M+H]+
>formula C17H17N3O3
>rt 420.000000
>profile orbitrap
#smiles_iso CC(C)C1(C(=O)NC(=N1)C2=NC3=CC=CC=C3C=C2C(=O)O)C
#smiles_can CC(C)C1(C(=O)NC(=N1)C2=NC3=CC=CC=C3C=C2C(=O)O)C
#inchikey CABMTIJINOIHOD-UHFFFAOYSA-N
#pubchem_id 54739
#mb_accession EQ371101,EQ371102,EQ371103,EQ371104,EQ371105,EQ371106,EQ371107,EQ371108,EQ371109

>ms2
270.087000 438430.000000
284.138900 276249.100000
294.123100 404896.300000
312.134100 141173200.000000

>ms2
58.065100 162088.100000
69.069700 622871.600000
86.096400 3589792.800000
97.064800 452850.800000
114.091400 349449.600000
155.060300 132594.300000
197.070800 375967.300000
198.066200 1135230.200000
199.050200 1909597.400000
216.076600 127005.700000
223.123000 1329765.400000
224.081600 105292.500000
225.102400 313176.300000
226.097700 276666.500000
240.150000 186293.200000
249.102400 304374.300000
252.076800 3694953.200000
266.128900 10288421.000000
267.112800 17532186.000000
268.144300 299477.900000
269.079200 488327.200000
270.087300 14597915.000000
284.139400 9485212.000000
294.123700 5505442.500000
312.134100 88117232.000000

>ms2
53.002200 69213.400000
56.049500 31412.300000
58.065100 582203.600000
67.054200 86895.400000
69.069900 10122115.000000
70.065100 159813.900000
71.073000 97736.900000
71.085500 344904.900000
84.080800 166964.100000
86.096400 13956826.000000
97.064800 1159576.900000
101.038400 32884.900000
114.091500 166515.600000
116.049200 25534.600000
142.065300 54755.100000
153.044300 49567.800000
154.052600 73641.900000
155.060300 1004955.400000
160.075700 91866.700000
171.055500 27466.700000
174.055000 23739.600000
181.039600 1116076.100000
182.096500 100365.800000
183.055500 235605.900000
183.091800 153471.700000
184.039200 59600.200000
186.055300 73648.800000
197.071000 3099787.000000
198.066300 11699527.000000
199.050200 20642978.000000
201.065900 79857.900000
206.096600 34181.300000
211.050300 335738.900000
216.077100 168784.600000
221.107500 25409.800000
223.073800 166277.600000
223.123000 1956431.400000
224.081900 5207210.500000
225.102200 2499447.800000
226.086200 110740.400000
226.097300 582267.900000
227.081600 240329.800000
228.076800 94595.400000
240.100900 26049.700000
240.149500 60468.700000
241.084600 286300.500000
242.092700 71185.700000
249.102300 4085698.500000
251.069000 818755.700000
252.076800 18313032.000000
266.128800 9437266.000000
267.112800 20425778.000000
268.144300 23914.900000
269.079500 860191.900000
270.087300 7701421.500000
282.086900 66731.800000
284.139300 1832851.500000
294.123600 884703.800000
312.134200 5259427.000000

>ms2
53.002200 313945.400000
53.997500 79523.700000
56.049500 91821.900000
58.065100 390167.600000
67.054300 261058.600000
67.989300 105820.700000
69.069900 14372110.000000
70.065100 369839.400000
71.072900 388426.900000
71.085500 267797.200000
72.044400 75746.800000
84.080800 160866.100000
86.096400 13872672.000000
94.065200 24184.000000
97.064800 537827.600000
101.038500 56367.900000
115.041900 103529.900000
116.049600 68415.400000
128.049300 512511.600000
129.057300 105868.900000
130.052700 189389.800000
130.065300 57958.000000
142.065300 165965.000000
143.036600 196385.200000
143.060300 78370.800000
144.044500 52710.900000
146.060100 823498.100000
153.044700 345454.300000
154.052600 709863.300000
155.060400 1570022.000000
156.044500 24644.700000
156.068400 112686.500000
157.076000 181738.700000
158.047500 154183.900000
158.059900 102658.300000
160.075700 243239.100000
161.047200 62417.400000
161.071000 23696.900000
167.073000 116950.500000
171.055400 648167.200000
174.055100 704092.300000
180.080700 115186.200000
181.039700 9843495.000000
182.071300 28697.900000
182.096500 146288.700000
183.055400 1889197.400000
183.091800 184236.500000
184.039300 106552.100000
186.054700 171445.600000
194.096300 59407.300000
196.087100 69207.200000
197.071100 9113151.000000
198.066300 11603362.000000
199.050300 23159796.000000
200.057900 47878.300000
201.065800 92307.800000
206.084100 79904.300000
206.096500 30350.300000
207.091800 27585.900000
208.075700 90261.500000
208.099700 60299.200000
210.079000 305979.700000
211.050200 128543.400000
213.065900 51876.800000
220.099200 27194.600000
221.107500 167282.600000
222.066100 195484.100000
222.091000 117350.000000
223.074200 511955.100000
223.085300 32658.900000
223.122900 377349.100000
224.082000 9290638.000000
225.102300 1792905.000000
226.086000 82316.700000
226.097500 149173.400000
227.081400 166530.200000
232.076000 66271.800000
234.078900 417381.800000
236.082000 31391.000000
241.084700 268164.700000
249.102400 2442914.200000
251.069100 657198.000000
252.076800 8009438.000000
264.076200 28503.000000
266.128900 706675.500000
267.112900 1483777.800000
269.079400 183993.500000
270.087300 403940.900000
312.134500 59040.800000

>ms2
51.022800 21519.200000
53.002200 490883.700000
53.997500 137228.600000
56.049500 199336.900000
58.065200 315291.900000
67.054200 366163.100000
67.989300 112451.500000
69.069900 11165099.000000
70.065100 414556.900000
71.072900 850948.200000
71.085500 93458.500000
72.044300 77922.500000
75.022600 28038.500000
84.080900 100015.100000
86.096400 9522359.000000
91.041700 30625.300000
94.065300 25841.000000
97.064800 150856.600000
105.057400 51104.700000
115.041700 296137.100000
115.054200 91890.600000
116.049400 248651.900000
119.049300 22241.100000
127.041500 57305.100000
128.049500 2360860.500000
129.044700 130508.300000
129.057200 356280.000000
130.052600 377382.300000
130.065300 159583.100000
142.052600 28656.100000
142.065300 280946.800000
143.036700 412851.200000
143.060400 220644.000000
144.044500 251902.500000
146.060100 4883649.500000
153.044800 3754026.500000
154.052600 1816846.400000
154.065200 255345.600000
155.060400 1907114.900000
156.044200 99385.800000
156.068000 53332.700000
156.080900 24939.600000
157.076000 243481.500000
158.047600 222845.200000
158.060100 214628.900000
160.075700 284547.000000
161.047200 173970.700000
161.070800 65111.200000
162.055100 22055.100000
167.073200 198496.500000
168.068800 20646.400000
169.076200 80731.500000
171.055300 3283095.000000
174.055000 1520456.500000
179.060400 106279.700000
180.055400 70965.100000
180.080800 301304.200000
181.039700 20151732.000000
182.071300 52633.900000
182.083800 78531.000000
182.096300 56027.900000
183.055400 2653964.500000
184.075500 74725.400000
185.070800 22188.300000
186.055200 95476.900000
194.096600 83735.800000
195.078800 53495.600000
196.087000 145900.600000
197.071000 10404345.000000
198.066300 4568533.000000
199.050300 10000103.000000
204.080500 63635.000000
206.083800 170310.700000
207.055100 62961.000000
207.091700 106371.500000
208.075600 25868.700000
208.099600 50449.000000
209.058400 57827.200000
209.071200 53947.300000
210.078800 432678.700000
213.065900 86817.800000
220.099900 31128.800000
221.107400 131669.400000
222.066100 194737.500000
222.091000 104133.800000
223.073900 104336.900000
223.085000 34788.500000
223.122800 28105.800000
224.081900 2530382.800000
225.102300 499005.100000
232.075500 23923.800000
233.071500 89622.900000
234.078800 412679.100000
236.082100 112048.200000
241.084600 53422.500000
248.093900 27699.800000
249.102400 372379.800000
251.068400 76726.100000
252.076800 1259879.600000

>ms2
50.015100 16247.100000
51.022900 64924.100000
53.002200 648380.700000
53.038600 65725.900000
53.997500 202525.900000
54.010000 21742.700000
55.017800 19049.400000
56.049500 478913.900000
58.065100 258879.000000
65.038500 46986.100000
67.054200 314241.200000
67.989300 175846.600000
69.069900 7695437.000000
70.065100 686514.900000
71.073000 1715633.800000
72.044400 25757.500000
75.022700 112637.700000
77.038500 114614.600000
78.008600 20615.900000
84.080800 21658.100000
86.096400 4828881.000000
89.038500 53645.900000
91.041600 27585.400000
91.054300 304063.100000
95.049200 54913.900000
101.038400 266748.200000
103.041700 27781.900000
104.049500 18450.400000
105.033400 14400.500000
105.044900 23156.800000
105.057400 57273.000000
115.041700 222989.100000
115.054300 238227.900000
116.049500 678250.800000
119.049200 264573.900000
126.033800 48188.600000
127.041700 535709.300000
128.049500 5818856.000000
129.044700 1450681.000000
129.057300 582280.000000
130.028800 66937.800000
130.052600 332587.600000
130.065200 357328.400000
133.052500 21757.300000
134.060000 14488.100000
140.049500 55904.900000
141.045300 19060.600000
142.052800 102163.200000
142.065200 343979.500000
143.036700 301532.800000
143.060500 294408.400000
144.044500 404800.800000
145.052200 78274.900000
145.065000 18946.100000
146.060100 10498019.000000
152.049700 25096.400000
152.062000 15717.400000
153.044800 11603263.000000
154.040200 298236.500000
154.052600 2057642.600000
154.065200 549215.600000
155.060400 2577775.200000
156.044400 102157.900000
156.080900 49878.100000
157.076200 160466.200000
158.047500 232581.900000
158.060200 160901.800000
159.031600 16914.600000
160.075800 239003.300000
161.047200 281103.200000
161.070600 24391.300000
162.055300 17572.600000
166.065600 13012.200000
167.072900 195944.700000
168.068300 117807.800000
169.039900 80638.800000
169.076000 232882.700000
170.060100 70045.500000
171.055300 5336982.000000
174.055100 811587.400000
178.065100 13406.800000
179.060600 215868.000000
179.072700 27874.800000
180.055900 67938.800000
180.080900 317227.400000
181.039700 12682554.000000
181.050900 1383369.200000
182.071500 27279.200000
182.083800 164028.200000
183.055400 1405280.600000
185.071000 115746.200000
186.055300 14926.800000
192.068300 53230.700000
194.096500 76815.200000
195.079700 16521.600000
196.087100 148729.300000
197.071100 5657697.500000
198.066300 972158.100000
199.050300 2392527.000000
204.081000 56622.100000
205.076000 109837.200000
206.084000 171050.800000
207.055300 14388.900000
207.091900 62195.500000
208.076500 14357.500000
209.058500 59375.700000
209.070700 29255.600000
210.078800 231094.700000
213.066300 86350.900000
220.099400 48235.700000
221.107600 61221.100000
222.066600 139060.800000
222.091800 25239.700000
224.081800 277604.700000
225.102800 57859.900000
233.071000 197547.500000
234.078900 133742.400000
236.082000 83151.100000
249.102600 21540.400000
252.076500 92561.600000

>ms2
50.015100 190714.600000
51.022900 256017.400000
52.018200 26591.700000
53.002200 734906.600000
53.038600 291098.800000
53.997500 149190.700000
54.010100 49231.200000
55.017900 67404.400000
56.049500 1238239.400000
58.065200 160853.300000
63.023000 63337.200000
65.038500 69122.200000
66.046400 12102.500000
67.054300 204899.600000
67.989300 148907.500000
69.069900 2325016.500000
70.065100 1794889.600000
71.073000 2062595.900000
74.015000 108363.200000
75.022900 2394152.000000
76.018000 25512.300000
76.030700 52338.400000
77.038500 818700.900000
78.008700 15748.200000
78.033800 16939.100000
78.046400 80006.700000
79.017900 17195.300000
79.041600 13793.900000
81.033500 22873.400000
86.096400 676488.200000
89.038600 540438.800000
90.046400 52827.800000
91.054300 1257024.200000
95.049200 949261.400000
99.023000 73655.500000
100.018200 115727.800000
100.030700 49164.800000
101.038600 1953255.500000
102.033800 206015.100000
102.046500 371577.300000
103.041600 144316.500000
103.054200 202466.100000
104.025600 18900.700000
104.049400 14712.700000
105.033500 64777.700000
105.044800 547818.900000
115.041700 49441.400000
115.054300 689734.400000
116.049500 1329084.900000
117.057400 122103.000000
118.041400 16022.300000
119.049200 2313702.800000
120.044600 67910.600000
125.038500 28428.400000
126.033900 580276.400000
127.041700 3471050.000000
128.049500 8761252.000000
129.044700 9429254.000000
129.057300 1017394.700000
130.029000 60585.900000
130.040000 321733.000000
130.052600 66179.400000
130.065200 421720.000000
133.052200 27188.100000
134.060300 53538.100000
139.054500 16151.400000
140.049600 174215.900000
141.045300 17083.900000
141.057500 21626.800000
142.052500 115497.300000
142.065200 263063.900000
143.036800 50318.200000
143.060400 88959.600000
144.044500 540278.800000
145.052200 77976.400000
145.064600 26928.400000
146.060100 9697012.000000
152.049600 95402.600000
152.062200 68270.600000
153.044800 9014898.000000
154.040000 2074138.400000
154.052600 1020906.200000
154.065100 327203.800000
155.060400 1206346.800000
156.044300 18709.500000
158.047500 51433.800000
160.075700 128184.200000
161.047200 313276.200000
166.065300 24190.400000
167.060300 15382.200000
167.073100 117904.000000
168.068400 158586.000000
169.039700 84462.700000
169.064700 15569.800000
169.076100 125203.700000
170.059900 93083.300000
171.055300 1899909.800000
174.055000 24030.600000
178.065200 121364.500000
179.060600 135681.900000
179.073100 57474.700000
180.055800 18970.400000
180.080900 127500.500000
181.039700 749722.800000
181.051000 341760.100000
181.075900 250931.500000
182.084000 21960.300000
183.055200 96822.100000
185.071100 90373.600000
192.068200 27836.900000
197.071100 509144.200000
199.050000 27896.500000
204.081400 17893.800000
205.076200 177491.800000
206.083600 18912.100000
207.092100 15480.600000
222.065900 26548.700000
233.070600 26444.800000

>ms2
50.015100 595714.800000
51.023000 607235.400000
52.018200 88344.400000
53.002200 642106.900000
53.038600 606446.100000
53.997500 173171.500000
54.010000 20644.900000
55.017900 88105.100000
56.049500 1592951.100000
58.065100 105236.200000
61.007100 21987.900000
62.015100 50064.200000
63.022900 282081.200000
65.002200 42618.000000
65.038600 156412.000000
66.046400 91923.900000
67.054200 86341.400000
67.989300 93876.600000
69.069900 422668.200000
70.065100 2298076.000000
71.073000 1175733.600000
74.015100 862231.900000
75.022900 10966214.000000
76.018100 171926.900000
76.030700 413710.800000
77.002100 120846.800000
77.038500 1448238.200000
78.008700 27592.200000
78.033900 61371.600000
78.046400 303737.100000
79.017600 39793.900000
79.041700 21478.300000
81.033600 87465.200000
86.096400 75067.900000
87.022900 17264.500000
88.018000 13653.600000
89.038600 1796713.200000
90.033900 49057.400000
90.046400 328876.600000
91.054300 1110850.200000
94.041500 27548.800000
95.049200 2002996.900000
98.015100 16860.900000
99.010400 52497.400000
99.023000 352526.700000
100.018200 671696.400000
100.030800 580485.400000
101.038700 3046801.800000
102.033900 476042.700000
102.046400 1015319.100000
103.041600 245822.500000
103.054200 193648.200000
104.025700 16368.100000
105.033600 85697.900000
105.044800 1356147.000000
113.038600 50314.400000
114.034000 12706.100000
115.054300 610578.600000
116.049500 867574.200000
117.057300 85773.000000
118.028900 49829.300000
118.041400 64283.600000
119.049200 2732891.200000
120.044400 141577.500000
125.038900 53380.400000
126.033900 732260.100000
127.041700 3860294.200000
128.049500 4184860.800000
129.044800 9271805.000000
129.057300 554422.600000
130.040100 643615.900000
130.065300 108457.700000
133.052300 14232.500000
134.060200 22139.500000
139.054400 47734.800000
140.049500 248095.000000
141.057300 26620.100000
142.052700 74530.700000
142.065400 21482.300000
144.044500 284483.700000
145.052100 55943.400000
145.064800 15182.900000
146.060100 3115054.800000
152.049600 24142.300000
152.062300 58014.900000
153.044800 1464522.800000
154.040100 1395864.000000
154.052700 181688.500000
154.065100 124993.600000
155.060300 205658.100000
160.075700 22404.300000
161.047200 81993.800000
164.049600 14422.100000
166.065200 16382.600000
167.073000 61949.300000
168.068400 52083.100000
169.064800 43002.900000
170.060000 45636.900000
171.055300 205947.000000
178.065000 86741.400000
179.060400 24983.200000
179.073200 19458.000000
180.080500 44174.200000
181.039600 22306.500000
181.076600 90142.400000
185.071400 13341.100000
191.072300 16662.700000
205.076200 22937.600000

>ms2
50.015100 1272692.200000
51.023000 1357122.200000
52.018200 170062.600000
53.002200 511934.600000
53.038600 615858.800000
53.997500 86551.100000
55.017900 59552.000000
56.049500 1090540.200000
58.065100 61997.900000
61.007300 53806.900000
62.015100 154140.800000
63.022900 838585.800000
65.002200 104420.600000
65.038600 190970.400000
66.046400 115370.900000
67.054300 56017.300000
67.989300 66748.100000
69.069800 52125.700000
70.065100 1899143.000000
71.073000 301644.500000
74.015100 3159465.800000
75.022900 16757289.000000
76.018100 424499.100000
76.030700 901881.200000
77.002200 101874.500000
77.038500 1102276.600000
78.033900 63324.400000
78.046400 382955.400000
79.041700 20260.900000
81.033500 108571.200000
87.022900 119170.800000
88.018300 79235.500000
89.038600 1971395.200000
90.033900 60204.000000
90.046400 329978.200000
91.054300 414348.300000
94.041400 42750.800000
95.049200 1759658.200000
98.015100 164948.900000
99.010400 241352.500000
99.022900 547112.000000
100.018200 1104838.000000
100.030800 772913.000000
101.026000 179087.406300
101.038600 1773976.800000
102.033900 446089.800000
102.046400 1017450.800000
103.041700 182625.700000
103.054300 60577.900000
105.044800 1057546.800000
113.038600 61900.200000
114.033900 64281.400000
115.054300 228674.900000
116.049500 249533.800000
117.057400 26163.700000
118.028800 69541.700000
118.041200 22465.600000
119.049200 1101741.400000
120.044500 115115.100000
126.033900 270841.200000
127.041700 1664052.100000
128.049500 1048419.400000
129.044700 3378490.500000
130.040100 454420.800000
139.054300 21708.800000
140.049600 129924.800000
141.057200 26858.100000
144.044500 95050.200000
146.060100 485003.300000
152.062000 22618.400000
153.044900 237332.400000
154.040100 341872.100000
155.060700 58465.100000

