>compound EQ58002430
>parentmass 292.0654
>ionization [M+H]+
>formula C16H15Cl2N
>rt 576.000000
>profile orbitrap
#smiles_iso C1CC(C2=CC=CC=C2C1C3=CC(=C(C=C3)Cl)Cl)N
#smiles_can C1CC(C2=CC=CC=C2C1C3=CC(=C(C=C3)Cl)Cl)N
#inchikey SRPXSILJHWNFMK-UHFFFAOYSA-N
#pubchem_id 577181
#mb_accession EQ362301,EQ362302,EQ362303,EQ362304,EQ362305,EQ362306,EQ362307,EQ362308,EQ362309

>ms2
91.054100 238408.400000
115.054000 32780.400000
129.069700 664862.700000
158.976000 1170535.100000
196.991700 28773.400000
275.038600 13523355.000000

>ms2
89.038200 15367.000000
91.054100 826392.400000
115.054000 102495.300000
129.069700 2054283.600000
158.976100 9688976.000000
196.991600 189642.900000
240.069500 62116.600000
275.038600 4810451.500000

>ms2
91.054100 568844.200000
115.054100 96796.800000
128.061800 17485.900000
129.069700 2370170.200000
158.976100 13499550.000000
162.023000 51001.500000
196.991700 169561.700000
205.101000 47867.000000
212.038400 38148.100000
240.069800 180995.000000
275.038600 208104.800000

>ms2
91.054100 474544.500000
115.054000 54717.500000
122.999500 210020.200000
124.007300 40962.100000
125.015100 34576.700000
128.061900 223976.500000
129.069700 2076530.000000
132.960400 27669.800000
155.060200 50721.900000
158.976100 14270373.000000
162.022900 145801.200000
196.991500 87692.800000
204.093000 15032.800000
205.100900 158965.000000
212.038300 37426.000000
225.046200 65286.200000
240.069600 102831.800000

>ms2
63.022700 14215.900000
65.038500 16793.400000
72.983700 31261.600000
89.038400 81457.700000
91.054100 399312.200000
98.999500 148634.000000
115.054100 67635.300000
122.999400 1088673.600000
124.007400 257327.600000
125.015100 63051.000000
127.054000 29003.600000
128.061900 742202.300000
129.069700 1381992.400000
132.960500 118515.600000
145.064600 75354.900000
155.060300 142137.100000
158.976100 11928432.000000
162.022900 173197.300000
190.077600 35164.600000
203.085200 38839.400000
204.093100 58924.000000
205.101100 138903.800000
212.038700 43756.400000
225.046600 89428.900000
245.999400 15083.000000

>ms2
63.022800 31078.900000
65.038500 43030.100000
72.983800 95886.800000
88.030600 11007.800000
89.038400 539075.600000
91.054100 366393.500000
96.983900 42037.100000
98.999500 530231.300000
102.046300 10586.800000
103.054000 11456.400000
115.054200 62217.200000
122.999400 2769944.500000
124.007300 930834.600000
125.015100 53996.000000
126.046300 11128.300000
127.054000 62334.600000
128.061900 1281043.100000
129.069700 755420.400000
132.960500 358449.500000
145.064700 109411.700000
155.060200 248062.000000
158.976100 7816960.500000
162.022900 163141.100000
189.069600 30973.000000
190.077500 63426.500000
202.077200 34690.700000
203.085100 70259.600000
204.093200 85370.900000
205.101200 69697.800000
212.038200 39123.400000
225.046500 84259.900000
246.000000 8788.000000

>ms2
51.022900 13684.200000
53.038500 10060.700000
62.015000 43235.600000
63.022800 239157.200000
65.038500 115654.400000
72.983800 781486.400000
74.999500 46247.100000
77.038400 28330.400000
78.046300 8463.600000
82.944900 47954.300000
87.022800 37399.900000
88.030600 145299.700000
89.038400 2598414.500000
91.054200 225791.900000
95.049000 48016.600000
96.983900 316260.400000
98.999500 1018746.400000
102.046300 53075.300000
103.054100 48062.100000
105.044500 18222.800000
106.944800 9784.800000
108.960600 12347.700000
115.054100 134440.600000
122.999400 3149485.500000
124.007300 850211.900000
125.015200 54567.600000
126.046200 75775.700000
127.054000 180259.000000
128.061900 1376409.500000
129.069600 82790.100000
132.960500 591789.100000
145.064600 123374.800000
155.060200 275865.800000
158.976100 1410740.400000
162.022900 50038.900000
176.061800 31372.600000
178.077300 31812.500000
189.069700 161409.800000
190.077800 16116.500000
199.030600 15149.000000
202.077600 85549.800000
203.085500 68451.800000
204.093200 34404.100000
225.046300 11317.500000

>ms2
50.015100 38540.500000
51.022900 74606.100000
53.038500 47611.600000
61.007200 31559.500000
62.015000 265896.800000
63.022800 774906.600000
65.038500 191626.800000
72.983800 1920730.100000
74.014900 13486.400000
74.999500 32792.100000
75.022800 65574.800000
76.030600 14025.500000
77.038300 57561.300000
78.046300 108050.100000
82.944900 183408.300000
86.014900 8996.600000
87.022800 83224.800000
88.030600 287450.400000
89.038400 3656218.800000
91.054100 79517.700000
95.049000 119208.900000
96.983800 617093.400000
98.999500 702008.700000
102.046300 216329.800000
103.054200 47113.300000
105.044600 105052.000000
106.944800 78941.900000
108.960500 11399.600000
115.054100 130448.700000
122.999400 1295017.400000
124.007300 233955.400000
125.015000 11301.800000
126.046200 139315.400000
127.054100 201690.200000
128.061900 1080158.600000
129.044500 38417.800000
132.960500 337183.800000
145.064800 88150.700000
152.062100 8877.600000
155.060200 195334.600000
158.976100 124698.300000
163.054000 47184.100000
164.061700 9454.300000
176.061800 68125.500000
178.077800 9082.600000
188.062000 11706.500000
189.069800 171596.700000
199.030700 13081.600000
200.062100 14283.800000
201.069700 13837.500000
202.077400 177869.100000
203.085100 32248.300000

>ms2
50.015100 71609.800000
51.022900 188490.400000
53.038600 45766.300000
61.007200 96050.600000
62.015000 610374.600000
63.022800 1289834.100000
65.038500 141722.300000
72.983900 2021041.400000
74.015000 56660.400000
74.999400 30787.500000
75.022800 133328.500000
76.030600 63224.600000
77.038400 71967.700000
78.046300 167261.400000
82.944900 220976.900000
86.015000 48428.800000
87.022800 133564.800000
88.030600 216582.300000
89.038500 2455589.000000
91.054100 31467.900000
95.049000 155354.700000
96.983900 458541.400000
98.999500 205321.800000
102.046300 280153.300000
105.044700 128964.100000
106.944800 79869.400000
115.054000 85732.500000
122.999400 241520.600000
124.007300 15693.500000
126.046300 137681.900000
127.054000 113859.700000
128.061900 423241.400000
129.044500 38663.300000
132.960400 108211.600000
145.064600 28921.300000
152.061700 13341.000000
155.060300 108472.200000
163.054000 71474.800000
164.061800 10921.100000
176.061800 62621.600000
188.061600 32146.500000
189.069600 95481.900000
200.061700 51986.300000
201.069600 16355.400000
202.077400 126580.300000

