>compound EQ58075978
>parentmass 225.12339999999998
>ionization [M+H]+
>formula C11H16N2O3
>rt 60.000000
>profile orbitrap
#smiles_iso C1=CC(=CC=C1CC(=O)N)OCC(CN)O
#smiles_can C1=CC(=CC=C1CC(=O)N)OCC(CN)O
#inchikey UWMXVJVTKRSOPW-UHFFFAOYSA-N
#pubchem_id 14211540
#mb_accession EQ267001,EQ267002,EQ267003,EQ267004,EQ267005,EQ267006,EQ267007,EQ267008,EQ267009

>ms2peaks
56.049400 2534350.800000
74.060000 16099924.000000
145.064800 2250953.500000
152.070700 408591.600000
162.091400 3559229.800000
163.075500 237625.500000
164.070700 681876.200000
173.060000 872780.500000
178.086300 5848261.000000
180.101900 16060069.000000
190.086300 27115166.000000
207.113100 853983.900000
208.096900 27536630.000000
225.123400 224767568.000000

>ms2peaks
56.049500 7359782.500000
74.060000 42169556.000000
107.048900 295739.300000
121.064900 180301.700000
133.064800 1475047.500000
145.064900 13560946.000000
147.044300 263844.800000
152.070600 902755.500000
161.060000 211883.500000
162.091400 7525161.500000
163.075400 562942.600000
164.070600 2693586.800000
173.059800 3818705.000000
178.086300 16862954.000000
180.101900 22317054.000000
182.081100 812172.000000
190.086300 46636620.000000
207.112900 460401.500000
208.096900 38193852.000000
225.123400 98517216.000000

>ms2peaks
56.049500 18347170.000000
57.033500 72024.500000
74.060000 56222264.000000
77.038300 71184.400000
91.054200 495470.800000
93.069900 665407.400000
105.069900 314640.200000
106.065200 168821.300000
107.049100 1715960.600000
115.054200 79985.700000
117.069900 900233.200000
119.049200 1837725.200000
119.085500 132818.200000
121.064800 3687161.000000
122.060000 581701.100000
131.049100 244228.200000
133.064800 15003003.000000
134.060000 374907.200000
136.075600 277733.800000
137.059700 76194.300000
144.080800 172467.400000
145.064800 48905880.000000
147.044000 3085508.200000
147.080400 259537.800000
152.070600 1349415.600000
161.059700 1003148.100000
162.066100 727784.700000
162.091400 6148069.500000
163.075300 1224762.600000
164.070600 6339371.500000
173.059800 7001452.000000
178.086300 19009494.000000
180.101900 4480221.500000
182.081200 1899617.100000
190.086300 21572674.000000
208.096900 12011447.000000
225.123400 6096993.000000

>ms2peaks
53.038600 55274.400000
55.017900 140136.200000
56.049500 21366714.000000
57.033500 157596.400000
58.065100 60495.800000
74.060000 34618256.000000
77.038400 177135.200000
79.054200 643732.100000
89.038600 732773.200000
91.054200 3114304.800000
93.069900 2724319.200000
94.065200 130700.100000
95.049200 201725.600000
103.054200 370537.800000
105.033600 197872.200000
105.044700 124708.000000
105.069900 2071139.400000
106.065200 1577689.800000
107.049100 4045172.200000
108.081000 50410.500000
115.054300 1321040.500000
116.049400 215516.000000
117.033600 312151.600000
117.057400 322108.200000
117.069900 3950681.500000
119.049200 4168818.800000
119.085500 251697.600000
121.064800 6527939.000000
122.060000 1316036.600000
131.049100 495292.200000
132.057000 64427.900000
133.064800 26622082.000000
134.060000 3173646.000000
135.044000 276826.700000
135.080400 52487.100000
136.075800 322555.100000
137.059700 382990.600000
144.056700 157339.700000
144.080900 404417.800000
145.064800 49140120.000000
147.044000 3328035.500000
147.080500 366860.600000
152.070700 1075249.100000
155.060400 380981.900000
161.059800 533700.400000
162.066200 2418565.800000
162.091400 1972683.400000
163.075400 854324.800000
164.070600 2430601.500000
172.075600 59438.900000
173.059800 2116796.200000
178.086300 3824393.000000
180.102000 150980.500000
182.081300 480983.200000
190.086300 2260453.500000
208.096800 781632.900000
225.123100 155490.300000

>ms2peaks
50.015000 39230.800000
51.022800 63427.000000
53.038600 273552.900000
54.033800 41465.100000
55.017900 262357.100000
56.049500 21160480.000000
57.033500 423326.500000
58.065200 73954.300000
63.022800 72403.200000
65.038500 330420.300000
67.054200 43347.600000
74.060000 20923450.000000
77.038500 569935.400000
78.046400 42765.900000
79.054200 3390790.000000
80.049400 54571.400000
89.038600 4396862.500000
91.054300 9855110.000000
93.069900 3703019.200000
94.065100 425888.600000
95.049200 889808.100000
103.054200 1196152.200000
104.062100 71696.300000
105.044800 560851.600000
105.069900 6690988.000000
106.065200 4741000.000000
107.049100 9820806.000000
108.080700 124658.300000
109.064800 61991.400000
115.054300 5851873.000000
116.049500 1065074.800000
116.062000 191631.500000
117.033500 1097249.900000
117.057400 540349.900000
117.069900 7376242.500000
118.041300 38043.100000
119.049200 4395730.000000
121.064800 3600101.200000
122.060000 981654.200000
127.054200 165936.500000
128.062100 52642.600000
131.049200 631309.100000
132.056900 123140.900000
133.064800 21165250.000000
134.060000 4995307.500000
135.044100 634037.200000
135.055200 164291.300000
136.075700 177232.100000
137.059800 245564.300000
143.073200 34932.000000
144.056900 553270.800000
144.080800 325736.800000
145.064900 31976912.000000
146.072500 47546.600000
147.044100 1489068.800000
147.080400 148447.700000
152.070700 441464.500000
155.060400 904338.200000
161.059700 119327.300000
162.066200 1568546.800000
162.091500 354835.000000
163.075300 175623.500000
164.070600 309803.500000
173.059900 204702.900000
178.086400 379444.900000
182.081300 41465.600000
190.086300 212163.800000

>ms2peaks
50.015100 57927.000000
51.022800 128905.800000
53.038600 586191.200000
55.017900 322692.100000
56.049500 15784318.000000
57.033500 347445.200000
58.065100 192224.100000
63.022900 255473.300000
65.038600 809197.000000
67.041700 29947.000000
67.054300 35281.600000
74.060000 9977957.000000
77.038600 1134442.200000
79.054200 6698673.500000
80.049500 221508.100000
81.033600 114285.600000
89.038600 10440219.000000
90.046300 31282.700000
91.054300 14771873.000000
92.049500 63331.700000
92.061900 29665.200000
93.069900 2353283.200000
94.065200 581124.900000
95.049200 2511943.500000
96.044400 135916.900000
102.046600 32197.900000
103.054300 1992187.000000
104.049500 38244.300000
104.062000 220045.900000
105.033600 365959.400000
105.044800 1292919.200000
105.069900 6595503.500000
106.065200 4163799.000000
107.049200 15835337.000000
108.081000 41655.300000
109.064800 44193.800000
115.054300 10583597.000000
116.049500 1823031.500000
116.062100 555639.100000
117.033500 1355339.100000
117.057300 747983.100000
117.069900 6422228.000000
118.041200 49362.100000
119.049200 2182415.800000
120.057000 55068.500000
121.064800 1291459.600000
122.060000 296789.800000
127.054200 383052.700000
128.062100 56867.600000
131.049200 536712.800000
132.057000 50671.300000
133.064800 8698084.000000
134.060000 2509450.500000
135.044100 347918.300000
135.055200 182783.000000
136.075500 58380.800000
137.059800 163822.300000
143.073100 42691.700000
144.057000 934544.200000
144.080800 140362.400000
145.064900 13875008.000000
147.044000 360232.800000
152.070400 71475.300000
155.060400 983846.200000
162.066100 387715.400000
162.091800 39878.500000

>ms2peaks
50.015100 268515.100000
51.022900 593831.700000
53.038600 1796760.800000
55.017900 444598.000000
56.049500 8177204.000000
57.033500 228237.000000
58.065100 134448.600000
62.015100 152473.800000
63.022900 2534577.200000
65.038600 4046888.500000
66.046400 158903.800000
67.041600 164333.800000
67.054200 204487.800000
74.060000 2379710.500000
77.038500 3030808.200000
78.033900 128652.600000
78.046400 414263.400000
79.054200 7048605.000000
80.049400 214594.800000
81.033500 296001.300000
89.038600 18775720.000000
90.033800 49540.500000
90.046400 373936.500000
91.054300 17019488.000000
92.049500 36043.500000
92.062100 119723.700000
93.057200 109465.200000
93.070000 481535.900000
94.041400 131763.800000
94.065200 325651.800000
95.049200 7523799.500000
96.044500 293685.700000
102.046400 195160.000000
103.054200 1454111.400000
104.049500 121706.800000
104.062100 160729.800000
105.044800 3822658.000000
105.069900 1347013.900000
106.065200 1282478.100000
107.049200 17873862.000000
115.054300 11601076.000000
116.049500 1043543.300000
116.062100 863475.100000
117.033400 322656.200000
117.057300 787194.200000
117.069900 1183792.000000
118.041400 39287.100000
119.049100 257795.100000
121.064900 113948.000000
126.046500 120852.800000
127.054200 262911.300000
128.062100 61657.600000
131.049200 390862.900000
133.064900 479148.000000
134.060000 325674.000000
135.055200 239627.500000
137.059400 29471.200000
144.057000 862060.100000
145.064800 1459070.100000
155.060400 432585.500000

>ms2peaks
50.015100 940165.500000
51.023000 2646516.500000
53.002200 238025.200000
53.038600 2855856.500000
54.033900 59885.700000
55.017900 853469.800000
56.049500 3344401.000000
57.033500 37383.200000
58.065200 33051.400000
61.007200 44517.600000
62.015100 490235.300000
63.023000 8806804.000000
65.038600 7216929.500000
66.046400 172868.200000
67.041700 221531.000000
67.054200 54806.800000
67.989200 24579.200000
74.060000 427616.700000
75.022900 203059.300000
76.030800 44136.000000
77.038500 4537412.000000
78.033900 160380.800000
78.046400 667674.700000
79.054200 3479218.800000
80.049400 263107.800000
81.033500 419458.700000
89.038600 15070305.000000
90.033900 134384.500000
90.046500 472752.400000
91.054300 9855341.000000
93.057400 152100.400000
94.041400 66058.700000
94.065200 61441.500000
95.049200 9353331.000000
96.044500 158049.200000
102.046400 258007.600000
103.054200 724165.800000
104.049500 145621.000000
104.062300 36926.900000
105.044800 4861897.000000
106.065100 230651.000000
107.049200 7704696.500000
114.046500 28208.300000
115.054300 6333924.500000
116.049500 222464.400000
116.062000 379761.100000
117.057300 345183.100000
117.070000 174561.700000
119.049400 27978.200000
127.054300 45194.000000
128.062100 56726.100000
131.049100 237642.200000
135.055200 123584.600000
144.056800 234157.600000
145.064900 155985.800000
155.060500 32623.900000

>ms2peaks
50.015100 1875289.800000
51.023000 5286017.000000
52.030800 47900.800000
53.002200 343671.000000
53.038600 2222519.800000
54.033900 47567.000000
55.017900 743148.600000
56.049500 1145914.100000
61.007200 234518.900000
62.015100 1423778.400000
63.022900 13362769.000000
65.038600 6335066.500000
66.046400 201609.600000
67.041700 222990.900000
67.054100 56159.100000
67.989200 43919.200000
74.060000 122779.500000
75.022900 224685.500000
76.030800 63941.000000
77.038500 3915835.200000
78.033900 125612.400000
78.046400 526678.700000
79.054200 1169767.000000
80.049400 162067.800000
81.033500 420460.300000
89.038600 8213146.500000
90.034000 56893.000000
90.046400 307422.800000
91.054300 3719623.800000
93.057400 34069.400000
95.049200 6486782.000000
96.044400 58219.400000
102.046400 160178.500000
103.054200 195792.800000
104.049500 139967.100000
105.044800 3602182.800000
107.049100 1857417.400000
114.046500 26349.300000
115.054300 3061789.200000
116.062100 39319.000000
117.057200 126602.300000
126.046400 28147.600000
135.055200 95644.400000
144.057200 39928.500000

