>compound EQ59509447
>parentmass 192.1747
>ionization [M+H]+
>formula C13H21N
>rt 330.000000
>profile orbitrap
#smiles_iso CC(C)(C)C1=NC(=CC=C1)C(C)(C)C
#smiles_can CC(C)(C)C1=NC(=CC=C1)C(C)(C)C
#inchikey UWKQJZCTQGMHKD-UHFFFAOYSA-N
#pubchem_id 68510
#mb_accession EQ359001,EQ359002,EQ359003,EQ359004,EQ359005,EQ359006,EQ359007,EQ359008,EQ359009

>ms2
59.049100 8108.700000
83.085500 10711.900000
111.080400 12306.700000
114.091400 6048.600000
162.127100 9832.300000
192.174700 4113999.500000

>ms2
59.049100 8009.600000
83.085500 17981.700000
111.080400 21241.600000
114.091300 6145.100000
133.064700 4750.300000
162.127300 8559.100000
177.151200 7307.800000
192.174700 3962316.800000

>ms2
55.054200 8293.600000
59.049100 7090.200000
69.069800 8108.200000
83.085500 63387.900000
111.080400 29741.800000
114.091400 8131.200000
119.049100 7611.400000
121.088500 3789.300000
133.064800 9275.900000
162.127300 24384.400000
163.135500 93290.600000
176.143000 14122.800000
177.151200 196201.200000
192.174700 3568640.000000

>ms2
55.017900 2255.000000
55.054200 17581.900000
57.069700 3136.500000
59.049100 5394.200000
69.069800 12948.800000
83.085400 48967.400000
93.069800 2936.400000
105.069900 11954.300000
111.080300 7296.300000
114.091300 4676.700000
119.049200 6958.600000
121.088600 35607.800000
122.060000 2284.500000
133.064800 6377.300000
135.104100 3142.400000
136.112200 2168.900000
146.096400 2770.900000
147.103700 2197.000000
148.112000 46519.100000
149.119900 45854.400000
162.127700 234584.700000
163.135500 413980.000000
164.143300 2740.700000
176.143300 133198.300000
177.151200 759796.000000
192.174600 1897545.800000

>ms2
55.017800 2462.200000
55.054200 24024.200000
57.069800 2523.700000
59.049100 3155.400000
69.069800 12187.700000
79.054200 3134.400000
82.065100 2679.800000
83.085500 17381.100000
91.054200 4258.900000
93.057400 904.800000
93.070000 1760.100000
105.069900 14803.000000
106.065100 3674.500000
107.072900 6334.900000
108.080800 903.700000
109.064700 2171.100000
110.059900 1768.400000
114.091400 1433.000000
119.049100 3064.200000
120.080700 2292.800000
121.088600 110880.100000
122.060000 12483.500000
123.067900 2652.800000
132.080300 3876.200000
133.064800 1977.700000
133.088700 5512.100000
134.096200 4632.000000
135.104200 8284.600000
136.112100 5015.600000
146.096000 8646.200000
147.104300 15711.000000
148.112100 168370.300000
149.119900 120960.800000
150.091400 13845.100000
162.127700 851092.400000
163.135500 429422.300000
164.143300 2709.000000
176.143400 500036.300000
177.151200 687382.100000
192.174700 558808.200000

>ms2
55.017900 1943.600000
55.054300 23238.500000
57.069800 3602.300000
67.054200 2348.500000
69.069900 8586.300000
79.054100 5664.700000
80.049300 2463.100000
81.033500 1650.000000
82.065100 4573.000000
83.085500 4976.400000
91.054200 5191.600000
93.069900 3344.400000
95.049100 1774.800000
96.044300 3592.600000
103.054300 1935.600000
105.069900 10383.000000
106.065100 16313.100000
107.072900 13942.600000
108.044400 2113.000000
108.080700 3439.400000
109.064800 2979.600000
110.060000 1792.400000
119.049200 1616.400000
119.073000 3594.500000
120.080800 16409.800000
121.088600 121740.200000
122.060000 22044.200000
123.067800 5007.700000
132.080500 17302.400000
133.088600 40348.700000
134.096400 12591.500000
135.104200 8258.200000
136.112100 6968.500000
146.096400 33076.500000
147.104300 116487.800000
148.112100 240899.900000
149.119900 92155.500000
150.091300 28895.600000
160.111800 1854.400000
161.119900 7212.300000
162.127700 1230574.400000
163.135500 156187.000000
176.143400 711495.900000
177.151200 217224.800000
192.174700 76410.400000

>ms2
51.022800 956.300000
53.002200 1660.900000
53.038500 3386.300000
54.033800 1590.600000
55.017800 2448.000000
55.054200 12033.800000
56.049500 856.300000
57.069800 3850.500000
58.065100 701.500000
59.049100 617.500000
65.038500 5122.700000
66.046400 2754.600000
67.054200 1653.400000
69.069800 2733.300000
77.038400 2723.200000
78.033700 3106.700000
78.046300 888.900000
79.054200 21492.500000
80.049400 10400.200000
80.062100 2599.700000
81.033500 697.500000
81.057300 4502.200000
82.065100 2690.400000
83.036400 829.600000
91.054200 17894.500000
92.049600 2972.000000
93.057300 5180.800000
93.069900 24038.000000
94.065200 6550.600000
95.036500 2669.800000
95.049100 6967.500000
95.072900 3104.200000
96.044300 7241.700000
103.054200 6009.200000
104.049400 6172.800000
105.044700 5772.000000
105.057100 3603.800000
105.069800 4797.900000
106.065100 77770.500000
107.072900 13053.200000
108.044300 2597.500000
108.080600 3270.100000
109.052300 991.700000
109.064800 639.100000
110.060200 3402.700000
117.057300 934.000000
117.069900 2444.700000
118.065100 13099.200000
119.073000 51004.900000
120.080800 60893.300000
121.052300 2717.900000
121.088600 49391.900000
122.060000 13278.300000
123.067800 2400.800000
124.075700 821.000000
130.064900 1930.700000
131.072900 1606.500000
132.080800 293123.800000
133.088600 185583.600000
134.060000 9348.600000
134.096400 22839.400000
135.104100 3274.700000
136.075800 2505.900000
136.112100 4906.800000
138.091300 4079.900000
144.080500 629.900000
146.096400 489147.300000
147.104200 551426.400000
148.112000 113142.400000
149.119800 9585.500000
150.091400 24466.400000
160.112100 12448.000000
161.119900 27108.800000
162.127700 564051.600000
163.135300 5466.700000
176.143400 288565.500000
177.151300 5902.700000

>ms2
50.015100 2292.800000
51.022900 3549.800000
53.002200 1585.300000
53.038600 10811.700000
54.033800 4095.600000
55.054300 5922.400000
57.069900 4630.000000
65.038600 11184.400000
66.046400 7064.000000
67.041700 2465.500000
67.054200 2829.200000
68.049500 1778.400000
77.038400 4993.200000
78.033800 12063.800000
78.046400 7227.100000
79.041600 2988.300000
79.054200 35939.700000
80.049400 17790.000000
80.062000 2578.300000
81.033500 1858.600000
81.057300 4429.000000
89.038600 2403.900000
91.054300 56812.100000
92.049500 5668.700000
93.057300 11437.100000
93.069900 22261.800000
94.065100 8178.800000
95.036600 4419.200000
95.049200 30183.700000
95.073000 2217.800000
96.044400 33469.100000
103.054200 8590.000000
104.049500 72633.200000
105.044800 20052.300000
105.057300 8400.700000
105.069900 2515.600000
106.065200 90815.000000
107.072900 9268.600000
108.044300 3076.500000
108.080900 1564.500000
109.052200 3316.300000
110.060000 4978.400000
115.054100 3545.800000
116.049600 1583.100000
117.057300 27712.600000
118.065100 65657.300000
119.073000 74741.000000
120.044600 3343.400000
120.080800 36848.600000
121.052200 5181.600000
121.088600 11771.100000
122.060100 7419.100000
128.062200 1600.800000
130.065100 7698.500000
131.073000 12093.900000
132.080800 517674.000000
133.088600 77921.800000
134.060100 13948.000000
134.096400 6895.700000
136.075700 17428.900000
138.091200 925.700000
144.080800 5208.200000
145.088600 1878.200000
146.096500 845563.100000
147.104300 162034.600000
148.112100 16376.800000
150.091300 5001.100000
160.112100 29801.300000
161.120000 7384.600000
162.127700 53615.000000
176.143400 16837.700000

>ms2
50.015100 10999.400000
51.022900 11684.400000
53.002300 3157.700000
53.038600 25284.300000
54.033800 5457.200000
55.017900 2156.400000
55.054300 847.800000
57.069900 2823.200000
65.038600 33127.600000
66.046400 12469.400000
67.041700 3015.700000
67.054200 2481.200000
68.049400 4110.500000
69.057300 682.700000
74.096400 781.900000
77.038500 18618.200000
78.033800 28780.200000
78.046400 16829.000000
79.041600 4061.000000
79.054200 35333.100000
80.049400 18223.700000
80.062100 1900.000000
81.033600 4103.900000
81.057300 3076.100000
82.028700 667.600000
89.038600 5903.300000
90.046400 3682.800000
91.054300 146764.200000
92.049500 7618.600000
92.062000 798.000000
93.057300 13441.500000
93.070000 7253.900000
94.041600 452.700000
94.065100 6762.700000
95.036600 5800.900000
95.049200 73995.800000
96.044400 102518.600000
103.054300 9016.900000
104.049500 190341.700000
105.044800 51170.500000
105.057300 9830.300000
105.069900 3845.600000
106.065100 64222.200000
107.072900 4945.900000
108.044500 600.400000
109.052300 3865.000000
109.064900 637.500000
110.060000 9573.600000
115.054300 5849.000000
116.049500 5983.000000
117.057300 93603.500000
118.065100 93931.300000
119.073000 34086.200000
120.044400 927.600000
120.080800 12408.600000
121.052300 2975.700000
121.088800 4534.400000
122.060100 13119.600000
128.062100 3553.900000
129.069900 1944.100000
130.065200 30403.000000
131.073000 26121.700000
132.080800 295273.700000
133.088600 13531.400000
134.060000 5458.000000
134.096500 823.600000
136.075700 30373.900000
144.080900 18827.900000
145.088700 3920.100000
146.096500 439113.000000
147.104300 14669.900000
148.111900 1694.100000
150.091600 688.200000
160.112100 14812.900000
162.127500 1712.300000

