>compound EQ59874007
>parentmass 411.21910000000014
>ionization [M+H]+
>formula C23H27FN4O2
>rt 324.000000
>profile orbitrap
#smiles_iso CC1=C(C(=O)N2CCCCC2=N1)CCN3CCC(CC3)C4=NOC5=C4C=CC(=C5)F
#smiles_can CC1=C(C(=O)N2CCCCC2=N1)CCN3CCC(CC3)C4=NOC5=C4C=CC(=C5)F
#inchikey RAPZEAPATHNIPO-UHFFFAOYSA-N
#pubchem_id 5073
#mb_accession EQ335301,EQ335302,EQ335303,EQ335304,EQ335305,EQ335306,EQ335307,EQ335308,EQ335309

>ms2peaks
191.117200 24585850.000000
411.218800 888337792.000000

>ms2peaks
55.054100 813746.200000
82.064900 801025.900000
191.117700 789583040.000000
411.218900 284118208.000000

>ms2peaks
55.054100 1161365.800000
69.033400 1606632.200000
82.064800 2035785.000000
110.060000 5814851.000000
148.111900 1302722.900000
163.122700 2013107.500000
191.117700 979095488.000000
411.219500 3078236.000000

>ms2peaks
55.054000 2968086.800000
65.038400 1130113.800000
67.054200 5164930.000000
68.049400 4797120.000000
69.033500 28845346.000000
82.065100 25619526.000000
98.096300 1210579.900000
107.072900 3038824.200000
110.060000 66272124.000000
120.080800 1144703.900000
123.091400 1596088.400000
124.075700 1262178.500000
125.070900 1731532.600000
148.112000 7877118.500000
150.078900 3601012.200000
163.086500 9332735.000000
163.122800 11646955.000000
191.117700 913531776.000000

>ms2peaks
53.002200 1003214.200000
54.033800 526356.400000
55.054200 13277445.000000
65.038500 5134976.500000
67.017800 1704735.800000
67.041700 1470273.900000
67.054200 14091218.000000
68.049500 21488998.000000
69.033500 87293280.000000
79.054100 499889.900000
80.049400 1717934.600000
82.065100 73974000.000000
92.049500 488510.200000
94.065100 741724.300000
98.096400 894860.700000
99.091600 1088405.600000
106.065100 2019367.900000
107.072900 7738041.500000
108.044400 855701.100000
108.080800 595318.400000
110.060000 121285776.000000
119.060500 485877.100000
120.080700 1974235.800000
121.075900 1259402.200000
122.084000 824606.500000
122.096400 547681.200000
123.067800 492359.800000
123.091600 2840020.500000
124.075800 2722473.500000
125.070900 5808784.000000
132.080900 1141115.800000
133.088600 1296755.200000
135.091800 570908.700000
146.096600 691958.900000
148.112000 9721852.000000
149.070700 1091056.200000
150.078800 13644782.000000
161.071100 660730.600000
163.086500 16211770.000000
163.122900 15471283.000000
167.081600 1197579.200000
173.107200 666958.100000
176.094800 829798.300000
191.117800 475826080.000000

>ms2peaks
53.002200 2118946.800000
53.038700 1056976.600000
53.997400 589664.900000
54.033800 1854985.000000
55.054200 33571268.000000
56.049400 341191.800000
65.038600 10777988.000000
66.046400 486805.100000
67.017800 3332372.000000
67.041600 4283850.500000
67.054200 19193132.000000
68.049500 43961852.000000
69.033500 113024128.000000
78.033800 649268.600000
79.054100 1016645.800000
80.049400 4269914.500000
81.033500 467052.100000
81.057300 1185176.600000
82.065100 96120040.000000
83.072900 380953.200000
91.041600 1082223.600000
91.054200 168998.100000
92.049500 787242.800000
93.033600 382437.100000
94.065100 1950780.100000
95.060300 649340.800000
95.073000 812613.900000
97.076100 432237.000000
98.096400 850801.300000
99.091600 1776877.200000
104.049400 333385.100000
105.070000 342469.300000
106.052700 337825.200000
106.065100 2646048.800000
107.060400 986120.300000
107.072900 9025466.000000
108.044400 1800440.800000
108.080800 506870.800000
110.060000 92850616.000000
119.060500 785991.600000
120.080800 1888388.000000
121.076000 2504541.000000
122.084000 1493477.000000
122.096400 526475.200000
123.067800 865054.100000
123.091600 2279849.800000
124.075700 2514697.200000
125.070900 7222307.000000
131.073000 456852.200000
132.068200 448858.800000
132.080800 1991422.000000
133.088600 1644946.800000
135.055200 965063.400000
135.091700 724685.400000
137.070900 202629.200000
146.096500 402042.900000
147.091600 512277.200000
148.099800 600139.200000
148.112000 6363258.000000
149.070900 1816139.800000
149.107400 552928.100000
150.078800 19260066.000000
161.071000 1986581.900000
163.086500 12444677.000000
163.122900 9752972.000000
167.081500 1138914.800000
173.107400 736889.500000
175.086600 546138.200000
176.094200 647819.900000
189.102600 193757.500000
191.117800 166110336.000000

>ms2peaks
50.015100 165516.000000
51.022900 96671.600000
52.018200 104857.400000
53.002200 3508174.800000
53.038600 3297976.800000
53.997500 1076707.000000
54.033900 5005870.500000
55.054200 68442712.000000
56.012900 70413.700000
56.049400 490003.200000
58.065200 95267.100000
63.022900 136492.700000
64.030800 163802.600000
65.038600 17760064.000000
66.033800 344471.800000
66.046400 1544223.400000
67.017800 5802528.500000
67.041700 10094681.000000
67.054200 10585633.000000
68.049500 47378904.000000
69.033500 46823532.000000
70.028700 136966.400000
70.065100 174520.600000
77.038500 172379.800000
78.033800 673822.600000
78.046300 281950.300000
79.041600 142740.900000
79.054200 2219254.800000
80.049400 10174724.000000
81.033500 512761.200000
81.044700 331012.100000
81.057300 1966576.000000
82.065100 51627444.000000
83.072900 81762.000000
91.041700 2491411.500000
91.054200 518148.600000
92.049500 1183176.900000
93.033400 86274.100000
93.057300 552526.100000
94.028800 473235.500000
94.065200 4550379.500000
95.049000 925740.200000
95.060400 555048.800000
95.073000 1594401.000000
96.044400 514132.500000
96.080900 118480.700000
97.039700 257973.700000
97.076100 176344.700000
98.096400 341276.200000
99.091700 1205746.500000
100.075700 111820.200000
103.054200 169911.300000
104.049500 961078.800000
105.044800 1294241.800000
106.052600 528139.800000
106.065100 2202748.800000
107.060400 1961972.500000
107.073000 5347192.000000
108.044300 1481056.600000
108.080800 648683.000000
109.052200 95609.100000
109.076000 165487.700000
110.060100 14050293.000000
115.054200 94841.300000
118.065000 335943.600000
119.060400 856319.800000
120.068000 173304.100000
120.080700 638240.900000
121.076000 3224900.000000
122.059800 298268.500000
122.083900 1190567.400000
122.096700 103621.000000
123.067900 842086.500000
123.091700 400009.500000
124.075700 413632.200000
125.071000 3648261.500000
130.065100 460743.800000
131.060400 730810.200000
131.072900 138421.900000
132.068100 553962.000000
132.080800 1853278.400000
133.044800 140105.300000
133.076200 546979.200000
134.060100 105882.500000
135.055300 2482031.800000
135.091500 309554.900000
147.091700 600184.700000
148.099500 268633.000000
148.112100 524320.600000
149.071000 2468487.200000
150.078800 8174099.500000
161.071000 1871972.900000
162.047500 146128.200000
163.086500 1963584.000000
163.123100 1175976.000000
167.081600 133442.300000
175.086400 794978.100000
176.094600 91029.800000
189.102000 84565.300000
191.117900 8225827.000000

>ms2peaks
50.015100 473799.800000
51.023000 713700.100000
52.018200 460957.100000
53.002200 5005279.500000
53.038600 6738699.000000
53.997400 1182898.400000
54.033900 6548846.500000
55.054200 62227284.000000
56.049500 663098.900000
58.065100 150619.500000
63.022900 777094.900000
64.030700 514493.800000
65.038600 16303755.000000
66.033900 533887.600000
66.046400 1843407.200000
67.017800 5050588.500000
67.041700 13123780.000000
67.054200 3965811.200000
68.049500 30165320.000000
69.033500 9707495.000000
70.028700 104550.600000
77.038500 469718.700000
78.008700 297797.100000
78.033800 1085768.600000
79.041700 299760.200000
79.054200 1421916.500000
80.049400 12221387.000000
81.033600 518009.100000
81.044700 339793.300000
81.057300 1241176.400000
82.065100 14773618.000000
83.029300 104355.400000
89.038600 333182.200000
90.034000 276722.900000
91.041800 1599386.800000
91.054300 405092.800000
92.049500 1093143.500000
93.057400 902221.200000
94.028800 656840.900000
94.065200 4925685.000000
95.049100 1603607.400000
95.060400 505999.200000
95.073000 658312.400000
96.044300 559861.500000
97.039500 111209.400000
99.091700 160284.300000
103.054300 146104.800000
104.049400 1008514.000000
105.044800 3098714.500000
106.052600 523152.300000
106.065100 1753562.900000
107.060400 1374693.500000
107.073000 1523633.600000
108.044400 691549.000000
108.080800 163589.900000
110.060100 1720511.100000
117.057200 724973.200000
118.064900 244002.900000
119.060400 630162.900000
120.068400 93556.900000
120.080800 165944.400000
121.076000 1843699.600000
122.084000 334942.700000
123.067900 138665.600000
125.071000 806773.600000
130.065600 536266.000000
131.060600 768551.400000
132.068100 610179.400000
132.080800 975756.600000
133.044700 276330.700000
133.076100 341340.000000
134.060000 133663.700000
135.055200 1162407.900000
147.091900 543807.100000
149.070900 1246651.600000
150.078800 1320567.600000
161.071000 559039.600000
163.086500 258676.500000
175.086700 300202.200000
191.117900 148828.100000

>ms2peaks
50.015100 798227.000000
51.023000 1700760.800000
52.018200 1089578.400000
53.002200 5277061.000000
53.038600 6534068.500000
53.997500 1287548.200000
54.033800 5186736.000000
55.054200 28982790.000000
56.013100 63464.700000
56.049500 367993.700000
63.022900 1242701.800000
64.030800 562732.100000
65.038600 9976147.000000
66.033900 486105.000000
66.046400 1187493.600000
67.017800 3231358.500000
67.041700 8588495.000000
67.054200 1142023.400000
68.025700 681582.125000
68.049500 12319302.000000
69.008300 361443.687500
69.033500 1301729.800000
70.028500 62127.700000
77.038500 694920.300000
78.008700 152012.100000
78.033800 983232.700000
78.046400 252028.700000
79.041600 237857.200000
79.054200 701488.900000
80.049400 9326936.000000
81.033600 250502.000000
81.044700 319799.900000
81.057300 551088.900000
82.065100 2739592.000000
83.029000 71962.700000
89.038600 227686.300000
90.033900 225092.100000
91.041600 400838.500000
91.054200 342312.600000
92.049400 736411.400000
93.057300 559388.900000
94.028800 131916.900000
94.065200 2518844.800000
95.049100 1734130.600000
95.060500 100712.300000
96.044400 874906.700000
103.054200 293079.500000
104.049500 741342.400000
105.044800 2381192.800000
106.052400 118918.300000
106.065200 717085.400000
107.060300 423706.900000
107.073100 305897.200000
108.044100 110196.900000
110.060100 364993.500000
117.057300 465415.600000
118.064900 87600.800000
119.060600 272906.900000
121.076100 564983.900000
130.065100 469672.900000
131.060500 359081.500000
131.072800 72246.900000
132.068100 132126.700000
132.080800 102579.900000
133.044800 119672.600000
133.076000 148987.400000
135.055400 153637.400000
147.091700 79685.500000
149.071000 62112.600000
161.070800 99282.200000

