>compound EQ60175891
>parentmass 194.1176
>ionization [M+H]+
>formula C11H15NO2
>rt 216.000000
>profile orbitrap
#smiles_iso CC(CC1=CC2=C(C=C1)OCO2)NC
#smiles_can CC(CC1=CC2=C(C=C1)OCO2)NC
#inchikey SHXWCVYOXRDMCX-UHFFFAOYSA-N
#pubchem_id 1615
#mb_accession EQ361301,EQ361302,EQ361303,EQ361304,EQ361305,EQ361306,EQ361307,EQ361308,EQ361309

>ms2
58.065100 32134254.000000
105.069700 5587846.500000
133.064700 16292416.000000
135.043900 19211744.000000
137.059600 1534727.100000
148.051500 627223.200000
163.075100 578368128.000000
194.117400 152113840.000000

>ms2
58.065100 38593896.000000
77.038400 1110333.800000
105.069800 14712963.000000
133.064700 44865432.000000
135.043900 44819508.000000
137.059500 1563645.800000
151.075300 1387939.500000
163.075100 665361024.000000
194.117400 87533760.000000

>ms2
51.022800 583173.600000
55.017700 1356089.100000
58.065100 32677052.000000
65.038400 401833.300000
79.054100 1949400.100000
91.054100 540936.800000
103.054100 1278930.000000
105.069800 115752704.000000
107.049000 600116.400000
115.054100 497154.200000
121.028100 1243215.200000
122.036100 2028892.200000
133.064700 172193520.000000
135.043900 162860624.000000
137.059500 528504.900000
145.064800 419172.000000
148.051500 399446.000000
151.075300 4408595.500000
163.075200 350810592.000000
194.117400 4295806.000000

>ms2
51.022800 870199.600000
53.038600 642082.400000
55.017800 5836815.000000
58.065100 31063044.000000
65.038500 600421.300000
77.038300 2515530.000000
79.054100 18188862.000000
91.054100 1467988.800000
93.033400 1638370.600000
95.049100 1493723.500000
103.054200 11442474.000000
105.069800 255469296.000000
107.048900 1009226.700000
111.044000 509292.600000
115.054200 2327670.000000
121.028200 1661325.100000
122.036200 5335607.000000
131.048900 430113.000000
133.064700 194517856.000000
135.043900 205086384.000000
145.064600 624902.900000
148.051700 1222411.800000
151.075200 3697523.500000
163.075200 89401528.000000

>ms2
50.015000 508797.700000
51.022800 910048.400000
53.038500 2642805.000000
55.017800 11766726.000000
56.049400 481692.200000
58.065100 26071246.000000
65.038500 2912897.800000
77.038400 10059192.000000
79.054100 69753664.000000
81.033400 440113.200000
91.054100 2829008.800000
93.033400 4355978.000000
95.049100 10312966.000000
103.054200 41046388.000000
105.069800 294062976.000000
107.049000 896112.600000
111.044000 1388880.000000
115.054200 3775482.500000
121.028200 1930125.900000
122.036100 6212084.500000
131.049100 732789.100000
133.064700 102207984.000000
135.043900 173919072.000000
145.064600 404288.200000
147.044200 717683.500000
148.051700 2104080.500000
151.075100 1211657.400000
163.075200 13688145.000000

>ms2
50.015000 1143041.600000
51.022700 1662598.100000
53.038500 8935745.000000
55.017800 13088430.000000
56.049400 431767.900000
58.065100 24090942.000000
65.038500 8793461.000000
67.054100 428670.200000
77.038400 27112342.000000
79.054100 123991544.000000
81.033400 1263501.500000
89.038500 217235.000000
91.054200 3196642.000000
93.033400 6092153.000000
94.041200 235307.400000
95.049100 32778976.000000
103.054100 73141192.000000
104.061900 428548.700000
105.044700 19241896.000000
105.069800 209029216.000000
107.049000 1082263.000000
111.044000 1763037.900000
115.054200 3777053.500000
121.028300 4239866.000000
122.036100 4790740.500000
131.049100 738410.100000
133.064700 33178488.000000
135.043900 116034920.000000
147.043900 2581628.800000
148.051700 2512006.200000
163.075200 1335443.900000

>ms2
50.015100 6587506.500000
51.022900 6755126.500000
53.038600 22746118.000000
55.017800 8790992.000000
56.049500 896040.900000
58.065100 14541926.000000
63.022800 224113.900000
65.038500 20656110.000000
66.046300 532854.500000
67.054200 1216100.600000
68.997000 120789.600000
77.038500 67781872.000000
78.046300 915835.500000
79.054100 113813408.000000
81.033400 2685074.500000
89.038500 1444771.400000
90.046300 485444.800000
91.054200 4179798.200000
93.033500 2379330.000000
94.041300 787281.500000
95.049100 78578496.000000
102.046300 1682172.500000
103.054200 66348948.000000
104.061800 800979.200000
105.033400 11665832.000000
105.044700 51829944.000000
105.069800 46429344.000000
106.041700 499392.200000
107.049000 569077.000000
109.064800 117990.700000
111.043900 1103666.900000
115.054100 3178280.800000
118.041200 397428.000000
121.028300 6915207.000000
122.036200 1940056.400000
131.049000 358507.800000
133.064700 1790853.800000
135.043900 27772080.000000
147.044000 8495604.000000
148.051700 1030168.000000

>ms2
50.015100 20641812.000000
51.022900 26819048.000000
53.038600 24764084.000000
53.997400 125434.200000
55.017800 4624596.000000
56.049400 1304144.900000
58.065100 7719497.500000
63.022800 1597572.100000
64.030700 134884.500000
65.038500 22701230.000000
66.009900 151912.700000
66.046300 1135050.000000
67.054200 818939.000000
67.989200 188480.200000
68.997000 114942.100000
75.022700 334961.400000
77.038500 70063496.000000
78.046300 2188561.500000
79.054100 47674168.000000
81.033400 2824847.200000
89.038500 5285190.500000
90.046400 585352.100000
91.054200 5027505.000000
92.025600 108918.200000
93.033500 218183.700000
94.041300 919654.200000
95.049100 78862000.000000
102.046300 1391534.900000
103.054200 25426626.000000
104.062000 649961.200000
105.033500 3341512.200000
105.044700 49578320.000000
105.069800 4960697.000000
106.041500 371518.300000
107.049100 401335.700000
109.064800 187416.800000
111.043900 124395.600000
115.054200 1275252.600000
118.041300 125202.900000
121.028300 6514293.500000
122.036200 295019.500000
131.049200 86118.000000
135.044000 3535399.500000
147.043900 5160890.000000

>ms2
50.015100 30070754.000000
51.022900 60015956.000000
53.002200 2087840.800000
53.038600 15677834.000000
53.997400 166724.400000
55.017800 1761372.600000
56.049400 700751.500000
58.065100 2722660.000000
63.022900 3952803.000000
64.030700 724388.600000
65.002200 1901733.500000
65.038500 16881256.000000
66.010000 162188.100000
66.046300 1068488.800000
67.054200 424583.100000
67.989200 164787.100000
68.997100 117463.000000
75.022800 839393.400000
77.038500 42434800.000000
78.046300 1953698.600000
79.054200 13819473.000000
81.033400 1692843.900000
89.038500 8183397.000000
90.046400 408247.200000
91.054200 3451924.800000
92.025700 121534.200000
94.041300 353769.200000
95.049100 45755916.000000
102.046400 1270273.100000
103.054200 6220843.500000
104.062100 192200.500000
105.044700 28684408.000000
109.064800 119815.400000
115.054100 483932.700000
118.041300 158457.500000
121.028400 1900940.600000
135.044000 122041.300000
147.044100 1006339.700000

