>compound EQ60960972
>parentmass 151.03240000000002
>ionization [M+H]+
>formula C7H6N2S
>rt 186.000000
>profile orbitrap
#smiles_iso C1=CC=C2C(=C1)N=C(S2)N
#smiles_can C1=CC=C2C(=C1)N=C(S2)N
#inchikey UHGULLIUJBCTEF-UHFFFAOYSA-N
#pubchem_id 8706
#mb_accession EQ337401,EQ337402,EQ337403,EQ337404,EQ337405,EQ337406,EQ337407,EQ337408,EQ337409

>ms2
124.021700 2668781.200000
151.032500 1193579136.000000

>ms2
109.010500 1667956.800000
124.021500 2395250.500000
151.032500 1166932992.000000

>ms2
92.049500 8458971.000000
109.010700 11677509.000000
124.021700 24931050.000000
151.032500 1138531328.000000

>ms2
65.038500 3497847.800000
80.049400 3572143.500000
92.049500 47910452.000000
93.057400 2349621.000000
109.010700 86239752.000000
118.052600 5886973.500000
124.021700 123053168.000000
151.032500 975748608.000000

>ms2
59.990100 603458.200000
65.038600 19696398.000000
68.979100 1155764.400000
80.049500 22158144.000000
90.033900 827472.200000
91.041700 688380.700000
92.049500 92867472.000000
93.057400 5176464.000000
97.010700 2603333.000000
108.002800 940599.100000
109.010700 252670352.000000
118.052600 24421934.000000
119.060500 791939.400000
124.021700 217593600.000000
134.006000 1460573.400000
150.024600 1889340.100000
151.032500 600461568.000000

>ms2
53.038600 835376.700000
63.022900 861059.000000
65.038600 75736400.000000
68.979300 5694850.000000
77.038600 757156.100000
80.049500 65535176.000000
82.995000 575880.800000
90.033900 3710528.800000
91.041800 4196426.000000
92.049500 103367168.000000
93.057400 8265028.000000
95.049300 773174.300000
97.010800 7271700.000000
108.002900 2699055.200000
109.010800 411222144.000000
110.018600 1002374.200000
111.026300 686513.600000
118.052600 48601860.000000
119.060500 1588282.900000
123.013900 575753.200000
124.021700 223919648.000000
134.006000 3316301.500000
150.024700 3298589.500000
151.032600 299214080.000000

>ms2
50.015100 774599.100000
51.022800 313956.900000
53.002200 1218925.200000
53.038600 5097013.500000
59.990300 1403201.800000
63.023000 4987469.000000
64.018200 638798.900000
64.030800 614411.400000
65.038600 240475472.000000
66.046400 1670017.000000
67.041700 501965.400000
68.979400 28607616.000000
77.038600 3263343.200000
80.049500 114410600.000000
81.033600 700386.600000
82.995000 2760538.800000
90.033900 13752150.000000
91.041700 15988882.000000
92.049600 36141924.000000
93.057400 4502744.000000
95.049200 6348059.000000
96.002900 1127592.400000
96.044500 509981.400000
97.010800 12543619.000000
105.044900 3450450.200000
106.995000 1890168.100000
108.002900 10987792.000000
109.010800 300696704.000000
110.018600 1172033.000000
118.052600 40714932.000000
119.060500 1759638.500000
123.013800 1056089.800000
124.021700 71387440.000000
132.998100 587748.900000
134.006000 3412695.000000
135.013900 675774.900000
150.024800 2196701.500000
151.032600 35962200.000000

>ms2
50.015200 1900853.000000
51.023000 1509676.200000
53.002300 3763557.000000
53.038600 13205928.000000
53.997500 869095.700000
54.046500 377086.300000
57.987300 294027.800000
59.990300 4272908.500000
62.015100 778631.800000
63.023000 18147918.000000
64.018200 5596213.500000
64.030800 2683987.500000
65.038600 291007648.000000
66.046400 2666725.800000
67.041700 642290.600000
68.979400 66304376.000000
69.987200 451348.600000
70.995100 689729.800000
77.038600 8805367.000000
80.049500 93680088.000000
81.033600 1022199.800000
81.987200 1673914.000000
82.995000 3913649.000000
90.033900 19224234.000000
91.041700 20681520.000000
92.049600 7164782.000000
92.979500 804417.100000
93.057400 2643958.800000
94.995100 619082.900000
95.049200 11537339.000000
96.002900 3427468.800000
96.044500 801547.900000
97.010800 9269412.000000
105.044800 6107482.000000
106.995000 2270288.500000
108.002900 17206210.000000
109.010800 113270952.000000
118.052600 15411976.000000
119.060500 677603.700000
122.006100 512721.800000
123.013900 1268206.900000
124.021700 11881696.000000
132.998100 755775.600000
134.006000 1339986.800000
150.024900 762871.900000
151.032600 3021699.200000

>ms2
50.015200 4933069.500000
51.023000 5648678.000000
52.018300 797415.700000
53.002300 7233634.500000
53.038600 16004498.000000
53.997500 1921681.200000
54.033900 525491.900000
54.046400 766253.400000
55.017900 842607.200000
57.987200 1486041.200000
58.995000 679837.200000
59.990300 7350191.000000
62.015100 2723857.200000
63.023000 26791926.000000
64.018200 14498485.000000
64.030800 4324440.500000
65.038600 189699520.000000
66.046400 1710676.400000
67.041700 1013459.000000
67.989300 2045711.250000
68.979400 90432656.000000
69.987200 1435402.900000
70.995100 1050946.200000
75.023000 629063.800000
77.038600 8046949.500000
78.033700 473591.000000
78.046500 202959.800000
80.049500 50342800.000000
80.979400 1057071.900000
81.033500 770970.000000
81.987200 5347316.000000
82.995000 2649029.500000
90.033900 11424992.000000
91.041700 10011188.000000
92.049500 1683812.500000
92.979500 2295948.200000
93.057500 806517.800000
94.995100 949642.400000
95.049200 9531218.000000
96.002900 3535751.500000
96.044500 547105.000000
97.010800 4035717.500000
105.044800 5014517.500000
106.994900 1139531.800000
108.002900 13723886.000000
109.010800 26438578.000000
118.052600 3192343.000000
122.005900 663457.400000
123.013700 234559.400000
124.021800 1756846.400000
132.998100 591387.100000

