>compound EQ60002755
>parentmass 327.1703
>ionization [M+H]+
>formula C19H22N2O3
>rt 744.000000
>profile orbitrap
#smiles_iso CC1=CC(=C(C=C1)C)OCC2=CC=CC=C2C(=NOC)C(=O)NC
#smiles_can CC1=CC(=C(C=C1)C)OCC2=CC=CC=C2C(=NOC)C(=O)NC
#inchikey WXUZAHCNPWONDH-UHFFFAOYSA-N
#pubchem_id 54455346
#mb_accession EQ359801,EQ359802,EQ359803,EQ359804,EQ359805,EQ359806,EQ359807,EQ359808,EQ359809

>ms2
58.028600 15600926.000000
116.049400 56146672.000000
118.065000 497336.300000
121.064600 898261.100000
134.060000 2135077.500000
148.075800 846899.000000
182.096400 897170.300000
196.112400 504148.700000
205.097200 463151232.000000
207.112600 1265827.400000
210.127600 4096817.500000
223.098800 1869810.600000
238.122600 76914544.000000
249.090700 483851.200000
280.133200 20261612.000000

>ms2
58.028700 101452216.000000
89.038400 532579.600000
116.049400 257254224.000000
117.057100 921345.400000
118.065000 2327523.000000
121.064800 1613973.100000
123.080400 455906.900000
134.060000 11178210.000000
135.080400 1418591.200000
145.076100 422173.100000
146.059900 405773.500000
148.075600 3803860.500000
174.078600 815805.600000
182.096500 705355.600000
193.101800 2046938.900000
195.104300 1652523.500000
195.116700 726201.600000
196.112000 1374513.600000
205.097200 119234432.000000
207.113000 560792.400000
210.127700 7578329.500000
220.112100 813482.400000
221.096200 1808462.200000
222.103500 784383.800000
223.099200 11807039.000000
236.106900 515833.400000
238.122600 30028140.000000
249.090900 2726838.500000
252.138200 1432426.000000
262.122500 524264.500000
268.133300 386451.700000
280.133100 2573918.500000

>ms2
58.028700 160433936.000000
89.038500 2476508.000000
91.054200 924009.200000
116.049400 284710336.000000
117.057100 5577526.000000
118.065000 2698152.000000
121.064700 2143431.000000
122.072600 506344.000000
123.080300 412405.700000
134.060000 13659642.000000
135.080300 1764006.000000
145.075900 1027229.900000
146.060000 532740.600000
146.083700 783024.800000
148.075600 4589747.000000
149.047100 409981.500000
160.075300 312628.800000
161.047200 407387.500000
174.078900 1075187.900000
178.077700 822427.400000
180.081000 680036.200000
181.088200 615550.700000
182.096300 676476.000000
193.101200 3389975.500000
194.096200 506838.800000
195.104200 4713255.000000
196.112000 1257223.500000
205.097100 8340319.000000
208.112100 464880.800000
210.127700 2833043.500000
220.111700 596055.200000
221.096100 2199409.200000
221.119800 448984.000000
222.103800 1651509.400000
223.099200 17740042.000000
236.106700 315440.000000
237.114500 391797.500000
238.122600 3751620.000000
249.091000 864396.300000
252.138400 945542.400000

>ms2
58.028700 168336192.000000
63.022800 422372.500000
89.038500 12703754.000000
90.033900 317454.300000
91.054200 2484852.000000
93.069800 354101.100000
116.049400 245912480.000000
117.057200 10138185.000000
118.065000 2752108.800000
119.036500 478020.100000
121.064800 1696577.500000
122.072600 770494.800000
123.080300 327363.900000
132.044600 317407.000000
133.052200 396031.700000
134.060000 13171258.000000
135.080400 1623371.500000
144.044300 446076.800000
145.076000 1628281.100000
146.059900 607846.100000
146.083800 351658.400000
148.075600 2430520.200000
149.047000 547953.100000
160.075500 320453.700000
161.046900 606177.500000
174.078500 317427.000000
178.077600 2519399.800000
179.085300 325911.100000
180.080700 3367346.200000
181.088200 600434.400000
182.096600 567921.300000
193.088500 315673.600000
193.101000 1819903.900000
194.096300 1869816.600000
195.104200 3558078.800000
196.112000 388682.700000
205.088200 318270.100000
208.075700 603676.200000
208.112000 467828.700000
210.127700 339147.900000
220.111900 487936.600000
221.095900 966842.600000
221.119600 307998.600000
222.091300 570935.600000
222.103400 922055.600000
223.099200 10449492.000000
236.106600 353644.500000
238.122300 319308.400000
249.091100 361069.500000

>ms2
58.028700 150774688.000000
63.022800 1355188.000000
65.038500 1491243.800000
79.054200 634758.000000
89.038500 52176276.000000
90.033800 1276670.600000
90.046400 1511306.100000
91.054200 3778324.000000
104.049400 459943.200000
105.069800 518086.400000
107.049000 679464.900000
115.041600 487535.500000
116.049400 204013488.000000
117.057200 13118020.000000
118.065000 2178780.500000
119.036600 668727.200000
121.064800 1074755.100000
134.060000 9549517.000000
135.080400 849063.800000
144.044300 428340.200000
145.076000 2010346.900000
146.059800 433225.200000
148.075600 921465.400000
161.046900 471338.300000
165.069800 922551.800000
167.072900 347851.200000
178.077600 2854453.000000
179.085500 1017641.000000
180.080700 6010277.000000
182.096600 315028.700000
193.088600 983378.100000
193.100900 776362.900000
194.096400 3433906.800000
195.104300 1220215.000000
204.080300 616993.500000
206.096200 434528.400000
208.075500 594792.900000
220.075600 689905.800000
220.112100 380462.200000
221.095900 550341.900000
222.091000 1082474.200000
222.103000 284790.000000
223.099100 3523184.500000
236.106500 398007.400000
249.090500 325785.600000

>ms2
53.038600 140197.500000
58.028700 124163080.000000
62.015000 385422.200000
63.022900 4652883.000000
64.018100 181227.400000
65.038600 2665443.800000
66.046400 513087.800000
77.038400 527206.100000
78.046400 331113.200000
79.054100 975433.400000
81.033500 153299.500000
89.038500 97589000.000000
90.033800 3326164.200000
90.046400 3872247.500000
91.054200 4692504.500000
93.069700 144598.800000
95.049000 603859.600000
103.054100 296238.100000
104.049400 543057.100000
105.044600 318238.100000
105.069900 334301.800000
107.049000 632103.800000
115.041400 518598.500000
116.049400 122081824.000000
117.057200 10932042.000000
118.065100 1160743.900000
119.036700 539947.200000
121.065000 607039.800000
128.049500 514783.000000
130.065100 183371.000000
131.060400 181668.400000
132.044400 775788.100000
133.052400 140979.000000
134.060000 5368224.500000
135.080200 326279.900000
145.076100 1158089.000000
146.059900 347662.200000
148.075600 404178.100000
152.061900 171557.200000
153.069500 274479.800000
165.069900 1194727.900000
166.077400 298198.600000
167.072900 273846.400000
167.085300 322804.200000
177.069900 170489.400000
178.077700 3383929.200000
179.085300 772336.500000
180.080700 5856518.500000
181.088100 179709.100000
190.064700 158399.000000
191.085300 142100.800000
192.080200 553866.200000
193.088400 840026.800000
194.096300 2967732.800000
195.103700 374563.700000
202.077400 163648.500000
203.073100 155116.600000
204.080800 576043.400000
206.059600 170457.400000
206.096100 419734.100000
207.080400 146007.800000
208.075500 477398.600000
220.075800 603939.900000
222.091100 469407.100000
223.099100 860350.100000

>ms2
50.015100 351788.700000
53.002200 417713.400000
53.038500 283129.500000
58.028700 84942688.000000
61.007200 286096.600000
62.015000 1300620.800000
63.022900 31186478.000000
64.018100 1737155.600000
65.038500 7145676.500000
66.033700 306290.800000
66.046300 991748.800000
77.038500 942079.700000
78.046400 386567.200000
79.054100 999018.000000
81.033600 536734.500000
88.018100 946186.100000
88.030600 310957.800000
89.038500 140874496.000000
90.033800 8926124.000000
90.046400 8309481.000000
91.054200 3634085.800000
95.049100 1477827.000000
103.054100 432584.200000
104.049300 801317.600000
105.044600 786982.600000
107.049000 444663.800000
114.033700 305600.300000
115.041500 566422.800000
115.054100 282607.500000
116.049400 32290322.000000
117.057200 4658380.000000
118.065100 413556.900000
128.049600 602905.600000
130.065100 165156.800000
132.044400 295444.800000
134.060000 1144372.100000
139.054000 179674.100000
141.069900 159159.900000
145.075900 165045.500000
146.060200 513724.700000
152.062000 2400578.200000
153.069700 656527.000000
165.069900 3341105.800000
167.072900 438799.300000
167.085500 288877.900000
169.064800 352008.700000
176.062000 693919.600000
177.069500 782507.100000
178.065400 169697.700000
178.077600 3174718.000000
179.085100 276905.900000
180.080700 2682681.200000
189.069900 526452.900000
190.064900 355984.900000
191.072700 676195.300000
191.085400 169768.800000
192.080800 832996.900000
193.088700 958481.100000
194.096400 750542.900000
202.077600 449580.300000
204.080500 692839.800000
220.075500 378228.500000

>ms2
50.015000 611013.500000
51.022900 1121056.100000
53.002200 873379.400000
53.038500 594409.400000
53.997400 306703.200000
55.017800 298084.100000
58.028700 37400052.000000
61.007200 1557009.600000
62.015100 4710905.000000
63.022900 51074444.000000
64.018200 4953779.000000
64.030600 734886.100000
65.038500 5977403.000000
66.033800 343039.700000
66.046400 379045.800000
67.989200 162697.100000
74.014900 76086.800000
75.022800 658480.200000
76.018100 334852.900000
76.030700 277007.300000
77.038400 868958.700000
78.046400 107674.700000
79.017800 103286.400000
79.054200 529118.900000
81.033400 469206.100000
87.010300 100201.200000
88.018200 1277072.900000
88.030600 150734.900000
89.038500 72721776.000000
90.033800 5485264.500000
90.046400 4085974.000000
91.054200 2271299.800000
94.041300 80128.000000
95.049100 1581060.500000
101.038700 80680.900000
102.046300 139854.800000
103.041600 93426.900000
103.054300 125686.700000
104.049300 644863.200000
105.044700 999150.300000
107.049000 287242.800000
108.044100 81986.900000
114.033700 372496.700000
115.041600 117143.700000
115.054100 689545.600000
116.049400 5054185.500000
117.057300 1141240.400000
118.065300 105318.300000
126.046400 89215.800000
127.054000 75954.300000
128.049500 261495.500000
128.062000 292528.000000
129.044800 208806.200000
130.065200 93019.600000
134.059900 121991.100000
139.054000 471515.400000
140.049400 474704.900000
141.070000 84508.300000
146.059800 77947.200000
150.046400 531491.900000
151.054200 305790.400000
152.062000 2439254.800000
153.069600 309891.500000
155.060300 117792.300000
163.054000 417031.800000
164.061900 539320.100000
165.069900 2777322.200000
166.065300 96877.900000
167.072900 284431.300000
169.064500 921051.100000
176.062000 1226453.900000
177.057200 292685.800000
177.069900 579697.800000
178.065200 132023.400000
178.077700 1301397.200000
179.060100 434450.100000
179.073000 95831.400000
180.080500 439954.200000
189.069900 494663.300000
190.065100 492301.100000
191.073300 606575.300000
191.085300 77067.000000
192.080900 151274.800000
193.088300 146714.600000
202.077600 81295.300000
203.073200 74461.700000
204.080500 303430.000000

>ms2
50.015100 1683825.600000
51.022900 2353439.000000
53.002200 1461291.200000
53.038600 464291.200000
53.997400 431902.100000
55.017900 481558.900000
58.028700 16695280.000000
61.007200 3409078.500000
62.015100 10821546.000000
63.022900 59676392.000000
64.018100 8017628.000000
64.030700 774794.800000
65.038600 4108055.000000
66.033800 130210.700000
66.046300 257550.700000
67.989300 112681.300000
74.015100 418526.700000
75.022800 935777.700000
76.018100 499781.600000
76.030700 331477.300000
77.038500 873891.900000
78.046400 345545.100000
79.017800 158404.600000
79.054200 127781.400000
81.033500 369127.100000
87.010300 135927.100000
87.022700 186412.900000
88.018200 1411746.800000
88.030600 121501.200000
89.038500 34085608.000000
90.033800 2506188.800000
90.046400 1645337.000000
91.054200 965589.100000
95.049100 1504283.800000
102.046300 333137.600000
103.054200 107578.400000
104.049400 153520.400000
105.044700 926977.500000
114.033800 340008.900000
115.054100 840057.200000
116.049400 1081042.000000
117.057200 464624.700000
119.048900 74220.000000
126.046300 335731.100000
127.054100 98959.700000
128.049500 80459.500000
128.061900 335740.800000
129.044600 84305.100000
139.054200 1029056.800000
140.049300 336712.200000
150.046400 903652.600000
151.054000 337809.700000
152.062000 1752432.000000
155.060300 108913.000000
163.054100 1292237.000000
164.061900 499254.000000
165.069900 1251213.600000
166.065100 262245.100000
167.073100 129792.300000
169.064600 1026260.000000
176.062000 1117330.800000
177.057300 79048.100000
177.069700 120619.100000
178.077600 480321.500000
179.060400 324489.800000
180.081100 106843.000000
189.069900 313146.300000
190.065100 308648.600000
191.073000 293399.600000

