>compound EQ61690264
>parentmass 356.0121
>ionization [M+H]+
>formula C12H15Cl2NO5S
>rt 222.000000
>profile orbitrap
#smiles_iso CS(=O)(=O)C1=CC=C(C=C1)C(C(CO)NC(=O)C(Cl)Cl)O
#smiles_can CS(=O)(=O)C1=CC=C(C=C1)C(C(CO)NC(=O)C(Cl)Cl)O
#inchikey OTVAEFIXJLOWRX-UHFFFAOYSA-N
#pubchem_id 5433
#mb_accession EQ363401,EQ363402,EQ363403,EQ363404,EQ363405,EQ363406,EQ363407,EQ363408,EQ363409

>ms2peaks
82.945300 76117.200000
127.966300 47409.800000
146.060200 23294.100000
169.031800 24117.900000
198.057900 79387.500000
199.042100 76019.900000
211.042400 243893.500000
229.005400 236011.800000
241.005700 2512874.500000
307.991000 20598920.000000
319.990900 428801.700000
326.001500 202634.500000
338.001500 14934768.000000
340.016800 59967.200000

>ms2peaks
82.945000 150582.500000
91.054300 27176.800000
103.054200 39517.300000
107.049100 78631.400000
115.054200 24612.000000
118.064700 51493.900000
119.049100 42227.200000
119.072600 60895.200000
120.057000 66783.400000
127.966400 175152.200000
130.065300 29516.700000
131.049200 54506.900000
132.057000 279057.100000
133.064800 47529.000000
139.966600 43534.500000
146.060100 650032.800000
150.023100 172960.800000
155.026000 46761.500000
158.060200 26129.100000
169.031800 89922.600000
170.060100 67847.500000
176.026300 64330.000000
181.031600 56209.000000
193.028900 85145.600000
197.050700 171155.500000
198.058400 4961544.500000
199.042400 188007.400000
206.036800 363416.600000
208.043000 90164.800000
210.058400 170344.600000
211.042500 379859.800000
212.002700 31458.700000
217.008600 215027.600000
227.997800 101829.400000
229.005700 10037468.000000
230.013400 36442.100000
236.038000 34449.300000
241.005700 3638944.200000
244.019500 55907.900000
254.003600 87989.100000
272.014800 50639.100000
284.014700 42627.700000
289.980500 114585.600000
307.991000 17697232.000000
319.990800 141654.500000
326.001500 277351.100000
338.001900 108097.800000
340.016800 42178.300000

>ms2peaks
63.994900 32053.600000
78.984800 108053.600000
82.945000 1503361.800000
91.054100 176483.100000
92.062000 18449.400000
102.046300 71562.600000
103.054100 139951.300000
104.062200 27715.300000
105.069900 69717.700000
107.049100 226488.900000
109.955800 30463.400000
115.054300 146248.500000
117.057200 37509.500000
117.069900 48091.400000
118.065100 998790.900000
119.049200 291561.800000
119.073000 1287352.100000
120.057000 2168674.800000
120.080800 153008.300000
121.065000 30637.800000
127.966400 169205.100000
128.049500 21945.400000
128.062100 41470.300000
129.057400 42438.500000
130.065200 232017.500000
131.049200 126996.500000
131.073000 158903.000000
132.057000 965969.400000
133.064800 99923.900000
134.096400 18147.400000
138.023100 156292.800000
139.966500 35815.900000
142.065300 20080.300000
146.060100 1382312.400000
150.023200 610800.800000
151.031000 77832.100000
155.025900 286409.300000
155.060400 24036.700000
158.060100 181774.700000
163.030900 140635.800000
165.034000 26526.700000
166.041900 41902.400000
169.031900 22426.200000
170.060100 562368.500000
176.026200 115089.300000
177.034100 59238.700000
181.031800 105091.000000
184.042800 16690.400000
193.029000 118603.700000
194.036800 240486.200000
197.050600 437968.800000
198.058400 10904413.000000
199.042200 93251.000000
205.028900 23239.300000
206.036900 1366274.400000
208.042800 141372.200000
210.058400 179484.700000
211.042400 63703.800000
212.002700 27520.400000
217.008500 151083.900000
227.997900 31964.300000
229.005700 11990625.000000
230.013600 20744.900000
236.037700 20860.600000
241.005700 1025946.800000
244.019300 68715.800000
254.003800 89409.500000
289.980000 40705.700000
307.991000 1141771.800000

>ms2peaks
51.022800 15934.400000
63.022700 8198.400000
63.994900 82532.700000
65.038500 7193.800000
77.038500 18982.500000
78.046400 8915.900000
78.984800 272799.700000
79.054200 18664.300000
82.945000 3492548.000000
90.046500 6530.000000
91.054300 1028943.500000
92.062000 118855.100000
93.069900 19474.400000
95.049200 20408.300000
102.046400 312873.900000
103.054300 581053.200000
104.049400 9627.000000
104.062100 82264.400000
105.033500 27984.200000
105.070000 153759.900000
107.049200 292412.400000
109.010700 16586.300000
109.956000 92176.100000
115.054300 585730.000000
116.049500 7814.800000
116.062200 17684.500000
117.057300 110973.900000
117.070000 57106.600000
118.065200 3678546.200000
119.049300 426066.700000
119.073000 5378422.500000
120.057000 3153399.800000
120.080800 859401.800000
121.064900 22184.100000
123.026300 8890.900000
127.966500 75259.700000
128.049500 160085.000000
128.062100 267574.100000
129.057300 96994.800000
130.065200 809880.000000
131.049200 292812.100000
131.073000 393761.200000
132.057000 1033010.900000
133.064900 34775.400000
134.060100 150406.000000
134.096300 47386.500000
135.026300 8646.400000
135.044200 7002.700000
137.015300 15363.200000
138.023100 217305.400000
139.966600 5955.400000
141.057200 7395.500000
142.065300 151373.200000
145.052400 15842.000000
145.064900 49445.600000
146.060100 1803806.600000
149.015300 9495.200000
150.023100 368026.300000
151.021300 17707.800000
151.031000 128042.200000
151.062800 50849.100000
155.025800 162244.400000
155.060400 149049.600000
157.052200 8707.600000
158.060100 288550.400000
159.067700 8720.300000
160.075600 7176.700000
161.047300 29443.500000
162.023200 22382.300000
163.031000 246771.700000
164.026300 24569.000000
165.010200 45664.100000
165.034300 24143.400000
166.041900 33684.100000
167.026100 23555.300000
170.060100 685217.800000
171.068100 25088.100000
176.026200 76225.500000
177.034200 47436.100000
178.041900 7689.400000
182.027000 48235.300000
184.042900 6781.800000
188.026200 8163.700000
192.021100 14992.300000
194.036900 155652.300000
197.050700 330173.700000
198.058400 5900196.500000
206.036900 476897.000000
208.043200 70033.300000
210.058300 51395.800000
217.008500 7013.500000
227.997900 23011.200000
229.005800 2213808.500000
238.053200 15943.400000
241.005600 72244.400000
244.019400 16632.900000
254.004000 34593.400000
307.990900 16275.400000

>ms2peaks
51.022800 15850.000000
53.038600 15283.600000
55.017800 7712.100000
62.989900 9557.600000
63.022800 7067.800000
63.994900 138032.300000
65.038500 47811.900000
67.054200 9155.900000
74.023700 16306.400000
77.038300 48189.700000
78.046500 41369.000000
78.984800 454467.000000
79.054300 59614.700000
80.013000 9112.000000
82.945000 5597234.500000
89.038500 9008.300000
91.054300 2677226.200000
92.062100 398607.600000
93.057300 18360.800000
93.070000 61715.300000
94.065100 17697.600000
95.049200 64629.700000
102.046500 561393.900000
103.054300 1750804.800000
104.049500 130845.100000
104.062100 145127.000000
105.033600 41302.600000
105.044800 39138.400000
105.069900 99775.300000
106.065200 34478.100000
107.049200 357154.300000
109.010600 16475.900000
109.955900 102581.000000
115.054300 1084233.800000
116.049500 21493.800000
116.062200 37030.700000
117.057400 237241.500000
117.069800 30929.200000
118.065200 5494432.000000
119.049300 394604.800000
119.073000 6922212.000000
120.057000 1407007.000000
120.080800 1137134.000000
121.064800 8605.900000
127.054100 28024.100000
128.049500 612214.400000
128.062100 425251.200000
129.057300 118069.500000
130.065200 1321036.400000
131.049200 577677.700000
131.073000 375827.000000
132.057000 623137.400000
134.060000 286030.600000
134.096500 37411.800000
137.015400 30421.300000
138.023100 198989.900000
140.049600 17841.500000
141.057600 13889.200000
142.065200 258042.600000
143.073100 8387.200000
145.052300 8160.400000
145.064900 102015.400000
146.060100 1056869.000000
149.015300 22347.700000
150.023200 120820.100000
151.021200 20329.200000
151.031000 27787.700000
151.062800 173289.900000
155.025800 33170.200000
155.060500 235387.400000
158.060100 149154.800000
159.067700 23394.000000
161.047200 39431.400000
162.023200 16487.700000
163.031000 83798.800000
164.026300 34629.200000
165.010000 29941.600000
166.032300 8339.200000
166.042000 26185.000000
167.026200 7041.900000
169.031600 7530.200000
170.060100 461222.900000
171.067900 24134.600000
176.026200 55913.000000
177.034100 33069.200000
181.031600 15520.500000
182.027100 23722.000000
188.026300 28594.800000
192.020800 7012.700000
194.036700 27363.600000
197.050700 71964.800000
198.058400 1352959.600000
206.036800 62897.600000
208.042800 22788.300000
229.005700 116439.800000

>ms2peaks
50.015000 18142.600000
51.022900 19313.000000
53.038600 58917.300000
55.017900 14414.700000
62.989800 7232.400000
63.994900 134650.700000
65.038600 138226.900000
66.046400 14221.200000
67.041600 9173.100000
67.054200 7666.000000
76.030700 22142.100000
77.038500 83859.100000
78.046400 101790.200000
78.984800 397186.800000
79.054200 142136.100000
80.013000 7808.300000
80.049400 18931.800000
81.033500 6773.800000
82.945000 6500915.000000
89.038600 39227.700000
90.046400 48674.300000
91.054300 4035752.000000
92.062100 524221.100000
93.057200 43002.600000
93.069900 87894.600000
94.065200 8063.200000
95.049200 221934.800000
101.038500 7908.000000
102.046400 662095.400000
103.054200 2602314.000000
104.049500 387175.100000
104.062000 120233.100000
105.033500 52480.900000
105.044800 140428.500000
105.069900 74964.300000
106.065200 72849.700000
107.049200 335157.100000
108.056900 6918.000000
109.010700 17705.300000
109.955800 44176.500000
115.054300 1296452.800000
116.049500 48428.400000
116.062100 24691.300000
117.057300 450160.700000
118.065100 6116984.500000
119.049300 221046.500000
119.073000 4104728.800000
120.057000 390645.800000
120.080800 620622.400000
127.054200 58435.400000
128.049500 845334.200000
128.062100 393061.600000
129.044700 51436.400000
129.057300 114471.300000
130.065200 1344059.000000
131.049200 655180.800000
131.073000 182319.200000
132.057000 266988.900000
134.060100 244344.100000
134.096400 15012.900000
135.068100 8293.900000
137.015300 35421.900000
138.023100 87258.900000
140.049500 40750.100000
141.057300 21191.000000
142.065200 183822.500000
143.073100 7977.500000
145.064800 77765.200000
146.060100 501553.600000
149.015500 20597.200000
150.023200 29071.200000
151.021100 14009.900000
151.062900 230294.300000
155.060400 197368.000000
158.060200 54679.800000
159.067700 7392.400000
161.047400 33007.000000
162.023000 9553.300000
163.031000 19448.400000
164.026100 28289.400000
165.010400 21251.600000
166.032000 26847.200000
170.060100 213452.900000
176.026200 22853.300000
188.026300 6752.800000
197.050300 7218.900000
198.058300 136144.000000

>ms2peaks
50.015100 38629.900000
51.022700 33453.000000
53.038600 295486.900000
55.017900 43221.600000
62.989900 20723.900000
63.022800 46853.100000
63.994900 108229.800000
65.038600 723531.100000
66.046400 53002.300000
67.041700 47058.500000
74.015100 29615.800000
75.022900 91053.200000
76.030700 91964.900000
77.038500 264083.800000
78.046400 227370.500000
78.984800 111431.600000
79.054200 195997.800000
80.049400 85763.300000
81.033600 54878.500000
82.945000 7985492.000000
89.038600 240116.200000
90.046500 187663.000000
91.054300 5790784.000000
92.062100 399762.400000
93.057300 64202.800000
93.070000 26658.600000
94.041300 25160.800000
95.049200 980883.000000
96.044400 17235.500000
101.038700 63069.300000
102.046500 721704.400000
103.054300 2687176.800000
104.049500 799757.500000
104.061900 40844.200000
105.044800 725377.400000
106.065100 67009.800000
107.049200 185507.800000
113.038600 18290.000000
114.046500 21542.400000
115.054300 1206737.000000
116.049600 76337.100000
116.062000 16090.200000
117.057300 840850.800000
118.065200 4420643.500000
119.049100 91955.200000
119.073000 517367.800000
120.057000 66030.400000
120.080900 72092.200000
126.046500 37200.900000
127.054200 52158.600000
128.049500 394129.700000
128.062100 307282.500000
129.044700 226008.800000
129.057300 61322.000000
130.065200 1005992.800000
131.049200 395416.000000
132.057000 25862.600000
134.060100 85645.300000
137.015100 13605.300000
140.049500 62475.600000
141.057300 18796.100000
142.065200 31890.700000
145.064800 24380.600000
146.060000 86599.400000
149.015600 15570.300000
151.062900 60206.300000
153.057400 15289.300000
155.060500 97741.600000
161.047300 8738.500000
164.026100 9250.800000
166.032100 8462.000000
170.060100 51086.800000

>ms2peaks
50.015100 155622.600000
51.022900 123554.500000
53.002200 35637.200000
53.038600 395638.900000
55.017900 51669.800000
62.015200 33472.100000
62.963300 13438.700000
62.990000 18423.400000
63.023000 192097.400000
63.994900 51692.100000
64.030800 21890.200000
65.038600 1429453.100000
66.046500 67352.900000
67.041700 67845.700000
67.054200 7831.800000
74.015100 66091.300000
75.022900 245957.500000
75.971000 13753.500000
76.030700 173040.300000
77.038600 473368.100000
78.033900 21114.700000
78.046400 210626.600000
78.984900 13539.700000
79.054200 104738.100000
80.049400 94152.000000
81.033600 85833.400000
82.945000 7217785.000000
86.015000 7602.200000
87.022900 17562.100000
88.030800 22292.400000
89.038600 698376.400000
90.046500 279054.200000
91.054300 4474409.000000
92.049500 18118.500000
92.062100 69151.700000
93.057300 44923.700000
94.041400 42171.300000
95.049200 1425573.600000
96.044400 35650.200000
101.038600 52632.300000
102.046400 503830.800000
103.054300 1200886.900000
104.049500 407370.300000
105.044800 957555.800000
106.065100 20466.500000
107.049200 50758.800000
113.038600 49451.400000
114.046400 14719.700000
115.054300 656826.000000
116.049500 60881.200000
117.057300 739165.100000
118.065200 1228622.600000
119.049300 50410.400000
119.073000 17935.300000
125.038800 7273.200000
126.046500 56515.500000
127.041700 14931.500000
127.054400 29333.200000
128.049500 86481.400000
128.062100 141690.200000
129.044800 116707.000000
129.057400 18257.900000
130.040300 26598.300000
130.065200 333626.600000
131.049200 82582.800000
134.060000 15744.200000
140.049600 26780.100000
146.059800 8039.800000
155.060400 23670.200000

>ms2peaks
50.015200 462084.800000
51.023000 339643.300000
52.018200 12689.700000
52.030700 14070.500000
53.002200 68138.300000
53.038600 343890.300000
55.017900 51437.700000
61.007300 22860.400000
62.015100 105896.600000
62.963300 32795.900000
63.023000 545200.900000
63.994900 41082.900000
64.030800 58817.500000
65.038600 1951378.100000
66.046500 67104.800000
67.041700 52359.200000
67.054300 17078.100000
74.015100 187567.200000
75.022900 385795.800000
75.971100 22802.000000
76.030700 197618.000000
77.038600 572172.800000
78.033900 34127.300000
78.046400 160487.300000
79.041700 13800.300000
79.054200 37658.000000
80.049500 74565.600000
81.033500 61010.900000
82.945000 6365310.500000
86.015200 14450.600000
87.023000 45696.000000
88.030800 27661.700000
89.038600 1046424.200000
90.046500 281858.200000
91.054300 2593973.500000
92.049600 19010.200000
93.057500 15523.700000
94.041400 16714.300000
95.049200 1152667.800000
96.044500 32802.400000
101.038700 19334.000000
102.046500 311241.000000
103.054300 414211.400000
104.049500 136049.900000
105.044800 847094.700000
107.049100 7010.600000
113.038700 40055.500000
114.046400 13314.000000
115.054300 259178.500000
116.049500 33032.400000
117.057300 504227.400000
118.065200 248881.600000
119.049200 17464.800000
126.046600 34610.000000
127.054400 16283.600000
128.049600 28186.600000
128.062000 36616.000000
129.044700 42472.000000
130.040200 16038.800000
130.065300 85242.900000
131.049300 6578.300000
140.049500 16809.200000

