>compound EQ61687550
>parentmass 154.0167
>ionization [M+H]+
>formula C6H4ClN3
>rt 384.000000
>profile orbitrap
#smiles_iso C1=CC=C2C(=C1)N=NN2Cl
#smiles_can C1=CC=C2C(=C1)N=NN2Cl
#inchikey INOGLHRUEYDAHX-UHFFFAOYSA-N
#pubchem_id 88761
#mb_accession EQ369401,EQ369402,EQ369403,EQ369404,EQ369405,EQ369406,EQ369407,EQ369408,EQ369409

>ms2peaks
90.033800 6376685.000000
98.999500 6150831.500000
126.010500 8053484.000000
154.016600 1042176064.000000

>ms2peaks
90.033800 6659306.500000
98.999600 7098385.500000
126.010500 7928230.500000
154.016600 1014090368.000000

>ms2peaks
63.022800 3560060.200000
81.033500 1281324.900000
90.033900 44043072.000000
91.041600 7281861.500000
98.999600 50776340.000000
126.010500 38665284.000000
154.016600 925960960.000000

>ms2peaks
63.022900 17749760.000000
64.018200 764229.600000
72.983900 5121832.500000
81.033500 3202995.500000
90.033900 121004760.000000
91.041700 19427838.000000
98.999600 175737184.000000
106.028700 640853.900000
126.010500 70278792.000000
154.016600 574227648.000000

>ms2peaks
53.038600 495561.400000
61.979200 982105.900000
62.015000 952235.500000
63.022900 51735208.000000
64.018200 3662985.800000
64.030700 848904.900000
65.038600 711849.600000
72.983900 31535412.000000
74.999600 686063.600000
81.033500 5518907.500000
90.033900 166745248.000000
91.041700 40178916.000000
98.999600 327503200.000000
106.028700 551736.500000
108.044400 6781544.000000
119.047900 1039802.900000
125.002500 908318.000000
126.010500 64262852.000000
154.016600 280643072.000000

>ms2peaks
53.002200 576401.200000
55.017900 435157.500000
61.979200 2286779.500000
62.015100 1928748.400000
63.022900 90364624.000000
64.018200 10143425.000000
64.030700 2026086.000000
65.038600 734180.500000
66.033800 728997.400000
72.983900 102847824.000000
74.999600 950939.600000
81.033500 5403240.000000
90.033900 147138192.000000
91.041700 52950816.000000
98.999600 387357952.000000
99.995000 909023.800000
106.028600 476299.100000
108.044400 5737449.500000
119.047800 3040945.200000
125.002700 2228641.200000
126.010500 37347612.000000
154.016700 105945488.000000

>ms2peaks
50.015000 419957.400000
52.018200 1238355.400000
53.002200 1586228.800000
55.017900 893526.400000
61.007300 973948.900000
61.979200 5368382.000000
62.015100 6652480.500000
63.022900 119682952.000000
64.018200 27173482.000000
64.030700 11655592.000000
65.026000 2057612.100000
65.038600 447901.400000
66.033800 1267679.200000
72.983900 264451664.000000
74.999500 1297121.900000
75.994800 639674.400000
76.018100 1651615.500000
81.033500 2853360.000000
90.033900 55972956.000000
91.041700 46597280.000000
92.036900 600202.100000
97.991700 480400.200000
98.999600 231722544.000000
99.994800 780272.400000
119.047800 7273358.000000
125.002700 4219760.500000
126.010500 4323200.500000
154.016600 7552051.000000

>ms2peaks
50.015100 514772.100000
52.018200 4064014.500000
53.002200 2184898.500000
53.997400 561102.800000
55.017800 1207020.500000
61.007300 2638323.000000
61.979200 7176482.000000
62.015100 15973874.000000
63.022900 120012392.000000
64.018200 32211620.000000
64.030700 17893316.000000
65.026000 4806249.000000
66.033800 1049426.000000
72.983900 298870944.000000
74.015100 459565.500000
74.999600 523150.000000
75.010300 1009727.100000
75.994700 801306.300000
76.018100 4798400.500000
76.990000 652550.100000
81.033500 1150476.600000
84.983900 392541.900000
89.025900 1062084.600000
90.033900 16030019.000000
91.041700 23324306.000000
92.036900 1056857.000000
97.991700 562348.600000
98.999600 79692120.000000
119.047800 5743555.000000
125.002600 2552244.800000
126.010500 482516.000000
154.016700 434870.400000

>ms2peaks
50.015100 1140052.900000
52.018200 6947319.500000
53.002200 3631280.800000
53.997400 946433.400000
55.017900 1112788.200000
60.984000 378939.400000
61.007300 5005565.000000
61.979200 7531005.000000
62.015100 27920904.000000
63.022900 101769448.000000
64.018200 24307688.000000
64.030700 12115274.000000
65.026000 6752733.500000
66.033800 484867.100000
71.976100 443460.900000
72.983900 221944016.000000
74.015200 688697.700000
74.999500 409679.500000
75.010300 3600916.000000
75.994700 777427.800000
76.018100 5961626.000000
76.990100 582733.200000
79.017800 631460.700000
81.033400 514700.900000
84.984000 623757.300000
89.026000 1230106.900000
90.033900 6453999.500000
91.041700 7295562.000000
92.036900 437135.000000
97.991700 360708.500000
98.999600 19113276.000000
119.047800 1629437.400000
125.002800 622454.800000

