>compound EQ62528621
>parentmass 386.17439999999993
>ionization [M+H]+
>formula C17H27N3O5S
>rt 252.000000
>profile orbitrap
#smiles_iso CC[N+]1(CCCC1CNC(=O)C2=CC(=C(C=C2OC)N)S(=O)(=O)CC)[O-]
#smiles_can CC[N+]1(CCCC1CNC(=O)C2=CC(=C(C=C2OC)N)S(=O)(=O)CC)[O-]
#inchikey LLIKIPAUZJTRGB-UHFFFAOYSA-N
#pubchem_id 71313372
#mb_accession EQ339901,EQ339902,EQ339903,EQ339904,EQ339905,EQ339906,EQ339907,EQ339908,EQ339909

>ms2peaks
98.096200 1588861.400000
127.123000 3571184.500000
128.106900 8250281.500000
242.047500 19596450.000000
259.074300 1341321.400000
293.171700 1701227.800000
368.163400 1986443.900000
386.174400 842321472.000000

>ms2peaks
58.065100 1991439.600000
67.054200 725264.200000
72.080700 916236.200000
74.060000 1196514.800000
82.065100 727330.500000
84.080800 16210521.000000
85.064800 2953792.000000
98.096400 21406746.000000
110.096400 9923995.000000
116.106900 908591.000000
127.123000 15676528.000000
128.107000 43324480.000000
149.046300 3041578.800000
171.112800 2133267.800000
242.048100 544028800.000000
259.074700 9550456.000000
313.121600 583093.800000
325.122000 2049064.800000
368.164100 12537553.000000
386.174600 156845632.000000

>ms2peaks
58.065100 1863620.200000
67.054200 1774292.100000
74.060000 8689787.000000
82.065000 1152464.100000
84.080800 8963513.000000
85.064800 1534050.800000
98.096400 27617364.000000
110.096400 7858617.000000
111.104300 886289.600000
127.123000 3965252.800000
128.107000 5954195.000000
149.046600 6123354.500000
168.011400 891068.100000
196.006400 47100212.000000
214.016900 31283616.000000
242.048100 810558528.000000
259.075000 2051853.100000
325.122200 2069948.900000
368.164800 1084503.900000
386.174200 943563.600000

>ms2peaks
54.033800 365954.200000
56.049400 1195612.400000
58.065100 1580008.500000
65.038600 457314.700000
66.046400 473175.800000
67.054200 2470606.500000
68.049400 570244.800000
69.057300 657803.000000
70.065100 1472970.800000
71.049100 440956.600000
72.080700 511347.800000
74.060000 14680577.000000
80.049400 477879.300000
82.065100 1665701.600000
84.080700 3985488.000000
85.064800 697779.800000
93.057300 472708.400000
95.036500 1185245.800000
96.044400 1553384.600000
96.080700 949014.200000
97.052200 568594.600000
98.096400 27840062.000000
107.036500 574396.200000
107.990000 666358.800000
108.044400 1752441.100000
110.005800 803240.300000
110.096400 4102771.000000
111.104100 511860.200000
112.021500 392307.600000
114.091400 746127.800000
120.044500 390168.300000
121.052300 1971034.800000
122.036100 1360068.800000
123.067800 396528.000000
124.039300 1679128.100000
127.122900 621509.500000
128.107000 1091722.400000
132.007800 373931.800000
135.031400 436022.800000
138.000800 1057642.500000
138.018600 2126404.000000
140.016400 3540451.000000
147.031500 6749981.000000
149.047100 27104554.000000
150.055000 3306109.000000
152.034000 807107.400000
163.026400 392791.500000
164.034100 513964.100000
165.042100 446249.300000
168.011300 20213540.000000
177.995800 5851442.500000
180.011400 542891.400000
196.006300 312425184.000000
197.013900 567970.200000
199.029600 498831.300000
214.016900 79591624.000000
242.048100 356861856.000000
259.075600 373420.800000

>ms2peaks
53.002100 1050367.400000
53.038500 760143.200000
54.033800 1475184.800000
55.017800 371078.800000
56.049500 1632853.000000
58.065100 947140.400000
58.995000 1256859.400000
65.025900 325127.700000
65.038600 1197486.200000
66.033800 1030194.600000
66.046400 5708721.000000
67.041600 726871.800000
67.054200 2709859.500000
68.013100 367121.900000
68.049500 1618660.000000
68.979300 425264.400000
69.057300 1237040.500000
70.028700 321818.300000
70.065100 3412970.200000
70.995000 826301.200000
74.060000 14489999.000000
78.033700 734015.100000
79.017800 330807.800000
79.041600 627785.700000
80.013000 762938.600000
80.049400 1716212.600000
81.033500 803214.000000
82.028700 464602.000000
82.065100 1656677.800000
82.994900 1184811.600000
83.012700 474488.300000
84.080800 2112329.200000
84.974200 366821.100000
85.010600 2437061.800000
85.064800 303841.800000
86.005900 404886.100000
86.989900 1206324.500000
91.041600 951654.200000
92.049400 2090536.900000
93.057300 2933743.500000
94.028700 921856.800000
94.041400 1102140.900000
94.065200 1083699.400000
94.995000 357055.300000
95.036600 2749878.800000
95.073000 336160.900000
96.044400 5390513.000000
96.080700 1328278.400000
97.010700 788239.600000
97.052200 1310248.900000
98.096400 24863598.000000
98.989900 1238950.400000
104.049500 400836.600000
106.028700 797189.900000
107.012800 1297757.600000
107.036500 2236487.200000
107.990200 5047490.000000
108.044400 9638365.000000
109.028300 736541.100000
109.052300 410245.900000
110.005900 7797057.000000
110.060000 407786.300000
110.096400 2007237.800000
110.990000 389970.100000
111.985100 1271743.000000
112.021600 2301756.200000
112.039300 476478.700000
113.005500 2176593.500000
114.091400 1201685.000000
119.990300 1249135.200000
120.044400 3157138.000000
121.052200 14868607.000000
122.005900 1259340.100000
122.023800 1541086.400000
122.036200 13069267.000000
123.031400 380887.500000
124.039300 5689317.000000
124.993000 1863780.400000
125.005500 453361.300000
125.047100 491672.100000
128.016500 609969.500000
129.995800 486810.700000
132.008000 5538658.500000
135.031400 1490676.800000
135.985200 1692610.400000
136.039300 842906.200000
138.000900 5177593.000000
138.018600 6964567.000000
139.008800 557089.900000
140.016500 22001520.000000
141.000400 1043301.100000
147.031500 31238194.000000
148.003000 434905.000000
148.039200 640369.000000
149.047200 62303600.000000
150.000800 2673014.000000
150.018400 737123.400000
150.055000 5804608.500000
152.016500 521066.800000
152.034200 2489813.000000
152.987900 771931.000000
153.000600 372336.400000
158.027100 1297504.900000
163.026400 2282136.800000
163.980100 402378.900000
164.034400 2057863.900000
165.041800 700746.600000
165.996000 1013428.000000
166.013600 324240.800000
168.011400 67570984.000000
177.995700 20335826.000000
180.011900 750887.600000
196.006300 300607648.000000
197.014500 1057823.100000
214.016900 27642672.000000
242.048200 54550316.000000

>ms2peaks
50.015000 198200.200000
51.022900 455505.700000
52.018100 695333.700000
53.002200 1831284.900000
53.038600 1595914.200000
54.033800 4216025.000000
55.017800 929722.500000
55.054200 486424.300000
56.049500 2018875.500000
57.033600 281374.400000
57.069900 190316.100000
57.987200 344400.200000
58.028800 353178.200000
58.065200 930540.400000
58.995000 2728093.500000
63.022900 390812.200000
64.018200 1074712.200000
64.030700 360311.800000
65.026000 831213.900000
65.038600 3869869.000000
66.033800 3397488.200000
66.046400 25283140.000000
67.017800 439552.500000
67.041700 2382993.800000
67.054200 1951956.100000
68.013000 1558383.800000
68.049500 3207864.800000
68.979300 2523423.800000
68.997000 179270.300000
69.033500 371279.100000
69.057300 1336981.900000
69.987100 589935.600000
70.028700 446747.300000
70.065100 6146863.500000
70.995000 2055104.900000
71.049200 112647.100000
71.990200 313134.500000
72.080800 164591.900000
73.010600 469821.700000
74.060000 9470605.000000
74.989900 468814.400000
76.018200 482067.300000
77.026000 144782.400000
77.038500 137216.000000
78.033800 3081347.800000
79.017800 758450.800000
79.041600 1830284.500000
80.013000 1204171.000000
80.049400 3425718.200000
81.033500 2798471.800000
81.057200 201798.000000
82.028700 733900.800000
82.041400 346049.300000
82.065100 1412135.500000
82.995000 4264841.000000
83.012700 515937.600000
83.036600 348858.200000
83.990300 418482.100000
84.002900 342406.800000
84.080800 1044284.400000
84.974200 923165.900000
85.010600 5193727.000000
85.982000 100485.400000
86.005800 868777.400000
86.990000 1586261.800000
89.026000 165295.500000
90.033900 590667.100000
91.041700 5176065.000000
92.049500 7648168.500000
93.021000 811786.600000
93.057300 8567108.000000
94.028800 2904479.000000
94.041300 4226939.500000
94.065100 1258777.600000
94.995100 1178652.900000
95.036600 2673543.200000
95.049100 778936.200000
96.044400 8917141.000000
96.080700 1797470.900000
96.998100 1464332.500000
97.010700 989487.500000
97.052200 895907.600000
97.982100 1423194.400000
98.005900 1715304.800000
98.096400 19568358.000000
98.989900 1899639.000000
101.005600 162388.700000
103.041600 103897.000000
104.013100 394779.200000
104.049500 348520.600000
105.033400 102444.300000
105.044800 181692.100000
106.028800 4979706.500000
107.012700 7950094.500000
107.036600 5915917.500000
107.990200 11858184.000000
108.044400 14366886.000000
108.974300 391310.100000
108.998300 334878.900000
109.028400 822443.000000
109.052300 588642.200000
110.005900 15490763.000000
110.096400 1212517.200000
110.990000 861479.500000
111.001100 488527.100000
111.013700 490403.900000
111.985100 1520174.600000
112.021500 3316989.200000
112.039300 430851.000000
113.005600 3978704.000000
114.091400 1227644.200000
117.020800 150250.000000
119.036500 887605.900000
119.990400 1289232.200000
120.044400 9194893.000000
121.052200 35876260.000000
122.005900 2786295.200000
122.024000 1691204.500000
122.036200 27671372.000000
122.989900 480375.300000
123.031600 389338.200000
123.068000 145944.300000
124.039400 5615819.500000
124.993000 5937611.500000
125.005500 1005246.200000
125.047200 562846.300000
125.977100 146303.800000
127.026400 420555.400000
128.016600 548404.600000
129.995900 442542.100000
132.008000 24374952.000000
133.015700 144607.500000
133.028500 378321.300000
134.023800 192264.700000
135.031500 1573131.600000
135.985300 2745553.500000
136.039500 885470.400000
137.023400 481280.700000
138.000900 6644773.500000
138.018600 5831261.500000
138.985000 110428.900000
139.008700 1093340.200000
140.016500 25753052.000000
141.000400 1785670.000000
143.003700 180072.600000
147.031500 40843076.000000
148.002800 1473392.000000
148.039300 1213096.800000
149.047200 51862508.000000
150.000800 6785708.500000
150.018500 2758852.800000
150.055000 3270074.200000
151.026400 158905.300000
152.016600 195217.900000
152.034200 2482779.200000
152.987800 1930336.600000
153.000200 268342.500000
153.042100 522313.000000
158.027300 1047904.400000
163.026400 2492517.200000
163.980200 373556.200000
164.034200 1714672.800000
165.042300 350180.300000
165.995900 1190097.900000
166.013400 972687.100000
168.011400 54740840.000000
170.998400 603594.800000
171.034900 182324.300000
177.995700 17484512.000000
180.011400 425781.200000
180.982700 182076.700000
196.006300 95147384.000000
197.014500 562157.200000
198.993200 133169.400000
199.029600 579885.700000
214.016900 3415043.800000
242.048100 3616154.500000

>ms2peaks
50.015100 1469864.200000
51.010300 109405.700000
51.022900 788940.900000
52.018200 2493844.200000
52.030800 366034.300000
53.002200 6379713.500000
53.038600 4350923.000000
54.033900 6590557.000000
54.046400 1032965.500000
55.017900 2096802.900000
55.054200 396570.600000
56.049500 1925004.600000
56.979400 463092.700000
57.033600 346142.800000
57.987200 880000.500000
58.028800 1068548.200000
58.065200 466347.000000
58.995000 2193050.200000
59.966500 95103.900000
59.990300 395467.200000
62.015100 596508.100000
63.023000 2853804.500000
64.018200 4552629.500000
64.030800 3806682.500000
65.026000 4807234.500000
65.038600 18375916.000000
66.033800 6389335.500000
66.046400 57472332.000000
67.017800 809012.600000
67.041700 7103344.500000
67.054200 1258697.500000
68.013100 5153476.000000
68.049500 3645334.500000
68.979300 7122483.000000
68.997100 394115.100000
69.033500 720989.600000
69.987200 2318613.800000
70.028700 539425.000000
70.065100 7554908.500000
70.995000 1991974.900000
71.990300 144643.600000
73.010600 142011.800000
74.060000 2598163.200000
74.989900 590436.800000
75.010300 97074.900000
75.022900 457659.200000
76.018100 2376451.000000
76.030700 176129.100000
77.002200 161902.900000
77.026000 1510755.200000
77.038600 651847.700000
78.033800 11096765.000000
79.017800 3390915.800000
79.041600 4333911.000000
80.013100 2961128.200000
80.049400 3694370.000000
80.979400 494245.800000
81.033500 6068484.000000
81.974700 103878.300000
81.987100 760179.800000
82.028700 774657.100000
82.041500 148655.400000
82.065100 574609.100000
82.995000 6263842.500000
83.990300 810164.100000
84.002800 676618.800000
84.080900 126109.500000
84.974300 1671244.600000
85.010600 3807391.800000
86.005800 1142314.900000
86.990000 540552.200000
89.026000 1327714.200000
90.033900 1637814.800000
91.041700 16646808.000000
92.049500 15117876.000000
92.979400 550338.100000
93.021000 1385742.200000
93.033600 468739.000000
93.057300 7665302.000000
94.028800 6056099.000000
94.041300 4967479.500000
94.065200 1028059.400000
94.995000 2167855.200000
95.016100 282111.300000
95.036600 1516700.800000
95.049100 976676.100000
95.990300 335108.500000
96.044400 3555637.800000
96.080800 1053672.500000
96.998100 4540412.000000
97.010600 518943.900000
97.982100 3039913.200000
98.006000 1101299.600000
98.096500 7894401.500000
98.989900 1133337.100000
103.041700 163837.500000
104.013100 3893539.800000
104.049500 553513.400000
105.021100 141856.200000
105.033500 327119.200000
105.044900 511939.400000
106.028800 18871898.000000
106.982400 1260144.000000
107.012800 21882910.000000
107.036600 7861094.000000
107.990200 9836351.000000
108.044400 3720424.200000
108.974300 538932.100000
108.998000 328132.600000
109.028300 661769.400000
109.052200 339356.400000
110.005900 7774252.500000
110.060000 1441902.000000
110.989900 766836.900000
111.001200 625152.300000
111.013700 129824.500000
111.031800 111859.300000
111.985100 529567.400000
112.021600 789396.800000
112.039300 666389.200000
113.005500 1736794.800000
114.091500 604224.900000
117.020900 921902.700000
118.028700 109783.700000
119.036700 561067.300000
119.060400 115601.500000
119.990400 1118856.400000
120.044400 15154380.000000
121.052300 17212158.000000
122.005900 2474797.000000
122.023900 1141531.900000
122.036200 11720849.000000
122.989800 539204.100000
123.031600 83456.300000
124.039300 690114.600000
124.993000 6153846.000000
125.005500 826452.800000
125.023500 361392.100000
125.977100 184088.900000
127.026400 167629.400000
129.996000 109427.400000
132.008000 43843876.000000
133.015900 469750.400000
133.028400 416684.600000
134.023600 449901.500000
135.031500 419282.200000
135.985300 958480.200000
136.039500 123930.100000
137.023800 85838.800000
138.000900 1380447.000000
138.018400 851722.800000
139.008700 471057.700000
140.016500 3972835.500000
140.034200 729202.200000
141.000500 660835.200000
143.003700 362574.100000
143.987600 153144.700000
147.031500 6632343.000000
148.003000 1365640.400000
148.039400 1883566.000000
149.023300 615605.200000
149.047200 6181173.500000
150.000800 3068849.800000
150.018600 6727336.000000
150.055100 626737.400000
151.026400 340705.500000
152.034300 167674.300000
152.988000 798952.700000
153.042100 104196.800000
158.027300 89568.500000
163.026600 415791.600000
164.034400 443808.600000
165.995800 149354.800000
166.013600 646315.000000
168.011400 3839541.200000
170.998200 280900.400000
177.995700 1916503.900000
196.006200 1717830.800000

>ms2peaks
50.015100 4715300.500000
51.010300 292806.600000
51.022900 3663004.000000
52.018200 8909394.000000
52.030800 780421.000000
53.002200 10778971.000000
53.038600 5801700.000000
54.033900 5717726.000000
54.046500 1668496.400000
55.017900 3474154.000000
56.049500 1624781.100000
56.979400 873143.800000
57.033500 103743.900000
57.987200 1086916.900000
58.028800 901053.900000
58.065200 286532.000000
58.995000 1364551.000000
59.966500 145967.900000
59.990300 371812.300000
61.007300 370573.300000
62.015100 2232345.500000
63.023000 10167960.000000
64.018200 6411016.000000
64.030800 8359948.500000
65.026000 6946637.000000
65.038600 30366486.000000
66.033900 4557561.500000
66.046400 35293476.000000
67.005300 334837.900000
67.017900 556697.400000
67.041700 5013542.500000
67.054200 514992.900000
68.013100 9761438.000000
68.049500 2592530.500000
68.979400 8043340.500000
68.997200 594192.600000
69.033500 488828.100000
69.974600 426218.700000
69.987200 4898510.000000
70.028700 626033.900000
70.065100 4741025.000000
70.995000 1319630.800000
71.990300 71855.300000
74.015100 448054.100000
74.059900 516428.600000
74.990000 78279.200000
75.010400 525254.200000
75.022900 1004584.700000
76.018200 5804736.500000
76.030700 427379.500000
77.002200 575901.200000
77.026000 2403299.800000
77.038500 680767.600000
78.033900 14851915.000000
79.017900 4328889.000000
79.041700 4367869.000000
80.013100 6082339.000000
80.049500 2672436.500000
80.979400 850655.800000
81.033500 2764635.800000
81.974600 168907.800000
81.987100 1559663.500000
82.028800 620739.600000
82.065100 282335.800000
82.995000 2515331.000000
83.966500 112619.100000
83.990300 687619.800000
84.002800 516421.300000
84.080900 105139.400000
84.974300 1335649.900000
85.010600 913906.100000
85.982100 122084.700000
86.005900 454040.100000
86.990000 77751.000000
88.018200 96885.000000
89.026000 1481935.400000
90.033900 2162960.800000
91.041700 12159751.000000
92.049500 10129053.000000
92.979400 869911.600000
93.021000 518144.500000
93.033600 484440.300000
93.057300 2282548.200000
93.987200 449423.400000
94.028800 5076698.500000
94.041300 1079620.200000
94.065200 467522.400000
94.995100 1701898.200000
95.016200 148880.200000
95.036600 1168470.900000
95.049200 900672.800000
95.990200 462037.800000
96.044400 1013967.700000
96.080800 455271.200000
96.998100 2530087.800000
97.982200 1584605.500000
98.005900 475898.100000
98.096500 2184685.200000
98.989900 284450.000000
104.013100 4371954.000000
104.049500 589521.600000
105.021000 91612.700000
105.033500 76418.800000
105.044800 456893.500000
106.005000 841899.300000
106.028800 15149505.000000
106.982400 1548549.200000
107.012800 13553413.000000
107.036600 3337211.500000
107.990200 2749335.800000
108.044500 367018.500000
108.974400 327496.800000
108.998200 128589.600000
109.028600 132629.800000
109.052000 87768.800000
110.005900 1281328.800000
110.060100 708210.000000
110.990200 68304.000000
111.001400 88355.300000
111.031500 363599.100000
111.985200 138681.100000
112.039300 1876229.600000
113.005500 174435.100000
117.020900 714584.000000
118.028500 68524.200000
119.036600 92966.000000
119.060200 108228.100000
119.990300 824244.200000
120.044500 5590326.500000
121.052300 2198618.200000
122.005900 952219.400000
122.023600 767987.600000
122.036300 1147677.200000
124.993100 1366622.100000
125.005800 77984.400000
125.022900 103726.400000
127.026400 333344.600000
132.008100 14142617.000000
133.015800 173483.800000
135.985100 132027.800000
138.000600 91788.000000
138.018500 75001.600000
140.016400 256501.600000
140.034300 1169400.400000
143.987500 84799.300000
147.031400 141655.600000
148.002900 133524.400000
148.039300 459541.000000
149.023300 298594.500000
149.047200 165819.600000
150.018700 2389892.800000
151.026300 764173.300000
152.988300 67775.000000
166.013600 77914.800000
168.011300 74406.000000

>ms2peaks
50.015100 8697591.000000
51.023000 9402378.000000
52.018200 18390532.000000
52.030800 1574295.200000
53.002200 10597738.000000
53.038600 4651209.000000
53.997500 652840.500000
54.033900 3304387.800000
54.046400 1130820.100000
55.017900 3303568.800000
56.049500 816651.200000
56.979400 1017130.000000
57.987200 987104.900000
58.028700 297100.300000
58.065200 93350.900000
58.995000 715049.000000
59.966400 298283.300000
59.990200 75953.600000
61.007300 843771.900000
62.015100 4423770.500000
63.023000 16718758.000000
64.018200 5641831.500000
64.030800 5673444.500000
65.026000 5608268.500000
65.038600 25705972.000000
66.010000 685812.250000
66.033800 2029038.100000
66.046400 13511917.000000
67.005200 124387.700000
67.017900 499815.400000
67.041600 2434913.000000
68.013100 9333365.000000
68.049500 1010162.100000
68.979300 8717757.000000
68.997100 752858.400000
69.974600 325213.400000
69.987200 3587998.000000
70.028700 269140.200000
70.065100 1895955.200000
70.995000 697484.400000
74.015100 1134225.600000
74.060000 95878.900000
75.010300 1147236.000000
75.022900 1333915.600000
76.018200 7669694.000000
77.002200 1395681.100000
77.025900 1564654.100000
77.038500 443409.400000
78.010200 817352.937500
78.033800 9028967.000000
79.017800 2806020.200000
79.041600 2216966.800000
80.013100 4085355.000000
80.049500 1404914.200000
80.979400 981192.800000
81.033600 693153.600000
81.974500 95341.900000
81.987100 1192549.600000
82.028800 112790.100000
82.982400 273427.031300
82.995000 542020.900000
83.966500 157304.000000
83.990200 407948.200000
84.002800 130048.600000
84.974300 633461.900000
85.010600 137115.300000
85.981800 87873.100000
88.018200 473204.600000
89.026000 760440.000000
90.033900 1718789.100000
91.041700 3304731.200000
92.049500 3426269.000000
92.979400 1059630.400000
93.020900 96012.100000
93.033700 148704.500000
93.057300 404106.500000
93.974600 274947.875000
93.987200 337895.700000
94.028800 1810395.800000
94.041300 98313.900000
94.065200 148045.800000
94.995000 801517.300000
95.036500 351925.900000
95.049000 768898.200000
95.990200 164289.200000
96.044400 654104.400000
96.998200 654198.700000
97.982100 366439.500000
98.096500 503396.500000
104.013100 1316115.200000
104.049500 519942.400000
105.044900 545007.200000
106.005000 560107.200000
106.028800 4562928.000000
106.982400 950114.200000
107.012800 3784194.000000
107.036500 509070.700000
107.990300 684197.800000
108.974100 125102.600000
110.005800 102725.600000
110.060000 106711.500000
111.031500 92208.000000
112.039300 1265960.900000
117.974500 345624.093800
118.028800 73662.900000
119.060600 104874.500000
119.990300 601307.400000
120.044500 1056397.600000
122.005800 106759.800000
122.023800 77798.000000
132.008000 1752316.000000
140.034000 312668.900000
150.018500 322909.800000
151.026300 85839.400000

