>compound EQ62149050
>parentmass 180.1019
>ionization [M+H]+
>formula C10H13NO2
>rt 216.000000
>profile orbitrap
#smiles_iso CC(CC1=CC2=C(C=C1)OCO2)N
#smiles_can CC(CC1=CC2=C(C=C1)OCO2)N
#inchikey NGBBVGZWCFBOGO-UHFFFAOYSA-N
#pubchem_id 1614
#mb_accession EQ371501,EQ371502,EQ371503,EQ371504,EQ371505,EQ371506,EQ371507,EQ371508,EQ371509

>ms2peaks
105.069800 15369551.000000
133.064600 46222364.000000
135.043900 45267380.000000
151.075400 1113446.000000
163.075100 651783104.000000
180.101700 18307816.000000

>ms2peaks
77.038300 1181538.400000
105.069800 24691906.000000
133.064600 62285580.000000
135.043900 61754452.000000
151.075300 1459384.900000
163.075100 628422784.000000
180.101600 12290022.000000

>ms2peaks
51.022800 938983.500000
55.017700 2072681.100000
79.054100 3056559.000000
91.054100 661318.500000
103.054200 1697401.400000
105.069700 130116304.000000
107.048900 835834.100000
115.054000 718401.300000
121.028200 1306786.600000
122.036000 2483491.000000
133.064600 182966160.000000
135.043800 165344272.000000
148.051700 439229.800000
151.075200 4732406.500000
163.075100 265572336.000000
180.101500 602989.100000

>ms2peaks
51.022800 956728.100000
53.038400 727981.600000
55.017800 6833328.000000
65.038300 821205.100000
77.038300 3254964.000000
79.054100 27205822.000000
91.054100 1550512.000000
93.033400 2123720.200000
95.049000 2343883.500000
103.054100 16062469.000000
105.069700 271695296.000000
107.048900 1063558.900000
111.043800 806308.100000
115.054100 2447483.500000
121.028200 1584766.600000
122.036100 5458170.000000
123.043600 344165.600000
131.049100 469800.700000
133.064600 177603088.000000
135.043800 193504560.000000
145.064700 504020.800000
148.051500 1192720.100000
151.075200 2766502.000000
163.075100 63095424.000000

>ms2peaks
50.015000 430358.800000
51.022800 1228363.600000
53.038500 3583355.500000
55.017800 12052591.000000
65.038400 3363312.800000
77.038400 11715340.000000
79.054100 75327664.000000
81.033500 558771.400000
91.054100 2660775.500000
93.033400 4716710.000000
95.049000 12026235.000000
103.054100 45411256.000000
105.069700 263261552.000000
107.048900 1080731.800000
111.043900 1771267.600000
115.054100 3638438.200000
121.028200 2385717.800000
122.036000 5301252.000000
131.049000 701463.000000
133.064600 80130824.000000
135.043800 144994832.000000
147.044000 790782.300000
148.051600 2253039.800000
151.075300 757174.900000
163.075100 9186924.000000

>ms2peaks
50.015000 1415280.600000
51.022700 1903089.600000
53.038500 9796846.000000
55.017800 12028488.000000
65.038500 9716369.000000
67.054100 419204.000000
77.038400 33760276.000000
78.046200 195964.000000
79.054100 120369072.000000
81.033300 1367254.200000
91.054100 3331087.200000
93.033400 5700686.500000
94.041100 217901.600000
95.049000 31463602.000000
102.046200 186621.500000
103.054100 72987928.000000
104.061800 721278.900000
105.033400 9708633.000000
105.044600 20257464.000000
105.069700 178354992.000000
107.048800 1041252.800000
111.043900 2425369.500000
115.054100 3862669.000000
121.028200 4106503.500000
122.036100 4213476.000000
131.049000 613034.200000
133.064600 25340790.000000
135.043800 95149288.000000
147.043900 2911266.000000
148.051600 2887671.200000
163.075200 1162223.900000

>ms2peaks
50.015100 6789612.000000
51.022900 9727833.000000
53.038500 23329934.000000
55.017800 7492824.500000
63.022800 210088.900000
65.038500 20659088.000000
66.046200 633551.300000
67.054100 773546.100000
68.997000 150404.800000
77.038400 67131488.000000
78.046300 1278397.800000
79.054100 95558232.000000
81.033400 2742074.000000
89.038400 1824117.100000
90.046300 610096.600000
91.054100 3893626.500000
93.033400 2189737.500000
94.041200 767783.100000
95.049000 66349064.000000
102.046300 1602787.200000
103.054100 55873808.000000
104.061900 965864.900000
105.033400 8499143.000000
105.044600 44198868.000000
105.069700 33440108.000000
106.041600 208950.000000
107.049000 756759.600000
111.043800 786718.700000
115.054100 2531769.000000
118.041100 200687.200000
121.028200 6134221.000000
122.036100 1048235.200000
131.049200 170415.400000
133.064600 1020162.200000
135.043900 19794508.000000
147.043900 7770656.500000
148.051700 955034.600000

>ms2peaks
50.015100 17317404.000000
51.022900 35151372.000000
53.002200 1148924.600000
53.038500 21463008.000000
53.997400 82862.500000
55.017800 3890559.000000
62.014900 163786.100000
63.022800 1508799.100000
64.030700 442595.600000
65.038500 22643094.000000
66.046300 1130516.400000
67.054200 695553.600000
67.989200 145528.100000
68.997000 120415.000000
75.022800 203167.300000
77.038400 60988396.000000
78.046300 1548086.400000
79.054100 38532324.000000
81.033400 2461132.800000
89.038400 5605413.500000
90.046300 797132.400000
91.054100 4938785.500000
93.033300 172357.700000
94.041200 852447.400000
95.049000 60888200.000000
102.046300 1463573.900000
103.054100 19840874.000000
104.061800 644347.000000
105.033400 2918025.800000
105.044600 41440928.000000
105.069700 3202048.000000
107.049000 193102.500000
111.044000 138596.100000
115.054100 1103100.200000
118.041100 153294.600000
121.028300 4441631.500000
131.049400 85679.300000
135.043800 2074991.900000
147.043900 4198685.000000

>ms2peaks
50.015100 23811512.000000
51.022900 60985460.000000
53.002200 2262333.500000
53.038500 14249211.000000
53.997300 341977.300000
55.017800 1530326.200000
62.015000 661265.100000
63.022800 4122086.500000
64.030700 736364.500000
65.002100 2092776.250000
65.038500 15638418.000000
66.046300 1182847.100000
67.054200 333146.800000
67.989200 75887.800000
68.996900 128257.900000
75.022800 977863.800000
77.038400 33982268.000000
78.046300 1684452.100000
79.054100 9823781.000000
81.033400 1332155.100000
89.038500 8595349.000000
90.046400 321585.900000
91.054200 3120524.500000
94.041200 495643.000000
95.049000 37879208.000000
102.046300 1147005.600000
103.054100 5099449.500000
104.061700 118900.200000
105.044600 26000854.000000
106.041600 83381.400000
115.054100 338468.700000
118.041100 111583.100000
121.028200 1835423.800000
135.043600 161828.900000
147.043800 892746.000000

