>compound EQ62630776
>parentmass 360.05119999999994
>ionization [M+H]+
>formula C15H12F3NO4S
>rt 522.000000
>profile orbitrap
#smiles_iso CS(=O)(=O)C1=C(C=CC(=C1)C(F)(F)F)C(=O)C2=C(ON=C2)C3CC3
#smiles_can CS(=O)(=O)C1=C(C=CC(=C1)C(F)(F)F)C(=O)C2=C(ON=C2)C3CC3
#inchikey OYIKARCXOQLFHF-UHFFFAOYSA-N
#pubchem_id 84098
#mb_accession EQ348801,EQ348802,EQ348803,EQ348804,EQ348805,EQ348806,EQ348807,EQ348808,EQ348809

>ms2peaks
69.033500 541446.100000
172.012400 381152.200000
250.998400 143454912.000000
283.024700 1036866.800000
360.051300 21640056.000000

>ms2peaks
69.033500 1224578.000000
172.012300 491119.100000
250.998500 183691600.000000
263.055900 199820.300000
283.024800 1349317.200000

>ms2peaks
69.033500 1275061.200000
109.044700 239250.300000
132.018200 268595.600000
141.014400 174534.800000
144.018300 147744.200000
149.021000 735940.500000
156.991700 294464.200000
159.041700 1462743.600000
160.013100 433203.800000
164.998200 590107.200000
172.012800 630159.200000
173.020800 162091.000000
175.036600 250215.200000
176.998200 1472812.500000
177.015900 1155428.000000
179.013800 165553.000000
188.007900 299658.600000
189.016000 4118260.000000
192.993200 1860488.000000
206.018800 1058198.800000
219.980300 4393492.500000
220.988100 5314377.500000
250.998500 144845568.000000
283.024800 1084262.400000

>ms2peaks
53.002200 92147.600000
62.989900 840529.800000
69.033500 1474210.200000
78.984800 217356.200000
83.029200 78763.800000
97.010600 83571.600000
101.019800 644554.200000
108.002800 280801.400000
109.044900 2631412.000000
110.016100 307688.200000
112.031900 118275.400000
115.001300 623935.800000
115.035400 111280.600000
120.018200 605190.200000
121.026000 246303.800000
127.035500 953209.000000
129.014600 757347.800000
132.018200 3455671.000000
133.026000 1009827.600000
139.001300 115733.300000
139.035500 316084.000000
141.014700 1648044.600000
143.030400 106603.900000
144.017900 218528.100000
144.991900 618503.900000
145.026000 285415.000000
146.017400 160204.800000
147.007500 338455.300000
147.035300 235335.200000
147.041700 111088.100000
148.013000 173034.400000
149.021000 4822381.500000
156.992000 2271925.200000
159.041800 4176286.000000
160.013200 4848895.000000
161.021000 2501789.500000
162.028700 188606.200000
163.990300 720812.100000
164.998200 5135513.500000
166.023700 1043913.900000
167.031400 410687.000000
172.013100 2611774.000000
173.021000 934403.000000
174.028900 90222.600000
175.036700 1442338.100000
175.990400 97451.200000
176.008200 69745.200000
176.998200 4728353.000000
177.015800 2744956.200000
178.023800 852059.000000
179.013800 1269036.400000
188.008000 755141.200000
189.015900 11736537.000000
192.993200 6377536.000000
195.008600 174085.200000
195.980400 75336.700000
203.031900 116185.100000
203.985300 215453.500000
204.993200 199107.700000
206.018700 3302844.000000
219.008700 61349.500000
219.980300 20830980.000000
220.988000 10962102.000000
250.998500 59161524.000000
283.024900 420252.200000

>ms2peaks
50.015100 37410.600000
51.022900 65975.600000
53.002200 110656.500000
55.017800 121217.200000
57.013500 70200.500000
58.995000 39043.700000
59.966500 131269.000000
62.969900 147101.300000
62.990000 1505356.800000
63.022700 119283.000000
67.017900 29617.700000
68.979200 124722.000000
68.994600 75334.600000
69.033500 1023455.100000
70.021400 269817.800000
74.989900 34485.000000
75.004100 88168.500000
75.022900 149911.100000
77.019700 23103.400000
77.038500 25098.800000
78.984800 351476.800000
79.017800 469328.000000
83.029200 461558.000000
88.011900 27264.900000
89.038500 30562.500000
90.027800 30335.600000
90.999100 139759.000000
94.995000 277565.600000
95.010300 62155.600000
95.029100 22237.200000
95.049200 39049.600000
96.036900 28661.800000
97.008000 22420.200000
97.010800 299415.300000
98.015900 24679.400000
98.018900 115183.800000
100.011900 36967.800000
101.019800 3706432.800000
102.011200 25362.100000
103.035500 63669.900000
105.033700 25523.900000
105.044900 62598.600000
107.012800 21803.500000
108.002900 666186.400000
109.044900 6122788.500000
110.016000 753113.300000
112.031900 1052541.900000
113.019800 350742.000000
113.039900 29420.600000
113.993400 81192.600000
114.027800 249717.300000
115.001300 2508595.200000
115.035500 194008.900000
118.022500 117151.400000
119.010500 360318.700000
119.029300 99053.300000
120.018200 3431847.000000
121.026100 1087104.200000
123.005400 59472.900000
123.035400 91143.700000
125.019700 211088.100000
127.035500 2927211.200000
128.027000 102933.800000
129.014700 2292466.500000
130.022700 24959.500000
131.030600 98562.900000
132.018200 8346878.500000
133.026000 2089042.600000
134.033800 73142.800000
137.040000 28958.100000
139.001400 196272.900000
139.035500 524038.800000
141.014700 3667847.500000
141.025900 569134.900000
142.022600 251596.600000
143.010500 188798.600000
143.030500 753318.600000
143.984100 129951.100000
144.018300 1116857.600000
144.991900 1854632.400000
145.026100 969039.800000
146.017300 164648.400000
146.033900 91607.800000
147.007700 534571.200000
147.035600 615576.400000
147.041700 102512.800000
148.013100 396595.500000
149.021000 5507525.500000
151.990500 36490.300000
156.992000 4248362.000000
158.033900 36479.800000
159.041800 2531703.800000
160.013200 8945590.000000
161.021000 6847565.500000
162.028800 2105485.200000
163.036900 23906.900000
163.990300 4905592.000000
164.998200 7243775.500000
166.023800 1229104.600000
167.031400 468360.200000
171.007600 82250.800000
172.013200 5156346.000000
172.023700 341793.800000
173.021000 1132214.400000
173.032200 324878.900000
174.016500 502001.200000
174.029000 62992.300000
175.036700 1168243.000000
175.990300 332274.312500
176.007900 319975.000000
176.998200 3053476.500000
177.015800 1347813.900000
178.023800 1096224.100000
179.013800 1605504.900000
181.047200 59944.400000
183.041800 72090.700000
188.008200 315618.300000
189.015900 6680725.500000
192.026500 32528.900000
192.993200 4195411.000000
194.018600 120950.000000
195.008700 102618.700000
195.026700 111065.900000
195.980200 764836.400000
203.031300 37330.500000
203.985500 341252.200000
204.014500 110051.400000
204.993000 261210.000000
206.018800 1713392.800000
207.980100 32821.500000
219.980300 21343698.000000
220.988100 3856154.200000
235.003500 22742.500000
235.061000 21761.400000
238.048300 22100.900000
250.998700 8894660.000000
283.024900 36942.100000

>ms2peaks
50.015100 96644.300000
51.004100 35281.000000
51.022900 117696.300000
53.002300 189769.600000
53.038600 33851.400000
53.997400 21440.200000
55.017900 111439.800000
57.013400 162771.400000
58.995100 72501.800000
59.029200 29993.800000
59.966400 175697.400000
62.015200 16303.700000
62.970000 219729.400000
62.989900 1489422.500000
63.022900 591427.100000
65.038500 58737.000000
66.010100 20191.300000
66.046400 39777.800000
67.017700 18025.300000
67.989400 26540.200000
68.005800 16491.500000
68.979300 376925.300000
68.994600 151251.600000
69.033500 716135.900000
70.021300 859090.800000
70.995000 84555.900000
71.029100 101750.400000
73.008500 18023.100000
75.004000 259382.300000
75.022900 723579.900000
76.012000 22014.200000
77.002200 76899.500000
77.019700 79186.000000
77.038600 71685.300000
78.046400 26534.400000
78.984800 449569.400000
79.017800 1169568.900000
80.049400 29711.500000
81.013300 26253.100000
81.033500 31692.500000
81.987200 26172.100000
82.021300 78253.400000
83.029200 1380678.800000
88.012000 37812.900000
88.985600 23558.400000
89.019700 85407.700000
89.038700 179160.100000
90.027800 30965.000000
90.046500 61077.600000
90.999100 326207.000000
94.021400 195184.900000
94.995100 1736549.200000
95.010300 113928.800000
95.029200 95761.500000
95.049200 174607.200000
96.002800 77140.000000
96.037000 127224.800000
97.010800 365545.300000
97.044900 34591.200000
98.016000 32175.500000
98.018800 109344.800000
99.004000 22095.800000
99.023300 343358.100000
100.012000 106738.500000
101.019800 7995205.000000
101.993600 20446.200000
102.027600 75326.200000
103.035400 93958.800000
105.033500 32183.400000
105.044800 95515.800000
106.976300 37654.400000
107.010000 18827.900000
107.013100 17783.800000
107.029300 20129.900000
108.002800 882210.100000
109.044900 6214807.000000
110.016000 734576.900000
111.024200 92965.000000
112.031900 2574260.000000
113.019800 781994.900000
113.039700 78962.300000
113.993500 445113.400000
114.027600 518609.300000
115.001300 3174621.000000
115.035400 237639.400000
117.014500 18911.000000
118.022600 101979.200000
119.010400 819500.200000
119.029300 333806.800000
120.018200 5572407.000000
121.026000 1485122.400000
123.005500 19637.100000
123.035300 227929.900000
124.012000 35461.100000
125.019800 1832401.000000
125.993500 30412.800000
126.027800 27584.000000
127.035500 3645154.200000
128.006400 19911.800000
128.026900 195634.200000
128.062100 18247.900000
129.014600 2005636.500000
130.022500 84450.500000
131.030500 291121.100000
132.018200 9436810.000000
133.026000 2327459.000000
134.033900 215026.100000
137.039800 26989.100000
139.001300 220200.900000
139.035500 325907.000000
139.054300 82118.200000
141.014700 3935454.800000
141.025900 1660519.600000
142.022600 359507.200000
143.010500 1421527.600000
143.030400 1364522.900000
143.984000 332800.968800
144.018300 2526912.800000
144.991900 1527526.100000
145.026100 2072443.800000
145.983400 63866.600000
146.017200 105864.200000
146.033900 89074.500000
147.007700 291538.000000
147.025300 106451.600000
147.035400 661795.200000
147.041500 78195.100000
148.013100 260877.200000
149.021000 2380976.000000
151.035700 29410.500000
151.990400 88446.100000
155.060900 25756.600000
156.992000 3872060.500000
158.034300 60095.800000
159.005500 235592.700000
159.025500 139418.100000
159.041800 633505.900000
160.013200 6241688.500000
161.021000 5377484.000000
162.028800 4922111.000000
162.982500 97416.500000
163.036400 22705.000000
163.990300 8273606.000000
164.998200 3209524.800000
166.023800 329509.800000
167.031300 180947.800000
171.007800 21053.700000
172.013200 3340880.800000
172.024100 892592.200000
173.021100 542770.000000
173.032300 416044.900000
174.016400 1065319.500000
175.036600 313330.100000
175.990400 358923.200000
176.008100 787552.200000
176.998300 761810.200000
177.015900 419691.400000
178.023700 592141.100000
179.013800 700869.100000
183.041800 23288.400000
188.007800 27120.800000
189.015900 1443547.600000
192.026800 171108.400000
192.993100 886437.100000
194.018700 331155.600000
195.026300 263217.600000
195.980200 1206885.500000
203.985500 218203.100000
204.014500 337824.400000
204.993100 364122.200000
206.018800 318771.900000
219.980300 7233367.500000
220.988100 529101.100000
250.998700 492892.500000

>ms2peaks
50.015100 414336.600000
51.004100 152546.000000
51.023000 197162.300000
53.002300 287508.100000
53.038600 180157.100000
53.997500 64567.300000
55.017900 24334.600000
57.013600 829835.100000
57.987300 59112.900000
58.995000 101323.900000
59.029200 111523.900000
59.966500 320363.200000
61.007300 67223.100000
62.015100 326168.100000
62.970000 223079.800000
62.990000 1158734.500000
63.023000 3505320.200000
65.038600 122596.600000
66.046400 172096.600000
67.018000 17485.800000
67.989300 68754.500000
68.005700 96915.700000
68.979400 1459516.500000
68.994700 369924.600000
69.013600 94040.200000
69.033500 238063.700000
70.021400 2477507.200000
70.995000 106583.600000
71.029200 249489.400000
74.015100 479191.100000
75.004100 1288606.900000
75.022900 7072747.000000
77.002100 142840.900000
77.019700 111485.400000
77.038600 190191.500000
78.046400 153256.800000
78.984900 171877.700000
79.017900 1052466.100000
80.025700 92738.800000
80.049400 24417.100000
81.013600 311850.800000
81.033500 59096.400000
81.987200 166138.100000
82.002600 98656.500000
82.021300 206390.400000
83.029200 3397332.200000
84.002900 65691.200000
84.037100 28100.200000
86.970100 19841.500000
87.023000 61724.100000
87.977800 72558.700000
88.012000 143178.700000
88.985600 77302.800000
89.019900 62833.400000
89.038600 453625.100000
90.046500 76234.900000
90.999100 239342.300000
92.025700 57838.200000
92.979500 98871.400000
92.994800 54190.700000
93.013600 184959.600000
94.021400 2436027.500000
94.995100 5307691.000000
95.049200 527008.600000
96.002900 143622.400000
96.037000 228197.300000
97.008300 95925.400000
97.010900 432214.900000
97.044900 60069.100000
98.015100 220893.700000
99.004100 221121.900000
99.023000 1044419.900000
100.012100 190936.600000
101.019800 8327094.500000
101.993400 83238.900000
102.027600 36795.000000
102.046600 19706.900000
103.035500 34226.700000
105.013700 15998.000000
105.033900 18148.000000
105.044800 269721.400000
106.002500 33330.800000
106.976200 81558.900000
107.010200 31318.100000
107.029200 186992.600000
108.002900 689492.600000
109.044900 3397393.200000
110.016100 488130.600000
111.024300 121631.800000
112.012000 361759.400000
112.032000 1572528.800000
112.985700 168181.900000
113.019800 1030472.900000
113.039800 174581.100000
113.993500 1112281.200000
114.027700 473467.800000
115.001400 1561891.100000
115.035500 121098.100000
117.014300 17585.000000
118.002600 92300.400000
119.010500 1675318.900000
119.029400 193487.600000
120.018200 3093360.800000
121.026100 488491.600000
123.004700 59599.900000
123.035400 439778.000000
124.012200 205147.800000
124.018300 18572.300000
125.019900 8593958.000000
125.993400 119209.000000
127.035500 2425902.500000
128.007100 76452.000000
128.026900 172791.900000
128.062100 69641.400000
129.014400 373693.300000
130.022700 75370.000000
131.030400 176602.500000
132.018300 5978132.000000
132.992100 200050.900000
133.026100 576214.800000
133.045200 65630.600000
134.033900 139332.500000
136.967000 23548.100000
138.027600 25136.700000
139.001300 155799.200000
139.035500 17420.200000
139.054200 58873.300000
140.049500 30552.200000
141.014800 1798428.900000
141.026000 1793686.000000
142.022800 239941.500000
143.010500 7275928.500000
143.030300 831243.300000
143.984100 441883.300000
144.018300 2960522.800000
144.991900 242737.400000
145.026100 1914077.000000
145.983400 155720.200000
146.033300 17352.500000
147.007100 68196.500000
147.025200 19293.200000
147.035400 220755.500000
148.013300 22641.400000
149.021000 228968.200000
151.035500 64861.400000
154.065500 20633.400000
156.992000 1662565.500000
158.034000 23458.300000
159.005200 134055.300000
159.025300 162092.900000
160.013200 813420.500000
161.021000 836940.800000
162.028900 3028044.000000
162.982500 194529.100000
163.990300 1873052.500000
164.998200 215206.000000
165.026500 21250.000000
169.026000 33414.400000
172.013200 382165.400000
172.024400 492339.600000
173.021000 34677.200000
173.032300 67081.200000
174.016400 785788.800000
174.982700 103322.600000
175.036700 18762.300000
175.990500 100088.800000
176.008200 1099536.400000
177.015900 175371.400000
179.013800 72223.800000
189.015600 27848.300000
192.026900 107954.900000
194.018700 194675.200000
195.026600 228346.600000
195.980400 174904.900000
203.985500 20589.000000
204.014200 202456.600000
204.993300 157175.800000
219.980500 131898.300000

>ms2peaks
50.015200 920689.300000
51.004200 364078.200000
51.023000 435848.700000
53.002300 399045.500000
53.038600 226125.700000
53.997500 29176.400000
57.013600 1922215.800000
57.987200 105572.300000
58.995000 108494.700000
59.029200 189009.800000
59.966500 348053.300000
61.007300 195687.200000
62.015200 949239.800000
62.990000 636314.700000
63.023000 5967178.000000
65.002200 119543.800000
65.038700 122809.200000
66.046400 142646.900000
68.005700 767358.700000
68.979400 2305878.000000
68.994700 879754.200000
69.013500 162374.300000
69.987200 160946.200000
70.021400 2284433.000000
70.995100 85351.700000
71.029200 261824.100000
73.008500 21885.300000
74.015200 2717124.800000
75.004100 3086553.000000
75.022900 13834071.000000
77.002300 61545.300000
77.019800 181357.100000
77.038600 344513.200000
78.046500 146627.500000
79.017900 401439.700000
80.005600 24748.100000
80.025800 24950.300000
81.013600 954837.500000
81.987200 199048.300000
82.002500 86825.000000
82.021400 225719.100000
83.029200 2818041.000000
84.002800 69220.300000
84.037100 86598.900000
86.970100 106395.100000
87.023000 259273.300000
87.977800 146690.500000
88.012000 279835.300000
88.985700 102493.800000
89.002400 23783.200000
89.020000 22568.000000
89.038600 449385.000000
90.999100 81406.700000
92.025700 88542.400000
92.979500 201926.200000
92.994800 242301.700000
93.013600 456447.300000
94.021500 4826370.000000
94.995100 3125514.000000
95.049200 515449.800000
96.002800 20077.500000
96.037000 182555.800000
97.008400 32432.900000
97.010900 335294.500000
98.015200 599384.200000
99.004200 1061105.400000
99.023000 738840.800000
100.012000 109647.100000
100.018000 18802.700000
101.019900 3545516.000000
101.993500 80567.100000
102.046400 23273.000000
105.013600 122756.800000
105.044800 359258.000000
106.002600 132215.000000
106.976200 22694.200000
107.029200 395388.400000
108.002900 298914.000000
108.037300 24787.600000
109.010800 83108.200000
109.044900 773092.800000
110.016000 107436.400000
111.023800 23412.400000
112.012000 406899.000000
112.032000 274999.700000
112.985700 408552.200000
113.019800 479570.600000
113.039700 169756.300000
113.993500 422754.600000
114.027700 212295.600000
115.001500 404148.000000
115.054500 33483.000000
116.994900 66041.000000
117.013900 18598.100000
118.002600 212375.600000
119.010400 982763.300000
120.018300 488627.800000
121.026000 51776.100000
123.004200 407146.300000
123.035400 419245.300000
124.012200 154029.800000
124.018500 69427.100000
125.019900 9019221.000000
125.993600 60560.000000
126.046800 57988.400000
127.035500 610964.000000
128.062200 88729.400000
129.014500 49591.700000
130.023000 44947.800000
131.030300 115045.300000
132.018300 1770616.000000
132.992000 168172.000000
133.025800 17750.400000
133.044900 68441.200000
134.040100 62911.200000
136.966800 28425.800000
136.985700 15330.600000
138.027700 58313.500000
139.001600 33631.200000
139.054400 90878.400000
140.049700 25082.500000
141.014800 414435.100000
141.026000 721033.000000
142.022900 23336.000000
143.010500 7810612.000000
143.984400 112253.600000
144.018300 619566.800000
145.026100 529088.200000
145.983200 62896.900000
147.035700 26750.800000
149.020700 29109.900000
151.035400 30955.600000
152.061900 18749.800000
154.065800 18301.000000
155.060600 22669.100000
156.992000 597940.600000
159.025700 17312.200000
160.013300 31179.500000
161.021000 83387.000000
162.028900 490848.200000
162.982600 85518.400000
163.990300 91502.900000
165.026500 20012.400000
169.026200 62179.900000
172.024600 34493.700000
174.016800 98177.800000
174.982600 30213.500000
176.008200 250523.800000
177.016100 21995.700000
194.018900 18112.100000
195.026500 51165.200000
204.014300 20377.700000

>ms2peaks
50.015200 1531004.100000
51.004200 468567.100000
51.023000 561294.200000
53.002200 510583.500000
53.038600 131443.100000
53.997500 121645.600000
55.017900 16750.200000
57.013600 2627966.500000
57.987300 116493.800000
58.995000 85670.200000
59.029200 161894.400000
59.966500 301734.600000
61.007300 573041.700000
62.015200 1897483.200000
63.023000 5103792.000000
65.002200 345117.300000
65.038600 160053.600000
66.010000 20566.000000
66.046400 73083.000000
68.005700 1903037.800000
68.979400 2485590.000000
68.994700 1484764.200000
69.013600 167750.100000
69.987200 122096.300000
70.021400 1364377.000000
70.995000 57461.800000
71.029200 127101.500000
74.015100 6999211.500000
75.004100 4592380.500000
75.022900 13893213.000000
77.002200 61522.900000
77.019700 28187.400000
77.038600 259640.300000
78.046400 106933.400000
78.984800 15165.900000
79.018000 141605.500000
80.005700 19443.300000
80.049600 15548.200000
81.013600 1408206.400000
81.987200 143921.800000
82.002500 72128.700000
82.021300 172323.900000
83.029200 1245085.800000
84.002900 17637.900000
84.037000 17112.400000
86.015100 141553.468800
86.970000 125596.200000
87.023000 522553.200000
87.977800 147161.400000
88.011900 191852.400000
88.985600 23170.500000
89.002400 114278.500000
89.038600 331557.200000
90.998900 20389.900000
92.025700 71033.000000
92.979500 263871.700000
92.994800 542191.200000
93.013600 837114.800000
94.021400 3113109.800000
94.995100 942329.100000
95.010400 79930.300000
95.029300 111032.500000
95.049200 291369.000000
96.037000 104115.800000
97.010800 107041.500000
98.015200 914960.800000
99.004200 1750224.000000
99.023000 364142.500000
100.011900 21548.500000
100.018200 20745.500000
101.019800 1035322.900000
101.993600 27097.000000
102.046400 73098.000000
105.013600 316302.100000
105.044900 220596.000000
106.002500 92347.400000
106.976200 31664.300000
107.029200 369495.600000
108.003000 95171.600000
108.036800 26695.800000
109.010600 21541.800000
109.045000 153817.000000
110.016000 15547.600000
112.012100 158062.300000
112.031900 53151.200000
112.985700 313832.300000
113.019700 144311.000000
113.039300 105824.800000
113.993500 26263.900000
114.027500 56343.000000
115.001300 85692.800000
115.054500 17381.400000
116.994900 171539.600000
117.013700 67930.100000
118.002600 98072.500000
119.010500 362693.700000
120.018100 24393.600000
123.004200 948449.100000
123.035400 185289.100000
124.012000 19382.100000
124.018300 112033.200000
125.019900 4368719.500000
125.993300 25065.400000
126.046600 67044.000000
127.035500 102547.900000
131.029800 76372.700000
132.018200 359614.700000
132.991900 62209.100000
133.045000 30180.200000
134.040200 14076.600000
136.967400 16414.300000
136.985600 16258.800000
138.027800 30649.400000
141.014700 63601.100000
141.025900 211099.400000
143.010500 3729669.500000
144.018100 52853.400000
145.026100 92468.900000
149.020500 17394.500000
151.035400 54292.600000
152.062200 14564.900000
156.991800 174460.300000
162.028200 25415.800000
175.035900 16186.000000

