>compound EQ62770318
>parentmass 470.03389999999996
>ionization [M+H]+
>formula C19H17Cl2N3O5S
>rt 576.000000
>profile orbitrap
#smiles_iso CC1=C(C(=NO1)C2=C(C=CC=C2Cl)Cl)C(=O)NC3C4N(C3=O)C(C(S4)(C)C)C(=O)O
#smiles_can CC1=C(C(=NO1)C2=C(C=CC=C2Cl)Cl)C(=O)NC3C4N(C3=O)C(C(S4)(C)C)C(=O)O
#inchikey YFAGHNZHGGCZAX-UHFFFAOYSA-N
#pubchem_id 3041
#mb_accession EQ366501,EQ366502,EQ366503,EQ366504,EQ366505,EQ366506,EQ366507,EQ366508,EQ366509

>ms2
100.021100 30776.400000
114.037200 156089.200000
160.042700 18926902.000000
211.966400 156452.200000
253.977200 455656.300000
283.003700 327175.300000
310.998600 15184684.000000
442.039000 462865.800000
470.034000 692497.200000

>ms2
56.049500 22038.800000
69.044700 47256.400000
70.065000 24791.500000
72.044400 82074.700000
87.026300 70803.700000
100.021500 21734.900000
100.039300 404954.700000
114.037300 2346421.200000
126.037200 61898.200000
128.052800 26007.600000
142.032200 106679.800000
160.042700 15007004.000000
185.987600 38572.500000
195.971600 277380.200000
197.987300 939708.800000
211.966600 2860086.200000
213.982600 41457.400000
224.997900 85054.500000
237.981900 32531.900000
239.997900 3070816.000000
253.977100 836284.900000
255.992800 768042.800000
264.992900 68765.500000
267.008800 415957.500000
268.988200 92839.200000
283.003800 110505.800000
292.988200 59401.400000
310.998600 7181965.500000
442.039100 63800.600000

>ms2
53.038500 28558.600000
54.033800 13498.900000
56.049400 20860.700000
58.994900 25312.400000
68.049500 16117.800000
69.044700 68133.100000
70.065100 90020.100000
72.044400 128788.300000
85.010700 17383.400000
87.026300 470567.800000
96.044400 27610.300000
98.060100 62115.400000
99.044100 23470.300000
100.039300 164751.900000
108.983900 19645.700000
114.037200 9871995.000000
115.021000 13622.500000
126.037100 41371.600000
128.052900 50983.800000
142.032200 474316.000000
144.047800 14652.900000
144.960600 17467.600000
156.959900 12599.600000
160.042700 7723816.000000
170.976500 24739.200000
171.971400 58850.700000
183.971500 200077.500000
185.987300 183495.800000
189.021700 19584.800000
190.029000 47588.400000
195.971700 1081631.600000
197.987200 5254183.500000
203.037100 21579.400000
209.987200 252324.000000
211.966600 4901152.000000
212.998500 19434.900000
213.982200 590398.000000
222.982400 38307.500000
224.998200 301360.900000
227.997800 23901.800000
231.032000 19270.800000
237.982100 189348.300000
239.997800 1555842.900000
240.993300 43626.000000
253.976900 67094.100000
255.992700 1211566.900000
264.993000 134071.700000
267.008700 229886.968800
268.988000 171066.200000
283.003700 15161.800000
292.988000 24563.400000
310.998500 308895.900000

>ms2
53.038600 110884.300000
54.033900 38568.100000
55.054200 17790.100000
56.049500 13200.600000
58.995000 85886.200000
62.005900 15879.300000
68.049500 22653.100000
69.044700 52553.700000
70.065100 355967.400000
71.049000 15514.300000
72.044400 34843.500000
75.026300 13584.900000
81.044700 44566.000000
81.057300 15250.300000
82.065100 16063.800000
84.983900 13668.600000
85.010600 57122.900000
87.026300 1683321.000000
96.044400 21358.300000
98.060100 130454.900000
99.044100 53075.800000
100.039200 19542.600000
108.983900 17928.700000
113.029400 13502.000000
114.037200 10923978.000000
115.021200 19463.200000
116.052900 14209.400000
116.070700 14805.500000
126.037100 30682.300000
126.055000 33635.200000
127.041400 24562.500000
128.052700 33199.700000
136.007800 28271.800000
142.032200 397987.300000
144.960700 23241.400000
147.994900 31457.800000
151.018300 52602.900000
155.060500 35614.000000
156.960700 212243.600000
158.976200 30287.300000
160.042700 1621025.400000
162.010700 56047.300000
162.971200 13238.700000
163.018300 54741.800000
164.001100 14151.900000
170.976200 97378.500000
171.971500 295914.600000
172.955200 12704.600000
172.966900 228087.500000
177.033900 17181.500000
180.020900 13067.800000
183.971700 1572615.800000
185.987200 319450.700000
190.029100 78618.100000
192.020800 12817.800000
195.971700 1334288.100000
197.987300 4096628.200000
201.982200 18672.700000
209.987300 500315.700000
210.982400 16590.100000
211.966600 3419745.000000
212.998200 45747.000000
213.982200 890813.800000
215.998400 24197.600000
219.032000 20098.700000
224.998100 101272.900000
227.997600 20348.000000
231.031800 15696.900000
237.982200 112353.500000
239.997900 85976.900000
240.993200 15649.800000
255.992700 181779.700000
264.993000 19393.600000
267.009000 37027.200000
268.988200 42276.400000

>ms2
53.038600 380444.600000
54.033900 52607.200000
55.054300 52295.000000
58.995000 212085.700000
59.966500 12726.600000
62.005900 30696.900000
68.049500 19040.900000
69.044800 68890.700000
70.065100 849993.800000
70.994800 12185.000000
71.049100 54900.800000
72.044400 11285.600000
72.080900 23168.400000
72.983900 13941.000000
75.023000 14173.700000
75.026300 21728.100000
80.049500 17160.700000
81.033600 13603.600000
81.044800 77661.700000
81.057400 28812.600000
82.065200 17511.600000
84.983900 73209.700000
85.010700 132056.600000
87.026300 3261773.200000
94.065200 11794.800000
96.044400 15485.500000
98.060100 115946.800000
98.999500 15564.300000
99.026400 13474.500000
99.044100 50024.800000
108.984000 157023.900000
112.979000 13431.700000
113.029600 27917.600000
114.037300 8094646.000000
120.960700 30483.600000
122.999700 19123.000000
123.995000 64851.200000
126.033600 11277.300000
126.994700 26195.600000
127.041700 107058.400000
128.002400 43526.000000
128.049500 21986.500000
132.960600 25983.000000
136.007600 93212.800000
142.032300 180785.600000
144.960600 125317.000000
145.968400 16683.900000
147.994900 208381.800000
149.002800 150178.400000
150.010800 19463.300000
151.018400 176881.300000
154.040200 38761.800000
155.060500 73622.400000
156.960800 1311686.400000
157.955700 24570.600000
158.976400 86227.100000
159.971600 12562.500000
160.042800 227417.500000
162.010600 62404.700000
162.971300 86203.600000
163.006000 20837.500000
163.018400 116468.400000
164.001100 97770.900000
164.026300 21863.100000
166.005500 61641.800000
167.013600 18718.100000
170.976400 106032.300000
171.971600 620125.700000
172.966900 1228704.000000
177.034200 16834.300000
178.005300 19232.200000
183.971700 2681524.500000
185.987300 446071.500000
189.021500 53203.300000
192.021200 17747.600000
195.971700 1169472.200000
197.987300 1852232.500000
201.982400 41483.500000
209.987400 339095.000000
210.982200 23337.900000
211.966600 1358899.000000
212.998200 29170.100000
213.982200 376547.900000
215.997800 32930.600000
222.982400 41249.000000
237.982200 15864.700000
258.043000 12907.300000

>ms2
50.015100 14745.800000
51.023000 11846.100000
52.018200 4134.300000
53.038600 569024.100000
53.997500 3718.900000
54.033900 57910.700000
55.054300 67519.000000
56.049500 6655.300000
57.987100 4247.600000
58.995000 336157.800000
59.966500 24798.300000
62.005900 41110.400000
63.022900 6758.000000
65.038600 7217.700000
67.041700 4297.900000
68.049400 16317.900000
69.044700 59168.400000
70.065200 1113249.000000
70.994900 12093.600000
71.049100 49166.100000
72.002700 4009.700000
72.080800 25265.400000
72.983900 56944.500000
73.010700 6360.300000
74.015100 56849.700000
75.022900 19904.800000
75.026200 32232.400000
77.002100 11682.600000
79.029200 4036.400000
80.049500 31037.600000
81.033600 14543.600000
81.044800 83339.800000
81.057300 34187.500000
82.065100 19449.900000
82.944800 3748.000000
84.983900 102781.300000
85.010700 205771.800000
86.006100 4982.100000
86.018500 6942.800000
86.963300 272844.000000
87.026300 2940263.200000
88.018100 5292.200000
89.038600 5192.400000
93.044700 23213.800000
94.065100 13638.400000
95.060500 4827.200000
95.072800 4235.300000
96.984100 26586.600000
98.060100 50103.200000
98.999600 29788.400000
99.023000 21872.800000
99.026000 5683.500000
99.044100 28574.000000
100.018200 28837.700000
100.021400 5203.900000
102.046500 4482.500000
104.049400 4664.300000
105.036800 4188.400000
105.044800 10732.200000
106.945000 15414.400000
108.984000 691073.400000
109.991800 14195.400000
112.021700 7369.500000
112.978900 26189.400000
113.029400 17938.100000
114.037300 3694558.500000
116.049500 7540.100000
118.028800 12358.000000
120.960700 40929.000000
120.983900 6430.200000
121.991700 4055.700000
122.999600 49140.900000
123.995000 154201.600000
126.033700 33791.100000
126.994600 43327.400000
127.041700 135358.000000
128.002400 53396.000000
128.049500 50048.400000
129.044700 4956.200000
132.960700 64835.600000
134.999800 14574.900000
135.994900 14642.200000
136.007600 117499.800000
139.006000 4070.200000
140.049300 4493.500000
142.032300 38979.600000
144.960700 265874.700000
145.968200 5224.500000
146.060000 15885.200000
147.994900 465076.900000
149.002800 431499.200000
150.010800 15990.600000
151.018400 188013.800000
154.005400 12819.300000
154.040100 42486.100000
155.000800 25435.400000
155.060500 48509.700000
156.960800 2399474.200000
157.956000 64465.300000
158.976400 75604.100000
159.971500 12943.000000
160.042700 23572.800000
161.002700 15424.900000
162.010700 41583.100000
162.971300 125206.400000
163.005900 36712.700000
163.018300 83783.000000
164.001100 162675.900000
164.026300 17146.300000
166.005600 95617.600000
167.013400 36761.400000
169.076100 5009.300000
170.963700 20638.500000
170.976400 41442.600000
171.971600 435847.100000
172.967000 1598139.800000
178.005300 14376.700000
180.021300 6140.300000
183.971700 1505455.800000
184.979400 7435.000000
185.987300 193118.500000
189.021500 34229.600000
189.982100 7460.100000
190.029000 4384.500000
192.021000 6481.700000
195.971700 499750.300000
197.987300 434083.300000
201.982200 11862.600000
203.037100 7434.100000
209.987300 82554.400000
211.966700 254144.500000
212.998500 4501.300000
213.982400 69826.500000
215.997700 15855.000000
258.043300 3801.300000

>ms2
50.015100 12201.700000
51.022900 20623.500000
52.018300 23509.900000
53.002200 43401.700000
53.038600 636739.900000
53.997500 5082.200000
54.033900 52664.900000
55.054300 67198.800000
56.049600 13058.100000
57.987200 21341.200000
58.995000 551230.900000
59.966500 47636.400000
61.007200 3983.000000
62.005900 53715.100000
62.015100 19066.700000
63.023000 119890.100000
64.018200 18879.500000
65.038700 21401.000000
67.041700 15476.400000
68.013100 7045.400000
68.049500 7019.000000
69.044800 46242.900000
70.065200 686771.000000
70.995000 14830.300000
71.049200 18003.400000
72.002800 3801.500000
72.080800 5221.600000
72.984000 443414.500000
74.015100 788055.600000
75.022900 146276.000000
75.026300 17924.300000
76.018100 15198.900000
77.002200 19606.800000
78.033800 3148.200000
79.029100 3944.500000
80.049500 57236.800000
81.033600 5129.800000
81.044700 52333.500000
81.057300 17720.400000
82.065200 6469.300000
82.945000 61190.400000
83.976100 6665.900000
84.984000 68305.200000
85.010700 124497.300000
86.005900 6071.600000
86.015100 11373.000000
86.963300 493792.100000
87.026400 935038.700000
88.018200 87950.800000
89.038600 55122.600000
90.046500 5375.800000
92.025700 20544.500000
92.049500 4910.700000
93.044800 14011.200000
94.065200 16405.000000
95.049300 4722.100000
96.984100 259947.400000
97.979300 53836.600000
97.991800 11472.100000
98.015100 5697.300000
98.060100 7131.200000
98.999700 47915.200000
99.010600 3509.800000
99.023000 67073.800000
100.018300 132940.600000
100.021500 14782.600000
100.030700 15345.800000
101.025900 4479.600000
101.038600 2958.800000
102.034100 3824.700000
104.049600 6618.600000
105.045000 4310.400000
106.945000 135685.500000
108.984000 2088526.800000
109.991800 84890.900000
112.018100 13792.800000
112.021700 15691.800000
112.978900 11707.600000
113.025900 12327.400000
113.029500 6910.800000
114.033900 852317.800000
114.037400 368505.500000
115.041800 12517.500000
115.054200 6565.000000
116.049400 20399.300000
118.028800 31704.800000
118.945200 4941.100000
120.960800 18421.600000
120.984000 57702.300000
121.979300 32872.700000
121.991900 46050.500000
122.999700 74512.900000
123.995000 220300.900000
126.033900 18502.900000
126.994600 19233.900000
127.041700 90255.300000
128.002300 24097.400000
128.049500 40531.500000
129.044700 23236.300000
130.945100 37554.400000
132.044400 13784.300000
132.960700 125199.600000
134.999500 3302.500000
135.995200 24156.100000
136.007600 65461.900000
137.002700 5643.400000
139.006000 14495.400000
140.049500 12978.600000
142.005500 19170.400000
144.960700 178830.400000
145.968500 6885.500000
147.994900 346902.000000
149.002800 420691.900000
150.010800 5693.800000
151.018600 39463.000000
154.005400 4950.100000
154.040100 17649.300000
155.000900 5057.300000
155.060400 7240.100000
156.960800 1885308.800000
157.956000 62437.900000
158.976300 23985.300000
161.002800 6040.800000
162.010800 13667.200000
162.971200 52658.400000
163.018400 6648.000000
164.001100 91372.000000
164.026200 6094.000000
166.005400 32139.700000
167.013400 14603.700000
168.068100 4056.500000
170.963900 14961.300000
171.971500 32766.300000
172.967000 527569.900000
183.971800 115840.500000
185.987400 12698.800000
189.021600 4237.100000
195.971800 27304.000000
197.987400 4545.900000

>ms2
50.015100 35530.400000
51.023000 31083.900000
52.018300 33507.700000
53.002200 34233.400000
53.038600 330159.700000
53.997500 10743.600000
54.033900 43516.400000
55.017900 6250.900000
55.054300 31927.700000
56.049500 15456.800000
57.057400 3887.300000
57.987200 28228.600000
58.995000 522254.700000
59.966500 67017.600000
59.990300 5577.800000
60.984100 11258.300000
61.007300 45130.700000
62.005900 32294.900000
62.015100 99729.400000
63.023000 302345.200000
64.018200 61470.200000
65.002200 3536.200000
65.038700 25975.300000
66.033900 4831.100000
67.041700 6745.300000
68.013000 3438.000000
68.049500 6599.500000
69.044800 27410.600000
70.065200 186976.200000
70.995000 29388.200000
71.976100 4862.700000
72.002800 3573.100000
72.984000 817673.100000
74.015100 2067734.800000
75.022900 411029.700000
76.018100 24870.800000
76.030800 4584.300000
77.002200 13885.600000
77.038500 5170.000000
78.033900 3507.100000
79.017800 3805.000000
79.029000 3425.800000
80.049500 52178.900000
81.033500 5272.500000
81.044800 22923.400000
81.057300 3091.300000
82.065100 2811.400000
82.945000 145868.500000
83.976200 42953.800000
84.984000 71513.000000
85.007500 5999.700000
85.010700 52074.000000
86.006000 5525.000000
86.015100 58480.100000
86.963300 120205.300000
87.010500 51133.100000
87.023000 236464.300000
87.026300 110654.400000
88.018200 231042.500000
89.002300 16491.300000
89.038600 70492.000000
90.034100 3701.200000
90.046500 10384.100000
92.025700 18032.700000
92.049600 2532.600000
93.044800 4186.600000
94.065300 5874.900000
95.049300 10133.000000
95.976100 21535.900000
96.044300 3684.000000
96.984100 415678.300000
97.979300 117802.500000
97.991900 15982.300000
98.015200 32579.600000
98.999600 23288.900000
99.010500 38721.100000
99.023000 60680.600000
100.018300 154012.000000
100.021600 22459.500000
100.030700 15989.900000
101.026100 3706.500000
102.033800 4185.700000
102.046600 2789.300000
105.044800 11827.200000
106.945000 245817.500000
107.976100 5506.700000
108.984100 1248213.100000
109.991900 97016.000000
112.018200 16719.700000
112.021700 14561.100000
113.026100 15118.500000
113.029500 3349.200000
113.038700 10585.000000
114.033900 880537.900000
115.041700 3430.700000
115.054400 5617.400000
116.049700 5137.600000
118.028700 25867.100000
118.945200 11195.400000
120.984100 60011.500000
121.979400 23920.200000
121.991900 66417.900000
122.999700 38022.200000
123.010600 4342.500000
123.995000 92501.400000
127.041700 22325.300000
128.002400 15636.100000
128.049600 16246.900000
129.044800 16158.300000
130.945100 52360.000000
132.044500 18291.900000
132.960700 67642.200000
135.995100 12657.500000
136.007600 12261.700000
140.049500 14668.700000
142.005500 5377.300000
144.960800 22885.500000
145.016200 2950.800000
147.995000 72140.000000
149.002800 97738.400000
153.982000 31174.700000
154.040100 4384.400000
156.960800 498190.500000
157.956000 16808.800000
164.001100 15182.000000
166.005500 4719.400000
170.963800 2763.900000
172.966900 54764.400000

>ms2
50.015200 47084.500000
51.023000 26443.000000
52.018200 56292.000000
53.002200 42006.700000
53.038600 139355.700000
53.997400 3642.600000
54.033900 30422.900000
55.017800 4254.300000
55.054300 11686.300000
56.049500 11567.300000
57.057400 3227.100000
57.987200 51801.600000
58.995000 439094.700000
59.966500 70046.400000
59.990200 5594.100000
60.984000 19763.600000
61.007300 157228.800000
62.006000 16335.900000
62.015100 213236.900000
63.023000 482457.800000
64.018200 100977.000000
65.002200 12742.400000
65.038600 34112.600000
66.033800 3974.100000
67.041700 15467.400000
68.049600 3433.700000
69.044800 17342.600000
70.065200 46385.200000
70.995000 38638.000000
71.976200 14772.600000
72.002900 3493.700000
72.984000 931229.300000
74.015100 2913151.800000
75.022900 565829.600000
76.018200 52596.100000
76.030700 14425.500000
77.002100 5970.700000
77.038600 3161.700000
78.033800 4459.200000
79.017900 16333.000000
79.029100 3362.000000
80.049500 36995.300000
81.044700 3706.000000
82.945000 167425.000000
83.976200 116270.800000
84.984000 87310.100000
85.007400 26449.500000
85.010700 12270.700000
86.015100 139714.400000
86.963300 21057.800000
87.010400 87747.400000
87.023000 392437.200000
88.018200 324266.700000
89.002300 61143.600000
89.038600 44085.500000
90.033800 4834.900000
92.025800 4788.100000
93.044900 5029.200000
94.065300 4910.300000
95.049400 5707.500000
95.976200 56870.100000
96.044500 2968.100000
96.984100 264223.400000
97.979300 80619.700000
98.015200 52336.100000
98.999700 11240.400000
99.010400 63893.200000
99.023000 22417.900000
100.018300 109708.300000
100.021600 17188.200000
106.945000 198319.000000
107.976100 20803.400000
108.984000 387755.200000
109.991800 33432.000000
112.018300 15122.600000
112.021800 4164.300000
113.038700 12526.500000
114.033900 386748.800000
115.041900 5345.200000
118.028900 5036.900000
118.945100 4622.900000
120.984000 33609.700000
121.979400 13405.700000
121.991800 34159.000000
122.999800 12567.000000
123.010500 4123.600000
123.995100 16657.800000
127.041900 6146.600000
128.002400 10588.100000
128.049500 2970.000000
130.945100 25293.400000
132.961000 16845.700000
145.016100 3112.500000
149.002600 7830.300000
153.981900 15782.300000
156.960800 68726.800000

