>compound EQ62163593
>parentmass 134.07130000000004
>ionization [M+H]+
>formula C7H7N3
>rt 162.000000
>profile orbitrap
#smiles_iso CN1C2=CC=CC=C2N=N1
#smiles_can CN1C2=CC=CC=C2N=N1
#inchikey HXQHRUJXQJEGER-UHFFFAOYSA-N
#pubchem_id 25902
#mb_accession EQ279801,EQ279802,EQ279803,EQ279804,EQ279805,EQ279806,EQ279807,EQ279808,EQ279809

>ms2
56.049500 1206.800000
72.044400 7684.500000
134.071400 8172.400000

>ms2
56.049500 1107.600000
70.065200 390.100000
72.044400 6663.600000
134.071200 7330.000000

>ms2
56.049500 2298.900000
70.065100 446.100000
72.044400 9360.200000
79.054300 1240.200000
106.065300 1388.500000
134.071400 6289.800000

>ms2
56.049500 3631.300000
70.065100 345.100000
72.044400 10318.600000
79.054300 1997.200000
95.049200 656.300000
106.065300 2265.200000
116.056800 393.500000
134.071600 5443.800000

>ms2
53.038600 481.800000
55.017800 258.800000
56.049600 3451.800000
65.038600 459.000000
70.065200 578.000000
72.044500 5973.800000
79.054200 4005.300000
95.049200 1559.600000
105.044800 608.000000
106.065300 2063.500000
107.049000 332.700000
116.057000 328.600000
134.071700 2239.900000

>ms2
53.038500 1264.200000
56.049500 2373.100000
65.038500 377.400000
70.065100 402.300000
72.044400 3988.000000
79.054300 4868.700000
95.049300 1946.500000
105.044800 1875.500000
106.065100 1444.400000
107.049300 286.600000
134.071200 1326.000000

>ms2
51.023000 645.700000
53.038500 670.400000
55.018000 307.600000
65.038500 1372.800000
72.044400 497.800000
78.033800 285.500000
79.054300 2511.800000
89.038700 362.700000
95.049200 3565.300000
105.044800 2111.700000
106.065300 598.200000

>ms2
50.015100 268.000000
51.023000 2432.300000
53.038600 567.700000
63.022900 360.200000
65.038500 1215.400000
77.038600 499.200000
78.033800 367.900000
79.054300 643.700000
89.038700 500.000000
95.049100 2175.100000
105.044900 1296.400000

>ms2
50.015100 405.900000
51.023000 2966.600000
53.038600 450.800000
63.023000 349.600000
65.038600 444.900000
77.038500 279.200000
89.038500 314.600000
95.049200 1555.300000
105.044700 658.500000

