>compound EQ62965432
>parentmass 358.15610000000004
>ionization [M+H]+
>formula C19H20FN3O3
>rt 264.000000
>profile orbitrap
#smiles_iso CN1C[C@@H]2C[C@H]1CN2C3=C(C=C4C(=C3)N(C=C(C4=O)C(=O)O)C5CC5)F
#smiles_can CN1CC2CC1CN2C3=C(C=C4C(=C3)N(C=C(C4=O)C(=O)O)C5CC5)F
#inchikey QMLVECGLEOSESV-RYUDHWBXSA-N
#pubchem_id 71335
#mb_accession EQ366401,EQ366402,EQ366403,EQ366404,EQ366405,EQ366406,EQ366407,EQ366408,EQ366409

>ms2
314.166400 37867.500000
358.156100 3625618.500000

>ms2
68.049400 3447.300000
70.065100 13574.000000
79.054300 3564.800000
81.057300 3082.800000
84.080900 5110.800000
94.065200 11689.600000
96.080800 153175.500000
219.093100 15231.100000
231.093000 12993.500000
245.108700 32227.800000
253.120200 3415.500000
257.108600 37574.700000
271.124200 34727.900000
283.124400 145541.300000
285.140100 12082.700000
294.160100 41438.700000
314.166500 370017.600000
340.145400 132398.000000
344.141100 10861.000000
358.156300 2863122.500000
360.159400 4607.900000

>ms2
58.065100 2431.400000
67.054200 6297.000000
68.049500 21271.100000
70.065100 48763.300000
79.054200 17606.200000
80.049500 4454.100000
81.057300 16377.700000
82.065100 159424.100000
83.072900 28718.000000
84.080800 17490.000000
94.065200 53336.700000
96.080800 212413.700000
97.076000 2390.900000
97.088700 5623.000000
178.053900 3927.100000
187.066700 2319.000000
189.082500 2638.700000
196.063300 2084.600000
202.066300 6601.800000
203.061800 7656.600000
204.069500 2878.500000
204.081900 2193.500000
214.090100 3185.300000
215.061700 19818.900000
215.098100 2161.300000
216.069600 9610.300000
217.077300 5518.700000
218.048900 14596.000000
218.085300 4158.200000
219.093000 25580.500000
227.098500 4621.300000
229.077400 30936.700000
229.113900 2794.100000
231.093000 33837.500000
233.108200 2117.100000
236.059100 5863.500000
237.102500 14627.200000
241.077200 4756.700000
242.085200 14332.100000
243.093100 3068.300000
245.108700 61486.400000
251.118100 2341.900000
252.113600 2779.100000
253.121200 10303.500000
254.048700 5485.200000
255.056500 49695.200000
256.064100 4063.000000
257.108500 61250.100000
263.082700 2535.800000
263.118200 3505.900000
269.109100 3302.300000
271.124200 58440.500000
273.066800 9202.700000
273.126800 3227.300000
275.082600 3089.500000
277.098400 4476.100000
279.100400 3024.500000
281.108500 11200.400000
283.124300 192924.900000
285.140100 8685.300000
289.097800 3763.700000
294.160100 28643.400000
298.134800 5544.000000
301.098700 4232.300000
312.150300 4870.300000
314.166500 41260.000000
315.113800 2426.700000
338.150400 11994.200000
340.145400 126570.400000
344.140900 10406.900000
358.156200 2082343.900000
359.159600 2802.900000
360.159600 4411.600000

>ms2
53.002200 795.700000
53.038600 1761.600000
54.033900 914.900000
55.054300 4302.600000
56.049500 2854.500000
57.057300 4854.000000
58.065200 3334.000000
65.038600 2749.000000
67.041700 14757.900000
67.054200 9140.400000
68.049500 33386.500000
69.070000 3363.900000
70.065200 81087.300000
74.096400 1993.900000
75.047900 7452.800000
79.054200 17701.200000
80.049500 16670.500000
81.057400 36755.200000
82.065100 682514.600000
83.072900 125453.900000
84.080800 22170.700000
94.065200 62231.900000
95.072900 1028.400000
96.080800 112808.600000
97.076100 6625.700000
97.088600 4938.400000
105.044700 879.200000
147.047900 783.500000
147.060700 858.800000
148.055700 2256.500000
149.050800 822.300000
154.065400 3101.300000
155.060500 1677.900000
160.055900 825.300000
161.063700 2243.200000
162.058900 1032.500000
162.071200 709.800000
163.066800 689.200000
164.051000 725.000000
168.068400 2421.700000
169.076200 2155.900000
172.055800 2920.500000
173.051200 768.300000
173.063600 1708.800000
174.058900 931.200000
174.071400 6961.400000
175.066600 3443.200000
175.079400 1825.800000
176.050700 1748.100000
176.074400 976.100000
178.053900 9612.400000
179.061800 2155.300000
181.076300 1053.600000
182.060100 794.500000
183.092000 1624.300000
184.039500 2513.900000
184.063200 1867.200000
184.075700 1643.400000
185.063900 980.500000
186.059000 2963.900000
186.071500 2362.600000
187.042800 1015.000000
187.066700 8639.900000
188.050600 2012.400000
188.074700 3720.900000
188.087300 2771.100000
189.045900 6770.000000
189.082500 5890.000000
189.094900 4045.200000
190.053800 4854.200000
190.066100 1011.100000
191.061600 4188.600000
193.076800 2678.600000
195.032800 1669.600000
195.092200 726.200000
196.063400 3553.100000
197.047200 1829.600000
197.071300 2591.300000
197.107600 10159.600000
198.071400 986.100000
199.067100 1112.700000
200.050600 4440.400000
200.074600 2770.500000
201.058600 8520.200000
201.082400 3976.900000
202.066400 37268.800000
202.090300 2203.300000
203.061600 26681.200000
203.097800 4639.900000
204.069500 3576.400000
204.081900 2957.500000
205.077100 2157.100000
207.092000 2508.500000
209.071400 2793.500000
209.107300 1797.400000
211.067100 776.600000
211.086700 1068.300000
212.074900 2504.500000
212.087000 3663.200000
213.082700 4521.600000
213.095200 2723.200000
214.054100 1849.200000
214.066800 3876.900000
214.090200 10051.200000
215.025700 7458.300000
215.061800 40188.000000
215.097900 6363.800000
216.069700 11549.300000
216.081000 810.200000
216.105800 1020.800000
217.041300 3456.000000
217.077600 10359.300000
218.048900 35362.300000
218.084800 4070.200000
219.093000 10155.600000
221.070700 2154.900000
221.107000 869.700000
222.078900 3255.400000
223.050500 830.800000
225.082500 2448.400000
225.102700 1731.700000
226.090500 1819.400000
227.061500 4849.700000
227.098100 9258.600000
228.052900 742.300000
228.069500 2611.600000
228.082100 1771.900000
229.077400 41523.500000
229.113900 2175.400000
230.048700 865.700000
230.085500 4931.700000
231.056800 4025.300000
231.093000 29435.000000
234.056500 2818.500000
235.051800 1057.400000
235.064200 1022.700000
235.087100 1780.000000
236.059300 18332.100000
237.102400 17555.600000
238.097900 8763.400000
239.061300 810.800000
239.098000 6451.800000
240.070300 3442.100000
240.105600 5802.700000
241.077300 12766.600000
241.088800 788.400000
241.113000 1080.600000
242.085200 14456.000000
242.096600 854.500000
243.056700 6914.300000
243.092900 5625.600000
244.064400 780.300000
244.100500 975.300000
245.072600 1776.900000
245.108700 16364.500000
248.094800 854.100000
248.118500 721.900000
249.102100 691.000000
251.118300 827.400000
252.113500 4653.700000
253.077800 4330.300000
253.121200 4164.700000
254.048700 11937.600000
254.085100 840.300000
255.056600 225964.400000
256.064400 22647.900000
257.072200 2933.300000
257.093100 1856.100000
257.108300 14928.800000
259.087700 987.100000
261.067200 2238.500000
263.082900 5725.500000
263.118300 2897.500000
264.077100 3890.400000
264.149900 2276.000000
267.092700 5117.300000
268.100800 3043.200000
269.109200 3144.500000
271.124100 28249.800000
272.059600 3252.900000
273.067100 57613.400000
274.074900 6329.000000
275.082600 9808.200000
277.098600 8558.500000
278.092600 2534.100000
279.100300 7209.900000
281.108400 10567.200000
282.088400 691.300000
283.124200 33841.300000
284.083200 2370.700000
285.140000 1119.000000
287.082500 2613.000000
289.098300 7002.900000
295.087200 936.900000
296.155500 2745.000000
298.099000 4593.100000
298.135200 7107.400000
301.098500 7017.800000
312.150900 6701.700000
315.113900 3848.900000
318.124800 2036.100000
320.139600 1035.200000
338.150100 11827.100000
340.145400 28085.500000
344.141400 3086.300000
358.156400 522944.500000

>ms2
53.002200 4791.700000
53.038700 3144.000000
54.033800 1755.500000
55.041600 1094.400000
55.054200 7582.200000
56.049500 4253.000000
57.057300 4927.900000
58.065100 1964.000000
60.024500 1809.900000
65.038600 8697.100000
66.046400 1792.500000
67.041700 45351.000000
67.054200 11054.900000
68.049500 33191.000000
69.069900 2644.100000
70.065100 84642.600000
75.047900 4317.900000
79.054300 12631.100000
80.049500 32185.500000
81.057300 41976.000000
82.065100 818498.900000
83.072900 107326.600000
84.080800 25880.900000
94.065200 59211.100000
95.049200 2866.800000
96.080800 58711.100000
97.076000 7223.400000
97.088700 1855.200000
105.044900 2082.500000
115.054300 857.400000
128.049800 1691.200000
128.062200 1058.500000
129.070000 2023.500000
133.044900 2332.600000
135.048100 3610.000000
136.055900 2494.200000
141.057300 2226.900000
142.065400 1636.000000
145.065100 1984.700000
146.052800 3244.700000
146.060000 823.400000
147.048000 2032.800000
147.060500 4588.900000
148.055700 5886.200000
149.051200 2787.000000
151.043100 871.100000
154.065200 12229.000000
155.060300 6542.200000
155.073100 3354.500000
156.068300 1830.500000
156.081300 1496.000000
158.060200 900.500000
159.048200 2187.000000
160.043400 3015.600000
160.055700 5741.800000
161.051100 2568.600000
161.063500 4280.800000
162.035200 2493.000000
162.058800 5075.600000
162.071600 2882.600000
163.066800 1980.800000
164.050600 4795.600000
166.065800 1789.300000
167.060700 4014.100000
167.073100 1683.500000
168.068300 7424.600000
168.080800 937.900000
169.052300 869.300000
169.076100 5034.800000
172.055800 21150.400000
173.051200 2894.400000
173.063700 11247.000000
174.035100 1736.500000
174.059400 4194.500000
174.071400 13757.100000
175.066900 6558.900000
176.050800 1716.700000
176.074500 2963.700000
178.042800 1610.000000
178.053900 11402.500000
178.066100 8224.700000
179.038100 1955.000000
179.061000 4522.400000
180.080900 935.300000
181.076000 3604.300000
182.060500 2383.400000
182.084000 2243.700000
183.091600 3224.500000
184.039400 2296.800000
184.056300 943.500000
184.062900 3499.800000
185.063900 5034.700000
185.071000 1295.900000
186.059000 7651.900000
186.071400 5792.000000
187.030200 3985.100000
187.043300 4004.800000
187.066800 38820.700000
188.014500 2146.100000
188.050800 3383.600000
188.074700 4730.800000
188.087400 2786.900000
189.046000 8141.200000
189.082300 6288.400000
189.095100 2550.000000
190.053900 5864.000000
191.061700 5112.200000
192.069100 2233.500000
192.080900 2877.100000
193.076200 5951.800000
193.089000 989.000000
194.083800 2351.900000
195.032800 903.100000
195.055300 3081.200000
195.091800 1821.100000
196.063400 6618.600000
197.047700 2005.600000
197.070800 3474.500000
197.107500 6369.700000
198.071600 2670.800000
199.066800 13001.500000
200.050700 6288.900000
200.074500 7080.300000
201.058500 15903.900000
201.082300 6069.400000
202.030300 1968.300000
202.054000 2568.600000
202.066400 37362.100000
202.090000 4693.200000
203.061600 31404.400000
203.098000 3311.500000
205.053800 3592.000000
205.077200 2870.800000
206.084400 1706.700000
207.092200 2923.700000
209.071200 2594.700000
209.107500 931.300000
211.066200 3544.100000
211.087600 1068.500000
212.074800 5154.400000
212.087300 12261.700000
213.045700 885.000000
213.082600 11830.200000
213.094700 3102.700000
214.066600 3147.800000
214.090400 13091.500000
215.025300 35647.900000
215.061800 50325.100000
215.097600 4704.500000
216.069700 9143.800000
216.082300 1819.400000
217.040900 10572.700000
217.077400 9322.400000
218.048800 23567.000000
219.092400 5240.400000
220.040800 1637.300000
221.048400 1049.100000
221.071300 3718.800000
221.107700 2533.900000
222.043500 1982.600000
222.079800 831.500000
223.050400 927.400000
223.086500 991.400000
224.074800 2064.900000
225.082400 2681.800000
226.053500 2373.200000
226.090400 2861.400000
227.061700 12246.600000
227.098000 4906.800000
228.053900 1799.900000
228.069500 2867.200000
228.082200 1856.300000
229.041100 1059.900000
229.077300 16506.700000
230.048500 2174.000000
230.085300 3690.100000
231.056300 2077.500000
231.093100 13224.000000
233.036000 15608.600000
233.048000 2513.900000
234.056500 2104.500000
235.051400 6352.100000
235.064100 2561.700000
235.087000 2446.600000
236.059200 9716.600000
237.102200 10328.100000
238.098000 5722.500000
239.061500 1701.900000
239.097900 11121.200000
240.070000 1049.300000
240.081500 850.100000
240.105900 3622.700000
241.077200 13963.200000
241.114100 1043.400000
242.085500 3367.200000
243.056400 5002.100000
243.092800 3613.400000
245.072600 1785.200000
245.108900 2117.100000
246.056600 974.900000
247.052000 2813.600000
248.118500 989.000000
252.113100 3478.400000
253.077400 2776.200000
254.048300 7915.100000
255.056600 246739.000000
256.064400 13540.000000
257.072400 2220.800000
257.108700 1929.700000
261.067400 2236.800000
263.083200 863.800000
264.076900 2906.700000
267.092500 4537.200000
268.100100 1617.000000
269.072200 1754.600000
269.108100 915.700000
271.124300 6903.100000
273.067200 68332.300000
274.075100 3661.000000
275.082800 5938.100000
277.098900 3541.900000
278.092400 2182.300000
279.100700 2827.600000
281.109100 1908.200000
282.088300 912.100000
283.124400 1966.300000
284.082700 2283.000000
287.083200 3130.900000
289.098300 3106.600000
298.098600 3527.900000
301.098500 2774.300000
315.114300 1804.000000
340.146500 2106.400000
358.156400 30660.000000

>ms2
53.002200 12590.200000
53.038600 4134.800000
54.033900 2976.100000
55.041700 1845.800000
55.054300 12942.500000
56.049500 4068.100000
57.057300 2618.900000
58.065100 1736.000000
60.024500 730.300000
65.038600 13039.800000
66.046400 2050.600000
67.041700 79358.800000
67.054300 8816.800000
68.049500 24338.200000
69.057300 740.900000
69.069800 1888.000000
70.065200 68519.700000
74.096400 900.000000
75.047900 711.900000
79.041700 1038.300000
79.054300 7240.800000
80.049500 44603.500000
81.057400 34363.400000
82.065100 664316.200000
83.072900 52259.100000
84.080800 22677.000000
93.057300 681.600000
94.065200 40823.600000
95.049200 3898.600000
95.060600 691.500000
96.044500 4835.100000
96.080800 27141.000000
97.076100 5415.000000
105.044900 2387.000000
107.029300 945.300000
109.044900 1621.400000
115.041700 915.300000
115.054200 3713.300000
116.049500 3023.900000
117.057400 2292.800000
122.040100 2788.800000
126.046600 806.100000
127.054500 3500.300000
128.049600 3808.000000
128.062100 2174.500000
129.044900 2093.200000
129.070200 741.900000
130.065300 1588.400000
132.024300 1805.700000
133.044900 10493.000000
134.040100 2423.500000
134.060300 940.300000
135.047900 8326.300000
136.055900 6148.200000
140.049500 5530.800000
141.057500 3653.600000
142.065300 1035.800000
143.060800 756.400000
144.044400 1924.700000
145.032300 679.500000
145.064800 3394.800000
146.040100 5564.200000
146.047000 789.900000
146.052700 11650.300000
146.059300 935.500000
147.048000 2097.300000
147.060600 3971.300000
148.055800 11030.100000
149.051200 4784.700000
150.035000 3146.900000
151.042900 3565.400000
152.049800 4626.800000
153.057700 919.300000
154.065200 18487.300000
155.060500 8901.700000
155.072900 3238.200000
156.068300 2176.000000
156.081000 1039.000000
158.040200 2351.100000
158.060100 1021.900000
159.048200 6546.600000
159.060700 938.100000
160.043700 3648.400000
160.055800 17002.700000
161.027400 2252.300000
161.051300 7549.800000
161.063600 6262.200000
162.035300 4390.300000
162.059100 8176.900000
162.071400 2441.600000
163.042900 2192.300000
163.066900 2360.000000
164.050600 6967.500000
165.070200 3300.500000
166.052900 795.200000
166.065500 2012.000000
167.060400 10586.100000
167.072900 2113.300000
168.068400 16211.300000
168.080700 1838.300000
169.076100 4094.000000
170.060200 4093.700000
171.047800 1899.100000
171.055500 1838.400000
172.055800 64009.000000
173.051600 9102.100000
173.063600 14612.300000
174.035100 6480.600000
174.059100 6300.000000
174.071300 10565.500000
175.042900 1646.500000
175.066900 5318.300000
176.050700 2443.100000
176.074600 857.500000
177.082100 800.400000
178.042700 3365.300000
178.054200 6782.000000
178.066300 17874.100000
179.037800 4180.700000
179.060600 14972.900000
180.044800 3452.300000
180.068400 2229.500000
180.081000 2215.400000
181.076100 5145.600000
182.039800 991.400000
182.059700 2950.300000
182.084300 1995.000000
183.055000 762.900000
183.068000 779.800000
183.091900 991.400000
184.055800 2540.300000
184.063400 2741.900000
184.075600 1489.000000
185.051000 941.600000
185.063700 7094.100000
185.071400 2486.000000
186.059000 9205.000000
186.071500 5330.200000
187.030300 12876.700000
187.043000 4765.700000
187.066800 57818.800000
188.014300 12107.900000
188.038000 765.000000
188.051000 3828.300000
188.074400 2757.700000
189.046000 9220.000000
189.082400 2552.700000
190.053900 2703.200000
190.066500 808.700000
191.061900 3745.300000
191.073100 2740.300000
192.045700 1871.900000
192.068600 2493.300000
192.080400 3037.500000
193.053800 1793.300000
193.076300 7444.300000
194.083800 2165.900000
195.019200 2290.300000
195.031800 772.200000
195.055400 3488.200000
195.092000 1847.100000
196.062800 2919.200000
197.050800 2327.300000
197.070600 3444.900000
197.107700 808.900000
198.058700 4408.600000
198.071600 3699.900000
199.066700 26324.900000
200.050700 11624.200000
200.074600 7503.700000
201.058600 11667.800000
201.082300 5586.500000
202.030100 1676.900000
202.054100 2528.700000
202.066400 17499.400000
202.090300 4750.000000
203.061700 25343.200000
204.033000 2035.100000
205.053600 4624.900000
205.076500 2771.700000
206.025000 1015.400000
206.083900 2558.200000
207.055900 2648.300000
207.091700 1884.600000
208.086200 1484.900000
211.066800 7052.700000
212.074900 4852.700000
212.087100 11809.400000
213.046200 1036.300000
213.082400 9991.700000
214.054600 766.900000
214.066600 3160.700000
214.090400 4826.800000
215.025300 39577.200000
215.061800 38460.100000
216.069600 2993.700000
217.041000 16622.400000
217.077200 3537.900000
218.048800 8887.100000
218.083800 697.500000
219.091900 4431.100000
220.040800 2641.500000
221.048200 861.600000
221.071000 4140.400000
221.107500 848.200000
222.044100 692.500000
222.070900 743.900000
223.050600 861.200000
223.066600 968.400000
223.086800 1713.400000
224.074900 2889.700000
225.082300 3117.100000
226.053300 4268.500000
227.061700 16765.100000
227.097900 3087.500000
228.053300 1991.500000
228.069200 1712.600000
229.077200 6892.600000
230.085000 1008.300000
231.092700 3438.200000
233.036000 17380.400000
233.048100 1830.500000
234.056200 723.300000
235.051600 8873.900000
235.086700 1655.800000
236.059300 2878.100000
236.082500 932.800000
237.102500 2359.500000
238.097600 2490.600000
239.061500 2003.200000
239.098200 7641.000000
240.070100 1607.200000
241.077100 6175.100000
243.056600 2008.200000
244.064400 861.200000
247.051900 3627.300000
253.077300 2852.500000
254.049000 999.900000
255.056600 102072.700000
256.064600 978.100000
259.051400 905.300000
273.067200 29678.600000
275.082400 748.500000
278.092800 1846.900000
298.098300 701.000000

>ms2
50.015000 872.200000
51.023000 2398.000000
53.002200 50733.600000
53.038600 6665.100000
53.997500 697.800000
54.033900 5628.700000
55.041700 2978.400000
55.054300 17056.500000
56.049500 4985.500000
57.013500 676.000000
57.057300 2646.800000
58.065200 521.900000
60.024500 471.400000
63.022900 1658.300000
65.038600 18239.800000
66.046400 2917.400000
67.041700 143834.000000
68.049500 13696.600000
69.057300 579.700000
69.069900 458.400000
70.065100 29354.000000
74.096400 1687.200000
75.022900 4937.100000
76.018200 663.200000
77.038500 1554.200000
78.033900 2514.700000
79.041600 1494.100000
79.054200 2332.100000
80.049500 59155.300000
81.057300 19261.000000
82.065100 398758.200000
83.029100 3373.700000
83.072900 8176.000000
84.037000 1773.900000
84.080800 10590.300000
87.022900 662.400000
88.018300 549.200000
89.038600 4462.200000
90.046500 1706.800000
91.054300 986.500000
93.013500 680.200000
93.057300 1688.600000
94.065200 17361.900000
95.029200 673.300000
95.049200 6607.400000
95.060400 670.600000
96.037000 2172.800000
96.044400 6084.200000
96.080800 6550.500000
97.044900 835.800000
99.022900 2951.600000
100.018200 488.600000
102.034000 461.200000
102.046500 543.400000
103.041700 550.700000
103.054300 1806.100000
104.049600 838.100000
105.013600 711.100000
105.044800 4074.100000
107.029200 12421.800000
108.024500 1697.800000
108.037000 3467.900000
108.044500 966.100000
109.032300 776.400000
109.044800 2368.400000
110.040300 506.400000
112.018300 1692.900000
113.038600 4815.000000
114.034000 5442.800000
114.046500 815.700000
115.041700 4004.700000
115.054300 10835.800000
116.049500 4461.100000
117.057200 2981.300000
118.021400 678.400000
118.028700 1640.900000
119.049300 2097.900000
120.024600 2254.200000
120.037000 6123.100000
121.032300 823.800000
121.044900 1491.500000
122.040100 6364.900000
123.035400 1697.800000
123.047800 3107.700000
125.038700 5891.100000
126.034100 3338.800000
126.046400 4244.000000
127.041700 2809.300000
127.054300 5579.700000
128.049500 7774.200000
128.062000 3224.900000
129.044700 8251.900000
129.057400 692.000000
130.065300 1923.900000
131.029100 506.600000
132.024500 17166.100000
132.037200 1852.500000
132.044500 1959.300000
132.057000 1884.800000
133.032300 5478.100000
133.044900 37230.900000
134.040200 12259.100000
134.060000 2427.500000
135.047900 12885.300000
136.055900 2564.000000
139.029200 6365.500000
139.054500 2327.000000
140.049500 27842.600000
141.044700 1885.200000
141.057400 8336.700000
142.028900 1983.000000
142.052500 1997.000000
142.065100 1895.400000
143.060500 2604.600000
144.044600 3381.000000
145.032300 2555.600000
145.044900 5603.000000
145.065000 2193.800000
146.040200 9815.900000
146.052700 19905.600000
146.059900 3267.200000
147.035400 2967.300000
147.048000 6813.000000
147.060300 914.400000
148.055800 11443.200000
149.051200 2383.900000
149.063700 500.900000
150.035100 11099.900000
150.047000 613.500000
151.042600 4480.300000
152.049800 17579.100000
152.062300 1761.000000
153.044900 5269.300000
153.057400 3002.400000
154.040100 5562.700000
154.065200 18172.900000
155.060400 13433.300000
155.073200 755.700000
156.067900 481.300000
156.080900 689.600000
157.039600 6250.300000
157.045200 2914.400000
157.052300 2044.200000
158.040200 9132.300000
158.059900 3832.900000
159.048200 15834.900000
159.055300 2535.600000
159.060800 1962.600000
160.043400 3078.000000
160.055700 15239.400000
161.027300 3894.900000
161.051300 8086.600000
161.063700 4282.600000
162.035200 4093.100000
162.046300 2165.100000
162.058900 3475.400000
163.042400 681.200000
163.055500 3758.800000
163.066500 848.600000
164.050400 7872.900000
165.045100 2357.500000
165.069900 6343.400000
166.052700 5831.900000
166.065200 3859.300000
167.024100 3110.200000
167.060500 12774.300000
167.073000 2001.300000
168.044600 761.800000
168.056000 2449.000000
168.068300 11481.800000
168.080500 726.900000
169.051700 458.200000
169.076200 2898.800000
170.040400 847.200000
170.052900 1755.000000
170.060000 10361.900000
171.048200 7038.600000
171.054800 1022.100000
172.055800 88604.500000
173.051100 21768.900000
173.062900 3979.600000
174.035100 7763.900000
174.059400 4581.800000
174.071100 4091.700000
175.042800 553.600000
175.066800 2298.200000
176.050500 1712.600000
177.057700 574.200000
178.030100 636.000000
178.042500 1803.100000
178.052900 1702.500000
178.066000 7442.400000
179.037800 4868.300000
179.060600 19099.800000
180.044600 2278.000000
180.055600 4682.900000
180.068100 890.600000
180.080500 742.500000
181.075900 3581.700000
182.040100 2081.100000
182.047500 648.800000
182.059800 1595.600000
182.071600 413.400000
183.054800 558.000000
183.061400 497.000000
183.068100 644.600000
184.055800 3480.500000
184.062900 454.200000
185.050700 1945.800000
185.063600 8082.100000
185.071300 1754.600000
186.058900 7396.300000
186.071400 3882.000000
187.030300 10542.900000
187.043200 1773.100000
187.066700 14142.300000
188.014400 7329.300000
188.050500 3923.300000
189.045900 7215.000000
189.058600 497.400000
189.082100 490.500000
190.065800 895.800000
191.061100 959.900000
191.072900 5271.700000
192.045600 3352.300000
192.068300 3617.300000
192.080900 1833.500000
193.053600 877.900000
193.076100 5349.100000
194.060800 599.400000
195.019400 935.200000
195.055200 3371.500000
196.055700 806.500000
197.051200 5318.400000
197.070900 1472.800000
198.058700 4396.600000
198.072200 1267.100000
199.066700 11202.700000
200.050600 5838.300000
200.074400 815.700000
201.058500 2648.800000
202.054400 795.000000
202.065700 1723.800000
203.037600 1678.900000
203.061700 5015.500000
205.053800 986.500000
205.076700 2952.600000
206.024800 1815.300000
206.084000 774.500000
207.055300 931.800000
207.092000 528.900000
208.087300 530.400000
210.059100 1499.400000
211.066800 3764.100000
212.074600 712.900000
212.086900 888.600000
213.082400 865.400000
214.066300 720.100000
215.025200 4073.800000
215.061700 6069.200000
217.041000 3069.500000
217.076900 608.200000
218.084100 849.600000
221.071100 1594.300000
223.066600 2015.200000
224.073900 653.800000
226.053100 1572.800000
227.062000 1637.900000
233.035800 1971.600000
235.051100 2088.000000
239.061700 537.000000
239.098700 501.400000
255.056600 2654.200000

>ms2
50.015100 3227.900000
51.023000 5001.100000
52.018300 804.000000
53.002200 53007.500000
53.038600 7801.800000
53.997500 1788.800000
54.033900 6114.300000
55.017900 556.100000
55.041700 3502.400000
55.054300 10187.300000
56.049500 3959.700000
57.013500 7942.700000
57.057300 440.900000
58.065100 559.200000
60.024500 400.300000
61.007200 437.700000
62.015100 1791.800000
63.023000 6348.200000
64.018200 670.600000
65.038600 16391.300000
66.046400 2770.600000
67.041700 152533.000000
68.049500 7322.600000
69.057400 620.900000
70.008800 421.700000
70.021200 916.600000
70.065200 8161.100000
74.015100 4771.900000
74.096300 491.300000
75.022900 22548.000000
76.018000 857.900000
76.030700 723.600000
77.038500 2959.900000
78.033800 2150.100000
78.046300 717.100000
79.041700 3999.600000
79.054200 685.800000
80.049500 44763.700000
81.013600 7184.500000
81.057400 7991.400000
82.065200 158299.600000
83.029100 8882.300000
84.037000 2046.800000
84.080800 3104.800000
85.007200 404.400000
86.015200 2610.500000
87.010500 620.300000
87.023000 4571.000000
88.018200 4665.000000
88.030800 2270.000000
89.038600 9251.000000
90.033900 645.600000
90.046500 1585.000000
91.054200 706.300000
92.025700 350.500000
93.013700 5577.000000
93.057400 729.400000
94.021300 1675.400000
94.065300 5795.600000
95.049200 7650.100000
96.037100 3754.300000
96.044400 4065.100000
96.080700 794.400000
98.015100 1557.200000
99.023000 16246.000000
100.018200 7585.800000
100.030800 2204.200000
101.038700 2551.500000
102.033800 2590.800000
102.046500 2927.900000
103.041600 609.600000
103.054200 808.800000
104.049500 1605.400000
105.013600 6074.800000
105.044800 6256.100000
106.008700 2256.000000
106.021400 2834.000000
107.029200 27441.900000
108.024400 2537.500000
108.037100 4494.000000
109.028300 2392.500000
109.032100 1406.400000
109.044800 2510.000000
112.018300 3678.800000
112.031900 1496.900000
113.038700 12666.500000
114.033900 12112.700000
114.046300 1856.600000
115.041700 4193.600000
115.054300 13355.200000
116.049700 2947.600000
117.057400 1442.800000
118.021300 2051.000000
118.028600 692.400000
119.029300 711.900000
119.049300 2351.500000
120.020600 698.800000
120.024500 1925.300000
120.037100 12855.000000
121.032200 759.500000
121.044900 863.300000
122.040100 3756.700000
123.023700 628.300000
123.035500 3170.100000
123.047800 1762.000000
124.018300 695.900000
125.038700 14126.300000
126.034100 6455.300000
126.046500 7279.000000
127.041800 5721.900000
127.054300 4569.000000
128.049500 8768.300000
128.062100 2915.300000
129.044800 11083.700000
130.039900 1586.200000
130.065100 633.100000
131.029200 5209.500000
132.024500 27234.500000
132.037000 1625.700000
132.044400 2542.300000
132.056900 1759.500000
133.032300 7014.700000
133.044900 30709.300000
134.040100 8721.600000
134.060000 2240.500000
135.047900 6071.900000
136.031900 839.700000
137.039100 1317.100000
138.011400 720.300000
138.034000 2366.400000
139.029200 8229.900000
139.041600 1582.800000
139.054300 5330.300000
140.049600 27434.700000
141.044700 606.900000
141.057300 5342.700000
142.028900 859.000000
142.052800 767.500000
142.065000 467.100000
143.049300 6768.700000
143.060700 546.700000
144.037200 6040.400000
144.043700 2840.000000
145.032200 2112.600000
145.044900 4621.500000
145.064700 1560.400000
146.040200 10352.500000
146.052700 11929.200000
147.035400 1851.600000
147.048200 3264.400000
148.055800 5628.600000
149.051000 417.200000
150.034900 8081.500000
150.046800 829.200000
151.042200 5316.200000
152.049800 13083.700000
152.062200 849.100000
153.045000 7554.000000
153.057600 2899.000000
154.040100 7895.400000
154.065200 8984.200000
155.060500 8084.800000
157.039600 2568.500000
157.044900 3751.700000
157.052200 1519.000000
158.040200 11957.900000
158.060000 605.200000
159.047900 9937.000000
159.055200 2072.300000
159.061000 626.900000
160.043200 1854.400000
160.055900 4038.600000
161.027100 692.600000
161.051700 1117.700000
161.064200 444.700000
162.035300 1290.600000
162.046500 499.700000
162.058800 527.800000
163.055200 2905.500000
164.050400 5943.600000
165.044800 718.300000
165.070100 2861.700000
166.052800 6339.300000
166.065000 1889.200000
167.023800 554.300000
167.060600 3944.200000
167.072900 741.400000
168.044400 944.000000
168.056500 1601.300000
168.068300 2646.100000
169.051800 408.100000
170.040100 398.800000
170.052600 1642.700000
170.060000 6181.900000
171.048100 6820.200000
171.054800 831.700000
172.055800 31071.800000
173.051200 14233.300000
174.034900 946.400000
174.058600 648.300000
177.045400 450.700000
177.057200 819.300000
178.052900 493.500000
178.065100 1410.800000
179.037600 1977.800000
179.060700 5381.800000
180.055200 583.100000
181.076200 707.300000
182.039900 1630.700000
183.061000 874.800000
184.055800 3884.200000
185.050900 808.800000
185.063500 2370.300000
186.058600 2686.600000
187.030700 550.200000
187.042700 405.400000
187.066500 1752.900000
188.050300 2063.700000
191.073200 2787.900000
192.045400 771.000000
192.068000 2386.200000
193.076500 850.800000
195.055500 606.000000
196.054900 787.000000
197.051200 4242.600000
198.058900 729.800000
199.067100 578.700000
200.050600 1994.600000
203.038300 613.300000
203.061300 435.800000
209.063400 665.600000
210.058400 424.800000

>ms2
50.015100 7363.900000
51.023000 11725.700000
52.018100 2127.700000
53.002200 53028.100000
53.038600 8717.300000
53.997500 2809.000000
54.033900 9461.600000
55.017900 630.300000
55.041700 2696.800000
55.054300 7611.600000
56.049500 2219.000000
57.013600 18663.900000
58.065300 433.600000
61.007300 3357.900000
62.015100 6401.400000
63.023000 17371.700000
64.018200 1762.000000
65.038600 12926.600000
66.046400 917.500000
67.041700 125866.500000
68.049500 4658.000000
70.008700 3762.800000
70.021300 3056.300000
70.065200 3269.900000
74.015100 22016.100000
75.022900 46305.900000
76.018200 4383.400000
76.030800 3062.900000
77.038500 3447.100000
78.033900 1686.600000
78.046500 840.200000
79.041700 2477.700000
80.049500 33111.000000
81.013500 15999.000000
81.057300 4002.300000
82.065200 64734.400000
83.029200 12460.800000
84.037100 1860.000000
84.080800 545.700000
85.007300 3280.200000
86.015100 5554.300000
87.010500 2799.300000
87.023000 11031.300000
88.018200 7148.900000
88.030700 3522.500000
89.038600 12818.800000
90.034000 740.000000
90.046500 1885.200000
91.054400 672.000000
92.025700 1383.900000
93.013600 10650.900000
94.021400 4656.600000
94.065300 1864.000000
95.029300 629.200000
95.049200 7978.100000
96.037000 4617.800000
96.044400 3865.300000
97.044800 416.300000
98.015200 9352.700000
99.023000 37539.400000
100.018200 15697.800000
100.030800 3801.000000
101.038600 2842.700000
102.034000 1816.700000
102.046500 2573.300000
103.054400 629.800000
104.049600 795.400000
105.013600 12606.500000
105.044800 6430.100000
106.008800 4217.100000
106.021300 3257.000000
107.029200 35175.100000
108.024500 2959.300000
108.037000 2890.000000
108.044800 384.600000
109.028500 2468.000000
109.045000 740.700000
110.040200 396.000000
112.018100 4506.000000
112.031700 833.500000
113.038600 18262.900000
114.033900 12878.000000
114.046700 2108.300000
115.041800 2190.000000
115.054300 7401.900000
116.049600 1781.400000
117.057500 605.600000
118.021500 2589.200000
118.028800 756.800000
119.029200 503.500000
119.049400 1852.800000
120.020700 884.300000
120.024800 773.400000
120.037000 12954.500000
121.032500 664.600000
121.045100 520.300000
122.040100 2783.900000
123.035500 2418.700000
124.018200 4126.700000
125.038700 11140.000000
126.034000 4431.700000
126.046400 7570.200000
127.041700 4076.900000
127.054500 2628.300000
128.049700 4405.700000
128.062300 574.100000
129.044800 7429.000000
130.040300 764.200000
131.029200 7395.000000
132.024500 17518.200000
133.032600 2609.300000
133.044900 17389.900000
134.040200 3745.300000
134.059900 394.000000
135.048100 2054.800000
136.031800 607.300000
137.039000 660.500000
138.011500 822.000000
138.034000 2660.900000
139.029400 2359.300000
139.041700 1882.600000
139.054400 5469.500000
140.049600 14173.200000
141.044900 528.000000
141.057500 2084.800000
142.064900 467.300000
143.049500 4183.700000
144.037200 8528.500000
144.044800 519.400000
145.032400 1958.000000
145.045100 2295.400000
145.065100 445.400000
146.040200 4835.700000
146.047600 546.300000
146.052600 4518.200000
146.060700 342.000000
147.035700 1487.400000
147.048100 810.800000
148.055900 639.100000
150.034900 3155.900000
150.047000 2240.400000
152.049900 4673.600000
152.062600 572.200000
153.044800 5172.800000
153.057500 840.400000
154.040000 6033.300000
154.065500 1609.900000
155.060300 2712.200000
157.045300 5990.400000
157.052200 1288.100000
158.040300 6879.300000
158.060200 436.200000
159.048300 3814.900000
163.054700 2707.800000
164.049900 5597.700000
165.045000 666.700000
165.070300 494.800000
166.052600 3537.400000
166.065500 745.800000
167.060600 668.800000
168.044400 761.800000
168.068600 423.800000
170.040400 1815.800000
170.053000 1480.900000
170.060500 2212.300000
171.048300 2629.400000
171.055400 540.500000
172.055900 7994.000000
173.050900 3096.400000
174.035400 377.300000
178.065300 405.800000
179.038100 546.400000
179.060900 1763.300000
180.055800 671.800000
182.040500 392.100000
184.056100 734.600000
185.063700 642.200000
188.050600 845.100000
190.065600 497.300000
191.061300 551.800000
192.045500 456.200000
192.068200 375.700000
197.051600 1623.600000
209.064500 426.800000
216.069200 369.400000

