>compound EQ63100562
>parentmass 204.13830000000002
>ionization [M+H]+
>formula C13H17NO
>rt 588.000000
>profile orbitrap
#smiles_iso CCN(C1=CC=CC=C1C)C(=O)C=CC
#smiles_can CCN(C1=CC=CC=C1C)C(=O)C=CC
#inchikey DNTGGZPQPQTDQF-UHFFFAOYSA-N
#pubchem_id 2883
#mb_accession EQ320001,EQ320002,EQ320003,EQ320004,EQ320005,EQ320006,EQ320007,EQ320008,EQ320009

>ms2
68.049400 2669229.000000
69.033400 73622752.000000
96.080800 20805362.000000
108.080700 2058749.000000
134.060000 24656176.000000
134.096500 5266081.000000
136.112200 44969492.000000
162.091400 18717474.000000
176.106900 3080339.200000
204.138400 1995939328.000000

>ms2
68.049500 9915202.000000
69.033500 167553184.000000
71.085600 3206736.500000
91.054200 2091894.100000
96.080800 49392824.000000
97.064800 4706181.500000
105.070000 2331961.200000
106.065000 2667555.500000
108.080800 6542917.000000
134.060100 67165392.000000
134.096400 11282958.000000
136.112200 109403808.000000
158.096500 6506692.500000
162.091400 40344968.000000
176.107000 7612576.000000
176.143700 2456037.200000
186.127500 3156612.000000
204.138400 1725482112.000000

>ms2
53.002200 1768180.100000
68.049500 64749424.000000
69.033500 523157568.000000
71.049300 1466464.500000
71.085500 2030814.400000
91.054200 9649428.000000
93.069900 844565.800000
96.080800 86470064.000000
97.064900 8641671.000000
105.069900 5638152.000000
106.065200 21728200.000000
107.049200 810588.800000
107.073000 6585652.500000
108.080800 38950788.000000
109.064800 3553898.800000
116.049500 2248805.500000
118.065200 2859845.800000
119.060400 1452955.000000
119.085700 884685.100000
120.080900 1366289.600000
121.088600 6782899.000000
130.065200 1359663.900000
132.080800 1563410.800000
133.101200 885106.600000
134.060100 178726928.000000
134.096500 30573978.000000
136.112200 242656912.000000
143.073200 961170.200000
146.096400 1060862.600000
148.112200 2833922.500000
158.096600 28254614.000000
160.075600 1298238.600000
161.083600 3052245.800000
162.091400 40793100.000000
174.091300 1362354.100000
175.099200 1479227.000000
176.107100 11725577.000000
176.143500 4685552.500000
186.127800 5646511.000000
189.114800 1344895.400000
204.138500 441425536.000000

>ms2
53.002200 5020090.500000
53.997500 1059648.000000
65.038600 1137595.100000
68.049500 102988488.000000
69.033500 691798016.000000
79.054200 2058703.200000
91.054300 31861656.000000
93.057300 4378331.500000
93.070000 2110640.200000
96.080800 34841152.000000
97.064900 2928486.500000
105.070000 6018786.500000
106.065200 46868124.000000
107.049200 1580291.400000
107.073000 27204438.000000
108.080800 74883832.000000
109.064800 8709401.000000
116.049500 5748784.500000
117.057200 3060839.000000
117.070000 2784280.200000
118.065200 3679202.200000
119.060500 6388756.500000
119.073100 2143089.800000
119.085700 1815572.900000
120.080800 2035628.900000
121.088700 39394276.000000
130.065200 4790654.000000
131.085500 1515800.200000
132.044600 2062449.400000
132.080900 2282037.800000
134.060100 137235424.000000
134.096500 40356004.000000
136.112200 197175360.000000
143.073000 6216699.000000
144.080400 1418328.900000
146.060200 1047222.100000
146.096600 1772833.400000
148.112000 2128709.000000
156.081300 825417.400000
158.096500 31498178.000000
160.075900 2842507.000000
161.083600 3275647.500000
162.091400 8751948.000000
162.127600 1679298.800000
171.104300 1120899.200000
174.091400 2454331.500000
175.099300 952771.500000
176.107100 5492359.000000
176.143600 2509517.800000
186.127700 2845495.500000
204.138500 48518016.000000

>ms2
53.002200 8709125.000000
53.997500 2042535.900000
54.010000 910149.200000
65.038500 2992580.500000
68.049500 95997672.000000
69.033500 626205248.000000
77.038500 878326.200000
79.054200 6443077.000000
91.054300 76072088.000000
92.062100 1043342.600000
93.057400 18407922.000000
93.070000 2998050.200000
95.049200 965847.000000
96.080800 7795264.500000
103.054200 1223585.000000
104.049300 795870.200000
105.033600 886491.500000
105.069900 5308095.000000
106.065200 93844640.000000
107.073000 42256784.000000
108.080800 74462352.000000
109.064900 10367028.000000
115.054200 1611283.400000
116.049500 9115047.000000
117.057300 4884757.000000
117.069900 2430991.800000
118.065200 5573221.500000
119.036500 967713.900000
119.060500 6188135.000000
119.073000 4698147.000000
119.085600 1283103.000000
120.080800 4230861.500000
121.088700 64911748.000000
129.069900 998192.100000
130.065200 6404824.000000
131.085600 806153.800000
132.044400 4314256.500000
132.080800 3874832.000000
133.088700 1005981.400000
134.060100 56725316.000000
134.096500 38546308.000000
136.112200 85475848.000000
143.073000 8649999.000000
144.080900 846921.900000
146.060100 2324381.800000
146.096600 2599321.200000
148.112100 1135591.000000
156.080800 1292017.000000
157.088600 1367337.100000
158.096500 13482112.000000
160.075600 2905322.500000
161.083800 1709075.100000
162.091300 931756.800000
174.091300 1955390.500000
176.107100 784422.400000
204.138500 2730995.000000

>ms2
53.002200 13816135.000000
53.997500 2755605.200000
54.010000 822771.900000
65.038600 10035439.000000
67.054300 927417.200000
67.989300 5366356.500000
68.049500 66116812.000000
69.033500 460024096.000000
77.038500 1769977.500000
78.046400 686751.800000
79.054200 8942542.000000
89.038600 1276927.000000
91.054300 105753872.000000
92.062000 1087468.000000
93.057400 36813388.000000
93.069900 2554968.800000
95.049300 2175364.800000
96.080800 1055069.400000
103.054200 928649.100000
104.049500 1409904.800000
105.044700 1319146.100000
105.070000 3501519.000000
106.065200 129930952.000000
107.073000 42554852.000000
108.080800 42621444.000000
109.064800 5408135.500000
115.054300 2609403.800000
116.049500 7460461.500000
117.057400 5866598.500000
117.070000 2553394.000000
118.065200 7070169.500000
119.036600 2160681.000000
119.060500 4066615.000000
119.073000 6552160.500000
119.085700 694983.800000
120.080800 3860407.800000
121.088700 40906196.000000
129.069800 1049702.100000
130.065200 4748347.000000
132.044400 4683660.000000
132.080800 2797400.800000
133.088600 478143.600000
134.060000 16593984.000000
134.096500 22908398.000000
136.112200 21530934.000000
142.065200 951907.800000
143.073000 7057655.000000
146.060100 3515837.000000
146.096300 1613841.600000
156.080900 1636982.200000
158.096500 3951270.000000
160.075800 2230918.000000
174.091600 1311298.800000

>ms2
50.015100 192646.500000
51.023000 407510.400000
52.018200 245307.100000
53.002200 18821530.000000
53.038600 2066378.100000
53.997500 4682698.500000
54.010100 1052942.400000
55.017900 333286.800000
55.054300 227420.500000
63.022900 1365153.100000
65.038600 43860400.000000
66.046400 1676153.500000
67.041700 212185.200000
67.989300 6302123.500000
68.049500 28059058.000000
69.033500 172929536.000000
77.038500 5217598.500000
78.008800 971970.800000
78.033900 224930.400000
78.046400 1873384.800000
79.054200 12625098.000000
80.049500 695424.900000
81.033400 224757.500000
81.069900 440807.200000
89.038600 4036081.500000
90.033900 1833283.900000
90.046400 1221855.800000
91.054300 92412992.000000
92.049600 394227.300000
92.062100 1190681.600000
93.057400 59817496.000000
94.041400 384355.700000
95.049200 8973293.000000
96.044500 700117.200000
103.054300 1972693.600000
104.049500 2740925.500000
104.062100 1091425.900000
105.033500 294557.800000
105.044800 4464464.500000
105.070000 1526814.400000
106.065200 156279424.000000
107.073000 19217748.000000
108.080800 7860079.500000
109.064900 1420688.800000
115.054300 5575314.500000
116.049400 2592757.800000
116.062200 947972.600000
117.057400 4928061.000000
117.070000 842941.500000
118.065200 7236223.000000
119.036500 2104461.800000
119.060500 1130629.600000
119.073000 3439361.000000
120.080800 3524880.800000
121.088700 4831692.000000
128.049500 1380064.000000
128.062100 853353.200000
129.070000 376848.800000
130.065200 2894410.200000
131.073100 994291.300000
132.044600 2510265.200000
132.080800 850975.600000
134.060100 785627.200000
134.096500 3619407.500000
136.112300 684439.100000
140.049500 191644.900000
142.065200 1802862.100000
143.073000 1824815.200000
144.080700 177309.800000
146.060100 1972605.800000
154.065200 355696.800000
156.081200 388103.100000
160.075800 386892.000000

>ms2
50.015100 1275334.900000
51.023000 3553261.800000
52.018200 700741.100000
53.002200 22312110.000000
53.038600 5547942.500000
53.997500 4927214.500000
54.010100 1167559.800000
55.018000 528670.900000
62.015000 285624.400000
63.023000 4766977.000000
64.030700 934882.000000
65.038600 63626428.000000
66.046400 7629973.500000
67.041700 706523.200000
67.989300 5306471.000000
68.049500 8562946.000000
69.033500 46049840.000000
75.022900 316213.900000
77.038600 10016995.000000
78.008700 1329741.200000
78.033800 688353.500000
78.046400 3498298.500000
79.054200 18645024.000000
80.049400 1023728.000000
81.033500 673135.300000
89.038600 6171515.000000
90.033900 1351858.100000
90.046500 2342490.200000
91.041700 2151878.000000
91.054300 41143604.000000
92.049500 2359606.500000
92.062100 720926.900000
93.057400 46180248.000000
94.041500 330690.000000
95.049200 17497060.000000
96.044500 370770.400000
102.046500 209465.700000
103.054300 1827700.800000
104.049600 2235906.200000
104.062100 237681.100000
105.044800 9778873.000000
106.065200 96252592.000000
107.073000 3393476.800000
108.080800 672827.800000
109.064600 358902.900000
115.054300 5886736.000000
116.049500 1193734.200000
116.062300 176603.400000
117.057400 3467124.500000
118.065200 4162830.200000
119.036600 753708.100000
119.072900 362713.000000
120.080800 1440411.100000
128.049400 925608.800000
128.062000 808020.400000
130.065200 2229838.000000
131.073100 350573.000000
132.044400 294401.500000
132.081000 222225.800000
134.096200 217912.700000
140.049700 223393.700000
142.065300 697400.900000
143.073500 289258.500000
146.059900 795981.900000
154.064700 202807.200000
156.080600 215505.500000

>ms2
50.015100 4134398.000000
51.023000 12628994.000000
52.018200 900381.800000
53.002200 23766222.000000
53.038600 7210654.500000
53.997500 5926864.500000
54.010000 1450257.100000
54.033900 959230.125000
55.017900 952909.600000
62.015100 1028626.200000
63.023000 8909709.000000
64.030800 955761.100000
65.038600 57376684.000000
66.046400 13850130.000000
67.041700 1555740.600000
67.989300 5124744.500000
68.049500 2633734.000000
69.033500 12732279.000000
75.022900 960922.400000
77.038600 12586484.000000
78.008600 1268253.900000
78.033900 1149219.200000
78.046400 4093880.500000
79.054200 15415553.000000
80.049400 1444543.000000
81.033600 648606.900000
89.038600 8905746.000000
90.034000 238171.900000
90.046500 2417599.800000
91.041800 1320360.800000
91.054300 18199132.000000
92.049500 5040430.000000
93.057400 24954602.000000
94.041600 297961.600000
95.049200 23762102.000000
96.044400 1274867.600000
102.046400 604099.800000
103.054300 1386875.000000
104.049400 1287497.900000
105.044800 12741701.000000
106.065200 40017132.000000
107.072800 175045.500000
115.054300 4177069.000000
116.062300 182646.400000
117.057500 1639874.900000
118.065100 1654026.200000
120.080700 289117.600000
128.049300 268350.000000
128.062000 640210.900000
129.044800 661223.062500
130.065300 1401847.900000

