>compound EQ65823745
>parentmass 316.008
>ionization [M+H]+
>formula C14H10BrN3O
>rt 420.000000
>profile orbitrap
#smiles_iso C1C(=O)NC2=C(C=C(C=C2)Br)C(=N1)C3=CC=CC=N3
#smiles_can C1C(=O)NC2=C(C=C(C=C2)Br)C(=N1)C3=CC=CC=N3
#inchikey VMIYHDSEFNYJSL-UHFFFAOYSA-N
#pubchem_id 2441
#mb_accession EQ362801,EQ362802,EQ362803,EQ362804,EQ362805,EQ362806,EQ362807,EQ362808,EQ362809

>ms2
288.013700 880948.200000
316.007800 492986048.000000

>ms2
80.049400 4013842.000000
96.044400 624294.900000
105.044700 428882.200000
106.028600 459998.600000
107.060200 445814.500000
124.039300 1516172.100000
133.052200 545988.800000
182.083800 10045167.000000
183.975600 4918464.500000
208.086600 1520386.500000
209.094800 22461488.000000
210.078700 441106.800000
211.970500 1360613.900000
236.081600 469109.900000
237.089700 1537649.000000
258.986600 1699633.400000
259.994200 2150748.800000
261.002100 19269110.000000
286.981600 429205.600000
287.005400 766387.800000
288.013000 66116520.000000
297.997000 643594.000000
316.007800 386472512.000000

>ms2
78.033700 1348242.500000
80.049400 19238534.000000
96.044300 4885411.000000
104.049500 184423.000000
105.044700 1222019.400000
105.057300 466040.000000
106.028700 926894.800000
107.060300 1693219.800000
110.060100 428742.200000
119.060400 578905.200000
124.039300 3265957.200000
131.060300 643914.100000
133.052200 3199891.800000
135.055100 682167.300000
181.075900 2292099.800000
182.083800 86455216.000000
183.975600 27711324.000000
192.067900 781253.700000
193.076100 511203.400000
193.960000 249879.500000
194.083700 556452.000000
197.955100 109078.800000
207.079300 241067.600000
208.086900 14363579.000000
208.970900 5537144.500000
209.094700 99796632.000000
209.978600 215980.500000
210.078700 1911467.100000
211.970500 3497681.000000
236.081700 1021700.900000
237.089600 1960361.900000
243.976100 101981.200000
244.983500 501119.100000
258.986500 6145511.500000
259.994400 18568352.000000
261.002100 61991572.000000
270.986400 1788734.000000
285.997100 460055.400000
286.981300 1183633.200000
287.005000 1820605.100000
288.013000 53784504.000000
288.997200 266533.200000
297.996900 862164.100000
298.981100 106013.100000
316.007900 72125856.000000

>ms2
53.038500 321513.200000
65.038500 252557.200000
78.033700 1819221.600000
79.041500 465067.100000
80.049400 22046768.000000
92.049200 362642.300000
93.057300 189416.000000
96.044300 6692212.500000
104.049300 1177124.500000
105.044700 1821326.900000
105.057200 5991171.000000
106.028600 740793.100000
107.060300 1941241.400000
110.060000 746716.800000
117.044700 367444.500000
119.060300 650537.200000
124.039300 1438696.900000
130.052500 235598.600000
130.065000 757898.500000
131.060300 3876597.500000
133.052100 3291765.500000
154.064700 370506.400000
155.073100 536953.400000
157.076000 292842.300000
165.057200 193221.100000
167.073000 267373.200000
168.068400 182286.700000
168.081000 336762.800000
169.075900 1784028.200000
179.060300 398271.600000
180.068300 801034.500000
181.076000 12043724.000000
182.083800 152727584.000000
183.975600 36015424.000000
192.068100 3862333.000000
193.076000 3194859.800000
193.960300 577483.400000
194.071100 188655.500000
194.083900 679689.500000
207.079000 920746.100000
208.086900 50851072.000000
208.970900 11481400.000000
209.094700 79282072.000000
209.978600 401720.300000
210.078800 2179811.500000
211.970500 1646103.900000
214.073700 330898.200000
219.079300 359350.900000
222.066000 193448.600000
236.081700 1242745.400000
236.965500 447512.400000
237.089300 447399.900000
243.975500 583695.400000
244.983500 2602782.000000
258.986500 12501632.000000
259.994300 41469032.000000
261.002100 26713448.000000
270.986400 1349458.200000
285.997300 1029692.500000
286.981000 617684.200000
287.005200 1211529.500000
287.989900 412895.800000
288.012900 7050977.000000
297.996700 182564.300000
298.981200 190871.700000
316.007900 4433591.500000

>ms2
51.022800 181011.800000
53.038500 578115.200000
65.038600 387211.900000
77.038400 208339.800000
78.033700 2772437.800000
78.046300 1008811.700000
79.041600 1600780.900000
80.049400 17746640.000000
92.049400 503719.400000
93.057300 189431.300000
95.036500 636839.000000
96.044300 7648132.000000
103.041600 190911.100000
104.049400 8646891.000000
105.044700 2449785.500000
105.057300 15425887.000000
107.060300 1467349.600000
110.060000 809556.400000
117.044600 438960.500000
119.060400 276418.200000
124.039400 615395.600000
129.057200 727022.400000
130.052600 1544489.000000
130.065100 6190063.500000
131.060300 6943822.500000
133.052200 2106893.500000
154.065100 5205330.500000
155.060100 667659.200000
155.072900 3119948.200000
156.067900 416675.000000
156.964300 330600.200000
157.076000 1268410.200000
162.042100 520633.400000
165.057200 1508062.600000
166.065200 604023.100000
167.073000 762274.100000
168.068200 303970.500000
168.081000 598664.300000
169.076000 3973924.500000
179.060300 2892282.500000
180.068100 2960088.000000
181.076000 47471412.000000
182.083800 135353296.000000
182.954800 349995.900000
183.067900 189494.700000
183.079200 192211.800000
183.091300 248269.200000
183.975500 25229304.000000
191.060300 207468.600000
192.068100 5933295.500000
193.076000 6083900.500000
193.960000 549201.500000
194.071000 699333.200000
194.083900 600374.900000
194.968100 231218.700000
207.079100 6827853.000000
208.086900 70561128.000000
208.970900 12023038.000000
209.094700 27361438.000000
209.978600 542982.200000
210.078700 916118.900000
211.970600 274408.200000
212.057700 326420.900000
214.073800 474510.200000
218.071000 198808.400000
220.982900 393847.800000
222.066200 228195.100000
231.976200 439040.900000
233.991400 350582.600000
236.082000 981740.100000
236.965600 527276.200000
243.976200 634990.800000
244.983400 4086493.500000
258.986600 28181362.000000
259.994300 35555292.000000
261.002100 4983136.500000
270.986300 378707.000000
271.981500 180280.200000
285.997100 1162412.900000
286.981200 241845.000000
287.005300 519372.200000
288.013300 379636.700000

>ms2
50.015100 319037.500000
51.022800 331135.800000
52.030700 275618.900000
53.038600 1037333.400000
54.033800 330632.900000
55.041600 259577.200000
63.022800 86585.700000
65.038500 788230.800000
67.041600 310956.000000
75.022800 86207.500000
76.030500 334556.200000
77.038300 616177.600000
78.033800 3621001.200000
78.046400 3049180.200000
79.041600 3119976.200000
80.049400 14128376.000000
81.057200 211503.700000
82.028600 92292.200000
89.038400 338906.100000
90.033800 270149.400000
90.046400 678908.500000
91.041500 102100.100000
92.049400 448228.700000
93.057100 256838.000000
95.036500 1455572.900000
95.049100 621404.000000
96.044300 8456979.000000
102.046500 224549.700000
103.041600 676091.400000
104.049400 20970160.000000
105.044700 2581423.500000
105.057300 17444158.000000
107.060300 899892.300000
110.060100 562248.100000
111.031400 167826.700000
115.041600 276133.100000
115.054200 106972.900000
116.049400 287540.500000
117.044600 433806.800000
117.057200 311417.500000
119.060300 177252.000000
124.039400 213487.000000
127.041500 172674.400000
127.054000 84340.400000
128.049600 367425.800000
128.061800 357619.300000
129.044600 314832.300000
129.057200 2124089.500000
130.052600 2976291.800000
130.065100 14814004.000000
131.060300 7840094.000000
133.052100 877722.200000
137.047100 297895.500000
138.046600 105338.800000
139.054100 379056.700000
140.049200 646233.600000
141.057100 442392.800000
142.052400 334635.500000
142.065300 446025.700000
144.044400 409742.500000
145.064500 159963.500000
146.059900 327578.900000
153.057200 977596.800000
154.065100 19645172.000000
155.060300 2561886.500000
155.072900 4637897.000000
156.068100 815518.300000
156.080800 466515.500000
156.964800 328449.500000
157.076000 2107417.000000
158.047500 95183.500000
161.047200 505361.300000
162.042200 1258663.000000
164.049500 717387.100000
165.057200 2993482.000000
166.065100 3271628.500000
166.949000 209125.800000
167.060700 98113.400000
167.072900 1461729.400000
167.944400 249555.900000
168.068300 941284.100000
168.080600 436075.700000
169.075900 3986000.500000
170.059800 451978.700000
172.959800 245480.000000
179.060300 8657051.000000
180.068200 6206592.000000
181.075900 83795808.000000
182.083800 68278896.000000
182.955100 949948.000000
183.068000 374566.500000
183.079100 93678.600000
183.091800 379733.500000
183.975600 11106179.000000
185.070700 584196.800000
191.060200 959651.900000
192.068100 5806439.000000
193.076100 4554995.000000
193.960000 409208.100000
194.071300 1020475.000000
194.083800 318568.700000
194.967900 192463.900000
206.071200 708121.400000
207.079100 17604840.000000
208.086900 46299496.000000
208.970800 7897179.500000
209.071700 450207.100000
209.094700 5081678.500000
209.978500 426676.100000
210.078700 331305.900000
212.057900 1150633.400000
214.073700 388773.700000
218.071000 313129.100000
220.983300 317120.900000
221.942300 420100.700000
222.065700 111369.300000
231.975900 594924.100000
232.983900 184285.700000
233.991300 175315.200000
236.081600 366307.000000
236.965600 267990.800000
243.975400 400318.800000
244.983500 2925776.200000
246.986500 86634.300000
258.986500 37456880.000000
259.994300 13752627.000000
261.002100 552726.000000
285.997000 674653.000000
287.004500 89465.500000

>ms2
50.015100 1585579.800000
51.022800 973838.000000
52.030700 513322.800000
53.038600 2708356.500000
54.033800 355376.800000
55.041600 264618.700000
62.015000 111091.100000
63.022900 666380.600000
64.018100 89368.700000
64.030700 285385.100000
65.038500 1431913.500000
66.046400 496456.600000
67.041600 468414.900000
74.015000 79096.800000
75.022800 721694.300000
76.018000 185656.400000
76.030700 2058516.200000
77.038500 2162630.200000
78.033800 7786770.500000
78.046400 6676015.000000
79.041600 4181622.200000
80.049400 8046832.500000
81.033400 109702.400000
82.028700 103040.800000
88.030700 324763.100000
89.038500 2566337.200000
90.033800 543456.900000
90.046400 1447119.500000
91.041700 570877.400000
91.054200 94949.400000
92.049400 343472.700000
93.057300 255110.500000
94.041300 110113.900000
95.036500 1638296.000000
95.049100 3447327.000000
96.044300 11145993.000000
102.033700 213864.800000
102.046400 1455057.900000
103.041600 2942065.200000
103.054200 1493798.400000
104.049400 31391616.000000
105.044700 4630799.000000
105.057300 5896361.500000
106.028500 90880.100000
107.060200 188221.900000
110.060100 296701.800000
111.031400 230068.600000
113.038500 334107.500000
114.033800 309299.700000
114.046400 578795.800000
115.028900 615308.700000
115.041700 595289.200000
115.054200 1469756.000000
116.049300 724199.800000
116.933400 82675.100000
117.044600 252658.800000
117.057200 1341776.000000
117.069900 71049.700000
118.052500 111733.500000
119.049000 64251.200000
120.044200 79499.100000
121.039600 238234.000000
125.038400 343977.300000
126.046300 1250249.600000
127.041700 642915.200000
127.054200 3469786.500000
128.049500 4802357.000000
128.061900 1599767.500000
129.044700 2109870.800000
129.057200 3109430.200000
130.052600 3187566.200000
130.065100 15970351.000000
131.060300 3795235.200000
132.044200 104270.700000
132.056900 188283.300000
133.052100 258847.800000
134.059900 97559.500000
135.031500 236257.100000
137.038500 251116.900000
137.047000 388350.700000
138.046300 839637.200000
139.054200 2645405.800000
140.049400 4967386.000000
141.057200 1789319.400000
142.052600 1027119.600000
142.065200 540058.400000
143.060300 171126.300000
144.044400 374051.000000
145.064800 3509213.000000
146.060000 2826066.800000
147.055300 74783.000000
152.049400 923308.200000
153.044700 556413.400000
153.057300 4966705.000000
154.065100 49672332.000000
155.060300 12303686.000000
155.072900 2098771.000000
156.056600 229006.400000
156.068100 1108320.900000
156.080600 372699.500000
157.052200 277486.900000
157.075900 1263151.000000
161.047200 739827.300000
162.042300 1323691.100000
164.049400 4543086.000000
165.044800 274115.800000
165.057200 3161530.800000
166.053100 1131158.800000
166.065100 4292529.500000
167.060800 563121.400000
167.072900 1801467.200000
167.944400 272092.400000
168.068200 1478780.500000
168.080600 89906.400000
169.076000 1564270.500000
170.059900 1270966.800000
171.055100 238825.300000
172.959700 382656.200000
178.052100 204486.800000
179.060300 27587328.000000
180.068200 18966814.000000
181.075900 58741296.000000
181.959900 866929.300000
182.071800 826112.200000
182.083800 5842157.500000
182.955200 888610.900000
183.055600 552314.400000
183.067700 68517.400000
183.975600 1228268.100000
184.063000 492187.200000
184.075300 79772.400000
185.046900 225305.600000
185.070900 297762.400000
186.042500 73165.200000
190.052400 98057.200000
191.060300 1685600.400000
192.068100 3498737.800000
193.063300 612649.400000
193.075900 664899.800000
193.947500 70770.500000
194.071100 335489.000000
195.055200 197176.300000
197.070900 221361.300000
206.071300 4752204.000000
207.079100 15616306.000000
208.086900 5899336.500000
208.970800 1301396.100000
209.070700 270158.200000
212.058000 3436627.200000
217.063400 89864.000000
218.071100 63478.300000
221.942300 338056.800000
231.975600 593324.700000
244.983100 448870.600000
258.986500 13335913.000000
259.994200 528850.100000

>ms2
50.015100 4237879.500000
51.022900 1968982.200000
52.018100 395812.100000
52.030700 672296.100000
53.002200 283285.300000
53.038600 4694106.000000
54.033800 458582.200000
55.017900 167337.000000
55.041600 181586.900000
61.007200 179942.000000
62.015000 707306.100000
63.022900 2518911.500000
64.018100 675279.700000
64.030700 533609.800000
65.002100 344550.200000
65.038500 1667901.800000
66.046400 1019655.100000
67.041600 554759.400000
74.015000 1003565.900000
75.022800 3160751.200000
76.018100 490498.800000
76.030700 5173921.000000
77.038500 5513501.000000
78.033800 10493788.000000
78.046400 6293840.000000
79.041600 2777003.500000
80.049400 3906170.500000
81.033400 499002.000000
82.028800 47216.800000
86.015000 274532.900000
87.022800 429514.000000
88.018200 590921.600000
88.030700 1035830.200000
89.038500 5010009.000000
90.033900 406193.900000
90.046400 1204632.500000
91.017800 56781.300000
91.041600 402267.400000
91.054200 546595.200000
92.037000 46485.100000
92.049300 257060.500000
93.057400 99142.600000
94.041300 433517.700000
95.036600 1122782.600000
95.049100 9567093.000000
96.044300 10127543.000000
98.015000 55130.500000
99.022900 483958.800000
100.018100 199827.400000
100.030800 293371.200000
101.038600 717159.900000
102.033800 745391.100000
102.046400 3327046.000000
103.028900 308620.400000
103.041600 3020459.200000
103.054200 2978249.500000
104.049400 19286238.000000
105.044700 8327865.000000
105.057200 1036550.400000
106.028600 254252.600000
110.059900 145584.000000
111.022500 45023.700000
111.031400 201218.500000
112.030800 157302.700000
113.038500 1987365.600000
114.033900 1115328.900000
114.046400 710973.600000
115.029000 802918.500000
115.041600 833175.600000
115.054200 2154817.200000
116.049400 841027.100000
116.933400 209347.900000
117.057200 2006459.500000
118.052700 61413.600000
119.049100 790898.900000
120.044300 241090.500000
121.039500 170921.800000
125.038600 2016740.600000
126.046400 6061462.000000
127.041600 2155684.200000
127.054200 9652608.000000
128.049400 10118390.000000
128.061900 1564192.400000
129.044600 4743272.000000
129.057200 2673110.500000
130.039900 1044691.800000
130.052500 1436481.900000
130.065100 7346412.000000
131.049100 68789.200000
131.060300 1000288.100000
132.044400 49759.600000
132.056700 85617.300000
133.052300 174477.500000
134.059900 92648.100000
135.031300 285514.400000
137.038500 1416182.600000
137.046900 121112.200000
138.033800 573344.300000
138.046200 800091.100000
139.041900 470157.700000
139.054100 3921143.800000
140.049400 6573516.000000
141.057200 2010596.000000
142.052500 1217470.900000
142.065100 175247.400000
142.949400 71113.100000
143.049000 290800.500000
144.044400 317759.300000
145.064800 5558475.000000
146.060000 3462628.200000
151.041500 261733.300000
152.049500 3817317.000000
153.044600 1453698.800000
153.057300 9021309.000000
154.065100 33547778.000000
155.060300 16402031.000000
156.044400 75773.900000
156.056900 72018.500000
156.068000 434576.000000
156.080600 94836.900000
157.052200 361863.300000
157.076100 256273.300000
159.055300 166925.800000
161.047100 461824.400000
162.042200 488303.800000
164.049400 6021555.500000
165.045300 571967.600000
165.057200 2426276.800000
166.052600 1285490.600000
166.065000 1757905.600000
167.061000 304434.600000
167.072900 847834.400000
168.068200 656279.800000
169.076000 248570.300000
170.060000 3268783.500000
171.055100 557384.000000
172.959600 172579.800000
177.044800 422346.800000
178.052400 905463.900000
179.060300 34215520.000000
180.056300 1156566.100000
180.068100 9392161.000000
181.075900 11572732.000000
181.959500 318480.500000
182.071200 255505.400000
182.084000 293880.800000
182.955200 580070.200000
183.055000 408934.700000
183.067800 60716.800000
183.975800 53678.200000
184.063000 350642.900000
184.076300 54165.700000
185.047100 573203.900000
186.042300 169701.500000
190.052600 190288.000000
191.060100 730006.600000
192.068100 1230027.000000
193.063500 307971.100000
193.075700 44798.400000
195.055100 199380.900000
197.071100 105047.200000
206.071300 4961268.000000
207.079100 2639590.800000
208.086700 303845.600000
208.971100 64835.300000
209.071900 46405.700000
210.042200 539682.100000
212.058000 1328061.400000
217.063300 50463.300000
231.975500 95992.000000
258.986600 1208960.000000

>ms2
50.015100 7613101.000000
51.023000 5272835.000000
52.018200 990329.800000
52.030800 1173281.400000
53.002200 444001.900000
53.038600 5490391.500000
54.033900 289037.400000
55.017800 329596.800000
55.041600 53752.200000
61.007300 602271.900000
62.015100 2199721.500000
63.022900 5451828.000000
64.018200 1159644.800000
64.030700 541823.700000
65.002200 946990.700000
65.038600 1647921.900000
66.046400 1013902.800000
67.041700 403233.800000
74.015000 3151204.200000
75.022900 9345563.000000
76.018100 1427045.500000
76.030700 5767935.000000
77.038500 7688897.500000
78.033800 9071388.000000
78.046400 3936102.800000
79.017700 185857.562500
79.041600 1833893.600000
80.049400 1430995.500000
81.033500 839999.400000
82.028900 47289.200000
86.015000 804221.200000
87.022900 1973827.400000
88.018100 1098475.000000
88.030700 1630516.500000
89.038500 7240134.500000
90.033800 377209.800000
90.046400 1190067.400000
91.017900 63715.800000
91.041700 480944.800000
91.054200 538340.200000
92.036800 45862.500000
92.049400 197134.500000
92.933400 222566.234400
93.057200 45286.000000
94.041300 538683.000000
95.036600 645420.400000
95.049100 12702032.000000
96.044300 7112306.500000
98.015100 570933.100000
99.010300 218981.875000
99.022900 2308787.000000
100.018200 780037.400000
100.030700 895095.200000
101.038600 1674449.200000
102.033800 1253155.400000
102.046400 3648297.200000
103.029000 203193.100000
103.041600 1418421.200000
103.054200 1849091.500000
104.049400 7390579.500000
105.044700 10083531.000000
106.028700 63247.200000
110.060000 99976.000000
111.022800 226890.100000
111.031300 78428.800000
112.018000 240213.921900
112.030700 261652.300000
113.038500 3997373.000000
114.033800 1908540.100000
114.046400 657664.800000
115.029200 331891.100000
115.041600 833993.900000
115.054200 1798957.500000
116.049400 546511.900000
117.057300 1180276.900000
117.069700 166733.100000
119.049100 1266849.200000
120.044500 310928.000000
121.039600 86692.500000
125.038600 3663516.000000
126.046400 10585079.000000
127.041600 3287821.500000
127.054200 6571508.500000
128.049500 7013674.000000
128.061900 910730.200000
129.044700 6862448.000000
129.057300 1302951.100000
130.039900 1334944.100000
130.052500 285419.100000
130.065100 2032169.100000
131.049100 52941.500000
131.060400 181631.000000
132.044600 59618.500000
132.056900 95261.200000
133.052400 76723.400000
134.059900 51413.400000
135.031300 73471.200000
137.038600 2362618.200000
138.033900 914583.100000
138.046300 479497.700000
139.042000 364616.100000
139.054200 2815869.000000
140.049400 3695144.000000
141.057300 978322.600000
142.052600 653764.200000
142.064900 50793.500000
143.049000 728118.200000
144.044300 219757.000000
145.064800 3069867.200000
146.060000 1775915.600000
147.055100 59496.100000
151.041600 1027338.600000
152.049500 5734675.000000
153.044700 2442646.000000
153.057300 7119569.000000
154.040100 552288.437500
154.065100 10199929.000000
155.060300 9050723.000000
156.044200 164098.200000
156.057000 65370.100000
157.052400 423192.100000
158.047600 59159.600000
161.046800 187798.400000
162.042000 52981.600000
164.049400 3425826.000000
165.045100 455844.500000
165.057200 1397615.500000
166.052700 860900.500000
166.064800 497529.600000
167.060400 61023.600000
167.073100 101217.700000
168.068200 171679.100000
170.060000 3803665.800000
171.055200 747445.200000
177.044700 1398191.500000
178.052500 1238209.900000
179.060300 17391292.000000
180.055700 1163388.100000
180.068100 1493372.100000
181.076000 1271139.000000
182.955000 232332.200000
185.047200 896256.800000
186.042500 72009.300000
190.052100 101845.500000
191.060100 207683.900000
192.068100 80666.500000
195.055300 195791.600000
206.071300 1650975.500000
207.079200 187678.300000
210.042400 778421.700000
212.057800 184099.900000

