>compound EQ65607922
>parentmass 531.156
>ionization [M+H]+
>formula C26H28Cl2N4O4
>rt 474.000000
>profile orbitrap
#smiles_iso CC(=O)N1CCN(CC1)C2=CC=C(C=C2)OC[C@H]3CO[C@](O3)(CN4C=CN=C4)C5=C(C=C(C=C5)Cl)Cl
#smiles_can CC(=O)N1CCN(CC1)C2=CC=C(C=C2)OCC3COC(O3)(CN4C=CN=C4)C5=C(C=C(C=C5)Cl)Cl
#inchikey XMAYWYJOQHXEEK-OZXSUGGESA-N
#pubchem_id 456201
#mb_accession EQ326201,EQ326202,EQ326203,EQ326204,EQ326205,EQ326206,EQ326207,EQ326208,EQ326209

>ms2peaks
531.155900 333445632.000000

>ms2peaks
69.044700 750563.400000
81.044700 679148.800000
82.052500 7960108.500000
86.060000 415340.500000
112.075700 2838966.800000
135.067800 1458434.000000
167.081400 681733.300000
172.075400 344802.300000
174.091500 863876.200000
177.102300 820402.400000
178.110100 363828.300000
185.963400 379098.500000
189.138700 266925.600000
209.036500 612766.800000
216.101900 1752328.100000
216.125300 343441.600000
217.133600 4244266.500000
219.112900 5794400.500000
220.120700 4896763.500000
234.112600 1131718.000000
235.144200 1994799.500000
238.005800 900957.100000
244.005300 8705933.000000
247.144200 480285.600000
255.008600 5410527.000000
259.144200 1601458.900000
267.008800 872185.600000
268.016600 472943.400000
277.154700 788209.000000
282.032100 1786980.000000
421.107900 1253985.500000
463.119500 385804.500000
489.145800 32196518.000000
529.142300 324330.300000
531.156100 258387088.000000

>ms2peaks
54.033800 673617.900000
55.017800 61642.300000
55.041600 74911.000000
56.049500 1012320.600000
58.065100 385556.700000
68.036800 630976.100000
68.049400 76674.800000
69.044700 4531235.500000
70.065100 2325968.200000
71.060300 3041629.800000
81.044700 11228542.000000
82.052500 57199772.000000
83.060300 1370099.200000
84.068200 63197.900000
85.076000 207534.000000
86.060000 3330537.800000
94.065100 138242.900000
95.060500 241325.400000
105.069800 184652.200000
107.049100 380352.700000
107.060300 340734.200000
109.039700 236374.200000
109.052200 76090.100000
109.076000 271367.200000
111.055200 229581.300000
112.075700 16274592.000000
113.070900 457009.700000
114.042400 80759.300000
117.057400 143467.400000
117.069700 224116.500000
118.065100 320974.700000
119.073000 177974.000000
120.044400 772636.400000
120.080800 586798.500000
121.076000 130427.300000
122.060000 1567488.500000
123.091500 79352.600000
127.050100 346086.000000
129.069800 301127.900000
130.065100 579713.400000
131.049100 161639.400000
131.072900 216066.000000
132.044100 62409.200000
132.057000 217109.000000
132.080700 799807.400000
133.052100 142639.000000
133.064900 223408.800000
134.060000 1695510.800000
135.067800 13563057.000000
136.075700 4286005.000000
138.022800 65831.000000
139.030900 240987.800000
144.080800 2306255.200000
145.064700 275736.900000
145.088600 1169713.000000
146.060000 1212132.800000
146.096400 2754802.800000
147.067900 294045.100000
147.080500 150162.900000
148.075700 9503646.000000
149.015400 214977.700000
150.023100 175303.300000
151.031000 145751.300000
154.065400 121815.500000
156.080900 706498.600000
157.065000 66639.700000
157.088600 68750.800000
158.096500 981755.500000
158.976300 3724845.800000
159.068000 216850.400000
159.984200 182169.200000
160.075700 1168089.900000
161.083400 360970.100000
161.107400 135834.600000
162.091300 962605.200000
162.115400 140441.100000
163.030900 1132015.800000
163.086700 169097.900000
163.123000 1270583.200000
164.070600 172205.700000
167.025800 1187099.000000
167.081500 7513662.000000
169.968400 2012572.100000
170.976400 66449.700000
171.068000 178739.300000
172.075700 2020698.500000
172.112200 489100.200000
172.955600 2791851.000000
173.083600 402707.200000
174.091400 10106786.000000
174.971300 170050.500000
175.086600 123316.300000
175.122800 293534.800000
176.094500 565926.400000
176.107000 128087.400000
177.102200 16343389.000000
178.110100 4352855.000000
179.025700 447347.600000
179.117700 141029.100000
184.992000 3655164.000000
185.963400 9974826.000000
186.971100 678284.400000
187.123300 160062.200000
188.106900 1018565.200000
189.138600 1903690.100000
190.086100 304321.200000
191.117700 490386.700000
192.101900 1917367.200000
199.007700 200128.200000
200.107000 1780432.600000
201.102000 60199.500000
201.994700 661418.100000
202.966100 956429.800000
203.036900 1925903.000000
204.102000 958343.000000
205.097200 729121.700000
205.133600 1001258.500000
209.036400 2231996.200000
213.994600 315871.200000
215.118000 652191.000000
216.102000 3801372.200000
216.125300 647430.500000
217.133600 10572197.000000
218.117400 819317.900000
219.112900 13681600.000000
220.120700 6090345.500000
224.998300 200540.500000
226.006100 201181.300000
230.141200 308430.000000
231.149400 60444.300000
233.047700 409320.300000
233.128400 502578.900000
234.112600 1531093.400000
234.136400 445226.700000
235.144200 3674066.200000
238.005900 6002169.000000
239.013800 658265.800000
244.005300 15102752.000000
247.063300 1777040.500000
247.144000 192815.600000
255.008600 16406910.000000
259.144100 684665.600000
267.008700 7586183.500000
268.016400 792168.600000
271.003600 133566.900000
276.146900 127890.400000
277.154600 135935.600000
281.024200 1565732.500000
282.032000 1159728.600000
311.034900 1616788.800000
378.066000 2022280.400000
420.076300 783388.800000
420.100500 88755.800000
421.108000 1381317.500000
446.103500 1725771.875000
489.145600 11621399.000000
531.156200 8583464.000000

>ms2peaks
54.033800 1678780.800000
55.017800 240769.500000
55.041600 274948.800000
56.049500 2252086.000000
58.065100 508672.200000
65.038400 221938.100000
68.036900 1627513.200000
68.049400 271990.500000
69.044700 4943943.500000
70.065100 6411239.500000
71.060300 5556102.500000
79.054200 671824.000000
80.049500 221610.200000
81.044700 25979214.000000
82.052500 56602132.000000
83.060300 1525299.200000
84.068200 147732.400000
86.060000 3279837.000000
91.054200 458019.500000
94.065200 188086.200000
95.049000 134202.800000
95.060300 383087.600000
98.999600 124099.100000
103.054100 388078.100000
104.049500 126932.400000
105.069900 563975.500000
106.065100 361782.100000
107.049100 1200271.900000
107.060400 476487.200000
108.044400 142057.300000
109.039600 525089.500000
109.052300 265869.700000
109.076000 474086.200000
111.055300 204472.100000
112.075700 15148497.000000
113.070800 247673.400000
114.042300 130356.000000
115.054200 376020.000000
117.057300 497906.800000
117.069900 915667.200000
118.065100 1437605.500000
119.049300 162930.400000
119.073000 462584.000000
119.085600 154838.200000
120.044400 5740920.500000
120.080800 2608588.000000
121.039500 121464.400000
121.064900 163038.500000
121.076000 158933.000000
122.060000 5995387.000000
122.999400 281313.500000
123.091800 146173.100000
125.015400 428827.200000
126.994300 116853.600000
127.050200 2187675.200000
128.062200 223574.700000
129.069800 838095.000000
130.065100 1587265.800000
131.049300 448666.100000
131.072900 909876.600000
132.057000 736096.900000
132.080800 1300028.100000
133.052300 531211.900000
133.064900 253080.100000
134.060000 5653209.000000
135.067800 8931381.000000
136.075700 6924342.500000
138.023100 159323.400000
139.030800 441327.300000
143.073000 396181.000000
144.080800 3162388.800000
145.064800 545586.600000
145.088600 1248359.800000
145.968700 298053.000000
146.060000 2042805.400000
146.096400 4517999.000000
146.976200 285013.000000
147.067900 384557.300000
147.080400 118332.600000
148.075700 12359260.000000
149.015200 900631.400000
150.023100 1486307.800000
151.031000 665319.400000
154.065100 181238.900000
155.060300 251213.600000
156.080800 841796.600000
157.064600 74371.300000
157.088700 323431.100000
157.968500 1293202.900000
158.060200 142677.600000
158.096500 1836443.900000
158.976300 8969927.000000
159.067800 609609.100000
159.984200 179188.700000
160.075700 1509308.800000
161.083500 441863.700000
161.107400 179681.800000
162.078900 175215.800000
162.091300 849470.300000
162.115300 73206.800000
163.030800 974220.300000
163.086300 327197.800000
163.123000 956909.400000
164.070700 253259.200000
167.025900 2015930.400000
167.081500 8689635.000000
169.968400 6889430.000000
170.976100 508210.000000
171.067800 204692.600000
171.983800 144471.100000
172.075700 1210994.500000
172.112200 461215.900000
172.955600 6380993.500000
173.083600 537173.400000
174.091400 9006833.000000
174.971100 619054.800000
175.086700 205681.000000
175.123300 141440.600000
176.070600 146384.100000
176.094400 474617.700000
176.106800 240107.300000
177.102200 10147000.000000
178.086100 431643.800000
178.110000 779327.100000
179.117700 64433.000000
184.991900 3832145.000000
185.963400 11762601.000000
186.971200 1345417.800000
187.123100 203825.500000
188.106900 393201.100000
189.138500 703421.200000
190.086400 406726.200000
191.094100 174754.000000
191.117800 198427.600000
192.101800 1875025.800000
200.107100 700829.900000
202.966200 740745.900000
203.037000 3045153.200000
204.102300 298370.800000
205.029100 353156.500000
205.052800 117291.100000
205.097300 131885.600000
205.133900 266747.600000
209.036500 227961.200000
212.003000 115479.300000
213.995000 67535.400000
215.118000 300043.600000
216.102100 945045.200000
216.125200 217522.700000
217.133600 1416645.500000
218.117700 326922.500000
219.112900 1569691.400000
220.120600 324342.900000
226.006000 61036.800000
229.052500 76801.200000
233.047800 445234.100000
234.112300 228987.900000
235.143900 245523.800000
236.999000 103774.800000
238.005900 995397.100000
239.013600 441104.000000
244.005200 1431421.800000
247.063300 1165966.200000
252.993200 296650.200000
254.000900 169006.500000
255.008600 8217503.000000
267.008700 6017630.000000
269.024900 64526.400000
271.003400 150818.000000
281.024400 1008006.100000
311.034600 434168.500000
378.065800 984915.900000
489.144900 71905.700000

>ms2peaks
51.022800 58210.300000
53.038600 161625.400000
54.033800 2600466.500000
55.017800 303927.500000
55.041600 465471.900000
55.054200 171866.000000
56.049500 3603333.000000
57.057300 66919.400000
58.065100 343245.700000
65.038500 433884.400000
68.036900 1810882.400000
68.049400 388847.800000
69.044700 4556142.000000
70.065100 8157763.000000
71.060300 3497078.000000
77.038400 166863.900000
79.054200 1933026.000000
80.013100 51141.100000
80.049400 426745.300000
81.044700 37519684.000000
82.052500 41305560.000000
83.060300 1197741.400000
84.068300 49880.700000
85.028600 45455.200000
86.060000 1686138.500000
91.054200 1418891.900000
92.049600 43013.200000
93.033600 146833.400000
93.057200 58637.200000
93.069900 171364.100000
94.041300 414959.500000
94.065100 247233.100000
95.049100 574410.900000
95.060400 347560.900000
96.044400 46661.000000
98.999600 486391.000000
99.022900 41518.200000
103.054200 1299602.500000
104.049500 253795.000000
104.062100 122131.000000
105.044700 254808.100000
105.057300 63055.400000
105.069900 786389.100000
106.065100 829550.400000
107.049100 1771196.100000
107.060300 506446.400000
107.072800 144872.900000
108.044200 223929.300000
108.056900 70365.100000
108.080600 52646.400000
109.039600 1183387.900000
109.052300 149113.000000
109.076000 308725.900000
111.044200 320343.400000
111.055300 303187.300000
112.075700 8476816.000000
113.071100 51325.000000
114.042300 54884.800000
115.054200 1357600.900000
116.049800 45505.100000
116.062100 312804.600000
117.057300 1261304.200000
117.069900 1154913.400000
118.065100 2214117.200000
119.049300 219185.000000
119.060100 44750.900000
119.072900 480467.200000
119.085500 209802.500000
120.044400 12579905.000000
120.080800 2433135.200000
121.039600 587502.900000
121.052200 258292.900000
121.064800 312885.000000
121.076100 133114.900000
122.060000 7498751.000000
122.999500 2151710.800000
124.007400 118028.300000
125.015300 723567.600000
125.986700 118503.500000
127.050200 6323996.000000
128.049600 56085.100000
128.062100 535656.200000
129.069800 1047786.600000
130.065100 3485154.200000
131.049100 848743.100000
131.060300 198007.100000
131.073000 1443340.900000
132.044300 165048.500000
132.056900 812495.900000
132.080800 1330318.000000
132.960400 67098.600000
133.052200 772436.800000
133.064700 224483.000000
133.088500 58067.700000
134.060000 6619367.500000
135.067800 3511513.500000
136.007500 454841.000000
136.075700 5028655.500000
137.015300 175397.000000
138.023100 63363.300000
139.005800 200622.200000
139.030800 549366.600000
141.010100 50505.500000
142.064600 42236.100000
143.073000 749724.000000
144.056500 158231.600000
144.080800 2291557.000000
145.064900 620889.800000
145.088700 838519.000000
145.968600 253810.900000
146.060000 1979975.200000
146.096400 3334554.000000
146.976500 306113.500000
147.044100 54924.400000
147.055100 71453.900000
147.067800 335557.800000
147.080400 65349.300000
148.075700 6234339.000000
149.015300 1566682.500000
150.023100 2716355.200000
151.031000 663824.800000
152.002100 54652.000000
154.065200 287669.700000
154.989500 65006.800000
155.060300 505903.800000
155.072900 51717.100000
156.068200 195039.000000
156.080700 737445.000000
157.088400 346549.800000
157.968500 3021274.200000
158.096500 978870.100000
158.976300 12998066.000000
159.067900 976405.400000
160.075600 1328981.000000
161.071000 112039.100000
161.083700 229709.200000
161.107300 67225.700000
162.079000 246285.100000
162.091200 542849.900000
163.030800 419575.800000
163.086300 216371.100000
163.122800 231341.700000
165.010400 141437.200000
167.025800 948724.100000
167.081500 4373354.000000
168.068200 54095.000000
169.076300 61070.600000
169.968400 8664085.000000
170.976300 1295667.200000
171.067800 69154.600000
171.984200 107767.000000
172.075700 791333.800000
172.112200 176080.700000
172.955600 6763011.000000
172.966200 450551.093800
174.091400 4013591.800000
174.971300 557490.600000
175.086700 174562.700000
176.070800 154056.800000
176.094500 220963.600000
176.107000 216424.700000
177.034000 128812.700000
177.078600 233312.600000
177.102200 1991580.500000
178.086200 153032.700000
179.025600 149134.600000
182.976500 181170.000000
184.075700 152736.300000
184.991900 1219800.500000
185.963400 5012709.500000
186.971100 798301.900000
188.107100 55303.800000
189.139000 61657.600000
189.958300 128008.600000
190.086100 175790.000000
191.036900 193797.900000
192.102000 955125.400000
198.971000 114467.200000
200.106900 42715.500000
202.966200 136006.200000
203.037000 1651490.900000
204.021400 49832.400000
204.044800 127946.600000
204.102000 43667.200000
205.029100 815055.900000
205.053000 151280.400000
212.002700 221426.100000
216.101700 144422.000000
229.053400 103791.400000
233.047600 110412.900000
236.998200 112427.200000
239.013600 411104.200000
239.997800 206724.100000
247.063600 258310.000000
252.993100 585425.200000
255.008600 2514681.800000
267.008600 1981217.400000
281.024200 489153.000000
378.065800 179634.700000

>ms2peaks
53.002200 119881.600000
53.038600 453151.000000
54.033800 3954542.800000
55.017800 266245.500000
55.041600 635194.400000
55.054300 49346.000000
56.049500 3287572.000000
57.057300 125926.900000
58.065100 332340.600000
63.022900 68392.500000
65.038600 1267709.900000
66.046400 56974.300000
67.029100 46829.100000
67.041700 56327.600000
67.054300 130126.600000
68.036900 1614200.600000
68.049500 369841.100000
69.044700 4664646.000000
70.065100 5685415.500000
71.060300 1751035.000000
75.022900 64556.200000
77.038400 409597.100000
78.046400 69443.500000
79.054200 3176450.000000
80.013100 73356.700000
80.049400 572019.800000
81.044700 43577856.000000
82.052500 25779400.000000
83.060300 780055.100000
84.984000 67639.100000
85.028400 44419.000000
86.060000 888223.900000
89.038500 438855.200000
90.046400 47973.600000
91.054200 2325559.500000
92.049500 116289.400000
93.033700 204325.500000
93.057400 212086.700000
93.069900 284825.700000
94.041300 1212275.500000
94.065100 514141.600000
95.049200 1654041.100000
95.060400 392038.100000
96.044300 200058.600000
98.999600 693201.200000
99.022900 60338.800000
102.046400 229577.300000
103.054200 2407830.200000
104.049400 492850.300000
104.062000 256975.800000
105.033700 56776.100000
105.044800 698041.400000
105.057200 225879.600000
105.069900 607201.100000
106.065100 1406830.200000
107.049200 1937280.000000
107.060400 380829.800000
107.072900 202084.600000
108.044400 370263.800000
108.057000 71005.600000
108.080700 44348.600000
108.984100 143757.800000
109.039700 1030159.400000
109.052300 188383.800000
109.076100 240521.400000
111.044100 731288.300000
111.055500 103164.300000
112.075700 3538207.200000
115.054200 3452364.000000
116.049500 69129.000000
116.062000 596688.100000
117.057300 1571700.200000
117.069900 1024837.600000
118.041300 121044.100000
118.065100 2383006.000000
119.049200 161699.300000
119.060300 47285.000000
119.073000 549672.100000
119.085600 170797.500000
120.044400 12512458.000000
120.080800 2052480.000000
121.039600 1449554.400000
121.052100 556680.700000
121.064600 351013.000000
121.076000 117524.100000
122.060000 5346585.000000
122.999600 5540945.000000
124.007500 426917.300000
125.015200 780041.200000
125.986800 49862.600000
126.994500 461615.600000
127.050200 7546066.000000
128.002400 118905.400000
128.062100 939175.200000
129.010100 198700.200000
129.069900 672588.000000
130.065200 3420304.500000
131.049200 1096513.100000
131.060400 355692.700000
131.073000 1484423.000000
132.044400 56418.400000
132.057000 777854.800000
132.080800 973017.900000
132.960800 189914.400000
133.052200 630471.500000
133.064800 65468.800000
134.060000 3752448.000000
134.999500 181231.500000
135.067800 980596.000000
136.007500 1155246.000000
136.075700 3277507.500000
137.015300 268636.600000
139.005700 363591.400000
139.030800 230658.000000
141.057200 57548.400000
142.065200 129376.200000
143.073000 882745.600000
144.056500 155006.700000
144.080800 1407340.600000
144.960600 172091.300000
145.005000 54961.300000
145.052600 57695.900000
145.064800 401794.600000
145.088500 303202.300000
145.968400 281966.800000
146.060100 1380187.500000
146.096400 1272862.600000
146.976300 232332.100000
147.055500 54657.300000
147.068000 312169.200000
148.075700 1702038.200000
149.015300 1514515.000000
150.023100 2071933.400000
151.031200 275955.400000
154.065200 162151.600000
154.989600 138449.000000
155.060300 462930.900000
155.073000 133225.700000
156.068400 264605.400000
156.080900 584485.200000
157.088900 139123.700000
157.968500 2390385.200000
158.060000 545852.400000
158.096800 297946.600000
158.976300 12371206.000000
159.067900 813376.200000
160.075800 1039887.000000
161.070900 53614.900000
161.083600 61209.700000
161.963700 43910.300000
162.010600 123285.700000
162.091300 158852.600000
162.971200 155426.400000
163.005800 324042.000000
163.030900 120522.800000
163.086700 165064.000000
167.025900 329738.100000
167.081500 975913.700000
168.068100 64448.500000
169.076100 50593.200000
169.968500 7388917.000000
170.976200 1248298.500000
171.983700 51205.200000
172.075600 472324.900000
172.955600 4503039.500000
172.966900 1701424.900000
174.091400 1382347.500000
174.971000 267346.600000
176.070700 65008.200000
176.107000 60835.500000
177.034100 144660.200000
177.078500 56267.200000
177.102400 280827.600000
178.086200 56363.700000
182.976400 209046.200000
184.075900 53593.200000
184.991700 258839.100000
185.963300 1142762.600000
186.971300 170132.600000
189.958100 58576.200000
191.036800 56536.900000
192.102100 316997.200000
198.971000 60223.300000
203.037100 1164889.100000
204.021300 217389.200000
204.045100 121590.600000
205.028800 435961.300000
236.998000 115690.500000
239.998000 141785.600000
252.992800 495888.100000
255.008700 394526.100000
267.008800 278311.900000

>ms2peaks
50.015000 271256.600000
51.022900 162835.000000
52.018200 127086.600000
53.002200 193733.000000
53.038600 1295846.500000
54.033800 7560790.500000
55.017800 402810.400000
55.041600 1002379.400000
55.054200 54086.800000
56.049500 2614349.800000
58.065100 134161.800000
62.015100 60623.500000
63.022900 448367.100000
64.030800 69169.300000
65.038600 5325424.500000
66.046400 396281.900000
67.029100 148572.900000
67.041700 131372.100000
67.054200 231315.200000
68.036900 1020144.800000
68.049400 289732.800000
69.044700 4213785.500000
70.065100 2088136.600000
71.060300 697952.100000
72.983900 694741.400000
74.015000 409431.600000
75.022900 484431.900000
76.030600 65771.100000
77.002100 617157.200000
77.038500 1042983.900000
78.033700 222506.700000
78.046400 461823.500000
79.054200 2640955.800000
80.013000 196979.200000
80.049400 987347.000000
81.044700 47687448.000000
82.052500 10344216.000000
83.060300 608230.400000
84.068200 55083.700000
84.983900 203063.300000
86.060100 178749.200000
86.963200 537697.800000
88.030800 169796.500000
89.038600 2998255.000000
90.046400 426498.400000
91.054200 3868794.000000
92.025700 61455.600000
92.049500 355145.400000
93.033600 236385.500000
93.057300 311871.000000
93.069900 174383.200000
94.041300 2545130.500000
94.065200 347054.800000
95.049100 4457544.500000
96.044400 493075.200000
96.984000 311207.700000
98.015200 126827.400000
98.999600 1241995.600000
99.022900 1393435.400000
101.038600 49445.500000
102.046400 633078.100000
103.054200 3370478.000000
104.049400 572310.400000
104.062000 425346.800000
105.044700 2252330.800000
105.057200 323458.100000
105.069900 337713.700000
106.065100 1322067.200000
107.049100 1299864.900000
107.060400 153759.900000
107.072900 113585.400000
107.976100 65254.000000
108.044400 231678.200000
108.984000 1767074.400000
109.039600 898478.100000
109.052200 149392.600000
110.059900 51002.200000
110.999600 146857.300000
111.044000 1713420.400000
112.007400 50291.500000
112.075600 514945.300000
113.038300 92124.500000
114.046400 149072.400000
115.054200 5631155.500000
116.049400 159979.300000
116.062100 653570.200000
117.057300 1715807.900000
117.069800 624009.800000
118.041300 172438.800000
118.065100 1714171.800000
119.049300 126802.900000
119.073000 387610.900000
120.044400 4490094.000000
120.080800 691048.300000
121.039600 2863571.000000
121.052200 1160049.900000
121.064400 207942.100000
122.060000 1941068.800000
122.999600 10202662.000000
124.007400 1214477.000000
125.015300 752741.900000
126.046600 56138.900000
127.050200 3897734.200000
128.002500 142086.900000
128.049500 183285.900000
128.062000 982312.400000
129.010300 195277.300000
129.044500 134670.300000
129.057100 52338.900000
129.069800 297427.700000
130.065200 2419032.200000
131.049200 1229278.400000
131.060300 429508.000000
131.073000 644320.400000
132.044500 163562.900000
132.057100 394011.000000
132.080700 481808.300000
132.960600 596913.900000
133.052200 504162.100000
133.991700 364995.600000
134.060000 968834.800000
134.999500 478884.500000
135.067800 123571.700000
136.007400 2130991.200000
136.075700 830775.600000
137.015300 54859.300000
139.005700 347960.000000
140.049400 157037.400000
141.057200 272230.200000
142.065100 266910.800000
143.072900 481525.800000
144.080800 657569.800000
144.960600 424652.600000
145.064800 229469.900000
145.968600 119093.200000
146.060000 490490.100000
146.096600 165146.400000
148.075800 186810.100000
149.015300 1154557.100000
150.023000 364134.200000
153.010000 129296.300000
154.065200 246065.200000
155.060300 340728.300000
156.068300 170131.900000
156.080800 212047.500000
157.968700 278622.800000
158.060000 659676.900000
158.976300 5419894.000000
160.075600 279586.800000
162.010500 157553.900000
162.971000 347333.900000
163.005700 1101766.500000
168.068200 67351.700000
169.968400 3205086.200000
170.976300 246747.000000
172.075700 145397.500000
172.955700 665993.100000
172.966800 2345620.000000
174.091500 62287.300000
177.033800 51199.700000
182.976400 143661.700000
203.037000 213954.200000

>ms2peaks
50.015100 720198.200000
51.022900 539383.200000
52.018200 201154.100000
53.002200 407064.200000
53.038600 2003926.600000
54.033800 10305876.000000
55.017900 428632.400000
55.029100 114567.100000
55.041600 777043.700000
56.049500 1606678.000000
57.057300 50625.400000
61.007100 41553.300000
62.015000 321414.600000
63.022900 1493178.400000
64.030800 296007.800000
65.038600 8279961.500000
66.046400 625870.800000
67.029100 191406.900000
67.041600 193839.000000
67.054200 215933.400000
68.036900 568019.000000
68.049500 159199.600000
69.044700 3702890.200000
70.065100 559316.400000
71.060300 407288.600000
72.983900 2254004.000000
74.015100 2113448.000000
75.022900 1353240.500000
76.030600 308115.000000
77.002100 923850.100000
77.038500 1663955.400000
78.033800 267422.800000
78.046400 760653.500000
79.054200 1169507.500000
80.049400 1138244.800000
81.044700 39725052.000000
82.052500 4232559.000000
82.945000 140176.200000
83.060300 286174.100000
83.976100 48980.000000
84.983900 273070.100000
86.963200 595126.900000
87.023000 178440.600000
88.030700 604452.500000
89.038600 6902626.500000
90.046400 674036.500000
91.041600 242691.300000
91.054200 2908952.500000
92.025700 48621.800000
92.049500 388280.800000
93.033500 150220.400000
93.057300 351824.600000
94.041300 2130870.000000
94.065100 150884.700000
95.049100 5277400.000000
96.044300 406217.400000
96.984000 1043224.500000
98.015100 1019366.800000
98.999600 1583620.400000
99.022900 3629417.200000
100.030700 284664.300000
101.038600 148934.900000
102.046400 900982.900000
103.054200 2304558.000000
104.049500 590213.400000
104.061900 157670.800000
105.044700 3053430.500000
105.057200 231052.600000
106.065100 650386.800000
107.049100 562569.800000
107.976100 206823.200000
108.044300 160357.700000
108.984000 3480950.800000
109.039500 321482.800000
109.991800 126179.000000
110.999700 46153.500000
111.044000 891584.200000
113.038600 180630.500000
114.046500 279038.900000
115.054200 5321128.000000
116.049400 140551.200000
116.062000 270094.900000
117.057300 1057907.600000
117.069800 198203.700000
118.041300 195986.600000
118.065100 1073244.100000
119.049300 64297.500000
119.072900 60173.900000
120.044400 1954997.100000
120.080800 169059.300000
121.039700 1325674.800000
121.052100 420730.400000
121.064700 121704.900000
122.060100 333750.900000
122.999600 6668192.000000
124.007500 842977.100000
125.015200 223440.600000
126.046500 165284.700000
127.050200 1000501.800000
127.054200 85620.200000
128.002400 48002.600000
128.049400 182677.700000
128.062100 612389.100000
129.044700 417519.100000
129.069800 42440.500000
130.065200 1485145.500000
131.049100 963020.500000
131.060400 124277.100000
131.072900 137277.400000
132.044300 44126.200000
132.056900 217907.300000
132.080700 63829.700000
132.960600 609971.600000
133.052100 150423.700000
133.076100 44077.500000
133.991900 245563.200000
134.060000 212268.400000
134.999600 338250.900000
136.007500 1643701.600000
139.005600 270369.800000
140.049400 178418.900000
141.057400 199172.800000
142.065100 195517.500000
143.072900 192089.400000
144.080900 190847.400000
144.960600 293394.100000
145.039700 44082.100000
145.064700 109807.800000
146.059900 175182.800000
149.015400 525488.500000
153.010000 108968.100000
154.065000 156034.900000
155.060400 230237.400000
156.068300 48475.600000
156.080800 48643.400000
158.059900 334643.800000
158.976300 968940.500000
160.075400 46347.400000
162.010600 52581.700000
162.970900 118833.900000
163.005700 609545.900000
169.968400 521586.200000
172.955500 43522.200000
172.966800 693667.200000

>ms2peaks
50.015100 1286203.000000
51.023000 1515255.400000
52.018200 379847.800000
53.002200 410652.800000
53.038600 1354891.000000
54.033900 8838007.000000
55.017900 236691.700000
55.029100 38984.400000
55.041600 362493.200000
56.049500 824637.000000
57.057200 38635.700000
61.007300 180985.100000
62.015100 928461.900000
63.022900 3197372.500000
64.030700 314128.000000
65.038600 6656840.000000
66.046400 721771.900000
67.029000 154210.200000
67.041700 159252.500000
67.054200 108962.900000
68.036900 260570.900000
68.049500 33785.600000
69.044700 2060092.400000
70.065100 143617.500000
71.060300 144277.900000
72.983900 3608483.500000
74.015100 4729795.000000
75.022900 2203156.500000
76.030700 301321.300000
77.002200 372965.100000
77.038500 1769530.800000
78.033800 171714.700000
78.046400 693561.900000
79.054200 436328.900000
80.049400 623053.400000
81.044700 24058616.000000
82.052500 1314212.200000
82.944900 246144.700000
83.060400 129147.700000
83.976100 159218.200000
84.984000 230031.200000
86.963200 220164.300000
87.023000 313819.500000
88.030800 758896.800000
89.038600 7099976.500000
90.046400 595363.800000
91.041700 169240.800000
91.054200 1949370.100000
92.025700 34027.300000
92.049500 218016.200000
93.057200 140673.900000
94.041300 919521.600000
95.049200 4066821.200000
96.044400 287364.200000
96.984000 1174114.000000
98.015100 2716663.200000
98.999600 822341.300000
99.022900 3237578.500000
100.030700 211581.300000
101.038600 157052.000000
102.046400 727168.200000
103.054200 1222430.100000
104.049400 446368.600000
104.061900 42778.900000
105.044700 2367893.000000
106.065100 159877.500000
107.049100 180568.400000
107.060300 37391.600000
107.976100 175767.400000
108.984000 2110198.500000
109.039600 109800.800000
109.991800 124372.400000
111.044000 344537.800000
113.038500 334705.800000
114.046400 150803.300000
115.054200 3185176.500000
116.049500 106517.400000
116.061900 109372.900000
117.057300 627614.000000
118.065000 369484.000000
119.049200 55104.000000
120.044400 677997.200000
121.039600 413880.900000
121.052100 47211.000000
122.999600 2604261.500000
124.007400 180902.700000
126.046400 108967.200000
127.050000 104159.500000
127.054100 82977.600000
128.049500 108842.000000
128.062000 335679.500000
129.009700 25337.900000
129.044800 342964.100000
129.057400 26869.300000
130.065200 541408.400000
131.049200 372770.100000
131.060200 43622.800000
132.057100 118335.300000
132.960600 250358.200000
133.052300 32585.100000
134.060000 28347.400000
134.999700 55594.600000
136.007500 595975.700000
140.049200 44514.800000
141.056900 30644.400000
142.065100 99449.600000
143.073000 38797.700000
144.080500 35333.900000
144.960700 36672.300000
145.064500 43230.500000
146.059600 47778.100000
149.015100 144043.000000
154.064900 47943.800000
155.060400 113900.100000
158.060000 61652.400000
158.976200 110448.400000
163.005600 143728.500000
169.968500 60273.000000
172.966700 105135.000000

