>compound EQ65829838
>parentmass 253.123
>ionization [M+H]+
>formula C10H16N6S
>rt 120.000000
>profile orbitrap
#smiles_iso CC1=C(N=CN1)CSCCNC(=NC)NC#N
#smiles_can CC1=C(N=CN1)CSCCNC(=NC)NC#N
#inchikey AQIXAKUUQRKLND-UHFFFAOYSA-N
#pubchem_id 2756
#mb_accession EQ372201,EQ372202,EQ372203,EQ372204,EQ372205,EQ372206,EQ372207,EQ372208,EQ372209

>ms2
57.044600 289252.200000
61.010500 956478.100000
95.060200 33099482.000000
99.066400 1665261.900000
103.032300 2340974.000000
117.048000 92397656.000000
128.027500 976789.800000
132.058800 258378.800000
155.063500 1201995.400000
159.069700 165510176.000000
172.090100 11228787.000000
193.119500 1540141.600000
197.085200 1012745.400000
211.101100 21427094.000000
222.080500 2251522.000000
253.122700 232449968.000000

>ms2
57.044500 975981.500000
61.010500 1423212.200000
78.037200 610251.300000
82.039800 606542.500000
95.060300 119797712.000000
99.066400 7043949.500000
103.032300 5841887.000000
117.048000 150098288.000000
125.082000 431203.200000
128.027500 3074755.000000
132.058800 669770.000000
142.043300 387592.200000
155.063600 2616285.500000
159.069700 234589840.000000
172.090100 10423802.000000
193.119300 607673.800000
197.085200 381858.600000
211.101100 9526353.000000
222.080800 647496.200000
253.122800 32679292.000000

>ms2
54.033800 1223246.600000
57.044700 6768580.500000
61.010500 3583027.500000
68.024200 480236.200000
78.037100 3067655.800000
82.039900 5525964.500000
83.060200 226984.200000
95.060300 205001840.000000
99.066400 40754180.000000
100.086800 544546.800000
103.032400 7353680.500000
116.027700 252517.500000
117.048000 121378896.000000
125.082000 963031.400000
128.027600 5355841.000000
132.058800 1439815.900000
142.043200 408956.400000
155.063600 986380.000000
159.069800 126107856.000000
172.090100 1380455.800000
211.101200 357002.100000
253.122800 378016.500000

>ms2
54.033800 4694660.500000
57.044700 13652803.000000
61.010600 12231553.000000
68.024200 1581323.600000
68.049400 638257.700000
74.005800 234366.200000
78.037100 2196314.800000
82.039900 15248009.000000
83.060300 792656.700000
95.060300 226174432.000000
99.066400 58902888.000000
100.086500 397494.500000
103.032300 4754301.500000
117.048000 82252760.000000
125.081900 705268.100000
128.027600 3646568.800000
131.038500 374907.100000
132.058900 1218663.900000
142.043300 282016.500000
155.063500 554634.400000
159.069800 26576180.000000

>ms2
54.033800 11698630.000000
55.029000 249316.000000
57.044700 18851064.000000
61.010600 19898214.000000
68.024200 2810503.000000
68.049400 2196385.800000
69.044700 450026.100000
74.005700 485711.700000
76.021400 325847.700000
78.037200 644856.300000
82.039900 24336958.000000
83.060300 589632.400000
86.005800 366939.700000
95.060300 220961856.000000
99.066400 35945256.000000
100.086700 242522.900000
103.032300 2645577.200000
117.048000 54466480.000000
125.081900 395023.000000
128.027600 2063185.900000
132.058900 518985.300000
159.069800 3263299.800000

>ms2
52.018000 208243.100000
53.002200 347133.400000
54.033800 24348476.000000
55.029000 753095.600000
57.044700 22195978.000000
61.010600 25907434.000000
66.033800 296183.500000
68.024300 5218411.500000
68.049400 5076170.000000
69.044600 455936.100000
74.005800 1569915.500000
76.021400 432554.700000
82.039900 27413676.000000
83.060300 826562.900000
86.005800 616037.400000
95.060300 195136560.000000
99.066400 15316058.000000
103.032300 1598621.400000
117.048000 31609646.000000
128.027500 1422065.400000
132.058800 206855.400000
159.069700 326869.500000

>ms2
52.018200 98765.000000
53.002200 991237.100000
53.038600 232373.800000
54.033800 28680272.000000
55.029000 1995467.400000
57.044700 15257478.000000
58.995000 409246.500000
59.990200 349646.900000
61.010600 19385998.000000
66.033800 267289.600000
68.024300 5494826.500000
68.049400 6932726.500000
69.044700 352398.600000
74.005800 3477083.200000
76.021300 220861.000000
81.044600 200313.600000
82.039900 15732894.000000
83.060200 349532.200000
84.985300 106930.100000
86.005800 300410.600000
95.060300 69872592.000000
96.068000 87564.000000
99.066500 981712.000000
103.032400 453122.300000
117.048000 5291425.000000

>ms2
50.015100 51302.200000
51.023000 157199.600000
52.018200 252067.100000
53.002200 1508401.500000
53.038600 227306.300000
54.033800 19177816.000000
55.029100 2505506.500000
56.049500 70147.000000
57.044700 9801207.000000
58.982300 89597.900000
58.995000 377051.800000
59.990200 477909.300000
60.002800 161772.000000
61.010600 11112197.000000
66.033800 220586.000000
67.041600 73507.400000
68.024300 4906809.000000
68.049400 4393907.500000
69.044700 175183.900000
74.005800 4165557.200000
76.021400 43573.900000
78.008600 97500.500000
81.044700 340846.300000
82.039900 6712358.000000
83.060400 54902.000000
84.985500 54175.700000
86.006000 48184.900000
94.052400 42234.300000
95.060300 18821046.000000
103.032400 70384.800000
117.048100 877180.400000

>ms2
50.015100 39737.000000
51.022800 196616.500000
52.018200 418849.400000
53.002200 1495706.500000
54.033800 8661915.000000
55.029000 1783206.800000
57.044700 5245857.500000
58.982400 481349.300000
58.995000 295408.300000
59.990200 430687.500000
60.002700 89032.700000
61.010600 4858163.000000
66.033700 190264.100000
67.041500 47973.400000
68.024300 3704361.000000
68.049400 1952027.200000
74.005800 2664912.500000
78.008500 49564.400000
81.044600 315141.100000
82.039900 2218219.500000
84.985300 73577.400000
95.060300 4132796.800000
117.048100 48928.600000

