>compound EQ66435220
>parentmass 363.2166000000001
>ionization [M+H]+
>formula C21H30O5
>rt 462.000000
>profile orbitrap
#smiles_iso C[C@]12CCC(=O)C=C1CC[C@@H]3[C@@H]2[C@H](C[C@]4([C@H]3CC[C@@]4(C(=O)CO)O)C)O
#smiles_can CC12CCC(=O)C=C1CCC3C2C(CC4(C3CCC4(C(=O)CO)O)C)O
#inchikey JYGXADMDTFJGBT-VWUMJDOOSA-N
#pubchem_id 5754
#mb_accession EQ320101,EQ320102,EQ320103,EQ320104,EQ320105,EQ320106,EQ320107,EQ320108,EQ320109

>ms2
97.064600 1333691.000000
109.064300 431091.800000
121.064800 6417333.500000
123.080100 583024.900000
135.080100 620626.500000
147.080300 404933.700000
147.116600 579082.200000
149.096000 452117.900000
175.112000 440056.800000
187.111800 640689.500000
201.127500 533927.300000
231.137800 518459.400000
239.143300 463469.100000
241.158500 1161427.600000
243.174000 525148.200000
249.163800 609151.900000
251.142900 582890.900000
265.159200 451998.000000
267.174300 4788950.000000
269.189900 2494806.200000
279.174700 890699.700000
281.153500 793077.700000
281.189900 1487586.100000
285.184800 833597.900000
287.200500 456173.800000
291.174600 2191902.800000
297.184900 3401395.200000
299.201300 841453.700000
309.185000 8917920.000000
315.195300 1257695.200000
327.195600 18079276.000000
345.206300 11482237.000000
363.216600 393399744.000000

>ms2
51.022800 52343.100000
53.038500 75284.500000
55.017800 59386.200000
55.054200 108546.000000
57.033500 63342.700000
67.054300 321300.700000
69.033400 462903.200000
69.069800 261779.300000
71.049100 389786.500000
75.044000 82118.100000
77.023300 98000.100000
77.038300 173591.200000
79.054200 313886.200000
81.033500 207691.500000
81.069900 1634701.900000
83.049100 1661842.600000
83.085400 91564.100000
85.028500 75273.000000
85.064700 284682.000000
91.054100 440690.200000
93.069900 1547877.100000
95.049100 261403.200000
95.085500 1685204.000000
97.064800 11851745.000000
99.044000 1784244.900000
101.059700 334510.000000
103.038900 518872.700000
105.069900 1535766.900000
107.049100 314580.900000
107.085500 1791513.600000
109.064800 5809096.000000
109.101200 630502.800000
111.044100 335915.200000
111.080400 684774.100000
113.059700 243785.000000
115.054000 94420.900000
117.069800 447323.600000
119.085600 3630923.800000
121.064800 48064580.000000
123.080400 6311180.000000
125.059800 608774.200000
125.096100 89735.500000
127.075300 266174.800000
128.061800 68056.900000
129.069800 630450.800000
131.085500 2448496.500000
133.064900 823555.100000
133.101200 2067964.500000
135.080400 5709914.500000
135.116800 1261356.000000
137.059700 294711.000000
137.096200 1278363.900000
139.075300 428587.500000
141.069800 1079030.800000
143.085600 3116647.000000
145.064700 603607.000000
145.101200 4872280.000000
146.109100 65614.900000
147.080400 3613813.500000
147.116800 4979883.500000
149.096200 2960103.500000
149.132600 1176471.100000
151.075300 986189.900000
151.111500 344845.400000
153.069700 102347.600000
153.091200 522140.200000
155.085500 1711157.600000
157.064800 450375.200000
157.101200 4724396.500000
159.080500 2159175.000000
159.116800 3598564.000000
161.096100 3201250.500000
161.132400 1144644.000000
163.111700 4552795.500000
165.069700 75720.900000
165.091000 534257.400000
165.127400 358180.600000
167.085600 677967.200000
169.101200 4393245.500000
171.080400 2018661.800000
171.116800 3077152.500000
172.124600 292114.100000
173.096200 4165409.200000
173.132600 1830388.200000
175.111800 4418258.500000
177.091000 549622.800000
177.127400 1062972.500000
178.077000 65943.600000
179.085700 223533.400000
179.106700 602654.700000
181.101200 1454232.500000
183.080500 193223.700000
183.116900 2940455.000000
185.096100 2642821.000000
185.132500 2916580.200000
187.111800 7479854.500000
187.148100 608057.200000
189.090900 209092.600000
189.127400 2546652.800000
191.106500 638898.800000
191.143200 194410.100000
193.101300 686280.300000
193.122100 534673.000000
195.116800 1987785.900000
197.096000 1004037.100000
197.132500 1739336.500000
199.111800 1905059.500000
199.148100 995331.200000
200.119900 56429.600000
201.127400 3635043.000000
203.106800 915723.800000
203.143100 642872.400000
205.101400 193933.000000
205.122300 1405691.900000
207.117000 1677094.600000
207.137900 957247.600000
209.096500 440560.100000
209.132500 4088232.000000
211.112000 1459236.000000
211.148200 1835541.800000
213.127500 3153197.200000
213.163900 300729.500000
215.143200 2459750.500000
217.101800 65880.700000
217.122200 588589.200000
217.159000 494308.500000
219.116600 321105.400000
219.138100 996911.800000
221.096000 107380.200000
221.132600 1790653.400000
222.140200 57964.300000
223.112200 916435.700000
223.148200 3260181.800000
225.127500 4887231.500000
225.163700 1514124.100000
227.143100 3180975.800000
227.179400 194163.400000
229.122500 519003.400000
229.158800 1593971.500000
231.116500 198527.500000
231.138100 2201285.000000
233.132400 1008002.900000
233.153500 193276.200000
234.140500 60307.000000
235.111700 369357.900000
235.148400 787788.200000
236.155700 49662.700000
237.127300 842541.200000
237.163900 705671.100000
239.143100 5060594.500000
239.179300 926013.600000
241.158700 8670714.000000
243.138200 1352432.100000
243.174400 4047655.000000
244.124000 62047.400000
245.132700 263972.700000
245.153700 1071746.800000
247.148200 901746.400000
248.155800 201060.900000
249.127900 681132.400000
249.163800 4679427.500000
250.134000 59988.300000
250.171500 192505.500000
251.143100 4615239.000000
251.179500 2849942.000000
252.151000 98160.900000
253.122400 382829.900000
253.158700 1859100.100000
253.195000 482567.300000
255.138300 241555.900000
255.174500 745136.200000
257.153900 653749.900000
258.140500 95089.700000
259.169800 238037.000000
261.148600 498836.800000
261.163800 907941.000000
262.135300 54135.700000
263.143100 1380175.100000
263.179300 1808683.400000
265.158700 2409112.200000
266.166500 442340.300000
267.174400 18942558.000000
268.182300 2219425.000000
269.153800 1844291.800000
269.190000 14040211.000000
271.134200 70748.600000
271.169100 1069084.900000
273.163800 1600503.400000
276.150200 109026.000000
279.174400 4314279.500000
281.153900 2568970.800000
281.190000 7743491.000000
283.169400 1230285.000000
284.177100 80156.200000
285.185000 3228708.000000
286.192600 228611.500000
287.200600 2008598.900000
291.174300 9020872.000000
294.161500 197691.300000
296.177600 49644.600000
297.185000 11154408.000000
299.164400 605590.200000
299.200700 2715036.500000
301.180100 702806.600000
309.185000 25332600.000000
312.172700 177614.500000
315.195600 2873632.200000
317.212100 420808.500000
327.195600 28357458.000000
345.206200 10581530.000000
363.216800 38652756.000000

>ms2
53.038600 273697.600000
55.017800 754045.400000
55.054200 790716.800000
57.033500 436661.100000
57.069900 97562.000000
59.049200 101843.900000
61.028500 63390.600000
63.022800 63987.300000
65.038400 95323.500000
67.054200 1378914.800000
69.033400 721928.800000
69.069900 1126814.500000
71.049100 621020.200000
75.044000 368189.400000
77.023200 76246.400000
77.038300 337180.200000
79.054200 2135294.800000
81.033500 207226.400000
81.069900 3861668.500000
83.049100 3666078.800000
83.085600 221879.200000
85.028400 307357.700000
85.064700 476457.100000
87.044100 196374.900000
91.054200 2994994.200000
93.069900 5889043.000000
95.049200 893465.600000
95.085600 3755773.000000
97.064800 16003611.000000
99.044100 1877716.900000
101.059800 382528.900000
103.039000 249756.800000
103.054200 82732.200000
105.069900 6397273.500000
107.049100 1014223.000000
107.085500 4550830.000000
109.064900 9566239.000000
109.101200 1002736.100000
111.044100 496474.400000
111.080500 931352.700000
113.059700 235394.900000
115.054200 232976.600000
117.069900 2503650.500000
119.085600 7724210.500000
121.064800 53230320.000000
123.080400 11579088.000000
125.059800 819703.100000
125.096300 208727.500000
127.075300 87493.400000
128.061900 549172.200000
129.069900 3110132.200000
130.077600 169636.900000
131.085600 6733334.500000
133.064800 1678277.800000
133.101200 5095869.500000
135.080500 5966536.500000
135.116800 1951967.500000
137.059600 589613.000000
137.096100 1604006.900000
139.075400 364324.400000
141.069900 2485677.500000
142.077700 753159.500000
143.085600 8379560.000000
144.093300 327822.100000
145.064900 1567803.100000
145.101200 11691918.000000
146.109000 453596.700000
147.080500 4959221.500000
147.116900 10428050.000000
148.088100 89404.800000
149.096200 2706956.500000
149.132500 1263028.800000
151.075400 787853.600000
151.111900 234456.000000
153.069800 336848.900000
153.090900 228046.300000
154.077800 492345.800000
155.085600 3548297.800000
156.093300 260045.500000
157.064800 636995.500000
157.101200 8351674.000000
158.072600 82821.400000
158.109000 190674.300000
159.080500 4025214.000000
159.116900 8228662.500000
160.088300 74724.200000
161.096100 4187301.500000
161.132500 2154411.200000
162.104100 88657.200000
163.111800 7538289.500000
165.069800 363457.500000
165.091000 350387.700000
165.127600 191330.800000
166.077800 191641.400000
167.085600 1331692.900000
168.093500 440253.100000
169.101200 6856064.000000
170.109100 207986.900000
171.080500 1826758.500000
171.116800 5246239.500000
172.088200 217872.400000
172.124800 926709.900000
173.096200 5632300.500000
173.132600 3169268.000000
174.103900 190349.000000
175.111800 5203362.000000
176.119700 161470.500000
177.091100 290912.700000
177.127500 1103097.000000
178.077300 105961.900000
179.085600 648238.400000
179.106700 337046.400000
180.093100 327652.100000
181.101200 2890980.500000
182.109200 392572.100000
183.080600 407831.500000
183.116900 5274285.000000
184.088300 210424.100000
184.124500 201548.100000
185.096100 3070936.200000
185.132500 4846613.000000
186.104100 92054.200000
186.140300 202521.000000
187.111800 5738971.000000
187.148200 896995.100000
188.120000 108288.100000
189.091200 288353.300000
189.127400 2581632.200000
191.085600 88090.000000
191.106900 414062.800000
191.143100 228809.000000
192.093100 304369.800000
193.101300 1594176.000000
193.122600 179341.200000
194.109200 503429.600000
195.116900 3709797.800000
196.088500 63488.300000
196.125000 355949.700000
197.096100 1430863.600000
197.132600 3554105.200000
198.103800 265194.600000
198.139600 63059.500000
199.111800 2382022.800000
199.148100 1898573.000000
200.119600 235011.200000
201.127300 2202376.500000
203.084900 82661.100000
203.106500 456837.200000
203.143100 487860.700000
205.101600 558589.400000
205.122400 797565.600000
206.109200 237851.700000
207.117000 2637393.800000
208.124700 560704.800000
209.095900 412928.300000
209.132600 4825294.000000
210.104000 204063.700000
210.140500 369835.500000
211.111900 1748314.600000
211.148200 2583395.200000
212.119600 90299.000000
212.155900 161669.500000
213.127500 3109166.800000
213.163600 595061.300000
214.135900 105209.400000
215.143100 1795225.200000
217.101300 160420.900000
217.122700 482072.800000
217.159000 206479.500000
218.109000 247319.600000
219.117000 633064.800000
219.138200 311135.800000
220.124900 310862.200000
221.096200 242999.800000
221.132600 2301935.200000
222.139900 111971.800000
223.112100 819599.800000
223.148200 3602929.800000
224.118900 100504.600000
224.155900 94174.200000
225.127500 4860007.500000
225.163800 1806231.100000
226.135900 364642.100000
226.171300 54450.700000
227.143200 2121434.200000
227.179200 742143.300000
228.150700 411931.700000
229.122600 227185.700000
229.158900 768520.600000
231.117000 197367.600000
231.138300 604164.600000
232.124900 190884.100000
233.132600 850477.800000
233.153500 88346.600000
234.103800 188663.700000
234.140100 351853.900000
235.111800 348631.000000
235.148200 967140.200000
236.119600 85886.600000
236.156100 309717.600000
237.127400 842478.800000
237.163900 780392.100000
238.135100 246389.400000
239.143100 4140138.200000
239.179400 772609.800000
240.150700 186135.800000
241.158800 6104514.000000
242.166700 479776.400000
243.116700 111131.100000
243.138000 564077.600000
243.174400 2128230.000000
244.124100 54394.000000
245.132700 187081.200000
245.153700 234934.000000
247.148100 658247.300000
248.119600 242940.200000
248.155900 279526.400000
249.127500 506284.800000
249.163900 2504680.200000
250.135200 65877.300000
250.171600 260130.100000
251.143200 2568941.800000
251.179500 1710328.100000
252.151000 310293.500000
253.122100 201118.000000
253.158700 2330558.500000
253.195000 213745.100000
254.166900 261280.600000
255.138100 172481.100000
255.174500 407265.500000
257.153500 260364.800000
258.140500 258267.000000
259.169400 104961.100000
261.127400 59188.800000
261.149600 95532.700000
261.163900 407544.800000
263.143100 773951.700000
263.179600 821202.700000
264.150600 90538.200000
265.158800 949680.900000
266.166600 690716.400000
267.137600 400773.200000
267.174400 5589426.000000
268.182200 2866831.500000
269.153500 1101015.100000
269.190000 3779871.200000
271.132700 68650.000000
271.169600 450578.600000
273.163800 484155.100000
276.151100 308281.300000
279.174300 1032129.600000
281.154300 693803.200000
281.190000 2274509.800000
283.169600 415344.200000
284.177100 106229.600000
285.184900 601647.800000
286.192700 593042.200000
287.200200 321528.800000
291.174500 1905388.800000
294.161800 398519.600000
296.177100 271376.900000
297.185100 2973487.500000
299.164000 70616.000000
299.200300 436563.900000
301.180200 207459.400000
309.185000 2960593.800000
312.172000 532660.200000
315.195300 213726.200000
327.195600 1713186.200000
345.206100 406645.100000
363.215500 265992.200000

>ms2
51.022800 78398.900000
53.002100 95683.800000
53.038600 595905.700000
55.017800 1629629.400000
55.054200 2214943.200000
57.033500 554629.000000
57.069900 176162.700000
61.028400 198228.900000
65.038500 402646.300000
67.054200 4326969.000000
69.033500 1340859.400000
69.069900 2127732.000000
71.049100 1055233.500000
75.044100 234416.200000
77.038400 761099.100000
79.054200 7279017.000000
81.033500 550441.300000
81.069900 7555269.500000
83.049100 5229551.500000
83.085500 300997.700000
85.028400 226896.500000
85.064800 241768.400000
91.054200 11617998.000000
93.069900 11473976.000000
94.041100 56107.200000
95.049200 2400193.800000
95.085500 5474175.000000
97.064800 19719828.000000
99.044100 1581565.000000
101.059600 51520.500000
103.038800 56271.200000
103.054300 782047.500000
104.062100 70219.900000
105.069900 18450374.000000
107.049100 2237869.500000
107.085500 6924621.000000
108.057100 101501.400000
109.064800 12515942.000000
109.101200 1183603.200000
111.044100 459816.200000
111.080500 1005860.500000
113.059700 235963.500000
115.054300 1541202.500000
116.062000 375553.500000
117.069900 6962434.500000
118.077900 59443.500000
119.085600 13000982.000000
121.064800 50474676.000000
123.080400 12280720.000000
125.059800 513351.900000
127.075300 101183.800000
128.062000 2974766.500000
129.069900 6462593.500000
130.077800 1500327.600000
131.085600 10830643.000000
132.056900 99996.100000
132.093400 238779.000000
133.064800 2114720.200000
133.101200 6013081.500000
134.072600 85806.500000
135.080400 4854682.500000
135.116800 1142465.400000
137.059600 487841.800000
137.096100 940943.100000
139.075400 270477.400000
141.069900 4310108.500000
142.077800 3308875.200000
143.085600 11328573.000000
144.057000 256811.800000
144.093400 1369121.500000
145.064800 2260732.800000
145.101200 13377557.000000
146.072800 313053.400000
146.109000 990883.200000
147.080400 4216180.500000
147.116800 10521480.000000
148.088300 484794.200000
149.096100 2094510.600000
149.132400 579030.800000
151.075300 224064.700000
151.111700 80271.800000
152.061900 263730.100000
153.069700 850927.500000
153.091100 90824.500000
154.077700 1722457.500000
155.060500 315596.500000
155.085500 6259130.500000
156.093400 1322099.100000
157.064800 741453.300000
157.101200 8482664.000000
158.072700 670693.700000
158.109000 313646.800000
159.080500 3744444.500000
159.116800 7196277.500000
160.088400 266506.800000
160.124700 187169.500000
161.096100 3489043.500000
161.132500 1333648.100000
162.104000 237553.900000
163.111700 6725541.500000
165.069800 1351582.800000
165.091000 94276.700000
165.127300 227577.500000
166.077700 851086.900000
167.085600 2815039.500000
168.093300 1673817.200000
169.101200 7357863.500000
170.072600 309699.900000
170.109000 820922.500000
171.080400 2192920.800000
171.116800 4952368.500000
172.088200 310158.000000
172.124700 945159.200000
173.096100 3795615.200000
173.132600 2303642.200000
174.103900 573771.200000
175.111800 3003535.200000
176.119400 190140.900000
177.090800 105199.000000
177.127200 405767.900000
178.077200 471625.400000
179.085600 1672827.500000
180.093300 1237701.500000
181.101200 3734051.200000
182.072600 90465.700000
182.109100 1169542.800000
183.080500 452915.800000
183.116900 5436105.000000
184.088400 361995.400000
184.124800 490457.700000
185.096100 1839293.400000
185.132500 3494315.800000
186.104000 203434.600000
186.140400 253647.700000
187.111800 2138900.200000
187.148000 454444.900000
188.119300 110356.100000
189.091100 94831.300000
189.127400 1405024.800000
190.077700 58343.800000
191.085100 459263.300000
191.106600 182541.800000
192.093300 1025472.200000
193.101200 2231894.000000
194.109000 999996.200000
195.080400 286010.800000
195.116900 3369019.800000
196.088200 312626.700000
196.124500 677505.400000
197.096100 1489855.100000
197.132500 2728801.500000
198.104100 428668.500000
198.140300 220850.800000
199.111800 1404426.200000
199.148100 1282433.900000
200.119400 375400.100000
201.127500 1111529.100000
203.085600 100445.700000
203.106700 195610.700000
203.142700 219722.700000
204.093800 159810.300000
205.101400 610420.400000
206.108900 854589.200000
207.116900 2182060.000000
208.088500 108089.600000
208.124500 834174.600000
209.096400 517264.200000
209.132500 3100853.800000
210.103800 270390.300000
210.140400 505022.200000
211.111800 1492473.600000
211.148200 1739758.000000
212.119700 583711.100000
212.155800 244452.500000
213.127500 1663753.600000
213.163900 314509.300000
214.135200 253496.500000
215.085800 72506.800000
215.143200 760049.900000
216.093400 83833.700000
217.101200 261653.300000
217.121900 54325.100000
218.109400 424965.300000
219.117000 751518.600000
220.124800 510704.100000
221.096400 227200.500000
221.132600 1304523.900000
222.140300 326113.600000
223.111700 547801.900000
223.148100 1447936.400000
224.119700 479469.800000
224.155700 61548.400000
225.127400 1669608.600000
225.163900 1016662.900000
226.135100 1016606.800000
226.171400 66960.000000
227.143100 886915.900000
227.179300 224393.900000
228.150900 776677.500000
229.101000 108411.300000
229.158900 187593.500000
230.108200 58694.800000
231.117000 92413.500000
231.138400 73628.500000
232.124800 234415.500000
233.096200 61918.800000
233.132600 673193.200000
234.104200 105982.400000
234.140100 323695.400000
235.111800 328149.000000
235.148100 890426.100000
236.119600 244011.700000
236.155600 93965.200000
237.127600 546113.200000
237.163400 326443.100000
238.135200 260847.600000
238.171300 72966.500000
239.143000 1666708.200000
239.179400 265696.500000
240.150900 101290.900000
241.158600 1572067.800000
242.166800 603177.600000
243.117100 219797.800000
243.138100 69802.400000
243.174800 513699.400000
245.132600 74858.100000
247.148100 233185.300000
248.119900 199672.000000
248.156200 93234.800000
249.126900 201202.700000
249.163600 609694.500000
250.135000 63655.800000
250.171400 78669.800000
251.143100 992422.100000
251.178900 213963.000000
252.151000 543965.000000
253.158700 3049096.500000
254.166900 437006.100000
255.174200 245627.300000
258.139800 104676.400000
263.143200 260850.100000
263.179400 189045.300000
264.152100 81550.800000
265.158400 299899.500000
266.166700 300800.200000
267.137700 209655.700000
267.174600 755476.800000
268.182300 1022123.200000
269.153600 174225.600000
269.189800 380650.800000
271.169200 200460.700000
276.150700 192130.600000
281.153500 299752.300000
281.189400 89886.700000
285.184300 70090.100000
286.192800 272111.200000
291.173700 198697.800000
294.160400 162834.700000
297.185100 341959.500000
309.185200 164879.100000
312.172100 108862.200000

>ms2
50.015100 194622.100000
51.022800 188365.400000
53.002200 282555.900000
53.038600 1820011.200000
55.017900 2855866.500000
55.054300 3439062.200000
57.033500 589953.400000
57.069800 92975.300000
59.049200 99307.600000
61.028500 83336.300000
63.022700 78899.500000
65.038600 1073680.600000
66.046400 70725.600000
67.054200 7290014.000000
69.033500 1569377.900000
69.069900 2360809.200000
71.049100 749673.700000
75.044000 109203.400000
77.038500 1740631.600000
78.046400 175568.600000
79.054200 13036814.000000
80.061800 58400.700000
81.033600 557291.600000
81.069900 8466552.000000
83.049100 4792677.500000
85.028500 80910.000000
85.064800 65659.400000
91.054300 23081862.000000
92.062100 107995.700000
93.069900 12082803.000000
94.041500 189577.600000
95.049200 5301783.000000
95.085600 4782799.000000
97.064900 15443421.000000
99.044000 1024911.600000
103.054200 2541118.500000
104.062100 217203.300000
105.044800 2235998.000000
105.069900 25438688.000000
106.077700 200113.000000
107.049200 2335341.200000
107.085500 5011530.000000
108.057000 225003.200000
109.064900 9560975.000000
109.101300 600523.300000
110.072700 58298.100000
111.044100 316522.100000
111.080400 405832.000000
113.059500 102608.800000
115.054300 3687242.000000
116.062100 1355218.900000
117.069900 9977120.000000
118.077900 327740.400000
119.085600 12510364.000000
120.057100 40703.800000
121.064800 33780980.000000
123.080400 7452990.000000
125.059800 219524.900000
127.054400 89679.700000
128.062100 7519924.500000
129.069900 9554669.000000
130.077800 3034289.000000
131.085600 11296295.000000
132.057000 310604.100000
132.093400 316640.700000
133.064900 1841109.800000
133.101200 3452526.200000
134.072700 239163.200000
135.080400 2069583.200000
135.116800 514825.900000
137.059700 259395.200000
137.096200 360554.900000
141.069900 5977516.000000
142.077800 5545113.000000
143.085600 9103113.000000
144.057000 388659.500000
144.093400 1990700.400000
145.064900 2053341.400000
145.101200 8061057.000000
146.072600 785720.100000
146.109000 574561.600000
147.080500 2532859.800000
147.116900 4581117.000000
148.088300 1200023.800000
149.096200 931722.200000
149.132700 72257.000000
152.062100 489300.100000
153.069900 2393396.800000
154.077700 3061611.800000
155.060500 788120.900000
155.085600 5703212.000000
156.093500 2055823.400000
157.064800 649311.900000
157.101200 5167314.000000
158.072600 1091294.900000
158.109300 352560.500000
159.080500 2422251.800000
159.116900 2690385.200000
160.088300 386088.200000
160.124500 56643.800000
161.096100 1666720.900000
161.132600 247105.800000
162.104200 76179.300000
163.111800 2457173.200000
165.069900 2726359.800000
166.077700 1474561.200000
167.085600 3426135.800000
168.093400 2231633.500000
169.064900 283474.100000
169.101200 4635335.000000
170.072700 259719.100000
170.109000 751360.600000
171.080400 1060143.800000
171.116900 2306848.000000
172.088300 255267.300000
172.124700 781965.600000
173.096200 1373721.100000
173.132600 717579.400000
174.104000 696385.800000
175.111900 864082.900000
176.119700 167385.600000
177.069900 48882.700000
177.091100 57470.000000
177.126600 49255.700000
178.077800 1245532.600000
179.085600 2694404.800000
180.093300 1563835.400000
181.065100 255558.700000
181.101200 3011960.200000
182.072600 167734.300000
182.109000 1130354.000000
183.080500 481592.200000
183.116900 2721534.500000
184.088500 497946.500000
184.124500 364800.400000
185.096200 958703.600000
185.132500 1385412.100000
186.103700 86879.100000
186.140300 65373.600000
187.111800 541543.200000
187.148100 75656.900000
188.119200 62842.700000
189.069200 81480.100000
189.090500 53162.900000
189.127400 433874.000000
191.085400 803676.900000
192.093300 1448518.200000
193.101200 2141942.800000
194.072900 103295.700000
194.109000 1052958.500000
195.080500 183865.100000
195.116900 1990173.000000
196.088500 229886.100000
196.124700 488738.300000
197.096200 1063362.000000
197.132500 1499122.000000
198.104600 383374.800000
198.140400 103362.600000
199.111800 718444.100000
199.148200 460162.400000
200.119400 357976.600000
201.127600 290700.800000
202.077900 196999.000000
203.085300 471951.000000
204.093700 210414.600000
205.101300 872159.400000
206.109100 645059.000000
207.080300 72073.000000
207.116900 1327670.000000
208.088500 215231.000000
208.124500 567474.700000
209.096100 443642.800000
209.132600 1159343.500000
210.104300 262851.700000
210.140300 300100.800000
211.111800 939300.900000
211.148300 605322.500000
212.119800 195309.500000
212.156000 74765.200000
213.127200 751868.900000
213.164600 70116.900000
214.135600 231045.900000
215.085700 103304.500000
215.143000 200435.500000
216.092800 165147.200000
217.101400 344416.200000
218.109400 229772.600000
219.117200 600709.600000
220.124900 241543.900000
221.096100 189447.300000
221.132300 520827.800000
222.104400 93633.700000
222.140600 73850.500000
223.112200 375594.200000
223.148400 361614.000000
224.119900 262536.500000
225.127600 532634.000000
225.164100 333699.000000
226.135200 630526.200000
227.143100 582895.800000
228.151100 540047.900000
229.101000 71991.600000
230.109700 67199.800000
231.117000 201354.900000
232.124800 75069.500000
233.095500 61895.400000
233.132800 280624.900000
234.140400 74236.100000
235.112100 105584.100000
235.148700 469481.200000
236.119800 92137.000000
237.127400 286901.700000
237.163600 49595.700000
238.135300 268836.400000
239.143200 522071.000000
240.150800 66543.600000
241.158700 262591.100000
242.166500 94736.000000
243.117300 154459.800000
248.119800 57095.200000
250.135300 69809.200000
251.143400 344870.600000
251.179300 72542.600000
252.150800 199410.600000
253.158800 1721186.600000
255.137600 61614.800000
261.127300 175193.100000
263.142900 86144.100000
265.158900 75143.300000
267.138200 57120.600000
267.175000 83180.900000
271.169400 56356.900000
281.154100 90498.900000

>ms2
50.015100 288192.500000
51.022900 235025.500000
53.002200 344232.800000
53.038600 2987209.000000
53.997500 44638.800000
55.017900 3199945.800000
55.054200 4826365.000000
57.033500 644484.300000
57.069900 67675.200000
63.022800 58825.400000
65.038600 2580080.200000
66.046400 95433.300000
67.054200 8681185.000000
67.989300 58014.600000
69.033500 1328259.800000
69.069900 1754378.400000
71.049100 572366.600000
77.038500 3278570.000000
78.046400 378521.600000
79.054200 16442458.000000
80.062200 97409.300000
81.033500 1027143.000000
81.069900 7399693.500000
82.041300 69112.700000
83.049100 3915358.800000
90.046300 70333.200000
91.054200 34810204.000000
92.062100 226867.100000
93.069900 10428628.000000
94.041400 471760.500000
95.049200 9748045.000000
95.085500 3163623.800000
96.056800 45667.600000
97.064800 9672392.000000
99.044100 498285.400000
102.046500 186739.700000
103.054200 4342418.500000
104.062000 809044.600000
105.044800 4368287.500000
105.069900 24452728.000000
106.077700 94559.700000
107.049200 2672883.200000
107.085500 2683665.000000
108.057000 447356.900000
109.064800 6145179.000000
109.101000 328577.600000
110.072900 47668.700000
111.044100 172654.100000
111.080500 149876.500000
115.054300 7615962.000000
116.062100 2339329.500000
117.069900 9703381.000000
118.077800 462597.300000
119.085600 9244608.000000
120.057000 78233.200000
121.064800 20602104.000000
123.080400 4425348.500000
125.059800 74434.000000
127.054200 346765.300000
128.062100 12616909.000000
129.069900 11528856.000000
130.077800 4035190.500000
131.049200 605436.400000
131.085600 7516112.000000
132.057000 640823.600000
132.093400 217774.300000
133.064900 1306745.500000
133.101200 1574369.800000
134.072800 205660.100000
135.080500 786944.800000
135.116900 77057.300000
137.059700 79364.700000
137.096100 107754.900000
139.053600 42874.100000
141.069900 8221305.000000
142.077800 6784540.000000
143.085600 5876203.500000
144.057000 766134.700000
144.093400 1142181.400000
145.064900 2173214.800000
145.101200 3913723.500000
146.072700 811411.100000
146.109000 182853.200000
147.080400 1459484.500000
147.116800 1409176.900000
148.088300 1309788.900000
149.096300 228213.200000
152.062000 1241482.900000
153.069900 4656475.500000
154.077700 3343572.500000
155.060500 1389091.500000
155.085500 5321567.000000
156.093400 1767367.800000
157.064800 764717.100000
157.101200 2445561.500000
158.072700 1045521.000000
158.109100 234865.600000
159.080500 1486500.000000
159.116900 772047.100000
160.088400 209662.900000
161.096100 662909.200000
163.111800 810325.300000
165.069900 4432488.000000
166.077800 1903866.000000
167.085600 3636580.500000
168.093400 1457513.000000
169.064800 641063.800000
169.076200 187474.400000
169.101200 2565705.500000
170.072700 258910.900000
170.109100 445725.200000
171.080400 615966.100000
171.116800 1063340.600000
172.088400 101305.400000
172.124800 281339.200000
173.096200 459360.000000
173.132700 100077.800000
174.104000 595355.700000
175.111700 181454.600000
178.077800 2093243.500000
179.085600 2863131.500000
180.093400 1198871.000000
181.065000 360544.200000
181.101200 2391999.200000
182.072700 202624.500000
182.109100 684193.600000
183.080400 569728.700000
183.117000 1359807.400000
184.088100 257247.900000
184.124600 199837.400000
185.096300 485149.800000
185.132500 312103.500000
186.103900 85118.200000
186.140300 57378.700000
187.111900 92299.200000
189.069900 177304.700000
189.127600 75536.900000
190.077700 329005.300000
191.085500 1413469.400000
192.093300 1319360.900000
193.101300 1813400.000000
194.072700 87124.100000
194.109100 722912.600000
195.080500 489925.200000
195.117000 1191422.500000
196.088200 273357.700000
196.124700 230427.800000
197.096000 501922.800000
197.132300 476930.700000
198.104000 187735.900000
199.111800 258734.500000
199.148500 103484.800000
200.119400 101658.100000
202.077700 407191.900000
203.085500 501118.800000
204.093300 403026.300000
205.101500 818821.900000
206.109200 353981.100000
207.080500 223043.000000
207.116700 525129.900000
208.087800 47065.600000
208.124800 94272.000000
209.096100 329030.600000
209.133000 323576.100000
210.104200 210612.500000
210.140000 95444.400000
211.111800 526932.400000
211.148000 220688.200000
212.119700 101954.700000
213.127200 399860.600000
215.085500 194238.400000
216.093300 203049.800000
217.101200 277291.300000
218.109000 200584.700000
219.080500 70629.900000
219.116900 411406.700000
220.124600 158410.300000
221.095900 102541.000000
221.132400 100037.200000
222.103900 56075.300000
223.111600 196657.800000
223.147700 68857.400000
225.127700 318305.100000
225.163700 43346.600000
226.135200 180299.000000
227.143000 389199.500000
228.093500 105995.900000
228.150800 206577.400000
229.101200 97169.400000
231.116800 81769.600000
233.097000 59649.400000
233.132500 247292.700000
235.148200 66147.900000
237.127100 190335.800000
239.143100 228600.700000
241.158600 63963.000000
251.143800 68284.500000
253.158900 633103.800000

>ms2
50.015100 1006272.400000
51.022900 859684.200000
53.002200 845802.000000
53.038600 6413832.500000
53.997500 156139.700000
55.017900 3518109.000000
55.054300 4550650.000000
57.033500 695471.500000
63.022800 335868.400000
65.038600 8225695.500000
66.046400 424027.900000
67.054200 7153219.000000
67.989300 76536.500000
68.997100 72994.100000
69.033500 518885.100000
69.069900 903228.100000
71.049100 94172.000000
75.022800 96317.400000
76.030500 52628.300000
77.038500 6431225.500000
78.046400 1620004.600000
79.054200 18284472.000000
80.062000 324925.900000
81.033600 1072481.800000
81.069900 3741679.500000
82.041400 156998.500000
83.049100 2374473.200000
89.038600 328924.900000
90.046400 80522.400000
91.054300 42336432.000000
92.062100 353444.500000
93.069900 3783506.200000
94.041400 778498.200000
95.049200 17806710.000000
95.085500 995817.600000
96.056700 64042.300000
97.064800 3340204.200000
99.044000 195877.500000
102.046500 611643.200000
103.054200 6521800.500000
104.062000 1216039.000000
105.044800 9311377.000000
105.069900 13350138.000000
107.049200 2105504.200000
107.085400 497372.000000
108.057000 349087.600000
109.064800 1636973.500000
115.054300 17485534.000000
116.062100 3885531.500000
117.069900 6081201.000000
118.077600 146780.500000
119.049300 157510.700000
119.060500 185014.500000
119.085600 2787407.500000
120.056900 88411.000000
121.064900 3917543.500000
123.080400 601434.600000
126.046600 197191.900000
127.054300 1247824.400000
128.062100 20015020.000000
129.069900 10261929.000000
130.077800 1853254.500000
131.049100 1136463.200000
131.085600 2249395.000000
132.057100 371715.800000
132.093600 59902.200000
133.064800 982033.200000
133.101200 163975.300000
135.080500 90884.000000
139.054200 249855.600000
140.062100 197710.200000
141.069900 10640970.000000
142.077800 2906035.500000
143.085600 1627807.200000
144.057100 615843.700000
144.093300 239194.800000
145.064800 2215617.200000
145.101400 460563.000000
146.072600 219614.100000
147.080500 1194209.500000
148.088300 621408.900000
151.054300 47450.600000
152.062100 4275126.000000
153.069900 6583363.500000
154.077800 1881856.400000
155.060400 2758215.500000
155.085600 2433522.500000
156.093500 402638.600000
157.064900 696828.900000
157.101300 273920.500000
158.072700 198079.400000
159.080400 458300.000000
161.095700 61851.800000
164.062100 63417.100000
165.070000 8072141.500000
166.077800 1546895.000000
167.085600 2602426.200000
168.056900 100227.500000
168.093500 575962.600000
169.065000 579477.700000
169.076100 43539.100000
169.101000 503760.800000
170.072700 60837.100000
170.108700 76127.900000
171.080400 152586.600000
171.116700 89500.900000
173.096100 95613.500000
174.103800 73196.400000
176.061800 65605.500000
177.070000 231724.900000
178.077700 3861775.000000
179.085600 2140757.500000
180.093500 365306.400000
181.064900 520371.100000
181.101200 719916.500000
182.072600 91011.200000
182.108800 56061.200000
183.080600 216213.600000
183.116700 258699.900000
189.070000 701861.800000
190.077800 725107.200000
191.085600 1431314.900000
192.093400 479522.100000
193.101200 630879.700000
194.072800 91860.600000
195.080400 172676.500000
195.117000 76317.900000
197.096300 86962.400000
202.077700 653580.400000
203.085400 544371.200000
204.093500 176827.800000
205.101300 268408.500000
207.080800 51072.600000
209.132500 46022.700000
211.112000 83915.700000
215.085700 212387.900000
217.100900 62359.000000
226.078000 48439.700000
237.127600 50255.800000

>ms2
50.015100 2476230.800000
51.022900 2483948.200000
52.030700 37978.600000
53.002200 1098654.600000
53.038600 6504994.500000
53.997500 234405.500000
55.017900 2428469.200000
55.054300 2866386.200000
57.033500 408749.300000
61.007500 42651.300000
62.015000 158074.400000
63.022900 1092443.000000
65.038600 13778780.000000
66.046400 815624.200000
67.054200 3565718.000000
67.989200 154566.000000
69.033500 253699.800000
69.069900 354178.600000
74.015000 76408.400000
75.022900 256554.700000
77.038500 7368942.500000
78.046400 3476722.500000
79.054200 11370157.000000
80.062200 293273.000000
81.033500 1061546.500000
81.069900 1179355.900000
82.041400 289209.100000
83.049100 891511.300000
89.038600 1484127.500000
90.046500 91609.200000
91.054300 31275846.000000
92.062100 188729.500000
93.069900 878459.900000
94.041400 813586.800000
95.049200 18024550.000000
97.064800 582274.100000
101.038600 90862.800000
102.046500 2327009.800000
103.054200 4970567.000000
104.062100 803123.500000
105.044800 8988975.000000
105.069900 4210866.000000
106.077800 61267.000000
107.049100 1294426.500000
108.057000 176419.500000
109.064800 368939.300000
114.046400 79496.200000
115.054300 24964856.000000
116.062100 2393629.200000
117.069900 2626614.500000
118.078000 55596.200000
119.049200 236476.500000
119.060500 42451.500000
119.085600 342798.500000
120.056900 53247.300000
121.064900 495851.900000
126.046500 804598.200000
127.054200 1808994.800000
128.062100 20256510.000000
129.069900 4875264.000000
130.077700 325299.000000
131.049200 923214.800000
131.085600 417326.500000
132.057000 196089.500000
133.064900 398583.600000
139.054300 756616.800000
140.062100 79751.900000
141.069900 7950143.000000
142.077800 749829.800000
143.085500 415999.600000
144.056900 345488.500000
145.064900 1846105.200000
147.080500 633265.900000
150.046400 147647.600000
151.054400 196158.700000
152.062100 7317047.500000
153.069900 4579031.500000
154.077800 822604.500000
155.060400 2906716.000000
155.085500 694971.600000
157.064800 238399.000000
159.080800 61449.800000
163.054300 225973.200000
164.062000 429074.900000
165.070000 7904187.000000
166.077700 777039.100000
167.085600 748717.700000
168.056900 212297.600000
169.064900 772866.900000
169.101300 67711.300000
176.062200 496950.200000
177.069800 597194.800000
178.077800 2930427.800000
179.060500 245266.400000
179.085600 794232.000000
180.093400 52648.500000
181.064800 307279.300000
181.101300 69536.300000
182.072800 50520.700000
189.069900 1376001.800000
190.077600 497829.800000
191.085500 546471.100000
192.093400 150556.300000
195.080400 52648.500000
201.069900 52195.300000
202.077700 769528.600000
203.085800 248819.800000
205.101900 50570.700000
213.069500 43559.700000
215.085500 152359.000000
226.077500 63398.500000
228.093800 49663.500000

>ms2
50.015100 4300094.000000
51.023000 6251586.000000
52.030700 81641.700000
53.002200 1107037.900000
53.038600 4861065.000000
53.997500 251072.500000
55.017900 1706827.000000
55.054200 1509841.100000
57.033500 235193.600000
61.007300 85777.100000
62.015100 437585.000000
63.022900 2182186.200000
65.038600 15659659.000000
66.046400 699409.100000
67.054200 1482295.900000
67.989300 174633.900000
68.997200 48718.000000
69.033500 205333.000000
74.015000 266761.300000
75.022900 681699.800000
76.030700 485278.000000
77.038600 6151474.500000
78.046400 3737308.500000
79.054200 4921604.500000
80.062100 47469.300000
81.033500 783344.400000
81.069900 241239.000000
82.041300 169937.600000
83.049200 368799.100000
89.038600 2927630.500000
90.046500 60159.800000
91.054300 17715268.000000
92.062000 52295.700000
93.069900 192683.100000
94.041400 564703.900000
95.049200 13272549.000000
97.064800 81991.500000
101.038600 85150.200000
102.046400 3514128.200000
103.054300 3005519.500000
104.062000 316048.800000
105.044800 7170240.500000
105.069900 958083.500000
107.049200 772102.200000
109.064800 152075.600000
114.046300 72258.400000
115.054300 21246898.000000
116.062100 821230.600000
117.069900 748122.100000
119.049300 88913.600000
119.085600 151175.700000
126.046400 1261842.400000
127.054300 1816684.600000
128.062100 12929847.000000
129.069900 1227601.900000
131.049200 498249.000000
131.085500 44028.500000
132.057000 85300.900000
133.064700 67556.400000
139.054300 1228413.000000
140.062100 59741.400000
141.069900 3146924.800000
142.077700 69323.200000
144.057100 68343.000000
145.064900 1395543.900000
147.080500 171292.000000
150.046400 508611.400000
151.054300 231257.200000
152.062100 6356504.500000
153.069900 1528890.400000
154.077800 199540.800000
155.060400 2247246.200000
157.065100 58248.500000
163.054100 701086.200000
164.062100 593893.900000
165.070000 4401172.500000
166.078000 92623.700000
167.085400 84791.500000
168.057200 333658.900000
169.064900 1374788.500000
176.062100 804749.400000
177.069800 435694.700000
178.077700 1159268.400000
179.060400 364174.800000
179.085600 185509.200000
181.065000 49118.500000
189.069900 1338169.200000
190.077900 68969.800000
191.085500 157676.700000
201.069900 46908.100000
202.077700 525355.200000
203.085600 50740.900000
213.069500 48428.900000
215.085700 77669.800000
219.080400 48397.100000

